>compound EA01961035
>parentmass 305.0968
>ionization [M-H]-
>formula C13H12F2N6O
>rt 312.000000
>profile orbitrap
#smiles_iso C1=CC(=C(C=C1F)F)C(CN2C=NC=N2)(CN3C=NC=N3)O
#smiles_can C1=CC(=C(C=C1F)F)C(CN2C=NC=N2)(CN3C=NC=N3)O
#inchikey RFHAOTPXVQNOHP-UHFFFAOYSA-N
#pubchem_id 3365
#mb_accession EA032851,EA032864

>ms2peaks
108.020400 14671.300000
191.069000 10922746.100000
222.048500 39039.900000

>ms2peaks
191.068900 4267835.400000
222.048800 7717.900000

