>compound EA02745762
>parentmass 273.8509
>ionization [M-H]-
>formula C7H3Br2NO
>rt 498.000000
>profile orbitrap
#smiles_iso C1=C(C=C(C(=C1Br)O)Br)C#N
#smiles_can C1=C(C=C(C(=C1Br)O)Br)C#N
#inchikey UPMXNNIRAGDFEH-UHFFFAOYSA-N
#pubchem_id 15531
#mb_accession EA002451,EA002464

>ms2
78.918900 125582.700000
273.850800 17966.000000

>ms2
78.918900 37240.100000
273.850500 5282.900000

