>compound EA04662798
>parentmass 240.103
>ionization [M-H]-
>formula C15H15NO2
>rt 876.000000
>profile orbitrap
#smiles_iso CC1=C(C(=CC=C1)NC2=CC=CC=C2C(=O)O)C
#smiles_can CC1=C(C(=CC=C1)NC2=CC=CC=C2C(=O)O)C
#inchikey HYYBABOKPJLUIN-UHFFFAOYSA-N
#pubchem_id 4044
#mb_accession EA020851,EA020864

>ms2peaks
180.081700 21332.400000
196.113600 21266774.500000

>ms2peaks
196.113600 8597049.300000
240.103000 9296.700000

