>compound EA06012969
>parentmass 444.0207
>ionization [M-H]-
>formula C13H9F6N5O4S
>rt 630.000000
>profile orbitrap
#smiles_iso COC1=NC(=NC(=N1)NC(=O)NS(=O)(=O)C2=CC=CC=C2C(F)(F)F)C(F)(F)F
#smiles_can COC1=NC(=NC(=N1)NC(=O)NS(=O)(=O)C2=CC=CC=C2C(F)(F)F)C(F)(F)F
#inchikey KVEQCVKVIFQSGC-UHFFFAOYSA-N
#pubchem_id 11657899
#mb_accession EA274051,EA274064

>ms2
136.012900 38436.600000
161.008400 44517.400000
178.011000 11992.000000
193.034600 11362020.500000
194.037100 32045.300000
224.000100 377285.500000
401.014800 31236.800000

>ms2
136.013000 7145.200000
161.008300 9683.600000
193.034500 3982306.100000
224.000000 102629.700000
401.014500 4564.700000

