>compound EA13072671
>parentmass 262.976
>ionization [M-H]-
>formula C5HF9O2
>rt 438.000000
>profile orbitrap
#smiles_iso C(=O)(C(C(C(C(F)(F)F)(F)F)(F)F)(F)F)O
#smiles_can C(=O)(C(C(C(C(F)(F)F)(F)F)(F)F)(F)F)O
#inchikey CXZGQIAOTKWCDB-UHFFFAOYSA-N
#pubchem_id 75921
#mb_accession EA271451

>ms2
196.983400 13509.000000
218.986200 7941451.700000

