>compound EA18948841
>parentmass 462.9441
>ionization [M-H]-
>formula C13H4Cl2F6N4O4
>rt 954.000000
>profile orbitrap
#smiles_iso C1=C(C=NC(=C1Cl)NC2=C(C=C(C(=C2[N+](=O)[O-])Cl)C(F)(F)F)[N+](=O)[O-])C(F)(F)F
#smiles_can C1=C(C=NC(=C1Cl)NC2=C(C=C(C(=C2[N+](=O)[O-])Cl)C(F)(F)F)[N+](=O)[O-])C(F)(F)F
#inchikey UZCGKGPEKUCDTF-UHFFFAOYSA-N
#pubchem_id 91731
#mb_accession EA011951,EA011964

>ms2peaks
386.952900 2001353.700000
397.977100 10819115.500000
404.950200 32440.500000
415.943100 7218580.900000

>ms2peaks
369.949800 7219.100000
386.953000 1196233.900000
397.977000 7028357.100000
404.951100 18963.200000
415.943000 4703610.100000

