>compound EA20862143
>parentmass 252.9588
>ionization [M-H]-
>formula C7H5Cl2FN2O3
>rt 414.000000
>profile orbitrap
#smiles_iso C(C(=O)O)OC1=NC(=C(C(=C1Cl)N)Cl)F
#smiles_can C(C(=O)O)OC1=NC(=C(C(=C1Cl)N)Cl)F
#inchikey MEFQWPUMEMWTJP-UHFFFAOYSA-N
#pubchem_id 50465
#mb_accession EA013451,EA013464

>ms2peaks
172.992500 28967.700000
188.962300 10759.500000
194.953500 1927234.300000
216.982100 139605.500000
232.952700 1582800.700000

>ms2peaks
172.992000 3508.800000
194.953500 862558.000000
216.982000 33072.800000
232.952700 879403.100000

