>compound EA23109448
>parentmass 264.1241
>ionization [M-H]-
>formula C14H19NO4
>rt 450.000000
>profile orbitrap
#smiles_iso CCC1=CC=CC(=C1N(COCC)C(=O)C(=O)O)C
#smiles_can CCC1=CC=CC(=C1N(COCC)C(=O)C(=O)O)C
#inchikey OTKTUNJJKYTOFF-UHFFFAOYSA-N
#pubchem_id 15842091
#mb_accession EA010251,EA010264

>ms2peaks
134.097600 68631.400000
144.081900 83051.700000
146.097600 9666822.500000
147.101500 12515.100000
148.113000 24794.300000
192.139700 47899.900000

>ms2peaks
134.097200 12892.000000
144.081500 10908.300000
146.097600 4062028.300000
148.112900 4106.000000
192.139000 8653.800000

