>compound EA25530164
>parentmass 312.9728
>ionization [M-H]-
>formula C6HF11O2
>rt 558.000000
>profile orbitrap
#smiles_iso C(=O)(C(C(C(C(C(F)(F)F)(F)F)(F)F)(F)F)(F)F)O
#smiles_can C(=O)(C(C(C(C(C(F)(F)F)(F)F)(F)F)(F)F)(F)F)O
#inchikey PXUULQAPEKKVAH-UHFFFAOYSA-N
#pubchem_id 67542
#mb_accession EA271551

>ms2
268.983400 4186888.100000
312.973400 8488.600000

