>compound EA25763665
>parentmass 259.0088
>ionization [M-H]-
>formula C9H13BrN2O2
>rt 420.000000
>profile orbitrap
#smiles_iso CCC(C)N1C(=O)C(=C(NC1=O)C)Br
#smiles_can CCC(C)N1C(=O)C(=C(NC1=O)C)Br
#inchikey CTSLUCNDVMMDHG-UHFFFAOYSA-N
#pubchem_id 9411
#mb_accession EA026651,EA026664

>ms2
78.918900 246036.200000
159.940700 72115.300000
202.946600 8447964.800000
259.007700 8471.100000

>ms2
78.918900 58597.100000
159.940300 16017.700000
202.946300 3396562.000000

