>compound EA29260833
>parentmass 360.1008
>ionization [M-H]-
>formula C19H20ClNO4
>rt 630.000000
>profile orbitrap
#smiles_iso CC(C)(C(=O)O)OC1=CC=C(C=C1)CCNC(=O)C2=CC=C(C=C2)Cl
#smiles_can CC(C)(C(=O)O)OC1=CC=C(C=C1)CCNC(=O)C2=CC=C(C=C2)Cl
#inchikey IIBYAHWJQTYFKB-UHFFFAOYSA-N
#pubchem_id 39042
#mb_accession EA020951,EA020964

>ms2
274.064200 11261791.400000
316.111700 81806.000000

>ms2
274.064100 4467255.500000
316.110900 17283.200000

