>compound EA32034312
>parentmass 238.1449
>ionization [M-H]-
>formula C13H21NO3
>rt 126.000000
>profile orbitrap
#smiles_iso CC(C)(C)NCC(C1=CC(=C(C=C1)O)CO)O
#smiles_can CC(C)(C)NCC(C1=CC(=C(C=C1)O)CO)O
#inchikey NDAUXUAQIAJITI-UHFFFAOYSA-N
#pubchem_id 2083
#mb_accession EA285151,EA285164

>ms2
218.119000 53456.600000
220.134600 490196.000000

>ms2
218.118900 23060.700000
220.134500 278684.600000

