>compound EA36405941
>parentmass 241.1016
>ionization [M-H]-
>formula C11H18N2O2S
>rt 540.000000
>profile orbitrap
#smiles_iso CCCC(C)C1(C(=O)NC(=S)NC1=O)CC
#smiles_can CCCC(C)C1(C(=O)NC(=S)NC1=O)CC
#inchikey IUJDSEJGGMCXSG-UHFFFAOYSA-N
#pubchem_id 3000715
#mb_accession EA274251,EA274264

>ms2
100.981600 38374.200000
138.128900 16961.600000

>ms2
100.981500 8382.400000
138.129000 3173.900000

