>compound EA38285222
>parentmass 150.0561
>ionization [M-H]-
>formula C8H9NO2
>rt 132.000000
>profile orbitrap
#smiles_iso CC(=O)NC1=CC=C(C=C1)O
#smiles_can CC(=O)NC1=CC=C(C=C1)O
#inchikey RZVAJINKPMORJF-UHFFFAOYSA-N
#pubchem_id 1983
#mb_accession EA024351,EA024364

>ms2peaks
107.037600 43169.200000
150.056200 50585.300000

>ms2peaks
107.037500 5549.000000
150.056000 17041.600000

