>compound EA39673697
>parentmass 227.048
>ionization [M-H]-
>formula C11H13ClO3
>rt 714.000000
>profile orbitrap
#smiles_iso CC1=C(C=CC(=C1)Cl)OCCCC(=O)O
#smiles_can CC1=C(C=CC(=C1)Cl)OCCCC(=O)O
#inchikey LLWADFLAOKUBDR-UHFFFAOYSA-N
#pubchem_id 7207
#mb_accession EA271051,EA271064

>ms2peaks
141.011200 165808.300000
158.978600 50813.501480

>ms2peaks
141.011100 38558.500000
158.978400 48591.914350

