>compound EA39033584
>parentmass 326.0646
>ionization [M-H]-
>formula C15H12F3NO4
>rt 648.000000
>profile orbitrap
#smiles_iso CC(C(=O)O)OC1=CC=C(C=C1)OC2=NC=C(C=C2)C(F)(F)F
#smiles_can CC(C(=O)O)OC1=CC=C(C=C1)OC2=NC=C(C=C2)C(F)(F)F
#inchikey YUVKUEAFAVKILW-UHFFFAOYSA-N
#pubchem_id 91701
#mb_accession EA014751,EA014764

>ms2
162.016000 77786.300000
253.036300 67132.000000
254.043400 27448991.400000
282.074800 396051.800000

>ms2
253.035500 34457.300000
254.043400 17670527.100000
282.074300 152022.800000

