>compound EA40803696
>parentmass 218.9621
>ionization [M-H]-
>formula C8H6Cl2O3
>rt 426.000000
>profile orbitrap
#smiles_iso COC1=C(C=CC(=C1C(=O)O)Cl)Cl
#smiles_can COC1=C(C=CC(=C1C(=O)O)Cl)Cl
#inchikey IWEDIXLBFLAXBO-UHFFFAOYSA-N
#pubchem_id 3030
#mb_accession EA027551,EA027564

>ms2peaks
150.947900 4263.300000
174.972300 163268.700000

>ms2peaks
150.946800 2456.100000
174.972300 318470.400000

