>compound EA46582798
>parentmass 161.022
>ionization [M-H]-
>formula C7H5F3O
>rt 534.000000
>profile orbitrap
#smiles_iso C1=CC(=CC=C1C(F)(F)F)O
#smiles_can C1=CC(=CC=C1C(F)(F)F)O
#inchikey BAYGVMXZJBFEMB-UHFFFAOYSA-N
#pubchem_id 67874
#mb_accession EA067351

>ms2
141.015600 106102.800000
161.022200 1198301.900000

