>compound EA52004988
>parentmass 195.9129
>ionization [M-H]-
>formula C5H2Cl3NO
>rt 582.000000
>profile orbitrap
#smiles_iso C1=C(C(=O)NC(=C1Cl)Cl)Cl
#smiles_can C1=C(C(=O)NC(=C1Cl)Cl)Cl
#inchikey WCYYAQFQZQEUEN-UHFFFAOYSA-N
#pubchem_id 23017
#mb_accession EA270451,EA270464

>ms2
159.936600 10768.800000
195.912900 1222484.400000

>ms2
159.936400 3736.100000
195.912900 719332.600000

