>compound EA53063630
>parentmass 263.0485
>ionization [M-H]-
>formula C9H10F2N2O5
>rt 114.000000
>profile orbitrap
#smiles_iso C1=CN(C(=O)NC1=O)[C@H]2C([C@@H]([C@H](O2)CO)O)(F)F
#smiles_can C1=CN(C(=O)NC1=O)C2C(C(C(O2)CO)O)(F)F
#inchikey FIRDBEQIJQERSE-QPPQHZFASA-N
#pubchem_id 9871558
#mb_accession EA264951

>ms2
111.020300 461069.200000
220.042700 35482.400000

