>compound EA53591799
>parentmass 264.1241
>ionization [M-H]-
>formula C14H19NO4
>rt 444.000000
>profile orbitrap
#smiles_iso CCC1=C(C(=CC=C1)CC)N(COC)C(=O)C(=O)O
#smiles_can CCC1=C(C(=CC=C1)CC)N(COC)C(=O)C(=O)O
#inchikey MHCYOELBTPOBIU-UHFFFAOYSA-N
#pubchem_id 14924483
#mb_accession EA010051,EA010064

>ms2
148.113300 44019.100000
158.097200 14338.300000
160.113200 10213791.500000
162.093200 14375.100000
192.139400 200489.100000

>ms2
148.113000 13905.700000
160.113200 6982620.200000
192.138800 68903.700000

