>compound EA57038809
>parentmass 218.9621
>ionization [M-H]-
>formula C8H6Cl2O3
>rt 546.000000
>profile orbitrap
#smiles_iso C1=CC(=C(C=C1Cl)Cl)OCC(=O)O
#smiles_can C1=CC(=C(C=C1Cl)Cl)OCC(=O)O
#inchikey OVSKIKFHRZPJSS-UHFFFAOYSA-N
#pubchem_id 1486
#mb_accession EA026751,EA026764

>ms2peaks
160.956900 4430785.700000
174.972500 98253.100000

>ms2peaks
160.956900 4161305.800000
174.972100 51374.000000

