>compound EA62039117
>parentmass 213.0557
>ionization [M-H]-
>formula C13H10O3
>rt 666.000000
>profile orbitrap
#smiles_iso C1=CC=C(C=C1)OC2=CC=CC(=C2)C(=O)O
#smiles_can C1=CC=C(C=C1)OC2=CC=CC(=C2)C(=O)O
#inchikey NXTDJHZGHOFSQG-UHFFFAOYSA-N
#pubchem_id 19539
#mb_accession EA032651,EA032664

>ms2peaks
93.034500 215741.900000
167.050200 16408.400000
169.066100 3254893.000000
213.055400 10298.900000

>ms2peaks
93.034400 58884.100000
167.049500 4433.100000
169.066000 1579015.300000

