>compound EA63336873
>parentmass 304.1303
>ionization [M-H]-
>formula C15H19N3O4
>rt 342.000000
>profile orbitrap
#smiles_iso CC(C)C1(C(=O)NC(=N1)C2=C(C=C(C=N2)COC)C(=O)O)C
#smiles_can CC(C)C1(C(=O)NC(=N1)C2=C(C=C(C=N2)COC)C(=O)O)C
#inchikey NUPJIGQFXCQJBK-UHFFFAOYSA-N
#pubchem_id 86137
#mb_accession EA293951

>ms2
217.086700 62577.400000
260.140900 6965790.500000

