>compound EA66602145
>parentmass 212.9792
>ionization [M-H]-
>formula C4HF7O2
>rt 306.000000
>profile orbitrap
#smiles_iso C(=O)(C(C(C(F)(F)F)(F)F)(F)F)O
#smiles_can C(=O)(C(C(C(F)(F)F)(F)F)(F)F)O
#inchikey YPJUNDFVDDCYIH-UHFFFAOYSA-N
#pubchem_id 9777
#mb_accession EA271351

>ms2peaks
168.989600 5455672.800000
212.978900 100888.100000

