>compound EA66134220
>parentmass 232.9778
>ionization [M-H]-
>formula C9H8Cl2O3
>rt 642.000000
>profile orbitrap
#smiles_iso CC(C(=O)O)OC1=C(C=C(C=C1)Cl)Cl
#smiles_can CC(C(=O)O)OC1=C(C=C(C=C1)Cl)Cl
#inchikey MZHCENGPTKEIGP-UHFFFAOYSA-N
#pubchem_id 8427
#mb_accession EA027051,EA027064

>ms2
160.956900 9792594.500000
188.988200 99417.800000

>ms2
160.956800 5364760.300000
188.987800 21185.800000

