>compound EA67082813
>parentmass 229.0289
>ionization [M-H]-
>formula C8H10N2O4S
>rt 144.000000
>profile orbitrap
#smiles_iso COC(=O)NS(=O)(=O)C1=CC=C(C=C1)N
#smiles_can COC(=O)NS(=O)(=O)C1=CC=C(C=C1)N
#inchikey VGPYEHKOIGNJKV-UHFFFAOYSA-N
#pubchem_id 18752
#mb_accession EA015651,EA015664

>ms2
133.040800 53940.300000
197.002900 990856.400000

>ms2
133.040500 9028.700000
197.002700 358443.800000

