>compound EA74066079
>parentmass 351.2078
>ionization [M-H]-
>formula C22H28N2O2
>rt 750.000000
>profile orbitrap
#smiles_iso CCC1=CC=C(C=C1)C(=O)NN(C(=O)C2=CC(=CC(=C2)C)C)C(C)(C)C
#smiles_can CCC1=CC=C(C=C1)C(=O)NN(C(=O)C2=CC(=CC(=C2)C)C)C(C)(C)C
#inchikey QYPNKSZPJQQLRK-UHFFFAOYSA-N
#pubchem_id 91773
#mb_accession EA295251

>ms2peaks
105.070800 177499.900000
149.060800 10982044.300000

