>compound EA79614082
>parentmass 253.087
>ionization [M-H]-
>formula C16H14O3
>rt 576.000000
>profile orbitrap
#smiles_iso CC(C1=CC(=CC=C1)C(=O)C2=CC=CC=C2)C(=O)O
#smiles_can CC(C1=CC(=CC=C1)C(=O)C2=CC=CC=C2)C(=O)O
#inchikey DKYWVDODHFEZIM-UHFFFAOYSA-N
#pubchem_id 3825
#mb_accession EA020551,EA020564

>ms2
169.065300 5010.500000
185.060900 15958.800000
197.061100 928602.300000
209.097400 2352935.100000
213.091600 6157.600000
223.076400 10779.000000
241.087200 6516.100000

>ms2
185.060800 4399.700000
197.061000 512858.700000
209.097400 1307416.600000
213.091400 2028.800000

