>compound EA88987518
>parentmass 248.0014
>ionization [M-H]-
>formula C6H8ClN5O2S
>rt 294.000000
>profile orbitrap
#smiles_iso CN=C(NCC1=CN=C(S1)Cl)N[N+](=O)[O-]
#smiles_can CN=C(NCC1=CN=C(S1)Cl)N[N+](=O)[O-]
#inchikey PGOOBECODWQEAB-UHFFFAOYSA-N
#pubchem_id 213027
#mb_accession EA293351

>ms2
57.975700 21565.200000
111.002600 796940.200000
122.035900 17970.500000
151.008600 262645.203900
165.024200 222174.800000
166.032200 1287832.000000
168.024000 199791.522700
212.025000 574178.900000

