>compound EA94723910
>parentmass 231.0097
>ionization [M-H]-
>formula C9H10Cl2N2O
>rt 540.000000
>profile orbitrap
#smiles_iso CN(C)C(=O)NC1=CC(=C(C=C1)Cl)Cl
#smiles_can CN(C)C(=O)NC1=CC(=C(C=C1)Cl)Cl
#inchikey XMTQQYYKAHVGBJ-UHFFFAOYSA-N
#pubchem_id 3120
#mb_accession EA029251,EA029264

>ms2
149.975200 10730.700000
159.972600 41513.100000
185.952100 2689544.700000
231.009700 15888.100000

>ms2
149.974900 2898.200000
159.972500 9182.700000
185.952000 1497189.200000
231.008800 2653.400000

