>compound EA99506348
>parentmass 442.9723
>ionization [M-H]-
>formula C8H6F13O4P
>rt 720.000000
>profile orbitrap
#smiles_iso C(COP(=O)(O)O)C(C(C(C(C(C(F)(F)F)(F)F)(F)F)(F)F)(F)F)(F)F
#smiles_can C(COP(=O)(O)O)C(C(C(C(C(C(F)(F)F)(F)F)(F)F)(F)F)(F)F)(F)F
#inchikey FZTRDYSPWWJCOF-UHFFFAOYSA-N
#pubchem_id 14250578
#mb_accession EA292451

>ms2
422.965300 56619.930260
442.970500 2309.900000

