>compound UF01014144
>parentmass 122.0964
>ionization [M+H]+
>formula C8H11N
>rt 795.360000
>profile orbitrap
#smiles_iso CC1=C(C(=CC=C1)C)N
#smiles_can CC1=C(C(=CC=C1)C)N
#inchikey UFFBMTHBGFGIHF-UHFFFAOYSA-N
#pubchem_id 6896
#mb_accession UF414603,UF414604

>ms2peaks
94.065600 2322.100000
105.070200 97045.000000
106.065200 2320.500000
107.073300 344469.500000
122.096800 580021.900000
133.076600 5665.100000

>ms2peaks
94.065400 3201.100000
105.070200 112064.000000
106.065200 2974.100000
107.073300 399459.900000
133.076600 6493.200000

