>compound UF01012908
>parentmass 174.0541
>ionization [M+H]+
>formula C5H8ClN5
>rt 980.460000
>profile orbitrap
#smiles_iso CCNC1=NC(=NC(=N1)N)Cl
#smiles_can CCNC1=NC(=NC(=N1)N)Cl
#inchikey IVENSCMCQBJAKW-UHFFFAOYSA-N
#pubchem_id 13878
#mb_accession UF403003,UF403004

>ms2
68.024200 17094.500000
79.005600 156071.400000
90.010500 3919.700000
96.055500 111938.400000
104.000900 20365.900000
110.045900 10142.800000
132.032200 281940.600000
138.077300 105607.100000
146.022700 367522.100000
174.053900 1653595.900000

>ms2
68.024200 21007.300000
71.060300 4750.000000
79.005600 181892.500000
90.010500 5886.900000
96.055500 141196.600000
104.000900 24759.900000
110.046100 15481.000000
132.032200 352513.600000
138.077300 125390.900000
146.022700 462519.200000

