>compound UF02259101
>parentmass 279.1591
>ionization [M+H]+
>formula C16H22O4
>rt 1623.600000
>profile orbitrap
#smiles_iso CCCCOC(=O)C1=CC=CC=C1C(=O)OCCCC
#smiles_can CCCCOC(=O)C1=CC=CC=C1C(=O)OCCCC
#inchikey DOIRQSBPFJWKBE-UHFFFAOYSA-N
#pubchem_id 3026
#mb_accession UF418003,UF418004

>ms2peaks
149.023900 378421.200000
203.060000 12314.200000
205.086700 137125.500000

>ms2peaks
149.023800 325705.800000
203.059800 11292.000000
205.086700 97132.600000

