>compound UF02659147
>parentmass 255.0652
>ionization [M+H]+
>formula C15H10O4
>rt 1301.940000
>profile orbitrap
#smiles_iso C1=CC(=CC=C1C2=COC3=C(C2=O)C=CC(=C3)O)O
#smiles_can C1=CC(=CC=C1C2=COC3=C(C2=O)C=CC(=C3)O)O
#inchikey ZQSIJRDFPHDXIC-UHFFFAOYSA-N
#pubchem_id 5281708
#mb_accession UF416303,UF416304,UF423903,UF423904

>ms2
81.033400 29028.400000
119.048800 79763.000000
121.028200 119576.100000
129.069600 113493.400000
133.028100 234004.200000
137.023000 5153005.500000
141.069400 62542.200000
143.085300 48527.700000
145.028100 993810.000000
149.023100 248541.700000
153.069600 156002.100000
155.084900 68717.200000
157.064600 435319.700000
165.069600 286643.000000
169.064400 36881.900000
171.080000 196485.300000
181.064500 494136.700000
183.080300 32139.000000
185.059400 398489.900000
193.063900 46012.300000
197.059800 27922.700000
199.075000 7192832.500000
209.059300 336189.200000
209.070600 89199.600000
210.067000 43065.600000
211.075100 352682.600000
213.054200 108770.500000
227.069700 3651414.200000
237.054100 1675401.900000
255.064700 6012091.500000

>ms2
81.033300 24040.400000
89.039000 7813.600000
91.053800 21648.500000
119.049000 70730.000000
121.028200 87131.000000
128.062000 13147.900000
129.069700 68395.400000
131.085700 17696.100000
133.028200 165380.800000
137.023000 3567184.200000
141.069600 63429.300000
143.085800 15093.000000
145.028100 701342.900000
149.023000 159279.500000
153.069600 123673.600000
155.085400 55132.800000
157.064600 329351.300000
159.044100 25346.900000
165.069600 198899.600000
169.064800 21753.100000
171.080200 143346.200000
181.064600 347421.200000
183.079900 30831.000000
184.051100 12193.400000
185.059500 276693.200000
187.075100 27531.100000
193.064700 29933.800000
199.075000 5020434.500000
209.059300 235407.200000
209.070900 60296.500000
210.067500 36969.500000
211.075000 251120.900000
213.054200 74803.100000
227.069800 2637566.000000
237.054200 1203209.000000
255.065700 21503.500000

>ms2
81.033400 29028.400000
119.048800 79763.000000
121.028200 119576.100000
129.069600 113493.400000
133.028100 234004.200000
137.023000 5153005.500000
141.069400 62542.200000
143.085300 48527.700000
145.028100 993810.000000
149.023100 248541.700000
153.069600 156002.100000
155.084900 68717.200000
157.064600 435319.700000
165.069600 286643.000000
169.064400 36881.900000
171.080000 196485.300000
181.064500 494136.700000
183.080300 32139.000000
185.059400 398489.900000
193.063900 46012.300000
197.059800 27922.700000
199.075000 7192832.500000
209.059300 336189.200000
209.070600 89199.600000
210.067000 43065.600000
211.075100 352682.600000
213.054200 108770.500000
227.069700 3651414.200000
237.054100 1675401.900000
255.064700 6012091.500000

>ms2
81.033300 24040.400000
89.039000 7813.600000
91.053800 21648.500000
119.049000 70730.000000
121.028200 87131.000000
128.062000 13147.900000
129.069700 68395.400000
131.085700 17696.100000
133.028200 165380.800000
137.023000 3567184.200000
141.069600 63429.300000
143.085800 15093.000000
145.028100 701342.900000
149.023000 159279.500000
153.069600 123673.600000
155.085400 55132.800000
157.064600 329351.300000
159.044100 25346.900000
165.069600 198899.600000
169.064800 21753.100000
171.080200 143346.200000
181.064600 347421.200000
183.079900 30831.000000
184.051100 12193.400000
185.059500 276693.200000
187.075100 27531.100000
193.064700 29933.800000
199.075000 5020434.500000
209.059300 235407.200000
209.070900 60296.500000
210.067500 36969.500000
211.075000 251120.900000
213.054200 74803.100000
227.069800 2637566.000000
237.054200 1203209.000000
255.065700 21503.500000

