>compound UF02461774
>parentmass 165.1022
>ionization [M+H]+
>formula C9H12N2O
>rt 1046.220000
>profile orbitrap
#smiles_iso CN(C)C(=O)NC1=CC=CC=C1
#smiles_can CN(C)C(=O)NC1=CC=CC=C1
#inchikey XXOYNJXVWVNOOJ-UHFFFAOYSA-N
#pubchem_id 7560
#mb_accession UF404503,UF404504

>ms2peaks
72.044200 985847.500000
120.044200 33769.800000
165.101900 1748344.900000

>ms2peaks
72.044200 1374743.500000
120.044200 48058.000000
165.101700 2545.000000

