>compound UF03760510
>parentmass 214.1121
>ionization [M+H]+
>formula C8H15N5S
>rt 1205.580000
>profile orbitrap
#smiles_iso CCNC1=NC(=NC(=N1)SC)NCC
#smiles_can CCNC1=NC(=NC(=N1)SC)NCC
#inchikey MGLWZSOBALDPEK-UHFFFAOYSA-N
#pubchem_id 13905
#mb_accession UF402103,UF402104

>ms2
68.024200 106379.100000
71.060200 35199.200000
74.005800 19211.800000
96.055600 369569.200000
102.037200 50878.000000
116.027500 42179.600000
124.086900 3125510.500000
144.059000 821573.500000
158.049800 22373.800000
159.070300 16479.000000
166.108700 843631.700000
168.124400 18618.800000
186.080700 1423669.900000
199.088700 20255.100000
214.111900 11616047.000000

>ms2
68.024200 235323.800000
71.060200 94600.300000
74.005900 39633.400000
96.055500 867801.400000
102.037000 110460.200000
116.027500 117591.000000
124.086800 7669644.500000
141.113200 24729.200000
144.058900 2068681.800000
158.049000 26713.600000
159.070000 42881.900000
166.108600 2114125.800000
168.124700 36696.300000
186.080600 3469957.500000

