>compound UF05022593
>parentmass 231.1492
>ionization [M+H]+
>formula C14H18N2O
>rt 1335.000000
>profile orbitrap
#smiles_iso CC1=C(C(=O)N(N1C)C2=CC=CC=C2)C(C)C
#smiles_can CC1=C(C(=O)N(N1C)C2=CC=CC=C2)C(C)C
#inchikey PXWLVJLKJGVOKE-UHFFFAOYSA-N
#pubchem_id 3778
#mb_accession UF407103,UF407104

>ms2peaks
98.060300 26780.100000
104.049400 21507.300000
110.096600 88446.300000
112.075800 82899.400000
112.112200 247390.200000
118.065400 47985.900000
120.081000 126639.000000
130.065300 48263.200000
131.073200 104628.500000
132.080800 83900.900000
133.076000 20663.800000
134.096700 30381.600000
138.091600 124422.200000
144.081100 152861.800000
146.084100 153998.300000
146.096700 170580.500000
147.092100 37543.000000
148.075800 42670.900000
160.099800 258175.800000
161.107500 185085.000000
172.075900 56097.300000
172.112200 264551.900000
174.078800 33044.600000
188.094600 121559.900000
189.102500 11230277.000000
201.102600 1079644.600000
203.154700 251156.000000
215.118200 42523.500000
216.126000 1228339.800000
231.149500 16437444.000000

>ms2peaks
110.096400 185386.500000
112.075700 168753.900000
112.112200 438683.400000
118.065000 81454.100000
120.080900 246986.100000
130.065200 53930.500000
131.073200 140435.000000
132.081100 103253.900000
134.096600 50050.400000
138.091600 215674.300000
142.065000 34985.300000
144.080900 297608.100000
146.084000 292703.800000
146.096600 282314.500000
147.091700 53071.700000
148.076200 66552.900000
148.111900 38160.800000
160.075500 44402.900000
160.099700 434989.600000
161.107500 305780.500000
172.075900 80721.000000
172.112300 505202.400000
174.078800 65260.600000
188.094400 196209.200000
189.102400 18586656.000000
201.102500 1913621.800000
203.154600 397100.800000
215.118500 70391.100000
216.125900 2205496.200000

