>compound UF05043147
>parentmass 395.0813
>ionization [M+H]+
>formula C19H11F5N2O2
>rt 1609.620000
>profile orbitrap
#smiles_iso C1=CC(=CC(=C1)OC2=C(C=CC=N2)C(=O)NC3=C(C=C(C=C3)F)F)C(F)(F)F
#smiles_can C1=CC(=CC(=C1)OC2=C(C=CC=N2)C(=O)NC3=C(C=C(C=C3)F)F)C(F)(F)F
#inchikey WYEHFWKAOXOVJD-UHFFFAOYSA-N
#pubchem_id 91735
#mb_accession UF401003,UF401004

>ms2peaks
198.055200 1712.800000
233.052200 19637.700000
238.047800 1804.900000
246.036200 54889.800000
266.042300 1608009.900000
335.062800 19779.200000
355.069200 25753.400000
375.075100 262298.700000
377.071100 2908.800000

>ms2peaks
198.055300 1954.900000
233.052500 13863.600000
246.036400 45767.500000
266.042400 1297422.400000
284.053300 1636.900000
335.062900 16677.000000
355.069300 21636.100000
375.075300 199855.800000
377.070900 2279.300000

