>compound UF06118021
>parentmass 267.1703
>ionization [M+H]+
>formula C14H22N2O3
>rt 400.080000
>profile orbitrap
#smiles_iso CC(C)NCC(COC1=CC=C(C=C1)CC(=O)N)O
#smiles_can CC(C)NCC(COC1=CC=C(C=C1)CC(=O)N)O
#inchikey METKIMKYRPQLGS-UHFFFAOYSA-N
#pubchem_id 2249
#mb_accession UF407603,UF407604

>ms2peaks
74.060100 16287.200000
98.096500 15505.500000
116.107200 82800.800000
145.065100 56344.300000
162.091700 43776.100000
163.076100 1931.900000
164.071000 5319.000000
173.060100 23427.100000
178.086500 14031.100000
180.102300 22112.900000
190.086600 411763.900000
204.138700 12985.900000
207.113200 15379.000000
208.097200 146272.300000
225.123800 397025.700000
232.133500 12872.600000
249.160300 25049.600000
250.144200 37923.700000

>ms2peaks
74.060100 16734.500000
98.096600 15345.300000
116.107100 73936.300000
145.065100 59672.700000
162.091600 38286.100000
164.071100 5714.000000
173.060000 19634.500000
178.086500 11115.900000
180.102200 21542.100000
190.086500 394087.800000
204.138600 11913.500000
207.113200 15064.500000
208.097200 147407.100000
225.123700 373699.800000
232.133400 9983.300000
249.160100 22053.000000
250.144200 37691.100000

