>compound UF06542517
>parentmass 271.1077
>ionization [M+H]+
>formula C15H14N2O3
>rt 1174.920000
>profile orbitrap
#smiles_iso C1=CC=C2C(=C1)C(C(C3=CC=CC=C3N2C(=O)N)O)O
#smiles_can C1=CC=C2C(=C1)C(C(C3=CC=CC=C3N2C(=O)N)O)O
#inchikey PRGQOPPDPVELEG-UHFFFAOYSA-N
#pubchem_id 83852
#mb_accession UF410903,UF410904

>ms2peaks
180.080300 1787.600000
210.091600 4313.200000
236.070700 16777.900000
253.097300 353014.200000

>ms2peaks
180.080200 1831.700000
210.091900 4013.500000
236.070900 25900.700000
253.097400 387973.700000

