>compound UF07759894
>parentmass 304.2635
>ionization [M+H]+
>formula C20H33NO
>rt 1345.920000
>profile orbitrap
#smiles_iso CC1CN(CC(O1)C)CC(C)CC2=CC=C(C=C2)C(C)(C)C
#smiles_can CC1CN(CC(O1)C)CC(C)CC2=CC=C(C=C2)C(C)(C)C
#inchikey RYAUSSKQMZRMAI-UHFFFAOYSA-N
#pubchem_id 91695
#mb_accession UF402303,UF402304

>ms2
91.054200 24329.500000
98.096400 298940.200000
100.112100 17431.500000
102.091300 83775.600000
105.069800 74324.400000
107.085800 6813.100000
112.112000 19429.900000
116.107000 336963.600000
117.069900 15816.200000
119.085500 99451.800000
128.107200 9667.800000
130.122600 1403251.400000
131.085600 18463.600000
132.093400 46800.600000
133.101100 18890.400000
145.100700 6930.900000
147.116800 1396288.900000
161.132600 59133.100000
187.148600 9986.400000
189.163900 200878.500000
246.221800 8129.800000
248.201200 301154.700000
262.216700 54705.400000
286.253200 47505.500000
304.263700 5843187.500000

>ms2
88.075700 11142.600000
91.054200 65765.900000
98.096300 499393.300000
100.112000 28068.400000
102.091300 148915.000000
103.054000 12413.700000
105.069800 174548.200000
107.085200 17143.400000
112.112100 45976.700000
114.091000 16533.200000
115.054200 12238.600000
116.106900 824190.400000
117.069800 52190.100000
119.085500 205092.500000
128.107200 17853.100000
130.122600 2788488.500000
131.085400 36848.900000
132.093200 89753.600000
133.101100 25287.700000
145.100900 18050.200000
147.116700 2771839.000000
159.117200 11383.600000
161.132500 115174.700000
187.148000 15489.000000
189.163700 370626.400000
246.221500 11551.400000
248.200900 583749.100000
262.216600 93919.000000
286.252800 89473.200000

