>compound UF09849682
>parentmass 309.1121
>ionization [M+H]+
>formula C19H16O4
>rt 1482.420000
>profile orbitrap
#smiles_iso CC(=O)CC(C1=CC=CC=C1)C2=C(C3=CC=CC=C3OC2=O)O
#smiles_can CC(=O)CC(C1=CC=CC=C1)C2=C(C3=CC=CC=C3OC2=O)O
#inchikey PJVWKTKQMONHTI-UHFFFAOYSA-N
#pubchem_id 54678486
#mb_accession UF404203,UF404204

>ms2
121.028400 6598.900000
129.069900 19888.300000
147.080500 226398.200000
163.039000 1966590.900000
189.054500 3835.800000
251.070400 508972.200000
291.101800 112077.900000

>ms2
121.028400 5849.200000
129.069900 20465.000000
147.080400 215631.800000
163.038900 1827942.800000
189.054500 4453.800000
251.070300 487189.300000
291.101600 106074.600000

