>compound UF12032124
>parentmass 399.2506
>ionization [M+H]+
>formula C18H39O7P
>rt 1633.020000
>profile orbitrap
#smiles_iso CCCCOC(C)OP(=O)(OC(C)OCCCC)OC(C)OCCCC
#smiles_can CCCCOC(C)OP(=O)(OC(C)OCCCC)OC(C)OCCCC
#inchikey BGNTUSKZDOUZCZ-UHFFFAOYSA-N
#pubchem_id 23461823
#mb_accession UF418603,UF418604

>ms2
98.984100 6415.700000
101.096300 16310.400000
124.999700 4577.400000
143.010800 30115.400000
199.073600 1021122.300000
225.089400 40103.100000
243.100100 32622.800000
299.162700 2546636.800000

>ms2
98.984200 5227.300000
101.096200 10706.800000
143.010900 19137.800000
199.073600 587018.600000
225.089200 20089.700000
243.100300 17757.900000
299.162800 1239326.800000

