>compound UF12717547
>parentmass 177.0546
>ionization [M+H]+
>formula C10H8O3
>rt 1204.920000
>profile orbitrap
#smiles_iso CC1=CC(=O)OC2=C1C=CC(=C2)O
#smiles_can CC1=CC(=O)OC2=C1C=CC(=C2)O
#inchikey HSHNITRMYYLLCV-UHFFFAOYSA-N
#pubchem_id 5280567
#mb_accession UF419303,UF419304

>ms2peaks
77.038700 2473.400000
79.054400 27477.100000
81.070100 2156.000000
93.070100 3839.200000
103.054500 30367.600000
105.070100 432074.800000
115.054600 25271.800000
121.065200 87431.400000
131.049700 10173.800000
133.065200 89539.000000
143.060900 3542.900000
149.060200 39944.900000
177.055100 1930613.800000

>ms2peaks
77.038900 4956.600000
79.054400 38836.600000
81.069900 2882.600000
91.054500 6952.000000
93.070200 4696.200000
103.054400 43156.400000
105.070000 612623.100000
115.054500 34859.600000
121.065000 131587.300000
131.049500 13070.100000
133.065100 132587.000000
143.060500 3722.100000
149.060100 57592.400000

