>compound UF12656229
>parentmass 152.0706
>ionization [M+H]+
>formula C8H9NO2
>rt 516.600000
>profile orbitrap
#smiles_iso CC(=O)NC1=CC=C(C=C1)O
#smiles_can CC(=O)NC1=CC=C(C=C1)O
#inchikey RZVAJINKPMORJF-UHFFFAOYSA-N
#pubchem_id 1983
#mb_accession UF409103,UF409104

>ms2peaks
110.060100 228432.700000
111.043900 2955.600000
134.060200 7313.100000
152.070900 3432.200000

>ms2peaks
110.060000 255643.200000
111.044300 2617.100000
134.060200 8561.100000

