>compound UF16723935
>parentmass 301.073
>ionization [M+Na]+
>formula C12H14N4O2S
>rt 931.560000
>profile orbitrap
#smiles_iso CC1=CC(=NC(=N1)NS(=O)(=O)C2=CC=C(C=C2)N)C
#smiles_can CC1=CC(=NC(=N1)NS(=O)(=O)C2=CC=C(C=C2)N)C
#inchikey ASWVTGNCAZCNNR-UHFFFAOYSA-N
#pubchem_id 5327
#mb_accession UF409935,UF409936

>ms2peaks
127.005900 4215.300000
146.068700 28481.700000
208.017600 42505.600000
213.080200 2821.700000
226.028500 4075.700000

>ms2peaks
127.005900 3944.800000
146.068700 28269.900000
208.017600 43453.600000
213.079700 2870.200000
226.028200 4493.100000

