>compound UF16915668
>parentmass 136.0215
>ionization [M+H]+
>formula C7H5NS
>rt 1269.240000
>profile orbitrap
#smiles_iso C1=CC=C2C(=C1)N=CS2
#smiles_can C1=CC=C2C(=C1)N=CS2
#inchikey IOJUPLGTWVMSFF-UHFFFAOYSA-N
#pubchem_id 7222
#mb_accession UF420803

>ms2peaks
105.033700 7219.000000
136.021900 329725.400000

