>compound UF17801599
>parentmass 249.0192
>ionization [M+H]+
>formula C9H10Cl2N2O2
>rt 1474.440000
>profile orbitrap
#smiles_iso CN(C(=O)NC1=CC(=C(C=C1)Cl)Cl)OC
#smiles_can CN(C(=O)NC1=CC(=C(C=C1)Cl)Cl)OC
#inchikey XKJMBINCVNINCA-UHFFFAOYSA-N
#pubchem_id 9502
#mb_accession UF403103,UF403104

>ms2
60.044100 3989.700000
159.971500 143145.700000
181.016400 1752.800000
182.024100 268627.100000
187.966400 33879.700000
216.992900 6167.500000
218.000900 7814.300000

>ms2
60.044100 3485.500000
159.971500 124334.600000
160.979200 3147.500000
182.024000 218623.500000
187.966500 26358.200000
216.993300 3212.200000
218.000700 5848.100000

