>compound UF20566903
>parentmass 306.1036
>ionization [M+H]+
>formula C11H20N3O3PS
>rt 1572.660000
>profile orbitrap
#smiles_iso CCN(CC)C1=NC(=CC(=N1)OP(=S)(OC)OC)C
#smiles_can CCN(CC)C1=NC(=CC(=N1)OP(=S)(OC)OC)C
#inchikey QHOQHJPRIBSPCY-UHFFFAOYSA-N
#pubchem_id 34526
#mb_accession UF402803,UF402804

>ms2
95.060300 554339.800000
108.055500 597229.000000
109.004700 40161.200000
109.075900 254205.100000
123.091600 133318.500000
124.982000 141710.100000
136.086900 425202.300000
151.026700 157745.700000
153.102200 788820.700000
154.099600 104079.800000
154.105600 1238917.800000
164.118200 9178038.000000
168.113200 168354.800000
169.079400 1304297.100000
170.082600 2206794.000000
171.024400 61994.700000
179.058100 253260.400000
196.144500 1026420.700000
207.089300 1431654.900000
208.019100 102538.700000
214.111000 52954.800000
220.027200 198700.700000
233.014400 860308.900000
246.046100 1413244.000000
247.120400 188905.900000
250.041100 616963.500000
258.100200 140418.300000
264.057400 32110.100000
274.077300 6270260.000000
276.056900 70191.300000
278.072100 10206483.000000
306.103500 110589.100000

>ms2
95.060300 479080.400000
108.055600 502834.100000
109.076000 190963.500000
123.091700 110488.200000
124.982100 114846.300000
136.086900 356970.900000
142.992600 47378.700000
151.027000 97909.400000
153.102300 631317.200000
154.105600 886060.800000
164.118200 7212065.000000
168.113300 138924.300000
169.079400 1150884.600000
170.082700 1880818.600000
171.024300 35588.700000
179.058000 221125.600000
196.144500 868059.000000
207.089400 1147365.200000
208.019500 66598.100000
214.110400 53045.400000
220.027500 155067.900000
233.014400 719049.400000
246.046200 1151542.200000
247.120400 182077.700000
250.041400 460737.000000
258.099800 93596.000000
264.055500 36660.400000
274.077300 5241826.500000
276.056600 82139.600000
278.072200 8608801.000000

