>compound UF20413317
>parentmass 231.1016
>ionization [M+H]+
>formula C14H14O3
>rt 1460.220000
>profile orbitrap
#smiles_iso CC(C1=CC2=C(C=C1)C=C(C=C2)OC)C(=O)O
#smiles_can CC(C1=CC2=C(C=C1)C=C(C=C2)OC)C(=O)O
#inchikey CMWTZPSULFXXJA-UHFFFAOYSA-N
#pubchem_id 1302
#mb_accession UF406603,UF406604

>ms2
185.096300 1271733.800000
189.102400 29109.600000
201.101800 2749.200000

>ms2
185.096200 883057.500000
189.102400 34687.700000
201.101800 2607.900000

