>compound UF20942703
>parentmass 137.0709
>ionization [M+H]+
>formula C7H8N2O
>rt 175.680000
>profile orbitrap
#smiles_iso C1=CC(=CC=C1C(=O)N)N
#smiles_can C1=CC(=CC=C1C(=O)N)N
#inchikey QIKYZXDTTPVVAC-UHFFFAOYSA-N
#pubchem_id 76079
#mb_accession UF413603,UF413604

>ms2peaks
81.070200 2487.900000
94.065500 96127.500000
120.044800 1287119.600000
137.071500 108333.800000

>ms2peaks
94.065500 87070.500000
120.044800 1287481.000000

