>compound UF21240887
>parentmass 153.1022
>ionization [M+H]+
>formula C8H12N2O
>rt 745.980000
>profile orbitrap
#smiles_iso CC1=CC(=O)NC(=N1)C(C)C
#smiles_can CC1=CC(=O)NC(=N1)C(C)C
#inchikey AJPIUNPJBFBUKK-UHFFFAOYSA-N
#pubchem_id 135444498
#mb_accession UF419503,UF419504

>ms2
70.065300 12150.400000
84.044600 443383.700000
107.085900 2463.600000
112.075800 2691.200000
125.060300 2922.400000
136.076000 7176.700000
138.079200 3809.000000
153.102600 2195749.200000

>ms2
70.065300 16825.900000
84.044500 693213.900000
107.085900 1982.400000
108.081100 3388.400000
112.076000 5336.600000
125.060000 3472.700000
136.076100 12865.500000
138.079200 4602.400000
153.102700 17411.900000

