>compound UF22206218
>parentmass 216.101
>ionization [M+H]+
>formula C8H14ClN5
>rt 1397.640000
>profile orbitrap
#smiles_iso CCNC1=NC(=NC(=N1)Cl)NC(C)C
#smiles_can CCNC1=NC(=NC(=N1)Cl)NC(C)C
#inchikey MXWJVTOOROXGIU-UHFFFAOYSA-N
#pubchem_id 2256
#mb_accession UF403303,UF403304

>ms2peaks
68.024200 21508.900000
79.005700 21251.100000
96.055500 142340.300000
104.000900 102745.600000
132.032200 45126.400000
138.077300 21363.600000
138.102600 143592.900000
146.022700 69653.000000
146.048000 82523.300000
174.053900 7922263.500000
180.123900 19174.900000
188.069800 55862.500000
216.100900 2945735.500000

>ms2peaks
68.024200 20303.100000
79.005600 19237.900000
96.055600 138163.500000
104.001000 95645.400000
132.032300 52596.800000
138.077400 23728.500000
138.102600 143413.200000
146.022800 64876.400000
146.048000 84400.200000
174.054000 7823981.500000
180.124300 16365.900000
188.069900 61647.200000

