>compound UF23330210
>parentmass 217.0972
>ionization [M+H]+
>formula C12H12N2O2
>rt 895.320000
>profile orbitrap
#smiles_iso CC1=C(C(=O)N(N1C)C2=CC=CC=C2)C=O
#smiles_can CC1=C(C(=O)N(N1C)C2=CC=CC=C2)C=O
#inchikey QFYZFYDOEJZMDX-UHFFFAOYSA-N
#pubchem_id 70371
#mb_accession UF410703,UF410704

>ms2
77.038400 3604.400000
83.049200 11682.800000
106.065200 360646.600000
107.060500 22238.000000
111.044100 134271.200000
118.065100 10491.000000
119.085800 11839.700000
120.081200 3836.400000
130.065300 48207.100000
131.073200 14983.500000
132.068300 39680.200000
132.080400 3312.300000
135.055600 10753.400000
142.065100 4811.900000
144.081000 30400.600000
145.076100 7293.900000
145.088900 8250.900000
146.084100 9625.400000
146.096800 11420.000000
147.091800 324164.200000
149.071000 10561.600000
155.070500 3402.100000
158.060700 10270.900000
159.055600 8606.000000
159.091900 33406.100000
160.076000 4025.100000
161.107600 6648.800000
169.076400 5793.700000
171.092000 3381.200000
172.063500 26505.700000
172.075700 8488.500000
173.071100 8168.100000
174.079100 10485.600000
185.071000 4787.200000
186.055300 10572.700000
187.086900 72475.400000
189.102500 151976.500000
197.071400 5040.300000
199.087200 15031.300000
200.058400 68670.700000
202.074000 4957.700000
213.066100 5859.700000
215.082000 33116.700000
217.097200 3135426.000000

>ms2
55.054200 5909.000000
77.038500 2484.500000
79.054300 2245.800000
83.049100 22141.300000
91.054400 5312.500000
98.060200 3385.000000
104.049900 2659.100000
106.065100 461476.200000
107.060400 30837.000000
111.044100 191440.800000
115.054600 2073.200000
118.065200 11588.300000
119.085600 14042.300000
120.080800 5787.300000
130.065200 61818.000000
131.060100 1956.200000
131.073100 26528.000000
132.068200 45321.100000
132.080900 7616.600000
133.076100 4227.800000
135.055500 11256.200000
142.065100 9899.400000
144.081000 39108.700000
145.076200 8509.000000
145.088800 11023.700000
146.059700 1827.400000
146.083900 17089.800000
146.096600 17852.500000
147.091700 436394.900000
148.075300 2891.800000
149.071100 14043.300000
155.070400 2568.600000
158.047900 2102.900000
158.060200 13224.300000
159.055400 11170.500000
159.091800 50907.700000
160.076100 5215.500000
160.099400 5874.400000
161.107500 12138.400000
168.044800 4716.300000
169.076600 7395.300000
171.055300 5140.200000
171.092200 5254.400000
172.063200 34759.700000
172.075900 15955.600000
173.071100 13272.900000
174.079100 15375.000000
185.071100 9421.400000
186.055200 17522.100000
187.086700 101591.700000
188.094700 4077.200000
189.102300 209220.900000
197.071400 5937.800000
199.086800 19751.200000
200.058200 96498.700000
202.073600 6200.300000
213.066100 8798.700000

