>compound UF23274151
>parentmass 200.074
>ionization [M+H]+
>formula C9H13NO2S
>rt 1273.980000
>profile orbitrap
#smiles_iso CCNS(=O)(=O)C1=CC=C(C=C1)C
#smiles_can CCNS(=O)(=O)C1=CC=C(C=C1)C
#inchikey OHPZPBNDOVQJMH-UHFFFAOYSA-N
#pubchem_id 6637
#mb_accession UF419703,UF419704

>ms2
91.054500 113727.400000
109.065200 9729.000000
119.060800 226893.400000
155.016600 1305345.800000
172.043200 7480.700000

>ms2
91.054500 125023.900000
109.065200 11047.400000
119.060700 225396.800000
155.016600 1340902.500000
172.043500 8488.500000

