>compound UF24430553
>parentmass 334.1049
>ionization [M+H]+
>formula C18H14F3NO2
>rt 1456.920000
>profile orbitrap
#smiles_iso CNC1=C(C(=O)C(O1)C2=CC=CC=C2)C3=CC(=CC=C3)C(F)(F)F
#smiles_can CNC1=C(C(=O)C(O1)C2=CC=CC=C2)C3=CC(=CC=C3)C(F)(F)F
#inchikey NYRMIJKDBAQCHC-UHFFFAOYSA-N
#pubchem_id 91755
#mb_accession UF406403,UF406404

>ms2peaks
103.054300 66636.600000
105.033200 33913.900000
120.080700 26542.400000
131.049200 76635.500000
171.041800 132155.700000
189.069700 5300.700000
199.036700 205784.200000
209.076100 11229.300000
225.016000 179535.200000
227.066500 8021.300000
228.063300 35817.300000
237.071200 45450.400000
238.047800 29540.700000
247.073200 599092.300000
249.088900 64993.200000
256.058300 282396.800000
257.077500 1324801.600000
259.073000 10567.600000
262.060200 5827.000000
269.098100 12559.700000
275.068000 1543791.900000
277.083700 1675644.800000
283.056500 9996.500000
288.099800 172180.800000
303.063200 2357616.200000
306.110200 2080264.100000
314.099000 214590.400000
316.094700 346532.100000
334.105200 3350665.200000
335.108900 71797.700000

>ms2peaks
103.054300 110081.600000
105.033300 53884.700000
120.080800 45536.200000
131.049200 134827.400000
159.041900 8197.600000
171.041700 228017.400000
178.077100 12436.900000
199.036700 341358.300000
209.076200 20496.600000
225.016000 300948.700000
228.063300 48085.200000
229.082300 31264.500000
237.071200 79000.100000
238.047800 47292.700000
247.073200 1034763.200000
248.076900 20891.100000
249.088800 99052.200000
255.061800 7091.400000
256.058300 413878.800000
257.077400 2046785.800000
259.073000 23863.600000
262.059500 10146.100000
269.098200 22866.500000
275.068000 2478520.500000
276.071700 28699.200000
277.083700 2316246.800000
283.057600 17492.900000
286.104100 51489.200000
288.099800 268968.900000
303.063100 3584371.800000
304.066300 52365.300000
306.110100 3130374.500000
307.113500 44305.000000
314.098900 297006.500000
316.094600 535844.900000
335.109200 19652.800000

