>compound UF26791504
>parentmass 151.0866
>ionization [M+H]+
>formula C8H10N2O
>rt 137.520000
>profile orbitrap
#smiles_iso CC(=O)NC1=CC=C(C=C1)N
#smiles_can CC(=O)NC1=CC=C(C=C1)N
#inchikey CHMBIJAOCISYEW-UHFFFAOYSA-N
#pubchem_id 31230
#mb_accession UF413503,UF413504

>ms2
92.049700 5580.100000
106.065400 6760.600000
108.068600 10522.800000
109.076300 664345.400000
110.060300 71715.700000
133.076500 75417.300000
134.060600 5231.100000
151.087100 481453.000000

>ms2
92.049800 5307.900000
106.065700 9082.200000
108.068600 12442.200000
109.076400 780349.600000
110.060300 91026.900000
133.076500 90680.200000
134.060600 7725.200000

