>compound UF30063906
>parentmass 404.1241
>ionization [M+H]+
>formula C22H17N3O5
>rt 1443.660000
>profile orbitrap
#smiles_iso CO/C=C(\C1=CC=CC=C1OC2=NC=NC(=C2)OC3=CC=CC=C3C#N)/C(=O)OC
#smiles_can COC=C(C1=CC=CC=C1OC2=NC=NC(=C2)OC3=CC=CC=C3C#N)C(=O)OC
#inchikey WFDXOXNFNRHQEC-GHRIWEEISA-N
#pubchem_id 3034285
#mb_accession UF402203,UF402204

>ms2peaks
188.103500 5070.600000
328.107900 3812.900000
344.103200 14510.100000
372.097700 1662649.900000

>ms2peaks
328.107300 6990.000000
344.103000 15449.000000
372.097700 1113842.000000

