>compound UF31108056
>parentmass 308.1524
>ionization [M+H]+
>formula C16H22ClN3O
>rt 1556.460000
>profile orbitrap
#smiles_iso CC(C)(C)C(CCC1=CC=C(C=C1)Cl)(CN2C=NC=N2)O
#smiles_can CC(C)(C)C(CCC1=CC=C(C=C1)Cl)(CN2C=NC=N2)O
#inchikey PXMNMQRDXWABCY-UHFFFAOYSA-N
#pubchem_id 86102
#mb_accession UF404303,UF404304

>ms2
125.015000 22764.900000
139.030800 49332.700000
151.030800 91775.600000
165.046500 69733.700000
179.062000 14441.300000
181.077500 17333.900000
201.982200 20903.500000
244.028900 62489.700000
290.141600 74229.300000
308.152500 23622.800000

>ms2
125.015100 29925.900000
139.030800 50496.900000
151.030700 107923.200000
165.046500 91130.300000
179.062100 13333.200000
181.077500 19387.100000
201.982200 15730.200000
244.028600 37197.400000
290.141700 96725.300000

