>compound UF31531356
>parentmass 250.0645
>ionization [M+H]+
>formula C11H11N3O2S
>rt 759.180000
>profile orbitrap
#smiles_iso C1=CC=NC(=C1)NS(=O)(=O)C2=CC=C(C=C2)N
#smiles_can C1=CC=NC(=C1)NS(=O)(=O)C2=CC=C(C=C2)N
#inchikey GECHUMIMRBOMGK-UHFFFAOYSA-N
#pubchem_id 5336
#mb_accession UF408803,UF408804

>ms2
92.049600 32245.300000
93.044800 1489.000000
95.060500 16640.600000
108.044500 71970.900000
156.011600 597347.100000
157.006800 61391.000000
184.087200 358664.400000
186.102100 2531.000000
232.054300 30880.200000
250.065000 6286.700000

>ms2
92.049600 39588.400000
93.044800 1403.500000
95.060500 21182.400000
108.044500 93945.600000
156.011600 744994.600000
157.006800 71154.000000
184.087200 457361.500000
186.103000 3253.000000
232.054300 37836.600000
250.065100 9179.500000

