>compound UF31553889
>parentmass 189.9821
>ionization [M+H]+
>formula C7H5Cl2NO
>rt 858.360000
>profile orbitrap
#smiles_iso C1=CC(=C(C(=C1)Cl)C(=O)N)Cl
#smiles_can C1=CC(=C(C(=C1)Cl)C(=O)N)Cl
#inchikey JHSPCUHPSIUQRB-UHFFFAOYSA-N
#pubchem_id 16183
#mb_accession UF405103,UF405104

>ms2peaks
146.976200 16571.000000
171.971800 10786.400000
172.955400 865797.800000
189.982300 4266.000000

>ms2peaks
146.976300 14818.300000
171.971500 11129.700000
172.955400 897089.900000

