>compound UF31557817
>parentmass 117.0659
>ionization [M+H]+
>formula C4H8N2O2
>rt 266.700000
>profile orbitrap
#smiles_iso C1COCCN1N=O
#smiles_can C1COCCN1N=O
#inchikey ZKXDGKXYMTYWTB-UHFFFAOYSA-N
#pubchem_id 6046
#mb_accession UF412703,UF412704

>ms2peaks
56.049600 2783.600000
57.057400 20590.100000
73.039900 4797.900000
86.060400 105385.000000
87.068200 342408.700000

>ms2peaks
56.049600 3131.900000
57.057400 20029.000000
86.060400 96250.000000
87.068200 327474.300000

