>compound UF31116900
>parentmass 455.2904
>ionization [M+H]+
>formula C27H38N2O4
>rt 1256.520000
>profile orbitrap
#smiles_iso CC(C)C(CCCN(C)CCC1=CC(=C(C=C1)OC)OC)(C#N)C2=CC(=C(C=C2)OC)OC
#smiles_can CC(C)C(CCCN(C)CCC1=CC(=C(C=C1)OC)OC)(C#N)C2=CC(=C(C=C2)OC)OC
#inchikey SGTNSNPWRIOYBX-UHFFFAOYSA-N
#pubchem_id 2520
#mb_accession UF408103,UF408104

>ms2
131.049500 3376.300000
133.065100 13318.700000
134.073100 5789.400000
135.044300 35852.300000
135.080400 5971.300000
149.060200 9133.300000
150.067800 179026.000000
151.075600 6281.700000
165.091400 1180034.800000
177.091300 7703.600000
218.117600 3931.200000
233.154000 8639.100000
243.138900 16428.500000
260.165100 185969.400000
261.160600 11875.200000
264.197000 7189.200000
291.207600 10455.100000
303.207400 1443089.100000
386.233600 26687.200000

>ms2
131.049600 4448.100000
133.065000 14720.400000
134.072800 6479.100000
135.044400 46064.200000
135.080900 4753.100000
149.059700 11988.100000
150.067800 220294.500000
151.075400 8290.500000
165.091300 1426276.400000
166.094600 17643.300000
177.091500 9688.000000
218.117700 5177.400000
233.154500 10462.100000
243.138600 14600.200000
245.140900 3996.100000
260.165100 249452.500000
261.160700 17718.200000
264.196200 8072.000000
291.207400 14049.900000
303.207400 1713758.200000
386.233200 27246.900000

