>compound UF34961864
>parentmass 201.0692
>ionization [M+H]+
>formula C8H12N2O2S
>rt 963.780000
>profile orbitrap
#smiles_iso CN(C)S(=O)(=O)C1=CC=C(C=C1)N
#smiles_can CN(C)S(=O)(=O)C1=CC=C(C=C1)N
#inchikey BABGMPQXLCJMSK-UHFFFAOYSA-N
#pubchem_id 74369
#mb_accession UF417003,UF417004

>ms2peaks
92.049700 22706.800000
108.044700 39406.400000
156.011800 1051160.200000
199.016400 2473.000000

>ms2peaks
92.049700 21619.100000
108.044700 35376.000000
156.011800 955839.600000

