>compound UF35614515
>parentmass 246.1237
>ionization [M+H]+
>formula C13H15N3O2
>rt 886.680000
>profile orbitrap
#smiles_iso CC1=C(C(=O)N(N1C)C2=CC=CC=C2)NC(=O)C
#smiles_can CC1=C(C(=O)N(N1C)C2=CC=CC=C2)NC(=O)C
#inchikey OIAGWXKSCXPNNZ-UHFFFAOYSA-N
#pubchem_id 65743
#mb_accession UF408203,UF408204

>ms2peaks
127.086400 2564.800000
204.113300 353542.100000
228.113100 1694718.000000

>ms2peaks
104.049100 4146.000000
127.086600 2757.300000
187.086900 2646.400000
204.113300 446212.400000
228.113200 2025433.400000

