>compound UF37397853
>parentmass 192.1383
>ionization [M+H]+
>formula C12H17NO
>rt 1390.020000
>profile orbitrap
#smiles_iso CCN(CC)C(=O)C1=CC=CC(=C1)C
#smiles_can CCN(CC)C(=O)C1=CC=CC(=C1)C
#inchikey MMOXZBCLCQITDF-UHFFFAOYSA-N
#pubchem_id 4284
#mb_accession UF417603,UF417604

>ms2
72.044500 204121.000000
72.081000 98084.500000
91.054400 463358.800000
100.076000 856215.400000
119.049400 40924328.000000
192.138800 5891045.000000

>ms2
72.044600 234967.800000
72.081000 123887.000000
91.054500 434565.600000
100.076000 932559.100000
119.049400 40649076.000000

