>compound UF37079400
>parentmass 291.2319
>ionization [M+H]+
>formula C19H30O2
>rt 1588.020000
>profile orbitrap
#smiles_iso C[C@]12CC[C@@H](C[C@@H]1CC[C@@H]3[C@@H]2CC[C@]4([C@H]3CCC4=O)C)O
#smiles_can CC12CCC(CC1CCC3C2CCC4(C3CCC4=O)C)O
#inchikey QGXBDMJGAMFCBF-LUJOEAJASA-N
#pubchem_id 441302
#mb_accession UF416803,UF416804

>ms2
245.084400 7483.600000
249.184500 58774.200000
273.220800 9091.600000

>ms2
245.084200 7536.300000
249.184500 56539.800000
273.220800 15382.300000

