>compound UF37885865
>parentmass 245.1285
>ionization [M+H]+
>formula C14H16N2O2
>rt 557.940000
>profile orbitrap
#smiles_iso COC1=C(C=CC(=C1)C2=CC(=C(C=C2)N)OC)N
#smiles_can COC1=C(C=CC(=C1)C2=CC(=C(C=C2)N)OC)N
#inchikey JRBJSXQPQWSCCF-UHFFFAOYSA-N
#pubchem_id 8411
#mb_accession UF414003,UF414004

>ms2
181.076400 2982.000000
182.084500 2657.600000
201.102900 2182.000000
202.106200 11097.400000
213.102900 155757.200000
214.110700 23205.600000
217.097700 5370.300000
229.097900 6622.100000
230.105800 618558.000000

>ms2
181.076500 4056.800000
182.084500 4790.000000
198.079500 2761.900000
201.102600 1610.500000
202.106100 11036.000000
213.102900 172117.500000
214.110800 25323.100000
217.098000 6138.400000
229.098000 4907.300000
230.105900 687884.900000

