>compound UF39801800
>parentmass 203.0927
>ionization [M+H]+
>formula C10H10N4O
>rt 1068.540000
>profile orbitrap
#smiles_iso CC1=NN=C(C(=O)N1N)C2=CC=CC=C2
#smiles_can CC1=NN=C(C(=O)N1N)C2=CC=CC=C2
#inchikey VHCNQEUWZYOAEV-UHFFFAOYSA-N
#pubchem_id 38854
#mb_accession UF401703,UF401704

>ms2
72.044300 35260.400000
77.038500 41944.900000
79.054100 124364.000000
83.024000 9604.900000
89.038500 32849.000000
91.053900 8094.500000
93.057200 4098.800000
94.064900 4908.300000
100.050500 17944.000000
103.054100 18924.600000
104.049300 281932.500000
105.044900 3627.100000
105.057300 5530.600000
106.065000 428420.700000
115.054100 4693.100000
116.049500 28611.600000
117.033600 13138.600000
117.044700 9552.400000
117.057200 25740.700000
118.064900 15641.900000
119.060300 44690.700000
120.080700 37805.700000
130.065000 236800.800000
131.049200 5979.100000
132.068200 24474.700000
132.080700 10443.900000
134.060100 10859.500000
134.071300 21587.500000
143.060200 13131.400000
145.039500 326822.600000
147.091500 9245.300000
148.076300 5453.000000
158.060100 57795.500000
158.071200 30709.800000
160.062900 4761.800000
168.055700 6884.600000
174.078700 876264.700000
175.086500 123171.900000
175.097700 1085415.200000
186.066100 56017.100000
187.074200 10964.500000
203.092500 2894557.200000

>ms2
72.044300 40141.500000
77.038500 56049.800000
79.054100 139262.800000
83.023900 9758.200000
89.038500 40152.600000
91.054200 7067.600000
93.057100 3945.200000
94.065200 9518.600000
100.050500 20660.200000
103.054200 22740.500000
104.049400 321342.300000
105.057300 3418.500000
106.065000 463510.000000
115.054000 6104.100000
116.049400 34541.000000
117.033600 10406.500000
117.044600 9500.400000
117.057100 21599.900000
118.065100 18814.800000
119.060400 47322.000000
120.080700 37990.000000
130.065000 237443.300000
131.049100 7460.800000
132.068200 26053.900000
132.080600 12716.900000
134.060000 12366.200000
134.071200 21852.900000
143.060500 13971.800000
145.039500 339819.800000
147.091700 4666.600000
148.075200 7090.000000
158.060000 66565.500000
158.071200 34613.100000
159.078700 3295.400000
160.063300 5760.000000
168.056000 6962.300000
173.070500 4093.600000
174.078700 938265.100000
175.086600 135423.400000
175.097700 1178074.100000
186.066100 58137.100000
187.074000 12847.600000

