>compound UF40731528
>parentmass 361.201
>ionization [M+H]+
>formula C21H28O5
>rt 1321.020000
>profile orbitrap
#smiles_iso C[C@]12CCC(=O)C=C1CC[C@@H]3[C@@H]2C(=O)C[C@]4([C@H]3CC[C@@]4(C(=O)CO)O)C
#smiles_can CC12CCC(=O)C=C1CCC3C2C(=O)CC4(C3CCC4(C(=O)CO)O)C
#inchikey MFYSYFVPBJMHGN-ZPOLXVRWSA-N
#pubchem_id 222786
#mb_accession UF415403,UF415404,UF415703,UF415704,UF423103,UF423104

>ms2
105.069700 77832.100000
107.085300 32812.200000
115.053900 16391.200000
117.069600 37931.300000
119.085400 59071.400000
121.064600 268178.400000
121.100900 28868.100000
123.080100 36290.800000
128.062200 13252.000000
129.069700 27382.100000
130.077900 12747.800000
131.085300 59387.100000
133.064600 38512.800000
133.101000 31846.400000
135.080300 144075.400000
135.116600 41625.700000
137.096300 18824.200000
139.075000 33541.400000
141.070200 9474.300000
143.085300 52017.700000
145.064600 31664.600000
145.100900 187649.600000
147.080200 210630.000000
147.116600 38644.100000
148.087900 11885.200000
149.096300 41332.800000
151.075200 38830.500000
153.090800 31399.900000
155.085000 42394.200000
157.101100 46350.500000
159.080200 85883.900000
159.116900 40043.800000
161.095900 145265.400000
163.111500 2300441.000000
165.091100 33607.500000
165.127300 29713.800000
169.100800 40614.200000
171.080300 100971.400000
171.116600 178328.900000
173.095800 188850.700000
175.111500 57445.300000
177.090800 83296.700000
179.085700 11403.900000
179.106400 31358.800000
181.086100 27603.600000
181.101100 88815.000000
183.079900 14872.200000
183.116400 67536.300000
185.096000 70234.400000
185.132500 21615.400000
187.075300 45936.200000
187.111400 115718.800000
189.090700 98635.800000
189.127300 39371.000000
191.106300 90315.100000
195.116700 74401.100000
197.096000 52560.600000
197.132300 64064.200000
199.111500 158749.100000
201.091200 28717.200000
201.127100 54031.700000
203.106800 39950.500000
205.101500 16746.800000
205.122200 35548.300000
207.101000 35827.600000
207.116700 71831.800000
209.095900 31254.900000
209.116800 14559.900000
209.132000 55864.000000
211.111500 99868.800000
211.147900 33238.500000
213.090700 14059.400000
213.127200 90291.000000
215.106200 32482.400000
215.142800 41455.700000
217.122100 89146.000000
219.116100 38352.300000
221.095400 10816.000000
221.132300 108045.000000
223.111600 106320.500000
223.148000 100352.200000
225.127100 151259.400000
225.163400 60644.900000
227.107200 31392.200000
227.142700 69126.900000
229.121900 72320.200000
231.138100 21444.800000
232.124100 12335.900000
233.132400 31513.200000
235.111800 18427.500000
235.147900 91231.000000
237.127000 130137.600000
237.163700 112238.400000
239.106100 18139.200000
239.142800 275894.200000
239.179300 49107.000000
241.122100 229802.900000
241.158500 120790.400000
243.137900 77057.600000
243.174100 44774.300000
245.132300 31581.000000
247.112000 20882.100000
247.148000 185742.100000
249.127300 94430.800000
249.163600 112951.000000
251.107100 16851.800000
251.142900 73485.700000
251.179100 55202.600000
253.122800 21061.200000
253.158600 103685.600000
255.137700 112280.100000
255.174200 113275.600000
257.153400 183783.500000
257.190100 56618.400000
259.147800 15472.500000
261.127600 27432.500000
261.148200 60627.400000
261.163600 117330.800000
263.142900 109430.800000
265.158300 871255.200000
267.137700 189721.000000
267.173900 734534.800000
269.153200 37476.900000
269.189400 44662.300000
271.148600 21892.500000
271.168900 39291.700000
277.158600 116149.200000
279.137700 36400.500000
279.174100 458984.800000
281.153500 84166.100000
281.191000 22636.600000
283.169000 986012.900000
284.176900 30286.200000
285.148600 101592.100000
285.184700 581279.600000
289.158400 292731.400000
295.169200 516572.700000
297.184800 452426.300000
299.163900 770741.900000
300.172000 38871.600000
301.179500 842119.400000
303.158900 60312.900000
307.168900 1018512.800000
313.179500 799245.100000
315.195200 172745.300000
317.174400 54640.200000
325.179500 1368046.500000
331.190000 60809.400000
343.189900 2555261.000000
361.200600 913775.100000

>ms2
105.069700 108343.200000
107.085400 42790.700000
115.054100 28060.300000
117.069900 48669.000000
119.085300 73228.300000
121.064500 333653.500000
121.101200 38188.400000
123.080400 44641.800000
128.062100 15605.200000
129.069700 35171.600000
130.077300 12151.700000
131.085300 70300.600000
133.064700 51469.000000
133.100700 34337.400000
135.080200 172807.400000
135.116600 50646.900000
137.095600 27552.300000
139.075100 36813.700000
141.069200 11882.800000
143.085400 75098.600000
145.064700 34722.400000
145.101000 261586.800000
147.080200 270371.500000
147.116400 34478.000000
148.088300 13748.200000
149.095800 59523.800000
151.075200 58009.400000
153.090800 47498.000000
155.085300 52529.900000
157.064700 25799.600000
157.101000 69481.900000
159.080100 83505.400000
159.117100 36497.200000
161.059300 20403.000000
161.095800 157369.900000
163.111500 2786208.800000
165.091000 35186.500000
165.127000 36307.600000
167.085900 15735.900000
169.101000 74052.100000
171.080200 135112.900000
171.116600 241154.700000
173.095800 193844.100000
175.111400 72490.500000
177.090600 99298.500000
179.106400 41102.000000
181.085400 31669.400000
181.100900 106219.200000
183.080500 18880.500000
183.116600 88355.100000
185.095900 90099.000000
185.132300 31795.100000
187.075000 37758.700000
187.111400 100275.100000
189.090800 120408.500000
189.127000 42744.500000
191.106400 114124.000000
193.100900 38097.200000
195.079900 12449.600000
195.116500 109493.300000
197.096100 53519.400000
197.132000 79429.500000
199.111500 180624.400000
199.147400 15606.400000
201.090500 31172.400000
201.127100 55234.200000
203.106000 36343.200000
205.101400 22251.400000
205.121900 31286.600000
207.101700 42330.500000
207.116700 104447.500000
209.095900 46040.700000
209.117400 21996.000000
209.132100 81706.200000
211.111400 122011.300000
211.147900 61010.600000
213.090800 21011.100000
213.127000 106632.700000
215.105700 36058.500000
215.142500 45680.700000
217.121900 80335.700000
219.116800 53322.200000
221.095200 15116.400000
221.132000 145999.900000
223.111400 143511.100000
223.147900 132644.600000
225.127100 177809.300000
225.163200 62160.600000
227.106600 29951.200000
227.142900 89078.100000
229.122000 79249.000000
229.159000 14853.500000
231.137800 18907.200000
233.132100 46048.100000
235.112000 21070.700000
235.147900 111598.500000
237.127200 162234.600000
237.163500 141036.100000
239.106200 26284.400000
239.142700 322928.700000
239.179100 52019.500000
241.122000 244113.900000
241.158500 148427.100000
243.137600 98177.300000
243.173600 57019.600000
245.132400 37033.000000
247.111100 22010.800000
247.147800 228753.000000
249.127100 126694.400000
249.163500 122790.900000
251.107100 25416.800000
251.142600 95547.100000
251.179500 55832.100000
253.123200 25139.500000
253.158300 106058.000000
255.137700 131277.000000
255.173900 144365.500000
257.153300 226344.100000
257.189700 71216.700000
259.148400 13345.900000
261.127100 30538.500000
261.148300 75803.100000
261.163600 111980.900000
263.142800 136269.600000
264.151300 20707.600000
265.158300 1100766.800000
267.137500 224254.700000
267.173900 866162.000000
269.153800 43852.500000
269.189700 59376.400000
271.147500 27011.900000
271.169600 47143.300000
277.158300 148164.900000
279.138500 44083.800000
279.174100 552929.200000
281.153300 96914.900000
281.188700 17046.300000
283.168900 1124051.500000
284.176800 58515.700000
285.148400 146324.500000
285.184600 644513.600000
289.158500 327213.700000
295.169100 575394.900000
297.184600 492017.700000
299.163800 962185.500000
300.171700 61612.500000
301.179400 935921.100000
303.159000 75761.200000
307.168800 1140238.200000
313.179500 921106.900000
315.195200 222429.100000
317.174400 76545.400000
325.179400 1536569.500000
331.189600 56685.700000
343.189800 2648954.800000

>ms2
105.069700 77832.100000
107.085300 32812.200000
115.053900 16391.200000
117.069600 37931.300000
119.085400 59071.400000
121.064600 268178.400000
121.100900 28868.100000
123.080100 36290.800000
128.062200 13252.000000
129.069700 27382.100000
130.077900 12747.800000
131.085300 59387.100000
133.064600 38512.800000
133.101000 31846.400000
135.080300 144075.400000
135.116600 41625.700000
137.096300 18824.200000
139.075000 33541.400000
141.070200 9474.300000
143.085300 52017.700000
145.064600 31664.600000
145.100900 187649.600000
147.080200 210630.000000
147.116600 38644.100000
148.087900 11885.200000
149.096300 41332.800000
151.075200 38830.500000
153.090800 31399.900000
155.085000 42394.200000
157.101100 46350.500000
159.080200 85883.900000
159.116900 40043.800000
161.095900 145265.400000
163.111500 2300441.000000
165.091100 33607.500000
165.127300 29713.800000
169.100800 40614.200000
171.080300 100971.400000
171.116600 178328.900000
173.095800 188850.700000
175.111500 57445.300000
177.090800 83296.700000
179.085700 11403.900000
179.106400 31358.800000
181.086100 27603.600000
181.101100 88815.000000
183.079900 14872.200000
183.116400 67536.300000
185.096000 70234.400000
185.132500 21615.400000
187.075300 45936.200000
187.111400 115718.800000
189.090700 98635.800000
189.127300 39371.000000
191.106300 90315.100000
195.116700 74401.100000
197.096000 52560.600000
197.132300 64064.200000
199.111500 158749.100000
201.091200 28717.200000
201.127100 54031.700000
203.106800 39950.500000
205.101500 16746.800000
205.122200 35548.300000
207.101000 35827.600000
207.116700 71831.800000
209.095900 31254.900000
209.116800 14559.900000
209.132000 55864.000000
211.111500 99868.800000
211.147900 33238.500000
213.090700 14059.400000
213.127200 90291.000000
215.106200 32482.400000
215.142800 41455.700000
217.122100 89146.000000
219.116100 38352.300000
221.095400 10816.000000
221.132300 108045.000000
223.111600 106320.500000
223.148000 100352.200000
225.127100 151259.400000
225.163400 60644.900000
227.107200 31392.200000
227.142700 69126.900000
229.121900 72320.200000
231.138100 21444.800000
232.124100 12335.900000
233.132400 31513.200000
235.111800 18427.500000
235.147900 91231.000000
237.127000 130137.600000
237.163700 112238.400000
239.106100 18139.200000
239.142800 275894.200000
239.179300 49107.000000
241.122100 229802.900000
241.158500 120790.400000
243.137900 77057.600000
243.174100 44774.300000
245.132300 31581.000000
247.112000 20882.100000
247.148000 185742.100000
249.127300 94430.800000
249.163600 112951.000000
251.107100 16851.800000
251.142900 73485.700000
251.179100 55202.600000
253.122800 21061.200000
253.158600 103685.600000
255.137700 112280.100000
255.174200 113275.600000
257.153400 183783.500000
257.190100 56618.400000
259.147800 15472.500000
261.127600 27432.500000
261.148200 60627.400000
261.163600 117330.800000
263.142900 109430.800000
265.158300 871255.200000
267.137700 189721.000000
267.173900 734534.800000
269.153200 37476.900000
269.189400 44662.300000
271.148600 21892.500000
271.168900 39291.700000
277.158600 116149.200000
279.137700 36400.500000
279.174100 458984.800000
281.153500 84166.100000
281.191000 22636.600000
283.169000 986012.900000
284.176900 30286.200000
285.148600 101592.100000
285.184700 581279.600000
289.158400 292731.400000
295.169200 516572.700000
297.184800 452426.300000
299.163900 770741.900000
300.172000 38871.600000
301.179500 842119.400000
303.158900 60312.900000
307.168900 1018512.800000
313.179500 799245.100000
315.195200 172745.300000
317.174400 54640.200000
325.179500 1368046.500000
331.190000 60809.400000
343.189900 2555261.000000
361.200600 913775.100000

>ms2
105.069700 108343.200000
107.085400 42790.700000
115.054100 28060.300000
117.069900 48669.000000
119.085300 73228.300000
121.064500 333653.500000
121.101200 38188.400000
123.080400 44641.800000
128.062100 15605.200000
129.069700 35171.600000
130.077300 12151.700000
131.085300 70300.600000
133.064700 51469.000000
133.100700 34337.400000
135.080200 172807.400000
135.116600 50646.900000
137.095600 27552.300000
139.075100 36813.700000
141.069200 11882.800000
143.085400 75098.600000
145.064700 34722.400000
145.101000 261586.800000
147.080200 270371.500000
147.116400 34478.000000
148.088300 13748.200000
149.095800 59523.800000
151.075200 58009.400000
153.090800 47498.000000
155.085300 52529.900000
157.064700 25799.600000
157.101000 69481.900000
159.080100 83505.400000
159.117100 36497.200000
161.059300 20403.000000
161.095800 157369.900000
163.111500 2786208.800000
165.091000 35186.500000
165.127000 36307.600000
167.085900 15735.900000
169.101000 74052.100000
171.080200 135112.900000
171.116600 241154.700000
173.095800 193844.100000
175.111400 72490.500000
177.090600 99298.500000
179.106400 41102.000000
181.085400 31669.400000
181.100900 106219.200000
183.080500 18880.500000
183.116600 88355.100000
185.095900 90099.000000
185.132300 31795.100000
187.075000 37758.700000
187.111400 100275.100000
189.090800 120408.500000
189.127000 42744.500000
191.106400 114124.000000
193.100900 38097.200000
195.079900 12449.600000
195.116500 109493.300000
197.096100 53519.400000
197.132000 79429.500000
199.111500 180624.400000
199.147400 15606.400000
201.090500 31172.400000
201.127100 55234.200000
203.106000 36343.200000
205.101400 22251.400000
205.121900 31286.600000
207.101700 42330.500000
207.116700 104447.500000
209.095900 46040.700000
209.117400 21996.000000
209.132100 81706.200000
211.111400 122011.300000
211.147900 61010.600000
213.090800 21011.100000
213.127000 106632.700000
215.105700 36058.500000
215.142500 45680.700000
217.121900 80335.700000
219.116800 53322.200000
221.095200 15116.400000
221.132000 145999.900000
223.111400 143511.100000
223.147900 132644.600000
225.127100 177809.300000
225.163200 62160.600000
227.106600 29951.200000
227.142900 89078.100000
229.122000 79249.000000
229.159000 14853.500000
231.137800 18907.200000
233.132100 46048.100000
235.112000 21070.700000
235.147900 111598.500000
237.127200 162234.600000
237.163500 141036.100000
239.106200 26284.400000
239.142700 322928.700000
239.179100 52019.500000
241.122000 244113.900000
241.158500 148427.100000
243.137600 98177.300000
243.173600 57019.600000
245.132400 37033.000000
247.111100 22010.800000
247.147800 228753.000000
249.127100 126694.400000
249.163500 122790.900000
251.107100 25416.800000
251.142600 95547.100000
251.179500 55832.100000
253.123200 25139.500000
253.158300 106058.000000
255.137700 131277.000000
255.173900 144365.500000
257.153300 226344.100000
257.189700 71216.700000
259.148400 13345.900000
261.127100 30538.500000
261.148300 75803.100000
261.163600 111980.900000
263.142800 136269.600000
264.151300 20707.600000
265.158300 1100766.800000
267.137500 224254.700000
267.173900 866162.000000
269.153800 43852.500000
269.189700 59376.400000
271.147500 27011.900000
271.169600 47143.300000
277.158300 148164.900000
279.138500 44083.800000
279.174100 552929.200000
281.153300 96914.900000
281.188700 17046.300000
283.168900 1124051.500000
284.176800 58515.700000
285.148400 146324.500000
285.184600 644513.600000
289.158500 327213.700000
295.169100 575394.900000
297.184600 492017.700000
299.163800 962185.500000
300.171700 61612.500000
301.179400 935921.100000
303.159000 75761.200000
307.168800 1140238.200000
313.179500 921106.900000
315.195200 222429.100000
317.174400 76545.400000
325.179400 1536569.500000
331.189600 56685.700000
343.189800 2648954.800000

>ms2
105.069700 77832.100000
107.085300 32812.200000
115.053900 16391.200000
117.069600 37931.300000
119.085400 59071.400000
121.064600 268178.400000
121.100900 28868.100000
123.080100 36290.800000
128.062200 13252.000000
129.069700 27382.100000
130.077900 12747.800000
131.085300 59387.100000
133.064600 38512.800000
133.101000 31846.400000
135.080300 144075.400000
135.116600 41625.700000
137.096300 18824.200000
139.075000 33541.400000
141.070200 9474.300000
143.085300 52017.700000
145.064600 31664.600000
145.100900 187649.600000
147.080200 210630.000000
147.116600 38644.100000
148.087900 11885.200000
149.096300 41332.800000
151.075200 38830.500000
153.090800 31399.900000
155.085000 42394.200000
157.101100 46350.500000
159.080200 85883.900000
159.116900 40043.800000
161.095900 145265.400000
163.111500 2300441.000000
165.091100 33607.500000
165.127300 29713.800000
169.100800 40614.200000
171.080300 100971.400000
171.116600 178328.900000
173.095800 188850.700000
175.111500 57445.300000
177.090800 83296.700000
179.085700 11403.900000
179.106400 31358.800000
181.086100 27603.600000
181.101100 88815.000000
183.079900 14872.200000
183.116400 67536.300000
185.096000 70234.400000
185.132500 21615.400000
187.075300 45936.200000
187.111400 115718.800000
189.090700 98635.800000
189.127300 39371.000000
191.106300 90315.100000
195.116700 74401.100000
197.096000 52560.600000
197.132300 64064.200000
199.111500 158749.100000
201.091200 28717.200000
201.127100 54031.700000
203.106800 39950.500000
205.101500 16746.800000
205.122200 35548.300000
207.101000 35827.600000
207.116700 71831.800000
209.095900 31254.900000
209.116800 14559.900000
209.132000 55864.000000
211.111500 99868.800000
211.147900 33238.500000
213.090700 14059.400000
213.127200 90291.000000
215.106200 32482.400000
215.142800 41455.700000
217.122100 89146.000000
219.116100 38352.300000
221.095400 10816.000000
221.132300 108045.000000
223.111600 106320.500000
223.148000 100352.200000
225.127100 151259.400000
225.163400 60644.900000
227.107200 31392.200000
227.142700 69126.900000
229.121900 72320.200000
231.138100 21444.800000
232.124100 12335.900000
233.132400 31513.200000
235.111800 18427.500000
235.147900 91231.000000
237.127000 130137.600000
237.163700 112238.400000
239.106100 18139.200000
239.142800 275894.200000
239.179300 49107.000000
241.122100 229802.900000
241.158500 120790.400000
243.137900 77057.600000
243.174100 44774.300000
245.132300 31581.000000
247.112000 20882.100000
247.148000 185742.100000
249.127300 94430.800000
249.163600 112951.000000
251.107100 16851.800000
251.142900 73485.700000
251.179100 55202.600000
253.122800 21061.200000
253.158600 103685.600000
255.137700 112280.100000
255.174200 113275.600000
257.153400 183783.500000
257.190100 56618.400000
259.147800 15472.500000
261.127600 27432.500000
261.148200 60627.400000
261.163600 117330.800000
263.142900 109430.800000
265.158300 871255.200000
267.137700 189721.000000
267.173900 734534.800000
269.153200 37476.900000
269.189400 44662.300000
271.148600 21892.500000
271.168900 39291.700000
277.158600 116149.200000
279.137700 36400.500000
279.174100 458984.800000
281.153500 84166.100000
281.191000 22636.600000
283.169000 986012.900000
284.176900 30286.200000
285.148600 101592.100000
285.184700 581279.600000
289.158400 292731.400000
295.169200 516572.700000
297.184800 452426.300000
299.163900 770741.900000
300.172000 38871.600000
301.179500 842119.400000
303.158900 60312.900000
307.168900 1018512.800000
313.179500 799245.100000
315.195200 172745.300000
317.174400 54640.200000
325.179500 1368046.500000
331.190000 60809.400000
343.189900 2555261.000000
361.200600 913775.100000

>ms2
105.069700 108343.200000
107.085400 42790.700000
115.054100 28060.300000
117.069900 48669.000000
119.085300 73228.300000
121.064500 333653.500000
121.101200 38188.400000
123.080400 44641.800000
128.062100 15605.200000
129.069700 35171.600000
130.077300 12151.700000
131.085300 70300.600000
133.064700 51469.000000
133.100700 34337.400000
135.080200 172807.400000
135.116600 50646.900000
137.095600 27552.300000
139.075100 36813.700000
141.069200 11882.800000
143.085400 75098.600000
145.064700 34722.400000
145.101000 261586.800000
147.080200 270371.500000
147.116400 34478.000000
148.088300 13748.200000
149.095800 59523.800000
151.075200 58009.400000
153.090800 47498.000000
155.085300 52529.900000
157.064700 25799.600000
157.101000 69481.900000
159.080100 83505.400000
159.117100 36497.200000
161.059300 20403.000000
161.095800 157369.900000
163.111500 2786208.800000
165.091000 35186.500000
165.127000 36307.600000
167.085900 15735.900000
169.101000 74052.100000
171.080200 135112.900000
171.116600 241154.700000
173.095800 193844.100000
175.111400 72490.500000
177.090600 99298.500000
179.106400 41102.000000
181.085400 31669.400000
181.100900 106219.200000
183.080500 18880.500000
183.116600 88355.100000
185.095900 90099.000000
185.132300 31795.100000
187.075000 37758.700000
187.111400 100275.100000
189.090800 120408.500000
189.127000 42744.500000
191.106400 114124.000000
193.100900 38097.200000
195.079900 12449.600000
195.116500 109493.300000
197.096100 53519.400000
197.132000 79429.500000
199.111500 180624.400000
199.147400 15606.400000
201.090500 31172.400000
201.127100 55234.200000
203.106000 36343.200000
205.101400 22251.400000
205.121900 31286.600000
207.101700 42330.500000
207.116700 104447.500000
209.095900 46040.700000
209.117400 21996.000000
209.132100 81706.200000
211.111400 122011.300000
211.147900 61010.600000
213.090800 21011.100000
213.127000 106632.700000
215.105700 36058.500000
215.142500 45680.700000
217.121900 80335.700000
219.116800 53322.200000
221.095200 15116.400000
221.132000 145999.900000
223.111400 143511.100000
223.147900 132644.600000
225.127100 177809.300000
225.163200 62160.600000
227.106600 29951.200000
227.142900 89078.100000
229.122000 79249.000000
229.159000 14853.500000
231.137800 18907.200000
233.132100 46048.100000
235.112000 21070.700000
235.147900 111598.500000
237.127200 162234.600000
237.163500 141036.100000
239.106200 26284.400000
239.142700 322928.700000
239.179100 52019.500000
241.122000 244113.900000
241.158500 148427.100000
243.137600 98177.300000
243.173600 57019.600000
245.132400 37033.000000
247.111100 22010.800000
247.147800 228753.000000
249.127100 126694.400000
249.163500 122790.900000
251.107100 25416.800000
251.142600 95547.100000
251.179500 55832.100000
253.123200 25139.500000
253.158300 106058.000000
255.137700 131277.000000
255.173900 144365.500000
257.153300 226344.100000
257.189700 71216.700000
259.148400 13345.900000
261.127100 30538.500000
261.148300 75803.100000
261.163600 111980.900000
263.142800 136269.600000
264.151300 20707.600000
265.158300 1100766.800000
267.137500 224254.700000
267.173900 866162.000000
269.153800 43852.500000
269.189700 59376.400000
271.147500 27011.900000
271.169600 47143.300000
277.158300 148164.900000
279.138500 44083.800000
279.174100 552929.200000
281.153300 96914.900000
281.188700 17046.300000
283.168900 1124051.500000
284.176800 58515.700000
285.148400 146324.500000
285.184600 644513.600000
289.158500 327213.700000
295.169100 575394.900000
297.184600 492017.700000
299.163800 962185.500000
300.171700 61612.500000
301.179400 935921.100000
303.159000 75761.200000
307.168800 1140238.200000
313.179500 921106.900000
315.195200 222429.100000
317.174400 76545.400000
325.179400 1536569.500000
331.189600 56685.700000
343.189800 2648954.800000

