>compound UF41753668
>parentmass 377.0908
>ionization [M+H]+
>formula C19H12F4N2O2
>rt 1641.360000
>profile orbitrap
#smiles_iso C1=CC(=CC(=C1)OC2=CC=CC(=N2)C(=O)NC3=CC=C(C=C3)F)C(F)(F)F
#smiles_can C1=CC(=CC(=C1)OC2=CC=CC(=N2)C(=O)NC3=CC=C(C=C3)F)C(F)(F)F
#inchikey CWKFPEBMTGKLKX-UHFFFAOYSA-N
#pubchem_id 3294375
#mb_accession UF406503,UF406504

>ms2peaks
145.025400 13334.000000
236.052100 9131.000000
238.047800 826591.200000
239.050900 9064.200000
256.058500 273103.400000
266.042800 770662.100000
270.074200 16557.500000
284.053400 311691.187500
298.069300 18300.600000
337.079000 950465.300000
357.085300 791161.000000
359.080700 2886111.800000

>ms2peaks
236.052400 18479.000000
238.047500 1193032.200000
256.058200 433003.900000
266.042500 1197122.100000
270.073700 24692.700000
298.069000 25003.200000
337.078600 1432969.100000
357.084800 1290685.900000
359.080300 4572106.500000

