>compound UF41208514
>parentmass 297.0556
>ionization [M+H]+
>formula C14H14Cl2N2O
>rt 1280.280000
>profile orbitrap
#smiles_iso C=CCOC(CN1C=CN=C1)C2=C(C=C(C=C2)Cl)Cl
#smiles_can C=CCOC(CN1C=CN=C1)C2=C(C=C(C=C2)Cl)Cl
#inchikey PZBPKYOVPCNPJY-UHFFFAOYSA-N
#pubchem_id 37175
#mb_accession UF400903,UF400904

>ms2
109.075900 90775.500000
149.015300 10940.200000
158.976100 781106.100000
164.038500 5678.600000
172.991900 201947.000000
175.031100 24210.500000
176.038600 530271.000000
184.991800 169066.300000
186.970200 5380.300000
188.094600 10684.500000
199.007500 97037.900000
200.986700 1696351.900000
211.007500 148107.100000
229.018000 98115.300000
255.008500 2322339.200000

>ms2
109.076000 86012.500000
141.069800 8156.600000
149.015200 6240.400000
158.976300 760857.100000
164.038200 5974.800000
172.992000 185506.700000
175.031100 20074.100000
176.038700 495056.000000
184.991900 156583.000000
186.969900 7197.900000
199.007600 92801.600000
200.986800 1638911.900000
203.037000 21312.600000
211.007600 140083.100000
229.018200 87388.200000
255.008700 2237854.800000

