>compound UF43548614
>parentmass 177.1022
>ionization [M+H]+
>formula C10H12N2O
>rt 158.100000
>profile orbitrap
#smiles_iso CN1[C@@H](CCC1=O)C2=CN=CC=C2
#smiles_can CN1C(CCC1=O)C2=CN=CC=C2
#inchikey UIKROCXWUNQSPJ-VIFPVBQESA-N
#pubchem_id 854019
#mb_accession UF413003,UF413004

>ms2
70.065500 4798.100000
80.049800 332554.800000
98.060400 375961.600000
118.065600 61000.600000
119.073400 4505.600000
146.060700 482604.700000
147.006000 4308.300000
148.076200 6400.000000
149.071600 96511.500000
160.076400 12133.600000
177.103000 1674076.200000

>ms2
70.065400 4234.200000
80.049800 330316.800000
98.060400 374611.400000
118.065700 61883.300000
146.060700 488250.500000
147.005900 3932.000000
148.076300 6773.100000
149.071600 99517.500000
159.092400 15829.800000

