>compound UF44076911
>parentmass 291.0895
>ionization [M+H]+
>formula C15H15ClN2O2
>rt 1505.580000
>profile orbitrap
#smiles_iso CN(C)C(=O)NC1=CC=C(C=C1)OC2=CC=C(C=C2)Cl
#smiles_can CN(C)C(=O)NC1=CC=C(C=C1)OC2=CC=C(C=C2)Cl
#inchikey IVUXTESCPZUGJC-UHFFFAOYSA-N
#pubchem_id 16115
#mb_accession UF404603,UF404604

>ms2peaks
118.064900 26301.500000
119.073100 7892.200000
147.067900 25412.700000
163.086900 9475.300000
164.094300 165652.900000
246.031700 61327.000000
256.120800 27047.400000
291.089300 497294.400000

>ms2peaks
118.065000 28862.400000
147.067700 32889.200000
163.086400 10300.900000
164.094300 183988.000000
246.031700 68248.600000
256.120200 27810.500000

