>compound UF46646458
>parentmass 227.1543
>ionization [M+H]+
>formula C15H18N2
>rt 773.760000
>profile orbitrap
#smiles_iso CC(C)NC1=CC=C(C=C1)NC2=CC=CC=C2
#smiles_can CC(C)NC1=CC=C(C=C1)NC2=CC=CC=C2
#inchikey OUBMGJOQLXMSNT-UHFFFAOYSA-N
#pubchem_id 7573
#mb_accession UF413703,UF413704

>ms2
120.081300 1359197.200000
129.070400 9683.800000
178.078500 69332.900000
182.097300 8371.100000
183.117500 4358.200000
193.102100 160143.900000
227.155100 3576769.000000

>ms2
103.054600 5121.700000
118.065500 4134.100000
120.081200 2943708.000000
129.070400 25387.700000
143.085800 7176.600000
155.085400 4152.000000
157.101900 6604.200000
165.070700 4813.700000
168.081200 4406.000000
178.078400 171854.700000
181.102000 6956.100000
182.097000 26509.700000
183.117600 9390.700000
192.092800 4483.900000
193.101900 380416.500000
194.097400 6174.500000
195.105000 141314.100000
208.113000 26506.000000
210.128600 168519.800000
227.155000 3667.500000

