>compound UF46136704
>parentmass 291.1452
>ionization [M+H]+
>formula C14H18N4O3
>rt 891.360000
>profile orbitrap
#smiles_iso COC1=CC(=CC(=C1OC)OC)CC2=CN=C(N=C2N)N
#smiles_can COC1=CC(=CC(=C1OC)OC)CC2=CN=C(N=C2N)N
#inchikey IEDVJHCEMCRBQM-UHFFFAOYSA-N
#pubchem_id 5578
#mb_accession UF410603,UF410604

>ms2
123.066800 540709.000000
148.052200 2909.200000
181.086300 91213.800000
188.105600 4025.500000
188.118800 3512.600000
201.079100 4912.600000
202.121600 4293.800000
229.108800 10575.400000
230.116700 1015297.500000
244.096000 6503.800000
245.104200 10993.500000
246.110900 10017.100000
257.103600 6185.100000
258.111800 338942.400000
259.120000 13544.200000
260.127600 27995.300000
261.098800 404017.600000
275.114500 208856.000000
276.122400 179782.000000
291.145800 2380814.200000

>ms2
110.058600 2589.300000
123.066700 765992.400000
181.086200 133542.000000
201.078800 6241.400000
201.114100 2508.600000
202.121500 5824.100000
229.108800 16718.800000
230.116600 1498767.100000
232.097200 13514.000000
244.072300 3001.600000
244.096300 8802.200000
245.104000 19118.800000
246.111700 16978.800000
247.119500 57620.300000
257.103800 5769.000000
258.111700 522747.300000
259.119600 17731.000000
260.127300 38780.800000
261.098700 602888.200000
275.114300 309794.500000
276.122100 267933.600000

