>compound UF48986222
>parentmass 360.1718
>ionization [M+H]+
>formula C19H22FN3O3
>rt 992.400000
>profile orbitrap
#smiles_iso CCN1CCN(CC1)C2=C(C=C3C(=C2)N(C=C(C3=O)C(=O)O)C4CC4)F
#smiles_can CCN1CCN(CC1)C2=C(C=C3C(=C2)N(C=C(C3=O)C(=O)O)C4CC4)F
#inchikey SPFYMRJSYKOXGV-UHFFFAOYSA-N
#pubchem_id 71188
#mb_accession UF409603,UF409604

>ms2
261.104700 1942.600000
316.182500 17987.800000
318.161600 118508.000000
344.141300 5642.500000

>ms2
316.182500 14956.100000
318.161800 114828.500000
344.141500 4614.700000

