>compound UF48207560
>parentmass 289.2162
>ionization [M+H]+
>formula C19H28O2
>rt 1498.500000
>profile orbitrap
#smiles_iso C[C@]12CC[C@H]3[C@H]([C@@H]1CC[C@@H]2O)CCC4=CC(=O)CC[C@]34C
#smiles_can CC12CCC3C(C1CCC2O)CCC4=CC(=O)CCC34C
#inchikey MUMGGOZAMZWBJJ-DYKIIFRCSA-N
#pubchem_id 6013
#mb_accession UF416003,UF416004

>ms2
91.054000 94152.100000
93.069600 160529.300000
95.085400 262482.500000
97.064600 8279848.000000
105.069700 202416.500000
107.085200 129912.000000
109.064500 3530730.000000
109.101000 198512.400000
117.069500 79813.100000
119.085300 177279.100000
121.064500 163819.700000
121.101000 287822.400000
123.080300 872717.500000
123.116400 57334.600000
129.069900 61218.600000
131.085300 453294.200000
133.100900 254792.200000
135.116600 595352.200000
143.085300 454134.400000
145.101000 785709.000000
147.116600 541405.000000
149.095900 167246.100000
149.132000 292701.000000
151.112400 43939.200000
155.085200 82624.600000
157.100900 1219128.400000
159.116600 989588.200000
161.096200 141148.900000
161.132300 429884.200000
163.111500 324559.600000
163.147800 204110.200000
169.101200 157187.000000
171.116600 1341685.800000
173.132200 833080.400000
175.111500 167268.500000
175.147900 1133739.600000
177.127100 435604.700000
183.116500 539142.400000
185.132200 458930.000000
187.147900 1479109.100000
189.127000 416327.200000
189.163500 1499388.000000
191.143200 77939.400000
197.132200 1353402.400000
199.147800 653138.200000
201.127500 101719.100000
201.163600 664352.900000
203.143000 153838.600000
211.147900 740211.400000
213.163500 1519435.400000
215.142700 441767.300000
217.158600 114437.100000
219.174200 278610.800000
225.163300 559140.000000
227.179200 433605.000000
229.158100 154228.400000
229.194700 278752.500000
231.173500 59616.800000
243.174100 146831.200000
243.210300 587475.000000
245.190300 52471.900000
253.194700 12339333.000000
271.205200 9500310.000000
289.215800 4741671.500000

>ms2
83.049000 45503.200000
91.054100 116313.600000
93.069700 160507.100000
95.085400 293669.600000
97.064600 9699874.000000
105.069700 232989.700000
107.085200 206538.500000
109.064600 4448210.500000
109.101000 232475.200000
117.069700 73140.500000
119.085300 200048.900000
121.064500 253053.600000
121.101000 352740.000000
123.080200 1086328.600000
123.116400 60894.800000
129.069400 75230.800000
131.085300 583499.800000
133.101100 287248.300000
135.116600 595255.700000
137.096300 73010.300000
143.085300 533578.900000
145.101000 979416.100000
147.116700 736156.500000
149.096100 203745.700000
149.132200 352120.600000
151.111100 62435.300000
155.085200 98334.100000
157.101000 1407362.400000
159.116600 1276173.800000
161.095600 170537.100000
161.132300 590783.700000
163.111500 398912.900000
163.148000 264925.600000
169.100700 197801.300000
171.116600 1695249.500000
173.132300 1040087.200000
175.111600 265313.900000
175.147900 1398494.900000
177.127300 565493.900000
183.116600 694450.700000
185.132200 667888.100000
187.147900 1693886.600000
189.127200 430309.300000
189.163500 1941574.000000
191.143100 133245.700000
197.132200 1722839.200000
199.148000 951138.100000
201.127000 88463.700000
201.163500 926287.200000
203.142500 178389.200000
211.147900 870050.400000
213.163500 1898272.000000
215.142800 479911.900000
217.158000 136594.200000
219.174100 426270.800000
225.163500 644100.800000
227.179200 589919.200000
229.158900 160951.200000
229.195000 370519.700000
231.174000 66211.500000
243.174300 175550.700000
243.210500 699027.000000
245.188800 44996.500000
253.194700 14779602.000000
271.205200 11171812.000000

