>compound UF49416559
>parentmass 228.1277
>ionization [M+H]+
>formula C9H17N5S
>rt 1304.580000
>profile orbitrap
#smiles_iso CCNC1=NC(=NC(=N1)SC)NC(C)C
#smiles_can CCNC1=NC(=NC(=N1)SC)NC(C)C
#inchikey RQVYBGPQFYCBGX-UHFFFAOYSA-N
#pubchem_id 13263
#mb_accession UF404803,UF404804

>ms2peaks
91.032600 21575.800000
96.055600 84060.500000
138.077500 28864.000000
138.102700 83561.000000
144.059200 18742.700000
158.049700 77391.600000
171.056700 18318.100000
186.080700 12740178.000000
200.096600 19042.500000
228.127700 10840418.000000

>ms2peaks
91.032400 46610.000000
96.055600 190678.900000
138.077200 62391.800000
138.102600 213650.000000
144.059400 46810.900000
158.049600 210103.600000
171.057200 43936.200000
180.124800 47456.700000
186.080600 35077472.000000
200.096500 83217.000000

