>compound UF49025971
>parentmass 195.1016
>ionization [M+H]+
>formula C11H14O3
>rt 1479.900000
>profile orbitrap
#smiles_iso CCCCOC(=O)C1=CC=C(C=C1)O
#smiles_can CCCCOC(=O)C1=CC=C(C=C1)O
#inchikey QFOHBWFCKVYLES-UHFFFAOYSA-N
#pubchem_id 7184
#mb_accession UF415803,UF415804,UF423403,UF423404

>ms2
139.038700 94783.500000
151.075100 3495.000000

>ms2
139.038700 94726.000000
151.075200 1972.400000

>ms2
139.038700 94783.500000
151.075100 3495.000000

>ms2
139.038700 94726.000000
151.075200 1972.400000

