>compound UF51198644
>parentmass 202.0854
>ionization [M+H]+
>formula C7H12ClN5
>rt 1312.920000
>profile orbitrap
#smiles_iso CCNC1=NC(=NC(=N1)Cl)NCC
#smiles_can CCNC1=NC(=NC(=N1)Cl)NCC
#inchikey ODCWYMIRDDJXKW-UHFFFAOYSA-N
#pubchem_id 5216
#mb_accession UF402603,UF402604,UF404103,UF404104

>ms2
68.024100 11720.600000
96.055500 46250.000000
104.000900 23369.300000
107.036800 2594.800000
124.086800 490246.800000
132.032200 301607.300000
138.077600 4023.200000
146.022700 3715.100000
166.108600 75968.500000
174.053900 217996.100000
202.085200 542949.900000

>ms2
68.024200 9843.800000
71.060200 2195.200000
96.055500 40520.800000
104.000900 22805.000000
107.037000 1942.100000
124.086800 473830.900000
132.032200 289185.500000
138.077400 3199.900000
146.022600 4928.000000
166.108600 72838.000000
174.053900 214388.200000

>ms2
68.024100 11720.600000
96.055500 46250.000000
104.000900 23369.300000
107.036800 2594.800000
124.086800 490246.800000
132.032200 301607.300000
138.077600 4023.200000
146.022700 3715.100000
166.108600 75968.500000
174.053900 217996.100000
202.085200 542949.900000

>ms2
68.024200 9843.800000
71.060200 2195.200000
96.055500 40520.800000
104.000900 22805.000000
107.037000 1942.100000
124.086800 473830.900000
132.032200 289185.500000
138.077400 3199.900000
146.022600 4928.000000
166.108600 72838.000000
174.053900 214388.200000

