>compound UF51376549
>parentmass 261.0321
>ionization [M+H]+
>formula C7H15Cl2N2O2P
>rt 1215.240000
>profile orbitrap
#smiles_iso C1CNP(=O)(OC1)N(CCCl)CCCl
#smiles_can C1CNP(=O)(OC1)N(CCCl)CCCl
#inchikey CMSMOCZEIVJLDB-UHFFFAOYSA-N
#pubchem_id 2907
#mb_accession UF411903,UF411904

>ms2peaks
94.005100 2083.200000
106.042300 254505.200000
110.000800 1845.300000
120.021500 13113.300000
140.003600 491282.700000
142.019100 201115.100000
155.998600 2343.900000
171.008700 1725.100000
185.025200 16720.000000
197.025400 2130.000000
199.041000 9651.900000

>ms2peaks
106.042300 234874.300000
110.000300 1684.100000
120.021600 12519.300000
140.003600 452817.900000
142.019200 180774.400000
155.998800 2895.100000
185.025400 13075.300000
197.026300 2132.600000
199.041100 9006.000000

