>compound UF56650963
>parentmass 195.0877
>ionization [M+H]+
>formula C8H10N4O2
>rt 946.800000
>profile orbitrap
#smiles_iso CN1C=NC2=C1C(=O)N(C(=O)N2C)C
#smiles_can CN1C=NC2=C1C(=O)N(C(=O)N2C)C
#inchikey RYYVLZVUVIJVGH-UHFFFAOYSA-N
#pubchem_id 2519
#mb_accession UF408903,UF408904

>ms2peaks
83.060400 1530.200000
110.071400 15741.600000
138.066400 664590.900000
151.098400 4084.700000
163.061700 3028.700000
177.016200 5723.500000
195.088000 27947.700000

>ms2peaks
110.071400 11345.100000
138.066300 571788.900000
151.098300 4250.700000
163.061400 1909.700000
177.016500 6734.900000

