>compound UF56706141
>parentmass 308.004
>ionization [M+H]+
>formula C15H8Cl2FNO
>rt 1664.280000
>profile orbitrap
#smiles_iso C1=CC(=CC=C1OC2=C3C(=CC(=CC3=NC=C2)Cl)Cl)F
#smiles_can C1=CC(=CC=C1OC2=C3C(=CC(=CC3=NC=C2)Cl)Cl)F
#inchikey WRPIRSINYZBGPK-UHFFFAOYSA-N
#pubchem_id 3391107
#mb_accession UF405503,UF405504

>ms2peaks
150.010500 37782.100000
162.010800 18700.200000
183.971800 15940.000000
188.026300 17558.000000
196.979400 1025530.400000
209.063800 17614.300000
210.071500 7740.200000
213.982100 258787.600000
217.022100 15796.800000
219.024900 28013.800000
225.033400 16942.700000
237.058600 90646.400000
238.066700 35333.100000
244.032500 475438.800000
245.040400 615868.400000
253.029600 28476.400000
254.036900 88690.300000
256.032000 14577.700000
260.002400 25031.100000
272.027400 6546644.500000
273.035100 61876.600000
280.009100 579475.300000
287.997900 598834.400000
308.004200 7286221.000000
309.007500 169487.200000

>ms2peaks
150.010500 35036.200000
162.010400 16255.200000
183.971800 17323.000000
188.025700 10440.100000
196.979400 996870.100000
209.063200 14267.500000
213.982200 236262.400000
217.021700 15449.900000
219.024500 23075.600000
225.033900 11647.500000
228.968400 9136.700000
237.058500 86866.800000
238.067400 23155.500000
244.032500 474489.000000
245.040400 627012.800000
253.028700 36620.400000
254.037100 82963.400000
256.033000 12729.500000
260.003100 23404.400000
272.027400 6399652.500000
273.036000 41532.700000
280.009100 591961.000000
287.998000 586061.400000
308.004200 31691.200000

