>compound UF57994960
>parentmass 171.1856
>ionization [M+H]+
>formula C10H22N2
>rt 132.840000
>profile orbitrap
#smiles_iso CC1(CC(CC(C1)(C)CN)N)C
#smiles_can CC1(CC(CC(C1)(C)CN)N)C
#inchikey RNLHGQLZWXBQNY-UHFFFAOYSA-N
#pubchem_id 17857
#mb_accession UF413403,UF413404

>ms2
89.071300 9598.500000
107.060800 2562.800000
154.159700 959062.400000

>ms2
72.044500 2777.100000
89.071400 10047.700000
107.060700 2068.700000
154.159600 958863.900000

