>compound UF57746055
>parentmass 223.0965
>ionization [M+H]+
>formula C12H14O4
>rt 1397.760000
>profile orbitrap
#smiles_iso CC(C)CC1=C(C(=CC=C1)C(=O)O)C(=O)O
#smiles_can CC(C)CC1=C(C(=CC=C1)C(=O)O)C(=O)O
#inchikey WXVFMRKUWGIPRB-UHFFFAOYSA-N
#pubchem_id 22394963
#mb_accession UF420603,UF420604

>ms2peaks
57.069900 2248.700000
149.023800 68527.600000
167.034500 16311.800000

>ms2peaks
57.069900 3514.300000
149.023800 124171.600000
167.034400 24622.200000

