>compound UF59627432
>parentmass 299.2006
>ionization [M+H]+
>formula C20H26O2
>rt 1461.960000
>profile orbitrap
#smiles_iso C[C@]12CC[C@H]3[C@H]([C@@H]1CC[C@]2(C#C)O)CCC4=CC(=O)CC[C@H]34
#smiles_can CC12CCC3C(C1CCC2(C#C)O)CCC4=CC(=O)CCC34
#inchikey VIKNJXKGJWUCNN-XGXHKTLJSA-N
#pubchem_id 6230
#mb_accession UF415003,UF415004

>ms2
91.054100 96738.900000
93.069800 57007.100000
95.085300 59261.700000
97.064700 18279.800000
105.069700 164883.500000
107.049000 119676.300000
107.085400 93746.200000
109.064600 236231.200000
109.100800 24040.400000
111.080300 50742.800000
115.053800 42050.900000
117.069700 99982.400000
119.085300 354153.200000
121.064400 43694.600000
121.101000 72081.900000
123.080200 82652.200000
128.061600 34673.600000
129.069600 191812.900000
131.085300 382828.800000
133.064500 57385.400000
133.101000 213856.400000
135.080300 195226.000000
135.116700 73548.900000
137.096100 49709.400000
141.069700 101089.600000
143.085300 364854.700000
145.064700 40762.200000
145.100900 665261.400000
147.080200 103551.400000
147.116700 136605.900000
149.095900 214559.300000
149.132100 53515.400000
151.111800 15923.000000
153.070400 12797.500000
154.077200 15525.200000
155.085400 203387.400000
157.064500 75035.500000
157.100900 376186.800000
159.080200 161978.300000
159.116600 260350.000000
161.095900 145199.000000
161.132300 64843.800000
163.111600 199444.800000
165.070000 23497.200000
166.077000 9880.000000
167.085300 151974.800000
169.100900 560206.400000
171.080200 53758.700000
171.116600 876681.100000
173.095900 121082.100000
173.132200 370636.900000
175.111400 178101.500000
175.148300 16929.900000
177.127100 44472.800000
179.085400 65078.300000
181.100900 342110.800000
183.116600 491362.900000
185.095800 321902.800000
185.132200 358995.000000
187.111500 269918.300000
187.148000 51473.400000
189.127100 148266.100000
191.143100 44179.500000
193.101000 159550.200000
194.109500 12719.500000
195.116600 403133.600000
197.095600 49738.200000
197.132200 478593.500000
199.111400 202780.500000
199.147800 262986.200000
201.127000 204288.100000
201.163900 35657.300000
203.143100 59777.200000
206.108300 13457.700000
207.116600 485563.400000
208.124800 27605.800000
209.132200 188212.500000
211.111400 160419.900000
211.147900 426673.500000
213.127100 146944.500000
213.163500 322282.500000
215.142700 104427.900000
219.116500 35538.600000
220.124300 24775.700000
221.132100 846313.600000
222.139900 45752.800000
223.147800 1169693.400000
225.127000 286487.900000
225.163500 124139.600000
227.142600 109360.900000
229.158200 125429.000000
231.174000 802310.200000
233.132800 20429.900000
234.140100 55938.100000
235.147800 537370.900000
237.163400 272181.300000
238.170700 23278.200000
239.142700 250597.000000
239.179100 706737.700000
241.158400 306853.500000
248.155800 106643.300000
252.150400 15687.100000
253.158400 389783.200000
253.194700 188258.000000
255.174000 65164.600000
257.189700 234529.400000
261.162900 27049.000000
263.179000 1201572.600000
266.165700 38261.600000
271.169700 19577.000000
281.189500 1961876.800000
299.200200 1307603.800000

>ms2
91.054100 130897.000000
93.069700 63540.000000
95.085300 63084.500000
97.064800 19719.500000
105.069700 220228.900000
107.048900 120146.800000
107.085200 99462.100000
109.064600 289598.800000
109.100900 39165.200000
111.080400 72960.800000
115.054000 59255.700000
117.069700 123012.600000
119.085300 411899.900000
121.064600 66196.600000
121.101000 92337.100000
123.080300 89697.500000
123.117000 14024.100000
128.062100 43750.900000
129.069700 220259.500000
130.077600 17724.400000
131.085300 444294.300000
133.064700 69927.500000
133.101000 243749.200000
135.080300 259454.300000
135.116600 88959.500000
137.095900 47645.100000
141.069700 122395.000000
143.085300 458045.800000
145.064600 48362.600000
145.101000 766936.000000
147.080300 142945.000000
147.116600 185693.600000
149.095900 226756.800000
149.132400 55138.200000
151.111300 12477.300000
154.077400 16539.800000
155.085300 234890.400000
157.064600 99074.600000
157.101000 436893.400000
159.080300 178872.700000
159.116700 315735.500000
161.095900 182062.300000
161.132100 65879.900000
163.111500 216228.800000
165.069900 23389.700000
167.085300 191040.100000
169.101000 637047.300000
171.080000 51838.800000
171.116600 957922.400000
173.096000 140237.800000
173.132300 471796.200000
175.111600 200522.500000
175.147800 26632.900000
177.127200 52496.500000
179.085300 76556.800000
181.100900 441057.200000
183.116600 566489.800000
185.095800 405937.400000
185.132200 447200.000000
187.111500 303406.200000
187.148100 61126.200000
189.127300 195753.200000
191.143000 50722.300000
192.093100 15008.300000
193.101000 175826.100000
195.116600 475963.600000
197.095900 73754.200000
197.132200 535071.600000
199.111500 263501.800000
199.147900 310703.600000
201.127200 216554.400000
201.163200 39104.700000
203.142800 67077.400000
205.101800 25102.800000
206.108300 22947.900000
207.116600 569993.100000
208.124700 33787.800000
209.132200 228766.600000
211.111600 191158.700000
211.147900 491816.700000
213.127100 153722.700000
213.163500 396459.900000
215.142800 118586.800000
219.116500 44588.100000
220.123800 26824.400000
221.132100 1049020.400000
222.140100 51231.200000
223.147800 1425006.600000
225.127100 308607.900000
225.163300 140906.500000
227.142600 132087.400000
229.158300 137393.600000
231.174000 1004134.100000
233.132500 27655.800000
234.140000 69839.100000
235.147900 619655.400000
237.163500 339521.300000
238.171200 25879.400000
239.142700 263172.100000
239.179100 783041.900000
241.158400 327178.400000
248.155600 135732.600000
252.150900 22673.400000
253.158400 459747.300000
253.194800 224557.000000
255.174000 80844.600000
257.189800 275327.900000
261.163700 50299.300000
263.179000 1377664.800000
266.166800 42634.900000
271.169600 32799.800000
281.189600 2141651.500000

