>compound UF60290723
>parentmass 343.0399
>ionization [M+H]+
>formula C18H12Cl2N2O
>rt 1465.560000
>profile orbitrap
#smiles_iso C1=CC=C(C(=C1)C2=CC=C(C=C2)Cl)NC(=O)C3=C(N=CC=C3)Cl
#smiles_can C1=CC=C(C(=C1)C2=CC=C(C=C2)Cl)NC(=O)C3=C(N=CC=C3)Cl
#inchikey WYEMLYFITZORAB-UHFFFAOYSA-N
#pubchem_id 213013
#mb_accession UF406003,UF406004

>ms2peaks
111.994800 14123.900000
139.989800 210091.800000
271.086800 4980.800000
272.093400 8861.800000
307.063200 3790501.800000

>ms2peaks
111.994800 11183.900000
139.989800 152604.900000
271.086300 4777.200000
307.063200 2964633.800000

