>compound UF60826247
>parentmass 331.015
>ionization [M+H]+
>formula C12H11ClN2O5S
>rt 1261.620000
>profile orbitrap
#smiles_iso C1=COC(=C1)CNC2=CC(=C(C=C2C(=O)O)S(=O)(=O)N)Cl
#smiles_can C1=COC(=C1)CNC2=CC(=C(C=C2C(=O)O)S(=O)(=O)N)Cl
#inchikey ZZUFCTLCJUWOSV-UHFFFAOYSA-N
#pubchem_id 3440
#mb_accession UF407803,UF407804

>ms2peaks
244.944000 2053.200000
272.938500 5957.000000

>ms2peaks
244.943400 1862.900000
272.938800 6988.200000

