>compound UF61897917
>parentmass 298.2741
>ionization [M+H]+
>formula C18H35NO2
>rt 1373.460000
>profile orbitrap
#smiles_iso CCCN(CC)CC1COC2(O1)CCC(CC2)C(C)(C)C
#smiles_can CCCN(CC)CC1COC2(O1)CCC(CC2)C(C)(C)C
#inchikey PUYXTUJWRLOUCW-UHFFFAOYSA-N
#pubchem_id 86160
#mb_accession UF401903,UF401904

>ms2
72.080700 14318.700000
100.112000 1093768.800000
102.091300 23042.200000
126.127700 64249.600000
144.138200 10776234.000000
160.112000 82838.600000
160.133200 101079.000000
174.128100 16172.500000
175.135400 44912.500000
176.143600 73840.900000
202.122600 203573.300000
234.149200 26187.800000
240.232400 77643.900000
254.247600 60037.300000
298.274100 746579.200000

>ms2
72.080600 18587.300000
100.112000 1141635.400000
102.091200 27519.400000
126.127700 67206.800000
144.138100 10958105.000000
160.112100 92321.700000
160.133300 121452.700000
174.127800 21045.200000
175.135500 34430.000000
176.143400 67470.000000
202.122700 215249.200000
234.148800 30904.600000
240.232400 91635.800000
254.248100 61529.500000

