>compound UF63696818
>parentmass 242.1434
>ionization [M+H]+
>formula C10H19N5S
>rt 1394.520000
>profile orbitrap
#smiles_iso CC(C)NC1=NC(=NC(=N1)SC)NC(C)C
#smiles_can CC(C)NC1=NC(=NC(=N1)SC)NC(C)C
#inchikey AAEVYOVXGOFMJO-UHFFFAOYSA-N
#pubchem_id 4929
#mb_accession UF403703,UF403704

>ms2
68.024300 41700.500000
110.071300 101080.800000
116.027800 65676.700000
152.118200 241791.600000
158.049500 11254788.000000
200.096200 40964860.000000
242.143300 3108313.000000

>ms2
68.024100 41741.400000
110.071300 100449.700000
152.118300 273173.900000
158.049400 10889942.000000
200.096200 40501988.000000

