>compound UF63371488
>parentmass 251.0373
>ionization [M+H]+
>formula C12H10O4S
>rt 1160.940000
>profile orbitrap
#smiles_iso C1=CC(=CC=C1O)S(=O)(=O)C2=CC=C(C=C2)O
#smiles_can C1=CC(=CC=C1O)S(=O)(=O)C2=CC=C(C=C2)O
#inchikey VPWNQTHUCYMVMZ-UHFFFAOYSA-N
#pubchem_id 6626
#mb_accession UF424003,UF424004

>ms2
65.038300 135758.300000
81.033300 21927.700000
93.033200 247437.100000
109.028200 996069.100000
111.043700 27867.700000
121.039400 405755.200000
156.995000 10122684.000000
222.997100 105073.500000
251.036800 2587925.500000

>ms2
65.038300 166095.200000
81.033300 29726.000000
93.033300 323060.100000
109.028200 1232018.200000
111.043800 38951.100000
121.039400 472831.100000
156.995000 11613251.000000
222.997100 113750.600000

