>compound UF63167115
>parentmass 182.0093
>ionization [M+H]+
>formula C8H7NS2
>rt 1490.700000
>profile orbitrap
#smiles_iso CSC1=NC2=CC=CC=C2S1
#smiles_can CSC1=NC2=CC=CC=C2S1
#inchikey UTBVIMLZIRIFFR-UHFFFAOYSA-N
#pubchem_id 11989
#mb_accession UF419803,UF419804

>ms2peaks
135.014100 4818.100000
136.022000 8060.300000
166.986300 282210.800000
182.009900 74717.600000

>ms2peaks
124.034500 1818.200000
135.014000 4690.000000
136.022000 6490.500000
149.030000 1283.500000
166.986300 234402.000000

