>compound UF64770926
>parentmass 240.0786
>ionization [M+H]+
>formula C12H14ClNO2
>rt 1436.940000
>profile orbitrap
#smiles_iso CC1(CON(C1=O)CC2=CC=CC=C2Cl)C
#smiles_can CC1(CON(C1=O)CC2=CC=CC=C2Cl)C
#inchikey KIEDNEWSYUYDSN-UHFFFAOYSA-N
#pubchem_id 54778
#mb_accession UF405603,UF405604

>ms2
55.054100 13207.700000
73.064700 14589.300000
89.038300 13273.600000
100.075600 145444.000000
114.054900 45298.200000
125.015100 6591634.000000
128.070400 925542.400000
140.026100 105831.200000
204.101300 7849.800000
240.078500 212637.400000

>ms2
55.054100 11054.700000
73.064700 12845.800000
89.038500 7729.900000
100.075600 123279.800000
114.055000 38721.600000
125.015100 5866578.000000
128.070400 741262.800000
140.026100 104998.800000
204.101700 7944.300000

