>compound UF68180550
>parentmass 373.285
>ionization [M+H]+
>formula C23H36N2O2
>rt 1502.700000
>profile orbitrap
#smiles_iso C[C@]12CC[C@H]3[C@H]([C@@H]1CC[C@@H]2C(=O)NC(C)(C)C)CC[C@@H]4[C@@]3(C=CC(=O)N4)C
#smiles_can CC12CCC3C(C1CCC2C(=O)NC(C)(C)C)CCC4C3(C=CC(=O)N4)C
#inchikey DBEPLOCGEIEOCV-WSBQPABSSA-N
#pubchem_id 57363
#mb_accession UF411503,UF411504

>ms2
119.085600 33678.900000
120.081200 10076.800000
121.101400 55937.800000
128.062500 15026.100000
129.070000 12214.000000
131.085900 36415.000000
133.101300 58825.000000
135.117200 34926.600000
141.069700 9486.100000
143.085900 20147.100000
145.101300 49308.900000
147.080600 10191.400000
147.117100 64993.800000
149.095600 10953.700000
149.132600 15875.600000
155.085800 26067.900000
157.101300 35392.000000
159.080600 10345.300000
159.117100 39733.500000
161.096500 34451.100000
161.132500 25403.400000
164.107000 10867.200000
169.101400 21290.600000
171.117100 36517.900000
173.132900 59718.800000
175.112000 16890.400000
175.148400 97692.300000
177.164300 41895.200000
180.138300 10034.700000
181.101600 27537.700000
183.117300 54681.600000
185.132600 61397.300000
187.148600 78848.000000
189.164100 235463.000000
195.117200 65896.600000
197.132700 57379.900000
199.112500 19538.800000
199.148400 26489.700000
203.143700 17420.300000
203.179700 31015.200000
209.132900 13935.600000
211.148600 44835.400000
213.127600 10690.500000
213.164200 85687.900000
215.143700 51952.400000
215.179900 69289.100000
220.170000 133078.900000
222.185900 11299.400000
223.148700 19493.700000
227.179900 115455.600000
229.195500 80062.000000
232.170000 123635.000000
237.164200 210227.800000
239.179800 146735.100000
247.149100 30829.900000
249.196800 110672.900000
254.190800 141709.600000
255.174900 303020.500000
256.206600 101191.500000
257.190500 73045.100000
265.159200 52881.800000
272.201500 147706.000000
274.217200 205365.600000
281.201500 15928.200000
282.185900 99731.500000
283.169800 87312.200000
288.233400 31725.600000
299.212700 55068.700000
300.196800 65013.600000
305.259300 8455602.000000
317.223200 241463.800000
331.275000 54826.000000
355.275200 572859.400000
358.261100 13571.600000
373.285500 3924795.500000

>ms2
107.085500 10853.600000
117.070200 10626.000000
119.085700 37147.500000
121.101300 51960.000000
128.062200 26225.300000
129.070000 14233.000000
131.085700 49995.700000
133.101400 73117.500000
135.117000 45017.300000
141.070200 12744.600000
143.086100 28430.300000
145.101400 63919.000000
147.080600 10021.300000
147.116900 81810.800000
149.096300 16550.500000
149.132600 19913.800000
150.090800 10828.100000
152.107600 10841.900000
155.085900 24231.700000
157.101500 38832.000000
159.080100 9925.900000
159.117100 50936.400000
161.096300 38365.700000
161.132700 28362.500000
163.112400 20084.100000
169.101500 26852.400000
171.117100 53679.900000
173.096600 15021.500000
173.132700 83431.600000
175.112000 19634.600000
175.148400 119199.000000
176.107700 12436.400000
177.164100 34128.900000
178.123300 20855.900000
180.139100 10134.300000
181.101700 30813.200000
183.117200 59144.700000
185.132700 80066.600000
187.148500 107493.300000
189.164000 263069.600000
190.167600 9800.300000
192.138200 10195.700000
195.117000 73295.000000
197.132900 72932.000000
199.112300 28584.800000
199.148200 27750.400000
201.128000 15476.100000
201.164300 29110.700000
203.143200 23257.400000
203.179700 31250.300000
209.132900 16262.200000
211.148600 49171.000000
213.128000 21497.000000
213.164100 97896.600000
215.143200 67842.000000
215.179900 71950.800000
220.170000 119314.600000
222.185500 11791.800000
223.148600 19726.800000
227.143300 11996.500000
227.179800 120949.400000
229.159000 16564.100000
229.195300 71076.200000
232.170000 137282.200000
234.186100 10976.200000
237.164200 223676.300000
239.179800 157981.200000
241.159500 16219.900000
246.185000 15351.900000
247.148800 31013.500000
249.196500 136795.200000
254.190900 148456.700000
255.174800 322965.200000
256.206400 117668.500000
257.190500 74002.400000
258.186500 9086.900000
265.159300 54204.200000
272.201300 167267.800000
274.217100 195642.300000
281.202400 20053.200000
282.185700 108727.500000
283.169700 98703.800000
288.232700 38635.200000
299.212800 68617.400000
300.196500 54132.900000
305.259100 9070230.000000
306.262700 412646.400000
317.222900 249441.800000
331.274800 65411.500000
355.274900 645182.200000
356.277600 49626.000000
357.254900 12147.500000
358.262800 11039.200000

