>compound UF68747964
>parentmass 235.1441
>ionization [M+H]+
>formula C13H18N2O2
>rt 1413.540000
>profile orbitrap
#smiles_iso C1CCC(CC1)N2C(=O)C3=C(CCC3)NC2=O
#smiles_can C1CCC(CC1)N2C(=O)C3=C(CCC3)NC2=O
#inchikey ZTMKADLOSYKWCA-UHFFFAOYSA-N
#pubchem_id 16559
#mb_accession UF404703,UF404704

>ms2
72.044200 234508.900000
133.007400 20813.300000
151.018400 2493.500000
153.065700 622808.700000
179.012800 15687.700000
179.106400 15004.500000

>ms2
72.044200 291065.400000
133.007500 25473.900000
151.017800 2300.800000
153.065800 608567.200000
179.013000 14719.900000
179.106700 15829.400000

