>compound UF70905112
>parentmass 224.0917
>ionization [M+H]+
>formula C11H13NO4
>rt 1293.540000
>profile orbitrap
#smiles_iso CC1(OC2=C(O1)C(=CC=C2)OC(=O)NC)C
#smiles_can CC1(OC2=C(O1)C(=CC=C2)OC(=O)NC)C
#inchikey XEGGRYVFLWGFHI-UHFFFAOYSA-N
#pubchem_id 2314
#mb_accession UF402403,UF402404

>ms2peaks
109.028300 12585.200000
167.070200 321924.100000
193.049200 2188.500000

>ms2peaks
109.028200 10335.600000
167.070200 205557.200000
193.049600 3414.000000

