>compound UF71264788
>parentmass 409.137
>ionization [M+H]+
>formula C20H19F3N2O4
>rt 1601.340000
>profile orbitrap
#smiles_iso C/C(=N\OCC1=CC=CC=C1/C(=N\OC)/C(=O)OC)/C2=CC(=CC=C2)C(F)(F)F
#smiles_can CC(=NOCC1=CC=CC=C1C(=NOC)C(=O)OC)C2=CC(=CC=C2)C(F)(F)F
#inchikey ONCZDRURRATYFI-TVJDWZFNSA-N
#pubchem_id 11664966
#mb_accession UF401203,UF401204

>ms2peaks
116.049500 109340.600000
117.057200 24114.000000
118.065300 11118.900000
119.048900 6682.400000
128.049400 8767.600000
130.065100 50895.600000
131.073000 143702.000000
132.044500 32414.400000
132.080900 211212.200000
143.036700 33854.900000
145.026000 165229.900000
146.060100 383686.600000
147.068000 15252.800000
148.075900 14757.800000
162.091600 75234.600000
173.032200 23723.000000
174.054900 21185.300000
175.062900 61700.500000
178.086600 55537.400000
186.052600 3161206.500000
188.097300 10414.300000
206.081200 4766339.000000
377.110700 13063.900000

>ms2peaks
116.049400 57167.200000
117.057100 11867.400000
118.065300 4529.900000
119.049100 3631.300000
130.065200 22411.100000
131.073000 66861.700000
132.044400 16678.900000
132.080800 111583.600000
143.036600 21366.000000
145.025900 81770.200000
146.060000 195705.900000
147.067800 12752.300000
148.075900 9730.700000
162.091500 29837.000000
173.032400 12207.700000
174.054900 11946.500000
175.062800 34507.000000
178.086500 25928.700000
186.052600 1528391.200000
188.109500 4037.900000
206.081200 2400823.200000
377.111400 7614.700000

