>compound UF71158142
>parentmass 376.0381
>ionization [M+H]+
>formula C15H16Cl3N3O2
>rt 1547.520000
>profile orbitrap
#smiles_iso CCCN(CCOC1=C(C=C(C=C1Cl)Cl)Cl)C(=O)N2C=CN=C2
#smiles_can CCCN(CCOC1=C(C=C(C=C1Cl)Cl)Cl)C(=O)N2C=CN=C2
#inchikey TVLSRXXIMLFWEO-UHFFFAOYSA-N
#pubchem_id 73665
#mb_accession UF405803,UF405804

>ms2
180.113300 6545.500000
282.021300 21049.900000
308.000400 20320.500000

>ms2
180.113200 3397.800000
282.021200 10977.900000
308.000900 7418.900000

