>compound UF71116572
>parentmass 287.2006
>ionization [M+H]+
>formula C19H26O2
>rt 1458.720000
>profile orbitrap
#smiles_iso C[C@]12CCC(=O)C=C1CC[C@@H]3[C@@H]2CC[C@]4([C@H]3CCC4=O)C
#smiles_can CC12CCC(=O)C=C1CCC3C2CCC4(C3CCC4=O)C
#inchikey AEMFNILZOJDQLW-QAGGRKNESA-N
#pubchem_id 6128
#mb_accession UF416503,UF416504

>ms2peaks
91.053900 50177.200000
93.069900 78853.100000
95.085200 51003.500000
97.064500 8063771.500000
105.069600 93982.900000
107.085300 133698.500000
109.064500 2885170.200000
119.085300 129494.100000
121.100900 191411.200000
123.080200 560111.600000
131.085300 162686.600000
133.101000 193462.300000
135.080300 60778.400000
135.116700 85681.300000
137.096100 59936.100000
143.085300 124091.100000
145.100900 367485.800000
147.080300 59073.800000
147.116500 333986.500000
149.096300 53689.600000
153.090600 63698.300000
155.085500 60638.200000
157.101000 126784.900000
159.116600 423047.800000
161.095400 105140.600000
161.132000 114615.400000
163.111700 51477.400000
169.101000 270772.600000
171.116400 219701.200000
173.095800 175099.000000
173.132100 553424.900000
175.111400 107555.500000
177.127300 33535.600000
179.106500 94373.800000
181.100600 121682.000000
183.116500 342114.700000
185.132200 916400.100000
187.111400 155252.700000
187.147700 801255.900000
189.126600 59093.100000
191.106000 57218.800000
191.142200 56974.300000
193.122100 266439.800000
195.116500 455860.300000
197.132000 87613.300000
199.111300 130225.500000
199.147800 377413.900000
201.127000 110308.300000
205.158400 258485.400000
209.132200 690205.200000
211.147800 1581142.200000
213.127100 256741.200000
217.158500 499305.800000
223.147600 234361.000000
225.163500 299909.200000
227.142600 158267.600000
227.179000 620087.100000
229.158300 563431.400000
231.137600 73805.100000
241.158500 128217.800000
241.194800 433722.200000
243.175200 50173.600000
251.179000 2870845.200000
269.189500 5299438.000000
287.200500 197921.100000

>ms2peaks
79.054000 47172.100000
91.053800 66626.600000
93.069600 88903.500000
95.085500 53056.300000
97.064600 9219884.000000
105.069400 109493.000000
107.085300 130343.100000
109.064500 3361315.500000
119.085300 161641.100000
121.100900 211196.300000
123.080200 653027.800000
131.085200 152476.100000
133.100800 223445.500000
135.116700 91972.000000
137.096200 54747.200000
143.085200 116403.400000
145.101000 520637.000000
147.079800 68451.000000
147.116700 458781.700000
149.095800 89785.700000
153.090600 71428.600000
155.085200 116101.800000
157.100900 182636.400000
159.080400 64800.800000
159.116600 554794.800000
161.095800 126999.000000
161.132200 159886.000000
163.111200 67078.200000
169.100900 324548.800000
171.116600 249858.700000
173.095800 194583.100000
173.132200 689623.000000
175.110900 93025.600000
179.106400 91062.400000
181.101000 149888.000000
183.116400 409221.800000
185.132100 1036235.400000
187.111500 176670.800000
187.147800 1049693.200000
189.127100 71260.000000
191.106500 83714.900000
191.143300 73607.700000
193.122100 279497.000000
195.116600 500494.100000
197.132400 81552.400000
199.111400 158920.200000
199.147800 419274.100000
201.126800 200247.300000
205.158600 236227.700000
209.132100 799496.700000
211.147800 1911663.200000
213.126900 297882.900000
213.163600 66154.900000
217.158400 555179.600000
223.148000 313041.600000
225.163400 386078.700000
227.143500 181974.300000
227.179000 714576.200000
229.158300 609378.600000
231.137400 109184.400000
241.158000 154861.300000
241.194900 500847.600000
243.173300 61699.100000
251.179000 3381825.800000
269.189500 6125230.500000

