>compound UF73245250
>parentmass 172.0427
>ionization [M+H]+
>formula C7H9NO2S
>rt 1004.460000
>profile orbitrap
#smiles_iso CC1=CC=C(C=C1)S(=O)(=O)N
#smiles_can CC1=CC=C(C=C1)S(=O)(=O)N
#inchikey LMYRWZFENFIFIT-UHFFFAOYSA-N
#pubchem_id 6269
#mb_accession UF418503,UF418504

>ms2peaks
91.054500 5858.900000
113.976600 5631.600000
119.060800 17552.000000
155.016700 110378.500000

>ms2peaks
91.054500 6273.600000
113.976700 5327.200000
119.060800 15674.400000
155.016600 98455.700000

