>compound UF74358368
>parentmass 316.1076
>ionization [M+H]+
>formula C16H15F2N3Si
>rt 1535.100000
>profile orbitrap
#smiles_iso C[Si](CN1C=NC=N1)(C2=CC=C(C=C2)F)C3=CC=C(C=C3)F
#smiles_can C[Si](CN1C=NC=N1)(C2=CC=C(C=C2)F)C3=CC=C(C=C3)F
#inchikey FQKUGOMFVDPBIZ-UHFFFAOYSA-N
#pubchem_id 73675
#mb_accession UF401103,UF401104

>ms2peaks
91.054200 20891.200000
105.069900 24942.400000
109.044100 35645.600000
127.012400 26717.600000
141.070200 20077.300000
151.037400 113699.300000
152.062200 41547.900000
157.027200 12742.500000
165.070000 1213306.400000
166.048200 21393.700000
166.077800 260490.200000
169.048000 3339232.500000
171.043700 65483.600000
179.085600 25077.400000
183.063800 185838.500000
185.076300 54415.800000
191.043700 34586.500000
193.059300 26243.100000
199.037400 49869.000000
219.043700 83668.200000
227.069000 64868.800000
247.074900 12145169.000000
265.085900 64115.800000

>ms2peaks
105.069900 19599.800000
127.012100 32933.200000
141.070000 26248.300000
151.037400 144966.700000
152.062200 49724.400000
153.069800 21946.300000
165.069900 1525658.600000
166.048700 20727.400000
166.077800 335542.000000
169.047900 3747419.000000
171.043700 74256.100000
179.085300 32779.200000
183.063900 202467.100000
185.076200 69101.000000
191.043600 23618.900000
193.059600 21254.900000
193.076200 14578.200000
199.037500 48938.300000
219.043800 116116.600000
227.069100 92307.400000
232.051800 15455.600000
245.059500 13807.800000
247.074800 13236722.000000
265.085600 77161.900000

