>compound UF74071927
>parentmass 189.1022
>ionization [M+H]+
>formula C11H12N2O
>rt 1017.660000
>profile orbitrap
#smiles_iso CC1=CC(=O)N(N1C)C2=CC=CC=C2
#smiles_can CC1=CC(=O)N(N1C)C2=CC=CC=C2
#inchikey VEQOALNAAJBPNY-UHFFFAOYSA-N
#pubchem_id 2206
#mb_accession UF406803,UF406804

>ms2
58.065100 6556.900000
96.044800 6335.900000
96.068400 9493.600000
104.049600 20669.700000
105.070200 5156.200000
106.065200 5342.000000
111.055400 11150.100000
117.057700 8524.200000
117.070100 10645.400000
118.065300 65346.300000
120.081000 67135.300000
129.070400 5985.100000
130.065300 106279.000000
131.073100 308228.300000
132.080900 67005.700000
133.007800 60345.900000
133.052500 4662.700000
133.076200 36409.300000
134.096500 7408.200000
135.055400 14845.400000
144.081000 230150.000000
145.064900 25311.100000
145.088800 6831.800000
146.084000 180137.500000
146.096600 153489.400000
147.091900 170638.600000
148.075900 43333.600000
149.071000 5446.700000
158.060200 17434.800000
159.091400 5038.800000
160.099600 5847.600000
161.107500 259837.600000
162.091800 11345.200000
172.076000 112218.200000
174.079100 98244.000000
189.102400 4397911.500000

>ms2
58.065000 12425.100000
70.065000 3941.300000
91.054200 12496.000000
96.044500 10504.900000
96.068200 21042.000000
103.054400 10088.200000
104.049500 34908.200000
105.033600 4578.200000
105.069900 11780.600000
106.065200 11848.600000
111.055200 18754.000000
115.054600 4010.500000
117.057400 14140.500000
117.069800 15416.400000
118.065200 121810.500000
120.080800 126365.800000
129.070000 12860.900000
130.065200 186040.300000
131.073000 540239.600000
132.080900 122391.700000
133.007700 120485.700000
133.052300 14882.700000
133.076100 63165.700000
134.096700 13465.100000
135.055500 26248.900000
144.080900 424010.800000
145.064800 45334.700000
145.088900 9944.900000
146.083900 303645.100000
146.096500 263468.500000
147.091700 304011.700000
148.075800 69653.400000
149.071200 10376.200000
157.052800 4785.400000
158.060100 28890.400000
159.092200 8028.000000
160.099900 13614.000000
161.107400 448657.400000
162.091400 19207.800000
171.091800 7848.900000
172.075800 210450.100000
174.078900 185219.100000
189.102500 27460.700000

