>compound UF76416121
>parentmass 315.2319
>ionization [M+H]+
>formula C21H30O2
>rt 1570.920000
>profile orbitrap
#smiles_iso CC(=O)[C@H]1CC[C@@H]2[C@@]1(CC[C@H]3[C@H]2CCC4=CC(=O)CC[C@]34C)C
#smiles_can CC(=O)C1CCC2C1(CCC3C2CCC4=CC(=O)CCC34C)C
#inchikey RJKFOVLPORLFTN-LEKSSAKUSA-N
#pubchem_id 5994
#mb_accession UF415103,UF415104

>ms2peaks
91.053900 90747.300000
93.069800 62339.100000
95.085200 137022.300000
97.064600 5340956.000000
105.069700 151635.300000
107.085100 107693.700000
109.064500 3207637.000000
119.085300 275655.800000
121.101100 229529.800000
123.080300 675053.600000
131.085300 324748.700000
133.101000 265432.000000
135.116600 256886.700000
137.095800 134267.000000
143.085100 188025.100000
145.101000 620288.300000
147.116600 390869.500000
149.096100 72406.400000
149.131900 131778.800000
151.111600 62863.100000
155.085200 112402.400000
157.100900 391465.200000
159.116600 803673.900000
161.132300 239062.300000
163.111500 320940.100000
163.148500 58846.900000
165.126900 132325.300000
169.101000 185701.300000
171.116600 584048.100000
173.095200 71088.400000
173.132200 712983.000000
175.111500 122498.200000
175.148100 260088.600000
177.127000 418352.100000
179.143300 107129.500000
183.116500 421893.200000
185.132300 495257.800000
187.111500 427286.800000
187.148000 297377.900000
189.127100 601292.600000
189.163600 269271.300000
191.142800 291709.100000
195.116500 196945.900000
197.132200 704289.600000
199.147900 433534.200000
201.127400 294279.700000
201.163600 1172261.400000
203.142900 269029.800000
205.158800 67665.500000
207.174500 96532.000000
209.132200 646457.100000
211.148000 399674.200000
213.127200 165321.500000
213.163400 941124.100000
215.142700 1364609.400000
215.179100 2273138.000000
217.158100 178538.700000
219.173800 438657.300000
223.147800 1558533.000000
225.163500 290377.900000
227.142900 404732.900000
227.179100 802794.000000
229.158400 1161697.600000
231.174300 163019.700000
233.189600 799436.100000
237.163500 694369.000000
239.179100 2522876.000000
241.158400 1421271.800000
245.189600 961072.800000
251.179300 388611.200000
253.194900 1785665.400000
255.174000 549902.100000
255.210300 2880795.500000
257.189700 375766.900000
269.189900 488613.500000
269.225900 425096.600000
271.205400 383204.500000
273.221100 1908612.500000
279.210300 9061188.000000
297.220900 21510940.000000
315.231600 1487259.900000

>ms2peaks
95.085300 119779.200000
97.064600 4512906.500000
105.069800 155413.900000
107.085300 127296.900000
109.064500 2750541.000000
119.085400 293545.400000
121.100800 244180.900000
123.080300 674722.700000
131.085300 294456.300000
133.101100 302582.600000
135.116500 253127.400000
143.085200 123222.600000
145.101000 592611.900000
147.116600 383548.800000
149.132600 145157.400000
155.085200 105396.700000
157.101000 356395.200000
159.116700 615823.800000
161.132400 242236.900000
163.111700 292453.700000
165.127300 73040.800000
169.100900 168090.600000
171.116600 608007.100000
173.095900 59100.100000
173.132100 683071.600000
175.111600 124102.600000
175.147800 250110.500000
177.127200 419828.800000
179.143300 61948.000000
183.116500 398702.900000
185.132100 441622.300000
187.111300 311959.300000
187.148000 303957.300000
189.127100 551043.400000
189.163400 225593.600000
191.142500 231342.300000
195.116900 120593.600000
197.132200 591951.000000
199.147600 412155.200000
201.127100 225740.100000
201.163500 1002274.100000
203.142600 238789.700000
205.158800 74249.600000
207.175200 53917.900000
209.132100 418472.100000
211.148000 368960.400000
213.127000 152175.500000
213.163500 841367.700000
215.142700 1224126.900000
215.179100 1814189.400000
217.158300 218230.900000
219.173800 367837.000000
223.147800 1447473.900000
225.163500 315501.300000
227.142700 304794.600000
227.179000 763436.700000
229.158300 1015935.900000
231.174600 107224.100000
233.189600 589801.400000
237.163500 607178.900000
239.179100 2200053.800000
241.158400 1210968.200000
245.189600 790003.800000
251.179200 408865.700000
253.194700 1625055.900000
255.174000 543745.000000
255.210300 2722720.200000
257.189500 334844.200000
269.189900 469490.100000
269.226200 335174.300000
271.205400 429755.400000
273.221000 1747910.200000
279.210200 7715264.500000
297.220900 18036282.000000

