>compound UF77130159
>parentmass 220.1121
>ionization [M+H]+
>formula C16H13N
>rt 1608.960000
>profile orbitrap
#smiles_iso C1=CC=C(C=C1)NC2=CC=CC3=CC=CC=C32
#smiles_can C1=CC=C(C=C1)NC2=CC=CC3=CC=CC=C32
#inchikey XQVWYOYUZDUNRW-UHFFFAOYSA-N
#pubchem_id 7013
#mb_accession UF413903,UF413904

>ms2
92.049900 154050.800000
104.050000 15710.900000
115.054700 117206.600000
128.062600 79143.500000
142.065800 341333.900000
143.073600 1072044.900000
179.086300 15491.400000
191.073700 10849.800000
202.078700 16824.600000
204.094300 20014.700000
205.089600 474377.200000
220.113000 4597474.500000

>ms2
92.049800 205372.200000
93.057600 4640.400000
104.049900 21482.600000
115.054600 162827.000000
128.062600 102764.500000
142.065700 411269.800000
143.073500 1342542.800000
178.078400 30152.800000
179.086200 21593.200000
191.073700 16223.300000
192.081400 4480.800000
193.102000 113813.200000
203.086300 426375.300000
204.081700 90079.700000
205.089400 574689.700000
231.092400 7482.600000

