>compound UF77100976
>parentmass 330.15
>ionization [M+H]+
>formula C19H20FNO3
>rt 1296.300000
>profile orbitrap
#smiles_iso C1CNCC(C1C2=CC=C(C=C2)F)COC3=CC4=C(C=C3)OCO4
#smiles_can C1CNCC(C1C2=CC=C(C=C2)F)COC3=CC4=C(C=C3)OCO4
#inchikey AHOUBRCZNHFOSL-UHFFFAOYSA-N
#pubchem_id 4691
#mb_accession UF407903,UF407904

>ms2peaks
103.054300 9673.700000
109.044900 107897.100000
123.044300 52957.600000
123.060600 92403.200000
133.045300 4374.500000
135.044200 22678.800000
135.060600 51354.400000
137.076400 45055.000000
138.071900 8710.900000
139.039000 7612.800000
147.060600 44869.100000
149.076300 14995.500000
150.071500 6284.600000
151.039100 574493.800000
160.068600 15346.500000
161.060000 25603.300000
161.076100 16140.800000
163.092000 141697.300000
164.086600 7451.200000
165.054600 8877.600000
175.039100 21642.300000
175.092000 179334.100000
177.054900 11380.300000
178.103000 67401.500000
180.118300 6497.800000
187.075900 9674.600000
190.103000 103014.600000
191.070200 7798.900000
192.118500 2730054.000000
193.126400 37849.100000
203.069900 5725.600000
208.113500 136042.400000
217.085900 12694.200000
234.112800 17477.600000
255.082600 5450.400000
255.118900 6146.300000
257.098400 6401.600000
269.097800 23541.700000
271.077500 5216.000000
282.129400 6283.300000
283.113300 29687.700000
285.093400 11399.700000
300.140000 33015.100000
302.156000 21055.300000
312.139100 5604.100000
313.124100 415841.600000
330.150600 1480859.100000

>ms2peaks
103.054400 11504.500000
109.044900 129653.100000
115.054400 9408.400000
123.044200 55347.500000
123.060600 101506.300000
135.044200 24715.000000
135.060700 52303.300000
137.076300 54672.900000
138.072000 9610.000000
139.039000 7845.000000
147.060700 67022.900000
149.076400 23085.500000
150.071700 5893.200000
151.039100 666014.800000
160.068600 14112.400000
161.059900 34914.500000
161.076300 17200.000000
163.092000 163342.700000
164.087400 7679.700000
165.054700 9956.500000
175.039300 18998.700000
175.092000 202974.800000
176.100000 8954.400000
177.055100 12182.700000
178.102900 82393.600000
180.118200 6523.500000
187.076100 6765.500000
190.102900 114253.600000
191.070300 8693.800000
192.118500 2886183.200000
193.126500 41664.000000
203.070400 5460.900000
208.113500 147386.400000
217.086000 11557.800000
234.113100 17382.300000
255.082800 7757.400000
255.117700 7840.800000
257.097800 5315.000000
269.097500 20032.800000
271.076100 6095.800000
282.129400 8624.800000
283.113400 35231.600000
285.093300 12423.100000
300.140000 33533.800000
302.155500 15400.300000
312.138500 7625.200000
313.124000 407763.200000

