>compound UF77514259
>parentmass 136.1121
>ionization [M+H]+
>formula C9H13N
>rt 1020.120000
>profile orbitrap
#smiles_iso CC(C)C1=CC=C(C=C1)N
#smiles_can CC(C)C1=CC=C(C=C1)N
#inchikey LRTFPLFDLJYEKT-UHFFFAOYSA-N
#pubchem_id 7464
#mb_accession UF414503,UF414504

>ms2peaks
91.054400 4310.000000
94.065500 1222188.800000
105.033800 7235.000000
121.089200 14443.900000
136.112600 3227104.800000
147.091900 5314.800000

>ms2peaks
94.065400 1582182.100000
105.033800 9559.000000
121.089100 18614.100000
147.092000 9673.800000

