>compound UF78652704
>parentmass 202.0433
>ionization [M+H]+
>formula C10H7N3S
>rt 928.980000
>profile orbitrap
#smiles_iso C1=CC=C2C(=C1)NC(=N2)C3=CSC=N3
#smiles_can C1=CC=C2C(=C1)NC(=N2)C3=CSC=N3
#inchikey WJCNZQLZVWNLKY-UHFFFAOYSA-N
#pubchem_id 5430
#mb_accession UF401503,UF401504

>ms2
158.071000 4615.600000
175.032300 236823.200000
202.043000 2399452.500000

>ms2
131.060100 4353.400000
158.071000 20712.700000
170.071400 3913.700000
175.032100 855779.700000

