>compound UF79218540
>parentmass 222.0429
>ionization [M+H]+
>formula C10H8ClN3O
>rt 1115.220000
>profile orbitrap
#smiles_iso C1=CC=C(C=C1)N2C(=O)C(=C(C=N2)N)Cl
#smiles_can C1=CC=C(C=C1)N2C(=O)C(=C(C=N2)N)Cl
#inchikey WYKYKTKDBLFHCY-UHFFFAOYSA-N
#pubchem_id 15546
#mb_accession UF401803,UF401804

>ms2
77.038500 25988.800000
92.049400 20544.000000
94.065000 36187.800000
104.049400 289570.000000
105.044400 3061.100000
119.060400 4674.700000
128.985000 30230.400000
130.064900 3742.900000
146.011500 16502.100000
149.015100 8672.400000
159.055200 11741.300000
159.068200 3352.500000
177.020800 3041.800000
186.066200 50494.100000
193.028900 40064.100000
195.031800 5623.100000
205.016400 41593.600000
222.042600 2944887.800000

>ms2
77.038400 51683.300000
92.049400 48159.400000
94.065000 68214.000000
100.990100 3620.000000
104.049300 569499.600000
105.044700 8833.300000
119.000800 4221.100000
119.060300 13056.600000
128.984900 59009.000000
130.064800 6921.100000
131.060200 4312.000000
132.044400 6100.200000
142.052700 3216.900000
143.059900 3569.400000
146.011500 31948.400000
149.015200 15687.200000
159.055200 21822.900000
159.067800 4620.400000
177.021200 8650.400000
178.004800 3861.300000
186.066000 92942.100000
193.028800 80425.600000
195.032100 15597.800000
205.016200 88538.100000

