>compound UF80109735
>parentmass 230.1751
>ionization [M+H]+
>formula C12H23NO3
>rt 1435.500000
>profile orbitrap
#smiles_iso CCC(C)OC(=O)N1CCCCC1CCO
#smiles_can CCC(C)OC(=O)N1CCCCC1CCO
#inchikey QLHULAHOXSSASE-UHFFFAOYSA-N
#pubchem_id 125098
#mb_accession UF420703,UF420704

>ms2
130.123000 210235.000000
156.102500 76610.900000
174.113100 99521.900000

>ms2
130.123100 255497.600000
156.102500 90128.100000
174.113100 103910.400000

