>compound UF81811169
>parentmass 257.0808
>ionization [M+H]+
>formula C15H12O4
>rt 1411.860000
>profile orbitrap
#smiles_iso C1=CC=C(C=C1)COC(=O)C2=CC=CC=C2C(=O)O
#smiles_can C1=CC=C(C=C1)COC(=O)C2=CC=CC=C2C(=O)O
#inchikey XIKIUQUXDNHBFR-UHFFFAOYSA-N
#pubchem_id 31736
#mb_accession UF420403,UF420404

>ms2
91.054500 267734.200000
149.023800 1889.800000

>ms2
91.054500 227618.500000
149.023500 1931.800000

