>compound UF82660502
>parentmass 267.172
>ionization [M+H]+
>formula C12H27O4P
>rt 1603.500000
>profile orbitrap
#smiles_iso CC(C)COP(=O)(OCC(C)C)OCC(C)C
#smiles_can CC(C)COP(=O)(OCC(C)C)OCC(C)C
#inchikey HRKAMJBPFPHCSD-UHFFFAOYSA-N
#pubchem_id 31355
#mb_accession UF418803,UF418804

>ms2
98.984500 26687.400000
155.047400 12694.400000

>ms2
98.984500 28670.000000
155.047400 9571.700000

