>compound UF82040586
>parentmass 217.0794
>ionization [M+H]+
>formula C12H12N2S
>rt 973.680000
>profile orbitrap
#smiles_iso C1=CC(=CC=C1N)SC2=CC=C(C=C2)N
#smiles_can C1=CC(=CC=C1N)SC2=CC=C(C=C2)N
#inchikey ICNFHJVPAJKPHW-UHFFFAOYSA-N
#pubchem_id 8765
#mb_accession UF414303,UF414304

>ms2
80.049700 6434.100000
93.057400 2887.600000
124.022000 1229090.600000
167.073600 3687.300000
184.100400 23776.800000
200.053700 278031.900000
217.080200 1835365.100000

>ms2
80.049700 11183.000000
93.057700 3064.800000
124.021900 1628917.900000
167.073800 6246.100000
184.034700 2571.500000
184.100400 29986.500000
200.053600 410212.000000
211.032800 1786.500000

