>compound UF83666267
>parentmass 249.1598
>ionization [M+H]+
>formula C14H20N2O2
>rt 840.900000
>profile orbitrap
#smiles_iso CC(C)NCC(COC1=CC=CC2=C1C=CN2)O
#smiles_can CC(C)NCC(COC1=CC=CC2=C1C=CN2)O
#inchikey JZQKKSLKJUAGIC-UHFFFAOYSA-N
#pubchem_id 4828
#mb_accession UF409803,UF409804

>ms2peaks
56.049200 3550.800000
72.080900 3487.000000
74.060000 15778.200000
86.096500 28849.300000
98.096500 69702.300000
114.091200 3813.500000
116.107000 1699243.400000
118.065200 39562.400000
130.065300 12208.700000
132.102000 20759.100000
134.060200 28572.600000
144.081000 32379.400000
146.060100 357075.000000
160.075700 6697.300000
164.071300 5517.300000
172.075900 941431.500000
176.107300 5743.500000
190.086400 11776.500000
207.113000 48390.700000
214.122800 3894.500000
231.149600 33300.500000
249.159900 633782.800000

>ms2peaks
56.049500 3898.200000
72.080800 3419.200000
74.060000 13909.200000
86.096500 30956.300000
98.096500 75333.400000
114.091100 5541.900000
116.107000 1960065.100000
117.069800 2366.400000
118.065100 44857.900000
130.065100 18895.800000
132.102000 19862.700000
134.060100 33237.000000
144.080900 45618.900000
146.060000 431855.500000
160.075800 6590.000000
164.071100 4200.500000
172.075800 1106782.200000
174.091200 6329.200000
176.106900 7774.700000
190.086100 12796.000000
207.112900 58471.300000
214.123200 4341.400000
231.149400 35614.100000

