>compound UF84903064
>parentmass 531.156
>ionization [M+H]+
>formula C26H28Cl2N4O4
>rt 1309.620000
>profile orbitrap
#smiles_iso CC(=O)N1CCN(CC1)C2=CC=C(C=C2)OC[C@H]3CO[C@](O3)(CN4C=CN=C4)C5=C(C=C(C=C5)Cl)Cl
#smiles_can CC(=O)N1CCN(CC1)C2=CC=C(C=C2)OCC3COC(O3)(CN4C=CN=C4)C5=C(C=C(C=C5)Cl)Cl
#inchikey XMAYWYJOQHXEEK-OZXSUGGESA-N
#pubchem_id 456201
#mb_accession UF410003,UF410004

>ms2
158.976800 6851.800000
172.075900 3134.700000
172.955800 4071.800000
174.091700 15203.000000
177.102300 5403.400000
178.110900 2846.700000
185.963700 26571.600000
186.970600 3002.600000
192.102100 4168.900000
200.107900 4245.700000
203.037100 3050.800000
209.036300 5802.200000
216.102400 30733.000000
216.126800 4426.200000
217.134000 42526.200000
219.113100 24133.100000
220.121000 19100.700000
234.113000 21132.100000
235.144600 26981.500000
238.006500 6282.200000
244.005800 95886.800000
247.064200 4587.000000
255.009200 120401.600000
259.144800 9224.300000
267.009400 17120.200000
268.016600 3813.500000
277.155300 7562.500000
281.024800 9367.500000
282.033000 12525.900000
311.035800 21367.700000
378.066800 3298.600000
421.108800 26725.500000
463.120500 6686.200000
471.137800 3568.600000
489.145800 2087738.000000
490.149500 14010.900000
513.146100 10871.600000
531.158100 5613.100000

>ms2
157.968600 2163.700000
158.976700 5569.800000
163.031100 2874.100000
172.956000 3292.400000
174.091600 13298.700000
178.110500 1895.600000
185.963600 20401.300000
192.102200 3189.800000
200.107700 3174.100000
203.037700 2232.100000
209.036600 3314.400000
216.102200 23942.200000
216.126200 2673.800000
217.133800 35946.000000
219.113200 18764.000000
220.121000 15794.200000
234.112800 17384.200000
235.144500 23845.600000
238.006600 6935.800000
244.005700 77196.400000
247.063600 5165.200000
255.009100 96296.100000
259.144500 7237.400000
267.008800 16060.500000
268.016600 2662.800000
277.155400 5135.800000
281.025700 5272.700000
282.032600 7466.300000
311.035500 18156.800000
420.076800 15289.000000
421.108800 23736.700000
463.118500 4862.100000
489.145500 1611546.000000
490.148300 12659.000000
513.146700 8107.900000

