>compound UF84492832
>parentmass 327.0781
>ionization [M+H]+
>formula C18H15O4P
>rt 1575.060000
>profile orbitrap
#smiles_iso C1=CC=C(C=C1)OP(=O)(OC2=CC=CC=C2)OC3=CC=CC=C3
#smiles_can C1=CC=C(C=C1)OP(=O)(OC2=CC=CC=C2)OC3=CC=CC=C3
#inchikey XZZNDPSIHUTMOC-UHFFFAOYSA-N
#pubchem_id 8289
#mb_accession UF417503,UF417504

>ms2
141.070800 3244.300000
152.062800 150972.000000
153.070600 258706.300000
179.061500 6324.900000
181.077300 5062.700000
202.078700 20876.100000
203.086800 4972.600000
215.026700 1013482.000000
227.086800 52223.000000
228.094400 327502.200000
229.102300 332751.500000
233.037300 1016998.400000

>ms2
95.049500 1809.200000
98.984300 2098.700000
141.070700 1390.400000
151.054900 12903.900000
152.062700 165802.200000
153.070500 284294.900000
168.057600 29912.200000
169.065400 7965.700000
170.073200 3753.200000
171.081200 102161.000000
175.016300 37329.300000
179.061200 5059.100000
181.076900 3796.300000
203.086800 6045.600000
215.026600 1080300.800000
227.086700 48783.800000
228.094300 330281.000000
229.102200 329398.100000
233.037100 1023211.000000
251.047900 343464.900000
291.058300 120298.800000
309.069000 130264.900000

