>compound UF85455441
>parentmass 296.1412
>ionization [M+H]+
>formula C16H22ClNO2
>rt 1518.540000
>profile orbitrap
#smiles_iso CCOCCN(C(=O)CCl)C(=C(C)C)C1=CC=CC=C1
#smiles_can CCOCCN(C(=O)CCl)C(=C(C)C)C1=CC=CC=C1
#inchikey CSWIKHNSBZVWNQ-UHFFFAOYSA-N
#pubchem_id 6450826
#mb_accession UF406203,UF406204

>ms2peaks
73.064700 22104.800000
91.054000 28602.500000
116.061600 5685.600000
120.021000 11491.600000
129.069900 25504.700000
131.085400 647823.100000
134.036600 169624.700000
148.052500 22891.500000
176.106900 28418.600000
214.121900 7881.500000
220.169700 73258.300000
250.099100 3827480.500000
260.164600 15267.500000

>ms2peaks
73.064700 24236.100000
91.054100 43421.900000
115.053900 9324.800000
116.061900 9197.500000
120.021100 12876.200000
129.069900 39310.200000
131.085400 879945.600000
134.036700 198618.600000
148.052200 24943.600000
176.107100 35844.200000
214.123100 7433.700000
220.169700 102932.800000
250.099200 4908845.000000
260.164300 24874.600000

