>compound UF87102289
>parentmass 235.1805
>ionization [M+H]+
>formula C14H22N2O
>rt 867.360000
>profile orbitrap
#smiles_iso CCN(CC)CC(=O)NC1=C(C=CC=C1C)C
#smiles_can CCN(CC)CC(=O)NC1=C(C=CC=C1C)C
#inchikey NNJVILVZKWQKPM-UHFFFAOYSA-N
#pubchem_id 3676
#mb_accession UF410203,UF410204

>ms2peaks
58.065100 11908.200000
86.096400 2827158.200000
133.007800 31262.000000
179.013100 15397.400000
179.106900 13660.600000
235.180800 1783144.000000

>ms2peaks
58.065100 12220.900000
86.096400 4072696.000000
133.007600 40471.000000
151.018500 5021.700000
179.013100 21720.100000
179.106800 21967.000000

