>compound UF87388939
>parentmass 341.2111
>ionization [M+H]+
>formula C22H28O3
>rt 1476.600000
>profile orbitrap
#smiles_iso C[C@]12CCC(=O)C=C1C=C[C@@H]3[C@@H]2CC[C@]4([C@H]3CC[C@@]45CCC(=O)O5)C
#smiles_can CC12CCC(=O)C=C1C=CC3C2CCC4(C3CCC45CCC(=O)O5)C
#inchikey UJVLDDZCTMKXJK-WNHSNXHDSA-N
#pubchem_id 13789
#mb_accession UF416403,UF416404

>ms2peaks
103.054200 41001.400000
105.069600 209000.600000
107.085300 814329.000000
115.054300 47442.800000
117.070000 141013.600000
119.085400 233996.400000
121.101000 193590.600000
128.061700 138556.200000
129.069500 63682.200000
131.085500 237474.400000
133.064300 60395.700000
133.100900 93311.200000
135.080200 169592.500000
135.116800 46830.100000
137.096000 274011.200000
141.069700 349811.800000
143.085300 1691772.800000
145.064600 58492.900000
145.100900 1010787.800000
147.080100 269143.200000
147.116800 79715.100000
149.095800 150628.700000
153.091200 97179.500000
154.077600 124281.200000
155.085300 325299.900000
157.101100 269621.800000
159.080300 402431.600000
159.116500 253956.100000
161.095900 675484.800000
163.111600 308150.200000
165.091300 89974.100000
167.085900 45040.600000
167.106600 80113.500000
169.100900 4140531.800000
171.080100 370516.400000
171.116500 142771.200000
173.095800 2269732.200000
175.111500 627998.700000
177.127200 83742.500000
179.106400 408086.500000
181.100900 193277.500000
183.116600 246778.400000
185.095500 84747.800000
185.132500 172369.500000
187.111400 11426165.000000
189.127100 124490.600000
193.100600 71145.300000
195.116900 202456.400000
197.095800 79631.200000
197.131900 117636.600000
199.111500 352625.200000
199.148100 121960.800000
201.127500 178261.700000
205.122000 2332370.500000
207.116300 96248.300000
207.138400 113920.900000
209.095600 67553.900000
209.132200 443993.800000
211.111500 159178.500000
211.147600 48210.100000
213.127000 390789.600000
215.142700 100293.800000
217.122200 59184.600000
219.138600 67578.600000
221.132100 240206.800000
223.111400 124666.400000
223.147800 365716.700000
225.127000 243907.400000
225.163000 125441.500000
227.142600 370255.100000
231.116500 91643.700000
231.137200 46139.100000
235.147500 202065.900000
237.127100 90868.100000
237.163000 87515.400000
239.142500 129091.600000
241.158500 638316.200000
243.174700 63732.800000
245.132500 130220.200000
245.153400 286404.600000
247.147800 352920.700000
249.127200 242216.300000
249.163400 209204.600000
251.143200 64509.500000
253.158700 217418.500000
257.153100 152894.000000
259.147500 153140.800000
259.168900 443416.600000
261.163700 408392.400000
263.142900 322066.200000
263.179100 539905.800000
265.158400 1340827.800000
267.138000 104255.700000
267.174100 152835.900000
268.182100 382005.500000
271.167900 81304.300000
277.158200 280451.900000
277.194600 419762.800000
279.174100 518499.600000
281.153500 260000.800000
281.189900 644503.200000
283.168900 4066601.500000
287.179100 982492.800000
295.168200 123445.600000
295.205300 633838.700000
297.184400 147180.600000
305.189600 3284737.800000
323.200100 3912375.200000
341.210700 343124.200000

>ms2peaks
105.069700 309803.400000
107.085400 1011286.900000
109.064700 47116.500000
115.054300 94191.400000
117.069600 195130.600000
119.085400 313549.000000
121.101000 219287.400000
123.080700 52126.700000
128.061700 139616.100000
129.069800 115113.200000
131.085300 301858.100000
133.101300 87796.500000
135.080200 180935.700000
135.117300 52451.300000
137.095900 332907.700000
141.069700 450599.500000
143.085400 2121341.500000
145.064700 86619.400000
145.101000 1267538.200000
147.080400 276018.800000
147.116800 175368.300000
149.095800 221054.000000
153.091100 81145.600000
154.077500 179652.000000
155.085300 414634.200000
157.101000 357681.800000
159.080200 577498.600000
159.116700 389078.000000
161.096000 885521.100000
163.111600 402609.800000
165.091000 90491.800000
167.085100 55014.700000
167.106800 61694.800000
169.101000 5412761.500000
171.080400 437340.200000
171.116800 227022.200000
173.095900 2655490.800000
175.111500 739657.000000
177.126900 133448.600000
179.106400 430614.900000
181.101100 280039.800000
183.116800 275455.800000
185.096000 94013.700000
185.132100 290774.300000
187.111500 13141541.000000
189.127300 170050.100000
193.101300 113227.200000
193.122200 64583.700000
195.116600 302873.800000
197.096700 72685.900000
197.132600 198429.500000
199.111400 452124.700000
199.148400 154759.900000
201.127400 150093.500000
205.122100 2718331.200000
207.116800 174122.000000
207.137900 170991.800000
209.096000 101909.300000
209.132100 492908.000000
211.111400 244207.500000
213.127200 429661.200000
215.142600 80114.500000
217.121400 76220.500000
221.132000 315931.700000
223.111200 222058.600000
223.147900 547169.900000
225.126900 253673.100000
225.164300 157146.000000
227.142800 514270.300000
231.116100 99050.000000
231.137400 87634.400000
235.148000 303936.600000
237.127400 122998.600000
237.163800 169867.500000
239.142600 144679.200000
241.158600 762903.200000
243.173800 96372.700000
245.132200 180016.400000
245.153300 297138.300000
247.148000 451160.500000
249.127200 350951.000000
249.163400 216773.900000
251.143300 95088.400000
251.180100 65947.500000
253.158900 264863.700000
257.153600 200349.700000
259.148000 151675.700000
259.169100 569482.500000
261.163600 474180.100000
263.142800 332287.100000
263.179100 661069.200000
265.158500 1644509.100000
267.137800 136731.500000
267.173100 146798.200000
268.182200 495937.400000
271.169300 140393.500000
277.158500 383114.200000
277.194900 538223.400000
279.174300 590375.100000
281.153500 299977.500000
281.189700 772059.800000
283.169000 5110580.500000
287.179300 1258138.800000
295.169400 123969.400000
295.205500 790685.200000
297.184800 271001.600000
299.200200 80906.200000
305.189700 3937319.200000
323.200300 4564488.500000
326.188400 62903.400000

