>compound UF87321422
>parentmass 167.0703
>ionization [M+H]+
>formula C9H10O3
>rt 1311.600000
>profile orbitrap
#smiles_iso CCOC(=O)C1=CC=C(C=C1)O
#smiles_can CCOC(=O)C1=CC=C(C=C1)O
#inchikey NUVBSKCKDOMJSU-UHFFFAOYSA-N
#pubchem_id 8434
#mb_accession UF415603,UF415604,UF423303,UF423304

>ms2
95.049000 37453.200000
121.028300 43356.400000
123.080400 3765.200000
139.038700 2049281.200000

>ms2
95.049000 39814.700000
107.085300 2583.900000
121.028200 43138.400000
123.080300 3683.500000
139.038700 2124267.800000

>ms2
95.049000 37453.200000
121.028300 43356.400000
123.080400 3765.200000
139.038700 2049281.200000

>ms2
95.049000 39814.700000
107.085300 2583.900000
121.028200 43138.400000
123.080300 3683.500000
139.038700 2124267.800000

