>compound UF89771089
>parentmass 407.221
>ionization [M+H]+
>formula C18H34N2O6S
>rt 809.280000
>profile orbitrap
#smiles_iso CCC[C@@H]1C[C@H](N(C1)C)C(=O)N[C@@H]([C@@H]2[C@@H]([C@@H]([C@H]([C@H](O2)SC)O)O)O)[C@@H](C)O
#smiles_can CCCC1CC(N(C1)C)C(=O)NC(C2C(C(C(C(O2)SC)O)O)O)C(C)O
#inchikey OJMMVQQUTAEWLP-KIDUDLJLSA-N
#pubchem_id 3000540
#mb_accession UF410503,UF410504

>ms2
126.127800 264810.000000
171.149300 2248.900000
216.086900 6045.100000
218.085000 4261.800000
228.069300 2251.600000
234.097500 6358.700000
236.095600 2635.800000
257.184800 2115.600000
264.090500 7020.700000
269.187600 1871.300000
287.197600 3669.200000
299.197200 35033.300000
317.207700 29919.700000
323.197500 2490.600000
341.207700 24798.900000
359.218100 815163.400000
371.200300 15827.700000
389.210800 362404.000000

>ms2
126.127800 322358.000000
171.149100 2033.500000
216.087200 6224.300000
218.085200 5296.400000
228.069800 4457.400000
234.097400 6098.300000
236.094600 2820.900000
257.186500 2631.400000
264.090600 8874.400000
269.187200 1784.000000
287.197400 4851.400000
299.197200 39578.400000
317.207600 28611.900000
323.196400 2347.000000
341.207800 36941.800000
359.218100 901801.900000
371.200600 18018.900000
389.210800 373828.300000

