>compound UF90131673
>parentmass 194.0964
>ionization [M+H]+
>formula C14H11N
>rt 1506.840000
>profile orbitrap
#smiles_iso C1=CC=C2C(=C1)C=CC3=CC=CC=C3N2
#smiles_can C1=CC=C2C(=C1)C=CC3=CC=CC=C3N2
#inchikey LCGTWRLJTMHIQZ-UHFFFAOYSA-N
#pubchem_id 9212
#mb_accession UF413303,UF413304

>ms2
167.086000 7173.200000
194.097200 3901260.800000

>ms2
116.048900 2747.700000
167.086000 15405.300000
179.073600 34054.700000
194.097200 63981.200000

