>compound UF90961039
>parentmass 312.0665
>ionization [M+H]+
>formula C14H15Cl2N3O
>rt 1538.400000
>profile orbitrap
#smiles_iso C1CC1(C(CC2=CC=CC=C2Cl)(CN3C=NC=N3)O)Cl
#smiles_can C1CC1(C(CC2=CC=CC=C2Cl)(CN3C=NC=N3)O)Cl
#inchikey HHUQPWODPBDTLI-UHFFFAOYSA-N
#pubchem_id 119361
#mb_accession UF406103,UF406104

>ms2peaks
125.015100 84774.500000
139.031300 2549.100000
151.030700 5014.500000
153.069700 8274.400000
154.077600 11236.900000
158.975800 7677.900000
163.031300 2575.600000
177.046000 3245.500000
179.062400 3432.600000
189.046400 80367.500000
196.991900 2898.200000
207.056600 3728.600000
225.023100 11265.700000
294.056000 8888.700000

>ms2peaks
125.015200 75959.400000
139.030600 2382.500000
151.030800 5169.300000
153.069900 6121.600000
154.077700 7688.900000
158.976300 6000.600000
163.031000 2916.100000
177.046200 2869.800000
179.062100 2121.400000
189.046500 73441.900000
196.991900 2700.900000
207.057700 3242.400000
225.023400 10891.400000
294.056200 8059.000000

