>compound UF93243772
>parentmass 321.1333
>ionization [M+H]+
>formula C17H20O6
>rt 1435.320000
>profile orbitrap
#smiles_iso CC1=C2COC(=O)C2=C(C(=C1OC)C/C=C(\C)/CCC(=O)O)O
#smiles_can CC1=C2COC(=O)C2=C(C(=C1OC)CC=C(C)CCC(=O)O)O
#inchikey HPNSFSBZBAHARI-RUDMXATFSA-N
#pubchem_id 446541
#mb_accession UF412803,UF412804

>ms2peaks
199.074800 1886.200000
203.060200 10162.700000
207.065500 2075.900000
234.999100 3816.200000
265.009400 7234.300000
279.024800 2111.500000

>ms2peaks
203.060200 14421.200000
207.064500 2432.800000
234.999200 2969.200000
265.009300 7292.200000
279.024400 1755.600000

