>compound UF95803742
>parentmass 255.1016
>ionization [M+H]+
>formula C16H14O3
>rt 1430.520000
>profile orbitrap
#smiles_iso CC(C1=CC(=CC=C1)C(=O)C2=CC=CC=C2)C(=O)O
#smiles_can CC(C1=CC(=CC=C1)C(=O)C2=CC=CC=C2)C(=O)O
#inchikey DKYWVDODHFEZIM-UHFFFAOYSA-N
#pubchem_id 3825
#mb_accession UF408603,UF408604

>ms2
105.033400 87723.100000
105.070000 4815.800000
177.054700 45360.100000
209.096000 4421409.500000

>ms2
105.033500 76606.000000
105.069900 5171.400000
177.054800 40642.500000
209.096000 3283985.000000

