>compound UF95990537
>parentmass 399.0969
>ionization [M+H]+
>formula C15H18N4O7S
>rt 1336.500000
>profile orbitrap
#smiles_iso CCCOC1=NN(C(=O)N1C)C(=O)NS(=O)(=O)C2=CC=CC=C2C(=O)OC
#smiles_can CCCOC1=NN(C(=O)N1C)C(=O)NS(=O)(=O)C2=CC=CC=C2C(=O)OC
#inchikey JTHMVYBOQLDDIY-UHFFFAOYSA-N
#pubchem_id 177355
#mb_accession UF401403,UF401404

>ms2
116.045300 4977.800000
135.043800 2572.000000
158.092300 21622.600000
172.108000 6781.700000
199.006000 129278.700000
215.113900 17528.200000
367.070700 187996.000000

>ms2
116.045400 4734.200000
135.044200 4673.700000
158.092400 16348.200000
172.108300 3830.600000
199.005900 96336.200000
209.984800 1611.400000
215.113800 11677.500000
367.070700 158217.100000

