>compound UF96561475
>parentmass 214.1202
>ionization [M+Na]+
>formula C12H17NO
>rt 1363.740000
>profile orbitrap
#smiles_iso CCN(CC)C(=O)C1=CC=CC(=C1)C
#smiles_can CCN(CC)C(=O)C1=CC=CC(=C1)C
#inchikey MMOXZBCLCQITDF-UHFFFAOYSA-N
#pubchem_id 4284
#mb_accession UF417635,UF417636

>ms2
77.038600 50573.800000
105.044700 6562.100000

>ms2
77.038600 56658.700000
105.044800 6444.300000

