>compound UF97674527
>parentmass 211.0842
>ionization [M+Na]+
>formula C11H12N2O
>rt 1026.420000
>profile orbitrap
#smiles_iso CC1=CC(=O)N(N1C)C2=CC=CC=C2
#smiles_can CC1=CC(=O)N(N1C)C2=CC=CC=C2
#inchikey VEQOALNAAJBPNY-UHFFFAOYSA-N
#pubchem_id 2206
#mb_accession UF406835,UF406836

>ms2
142.060900 10162.300000
155.047300 3742.400000
183.087100 2740.600000

>ms2
142.061100 6750.700000
155.047200 4078.800000
183.087600 1618.500000

