>compound UF97331805
>parentmass 269.1536
>ionization [M+H]+
>formula C18H20O2
>rt 1493.820000
>profile orbitrap
#smiles_iso CC/C(=C(/CC)\C1=CC=C(C=C1)O)/C2=CC=C(C=C2)O
#smiles_can CCC(=C(CC)C1=CC=C(C=C1)O)C2=CC=C(C=C2)O
#inchikey RGLYKWWBQGJZGM-ISLYRVAYSA-N
#pubchem_id 448537
#mb_accession UF416103,UF416104,UF423703,UF423704

>ms2peaks
105.069800 1391.900000
107.049000 42579.500000
107.085400 2198.300000
109.101200 1819.200000
121.064700 21122.700000
123.043900 3765.500000
133.064700 19510.200000
133.101000 2786.200000
135.080300 177882.700000
137.059700 4701.000000
145.101000 1684.500000
147.116900 4346.400000
149.059300 2796.100000
159.116800 9833.900000
161.059500 3966.100000
173.059600 59844.000000
173.095900 3788.700000
175.075200 15648.500000
175.111600 14773.500000
181.064800 2061.100000
185.096500 1711.900000
187.075400 4876.600000
195.080700 3354.600000
195.117400 2283.800000
199.075100 139264.800000
201.091100 3644.500000
209.096000 4319.200000
211.111200 1681.100000
213.090700 19304.700000
213.126700 1928.500000
214.098400 1871.500000
222.103500 3835.300000
223.111500 12235.900000
223.148300 6850.000000
227.106200 9659.200000
227.143200 3893.200000
239.106200 3239.400000
241.121900 14358.300000
241.158500 9408.600000
251.142800 75515.400000

>ms2peaks
107.048900 18059.600000
107.085500 2331.200000
121.064500 10296.300000
133.064600 15586.400000
135.080200 69036.300000
137.059300 3801.100000
145.101200 1681.100000
147.116800 4130.600000
149.059600 2495.800000
159.116800 6983.400000
161.059100 2724.100000
173.059500 38990.100000
173.095800 3103.800000
175.075100 10979.500000
175.111500 7160.100000
187.074900 3105.700000
195.080800 2602.100000
195.117000 2111.800000
199.075100 58889.000000
201.090600 2092.500000
209.096200 2858.900000
211.111800 1643.800000
213.090400 13305.400000
214.098600 1720.800000
222.103200 3117.200000
223.111000 8460.800000
223.147800 3283.200000
227.106200 7013.500000
227.143800 2066.000000
239.105900 2992.000000
241.121900 7729.500000
241.158400 7331.800000
251.142600 51889.900000

>ms2peaks
105.069800 1391.900000
107.049000 42579.500000
107.085400 2198.300000
109.101200 1819.200000
121.064700 21122.700000
123.043900 3765.500000
133.064700 19510.200000
133.101000 2786.200000
135.080300 177882.700000
137.059700 4701.000000
145.101000 1684.500000
147.116900 4346.400000
149.059300 2796.100000
159.116800 9833.900000
161.059500 3966.100000
173.059600 59844.000000
173.095900 3788.700000
175.075200 15648.500000
175.111600 14773.500000
181.064800 2061.100000
185.096500 1711.900000
187.075400 4876.600000
195.080700 3354.600000
195.117400 2283.800000
199.075100 139264.800000
201.091100 3644.500000
209.096000 4319.200000
211.111200 1681.100000
213.090700 19304.700000
213.126700 1928.500000
214.098400 1871.500000
222.103500 3835.300000
223.111500 12235.900000
223.148300 6850.000000
227.106200 9659.200000
227.143200 3893.200000
239.106200 3239.400000
241.121900 14358.300000
241.158500 9408.600000
251.142800 75515.400000

>ms2peaks
107.048900 18059.600000
107.085500 2331.200000
121.064500 10296.300000
133.064600 15586.400000
135.080200 69036.300000
137.059300 3801.100000
145.101200 1681.100000
147.116800 4130.600000
149.059600 2495.800000
159.116800 6983.400000
161.059100 2724.100000
173.059500 38990.100000
173.095800 3103.800000
175.075100 10979.500000
175.111500 7160.100000
187.074900 3105.700000
195.080800 2602.100000
195.117000 2111.800000
199.075100 58889.000000
201.090600 2092.500000
209.096200 2858.900000
211.111800 1643.800000
213.090400 13305.400000
214.098600 1720.800000
222.103200 3117.200000
223.111000 8460.800000
223.147800 3283.200000
227.106200 7013.500000
227.143800 2066.000000
239.105900 2992.000000
241.121900 7729.500000
241.158400 7331.800000
251.142600 51889.900000

