>compound UF98849617
>parentmass 268.1907
>ionization [M+H]+
>formula C15H25NO3
>rt 1022.940000
>profile orbitrap
#smiles_iso CC(C)NCC(COC1=CC=C(C=C1)CCOC)O
#smiles_can CC(C)NCC(COC1=CC=C(C=C1)CCOC)O
#inchikey IUBSYMUCCVWXPE-UHFFFAOYSA-N
#pubchem_id 4171
#mb_accession UF407203,UF407204

>ms2
74.060000 17066.600000
86.096500 15388.400000
91.054300 10444.100000
96.080900 10268.400000
98.096500 314767.200000
105.070100 14570.800000
116.107100 1855492.400000
117.070300 7386.300000
121.064900 382734.000000
129.070100 10934.500000
131.085600 56857.300000
133.065000 212557.100000
135.080700 24835.700000
141.069800 11352.600000
143.085600 18440.600000
144.057200 11565.800000
147.080700 36364.700000
150.091600 18900.600000
159.080700 853507.100000
161.096400 185471.600000
163.112000 68101.400000
165.091400 98587.700000
176.107300 388330.400000
177.091300 180336.200000
179.107000 31245.300000
188.128100 10609.900000
191.106900 2085798.900000
194.117800 312368.100000
201.127900 38600.900000
218.154200 930017.600000
226.144100 569473.200000
233.153500 25514.700000
250.180700 256029.000000
268.191100 4271518.500000

>ms2
74.060000 19131.900000
86.096500 25430.000000
91.054300 11780.200000
93.069900 6729.300000
96.080900 12809.300000
98.096500 373387.100000
105.070000 9485.400000
116.107100 2005134.000000
117.069800 10371.000000
121.064900 509671.300000
129.070200 11650.900000
131.085700 68936.800000
133.064900 265333.600000
135.080700 24887.000000
141.070300 19111.400000
143.085600 30892.900000
144.057000 12248.000000
147.080700 47113.500000
148.076000 8732.800000
149.096200 7895.900000
150.091500 22226.000000
158.096400 7251.200000
159.080600 1093699.100000
161.096300 220435.200000
163.112000 86212.800000
165.091300 113656.900000
169.076300 12932.700000
176.107200 477051.800000
177.091200 224298.100000
179.106900 40508.600000
191.106900 2447046.800000
194.117700 377370.100000
201.127600 44130.600000
218.154100 1075226.000000
226.144000 627133.300000
233.153700 28805.700000
250.180600 271114.400000
268.189500 5227.300000

