>compound UF99431927
>parentmass 281.9986
>ionization [M+H]+
>formula C8H12INO2
>rt 1380.660000
>profile orbitrap
#smiles_iso CCCCNC(=O)OCC#CI
#smiles_can CCCCNC(=O)OCC#CI
#inchikey WYVVKGNFXHOCQV-UHFFFAOYSA-N
#pubchem_id 62097
#mb_accession UF418403,UF418404

>ms2
96.081100 7484.700000
100.076100 4308.200000
110.096900 4312.100000
116.070900 8576.200000
154.935800 6858.500000
155.094600 80577.300000
164.920200 110968.300000
181.946900 11170.200000
182.930800 60348.800000
195.962500 12757.200000
238.009600 116965.000000
251.988800 5688.900000

>ms2
96.081100 7271.500000
100.075800 4454.400000
110.096900 4235.300000
116.071000 7810.600000
154.936000 7560.200000
155.094600 76234.400000
164.920200 145425.500000
181.946700 13449.500000
182.930800 61152.600000
195.962500 12871.600000
238.009600 101034.100000
251.988900 6463.200000

