>compound LQB0574494
>parentmass 816.5750499999999
>ionization [M+CH3COOH-H]-
>formula C42H80NO8P
>rt 559.561770
>profile qtof
#smiles_iso CCCCCCCCCCCCCCCC(=O)OCC(COP(=O)([O-])OCC[N+](C)(C)C)OC(=O)CCCCCCC/C=C\C/C=C\CCCCC
#smiles_can CCCCCCCCCCCCCCCC(=O)OCC(COP(=O)([O-])OCC[N+](C)(C)C)OC(=O)CCCCCCCC=CCC=CCCCCC
#inchikey JLPULHDHAOZNQI-AKMCNLDWSA-N
#pubchem_id 6438359
#mb_accession LQB00105,LQB00106,LQB00491,LQB00492

>ms2peaks
78.959000 327.000000
152.994000 133.000000
168.041000 1530.000000
206.058000 120.000000
224.069000 1936.000000
242.078000 295.000000
253.218000 61.000000
254.434000 167.000000
255.154000 113.000000
255.232000 43042.000000
255.268000 61.000000
255.341000 41.000000
261.220000 266.000000
278.348000 231.000000
278.363000 484.000000
279.004000 56.000000
279.073000 77.000000
279.148000 77.000000
279.231000 117278.000000
280.232000 238.000000
281.253000 132.000000
391.225000 274.000000
406.272000 121.000000
409.236000 74.000000
415.221000 115.000000
430.270000 120.000000
461.400000 41.000000
462.294000 1589.000000
478.792000 54.000000
479.700000 21.000000
480.305000 7155.000000
480.358000 54.000000
480.411000 30.000000
481.304000 20.000000
486.296000 1155.000000
486.325000 40.000000
495.260000 60.000000
495.388000 20.000000
504.296000 500.000000
504.314000 623.000000
511.458000 53.000000
518.401000 20.000000
559.036000 46.000000
559.206000 62.000000
671.456000 173.000000
697.471000 91.000000
697.490000 71.000000
740.171000 173.000000
740.190000 133.000000
740.242000 74.000000
741.500000 50.000000
741.861000 38.000000
741.982000 40.000000
742.278000 38.000000
742.412000 72.000000
742.533000 63469.000000
742.821000 56.000000
743.252000 66.000000
743.533000 220.000000
757.461000 71.000000
757.487000 510.000000
757.507000 468.000000
757.532000 113.000000
816.571000 7992.000000

>ms2peaks
152.990000 40.000000
168.045000 173.000000
224.066000 141.000000
224.077000 61.000000
253.218000 666.000000
254.441000 51.000000
255.232000 5284.000000
278.364000 132.000000
279.232000 7890.000000
279.264000 87.000000
281.234000 133.000000
281.247000 562.000000
303.226000 60.000000
309.282000 40.000000
310.282000 40.000000
327.231000 30.000000
331.262000 30.000000
391.219000 30.000000
415.224000 40.000000
438.110000 30.000000
446.276000 40.000000
452.264000 40.000000
462.281000 85.000000
462.312000 70.000000
478.301000 45.000000
480.299000 101.000000
480.313000 387.000000
486.286000 70.000000
486.309000 102.000000
504.290000 102.000000
504.313000 234.000000
506.321000 70.000000
728.520000 23.000000
729.538000 110.000000
740.229000 83.000000
740.320000 27.000000
742.458000 60.000000
742.536000 10420.000000
743.552000 31.000000
757.500000 140.000000
766.533000 110.000000
767.695000 23.000000
816.528000 121.000000
816.565000 794.000000
816.605000 153.000000
816.645000 30.000000

>ms2peaks
78.959000 327.000000
152.994000 133.000000
168.041000 1530.000000
206.058000 120.000000
224.069000 1936.000000
242.078000 295.000000
253.218000 61.000000
254.434000 167.000000
255.154000 113.000000
255.232000 43042.000000
255.268000 61.000000
255.341000 41.000000
261.220000 266.000000
278.348000 231.000000
278.363000 484.000000
279.004000 56.000000
279.073000 77.000000
279.148000 77.000000
279.231000 117278.000000
280.232000 238.000000
281.253000 132.000000
391.225000 274.000000
406.272000 121.000000
409.236000 74.000000
415.221000 115.000000
430.270000 120.000000
461.400000 41.000000
462.294000 1589.000000
478.792000 54.000000
479.700000 21.000000
480.305000 7155.000000
480.358000 54.000000
480.411000 30.000000
481.304000 20.000000
486.296000 1155.000000
486.325000 40.000000
495.260000 60.000000
495.388000 20.000000
504.296000 500.000000
504.314000 623.000000
511.458000 53.000000
518.401000 20.000000
559.036000 46.000000
559.206000 62.000000
671.456000 173.000000
697.471000 91.000000
697.490000 71.000000
740.171000 173.000000
740.190000 133.000000
740.242000 74.000000
741.500000 50.000000
741.861000 38.000000
741.982000 40.000000
742.278000 38.000000
742.412000 72.000000
742.533000 63469.000000
742.821000 56.000000
743.252000 66.000000
743.533000 220.000000
757.461000 71.000000
757.487000 510.000000
757.507000 468.000000
757.532000 113.000000
816.571000 7992.000000

>ms2peaks
152.990000 40.000000
168.045000 173.000000
224.066000 141.000000
224.077000 61.000000
253.218000 666.000000
254.441000 51.000000
255.232000 5284.000000
278.364000 132.000000
279.232000 7890.000000
279.264000 87.000000
281.234000 133.000000
281.247000 562.000000
303.226000 60.000000
309.282000 40.000000
310.282000 40.000000
327.231000 30.000000
331.262000 30.000000
391.219000 30.000000
415.224000 40.000000
438.110000 30.000000
446.276000 40.000000
452.264000 40.000000
462.281000 85.000000
462.312000 70.000000
478.301000 45.000000
480.299000 101.000000
480.313000 387.000000
486.286000 70.000000
486.309000 102.000000
504.290000 102.000000
504.313000 234.000000
506.321000 70.000000
728.520000 23.000000
729.538000 110.000000
740.229000 83.000000
740.320000 27.000000
742.458000 60.000000
742.536000 10420.000000
743.552000 31.000000
757.500000 140.000000
766.533000 110.000000
767.695000 23.000000
816.528000 121.000000
816.565000 794.000000
816.605000 153.000000
816.645000 30.000000

