>compound LQB0110403
>parentmass 782.494
>ionization [M-H]-
>formula C42H74NO10P
>rt 499.900800
>profile qtof
#smiles_iso CCCCCCCCCCCCCCCC(=O)OCC(COP(=O)(O)OCC(C(=O)O)N)OC(=O)CCCCCC/C=C\C/C=C\C/C=C\C/C=C\CC
#smiles_can CCCCCCCCCCCCCCCC(=O)OCC(COP(=O)(O)OCC(C(=O)O)N)OC(=O)CCCCCCC=CCC=CCC=CCC=CCC
#inchikey FNOBGXQUVKEMEE-JAXHXWBXSA-N
#pubchem_id 138153806
#mb_accession LQB00329,LQB00715

>ms2
78.959000 244.000000
113.096000 50.000000
136.964000 131.000000
152.995000 1084.000000
171.008000 73.000000
175.148000 124.000000
196.036000 53.000000
203.180000 53.000000
219.141000 255.000000
254.429000 43.000000
255.232000 6702.000000
257.224000 195.000000
257.236000 111.000000
259.241000 132.000000
283.236000 71.000000
283.263000 2417.000000
284.265000 276.000000
301.215000 379.000000
303.224000 1289.000000
303.238000 1141.000000
319.225000 805.000000
345.225000 100.000000
345.246000 162.000000
391.197000 226.000000
391.224000 2954.000000
409.233000 1541.000000
419.251000 469.000000
420.263000 296.000000
436.284000 100.000000
437.270000 80.000000
438.272000 130.000000
439.200000 61.000000
439.226000 603.000000
457.244000 115.000000
462.289000 70.000000
480.300000 132.000000
480.325000 60.000000
495.275000 30.000000
496.269000 20.000000
498.244000 20.000000
526.928000 21.000000
669.097000 21.000000
694.420000 40.000000
695.403000 144.000000
695.460000 5165.000000
723.495000 23.000000
724.438000 30.000000
724.500000 510.000000
764.514000 111.000000
764.561000 61.000000
780.044000 46.000000
782.328000 23.000000
782.482000 4312.000000
782.513000 5281.000000
783.506000 40.000000

>ms2
78.959000 244.000000
113.096000 50.000000
136.964000 131.000000
152.995000 1084.000000
171.008000 73.000000
175.148000 124.000000
196.036000 53.000000
203.180000 53.000000
219.141000 255.000000
254.429000 43.000000
255.232000 6702.000000
257.224000 195.000000
257.236000 111.000000
259.241000 132.000000
283.236000 71.000000
283.263000 2417.000000
284.265000 276.000000
301.215000 379.000000
303.224000 1289.000000
303.238000 1141.000000
319.225000 805.000000
345.225000 100.000000
345.246000 162.000000
391.197000 226.000000
391.224000 2954.000000
409.233000 1541.000000
419.251000 469.000000
420.263000 296.000000
436.284000 100.000000
437.270000 80.000000
438.272000 130.000000
439.200000 61.000000
439.226000 603.000000
457.244000 115.000000
462.289000 70.000000
480.300000 132.000000
480.325000 60.000000
495.275000 30.000000
496.269000 20.000000
498.244000 20.000000
526.928000 21.000000
669.097000 21.000000
694.420000 40.000000
695.403000 144.000000
695.460000 5165.000000
723.495000 23.000000
724.438000 30.000000
724.500000 510.000000
764.514000 111.000000
764.561000 61.000000
780.044000 46.000000
782.328000 23.000000
782.482000 4312.000000
782.513000 5281.000000
783.506000 40.000000

