>compound LQB0227433
>parentmass 612.5195
>ionization [M+CH3COOH-H]-
>formula C34H67NO4
>rt 565.001400
>profile qtof
#smiles_iso CCCCCCCCCCCCCCC(C(=O)NC(CO)C(/C=C/CCCCCCCCCCCCC)O)O
#smiles_can CCCCCCCCCCCCCCC(C(=O)NC(CO)C(C=CCCCCCCCCCCCCC)O)O
#inchikey YWZGQPJRQXHVQX-BYCLXTJYSA-N
#pubchem_id 10209553
#mb_accession LQB00008,LQB00394

>ms2peaks
225.225000 222.000000
237.223000 45.000000
250.250000 30.000000
253.220000 112.000000
263.237000 30.000000
266.251000 30.000000
267.235000 70.000000
268.267000 30.000000
270.239000 80.000000
271.227000 50.000000
296.252000 151.000000
296.272000 30.000000
298.269000 20.000000
312.255000 60.000000
314.276000 23.000000
504.485000 112.000000
520.474000 20.000000
522.500000 30.000000
534.483000 106.000000
552.493000 1655.000000

>ms2peaks
225.225000 222.000000
237.223000 45.000000
250.250000 30.000000
253.220000 112.000000
263.237000 30.000000
266.251000 30.000000
267.235000 70.000000
268.267000 30.000000
270.239000 80.000000
271.227000 50.000000
296.252000 151.000000
296.272000 30.000000
298.269000 20.000000
312.255000 60.000000
314.276000 23.000000
504.485000 112.000000
520.474000 20.000000
522.500000 30.000000
534.483000 106.000000
552.493000 1655.000000

