>compound LQB0020998
>parentmass 840.5739
>ionization [M+CH3COOH-H]-
>formula C44H80NO8P
>rt 537.647520
>profile qtof
#smiles_iso CCCCC/C=C\C/C=C\CCCCCCCC(=O)OCC(COP(=O)([O-])OCC[N+](C)(C)C)OC(=O)CCCCCCC/C=C\C/C=C\CCCCC
#smiles_can CCCCCC=CCC=CCCCCCCCC(=O)OCC(COP(=O)([O-])OCC[N+](C)(C)C)OC(=O)CCCCCCCC=CCC=CCCCCC
#inchikey FVXDQWZBHIXIEJ-ZPPAUJSGSA-N
#pubchem_id 6440944
#mb_accession LQB00154,LQB00540

>ms2
168.042000 254.000000
168.056000 50.000000
224.069000 244.000000
242.077000 40.000000
253.222000 70.000000
261.221000 70.000000
277.212000 122.000000
279.193000 124.000000
279.232000 44028.000000
281.245000 160.000000
283.255000 40.000000
301.214000 80.000000
302.214000 91.000000
303.226000 98.000000
305.249000 306.000000
415.220000 141.000000
417.373000 23.000000
421.899000 20.000000
424.374000 37.000000
427.453000 23.000000
430.274000 30.000000
440.008000 30.000000
441.874000 20.000000
465.472000 20.000000
478.276000 20.000000
486.296000 674.000000
502.762000 23.000000
503.975000 31.000000
504.307000 2478.000000
519.274000 20.000000
555.719000 151.000000
634.374000 20.000000
695.456000 60.000000
721.482000 63.000000
764.106000 116.000000
765.521000 43.000000
766.245000 39.000000
766.534000 30901.000000
767.542000 95.000000
781.480000 123.000000
781.505000 132.000000
840.570000 2413.000000

>ms2
168.042000 254.000000
168.056000 50.000000
224.069000 244.000000
242.077000 40.000000
253.222000 70.000000
261.221000 70.000000
277.212000 122.000000
279.193000 124.000000
279.232000 44028.000000
281.245000 160.000000
283.255000 40.000000
301.214000 80.000000
302.214000 91.000000
303.226000 98.000000
305.249000 306.000000
415.220000 141.000000
417.373000 23.000000
421.899000 20.000000
424.374000 37.000000
427.453000 23.000000
430.274000 30.000000
440.008000 30.000000
441.874000 20.000000
465.472000 20.000000
478.276000 20.000000
486.296000 674.000000
502.762000 23.000000
503.975000 31.000000
504.307000 2478.000000
519.274000 20.000000
555.719000 151.000000
634.374000 20.000000
695.456000 60.000000
721.482000 63.000000
764.106000 116.000000
765.521000 43.000000
766.245000 39.000000
766.534000 30901.000000
767.542000 95.000000
781.480000 123.000000
781.505000 132.000000
840.570000 2413.000000

