>compound LQB0305647
>parentmass 899.5654
>ionization [M-H]-
>formula C48H85O13P
>rt 540.400320
>profile qtof
#smiles_iso CCCCCCCCCCCCCCCCCCC(=O)OCC(COP(=O)(O)OC1C(C(C(C(C1O)O)O)O)O)OC(=O)CCCCCC/C=C\C/C=C\C/C=C\C/C=C\CC
#smiles_can CCCCCCCCCCCCCCCCCCC(=O)OCC(COP(=O)(O)OC1C(C(C(C(C1O)O)O)O)O)OC(=O)CCCCCCC=CCC=CCC=CCC=CCC
#inchikey XVUQPQHEPXKWNS-PEDPXMNESA-N
#pubchem_id 138300906
#mb_accession LQB00323,LQB00709

>ms2
152.997000 20.000000
223.002000 131.000000
240.995000 71.000000
241.015000 337.000000
255.232000 20.000000
259.023000 30.000000
259.244000 43.000000
283.260000 20.000000
297.031000 100.000000
297.277000 481.000000
297.290000 83.000000
298.277000 20.000000
303.213000 80.000000
303.232000 499.000000
315.056000 51.000000
405.277000 20.000000
433.271000 306.000000
435.276000 30.000000
439.230000 50.000000
451.283000 50.000000
595.299000 132.000000
595.325000 245.000000
595.353000 81.000000
595.392000 40.000000
601.262000 91.000000
601.290000 100.000000
613.291000 33.000000
613.338000 112.000000
687.536000 60.000000
709.505000 20.000000
738.544000 20.000000
739.535000 20.000000
817.578000 20.000000
821.510000 30.000000
825.533000 23.000000
825.581000 70.000000
861.625000 23.000000
867.548000 31.000000
896.741000 50.000000
899.278000 20.000000
899.491000 186.000000
899.549000 4147.000000
899.574000 4438.000000
899.650000 128.000000
900.592000 43.000000

>ms2
152.997000 20.000000
223.002000 131.000000
240.995000 71.000000
241.015000 337.000000
255.232000 20.000000
259.023000 30.000000
259.244000 43.000000
283.260000 20.000000
297.031000 100.000000
297.277000 481.000000
297.290000 83.000000
298.277000 20.000000
303.213000 80.000000
303.232000 499.000000
315.056000 51.000000
405.277000 20.000000
433.271000 306.000000
435.276000 30.000000
439.230000 50.000000
451.283000 50.000000
595.299000 132.000000
595.325000 245.000000
595.353000 81.000000
595.392000 40.000000
601.262000 91.000000
601.290000 100.000000
613.291000 33.000000
613.338000 112.000000
687.536000 60.000000
709.505000 20.000000
738.544000 20.000000
739.535000 20.000000
817.578000 20.000000
821.510000 30.000000
825.533000 23.000000
825.581000 70.000000
861.625000 23.000000
867.548000 31.000000
896.741000 50.000000
899.278000 20.000000
899.491000 186.000000
899.549000 4147.000000
899.574000 4438.000000
899.650000 128.000000
900.592000 43.000000

