>compound LQB0152490
>parentmass 708.6473
>ionization [M+CH3COOH-H]-
>formula C42H83NO3
>rt 798.602400
>profile qtof
#smiles_iso CCCCCCCCCCCCCCCCCCCCCCCC(=O)NC(CO)C(/C=C/CCCCCCCCCCCCC)O
#smiles_can CCCCCCCCCCCCCCCCCCCCCCCC(=O)NC(CO)C(C=CCCCCCCCCCCCCC)O
#inchikey ZJVVOYPTFQEGPH-MHAUTQJVSA-N
#pubchem_id 5789754
#mb_accession LQB00047,LQB00433

>ms2peaks
80.027000 120.000000
95.051000 132.000000
217.004000 356.000000
219.212000 70.000000
221.222000 80.000000
225.213000 193.000000
225.228000 114.000000
235.205000 663.000000
236.474000 216.000000
236.494000 62.000000
237.220000 28908.000000
239.237000 1206.000000
245.224000 70.000000
248.233000 116.000000
249.229000 61.000000
250.251000 1469.000000
251.234000 337.000000
253.250000 110.000000
255.228000 296.000000
261.223000 123.000000
262.249000 81.000000
262.411000 81.000000
263.236000 25469.000000
265.253000 846.000000
266.247000 5034.000000
268.262000 4632.000000
278.247000 111.000000
280.254000 120.000000
281.235000 256.000000
281.251000 612.000000
291.266000 509.000000
296.290000 122.000000
298.272000 1550.000000
298.996000 172.000000
321.314000 734.000000
337.353000 132.000000
338.336000 887.000000
338.353000 204.000000
339.320000 347.000000
347.322000 247.000000
347.337000 102.000000
348.245000 191.000000
349.345000 35851.000000
351.359000 275.000000
364.357000 3658.000000
365.230000 153.000000
365.377000 2865.000000
366.370000 30136.000000
367.357000 22977.000000
378.371000 151.000000
380.351000 522.000000
380.386000 346.000000
380.402000 112.000000
381.002000 142.000000
390.361000 246.000000
390.377000 380.000000
391.140000 163.000000
391.161000 348.000000
392.246000 121.000000
392.386000 117452.000000
393.334000 125.000000
393.379000 111.000000
406.351000 256.000000
406.372000 705.000000
407.372000 366.000000
408.382000 20824.000000
409.383000 124.000000
410.385000 686.000000
410.405000 338.000000
420.371000 101.000000
422.397000 389.000000
573.588000 526.000000
573.616000 142.000000
574.582000 107.000000
589.570000 244.000000
589.596000 274.000000
598.567000 101.000000
598.601000 111.000000
600.604000 21814.000000
601.615000 72.000000
602.630000 151.000000
612.604000 295.000000
616.598000 22404.000000
616.664000 247.000000
617.599000 91.000000
617.622000 70.000000
618.614000 40528.000000
618.681000 204.000000
619.623000 111.000000
620.589000 83.000000
620.635000 203.000000
630.590000 515.000000
630.612000 1132.000000
630.632000 588.000000
646.490000 76.000000
646.531000 112.000000
646.556000 377.000000
646.583000 1244.000000
647.685000 123.000000
648.080000 66.000000
648.223000 142.000000
648.312000 83.000000
648.493000 97.000000
648.622000 120617.000000
649.466000 88.000000
649.630000 760.000000
649.661000 277.000000
649.952000 110.000000
678.356000 23.000000
690.619000 23.000000
708.597000 100.000000
708.649000 705.000000
708.675000 112.000000
708.691000 71.000000

>ms2peaks
80.027000 120.000000
95.051000 132.000000
217.004000 356.000000
219.212000 70.000000
221.222000 80.000000
225.213000 193.000000
225.228000 114.000000
235.205000 663.000000
236.474000 216.000000
236.494000 62.000000
237.220000 28908.000000
239.237000 1206.000000
245.224000 70.000000
248.233000 116.000000
249.229000 61.000000
250.251000 1469.000000
251.234000 337.000000
253.250000 110.000000
255.228000 296.000000
261.223000 123.000000
262.249000 81.000000
262.411000 81.000000
263.236000 25469.000000
265.253000 846.000000
266.247000 5034.000000
268.262000 4632.000000
278.247000 111.000000
280.254000 120.000000
281.235000 256.000000
281.251000 612.000000
291.266000 509.000000
296.290000 122.000000
298.272000 1550.000000
298.996000 172.000000
321.314000 734.000000
337.353000 132.000000
338.336000 887.000000
338.353000 204.000000
339.320000 347.000000
347.322000 247.000000
347.337000 102.000000
348.245000 191.000000
349.345000 35851.000000
351.359000 275.000000
364.357000 3658.000000
365.230000 153.000000
365.377000 2865.000000
366.370000 30136.000000
367.357000 22977.000000
378.371000 151.000000
380.351000 522.000000
380.386000 346.000000
380.402000 112.000000
381.002000 142.000000
390.361000 246.000000
390.377000 380.000000
391.140000 163.000000
391.161000 348.000000
392.246000 121.000000
392.386000 117452.000000
393.334000 125.000000
393.379000 111.000000
406.351000 256.000000
406.372000 705.000000
407.372000 366.000000
408.382000 20824.000000
409.383000 124.000000
410.385000 686.000000
410.405000 338.000000
420.371000 101.000000
422.397000 389.000000
573.588000 526.000000
573.616000 142.000000
574.582000 107.000000
589.570000 244.000000
589.596000 274.000000
598.567000 101.000000
598.601000 111.000000
600.604000 21814.000000
601.615000 72.000000
602.630000 151.000000
612.604000 295.000000
616.598000 22404.000000
616.664000 247.000000
617.599000 91.000000
617.622000 70.000000
618.614000 40528.000000
618.681000 204.000000
619.623000 111.000000
620.589000 83.000000
620.635000 203.000000
630.590000 515.000000
630.612000 1132.000000
630.632000 588.000000
646.490000 76.000000
646.531000 112.000000
646.556000 377.000000
646.583000 1244.000000
647.685000 123.000000
648.080000 66.000000
648.223000 142.000000
648.312000 83.000000
648.493000 97.000000
648.622000 120617.000000
649.466000 88.000000
649.630000 760.000000
649.661000 277.000000
649.952000 110.000000
678.356000 23.000000
690.619000 23.000000
708.597000 100.000000
708.649000 705.000000
708.675000 112.000000
708.691000 71.000000

