>compound LQB0064007
>parentmass 794.5693
>ionization [M-H]-
>formula C45H82NO8P
>rt 669.321000
>profile qtof
#smiles_iso CCCCCCCCCCCCCCCCCC(=O)OCC(COP(=O)(O)OCCN)OC(=O)CCCCCCCC/C=C\C/C=C\C/C=C\C/C=C\CC
#smiles_can CCCCCCCCCCCCCCCCCC(=O)OCC(COP(=O)(O)OCCN)OC(=O)CCCCCCCCC=CCC=CCC=CCC=CCC
#inchikey TVACGFJBGVEGCR-PYQGTGCGSA-N
#pubchem_id 138267167
#mb_accession LQB00203,LQB00589

>ms2
78.960000 94.000000
140.010000 602.000000
152.994000 60.000000
178.024000 40.000000
181.122000 70.000000
191.107000 70.000000
196.037000 846.000000
205.121000 93.000000
214.049000 122.000000
219.139000 50.000000
233.218000 71.000000
233.227000 193.000000
259.248000 53.000000
265.257000 40.000000
282.385000 151.000000
283.265000 22097.000000
287.274000 1387.000000
295.246000 50.000000
313.251000 214.000000
313.261000 71.000000
329.243000 100.000000
330.212000 164.000000
330.236000 183.000000
331.013000 50.000000
331.264000 54812.000000
332.260000 54.000000
454.282000 50.000000
455.538000 50.000000
462.268000 123.000000
462.302000 888.000000
462.340000 50.000000
467.257000 51.000000
478.806000 42.000000
480.309000 3972.000000
481.330000 24.000000
508.232000 23.000000
510.273000 67.000000
510.287000 143.000000
510.301000 235.000000
510.321000 112.000000
528.302000 204.000000
528.319000 172.000000
660.765000 55.000000
792.069000 132.000000
792.145000 60.000000
793.600000 33.000000
794.485000 43.000000
794.570000 28553.000000
794.702000 23.000000
795.072000 47.000000
795.573000 115.000000
798.109000 20.000000
798.672000 20.000000

>ms2
78.960000 94.000000
140.010000 602.000000
152.994000 60.000000
178.024000 40.000000
181.122000 70.000000
191.107000 70.000000
196.037000 846.000000
205.121000 93.000000
214.049000 122.000000
219.139000 50.000000
233.218000 71.000000
233.227000 193.000000
259.248000 53.000000
265.257000 40.000000
282.385000 151.000000
283.265000 22097.000000
287.274000 1387.000000
295.246000 50.000000
313.251000 214.000000
313.261000 71.000000
329.243000 100.000000
330.212000 164.000000
330.236000 183.000000
331.013000 50.000000
331.264000 54812.000000
332.260000 54.000000
454.282000 50.000000
455.538000 50.000000
462.268000 123.000000
462.302000 888.000000
462.340000 50.000000
467.257000 51.000000
478.806000 42.000000
480.309000 3972.000000
481.330000 24.000000
508.232000 23.000000
510.273000 67.000000
510.287000 143.000000
510.301000 235.000000
510.321000 112.000000
528.302000 204.000000
528.319000 172.000000
660.765000 55.000000
792.069000 132.000000
792.145000 60.000000
793.600000 33.000000
794.485000 43.000000
794.570000 28553.000000
794.702000 23.000000
795.072000 47.000000
795.573000 115.000000
798.109000 20.000000
798.672000 20.000000

