>compound LQB0451204
>parentmass 868.6054
>ionization [M+CH3COOH-H]-
>formula C46H84NO8P
>rt 581.914080
>profile qtof
#smiles_iso CCCCCCCC/C=C\CCCCCCCC(=O)OCC(COP(=O)([O-])OCC[N+](C)(C)C)OC(=O)CCCCCCCCC/C=C\C/C=C\C/C=C\CC
#smiles_can CCCCCCCCC=CCCCCCCCC(=O)OCC(COP(=O)([O-])OCC[N+](C)(C)C)OC(=O)CCCCCCCCCC=CCC=CCC=CCC
#inchikey JNKAOGSDBBXHEP-SAUDALOUSA-N
#pubchem_id 138187111
#mb_accession LQB00147,LQB00533

>ms2peaks
168.045000 60.000000
224.068000 60.000000
255.231000 45.000000
261.258000 25.000000
279.232000 1178.000000
281.247000 1148.000000
283.266000 40.000000
284.263000 35.000000
301.219000 40.000000
302.216000 66.000000
303.228000 45.000000
304.306000 23.000000
305.247000 2700.000000
307.264000 448.000000
329.248000 55.000000
330.254000 40.000000
331.258000 20.000000
435.253000 15.000000
436.284000 45.000000
480.313000 15.000000
486.304000 16.000000
488.313000 50.000000
504.314000 20.000000
506.328000 131.000000
512.312000 40.000000
514.330000 30.000000
530.327000 35.000000
532.343000 90.000000
723.473000 20.000000
730.537000 10.000000
748.514000 10.000000
749.504000 15.000000
792.027000 10.000000
792.567000 10.000000
793.561000 65.000000
794.567000 5588.000000
795.580000 25.000000
808.507000 15.000000
808.594000 15.000000
809.533000 55.000000
868.605000 662.000000

>ms2peaks
168.045000 60.000000
224.068000 60.000000
255.231000 45.000000
261.258000 25.000000
279.232000 1178.000000
281.247000 1148.000000
283.266000 40.000000
284.263000 35.000000
301.219000 40.000000
302.216000 66.000000
303.228000 45.000000
304.306000 23.000000
305.247000 2700.000000
307.264000 448.000000
329.248000 55.000000
330.254000 40.000000
331.258000 20.000000
435.253000 15.000000
436.284000 45.000000
480.313000 15.000000
486.304000 16.000000
488.313000 50.000000
504.314000 20.000000
506.328000 131.000000
512.312000 40.000000
514.330000 30.000000
530.327000 35.000000
532.343000 90.000000
723.473000 20.000000
730.537000 10.000000
748.514000 10.000000
749.504000 15.000000
792.027000 10.000000
792.567000 10.000000
793.561000 65.000000
794.567000 5588.000000
795.580000 25.000000
808.507000 15.000000
808.594000 15.000000
809.533000 55.000000
868.605000 662.000000

