>compound LQB0429594
>parentmass 694.6310000000001
>ionization [M+CH3COOH-H]-
>formula C41H81NO3
>rt 792.201000
>profile qtof
#smiles_iso CCCCCCCCCCCCCCCCCCCCCCC(=O)NC(CO)C(/C=C/CCCCCCCCCCCCC)O
#smiles_can CCCCCCCCCCCCCCCCCCCCCCC(=O)NC(CO)C(C=CCCCCCCCCCCCCC)O
#inchikey NAJHAHQNQCNWOP-JMUUFCRMSA-N
#pubchem_id 59982723
#mb_accession LQB00045,LQB00046,LQB00431,LQB00432

>ms2
141.013000 70.000000
202.987000 70.000000
217.002000 266.000000
235.209000 143.000000
236.498000 89.000000
237.222000 3638.000000
239.238000 206.000000
249.226000 172.000000
250.249000 116.000000
251.235000 50.000000
252.246000 57.000000
255.238000 77.000000
263.237000 2256.000000
266.240000 184.000000
266.251000 317.000000
268.260000 510.000000
268.272000 163.000000
281.248000 103.000000
285.003000 58.000000
298.266000 112.000000
298.281000 173.000000
299.000000 152.000000
335.330000 4502.000000
336.337000 60.000000
337.353000 101.000000
349.344000 313.000000
351.345000 105.000000
351.366000 370.000000
352.355000 3826.000000
353.315000 227.000000
353.343000 2237.000000
364.351000 143.000000
366.369000 203.000000
366.383000 153.000000
367.345000 132.000000
367.370000 34.000000
376.352000 93.000000
377.191000 112.000000
378.371000 17713.000000
381.010000 76.000000
392.349000 101.000000
392.388000 938.000000
393.359000 114.000000
394.365000 2480.000000
394.395000 125.000000
396.380000 70.000000
408.390000 91.000000
445.381000 60.000000
445.410000 91.000000
487.008000 40.000000
559.587000 50.000000
575.579000 81.000000
586.564000 933.000000
586.592000 2399.000000
588.602000 41.000000
598.583000 90.000000
600.672000 47.000000
602.549000 298.000000
602.584000 2741.000000
604.598000 4933.000000
616.564000 60.000000
616.603000 183.000000
632.590000 79.000000
632.623000 145.000000
634.608000 37926.000000
634.715000 44.000000
635.593000 64.000000
635.633000 83.000000
648.632000 60.000000
694.632000 90.000000

>ms2
203.023000 50.000000
217.002000 162.000000
223.202000 286.000000
223.214000 134.000000
225.220000 81.000000
235.209000 81.000000
237.220000 1580.000000
239.237000 70.000000
249.222000 172.000000
250.252000 142.000000
252.234000 70.000000
254.248000 50.000000
263.238000 1172.000000
266.248000 306.000000
268.265000 378.000000
281.253000 48.000000
298.266000 111.000000
299.001000 70.000000
322.989000 54.000000
335.329000 2810.000000
349.339000 286.000000
349.353000 214.000000
351.366000 244.000000
352.355000 1646.000000
352.375000 204.000000
353.338000 1285.000000
364.356000 60.000000
366.366000 457.000000
366.390000 203.000000
366.992000 50.000000
367.353000 265.000000
377.182000 71.000000
378.372000 8417.000000
392.340000 68.000000
392.388000 1755.000000
394.354000 378.000000
394.370000 714.000000
396.374000 63.000000
406.396000 73.000000
408.364000 91.000000
408.387000 132.000000
584.582000 50.000000
586.572000 592.000000
586.591000 836.000000
586.610000 245.000000
602.546000 123.000000
602.586000 1623.000000
602.643000 74.000000
604.552000 124.000000
604.592000 2474.000000
604.626000 382.000000
606.601000 40.000000
616.581000 53.000000
616.605000 121.000000
632.594000 60.000000
634.610000 24499.000000
635.610000 63.000000
694.447000 20.000000
694.635000 74.000000

>ms2
141.013000 70.000000
202.987000 70.000000
217.002000 266.000000
235.209000 143.000000
236.498000 89.000000
237.222000 3638.000000
239.238000 206.000000
249.226000 172.000000
250.249000 116.000000
251.235000 50.000000
252.246000 57.000000
255.238000 77.000000
263.237000 2256.000000
266.240000 184.000000
266.251000 317.000000
268.260000 510.000000
268.272000 163.000000
281.248000 103.000000
285.003000 58.000000
298.266000 112.000000
298.281000 173.000000
299.000000 152.000000
335.330000 4502.000000
336.337000 60.000000
337.353000 101.000000
349.344000 313.000000
351.345000 105.000000
351.366000 370.000000
352.355000 3826.000000
353.315000 227.000000
353.343000 2237.000000
364.351000 143.000000
366.369000 203.000000
366.383000 153.000000
367.345000 132.000000
367.370000 34.000000
376.352000 93.000000
377.191000 112.000000
378.371000 17713.000000
381.010000 76.000000
392.349000 101.000000
392.388000 938.000000
393.359000 114.000000
394.365000 2480.000000
394.395000 125.000000
396.380000 70.000000
408.390000 91.000000
445.381000 60.000000
445.410000 91.000000
487.008000 40.000000
559.587000 50.000000
575.579000 81.000000
586.564000 933.000000
586.592000 2399.000000
588.602000 41.000000
598.583000 90.000000
600.672000 47.000000
602.549000 298.000000
602.584000 2741.000000
604.598000 4933.000000
616.564000 60.000000
616.603000 183.000000
632.590000 79.000000
632.623000 145.000000
634.608000 37926.000000
634.715000 44.000000
635.593000 64.000000
635.633000 83.000000
648.632000 60.000000
694.632000 90.000000

>ms2
203.023000 50.000000
217.002000 162.000000
223.202000 286.000000
223.214000 134.000000
225.220000 81.000000
235.209000 81.000000
237.220000 1580.000000
239.237000 70.000000
249.222000 172.000000
250.252000 142.000000
252.234000 70.000000
254.248000 50.000000
263.238000 1172.000000
266.248000 306.000000
268.265000 378.000000
281.253000 48.000000
298.266000 111.000000
299.001000 70.000000
322.989000 54.000000
335.329000 2810.000000
349.339000 286.000000
349.353000 214.000000
351.366000 244.000000
352.355000 1646.000000
352.375000 204.000000
353.338000 1285.000000
364.356000 60.000000
366.366000 457.000000
366.390000 203.000000
366.992000 50.000000
367.353000 265.000000
377.182000 71.000000
378.372000 8417.000000
392.340000 68.000000
392.388000 1755.000000
394.354000 378.000000
394.370000 714.000000
396.374000 63.000000
406.396000 73.000000
408.364000 91.000000
408.387000 132.000000
584.582000 50.000000
586.572000 592.000000
586.591000 836.000000
586.610000 245.000000
602.546000 123.000000
602.586000 1623.000000
602.643000 74.000000
604.552000 124.000000
604.592000 2474.000000
604.626000 382.000000
606.601000 40.000000
616.581000 53.000000
616.605000 121.000000
632.594000 60.000000
634.610000 24499.000000
635.610000 63.000000
694.447000 20.000000
694.635000 74.000000

