>compound LQB0136755
>parentmass 734.6599
>ionization [M+CH3COOH-H]-
>formula C44H85NO3
>rt 800.563200
>profile qtof
#smiles_iso CCCCCCCCCCCCCCCCCCCCCCCCCC(=O)NC(CO)C(/C=C/CC/C=C/CCCCCCCCC)O
#smiles_can CCCCCCCCCCCCCCCCCCCCCCCCCC(=O)NC(CO)C(C=CCCC=CCCCCCCCCC)O
#inchikey ZLOXRQZQPDQQBX-NBGJCBSLSA-N
#pubchem_id 138314265
#mb_accession LQB00064,LQB00450

>ms2peaks
235.199000 41.000000
237.222000 156.000000
253.215000 31.000000
261.218000 60.000000
263.237000 123.000000
263.248000 50.000000
265.249000 70.000000
279.225000 153.000000
279.231000 60.000000
279.236000 91.000000
279.246000 50.000000
291.271000 63.000000
349.338000 85.000000
364.358000 80.000000
365.340000 50.000000
375.357000 163.000000
375.369000 51.000000
377.362000 111.000000
377.378000 50.000000
377.393000 50.000000
390.364000 224.000000
390.376000 81.000000
390.382000 91.000000
392.376000 173.000000
392.386000 71.000000
392.392000 50.000000
393.365000 71.000000
393.395000 90.000000
394.405000 132.000000
395.387000 132.000000
406.372000 51.000000
418.380000 92.000000
418.389000 153.000000
418.399000 377.000000
418.409000 133.000000
418.415000 113.000000
418.420000 82.000000
420.420000 448.000000
434.397000 110.000000
436.414000 161.000000
626.603000 152.000000
626.640000 132.000000
642.588000 49.000000
642.607000 193.000000
642.638000 50.000000
644.596000 51.000000
644.603000 61.000000
644.614000 184.000000
644.628000 82.000000
644.636000 61.000000
644.643000 61.000000
644.668000 101.000000
649.600000 71.000000
649.607000 50.000000
649.637000 142.000000
656.642000 52.000000
672.494000 50.000000
674.577000 49.000000
674.606000 485.000000
674.632000 4451.000000
674.654000 837.000000
674.661000 707.000000
734.676000 20.000000
735.588000 20.000000

>ms2peaks
235.199000 41.000000
237.222000 156.000000
253.215000 31.000000
261.218000 60.000000
263.237000 123.000000
263.248000 50.000000
265.249000 70.000000
279.225000 153.000000
279.231000 60.000000
279.236000 91.000000
279.246000 50.000000
291.271000 63.000000
349.338000 85.000000
364.358000 80.000000
365.340000 50.000000
375.357000 163.000000
375.369000 51.000000
377.362000 111.000000
377.378000 50.000000
377.393000 50.000000
390.364000 224.000000
390.376000 81.000000
390.382000 91.000000
392.376000 173.000000
392.386000 71.000000
392.392000 50.000000
393.365000 71.000000
393.395000 90.000000
394.405000 132.000000
395.387000 132.000000
406.372000 51.000000
418.380000 92.000000
418.389000 153.000000
418.399000 377.000000
418.409000 133.000000
418.415000 113.000000
418.420000 82.000000
420.420000 448.000000
434.397000 110.000000
436.414000 161.000000
626.603000 152.000000
626.640000 132.000000
642.588000 49.000000
642.607000 193.000000
642.638000 50.000000
644.596000 51.000000
644.603000 61.000000
644.614000 184.000000
644.628000 82.000000
644.636000 61.000000
644.643000 61.000000
644.668000 101.000000
649.600000 71.000000
649.607000 50.000000
649.637000 142.000000
656.642000 52.000000
672.494000 50.000000
674.577000 49.000000
674.606000 485.000000
674.632000 4451.000000
674.654000 837.000000
674.661000 707.000000
734.676000 20.000000
735.588000 20.000000

