>compound LQB0440190
>parentmass 836.5433
>ionization [M-H]-
>formula C46H80NO10P
>rt 531.783300
>profile qtof
#smiles_iso CCCCCCCCCCCCCCCCCC(=O)OCC(COP(=O)(O)OCC(C(=O)O)N)OC(=O)CCCCC/C=C\C/C=C\C/C=C\C/C=C\C/C=C\CC
#smiles_can CCCCCCCCCCCCCCCCCC(=O)OCC(COP(=O)(O)OCC(C(=O)O)N)OC(=O)CCCCCC=CCC=CCC=CCC=CCC=CCC
#inchikey PZEFRSYCROBXSJ-NIZIMQIGSA-N
#pubchem_id 138241231
#mb_accession LQB00339,LQB00725

>ms2peaks
78.959000 662.000000
96.967000 80.000000
134.979000 45.000000
134.991000 25.000000
152.994000 2104.000000
154.998000 15.000000
171.005000 73.000000
231.210000 50.000000
281.246000 30.000000
282.245000 25.000000
282.380000 50.000000
283.264000 15470.000000
283.308000 37.000000
284.262000 126.000000
284.279000 35.000000
285.253000 188.000000
285.265000 213.000000
327.234000 40.000000
328.210000 26.000000
328.241000 35.000000
329.247000 4257.000000
417.925000 25.000000
417.961000 35.000000
419.218000 169.000000
419.255000 8898.000000
420.255000 151.000000
420.274000 66.000000
437.264000 3791.000000
438.255000 35.000000
438.274000 55.000000
439.273000 55.000000
465.240000 1818.000000
480.315000 10.000000
483.242000 236.000000
483.261000 226.000000
500.138000 10.000000
501.815000 10.000000
506.280000 10.000000
523.331000 10.000000
524.307000 30.000000
524.537000 14.000000
552.283000 10.000000
570.251000 10.000000
747.111000 35.000000
747.144000 40.000000
748.459000 25.000000
748.489000 35.000000
748.515000 50.000000
749.434000 75.000000
749.509000 15821.000000
749.634000 20.000000
750.484000 43.000000
750.546000 64.000000
762.557000 31.000000
833.905000 48.000000
836.448000 25.000000
836.541000 15464.000000
837.100000 26.000000
837.540000 35.000000

>ms2peaks
78.959000 662.000000
96.967000 80.000000
134.979000 45.000000
134.991000 25.000000
152.994000 2104.000000
154.998000 15.000000
171.005000 73.000000
231.210000 50.000000
281.246000 30.000000
282.245000 25.000000
282.380000 50.000000
283.264000 15470.000000
283.308000 37.000000
284.262000 126.000000
284.279000 35.000000
285.253000 188.000000
285.265000 213.000000
327.234000 40.000000
328.210000 26.000000
328.241000 35.000000
329.247000 4257.000000
417.925000 25.000000
417.961000 35.000000
419.218000 169.000000
419.255000 8898.000000
420.255000 151.000000
420.274000 66.000000
437.264000 3791.000000
438.255000 35.000000
438.274000 55.000000
439.273000 55.000000
465.240000 1818.000000
480.315000 10.000000
483.242000 236.000000
483.261000 226.000000
500.138000 10.000000
501.815000 10.000000
506.280000 10.000000
523.331000 10.000000
524.307000 30.000000
524.537000 14.000000
552.283000 10.000000
570.251000 10.000000
747.111000 35.000000
747.144000 40.000000
748.459000 25.000000
748.489000 35.000000
748.515000 50.000000
749.434000 75.000000
749.509000 15821.000000
749.634000 20.000000
750.484000 43.000000
750.546000 64.000000
762.557000 31.000000
833.905000 48.000000
836.448000 25.000000
836.541000 15464.000000
837.100000 26.000000
837.540000 35.000000

