>compound LQB0744874
>parentmass 797.5328
>ionization [M-H]-
>formula C44H79O10P
>rt 527.902020
>profile qtof
#smiles_iso CCCCCCCCCCCCCCCCCC(=O)OCC(COP(=O)(O)OCC(CO)O)OC(=O)CCCCCC/C=C\C/C=C\C/C=C\C/C=C\CC
#smiles_can CCCCCCCCCCCCCCCCCC(=O)OCC(COP(=O)(O)OCC(CO)O)OC(=O)CCCCCCC=CCC=CCC=CCC=CCC
#inchikey JDHPBMPBPWNFFB-ZKVKLVECSA-N
#pubchem_id 138183909
#mb_accession LQB00259,LQB00645

>ms2peaks
78.959000 326.000000
120.969000 100.000000
138.983000 122.000000
152.994000 827.000000
163.073000 50.000000
171.006000 317.000000
177.093000 63.000000
191.112000 73.000000
194.998000 80.000000
195.010000 152.000000
205.121000 50.000000
205.177000 60.000000
205.198000 470.000000
209.019000 100.000000
217.193000 80.000000
227.030000 389.000000
231.212000 110.000000
253.214000 60.000000
255.238000 91.000000
259.243000 2304.000000
282.376000 113.000000
282.419000 50.000000
283.262000 13268.000000
283.366000 49.000000
285.206000 63.000000
285.226000 183.000000
301.214000 72.000000
302.274000 101.000000
302.293000 134.000000
302.888000 43.000000
303.230000 26724.000000
304.231000 131.000000
331.261000 113.000000
419.225000 91.000000
419.254000 327.000000
419.274000 112.000000
437.257000 93.000000
439.216000 80.000000
461.245000 164.000000
461.272000 226.000000
479.265000 642.000000
479.295000 154.000000
481.234000 141.000000
493.280000 370.000000
493.314000 111.000000
499.231000 91.000000
511.258000 61.000000
511.287000 956.000000
511.316000 563.000000
511.345000 50.000000
511.646000 23.000000
513.254000 193.000000
513.283000 70.000000
531.270000 81.000000
723.479000 40.000000
763.039000 40.000000
765.440000 232.000000
765.483000 3479.000000
765.514000 6093.000000
766.507000 45.000000
794.965000 41.000000
795.008000 91.000000
796.387000 34.000000
797.007000 30.000000
797.504000 4869.000000
797.530000 21140.000000
797.612000 102.000000
798.513000 55.000000
798.547000 103.000000

>ms2peaks
78.959000 326.000000
120.969000 100.000000
138.983000 122.000000
152.994000 827.000000
163.073000 50.000000
171.006000 317.000000
177.093000 63.000000
191.112000 73.000000
194.998000 80.000000
195.010000 152.000000
205.121000 50.000000
205.177000 60.000000
205.198000 470.000000
209.019000 100.000000
217.193000 80.000000
227.030000 389.000000
231.212000 110.000000
253.214000 60.000000
255.238000 91.000000
259.243000 2304.000000
282.376000 113.000000
282.419000 50.000000
283.262000 13268.000000
283.366000 49.000000
285.206000 63.000000
285.226000 183.000000
301.214000 72.000000
302.274000 101.000000
302.293000 134.000000
302.888000 43.000000
303.230000 26724.000000
304.231000 131.000000
331.261000 113.000000
419.225000 91.000000
419.254000 327.000000
419.274000 112.000000
437.257000 93.000000
439.216000 80.000000
461.245000 164.000000
461.272000 226.000000
479.265000 642.000000
479.295000 154.000000
481.234000 141.000000
493.280000 370.000000
493.314000 111.000000
499.231000 91.000000
511.258000 61.000000
511.287000 956.000000
511.316000 563.000000
511.345000 50.000000
511.646000 23.000000
513.254000 193.000000
513.283000 70.000000
531.270000 81.000000
723.479000 40.000000
763.039000 40.000000
765.440000 232.000000
765.483000 3479.000000
765.514000 6093.000000
766.507000 45.000000
794.965000 41.000000
795.008000 91.000000
796.387000 34.000000
797.007000 30.000000
797.504000 4869.000000
797.530000 21140.000000
797.612000 102.000000
798.513000 55.000000
798.547000 103.000000

