>compound LQB0374486
>parentmass 788.5405
>ionization [M+CH3COOH-H]-
>formula C40H76NO8P
>rt 522.427380
>profile qtof
#smiles_iso CCCCCC/C=C\CCCCCCCC(=O)OCC(COP(=O)([O-])OCC[N+](C)(C)C)OC(=O)CCCCCCC/C=C\CCCCCC
#smiles_can CCCCCCC=CCCCCCCCC(=O)OCC(COP(=O)([O-])OCC[N+](C)(C)C)OC(=O)CCCCCCCC=CCCCCCC
#inchikey GPWHCUUIQMGELX-YGGBKCGDSA-N
#pubchem_id 10462648
#mb_accession LQB00119,LQB00505

>ms2
78.959000 71.000000
153.002000 43.000000
168.047000 124.000000
224.066000 151.000000
227.200000 1172.000000
251.203000 156.000000
253.215000 5525.000000
255.226000 44.000000
261.221000 31.000000
278.367000 42.000000
279.231000 3114.000000
280.235000 50.000000
281.239000 80.000000
282.253000 91.000000
283.266000 132.000000
284.265000 192.000000
285.263000 30.000000
417.223000 63.000000
418.225000 40.000000
419.250000 40.000000
420.251000 120.000000
434.260000 60.000000
436.243000 40.000000
452.276000 151.000000
460.266000 121.000000
478.262000 74.000000
478.281000 113.000000
478.304000 141.000000
504.296000 40.000000
511.441000 31.000000
699.458000 20.000000
700.499000 60.000000
701.446000 71.000000
701.468000 61.000000
701.494000 173.000000
701.525000 50.000000
713.488000 21.000000
714.434000 354.000000
714.487000 5784.000000
714.551000 73.000000
729.435000 43.000000
729.481000 33.000000
788.465000 50.000000
788.504000 407.000000
788.538000 255.000000
788.569000 80.000000

>ms2
78.959000 71.000000
153.002000 43.000000
168.047000 124.000000
224.066000 151.000000
227.200000 1172.000000
251.203000 156.000000
253.215000 5525.000000
255.226000 44.000000
261.221000 31.000000
278.367000 42.000000
279.231000 3114.000000
280.235000 50.000000
281.239000 80.000000
282.253000 91.000000
283.266000 132.000000
284.265000 192.000000
285.263000 30.000000
417.223000 63.000000
418.225000 40.000000
419.250000 40.000000
420.251000 120.000000
434.260000 60.000000
436.243000 40.000000
452.276000 151.000000
460.266000 121.000000
478.262000 74.000000
478.281000 113.000000
478.304000 141.000000
504.296000 40.000000
511.441000 31.000000
699.458000 20.000000
700.499000 60.000000
701.446000 71.000000
701.468000 61.000000
701.494000 173.000000
701.525000 50.000000
713.488000 21.000000
714.434000 354.000000
714.487000 5784.000000
714.551000 73.000000
729.435000 43.000000
729.481000 33.000000
788.465000 50.000000
788.504000 407.000000
788.538000 255.000000
788.569000 80.000000

