>compound LQB0484724
>parentmass 736.5105
>ionization [M+CH3COOH-H]-
>formula C36H72NO8P
>rt 507.978540
>profile qtof
#smiles_iso CCCCCCCCCCCCCC(=O)OCC(COP(=O)([O-])OCC[N+](C)(C)C)OC(=O)CCCCCCCCCCCCC
#smiles_can CCCCCCCCCCCCCC(=O)OCC(COP(=O)([O-])OCC[N+](C)(C)C)OC(=O)CCCCCCCCCCCCC
#inchikey CITHEXJVPOWHKC-UHFFFAOYSA-N
#pubchem_id 26197
#mb_accession LQB00082,LQB00468

>ms2
168.042000 20.000000
199.168000 356.000000
206.195000 20.000000
224.073000 61.000000
227.201000 1959.000000
228.200000 24.000000
252.967000 20.000000
255.231000 356.000000
255.247000 50.000000
257.241000 30.000000
279.228000 33.000000
281.250000 141.000000
282.255000 50.000000
283.263000 50.000000
284.271000 20.000000
303.237000 90.000000
304.237000 121.000000
404.339000 20.000000
406.214000 20.000000
434.262000 81.000000
449.262000 43.000000
452.268000 120.000000
480.268000 20.000000
480.317000 23.000000
628.564000 30.000000
658.549000 73.000000
662.427000 133.000000
662.450000 595.000000
662.478000 1862.000000
677.442000 20.000000
686.534000 20.000000
736.458000 51.000000
736.482000 122.000000
736.500000 132.000000
736.524000 102.000000
736.558000 40.000000

>ms2
168.042000 20.000000
199.168000 356.000000
206.195000 20.000000
224.073000 61.000000
227.201000 1959.000000
228.200000 24.000000
252.967000 20.000000
255.231000 356.000000
255.247000 50.000000
257.241000 30.000000
279.228000 33.000000
281.250000 141.000000
282.255000 50.000000
283.263000 50.000000
284.271000 20.000000
303.237000 90.000000
304.237000 121.000000
404.339000 20.000000
406.214000 20.000000
434.262000 81.000000
449.262000 43.000000
452.268000 120.000000
480.268000 20.000000
480.317000 23.000000
628.564000 30.000000
658.549000 73.000000
662.427000 133.000000
662.450000 595.000000
662.478000 1862.000000
677.442000 20.000000
686.534000 20.000000
736.458000 51.000000
736.482000 122.000000
736.500000 132.000000
736.524000 102.000000
736.558000 40.000000

