>compound LQB0064141
>parentmass 832.6037
>ionization [M+CH3COOH-H]-
>formula C43H84NO8P
>rt 624.907200
>profile qtof
#smiles_iso CCCCCCCCCCCCCCCCC(=O)OCC(COP(=O)([O-])OCC[N+](C)(C)C)OC(=O)CCCCCCC/C=C\CCCCCCCC
#smiles_can CCCCCCCCCCCCCCCCC(=O)OCC(COP(=O)([O-])OCC[N+](C)(C)C)OC(=O)CCCCCCCC=CCCCCCCCC
#inchikey SXNXGNVZTLZDHE-XDOYNYLZSA-N
#pubchem_id 14818920
#mb_accession LQB00126,LQB00512

>ms2
255.227000 151.000000
255.238000 61.000000
255.244000 50.000000
267.236000 90.000000
269.248000 307.000000
280.362000 34.000000
281.248000 897.000000
283.268000 80.000000
295.260000 245.000000
295.274000 71.000000
303.232000 40.000000
309.284000 50.000000
331.265000 121.000000
458.251000 20.000000
462.294000 20.000000
480.303000 30.000000
494.320000 80.000000
508.329000 23.000000
750.505000 63.000000
750.538000 173.000000
750.585000 80.000000
758.492000 81.000000
758.527000 175.000000
758.537000 513.000000
758.558000 1682.000000
758.585000 370.000000
758.593000 235.000000
758.612000 112.000000
772.547000 50.000000
772.638000 25.000000
832.510000 63.000000
832.557000 20.000000
832.565000 71.000000
832.576000 50.000000
832.586000 50.000000
832.627000 122.000000

>ms2
255.227000 151.000000
255.238000 61.000000
255.244000 50.000000
267.236000 90.000000
269.248000 307.000000
280.362000 34.000000
281.248000 897.000000
283.268000 80.000000
295.260000 245.000000
295.274000 71.000000
303.232000 40.000000
309.284000 50.000000
331.265000 121.000000
458.251000 20.000000
462.294000 20.000000
480.303000 30.000000
494.320000 80.000000
508.329000 23.000000
750.505000 63.000000
750.538000 173.000000
750.585000 80.000000
758.492000 81.000000
758.527000 175.000000
758.537000 513.000000
758.558000 1682.000000
758.585000 370.000000
758.593000 235.000000
758.612000 112.000000
772.547000 50.000000
772.638000 25.000000
832.510000 63.000000
832.557000 20.000000
832.565000 71.000000
832.576000 50.000000
832.586000 50.000000
832.627000 122.000000

