>compound LQB0196962
>parentmass 568.4925
>ionization [M+CH3COOH-H]-
>formula C32H63NO3
>rt 540.719880
>profile qtof
#smiles_iso CCCCCCCCCCCCC/C=C/C(C(CO)NC(=O)CCCCCCCCCCCCC)O
#smiles_can CCCCCCCCCCCCCC=CC(C(CO)NC(=O)CCCCCCCCCCCCC)O
#inchikey ZKRPGPZHULJLKJ-IMVLJIQESA-N
#pubchem_id 6292012
#mb_accession LQB00028,LQB00414

>ms2peaks
209.190000 30.000000
226.220000 81.000000
227.201000 33.000000
237.220000 111.000000
252.231000 244.000000
254.242000 33.000000
263.235000 50.000000
266.244000 30.000000
280.266000 193.000000
460.455000 80.000000
476.448000 70.000000
478.469000 111.000000
508.472000 520.000000

>ms2peaks
209.190000 30.000000
226.220000 81.000000
227.201000 33.000000
237.220000 111.000000
252.231000 244.000000
254.242000 33.000000
263.235000 50.000000
266.244000 30.000000
280.266000 193.000000
460.455000 80.000000
476.448000 70.000000
478.469000 111.000000
508.472000 520.000000

