>compound LQB0535860
>parentmass 918.618
>ionization [M+CH3COOH-H]-
>formula C50H86NO8P
>rt 604.185600
>profile qtof
#smiles_iso CCCCCCCC/C=C\CCCCCCCCCC(=O)OCC(COP(=O)([O-])OCC[N+](C)(C)C)OC(=O)CC/C=C\C/C=C\C/C=C\C/C=C\C/C=C\C/C=C\CC
#smiles_can CCCCCCCCC=CCCCCCCCCCC(=O)OCC(COP(=O)([O-])OCC[N+](C)(C)C)OC(=O)CCC=CCC=CCC=CCC=CCC=CCC=CCC
#inchikey FYVDGOCCFDKYOR-GXLBXUGMSA-N
#pubchem_id 138157361
#mb_accession LQB00165,LQB00551

>ms2
177.164000 11.000000
224.070000 20.000000
229.197000 25.000000
261.945000 10.000000
283.243000 191.000000
285.259000 15.000000
309.279000 291.000000
327.232000 494.000000
516.336000 20.000000
534.293000 15.000000
534.338000 20.000000
534.354000 85.000000
773.482000 10.000000
833.596000 11.000000
844.583000 1274.000000
844.644000 30.000000
844.661000 15.000000
859.568000 15.000000
918.623000 161.000000
918.646000 45.000000

>ms2
177.164000 11.000000
224.070000 20.000000
229.197000 25.000000
261.945000 10.000000
283.243000 191.000000
285.259000 15.000000
309.279000 291.000000
327.232000 494.000000
516.336000 20.000000
534.293000 15.000000
534.338000 20.000000
534.354000 85.000000
773.482000 10.000000
833.596000 11.000000
844.583000 1274.000000
844.644000 30.000000
844.661000 15.000000
859.568000 15.000000
918.623000 161.000000
918.646000 45.000000

