>compound LQB0189480
>parentmass 594.5065
>ionization [M+CH3COOH-H]-
>formula C34H65NO3
>rt 547.829520
>profile qtof
#smiles_iso CCCCCCCCCCCCCCCC(=O)NC(CO)C(/C=C/CC/C=C/CCCCCCCCC)O
#smiles_can CCCCCCCCCCCCCCCC(=O)NC(CO)C(C=CCCC=CCCCCCCCCC)O
#inchikey GMWIWVUTMCBDSP-ZNPGVSGMSA-N
#pubchem_id 6442454
#mb_accession LQB00054,LQB00440

>ms2
233.191000 112.000000
234.476000 52.000000
235.205000 6267.000000
237.221000 9968.000000
248.229000 173.000000
248.241000 255.000000
249.220000 80.000000
253.208000 90.000000
253.254000 1378.000000
254.247000 5913.000000
255.232000 3991.000000
260.240000 93.000000
260.407000 73.000000
261.221000 5065.000000
264.229000 1224.000000
266.249000 1305.000000
268.267000 182.000000
278.251000 315.000000
279.226000 90.000000
279.378000 50.000000
279.413000 73.000000
280.264000 33463.000000
294.238000 174.000000
294.250000 132.000000
295.254000 159.000000
295.333000 48.000000
296.259000 5267.000000
296.292000 62.000000
298.277000 133.000000
310.280000 100.000000
319.284000 40.000000
447.467000 43.000000
459.454000 110.000000
475.459000 84.000000
476.490000 61.000000
477.461000 71.000000
484.443000 72.000000
486.465000 4707.000000
488.491000 50.000000
498.466000 153.000000
502.416000 134.000000
502.457000 4796.000000
502.887000 73.000000
504.477000 7657.000000
506.500000 72.000000
516.464000 164.000000
516.487000 153.000000
532.783000 127.000000
532.805000 162.000000
534.383000 58.000000
534.485000 34356.000000
535.478000 93.000000
557.777000 127.000000
561.515000 43.000000

>ms2
233.191000 112.000000
234.476000 52.000000
235.205000 6267.000000
237.221000 9968.000000
248.229000 173.000000
248.241000 255.000000
249.220000 80.000000
253.208000 90.000000
253.254000 1378.000000
254.247000 5913.000000
255.232000 3991.000000
260.240000 93.000000
260.407000 73.000000
261.221000 5065.000000
264.229000 1224.000000
266.249000 1305.000000
268.267000 182.000000
278.251000 315.000000
279.226000 90.000000
279.378000 50.000000
279.413000 73.000000
280.264000 33463.000000
294.238000 174.000000
294.250000 132.000000
295.254000 159.000000
295.333000 48.000000
296.259000 5267.000000
296.292000 62.000000
298.277000 133.000000
310.280000 100.000000
319.284000 40.000000
447.467000 43.000000
459.454000 110.000000
475.459000 84.000000
476.490000 61.000000
477.461000 71.000000
484.443000 72.000000
486.465000 4707.000000
488.491000 50.000000
498.466000 153.000000
502.416000 134.000000
502.457000 4796.000000
502.887000 73.000000
504.477000 7657.000000
506.500000 72.000000
516.464000 164.000000
516.487000 153.000000
532.783000 127.000000
532.805000 162.000000
534.383000 58.000000
534.485000 34356.000000
535.478000 93.000000
557.777000 127.000000
561.515000 43.000000

