>compound LQB0026627
>parentmass 826.5599
>ionization [M+CH3COOH-H]-
>formula C43H78NO8P
>rt 538.107240
>profile qtof
#smiles_iso CCCCCCCCCCCCCCC(=O)OCC(COP(=O)([O-])OCC[N+](C)(C)C)OC(=O)CCCCCC/C=C\C/C=C\C/C=C\C/C=C\CC
#smiles_can CCCCCCCCCCCCCCC(=O)OCC(COP(=O)([O-])OCC[N+](C)(C)C)OC(=O)CCCCCCC=CCC=CCC=CCC=CCC
#inchikey JSXZJOMDSXRJMT-LTFXTMEVSA-N
#pubchem_id 138188911
#mb_accession LQB00095,LQB00481

>ms2
205.196000 30.000000
224.068000 61.000000
241.215000 539.000000
259.243000 91.000000
279.235000 71.000000
283.263000 50.000000
289.214000 51.000000
303.232000 1305.000000
304.234000 50.000000
448.290000 20.000000
466.286000 141.000000
486.296000 20.000000
714.569000 20.000000
744.547000 31.000000
752.516000 1897.000000
766.500000 104.000000
766.551000 73.000000
826.552000 356.000000

>ms2
205.196000 30.000000
224.068000 61.000000
241.215000 539.000000
259.243000 91.000000
279.235000 71.000000
283.263000 50.000000
289.214000 51.000000
303.232000 1305.000000
304.234000 50.000000
448.290000 20.000000
466.286000 141.000000
486.296000 20.000000
714.569000 20.000000
744.547000 31.000000
752.516000 1897.000000
766.500000 104.000000
766.551000 73.000000
826.552000 356.000000

