>compound LQB0343709
>parentmass 859.53585
>ionization [M-H]-
>formula C45H81O13P
>rt 507.640650
>profile qtof
#smiles_iso CCCCCCCCCCCCCCCC(=O)OCC(COP(=O)(O)OC1C(C(C(C(C1O)O)O)O)O)OC(=O)CCCCCCCCC/C=C\C/C=C\C/C=C\CC
#smiles_can CCCCCCCCCCCCCCCC(=O)OCC(COP(=O)(O)OC1C(C(C(C(C1O)O)O)O)O)OC(=O)CCCCCCCCCC=CCC=CCC=CCC
#inchikey UIRZYDCTGNCXNQ-SVNQLWEDSA-N
#pubchem_id 138271538
#mb_accession LQB00295,LQB00296,LQB00681,LQB00682

>ms2peaks
78.959000 40.000000
96.965000 30.000000
152.997000 142.000000
153.011000 50.000000
179.052000 60.000000
222.999000 275.000000
241.011000 868.000000
241.036000 50.000000
255.215000 173.000000
255.233000 1163.000000
259.016000 111.000000
259.030000 60.000000
277.213000 40.000000
279.236000 40.000000
281.248000 35.000000
283.261000 105.000000
293.216000 50.000000
294.221000 30.000000
295.226000 20.000000
297.033000 130.000000
305.244000 1286.000000
305.265000 255.000000
307.241000 20.000000
315.047000 90.000000
377.243000 30.000000
391.221000 562.000000
409.229000 70.000000
441.217000 60.000000
441.248000 91.000000
479.675000 20.000000
483.863000 20.000000
535.487000 40.000000
553.247000 122.000000
553.267000 358.000000
553.283000 357.000000
569.957000 20.000000
571.288000 161.000000
579.260000 30.000000
588.429000 20.000000
603.260000 70.000000
603.302000 90.000000
621.283000 20.000000
670.429000 30.000000
697.468000 93.000000
697.561000 74.000000
783.612000 43.000000
785.536000 71.000000
785.566000 50.000000
785.598000 50.000000
799.588000 33.000000
827.463000 53.000000
841.495000 30.000000
856.810000 68.000000
859.444000 141.000000
859.526000 13624.000000
859.602000 240.000000
860.511000 40.000000

>ms2peaks
152.994000 151.000000
223.001000 204.000000
241.011000 673.000000
255.232000 765.000000
256.231000 20.000000
259.022000 50.000000
261.255000 20.000000
277.218000 132.000000
279.237000 30.000000
281.246000 91.000000
283.264000 294.000000
284.265000 39.000000
293.207000 122.000000
293.224000 60.000000
294.213000 161.000000
296.232000 20.000000
297.036000 133.000000
305.246000 663.000000
315.047000 40.000000
391.224000 500.000000
392.223000 20.000000
409.235000 30.000000
417.240000 50.000000
419.254000 74.000000
441.235000 74.000000
501.362000 20.000000
553.273000 265.000000
571.280000 153.000000
579.278000 20.000000
581.301000 102.000000
599.343000 20.000000
603.288000 91.000000
697.471000 100.000000
777.549000 23.000000
784.531000 149.000000
785.525000 41.000000
785.552000 396.000000
798.572000 23.000000
799.533000 70.000000
799.587000 121.000000
827.510000 70.000000
856.826000 71.000000
859.530000 11584.000000
859.644000 43.000000
860.519000 30.000000

>ms2peaks
78.959000 40.000000
96.965000 30.000000
152.997000 142.000000
153.011000 50.000000
179.052000 60.000000
222.999000 275.000000
241.011000 868.000000
241.036000 50.000000
255.215000 173.000000
255.233000 1163.000000
259.016000 111.000000
259.030000 60.000000
277.213000 40.000000
279.236000 40.000000
281.248000 35.000000
283.261000 105.000000
293.216000 50.000000
294.221000 30.000000
295.226000 20.000000
297.033000 130.000000
305.244000 1286.000000
305.265000 255.000000
307.241000 20.000000
315.047000 90.000000
377.243000 30.000000
391.221000 562.000000
409.229000 70.000000
441.217000 60.000000
441.248000 91.000000
479.675000 20.000000
483.863000 20.000000
535.487000 40.000000
553.247000 122.000000
553.267000 358.000000
553.283000 357.000000
569.957000 20.000000
571.288000 161.000000
579.260000 30.000000
588.429000 20.000000
603.260000 70.000000
603.302000 90.000000
621.283000 20.000000
670.429000 30.000000
697.468000 93.000000
697.561000 74.000000
783.612000 43.000000
785.536000 71.000000
785.566000 50.000000
785.598000 50.000000
799.588000 33.000000
827.463000 53.000000
841.495000 30.000000
856.810000 68.000000
859.444000 141.000000
859.526000 13624.000000
859.602000 240.000000
860.511000 40.000000

>ms2peaks
152.994000 151.000000
223.001000 204.000000
241.011000 673.000000
255.232000 765.000000
256.231000 20.000000
259.022000 50.000000
261.255000 20.000000
277.218000 132.000000
279.237000 30.000000
281.246000 91.000000
283.264000 294.000000
284.265000 39.000000
293.207000 122.000000
293.224000 60.000000
294.213000 161.000000
296.232000 20.000000
297.036000 133.000000
305.246000 663.000000
315.047000 40.000000
391.224000 500.000000
392.223000 20.000000
409.235000 30.000000
417.240000 50.000000
419.254000 74.000000
441.235000 74.000000
501.362000 20.000000
553.273000 265.000000
571.280000 153.000000
579.278000 20.000000
581.301000 102.000000
599.343000 20.000000
603.288000 91.000000
697.471000 100.000000
777.549000 23.000000
784.531000 149.000000
785.525000 41.000000
785.552000 396.000000
798.572000 23.000000
799.533000 70.000000
799.587000 121.000000
827.510000 70.000000
856.826000 71.000000
859.530000 11584.000000
859.644000 43.000000
860.519000 30.000000

