>compound LQB0169293
>parentmass 909.5445
>ionization [M-H]-
>formula C49H83O13P
>rt 519.231420
>profile qtof
#smiles_iso CCCCCCCCCCCCCCCCCC(=O)OCC(COP(=O)(O)OC1C(C(C(C(C1O)O)O)O)O)OC(=O)CC/C=C\C/C=C\C/C=C\C/C=C\C/C=C\C/C=C\CC
#smiles_can CCCCCCCCCCCCCCCCCC(=O)OCC(COP(=O)(O)OC1C(C(C(C(C1O)O)O)O)O)OC(=O)CCC=CCC=CCC=CCC=CCC=CCC=CCC
#inchikey DJVOKHFQPGWUPK-HSBBONCLSA-N
#pubchem_id 138144195
#mb_accession LQB00313,LQB00699

>ms2
78.958000 1444.000000
93.071000 80.000000
96.967000 398.000000
117.068000 60.000000
121.103000 100.000000
133.099000 80.000000
134.987000 141.000000
135.115000 90.000000
149.134000 122.000000
152.995000 3852.000000
161.132000 110.000000
163.074000 70.000000
163.147000 143.000000
171.000000 71.000000
175.146000 70.000000
177.157000 142.000000
177.166000 214.000000
189.163000 101.000000
191.178000 335.000000
203.181000 114.000000
223.000000 5252.000000
229.195000 1246.000000
238.987000 75.000000
239.000000 103.000000
240.001000 60.000000
241.011000 24882.000000
249.181000 245.000000
249.201000 80.000000
255.211000 161.000000
259.020000 2488.000000
271.168000 63.000000
282.364000 142.000000
283.262000 35783.000000
284.240000 74.000000
284.267000 399.000000
285.273000 152.000000
297.036000 4493.000000
309.222000 178.000000
315.047000 1807.000000
326.204000 168.000000
327.186000 65.000000
327.231000 22490.000000
327.273000 76.000000
328.237000 188.000000
341.010000 91.000000
385.231000 73.000000
419.254000 19876.000000
420.253000 406.000000
420.275000 61.000000
421.242000 83.000000
437.246000 670.000000
437.259000 72.000000
437.266000 1828.000000
438.285000 141.000000
439.264000 76.000000
461.253000 63.000000
463.225000 3062.000000
464.217000 90.000000
479.516000 134.000000
481.234000 150.000000
489.262000 74.000000
501.230000 45.000000
505.726000 61.000000
507.254000 50.000000
507.831000 52.000000
509.312000 65.000000
516.044000 46.000000
516.789000 55.000000
518.742000 58.000000
525.279000 122.000000
525.450000 45.000000
563.789000 60.000000
579.472000 114.000000
580.278000 70.000000
581.305000 24808.000000
582.297000 52.000000
597.445000 105.000000
598.306000 73.000000
599.316000 7421.000000
599.372000 72.000000
616.058000 47.000000
625.231000 310.000000
625.267000 3070.000000
625.289000 1557.000000
625.321000 179.000000
643.263000 112.000000
643.290000 285.000000
643.319000 101.000000
747.436000 71.000000
747.472000 562.000000
747.498000 1204.000000
747.520000 246.000000
747.549000 120.000000
748.461000 80.000000
748.494000 101.000000
749.465000 142.000000
749.478000 276.000000
749.508000 654.000000
789.475000 86.000000
789.529000 60.000000
817.472000 64.000000
817.495000 143.000000
817.531000 112.000000
831.509000 93.000000
835.538000 70.000000
835.592000 60.000000
859.482000 100.000000
859.528000 111.000000
877.476000 184.000000
877.515000 866.000000
877.560000 174.000000
891.514000 163.000000
906.637000 959.000000
906.677000 947.000000
906.767000 141.000000
908.276000 60.000000
908.395000 202.000000
908.561000 101.000000
908.592000 70.000000
908.636000 80.000000
909.214000 60.000000
909.306000 90.000000
909.364000 132.000000
909.398000 56.000000
909.542000 220458.000000
910.323000 135.000000
910.523000 444.000000
910.556000 837.000000
910.782000 113.000000
911.044000 90.000000
911.114000 82.000000
911.301000 108.000000

>ms2
78.958000 1444.000000
93.071000 80.000000
96.967000 398.000000
117.068000 60.000000
121.103000 100.000000
133.099000 80.000000
134.987000 141.000000
135.115000 90.000000
149.134000 122.000000
152.995000 3852.000000
161.132000 110.000000
163.074000 70.000000
163.147000 143.000000
171.000000 71.000000
175.146000 70.000000
177.157000 142.000000
177.166000 214.000000
189.163000 101.000000
191.178000 335.000000
203.181000 114.000000
223.000000 5252.000000
229.195000 1246.000000
238.987000 75.000000
239.000000 103.000000
240.001000 60.000000
241.011000 24882.000000
249.181000 245.000000
249.201000 80.000000
255.211000 161.000000
259.020000 2488.000000
271.168000 63.000000
282.364000 142.000000
283.262000 35783.000000
284.240000 74.000000
284.267000 399.000000
285.273000 152.000000
297.036000 4493.000000
309.222000 178.000000
315.047000 1807.000000
326.204000 168.000000
327.186000 65.000000
327.231000 22490.000000
327.273000 76.000000
328.237000 188.000000
341.010000 91.000000
385.231000 73.000000
419.254000 19876.000000
420.253000 406.000000
420.275000 61.000000
421.242000 83.000000
437.246000 670.000000
437.259000 72.000000
437.266000 1828.000000
438.285000 141.000000
439.264000 76.000000
461.253000 63.000000
463.225000 3062.000000
464.217000 90.000000
479.516000 134.000000
481.234000 150.000000
489.262000 74.000000
501.230000 45.000000
505.726000 61.000000
507.254000 50.000000
507.831000 52.000000
509.312000 65.000000
516.044000 46.000000
516.789000 55.000000
518.742000 58.000000
525.279000 122.000000
525.450000 45.000000
563.789000 60.000000
579.472000 114.000000
580.278000 70.000000
581.305000 24808.000000
582.297000 52.000000
597.445000 105.000000
598.306000 73.000000
599.316000 7421.000000
599.372000 72.000000
616.058000 47.000000
625.231000 310.000000
625.267000 3070.000000
625.289000 1557.000000
625.321000 179.000000
643.263000 112.000000
643.290000 285.000000
643.319000 101.000000
747.436000 71.000000
747.472000 562.000000
747.498000 1204.000000
747.520000 246.000000
747.549000 120.000000
748.461000 80.000000
748.494000 101.000000
749.465000 142.000000
749.478000 276.000000
749.508000 654.000000
789.475000 86.000000
789.529000 60.000000
817.472000 64.000000
817.495000 143.000000
817.531000 112.000000
831.509000 93.000000
835.538000 70.000000
835.592000 60.000000
859.482000 100.000000
859.528000 111.000000
877.476000 184.000000
877.515000 866.000000
877.560000 174.000000
891.514000 163.000000
906.637000 959.000000
906.677000 947.000000
906.767000 141.000000
908.276000 60.000000
908.395000 202.000000
908.561000 101.000000
908.592000 70.000000
908.636000 80.000000
909.214000 60.000000
909.306000 90.000000
909.364000 132.000000
909.398000 56.000000
909.542000 220458.000000
910.323000 135.000000
910.523000 444.000000
910.556000 837.000000
910.782000 113.000000
911.044000 90.000000
911.114000 82.000000
911.301000 108.000000

