>compound LQB0212624
>parentmass 883.53285
>ionization [M-H]-
>formula C47H81O13P
>rt 501.171900
>profile qtof
#smiles_iso CCCCCCCC/C=C\CCCCCCCC(=O)OCC(COP(=O)(O)OC1C(C(C(C(C1O)O)O)O)O)OC(=O)CCCCCC/C=C\C/C=C\C/C=C\C/C=C\CC
#smiles_can CCCCCCCCC=CCCCCCCCC(=O)OCC(COP(=O)(O)OC1C(C(C(C(C1O)O)O)O)O)OC(=O)CCCCCCC=CCC=CCC=CCC=CCC
#inchikey XGZVRASBCZTHNO-HAGCXRLMSA-N
#pubchem_id 138296016
#mb_accession LQB00316,LQB00317,LQB00702,LQB00703

>ms2
78.958000 474.000000
96.968000 198.000000
134.982000 51.000000
152.993000 1604.000000
153.999000 28.000000
171.006000 40.000000
177.095000 25.000000
204.994000 25.000000
205.193000 233.000000
222.999000 2444.000000
231.208000 45.000000
240.256000 35.000000
240.273000 30.000000
241.011000 8125.000000
255.223000 65.000000
259.021000 734.000000
259.242000 1039.000000
280.373000 76.000000
281.247000 12258.000000
282.253000 51.000000
283.232000 35.000000
283.251000 45.000000
284.250000 76.000000
285.216000 50.000000
285.229000 35.000000
287.280000 35.000000
297.035000 1642.000000
302.292000 82.000000
303.231000 12286.000000
303.276000 63.000000
315.044000 561.000000
327.231000 150.000000
328.226000 65.000000
328.239000 121.000000
329.252000 15.000000
331.263000 1051.000000
332.263000 770.000000
417.241000 5934.000000
417.285000 74.000000
435.225000 59.000000
435.250000 496.000000
439.222000 928.000000
457.239000 35.000000
463.223000 80.000000
464.218000 84.000000
467.258000 576.000000
468.256000 514.000000
481.232000 31.000000
481.641000 21.000000
482.226000 48.000000
485.271000 359.000000
486.238000 25.000000
486.264000 70.000000
486.284000 80.000000
505.253000 21.000000
523.265000 50.000000
527.242000 20.000000
577.461000 46.000000
579.234000 40.000000
579.292000 7855.000000
580.296000 32.000000
597.297000 1963.000000
601.254000 219.000000
601.277000 1116.000000
601.296000 225.000000
619.277000 146.000000
619.299000 35.000000
619.321000 30.000000
721.437000 20.000000
721.463000 50.000000
721.487000 75.000000
723.489000 25.000000
795.461000 30.000000
795.484000 40.000000
795.508000 60.000000
795.542000 35.000000
796.432000 45.000000
796.468000 271.000000
796.499000 1661.000000
798.630000 33.000000
801.531000 16.000000
823.640000 21.000000
851.485000 35.000000
880.646000 30.000000
880.688000 55.000000
880.702000 60.000000
880.736000 197.000000
880.769000 146.000000
880.800000 50.000000
880.853000 50.000000
881.516000 30.000000
882.472000 50.000000
882.588000 50.000000
883.380000 33.000000
883.436000 90.000000
883.531000 98937.000000
883.614000 165.000000
884.033000 42.000000
884.267000 31.000000
884.507000 173.000000
884.536000 397.000000
884.560000 163.000000

>ms2
78.955000 162.000000
78.961000 116.000000
96.967000 80.000000
134.981000 25.000000
152.995000 729.000000
171.005000 25.000000
204.988000 35.000000
205.192000 71.000000
223.000000 989.000000
231.212000 30.000000
240.259000 25.000000
241.011000 4161.000000
251.200000 38.000000
255.233000 2600.000000
257.230000 40.000000
259.020000 286.000000
259.242000 222.000000
280.372000 46.000000
281.248000 3638.000000
283.254000 40.000000
283.266000 105.000000
285.257000 186.000000
297.036000 768.000000
301.206000 45.000000
301.222000 57.000000
303.232000 3129.000000
315.049000 352.000000
329.246000 2880.000000
391.222000 1371.000000
409.233000 131.000000
417.239000 1653.000000
417.285000 30.000000
419.260000 55.000000
435.242000 125.000000
435.271000 45.000000
439.219000 171.000000
439.243000 55.000000
465.244000 202.000000
486.939000 28.000000
497.250000 40.000000
553.272000 1689.000000
553.297000 573.000000
571.247000 40.000000
571.269000 153.000000
571.291000 235.000000
579.287000 1903.000000
579.308000 488.000000
581.316000 65.000000
597.265000 44.000000
597.302000 377.000000
597.330000 71.000000
597.355000 30.000000
599.285000 25.000000
601.271000 333.000000
619.279000 50.000000
627.266000 80.000000
627.297000 321.000000
627.334000 35.000000
645.306000 65.000000
721.459000 20.000000
721.480000 70.000000
723.495000 35.000000
763.481000 23.000000
796.496000 41.000000
809.573000 141.000000
809.616000 374.000000
809.654000 101.000000
823.591000 31.000000
823.652000 70.000000
851.505000 50.000000
865.522000 28.000000
880.708000 115.000000
880.755000 100.000000
880.803000 70.000000
882.346000 21.000000
882.979000 22.000000
883.290000 36.000000
883.351000 30.000000
883.533000 63977.000000
883.631000 64.000000
883.723000 31.000000
883.816000 33.000000
884.504000 117.000000
884.535000 188.000000
884.561000 121.000000
884.994000 21.000000

>ms2
78.958000 474.000000
96.968000 198.000000
134.982000 51.000000
152.993000 1604.000000
153.999000 28.000000
171.006000 40.000000
177.095000 25.000000
204.994000 25.000000
205.193000 233.000000
222.999000 2444.000000
231.208000 45.000000
240.256000 35.000000
240.273000 30.000000
241.011000 8125.000000
255.223000 65.000000
259.021000 734.000000
259.242000 1039.000000
280.373000 76.000000
281.247000 12258.000000
282.253000 51.000000
283.232000 35.000000
283.251000 45.000000
284.250000 76.000000
285.216000 50.000000
285.229000 35.000000
287.280000 35.000000
297.035000 1642.000000
302.292000 82.000000
303.231000 12286.000000
303.276000 63.000000
315.044000 561.000000
327.231000 150.000000
328.226000 65.000000
328.239000 121.000000
329.252000 15.000000
331.263000 1051.000000
332.263000 770.000000
417.241000 5934.000000
417.285000 74.000000
435.225000 59.000000
435.250000 496.000000
439.222000 928.000000
457.239000 35.000000
463.223000 80.000000
464.218000 84.000000
467.258000 576.000000
468.256000 514.000000
481.232000 31.000000
481.641000 21.000000
482.226000 48.000000
485.271000 359.000000
486.238000 25.000000
486.264000 70.000000
486.284000 80.000000
505.253000 21.000000
523.265000 50.000000
527.242000 20.000000
577.461000 46.000000
579.234000 40.000000
579.292000 7855.000000
580.296000 32.000000
597.297000 1963.000000
601.254000 219.000000
601.277000 1116.000000
601.296000 225.000000
619.277000 146.000000
619.299000 35.000000
619.321000 30.000000
721.437000 20.000000
721.463000 50.000000
721.487000 75.000000
723.489000 25.000000
795.461000 30.000000
795.484000 40.000000
795.508000 60.000000
795.542000 35.000000
796.432000 45.000000
796.468000 271.000000
796.499000 1661.000000
798.630000 33.000000
801.531000 16.000000
823.640000 21.000000
851.485000 35.000000
880.646000 30.000000
880.688000 55.000000
880.702000 60.000000
880.736000 197.000000
880.769000 146.000000
880.800000 50.000000
880.853000 50.000000
881.516000 30.000000
882.472000 50.000000
882.588000 50.000000
883.380000 33.000000
883.436000 90.000000
883.531000 98937.000000
883.614000 165.000000
884.033000 42.000000
884.267000 31.000000
884.507000 173.000000
884.536000 397.000000
884.560000 163.000000

>ms2
78.955000 162.000000
78.961000 116.000000
96.967000 80.000000
134.981000 25.000000
152.995000 729.000000
171.005000 25.000000
204.988000 35.000000
205.192000 71.000000
223.000000 989.000000
231.212000 30.000000
240.259000 25.000000
241.011000 4161.000000
251.200000 38.000000
255.233000 2600.000000
257.230000 40.000000
259.020000 286.000000
259.242000 222.000000
280.372000 46.000000
281.248000 3638.000000
283.254000 40.000000
283.266000 105.000000
285.257000 186.000000
297.036000 768.000000
301.206000 45.000000
301.222000 57.000000
303.232000 3129.000000
315.049000 352.000000
329.246000 2880.000000
391.222000 1371.000000
409.233000 131.000000
417.239000 1653.000000
417.285000 30.000000
419.260000 55.000000
435.242000 125.000000
435.271000 45.000000
439.219000 171.000000
439.243000 55.000000
465.244000 202.000000
486.939000 28.000000
497.250000 40.000000
553.272000 1689.000000
553.297000 573.000000
571.247000 40.000000
571.269000 153.000000
571.291000 235.000000
579.287000 1903.000000
579.308000 488.000000
581.316000 65.000000
597.265000 44.000000
597.302000 377.000000
597.330000 71.000000
597.355000 30.000000
599.285000 25.000000
601.271000 333.000000
619.279000 50.000000
627.266000 80.000000
627.297000 321.000000
627.334000 35.000000
645.306000 65.000000
721.459000 20.000000
721.480000 70.000000
723.495000 35.000000
763.481000 23.000000
796.496000 41.000000
809.573000 141.000000
809.616000 374.000000
809.654000 101.000000
823.591000 31.000000
823.652000 70.000000
851.505000 50.000000
865.522000 28.000000
880.708000 115.000000
880.755000 100.000000
880.803000 70.000000
882.346000 21.000000
882.979000 22.000000
883.290000 36.000000
883.351000 30.000000
883.533000 63977.000000
883.631000 64.000000
883.723000 31.000000
883.816000 33.000000
884.504000 117.000000
884.535000 188.000000
884.561000 121.000000
884.994000 21.000000

