>compound LQB0220518
>parentmass 734.4984
>ionization [M-H]-
>formula C38H74NO10P
>rt 514.056600
>profile qtof
#smiles_iso CCCCCCCCCCCCCCCC(=O)OCC(COP(=O)(O)OCC(C(=O)O)N)OC(=O)CCCCCCCCCCCCCCC
#smiles_can CCCCCCCCCCCCCCCC(=O)OCC(COP(=O)(O)OCC(C(=O)O)N)OC(=O)CCCCCCCCCCCCCCC
#inchikey KLFKZIQAIPDJCW-UHFFFAOYSA-N
#pubchem_id 181664
#mb_accession LQB00327,LQB00713

>ms2
227.202000 30.000000
255.219000 102.000000
255.231000 847.000000
283.247000 70.000000
301.211000 73.000000
327.239000 60.000000
391.206000 71.000000
391.227000 315.000000
409.224000 91.000000
647.436000 153.000000
647.450000 112.000000
647.466000 306.000000
647.512000 35.000000
660.485000 30.000000
734.431000 30.000000
734.460000 40.000000
734.471000 132.000000
734.490000 82.000000
734.504000 133.000000
734.515000 80.000000

>ms2
227.202000 30.000000
255.219000 102.000000
255.231000 847.000000
283.247000 70.000000
301.211000 73.000000
327.239000 60.000000
391.206000 71.000000
391.227000 315.000000
409.224000 91.000000
647.436000 153.000000
647.450000 112.000000
647.466000 306.000000
647.512000 35.000000
660.485000 30.000000
734.431000 30.000000
734.460000 40.000000
734.471000 132.000000
734.490000 82.000000
734.504000 133.000000
734.515000 80.000000

