>compound LQB0312707
>parentmass 869.5164
>ionization [M-H]-
>formula C46H79O13P
>rt 495.544320
>profile qtof
#smiles_iso CCCCCCCCCCCCCCCCC(=O)OCC(COP(=O)(O)OC1C(C(C(C(C1O)O)O)O)O)OC(=O)CCC/C=C\C/C=C\C/C=C\C/C=C\C/C=C\CC
#smiles_can CCCCCCCCCCCCCCCCC(=O)OCC(COP(=O)(O)OC1C(C(C(C(C1O)O)O)O)O)OC(=O)CCCC=CCC=CCC=CCC=CCC=CCC
#inchikey DGRNZNZECRXZCS-VZVMVVDZSA-N
#pubchem_id 138143153
#mb_accession LQB00304,LQB00690

>ms2peaks
100.933000 15.000000
223.000000 10.000000
241.012000 40.000000
255.233000 10.000000
256.236000 16.000000
257.225000 10.000000
269.251000 45.000000
301.212000 45.000000
303.231000 10.000000
405.241000 30.000000
481.341000 10.000000
494.349000 30.000000
495.358000 5.000000
503.289000 10.000000
567.279000 30.000000
567.301000 30.000000
707.462000 16.000000
795.522000 20.000000
837.468000 15.000000
851.570000 30.000000
858.520000 36.000000
869.495000 285.000000
869.521000 375.000000
869.552000 75.000000
869.592000 35.000000

>ms2peaks
100.933000 15.000000
223.000000 10.000000
241.012000 40.000000
255.233000 10.000000
256.236000 16.000000
257.225000 10.000000
269.251000 45.000000
301.212000 45.000000
303.231000 10.000000
405.241000 30.000000
481.341000 10.000000
494.349000 30.000000
495.358000 5.000000
503.289000 10.000000
567.279000 30.000000
567.301000 30.000000
707.462000 16.000000
795.522000 20.000000
837.468000 15.000000
851.570000 30.000000
858.520000 36.000000
869.495000 285.000000
869.521000 375.000000
869.552000 75.000000
869.592000 35.000000

