>compound LQB0193514
>parentmass 881.5164
>ionization [M-H]-
>formula C47H79O13P
>rt 486.498240
>profile qtof
#smiles_iso CCCCC/C=C\C/C=C\CCCCCCCC(=O)OCC(COP(=O)(O)OC1C(C(C(C(C1O)O)O)O)O)OC(=O)CCCCCC/C=C\C/C=C\C/C=C\C/C=C\CC
#smiles_can CCCCCC=CCC=CCCCCCCCC(=O)OCC(COP(=O)(O)OC1C(C(C(C(C1O)O)O)O)O)OC(=O)CCCCCCC=CCC=CCC=CCC=CCC
#inchikey IDBHHLONPONREV-DMQHYRIXSA-N
#pubchem_id 138175443
#mb_accession LQB00321,LQB00707

>ms2peaks
78.956000 21.000000
96.972000 10.000000
153.000000 45.000000
222.998000 65.000000
241.013000 214.000000
253.217000 10.000000
255.233000 40.000000
259.025000 50.000000
259.247000 30.000000
279.230000 362.000000
297.037000 50.000000
303.212000 55.000000
303.234000 274.000000
309.280000 20.000000
310.289000 23.000000
329.248000 46.000000
330.245000 40.000000
415.187000 15.000000
415.225000 130.000000
433.240000 25.000000
439.223000 20.000000
465.241000 45.000000
466.250000 38.000000
481.306000 10.000000
483.249000 25.000000
484.263000 15.000000
507.321000 10.000000
577.255000 80.000000
577.278000 110.000000
595.271000 35.000000
601.271000 50.000000
601.291000 40.000000
629.034000 10.000000
642.516000 16.000000
643.486000 10.000000
719.453000 11.000000
794.449000 30.000000
794.504000 60.000000
806.557000 31.000000
807.484000 20.000000
807.527000 25.000000
807.539000 35.000000
807.556000 46.000000
821.593000 15.000000
878.695000 10.000000
881.516000 3696.000000
881.579000 67.000000
882.519000 25.000000

>ms2peaks
78.956000 21.000000
96.972000 10.000000
153.000000 45.000000
222.998000 65.000000
241.013000 214.000000
253.217000 10.000000
255.233000 40.000000
259.025000 50.000000
259.247000 30.000000
279.230000 362.000000
297.037000 50.000000
303.212000 55.000000
303.234000 274.000000
309.280000 20.000000
310.289000 23.000000
329.248000 46.000000
330.245000 40.000000
415.187000 15.000000
415.225000 130.000000
433.240000 25.000000
439.223000 20.000000
465.241000 45.000000
466.250000 38.000000
481.306000 10.000000
483.249000 25.000000
484.263000 15.000000
507.321000 10.000000
577.255000 80.000000
577.278000 110.000000
595.271000 35.000000
601.271000 50.000000
601.291000 40.000000
629.034000 10.000000
642.516000 16.000000
643.486000 10.000000
719.453000 11.000000
794.449000 30.000000
794.504000 60.000000
806.557000 31.000000
807.484000 20.000000
807.527000 25.000000
807.539000 35.000000
807.556000 46.000000
821.593000 15.000000
878.695000 10.000000
881.516000 3696.000000
881.579000 67.000000
882.519000 25.000000

