>compound LQB0139323
>parentmass 814.5613
>ionization [M+CH3COOH-H]-
>formula C42H78NO8P
>rt 534.775380
>profile qtof
#smiles_iso CCCCCCCCCCCCCCCC(=O)OCC(COP(=O)([O-])OCC[N+](C)(C)C)OC(=O)CCCCCCC/C=C\C/C=C\C/C=C\CC
#smiles_can CCCCCCCCCCCCCCCC(=O)OCC(COP(=O)([O-])OCC[N+](C)(C)C)OC(=O)CCCCCCCC=CCC=CCC=CCC
#inchikey JMAYDGBZRHQJAT-XSMZTDTHSA-N
#pubchem_id 10771393
#mb_accession LQB00107,LQB00493

>ms2peaks
168.042000 141.000000
224.068000 254.000000
227.200000 156.000000
242.084000 40.000000
251.200000 100.000000
253.220000 500.000000
254.438000 97.000000
255.232000 13362.000000
259.211000 41.000000
276.346000 42.000000
277.217000 4792.000000
279.231000 1094.000000
281.247000 70.000000
301.216000 20.000000
305.245000 530.000000
305.271000 30.000000
327.240000 20.000000
406.263000 20.000000
412.296000 20.000000
413.207000 40.000000
419.211000 20.000000
434.270000 20.000000
452.268000 30.000000
462.251000 20.000000
462.295000 110.000000
478.299000 60.000000
480.311000 192.000000
484.272000 102.000000
484.299000 60.000000
502.256000 40.000000
502.287000 674.000000
502.311000 235.000000
504.307000 20.000000
695.467000 20.000000
727.505000 20.000000
736.570000 20.000000
737.871000 21.000000
738.181000 94.000000
740.434000 50.000000
740.521000 12856.000000
740.666000 20.000000
755.461000 111.000000
755.489000 92.000000
764.477000 40.000000
814.499000 90.000000
814.540000 531.000000
814.560000 469.000000
814.589000 277.000000

>ms2peaks
168.042000 141.000000
224.068000 254.000000
227.200000 156.000000
242.084000 40.000000
251.200000 100.000000
253.220000 500.000000
254.438000 97.000000
255.232000 13362.000000
259.211000 41.000000
276.346000 42.000000
277.217000 4792.000000
279.231000 1094.000000
281.247000 70.000000
301.216000 20.000000
305.245000 530.000000
305.271000 30.000000
327.240000 20.000000
406.263000 20.000000
412.296000 20.000000
413.207000 40.000000
419.211000 20.000000
434.270000 20.000000
452.268000 30.000000
462.251000 20.000000
462.295000 110.000000
478.299000 60.000000
480.311000 192.000000
484.272000 102.000000
484.299000 60.000000
502.256000 40.000000
502.287000 674.000000
502.311000 235.000000
504.307000 20.000000
695.467000 20.000000
727.505000 20.000000
736.570000 20.000000
737.871000 21.000000
738.181000 94.000000
740.434000 50.000000
740.521000 12856.000000
740.666000 20.000000
755.461000 111.000000
755.489000 92.000000
764.477000 40.000000
814.499000 90.000000
814.540000 531.000000
814.560000 469.000000
814.589000 277.000000

