>compound LQB0510209
>parentmass 843.518
>ionization [M-H]-
>formula C48H77O10P
>rt 483.085440
>profile qtof
#smiles_iso CC/C=C\C/C=C\C/C=C\C/C=C\CCCCCCC(=O)OCC(COP(=O)(O)OCC(CO)O)OC(=O)CCCCC/C=C\C/C=C\C/C=C\C/C=C\C/C=C\CC
#smiles_can CCC=CCC=CCC=CCC=CCCCCCCC(=O)OCC(COP(=O)(O)OCC(CO)O)OC(=O)CCCCCC=CCC=CCC=CCC=CCC=CCC
#inchikey NPEYXZJWGARJPB-MYTICKLQSA-N
#pubchem_id 138221210
#mb_accession LQB00280,LQB00281,LQB00666,LQB00667

>ms2
133.103000 15.000000
152.994000 30.000000
205.196000 31.000000
231.210000 75.000000
255.236000 16.000000
259.240000 126.000000
283.263000 65.000000
285.256000 376.000000
302.278000 25.000000
303.230000 2270.000000
303.260000 25.000000
305.248000 70.000000
311.243000 21.000000
327.233000 75.000000
329.171000 35.000000
329.245000 1391.000000
330.182000 23.000000
343.227000 21.000000
360.218000 25.000000
433.308000 26.000000
464.313000 40.000000
465.321000 30.000000
466.334000 30.000000
494.363000 35.000000
495.357000 41.000000
513.261000 45.000000
531.266000 60.000000
539.278000 25.000000
557.286000 45.000000
673.414000 10.000000
684.510000 15.000000
702.541000 20.000000
705.477000 15.000000
783.536000 25.000000
807.548000 45.000000
809.587000 20.000000
825.522000 65.000000
825.550000 45.000000
825.609000 20.000000
840.874000 26.000000
843.512000 3806.000000
843.641000 38.000000

>ms2
152.994000 90.000000
205.198000 63.000000
217.158000 70.000000
218.157000 40.000000
231.212000 110.000000
241.009000 50.000000
241.225000 40.000000
259.247000 101.000000
267.271000 43.000000
268.274000 43.000000
283.263000 90.000000
284.264000 105.000000
285.250000 246.000000
285.265000 214.000000
303.232000 2663.000000
317.215000 60.000000
318.217000 50.000000
329.247000 1867.000000
343.227000 50.000000
359.218000 46.000000
360.224000 90.000000
377.215000 65.000000
403.269000 40.000000
404.261000 33.000000
439.218000 68.000000
446.301000 70.000000
447.297000 53.000000
464.316000 103.000000
465.236000 60.000000
465.308000 63.000000
513.256000 60.000000
531.268000 50.000000
539.278000 63.000000
557.291000 73.000000
643.495000 20.000000
666.509000 23.000000
684.518000 60.000000
717.472000 20.000000
738.494000 30.000000
756.474000 40.000000
769.489000 20.000000
769.569000 60.000000
783.545000 30.000000
807.536000 60.000000
809.549000 50.000000
811.487000 33.000000
825.498000 71.000000
825.575000 61.000000
843.447000 208.000000
843.508000 3116.000000
843.536000 2064.000000
843.565000 258.000000
843.573000 127.000000
843.618000 66.000000
844.521000 50.000000

>ms2
133.103000 15.000000
152.994000 30.000000
205.196000 31.000000
231.210000 75.000000
255.236000 16.000000
259.240000 126.000000
283.263000 65.000000
285.256000 376.000000
302.278000 25.000000
303.230000 2270.000000
303.260000 25.000000
305.248000 70.000000
311.243000 21.000000
327.233000 75.000000
329.171000 35.000000
329.245000 1391.000000
330.182000 23.000000
343.227000 21.000000
360.218000 25.000000
433.308000 26.000000
464.313000 40.000000
465.321000 30.000000
466.334000 30.000000
494.363000 35.000000
495.357000 41.000000
513.261000 45.000000
531.266000 60.000000
539.278000 25.000000
557.286000 45.000000
673.414000 10.000000
684.510000 15.000000
702.541000 20.000000
705.477000 15.000000
783.536000 25.000000
807.548000 45.000000
809.587000 20.000000
825.522000 65.000000
825.550000 45.000000
825.609000 20.000000
840.874000 26.000000
843.512000 3806.000000
843.641000 38.000000

>ms2
152.994000 90.000000
205.198000 63.000000
217.158000 70.000000
218.157000 40.000000
231.212000 110.000000
241.009000 50.000000
241.225000 40.000000
259.247000 101.000000
267.271000 43.000000
268.274000 43.000000
283.263000 90.000000
284.264000 105.000000
285.250000 246.000000
285.265000 214.000000
303.232000 2663.000000
317.215000 60.000000
318.217000 50.000000
329.247000 1867.000000
343.227000 50.000000
359.218000 46.000000
360.224000 90.000000
377.215000 65.000000
403.269000 40.000000
404.261000 33.000000
439.218000 68.000000
446.301000 70.000000
447.297000 53.000000
464.316000 103.000000
465.236000 60.000000
465.308000 63.000000
513.256000 60.000000
531.268000 50.000000
539.278000 63.000000
557.291000 73.000000
643.495000 20.000000
666.509000 23.000000
684.518000 60.000000
717.472000 20.000000
738.494000 30.000000
756.474000 40.000000
769.489000 20.000000
769.569000 60.000000
783.545000 30.000000
807.536000 60.000000
809.549000 50.000000
811.487000 33.000000
825.498000 71.000000
825.575000 61.000000
843.447000 208.000000
843.508000 3116.000000
843.536000 2064.000000
843.565000 258.000000
843.573000 127.000000
843.618000 66.000000
844.521000 50.000000

