>compound LQB0475244
>parentmass 838.5594
>ionization [M+CH3COOH-H]-
>formula C44H78NO8P
>rt 534.989400
>profile qtof
#smiles_iso CCCCCCCCCCCCCCCC(=O)OCC(COP(=O)([O-])OCC[N+](C)(C)C)OC(=O)CCC/C=C\C/C=C\C/C=C\C/C=C\C/C=C\CC
#smiles_can CCCCCCCCCCCCCCCC(=O)OCC(COP(=O)([O-])OCC[N+](C)(C)C)OC(=O)CCCC=CCC=CCC=CCC=CCC=CCC
#inchikey KLTHQSWIRFFBRI-KOQZQRJKSA-N
#pubchem_id 24778724
#mb_accession LQB00110,LQB00496

>ms2
78.958000 163.000000
107.085000 45.000000
117.071000 40.000000
121.102000 35.000000
137.132000 40.000000
151.148000 95.000000
152.992000 35.000000
163.149000 70.000000
165.164000 50.000000
168.042000 1346.000000
177.092000 95.000000
177.164000 100.000000
181.125000 45.000000
191.105000 50.000000
195.139000 35.000000
202.541000 36.000000
203.180000 1381.000000
206.059000 65.000000
215.180000 71.000000
217.125000 75.000000
223.170000 341.000000
224.069000 1769.000000
229.195000 150.000000
231.141000 55.000000
237.216000 35.000000
242.077000 116.000000
245.156000 75.000000
254.439000 141.000000
255.232000 32721.000000
256.235000 36.000000
256.424000 48.000000
257.227000 9570.000000
271.205000 85.000000
281.192000 25.000000
283.208000 352.000000
283.263000 30.000000
284.269000 20.000000
285.187000 25.000000
299.201000 61.000000
300.277000 310.000000
300.298000 28.000000
301.124000 22.000000
301.217000 63630.000000
302.221000 96.000000
391.226000 219.000000
406.275000 80.000000
409.235000 63.000000
437.210000 20.000000
452.252000 65.000000
462.296000 1407.000000
478.228000 18.000000
478.806000 36.000000
480.307000 8622.000000
480.690000 15.000000
495.269000 41.000000
508.283000 766.000000
517.327000 35.000000
526.288000 628.000000
693.439000 131.000000
693.468000 50.000000
719.456000 80.000000
719.489000 35.000000
762.064000 45.000000
762.095000 153.000000
762.116000 50.000000
762.142000 76.000000
762.159000 45.000000
764.520000 57945.000000
764.703000 27.000000
765.083000 45.000000
765.489000 45.000000
765.521000 203.000000
778.538000 25.000000
779.460000 168.000000
779.485000 744.000000
779.537000 35.000000
835.913000 40.000000
838.557000 6256.000000
841.869000 20.000000

>ms2
78.958000 163.000000
107.085000 45.000000
117.071000 40.000000
121.102000 35.000000
137.132000 40.000000
151.148000 95.000000
152.992000 35.000000
163.149000 70.000000
165.164000 50.000000
168.042000 1346.000000
177.092000 95.000000
177.164000 100.000000
181.125000 45.000000
191.105000 50.000000
195.139000 35.000000
202.541000 36.000000
203.180000 1381.000000
206.059000 65.000000
215.180000 71.000000
217.125000 75.000000
223.170000 341.000000
224.069000 1769.000000
229.195000 150.000000
231.141000 55.000000
237.216000 35.000000
242.077000 116.000000
245.156000 75.000000
254.439000 141.000000
255.232000 32721.000000
256.235000 36.000000
256.424000 48.000000
257.227000 9570.000000
271.205000 85.000000
281.192000 25.000000
283.208000 352.000000
283.263000 30.000000
284.269000 20.000000
285.187000 25.000000
299.201000 61.000000
300.277000 310.000000
300.298000 28.000000
301.124000 22.000000
301.217000 63630.000000
302.221000 96.000000
391.226000 219.000000
406.275000 80.000000
409.235000 63.000000
437.210000 20.000000
452.252000 65.000000
462.296000 1407.000000
478.228000 18.000000
478.806000 36.000000
480.307000 8622.000000
480.690000 15.000000
495.269000 41.000000
508.283000 766.000000
517.327000 35.000000
526.288000 628.000000
693.439000 131.000000
693.468000 50.000000
719.456000 80.000000
719.489000 35.000000
762.064000 45.000000
762.095000 153.000000
762.116000 50.000000
762.142000 76.000000
762.159000 45.000000
764.520000 57945.000000
764.703000 27.000000
765.083000 45.000000
765.489000 45.000000
765.521000 203.000000
778.538000 25.000000
779.460000 168.000000
779.485000 744.000000
779.537000 35.000000
835.913000 40.000000
838.557000 6256.000000
841.869000 20.000000

