>compound LQB0070364
>parentmass 764.52255
>ionization [M-H]-
>formula C43H76NO8P
>rt 571.172970
>profile qtof
#smiles_iso CCCCCCCC/C=C\CCCCCCCC(=O)OCC(COP(=O)(O)OCCN)OC(=O)CCCCCC/C=C\C/C=C\C/C=C\C/C=C\CC
#smiles_can CCCCCCCCC=CCCCCCCCC(=O)OCC(COP(=O)(O)OCCN)OC(=O)CCCCCCC=CCC=CCC=CCC=CCC
#inchikey ZYMZKMQPPJPQHY-HAGCXRLMSA-N
#pubchem_id 138318539
#mb_accession LQB00212,LQB00213,LQB00598,LQB00599

>ms2
78.958000 580.000000
83.048000 91.000000
96.970000 112.000000
122.004000 102.000000
140.011000 2080.000000
152.994000 101.000000
163.074000 80.000000
169.125000 63.000000
177.091000 183.000000
177.158000 100.000000
178.028000 121.000000
179.180000 70.000000
191.107000 194.000000
191.179000 68.000000
196.037000 3099.000000
205.124000 82.000000
205.194000 2111.000000
214.045000 204.000000
214.055000 122.000000
217.118000 60.000000
217.186000 120.000000
217.203000 60.000000
225.180000 100.000000
231.211000 358.000000
255.232000 1123.000000
257.225000 90.000000
259.171000 84.000000
259.241000 8141.000000
267.210000 61.000000
279.225000 50.000000
280.347000 63.000000
280.367000 265.000000
281.059000 50.000000
281.139000 81.000000
281.183000 86.000000
281.247000 61405.000000
283.206000 50.000000
285.221000 673.000000
285.253000 214.000000
301.203000 70.000000
301.223000 163.000000
302.283000 368.000000
303.079000 62.000000
303.167000 81.000000
303.231000 127751.000000
304.233000 96.000000
329.233000 845.000000
329.245000 1753.000000
404.254000 142.000000
417.235000 113.000000
426.241000 91.000000
434.259000 70.000000
452.261000 157.000000
452.293000 123.000000
460.258000 549.000000
460.277000 1731.000000
476.820000 45.000000
478.291000 12513.000000
478.343000 67.000000
482.240000 176.000000
482.261000 654.000000
482.278000 214.000000
482.291000 102.000000
500.239000 30.000000
500.268000 480.000000
500.292000 235.000000
526.292000 63.000000
609.504000 50.000000
762.069000 113.000000
762.110000 235.000000
764.279000 30.000000
764.516000 33735.000000
765.489000 65.000000
765.525000 85.000000
765.556000 50.000000

>ms2
78.957000 256.000000
83.047000 60.000000
122.001000 131.000000
140.011000 1041.000000
196.037000 1367.000000
197.065000 53.000000
205.125000 90.000000
205.195000 276.000000
205.207000 82.000000
214.044000 102.000000
231.205000 275.000000
231.219000 235.000000
251.202000 244.000000
254.443000 186.000000
255.197000 89.000000
255.232000 17837.000000
256.237000 75.000000
257.222000 67.000000
259.242000 1213.000000
280.363000 84.000000
281.248000 9166.000000
283.259000 61.000000
285.217000 132.000000
285.256000 2655.000000
301.218000 132.000000
302.289000 106.000000
303.231000 16621.000000
311.228000 124.000000
311.246000 81.000000
327.226000 95.000000
328.212000 91.000000
328.232000 151.000000
329.247000 38243.000000
329.292000 133.000000
434.255000 419.000000
434.271000 347.000000
434.292000 60.000000
452.275000 2869.000000
452.293000 517.000000
460.260000 111.000000
460.277000 214.000000
460.299000 121.000000
478.271000 359.000000
478.292000 1314.000000
482.263000 142.000000
485.460000 20.000000
500.280000 131.000000
508.271000 233.000000
508.292000 163.000000
526.283000 264.000000
526.306000 91.000000
542.086000 20.000000
628.549000 20.000000
762.123000 81.000000
762.186000 30.000000
763.536000 41.000000
763.667000 24.000000
764.519000 28259.000000
765.492000 44.000000
765.533000 84.000000

>ms2
78.958000 580.000000
83.048000 91.000000
96.970000 112.000000
122.004000 102.000000
140.011000 2080.000000
152.994000 101.000000
163.074000 80.000000
169.125000 63.000000
177.091000 183.000000
177.158000 100.000000
178.028000 121.000000
179.180000 70.000000
191.107000 194.000000
191.179000 68.000000
196.037000 3099.000000
205.124000 82.000000
205.194000 2111.000000
214.045000 204.000000
214.055000 122.000000
217.118000 60.000000
217.186000 120.000000
217.203000 60.000000
225.180000 100.000000
231.211000 358.000000
255.232000 1123.000000
257.225000 90.000000
259.171000 84.000000
259.241000 8141.000000
267.210000 61.000000
279.225000 50.000000
280.347000 63.000000
280.367000 265.000000
281.059000 50.000000
281.139000 81.000000
281.183000 86.000000
281.247000 61405.000000
283.206000 50.000000
285.221000 673.000000
285.253000 214.000000
301.203000 70.000000
301.223000 163.000000
302.283000 368.000000
303.079000 62.000000
303.167000 81.000000
303.231000 127751.000000
304.233000 96.000000
329.233000 845.000000
329.245000 1753.000000
404.254000 142.000000
417.235000 113.000000
426.241000 91.000000
434.259000 70.000000
452.261000 157.000000
452.293000 123.000000
460.258000 549.000000
460.277000 1731.000000
476.820000 45.000000
478.291000 12513.000000
478.343000 67.000000
482.240000 176.000000
482.261000 654.000000
482.278000 214.000000
482.291000 102.000000
500.239000 30.000000
500.268000 480.000000
500.292000 235.000000
526.292000 63.000000
609.504000 50.000000
762.069000 113.000000
762.110000 235.000000
764.279000 30.000000
764.516000 33735.000000
765.489000 65.000000
765.525000 85.000000
765.556000 50.000000

>ms2
78.957000 256.000000
83.047000 60.000000
122.001000 131.000000
140.011000 1041.000000
196.037000 1367.000000
197.065000 53.000000
205.125000 90.000000
205.195000 276.000000
205.207000 82.000000
214.044000 102.000000
231.205000 275.000000
231.219000 235.000000
251.202000 244.000000
254.443000 186.000000
255.197000 89.000000
255.232000 17837.000000
256.237000 75.000000
257.222000 67.000000
259.242000 1213.000000
280.363000 84.000000
281.248000 9166.000000
283.259000 61.000000
285.217000 132.000000
285.256000 2655.000000
301.218000 132.000000
302.289000 106.000000
303.231000 16621.000000
311.228000 124.000000
311.246000 81.000000
327.226000 95.000000
328.212000 91.000000
328.232000 151.000000
329.247000 38243.000000
329.292000 133.000000
434.255000 419.000000
434.271000 347.000000
434.292000 60.000000
452.275000 2869.000000
452.293000 517.000000
460.260000 111.000000
460.277000 214.000000
460.299000 121.000000
478.271000 359.000000
478.292000 1314.000000
482.263000 142.000000
485.460000 20.000000
500.280000 131.000000
508.271000 233.000000
508.292000 163.000000
526.283000 264.000000
526.306000 91.000000
542.086000 20.000000
628.549000 20.000000
762.123000 81.000000
762.186000 30.000000
763.536000 41.000000
763.667000 24.000000
764.519000 28259.000000
765.492000 44.000000
765.533000 84.000000

