>compound LQB0707715
>parentmass 861.5504
>ionization [M-H]-
>formula C45H83O13P
>rt 526.386840
>profile qtof
#smiles_iso CCCCCCCCCCCCCCCCCC(=O)OCC(COP(=O)(O)OC1C(C(C(C(C1O)O)O)O)O)OC(=O)CCCCCCC/C=C\C/C=C\CCCCC
#smiles_can CCCCCCCCCCCCCCCCCC(=O)OCC(COP(=O)(O)OC1C(C(C(C(C1O)O)O)O)O)OC(=O)CCCCCCCC=CCC=CCCCCC
#inchikey KZVRAFHIKMDULK-MLWYYCKJSA-N
#pubchem_id 138199526
#mb_accession LQB00306,LQB00692

>ms2peaks
78.958000 500.000000
96.968000 163.000000
134.988000 40.000000
150.979000 31.000000
152.994000 1185.000000
223.000000 1510.000000
238.983000 31.000000
240.256000 51.000000
241.011000 7348.000000
253.219000 100.000000
255.234000 41.000000
259.020000 725.000000
278.357000 72.000000
279.132000 43.000000
279.198000 43.000000
279.232000 10391.000000
281.250000 185.000000
282.368000 42.000000
283.264000 11898.000000
284.258000 83.000000
297.037000 1417.000000
307.264000 84.000000
315.047000 562.000000
415.221000 839.000000
417.232000 43.000000
417.940000 62.000000
419.257000 5285.000000
420.260000 66.000000
433.223000 43.000000
437.269000 417.000000
504.568000 40.000000
525.265000 60.000000
553.284000 53.000000
559.456000 71.000000
577.226000 40.000000
577.258000 500.000000
577.281000 908.000000
579.322000 47.000000
579.457000 43.000000
581.280000 1322.000000
581.311000 5657.000000
581.365000 121.000000
595.291000 141.000000
595.324000 80.000000
599.288000 266.000000
599.326000 836.000000
599.367000 60.000000
699.448000 60.000000
699.498000 581.000000
700.518000 70.000000
701.482000 111.000000
701.530000 111.000000
741.499000 43.000000
769.482000 90.000000
769.530000 53.000000
774.522000 50.000000
811.497000 142.000000
829.513000 377.000000
858.787000 91.000000
858.820000 254.000000
858.862000 71.000000
860.635000 43.000000
861.336000 115.000000
861.547000 92120.000000
861.994000 80.000000
862.104000 48.000000
862.547000 572.000000
862.576000 112.000000

>ms2peaks
78.958000 500.000000
96.968000 163.000000
134.988000 40.000000
150.979000 31.000000
152.994000 1185.000000
223.000000 1510.000000
238.983000 31.000000
240.256000 51.000000
241.011000 7348.000000
253.219000 100.000000
255.234000 41.000000
259.020000 725.000000
278.357000 72.000000
279.132000 43.000000
279.198000 43.000000
279.232000 10391.000000
281.250000 185.000000
282.368000 42.000000
283.264000 11898.000000
284.258000 83.000000
297.037000 1417.000000
307.264000 84.000000
315.047000 562.000000
415.221000 839.000000
417.232000 43.000000
417.940000 62.000000
419.257000 5285.000000
420.260000 66.000000
433.223000 43.000000
437.269000 417.000000
504.568000 40.000000
525.265000 60.000000
553.284000 53.000000
559.456000 71.000000
577.226000 40.000000
577.258000 500.000000
577.281000 908.000000
579.322000 47.000000
579.457000 43.000000
581.280000 1322.000000
581.311000 5657.000000
581.365000 121.000000
595.291000 141.000000
595.324000 80.000000
599.288000 266.000000
599.326000 836.000000
599.367000 60.000000
699.448000 60.000000
699.498000 581.000000
700.518000 70.000000
701.482000 111.000000
701.530000 111.000000
741.499000 43.000000
769.482000 90.000000
769.530000 53.000000
774.522000 50.000000
811.497000 142.000000
829.513000 377.000000
858.787000 91.000000
858.820000 254.000000
858.862000 71.000000
860.635000 43.000000
861.336000 115.000000
861.547000 92120.000000
861.994000 80.000000
862.104000 48.000000
862.547000 572.000000
862.576000 112.000000

