>compound LQB1376144
>parentmass 736.6776
>ionization [M+CH3COOH-H]-
>formula C44H87NO3
>rt 811.843800
>profile qtof
#smiles_iso CCCCCCCCCCCCCCCCCCCCCCCC(=O)NC(CO)C(/C=C/CCCCCCCCCCCCCCC)O
#smiles_can CCCCCCCCCCCCCCCCCCCCCCCC(=O)NC(CO)C(C=CCCCCCCCCCCCCCCC)O
#inchikey FRWWCDHJRWYDOU-NHFVQZBWSA-N
#pubchem_id 138155163
#mb_accession LQB00067,LQB00453

>ms2peaks
235.207000 40.000000
237.208000 61.000000
237.225000 326.000000
255.234000 101.000000
263.233000 347.000000
263.245000 204.000000
265.241000 468.000000
265.257000 816.000000
268.265000 110.000000
278.284000 53.000000
279.235000 295.000000
281.237000 80.000000
281.250000 101.000000
291.265000 643.000000
293.300000 55.000000
294.276000 225.000000
296.283000 110.000000
296.306000 81.000000
305.247000 71.000000
326.305000 72.000000
349.345000 1479.000000
364.366000 73.000000
365.376000 141.000000
366.369000 1214.000000
367.353000 428.000000
377.349000 112.000000
377.375000 521.000000
377.390000 215.000000
380.371000 64.000000
392.388000 5575.000000
393.406000 81.000000
394.386000 256.000000
394.406000 337.000000
395.362000 91.000000
395.387000 325.000000
406.401000 80.000000
408.360000 122.000000
408.382000 612.000000
408.407000 81.000000
415.221000 102.000000
420.418000 3753.000000
436.385000 64.000000
436.414000 337.000000
628.597000 71.000000
628.607000 112.000000
628.641000 887.000000
640.631000 45.000000
644.609000 479.000000
644.635000 960.000000
644.671000 81.000000
646.630000 2119.000000
646.667000 505.000000
646.708000 81.000000
658.627000 81.000000
658.674000 33.000000
674.513000 82.000000
676.657000 24240.000000
677.646000 54.000000
736.642000 30.000000
736.694000 40.000000
736.981000 60.000000

>ms2peaks
235.207000 40.000000
237.208000 61.000000
237.225000 326.000000
255.234000 101.000000
263.233000 347.000000
263.245000 204.000000
265.241000 468.000000
265.257000 816.000000
268.265000 110.000000
278.284000 53.000000
279.235000 295.000000
281.237000 80.000000
281.250000 101.000000
291.265000 643.000000
293.300000 55.000000
294.276000 225.000000
296.283000 110.000000
296.306000 81.000000
305.247000 71.000000
326.305000 72.000000
349.345000 1479.000000
364.366000 73.000000
365.376000 141.000000
366.369000 1214.000000
367.353000 428.000000
377.349000 112.000000
377.375000 521.000000
377.390000 215.000000
380.371000 64.000000
392.388000 5575.000000
393.406000 81.000000
394.386000 256.000000
394.406000 337.000000
395.362000 91.000000
395.387000 325.000000
406.401000 80.000000
408.360000 122.000000
408.382000 612.000000
408.407000 81.000000
415.221000 102.000000
420.418000 3753.000000
436.385000 64.000000
436.414000 337.000000
628.597000 71.000000
628.607000 112.000000
628.641000 887.000000
640.631000 45.000000
644.609000 479.000000
644.635000 960.000000
644.671000 81.000000
646.630000 2119.000000
646.667000 505.000000
646.708000 81.000000
658.627000 81.000000
658.674000 33.000000
674.513000 82.000000
676.657000 24240.000000
677.646000 54.000000
736.642000 30.000000
736.694000 40.000000
736.981000 60.000000

