>compound LQB1764663
>parentmass 772.5845
>ionization [M-H]-
>formula C43H84NO8P
>rt 750.999000
>profile qtof
#smiles_iso CCCCCCCCCCCCCCCCCC(=O)OCC(COP(=O)(O)OCCN)OC(=O)CCCCCCCCC/C=C\CCCCCCCC
#smiles_can CCCCCCCCCCCCCCCCCC(=O)OCC(COP(=O)(O)OCCN)OC(=O)CCCCCCCCCC=CCCCCCCCC
#inchikey DBYSGBYABPVNGO-ZPHPHTNESA-N
#pubchem_id 9546842
#mb_accession LQB00197,LQB00583

>ms2
140.011000 90.000000
182.225000 20.000000
196.037000 60.000000
255.232000 30.000000
281.250000 223.000000
283.250000 265.000000
283.264000 1010.000000
308.316000 71.000000
309.111000 21.000000
309.278000 3561.000000
309.304000 115.000000
311.290000 285.000000
337.303000 33.000000
447.869000 20.000000
462.299000 73.000000
480.292000 51.000000
480.318000 132.000000
488.308000 20.000000
506.325000 20.000000
508.333000 20.000000
772.534000 112.000000
772.581000 2047.000000

>ms2
140.011000 90.000000
182.225000 20.000000
196.037000 60.000000
255.232000 30.000000
281.250000 223.000000
283.250000 265.000000
283.264000 1010.000000
308.316000 71.000000
309.111000 21.000000
309.278000 3561.000000
309.304000 115.000000
311.290000 285.000000
337.303000 33.000000
447.869000 20.000000
462.299000 73.000000
480.292000 51.000000
480.318000 132.000000
488.308000 20.000000
506.325000 20.000000
508.333000 20.000000
772.534000 112.000000
772.581000 2047.000000

