>compound LQB1829839
>parentmass 871.5291
>ionization [M-H]-
>formula C46H81O13P
>rt 509.632260
>profile qtof
#smiles_iso CCCCCCCCCCCCCCCCC(=O)OCC(COP(=O)(O)OC1C(C(C(C(C1O)O)O)O)O)OC(=O)CCCCCC/C=C\C/C=C\C/C=C\C/C=C\CC
#smiles_can CCCCCCCCCCCCCCCCC(=O)OCC(COP(=O)(O)OC1C(C(C(C(C1O)O)O)O)O)OC(=O)CCCCCCC=CCC=CCC=CCC=CCC
#inchikey NHCUHDJVBAQLLF-UMWXEKTDSA-N
#pubchem_id 138218607
#mb_accession LQB00302,LQB00303,LQB00688,LQB00689

>ms2peaks
96.970000 10.000000
141.016000 15.000000
152.994000 75.000000
205.202000 20.000000
222.999000 168.000000
223.021000 35.000000
241.010000 653.000000
243.022000 15.000000
259.023000 85.000000
259.243000 70.000000
268.417000 16.000000
269.248000 1133.000000
283.267000 30.000000
297.022000 35.000000
297.039000 152.000000
303.231000 1140.000000
304.233000 55.000000
305.241000 26.000000
315.046000 65.000000
377.242000 85.000000
405.233000 337.000000
405.253000 230.000000
423.253000 70.000000
439.226000 55.000000
453.294000 15.000000
462.294000 15.000000
489.728000 10.000000
511.251000 10.000000
566.312000 15.000000
567.258000 56.000000
567.285000 551.000000
567.312000 76.000000
585.284000 140.000000
585.314000 60.000000
585.342000 13.000000
601.250000 45.000000
601.272000 75.000000
681.468000 36.000000
709.476000 31.000000
784.468000 16.000000
789.516000 65.000000
793.488000 31.000000
797.528000 30.000000
797.631000 33.000000
825.511000 35.000000
839.461000 30.000000
839.536000 16.000000
853.504000 21.000000
868.734000 20.000000
868.775000 40.000000
870.573000 21.000000
871.516000 10432.000000
871.556000 1356.000000
872.526000 50.000000

>ms2peaks
78.958000 22.000000
152.993000 66.000000
153.008000 13.000000
205.192000 10.000000
223.002000 78.000000
241.012000 374.000000
255.231000 17.000000
256.232000 7.000000
259.021000 28.000000
259.239000 54.000000
269.247000 594.000000
283.269000 9.000000
295.230000 19.000000
297.030000 40.000000
297.048000 37.000000
303.232000 537.000000
315.046000 26.000000
405.233000 233.000000
405.254000 71.000000
423.257000 21.000000
439.213000 25.000000
439.257000 15.000000
505.177000 6.000000
565.319000 9.000000
567.255000 34.000000
567.276000 144.000000
567.296000 214.000000
581.308000 10.000000
585.284000 43.000000
585.314000 61.000000
599.402000 6.000000
601.262000 58.000000
619.280000 6.000000
709.452000 23.000000
711.496000 12.000000
779.507000 13.000000
797.528000 22.000000
839.513000 22.000000
853.556000 10.000000
853.623000 10.000000
868.772000 23.000000
868.812000 16.000000
871.417000 15.000000
871.469000 272.000000
871.533000 5358.000000
872.506000 28.000000
872.582000 18.000000

>ms2peaks
96.970000 10.000000
141.016000 15.000000
152.994000 75.000000
205.202000 20.000000
222.999000 168.000000
223.021000 35.000000
241.010000 653.000000
243.022000 15.000000
259.023000 85.000000
259.243000 70.000000
268.417000 16.000000
269.248000 1133.000000
283.267000 30.000000
297.022000 35.000000
297.039000 152.000000
303.231000 1140.000000
304.233000 55.000000
305.241000 26.000000
315.046000 65.000000
377.242000 85.000000
405.233000 337.000000
405.253000 230.000000
423.253000 70.000000
439.226000 55.000000
453.294000 15.000000
462.294000 15.000000
489.728000 10.000000
511.251000 10.000000
566.312000 15.000000
567.258000 56.000000
567.285000 551.000000
567.312000 76.000000
585.284000 140.000000
585.314000 60.000000
585.342000 13.000000
601.250000 45.000000
601.272000 75.000000
681.468000 36.000000
709.476000 31.000000
784.468000 16.000000
789.516000 65.000000
793.488000 31.000000
797.528000 30.000000
797.631000 33.000000
825.511000 35.000000
839.461000 30.000000
839.536000 16.000000
853.504000 21.000000
868.734000 20.000000
868.775000 40.000000
870.573000 21.000000
871.516000 10432.000000
871.556000 1356.000000
872.526000 50.000000

>ms2peaks
78.958000 22.000000
152.993000 66.000000
153.008000 13.000000
205.192000 10.000000
223.002000 78.000000
241.012000 374.000000
255.231000 17.000000
256.232000 7.000000
259.021000 28.000000
259.239000 54.000000
269.247000 594.000000
283.269000 9.000000
295.230000 19.000000
297.030000 40.000000
297.048000 37.000000
303.232000 537.000000
315.046000 26.000000
405.233000 233.000000
405.254000 71.000000
423.257000 21.000000
439.213000 25.000000
439.257000 15.000000
505.177000 6.000000
565.319000 9.000000
567.255000 34.000000
567.276000 144.000000
567.296000 214.000000
581.308000 10.000000
585.284000 43.000000
585.314000 61.000000
599.402000 6.000000
601.262000 58.000000
619.280000 6.000000
709.452000 23.000000
711.496000 12.000000
779.507000 13.000000
797.528000 22.000000
839.513000 22.000000
853.556000 10.000000
853.623000 10.000000
868.772000 23.000000
868.812000 16.000000
871.417000 15.000000
871.469000 272.000000
871.533000 5358.000000
872.506000 28.000000
872.582000 18.000000

