>compound LQB1435334
>parentmass 630.5299
>ionization [M+CH3COOH-H]-
>formula C34H69NO5
>rt 543.737160
>profile qtof
#smiles_iso CCCCCCCCCCCCCCC(C(C(CO)NC(=O)C(CCCCCCCCCCCCCC)O)O)O
#smiles_can CCCCCCCCCCCCCCC(C(C(CO)NC(=O)C(CCCCCCCCCCCCCC)O)O)O
#inchikey RHIXBFQKTNYVCX-UHFFFAOYSA-N
#pubchem_id 25201286
#mb_accession LQB00001,LQB00387

>ms2
223.206000 51.000000
225.221000 1428.000000
225.243000 51.000000
239.241000 53.000000
250.256000 43.000000
253.218000 244.000000
255.231000 623.000000
266.248000 153.000000
267.231000 491.000000
270.242000 377.000000
271.227000 1856.000000
278.252000 90.000000
279.235000 91.000000
280.268000 142.000000
281.244000 33.000000
282.244000 23.000000
284.260000 164.000000
296.257000 256.000000
308.256000 90.000000
310.273000 20.000000
312.249000 153.000000
313.280000 30.000000
314.268000 981.000000
316.287000 50.000000
326.268000 807.000000
504.472000 81.000000
522.495000 30.000000
534.477000 90.000000
534.496000 40.000000
538.480000 151.000000
540.504000 73.000000
552.494000 280.000000
570.506000 8281.000000
570.687000 24.000000
571.521000 22.000000

>ms2
223.206000 51.000000
225.221000 1428.000000
225.243000 51.000000
239.241000 53.000000
250.256000 43.000000
253.218000 244.000000
255.231000 623.000000
266.248000 153.000000
267.231000 491.000000
270.242000 377.000000
271.227000 1856.000000
278.252000 90.000000
279.235000 91.000000
280.268000 142.000000
281.244000 33.000000
282.244000 23.000000
284.260000 164.000000
296.257000 256.000000
308.256000 90.000000
310.273000 20.000000
312.249000 153.000000
313.280000 30.000000
314.268000 981.000000
316.287000 50.000000
326.268000 807.000000
504.472000 81.000000
522.495000 30.000000
534.477000 90.000000
534.496000 40.000000
538.480000 151.000000
540.504000 73.000000
552.494000 280.000000
570.506000 8281.000000
570.687000 24.000000
571.521000 22.000000

