>compound LQB1220965
>parentmass 744.5527
>ionization [M-H]-
>formula C41H80NO8P
>rt 667.746000
>profile qtof
#smiles_iso CCCCCCCCCCCCCCCCCC(=O)OCC(COP(=O)(O)OCCN)OC(=O)CCCCCCC/C=C\CCCCCCCC
#smiles_can CCCCCCCCCCCCCCCCCC(=O)OCC(COP(=O)(O)OCCN)OC(=O)CCCCCCCC=CCCCCCCCC
#inchikey JQKOHRZNEOQNJE-ZZEZOPTASA-N
#pubchem_id 9546734
#mb_accession LQB00195,LQB00581

>ms2peaks
78.960000 204.000000
96.969000 70.000000
122.002000 100.000000
140.010000 968.000000
152.996000 43.000000
178.027000 82.000000
196.038000 1376.000000
214.036000 81.000000
214.054000 70.000000
253.219000 50.000000
255.228000 479.000000
255.243000 214.000000
280.369000 266.000000
280.395000 94.000000
281.249000 94516.000000
281.561000 75.000000
282.254000 82.000000
282.391000 50.000000
283.028000 60.000000
283.263000 33156.000000
309.279000 2338.000000
404.251000 84.000000
406.269000 60.000000
419.251000 63.000000
452.278000 106.000000
460.268000 244.000000
460.292000 325.000000
462.299000 1213.000000
478.294000 540.000000
480.179000 21.000000
480.264000 227.000000
480.306000 4786.000000
488.299000 30.000000
563.362000 64.000000
563.741000 118.000000
563.929000 65.000000
565.272000 45.000000
570.791000 53.000000
638.916000 20.000000
742.186000 101.000000
742.235000 120.000000
744.427000 24.000000
744.552000 27957.000000
744.624000 113.000000
745.547000 73.000000
745.577000 50.000000
745.745000 25.000000

>ms2peaks
78.960000 204.000000
96.969000 70.000000
122.002000 100.000000
140.010000 968.000000
152.996000 43.000000
178.027000 82.000000
196.038000 1376.000000
214.036000 81.000000
214.054000 70.000000
253.219000 50.000000
255.228000 479.000000
255.243000 214.000000
280.369000 266.000000
280.395000 94.000000
281.249000 94516.000000
281.561000 75.000000
282.254000 82.000000
282.391000 50.000000
283.028000 60.000000
283.263000 33156.000000
309.279000 2338.000000
404.251000 84.000000
406.269000 60.000000
419.251000 63.000000
452.278000 106.000000
460.268000 244.000000
460.292000 325.000000
462.299000 1213.000000
478.294000 540.000000
480.179000 21.000000
480.264000 227.000000
480.306000 4786.000000
488.299000 30.000000
563.362000 64.000000
563.741000 118.000000
563.929000 65.000000
565.272000 45.000000
570.791000 53.000000
638.916000 20.000000
742.186000 101.000000
742.235000 120.000000
744.427000 24.000000
744.552000 27957.000000
744.624000 113.000000
745.547000 73.000000
745.577000 50.000000
745.745000 25.000000

