>compound LQB1066849
>parentmass 870.621
>ionization [M+CH3COOH-H]-
>formula C46H86NO8P
>rt 633.994200
>profile qtof
#smiles_iso CCCCCCCCCCCCCCCCCC(=O)OCC(COP(=O)([O-])OCC[N+](C)(C)C)OC(=O)CCCCCCCCC/C=C\C/C=C\C/C=C\CC
#smiles_can CCCCCCCCCCCCCCCCCC(=O)OCC(COP(=O)([O-])OCC[N+](C)(C)C)OC(=O)CCCCCCCCCC=CCC=CCC=CCC
#inchikey LLUINWFQEIMZRU-JOIBFBEQSA-N
#pubchem_id 138203340
#mb_accession LQB00137,LQB00523

>ms2peaks
153.001000 20.000000
168.042000 162.000000
191.957000 30.000000
224.068000 214.000000
242.083000 50.000000
255.232000 50.000000
261.257000 50.000000
282.371000 34.000000
283.236000 104.000000
283.263000 4204.000000
287.239000 21.000000
289.285000 22.000000
304.301000 110.000000
304.415000 28.000000
304.979000 22.000000
305.247000 11435.000000
306.250000 20.000000
309.278000 22.000000
311.523000 20.000000
333.277000 154.000000
419.257000 81.000000
430.491000 20.000000
456.282000 23.000000
468.171000 20.000000
490.328000 306.000000
508.336000 754.000000
512.306000 103.000000
530.329000 101.000000
610.578000 31.000000
725.508000 50.000000
732.544000 20.000000
794.071000 43.000000
796.504000 34.000000
796.579000 12756.000000
810.514000 23.000000
810.570000 23.000000
811.541000 133.000000
852.640000 20.000000
870.621000 928.000000
870.655000 123.000000
870.718000 20.000000

>ms2peaks
153.001000 20.000000
168.042000 162.000000
191.957000 30.000000
224.068000 214.000000
242.083000 50.000000
255.232000 50.000000
261.257000 50.000000
282.371000 34.000000
283.236000 104.000000
283.263000 4204.000000
287.239000 21.000000
289.285000 22.000000
304.301000 110.000000
304.415000 28.000000
304.979000 22.000000
305.247000 11435.000000
306.250000 20.000000
309.278000 22.000000
311.523000 20.000000
333.277000 154.000000
419.257000 81.000000
430.491000 20.000000
456.282000 23.000000
468.171000 20.000000
490.328000 306.000000
508.336000 754.000000
512.306000 103.000000
530.329000 101.000000
610.578000 31.000000
725.508000 50.000000
732.544000 20.000000
794.071000 43.000000
796.504000 34.000000
796.579000 12756.000000
810.514000 23.000000
810.570000 23.000000
811.541000 133.000000
852.640000 20.000000
870.621000 928.000000
870.655000 123.000000
870.718000 20.000000

