>compound LQB1239716
>parentmass 871.6891666666667
>ionization [M+CH3COOH-H]-
>formula C47H93N2O6P
>rt 732.209000
>profile qtof
#smiles_iso CCCCCCCCCCCCC/C=C/C(C(COP(=O)([O-])OCC[N+](C)(C)C)NC(=O)CCCCCCCCC/C=C\CCCCCCCCCCCC)O
#smiles_can CCCCCCCCCCCCCC=CC(C(COP(=O)([O-])OCC[N+](C)(C)C)NC(=O)CCCCCCCCCC=CCCCCCCCCCCCC)O
#inchikey SUTDVWUQTJGTCQ-IMMYYDDQSA-N
#pubchem_id 138265057
#mb_accession LQB00371,LQB00372,LQB00373,LQB00757,LQB00758,LQB00759

>ms2peaks
78.958000 1232.000000
96.973000 20.000000
122.985000 244.000000
125.002000 41.000000
167.522000 41.000000
167.634000 27.000000
168.042000 4498.000000
247.226000 20.000000
278.180000 20.000000
365.336000 30.000000
431.304000 40.000000
436.167000 30.000000
441.824000 30.000000
449.304000 162.000000
449.323000 173.000000
452.466000 30.000000
458.729000 30.000000
478.767000 23.000000
489.475000 30.000000
493.510000 20.000000
494.100000 20.000000
495.969000 20.000000
496.027000 23.000000
500.170000 20.000000
506.102000 20.000000
514.366000 43.000000
516.574000 30.000000
550.330000 20.000000
557.398000 20.000000
612.747000 30.000000
708.560000 110.000000
726.557000 61.000000
726.574000 141.000000
726.606000 132.000000
752.591000 162.000000
771.627000 212.000000
795.126000 255.000000
795.153000 184.000000
795.191000 124.000000
796.718000 103.000000
797.472000 148.000000
797.653000 143651.000000
798.355000 86.000000
798.666000 164.000000
798.700000 71.000000
812.615000 1162.000000
812.653000 224.000000
871.620000 239.000000
871.664000 1551.000000
871.698000 3824.000000

>ms2peaks
78.958000 255.000000
89.026000 23.000000
119.031000 50.000000
122.983000 111.000000
168.042000 1050.000000
431.306000 30.000000
449.295000 30.000000
449.333000 50.000000
459.353000 30.000000
463.527000 20.000000
514.356000 30.000000
644.590000 20.000000
645.614000 60.000000
726.575000 90.000000
752.586000 55.000000
795.077000 44.000000
795.133000 90.000000
797.653000 25593.000000
798.657000 91.000000
812.576000 70.000000
812.608000 204.000000
812.655000 70.000000
825.642000 163.000000
825.673000 163.000000
825.704000 61.000000
871.617000 71.000000
871.650000 245.000000
871.671000 327.000000
871.684000 184.000000
871.700000 429.000000
871.735000 122.000000

>ms2peaks
78.958000 136.000000
119.037000 10.000000
122.987000 45.000000
168.043000 494.000000
255.231000 10.000000
365.335000 11.000000
428.608000 10.000000
449.310000 36.000000
470.710000 10.000000
481.310000 10.000000
618.586000 20.000000
645.595000 11.000000
663.615000 20.000000
708.560000 15.000000
726.573000 55.000000
752.589000 30.000000
795.145000 75.000000
796.706000 13.000000
797.464000 11.000000
797.565000 25.000000
797.649000 15529.000000
798.650000 55.000000
811.651000 15.000000
812.599000 80.000000
812.626000 110.000000
825.650000 46.000000
871.690000 689.000000

>ms2peaks
78.958000 1232.000000
96.973000 20.000000
122.985000 244.000000
125.002000 41.000000
167.522000 41.000000
167.634000 27.000000
168.042000 4498.000000
247.226000 20.000000
278.180000 20.000000
365.336000 30.000000
431.304000 40.000000
436.167000 30.000000
441.824000 30.000000
449.304000 162.000000
449.323000 173.000000
452.466000 30.000000
458.729000 30.000000
478.767000 23.000000
489.475000 30.000000
493.510000 20.000000
494.100000 20.000000
495.969000 20.000000
496.027000 23.000000
500.170000 20.000000
506.102000 20.000000
514.366000 43.000000
516.574000 30.000000
550.330000 20.000000
557.398000 20.000000
612.747000 30.000000
708.560000 110.000000
726.557000 61.000000
726.574000 141.000000
726.606000 132.000000
752.591000 162.000000
771.627000 212.000000
795.126000 255.000000
795.153000 184.000000
795.191000 124.000000
796.718000 103.000000
797.472000 148.000000
797.653000 143651.000000
798.355000 86.000000
798.666000 164.000000
798.700000 71.000000
812.615000 1162.000000
812.653000 224.000000
871.620000 239.000000
871.664000 1551.000000
871.698000 3824.000000

>ms2peaks
78.958000 255.000000
89.026000 23.000000
119.031000 50.000000
122.983000 111.000000
168.042000 1050.000000
431.306000 30.000000
449.295000 30.000000
449.333000 50.000000
459.353000 30.000000
463.527000 20.000000
514.356000 30.000000
644.590000 20.000000
645.614000 60.000000
726.575000 90.000000
752.586000 55.000000
795.077000 44.000000
795.133000 90.000000
797.653000 25593.000000
798.657000 91.000000
812.576000 70.000000
812.608000 204.000000
812.655000 70.000000
825.642000 163.000000
825.673000 163.000000
825.704000 61.000000
871.617000 71.000000
871.650000 245.000000
871.671000 327.000000
871.684000 184.000000
871.700000 429.000000
871.735000 122.000000

>ms2peaks
78.958000 136.000000
119.037000 10.000000
122.987000 45.000000
168.043000 494.000000
255.231000 10.000000
365.335000 11.000000
428.608000 10.000000
449.310000 36.000000
470.710000 10.000000
481.310000 10.000000
618.586000 20.000000
645.595000 11.000000
663.615000 20.000000
708.560000 15.000000
726.573000 55.000000
752.589000 30.000000
795.145000 75.000000
796.706000 13.000000
797.464000 11.000000
797.565000 25.000000
797.649000 15529.000000
798.650000 55.000000
811.651000 15.000000
812.599000 80.000000
812.626000 110.000000
825.650000 46.000000
871.690000 689.000000

