>compound LQB1291109
>parentmass 718.6296
>ionization [M+CH3COOH-H]-
>formula C43H81NO3
>rt 778.927200
>profile qtof
#smiles_iso CCCCCCCCCCCCC/C=C\CCCCCCCCCC(=O)NC(CO)C(/C=C/CC/C=C/CCCCCCCCC)O
#smiles_can CCCCCCCCCCCCCC=CCCCCCCCCCC(=O)NC(CO)C(C=CCCC=CCCCCCCCCC)O
#inchikey TUYKPRFCRLPEFF-QOESPIHISA-N
#pubchem_id 138267143
#mb_accession LQB00063,LQB00449

>ms2
223.086000 36.000000
235.208000 121.000000
237.229000 23.000000
240.956000 20.000000
246.977000 40.000000
261.220000 40.000000
266.240000 20.000000
278.235000 23.000000
308.962000 53.000000
314.957000 30.000000
322.960000 60.000000
328.987000 30.000000
346.999000 30.000000
361.343000 122.000000
378.368000 132.000000
379.362000 83.000000
390.372000 30.000000
390.947000 40.000000
402.378000 55.000000
404.386000 561.000000
404.966000 40.000000
410.996000 43.000000
420.382000 80.000000
472.963000 30.000000
518.959000 20.000000
610.559000 30.000000
610.585000 100.000000
626.573000 70.000000
627.513000 20.000000
628.522000 40.000000
628.590000 55.000000
628.627000 81.000000
633.582000 20.000000
658.548000 70.000000
658.589000 642.000000
658.614000 775.000000
658.639000 123.000000
718.542000 30.000000
718.616000 30.000000

>ms2
223.086000 36.000000
235.208000 121.000000
237.229000 23.000000
240.956000 20.000000
246.977000 40.000000
261.220000 40.000000
266.240000 20.000000
278.235000 23.000000
308.962000 53.000000
314.957000 30.000000
322.960000 60.000000
328.987000 30.000000
346.999000 30.000000
361.343000 122.000000
378.368000 132.000000
379.362000 83.000000
390.372000 30.000000
390.947000 40.000000
402.378000 55.000000
404.386000 561.000000
404.966000 40.000000
410.996000 43.000000
420.382000 80.000000
472.963000 30.000000
518.959000 20.000000
610.559000 30.000000
610.585000 100.000000
626.573000 70.000000
627.513000 20.000000
628.522000 40.000000
628.590000 55.000000
628.627000 81.000000
633.582000 20.000000
658.548000 70.000000
658.589000 642.000000
658.614000 775.000000
658.639000 123.000000
718.542000 30.000000
718.616000 30.000000

