>compound LQB1881575
>parentmass 790.5581
>ionization [M+CH3COOH-H]-
>formula C40H78NO8P
>rt 550.052220
>profile qtof
#smiles_iso CCCCCCCCCCCCCCCC(=O)OCC(COP(=O)([O-])OCC[N+](C)(C)C)OC(=O)CCCCCCC/C=C\CCCCCC
#smiles_can CCCCCCCCCCCCCCCC(=O)OCC(COP(=O)([O-])OCC[N+](C)(C)C)OC(=O)CCCCCCCC=CCCCCCC
#inchikey QIBZFHLFHCIUOT-ZPHPHTNESA-N
#pubchem_id 6443090
#mb_accession LQB00099,LQB00485

>ms2
78.960000 406.000000
96.971000 19.000000
122.986000 14.000000
134.987000 14.000000
152.994000 211.000000
168.042000 2119.000000
206.057000 64.000000
224.067000 2437.000000
227.199000 170.000000
235.204000 101.000000
237.223000 37.000000
242.077000 205.000000
252.425000 523.000000
252.462000 26.000000
253.215000 130237.000000
254.220000 132.000000
254.352000 14.000000
254.391000 16.000000
254.434000 251.000000
254.992000 19.000000
255.230000 65424.000000
255.786000 15.000000
256.235000 81.000000
257.483000 17.000000
257.788000 15.000000
281.245000 885.000000
283.261000 544.000000
284.265000 376.000000
285.268000 184.000000
303.233000 15.000000
305.250000 12.000000
327.229000 104.000000
331.247000 81.000000
331.261000 277.000000
389.183000 20.000000
389.206000 73.000000
391.217000 318.000000
404.246000 74.000000
404.264000 42.000000
406.263000 122.000000
407.210000 14.000000
409.223000 46.000000
409.246000 20.000000
417.232000 41.000000
418.222000 7.000000
418.236000 22.000000
419.247000 323.000000
420.243000 135.000000
420.260000 61.000000
421.256000 121.000000
435.243000 14.000000
437.248000 25.000000
437.266000 42.000000
438.258000 55.000000
438.279000 37.000000
439.262000 60.000000
452.260000 17.000000
452.278000 17.000000
460.275000 1234.000000
460.860000 12.000000
462.287000 2594.000000
464.304000 16.000000
475.249000 6.000000
476.261000 21.000000
476.788000 14.000000
476.816000 5.000000
477.265000 4.000000
478.282000 2611.000000
478.767000 16.000000
478.788000 22.000000
478.817000 21.000000
479.368000 6.000000
480.028000 6.000000
480.204000 5.000000
480.301000 8997.000000
480.487000 7.000000
481.292000 13.000000
481.316000 14.000000
486.084000 7.000000
488.302000 8.000000
493.250000 9.000000
493.283000 6.000000
495.260000 24.000000
495.277000 6.000000
498.752000 5.000000
504.985000 14.000000
505.166000 15.000000
505.225000 15.000000
506.284000 11.000000
506.316000 6.000000
507.586000 18.000000
508.835000 12.000000
511.396000 27.000000
512.167000 16.000000
520.285000 7.000000
522.318000 11.000000
573.346000 6.000000
645.381000 7.000000
645.411000 59.000000
645.437000 165.000000
645.468000 33.000000
671.406000 12.000000
671.434000 64.000000
671.460000 100.000000
700.480000 24.000000
701.504000 18.000000
702.491000 120.000000
702.521000 20.000000
702.534000 16.000000
703.503000 714.000000
714.178000 31.000000
714.200000 68.000000
714.243000 452.000000
714.279000 98.000000
714.310000 31.000000
716.149000 15.000000
716.298000 16.000000
716.339000 27.000000
716.421000 30.000000
716.506000 68948.000000
716.597000 17.000000
716.951000 13.000000
717.026000 14.000000
717.255000 17.000000
717.512000 335.000000
717.558000 33.000000
720.146000 13.000000
720.784000 13.000000
730.497000 12.000000
731.411000 24.000000
731.470000 1067.000000
731.547000 15.000000
788.013000 12.000000
788.049000 13.000000
788.086000 17.000000
790.540000 9369.000000
791.562000 15.000000

>ms2
78.960000 406.000000
96.971000 19.000000
122.986000 14.000000
134.987000 14.000000
152.994000 211.000000
168.042000 2119.000000
206.057000 64.000000
224.067000 2437.000000
227.199000 170.000000
235.204000 101.000000
237.223000 37.000000
242.077000 205.000000
252.425000 523.000000
252.462000 26.000000
253.215000 130237.000000
254.220000 132.000000
254.352000 14.000000
254.391000 16.000000
254.434000 251.000000
254.992000 19.000000
255.230000 65424.000000
255.786000 15.000000
256.235000 81.000000
257.483000 17.000000
257.788000 15.000000
281.245000 885.000000
283.261000 544.000000
284.265000 376.000000
285.268000 184.000000
303.233000 15.000000
305.250000 12.000000
327.229000 104.000000
331.247000 81.000000
331.261000 277.000000
389.183000 20.000000
389.206000 73.000000
391.217000 318.000000
404.246000 74.000000
404.264000 42.000000
406.263000 122.000000
407.210000 14.000000
409.223000 46.000000
409.246000 20.000000
417.232000 41.000000
418.222000 7.000000
418.236000 22.000000
419.247000 323.000000
420.243000 135.000000
420.260000 61.000000
421.256000 121.000000
435.243000 14.000000
437.248000 25.000000
437.266000 42.000000
438.258000 55.000000
438.279000 37.000000
439.262000 60.000000
452.260000 17.000000
452.278000 17.000000
460.275000 1234.000000
460.860000 12.000000
462.287000 2594.000000
464.304000 16.000000
475.249000 6.000000
476.261000 21.000000
476.788000 14.000000
476.816000 5.000000
477.265000 4.000000
478.282000 2611.000000
478.767000 16.000000
478.788000 22.000000
478.817000 21.000000
479.368000 6.000000
480.028000 6.000000
480.204000 5.000000
480.301000 8997.000000
480.487000 7.000000
481.292000 13.000000
481.316000 14.000000
486.084000 7.000000
488.302000 8.000000
493.250000 9.000000
493.283000 6.000000
495.260000 24.000000
495.277000 6.000000
498.752000 5.000000
504.985000 14.000000
505.166000 15.000000
505.225000 15.000000
506.284000 11.000000
506.316000 6.000000
507.586000 18.000000
508.835000 12.000000
511.396000 27.000000
512.167000 16.000000
520.285000 7.000000
522.318000 11.000000
573.346000 6.000000
645.381000 7.000000
645.411000 59.000000
645.437000 165.000000
645.468000 33.000000
671.406000 12.000000
671.434000 64.000000
671.460000 100.000000
700.480000 24.000000
701.504000 18.000000
702.491000 120.000000
702.521000 20.000000
702.534000 16.000000
703.503000 714.000000
714.178000 31.000000
714.200000 68.000000
714.243000 452.000000
714.279000 98.000000
714.310000 31.000000
716.149000 15.000000
716.298000 16.000000
716.339000 27.000000
716.421000 30.000000
716.506000 68948.000000
716.597000 17.000000
716.951000 13.000000
717.026000 14.000000
717.255000 17.000000
717.512000 335.000000
717.558000 33.000000
720.146000 13.000000
720.784000 13.000000
730.497000 12.000000
731.411000 24.000000
731.470000 1067.000000
731.547000 15.000000
788.013000 12.000000
788.049000 13.000000
788.086000 17.000000
790.540000 9369.000000
791.562000 15.000000

