>compound LQB1121347
>parentmass 718.5385
>ionization [M-H]-
>formula C39H78NO8P
>rt 656.764800
>profile qtof
#smiles_iso CCCCCCCCCCCCCCCCCC(=O)OC(COC(=O)CCCCCCCCCCCCCCC)COP(=O)(O)OCCN
#smiles_can CCCCCCCCCCCCCCCCCC(=O)OC(COC(=O)CCCCCCCCCCCCCCC)COP(=O)(O)OCCN
#inchikey RPJZYOHZALDGKI-UHFFFAOYSA-N
#pubchem_id 9546967
#mb_accession LQB00174,LQB00560

>ms2
78.958000 73.000000
140.010000 91.000000
196.038000 142.000000
214.047000 52.000000
254.433000 116.000000
255.231000 10440.000000
256.233000 31.000000
256.730000 23.000000
282.247000 21.000000
282.378000 31.000000
283.260000 3582.000000
406.255000 21.000000
419.262000 20.000000
434.269000 91.000000
452.267000 111.000000
452.291000 50.000000
462.313000 123.000000
480.305000 521.000000
481.677000 31.000000
716.350000 42.000000
718.482000 91.000000
718.505000 439.000000
718.533000 3213.000000
718.560000 1390.000000

>ms2
78.958000 73.000000
140.010000 91.000000
196.038000 142.000000
214.047000 52.000000
254.433000 116.000000
255.231000 10440.000000
256.233000 31.000000
256.730000 23.000000
282.247000 21.000000
282.378000 31.000000
283.260000 3582.000000
406.255000 21.000000
419.262000 20.000000
434.269000 91.000000
452.267000 111.000000
452.291000 50.000000
462.313000 123.000000
480.305000 521.000000
481.677000 31.000000
716.350000 42.000000
718.482000 91.000000
718.505000 439.000000
718.533000 3213.000000
718.560000 1390.000000

