>compound LQB1007403
>parentmass 892.6033
>ionization [M+CH3COOH-H]-
>formula C48H84NO8P
>rt 601.207200
>profile qtof
#smiles_iso CCCCCCCCCCCCCCCCCC(=O)OCC(COP(=O)([O-])OCC[N+](C)(C)C)OC(=O)CC/C=C\C/C=C\C/C=C\C/C=C\C/C=C\C/C=C\CC
#smiles_can CCCCCCCCCCCCCCCCCC(=O)OCC(COP(=O)([O-])OCC[N+](C)(C)C)OC(=O)CCC=CCC=CCC=CCC=CCC=CCC=CCC
#inchikey FAUYAENFVCNTAL-UFTZFNJNSA-N
#pubchem_id 24778877
#mb_accession LQB00143,LQB00529

>ms2peaks
78.959000 224.000000
107.087000 111.000000
117.073000 70.000000
121.103000 162.000000
123.118000 71.000000
131.085000 91.000000
133.102000 132.000000
135.115000 154.000000
137.132000 71.000000
147.116000 63.000000
149.136000 132.000000
152.996000 111.000000
161.135000 90.000000
163.149000 90.000000
168.042000 1102.000000
175.147000 102.000000
177.164000 480.000000
191.177000 276.000000
191.186000 163.000000
203.175000 81.000000
203.186000 60.000000
224.069000 1428.000000
229.195000 2143.000000
231.137000 74.000000
241.195000 70.000000
242.079000 212.000000
249.185000 653.000000
255.212000 70.000000
281.225000 111.000000
282.378000 122.000000
283.243000 12773.000000
283.262000 30218.000000
284.008000 38.000000
297.217000 73.000000
309.221000 183.000000
326.215000 156.000000
327.232000 49569.000000
419.255000 295.000000
434.300000 90.000000
437.273000 61.000000
463.219000 40.000000
469.870000 50.000000
478.276000 70.000000
490.328000 1347.000000
505.644000 32.000000
506.741000 51.000000
508.336000 9789.000000
509.340000 33.000000
523.303000 60.000000
534.261000 30.000000
534.294000 644.000000
552.297000 307.000000
552.317000 326.000000
563.701000 64.000000
700.569000 40.000000
747.481000 111.000000
747.520000 81.000000
773.508000 111.000000
815.979000 204.000000
816.016000 90.000000
817.612000 75.000000
818.236000 85.000000
818.453000 50.000000
818.562000 63553.000000
819.564000 315.000000
833.504000 163.000000
833.522000 734.000000
833.544000 357.000000
889.792000 42.000000
891.986000 22.000000
892.602000 7156.000000
892.667000 65.000000

>ms2peaks
78.959000 224.000000
107.087000 111.000000
117.073000 70.000000
121.103000 162.000000
123.118000 71.000000
131.085000 91.000000
133.102000 132.000000
135.115000 154.000000
137.132000 71.000000
147.116000 63.000000
149.136000 132.000000
152.996000 111.000000
161.135000 90.000000
163.149000 90.000000
168.042000 1102.000000
175.147000 102.000000
177.164000 480.000000
191.177000 276.000000
191.186000 163.000000
203.175000 81.000000
203.186000 60.000000
224.069000 1428.000000
229.195000 2143.000000
231.137000 74.000000
241.195000 70.000000
242.079000 212.000000
249.185000 653.000000
255.212000 70.000000
281.225000 111.000000
282.378000 122.000000
283.243000 12773.000000
283.262000 30218.000000
284.008000 38.000000
297.217000 73.000000
309.221000 183.000000
326.215000 156.000000
327.232000 49569.000000
419.255000 295.000000
434.300000 90.000000
437.273000 61.000000
463.219000 40.000000
469.870000 50.000000
478.276000 70.000000
490.328000 1347.000000
505.644000 32.000000
506.741000 51.000000
508.336000 9789.000000
509.340000 33.000000
523.303000 60.000000
534.261000 30.000000
534.294000 644.000000
552.297000 307.000000
552.317000 326.000000
563.701000 64.000000
700.569000 40.000000
747.481000 111.000000
747.520000 81.000000
773.508000 111.000000
815.979000 204.000000
816.016000 90.000000
817.612000 75.000000
818.236000 85.000000
818.453000 50.000000
818.562000 63553.000000
819.564000 315.000000
833.504000 163.000000
833.522000 734.000000
833.544000 357.000000
889.792000 42.000000
891.986000 22.000000
892.602000 7156.000000
892.667000 65.000000

