>compound LQB1609702
>parentmass 792.5735
>ionization [M+CH3COOH-H]-
>formula C40H80NO8P
>rt 587.478240
>profile qtof
#smiles_iso CCCCCCCCCCCCCCCC(=O)OCC(COP(=O)([O-])OCC[N+](C)(C)C)OC(=O)CCCCCCCCCCCCCCC
#smiles_can CCCCCCCCCCCCCCCC(=O)OCC(COP(=O)([O-])OCC[N+](C)(C)C)OC(=O)CCCCCCCCCCCCCCC
#inchikey KILNVBDSWZSGLL-UHFFFAOYSA-N
#pubchem_id 6138
#mb_accession LQB00098,LQB00484

>ms2
78.958000 622.000000
152.995000 201.000000
168.043000 2894.000000
177.739000 53.000000
206.063000 83.000000
223.371000 62.000000
224.069000 3176.000000
227.202000 510.000000
237.222000 153.000000
242.079000 336.000000
254.435000 1387.000000
254.975000 76.000000
255.076000 86.000000
255.145000 263.000000
255.233000 206009.000000
255.262000 261.000000
255.744000 83.000000
255.792000 60.000000
255.885000 55.000000
256.164000 70.000000
256.518000 91.000000
283.264000 291.000000
333.277000 53.000000
391.217000 399.000000
391.234000 244.000000
403.596000 60.000000
406.259000 194.000000
406.280000 194.000000
409.233000 141.000000
415.448000 40.000000
419.278000 50.000000
437.272000 40.000000
452.261000 65.000000
462.296000 4966.000000
478.784000 75.000000
478.827000 63.000000
480.308000 16810.000000
480.361000 103.000000
481.726000 30.000000
495.276000 103.000000
508.333000 33.000000
511.461000 130.000000
511.488000 129.000000
511.812000 69.000000
645.499000 40.000000
647.438000 133.000000
647.464000 236.000000
647.498000 70.000000
673.461000 164.000000
673.484000 132.000000
673.514000 60.000000
716.217000 71.000000
716.239000 163.000000
716.257000 112.000000
716.267000 163.000000
716.280000 234.000000
716.296000 214.000000
716.343000 125.000000
716.571000 50.000000
717.449000 50.000000
718.344000 80.000000
718.395000 85.000000
718.534000 82444.000000
719.538000 347.000000
719.709000 50.000000
719.874000 91.000000
719.925000 50.000000
720.297000 59.000000
722.163000 46.000000
727.653000 46.000000
733.492000 1709.000000
733.528000 513.000000
733.556000 81.000000
760.542000 47.000000
766.206000 132.000000
790.080000 53.000000
792.570000 10922.000000
792.646000 151.000000

>ms2
78.958000 622.000000
152.995000 201.000000
168.043000 2894.000000
177.739000 53.000000
206.063000 83.000000
223.371000 62.000000
224.069000 3176.000000
227.202000 510.000000
237.222000 153.000000
242.079000 336.000000
254.435000 1387.000000
254.975000 76.000000
255.076000 86.000000
255.145000 263.000000
255.233000 206009.000000
255.262000 261.000000
255.744000 83.000000
255.792000 60.000000
255.885000 55.000000
256.164000 70.000000
256.518000 91.000000
283.264000 291.000000
333.277000 53.000000
391.217000 399.000000
391.234000 244.000000
403.596000 60.000000
406.259000 194.000000
406.280000 194.000000
409.233000 141.000000
415.448000 40.000000
419.278000 50.000000
437.272000 40.000000
452.261000 65.000000
462.296000 4966.000000
478.784000 75.000000
478.827000 63.000000
480.308000 16810.000000
480.361000 103.000000
481.726000 30.000000
495.276000 103.000000
508.333000 33.000000
511.461000 130.000000
511.488000 129.000000
511.812000 69.000000
645.499000 40.000000
647.438000 133.000000
647.464000 236.000000
647.498000 70.000000
673.461000 164.000000
673.484000 132.000000
673.514000 60.000000
716.217000 71.000000
716.239000 163.000000
716.257000 112.000000
716.267000 163.000000
716.280000 234.000000
716.296000 214.000000
716.343000 125.000000
716.571000 50.000000
717.449000 50.000000
718.344000 80.000000
718.395000 85.000000
718.534000 82444.000000
719.538000 347.000000
719.709000 50.000000
719.874000 91.000000
719.925000 50.000000
720.297000 59.000000
722.163000 46.000000
727.653000 46.000000
733.492000 1709.000000
733.528000 513.000000
733.556000 81.000000
760.542000 47.000000
766.206000 132.000000
790.080000 53.000000
792.570000 10922.000000
792.646000 151.000000

