>compound LQB1145641
>parentmass 768.5525
>ionization [M-H]-
>formula C43H80NO8P
>rt 645.784800
>profile qtof
#smiles_iso CCCCCCCCCCCCCCCCCC(=O)OCC(COP(=O)(O)OCCN)OC(=O)CCCCCCCCC/C=C\C/C=C\C/C=C\CC
#smiles_can CCCCCCCCCCCCCCCCCC(=O)OCC(COP(=O)(O)OCCN)OC(=O)CCCCCCCCCC=CCC=CCC=CCC
#inchikey MSYFXMJDQLPRGO-JTBMWNAQSA-N
#pubchem_id 138214139
#mb_accession LQB00199,LQB00585

>ms2
140.013000 203.000000
196.036000 307.000000
255.234000 43.000000
261.262000 91.000000
281.242000 31.000000
283.263000 5751.000000
287.233000 41.000000
303.234000 81.000000
304.295000 73.000000
305.246000 15270.000000
333.283000 73.000000
462.283000 131.000000
462.308000 142.000000
480.305000 969.000000
484.277000 60.000000
502.287000 100.000000
608.562000 20.000000
762.815000 21.000000
766.128000 50.000000
768.488000 176.000000
768.549000 8991.000000
769.546000 20.000000

>ms2
140.013000 203.000000
196.036000 307.000000
255.234000 43.000000
261.262000 91.000000
281.242000 31.000000
283.263000 5751.000000
287.233000 41.000000
303.234000 81.000000
304.295000 73.000000
305.246000 15270.000000
333.283000 73.000000
462.283000 131.000000
462.308000 142.000000
480.305000 969.000000
484.277000 60.000000
502.287000 100.000000
608.562000 20.000000
762.815000 21.000000
766.128000 50.000000
768.488000 176.000000
768.549000 8991.000000
769.546000 20.000000

