>compound LQB1282690
>parentmass 714.5081
>ionization [M-H]-
>formula C39H74NO8P
>rt 559.510980
>profile qtof
#smiles_iso CCCCCCCC/C=C\CCCCCCCC(=O)OC(COC(=O)CCCCCCC/C=C\CCCCCC)COP(=O)(O)OCCN
#smiles_can CCCCCCCCC=CCCCCCCCC(=O)OC(COC(=O)CCCCCCCC=CCCCCCC)COP(=O)(O)OCCN
#inchikey RAMNOXDFBNFSFC-LJSPAGPLSA-N
#pubchem_id 138249942
#mb_accession LQB00185,LQB00571

>ms2
96.970000 20.000000
140.010000 60.000000
196.038000 123.000000
252.439000 37.000000
253.216000 2354.000000
255.233000 123.000000
281.248000 3425.000000
283.265000 30.000000
432.251000 70.000000
450.256000 141.000000
460.293000 50.000000
478.299000 70.000000
714.456000 85.000000
714.487000 672.000000
714.515000 704.000000
714.535000 296.000000

>ms2
96.970000 20.000000
140.010000 60.000000
196.038000 123.000000
252.439000 37.000000
253.216000 2354.000000
255.233000 123.000000
281.248000 3425.000000
283.265000 30.000000
432.251000 70.000000
450.256000 141.000000
460.293000 50.000000
478.299000 70.000000
714.456000 85.000000
714.487000 672.000000
714.515000 704.000000
714.535000 296.000000

