>compound LQB1422334
>parentmass 568.4917499999999
>ionization [M+CH3COOH-H]-
>formula C32H63NO3
>rt 540.513270
>profile qtof
#smiles_iso CCCCCCCCCCCCCCCC(=O)NC(CO)C(/C=C/CCCCCCCCCCC)O
#smiles_can CCCCCCCCCCCCCCCC(=O)NC(CO)C(C=CCCCCCCCCCCC)O
#inchikey PIVKMDKERPTVGC-IMVLJIQESA-N
#pubchem_id 138235827
#mb_accession LQB00023,LQB00024,LQB00409,LQB00410

>ms2peaks
209.190000 100.000000
225.217000 30.000000
226.213000 70.000000
227.207000 60.000000
237.224000 80.000000
252.225000 163.000000
252.243000 70.000000
254.253000 20.000000
263.232000 30.000000
268.226000 40.000000
280.260000 50.000000
317.620000 20.000000
460.440000 90.000000
460.464000 50.000000
476.433000 53.000000
478.448000 70.000000
508.440000 81.000000
508.451000 71.000000
508.460000 81.000000
508.473000 336.000000

>ms2peaks
209.183000 70.000000
209.197000 101.000000
237.210000 70.000000
237.239000 50.000000
252.225000 92.000000
252.235000 173.000000
252.248000 91.000000
254.246000 91.000000
255.232000 50.000000
263.238000 80.000000
268.226000 73.000000
280.260000 234.000000
280.274000 101.000000
332.994000 20.000000
460.450000 90.000000
476.429000 60.000000
476.466000 60.000000
478.463000 172.000000
490.460000 20.000000
508.434000 133.000000
508.475000 836.000000
508.505000 40.000000

>ms2peaks
209.190000 100.000000
225.217000 30.000000
226.213000 70.000000
227.207000 60.000000
237.224000 80.000000
252.225000 163.000000
252.243000 70.000000
254.253000 20.000000
263.232000 30.000000
268.226000 40.000000
280.260000 50.000000
317.620000 20.000000
460.440000 90.000000
460.464000 50.000000
476.433000 53.000000
478.448000 70.000000
508.440000 81.000000
508.451000 71.000000
508.460000 81.000000
508.473000 336.000000

>ms2peaks
209.183000 70.000000
209.197000 101.000000
237.210000 70.000000
237.239000 50.000000
252.225000 92.000000
252.235000 173.000000
252.248000 91.000000
254.246000 91.000000
255.232000 50.000000
263.238000 80.000000
268.226000 73.000000
280.260000 234.000000
280.274000 101.000000
332.994000 20.000000
460.450000 90.000000
476.429000 60.000000
476.466000 60.000000
478.463000 172.000000
490.460000 20.000000
508.434000 133.000000
508.475000 836.000000
508.505000 40.000000

