>compound LQB1741358
>parentmass 788.5428
>ionization [M-H]-
>formula C42H80NO10P
>rt 551.147760
>profile qtof
#smiles_iso CCCCCCCCCCCCCCCCCC(=O)OCC(COP(=O)(O)OCC(C(=O)O)N)OC(=O)CCCCCCC/C=C\CCCCCCCC
#smiles_can CCCCCCCCCCCCCCCCCC(=O)OCC(COP(=O)(O)OCC(C(=O)O)N)OC(=O)CCCCCCCC=CCCCCCCCC
#inchikey AJFWREUFUPEYII-ZZEZOPTASA-N
#pubchem_id 9962404
#mb_accession LQB00333,LQB00719

>ms2peaks
78.958000 2398.000000
96.969000 468.000000
134.984000 264.000000
136.964000 40.000000
150.979000 52.000000
152.522000 85.000000
152.995000 9218.000000
165.989000 51.000000
168.041000 580.000000
169.046000 50.000000
170.997000 111.000000
171.008000 204.000000
231.214000 60.000000
255.230000 131.000000
280.370000 174.000000
281.248000 20402.000000
282.249000 113.000000
282.379000 175.000000
283.264000 49813.000000
284.267000 274.000000
285.253000 192.000000
303.231000 142.000000
305.249000 101.000000
309.279000 172.000000
310.290000 71.000000
329.251000 806.000000
417.240000 5319.000000
417.941000 156.000000
418.247000 73.000000
419.204000 74.000000
419.255000 29183.000000
420.263000 200.000000
435.224000 143.000000
435.245000 723.000000
435.261000 479.000000
437.266000 12156.000000
438.267000 101.000000
445.272000 60.000000
476.268000 60.000000
476.292000 60.000000
496.100000 20.000000
504.245000 23.000000
504.292000 30.000000
522.271000 20.000000
524.297000 60.000000
563.724000 114.000000
699.243000 60.000000
699.309000 142.000000
699.347000 81.000000
701.435000 117.000000
701.513000 44441.000000
702.155000 48.000000
702.512000 158.000000
712.310000 50.000000
713.542000 215.000000
713.568000 215.000000
714.542000 2302.000000
714.565000 4712.000000
729.527000 85.000000
730.524000 90.000000
730.560000 70.000000
786.047000 182.000000
788.541000 26623.000000
789.547000 167.000000

>ms2peaks
78.958000 2398.000000
96.969000 468.000000
134.984000 264.000000
136.964000 40.000000
150.979000 52.000000
152.522000 85.000000
152.995000 9218.000000
165.989000 51.000000
168.041000 580.000000
169.046000 50.000000
170.997000 111.000000
171.008000 204.000000
231.214000 60.000000
255.230000 131.000000
280.370000 174.000000
281.248000 20402.000000
282.249000 113.000000
282.379000 175.000000
283.264000 49813.000000
284.267000 274.000000
285.253000 192.000000
303.231000 142.000000
305.249000 101.000000
309.279000 172.000000
310.290000 71.000000
329.251000 806.000000
417.240000 5319.000000
417.941000 156.000000
418.247000 73.000000
419.204000 74.000000
419.255000 29183.000000
420.263000 200.000000
435.224000 143.000000
435.245000 723.000000
435.261000 479.000000
437.266000 12156.000000
438.267000 101.000000
445.272000 60.000000
476.268000 60.000000
476.292000 60.000000
496.100000 20.000000
504.245000 23.000000
504.292000 30.000000
522.271000 20.000000
524.297000 60.000000
563.724000 114.000000
699.243000 60.000000
699.309000 142.000000
699.347000 81.000000
701.435000 117.000000
701.513000 44441.000000
702.155000 48.000000
702.512000 158.000000
712.310000 50.000000
713.542000 215.000000
713.568000 215.000000
714.542000 2302.000000
714.565000 4712.000000
729.527000 85.000000
730.524000 90.000000
730.560000 70.000000
786.047000 182.000000
788.541000 26623.000000
789.547000 167.000000

