>compound LQB1019377
>parentmass 790.538
>ionization [M-H]-
>formula C45H78NO8P
>rt 607.910400
>profile qtof
#smiles_iso CCCCCCCCCCCCCCCCCC(=O)OCC(COP(=O)(O)OCCN)OC(=O)CC/C=C\C/C=C\C/C=C\C/C=C\C/C=C\C/C=C\CC
#smiles_can CCCCCCCCCCCCCCCCCC(=O)OCC(COP(=O)(O)OCCN)OC(=O)CCC=CCC=CCC=CCC=CCC=CCC=CCC
#inchikey XYYHNDVKALDFHQ-HSBBONCLSA-N
#pubchem_id 6426737
#mb_accession LQB00206,LQB00592

>ms2
78.959000 805.000000
81.069000 90.000000
93.069000 193.000000
95.087000 81.000000
96.967000 132.000000
96.974000 81.000000
105.071000 173.000000
107.087000 286.000000
109.101000 188.000000
117.070000 245.000000
119.085000 122.000000
121.100000 510.000000
121.997000 265.000000
123.117000 213.000000
131.086000 132.000000
133.102000 337.000000
135.117000 264.000000
137.134000 233.000000
140.011000 2462.000000
147.118000 234.000000
149.130000 234.000000
149.140000 111.000000
151.152000 91.000000
152.996000 172.000000
153.092000 101.000000
157.100000 91.000000
159.117000 77.000000
161.130000 183.000000
163.075000 297.000000
163.148000 448.000000
167.109000 84.000000
173.141000 75.000000
175.149000 296.000000
177.092000 142.000000
177.165000 1142.000000
178.023000 142.000000
178.033000 81.000000
181.122000 90.000000
187.150000 153.000000
189.163000 193.000000
191.105000 110.000000
191.179000 1102.000000
193.126000 111.000000
195.433000 94.000000
196.037000 4673.000000
201.168000 110.000000
203.102000 99.000000
203.180000 296.000000
207.134000 104.000000
214.049000 398.000000
215.178000 80.000000
217.121000 110.000000
217.198000 144.000000
219.140000 87.000000
229.126000 83.000000
229.194000 5159.000000
231.136000 115.000000
241.195000 243.000000
243.143000 80.000000
249.172000 244.000000
249.187000 1143.000000
255.194000 102.000000
255.211000 285.000000
257.158000 141.000000
271.171000 161.000000
281.218000 151.000000
281.244000 140.000000
282.349000 81.000000
282.365000 239.000000
282.383000 332.000000
283.190000 55.000000
283.258000 123803.000000
283.507000 73.000000
283.976000 61.000000
284.262000 146.000000
285.260000 63.000000
291.209000 93.000000
297.218000 122.000000
297.237000 81.000000
309.221000 480.000000
310.282000 60.000000
325.214000 81.000000
326.191000 103.000000
326.202000 224.000000
326.216000 282.000000
327.051000 111.000000
327.233000 87273.000000
328.231000 187.000000
406.268000 121.000000
406.286000 81.000000
419.235000 70.000000
419.257000 112.000000
450.236000 216.000000
462.279000 707.000000
462.302000 2902.000000
478.331000 30.000000
478.805000 114.000000
480.309000 21690.000000
480.364000 122.000000
481.300000 52.000000
482.959000 36.000000
506.263000 1580.000000
506.330000 35.000000
524.248000 173.000000
524.275000 967.000000
524.318000 112.000000
655.082000 66.000000
703.532000 73.000000
716.593000 104.000000
772.518000 43.000000
787.995000 92.000000
788.019000 71.000000
788.049000 286.000000
788.079000 163.000000
788.105000 100.000000
789.497000 40.000000
790.322000 40.000000
790.534000 49398.000000
791.502000 69.000000
791.532000 235.000000
791.566000 163.000000

>ms2
78.959000 805.000000
81.069000 90.000000
93.069000 193.000000
95.087000 81.000000
96.967000 132.000000
96.974000 81.000000
105.071000 173.000000
107.087000 286.000000
109.101000 188.000000
117.070000 245.000000
119.085000 122.000000
121.100000 510.000000
121.997000 265.000000
123.117000 213.000000
131.086000 132.000000
133.102000 337.000000
135.117000 264.000000
137.134000 233.000000
140.011000 2462.000000
147.118000 234.000000
149.130000 234.000000
149.140000 111.000000
151.152000 91.000000
152.996000 172.000000
153.092000 101.000000
157.100000 91.000000
159.117000 77.000000
161.130000 183.000000
163.075000 297.000000
163.148000 448.000000
167.109000 84.000000
173.141000 75.000000
175.149000 296.000000
177.092000 142.000000
177.165000 1142.000000
178.023000 142.000000
178.033000 81.000000
181.122000 90.000000
187.150000 153.000000
189.163000 193.000000
191.105000 110.000000
191.179000 1102.000000
193.126000 111.000000
195.433000 94.000000
196.037000 4673.000000
201.168000 110.000000
203.102000 99.000000
203.180000 296.000000
207.134000 104.000000
214.049000 398.000000
215.178000 80.000000
217.121000 110.000000
217.198000 144.000000
219.140000 87.000000
229.126000 83.000000
229.194000 5159.000000
231.136000 115.000000
241.195000 243.000000
243.143000 80.000000
249.172000 244.000000
249.187000 1143.000000
255.194000 102.000000
255.211000 285.000000
257.158000 141.000000
271.171000 161.000000
281.218000 151.000000
281.244000 140.000000
282.349000 81.000000
282.365000 239.000000
282.383000 332.000000
283.190000 55.000000
283.258000 123803.000000
283.507000 73.000000
283.976000 61.000000
284.262000 146.000000
285.260000 63.000000
291.209000 93.000000
297.218000 122.000000
297.237000 81.000000
309.221000 480.000000
310.282000 60.000000
325.214000 81.000000
326.191000 103.000000
326.202000 224.000000
326.216000 282.000000
327.051000 111.000000
327.233000 87273.000000
328.231000 187.000000
406.268000 121.000000
406.286000 81.000000
419.235000 70.000000
419.257000 112.000000
450.236000 216.000000
462.279000 707.000000
462.302000 2902.000000
478.331000 30.000000
478.805000 114.000000
480.309000 21690.000000
480.364000 122.000000
481.300000 52.000000
482.959000 36.000000
506.263000 1580.000000
506.330000 35.000000
524.248000 173.000000
524.275000 967.000000
524.318000 112.000000
655.082000 66.000000
703.532000 73.000000
716.593000 104.000000
772.518000 43.000000
787.995000 92.000000
788.019000 71.000000
788.049000 286.000000
788.079000 163.000000
788.105000 100.000000
789.497000 40.000000
790.322000 40.000000
790.534000 49398.000000
791.502000 69.000000
791.532000 235.000000
791.566000 163.000000

