>compound LQB1851446
>parentmass 750.6931
>ionization [M+CH3COOH-H]-
>formula C45H89NO3
>rt 819.381000
>profile qtof
#smiles_iso CCCCCCCCCCCCCCCCCCCCCCCCC(=O)NC(CO)C(/C=C/CCCCCCCCCCCCCCC)O
#smiles_can CCCCCCCCCCCCCCCCCCCCCCCCC(=O)NC(CO)C(C=CCCCCCCCCCCCCCCC)O
#inchikey VKKLYBSFAQGKDO-OGSMZCTISA-N
#pubchem_id 138280526
#mb_accession LQB00069,LQB00455

>ms2peaks
251.235000 100.000000
265.245000 101.000000
265.252000 112.000000
265.261000 194.000000
277.241000 90.000000
277.263000 60.000000
279.267000 90.000000
291.266000 244.000000
294.271000 55.000000
296.299000 60.000000
305.296000 71.000000
349.342000 93.000000
363.345000 153.000000
363.368000 341.000000
366.371000 60.000000
367.354000 60.000000
377.363000 131.000000
380.385000 336.000000
381.352000 51.000000
381.363000 70.000000
381.372000 71.000000
392.360000 101.000000
392.393000 235.000000
395.384000 115.000000
406.378000 163.000000
406.386000 337.000000
406.403000 1102.000000
408.411000 148.000000
420.396000 50.000000
420.404000 71.000000
420.416000 356.000000
420.431000 102.000000
420.442000 60.000000
422.382000 60.000000
422.401000 50.000000
422.415000 104.000000
434.413000 50.000000
434.430000 184.000000
436.419000 60.000000
642.645000 163.000000
642.676000 43.000000
654.647000 30.000000
658.634000 296.000000
658.653000 91.000000
658.673000 122.000000
660.636000 315.000000
660.659000 448.000000
688.487000 40.000000
690.647000 1839.000000
690.666000 5355.000000
690.682000 1547.000000
690.699000 1191.000000
750.533000 20.000000
750.695000 50.000000

>ms2peaks
251.235000 100.000000
265.245000 101.000000
265.252000 112.000000
265.261000 194.000000
277.241000 90.000000
277.263000 60.000000
279.267000 90.000000
291.266000 244.000000
294.271000 55.000000
296.299000 60.000000
305.296000 71.000000
349.342000 93.000000
363.345000 153.000000
363.368000 341.000000
366.371000 60.000000
367.354000 60.000000
377.363000 131.000000
380.385000 336.000000
381.352000 51.000000
381.363000 70.000000
381.372000 71.000000
392.360000 101.000000
392.393000 235.000000
395.384000 115.000000
406.378000 163.000000
406.386000 337.000000
406.403000 1102.000000
408.411000 148.000000
420.396000 50.000000
420.404000 71.000000
420.416000 356.000000
420.431000 102.000000
420.442000 60.000000
422.382000 60.000000
422.401000 50.000000
422.415000 104.000000
434.413000 50.000000
434.430000 184.000000
436.419000 60.000000
642.645000 163.000000
642.676000 43.000000
654.647000 30.000000
658.634000 296.000000
658.653000 91.000000
658.673000 122.000000
660.636000 315.000000
660.659000 448.000000
688.487000 40.000000
690.647000 1839.000000
690.666000 5355.000000
690.682000 1547.000000
690.699000 1191.000000
750.533000 20.000000
750.695000 50.000000

