>compound LQB1323045
>parentmass 888.5735
>ionization [M+CH3COOH-H]-
>formula C48H80NO8P
>rt 530.975730
>profile qtof
#smiles_iso CCCCC/C=C\C/C=C\CCCCCCCC(=O)OCC(COP(=O)([O-])OCC[N+](C)(C)C)OC(=O)CC/C=C\C/C=C\C/C=C\C/C=C\C/C=C\C/C=C\CC
#smiles_can CCCCCC=CCC=CCCCCCCCC(=O)OCC(COP(=O)([O-])OCC[N+](C)(C)C)OC(=O)CCC=CCC=CCC=CCC=CCC=CCC=CCC
#inchikey FCTKCFNDGVBOBD-ZPBIJWSISA-N
#pubchem_id 24778984
#mb_accession LQB00160,LQB00161,LQB00546,LQB00547

>ms2
78.959000 161.000000
107.087000 60.000000
133.103000 50.000000
152.995000 50.000000
163.150000 70.000000
168.043000 591.000000
175.147000 50.000000
177.164000 203.000000
191.177000 224.000000
191.189000 91.000000
203.177000 75.000000
206.061000 50.000000
217.121000 51.000000
223.002000 120.000000
224.068000 837.000000
229.194000 1091.000000
241.009000 489.000000
249.184000 193.000000
261.219000 50.000000
271.172000 63.000000
278.365000 65.000000
279.231000 14603.000000
281.229000 53.000000
282.343000 49.000000
283.241000 7013.000000
284.265000 337.000000
297.037000 100.000000
297.214000 70.000000
305.246000 417.000000
306.248000 367.000000
309.221000 100.000000
315.051000 40.000000
326.201000 129.000000
327.231000 21694.000000
415.214000 111.000000
419.260000 184.000000
420.254000 234.000000
437.261000 40.000000
486.295000 631.000000
486.310000 193.000000
488.261000 31.000000
495.593000 30.000000
502.736000 47.000000
504.304000 4947.000000
534.293000 255.000000
552.303000 421.000000
581.300000 152.000000
581.331000 30.000000
582.311000 194.000000
599.320000 43.000000
600.317000 50.000000
604.303000 43.000000
726.515000 30.000000
743.461000 81.000000
769.482000 62.000000
806.525000 30.000000
811.917000 40.000000
811.966000 152.000000
812.010000 40.000000
813.583000 30.000000
814.464000 87.000000
814.531000 42647.000000
815.540000 126.000000
816.001000 30.000000
817.259000 30.000000
828.539000 40.000000
829.463000 91.000000
829.491000 468.000000
829.518000 163.000000
885.709000 23.000000
885.787000 53.000000
887.560000 30.000000
888.566000 13446.000000
888.676000 40.000000
893.875000 21.000000

>ms2
78.959000 163.000000
107.088000 60.000000
117.074000 53.000000
121.103000 81.000000
152.996000 121.000000
163.149000 50.000000
168.045000 377.000000
175.147000 70.000000
177.164000 163.000000
191.180000 81.000000
222.999000 110.000000
224.066000 550.000000
229.196000 684.000000
241.011000 253.000000
242.014000 113.000000
242.077000 73.000000
249.189000 234.000000
261.209000 50.000000
278.360000 55.000000
279.233000 12087.000000
281.229000 42.000000
282.355000 92.000000
283.241000 5677.000000
284.270000 245.000000
297.029000 90.000000
297.218000 44.000000
303.244000 120.000000
305.249000 572.000000
306.240000 143.000000
309.219000 60.000000
326.203000 132.000000
327.231000 16837.000000
328.230000 43.000000
415.223000 130.000000
419.252000 112.000000
419.271000 61.000000
420.243000 80.000000
420.261000 142.000000
437.247000 60.000000
486.299000 490.000000
502.729000 52.000000
504.303000 3628.000000
534.295000 214.000000
552.256000 50.000000
552.295000 131.000000
552.321000 153.000000
581.293000 91.000000
581.318000 80.000000
582.304000 193.000000
599.320000 56.000000
600.324000 100.000000
603.297000 100.000000
604.295000 22.000000
622.300000 30.000000
724.496000 30.000000
743.454000 73.000000
769.462000 91.000000
811.950000 121.000000
811.972000 176.000000
812.025000 33.000000
814.288000 35.000000
814.437000 82.000000
814.533000 35924.000000
815.528000 91.000000
815.578000 33.000000
829.468000 84.000000
829.499000 315.000000
829.518000 112.000000
885.737000 50.000000
887.552000 30.000000
888.452000 50.000000
888.526000 1396.000000
888.564000 6592.000000
888.584000 2540.000000
888.698000 23.000000
889.565000 20.000000

>ms2
78.959000 161.000000
107.087000 60.000000
133.103000 50.000000
152.995000 50.000000
163.150000 70.000000
168.043000 591.000000
175.147000 50.000000
177.164000 203.000000
191.177000 224.000000
191.189000 91.000000
203.177000 75.000000
206.061000 50.000000
217.121000 51.000000
223.002000 120.000000
224.068000 837.000000
229.194000 1091.000000
241.009000 489.000000
249.184000 193.000000
261.219000 50.000000
271.172000 63.000000
278.365000 65.000000
279.231000 14603.000000
281.229000 53.000000
282.343000 49.000000
283.241000 7013.000000
284.265000 337.000000
297.037000 100.000000
297.214000 70.000000
305.246000 417.000000
306.248000 367.000000
309.221000 100.000000
315.051000 40.000000
326.201000 129.000000
327.231000 21694.000000
415.214000 111.000000
419.260000 184.000000
420.254000 234.000000
437.261000 40.000000
486.295000 631.000000
486.310000 193.000000
488.261000 31.000000
495.593000 30.000000
502.736000 47.000000
504.304000 4947.000000
534.293000 255.000000
552.303000 421.000000
581.300000 152.000000
581.331000 30.000000
582.311000 194.000000
599.320000 43.000000
600.317000 50.000000
604.303000 43.000000
726.515000 30.000000
743.461000 81.000000
769.482000 62.000000
806.525000 30.000000
811.917000 40.000000
811.966000 152.000000
812.010000 40.000000
813.583000 30.000000
814.464000 87.000000
814.531000 42647.000000
815.540000 126.000000
816.001000 30.000000
817.259000 30.000000
828.539000 40.000000
829.463000 91.000000
829.491000 468.000000
829.518000 163.000000
885.709000 23.000000
885.787000 53.000000
887.560000 30.000000
888.566000 13446.000000
888.676000 40.000000
893.875000 21.000000

>ms2
78.959000 163.000000
107.088000 60.000000
117.074000 53.000000
121.103000 81.000000
152.996000 121.000000
163.149000 50.000000
168.045000 377.000000
175.147000 70.000000
177.164000 163.000000
191.180000 81.000000
222.999000 110.000000
224.066000 550.000000
229.196000 684.000000
241.011000 253.000000
242.014000 113.000000
242.077000 73.000000
249.189000 234.000000
261.209000 50.000000
278.360000 55.000000
279.233000 12087.000000
281.229000 42.000000
282.355000 92.000000
283.241000 5677.000000
284.270000 245.000000
297.029000 90.000000
297.218000 44.000000
303.244000 120.000000
305.249000 572.000000
306.240000 143.000000
309.219000 60.000000
326.203000 132.000000
327.231000 16837.000000
328.230000 43.000000
415.223000 130.000000
419.252000 112.000000
419.271000 61.000000
420.243000 80.000000
420.261000 142.000000
437.247000 60.000000
486.299000 490.000000
502.729000 52.000000
504.303000 3628.000000
534.295000 214.000000
552.256000 50.000000
552.295000 131.000000
552.321000 153.000000
581.293000 91.000000
581.318000 80.000000
582.304000 193.000000
599.320000 56.000000
600.324000 100.000000
603.297000 100.000000
604.295000 22.000000
622.300000 30.000000
724.496000 30.000000
743.454000 73.000000
769.462000 91.000000
811.950000 121.000000
811.972000 176.000000
812.025000 33.000000
814.288000 35.000000
814.437000 82.000000
814.533000 35924.000000
815.528000 91.000000
815.578000 33.000000
829.468000 84.000000
829.499000 315.000000
829.518000 112.000000
885.737000 50.000000
887.552000 30.000000
888.452000 50.000000
888.526000 1396.000000
888.564000 6592.000000
888.584000 2540.000000
888.698000 23.000000
889.565000 20.000000

