>compound LQB1892432
>parentmass 680.61715
>ionization [M+CH3COOH-H]-
>formula C40H79NO3
>rt 784.679400
>profile qtof
#smiles_iso CCCCCCCCCCCCCCCCCCCCCC(=O)NC(CO)C(/C=C/CCCCCCCCCCCCC)O
#smiles_can CCCCCCCCCCCCCCCCCCCCCC(=O)NC(CO)C(C=CCCCCCCCCCCCCC)O
#inchikey KEPQASGDXIEOIL-LAPDZXRHSA-N
#pubchem_id 11399392
#mb_accession LQB00042,LQB00043,LQB00428,LQB00429

>ms2peaks
209.193000 100.000000
223.201000 61.000000
225.227000 101.000000
235.204000 424.000000
236.483000 77.000000
237.220000 11208.000000
239.236000 369.000000
248.235000 70.000000
249.224000 80.000000
250.251000 551.000000
255.228000 122.000000
261.221000 81.000000
262.411000 73.000000
263.205000 116.000000
263.237000 9156.000000
265.248000 205.000000
265.260000 92.000000
266.246000 2419.000000
268.265000 1674.000000
280.268000 91.000000
281.246000 265.000000
291.267000 172.000000
293.284000 213.000000
298.271000 756.000000
310.311000 171.000000
311.287000 91.000000
319.307000 102.000000
320.327000 74.000000
321.314000 13246.000000
323.321000 104.000000
323.339000 80.000000
335.324000 100.000000
336.321000 672.000000
337.347000 1039.000000
338.264000 83.000000
338.340000 12837.000000
339.324000 8796.000000
349.347000 205.000000
352.319000 132.000000
352.350000 284.000000
362.325000 144.000000
362.344000 201.000000
363.203000 122.000000
363.222000 193.000000
363.249000 84.000000
364.355000 52429.000000
365.360000 100.000000
366.362000 123.000000
367.355000 91.000000
378.328000 235.000000
378.347000 224.000000
378.371000 255.000000
379.165000 73.000000
379.336000 185.000000
380.309000 145.000000
380.350000 7367.000000
382.360000 172.000000
382.376000 144.000000
392.364000 157.000000
392.385000 265.000000
392.404000 143.000000
394.366000 152.000000
408.376000 91.000000
545.547000 141.000000
545.577000 63.000000
561.548000 132.000000
561.585000 93.000000
570.556000 60.000000
570.765000 64.000000
572.570000 7941.000000
572.631000 111.000000
574.591000 151.000000
584.547000 61.000000
584.578000 143.000000
588.565000 9902.000000
588.730000 64.000000
589.581000 63.000000
590.581000 16465.000000
592.596000 120.000000
602.564000 347.000000
602.584000 307.000000
602.612000 101.000000
618.610000 245.000000
618.635000 286.000000
618.658000 72.000000
618.703000 95.000000
620.136000 55.000000
620.442000 57.000000
620.591000 67846.000000
621.579000 169.000000
621.609000 128.000000
647.583000 70.000000
647.621000 60.000000
680.607000 101.000000
680.638000 50.000000

>ms2peaks
97.932000 20.000000
237.218000 520.000000
239.235000 20.000000
250.248000 70.000000
263.236000 489.000000
265.254000 225.000000
266.247000 80.000000
268.264000 112.000000
281.242000 20.000000
291.271000 193.000000
293.283000 162.000000
293.301000 60.000000
296.291000 50.000000
298.271000 50.000000
310.295000 70.000000
310.317000 101.000000
311.290000 122.000000
321.293000 153.000000
321.319000 573.000000
336.327000 621.000000
338.323000 81.000000
338.344000 438.000000
339.326000 274.000000
352.323000 110.000000
363.234000 41.000000
364.334000 403.000000
364.356000 2103.000000
380.350000 346.000000
572.548000 112.000000
572.572000 467.000000
572.607000 60.000000
584.570000 33.000000
588.569000 418.000000
588.607000 80.000000
590.540000 70.000000
590.570000 378.000000
590.586000 378.000000
590.605000 101.000000
618.629000 60.000000
618.692000 30.000000
620.594000 9342.000000
647.623000 50.000000

>ms2peaks
209.193000 100.000000
223.201000 61.000000
225.227000 101.000000
235.204000 424.000000
236.483000 77.000000
237.220000 11208.000000
239.236000 369.000000
248.235000 70.000000
249.224000 80.000000
250.251000 551.000000
255.228000 122.000000
261.221000 81.000000
262.411000 73.000000
263.205000 116.000000
263.237000 9156.000000
265.248000 205.000000
265.260000 92.000000
266.246000 2419.000000
268.265000 1674.000000
280.268000 91.000000
281.246000 265.000000
291.267000 172.000000
293.284000 213.000000
298.271000 756.000000
310.311000 171.000000
311.287000 91.000000
319.307000 102.000000
320.327000 74.000000
321.314000 13246.000000
323.321000 104.000000
323.339000 80.000000
335.324000 100.000000
336.321000 672.000000
337.347000 1039.000000
338.264000 83.000000
338.340000 12837.000000
339.324000 8796.000000
349.347000 205.000000
352.319000 132.000000
352.350000 284.000000
362.325000 144.000000
362.344000 201.000000
363.203000 122.000000
363.222000 193.000000
363.249000 84.000000
364.355000 52429.000000
365.360000 100.000000
366.362000 123.000000
367.355000 91.000000
378.328000 235.000000
378.347000 224.000000
378.371000 255.000000
379.165000 73.000000
379.336000 185.000000
380.309000 145.000000
380.350000 7367.000000
382.360000 172.000000
382.376000 144.000000
392.364000 157.000000
392.385000 265.000000
392.404000 143.000000
394.366000 152.000000
408.376000 91.000000
545.547000 141.000000
545.577000 63.000000
561.548000 132.000000
561.585000 93.000000
570.556000 60.000000
570.765000 64.000000
572.570000 7941.000000
572.631000 111.000000
574.591000 151.000000
584.547000 61.000000
584.578000 143.000000
588.565000 9902.000000
588.730000 64.000000
589.581000 63.000000
590.581000 16465.000000
592.596000 120.000000
602.564000 347.000000
602.584000 307.000000
602.612000 101.000000
618.610000 245.000000
618.635000 286.000000
618.658000 72.000000
618.703000 95.000000
620.136000 55.000000
620.442000 57.000000
620.591000 67846.000000
621.579000 169.000000
621.609000 128.000000
647.583000 70.000000
647.621000 60.000000
680.607000 101.000000
680.638000 50.000000

>ms2peaks
97.932000 20.000000
237.218000 520.000000
239.235000 20.000000
250.248000 70.000000
263.236000 489.000000
265.254000 225.000000
266.247000 80.000000
268.264000 112.000000
281.242000 20.000000
291.271000 193.000000
293.283000 162.000000
293.301000 60.000000
296.291000 50.000000
298.271000 50.000000
310.295000 70.000000
310.317000 101.000000
311.290000 122.000000
321.293000 153.000000
321.319000 573.000000
336.327000 621.000000
338.323000 81.000000
338.344000 438.000000
339.326000 274.000000
352.323000 110.000000
363.234000 41.000000
364.334000 403.000000
364.356000 2103.000000
380.350000 346.000000
572.548000 112.000000
572.572000 467.000000
572.607000 60.000000
584.570000 33.000000
588.569000 418.000000
588.607000 80.000000
590.540000 70.000000
590.570000 378.000000
590.586000 378.000000
590.605000 101.000000
618.629000 60.000000
618.692000 30.000000
620.594000 9342.000000
647.623000 50.000000

