>compound LQB1616916
>parentmass 812.5401
>ionization [M-H]-
>formula C44H80NO10P
>rt 536.684280
>profile qtof
#smiles_iso CCCCCCCCCCCCCCCCCC(=O)OCC(COP(=O)(O)OCC(C(=O)O)N)OC(=O)CCCCCCCCC/C=C\C/C=C\C/C=C\CC
#smiles_can CCCCCCCCCCCCCCCCCC(=O)OCC(COP(=O)(O)OCC(C(=O)O)N)OC(=O)CCCCCCCCCC=CCC=CCC=CCC
#inchikey WHUMBFDYURAXQS-JTBMWNAQSA-N
#pubchem_id 138288011
#mb_accession LQB00335,LQB00721

>ms2peaks
78.961000 172.000000
96.971000 41.000000
152.996000 969.000000
181.117000 21.000000
238.410000 20.000000
261.260000 30.000000
267.919000 21.000000
282.378000 52.000000
283.262000 6742.000000
284.266000 144.000000
285.268000 83.000000
303.235000 90.000000
304.223000 51.000000
304.298000 51.000000
305.244000 2237.000000
307.261000 50.000000
347.254000 40.000000
419.249000 3254.000000
420.250000 164.000000
421.254000 30.000000
437.265000 1592.000000
438.260000 50.000000
439.275000 50.000000
441.234000 612.000000
441.262000 71.000000
459.249000 153.000000
688.551000 21.000000
723.200000 50.000000
724.502000 58.000000
725.357000 39.000000
725.499000 6526.000000
725.592000 72.000000
780.530000 33.000000
794.540000 23.000000
809.979000 40.000000
812.469000 216.000000
812.498000 1159.000000
812.535000 5425.000000
813.522000 20.000000

>ms2peaks
78.961000 172.000000
96.971000 41.000000
152.996000 969.000000
181.117000 21.000000
238.410000 20.000000
261.260000 30.000000
267.919000 21.000000
282.378000 52.000000
283.262000 6742.000000
284.266000 144.000000
285.268000 83.000000
303.235000 90.000000
304.223000 51.000000
304.298000 51.000000
305.244000 2237.000000
307.261000 50.000000
347.254000 40.000000
419.249000 3254.000000
420.250000 164.000000
421.254000 30.000000
437.265000 1592.000000
438.260000 50.000000
439.275000 50.000000
441.234000 612.000000
441.262000 71.000000
459.249000 153.000000
688.551000 21.000000
723.200000 50.000000
724.502000 58.000000
725.357000 39.000000
725.499000 6526.000000
725.592000 72.000000
780.530000 33.000000
794.540000 23.000000
809.979000 40.000000
812.469000 216.000000
812.498000 1159.000000
812.535000 5425.000000
813.522000 20.000000

