>compound LQB1639387
>parentmass 869.67435
>ionization [M+CH3COOH-H]-
>formula C47H91N2O6P
>rt 665.815200
>profile qtof
#smiles_iso CCCCCCCCCCCCC/C=C/C(C(COP(=O)([O-])OCC[N+](C)(C)C)NC(=O)CCCCCCCCCCCCCCCC/C=C\C/C=C\CC)O
#smiles_can CCCCCCCCCCCCCC=CC(C(COP(=O)([O-])OCC[N+](C)(C)C)NC(=O)CCCCCCCCCCCCCCCCC=CCC=CCC)O
#inchikey SAFPQDBNJOKZOV-CBMSYKLZSA-N
#pubchem_id 138258344
#mb_accession LQB00374,LQB00375,LQB00760,LQB00761

>ms2peaks
78.958000 882.000000
96.970000 15.000000
122.983000 157.000000
139.005000 10.000000
167.524000 29.000000
168.041000 3350.000000
171.484000 10.000000
183.002000 10.000000
431.315000 17.000000
448.774000 16.000000
449.306000 70.000000
449.326000 80.000000
450.911000 20.000000
548.880000 11.000000
558.479000 16.000000
634.016000 11.000000
706.532000 50.000000
706.557000 45.000000
724.553000 177.000000
750.566000 101.000000
750.598000 81.000000
793.073000 40.000000
793.109000 65.000000
793.132000 151.000000
793.167000 100.000000
794.675000 30.000000
795.394000 31.000000
795.419000 26.000000
795.638000 86484.000000
796.290000 31.000000
796.623000 207.000000
796.660000 172.000000
809.657000 72.000000
810.549000 50.000000
810.585000 285.000000
810.608000 311.000000
810.630000 149.000000
869.629000 430.000000
869.672000 2815.000000
869.707000 362.000000
869.745000 55.000000

>ms2peaks
78.958000 123.000000
122.986000 20.000000
141.019000 15.000000
168.043000 301.000000
179.047000 11.000000
255.230000 10.000000
277.179000 10.000000
303.219000 15.000000
585.929000 10.000000
642.578000 20.000000
643.589000 20.000000
793.080000 20.000000
793.187000 21.000000
795.567000 225.000000
795.607000 842.000000
795.615000 1099.000000
795.640000 5995.000000
795.692000 182.000000
796.627000 32.000000
810.579000 40.000000
810.620000 30.000000
822.612000 20.000000
823.597000 25.000000
823.638000 81.000000
823.678000 45.000000
869.603000 30.000000
869.640000 90.000000
869.662000 168.000000
869.689000 163.000000

>ms2peaks
78.958000 882.000000
96.970000 15.000000
122.983000 157.000000
139.005000 10.000000
167.524000 29.000000
168.041000 3350.000000
171.484000 10.000000
183.002000 10.000000
431.315000 17.000000
448.774000 16.000000
449.306000 70.000000
449.326000 80.000000
450.911000 20.000000
548.880000 11.000000
558.479000 16.000000
634.016000 11.000000
706.532000 50.000000
706.557000 45.000000
724.553000 177.000000
750.566000 101.000000
750.598000 81.000000
793.073000 40.000000
793.109000 65.000000
793.132000 151.000000
793.167000 100.000000
794.675000 30.000000
795.394000 31.000000
795.419000 26.000000
795.638000 86484.000000
796.290000 31.000000
796.623000 207.000000
796.660000 172.000000
809.657000 72.000000
810.549000 50.000000
810.585000 285.000000
810.608000 311.000000
810.630000 149.000000
869.629000 430.000000
869.672000 2815.000000
869.707000 362.000000
869.745000 55.000000

>ms2peaks
78.958000 123.000000
122.986000 20.000000
141.019000 15.000000
168.043000 301.000000
179.047000 11.000000
255.230000 10.000000
277.179000 10.000000
303.219000 15.000000
585.929000 10.000000
642.578000 20.000000
643.589000 20.000000
793.080000 20.000000
793.187000 21.000000
795.567000 225.000000
795.607000 842.000000
795.615000 1099.000000
795.640000 5995.000000
795.692000 182.000000
796.627000 32.000000
810.579000 40.000000
810.620000 30.000000
822.612000 20.000000
823.597000 25.000000
823.638000 81.000000
823.678000 45.000000
869.603000 30.000000
869.640000 90.000000
869.662000 168.000000
869.689000 163.000000

