>compound LQB1505832
>parentmass 759.5633250000001
>ionization [M+CH3COOH-H]-
>formula C39H77N2O6P
>rt 512.456280
>profile qtof
#smiles_iso CCCCCCCCCCCCCCCC(=O)NC(COP(=O)([O-])OCC[N+](C)(C)C)C(/C=C/CC/C=C/CCCCCCCCC)O
#smiles_can CCCCCCCCCCCCCCCC(=O)NC(COP(=O)([O-])OCC[N+](C)(C)C)C(C=CCCC=CCCCCCCCCC)O
#inchikey RYPRHPLEPBYJJE-CUCSTAJMSA-N
#pubchem_id 138257782
#mb_accession LQB00377,LQB00378,LQB00379,LQB00380,LQB00763,LQB00764,LQB00765,LQB00766

>ms2peaks
78.715000 44.000000
78.959000 4942.000000
96.967000 122.000000
122.985000 539.000000
167.521000 157.000000
168.042000 14120.000000
169.076000 35.000000
255.234000 141.000000
269.242000 43.000000
279.222000 71.000000
281.238000 53.000000
293.248000 203.000000
293.272000 40.000000
294.211000 70.000000
307.257000 113.000000
389.126000 40.000000
392.226000 40.000000
404.257000 40.000000
429.285000 90.000000
447.290000 521.000000
447.310000 204.000000
483.256000 23.000000
492.851000 20.000000
495.965000 20.000000
513.221000 20.000000
551.492000 23.000000
577.764000 20.000000
596.435000 121.000000
596.460000 50.000000
612.453000 20.000000
614.401000 50.000000
614.447000 939.000000
614.495000 40.000000
640.447000 153.000000
640.487000 130.000000
669.489000 53.000000
672.445000 30.000000
683.305000 87.000000
683.348000 501.000000
683.375000 325.000000
683.402000 122.000000
684.982000 50.000000
685.165000 63.000000
685.280000 50.000000
685.390000 127.000000
685.520000 154188.000000
685.602000 76.000000
686.467000 82.000000
686.505000 163.000000
686.528000 154.000000
699.545000 55.000000
700.453000 275.000000
700.483000 887.000000
700.511000 204.000000
713.533000 50.000000
741.519000 53.000000
759.450000 51.000000
759.475000 153.000000
759.499000 277.000000
759.521000 684.000000
759.555000 3188.000000

>ms2peaks
78.951000 71.000000
78.959000 470.000000
96.968000 20.000000
122.983000 46.000000
151.730000 10.000000
152.991000 30.000000
168.042000 1706.000000
181.039000 11.000000
196.033000 10.000000
255.219000 35.000000
255.236000 80.000000
256.234000 30.000000
279.232000 45.000000
280.237000 25.000000
281.252000 50.000000
283.259000 40.000000
293.208000 30.000000
293.246000 50.000000
307.265000 20.000000
327.234000 20.000000
391.224000 21.000000
392.247000 16.000000
409.230000 20.000000
447.283000 50.000000
596.434000 16.000000
614.425000 30.000000
614.464000 30.000000
627.474000 25.000000
627.525000 60.000000
640.488000 26.000000
671.471000 10.000000
672.458000 65.000000
683.363000 46.000000
684.521000 21.000000
685.460000 117.000000
685.528000 20759.000000
685.665000 17.000000
685.811000 23.000000
685.975000 17.000000
686.520000 36.000000
686.549000 50.000000
700.470000 55.000000
700.497000 45.000000
700.520000 50.000000
741.483000 21.000000
759.457000 65.000000
759.500000 96.000000
759.556000 184.000000
759.582000 142.000000
759.624000 45.000000

>ms2peaks
78.958000 78.000000
122.982000 8.000000
152.996000 17.000000
168.043000 254.000000
255.231000 42.000000
269.251000 64.000000
279.232000 202.000000
281.250000 22.000000
283.260000 26.000000
293.214000 36.000000
293.247000 58.000000
294.214000 18.000000
307.261000 14.000000
327.233000 9.000000
370.977000 7.000000
404.251000 7.000000
405.239000 9.000000
425.962000 6.000000
447.283000 16.000000
447.316000 10.000000
464.313000 12.000000
479.283000 5.000000
497.282000 11.000000
505.258000 4.000000
596.449000 12.000000
614.448000 8.000000
627.512000 24.000000
627.538000 14.000000
640.466000 5.000000
683.367000 11.000000
683.426000 10.000000
685.445000 11.000000
685.522000 2853.000000
685.588000 14.000000
685.687000 9.000000
700.466000 8.000000
700.497000 18.000000
701.528000 7.000000
727.473000 8.000000
741.527000 14.000000
759.476000 40.000000
759.492000 73.000000
759.519000 237.000000
759.586000 26.000000

>ms2peaks
78.959000 571.000000
136.966000 50.000000
152.994000 72.000000
167.521000 31.000000
168.044000 1851.000000
171.007000 51.000000
255.229000 510.000000
255.253000 91.000000
267.234000 50.000000
269.234000 102.000000
269.249000 266.000000
269.262000 82.000000
279.231000 715.000000
279.252000 82.000000
281.250000 151.000000
283.261000 193.000000
293.236000 111.000000
294.222000 50.000000
405.235000 40.000000
417.234000 43.000000
419.250000 161.000000
437.275000 30.000000
447.285000 101.000000
447.305000 111.000000
465.261000 30.000000
479.264000 33.000000
483.281000 30.000000
489.226000 30.000000
497.298000 50.000000
614.452000 140.000000
640.473000 40.000000
669.483000 20.000000
672.451000 20.000000
683.345000 70.000000
683.383000 104.000000
685.525000 23244.000000
686.531000 53.000000
699.481000 75.000000
700.494000 131.000000
701.526000 151.000000
759.462000 164.000000
759.492000 368.000000
759.522000 1173.000000
759.556000 285.000000
759.603000 50.000000

>ms2peaks
78.715000 44.000000
78.959000 4942.000000
96.967000 122.000000
122.985000 539.000000
167.521000 157.000000
168.042000 14120.000000
169.076000 35.000000
255.234000 141.000000
269.242000 43.000000
279.222000 71.000000
281.238000 53.000000
293.248000 203.000000
293.272000 40.000000
294.211000 70.000000
307.257000 113.000000
389.126000 40.000000
392.226000 40.000000
404.257000 40.000000
429.285000 90.000000
447.290000 521.000000
447.310000 204.000000
483.256000 23.000000
492.851000 20.000000
495.965000 20.000000
513.221000 20.000000
551.492000 23.000000
577.764000 20.000000
596.435000 121.000000
596.460000 50.000000
612.453000 20.000000
614.401000 50.000000
614.447000 939.000000
614.495000 40.000000
640.447000 153.000000
640.487000 130.000000
669.489000 53.000000
672.445000 30.000000
683.305000 87.000000
683.348000 501.000000
683.375000 325.000000
683.402000 122.000000
684.982000 50.000000
685.165000 63.000000
685.280000 50.000000
685.390000 127.000000
685.520000 154188.000000
685.602000 76.000000
686.467000 82.000000
686.505000 163.000000
686.528000 154.000000
699.545000 55.000000
700.453000 275.000000
700.483000 887.000000
700.511000 204.000000
713.533000 50.000000
741.519000 53.000000
759.450000 51.000000
759.475000 153.000000
759.499000 277.000000
759.521000 684.000000
759.555000 3188.000000

>ms2peaks
78.951000 71.000000
78.959000 470.000000
96.968000 20.000000
122.983000 46.000000
151.730000 10.000000
152.991000 30.000000
168.042000 1706.000000
181.039000 11.000000
196.033000 10.000000
255.219000 35.000000
255.236000 80.000000
256.234000 30.000000
279.232000 45.000000
280.237000 25.000000
281.252000 50.000000
283.259000 40.000000
293.208000 30.000000
293.246000 50.000000
307.265000 20.000000
327.234000 20.000000
391.224000 21.000000
392.247000 16.000000
409.230000 20.000000
447.283000 50.000000
596.434000 16.000000
614.425000 30.000000
614.464000 30.000000
627.474000 25.000000
627.525000 60.000000
640.488000 26.000000
671.471000 10.000000
672.458000 65.000000
683.363000 46.000000
684.521000 21.000000
685.460000 117.000000
685.528000 20759.000000
685.665000 17.000000
685.811000 23.000000
685.975000 17.000000
686.520000 36.000000
686.549000 50.000000
700.470000 55.000000
700.497000 45.000000
700.520000 50.000000
741.483000 21.000000
759.457000 65.000000
759.500000 96.000000
759.556000 184.000000
759.582000 142.000000
759.624000 45.000000

>ms2peaks
78.958000 78.000000
122.982000 8.000000
152.996000 17.000000
168.043000 254.000000
255.231000 42.000000
269.251000 64.000000
279.232000 202.000000
281.250000 22.000000
283.260000 26.000000
293.214000 36.000000
293.247000 58.000000
294.214000 18.000000
307.261000 14.000000
327.233000 9.000000
370.977000 7.000000
404.251000 7.000000
405.239000 9.000000
425.962000 6.000000
447.283000 16.000000
447.316000 10.000000
464.313000 12.000000
479.283000 5.000000
497.282000 11.000000
505.258000 4.000000
596.449000 12.000000
614.448000 8.000000
627.512000 24.000000
627.538000 14.000000
640.466000 5.000000
683.367000 11.000000
683.426000 10.000000
685.445000 11.000000
685.522000 2853.000000
685.588000 14.000000
685.687000 9.000000
700.466000 8.000000
700.497000 18.000000
701.528000 7.000000
727.473000 8.000000
741.527000 14.000000
759.476000 40.000000
759.492000 73.000000
759.519000 237.000000
759.586000 26.000000

>ms2peaks
78.959000 571.000000
136.966000 50.000000
152.994000 72.000000
167.521000 31.000000
168.044000 1851.000000
171.007000 51.000000
255.229000 510.000000
255.253000 91.000000
267.234000 50.000000
269.234000 102.000000
269.249000 266.000000
269.262000 82.000000
279.231000 715.000000
279.252000 82.000000
281.250000 151.000000
283.261000 193.000000
293.236000 111.000000
294.222000 50.000000
405.235000 40.000000
417.234000 43.000000
419.250000 161.000000
437.275000 30.000000
447.285000 101.000000
447.305000 111.000000
465.261000 30.000000
479.264000 33.000000
483.281000 30.000000
489.226000 30.000000
497.298000 50.000000
614.452000 140.000000
640.473000 40.000000
669.483000 20.000000
672.451000 20.000000
683.345000 70.000000
683.383000 104.000000
685.525000 23244.000000
686.531000 53.000000
699.481000 75.000000
700.494000 131.000000
701.526000 151.000000
759.462000 164.000000
759.492000 368.000000
759.522000 1173.000000
759.556000 285.000000
759.603000 50.000000

