>compound LQB1894462
>parentmass 896.6301
>ionization [M+CH3COOH-H]-
>formula C48H88NO8P
>rt 679.178400
>profile qtof
#smiles_iso CCCCCCCCCCCCCCCCCCCC(=O)OCC(COP(=O)([O-])OCC[N+](C)(C)C)OC(=O)CCCCCC/C=C\C/C=C\C/C=C\C/C=C\CC
#smiles_can CCCCCCCCCCCCCCCCCCCC(=O)OCC(COP(=O)([O-])OCC[N+](C)(C)C)OC(=O)CCCCCCC=CCC=CCC=CCC=CCC
#inchikey DDIJTWRVGORCFN-QXTOGSPWSA-N
#pubchem_id 138142053
#mb_accession LQB00164,LQB00550

>ms2peaks
89.025000 11.000000
100.933000 18.000000
141.016000 20.000000
158.973000 23.000000
158.990000 5.000000
159.978000 8.000000
168.043000 25.000000
205.194000 20.000000
224.068000 30.000000
240.957000 5.000000
259.238000 87.000000
259.257000 20.000000
283.260000 17.000000
285.214000 9.000000
302.287000 16.000000
303.230000 1915.000000
303.321000 5.000000
310.317000 4.000000
311.293000 750.000000
322.972000 17.000000
328.988000 4.000000
331.245000 5.000000
331.266000 29.000000
404.963000 32.000000
410.980000 7.000000
442.976000 6.000000
447.267000 7.000000
447.291000 5.000000
486.970000 40.000000
487.002000 9.000000
504.329000 4.000000
504.998000 4.000000
510.275000 9.000000
510.296000 14.000000
518.359000 35.000000
525.013000 4.000000
528.292000 15.000000
528.319000 9.000000
536.365000 210.000000
536.395000 18.000000
563.021000 4.000000
568.864000 4.000000
568.964000 15.000000
569.005000 4.000000
605.030000 4.000000
618.572000 5.000000
650.979000 14.000000
683.016000 5.000000
689.018000 5.000000
732.962000 15.000000
751.505000 7.000000
780.583000 10.000000
780.620000 26.000000
780.640000 14.000000
780.659000 12.000000
806.625000 9.000000
808.644000 13.000000
809.578000 5.000000
819.971000 8.000000
820.023000 8.000000
821.647000 6.000000
822.482000 7.000000
822.556000 732.000000
822.593000 2587.000000
822.739000 5.000000
823.577000 12.000000
823.624000 7.000000
836.616000 9.000000
837.530000 9.000000
837.549000 21.000000
852.653000 5.000000
894.140000 2.000000
896.512000 8.000000
896.597000 79.000000
896.631000 206.000000
896.658000 70.000000
896.685000 15.000000
896.713000 10.000000

>ms2peaks
89.025000 11.000000
100.933000 18.000000
141.016000 20.000000
158.973000 23.000000
158.990000 5.000000
159.978000 8.000000
168.043000 25.000000
205.194000 20.000000
224.068000 30.000000
240.957000 5.000000
259.238000 87.000000
259.257000 20.000000
283.260000 17.000000
285.214000 9.000000
302.287000 16.000000
303.230000 1915.000000
303.321000 5.000000
310.317000 4.000000
311.293000 750.000000
322.972000 17.000000
328.988000 4.000000
331.245000 5.000000
331.266000 29.000000
404.963000 32.000000
410.980000 7.000000
442.976000 6.000000
447.267000 7.000000
447.291000 5.000000
486.970000 40.000000
487.002000 9.000000
504.329000 4.000000
504.998000 4.000000
510.275000 9.000000
510.296000 14.000000
518.359000 35.000000
525.013000 4.000000
528.292000 15.000000
528.319000 9.000000
536.365000 210.000000
536.395000 18.000000
563.021000 4.000000
568.864000 4.000000
568.964000 15.000000
569.005000 4.000000
605.030000 4.000000
618.572000 5.000000
650.979000 14.000000
683.016000 5.000000
689.018000 5.000000
732.962000 15.000000
751.505000 7.000000
780.583000 10.000000
780.620000 26.000000
780.640000 14.000000
780.659000 12.000000
806.625000 9.000000
808.644000 13.000000
809.578000 5.000000
819.971000 8.000000
820.023000 8.000000
821.647000 6.000000
822.482000 7.000000
822.556000 732.000000
822.593000 2587.000000
822.739000 5.000000
823.577000 12.000000
823.624000 7.000000
836.616000 9.000000
837.530000 9.000000
837.549000 21.000000
852.653000 5.000000
894.140000 2.000000
896.512000 8.000000
896.597000 79.000000
896.631000 206.000000
896.658000 70.000000
896.685000 15.000000
896.713000 10.000000

