>compound LQB1512950
>parentmass 845.67145
>ionization [M+CH3COOH-H]-
>formula C45H91N2O6P
>rt 732.673200
>profile qtof
#smiles_iso CCCCCCCCCCCCCCCCCCCCCC(=O)NC(COP(=O)([O-])OCC[N+](C)(C)C)C(/C=C/CCCCCCCCCCCCC)O
#smiles_can CCCCCCCCCCCCCCCCCCCCCC(=O)NC(COP(=O)([O-])OCC[N+](C)(C)C)C(C=CCCCCCCCCCCCCC)O
#inchikey FJJANLYCZUNFSE-BSKJHSHCSA-N
#pubchem_id 13832231
#mb_accession LQB00363,LQB00364,LQB00749,LQB00750

>ms2
78.959000 1089.000000
89.027000 30.000000
96.970000 50.000000
113.025000 20.000000
119.040000 20.000000
122.702000 20.000000
122.986000 101.000000
130.001000 21.000000
161.047000 21.000000
167.525000 21.000000
167.678000 21.000000
168.043000 3563.000000
339.333000 30.000000
381.361000 30.000000
431.299000 53.000000
449.293000 111.000000
449.315000 152.000000
500.502000 20.000000
504.875000 20.000000
512.140000 20.000000
618.565000 90.000000
619.564000 141.000000
636.573000 30.000000
637.592000 41.000000
682.532000 74.000000
700.539000 214.000000
700.572000 101.000000
726.560000 110.000000
769.119000 70.000000
769.190000 255.000000
769.228000 63.000000
771.378000 75.000000
771.621000 95196.000000
772.603000 172.000000
772.643000 131.000000
786.571000 623.000000
786.602000 265.000000
798.642000 100.000000
799.591000 154.000000
799.627000 479.000000
799.666000 152.000000
845.622000 321.000000
845.633000 588.000000
845.660000 2247.000000
845.694000 416.000000
845.725000 144.000000

>ms2
122.983000 20.000000
168.042000 642.000000
355.324000 23.000000
356.321000 30.000000
425.544000 20.000000
439.397000 20.000000
449.305000 20.000000
618.597000 45.000000
619.583000 80.000000
637.591000 50.000000
655.603000 20.000000
700.545000 60.000000
726.549000 20.000000
769.180000 62.000000
770.681000 32.000000
771.629000 14877.000000
771.698000 71.000000
772.621000 20.000000
786.592000 101.000000
798.630000 30.000000
799.628000 101.000000
799.665000 100.000000
845.602000 50.000000
845.661000 337.000000
845.701000 81.000000

>ms2
78.959000 1089.000000
89.027000 30.000000
96.970000 50.000000
113.025000 20.000000
119.040000 20.000000
122.702000 20.000000
122.986000 101.000000
130.001000 21.000000
161.047000 21.000000
167.525000 21.000000
167.678000 21.000000
168.043000 3563.000000
339.333000 30.000000
381.361000 30.000000
431.299000 53.000000
449.293000 111.000000
449.315000 152.000000
500.502000 20.000000
504.875000 20.000000
512.140000 20.000000
618.565000 90.000000
619.564000 141.000000
636.573000 30.000000
637.592000 41.000000
682.532000 74.000000
700.539000 214.000000
700.572000 101.000000
726.560000 110.000000
769.119000 70.000000
769.190000 255.000000
769.228000 63.000000
771.378000 75.000000
771.621000 95196.000000
772.603000 172.000000
772.643000 131.000000
786.571000 623.000000
786.602000 265.000000
798.642000 100.000000
799.591000 154.000000
799.627000 479.000000
799.666000 152.000000
845.622000 321.000000
845.633000 588.000000
845.660000 2247.000000
845.694000 416.000000
845.725000 144.000000

>ms2
122.983000 20.000000
168.042000 642.000000
355.324000 23.000000
356.321000 30.000000
425.544000 20.000000
439.397000 20.000000
449.305000 20.000000
618.597000 45.000000
619.583000 80.000000
637.591000 50.000000
655.603000 20.000000
700.545000 60.000000
726.549000 20.000000
769.180000 62.000000
770.681000 32.000000
771.629000 14877.000000
771.698000 71.000000
772.621000 20.000000
786.592000 101.000000
798.630000 30.000000
799.628000 101.000000
799.665000 100.000000
845.602000 50.000000
845.661000 337.000000
845.701000 81.000000

