>compound LQB1046464
>parentmass 810.5032
>ionization [M-H]-
>formula C47H74NO8P
>rt 531.993060
>profile qtof
#smiles_iso CC/C=C\C/C=C\C/C=C\C/C=C\CCCCCCC(=O)OCC(COP(=O)(O)OCCN)OC(=O)CC/C=C\C/C=C\C/C=C\C/C=C\C/C=C\C/C=C\CC
#smiles_can CCC=CCC=CCC=CCC=CCCCCCCC(=O)OCC(COP(=O)(O)OCCN)OC(=O)CCC=CCC=CCC=CCC=CCC=CCC=CCC
#inchikey LMWGIQYUPHCPHA-GGLIIMCGSA-N
#pubchem_id 138203689
#mb_accession LQB00230,LQB00616

>ms2
152.994000 50.000000
196.034000 20.000000
229.194000 40.000000
259.241000 80.000000
281.239000 23.000000
283.232000 102.000000
283.242000 366.000000
283.261000 347.000000
283.270000 64.000000
303.233000 765.000000
327.230000 877.000000
419.246000 80.000000
419.270000 91.000000
437.274000 20.000000
450.298000 20.000000
500.278000 101.000000
723.497000 203.000000
736.546000 20.000000
792.550000 40.000000
807.968000 21.000000
810.484000 413.000000
810.500000 1706.000000
810.516000 589.000000
810.542000 258.000000
810.582000 70.000000

>ms2
152.994000 50.000000
196.034000 20.000000
229.194000 40.000000
259.241000 80.000000
281.239000 23.000000
283.232000 102.000000
283.242000 366.000000
283.261000 347.000000
283.270000 64.000000
303.233000 765.000000
327.230000 877.000000
419.246000 80.000000
419.270000 91.000000
437.274000 20.000000
450.298000 20.000000
500.278000 101.000000
723.497000 203.000000
736.546000 20.000000
792.550000 40.000000
807.968000 21.000000
810.484000 413.000000
810.500000 1706.000000
810.516000 589.000000
810.542000 258.000000
810.582000 70.000000

