>compound LQB1394800
>parentmass 788.5227
>ionization [M-H]-
>formula C45H76NO8P
>rt 546.389880
>profile qtof
#smiles_iso CCCCC/C=C\C/C=C\CCCCCCCC(=O)OCC(COP(=O)(O)OCCN)OC(=O)CCCCC/C=C\C/C=C\C/C=C\C/C=C\C/C=C\CC
#smiles_can CCCCCC=CCC=CCCCCCCCC(=O)OCC(COP(=O)(O)OCCN)OC(=O)CCCCCC=CCC=CCC=CCC=CCC=CCC
#inchikey WMKKKPPOBQRPQF-KXVSDDNQSA-N
#pubchem_id 138289447
#mb_accession LQB00221,LQB00607

>ms2
78.958000 61.000000
96.968000 30.000000
140.013000 131.000000
152.992000 90.000000
168.043000 90.000000
178.027000 20.000000
196.039000 163.000000
209.150000 30.000000
231.212000 70.000000
237.184000 21.000000
245.156000 30.000000
251.203000 20.000000
278.802000 21.000000
279.232000 2638.000000
281.247000 235.000000
283.264000 612.000000
285.260000 347.000000
311.237000 31.000000
327.233000 52.000000
328.220000 61.000000
329.247000 5409.000000
417.237000 122.000000
419.252000 245.000000
419.274000 71.000000
435.246000 30.000000
437.262000 132.000000
458.262000 132.000000
476.272000 368.000000
506.290000 43.000000
508.281000 20.000000
526.289000 60.000000
642.484000 20.000000
701.510000 601.000000
713.555000 132.000000
714.557000 1967.000000
770.534000 21.000000
786.033000 31.000000
788.521000 5615.000000
789.523000 21.000000

>ms2
78.958000 61.000000
96.968000 30.000000
140.013000 131.000000
152.992000 90.000000
168.043000 90.000000
178.027000 20.000000
196.039000 163.000000
209.150000 30.000000
231.212000 70.000000
237.184000 21.000000
245.156000 30.000000
251.203000 20.000000
278.802000 21.000000
279.232000 2638.000000
281.247000 235.000000
283.264000 612.000000
285.260000 347.000000
311.237000 31.000000
327.233000 52.000000
328.220000 61.000000
329.247000 5409.000000
417.237000 122.000000
419.252000 245.000000
419.274000 71.000000
435.246000 30.000000
437.262000 132.000000
458.262000 132.000000
476.272000 368.000000
506.290000 43.000000
508.281000 20.000000
526.289000 60.000000
642.484000 20.000000
701.510000 601.000000
713.555000 132.000000
714.557000 1967.000000
770.534000 21.000000
786.033000 31.000000
788.521000 5615.000000
789.523000 21.000000

