>compound LQB1421757
>parentmass 873.70175
>ionization [M+CH3COOH-H]-
>formula C47H95N2O6P
>rt 784.113900
>profile qtof
#smiles_iso CCCCCCCCCCCCCCCCCCCCCCCC(=O)NC(COP(=O)([O-])OCC[N+](C)(C)C)C(/C=C/CCCCCCCCCCCCC)O
#smiles_can CCCCCCCCCCCCCCCCCCCCCCCC(=O)NC(COP(=O)([O-])OCC[N+](C)(C)C)C(C=CCCCCCCCCCCCCC)O
#inchikey QEDPUVGSSDPBMD-OGSMZCTISA-N
#pubchem_id 13832235
#mb_accession LQB00369,LQB00370,LQB00755,LQB00756

>ms2peaks
78.717000 43.000000
78.958000 5847.000000
89.025000 40.000000
96.969000 183.000000
122.986000 1040.000000
124.997000 40.000000
141.015000 50.000000
167.528000 85.000000
167.885000 54.000000
168.042000 18710.000000
367.343000 142.000000
367.363000 141.000000
431.301000 115.000000
434.829000 74.000000
439.749000 65.000000
440.866000 43.000000
441.722000 60.000000
442.765000 43.000000
444.885000 46.000000
446.660000 43.000000
447.877000 50.000000
448.618000 53.000000
449.309000 1428.000000
450.176000 50.000000
453.663000 83.000000
453.764000 63.000000
455.147000 43.000000
456.265000 43.000000
459.882000 53.000000
470.833000 56.000000
473.216000 64.000000
478.525000 43.000000
493.843000 40.000000
514.928000 50.000000
516.375000 163.000000
562.065000 49.000000
646.605000 40.000000
647.615000 50.000000
649.646000 43.000000
710.558000 183.000000
710.578000 102.000000
710.605000 142.000000
728.537000 153.000000
728.570000 901.000000
728.589000 430.000000
728.610000 717.000000
728.627000 143.000000
741.608000 93.000000
751.605000 73.000000
754.558000 121.000000
754.594000 286.000000
754.618000 489.000000
772.615000 120.000000
781.616000 113.000000
797.063000 112.000000
797.120000 1776.000000
797.168000 910.000000
797.221000 144.000000
797.800000 81.000000
798.288000 78.000000
798.523000 72.000000
798.637000 142.000000
798.747000 80.000000
799.057000 59.000000
799.360000 80.000000
799.383000 81.000000
799.426000 144.000000
799.482000 138.000000
799.523000 367.000000
799.660000 298187.000000
800.468000 82.000000
800.580000 99.000000
800.604000 133.000000
800.655000 1260.000000
800.686000 396.000000
801.063000 80.000000
801.133000 70.000000
801.293000 85.000000
801.528000 80.000000
801.931000 118.000000
802.008000 70.000000
802.378000 93.000000
809.593000 204.000000
813.680000 316.000000
813.723000 111.000000
814.564000 267.000000
814.605000 1155.000000
814.634000 4276.000000
866.146000 43.000000
870.899000 70.000000
870.948000 70.000000
872.599000 20.000000
872.741000 30.000000
872.824000 20.000000
873.137000 20.000000
873.584000 30.000000
873.700000 15947.000000
874.673000 60.000000
874.727000 77.000000
876.212000 53.000000
878.031000 63.000000
878.229000 63.000000

>ms2peaks
78.958000 997.000000
96.970000 60.000000
122.986000 182.000000
149.046000 31.000000
168.043000 4422.000000
179.055000 41.000000
367.362000 60.000000
383.356000 35.000000
431.313000 30.000000
441.359000 30.000000
449.301000 110.000000
449.324000 152.000000
450.116000 24.000000
464.021000 30.000000
493.224000 27.000000
648.622000 30.000000
649.638000 43.000000
650.604000 40.000000
650.641000 101.000000
651.608000 110.000000
651.658000 111.000000
665.640000 30.000000
710.598000 71.000000
728.553000 60.000000
728.609000 173.000000
754.606000 151.000000
797.099000 141.000000
797.134000 92.000000
797.156000 183.000000
797.211000 70.000000
799.494000 84.000000
799.663000 121347.000000
800.095000 57.000000
800.657000 344.000000
800.699000 105.000000
801.253000 63.000000
811.674000 200.000000
812.684000 46.000000
813.641000 131.000000
813.668000 612.000000
813.692000 520.000000
813.737000 131.000000
814.572000 102.000000
814.622000 959.000000
827.678000 60.000000
873.643000 227.000000
873.700000 4701.000000
873.789000 40.000000

>ms2peaks
78.717000 43.000000
78.958000 5847.000000
89.025000 40.000000
96.969000 183.000000
122.986000 1040.000000
124.997000 40.000000
141.015000 50.000000
167.528000 85.000000
167.885000 54.000000
168.042000 18710.000000
367.343000 142.000000
367.363000 141.000000
431.301000 115.000000
434.829000 74.000000
439.749000 65.000000
440.866000 43.000000
441.722000 60.000000
442.765000 43.000000
444.885000 46.000000
446.660000 43.000000
447.877000 50.000000
448.618000 53.000000
449.309000 1428.000000
450.176000 50.000000
453.663000 83.000000
453.764000 63.000000
455.147000 43.000000
456.265000 43.000000
459.882000 53.000000
470.833000 56.000000
473.216000 64.000000
478.525000 43.000000
493.843000 40.000000
514.928000 50.000000
516.375000 163.000000
562.065000 49.000000
646.605000 40.000000
647.615000 50.000000
649.646000 43.000000
710.558000 183.000000
710.578000 102.000000
710.605000 142.000000
728.537000 153.000000
728.570000 901.000000
728.589000 430.000000
728.610000 717.000000
728.627000 143.000000
741.608000 93.000000
751.605000 73.000000
754.558000 121.000000
754.594000 286.000000
754.618000 489.000000
772.615000 120.000000
781.616000 113.000000
797.063000 112.000000
797.120000 1776.000000
797.168000 910.000000
797.221000 144.000000
797.800000 81.000000
798.288000 78.000000
798.523000 72.000000
798.637000 142.000000
798.747000 80.000000
799.057000 59.000000
799.360000 80.000000
799.383000 81.000000
799.426000 144.000000
799.482000 138.000000
799.523000 367.000000
799.660000 298187.000000
800.468000 82.000000
800.580000 99.000000
800.604000 133.000000
800.655000 1260.000000
800.686000 396.000000
801.063000 80.000000
801.133000 70.000000
801.293000 85.000000
801.528000 80.000000
801.931000 118.000000
802.008000 70.000000
802.378000 93.000000
809.593000 204.000000
813.680000 316.000000
813.723000 111.000000
814.564000 267.000000
814.605000 1155.000000
814.634000 4276.000000
866.146000 43.000000
870.899000 70.000000
870.948000 70.000000
872.599000 20.000000
872.741000 30.000000
872.824000 20.000000
873.137000 20.000000
873.584000 30.000000
873.700000 15947.000000
874.673000 60.000000
874.727000 77.000000
876.212000 53.000000
878.031000 63.000000
878.229000 63.000000

>ms2peaks
78.958000 997.000000
96.970000 60.000000
122.986000 182.000000
149.046000 31.000000
168.043000 4422.000000
179.055000 41.000000
367.362000 60.000000
383.356000 35.000000
431.313000 30.000000
441.359000 30.000000
449.301000 110.000000
449.324000 152.000000
450.116000 24.000000
464.021000 30.000000
493.224000 27.000000
648.622000 30.000000
649.638000 43.000000
650.604000 40.000000
650.641000 101.000000
651.608000 110.000000
651.658000 111.000000
665.640000 30.000000
710.598000 71.000000
728.553000 60.000000
728.609000 173.000000
754.606000 151.000000
797.099000 141.000000
797.134000 92.000000
797.156000 183.000000
797.211000 70.000000
799.494000 84.000000
799.663000 121347.000000
800.095000 57.000000
800.657000 344.000000
800.699000 105.000000
801.253000 63.000000
811.674000 200.000000
812.684000 46.000000
813.641000 131.000000
813.668000 612.000000
813.692000 520.000000
813.737000 131.000000
814.572000 102.000000
814.622000 959.000000
827.678000 60.000000
873.643000 227.000000
873.700000 4701.000000
873.789000 40.000000

