>compound LQB1024754
>parentmass 928.6982
>ionization [M+CH3COOH-H]-
>formula C50H96NO8P
>rt 785.173800
>profile qtof
#smiles_iso CCCCCCCCCC/C=C\CCCCCCCCCCCC(=O)OC(COC(=O)CCCCCCC/C=C\CCCCCCCC)COP(=O)([O-])OCC[N+](C)(C)C
#smiles_can CCCCCCCCCCC=CCCCCCCCCCCCC(=O)OC(COC(=O)CCCCCCCC=CCCCCCCCC)COP(=O)([O-])OCC[N+](C)(C)C
#inchikey YKGOAHUQOKSYEX-XWNIBSQQSA-N
#pubchem_id 138305555
#mb_accession LQB00153,LQB00539

>ms2
111.011000 50.000000
116.926000 132.000000
116.971000 480.000000
117.018000 46.000000
117.056000 33.000000
208.485000 30.000000
224.073000 40.000000
253.219000 113.000000
255.230000 33.000000
279.227000 51.000000
280.368000 63.000000
281.248000 3374.000000
283.252000 50.000000
307.270000 30.000000
309.276000 31.000000
337.304000 81.000000
339.335000 53.000000
363.304000 60.000000
363.323000 131.000000
365.336000 1418.000000
365.356000 285.000000
365.385000 30.000000
366.374000 20.000000
369.330000 20.000000
383.353000 30.000000
393.364000 20.000000
464.843000 30.000000
474.139000 20.000000
488.328000 20.000000
506.321000 70.000000
511.007000 20.000000
572.404000 93.000000
590.416000 224.000000
590.450000 49.000000
618.456000 20.000000
644.602000 20.000000
646.610000 20.000000
648.599000 70.000000
648.626000 174.000000
648.654000 40.000000
650.629000 30.000000
664.615000 120.000000
666.626000 30.000000
676.661000 20.000000
718.645000 53.000000
790.669000 48.000000
810.658000 112.000000
810.695000 174.000000
812.650000 73.000000
812.700000 111.000000
846.694000 50.000000
851.984000 41.000000
854.618000 456.000000
854.660000 6525.000000
855.661000 40.000000
868.618000 173.000000
868.647000 294.000000
868.669000 92.000000
868.701000 50.000000
869.567000 45.000000
928.598000 40.000000
928.643000 164.000000
928.673000 377.000000
928.699000 439.000000
928.718000 132.000000
928.741000 173.000000

>ms2
111.011000 50.000000
116.926000 132.000000
116.971000 480.000000
117.018000 46.000000
117.056000 33.000000
208.485000 30.000000
224.073000 40.000000
253.219000 113.000000
255.230000 33.000000
279.227000 51.000000
280.368000 63.000000
281.248000 3374.000000
283.252000 50.000000
307.270000 30.000000
309.276000 31.000000
337.304000 81.000000
339.335000 53.000000
363.304000 60.000000
363.323000 131.000000
365.336000 1418.000000
365.356000 285.000000
365.385000 30.000000
366.374000 20.000000
369.330000 20.000000
383.353000 30.000000
393.364000 20.000000
464.843000 30.000000
474.139000 20.000000
488.328000 20.000000
506.321000 70.000000
511.007000 20.000000
572.404000 93.000000
590.416000 224.000000
590.450000 49.000000
618.456000 20.000000
644.602000 20.000000
646.610000 20.000000
648.599000 70.000000
648.626000 174.000000
648.654000 40.000000
650.629000 30.000000
664.615000 120.000000
666.626000 30.000000
676.661000 20.000000
718.645000 53.000000
790.669000 48.000000
810.658000 112.000000
810.695000 174.000000
812.650000 73.000000
812.700000 111.000000
846.694000 50.000000
851.984000 41.000000
854.618000 456.000000
854.660000 6525.000000
855.661000 40.000000
868.618000 173.000000
868.647000 294.000000
868.669000 92.000000
868.701000 50.000000
869.567000 45.000000
928.598000 40.000000
928.643000 164.000000
928.673000 377.000000
928.699000 439.000000
928.718000 132.000000
928.741000 173.000000

