>compound LQB1305170
>parentmass 822.6027
>ionization [M-H]-
>formula C47H86NO8P
>rt 739.587600
>profile qtof
#smiles_iso CCCCCCCCCCCCCCCCCC(=O)OCC(COP(=O)(O)OCCN)OC(=O)CCCCCCCCCC/C=C\C/C=C\C/C=C\C/C=C\CC
#smiles_can CCCCCCCCCCCCCCCCCC(=O)OCC(COP(=O)(O)OCCN)OC(=O)CCCCCCCCCCC=CCC=CCC=CCC=CCC
#inchikey CNFXZBRCOHOJAB-PYQGTGCGSA-N
#pubchem_id 138136786
#mb_accession LQB00207,LQB00593

>ms2
140.011000 40.000000
158.975000 10.000000
196.038000 40.000000
246.982000 15.000000
248.810000 10.000000
254.663000 10.000000
279.758000 10.000000
283.262000 1162.000000
284.262000 10.000000
286.975000 20.000000
314.959000 10.000000
315.307000 30.000000
328.987000 16.000000
331.265000 26.000000
341.289000 11.000000
357.277000 10.000000
358.165000 15.000000
359.293000 3608.000000
359.338000 25.000000
368.963000 11.000000
383.018000 15.000000
406.267000 10.000000
462.306000 21.000000
480.297000 96.000000
480.318000 86.000000
513.299000 10.000000
538.323000 35.000000
556.340000 21.000000
615.059000 10.000000
629.523000 10.000000
630.505000 15.000000
719.588000 36.000000
740.575000 15.000000
762.642000 18.000000
772.642000 10.000000
772.695000 10.000000
822.510000 25.000000
822.534000 81.000000
822.574000 1266.000000
822.611000 2404.000000
822.653000 173.000000
823.639000 10.000000

>ms2
140.011000 40.000000
158.975000 10.000000
196.038000 40.000000
246.982000 15.000000
248.810000 10.000000
254.663000 10.000000
279.758000 10.000000
283.262000 1162.000000
284.262000 10.000000
286.975000 20.000000
314.959000 10.000000
315.307000 30.000000
328.987000 16.000000
331.265000 26.000000
341.289000 11.000000
357.277000 10.000000
358.165000 15.000000
359.293000 3608.000000
359.338000 25.000000
368.963000 11.000000
383.018000 15.000000
406.267000 10.000000
462.306000 21.000000
480.297000 96.000000
480.318000 86.000000
513.299000 10.000000
538.323000 35.000000
556.340000 21.000000
615.059000 10.000000
629.523000 10.000000
630.505000 15.000000
719.588000 36.000000
740.575000 15.000000
762.642000 18.000000
772.642000 10.000000
772.695000 10.000000
822.510000 25.000000
822.534000 81.000000
822.574000 1266.000000
822.611000 2404.000000
822.653000 173.000000
823.639000 10.000000

