>compound LQB2493610
>parentmass 775.5406
>ionization [M-H]-
>formula C42H81O10P
>rt 550.811460
>profile qtof
#smiles_iso CCCCCCCCCCCCCCCCCC(=O)OCC(COP(=O)(O)OCC(CO)O)OC(=O)CCCCCCC/C=C\CCCCCCCC
#smiles_can CCCCCCCCCCCCCCCCCC(=O)OCC(COP(=O)(O)OCC(CO)O)OC(=O)CCCCCCCC=CCCCCCCCC
#inchikey ZEFGRNLJASLRBZ-ZZEZOPTASA-N
#pubchem_id 71767679
#mb_accession LQB00256,LQB00642

>ms2peaks
152.994000 203.000000
171.008000 50.000000
227.032000 60.000000
255.226000 246.000000
255.239000 225.000000
280.360000 31.000000
281.248000 2294.000000
283.263000 929.000000
297.254000 21.000000
309.275000 1548.000000
391.228000 92.000000
419.224000 50.000000
419.269000 33.000000
459.763000 20.000000
465.257000 30.000000
483.277000 40.000000
491.269000 40.000000
493.290000 70.000000
509.290000 23.000000
511.276000 60.000000
511.298000 111.000000
675.479000 60.000000
701.562000 90.000000
743.549000 30.000000
773.078000 30.000000
775.495000 252.000000
775.533000 3110.000000
775.562000 1552.000000
775.612000 78.000000

>ms2peaks
152.994000 203.000000
171.008000 50.000000
227.032000 60.000000
255.226000 246.000000
255.239000 225.000000
280.360000 31.000000
281.248000 2294.000000
283.263000 929.000000
297.254000 21.000000
309.275000 1548.000000
391.228000 92.000000
419.224000 50.000000
419.269000 33.000000
459.763000 20.000000
465.257000 30.000000
483.277000 40.000000
491.269000 40.000000
493.290000 70.000000
509.290000 23.000000
511.276000 60.000000
511.298000 111.000000
675.479000 60.000000
701.562000 90.000000
743.549000 30.000000
773.078000 30.000000
775.495000 252.000000
775.533000 3110.000000
775.562000 1552.000000
775.612000 78.000000

