>compound LQB2046659
>parentmass 821.5299
>ionization [M-H]-
>formula C46H79O10P
>rt 527.046600
>profile qtof
#smiles_iso CCCCCCCCCCCCCCCCCC(=O)OCC(COP(=O)(O)OCC(CO)O)OC(=O)CC/C=C\C/C=C\C/C=C\C/C=C\C/C=C\C/C=C\CC
#smiles_can CCCCCCCCCCCCCCCCCC(=O)OCC(COP(=O)(O)OCC(CO)O)OC(=O)CCC=CCC=CCC=CCC=CCC=CCC=CCC
#inchikey CLQKBJHAUYGCOB-HSBBONCLSA-N
#pubchem_id 134724320
#mb_accession LQB00260,LQB00646

>ms2
152.999000 30.000000
195.003000 30.000000
229.201000 50.000000
249.187000 20.000000
279.226000 50.000000
281.243000 20.000000
283.240000 295.000000
283.262000 601.000000
284.260000 30.000000
327.231000 641.000000
328.231000 51.000000
427.738000 20.000000
461.266000 60.000000
479.277000 187.000000
493.291000 23.000000
629.522000 43.000000
739.515000 20.000000
747.514000 20.000000
787.007000 21.000000
789.487000 1241.000000
789.520000 480.000000
821.520000 642.000000
821.541000 540.000000
821.573000 81.000000
821.614000 20.000000

>ms2
152.999000 30.000000
195.003000 30.000000
229.201000 50.000000
249.187000 20.000000
279.226000 50.000000
281.243000 20.000000
283.240000 295.000000
283.262000 601.000000
284.260000 30.000000
327.231000 641.000000
328.231000 51.000000
427.738000 20.000000
461.266000 60.000000
479.277000 187.000000
493.291000 23.000000
629.522000 43.000000
739.515000 20.000000
747.514000 20.000000
787.007000 21.000000
789.487000 1241.000000
789.520000 480.000000
821.520000 642.000000
821.541000 540.000000
821.573000 81.000000
821.614000 20.000000

