>compound LQB2849174
>parentmass 773.5330666666665
>ionization [M-H]-
>formula C42H79O10P
>rt 527.012320
>profile qtof
#smiles_iso CCCCCCCCCCCCCCCC(=O)OCC(COP(=O)(O)OCC(CO)O)OC(=O)CCCCCCCCC/C=C\C/C=C\CCCCC
#smiles_can CCCCCCCCCCCCCCCC(=O)OCC(COP(=O)(O)OCC(CO)O)OC(=O)CCCCCCCCCC=CCC=CCCCCC
#inchikey KDFIYBDWNQKADP-BCTRXSSUSA-N
#pubchem_id 138192286
#mb_accession LQB00244,LQB00245,LQB00246,LQB00630,LQB00631,LQB00632

>ms2
152.995000 224.000000
160.555000 23.000000
170.997000 70.000000
171.009000 173.000000
195.006000 30.000000
209.021000 63.000000
227.032000 173.000000
254.433000 63.000000
255.233000 3495.000000
279.232000 1662.000000
281.246000 837.000000
283.253000 184.000000
283.267000 296.000000
283.283000 73.000000
306.307000 50.000000
307.265000 11387.000000
391.223000 360.000000
419.249000 60.000000
443.253000 40.000000
465.251000 224.000000
465.284000 40.000000
479.279000 20.000000
483.268000 439.000000
483.283000 91.000000
489.273000 20.000000
493.294000 30.000000
507.275000 23.000000
511.303000 83.000000
517.288000 90.000000
535.306000 80.000000
699.491000 65.000000
699.539000 80.000000
741.506000 336.000000
741.546000 71.000000
771.067000 30.000000
771.130000 60.000000
773.532000 16595.000000
773.616000 162.000000
773.743000 24.000000
773.858000 23.000000
774.513000 83.000000
774.647000 23.000000

>ms2
78.958000 102.000000
152.987000 112.000000
152.997000 327.000000
170.999000 91.000000
171.010000 143.000000
209.021000 80.000000
227.028000 122.000000
227.049000 62.000000
255.230000 3820.000000
261.217000 45.000000
279.187000 41.000000
279.230000 6394.000000
280.237000 40.000000
281.233000 61.000000
281.250000 522.000000
282.377000 52.000000
283.262000 2641.000000
307.263000 11789.000000
308.268000 41.000000
391.224000 326.000000
409.225000 40.000000
415.219000 40.000000
419.236000 81.000000
419.255000 142.000000
443.254000 53.000000
465.228000 60.000000
465.266000 173.000000
483.256000 162.000000
483.271000 254.000000
483.285000 92.000000
489.250000 60.000000
493.292000 143.000000
507.268000 30.000000
511.269000 40.000000
511.297000 246.000000
517.262000 40.000000
517.299000 96.000000
535.291000 83.000000
699.520000 204.000000
699.542000 214.000000
699.591000 60.000000
741.484000 235.000000
741.516000 416.000000
771.051000 33.000000
771.083000 53.000000
771.126000 40.000000
773.458000 181.000000
773.526000 18111.000000
773.635000 53.000000
774.506000 26.000000
774.549000 33.000000

>ms2
152.996000 170.000000
171.009000 74.000000
227.031000 20.000000
253.214000 30.000000
255.236000 428.000000
279.232000 2375.000000
281.245000 398.000000
281.262000 71.000000
283.264000 1019.000000
306.299000 20.000000
307.241000 92.000000
307.265000 1255.000000
391.225000 63.000000
415.227000 40.000000
417.228000 23.000000
419.253000 40.000000
459.253000 20.000000
465.261000 60.000000
477.264000 30.000000
483.275000 70.000000
489.259000 50.000000
493.286000 70.000000
511.267000 40.000000
511.310000 141.000000
517.297000 40.000000
535.288000 20.000000
699.514000 20.000000
700.468000 20.000000
741.466000 91.000000
741.503000 234.000000
741.524000 133.000000
771.102000 30.000000
773.528000 5201.000000
773.605000 95.000000

>ms2
152.995000 224.000000
160.555000 23.000000
170.997000 70.000000
171.009000 173.000000
195.006000 30.000000
209.021000 63.000000
227.032000 173.000000
254.433000 63.000000
255.233000 3495.000000
279.232000 1662.000000
281.246000 837.000000
283.253000 184.000000
283.267000 296.000000
283.283000 73.000000
306.307000 50.000000
307.265000 11387.000000
391.223000 360.000000
419.249000 60.000000
443.253000 40.000000
465.251000 224.000000
465.284000 40.000000
479.279000 20.000000
483.268000 439.000000
483.283000 91.000000
489.273000 20.000000
493.294000 30.000000
507.275000 23.000000
511.303000 83.000000
517.288000 90.000000
535.306000 80.000000
699.491000 65.000000
699.539000 80.000000
741.506000 336.000000
741.546000 71.000000
771.067000 30.000000
771.130000 60.000000
773.532000 16595.000000
773.616000 162.000000
773.743000 24.000000
773.858000 23.000000
774.513000 83.000000
774.647000 23.000000

>ms2
78.958000 102.000000
152.987000 112.000000
152.997000 327.000000
170.999000 91.000000
171.010000 143.000000
209.021000 80.000000
227.028000 122.000000
227.049000 62.000000
255.230000 3820.000000
261.217000 45.000000
279.187000 41.000000
279.230000 6394.000000
280.237000 40.000000
281.233000 61.000000
281.250000 522.000000
282.377000 52.000000
283.262000 2641.000000
307.263000 11789.000000
308.268000 41.000000
391.224000 326.000000
409.225000 40.000000
415.219000 40.000000
419.236000 81.000000
419.255000 142.000000
443.254000 53.000000
465.228000 60.000000
465.266000 173.000000
483.256000 162.000000
483.271000 254.000000
483.285000 92.000000
489.250000 60.000000
493.292000 143.000000
507.268000 30.000000
511.269000 40.000000
511.297000 246.000000
517.262000 40.000000
517.299000 96.000000
535.291000 83.000000
699.520000 204.000000
699.542000 214.000000
699.591000 60.000000
741.484000 235.000000
741.516000 416.000000
771.051000 33.000000
771.083000 53.000000
771.126000 40.000000
773.458000 181.000000
773.526000 18111.000000
773.635000 53.000000
774.506000 26.000000
774.549000 33.000000

>ms2
152.996000 170.000000
171.009000 74.000000
227.031000 20.000000
253.214000 30.000000
255.236000 428.000000
279.232000 2375.000000
281.245000 398.000000
281.262000 71.000000
283.264000 1019.000000
306.299000 20.000000
307.241000 92.000000
307.265000 1255.000000
391.225000 63.000000
415.227000 40.000000
417.228000 23.000000
419.253000 40.000000
459.253000 20.000000
465.261000 60.000000
477.264000 30.000000
483.275000 70.000000
489.259000 50.000000
493.286000 70.000000
511.267000 40.000000
511.310000 141.000000
517.297000 40.000000
535.288000 20.000000
699.514000 20.000000
700.468000 20.000000
741.466000 91.000000
741.503000 234.000000
741.524000 133.000000
771.102000 30.000000
773.528000 5201.000000
773.605000 95.000000

