>compound LQB2015666
>parentmass 642.5667
>ionization [M+CH3COOH-H]-
>formula C36H73NO4
>rt 615.207600
>profile qtof
#smiles_iso CCCCCCCCCCCCCCCCCC(=O)NC(CO)C(C(CCCCCCCCCCCCCC)O)O
#smiles_can CCCCCCCCCCCCCCCCCC(=O)NC(CO)C(C(CCCCCCCCCCCCCC)O)O
#inchikey IEZRNEGTKRQRFV-UHFFFAOYSA-N
#pubchem_id 10303767
#mb_accession LQB00016,LQB00402

>ms2peaks
225.225000 33.000000
255.233000 63.000000
265.255000 53.000000
267.233000 70.000000
279.223000 20.000000
282.276000 84.000000
283.263000 469.000000
296.301000 30.000000
308.295000 161.000000
316.273000 100.000000
324.290000 204.000000
326.292000 122.000000
326.312000 255.000000
338.308000 101.000000
516.504000 30.000000
546.528000 50.000000
564.531000 61.000000
582.510000 112.000000
582.539000 961.000000
582.572000 224.000000

>ms2peaks
225.225000 33.000000
255.233000 63.000000
265.255000 53.000000
267.233000 70.000000
279.223000 20.000000
282.276000 84.000000
283.263000 469.000000
296.301000 30.000000
308.295000 161.000000
316.273000 100.000000
324.290000 204.000000
326.292000 122.000000
326.312000 255.000000
338.308000 101.000000
516.504000 30.000000
546.528000 50.000000
564.531000 61.000000
582.510000 112.000000
582.539000 961.000000
582.572000 224.000000

