>compound LQB2477203
>parentmass 821.5344500000001
>ionization [M-H]-
>formula C46H79O10P
>rt 491.314560
>profile qtof
#smiles_iso CCCCCCCC/C=C\CCCCCCCC(=O)OCC(COP(=O)(O)OCC(CO)O)OC(=O)CCCCC/C=C\C/C=C\C/C=C\C/C=C\C/C=C\CC
#smiles_can CCCCCCCCC=CCCCCCCCC(=O)OCC(COP(=O)(O)OCC(CO)O)OC(=O)CCCCCC=CCC=CCC=CCC=CCC=CCC
#inchikey JAMPNNNOPHDTDM-LKVUMQLBSA-N
#pubchem_id 138183060
#mb_accession LQB00268,LQB00269,LQB00654,LQB00655

>ms2
152.997000 45.000000
231.200000 15.000000
255.229000 21.000000
279.230000 45.000000
281.246000 1917.000000
283.266000 70.000000
285.250000 35.000000
285.270000 65.000000
297.266000 15.000000
301.218000 28.000000
328.220000 16.000000
328.977000 20.000000
329.246000 1106.000000
329.263000 285.000000
331.270000 50.000000
417.243000 18.000000
419.258000 20.000000
435.252000 15.000000
437.265000 20.000000
438.273000 16.000000
464.300000 16.000000
465.237000 41.000000
465.313000 15.000000
491.272000 15.000000
509.257000 10.000000
509.308000 10.000000
539.272000 20.000000
557.285000 35.000000
629.494000 11.000000
629.540000 11.000000
683.461000 15.000000
716.483000 10.000000
719.484000 10.000000
734.516000 10.000000
738.519000 10.000000
760.625000 10.000000
761.643000 11.000000
803.468000 20.000000
821.513000 1686.000000
821.543000 1327.000000
821.571000 256.000000
821.599000 85.000000
821.727000 10.000000
822.548000 10.000000

>ms2
152.995000 194.000000
227.037000 30.000000
231.211000 160.000000
251.198000 51.000000
255.236000 40.000000
273.184000 30.000000
279.235000 204.000000
280.373000 168.000000
281.181000 50.000000
281.247000 14032.000000
282.249000 40.000000
283.273000 32.000000
285.260000 652.000000
303.229000 30.000000
307.264000 70.000000
327.236000 50.000000
328.224000 105.000000
329.147000 28.000000
329.247000 10915.000000
330.255000 47.000000
331.255000 111.000000
331.272000 121.000000
435.247000 33.000000
464.321000 40.000000
465.244000 53.000000
465.318000 53.000000
489.262000 30.000000
491.278000 163.000000
509.274000 224.000000
509.297000 100.000000
539.260000 50.000000
539.285000 101.000000
541.270000 30.000000
557.275000 101.000000
557.303000 50.000000
627.526000 20.000000
629.554000 33.000000
743.427000 20.000000
761.625000 50.000000
803.487000 20.000000
818.905000 43.000000
818.995000 50.000000
820.294000 30.000000
821.456000 102.000000
821.535000 14549.000000
821.611000 160.000000
822.523000 35.000000

>ms2
152.997000 45.000000
231.200000 15.000000
255.229000 21.000000
279.230000 45.000000
281.246000 1917.000000
283.266000 70.000000
285.250000 35.000000
285.270000 65.000000
297.266000 15.000000
301.218000 28.000000
328.220000 16.000000
328.977000 20.000000
329.246000 1106.000000
329.263000 285.000000
331.270000 50.000000
417.243000 18.000000
419.258000 20.000000
435.252000 15.000000
437.265000 20.000000
438.273000 16.000000
464.300000 16.000000
465.237000 41.000000
465.313000 15.000000
491.272000 15.000000
509.257000 10.000000
509.308000 10.000000
539.272000 20.000000
557.285000 35.000000
629.494000 11.000000
629.540000 11.000000
683.461000 15.000000
716.483000 10.000000
719.484000 10.000000
734.516000 10.000000
738.519000 10.000000
760.625000 10.000000
761.643000 11.000000
803.468000 20.000000
821.513000 1686.000000
821.543000 1327.000000
821.571000 256.000000
821.599000 85.000000
821.727000 10.000000
822.548000 10.000000

>ms2
152.995000 194.000000
227.037000 30.000000
231.211000 160.000000
251.198000 51.000000
255.236000 40.000000
273.184000 30.000000
279.235000 204.000000
280.373000 168.000000
281.181000 50.000000
281.247000 14032.000000
282.249000 40.000000
283.273000 32.000000
285.260000 652.000000
303.229000 30.000000
307.264000 70.000000
327.236000 50.000000
328.224000 105.000000
329.147000 28.000000
329.247000 10915.000000
330.255000 47.000000
331.255000 111.000000
331.272000 121.000000
435.247000 33.000000
464.321000 40.000000
465.244000 53.000000
465.318000 53.000000
489.262000 30.000000
491.278000 163.000000
509.274000 224.000000
509.297000 100.000000
539.260000 50.000000
539.285000 101.000000
541.270000 30.000000
557.275000 101.000000
557.303000 50.000000
627.526000 20.000000
629.554000 33.000000
743.427000 20.000000
761.625000 50.000000
803.487000 20.000000
818.905000 43.000000
818.995000 50.000000
820.294000 30.000000
821.456000 102.000000
821.535000 14549.000000
821.611000 160.000000
822.523000 35.000000

