>compound LQB2997864
>parentmass 808.5079
>ionization [M-H]-
>formula C44H76NO10P
>rt 509.714880
>profile qtof
#smiles_iso CCCCCCCCCCCCCCCCCC(=O)OCC(COP(=O)(O)OCC(C(=O)O)N)OC(=O)CCC/C=C\C/C=C\C/C=C\C/C=C\C/C=C\CC
#smiles_can CCCCCCCCCCCCCCCCCC(=O)OCC(COP(=O)(O)OCC(C(=O)O)N)OC(=O)CCCC=CCC=CCC=CCC=CCC=CCC
#inchikey DERBZMCOPJTRSZ-GLWDABGQSA-N
#pubchem_id 138142497
#mb_accession LQB00337,LQB00723

>ms2
78.959000 356.000000
96.969000 64.000000
140.011000 61.000000
152.994000 1255.000000
171.004000 63.000000
196.041000 30.000000
203.184000 60.000000
229.196000 50.000000
255.227000 264.000000
255.237000 122.000000
256.235000 162.000000
257.226000 276.000000
281.249000 90.000000
282.376000 60.000000
283.230000 115.000000
283.262000 8269.000000
283.312000 51.000000
301.213000 2317.000000
327.229000 379.000000
329.238000 60.000000
343.212000 50.000000
343.239000 100.000000
391.235000 111.000000
392.221000 75.000000
409.231000 60.000000
417.240000 50.000000
419.252000 3976.000000
437.203000 378.000000
437.218000 234.000000
437.263000 1363.000000
437.281000 326.000000
455.208000 116.000000
498.258000 50.000000
524.276000 53.000000
647.466000 43.000000
648.455000 131.000000
721.421000 211.000000
721.472000 7597.000000
740.504000 30.000000
790.473000 43.000000
790.515000 70.000000
790.541000 111.000000
805.922000 31.000000
808.432000 185.000000
808.502000 7440.000000
808.548000 537.000000
808.590000 92.000000
809.471000 60.000000
809.515000 90.000000

>ms2
78.959000 356.000000
96.969000 64.000000
140.011000 61.000000
152.994000 1255.000000
171.004000 63.000000
196.041000 30.000000
203.184000 60.000000
229.196000 50.000000
255.227000 264.000000
255.237000 122.000000
256.235000 162.000000
257.226000 276.000000
281.249000 90.000000
282.376000 60.000000
283.230000 115.000000
283.262000 8269.000000
283.312000 51.000000
301.213000 2317.000000
327.229000 379.000000
329.238000 60.000000
343.212000 50.000000
343.239000 100.000000
391.235000 111.000000
392.221000 75.000000
409.231000 60.000000
417.240000 50.000000
419.252000 3976.000000
437.203000 378.000000
437.218000 234.000000
437.263000 1363.000000
437.281000 326.000000
455.208000 116.000000
498.258000 50.000000
524.276000 53.000000
647.466000 43.000000
648.455000 131.000000
721.421000 211.000000
721.472000 7597.000000
740.504000 30.000000
790.473000 43.000000
790.515000 70.000000
790.541000 111.000000
805.922000 31.000000
808.432000 185.000000
808.502000 7440.000000
808.548000 537.000000
808.590000 92.000000
809.471000 60.000000
809.515000 90.000000

