>compound LQB2473926
>parentmass 866.5885999999999
>ionization [M+CH3COOH-H]-
>formula C46H82NO8P
>rt 569.282520
>profile qtof
#smiles_iso CCCCCCCCCCCCCCCC(=O)OCC(COP(=O)([O-])OCC[N+](C)(C)C)OC(=O)CCCCC/C=C\C/C=C\C/C=C\C/C=C\C/C=C\CC
#smiles_can CCCCCCCCCCCCCCCC(=O)OCC(COP(=O)([O-])OCC[N+](C)(C)C)OC(=O)CCCCCC=CCC=CCC=CCC=CCC=CCC
#inchikey ARDJUHDXABDVFH-BPFCGSCHSA-N
#pubchem_id 24778738
#mb_accession LQB00113,LQB00114,LQB00115,LQB00499,LQB00500,LQB00501

>ms2peaks
78.958000 184.000000
152.996000 90.000000
168.042000 947.000000
179.179000 91.000000
205.192000 111.000000
224.067000 1214.000000
231.196000 82.000000
231.214000 532.000000
242.080000 184.000000
251.198000 254.000000
251.211000 114.000000
254.441000 135.000000
255.232000 24099.000000
256.237000 63.000000
257.216000 60.000000
257.240000 52.000000
259.173000 95.000000
259.244000 202.000000
273.177000 60.000000
281.244000 919.000000
281.254000 296.000000
281.259000 213.000000
283.246000 102.000000
285.257000 3312.000000
303.231000 3033.000000
311.227000 101.000000
311.243000 121.000000
327.231000 121.000000
328.183000 60.000000
328.216000 316.000000
329.246000 60751.000000
330.256000 53.000000
391.226000 120.000000
406.263000 91.000000
409.230000 50.000000
444.916000 45.000000
462.271000 132.000000
462.297000 1387.000000
465.243000 80.000000
478.808000 82.000000
480.284000 837.000000
480.306000 4752.000000
480.326000 1185.000000
488.303000 132.000000
495.270000 33.000000
497.689000 30.000000
506.306000 71.000000
506.324000 327.000000
510.304000 30.000000
528.304000 40.000000
536.294000 194.000000
536.312000 458.000000
536.344000 102.000000
554.320000 591.000000
721.453000 50.000000
721.497000 100.000000
747.493000 161.000000
790.026000 122.000000
790.052000 214.000000
790.086000 143.000000
791.539000 55.000000
791.614000 80.000000
792.401000 122.000000
792.548000 58984.000000
793.020000 46.000000
793.069000 52.000000
793.542000 166.000000
793.565000 152.000000
807.475000 91.000000
807.507000 643.000000
807.549000 226.000000
866.519000 135.000000
866.546000 901.000000
866.582000 4754.000000
866.610000 2197.000000
866.635000 388.000000

>ms2peaks
133.103000 40.000000
151.146000 40.000000
168.042000 388.000000
179.182000 80.000000
193.193000 40.000000
224.068000 369.000000
231.211000 488.000000
242.079000 46.000000
245.187000 37.000000
251.203000 107.000000
254.433000 62.000000
255.231000 6955.000000
281.248000 31.000000
283.258000 124.000000
284.382000 44.000000
285.257000 3671.000000
303.234000 60.000000
311.234000 134.000000
328.225000 93.000000
329.128000 45.000000
329.165000 43.000000
329.246000 16699.000000
330.245000 84.000000
391.225000 69.000000
462.301000 336.000000
480.291000 541.000000
480.305000 2494.000000
482.303000 20.000000
513.781000 20.000000
536.312000 203.000000
550.391000 20.000000
554.334000 131.000000
721.472000 60.000000
790.012000 38.000000
790.062000 83.000000
792.550000 25793.000000
793.563000 40.000000
807.497000 167.000000
807.527000 193.000000
866.539000 144.000000
866.581000 2249.000000
866.607000 721.000000

>ms2peaks
78.956000 61.000000
152.993000 50.000000
168.043000 571.000000
224.068000 560.000000
231.212000 296.000000
242.076000 111.000000
251.199000 114.000000
254.372000 54.000000
254.440000 51.000000
255.231000 12122.000000
257.231000 52.000000
259.169000 51.000000
259.240000 121.000000
281.246000 929.000000
283.244000 63.000000
285.257000 1612.000000
302.274000 69.000000
303.231000 2656.000000
311.225000 40.000000
311.241000 113.000000
327.233000 80.000000
328.203000 50.000000
328.228000 123.000000
329.248000 29250.000000
329.319000 42.000000
330.260000 40.000000
391.223000 102.000000
409.242000 40.000000
433.230000 40.000000
462.295000 501.000000
462.313000 81.000000
480.306000 2457.000000
488.313000 20.000000
495.273000 20.000000
506.325000 213.000000
536.315000 308.000000
554.319000 213.000000
554.357000 50.000000
656.734000 39.000000
721.471000 50.000000
747.480000 90.000000
747.544000 33.000000
790.066000 140.000000
791.581000 50.000000
792.552000 38042.000000
793.552000 83.000000
800.483000 28.000000
807.484000 101.000000
807.516000 358.000000
807.563000 50.000000
808.512000 29.000000
866.527000 70.000000
866.589000 3796.000000

>ms2peaks
78.958000 184.000000
152.996000 90.000000
168.042000 947.000000
179.179000 91.000000
205.192000 111.000000
224.067000 1214.000000
231.196000 82.000000
231.214000 532.000000
242.080000 184.000000
251.198000 254.000000
251.211000 114.000000
254.441000 135.000000
255.232000 24099.000000
256.237000 63.000000
257.216000 60.000000
257.240000 52.000000
259.173000 95.000000
259.244000 202.000000
273.177000 60.000000
281.244000 919.000000
281.254000 296.000000
281.259000 213.000000
283.246000 102.000000
285.257000 3312.000000
303.231000 3033.000000
311.227000 101.000000
311.243000 121.000000
327.231000 121.000000
328.183000 60.000000
328.216000 316.000000
329.246000 60751.000000
330.256000 53.000000
391.226000 120.000000
406.263000 91.000000
409.230000 50.000000
444.916000 45.000000
462.271000 132.000000
462.297000 1387.000000
465.243000 80.000000
478.808000 82.000000
480.284000 837.000000
480.306000 4752.000000
480.326000 1185.000000
488.303000 132.000000
495.270000 33.000000
497.689000 30.000000
506.306000 71.000000
506.324000 327.000000
510.304000 30.000000
528.304000 40.000000
536.294000 194.000000
536.312000 458.000000
536.344000 102.000000
554.320000 591.000000
721.453000 50.000000
721.497000 100.000000
747.493000 161.000000
790.026000 122.000000
790.052000 214.000000
790.086000 143.000000
791.539000 55.000000
791.614000 80.000000
792.401000 122.000000
792.548000 58984.000000
793.020000 46.000000
793.069000 52.000000
793.542000 166.000000
793.565000 152.000000
807.475000 91.000000
807.507000 643.000000
807.549000 226.000000
866.519000 135.000000
866.546000 901.000000
866.582000 4754.000000
866.610000 2197.000000
866.635000 388.000000

>ms2peaks
133.103000 40.000000
151.146000 40.000000
168.042000 388.000000
179.182000 80.000000
193.193000 40.000000
224.068000 369.000000
231.211000 488.000000
242.079000 46.000000
245.187000 37.000000
251.203000 107.000000
254.433000 62.000000
255.231000 6955.000000
281.248000 31.000000
283.258000 124.000000
284.382000 44.000000
285.257000 3671.000000
303.234000 60.000000
311.234000 134.000000
328.225000 93.000000
329.128000 45.000000
329.165000 43.000000
329.246000 16699.000000
330.245000 84.000000
391.225000 69.000000
462.301000 336.000000
480.291000 541.000000
480.305000 2494.000000
482.303000 20.000000
513.781000 20.000000
536.312000 203.000000
550.391000 20.000000
554.334000 131.000000
721.472000 60.000000
790.012000 38.000000
790.062000 83.000000
792.550000 25793.000000
793.563000 40.000000
807.497000 167.000000
807.527000 193.000000
866.539000 144.000000
866.581000 2249.000000
866.607000 721.000000

>ms2peaks
78.956000 61.000000
152.993000 50.000000
168.043000 571.000000
224.068000 560.000000
231.212000 296.000000
242.076000 111.000000
251.199000 114.000000
254.372000 54.000000
254.440000 51.000000
255.231000 12122.000000
257.231000 52.000000
259.169000 51.000000
259.240000 121.000000
281.246000 929.000000
283.244000 63.000000
285.257000 1612.000000
302.274000 69.000000
303.231000 2656.000000
311.225000 40.000000
311.241000 113.000000
327.233000 80.000000
328.203000 50.000000
328.228000 123.000000
329.248000 29250.000000
329.319000 42.000000
330.260000 40.000000
391.223000 102.000000
409.242000 40.000000
433.230000 40.000000
462.295000 501.000000
462.313000 81.000000
480.306000 2457.000000
488.313000 20.000000
495.273000 20.000000
506.325000 213.000000
536.315000 308.000000
554.319000 213.000000
554.357000 50.000000
656.734000 39.000000
721.471000 50.000000
747.480000 90.000000
747.544000 33.000000
790.066000 140.000000
791.581000 50.000000
792.552000 38042.000000
793.552000 83.000000
800.483000 28.000000
807.484000 101.000000
807.516000 358.000000
807.563000 50.000000
808.512000 29.000000
866.527000 70.000000
866.589000 3796.000000

