>compound LQB2126403
>parentmass 678.6006
>ionization [M+CH3COOH-H]-
>formula C40H77NO3
>rt 753.664200
>profile qtof
#smiles_iso CCCCCCCCCCCCCCCCCCCCCC(=O)NC(CO)C(/C=C/CC/C=C/CCCCCCCCC)O
#smiles_can CCCCCCCCCCCCCCCCCCCCCC(=O)NC(CO)C(C=CCCC=CCCCCCCCCC)O
#inchikey AWTNSRHUZXWBCO-MXBGQREFSA-N
#pubchem_id 138123086
#mb_accession LQB00057,LQB00443

>ms2peaks
183.877000 23.000000
235.206000 2061.000000
237.222000 95.000000
248.240000 90.000000
249.217000 16.000000
260.405000 20.000000
261.218000 1417.000000
264.233000 306.000000
266.246000 285.000000
279.232000 75.000000
296.257000 160.000000
319.309000 50.000000
321.312000 3028.000000
337.332000 105.000000
337.344000 168.000000
337.356000 107.000000
338.264000 35.000000
338.338000 2379.000000
338.377000 25.000000
339.322000 1479.000000
339.346000 112.000000
352.353000 67.000000
362.321000 25.000000
362.341000 55.000000
363.213000 62.000000
364.356000 11308.000000
378.331000 131.000000
379.152000 35.000000
380.339000 367.000000
380.353000 1269.000000
382.362000 73.000000
382.379000 45.000000
411.012000 26.000000
505.433000 20.000000
543.547000 41.000000
559.536000 25.000000
570.521000 122.000000
570.553000 1361.000000
570.593000 128.000000
582.561000 31.000000
586.531000 925.000000
586.555000 1449.000000
588.536000 394.000000
588.567000 2866.000000
588.641000 25.000000
590.575000 50.000000
600.530000 25.000000
600.554000 70.000000
600.572000 81.000000
616.581000 30.000000
616.630000 91.000000
618.499000 55.000000
618.578000 23760.000000
618.651000 50.000000
618.702000 26.000000
619.582000 40.000000
645.603000 41.000000
678.601000 50.000000

>ms2peaks
183.877000 23.000000
235.206000 2061.000000
237.222000 95.000000
248.240000 90.000000
249.217000 16.000000
260.405000 20.000000
261.218000 1417.000000
264.233000 306.000000
266.246000 285.000000
279.232000 75.000000
296.257000 160.000000
319.309000 50.000000
321.312000 3028.000000
337.332000 105.000000
337.344000 168.000000
337.356000 107.000000
338.264000 35.000000
338.338000 2379.000000
338.377000 25.000000
339.322000 1479.000000
339.346000 112.000000
352.353000 67.000000
362.321000 25.000000
362.341000 55.000000
363.213000 62.000000
364.356000 11308.000000
378.331000 131.000000
379.152000 35.000000
380.339000 367.000000
380.353000 1269.000000
382.362000 73.000000
382.379000 45.000000
411.012000 26.000000
505.433000 20.000000
543.547000 41.000000
559.536000 25.000000
570.521000 122.000000
570.553000 1361.000000
570.593000 128.000000
582.561000 31.000000
586.531000 925.000000
586.555000 1449.000000
588.536000 394.000000
588.567000 2866.000000
588.641000 25.000000
590.575000 50.000000
600.530000 25.000000
600.554000 70.000000
600.572000 81.000000
616.581000 30.000000
616.630000 91.000000
618.499000 55.000000
618.578000 23760.000000
618.651000 50.000000
618.702000 26.000000
619.582000 40.000000
645.603000 41.000000
678.601000 50.000000

