>compound LQB2152408
>parentmass 706.6312
>ionization [M+CH3COOH-H]-
>formula C42H81NO3
>rt 787.517400
>profile qtof
#smiles_iso CCCCCCCCCCCCCCCCCCCCCCCC(=O)NC(CO)C(/C=C/CC/C=C/CCCCCCCCC)O
#smiles_can CCCCCCCCCCCCCCCCCCCCCCCC(=O)NC(CO)C(C=CCCC=CCCCCCCCCC)O
#inchikey ZCUCZYYSYGKQQV-GHQHJQBOSA-N
#pubchem_id 138311445
#mb_accession LQB00059,LQB00445

>ms2peaks
217.193000 61.000000
223.202000 51.000000
233.187000 121.000000
234.470000 62.000000
235.204000 10681.000000
237.221000 422.000000
238.950000 47.000000
248.237000 581.000000
249.222000 133.000000
253.216000 152.000000
260.413000 84.000000
261.220000 9308.000000
262.211000 46.000000
263.240000 134.000000
264.209000 91.000000
264.232000 1255.000000
266.247000 1468.000000
279.222000 148.000000
279.234000 235.000000
296.256000 521.000000
347.326000 215.000000
348.243000 92.000000
348.370000 63.000000
349.344000 13950.000000
351.360000 142.000000
364.347000 154.000000
365.348000 164.000000
365.374000 838.000000
365.399000 93.000000
366.327000 104.000000
366.371000 11991.000000
367.357000 7072.000000
380.391000 152.000000
381.364000 73.000000
390.335000 69.000000
390.372000 490.000000
390.386000 133.000000
391.152000 238.000000
392.386000 52168.000000
392.580000 67.000000
406.364000 234.000000
407.363000 235.000000
407.402000 115.000000
408.381000 7809.000000
410.388000 245.000000
410.406000 163.000000
420.380000 90.000000
422.385000 101.000000
559.564000 60.000000
571.565000 133.000000
571.597000 70.000000
587.548000 183.000000
587.591000 110.000000
596.573000 61.000000
598.541000 329.000000
598.571000 1751.000000
598.593000 6354.000000
600.592000 101.000000
610.578000 152.000000
610.607000 60.000000
612.632000 63.000000
614.580000 9517.000000
614.660000 57.000000
616.599000 14382.000000
618.615000 77.000000
628.491000 91.000000
628.519000 275.000000
628.567000 205.000000
628.599000 420.000000
628.632000 90.000000
644.564000 580.000000
644.599000 71.000000
644.622000 140.000000
646.472000 81.000000
646.500000 111.000000
646.606000 72474.000000
646.672000 74.000000
647.563000 60.000000
647.605000 91.000000
647.627000 172.000000
690.590000 20.000000
706.531000 20.000000
706.613000 202.000000
706.650000 60.000000

>ms2peaks
217.193000 61.000000
223.202000 51.000000
233.187000 121.000000
234.470000 62.000000
235.204000 10681.000000
237.221000 422.000000
238.950000 47.000000
248.237000 581.000000
249.222000 133.000000
253.216000 152.000000
260.413000 84.000000
261.220000 9308.000000
262.211000 46.000000
263.240000 134.000000
264.209000 91.000000
264.232000 1255.000000
266.247000 1468.000000
279.222000 148.000000
279.234000 235.000000
296.256000 521.000000
347.326000 215.000000
348.243000 92.000000
348.370000 63.000000
349.344000 13950.000000
351.360000 142.000000
364.347000 154.000000
365.348000 164.000000
365.374000 838.000000
365.399000 93.000000
366.327000 104.000000
366.371000 11991.000000
367.357000 7072.000000
380.391000 152.000000
381.364000 73.000000
390.335000 69.000000
390.372000 490.000000
390.386000 133.000000
391.152000 238.000000
392.386000 52168.000000
392.580000 67.000000
406.364000 234.000000
407.363000 235.000000
407.402000 115.000000
408.381000 7809.000000
410.388000 245.000000
410.406000 163.000000
420.380000 90.000000
422.385000 101.000000
559.564000 60.000000
571.565000 133.000000
571.597000 70.000000
587.548000 183.000000
587.591000 110.000000
596.573000 61.000000
598.541000 329.000000
598.571000 1751.000000
598.593000 6354.000000
600.592000 101.000000
610.578000 152.000000
610.607000 60.000000
612.632000 63.000000
614.580000 9517.000000
614.660000 57.000000
616.599000 14382.000000
618.615000 77.000000
628.491000 91.000000
628.519000 275.000000
628.567000 205.000000
628.599000 420.000000
628.632000 90.000000
644.564000 580.000000
644.599000 71.000000
644.622000 140.000000
646.472000 81.000000
646.500000 111.000000
646.606000 72474.000000
646.672000 74.000000
647.563000 60.000000
647.605000 91.000000
647.627000 172.000000
690.590000 20.000000
706.531000 20.000000
706.613000 202.000000
706.650000 60.000000

