>compound LQB2692124
>parentmass 817.6402
>ionization [M+CH3COOH-H]-
>formula C43H87N2O6P
>rt 648.348900
>profile qtof
#smiles_iso CCCCCCCCCCCCCCCCCCCC(=O)NC(COP(=O)([O-])OCC[N+](C)(C)C)C(/C=C/CCCCCCCCCCCCC)O
#smiles_can CCCCCCCCCCCCCCCCCCCC(=O)NC(COP(=O)([O-])OCC[N+](C)(C)C)C(C=CCCCCCCCCCCCCC)O
#inchikey AADLTHQNYQJHQV-JMUUFCRMSA-N
#pubchem_id 13832227
#mb_accession LQB00359,LQB00360,LQB00745,LQB00746

>ms2
78.959000 500.000000
96.971000 20.000000
122.984000 40.000000
139.003000 21.000000
139.288000 21.000000
168.042000 1657.000000
168.057000 124.000000
279.232000 20.000000
311.303000 33.000000
406.979000 23.000000
415.314000 20.000000
418.870000 20.000000
421.321000 20.000000
431.036000 20.000000
449.312000 131.000000
460.310000 20.000000
654.520000 20.000000
672.533000 110.000000
698.557000 53.000000
741.250000 145.000000
743.443000 33.000000
743.602000 38151.000000
743.679000 57.000000
743.834000 42.000000
744.613000 123.000000
758.560000 224.000000
758.594000 132.000000
817.640000 1000.000000
817.676000 122.000000

>ms2
78.959000 520.000000
83.379000 21.000000
122.983000 51.000000
168.043000 1370.000000
255.224000 33.000000
281.261000 20.000000
305.253000 35.000000
407.994000 30.000000
412.529000 20.000000
413.781000 20.000000
424.787000 20.000000
435.640000 23.000000
449.301000 94.000000
609.570000 20.000000
654.511000 20.000000
672.531000 121.000000
698.520000 43.000000
741.195000 30.000000
741.286000 65.000000
743.599000 28509.000000
743.706000 33.000000
744.587000 63.000000
758.543000 102.000000
758.563000 71.000000
770.611000 30.000000
771.581000 40.000000
771.610000 100.000000
771.643000 70.000000
799.632000 30.000000
817.574000 61.000000
817.594000 71.000000
817.611000 103.000000
817.639000 448.000000
817.672000 316.000000

>ms2
78.959000 500.000000
96.971000 20.000000
122.984000 40.000000
139.003000 21.000000
139.288000 21.000000
168.042000 1657.000000
168.057000 124.000000
279.232000 20.000000
311.303000 33.000000
406.979000 23.000000
415.314000 20.000000
418.870000 20.000000
421.321000 20.000000
431.036000 20.000000
449.312000 131.000000
460.310000 20.000000
654.520000 20.000000
672.533000 110.000000
698.557000 53.000000
741.250000 145.000000
743.443000 33.000000
743.602000 38151.000000
743.679000 57.000000
743.834000 42.000000
744.613000 123.000000
758.560000 224.000000
758.594000 132.000000
817.640000 1000.000000
817.676000 122.000000

>ms2
78.959000 520.000000
83.379000 21.000000
122.983000 51.000000
168.043000 1370.000000
255.224000 33.000000
281.261000 20.000000
305.253000 35.000000
407.994000 30.000000
412.529000 20.000000
413.781000 20.000000
424.787000 20.000000
435.640000 23.000000
449.301000 94.000000
609.570000 20.000000
654.511000 20.000000
672.531000 121.000000
698.520000 43.000000
741.195000 30.000000
741.286000 65.000000
743.599000 28509.000000
743.706000 33.000000
744.587000 63.000000
758.543000 102.000000
758.563000 71.000000
770.611000 30.000000
771.581000 40.000000
771.610000 100.000000
771.643000 70.000000
799.632000 30.000000
817.574000 61.000000
817.594000 71.000000
817.611000 103.000000
817.639000 448.000000
817.672000 316.000000

