>compound LQB2229802
>parentmass 670.5963
>ionization [M+CH3COOH-H]-
>formula C38H77NO4
>rt 681.813000
>profile qtof
#smiles_iso CCCCCCCCCCCCCCCCCCCC(=O)NC(CO)C(C(CCCCCCCCCCCCCC)O)O
#smiles_can CCCCCCCCCCCCCCCCCCCC(=O)NC(CO)C(C(CCCCCCCCCCCCCC)O)O
#inchikey HFJJUTILDZFUOE-UHFFFAOYSA-N
#pubchem_id 14757377
#mb_accession LQB00017,LQB00403

>ms2peaks
225.225000 15.000000
237.221000 20.000000
255.231000 76.000000
267.230000 254.000000
279.233000 15.000000
280.261000 20.000000
284.255000 15.000000
293.283000 25.000000
295.298000 25.000000
306.315000 18.000000
310.311000 147.000000
311.293000 300.000000
325.306000 11.000000
326.306000 10.000000
328.297000 10.000000
334.314000 10.000000
336.314000 25.000000
336.324000 80.000000
341.052000 10.000000
348.319000 15.000000
351.317000 15.000000
352.318000 240.000000
354.335000 545.000000
366.335000 407.000000
389.079000 15.000000
544.538000 38.000000
562.547000 15.000000
566.544000 15.000000
574.550000 105.000000
578.544000 50.000000
592.571000 60.000000
608.643000 20.000000
610.572000 1958.000000
610.766000 11.000000
647.644000 30.000000

>ms2peaks
225.225000 15.000000
237.221000 20.000000
255.231000 76.000000
267.230000 254.000000
279.233000 15.000000
280.261000 20.000000
284.255000 15.000000
293.283000 25.000000
295.298000 25.000000
306.315000 18.000000
310.311000 147.000000
311.293000 300.000000
325.306000 11.000000
326.306000 10.000000
328.297000 10.000000
334.314000 10.000000
336.314000 25.000000
336.324000 80.000000
341.052000 10.000000
348.319000 15.000000
351.317000 15.000000
352.318000 240.000000
354.335000 545.000000
366.335000 407.000000
389.079000 15.000000
544.538000 38.000000
562.547000 15.000000
566.544000 15.000000
574.550000 105.000000
578.544000 50.000000
592.571000 60.000000
608.643000 20.000000
610.572000 1958.000000
610.766000 11.000000
647.644000 30.000000

