>compound LQB2522947
>parentmass 850.5575
>ionization [M+CH3COOH-H]-
>formula C45H78NO8P
>rt 533.209620
>profile qtof
#smiles_iso CCCCCCCCCCCCCCC(=O)OCC(COP(=O)([O-])OCC[N+](C)(C)C)OC(=O)CC/C=C\C/C=C\C/C=C\C/C=C\C/C=C\C/C=C\CC
#smiles_can CCCCCCCCCCCCCCC(=O)OCC(COP(=O)([O-])OCC[N+](C)(C)C)OC(=O)CCC=CCC=CCC=CCC=CCC=CCC=CCC
#inchikey GEINPYKZLFHHIL-BDWYRQGHSA-N
#pubchem_id 16666986
#mb_accession LQB00097,LQB00483

>ms2
168.040000 20.000000
175.145000 30.000000
177.164000 20.000000
191.181000 40.000000
215.179000 30.000000
224.069000 50.000000
229.191000 131.000000
241.214000 735.000000
249.190000 30.000000
255.226000 65.000000
279.218000 23.000000
283.240000 479.000000
283.255000 102.000000
283.265000 131.000000
301.216000 20.000000
303.235000 20.000000
309.227000 20.000000
313.210000 61.000000
327.230000 1660.000000
448.283000 60.000000
466.285000 244.000000
466.297000 81.000000
479.288000 30.000000
480.299000 50.000000
552.297000 20.000000
758.557000 20.000000
763.508000 53.000000
768.491000 20.000000
776.433000 31.000000
776.476000 166.000000
776.500000 662.000000
776.521000 3169.000000
789.510000 21.000000
790.477000 111.000000
790.492000 151.000000
790.502000 122.000000
790.517000 214.000000
850.515000 50.000000
850.532000 71.000000
850.565000 520.000000

>ms2
168.040000 20.000000
175.145000 30.000000
177.164000 20.000000
191.181000 40.000000
215.179000 30.000000
224.069000 50.000000
229.191000 131.000000
241.214000 735.000000
249.190000 30.000000
255.226000 65.000000
279.218000 23.000000
283.240000 479.000000
283.255000 102.000000
283.265000 131.000000
301.216000 20.000000
303.235000 20.000000
309.227000 20.000000
313.210000 61.000000
327.230000 1660.000000
448.283000 60.000000
466.285000 244.000000
466.297000 81.000000
479.288000 30.000000
480.299000 50.000000
552.297000 20.000000
758.557000 20.000000
763.508000 53.000000
768.491000 20.000000
776.433000 31.000000
776.476000 166.000000
776.500000 662.000000
776.521000 3169.000000
789.510000 21.000000
790.477000 111.000000
790.492000 151.000000
790.502000 122.000000
790.517000 214.000000
850.515000 50.000000
850.532000 71.000000
850.565000 520.000000

