>compound LQB2176420
>parentmass 795.5156
>ionization [M-H]-
>formula C44H77O10P
>rt 488.846610
>profile qtof
#smiles_iso CCCCCCCC/C=C\CCCCCCCC(=O)OCC(COP(=O)(O)OCC(CO)O)OC(=O)CCCCCC/C=C\C/C=C\C/C=C\C/C=C\CC
#smiles_can CCCCCCCCC=CCCCCCCCC(=O)OCC(COP(=O)(O)OCC(CO)O)OC(=O)CCCCCCC=CCC=CCC=CCC=CCC
#inchikey ODHQFFNXKQCMPG-HAGCXRLMSA-N
#pubchem_id 138225719
#mb_accession LQB00265,LQB00266,LQB00651,LQB00652

>ms2peaks
152.991000 183.000000
153.000000 113.000000
205.195000 186.000000
259.243000 795.000000
280.360000 99.000000
281.248000 17037.000000
285.222000 123.000000
302.289000 106.000000
303.231000 14469.000000
417.241000 40.000000
439.214000 83.000000
457.238000 79.000000
491.274000 110.000000
509.262000 80.000000
509.297000 161.000000
513.264000 131.000000
513.287000 40.000000
531.263000 214.000000
531.294000 40.000000
533.250000 20.000000
565.514000 52.000000
735.547000 23.000000
765.896000 20.000000
793.016000 110.000000
794.537000 23.000000
795.514000 18775.000000
795.677000 23.000000
796.511000 73.000000

>ms2peaks
152.996000 101.000000
205.194000 60.000000
255.228000 63.000000
259.245000 512.000000
279.240000 60.000000
280.232000 50.000000
280.368000 107.000000
281.248000 8366.000000
285.218000 62.000000
301.216000 21.000000
302.276000 78.000000
303.231000 6407.000000
305.260000 30.000000
329.250000 40.000000
435.250000 40.000000
439.217000 30.000000
491.274000 40.000000
509.289000 154.000000
513.268000 60.000000
531.273000 75.000000
603.911000 20.000000
793.021000 44.000000
795.512000 8089.000000
795.547000 973.000000
795.576000 236.000000
795.861000 23.000000
796.492000 20.000000

>ms2peaks
152.991000 183.000000
153.000000 113.000000
205.195000 186.000000
259.243000 795.000000
280.360000 99.000000
281.248000 17037.000000
285.222000 123.000000
302.289000 106.000000
303.231000 14469.000000
417.241000 40.000000
439.214000 83.000000
457.238000 79.000000
491.274000 110.000000
509.262000 80.000000
509.297000 161.000000
513.264000 131.000000
513.287000 40.000000
531.263000 214.000000
531.294000 40.000000
533.250000 20.000000
565.514000 52.000000
735.547000 23.000000
765.896000 20.000000
793.016000 110.000000
794.537000 23.000000
795.514000 18775.000000
795.677000 23.000000
796.511000 73.000000

>ms2peaks
152.996000 101.000000
205.194000 60.000000
255.228000 63.000000
259.245000 512.000000
279.240000 60.000000
280.232000 50.000000
280.368000 107.000000
281.248000 8366.000000
285.218000 62.000000
301.216000 21.000000
302.276000 78.000000
303.231000 6407.000000
305.260000 30.000000
329.250000 40.000000
435.250000 40.000000
439.217000 30.000000
491.274000 40.000000
509.289000 154.000000
513.268000 60.000000
531.273000 75.000000
603.911000 20.000000
793.021000 44.000000
795.512000 8089.000000
795.547000 973.000000
795.576000 236.000000
795.861000 23.000000
796.492000 20.000000

