>compound LQB2679302
>parentmass 863.5657
>ionization [M-H]-
>formula C45H85O13P
>rt 547.899600
>profile qtof
#smiles_iso CCCCCCCCCCCCCCCCCC(=O)OCC(COP(=O)(O)OC1C(C(C(C(C1O)O)O)O)O)OC(=O)CCCCCCC/C=C\CCCCCCCC
#smiles_can CCCCCCCCCCCCCCCCCC(=O)OCC(COP(=O)(O)OC1C(C(C(C(C1O)O)O)O)O)OC(=O)CCCCCCCC=CCCCCCCCC
#inchikey YOBFISPJJWPPTK-ZZEZOPTASA-N
#pubchem_id 138306742
#mb_accession LQB00305,LQB00691

>ms2peaks
78.956000 41.000000
96.964000 30.000000
134.981000 20.000000
152.992000 216.000000
153.005000 72.000000
171.008000 20.000000
223.003000 489.000000
241.012000 1684.000000
255.231000 438.000000
259.027000 152.000000
281.248000 2683.000000
282.370000 41.000000
283.261000 3443.000000
284.269000 82.000000
297.038000 387.000000
309.278000 203.000000
315.039000 121.000000
315.058000 70.000000
327.214000 50.000000
327.228000 142.000000
355.268000 59.000000
356.253000 73.000000
417.232000 90.000000
417.249000 134.000000
419.255000 1295.000000
420.278000 33.000000
437.268000 141.000000
552.316000 40.000000
553.244000 20.000000
553.303000 53.000000
579.269000 121.000000
579.289000 92.000000
579.307000 103.000000
581.277000 331.000000
581.308000 1745.000000
583.346000 20.000000
597.300000 40.000000
599.300000 121.000000
599.330000 264.000000
607.328000 40.000000
701.500000 73.000000
776.551000 100.000000
790.512000 143.000000
790.553000 316.000000
860.812000 90.000000
860.912000 45.000000
863.482000 101.000000
863.564000 31049.000000
863.670000 73.000000
864.565000 163.000000

>ms2peaks
78.956000 41.000000
96.964000 30.000000
134.981000 20.000000
152.992000 216.000000
153.005000 72.000000
171.008000 20.000000
223.003000 489.000000
241.012000 1684.000000
255.231000 438.000000
259.027000 152.000000
281.248000 2683.000000
282.370000 41.000000
283.261000 3443.000000
284.269000 82.000000
297.038000 387.000000
309.278000 203.000000
315.039000 121.000000
315.058000 70.000000
327.214000 50.000000
327.228000 142.000000
355.268000 59.000000
356.253000 73.000000
417.232000 90.000000
417.249000 134.000000
419.255000 1295.000000
420.278000 33.000000
437.268000 141.000000
552.316000 40.000000
553.244000 20.000000
553.303000 53.000000
579.269000 121.000000
579.289000 92.000000
579.307000 103.000000
581.277000 331.000000
581.308000 1745.000000
583.346000 20.000000
597.300000 40.000000
599.300000 121.000000
599.330000 264.000000
607.328000 40.000000
701.500000 73.000000
776.551000 100.000000
790.512000 143.000000
790.553000 316.000000
860.812000 90.000000
860.912000 45.000000
863.482000 101.000000
863.564000 31049.000000
863.670000 73.000000
864.565000 163.000000

