>compound LQB2604328
>parentmass 882.616
>ionization [M+CH3COOH-H]-
>formula C47H86NO8P
>rt 642.318000
>profile qtof
#smiles_iso CCCCCCCCCCCCCCCCCCC(=O)OCC(COP(=O)([O-])OCC[N+](C)(C)C)OC(=O)CCCCCC/C=C\C/C=C\C/C=C\C/C=C\CC
#smiles_can CCCCCCCCCCCCCCCCCCC(=O)OCC(COP(=O)([O-])OCC[N+](C)(C)C)OC(=O)CCCCCCC=CCC=CCC=CCC=CCC
#inchikey QUWIPEXOTVGONJ-LGUFLKDESA-N
#pubchem_id 138248063
#mb_accession LQB00163,LQB00549

>ms2peaks
168.046000 25.000000
196.038000 10.000000
224.067000 20.000000
259.237000 75.000000
259.253000 20.000000
283.253000 11.000000
284.278000 10.000000
297.277000 434.000000
303.230000 901.000000
327.224000 35.000000
329.243000 25.000000
330.247000 15.000000
331.261000 15.000000
457.014000 10.000000
464.310000 50.000000
486.294000 15.000000
486.991000 10.000000
487.292000 20.000000
490.325000 10.000000
504.343000 33.000000
510.301000 10.000000
522.337000 35.000000
522.352000 86.000000
774.527000 11.000000
800.537000 30.000000
800.569000 35.000000
808.574000 1151.000000
813.498000 10.000000
820.593000 10.000000
821.574000 88.000000
823.522000 10.000000
838.539000 10.000000
882.503000 25.000000
882.564000 20.000000
882.621000 105.000000

>ms2peaks
168.046000 25.000000
196.038000 10.000000
224.067000 20.000000
259.237000 75.000000
259.253000 20.000000
283.253000 11.000000
284.278000 10.000000
297.277000 434.000000
303.230000 901.000000
327.224000 35.000000
329.243000 25.000000
330.247000 15.000000
331.261000 15.000000
457.014000 10.000000
464.310000 50.000000
486.294000 15.000000
486.991000 10.000000
487.292000 20.000000
490.325000 10.000000
504.343000 33.000000
510.301000 10.000000
522.337000 35.000000
522.352000 86.000000
774.527000 11.000000
800.537000 30.000000
800.569000 35.000000
808.574000 1151.000000
813.498000 10.000000
820.593000 10.000000
821.574000 88.000000
823.522000 10.000000
838.539000 10.000000
882.503000 25.000000
882.564000 20.000000
882.621000 105.000000

