>compound LQB2535541
>parentmass 710.6307
>ionization [M+CH3COOH-H]-
>formula C41H81NO4
>rt 784.815600
>profile qtof
#smiles_iso CCCCCCCCCCCCCCCCCCCCCC(C(=O)NC(CO)C(/C=C/CCCCCCCCCCCCC)O)O
#smiles_can CCCCCCCCCCCCCCCCCCCCCC(C(=O)NC(CO)C(C=CCCCCCCCCCCCCC)O)O
#inchikey SDFGVADIYWFGIV-LAPDZXRHSA-N
#pubchem_id 58177461
#mb_accession LQB00011,LQB00397

>ms2peaks
89.023000 40.000000
235.205000 30.000000
237.220000 276.000000
239.239000 131.000000
250.251000 165.000000
263.232000 111.000000
263.247000 80.000000
266.231000 61.000000
266.251000 156.000000
268.265000 355.000000
280.261000 212.000000
298.273000 173.000000
323.322000 490.000000
323.337000 888.000000
337.356000 60.000000
351.311000 163.000000
351.325000 388.000000
364.358000 141.000000
368.352000 265.000000
369.314000 133.000000
369.333000 489.000000
376.353000 265.000000
380.348000 83.000000
392.351000 53.000000
394.368000 1031.000000
408.368000 43.000000
409.368000 53.000000
410.335000 51.000000
410.364000 480.000000
412.368000 112.000000
412.397000 60.000000
574.594000 53.000000
584.573000 40.000000
590.566000 50.000000
602.549000 81.000000
602.590000 786.000000
614.591000 82.000000
618.566000 143.000000
618.588000 133.000000
620.593000 173.000000
622.617000 244.000000
632.571000 51.000000
632.598000 265.000000
632.623000 71.000000
648.566000 71.000000
649.625000 50.000000
650.539000 74.000000
650.606000 16035.000000
650.671000 206.000000
664.619000 62.000000

>ms2peaks
89.023000 40.000000
235.205000 30.000000
237.220000 276.000000
239.239000 131.000000
250.251000 165.000000
263.232000 111.000000
263.247000 80.000000
266.231000 61.000000
266.251000 156.000000
268.265000 355.000000
280.261000 212.000000
298.273000 173.000000
323.322000 490.000000
323.337000 888.000000
337.356000 60.000000
351.311000 163.000000
351.325000 388.000000
364.358000 141.000000
368.352000 265.000000
369.314000 133.000000
369.333000 489.000000
376.353000 265.000000
380.348000 83.000000
392.351000 53.000000
394.368000 1031.000000
408.368000 43.000000
409.368000 53.000000
410.335000 51.000000
410.364000 480.000000
412.368000 112.000000
412.397000 60.000000
574.594000 53.000000
584.573000 40.000000
590.566000 50.000000
602.549000 81.000000
602.590000 786.000000
614.591000 82.000000
618.566000 143.000000
618.588000 133.000000
620.593000 173.000000
622.617000 244.000000
632.571000 51.000000
632.598000 265.000000
632.623000 71.000000
648.566000 71.000000
649.625000 50.000000
650.539000 74.000000
650.606000 16035.000000
650.671000 206.000000
664.619000 62.000000

