>compound LQB2613697
>parentmass 678.6033
>ionization [M+CH3COOH-H]-
>formula C40H77NO3
>rt 735.286200
>profile qtof
#smiles_iso CCCCCCCCCCCCC/C=C/C(C(CO)NC(=O)CCCCCCCCC/C=C\CCCCCCCCCC)O
#smiles_can CCCCCCCCCCCCCC=CC(C(CO)NC(=O)CCCCCCCCCC=CCCCCCCCCCC)O
#inchikey OINPSEGEBLVAKZ-MBXZFYGDSA-N
#pubchem_id 138227375
#mb_accession LQB00044,LQB00430

>ms2peaks
237.211000 50.000000
237.223000 202.000000
263.236000 182.000000
319.282000 80.000000
319.302000 101.000000
319.319000 20.000000
329.016000 20.000000
336.322000 194.000000
336.336000 92.000000
337.311000 152.000000
362.325000 123.000000
362.343000 826.000000
376.343000 20.000000
378.328000 134.000000
390.371000 50.000000
570.552000 131.000000
586.536000 50.000000
586.564000 111.000000
588.538000 31.000000
588.560000 62.000000
588.571000 92.000000
588.581000 50.000000
588.607000 40.000000
600.563000 53.000000
602.577000 21.000000
618.548000 299.000000
618.559000 477.000000
618.569000 606.000000
618.586000 1515.000000

>ms2peaks
237.211000 50.000000
237.223000 202.000000
263.236000 182.000000
319.282000 80.000000
319.302000 101.000000
319.319000 20.000000
329.016000 20.000000
336.322000 194.000000
336.336000 92.000000
337.311000 152.000000
362.325000 123.000000
362.343000 826.000000
376.343000 20.000000
378.328000 134.000000
390.371000 50.000000
570.552000 131.000000
586.536000 50.000000
586.564000 111.000000
588.538000 31.000000
588.560000 62.000000
588.571000 92.000000
588.581000 50.000000
588.607000 40.000000
600.563000 53.000000
602.577000 21.000000
618.548000 299.000000
618.559000 477.000000
618.569000 606.000000
618.586000 1515.000000

