>compound LQB2302190
>parentmass 881.5175
>ionization [M-H]-
>formula C47H79O13P
>rt 486.834000
>profile qtof
#smiles_iso CCCCCCCC/C=C\CCCCCCCC(=O)OCC(COP(=O)(O)OC1C(C(C(C(C1O)O)O)O)O)OC(=O)CCC/C=C\C/C=C\C/C=C\C/C=C\C/C=C\CC
#smiles_can CCCCCCCCC=CCCCCCCCC(=O)OCC(COP(=O)(O)OC1C(C(C(C(C1O)O)O)O)O)OC(=O)CCCC=CCC=CCC=CCC=CCC=CCC
#inchikey ZHEIBMBVWLKKJS-HHHWHCSPSA-N
#pubchem_id 138312827
#mb_accession LQB00318,LQB00704

>ms2peaks
152.994000 50.000000
168.048000 20.000000
223.004000 30.000000
241.014000 265.000000
257.226000 40.000000
281.246000 244.000000
283.268000 43.000000
301.213000 172.000000
415.225000 20.000000
417.234000 130.000000
437.210000 20.000000
519.859000 20.000000
577.267000 20.000000
579.290000 152.000000
597.305000 50.000000
807.523000 40.000000
821.503000 20.000000
863.513000 30.000000
875.900000 21.000000
881.511000 2256.000000
882.519000 30.000000

>ms2peaks
152.994000 50.000000
168.048000 20.000000
223.004000 30.000000
241.014000 265.000000
257.226000 40.000000
281.246000 244.000000
283.268000 43.000000
301.213000 172.000000
415.225000 20.000000
417.234000 130.000000
437.210000 20.000000
519.859000 20.000000
577.267000 20.000000
579.290000 152.000000
597.305000 50.000000
807.523000 40.000000
821.503000 20.000000
863.513000 30.000000
875.900000 21.000000
881.511000 2256.000000
882.519000 30.000000

