>compound LQB2657173
>parentmass 807.5014
>ionization [M-H]-
>formula C41H77O13P
>rt 491.899680
>profile qtof
#smiles_iso CCCCCCCCCCCCCCCC(=O)OCC(COP(=O)(O)OC1C(C(C(C(C1O)O)O)O)O)OC(=O)CCCCCCC/C=C\CCCCCC
#smiles_can CCCCCCCCCCCCCCCC(=O)OCC(COP(=O)(O)OC1C(C(C(C(C1O)O)O)O)O)OC(=O)CCCCCCCC=CCCCCCC
#inchikey QAWXBJDYTIBLRK-PEZBUJJGSA-N
#pubchem_id 138241787
#mb_accession LQB00290,LQB00676

>ms2peaks
152.996000 30.000000
158.975000 30.000000
222.999000 20.000000
241.017000 40.000000
253.216000 70.000000
255.231000 121.000000
259.021000 30.000000
269.246000 60.000000
283.244000 30.000000
284.262000 20.000000
297.039000 20.000000
327.234000 60.000000
389.208000 20.000000
391.231000 60.000000
415.348000 20.000000
551.260000 20.000000
553.279000 60.000000
720.502000 40.000000
807.461000 101.000000
807.496000 662.000000
807.522000 235.000000

>ms2peaks
152.996000 30.000000
158.975000 30.000000
222.999000 20.000000
241.017000 40.000000
253.216000 70.000000
255.231000 121.000000
259.021000 30.000000
269.246000 60.000000
283.244000 30.000000
284.262000 20.000000
297.039000 20.000000
327.234000 60.000000
389.208000 20.000000
391.231000 60.000000
415.348000 20.000000
551.260000 20.000000
553.279000 60.000000
720.502000 40.000000
807.461000 101.000000
807.496000 662.000000
807.522000 235.000000

