>compound LQB2411472
>parentmass 838.5397
>ionization [M-H]-
>formula C49H78NO8P
>rt 562.415280
>profile qtof
#smiles_iso CC/C=C\C/C=C\C/C=C\C/C=C\CCCCCCCCC(=O)OCC(COP(=O)(O)OCCN)OC(=O)CC/C=C\C/C=C\C/C=C\C/C=C\C/C=C\C/C=C\CC
#smiles_can CCC=CCC=CCC=CCC=CCCCCCCCCC(=O)OCC(COP(=O)(O)OCCN)OC(=O)CCC=CCC=CCC=CCC=CCC=CCC=CCC
#inchikey DNPOVULNVHWFEJ-GCLSJWDWSA-N
#pubchem_id 138145394
#mb_accession LQB00233,LQB00619

>ms2peaks
78.958000 101.000000
122.002000 50.000000
140.011000 235.000000
140.022000 61.000000
149.136000 60.000000
163.143000 53.000000
177.162000 103.000000
191.181000 92.000000
196.039000 305.000000
229.195000 347.000000
249.185000 171.000000
255.227000 71.000000
282.347000 31.000000
283.243000 2758.000000
283.265000 219.000000
287.274000 182.000000
303.236000 62.000000
309.218000 30.000000
313.254000 30.000000
325.227000 52.000000
326.204000 72.000000
327.230000 7254.000000
328.241000 34.000000
329.243000 143.000000
329.277000 44.000000
331.261000 5188.000000
419.257000 79.000000
450.231000 33.000000
506.249000 121.000000
506.289000 70.000000
510.288000 193.000000
510.315000 101.000000
512.712000 20.000000
524.273000 170.000000
528.279000 275.000000
528.308000 1030.000000
528.333000 204.000000
528.355000 60.000000
751.495000 50.000000
751.540000 122.000000
764.536000 20.000000
766.534000 30.000000
835.868000 33.000000
835.936000 43.000000
838.294000 23.000000
838.461000 112.000000
838.540000 13153.000000
838.615000 144.000000
838.771000 23.000000
839.546000 53.000000

>ms2peaks
78.958000 101.000000
122.002000 50.000000
140.011000 235.000000
140.022000 61.000000
149.136000 60.000000
163.143000 53.000000
177.162000 103.000000
191.181000 92.000000
196.039000 305.000000
229.195000 347.000000
249.185000 171.000000
255.227000 71.000000
282.347000 31.000000
283.243000 2758.000000
283.265000 219.000000
287.274000 182.000000
303.236000 62.000000
309.218000 30.000000
313.254000 30.000000
325.227000 52.000000
326.204000 72.000000
327.230000 7254.000000
328.241000 34.000000
329.243000 143.000000
329.277000 44.000000
331.261000 5188.000000
419.257000 79.000000
450.231000 33.000000
506.249000 121.000000
506.289000 70.000000
510.288000 193.000000
510.315000 101.000000
512.712000 20.000000
524.273000 170.000000
528.279000 275.000000
528.308000 1030.000000
528.333000 204.000000
528.355000 60.000000
751.495000 50.000000
751.540000 122.000000
764.536000 20.000000
766.534000 30.000000
835.868000 33.000000
835.936000 43.000000
838.294000 23.000000
838.461000 112.000000
838.540000 13153.000000
838.615000 144.000000
838.771000 23.000000
839.546000 53.000000

