>compound LQB2931365
>parentmass 846.6244
>ionization [M+CH3COOH-H]-
>formula C44H86NO8P
>rt 654.925200
>profile qtof
#smiles_iso CCCCCCCCCCCCCCCCCC(=O)OCC(COP(=O)([O-])OCC[N+](C)(C)C)OC(=O)CCCCCCC/C=C\CCCCCCCC
#smiles_can CCCCCCCCCCCCCCCCCC(=O)OCC(COP(=O)([O-])OCC[N+](C)(C)C)OC(=O)CCCCCCCC=CCCCCCCCC
#inchikey ATHVAWFAEPLPPQ-LNVKXUELSA-N
#pubchem_id 6436018
#mb_accession LQB00131,LQB00517

>ms2peaks
78.960000 142.000000
152.996000 72.000000
168.042000 877.000000
206.060000 40.000000
224.067000 907.000000
242.075000 90.000000
253.219000 91.000000
255.231000 2268.000000
255.244000 383.000000
280.354000 142.000000
280.374000 294.000000
281.056000 41.000000
281.099000 43.000000
281.249000 67657.000000
281.509000 50.000000
282.250000 93.000000
282.377000 101.000000
282.406000 50.000000
283.112000 46.000000
283.230000 194.000000
283.264000 23921.000000
303.233000 90.000000
309.278000 2305.000000
417.230000 100.000000
419.252000 255.000000
432.283000 60.000000
434.298000 100.000000
437.248000 50.000000
476.331000 51.000000
477.328000 50.000000
480.309000 122.000000
488.296000 285.000000
488.324000 297.000000
490.319000 440.000000
490.336000 725.000000
506.296000 70.000000
506.326000 530.000000
506.735000 31.000000
508.322000 833.000000
508.340000 4469.000000
516.346000 61.000000
534.332000 50.000000
534.362000 80.000000
567.053000 43.000000
567.539000 74.000000
608.550000 40.000000
701.506000 190.000000
727.542000 115.000000
750.537000 70.000000
759.569000 172.000000
770.110000 71.000000
770.136000 112.000000
770.165000 195.000000
770.217000 60.000000
771.560000 63.000000
772.586000 60230.000000
773.598000 230.000000
773.731000 49.000000
787.521000 143.000000
787.530000 163.000000
787.544000 428.000000
787.566000 163.000000
787.584000 112.000000
787.606000 82.000000
800.654000 70.000000
843.955000 63.000000
846.564000 274.000000
846.600000 2016.000000
846.629000 5914.000000

>ms2peaks
78.960000 142.000000
152.996000 72.000000
168.042000 877.000000
206.060000 40.000000
224.067000 907.000000
242.075000 90.000000
253.219000 91.000000
255.231000 2268.000000
255.244000 383.000000
280.354000 142.000000
280.374000 294.000000
281.056000 41.000000
281.099000 43.000000
281.249000 67657.000000
281.509000 50.000000
282.250000 93.000000
282.377000 101.000000
282.406000 50.000000
283.112000 46.000000
283.230000 194.000000
283.264000 23921.000000
303.233000 90.000000
309.278000 2305.000000
417.230000 100.000000
419.252000 255.000000
432.283000 60.000000
434.298000 100.000000
437.248000 50.000000
476.331000 51.000000
477.328000 50.000000
480.309000 122.000000
488.296000 285.000000
488.324000 297.000000
490.319000 440.000000
490.336000 725.000000
506.296000 70.000000
506.326000 530.000000
506.735000 31.000000
508.322000 833.000000
508.340000 4469.000000
516.346000 61.000000
534.332000 50.000000
534.362000 80.000000
567.053000 43.000000
567.539000 74.000000
608.550000 40.000000
701.506000 190.000000
727.542000 115.000000
750.537000 70.000000
759.569000 172.000000
770.110000 71.000000
770.136000 112.000000
770.165000 195.000000
770.217000 60.000000
771.560000 63.000000
772.586000 60230.000000
773.598000 230.000000
773.731000 49.000000
787.521000 143.000000
787.530000 163.000000
787.544000 428.000000
787.566000 163.000000
787.584000 112.000000
787.606000 82.000000
800.654000 70.000000
843.955000 63.000000
846.564000 274.000000
846.600000 2016.000000
846.629000 5914.000000

