>compound LQB2822347
>parentmass 808.4932
>ionization [M-H]-
>formula C47H72NO8P
>rt 512.874840
>profile qtof
#smiles_iso CC/C=C\C/C=C\C/C=C\C/C=C\C/C=C\CCCC(=O)OCC(COP(=O)(O)OCCN)OC(=O)CC/C=C\C/C=C\C/C=C\C/C=C\C/C=C\C/C=C\CC
#smiles_can CCC=CCC=CCC=CCC=CCC=CCCCC(=O)OCC(COP(=O)(O)OCCN)OC(=O)CCC=CCC=CCC=CCC=CCC=CCC=CCC
#inchikey ZAJJKMUFMHJZRS-UYABLQOYSA-N
#pubchem_id 138310701
#mb_accession LQB00231,LQB00617

>ms2
78.958000 70.000000
140.009000 95.000000
140.019000 35.000000
175.148000 25.000000
177.167000 41.000000
191.178000 40.000000
196.038000 223.000000
203.186000 50.000000
214.050000 50.000000
229.196000 177.000000
229.210000 40.000000
249.188000 70.000000
255.215000 35.000000
255.236000 65.000000
257.224000 254.000000
269.242000 25.000000
281.231000 31.000000
283.243000 1284.000000
283.268000 107.000000
284.249000 20.000000
287.208000 25.000000
299.234000 23.000000
301.185000 41.000000
301.215000 1960.000000
327.230000 3648.000000
328.241000 24.000000
343.220000 80.000000
345.237000 38.000000
391.221000 31.000000
409.229000 30.000000
419.253000 106.000000
437.265000 30.000000
464.303000 25.000000
480.247000 111.000000
480.277000 25.000000
481.322000 10.000000
482.315000 10.000000
498.242000 97.000000
498.258000 515.000000
498.280000 82.000000
498.330000 13.000000
500.274000 10.000000
506.242000 50.000000
506.270000 80.000000
524.238000 26.000000
524.281000 65.000000
524.324000 20.000000
600.927000 10.000000
647.450000 15.000000
651.474000 23.000000
721.455000 46.000000
721.485000 55.000000
721.510000 40.000000
776.500000 56.000000
790.557000 40.000000
805.943000 60.000000
808.405000 46.000000
808.439000 322.000000
808.485000 4299.000000
808.515000 1370.000000
808.575000 95.000000
808.701000 16.000000
809.490000 30.000000

>ms2
78.958000 70.000000
140.009000 95.000000
140.019000 35.000000
175.148000 25.000000
177.167000 41.000000
191.178000 40.000000
196.038000 223.000000
203.186000 50.000000
214.050000 50.000000
229.196000 177.000000
229.210000 40.000000
249.188000 70.000000
255.215000 35.000000
255.236000 65.000000
257.224000 254.000000
269.242000 25.000000
281.231000 31.000000
283.243000 1284.000000
283.268000 107.000000
284.249000 20.000000
287.208000 25.000000
299.234000 23.000000
301.185000 41.000000
301.215000 1960.000000
327.230000 3648.000000
328.241000 24.000000
343.220000 80.000000
345.237000 38.000000
391.221000 31.000000
409.229000 30.000000
419.253000 106.000000
437.265000 30.000000
464.303000 25.000000
480.247000 111.000000
480.277000 25.000000
481.322000 10.000000
482.315000 10.000000
498.242000 97.000000
498.258000 515.000000
498.280000 82.000000
498.330000 13.000000
500.274000 10.000000
506.242000 50.000000
506.270000 80.000000
524.238000 26.000000
524.281000 65.000000
524.324000 20.000000
600.927000 10.000000
647.450000 15.000000
651.474000 23.000000
721.455000 46.000000
721.485000 55.000000
721.510000 40.000000
776.500000 56.000000
790.557000 40.000000
805.943000 60.000000
808.405000 46.000000
808.439000 322.000000
808.485000 4299.000000
808.515000 1370.000000
808.575000 95.000000
808.701000 16.000000
809.490000 30.000000

