>compound LQB2499962
>parentmass 810.5284
>ionization [M+CH3COOH-H]-
>formula C42H74NO8P
>rt 501.992940
>profile qtof
#smiles_iso CCCCCCCCCCCCCC(=O)OCC(COP(=O)([O-])OCC[N+](C)(C)C)OC(=O)CCC/C=C\C/C=C\C/C=C\C/C=C\C/C=C\CC
#smiles_can CCCCCCCCCCCCCC(=O)OCC(COP(=O)([O-])OCC[N+](C)(C)C)OC(=O)CCCC=CCC=CCC=CCC=CCC=CCC
#inchikey WCNDCUHEAPXSRE-WVLIMAHDSA-N
#pubchem_id 24778636
#mb_accession LQB00090,LQB00476

>ms2
168.044000 23.000000
196.037000 12.000000
203.182000 23.000000
224.067000 49.000000
227.201000 642.000000
247.167000 53.000000
249.190000 33.000000
255.232000 25.000000
256.239000 13.000000
257.230000 146.000000
279.228000 24.000000
281.239000 38.000000
281.261000 25.000000
283.209000 16.000000
284.261000 26.000000
285.264000 11.000000
295.239000 12.000000
300.275000 9.000000
301.216000 866.000000
328.228000 15.000000
434.261000 22.000000
436.275000 19.000000
452.250000 13.000000
452.275000 71.000000
452.301000 19.000000
482.975000 6.000000
506.340000 6.000000
508.276000 10.000000
516.070000 6.000000
520.957000 6.000000
526.303000 20.000000
564.996000 7.000000
601.489000 27.000000
602.941000 6.000000
646.859000 6.000000
722.474000 6.000000
723.489000 6.000000
736.448000 177.000000
736.493000 1424.000000
737.496000 6.000000
751.462000 15.000000
809.570000 6.000000
810.479000 43.000000
810.519000 140.000000
810.548000 112.000000
810.564000 48.000000

>ms2
168.044000 23.000000
196.037000 12.000000
203.182000 23.000000
224.067000 49.000000
227.201000 642.000000
247.167000 53.000000
249.190000 33.000000
255.232000 25.000000
256.239000 13.000000
257.230000 146.000000
279.228000 24.000000
281.239000 38.000000
281.261000 25.000000
283.209000 16.000000
284.261000 26.000000
285.264000 11.000000
295.239000 12.000000
300.275000 9.000000
301.216000 866.000000
328.228000 15.000000
434.261000 22.000000
436.275000 19.000000
452.250000 13.000000
452.275000 71.000000
452.301000 19.000000
482.975000 6.000000
506.340000 6.000000
508.276000 10.000000
516.070000 6.000000
520.957000 6.000000
526.303000 20.000000
564.996000 7.000000
601.489000 27.000000
602.941000 6.000000
646.859000 6.000000
722.474000 6.000000
723.489000 6.000000
736.448000 177.000000
736.493000 1424.000000
737.496000 6.000000
751.462000 15.000000
809.570000 6.000000
810.479000 43.000000
810.519000 140.000000
810.548000 112.000000
810.564000 48.000000

