>compound LQB2491483
>parentmass 622.5433
>ionization [M+CH3COOH-H]-
>formula C36H69NO3
>rt 594.363540
>profile qtof
#smiles_iso CCCCCCCCCCCCCCCCCC(=O)NC(CO)C(/C=C/CC/C=C/CCCCCCCCC)O
#smiles_can CCCCCCCCCCCCCCCCCC(=O)NC(CO)C(C=CCCC=CCCCCCCCCC)O
#inchikey WNPWDGNHTKGEDS-LLRUVXLESA-N
#pubchem_id 15870105
#mb_accession LQB00055,LQB00441

>ms2
233.191000 61.000000
235.204000 2124.000000
237.218000 91.000000
248.235000 152.000000
253.216000 60.000000
261.220000 1437.000000
261.230000 565.000000
263.240000 80.000000
264.218000 111.000000
264.236000 266.000000
264.410000 52.000000
265.252000 3207.000000
266.239000 195.000000
279.223000 53.000000
281.283000 388.000000
282.279000 2344.000000
282.307000 52.000000
283.252000 366.000000
283.268000 1258.000000
296.248000 50.000000
296.267000 90.000000
296.298000 85.000000
306.269000 71.000000
306.295000 72.000000
306.420000 30.000000
308.293000 11721.000000
322.273000 114.000000
323.293000 40.000000
324.290000 1439.000000
326.309000 102.000000
487.481000 83.000000
514.460000 123.000000
514.495000 1722.000000
530.488000 1986.000000
530.510000 367.000000
531.865000 31.000000
532.504000 2846.000000
534.526000 41.000000
544.480000 40.000000
544.515000 142.000000
560.737000 92.000000
562.519000 19650.000000
563.527000 40.000000

>ms2
233.191000 61.000000
235.204000 2124.000000
237.218000 91.000000
248.235000 152.000000
253.216000 60.000000
261.220000 1437.000000
261.230000 565.000000
263.240000 80.000000
264.218000 111.000000
264.236000 266.000000
264.410000 52.000000
265.252000 3207.000000
266.239000 195.000000
279.223000 53.000000
281.283000 388.000000
282.279000 2344.000000
282.307000 52.000000
283.252000 366.000000
283.268000 1258.000000
296.248000 50.000000
296.267000 90.000000
296.298000 85.000000
306.269000 71.000000
306.295000 72.000000
306.420000 30.000000
308.293000 11721.000000
322.273000 114.000000
323.293000 40.000000
324.290000 1439.000000
326.309000 102.000000
487.481000 83.000000
514.460000 123.000000
514.495000 1722.000000
530.488000 1986.000000
530.510000 367.000000
531.865000 31.000000
532.504000 2846.000000
534.526000 41.000000
544.480000 40.000000
544.515000 142.000000
560.737000 92.000000
562.519000 19650.000000
563.527000 40.000000

