>compound LQB2694781
>parentmass 831.65445
>ionization [M+CH3COOH-H]-
>formula C44H89N2O6P
>rt 687.264600
>profile qtof
#smiles_iso CCCCCCCCCCCCCCCCCCCCC(=O)NC(COP(=O)([O-])OCC[N+](C)(C)C)C(/C=C/CCCCCCCCCCCCC)O
#smiles_can CCCCCCCCCCCCCCCCCCCCC(=O)NC(COP(=O)([O-])OCC[N+](C)(C)C)C(C=CCCCCCCCCCCCCC)O
#inchikey YXSZOBWVQJIWNE-MHAUTQJVSA-N
#pubchem_id 138309803
#mb_accession LQB00361,LQB00362,LQB00747,LQB00748

>ms2peaks
78.959000 92.000000
122.985000 17.000000
141.015000 8.000000
168.043000 385.000000
256.229000 6.000000
280.952000 6.000000
281.246000 6.000000
410.242000 6.000000
438.236000 8.000000
449.313000 16.000000
463.131000 6.000000
617.992000 6.000000
656.035000 9.000000
668.529000 6.000000
686.505000 12.000000
686.547000 41.000000
712.567000 19.000000
755.213000 41.000000
757.387000 10.000000
757.614000 7925.000000
757.697000 20.000000
757.810000 14.000000
757.947000 9.000000
758.610000 29.000000
758.631000 19.000000
771.588000 12.000000
772.573000 65.000000
831.606000 24.000000
831.646000 221.000000

>ms2peaks
78.960000 90.000000
122.979000 10.000000
141.016000 15.000000
168.041000 317.000000
255.232000 16.000000
281.263000 10.000000
309.284000 10.000000
601.547000 10.000000
623.583000 10.000000
668.523000 10.000000
677.574000 10.000000
686.547000 31.000000
709.583000 35.000000
753.589000 40.000000
755.250000 25.000000
757.558000 213.000000
757.614000 6951.000000
757.696000 28.000000
758.609000 23.000000
771.583000 30.000000
771.636000 25.000000
772.567000 31.000000
785.608000 25.000000
785.645000 65.000000
831.642000 182.000000
831.686000 55.000000

>ms2peaks
78.959000 92.000000
122.985000 17.000000
141.015000 8.000000
168.043000 385.000000
256.229000 6.000000
280.952000 6.000000
281.246000 6.000000
410.242000 6.000000
438.236000 8.000000
449.313000 16.000000
463.131000 6.000000
617.992000 6.000000
656.035000 9.000000
668.529000 6.000000
686.505000 12.000000
686.547000 41.000000
712.567000 19.000000
755.213000 41.000000
757.387000 10.000000
757.614000 7925.000000
757.697000 20.000000
757.810000 14.000000
757.947000 9.000000
758.610000 29.000000
758.631000 19.000000
771.588000 12.000000
772.573000 65.000000
831.606000 24.000000
831.646000 221.000000

>ms2peaks
78.960000 90.000000
122.979000 10.000000
141.016000 15.000000
168.041000 317.000000
255.232000 16.000000
281.263000 10.000000
309.284000 10.000000
601.547000 10.000000
623.583000 10.000000
668.523000 10.000000
677.574000 10.000000
686.547000 31.000000
709.583000 35.000000
753.589000 40.000000
755.250000 25.000000
757.558000 213.000000
757.614000 6951.000000
757.696000 28.000000
758.609000 23.000000
771.583000 30.000000
771.636000 25.000000
772.567000 31.000000
785.608000 25.000000
785.645000 65.000000
831.642000 182.000000
831.686000 55.000000

