>compound LQB2745503
>parentmass 771.5206
>ionization [M-H]-
>formula C42H77O10P
>rt 490.448940
>profile qtof
#smiles_iso CCCCCCCC/C=C\CCCCCCCC(=O)OCC(COP(=O)(O)OCC(CO)O)OC(=O)CCCCCCC/C=C\C/C=C\CCCCC
#smiles_can CCCCCCCCC=CCCCCCCCC(=O)OCC(COP(=O)(O)OCC(CO)O)OC(=O)CCCCCCCC=CCC=CCCCCC
#inchikey FSVTVWTVWNNIQX-RQOIEFAZSA-N
#pubchem_id 138155445
#mb_accession LQB00263,LQB00649

>ms2peaks
152.991000 193.000000
177.370000 33.000000
253.214000 101.000000
255.235000 90.000000
261.222000 43.000000
278.363000 101.000000
279.195000 68.000000
279.231000 20141.000000
280.367000 149.000000
281.002000 46.000000
281.247000 21001.000000
282.233000 43.000000
303.229000 20.000000
305.243000 80.000000
307.257000 40.000000
317.209000 20.000000
318.214000 30.000000
415.225000 110.000000
417.232000 75.000000
435.258000 43.000000
489.245000 111.000000
489.266000 153.000000
489.312000 20.000000
491.266000 110.000000
491.290000 70.000000
497.220000 20.000000
507.255000 112.000000
507.281000 132.000000
509.278000 172.000000
509.313000 50.000000
556.642000 35.000000
697.906000 20.000000
753.490000 43.000000
769.075000 80.000000
769.122000 30.000000
770.755000 20.000000
770.833000 20.000000
771.191000 23.000000
771.513000 18386.000000
772.523000 77.000000

>ms2peaks
152.991000 193.000000
177.370000 33.000000
253.214000 101.000000
255.235000 90.000000
261.222000 43.000000
278.363000 101.000000
279.195000 68.000000
279.231000 20141.000000
280.367000 149.000000
281.002000 46.000000
281.247000 21001.000000
282.233000 43.000000
303.229000 20.000000
305.243000 80.000000
307.257000 40.000000
317.209000 20.000000
318.214000 30.000000
415.225000 110.000000
417.232000 75.000000
435.258000 43.000000
489.245000 111.000000
489.266000 153.000000
489.312000 20.000000
491.266000 110.000000
491.290000 70.000000
497.220000 20.000000
507.255000 112.000000
507.281000 132.000000
509.278000 172.000000
509.313000 50.000000
556.642000 35.000000
697.906000 20.000000
753.490000 43.000000
769.075000 80.000000
769.122000 30.000000
770.755000 20.000000
770.833000 20.000000
771.191000 23.000000
771.513000 18386.000000
772.523000 77.000000

