>compound LQB2986626
>parentmass 817.5013
>ionization [M-H]-
>formula C46H75O10P
>rt 473.166660
>profile qtof
#smiles_iso CCCCC/C=C\C/C=C\CCCCCCCC(=O)OCC(COP(=O)(O)OCC(CO)O)OC(=O)CC/C=C\C/C=C\C/C=C\C/C=C\C/C=C\C/C=C\CC
#smiles_can CCCCCC=CCC=CCCCCCCCC(=O)OCC(COP(=O)(O)OCC(CO)O)OC(=O)CCC=CCC=CCC=CCC=CCC=CCC=CCC
#inchikey GMXYXYLCBAOPHA-LNYCXSEGSA-N
#pubchem_id 138161853
#mb_accession LQB00275,LQB00661

>ms2peaks
78.960000 25.000000
152.995000 130.000000
177.166000 30.000000
229.197000 152.000000
249.187000 30.000000
259.241000 102.000000
269.188000 20.000000
270.196000 25.000000
272.208000 25.000000
277.220000 20.000000
278.366000 20.000000
279.197000 26.000000
279.231000 4511.000000
281.249000 25.000000
283.241000 717.000000
284.266000 35.000000
303.232000 923.000000
317.217000 20.000000
327.231000 2048.000000
332.195000 40.000000
415.215000 55.000000
433.232000 21.000000
448.314000 41.000000
463.225000 90.000000
466.326000 85.000000
467.331000 70.000000
480.305000 10.000000
481.241000 10.000000
489.264000 50.000000
507.268000 85.000000
513.263000 20.000000
531.258000 20.000000
537.259000 85.000000
555.262000 62.000000
560.363000 15.000000
576.372000 10.000000
640.478000 10.000000
658.531000 10.000000
716.474000 10.000000
729.464000 10.000000
730.477000 20.000000
745.511000 10.000000
757.492000 30.000000
781.517000 30.000000
783.535000 50.000000
799.519000 36.000000
814.921000 35.000000
817.499000 6760.000000
817.568000 84.000000
817.733000 10.000000

>ms2peaks
78.960000 25.000000
152.995000 130.000000
177.166000 30.000000
229.197000 152.000000
249.187000 30.000000
259.241000 102.000000
269.188000 20.000000
270.196000 25.000000
272.208000 25.000000
277.220000 20.000000
278.366000 20.000000
279.197000 26.000000
279.231000 4511.000000
281.249000 25.000000
283.241000 717.000000
284.266000 35.000000
303.232000 923.000000
317.217000 20.000000
327.231000 2048.000000
332.195000 40.000000
415.215000 55.000000
433.232000 21.000000
448.314000 41.000000
463.225000 90.000000
466.326000 85.000000
467.331000 70.000000
480.305000 10.000000
481.241000 10.000000
489.264000 50.000000
507.268000 85.000000
513.263000 20.000000
531.258000 20.000000
537.259000 85.000000
555.262000 62.000000
560.363000 15.000000
576.372000 10.000000
640.478000 10.000000
658.531000 10.000000
716.474000 10.000000
729.464000 10.000000
730.477000 20.000000
745.511000 10.000000
757.492000 30.000000
781.517000 30.000000
783.535000 50.000000
799.519000 36.000000
814.921000 35.000000
817.499000 6760.000000
817.568000 84.000000
817.733000 10.000000

