>compound LQB2053448
>parentmass 905.51855
>ionization [M-H]-
>formula C49H79O13P
>rt 484.144920
>profile qtof
#smiles_iso CC/C=C\C/C=C\C/C=C\C/C=C\CCCCCCC(=O)OCC(COP(=O)(O)OC1C(C(C(C(C1O)O)O)O)O)OC(=O)CCCCCC/C=C\C/C=C\C/C=C\C/C=C\CC
#smiles_can CCC=CCC=CCC=CCC=CCCCCCCC(=O)OCC(COP(=O)(O)OC1C(C(C(C(C1O)O)O)O)O)OC(=O)CCCCCCC=CCC=CCC=CCC=CCC
#inchikey YBEMGRPVONAHOT-CKKCRWTASA-N
#pubchem_id 138302649
#mb_accession LQB00325,LQB00326,LQB00711,LQB00712

>ms2
241.009000 162.000000
279.226000 152.000000
283.252000 33.000000
303.231000 81.000000
327.227000 60.000000
415.227000 40.000000
439.218000 20.000000
577.278000 50.000000
595.301000 33.000000
601.275000 30.000000
625.280000 30.000000
843.394000 20.000000
875.444000 20.000000
904.973000 20.000000
905.427000 40.000000
905.516000 918.000000
905.540000 408.000000
905.573000 132.000000

>ms2
134.985000 9.000000
152.989000 9.000000
222.999000 36.000000
241.011000 101.000000
255.232000 22.000000
259.241000 17.000000
279.229000 20.000000
283.255000 12.000000
297.039000 15.000000
303.230000 182.000000
303.247000 35.000000
315.040000 18.000000
327.224000 9.000000
375.215000 6.000000
415.226000 17.000000
419.260000 15.000000
436.299000 6.000000
439.216000 53.000000
439.240000 27.000000
569.635000 6.000000
577.267000 6.000000
601.271000 55.000000
601.294000 39.000000
619.283000 35.000000
705.437000 6.000000
743.452000 14.000000
823.496000 25.000000
823.550000 23.000000
829.524000 6.000000
831.517000 18.000000
844.577000 6.000000
845.395000 6.000000
845.465000 6.000000
873.496000 9.000000
887.476000 7.000000
887.580000 7.000000
902.654000 11.000000
905.468000 263.000000
905.514000 1152.000000
905.609000 19.000000
906.510000 10.000000

>ms2
241.009000 162.000000
279.226000 152.000000
283.252000 33.000000
303.231000 81.000000
327.227000 60.000000
415.227000 40.000000
439.218000 20.000000
577.278000 50.000000
595.301000 33.000000
601.275000 30.000000
625.280000 30.000000
843.394000 20.000000
875.444000 20.000000
904.973000 20.000000
905.427000 40.000000
905.516000 918.000000
905.540000 408.000000
905.573000 132.000000

>ms2
134.985000 9.000000
152.989000 9.000000
222.999000 36.000000
241.011000 101.000000
255.232000 22.000000
259.241000 17.000000
279.229000 20.000000
283.255000 12.000000
297.039000 15.000000
303.230000 182.000000
303.247000 35.000000
315.040000 18.000000
327.224000 9.000000
375.215000 6.000000
415.226000 17.000000
419.260000 15.000000
436.299000 6.000000
439.216000 53.000000
439.240000 27.000000
569.635000 6.000000
577.267000 6.000000
601.271000 55.000000
601.294000 39.000000
619.283000 35.000000
705.437000 6.000000
743.452000 14.000000
823.496000 25.000000
823.550000 23.000000
829.524000 6.000000
831.517000 18.000000
844.577000 6.000000
845.395000 6.000000
845.465000 6.000000
873.496000 9.000000
887.476000 7.000000
887.580000 7.000000
902.654000 11.000000
905.468000 263.000000
905.514000 1152.000000
905.609000 19.000000
906.510000 10.000000

