>compound LQB3599735
>parentmass 873.70255
>ionization [M+CH3COOH-H]-
>formula C47H95N2O6P
>rt 766.555200
>profile qtof
#smiles_iso CCCCCCCCCCCCCCCC(C(COP(=O)([O-])OCC[N+](C)(C)C)NC(=O)CCCCCCCCC/C=C\CCCCCCCCCCCC)O
#smiles_can CCCCCCCCCCCCCCCC(C(COP(=O)([O-])OCC[N+](C)(C)C)NC(=O)CCCCCCCCCC=CCCCCCCCCCCCC)O
#inchikey CNOYRXOCCCZZGR-IZHYLOQSSA-N
#pubchem_id 138136899
#mb_accession LQB00351,LQB00352,LQB00737,LQB00738

>ms2peaks
78.959000 101.000000
89.015000 10.000000
89.025000 47.000000
111.004000 4.000000
122.986000 23.000000
167.523000 7.000000
168.042000 474.000000
227.199000 10.000000
255.227000 11.000000
263.237000 4.000000
281.247000 12.000000
327.238000 5.000000
328.239000 5.000000
339.323000 4.000000
366.344000 11.000000
367.360000 2.000000
368.358000 5.000000
445.328000 4.000000
451.327000 20.000000
514.370000 4.000000
608.917000 3.000000
620.599000 13.000000
621.574000 8.000000
621.595000 12.000000
621.622000 11.000000
645.613000 3.000000
646.613000 7.000000
649.626000 6.000000
651.635000 4.000000
653.635000 6.000000
663.968000 3.000000
710.586000 13.000000
726.570000 10.000000
726.619000 7.000000
728.562000 13.000000
728.605000 23.000000
741.613000 7.000000
754.616000 9.000000
783.652000 23.000000
783.688000 11.000000
797.084000 6.000000
797.120000 19.000000
797.196000 11.000000
798.629000 11.000000
798.666000 6.000000
799.599000 97.000000
799.671000 12536.000000
799.753000 64.000000
799.922000 7.000000
800.081000 7.000000
800.628000 12.000000
800.663000 69.000000
800.692000 21.000000
800.715000 15.000000
800.995000 8.000000
811.691000 6.000000
813.636000 12.000000
813.687000 28.000000
814.582000 12.000000
814.610000 29.000000
814.635000 50.000000
814.656000 34.000000
873.605000 14.000000
873.658000 90.000000
873.684000 140.000000
873.717000 524.000000
874.717000 10.000000

>ms2peaks
78.958000 122.000000
78.966000 55.000000
89.024000 136.000000
101.025000 65.000000
113.025000 25.000000
119.033000 75.000000
120.042000 20.000000
122.988000 25.000000
141.018000 16.000000
161.049000 30.000000
168.043000 632.000000
179.053000 90.000000
280.262000 35.000000
281.270000 25.000000
283.245000 30.000000
323.329000 35.000000
324.340000 25.000000
327.228000 55.000000
353.344000 21.000000
366.352000 25.000000
367.347000 38.000000
368.354000 21.000000
369.333000 50.000000
370.338000 50.000000
394.358000 46.000000
395.370000 60.000000
451.321000 50.000000
503.343000 26.000000
504.356000 29.000000
563.377000 16.000000
615.601000 15.000000
621.590000 20.000000
632.567000 65.000000
632.604000 90.000000
633.549000 75.000000
633.583000 484.000000
633.603000 341.000000
650.583000 53.000000
651.569000 55.000000
651.590000 75.000000
651.608000 70.000000
728.573000 35.000000
786.598000 45.000000
797.083000 25.000000
797.131000 35.000000
798.650000 31.000000
799.566000 85.000000
799.652000 19723.000000
800.640000 70.000000
800.669000 25.000000
812.631000 135.000000
812.691000 40.000000
813.561000 33.000000
813.605000 554.000000
813.648000 3691.000000
813.676000 1001.000000
814.568000 35.000000
814.611000 35.000000
814.630000 110.000000
827.658000 40.000000
873.573000 25.000000
873.627000 126.000000
873.654000 172.000000
873.693000 672.000000
873.745000 55.000000

>ms2peaks
78.959000 101.000000
89.015000 10.000000
89.025000 47.000000
111.004000 4.000000
122.986000 23.000000
167.523000 7.000000
168.042000 474.000000
227.199000 10.000000
255.227000 11.000000
263.237000 4.000000
281.247000 12.000000
327.238000 5.000000
328.239000 5.000000
339.323000 4.000000
366.344000 11.000000
367.360000 2.000000
368.358000 5.000000
445.328000 4.000000
451.327000 20.000000
514.370000 4.000000
608.917000 3.000000
620.599000 13.000000
621.574000 8.000000
621.595000 12.000000
621.622000 11.000000
645.613000 3.000000
646.613000 7.000000
649.626000 6.000000
651.635000 4.000000
653.635000 6.000000
663.968000 3.000000
710.586000 13.000000
726.570000 10.000000
726.619000 7.000000
728.562000 13.000000
728.605000 23.000000
741.613000 7.000000
754.616000 9.000000
783.652000 23.000000
783.688000 11.000000
797.084000 6.000000
797.120000 19.000000
797.196000 11.000000
798.629000 11.000000
798.666000 6.000000
799.599000 97.000000
799.671000 12536.000000
799.753000 64.000000
799.922000 7.000000
800.081000 7.000000
800.628000 12.000000
800.663000 69.000000
800.692000 21.000000
800.715000 15.000000
800.995000 8.000000
811.691000 6.000000
813.636000 12.000000
813.687000 28.000000
814.582000 12.000000
814.610000 29.000000
814.635000 50.000000
814.656000 34.000000
873.605000 14.000000
873.658000 90.000000
873.684000 140.000000
873.717000 524.000000
874.717000 10.000000

>ms2peaks
78.958000 122.000000
78.966000 55.000000
89.024000 136.000000
101.025000 65.000000
113.025000 25.000000
119.033000 75.000000
120.042000 20.000000
122.988000 25.000000
141.018000 16.000000
161.049000 30.000000
168.043000 632.000000
179.053000 90.000000
280.262000 35.000000
281.270000 25.000000
283.245000 30.000000
323.329000 35.000000
324.340000 25.000000
327.228000 55.000000
353.344000 21.000000
366.352000 25.000000
367.347000 38.000000
368.354000 21.000000
369.333000 50.000000
370.338000 50.000000
394.358000 46.000000
395.370000 60.000000
451.321000 50.000000
503.343000 26.000000
504.356000 29.000000
563.377000 16.000000
615.601000 15.000000
621.590000 20.000000
632.567000 65.000000
632.604000 90.000000
633.549000 75.000000
633.583000 484.000000
633.603000 341.000000
650.583000 53.000000
651.569000 55.000000
651.590000 75.000000
651.608000 70.000000
728.573000 35.000000
786.598000 45.000000
797.083000 25.000000
797.131000 35.000000
798.650000 31.000000
799.566000 85.000000
799.652000 19723.000000
800.640000 70.000000
800.669000 25.000000
812.631000 135.000000
812.691000 40.000000
813.561000 33.000000
813.605000 554.000000
813.648000 3691.000000
813.676000 1001.000000
814.568000 35.000000
814.611000 35.000000
814.630000 110.000000
827.658000 40.000000
873.573000 25.000000
873.627000 126.000000
873.654000 172.000000
873.693000 672.000000
873.745000 55.000000

