>compound LQB3000463
>parentmass 912.5699
>ionization [M+CH3COOH-H]-
>formula C50H80NO8P
>rt 526.362240
>profile qtof
#smiles_iso CC/C=C\C/C=C\C/C=C\C/C=C\CCCCCCC(=O)OCC(COP(=O)([O-])OCC[N+](C)(C)C)OC(=O)CC/C=C\C/C=C\C/C=C\C/C=C\C/C=C\C/C=C\CC
#smiles_can CCC=CCC=CCC=CCC=CCCCCCCC(=O)OCC(COP(=O)([O-])OCC[N+](C)(C)C)OC(=O)CCC=CCC=CCC=CCC=CCC=CCC=CCC
#inchikey NCCFWEYCQVRLBU-QIKGRQGGSA-N
#pubchem_id 138217019
#mb_accession LQB00166,LQB00552

>ms2
78.958000 20.000000
96.970000 10.000000
152.996000 63.000000
222.998000 75.000000
241.012000 307.000000
253.218000 10.000000
259.008000 6.000000
259.024000 22.000000
279.234000 10.000000
283.263000 304.000000
284.241000 10.000000
284.268000 195.000000
286.260000 24.000000
297.037000 50.000000
303.232000 26.000000
315.050000 30.000000
327.225000 10.000000
329.245000 172.000000
329.260000 68.000000
330.250000 143.000000
419.245000 70.000000
419.261000 78.000000
420.260000 100.000000
465.231000 10.000000
466.236000 24.000000
516.947000 8.000000
581.287000 22.000000
581.299000 64.000000
581.319000 68.000000
581.349000 16.000000
582.311000 138.000000
582.349000 22.000000
599.313000 20.000000
599.334000 16.000000
600.292000 8.000000
600.333000 28.000000
627.264000 10.000000
627.299000 20.000000
628.279000 16.000000
628.297000 30.000000
628.324000 8.000000
669.453000 18.000000
680.953000 7.000000
681.031000 4.000000
691.449000 7.000000
695.434000 4.000000
695.477000 10.000000
724.479000 4.000000
737.070000 4.000000
740.524000 4.000000
750.520000 6.000000
751.451000 14.000000
751.479000 10.000000
754.550000 6.000000
838.540000 26.000000
838.574000 10.000000
909.652000 22.000000
909.720000 8.000000
911.546000 16.000000
912.171000 7.000000
912.572000 5926.000000
912.700000 18.000000
912.787000 12.000000
913.003000 5.000000
913.570000 25.000000

>ms2
78.958000 20.000000
96.970000 10.000000
152.996000 63.000000
222.998000 75.000000
241.012000 307.000000
253.218000 10.000000
259.008000 6.000000
259.024000 22.000000
279.234000 10.000000
283.263000 304.000000
284.241000 10.000000
284.268000 195.000000
286.260000 24.000000
297.037000 50.000000
303.232000 26.000000
315.050000 30.000000
327.225000 10.000000
329.245000 172.000000
329.260000 68.000000
330.250000 143.000000
419.245000 70.000000
419.261000 78.000000
420.260000 100.000000
465.231000 10.000000
466.236000 24.000000
516.947000 8.000000
581.287000 22.000000
581.299000 64.000000
581.319000 68.000000
581.349000 16.000000
582.311000 138.000000
582.349000 22.000000
599.313000 20.000000
599.334000 16.000000
600.292000 8.000000
600.333000 28.000000
627.264000 10.000000
627.299000 20.000000
628.279000 16.000000
628.297000 30.000000
628.324000 8.000000
669.453000 18.000000
680.953000 7.000000
681.031000 4.000000
691.449000 7.000000
695.434000 4.000000
695.477000 10.000000
724.479000 4.000000
737.070000 4.000000
740.524000 4.000000
750.520000 6.000000
751.451000 14.000000
751.479000 10.000000
754.550000 6.000000
838.540000 26.000000
838.574000 10.000000
909.652000 22.000000
909.720000 8.000000
911.546000 16.000000
912.171000 7.000000
912.572000 5926.000000
912.700000 18.000000
912.787000 12.000000
913.003000 5.000000
913.570000 25.000000

