>compound LQB3938878
>parentmass 830.5896
>ionization [M+CH3COOH-H]-
>formula C43H82NO8P
>rt 585.120960
>profile qtof
#smiles_iso CCCCCCCCCCCCCCCCC(=O)OCC(COP(=O)([O-])OCC[N+](C)(C)C)OC(=O)CCCCCCC/C=C\C/C=C\CCCCC
#smiles_can CCCCCCCCCCCCCCCCC(=O)OCC(COP(=O)([O-])OCC[N+](C)(C)C)OC(=O)CCCCCCCC=CCC=CCCCCC
#inchikey ZSKWZJYUVZYDQU-DYMXKLMASA-N
#pubchem_id 14818910
#mb_accession LQB00127,LQB00513

>ms2
168.041000 91.000000
255.230000 387.000000
265.219000 30.000000
269.247000 1419.000000
269.275000 62.000000
278.350000 31.000000
279.230000 4330.000000
281.244000 31.000000
283.247000 73.000000
293.246000 30.000000
327.228000 50.000000
329.236000 63.000000
420.274000 20.000000
429.282000 20.000000
436.284000 20.000000
437.286000 20.000000
438.296000 33.000000
458.261000 93.000000
476.313000 60.000000
480.306000 20.000000
486.292000 90.000000
494.308000 122.000000
494.324000 204.000000
504.309000 50.000000
711.507000 20.000000
748.501000 81.000000
748.527000 163.000000
756.546000 4268.000000
756.613000 62.000000
770.567000 21.000000
771.478000 33.000000
771.554000 20.000000
830.560000 91.000000
830.584000 255.000000

>ms2
168.041000 91.000000
255.230000 387.000000
265.219000 30.000000
269.247000 1419.000000
269.275000 62.000000
278.350000 31.000000
279.230000 4330.000000
281.244000 31.000000
283.247000 73.000000
293.246000 30.000000
327.228000 50.000000
329.236000 63.000000
420.274000 20.000000
429.282000 20.000000
436.284000 20.000000
437.286000 20.000000
438.296000 33.000000
458.261000 93.000000
476.313000 60.000000
480.306000 20.000000
486.292000 90.000000
494.308000 122.000000
494.324000 204.000000
504.309000 50.000000
711.507000 20.000000
748.501000 81.000000
748.527000 163.000000
756.546000 4268.000000
756.613000 62.000000
770.567000 21.000000
771.478000 33.000000
771.554000 20.000000
830.560000 91.000000
830.584000 255.000000

