>compound LQB3586703
>parentmass 812.5445
>ionization [M+CH3COOH-H]-
>formula C42H76NO8P
>rt 520.568520
>profile qtof
#smiles_iso CCCCCCCCCCCCCC(=O)OCC(COP(=O)([O-])OCC[N+](C)(C)C)OC(=O)CCCCCC/C=C\C/C=C\C/C=C\C/C=C\CC
#smiles_can CCCCCCCCCCCCCC(=O)OCC(COP(=O)([O-])OCC[N+](C)(C)C)OC(=O)CCCCCCC=CCC=CCC=CCC=CCC
#inchikey BXZPYXMUABUWBT-DRJPRSGJSA-N
#pubchem_id 138131886
#mb_accession LQB00089,LQB00475

>ms2
78.960000 30.000000
168.040000 194.000000
205.194000 122.000000
224.059000 81.000000
224.070000 122.000000
226.489000 63.000000
227.202000 3282.000000
249.187000 561.000000
255.223000 30.000000
259.239000 519.000000
281.248000 307.000000
301.223000 44.000000
302.289000 40.000000
303.233000 8624.000000
363.198000 40.000000
434.266000 203.000000
452.260000 327.000000
452.274000 510.000000
452.298000 203.000000
474.262000 30.000000
506.301000 90.000000
510.306000 73.000000
528.302000 134.000000
736.172000 40.000000
738.438000 114.000000
738.507000 10363.000000
739.491000 40.000000
753.469000 132.000000
812.505000 152.000000
812.533000 327.000000
812.555000 264.000000
812.582000 132.000000

>ms2
78.960000 30.000000
168.040000 194.000000
205.194000 122.000000
224.059000 81.000000
224.070000 122.000000
226.489000 63.000000
227.202000 3282.000000
249.187000 561.000000
255.223000 30.000000
259.239000 519.000000
281.248000 307.000000
301.223000 44.000000
302.289000 40.000000
303.233000 8624.000000
363.198000 40.000000
434.266000 203.000000
452.260000 327.000000
452.274000 510.000000
452.298000 203.000000
474.262000 30.000000
506.301000 90.000000
510.306000 73.000000
528.302000 134.000000
736.172000 40.000000
738.438000 114.000000
738.507000 10363.000000
739.491000 40.000000
753.469000 132.000000
812.505000 152.000000
812.533000 327.000000
812.555000 264.000000
812.582000 132.000000

