>compound LQB3545576
>parentmass 728.6371
>ionization [M+CH3COOH-H]-
>formula C41H83NO5
>rt 776.375400
>profile qtof
#smiles_iso CCCCCCCCCCCCCCCCCCCCCC(C(=O)NC(CO)C(C(CCCCCCCCCCCCCC)O)O)O
#smiles_can CCCCCCCCCCCCCCCCCCCCCC(C(=O)NC(CO)C(C(CCCCCCCCCCCCCC)O)O)O
#inchikey LXCDJSOYWPJYDC-UHFFFAOYSA-N
#pubchem_id 25200791
#mb_accession LQB00005,LQB00391

>ms2peaks
88.042000 10.000000
100.041000 6.000000
141.011000 9.000000
225.222000 18.000000
241.216000 6.000000
253.211000 20.000000
253.228000 14.000000
255.231000 110.000000
266.249000 8.000000
267.230000 128.000000
268.258000 6.000000
279.228000 22.000000
280.263000 28.000000
281.247000 29.000000
284.258000 38.000000
308.257000 18.000000
309.310000 12.000000
316.280000 22.000000
321.312000 12.000000
323.330000 347.000000
337.346000 38.000000
351.320000 40.000000
351.337000 24.000000
355.308000 13.000000
364.355000 32.000000
368.339000 26.000000
368.354000 92.000000
369.332000 506.000000
376.354000 28.000000
382.360000 11.000000
383.353000 26.000000
394.363000 68.000000
410.359000 40.000000
412.377000 285.000000
424.377000 236.000000
426.394000 12.000000
438.387000 18.000000
578.348000 10.000000
602.584000 16.000000
620.605000 14.000000
632.593000 26.000000
636.568000 12.000000
636.606000 16.000000
639.596000 9.000000
640.617000 12.000000
650.591000 26.000000
650.614000 46.000000
666.500000 10.000000
666.582000 14.000000
668.397000 8.000000
668.615000 4315.000000
668.706000 8.000000
682.632000 52.000000
728.521000 4.000000
728.570000 5.000000

>ms2peaks
88.042000 10.000000
100.041000 6.000000
141.011000 9.000000
225.222000 18.000000
241.216000 6.000000
253.211000 20.000000
253.228000 14.000000
255.231000 110.000000
266.249000 8.000000
267.230000 128.000000
268.258000 6.000000
279.228000 22.000000
280.263000 28.000000
281.247000 29.000000
284.258000 38.000000
308.257000 18.000000
309.310000 12.000000
316.280000 22.000000
321.312000 12.000000
323.330000 347.000000
337.346000 38.000000
351.320000 40.000000
351.337000 24.000000
355.308000 13.000000
364.355000 32.000000
368.339000 26.000000
368.354000 92.000000
369.332000 506.000000
376.354000 28.000000
382.360000 11.000000
383.353000 26.000000
394.363000 68.000000
410.359000 40.000000
412.377000 285.000000
424.377000 236.000000
426.394000 12.000000
438.387000 18.000000
578.348000 10.000000
602.584000 16.000000
620.605000 14.000000
632.593000 26.000000
636.568000 12.000000
636.606000 16.000000
639.596000 9.000000
640.617000 12.000000
650.591000 26.000000
650.614000 46.000000
666.500000 10.000000
666.582000 14.000000
668.397000 8.000000
668.615000 4315.000000
668.706000 8.000000
682.632000 52.000000
728.521000 4.000000
728.570000 5.000000

