>compound LQB3084659
>parentmass 907.5339
>ionization [M-H]-
>formula C49H81O13P
>rt 498.168420
>profile qtof
#smiles_iso CCCCCCCC/C=C\CCCCCCCC(=O)OCC(COP(=O)(O)OC1C(C(C(C(C1O)O)O)O)O)OC(=O)CC/C=C\C/C=C\C/C=C\C/C=C\C/C=C\C/C=C\CC
#smiles_can CCCCCCCCC=CCCCCCCCC(=O)OCC(COP(=O)(O)OC1C(C(C(C(C1O)O)O)O)O)OC(=O)CCC=CCC=CCC=CCC=CCC=CCC=CCC
#inchikey QHPDGSFYNQHVMI-HILQMKNTSA-N
#pubchem_id 138243885
#mb_accession LQB00320,LQB00706

>ms2
78.959000 78.000000
96.969000 22.000000
134.980000 16.000000
152.995000 218.000000
222.998000 273.000000
229.192000 51.000000
229.208000 16.000000
240.259000 18.000000
241.010000 1348.000000
249.179000 20.000000
249.205000 12.000000
255.237000 16.000000
259.018000 195.000000
280.376000 22.000000
281.247000 2414.000000
282.246000 34.000000
283.242000 511.000000
283.267000 16.000000
297.038000 274.000000
309.229000 13.000000
315.045000 134.000000
327.230000 1070.000000
327.264000 23.000000
417.198000 16.000000
417.237000 1156.000000
417.276000 30.000000
435.229000 37.000000
435.252000 95.000000
463.218000 156.000000
463.243000 33.000000
505.232000 13.000000
523.279000 13.000000
577.282000 9.000000
579.286000 1324.000000
579.332000 41.000000
597.233000 9.000000
597.296000 256.000000
597.323000 96.000000
625.240000 34.000000
625.277000 165.000000
643.290000 36.000000
745.475000 34.000000
746.434000 9.000000
747.482000 24.000000
755.066000 7.000000
807.529000 6.000000
817.512000 7.000000
821.488000 6.000000
822.507000 5.000000
825.478000 6.000000
829.550000 10.000000
833.540000 21.000000
847.492000 11.000000
847.549000 13.000000
857.491000 10.000000
857.553000 6.000000
861.487000 6.000000
863.621000 6.000000
875.492000 36.000000
889.543000 20.000000
904.631000 32.000000
904.663000 37.000000
904.706000 46.000000
906.997000 10.000000
907.388000 10.000000
907.441000 65.000000
907.530000 20709.000000
907.635000 53.000000
908.498000 31.000000
908.544000 47.000000
908.586000 23.000000
909.479000 10.000000

>ms2
78.959000 78.000000
96.969000 22.000000
134.980000 16.000000
152.995000 218.000000
222.998000 273.000000
229.192000 51.000000
229.208000 16.000000
240.259000 18.000000
241.010000 1348.000000
249.179000 20.000000
249.205000 12.000000
255.237000 16.000000
259.018000 195.000000
280.376000 22.000000
281.247000 2414.000000
282.246000 34.000000
283.242000 511.000000
283.267000 16.000000
297.038000 274.000000
309.229000 13.000000
315.045000 134.000000
327.230000 1070.000000
327.264000 23.000000
417.198000 16.000000
417.237000 1156.000000
417.276000 30.000000
435.229000 37.000000
435.252000 95.000000
463.218000 156.000000
463.243000 33.000000
505.232000 13.000000
523.279000 13.000000
577.282000 9.000000
579.286000 1324.000000
579.332000 41.000000
597.233000 9.000000
597.296000 256.000000
597.323000 96.000000
625.240000 34.000000
625.277000 165.000000
643.290000 36.000000
745.475000 34.000000
746.434000 9.000000
747.482000 24.000000
755.066000 7.000000
807.529000 6.000000
817.512000 7.000000
821.488000 6.000000
822.507000 5.000000
825.478000 6.000000
829.550000 10.000000
833.540000 21.000000
847.492000 11.000000
847.549000 13.000000
857.491000 10.000000
857.553000 6.000000
861.487000 6.000000
863.621000 6.000000
875.492000 36.000000
889.543000 20.000000
904.631000 32.000000
904.663000 37.000000
904.706000 46.000000
906.997000 10.000000
907.388000 10.000000
907.441000 65.000000
907.530000 20709.000000
907.635000 53.000000
908.498000 31.000000
908.544000 47.000000
908.586000 23.000000
909.479000 10.000000

