>compound LQB3564775
>parentmass 869.67035
>ionization [M+CH3COOH-H]-
>formula C47H91N2O6P
>rt 664.204200
>profile qtof
#smiles_iso CCCCCCCCCCCC/C=C\CCCCCCCCCC(=O)NC(COP(=O)([O-])OCC[N+](C)(C)C)C(/C=C/CC/C=C/CCCCCCCCC)O
#smiles_can CCCCCCCCCCCCC=CCCCCCCCCCC(=O)NC(COP(=O)([O-])OCC[N+](C)(C)C)C(C=CCCC=CCCCCCCCCC)O
#inchikey BLBKGYQIQUVNRP-CLQBYUGCSA-N
#pubchem_id 138127665
#mb_accession LQB00384,LQB00385,LQB00770,LQB00771

>ms2
78.958000 72.000000
122.982000 13.000000
141.011000 6.000000
168.041000 188.000000
221.015000 6.000000
430.217000 8.000000
447.284000 16.000000
447.321000 10.000000
449.306000 10.000000
453.749000 6.000000
480.563000 9.000000
496.802000 6.000000
724.540000 19.000000
724.570000 17.000000
750.586000 14.000000
793.116000 12.000000
795.635000 6834.000000
795.900000 14.000000
796.152000 9.000000
796.642000 39.000000
810.567000 17.000000
810.606000 49.000000
869.616000 26.000000
869.668000 159.000000
869.705000 58.000000
869.757000 11.000000

>ms2
78.960000 466.000000
96.969000 10.000000
122.985000 80.000000
141.018000 4.000000
167.521000 10.000000
168.042000 1721.000000
196.034000 4.000000
255.228000 5.000000
281.248000 5.000000
283.265000 9.000000
284.261000 4.000000
303.236000 5.000000
363.318000 5.000000
365.342000 15.000000
419.252000 4.000000
438.304000 4.000000
444.846000 5.000000
445.485000 7.000000
447.265000 7.000000
447.291000 59.000000
449.299000 14.000000
449.316000 18.000000
458.299000 4.000000
481.206000 4.000000
483.284000 3.000000
509.937000 3.000000
514.356000 10.000000
514.498000 3.000000
553.257000 4.000000
643.561000 7.000000
706.519000 14.000000
706.556000 24.000000
724.525000 29.000000
724.554000 96.000000
724.612000 7.000000
750.535000 15.000000
750.563000 47.000000
750.607000 15.000000
793.024000 7.000000
793.068000 34.000000
793.092000 33.000000
793.112000 98.000000
793.153000 27.000000
794.690000 10.000000
795.460000 8.000000
795.530000 46.000000
795.620000 48867.000000
795.709000 89.000000
796.106000 9.000000
796.154000 7.000000
796.593000 35.000000
796.626000 91.000000
796.658000 37.000000
797.614000 11.000000
809.578000 12.000000
809.624000 11.000000
809.657000 9.000000
810.581000 309.000000
810.616000 42.000000
823.599000 7.000000
823.635000 24.000000
857.569000 5.000000
869.478000 12.000000
869.658000 1555.000000
869.745000 13.000000
873.732000 5.000000

>ms2
78.958000 72.000000
122.982000 13.000000
141.011000 6.000000
168.041000 188.000000
221.015000 6.000000
430.217000 8.000000
447.284000 16.000000
447.321000 10.000000
449.306000 10.000000
453.749000 6.000000
480.563000 9.000000
496.802000 6.000000
724.540000 19.000000
724.570000 17.000000
750.586000 14.000000
793.116000 12.000000
795.635000 6834.000000
795.900000 14.000000
796.152000 9.000000
796.642000 39.000000
810.567000 17.000000
810.606000 49.000000
869.616000 26.000000
869.668000 159.000000
869.705000 58.000000
869.757000 11.000000

>ms2
78.960000 466.000000
96.969000 10.000000
122.985000 80.000000
141.018000 4.000000
167.521000 10.000000
168.042000 1721.000000
196.034000 4.000000
255.228000 5.000000
281.248000 5.000000
283.265000 9.000000
284.261000 4.000000
303.236000 5.000000
363.318000 5.000000
365.342000 15.000000
419.252000 4.000000
438.304000 4.000000
444.846000 5.000000
445.485000 7.000000
447.265000 7.000000
447.291000 59.000000
449.299000 14.000000
449.316000 18.000000
458.299000 4.000000
481.206000 4.000000
483.284000 3.000000
509.937000 3.000000
514.356000 10.000000
514.498000 3.000000
553.257000 4.000000
643.561000 7.000000
706.519000 14.000000
706.556000 24.000000
724.525000 29.000000
724.554000 96.000000
724.612000 7.000000
750.535000 15.000000
750.563000 47.000000
750.607000 15.000000
793.024000 7.000000
793.068000 34.000000
793.092000 33.000000
793.112000 98.000000
793.153000 27.000000
794.690000 10.000000
795.460000 8.000000
795.530000 46.000000
795.620000 48867.000000
795.709000 89.000000
796.106000 9.000000
796.154000 7.000000
796.593000 35.000000
796.626000 91.000000
796.658000 37.000000
797.614000 11.000000
809.578000 12.000000
809.624000 11.000000
809.657000 9.000000
810.581000 309.000000
810.616000 42.000000
823.599000 7.000000
823.635000 24.000000
857.569000 5.000000
869.478000 12.000000
869.658000 1555.000000
869.745000 13.000000
873.732000 5.000000

