>compound LQB3718979
>parentmass 776.5203
>ionization [M-H]-
>formula C44H76NO8P
>rt 583.098180
>profile qtof
#smiles_iso CCCCCCCCCCCCCCCCC(=O)OCC(COP(=O)(O)OCCN)OC(=O)CC/C=C\C/C=C\C/C=C\C/C=C\C/C=C\C/C=C\CC
#smiles_can CCCCCCCCCCCCCCCCC(=O)OCC(COP(=O)(O)OCCN)OC(=O)CCC=CCC=CCC=CCC=CCC=CCC=CCC
#inchikey WVGREBRFGJNLSB-KAFSZNKPSA-N
#pubchem_id 134777294
#mb_accession LQB00193,LQB00579

>ms2
140.011000 151.000000
177.162000 70.000000
191.181000 51.000000
196.035000 214.000000
214.046000 71.000000
229.198000 162.000000
249.195000 55.000000
255.224000 52.000000
269.246000 2490.000000
283.241000 1306.000000
284.246000 51.000000
309.222000 21.000000
327.229000 3350.000000
327.585000 21.000000
418.277000 30.000000
437.287000 20.000000
448.283000 131.000000
466.291000 591.000000
506.263000 50.000000
524.281000 70.000000
702.544000 30.000000
715.569000 53.000000
716.564000 50.000000
774.071000 64.000000
776.474000 313.000000
776.515000 5164.000000

>ms2
140.011000 151.000000
177.162000 70.000000
191.181000 51.000000
196.035000 214.000000
214.046000 71.000000
229.198000 162.000000
249.195000 55.000000
255.224000 52.000000
269.246000 2490.000000
283.241000 1306.000000
284.246000 51.000000
309.222000 21.000000
327.229000 3350.000000
327.585000 21.000000
418.277000 30.000000
437.287000 20.000000
448.283000 131.000000
466.291000 591.000000
506.263000 50.000000
524.281000 70.000000
702.544000 30.000000
715.569000 53.000000
716.564000 50.000000
774.071000 64.000000
776.474000 313.000000
776.515000 5164.000000

