>compound LQB3523033
>parentmass 874.65405
>ionization [M+CH3COOH-H]-
>formula C46H90NO8P
>rt 737.371800
>profile qtof
#smiles_iso CCCCCCCCCCCCCCCCCC(=O)OCC(COP(=O)([O-])OCC[N+](C)(C)C)OC(=O)CCCCCCCCC/C=C\CCCCCCCC
#smiles_can CCCCCCCCCCCCCCCCCC(=O)OCC(COP(=O)([O-])OCC[N+](C)(C)C)OC(=O)CCCCCCCCCC=CCCCCCCCC
#inchikey PDGHHNMEFVJAAM-XDOYNYLZSA-N
#pubchem_id 138233987
#mb_accession LQB00133,LQB00134,LQB00519,LQB00520

>ms2
78.961000 5.000000
126.999000 5.000000
141.018000 6.000000
162.061000 3.000000
168.040000 12.000000
224.068000 9.000000
255.233000 24.000000
281.246000 37.000000
281.258000 15.000000
283.263000 269.000000
295.256000 4.000000
303.232000 4.000000
308.317000 5.000000
309.278000 815.000000
311.295000 15.000000
337.309000 23.000000
377.014000 6.000000
382.985000 4.000000
396.968000 4.000000
410.995000 4.000000
420.978000 4.000000
459.022000 7.000000
464.979000 5.000000
490.329000 13.000000
502.280000 3.000000
508.340000 54.000000
516.343000 10.000000
534.351000 7.000000
541.013000 4.000000
546.936000 4.000000
579.056000 3.000000
584.976000 5.000000
601.049000 3.000000
622.936000 3.000000
629.008000 4.000000
666.924000 3.000000
705.044000 4.000000
727.583000 12.000000
753.570000 4.000000
787.611000 5.000000
798.079000 4.000000
798.658000 10.000000
799.625000 6.000000
799.646000 16.000000
799.680000 14.000000
800.614000 980.000000
800.656000 145.000000
801.615000 6.000000
812.678000 5.000000
814.679000 8.000000
815.590000 9.000000
874.646000 101.000000
874.684000 25.000000
874.713000 14.000000

>ms2
168.040000 60.000000
224.070000 81.000000
253.211000 91.000000
253.229000 51.000000
255.222000 82.000000
255.234000 173.000000
280.368000 42.000000
281.247000 2885.000000
283.263000 1031.000000
308.237000 21.000000
308.321000 43.000000
309.277000 2665.000000
311.295000 1184.000000
337.310000 152.000000
339.327000 82.000000
341.383000 20.000000
355.328000 60.000000
356.324000 50.000000
357.338000 23.000000
367.353000 33.000000
369.355000 33.000000
396.352000 33.000000
418.238000 30.000000
440.726000 20.000000
480.311000 20.000000
488.299000 20.000000
490.324000 65.000000
503.355000 40.000000
504.353000 40.000000
505.354000 50.000000
506.325000 60.000000
508.337000 192.000000
518.357000 50.000000
536.366000 203.000000
588.571000 40.000000
618.586000 70.000000
633.614000 50.000000
634.604000 100.000000
636.567000 326.000000
636.597000 448.000000
636.622000 142.000000
727.597000 50.000000
748.592000 50.000000
787.594000 121.000000
796.632000 121.000000
798.633000 73.000000
799.662000 116.000000
800.563000 242.000000
800.613000 7562.000000
800.639000 1319.000000
800.669000 408.000000
801.605000 70.000000
814.647000 194.000000
814.674000 306.000000
814.712000 51.000000
815.569000 111.000000
828.646000 50.000000
874.612000 91.000000
874.625000 194.000000
874.644000 571.000000
874.658000 255.000000
874.672000 214.000000
874.683000 112.000000

>ms2
78.961000 5.000000
126.999000 5.000000
141.018000 6.000000
162.061000 3.000000
168.040000 12.000000
224.068000 9.000000
255.233000 24.000000
281.246000 37.000000
281.258000 15.000000
283.263000 269.000000
295.256000 4.000000
303.232000 4.000000
308.317000 5.000000
309.278000 815.000000
311.295000 15.000000
337.309000 23.000000
377.014000 6.000000
382.985000 4.000000
396.968000 4.000000
410.995000 4.000000
420.978000 4.000000
459.022000 7.000000
464.979000 5.000000
490.329000 13.000000
502.280000 3.000000
508.340000 54.000000
516.343000 10.000000
534.351000 7.000000
541.013000 4.000000
546.936000 4.000000
579.056000 3.000000
584.976000 5.000000
601.049000 3.000000
622.936000 3.000000
629.008000 4.000000
666.924000 3.000000
705.044000 4.000000
727.583000 12.000000
753.570000 4.000000
787.611000 5.000000
798.079000 4.000000
798.658000 10.000000
799.625000 6.000000
799.646000 16.000000
799.680000 14.000000
800.614000 980.000000
800.656000 145.000000
801.615000 6.000000
812.678000 5.000000
814.679000 8.000000
815.590000 9.000000
874.646000 101.000000
874.684000 25.000000
874.713000 14.000000

>ms2
168.040000 60.000000
224.070000 81.000000
253.211000 91.000000
253.229000 51.000000
255.222000 82.000000
255.234000 173.000000
280.368000 42.000000
281.247000 2885.000000
283.263000 1031.000000
308.237000 21.000000
308.321000 43.000000
309.277000 2665.000000
311.295000 1184.000000
337.310000 152.000000
339.327000 82.000000
341.383000 20.000000
355.328000 60.000000
356.324000 50.000000
357.338000 23.000000
367.353000 33.000000
369.355000 33.000000
396.352000 33.000000
418.238000 30.000000
440.726000 20.000000
480.311000 20.000000
488.299000 20.000000
490.324000 65.000000
503.355000 40.000000
504.353000 40.000000
505.354000 50.000000
506.325000 60.000000
508.337000 192.000000
518.357000 50.000000
536.366000 203.000000
588.571000 40.000000
618.586000 70.000000
633.614000 50.000000
634.604000 100.000000
636.567000 326.000000
636.597000 448.000000
636.622000 142.000000
727.597000 50.000000
748.592000 50.000000
787.594000 121.000000
796.632000 121.000000
798.633000 73.000000
799.662000 116.000000
800.563000 242.000000
800.613000 7562.000000
800.639000 1319.000000
800.669000 408.000000
801.605000 70.000000
814.647000 194.000000
814.674000 306.000000
814.712000 51.000000
815.569000 111.000000
828.646000 50.000000
874.612000 91.000000
874.625000 194.000000
874.644000 571.000000
874.658000 255.000000
874.672000 214.000000
874.683000 112.000000

