>compound LQB3611271
>parentmass 817.6396
>ionization [M+CH3COOH-H]-
>formula C43H87N2O6P
>rt 645.105000
>profile qtof
#smiles_iso CCCCCCCCCCCCCCCCCC(=O)NC(COP(=O)([O-])OCC[N+](C)(C)C)C(/C=C/CCCCCCCCCCCCCCC)O
#smiles_can CCCCCCCCCCCCCCCCCC(=O)NC(COP(=O)([O-])OCC[N+](C)(C)C)C(C=CCCCCCCCCCCCCCCC)O
#inchikey RKSINWLCEVSJKG-JMUUFCRMSA-N
#pubchem_id 138253245
#mb_accession LQB00386,LQB00772

>ms2peaks
78.958000 222.000000
89.023000 121.000000
101.020000 45.000000
113.022000 20.000000
119.031000 92.000000
122.980000 70.000000
143.032000 20.000000
149.043000 30.000000
161.042000 20.000000
168.043000 724.000000
179.054000 40.000000
180.053000 20.000000
239.224000 20.000000
280.267000 40.000000
281.262000 50.000000
282.269000 30.000000
283.267000 101.000000
309.285000 40.000000
327.294000 20.000000
328.298000 20.000000
352.321000 50.000000
353.321000 30.000000
402.855000 20.000000
419.447000 20.000000
436.259000 20.000000
448.291000 30.000000
477.347000 33.000000
590.523000 80.000000
590.559000 141.000000
591.500000 33.000000
591.548000 225.000000
591.574000 172.000000
609.572000 83.000000
672.526000 60.000000
730.539000 60.000000
743.610000 14247.000000
743.653000 630.000000
743.703000 42.000000
744.612000 52.000000
758.557000 100.000000
770.597000 232.000000
770.638000 101.000000
771.586000 472.000000
771.620000 1505.000000
771.683000 71.000000
817.567000 60.000000
817.605000 102.000000
817.632000 235.000000
817.659000 195.000000
817.691000 80.000000

>ms2peaks
78.958000 222.000000
89.023000 121.000000
101.020000 45.000000
113.022000 20.000000
119.031000 92.000000
122.980000 70.000000
143.032000 20.000000
149.043000 30.000000
161.042000 20.000000
168.043000 724.000000
179.054000 40.000000
180.053000 20.000000
239.224000 20.000000
280.267000 40.000000
281.262000 50.000000
282.269000 30.000000
283.267000 101.000000
309.285000 40.000000
327.294000 20.000000
328.298000 20.000000
352.321000 50.000000
353.321000 30.000000
402.855000 20.000000
419.447000 20.000000
436.259000 20.000000
448.291000 30.000000
477.347000 33.000000
590.523000 80.000000
590.559000 141.000000
591.500000 33.000000
591.548000 225.000000
591.574000 172.000000
609.572000 83.000000
672.526000 60.000000
730.539000 60.000000
743.610000 14247.000000
743.653000 630.000000
743.703000 42.000000
744.612000 52.000000
758.557000 100.000000
770.597000 232.000000
770.638000 101.000000
771.586000 472.000000
771.620000 1505.000000
771.683000 71.000000
817.567000 60.000000
817.605000 102.000000
817.632000 235.000000
817.659000 195.000000
817.691000 80.000000

