>compound LQB3718134
>parentmass 847.68595
>ionization [M+CH3COOH-H]-
>formula C45H93N2O6P
>rt 766.341000
>profile qtof
#smiles_iso CCCCCCCCCCCCCCCCCCCCCC(=O)NC(COP(=O)([O-])OCC[N+](C)(C)C)C(CCCCCCCCCCCCCCC)O
#smiles_can CCCCCCCCCCCCCCCCCCCCCC(=O)NC(COP(=O)([O-])OCC[N+](C)(C)C)C(CCCCCCCCCCCCCCC)O
#inchikey FONAXCRWZQFJHY-UHFFFAOYSA-N
#pubchem_id 74978595
#mb_accession LQB00349,LQB00350,LQB00735,LQB00736

>ms2peaks
78.959000 139.000000
89.023000 4.000000
96.973000 4.000000
122.984000 14.000000
141.016000 6.000000
168.042000 485.000000
220.141000 4.000000
255.230000 12.000000
281.243000 24.000000
284.269000 8.000000
430.985000 6.000000
440.322000 6.000000
451.314000 20.000000
451.346000 10.000000
501.531000 4.000000
539.435000 4.000000
604.926000 4.000000
639.585000 11.000000
655.541000 22.000000
655.656000 5.000000
668.490000 4.000000
684.555000 22.000000
702.554000 22.000000
702.573000 30.000000
728.568000 11.000000
728.609000 12.000000
771.145000 20.000000
771.193000 18.000000
771.221000 16.000000
773.574000 88.000000
773.643000 11819.000000
773.894000 18.000000
774.647000 32.000000
787.660000 30.000000
788.566000 22.000000
788.588000 36.000000
788.621000 62.000000
797.629000 32.000000
797.650000 38.000000
797.680000 19.000000
801.658000 21.000000
801.688000 16.000000
847.596000 22.000000
847.635000 57.000000
847.658000 167.000000
847.681000 208.000000
847.705000 91.000000
847.747000 18.000000

>ms2peaks
78.959000 121.000000
122.990000 10.000000
168.043000 300.000000
228.224000 10.000000
281.256000 10.000000
284.255000 16.000000
328.238000 15.000000
340.352000 10.000000
393.041000 10.000000
428.250000 10.000000
445.998000 10.000000
525.971000 11.000000
655.547000 20.000000
771.214000 50.000000
773.577000 158.000000
773.620000 1794.000000
773.650000 6738.000000
774.652000 25.000000
786.675000 47.000000
787.670000 12.000000
788.623000 65.000000
797.654000 33.000000
801.658000 55.000000
847.580000 45.000000
847.613000 45.000000
847.658000 126.000000
847.688000 177.000000
847.724000 60.000000
847.750000 25.000000

>ms2peaks
78.959000 139.000000
89.023000 4.000000
96.973000 4.000000
122.984000 14.000000
141.016000 6.000000
168.042000 485.000000
220.141000 4.000000
255.230000 12.000000
281.243000 24.000000
284.269000 8.000000
430.985000 6.000000
440.322000 6.000000
451.314000 20.000000
451.346000 10.000000
501.531000 4.000000
539.435000 4.000000
604.926000 4.000000
639.585000 11.000000
655.541000 22.000000
655.656000 5.000000
668.490000 4.000000
684.555000 22.000000
702.554000 22.000000
702.573000 30.000000
728.568000 11.000000
728.609000 12.000000
771.145000 20.000000
771.193000 18.000000
771.221000 16.000000
773.574000 88.000000
773.643000 11819.000000
773.894000 18.000000
774.647000 32.000000
787.660000 30.000000
788.566000 22.000000
788.588000 36.000000
788.621000 62.000000
797.629000 32.000000
797.650000 38.000000
797.680000 19.000000
801.658000 21.000000
801.688000 16.000000
847.596000 22.000000
847.635000 57.000000
847.658000 167.000000
847.681000 208.000000
847.705000 91.000000
847.747000 18.000000

>ms2peaks
78.959000 121.000000
122.990000 10.000000
168.043000 300.000000
228.224000 10.000000
281.256000 10.000000
284.255000 16.000000
328.238000 15.000000
340.352000 10.000000
393.041000 10.000000
428.250000 10.000000
445.998000 10.000000
525.971000 11.000000
655.547000 20.000000
771.214000 50.000000
773.577000 158.000000
773.620000 1794.000000
773.650000 6738.000000
774.652000 25.000000
786.675000 47.000000
787.670000 12.000000
788.623000 65.000000
797.654000 33.000000
801.658000 55.000000
847.580000 45.000000
847.613000 45.000000
847.658000 126.000000
847.688000 177.000000
847.724000 60.000000
847.750000 25.000000

