>compound LQB3940107
>parentmass 812.5197
>ionization [M-H]-
>formula C47H76NO8P
>rt 547.487280
>profile qtof
#smiles_iso CC/C=C\C/C=C\C/C=C\CCCCCCCCCC(=O)OCC(COP(=O)(O)OCCN)OC(=O)CC/C=C\C/C=C\C/C=C\C/C=C\C/C=C\C/C=C\CC
#smiles_can CCC=CCC=CCC=CCCCCCCCCCC(=O)OCC(COP(=O)(O)OCCN)OC(=O)CCC=CCC=CCC=CCC=CCC=CCC=CCC
#inchikey MYXOMSHYXUSJCJ-PVFFKTCKSA-N
#pubchem_id 138216015
#mb_accession LQB00229,LQB00615

>ms2
140.013000 10.000000
196.038000 10.000000
249.185000 15.000000
253.226000 15.000000
255.230000 25.000000
283.240000 115.000000
283.272000 15.000000
284.264000 15.000000
303.243000 10.000000
305.245000 300.000000
317.212000 10.000000
327.232000 322.000000
419.249000 25.000000
441.231000 11.000000
445.937000 10.000000
484.277000 20.000000
502.288000 55.000000
725.501000 30.000000
812.504000 480.000000
812.534000 250.000000

>ms2
140.013000 10.000000
196.038000 10.000000
249.185000 15.000000
253.226000 15.000000
255.230000 25.000000
283.240000 115.000000
283.272000 15.000000
284.264000 15.000000
303.243000 10.000000
305.245000 300.000000
317.212000 10.000000
327.232000 322.000000
419.249000 25.000000
441.231000 11.000000
445.937000 10.000000
484.277000 20.000000
502.288000 55.000000
725.501000 30.000000
812.504000 480.000000
812.534000 250.000000

