>compound LQB3478882
>parentmass 868.6048
>ionization [M+CH3COOH-H]-
>formula C46H84NO8P
>rt 609.930600
>profile qtof
#smiles_iso CCCCCCCCCCCCCCCCCC(=O)OCC(COP(=O)([O-])OCC[N+](C)(C)C)OC(=O)CCCCCC/C=C\C/C=C\C/C=C\C/C=C\CC
#smiles_can CCCCCCCCCCCCCCCCCC(=O)OCC(COP(=O)([O-])OCC[N+](C)(C)C)OC(=O)CCCCCCC=CCC=CCC=CCC=CCC
#inchikey HAKKEJDMTIQLJH-WKUHSSGJSA-N
#pubchem_id 138166196
#mb_accession LQB00138,LQB00524

>ms2
78.959000 101.000000
152.995000 60.000000
163.077000 70.000000
168.042000 744.000000
177.091000 71.000000
205.194000 449.000000
217.194000 60.000000
224.068000 927.000000
231.209000 80.000000
242.078000 143.000000
259.241000 3199.000000
282.379000 158.000000
282.404000 33.000000
283.263000 20737.000000
285.218000 269.000000
301.214000 71.000000
302.299000 88.000000
303.054000 66.000000
303.231000 53297.000000
304.116000 39.000000
304.241000 55.000000
419.244000 124.000000
437.261000 50.000000
480.349000 20.000000
483.606000 20.000000
484.847000 30.000000
490.324000 785.000000
490.368000 50.000000
506.710000 21.000000
507.822000 21.000000
508.335000 5970.000000
508.367000 337.000000
509.305000 21.000000
510.291000 490.000000
515.236000 20.000000
523.294000 65.000000
528.294000 214.000000
528.309000 276.000000
603.552000 161.000000
723.501000 60.000000
749.512000 121.000000
792.028000 81.000000
792.065000 193.000000
794.486000 50.000000
794.563000 54444.000000
795.118000 37.000000
795.562000 125.000000
795.593000 88.000000
809.526000 725.000000
809.563000 128.000000
868.601000 5720.000000

>ms2
78.959000 101.000000
152.995000 60.000000
163.077000 70.000000
168.042000 744.000000
177.091000 71.000000
205.194000 449.000000
217.194000 60.000000
224.068000 927.000000
231.209000 80.000000
242.078000 143.000000
259.241000 3199.000000
282.379000 158.000000
282.404000 33.000000
283.263000 20737.000000
285.218000 269.000000
301.214000 71.000000
302.299000 88.000000
303.054000 66.000000
303.231000 53297.000000
304.116000 39.000000
304.241000 55.000000
419.244000 124.000000
437.261000 50.000000
480.349000 20.000000
483.606000 20.000000
484.847000 30.000000
490.324000 785.000000
490.368000 50.000000
506.710000 21.000000
507.822000 21.000000
508.335000 5970.000000
508.367000 337.000000
509.305000 21.000000
510.291000 490.000000
515.236000 20.000000
523.294000 65.000000
528.294000 214.000000
528.309000 276.000000
603.552000 161.000000
723.501000 60.000000
749.512000 121.000000
792.028000 81.000000
792.065000 193.000000
794.486000 50.000000
794.563000 54444.000000
795.118000 37.000000
795.562000 125.000000
795.593000 88.000000
809.526000 725.000000
809.563000 128.000000
868.601000 5720.000000

