>compound LQB3784530
>parentmass 720.6467
>ionization [M+CH3COOH-H]-
>formula C43H83NO3
>rt 794.164200
>profile qtof
#smiles_iso CCCCCCCCCCCCCCCCCCCCCCCCC(=O)NC(CO)C(/C=C/CC/C=C/CCCCCCCCC)O
#smiles_can CCCCCCCCCCCCCCCCCCCCCCCCC(=O)NC(CO)C(C=CCCC=CCCCCCCCCC)O
#inchikey SHGDZPJYRJJAQG-INARCNGISA-N
#pubchem_id 138260618
#mb_accession LQB00062,LQB00448

>ms2peaks
141.017000 40.000000
158.983000 20.000000
174.068000 30.000000
217.189000 20.000000
223.054000 30.000000
235.201000 153.000000
237.221000 73.000000
238.224000 40.000000
261.219000 132.000000
263.237000 30.000000
264.239000 40.000000
266.244000 30.000000
267.249000 20.000000
281.244000 23.000000
349.345000 50.000000
350.350000 131.000000
363.361000 121.000000
366.369000 43.000000
367.377000 82.000000
380.380000 142.000000
380.402000 60.000000
381.368000 90.000000
392.379000 111.000000
392.395000 254.000000
393.370000 70.000000
393.384000 80.000000
393.402000 47.000000
406.400000 633.000000
406.419000 91.000000
408.383000 33.000000
409.387000 43.000000
422.400000 90.000000
601.595000 60.000000
601.635000 41.000000
612.593000 100.000000
619.614000 60.000000
628.495000 91.000000
628.524000 101.000000
628.598000 82.000000
630.608000 223.000000
630.657000 40.000000
642.529000 100.000000
649.632000 50.000000
660.523000 81.000000
660.553000 163.000000
660.589000 255.000000
660.629000 1612.000000
674.633000 40.000000
720.523000 30.000000
720.582000 100.000000
720.656000 33.000000

>ms2peaks
141.017000 40.000000
158.983000 20.000000
174.068000 30.000000
217.189000 20.000000
223.054000 30.000000
235.201000 153.000000
237.221000 73.000000
238.224000 40.000000
261.219000 132.000000
263.237000 30.000000
264.239000 40.000000
266.244000 30.000000
267.249000 20.000000
281.244000 23.000000
349.345000 50.000000
350.350000 131.000000
363.361000 121.000000
366.369000 43.000000
367.377000 82.000000
380.380000 142.000000
380.402000 60.000000
381.368000 90.000000
392.379000 111.000000
392.395000 254.000000
393.370000 70.000000
393.384000 80.000000
393.402000 47.000000
406.400000 633.000000
406.419000 91.000000
408.383000 33.000000
409.387000 43.000000
422.400000 90.000000
601.595000 60.000000
601.635000 41.000000
612.593000 100.000000
619.614000 60.000000
628.495000 91.000000
628.524000 101.000000
628.598000 82.000000
630.608000 223.000000
630.657000 40.000000
642.529000 100.000000
649.632000 50.000000
660.523000 81.000000
660.553000 163.000000
660.589000 255.000000
660.629000 1612.000000
674.633000 40.000000
720.523000 30.000000
720.582000 100.000000
720.656000 33.000000

