>compound LQB3117023
>parentmass 818.5911
>ionization [M+CH3COOH-H]-
>formula C42H82NO8P
>rt 591.694440
>profile qtof
#smiles_iso CCCCCCCCCCCCCCCC(=O)OCC(COP(=O)([O-])OCC[N+](C)(C)C)OC(=O)CCCCCCC/C=C\CCCCCCCC
#smiles_can CCCCCCCCCCCCCCCC(=O)OCC(COP(=O)([O-])OCC[N+](C)(C)C)OC(=O)CCCCCCCC=CCCCCCCCC
#inchikey WTJKGGKOPKCXLL-MRCUWXFGSA-N
#pubchem_id 6436017
#mb_accession LQB00104,LQB00490

>ms2
78.959000 388.000000
152.996000 234.000000
164.967000 51.000000
168.041000 2628.000000
206.057000 101.000000
224.067000 3048.000000
237.220000 82.000000
242.068000 123.000000
242.084000 131.000000
253.216000 1203.000000
253.227000 266.000000
254.437000 459.000000
255.126000 86.000000
255.232000 98292.000000
256.232000 225.000000
258.703000 63.000000
263.230000 56.000000
280.357000 163.000000
280.374000 693.000000
281.078000 61.000000
281.117000 56.000000
281.170000 160.000000
281.248000 148273.000000
281.568000 52.000000
281.828000 95.000000
282.249000 490.000000
282.545000 50.000000
283.257000 683.000000
283.273000 357.000000
284.620000 53.000000
304.233000 71.000000
305.249000 50.000000
309.273000 50.000000
311.284000 63.000000
359.291000 122.000000
359.302000 81.000000
391.219000 297.000000
391.233000 143.000000
391.246000 64.000000
406.272000 164.000000
409.226000 70.000000
417.224000 81.000000
417.246000 112.000000
419.259000 81.000000
421.264000 56.000000
432.286000 90.000000
448.285000 53.000000
462.293000 3418.000000
478.787000 50.000000
480.305000 10806.000000
488.297000 459.000000
488.314000 1315.000000
488.343000 184.000000
490.327000 33.000000
501.110000 40.000000
503.280000 34.000000
506.323000 4804.000000
506.370000 92.000000
507.947000 52.000000
508.334000 120.000000
515.023000 50.000000
561.956000 51.000000
673.448000 91.000000
673.484000 266.000000
673.525000 40.000000
699.495000 336.000000
731.540000 232.000000
742.168000 112.000000
742.192000 388.000000
742.228000 398.000000
742.261000 51.000000
742.298000 70.000000
743.536000 143.000000
744.005000 71.000000
744.325000 53.000000
744.362000 91.000000
744.419000 68.000000
744.550000 78904.000000
745.528000 204.000000
745.560000 786.000000
745.595000 102.000000
747.218000 63.000000
749.530000 45.000000
750.538000 53.000000
759.485000 669.000000
759.517000 2177.000000
759.564000 135.000000
816.014000 61.000000
817.491000 60.000000
818.588000 14724.000000
819.596000 106.000000

>ms2
78.959000 388.000000
152.996000 234.000000
164.967000 51.000000
168.041000 2628.000000
206.057000 101.000000
224.067000 3048.000000
237.220000 82.000000
242.068000 123.000000
242.084000 131.000000
253.216000 1203.000000
253.227000 266.000000
254.437000 459.000000
255.126000 86.000000
255.232000 98292.000000
256.232000 225.000000
258.703000 63.000000
263.230000 56.000000
280.357000 163.000000
280.374000 693.000000
281.078000 61.000000
281.117000 56.000000
281.170000 160.000000
281.248000 148273.000000
281.568000 52.000000
281.828000 95.000000
282.249000 490.000000
282.545000 50.000000
283.257000 683.000000
283.273000 357.000000
284.620000 53.000000
304.233000 71.000000
305.249000 50.000000
309.273000 50.000000
311.284000 63.000000
359.291000 122.000000
359.302000 81.000000
391.219000 297.000000
391.233000 143.000000
391.246000 64.000000
406.272000 164.000000
409.226000 70.000000
417.224000 81.000000
417.246000 112.000000
419.259000 81.000000
421.264000 56.000000
432.286000 90.000000
448.285000 53.000000
462.293000 3418.000000
478.787000 50.000000
480.305000 10806.000000
488.297000 459.000000
488.314000 1315.000000
488.343000 184.000000
490.327000 33.000000
501.110000 40.000000
503.280000 34.000000
506.323000 4804.000000
506.370000 92.000000
507.947000 52.000000
508.334000 120.000000
515.023000 50.000000
561.956000 51.000000
673.448000 91.000000
673.484000 266.000000
673.525000 40.000000
699.495000 336.000000
731.540000 232.000000
742.168000 112.000000
742.192000 388.000000
742.228000 398.000000
742.261000 51.000000
742.298000 70.000000
743.536000 143.000000
744.005000 71.000000
744.325000 53.000000
744.362000 91.000000
744.419000 68.000000
744.550000 78904.000000
745.528000 204.000000
745.560000 786.000000
745.595000 102.000000
747.218000 63.000000
749.530000 45.000000
750.538000 53.000000
759.485000 669.000000
759.517000 2177.000000
759.564000 135.000000
816.014000 61.000000
817.491000 60.000000
818.588000 14724.000000
819.596000 106.000000

