>compound LQB3429467
>parentmass 859.6849666666667
>ionization [M+CH3COOH-H]-
>formula C46H93N2O6P
>rt 772.929000
>profile qtof
#smiles_iso CCCCCCCCCCCCCCCCCCCCCCC(=O)NC(COP(=O)([O-])OCC[N+](C)(C)C)C(/C=C/CCCCCCCCCCCCC)O
#smiles_can CCCCCCCCCCCCCCCCCCCCCCC(=O)NC(COP(=O)([O-])OCC[N+](C)(C)C)C(C=CCCCCCCCCCCCCC)O
#inchikey SXZWBNWTCVLZJN-NHFVQZBWSA-N
#pubchem_id 138266111
#mb_accession LQB00365,LQB00366,LQB00367,LQB00751,LQB00752,LQB00753

>ms2
78.718000 7.000000
78.959000 574.000000
89.023000 5.000000
96.970000 17.000000
122.984000 105.000000
124.996000 4.000000
141.017000 16.000000
167.516000 12.000000
167.534000 6.000000
167.551000 4.000000
168.042000 2233.000000
183.002000 4.000000
255.231000 11.000000
256.230000 5.000000
281.246000 26.000000
299.007000 6.000000
309.281000 11.000000
334.221000 4.000000
337.308000 90.000000
338.313000 72.000000
353.341000 23.000000
367.361000 7.000000
431.178000 6.000000
431.273000 7.000000
431.313000 7.000000
432.780000 4.000000
435.278000 8.000000
435.318000 5.000000
438.602000 6.000000
441.449000 7.000000
442.606000 5.000000
444.832000 5.000000
449.267000 5.000000
449.310000 139.000000
453.800000 5.000000
461.123000 4.000000
464.054000 6.000000
464.306000 8.000000
464.332000 7.000000
465.313000 5.000000
467.610000 5.000000
487.015000 4.000000
488.354000 5.000000
502.361000 8.000000
505.449000 4.000000
508.193000 4.000000
627.477000 7.000000
627.515000 9.000000
633.587000 15.000000
637.628000 11.000000
639.586000 9.000000
639.626000 7.000000
650.560000 5.000000
651.618000 5.000000
696.542000 16.000000
696.572000 24.000000
714.536000 16.000000
714.573000 159.000000
714.605000 33.000000
717.557000 9.000000
717.576000 9.000000
740.534000 8.000000
740.561000 22.000000
740.587000 47.000000
740.613000 19.000000
758.599000 9.000000
767.616000 8.000000
783.108000 17.000000
783.148000 89.000000
783.169000 94.000000
783.206000 40.000000
783.239000 16.000000
783.286000 11.000000
784.648000 10.000000
785.332000 19.000000
785.546000 50.000000
785.646000 68522.000000
785.870000 11.000000
786.111000 13.000000
786.439000 5.000000
786.600000 22.000000
786.636000 138.000000
786.665000 97.000000
786.704000 15.000000
786.803000 12.000000
787.014000 8.000000
799.527000 12.000000
799.624000 24.000000
799.659000 46.000000
799.690000 33.000000
800.563000 42.000000
800.603000 273.000000
800.634000 234.000000
812.622000 9.000000
812.677000 12.000000
813.634000 39.000000
813.663000 53.000000
813.687000 23.000000
813.705000 11.000000
827.611000 18.000000
859.521000 8.000000
859.678000 2909.000000
864.163000 5.000000

>ms2
78.720000 21.000000
78.959000 1110.000000
89.021000 30.000000
96.972000 33.000000
119.036000 20.000000
122.983000 183.000000
122.991000 61.000000
125.000000 30.000000
141.015000 20.000000
145.935000 20.000000
167.521000 93.000000
168.042000 3784.000000
353.341000 53.000000
429.738000 30.000000
431.313000 30.000000
441.073000 30.000000
441.165000 35.000000
446.552000 30.000000
449.298000 142.000000
449.321000 224.000000
453.173000 33.000000
633.590000 70.000000
633.645000 30.000000
651.602000 40.000000
714.546000 133.000000
714.579000 215.000000
740.595000 100.000000
740.626000 50.000000
783.139000 131.000000
783.172000 244.000000
783.226000 60.000000
783.709000 63.000000
785.503000 60.000000
785.648000 120058.000000
786.238000 88.000000
786.370000 57.000000
786.622000 141.000000
786.653000 187.000000
786.672000 141.000000
799.662000 65.000000
800.586000 326.000000
800.618000 572.000000
800.651000 102.000000
812.658000 93.000000
813.643000 214.000000
813.666000 122.000000
813.689000 122.000000
859.674000 3588.000000
859.710000 1124.000000

>ms2
78.957000 300.000000
122.983000 46.000000
125.002000 10.000000
141.011000 30.000000
154.992000 10.000000
168.042000 1573.000000
255.233000 10.000000
353.334000 15.000000
425.069000 15.000000
435.297000 25.000000
444.038000 15.000000
449.319000 71.000000
453.107000 11.000000
464.254000 11.000000
483.539000 11.000000
488.133000 10.000000
506.326000 10.000000
513.356000 10.000000
567.841000 10.000000
627.523000 26.000000
635.626000 10.000000
714.549000 45.000000
714.594000 80.000000
740.586000 50.000000
783.145000 30.000000
783.169000 85.000000
783.221000 40.000000
785.457000 40.000000
785.650000 35628.000000
785.836000 26.000000
786.599000 30.000000
786.643000 100.000000
786.673000 63.000000
799.652000 30.000000
800.597000 70.000000
800.628000 120.000000
859.606000 40.000000
859.635000 127.000000
859.678000 993.000000
859.712000 316.000000
859.735000 96.000000

>ms2
78.718000 7.000000
78.959000 574.000000
89.023000 5.000000
96.970000 17.000000
122.984000 105.000000
124.996000 4.000000
141.017000 16.000000
167.516000 12.000000
167.534000 6.000000
167.551000 4.000000
168.042000 2233.000000
183.002000 4.000000
255.231000 11.000000
256.230000 5.000000
281.246000 26.000000
299.007000 6.000000
309.281000 11.000000
334.221000 4.000000
337.308000 90.000000
338.313000 72.000000
353.341000 23.000000
367.361000 7.000000
431.178000 6.000000
431.273000 7.000000
431.313000 7.000000
432.780000 4.000000
435.278000 8.000000
435.318000 5.000000
438.602000 6.000000
441.449000 7.000000
442.606000 5.000000
444.832000 5.000000
449.267000 5.000000
449.310000 139.000000
453.800000 5.000000
461.123000 4.000000
464.054000 6.000000
464.306000 8.000000
464.332000 7.000000
465.313000 5.000000
467.610000 5.000000
487.015000 4.000000
488.354000 5.000000
502.361000 8.000000
505.449000 4.000000
508.193000 4.000000
627.477000 7.000000
627.515000 9.000000
633.587000 15.000000
637.628000 11.000000
639.586000 9.000000
639.626000 7.000000
650.560000 5.000000
651.618000 5.000000
696.542000 16.000000
696.572000 24.000000
714.536000 16.000000
714.573000 159.000000
714.605000 33.000000
717.557000 9.000000
717.576000 9.000000
740.534000 8.000000
740.561000 22.000000
740.587000 47.000000
740.613000 19.000000
758.599000 9.000000
767.616000 8.000000
783.108000 17.000000
783.148000 89.000000
783.169000 94.000000
783.206000 40.000000
783.239000 16.000000
783.286000 11.000000
784.648000 10.000000
785.332000 19.000000
785.546000 50.000000
785.646000 68522.000000
785.870000 11.000000
786.111000 13.000000
786.439000 5.000000
786.600000 22.000000
786.636000 138.000000
786.665000 97.000000
786.704000 15.000000
786.803000 12.000000
787.014000 8.000000
799.527000 12.000000
799.624000 24.000000
799.659000 46.000000
799.690000 33.000000
800.563000 42.000000
800.603000 273.000000
800.634000 234.000000
812.622000 9.000000
812.677000 12.000000
813.634000 39.000000
813.663000 53.000000
813.687000 23.000000
813.705000 11.000000
827.611000 18.000000
859.521000 8.000000
859.678000 2909.000000
864.163000 5.000000

>ms2
78.720000 21.000000
78.959000 1110.000000
89.021000 30.000000
96.972000 33.000000
119.036000 20.000000
122.983000 183.000000
122.991000 61.000000
125.000000 30.000000
141.015000 20.000000
145.935000 20.000000
167.521000 93.000000
168.042000 3784.000000
353.341000 53.000000
429.738000 30.000000
431.313000 30.000000
441.073000 30.000000
441.165000 35.000000
446.552000 30.000000
449.298000 142.000000
449.321000 224.000000
453.173000 33.000000
633.590000 70.000000
633.645000 30.000000
651.602000 40.000000
714.546000 133.000000
714.579000 215.000000
740.595000 100.000000
740.626000 50.000000
783.139000 131.000000
783.172000 244.000000
783.226000 60.000000
783.709000 63.000000
785.503000 60.000000
785.648000 120058.000000
786.238000 88.000000
786.370000 57.000000
786.622000 141.000000
786.653000 187.000000
786.672000 141.000000
799.662000 65.000000
800.586000 326.000000
800.618000 572.000000
800.651000 102.000000
812.658000 93.000000
813.643000 214.000000
813.666000 122.000000
813.689000 122.000000
859.674000 3588.000000
859.710000 1124.000000

>ms2
78.957000 300.000000
122.983000 46.000000
125.002000 10.000000
141.011000 30.000000
154.992000 10.000000
168.042000 1573.000000
255.233000 10.000000
353.334000 15.000000
425.069000 15.000000
435.297000 25.000000
444.038000 15.000000
449.319000 71.000000
453.107000 11.000000
464.254000 11.000000
483.539000 11.000000
488.133000 10.000000
506.326000 10.000000
513.356000 10.000000
567.841000 10.000000
627.523000 26.000000
635.626000 10.000000
714.549000 45.000000
714.594000 80.000000
740.586000 50.000000
783.145000 30.000000
783.169000 85.000000
783.221000 40.000000
785.457000 40.000000
785.650000 35628.000000
785.836000 26.000000
786.599000 30.000000
786.643000 100.000000
786.673000 63.000000
799.652000 30.000000
800.597000 70.000000
800.628000 120.000000
859.606000 40.000000
859.635000 127.000000
859.678000 993.000000
859.712000 316.000000
859.735000 96.000000

