>compound LQB3643903
>parentmass 638.5713666666667
>ionization [M+CH3COOH-H]-
>formula C37H73NO3
>rt 688.671000
>profile qtof
#smiles_iso CCCCCCCCCCCCCCCCCCC(=O)NC(CO)C(/C=C/CCCCCCCCCCCCC)O
#smiles_can CCCCCCCCCCCCCCCCCCC(=O)NC(CO)C(C=CCCCCCCCCCCCCC)O
#inchikey SNMLDULQFHAZRC-NHQGMKOOSA-N
#pubchem_id 21579669
#mb_accession LQB00034,LQB00035,LQB00036,LQB00420,LQB00421,LQB00422

>ms2peaks
141.014000 11.000000
235.207000 7.000000
237.222000 175.000000
242.952000 7.000000
250.253000 18.000000
251.233000 8.000000
255.231000 6.000000
263.235000 111.000000
263.251000 22.000000
265.253000 5.000000
266.243000 32.000000
266.259000 7.000000
266.947000 6.000000
268.264000 27.000000
270.951000 8.000000
277.252000 5.000000
279.237000 5.000000
279.268000 262.000000
280.955000 5.000000
281.260000 5.000000
293.287000 5.000000
295.297000 29.000000
296.295000 150.000000
297.261000 12.000000
297.281000 119.000000
297.309000 7.000000
305.097000 6.000000
308.294000 16.000000
310.925000 5.000000
320.296000 6.000000
321.311000 5.000000
322.310000 922.000000
324.290000 5.000000
324.922000 8.000000
324.978000 5.000000
336.286000 14.000000
336.333000 7.000000
338.276000 8.000000
338.300000 81.000000
338.315000 43.000000
348.936000 7.000000
362.956000 5.000000
370.959000 5.000000
406.959000 6.000000
420.928000 5.000000
430.940000 5.000000
452.975000 5.000000
474.939000 9.000000
488.968000 5.000000
519.509000 9.000000
530.509000 21.000000
530.530000 114.000000
542.532000 4.000000
546.500000 20.000000
546.520000 103.000000
548.499000 13.000000
548.536000 150.000000
548.554000 38.000000
560.518000 5.000000
560.545000 7.000000
576.716000 8.000000
576.860000 4.000000
578.546000 2337.000000
578.628000 4.000000
578.907000 5.000000
579.532000 4.000000

>ms2peaks
141.015000 8.000000
223.204000 26.000000
237.220000 52.000000
246.982000 10.000000
249.225000 8.000000
263.235000 50.000000
266.253000 10.000000
268.268000 8.000000
270.950000 10.000000
279.270000 70.000000
293.283000 14.000000
295.296000 18.000000
296.291000 52.000000
297.277000 50.000000
310.309000 28.000000
310.939000 8.000000
311.296000 12.000000
322.310000 276.000000
336.322000 62.000000
338.306000 30.000000
350.343000 10.000000
352.322000 14.000000
352.939000 10.000000
368.976000 6.000000
392.944000 7.000000
430.942000 10.000000
434.948000 10.000000
474.933000 10.000000
501.498000 4.000000
506.319000 6.000000
530.525000 46.000000
532.970000 4.000000
546.506000 22.000000
546.522000 30.000000
546.542000 16.000000
548.525000 48.000000
548.546000 50.000000
560.539000 4.000000
574.421000 4.000000
576.728000 6.000000
578.497000 8.000000
578.547000 674.000000
578.598000 12.000000
579.549000 4.000000

>ms2peaks
237.219000 125.000000
251.235000 50.000000
263.243000 70.000000
265.252000 75.000000
266.249000 26.000000
268.262000 30.000000
277.255000 40.000000
279.266000 167.000000
282.280000 60.000000
283.267000 25.000000
295.298000 30.000000
296.296000 100.000000
297.280000 81.000000
308.293000 207.000000
310.271000 10.000000
310.322000 10.000000
322.272000 20.000000
322.311000 475.000000
322.851000 10.000000
324.290000 30.000000
336.326000 30.000000
338.302000 50.000000
338.316000 55.000000
350.345000 20.000000
506.315000 20.000000
519.485000 10.000000
530.507000 60.000000
530.534000 90.000000
546.522000 85.000000
548.529000 157.000000
548.572000 40.000000
560.549000 10.000000
576.724000 15.000000
578.503000 35.000000
578.546000 1712.000000

>ms2peaks
141.014000 11.000000
235.207000 7.000000
237.222000 175.000000
242.952000 7.000000
250.253000 18.000000
251.233000 8.000000
255.231000 6.000000
263.235000 111.000000
263.251000 22.000000
265.253000 5.000000
266.243000 32.000000
266.259000 7.000000
266.947000 6.000000
268.264000 27.000000
270.951000 8.000000
277.252000 5.000000
279.237000 5.000000
279.268000 262.000000
280.955000 5.000000
281.260000 5.000000
293.287000 5.000000
295.297000 29.000000
296.295000 150.000000
297.261000 12.000000
297.281000 119.000000
297.309000 7.000000
305.097000 6.000000
308.294000 16.000000
310.925000 5.000000
320.296000 6.000000
321.311000 5.000000
322.310000 922.000000
324.290000 5.000000
324.922000 8.000000
324.978000 5.000000
336.286000 14.000000
336.333000 7.000000
338.276000 8.000000
338.300000 81.000000
338.315000 43.000000
348.936000 7.000000
362.956000 5.000000
370.959000 5.000000
406.959000 6.000000
420.928000 5.000000
430.940000 5.000000
452.975000 5.000000
474.939000 9.000000
488.968000 5.000000
519.509000 9.000000
530.509000 21.000000
530.530000 114.000000
542.532000 4.000000
546.500000 20.000000
546.520000 103.000000
548.499000 13.000000
548.536000 150.000000
548.554000 38.000000
560.518000 5.000000
560.545000 7.000000
576.716000 8.000000
576.860000 4.000000
578.546000 2337.000000
578.628000 4.000000
578.907000 5.000000
579.532000 4.000000

>ms2peaks
141.015000 8.000000
223.204000 26.000000
237.220000 52.000000
246.982000 10.000000
249.225000 8.000000
263.235000 50.000000
266.253000 10.000000
268.268000 8.000000
270.950000 10.000000
279.270000 70.000000
293.283000 14.000000
295.296000 18.000000
296.291000 52.000000
297.277000 50.000000
310.309000 28.000000
310.939000 8.000000
311.296000 12.000000
322.310000 276.000000
336.322000 62.000000
338.306000 30.000000
350.343000 10.000000
352.322000 14.000000
352.939000 10.000000
368.976000 6.000000
392.944000 7.000000
430.942000 10.000000
434.948000 10.000000
474.933000 10.000000
501.498000 4.000000
506.319000 6.000000
530.525000 46.000000
532.970000 4.000000
546.506000 22.000000
546.522000 30.000000
546.542000 16.000000
548.525000 48.000000
548.546000 50.000000
560.539000 4.000000
574.421000 4.000000
576.728000 6.000000
578.497000 8.000000
578.547000 674.000000
578.598000 12.000000
579.549000 4.000000

>ms2peaks
237.219000 125.000000
251.235000 50.000000
263.243000 70.000000
265.252000 75.000000
266.249000 26.000000
268.262000 30.000000
277.255000 40.000000
279.266000 167.000000
282.280000 60.000000
283.267000 25.000000
295.298000 30.000000
296.296000 100.000000
297.280000 81.000000
308.293000 207.000000
310.271000 10.000000
310.322000 10.000000
322.272000 20.000000
322.311000 475.000000
322.851000 10.000000
324.290000 30.000000
336.326000 30.000000
338.302000 50.000000
338.316000 55.000000
350.345000 20.000000
506.315000 20.000000
519.485000 10.000000
530.507000 60.000000
530.534000 90.000000
546.522000 85.000000
548.529000 157.000000
548.572000 40.000000
560.549000 10.000000
576.724000 15.000000
578.503000 35.000000
578.546000 1712.000000

