>compound LQB3148419
>parentmass 749.5291
>ionization [M-H]-
>formula C40H79O10P
>rt 546.643320
>profile qtof
#smiles_iso CCCCCCCCCCCCCCCCCC(=O)OC(COC(=O)CCCCCCCCCCCCCCC)COP(=O)(O)OCC(CO)O
#smiles_can CCCCCCCCCCCCCCCCCC(=O)OC(COC(=O)CCCCCCCCCCCCCCC)COP(=O)(O)OCC(CO)O
#inchikey KBPVYRBBONZJHF-UHFFFAOYSA-N
#pubchem_id 25267633
#mb_accession LQB00240,LQB00626

>ms2peaks
152.997000 101.000000
170.999000 30.000000
227.034000 43.000000
255.232000 1143.000000
279.190000 21.000000
281.251000 20.000000
282.349000 21.000000
283.262000 2529.000000
303.226000 23.000000
391.202000 33.000000
391.231000 93.000000
465.254000 53.000000
483.269000 140.000000
493.290000 20.000000
511.297000 33.000000
688.529000 80.000000
717.499000 30.000000
749.492000 421.000000
749.512000 1519.000000
749.544000 1381.000000

>ms2peaks
152.997000 101.000000
170.999000 30.000000
227.034000 43.000000
255.232000 1143.000000
279.190000 21.000000
281.251000 20.000000
282.349000 21.000000
283.262000 2529.000000
303.226000 23.000000
391.202000 33.000000
391.231000 93.000000
465.254000 53.000000
483.269000 140.000000
493.290000 20.000000
511.297000 33.000000
688.529000 80.000000
717.499000 30.000000
749.492000 421.000000
749.512000 1519.000000
749.544000 1381.000000

