>compound LQB3555281
>parentmass 892.6047666666667
>ionization [M+CH3COOH-H]-
>formula C48H84NO8P
>rt 569.648980
>profile qtof
#smiles_iso CCCCCCCC/C=C\CCCCCCCC(=O)OCC(COP(=O)([O-])OCC[N+](C)(C)C)OC(=O)CCCCC/C=C\C/C=C\C/C=C\C/C=C\C/C=C\CC
#smiles_can CCCCCCCCC=CCCCCCCCC(=O)OCC(COP(=O)([O-])OCC[N+](C)(C)C)OC(=O)CCCCCC=CCC=CCC=CCC=CCC=CCC
#inchikey LQILTFYUCKNMSR-RAGHUBLNSA-N
#pubchem_id 24778954
#mb_accession LQB00149,LQB00150,LQB00151,LQB00535,LQB00536,LQB00537

>ms2
224.069000 91.000000
279.245000 31.000000
281.233000 236.000000
281.238000 440.000000
281.247000 1874.000000
285.248000 71.000000
285.260000 234.000000
285.277000 41.000000
329.244000 4611.000000
488.309000 121.000000
506.303000 102.000000
506.312000 92.000000
506.318000 60.000000
506.325000 122.000000
506.331000 82.000000
506.347000 50.000000
506.363000 30.000000
536.320000 63.000000
554.291000 30.000000
703.470000 30.000000
810.477000 20.000000
815.966000 20.000000
818.487000 81.000000
818.503000 143.000000
818.527000 506.000000
818.563000 7642.000000
818.656000 40.000000
833.527000 80.000000
892.567000 102.000000
892.575000 154.000000
892.588000 164.000000
892.596000 184.000000
892.627000 408.000000

>ms2
168.046000 40.000000
205.128000 33.000000
224.069000 51.000000
231.210000 30.000000
236.032000 20.000000
244.569000 20.000000
280.366000 20.000000
281.247000 1071.000000
283.263000 20.000000
285.255000 101.000000
303.234000 33.000000
311.233000 30.000000
327.232000 40.000000
328.233000 44.000000
329.246000 2411.000000
341.255000 23.000000
464.322000 30.000000
488.303000 60.000000
506.308000 81.000000
506.330000 142.000000
536.310000 30.000000
554.318000 30.000000
729.466000 42.000000
773.515000 20.000000
788.540000 33.000000
810.535000 30.000000
818.479000 21.000000
818.570000 3415.000000
833.544000 50.000000
892.604000 478.000000
892.657000 50.000000

>ms2
196.037000 30.000000
224.070000 30.000000
251.202000 30.000000
262.011000 33.000000
279.239000 50.000000
280.234000 40.000000
281.247000 1285.000000
285.254000 146.000000
303.238000 31.000000
329.246000 2770.000000
488.285000 20.000000
488.323000 23.000000
506.296000 60.000000
506.326000 151.000000
536.303000 30.000000
546.276000 53.000000
554.315000 50.000000
569.463000 20.000000
699.523000 20.000000
714.490000 20.000000
742.598000 23.000000
788.552000 30.000000
805.582000 30.000000
810.494000 50.000000
810.536000 101.000000
818.499000 402.000000
818.552000 5123.000000
818.592000 988.000000
818.627000 110.000000
833.540000 20.000000
892.499000 81.000000
892.550000 143.000000
892.599000 316.000000
892.638000 112.000000

>ms2
224.069000 91.000000
279.245000 31.000000
281.233000 236.000000
281.238000 440.000000
281.247000 1874.000000
285.248000 71.000000
285.260000 234.000000
285.277000 41.000000
329.244000 4611.000000
488.309000 121.000000
506.303000 102.000000
506.312000 92.000000
506.318000 60.000000
506.325000 122.000000
506.331000 82.000000
506.347000 50.000000
506.363000 30.000000
536.320000 63.000000
554.291000 30.000000
703.470000 30.000000
810.477000 20.000000
815.966000 20.000000
818.487000 81.000000
818.503000 143.000000
818.527000 506.000000
818.563000 7642.000000
818.656000 40.000000
833.527000 80.000000
892.567000 102.000000
892.575000 154.000000
892.588000 164.000000
892.596000 184.000000
892.627000 408.000000

>ms2
168.046000 40.000000
205.128000 33.000000
224.069000 51.000000
231.210000 30.000000
236.032000 20.000000
244.569000 20.000000
280.366000 20.000000
281.247000 1071.000000
283.263000 20.000000
285.255000 101.000000
303.234000 33.000000
311.233000 30.000000
327.232000 40.000000
328.233000 44.000000
329.246000 2411.000000
341.255000 23.000000
464.322000 30.000000
488.303000 60.000000
506.308000 81.000000
506.330000 142.000000
536.310000 30.000000
554.318000 30.000000
729.466000 42.000000
773.515000 20.000000
788.540000 33.000000
810.535000 30.000000
818.479000 21.000000
818.570000 3415.000000
833.544000 50.000000
892.604000 478.000000
892.657000 50.000000

>ms2
196.037000 30.000000
224.070000 30.000000
251.202000 30.000000
262.011000 33.000000
279.239000 50.000000
280.234000 40.000000
281.247000 1285.000000
285.254000 146.000000
303.238000 31.000000
329.246000 2770.000000
488.285000 20.000000
488.323000 23.000000
506.296000 60.000000
506.326000 151.000000
536.303000 30.000000
546.276000 53.000000
554.315000 50.000000
569.463000 20.000000
699.523000 20.000000
714.490000 20.000000
742.598000 23.000000
788.552000 30.000000
805.582000 30.000000
810.494000 50.000000
810.536000 101.000000
818.499000 402.000000
818.552000 5123.000000
818.592000 988.000000
818.627000 110.000000
833.540000 20.000000
892.499000 81.000000
892.550000 143.000000
892.599000 316.000000
892.638000 112.000000

