>compound LQB3241726
>parentmass 747.5618
>ionization [M+CH3COOH-H]-
>formula C38H77N2O6P
>rt 522.749160
>profile qtof
#smiles_iso CCCCCCCCCCCCCCCC(=O)NC(COP(=O)([O-])OCC[N+](C)(C)C)C(/C=C/CCCCCCCCCCCC)O
#smiles_can CCCCCCCCCCCCCCCC(=O)NC(COP(=O)([O-])OCC[N+](C)(C)C)C(C=CCCCCCCCCCCCC)O
#inchikey RXLZIONNUYYHHW-OWWNRXNESA-N
#pubchem_id 138257398
#mb_accession LQB00347,LQB00733

>ms2
78.958000 94.000000
122.984000 12.000000
168.043000 337.000000
223.073000 7.000000
255.230000 30.000000
255.251000 12.000000
281.241000 35.000000
281.260000 19.000000
435.290000 16.000000
539.931000 12.000000
602.448000 22.000000
627.530000 12.000000
628.449000 6.000000
671.389000 19.000000
672.899000 6.000000
673.486000 311.000000
673.529000 3664.000000
673.716000 7.000000
674.497000 6.000000
687.515000 6.000000
687.582000 6.000000
688.442000 10.000000
688.508000 21.000000
747.478000 25.000000
747.519000 47.000000
747.542000 34.000000
747.581000 46.000000

>ms2
78.958000 94.000000
122.984000 12.000000
168.043000 337.000000
223.073000 7.000000
255.230000 30.000000
255.251000 12.000000
281.241000 35.000000
281.260000 19.000000
435.290000 16.000000
539.931000 12.000000
602.448000 22.000000
627.530000 12.000000
628.449000 6.000000
671.389000 19.000000
672.899000 6.000000
673.486000 311.000000
673.529000 3664.000000
673.716000 7.000000
674.497000 6.000000
687.515000 6.000000
687.582000 6.000000
688.442000 10.000000
688.508000 21.000000
747.478000 25.000000
747.519000 47.000000
747.542000 34.000000
747.581000 46.000000

