>compound LQB3269347
>parentmass 614.534
>ionization [M+CH3COOH-H]-
>formula C34H69NO4
>rt 557.767200
>profile qtof
#smiles_iso CCCCCCCCCCCCCCCC(=O)NC(CO)C(C(CCCCCCCCCCCCCC)O)O
#smiles_can CCCCCCCCCCCCCCCC(=O)NC(CO)C(C(CCCCCCCCCCCCCC)O)O
#inchikey IVBULNXGVIHEKN-UHFFFAOYSA-N
#pubchem_id 9807776
#mb_accession LQB00015,LQB00401

>ms2peaks
225.221000 234.000000
237.219000 244.000000
239.236000 153.000000
250.252000 50.000000
253.215000 120.000000
253.254000 53.000000
254.247000 857.000000
254.259000 132.000000
255.231000 2300.000000
267.231000 1856.000000
268.262000 224.000000
269.246000 111.000000
278.252000 81.000000
279.231000 132.000000
280.265000 693.000000
284.257000 111.000000
292.263000 161.000000
294.282000 50.000000
295.247000 60.000000
296.259000 1152.000000
297.243000 62.000000
298.273000 3337.000000
308.259000 31.000000
310.274000 2399.000000
316.283000 100.000000
342.302000 90.000000
348.153000 30.000000
476.485000 45.000000
488.474000 60.000000
488.499000 92.000000
490.496000 30.000000
504.494000 20.000000
506.491000 50.000000
518.487000 551.000000
522.488000 194.000000
524.495000 30.000000
534.495000 20.000000
536.500000 338.000000
536.525000 61.000000
552.768000 30.000000
554.457000 41.000000
554.513000 8077.000000
554.588000 24.000000
555.532000 20.000000

>ms2peaks
225.221000 234.000000
237.219000 244.000000
239.236000 153.000000
250.252000 50.000000
253.215000 120.000000
253.254000 53.000000
254.247000 857.000000
254.259000 132.000000
255.231000 2300.000000
267.231000 1856.000000
268.262000 224.000000
269.246000 111.000000
278.252000 81.000000
279.231000 132.000000
280.265000 693.000000
284.257000 111.000000
292.263000 161.000000
294.282000 50.000000
295.247000 60.000000
296.259000 1152.000000
297.243000 62.000000
298.273000 3337.000000
308.259000 31.000000
310.274000 2399.000000
316.283000 100.000000
342.302000 90.000000
348.153000 30.000000
476.485000 45.000000
488.474000 60.000000
488.499000 92.000000
490.496000 30.000000
504.494000 20.000000
506.491000 50.000000
518.487000 551.000000
522.488000 194.000000
524.495000 30.000000
534.495000 20.000000
536.500000 338.000000
536.525000 61.000000
552.768000 30.000000
554.457000 41.000000
554.513000 8077.000000
554.588000 24.000000
555.532000 20.000000

