>compound LQB3431433
>parentmass 702.5989
>ionization [M+CH3COOH-H]-
>formula C42H77NO3
>rt 684.512400
>profile qtof
#smiles_iso CCCCCCCCC/C=C/CC/C=C/C(C(CO)NC(=O)CCCCCCCCCCCCCCCC/C=C\C/C=C\CC)O
#smiles_can CCCCCCCCCC=CCCC=CC(C(CO)NC(=O)CCCCCCCCCCCCCCCCC=CCC=CCC)O
#inchikey QMPJMPWWIPZEKC-AREXDUQASA-N
#pubchem_id 138245482
#mb_accession LQB00061,LQB00447

>ms2peaks
141.013000 8.000000
216.999000 42.000000
219.207000 9.000000
232.962000 14.000000
233.213000 17.000000
235.205000 388.000000
237.228000 12.000000
246.979000 24.000000
248.242000 26.000000
255.229000 17.000000
261.220000 292.000000
264.233000 48.000000
266.236000 10.000000
266.252000 58.000000
283.263000 10.000000
296.260000 22.000000
314.971000 24.000000
327.294000 12.000000
328.973000 21.000000
345.313000 286.000000
361.343000 15.000000
362.337000 312.000000
363.290000 10.000000
363.310000 96.000000
363.328000 245.000000
363.354000 12.000000
368.989000 9.000000
374.992000 54.000000
386.351000 10.000000
388.354000 1975.000000
396.965000 13.000000
402.329000 18.000000
404.348000 289.000000
406.359000 14.000000
410.975000 12.000000
567.547000 8.000000
583.528000 8.000000
594.517000 14.000000
594.545000 154.000000
594.564000 70.000000
594.583000 54.000000
610.529000 72.000000
610.555000 220.000000
612.518000 36.000000
612.538000 60.000000
612.566000 406.000000
612.596000 62.000000
624.548000 18.000000
624.578000 14.000000
640.526000 12.000000
640.573000 9.000000
642.502000 28.000000
642.575000 5062.000000
643.576000 18.000000
700.905000 4.000000
702.400000 4.000000
702.503000 4.000000
702.593000 17.000000

>ms2peaks
141.013000 8.000000
216.999000 42.000000
219.207000 9.000000
232.962000 14.000000
233.213000 17.000000
235.205000 388.000000
237.228000 12.000000
246.979000 24.000000
248.242000 26.000000
255.229000 17.000000
261.220000 292.000000
264.233000 48.000000
266.236000 10.000000
266.252000 58.000000
283.263000 10.000000
296.260000 22.000000
314.971000 24.000000
327.294000 12.000000
328.973000 21.000000
345.313000 286.000000
361.343000 15.000000
362.337000 312.000000
363.290000 10.000000
363.310000 96.000000
363.328000 245.000000
363.354000 12.000000
368.989000 9.000000
374.992000 54.000000
386.351000 10.000000
388.354000 1975.000000
396.965000 13.000000
402.329000 18.000000
404.348000 289.000000
406.359000 14.000000
410.975000 12.000000
567.547000 8.000000
583.528000 8.000000
594.517000 14.000000
594.545000 154.000000
594.564000 70.000000
594.583000 54.000000
610.529000 72.000000
610.555000 220.000000
612.518000 36.000000
612.538000 60.000000
612.566000 406.000000
612.596000 62.000000
624.548000 18.000000
624.578000 14.000000
640.526000 12.000000
640.573000 9.000000
642.502000 28.000000
642.575000 5062.000000
643.576000 18.000000
700.905000 4.000000
702.400000 4.000000
702.503000 4.000000
702.593000 17.000000

