>compound LQB3374581
>parentmass 688.4856
>ionization [M-H]-
>formula C37H72NO8P
>rt 555.943200
>profile qtof
#smiles_iso CCCCCCCCCCCCCCCC(=O)OCC(COP(=O)(O)OCCN)OC(=O)CCCCCCC/C=C\CCCCCC
#smiles_can CCCCCCCCCCCCCCCC(=O)OCC(COP(=O)(O)OCCN)OC(=O)CCCCCCCC=CCCCCCC
#inchikey CZOSTDZGCCEZTJ-PEZBUJJGSA-N
#pubchem_id 71627298
#mb_accession LQB00173,LQB00559

>ms2peaks
122.001000 33.000000
140.013000 110.000000
196.040000 162.000000
214.049000 33.000000
227.191000 132.000000
227.201000 163.000000
227.219000 41.000000
252.401000 32.000000
253.215000 10222.000000
254.440000 52.000000
255.232000 4608.000000
281.251000 531.000000
424.242000 53.000000
432.217000 43.000000
432.247000 48.000000
434.259000 101.000000
450.228000 20.000000
450.270000 50.000000
452.261000 336.000000
452.286000 362.000000
460.278000 20.000000
550.492000 21.000000
688.417000 133.000000
688.441000 545.000000
688.476000 3878.000000
688.506000 467.000000
688.529000 167.000000

>ms2peaks
122.001000 33.000000
140.013000 110.000000
196.040000 162.000000
214.049000 33.000000
227.191000 132.000000
227.201000 163.000000
227.219000 41.000000
252.401000 32.000000
253.215000 10222.000000
254.440000 52.000000
255.232000 4608.000000
281.251000 531.000000
424.242000 53.000000
432.217000 43.000000
432.247000 48.000000
434.259000 101.000000
450.228000 20.000000
450.270000 50.000000
452.261000 336.000000
452.286000 362.000000
460.278000 20.000000
550.492000 21.000000
688.417000 133.000000
688.441000 545.000000
688.476000 3878.000000
688.506000 467.000000
688.529000 167.000000

