>compound LQB3031652
>parentmass 910.5597
>ionization [M+CH3COOH-H]-
>formula C50H78NO8P
>rt 508.073100
>profile qtof
#smiles_iso CC/C=C\C/C=C\C/C=C\C/C=C\C/C=C\CCCC(=O)OCC(COP(=O)([O-])OCC[N+](C)(C)C)OC(=O)CC/C=C\C/C=C\C/C=C\C/C=C\C/C=C\C/C=C\CC
#smiles_can CCC=CCC=CCC=CCC=CCC=CCCCC(=O)OCC(COP(=O)([O-])OCC[N+](C)(C)C)OC(=O)CCC=CCC=CCC=CCC=CCC=CCC=CCC
#inchikey PRAHGYJIPXTSPA-XQSFYUSASA-N
#pubchem_id 9919063
#mb_accession LQB00168,LQB00554

>ms2
177.170000 50.000000
224.068000 91.000000
229.197000 101.000000
249.191000 40.000000
253.214000 30.000000
255.230000 40.000000
257.222000 40.000000
257.227000 30.000000
257.236000 91.000000
281.242000 50.000000
283.242000 775.000000
301.204000 174.000000
301.215000 959.000000
301.227000 264.000000
302.474000 31.000000
309.218000 20.000000
310.281000 21.000000
327.218000 409.000000
327.233000 2437.000000
327.249000 240.000000
329.260000 43.000000
417.240000 30.000000
437.199000 30.000000
508.265000 40.000000
526.268000 82.000000
526.275000 102.000000
526.286000 235.000000
526.297000 92.000000
526.304000 71.000000
526.314000 72.000000
526.323000 61.000000
534.294000 20.000000
552.283000 30.000000
552.312000 91.000000
833.964000 21.000000
836.464000 188.000000
836.472000 305.000000
836.497000 900.000000
836.505000 1165.000000
836.527000 4618.000000
836.594000 55.000000
836.615000 56.000000
851.489000 30.000000
910.480000 72.000000
910.505000 112.000000
910.514000 143.000000
910.522000 154.000000
910.531000 163.000000
910.544000 254.000000
910.552000 255.000000
910.565000 540.000000
910.578000 234.000000
910.612000 60.000000

>ms2
177.170000 50.000000
224.068000 91.000000
229.197000 101.000000
249.191000 40.000000
253.214000 30.000000
255.230000 40.000000
257.222000 40.000000
257.227000 30.000000
257.236000 91.000000
281.242000 50.000000
283.242000 775.000000
301.204000 174.000000
301.215000 959.000000
301.227000 264.000000
302.474000 31.000000
309.218000 20.000000
310.281000 21.000000
327.218000 409.000000
327.233000 2437.000000
327.249000 240.000000
329.260000 43.000000
417.240000 30.000000
437.199000 30.000000
508.265000 40.000000
526.268000 82.000000
526.275000 102.000000
526.286000 235.000000
526.297000 92.000000
526.304000 71.000000
526.314000 72.000000
526.323000 61.000000
534.294000 20.000000
552.283000 30.000000
552.312000 91.000000
833.964000 21.000000
836.464000 188.000000
836.472000 305.000000
836.497000 900.000000
836.505000 1165.000000
836.527000 4618.000000
836.594000 55.000000
836.615000 56.000000
851.489000 30.000000
910.480000 72.000000
910.505000 112.000000
910.514000 143.000000
910.522000 154.000000
910.531000 163.000000
910.544000 254.000000
910.552000 255.000000
910.565000 540.000000
910.578000 234.000000
910.612000 60.000000

