>compound LQB3774952
>parentmass 712.4878
>ionization [M-H]-
>formula C39H72NO8P
>rt 534.008340
>profile qtof
#smiles_iso CCCCCC/C=C\CCCCCCCC(=O)OCC(COP(=O)(O)OCCN)OC(=O)CCCCCCC/C=C\C/C=C\CCCCC
#smiles_can CCCCCCC=CCCCCCCCC(=O)OCC(COP(=O)(O)OCCN)OC(=O)CCCCCCCC=CCC=CCCCCC
#inchikey SSRRIJSEUKHYFB-RUGCENDASA-N
#pubchem_id 25244424
#mb_accession LQB00186,LQB00572

>ms2peaks
140.008000 40.000000
155.067000 20.000000
196.036000 50.000000
253.216000 1205.000000
277.217000 21.000000
278.713000 21.000000
279.231000 3161.000000
364.363000 23.000000
432.247000 40.000000
450.257000 193.000000
712.443000 143.000000
712.482000 960.000000
712.518000 143.000000

>ms2peaks
140.008000 40.000000
155.067000 20.000000
196.036000 50.000000
253.216000 1205.000000
277.217000 21.000000
278.713000 21.000000
279.231000 3161.000000
364.363000 23.000000
432.247000 40.000000
450.257000 193.000000
712.443000 143.000000
712.482000 960.000000
712.518000 143.000000

