>compound LQB3582545
>parentmass 796.5157
>ionization [M-H]-
>formula C43H76NO10P
>rt 512.043360
>profile qtof
#smiles_iso CCCCCCCCCCCCCCCCC(=O)OCC(COP(=O)(O)OCC(C(=O)O)N)OC(=O)CCCCCC/C=C\C/C=C\C/C=C\C/C=C\CC
#smiles_can CCCCCCCCCCCCCCCCC(=O)OCC(COP(=O)(O)OCC(C(=O)O)N)OC(=O)CCCCCCC=CCC=CCC=CCC=CCC
#inchikey NYRLAGYOGZBIFV-UMWXEKTDSA-N
#pubchem_id 138224168
#mb_accession LQB00331,LQB00717

>ms2peaks
152.988000 25.000000
152.997000 146.000000
181.092000 10.000000
255.228000 10.000000
259.243000 30.000000
268.411000 15.000000
269.245000 826.000000
269.258000 249.000000
281.253000 21.000000
282.257000 10.000000
283.267000 53.000000
301.221000 20.000000
303.228000 391.000000
329.249000 35.000000
403.258000 20.000000
405.237000 417.000000
405.250000 138.000000
423.234000 60.000000
423.252000 147.000000
423.273000 30.000000
439.220000 60.000000
439.239000 40.000000
480.305000 15.000000
695.471000 10.000000
709.458000 127.000000
709.480000 646.000000
709.505000 148.000000
709.525000 35.000000
722.494000 25.000000
722.545000 80.000000
764.488000 25.000000
778.546000 10.000000
796.424000 16.000000
796.470000 56.000000
796.478000 87.000000
796.501000 352.000000
796.528000 183.000000
796.539000 152.000000
796.550000 66.000000
796.589000 31.000000
796.614000 16.000000

>ms2peaks
152.988000 25.000000
152.997000 146.000000
181.092000 10.000000
255.228000 10.000000
259.243000 30.000000
268.411000 15.000000
269.245000 826.000000
269.258000 249.000000
281.253000 21.000000
282.257000 10.000000
283.267000 53.000000
301.221000 20.000000
303.228000 391.000000
329.249000 35.000000
403.258000 20.000000
405.237000 417.000000
405.250000 138.000000
423.234000 60.000000
423.252000 147.000000
423.273000 30.000000
439.220000 60.000000
439.239000 40.000000
480.305000 15.000000
695.471000 10.000000
709.458000 127.000000
709.480000 646.000000
709.505000 148.000000
709.525000 35.000000
722.494000 25.000000
722.545000 80.000000
764.488000 25.000000
778.546000 10.000000
796.424000 16.000000
796.470000 56.000000
796.478000 87.000000
796.501000 352.000000
796.528000 183.000000
796.539000 152.000000
796.550000 66.000000
796.589000 31.000000
796.614000 16.000000

