>compound LQB4697310
>parentmass 540.4617
>ionization [M+CH3COOH-H]-
>formula C30H59NO3
>rt 506.726160
>profile qtof
#smiles_iso CCCCCCCCCCCCC/C=C/C(C(CO)NC(=O)CCCCCCCCCCC)O
#smiles_can CCCCCCCCCCCCCC=CC(C(CO)NC(=O)CCCCCCCCCCC)O
#inchikey HXFPPRPLRSPNIB-WJTDDFOZSA-N
#pubchem_id 11454491
#mb_accession LQB00027,LQB00413

>ms2
179.144000 162.000000
180.176000 115.000000
181.158000 5344.000000
183.175000 115.000000
197.190000 1224.000000
197.205000 125.000000
198.185000 4179.000000
199.169000 2256.000000
212.201000 111.000000
222.184000 184.000000
223.507000 107.000000
224.201000 21916.000000
225.223000 111.000000
235.206000 287.000000
237.221000 6224.000000
238.184000 144.000000
239.191000 80.000000
239.236000 245.000000
240.196000 3115.000000
242.211000 72.000000
250.252000 396.000000
251.243000 42.000000
254.212000 71.000000
255.230000 121.000000
263.237000 3611.000000
266.247000 1071.000000
268.263000 959.000000
281.250000 122.000000
294.244000 33.000000
298.274000 305.000000
405.411000 141.000000
421.404000 80.000000
422.435000 40.000000
430.405000 103.000000
431.083000 33.000000
432.420000 3836.000000
444.418000 112.000000
447.008000 87.000000
447.333000 88.000000
448.384000 124.000000
448.414000 3154.000000
449.008000 42.000000
450.428000 4380.000000
452.445000 53.000000
462.431000 162.000000
478.887000 20.000000
478.928000 135.000000
480.018000 23.000000
480.185000 23.000000
480.440000 21106.000000
481.438000 65.000000

>ms2
179.144000 162.000000
180.176000 115.000000
181.158000 5344.000000
183.175000 115.000000
197.190000 1224.000000
197.205000 125.000000
198.185000 4179.000000
199.169000 2256.000000
212.201000 111.000000
222.184000 184.000000
223.507000 107.000000
224.201000 21916.000000
225.223000 111.000000
235.206000 287.000000
237.221000 6224.000000
238.184000 144.000000
239.191000 80.000000
239.236000 245.000000
240.196000 3115.000000
242.211000 72.000000
250.252000 396.000000
251.243000 42.000000
254.212000 71.000000
255.230000 121.000000
263.237000 3611.000000
266.247000 1071.000000
268.263000 959.000000
281.250000 122.000000
294.244000 33.000000
298.274000 305.000000
405.411000 141.000000
421.404000 80.000000
422.435000 40.000000
430.405000 103.000000
431.083000 33.000000
432.420000 3836.000000
444.418000 112.000000
447.008000 87.000000
447.333000 88.000000
448.384000 124.000000
448.414000 3154.000000
449.008000 42.000000
450.428000 4380.000000
452.445000 53.000000
462.431000 162.000000
478.887000 20.000000
478.928000 135.000000
480.018000 23.000000
480.185000 23.000000
480.440000 21106.000000
481.438000 65.000000

