>compound LQB4801765
>parentmass 793.4993
>ionization [M-H]-
>formula C44H75O10P
>rt 497.870520
>profile qtof
#smiles_iso CCCCCCCCCCCCCCCC(=O)OCC(COP(=O)(O)OCC(CO)O)OC(=O)CC/C=C\C/C=C\C/C=C\C/C=C\C/C=C\C/C=C\CC
#smiles_can CCCCCCCCCCCCCCCC(=O)OCC(COP(=O)(O)OCC(CO)O)OC(=O)CCC=CCC=CCC=CCC=CCC=CCC=CCC
#inchikey HUFCXYMYEWLLHT-LGFBOSHVSA-N
#pubchem_id 138172530
#mb_accession LQB00252,LQB00638

>ms2
78.959000 653.000000
93.071000 90.000000
96.971000 110.000000
107.088000 203.000000
109.103000 101.000000
117.069000 90.000000
119.085000 90.000000
121.096000 71.000000
121.103000 115.000000
123.116000 106.000000
131.088000 80.000000
133.100000 151.000000
135.116000 112.000000
137.132000 111.000000
147.120000 162.000000
149.136000 152.000000
151.147000 106.000000
152.995000 3160.000000
161.132000 101.000000
163.073000 101.000000
163.147000 151.000000
171.007000 2099.000000
175.147000 112.000000
175.155000 94.000000
177.094000 73.000000
177.154000 112.000000
177.164000 490.000000
181.122000 91.000000
185.124000 70.000000
189.164000 242.000000
191.180000 591.000000
191.191000 122.000000
201.168000 111.000000
203.106000 80.000000
203.181000 194.000000
205.198000 80.000000
209.013000 154.000000
209.028000 235.000000
217.122000 141.000000
217.197000 110.000000
227.031000 1334.000000
229.195000 3094.000000
231.139000 80.000000
241.195000 171.000000
245.042000 151.000000
249.183000 764.000000
254.437000 306.000000
255.233000 42265.000000
281.232000 110.000000
282.351000 95.000000
283.243000 24090.000000
291.214000 51.000000
297.223000 201.000000
309.220000 296.000000
309.234000 142.000000
315.226000 50.000000
326.191000 122.000000
326.203000 71.000000
326.214000 162.000000
327.232000 54451.000000
328.234000 57.000000
391.205000 267.000000
391.210000 379.000000
391.227000 1731.000000
409.220000 101.000000
409.241000 185.000000
436.799000 63.000000
463.209000 193.000000
463.222000 214.000000
463.237000 234.000000
465.257000 3647.000000
481.224000 123.000000
481.750000 77.000000
483.217000 112.000000
483.270000 9259.000000
492.373000 30.000000
501.739000 30.000000
537.227000 158.000000
537.260000 937.000000
537.292000 71.000000
555.236000 159.000000
555.273000 530.000000
555.304000 51.000000
719.463000 162.000000
761.472000 50.000000
790.920000 50.000000
790.974000 226.000000
790.998000 205.000000
791.020000 112.000000
791.050000 91.000000
792.608000 55.000000
793.075000 61.000000
793.297000 40.000000
793.497000 65609.000000
793.935000 47.000000
794.471000 76.000000
794.496000 152.000000
794.777000 48.000000

>ms2
78.959000 653.000000
93.071000 90.000000
96.971000 110.000000
107.088000 203.000000
109.103000 101.000000
117.069000 90.000000
119.085000 90.000000
121.096000 71.000000
121.103000 115.000000
123.116000 106.000000
131.088000 80.000000
133.100000 151.000000
135.116000 112.000000
137.132000 111.000000
147.120000 162.000000
149.136000 152.000000
151.147000 106.000000
152.995000 3160.000000
161.132000 101.000000
163.073000 101.000000
163.147000 151.000000
171.007000 2099.000000
175.147000 112.000000
175.155000 94.000000
177.094000 73.000000
177.154000 112.000000
177.164000 490.000000
181.122000 91.000000
185.124000 70.000000
189.164000 242.000000
191.180000 591.000000
191.191000 122.000000
201.168000 111.000000
203.106000 80.000000
203.181000 194.000000
205.198000 80.000000
209.013000 154.000000
209.028000 235.000000
217.122000 141.000000
217.197000 110.000000
227.031000 1334.000000
229.195000 3094.000000
231.139000 80.000000
241.195000 171.000000
245.042000 151.000000
249.183000 764.000000
254.437000 306.000000
255.233000 42265.000000
281.232000 110.000000
282.351000 95.000000
283.243000 24090.000000
291.214000 51.000000
297.223000 201.000000
309.220000 296.000000
309.234000 142.000000
315.226000 50.000000
326.191000 122.000000
326.203000 71.000000
326.214000 162.000000
327.232000 54451.000000
328.234000 57.000000
391.205000 267.000000
391.210000 379.000000
391.227000 1731.000000
409.220000 101.000000
409.241000 185.000000
436.799000 63.000000
463.209000 193.000000
463.222000 214.000000
463.237000 234.000000
465.257000 3647.000000
481.224000 123.000000
481.750000 77.000000
483.217000 112.000000
483.270000 9259.000000
492.373000 30.000000
501.739000 30.000000
537.227000 158.000000
537.260000 937.000000
537.292000 71.000000
555.236000 159.000000
555.273000 530.000000
555.304000 51.000000
719.463000 162.000000
761.472000 50.000000
790.920000 50.000000
790.974000 226.000000
790.998000 205.000000
791.020000 112.000000
791.050000 91.000000
792.608000 55.000000
793.075000 61.000000
793.297000 40.000000
793.497000 65609.000000
793.935000 47.000000
794.471000 76.000000
794.496000 152.000000
794.777000 48.000000

