>compound LQB4056366
>parentmass 887.5606
>ionization [M-H]-
>formula C47H85O13P
>rt 534.788760
>profile qtof
#smiles_iso CCCCCCCCCCCCCCCCCC(=O)OCC(COP(=O)(O)OC1C(C(C(C(C1O)O)O)O)O)OC(=O)CCCCCCCCC/C=C\C/C=C\C/C=C\CC
#smiles_can CCCCCCCCCCCCCCCCCC(=O)OCC(COP(=O)(O)OC1C(C(C(C(C1O)O)O)O)O)OC(=O)CCCCCCCCCC=CCC=CCC=CCC
#inchikey GGSSNEAFVQRIHU-JTBMWNAQSA-N
#pubchem_id 138159922
#mb_accession LQB00307,LQB00693

>ms2
78.957000 550.000000
96.971000 131.000000
134.989000 101.000000
152.521000 41.000000
152.994000 1406.000000
171.008000 51.000000
223.000000 2228.000000
238.993000 56.000000
240.255000 86.000000
241.010000 9313.000000
259.019000 908.000000
261.247000 91.000000
261.263000 70.000000
282.382000 112.000000
283.223000 114.000000
283.263000 16070.000000
284.264000 175.000000
285.260000 105.000000
297.014000 81.000000
297.036000 1541.000000
303.230000 60.000000
304.237000 62.000000
304.291000 70.000000
305.209000 53.000000
305.248000 15802.000000
306.258000 83.000000
315.043000 521.000000
315.060000 254.000000
417.946000 102.000000
419.253000 7214.000000
419.273000 1301.000000
421.251000 59.000000
437.264000 908.000000
437.297000 70.000000
438.267000 53.000000
441.235000 1082.000000
441.266000 152.000000
459.248000 80.000000
487.185000 40.000000
489.240000 43.000000
507.265000 56.000000
525.285000 60.000000
579.287000 47.000000
581.305000 7959.000000
583.313000 40.000000
599.291000 553.000000
599.319000 1799.000000
603.251000 163.000000
603.290000 1407.000000
603.351000 50.000000
621.274000 163.000000
621.304000 131.000000
621.339000 43.000000
725.457000 142.000000
725.502000 469.000000
725.524000 252.000000
727.500000 235.000000
727.534000 184.000000
765.517000 50.000000
767.502000 130.000000
795.511000 162.000000
809.509000 101.000000
813.647000 50.000000
837.513000 90.000000
855.479000 81.000000
855.525000 224.000000
855.566000 71.000000
869.533000 101.000000
884.688000 70.000000
884.731000 266.000000
884.763000 295.000000
884.804000 122.000000
884.835000 50.000000
885.431000 73.000000
885.622000 66.000000
886.336000 50.000000
886.524000 70.000000
887.217000 87.000000
887.339000 60.000000
887.400000 81.000000
887.558000 130039.000000
888.270000 74.000000
888.519000 110.000000
888.564000 313.000000
888.586000 91.000000

>ms2
78.957000 550.000000
96.971000 131.000000
134.989000 101.000000
152.521000 41.000000
152.994000 1406.000000
171.008000 51.000000
223.000000 2228.000000
238.993000 56.000000
240.255000 86.000000
241.010000 9313.000000
259.019000 908.000000
261.247000 91.000000
261.263000 70.000000
282.382000 112.000000
283.223000 114.000000
283.263000 16070.000000
284.264000 175.000000
285.260000 105.000000
297.014000 81.000000
297.036000 1541.000000
303.230000 60.000000
304.237000 62.000000
304.291000 70.000000
305.209000 53.000000
305.248000 15802.000000
306.258000 83.000000
315.043000 521.000000
315.060000 254.000000
417.946000 102.000000
419.253000 7214.000000
419.273000 1301.000000
421.251000 59.000000
437.264000 908.000000
437.297000 70.000000
438.267000 53.000000
441.235000 1082.000000
441.266000 152.000000
459.248000 80.000000
487.185000 40.000000
489.240000 43.000000
507.265000 56.000000
525.285000 60.000000
579.287000 47.000000
581.305000 7959.000000
583.313000 40.000000
599.291000 553.000000
599.319000 1799.000000
603.251000 163.000000
603.290000 1407.000000
603.351000 50.000000
621.274000 163.000000
621.304000 131.000000
621.339000 43.000000
725.457000 142.000000
725.502000 469.000000
725.524000 252.000000
727.500000 235.000000
727.534000 184.000000
765.517000 50.000000
767.502000 130.000000
795.511000 162.000000
809.509000 101.000000
813.647000 50.000000
837.513000 90.000000
855.479000 81.000000
855.525000 224.000000
855.566000 71.000000
869.533000 101.000000
884.688000 70.000000
884.731000 266.000000
884.763000 295.000000
884.804000 122.000000
884.835000 50.000000
885.431000 73.000000
885.622000 66.000000
886.336000 50.000000
886.524000 70.000000
887.217000 87.000000
887.339000 60.000000
887.400000 81.000000
887.558000 130039.000000
888.270000 74.000000
888.519000 110.000000
888.564000 313.000000
888.586000 91.000000

