>compound LQB4649363
>parentmass 666.6006
>ionization [M+CH3COOH-H]-
>formula C39H77NO3
>rt 774.303000
>profile qtof
#smiles_iso CCCCCCCCCCCCCCCCCCCCC(=O)NC(CO)C(/C=C/CCCCCCCCCCCCC)O
#smiles_can CCCCCCCCCCCCCCCCCCCCC(=O)NC(CO)C(C=CCCCCCCCCCCCCC)O
#inchikey FWXJRGLCUAXNLA-NWBJSICCSA-N
#pubchem_id 57713716
#mb_accession LQB00040,LQB00041,LQB00426,LQB00427

>ms2peaks
235.211000 30.000000
237.226000 50.000000
263.242000 30.000000
307.300000 80.000000
324.326000 40.000000
338.342000 30.000000
350.343000 214.000000
364.355000 132.000000
366.342000 63.000000
378.371000 61.000000
380.346000 20.000000
422.388000 20.000000
558.550000 41.000000
558.573000 20.000000
576.572000 123.000000
606.577000 552.000000
606.590000 122.000000
606.597000 81.000000
606.604000 51.000000
606.615000 51.000000
620.597000 20.000000

>ms2peaks
141.017000 16.000000
223.207000 64.000000
235.205000 24.000000
237.221000 288.000000
239.235000 18.000000
249.217000 30.000000
249.230000 24.000000
250.252000 20.000000
252.236000 14.000000
254.245000 10.000000
263.235000 227.000000
266.247000 58.000000
268.262000 40.000000
286.972000 10.000000
294.972000 10.000000
298.273000 24.000000
307.298000 379.000000
309.315000 10.000000
321.318000 72.000000
323.329000 32.000000
324.325000 294.000000
325.310000 233.000000
335.329000 10.000000
337.345000 13.000000
338.337000 60.000000
338.353000 16.000000
339.321000 44.000000
350.340000 1348.000000
352.944000 16.000000
364.309000 11.000000
364.357000 287.000000
366.334000 200.000000
368.342000 11.000000
376.939000 11.000000
378.371000 46.000000
380.349000 66.000000
531.552000 11.000000
558.556000 235.000000
558.583000 42.000000
574.545000 210.000000
574.567000 40.000000
576.565000 423.000000
576.633000 9.000000
588.570000 20.000000
604.668000 24.000000
606.574000 4084.000000
606.648000 12.000000
607.572000 16.000000
620.587000 8.000000
666.580000 9.000000

>ms2peaks
235.211000 30.000000
237.226000 50.000000
263.242000 30.000000
307.300000 80.000000
324.326000 40.000000
338.342000 30.000000
350.343000 214.000000
364.355000 132.000000
366.342000 63.000000
378.371000 61.000000
380.346000 20.000000
422.388000 20.000000
558.550000 41.000000
558.573000 20.000000
576.572000 123.000000
606.577000 552.000000
606.590000 122.000000
606.597000 81.000000
606.604000 51.000000
606.615000 51.000000
620.597000 20.000000

>ms2peaks
141.017000 16.000000
223.207000 64.000000
235.205000 24.000000
237.221000 288.000000
239.235000 18.000000
249.217000 30.000000
249.230000 24.000000
250.252000 20.000000
252.236000 14.000000
254.245000 10.000000
263.235000 227.000000
266.247000 58.000000
268.262000 40.000000
286.972000 10.000000
294.972000 10.000000
298.273000 24.000000
307.298000 379.000000
309.315000 10.000000
321.318000 72.000000
323.329000 32.000000
324.325000 294.000000
325.310000 233.000000
335.329000 10.000000
337.345000 13.000000
338.337000 60.000000
338.353000 16.000000
339.321000 44.000000
350.340000 1348.000000
352.944000 16.000000
364.309000 11.000000
364.357000 287.000000
366.334000 200.000000
368.342000 11.000000
376.939000 11.000000
378.371000 46.000000
380.349000 66.000000
531.552000 11.000000
558.556000 235.000000
558.583000 42.000000
574.545000 210.000000
574.567000 40.000000
576.565000 423.000000
576.633000 9.000000
588.570000 20.000000
604.668000 24.000000
606.574000 4084.000000
606.648000 12.000000
607.572000 16.000000
620.587000 8.000000
666.580000 9.000000

