>compound LQB4237039
>parentmass 840.5583
>ionization [M-H]-
>formula C49H80NO8P
>rt 597.649500
>profile qtof
#smiles_iso CCCCC/C=C\C/C=C\C/C=C\CCCCCCCCC(=O)OCC(COP(=O)(O)OCCN)OC(=O)CC/C=C\C/C=C\C/C=C\C/C=C\C/C=C\C/C=C\CC
#smiles_can CCCCCC=CCC=CCC=CCCCCCCCCC(=O)OCC(COP(=O)(O)OCCN)OC(=O)CCC=CCC=CCC=CCC=CCC=CCC=CCC
#inchikey DUSJRMVOELGZGY-VKEQCKTBSA-N
#pubchem_id 138147675
#mb_accession LQB00232,LQB00618

>ms2peaks
177.162000 20.000000
196.038000 20.000000
229.190000 43.000000
255.232000 20.000000
283.241000 204.000000
297.241000 30.000000
303.230000 125.000000
327.230000 530.000000
329.249000 20.000000
333.281000 315.000000
530.278000 30.000000
530.326000 101.000000
753.571000 23.000000
766.542000 90.000000
772.556000 25.000000
840.510000 121.000000
840.535000 215.000000
840.559000 286.000000
840.584000 144.000000
840.602000 64.000000

>ms2peaks
177.162000 20.000000
196.038000 20.000000
229.190000 43.000000
255.232000 20.000000
283.241000 204.000000
297.241000 30.000000
303.230000 125.000000
327.230000 530.000000
329.249000 20.000000
333.281000 315.000000
530.278000 30.000000
530.326000 101.000000
753.571000 23.000000
766.542000 90.000000
772.556000 25.000000
840.510000 121.000000
840.535000 215.000000
840.559000 286.000000
840.584000 144.000000
840.602000 64.000000

