>compound LQB4122680
>parentmass 716.5241
>ionization [M-H]-
>formula C39H76NO8P
>rt 601.497600
>profile qtof
#smiles_iso CCCCCCCCCCCCCCCC(=O)OCC(COP(=O)(O)OCCN)OC(=O)CCCCCCC/C=C\CCCCCCCC
#smiles_can CCCCCCCCCCCCCCCC(=O)OCC(COP(=O)(O)OCCN)OC(=O)CCCCCCCC=CCCCCCCCC
#inchikey FHQVHHIBKUMWTI-ZCXUNETKSA-N
#pubchem_id 5282290
#mb_accession LQB00175,LQB00561

>ms2peaks
78.957000 244.000000
96.968000 61.000000
122.000000 102.000000
140.010000 867.000000
178.022000 40.000000
196.038000 909.000000
214.052000 111.000000
252.432000 62.000000
253.218000 2023.000000
254.423000 61.000000
254.449000 146.000000
255.233000 24150.000000
280.352000 80.000000
280.366000 122.000000
280.383000 149.000000
280.408000 49.000000
281.154000 53.000000
281.249000 63488.000000
281.307000 50.000000
282.248000 118.000000
283.252000 275.000000
283.266000 642.000000
378.251000 40.000000
434.263000 815.000000
452.260000 1027.000000
452.282000 2119.000000
460.271000 224.000000
460.293000 172.000000
462.306000 60.000000
478.269000 101.000000
478.294000 357.000000
479.523000 20.000000
480.287000 70.000000
480.317000 81.000000
558.574000 20.000000
714.241000 72.000000
714.297000 53.000000
716.523000 18762.000000
716.590000 154.000000
717.528000 52.000000

>ms2peaks
78.957000 244.000000
96.968000 61.000000
122.000000 102.000000
140.010000 867.000000
178.022000 40.000000
196.038000 909.000000
214.052000 111.000000
252.432000 62.000000
253.218000 2023.000000
254.423000 61.000000
254.449000 146.000000
255.233000 24150.000000
280.352000 80.000000
280.366000 122.000000
280.383000 149.000000
280.408000 49.000000
281.154000 53.000000
281.249000 63488.000000
281.307000 50.000000
282.248000 118.000000
283.252000 275.000000
283.266000 642.000000
378.251000 40.000000
434.263000 815.000000
452.260000 1027.000000
452.282000 2119.000000
460.271000 224.000000
460.293000 172.000000
462.306000 60.000000
478.269000 101.000000
478.294000 357.000000
479.523000 20.000000
480.287000 70.000000
480.317000 81.000000
558.574000 20.000000
714.241000 72.000000
714.297000 53.000000
716.523000 18762.000000
716.590000 154.000000
717.528000 52.000000

