>compound LQB4111962
>parentmass 819.5219
>ionization [M-H]-
>formula C46H77O10P
>rt 487.170900
>profile qtof
#smiles_iso CCCCCCCC/C=C\CCCCCCCC(=O)OCC(COP(=O)(O)OCC(CO)O)OC(=O)CC/C=C\C/C=C\C/C=C\C/C=C\C/C=C\C/C=C\CC
#smiles_can CCCCCCCCC=CCCCCCCCC(=O)OCC(COP(=O)(O)OCC(CO)O)OC(=O)CCC=CCC=CCC=CCC=CCC=CCC=CCC
#inchikey FZJRPYWBMGYDIA-HILQMKNTSA-N
#pubchem_id 138157532
#mb_accession LQB00270,LQB00656

>ms2peaks
135.112000 40.000000
143.089000 35.000000
152.994000 164.000000
177.167000 63.000000
229.192000 305.000000
241.189000 41.000000
249.178000 80.000000
279.226000 31.000000
280.384000 122.000000
281.248000 10826.000000
283.241000 1995.000000
284.270000 40.000000
293.217000 40.000000
296.224000 44.000000
309.219000 40.000000
327.233000 4542.000000
329.243000 40.000000
417.232000 83.000000
435.249000 54.000000
437.268000 40.000000
463.215000 132.000000
463.231000 142.000000
481.230000 20.000000
491.274000 131.000000
509.260000 70.000000
509.291000 111.000000
537.259000 171.000000
555.251000 91.000000
555.273000 122.000000
555.291000 40.000000
563.701000 34.000000
627.528000 172.000000
714.491000 30.000000
732.513000 30.000000
737.501000 20.000000
737.566000 23.000000
759.473000 30.000000
759.591000 60.000000
816.941000 85.000000
819.344000 20.000000
819.447000 154.000000
819.518000 11414.000000
819.589000 185.000000
820.535000 61.000000

>ms2peaks
135.112000 40.000000
143.089000 35.000000
152.994000 164.000000
177.167000 63.000000
229.192000 305.000000
241.189000 41.000000
249.178000 80.000000
279.226000 31.000000
280.384000 122.000000
281.248000 10826.000000
283.241000 1995.000000
284.270000 40.000000
293.217000 40.000000
296.224000 44.000000
309.219000 40.000000
327.233000 4542.000000
329.243000 40.000000
417.232000 83.000000
435.249000 54.000000
437.268000 40.000000
463.215000 132.000000
463.231000 142.000000
481.230000 20.000000
491.274000 131.000000
509.260000 70.000000
509.291000 111.000000
537.259000 171.000000
555.251000 91.000000
555.273000 122.000000
555.291000 40.000000
563.701000 34.000000
627.528000 172.000000
714.491000 30.000000
732.513000 30.000000
737.501000 20.000000
737.566000 23.000000
759.473000 30.000000
759.591000 60.000000
816.941000 85.000000
819.344000 20.000000
819.447000 154.000000
819.518000 11414.000000
819.589000 185.000000
820.535000 61.000000

