>compound LQB4043896
>parentmass 794.5645
>ionization [M-H]-
>formula C45H82NO8P
>rt 693.939600
>profile qtof
#smiles_iso CCCCCCCCCCCCCCCCCCCC(=O)OCC(COP(=O)(O)OCCN)OC(=O)CCCCCC/C=C\C/C=C\C/C=C\C/C=C\CC
#smiles_can CCCCCCCCCCCCCCCCCCCC(=O)OCC(COP(=O)(O)OCCN)OC(=O)CCCCCCC=CCC=CCC=CCC=CCC
#inchikey MIPOZDXFSKBSGM-QLXZSTJSSA-N
#pubchem_id 138210698
#mb_accession LQB00227,LQB00613

>ms2
122.003000 6.000000
127.002000 8.000000
140.010000 30.000000
141.021000 7.000000
191.109000 6.000000
196.034000 46.000000
205.183000 10.000000
205.199000 24.000000
214.048000 10.000000
255.231000 11.000000
259.241000 76.000000
283.266000 10.000000
285.222000 9.000000
302.274000 18.000000
303.231000 1671.000000
305.066000 7.000000
311.295000 855.000000
331.263000 10.000000
384.944000 9.000000
384.978000 7.000000
466.964000 7.000000
482.250000 12.000000
490.316000 20.000000
490.338000 20.000000
500.267000 18.000000
508.332000 179.000000
508.349000 52.000000
548.918000 10.000000
630.922000 8.000000
656.914000 6.000000
660.838000 5.000000
706.852000 4.000000
712.521000 4.000000
720.528000 6.000000
779.598000 5.000000
792.055000 8.000000
794.409000 4.000000
794.568000 1502.000000
794.646000 10.000000

>ms2
122.003000 6.000000
127.002000 8.000000
140.010000 30.000000
141.021000 7.000000
191.109000 6.000000
196.034000 46.000000
205.183000 10.000000
205.199000 24.000000
214.048000 10.000000
255.231000 11.000000
259.241000 76.000000
283.266000 10.000000
285.222000 9.000000
302.274000 18.000000
303.231000 1671.000000
305.066000 7.000000
311.295000 855.000000
331.263000 10.000000
384.944000 9.000000
384.978000 7.000000
466.964000 7.000000
482.250000 12.000000
490.316000 20.000000
490.338000 20.000000
500.267000 18.000000
508.332000 179.000000
508.349000 52.000000
548.918000 10.000000
630.922000 8.000000
656.914000 6.000000
660.838000 5.000000
706.852000 4.000000
712.521000 4.000000
720.528000 6.000000
779.598000 5.000000
792.055000 8.000000
794.409000 4.000000
794.568000 1502.000000
794.646000 10.000000

