>compound LQB4330891
>parentmass 734.6581
>ionization [M+CH3COOH-H]-
>formula C44H85NO3
>rt 798.934200
>profile qtof
#smiles_iso CCCCCCCCCCCCCCC/C=C/C(C(CO)NC(=O)CCCCCCCCC/C=C\CCCCCCCCCCCC)O
#smiles_can CCCCCCCCCCCCCCCC=CC(C(CO)NC(=O)CCCCCCCCCC=CCCCCCCCCCCCC)O
#inchikey VKGHQOBUJUZLLU-BGVQMUOGSA-N
#pubchem_id 138280473
#mb_accession LQB00068,LQB00454

>ms2
235.207000 43.000000
237.213000 470.000000
237.226000 377.000000
237.240000 101.000000
263.238000 613.000000
265.234000 61.000000
265.253000 753.000000
268.247000 50.000000
268.269000 111.000000
278.282000 93.000000
281.242000 40.000000
291.258000 367.000000
291.272000 388.000000
294.279000 131.000000
296.294000 90.000000
347.332000 774.000000
349.341000 327.000000
349.357000 163.000000
364.346000 622.000000
364.367000 386.000000
365.326000 152.000000
365.343000 535.000000
366.376000 264.000000
367.348000 131.000000
375.332000 102.000000
375.355000 448.000000
375.373000 356.000000
390.340000 165.000000
390.369000 3378.000000
392.354000 196.000000
392.383000 2107.000000
392.407000 338.000000
393.360000 276.000000
406.351000 91.000000
406.369000 459.000000
408.379000 223.000000
418.401000 2771.000000
418.420000 463.000000
420.405000 121.000000
434.387000 225.000000
434.409000 275.000000
600.565000 60.000000
600.603000 264.000000
600.628000 90.000000
616.579000 152.000000
616.617000 111.000000
618.590000 121.000000
618.620000 163.000000
618.644000 81.000000
626.588000 204.000000
626.616000 797.000000
626.652000 113.000000
642.603000 950.000000
642.642000 183.000000
644.624000 1973.000000
644.682000 71.000000
648.626000 374.000000
656.633000 120.000000
672.476000 80.000000
672.531000 111.000000
674.638000 21197.000000
674.710000 94.000000
675.646000 108.000000
734.667000 100.000000

>ms2
235.207000 43.000000
237.213000 470.000000
237.226000 377.000000
237.240000 101.000000
263.238000 613.000000
265.234000 61.000000
265.253000 753.000000
268.247000 50.000000
268.269000 111.000000
278.282000 93.000000
281.242000 40.000000
291.258000 367.000000
291.272000 388.000000
294.279000 131.000000
296.294000 90.000000
347.332000 774.000000
349.341000 327.000000
349.357000 163.000000
364.346000 622.000000
364.367000 386.000000
365.326000 152.000000
365.343000 535.000000
366.376000 264.000000
367.348000 131.000000
375.332000 102.000000
375.355000 448.000000
375.373000 356.000000
390.340000 165.000000
390.369000 3378.000000
392.354000 196.000000
392.383000 2107.000000
392.407000 338.000000
393.360000 276.000000
406.351000 91.000000
406.369000 459.000000
408.379000 223.000000
418.401000 2771.000000
418.420000 463.000000
420.405000 121.000000
434.387000 225.000000
434.409000 275.000000
600.565000 60.000000
600.603000 264.000000
600.628000 90.000000
616.579000 152.000000
616.617000 111.000000
618.590000 121.000000
618.620000 163.000000
618.644000 81.000000
626.588000 204.000000
626.616000 797.000000
626.652000 113.000000
642.603000 950.000000
642.642000 183.000000
644.624000 1973.000000
644.682000 71.000000
648.626000 374.000000
656.633000 120.000000
672.476000 80.000000
672.531000 111.000000
674.638000 21197.000000
674.710000 94.000000
675.646000 108.000000
734.667000 100.000000

