>compound LQB4260425
>parentmass 814.5560499999999
>ionization [M+CH3COOH-H]-
>formula C42H78NO8P
>rt 530.115210
>profile qtof
#smiles_iso CCCCCC/C=C\CCCCCCCC(=O)OCC(COP(=O)([O-])OCC[N+](C)(C)C)OC(=O)CCCCCCC/C=C\C/C=C\CCCCC
#smiles_can CCCCCCC=CCCCCCCCC(=O)OCC(COP(=O)([O-])OCC[N+](C)(C)C)OC(=O)CCCCCCCC=CCC=CCCCCC
#inchikey QJWDAOSZZYVBJZ-BOAYSYCPSA-N
#pubchem_id 15151379
#mb_accession LQB00120,LQB00121,LQB00506,LQB00507

>ms2
78.957000 16.000000
152.993000 14.000000
168.042000 124.000000
224.066000 117.000000
224.075000 42.000000
227.202000 18.000000
242.079000 11.000000
251.201000 18.000000
252.427000 12.000000
253.216000 2311.000000
255.230000 22.000000
261.221000 20.000000
277.218000 24.000000
278.357000 41.000000
279.232000 8338.000000
280.237000 10.000000
281.250000 38.000000
283.264000 12.000000
303.233000 11.000000
304.238000 8.000000
305.234000 30.000000
305.250000 72.000000
322.963000 12.000000
327.234000 16.000000
389.192000 15.000000
389.222000 16.000000
430.277000 12.000000
460.271000 64.000000
478.278000 224.000000
478.298000 313.000000
478.343000 10.000000
480.303000 4.000000
486.266000 10.000000
486.296000 42.000000
486.325000 12.000000
486.970000 11.000000
493.248000 6.000000
504.303000 54.000000
525.016000 4.000000
559.603000 12.000000
568.864000 4.000000
669.433000 12.000000
738.141000 8.000000
738.182000 20.000000
738.219000 14.000000
740.516000 7367.000000
740.760000 8.000000
740.926000 15.000000
741.512000 32.000000
755.459000 28.000000
755.476000 34.000000
755.503000 21.000000
764.529000 9.000000
796.540000 8.000000
814.500000 78.000000
814.539000 323.000000
814.564000 276.000000
814.588000 108.000000

>ms2
168.040000 30.000000
176.651000 20.000000
253.215000 449.000000
255.232000 30.000000
279.231000 1133.000000
279.254000 61.000000
281.246000 30.000000
283.246000 70.000000
305.243000 23.000000
327.233000 60.000000
415.219000 20.000000
466.246000 20.000000
478.291000 111.000000
504.294000 40.000000
504.317000 81.000000
740.517000 1143.000000
814.524000 153.000000
814.553000 112.000000
814.596000 40.000000

>ms2
78.957000 16.000000
152.993000 14.000000
168.042000 124.000000
224.066000 117.000000
224.075000 42.000000
227.202000 18.000000
242.079000 11.000000
251.201000 18.000000
252.427000 12.000000
253.216000 2311.000000
255.230000 22.000000
261.221000 20.000000
277.218000 24.000000
278.357000 41.000000
279.232000 8338.000000
280.237000 10.000000
281.250000 38.000000
283.264000 12.000000
303.233000 11.000000
304.238000 8.000000
305.234000 30.000000
305.250000 72.000000
322.963000 12.000000
327.234000 16.000000
389.192000 15.000000
389.222000 16.000000
430.277000 12.000000
460.271000 64.000000
478.278000 224.000000
478.298000 313.000000
478.343000 10.000000
480.303000 4.000000
486.266000 10.000000
486.296000 42.000000
486.325000 12.000000
486.970000 11.000000
493.248000 6.000000
504.303000 54.000000
525.016000 4.000000
559.603000 12.000000
568.864000 4.000000
669.433000 12.000000
738.141000 8.000000
738.182000 20.000000
738.219000 14.000000
740.516000 7367.000000
740.760000 8.000000
740.926000 15.000000
741.512000 32.000000
755.459000 28.000000
755.476000 34.000000
755.503000 21.000000
764.529000 9.000000
796.540000 8.000000
814.500000 78.000000
814.539000 323.000000
814.564000 276.000000
814.588000 108.000000

>ms2
168.040000 30.000000
176.651000 20.000000
253.215000 449.000000
255.232000 30.000000
279.231000 1133.000000
279.254000 61.000000
281.246000 30.000000
283.246000 70.000000
305.243000 23.000000
327.233000 60.000000
415.219000 20.000000
466.246000 20.000000
478.291000 111.000000
504.294000 40.000000
504.317000 81.000000
740.517000 1143.000000
814.524000 153.000000
814.553000 112.000000
814.596000 40.000000

