>compound LQB4041024
>parentmass 808.5045
>ionization [M-H]-
>formula C44H76NO10P
>rt 502.855200
>profile qtof
#smiles_iso CCCCCCCC/C=C\CCCCCCCC(=O)OCC(COP(=O)(O)OCC(C(=O)O)N)OC(=O)CCCCCC/C=C\C/C=C\C/C=C\C/C=C\CC
#smiles_can CCCCCCCCC=CCCCCCCCC(=O)OCC(COP(=O)(O)OCC(C(=O)O)N)OC(=O)CCCCCCC=CCC=CCC=CCC=CCC
#inchikey YEPDLFVZBAYNRO-HAGCXRLMSA-N
#pubchem_id 138303740
#mb_accession LQB00342,LQB00728

>ms2peaks
152.998000 182.000000
255.231000 234.000000
264.962000 20.000000
267.201000 20.000000
269.228000 20.000000
271.220000 30.000000
279.233000 104.000000
280.238000 60.000000
281.244000 539.000000
281.256000 276.000000
283.262000 71.000000
284.273000 50.000000
303.214000 70.000000
303.233000 173.000000
303.250000 61.000000
329.245000 50.000000
345.233000 61.000000
391.229000 63.000000
409.223000 40.000000
417.223000 111.000000
417.244000 255.000000
417.267000 50.000000
419.250000 60.000000
435.237000 81.000000
435.260000 110.000000
439.212000 53.000000
457.219000 33.000000
720.463000 23.000000
721.429000 92.000000
721.471000 490.000000
721.491000 255.000000
721.516000 142.000000
726.521000 20.000000
734.515000 40.000000
745.522000 23.000000
746.474000 90.000000
746.494000 81.000000
746.516000 81.000000
790.538000 80.000000
808.457000 72.000000
808.492000 357.000000
808.519000 459.000000
808.554000 205.000000

>ms2peaks
152.998000 182.000000
255.231000 234.000000
264.962000 20.000000
267.201000 20.000000
269.228000 20.000000
271.220000 30.000000
279.233000 104.000000
280.238000 60.000000
281.244000 539.000000
281.256000 276.000000
283.262000 71.000000
284.273000 50.000000
303.214000 70.000000
303.233000 173.000000
303.250000 61.000000
329.245000 50.000000
345.233000 61.000000
391.229000 63.000000
409.223000 40.000000
417.223000 111.000000
417.244000 255.000000
417.267000 50.000000
419.250000 60.000000
435.237000 81.000000
435.260000 110.000000
439.212000 53.000000
457.219000 33.000000
720.463000 23.000000
721.429000 92.000000
721.471000 490.000000
721.491000 255.000000
721.516000 142.000000
726.521000 20.000000
734.515000 40.000000
745.522000 23.000000
746.474000 90.000000
746.494000 81.000000
746.516000 81.000000
790.538000 80.000000
808.457000 72.000000
808.492000 357.000000
808.519000 459.000000
808.554000 205.000000

