>compound LQB4758203
>parentmass 864.5729
>ionization [M+CH3COOH-H]-
>formula C46H80NO8P
>rt 552.129300
>profile qtof
#smiles_iso CCCCCCCCCCCCCCCC(=O)OCC(COP(=O)([O-])OCC[N+](C)(C)C)OC(=O)CC/C=C\C/C=C\C/C=C\C/C=C\C/C=C\C/C=C\CC
#smiles_can CCCCCCCCCCCCCCCC(=O)OCC(COP(=O)([O-])OCC[N+](C)(C)C)OC(=O)CCC=CCC=CCC=CCC=CCC=CCC=CCC
#inchikey IESVDEZGAHUQJU-SYGPSSPWSA-N
#pubchem_id 9940652
#mb_accession LQB00116,LQB00502

>ms2peaks
78.958000 360.000000
81.070000 31.000000
83.049000 26.000000
91.054000 31.000000
93.070000 93.000000
95.086000 59.000000
105.070000 83.000000
107.086000 213.000000
109.102000 95.000000
115.055000 14.000000
117.069000 105.000000
119.085000 65.000000
121.101000 211.000000
122.986000 23.000000
123.117000 100.000000
131.086000 64.000000
133.102000 186.000000
135.117000 141.000000
137.132000 123.000000
141.092000 17.000000
143.086000 58.000000
145.100000 46.000000
147.116000 131.000000
149.059000 25.000000
149.132000 160.000000
151.148000 69.000000
152.995000 136.000000
153.092000 27.000000
157.102000 18.000000
158.116000 14.000000
161.133000 137.000000
163.076000 128.000000
163.148000 187.000000
167.107000 36.000000
168.042000 2325.000000
169.123000 14.000000
171.118000 27.000000
172.125000 23.000000
173.132000 39.000000
175.148000 198.000000
177.091000 64.000000
177.164000 856.000000
179.105000 18.000000
181.123000 57.000000
183.141000 20.000000
185.134000 26.000000
187.147000 55.000000
189.164000 186.000000
191.109000 66.000000
191.180000 922.000000
193.122000 41.000000
195.141000 44.000000
199.147000 22.000000
201.163000 59.000000
203.106000 55.000000
203.180000 243.000000
205.123000 34.000000
205.193000 24.000000
206.059000 63.000000
207.139000 44.000000
209.155000 31.000000
213.164000 48.000000
215.180000 42.000000
217.123000 82.000000
217.195000 134.000000
218.128000 10.000000
219.137000 36.000000
221.153000 25.000000
224.068000 2807.000000
227.180000 49.000000
228.484000 21.000000
229.195000 3899.000000
231.136000 59.000000
233.153000 23.000000
235.169000 14.000000
241.194000 131.000000
242.079000 317.000000
243.140000 49.000000
245.154000 33.000000
249.184000 995.000000
254.437000 221.000000
254.476000 17.000000
255.196000 18.000000
255.232000 56635.000000
256.235000 56.000000
257.154000 49.000000
267.209000 21.000000
271.167000 58.000000
279.212000 13.000000
281.226000 119.000000
282.360000 84.000000
282.378000 16.000000
283.206000 22.000000
283.242000 31381.000000
283.289000 14.000000
283.337000 19.000000
284.244000 40.000000
285.184000 20.000000
291.212000 21.000000
297.221000 209.000000
307.206000 19.000000
309.221000 397.000000
315.231000 35.000000
317.225000 33.000000
325.217000 48.000000
326.208000 296.000000
327.143000 22.000000
327.232000 95920.000000
328.235000 123.000000
328.252000 24.000000
329.320000 28.000000
329.949000 11.000000
341.247000 21.000000
391.224000 428.000000
406.273000 120.000000
409.235000 83.000000
436.121000 13.000000
443.590000 12.000000
462.297000 2703.000000
462.345000 13.000000
463.225000 69.000000
469.759000 12.000000
473.431000 27.000000
476.976000 7.000000
477.271000 14.000000
478.267000 85.000000
478.755000 9.000000
478.798000 63.000000
478.817000 15.000000
479.694000 7.000000
480.259000 29.000000
480.307000 19276.000000
480.379000 21.000000
481.229000 7.000000
481.300000 15.000000
481.314000 23.000000
481.378000 4.000000
481.588000 7.000000
482.277000 8.000000
482.732000 9.000000
483.494000 7.000000
483.714000 4.000000
487.750000 6.000000
495.270000 80.000000
495.319000 7.000000
509.621000 15.000000
517.335000 31.000000
522.321000 12.000000
534.296000 1095.000000
534.345000 10.000000
549.248000 7.000000
552.306000 961.000000
563.692000 35.000000
567.273000 9.000000
652.999000 15.000000
653.372000 15.000000
653.606000 10.000000
655.714000 9.000000
655.937000 14.000000
656.243000 12.000000
656.466000 20.000000
719.463000 250.000000
745.476000 244.000000
745.517000 12.000000
746.497000 10.000000
763.515000 8.000000
788.046000 674.000000
788.102000 29.000000
788.586000 8.000000
788.737000 10.000000
788.854000 8.000000
789.371000 8.000000
789.488000 18.000000
789.565000 19.000000
789.603000 30.000000
789.637000 14.000000
790.085000 11.000000
790.151000 17.000000
790.270000 14.000000
790.315000 29.000000
790.340000 16.000000
790.392000 31.000000
790.534000 86720.000000
790.607000 53.000000
791.156000 11.000000
791.251000 14.000000
791.539000 602.000000
791.753000 21.000000
792.002000 8.000000
792.083000 10.000000
792.543000 30.000000
793.662000 12.000000
794.787000 9.000000
795.019000 11.000000
795.793000 7.000000
796.457000 18.000000
797.312000 20.000000
797.633000 14.000000
797.997000 8.000000
799.803000 9.000000
801.143000 8.000000
802.957000 9.000000
804.516000 11.000000
804.554000 23.000000
805.497000 2273.000000
861.798000 14.000000
861.834000 25.000000
861.869000 32.000000
864.572000 12052.000000
865.578000 32.000000
867.293000 11.000000
869.495000 24.000000

>ms2peaks
78.958000 360.000000
81.070000 31.000000
83.049000 26.000000
91.054000 31.000000
93.070000 93.000000
95.086000 59.000000
105.070000 83.000000
107.086000 213.000000
109.102000 95.000000
115.055000 14.000000
117.069000 105.000000
119.085000 65.000000
121.101000 211.000000
122.986000 23.000000
123.117000 100.000000
131.086000 64.000000
133.102000 186.000000
135.117000 141.000000
137.132000 123.000000
141.092000 17.000000
143.086000 58.000000
145.100000 46.000000
147.116000 131.000000
149.059000 25.000000
149.132000 160.000000
151.148000 69.000000
152.995000 136.000000
153.092000 27.000000
157.102000 18.000000
158.116000 14.000000
161.133000 137.000000
163.076000 128.000000
163.148000 187.000000
167.107000 36.000000
168.042000 2325.000000
169.123000 14.000000
171.118000 27.000000
172.125000 23.000000
173.132000 39.000000
175.148000 198.000000
177.091000 64.000000
177.164000 856.000000
179.105000 18.000000
181.123000 57.000000
183.141000 20.000000
185.134000 26.000000
187.147000 55.000000
189.164000 186.000000
191.109000 66.000000
191.180000 922.000000
193.122000 41.000000
195.141000 44.000000
199.147000 22.000000
201.163000 59.000000
203.106000 55.000000
203.180000 243.000000
205.123000 34.000000
205.193000 24.000000
206.059000 63.000000
207.139000 44.000000
209.155000 31.000000
213.164000 48.000000
215.180000 42.000000
217.123000 82.000000
217.195000 134.000000
218.128000 10.000000
219.137000 36.000000
221.153000 25.000000
224.068000 2807.000000
227.180000 49.000000
228.484000 21.000000
229.195000 3899.000000
231.136000 59.000000
233.153000 23.000000
235.169000 14.000000
241.194000 131.000000
242.079000 317.000000
243.140000 49.000000
245.154000 33.000000
249.184000 995.000000
254.437000 221.000000
254.476000 17.000000
255.196000 18.000000
255.232000 56635.000000
256.235000 56.000000
257.154000 49.000000
267.209000 21.000000
271.167000 58.000000
279.212000 13.000000
281.226000 119.000000
282.360000 84.000000
282.378000 16.000000
283.206000 22.000000
283.242000 31381.000000
283.289000 14.000000
283.337000 19.000000
284.244000 40.000000
285.184000 20.000000
291.212000 21.000000
297.221000 209.000000
307.206000 19.000000
309.221000 397.000000
315.231000 35.000000
317.225000 33.000000
325.217000 48.000000
326.208000 296.000000
327.143000 22.000000
327.232000 95920.000000
328.235000 123.000000
328.252000 24.000000
329.320000 28.000000
329.949000 11.000000
341.247000 21.000000
391.224000 428.000000
406.273000 120.000000
409.235000 83.000000
436.121000 13.000000
443.590000 12.000000
462.297000 2703.000000
462.345000 13.000000
463.225000 69.000000
469.759000 12.000000
473.431000 27.000000
476.976000 7.000000
477.271000 14.000000
478.267000 85.000000
478.755000 9.000000
478.798000 63.000000
478.817000 15.000000
479.694000 7.000000
480.259000 29.000000
480.307000 19276.000000
480.379000 21.000000
481.229000 7.000000
481.300000 15.000000
481.314000 23.000000
481.378000 4.000000
481.588000 7.000000
482.277000 8.000000
482.732000 9.000000
483.494000 7.000000
483.714000 4.000000
487.750000 6.000000
495.270000 80.000000
495.319000 7.000000
509.621000 15.000000
517.335000 31.000000
522.321000 12.000000
534.296000 1095.000000
534.345000 10.000000
549.248000 7.000000
552.306000 961.000000
563.692000 35.000000
567.273000 9.000000
652.999000 15.000000
653.372000 15.000000
653.606000 10.000000
655.714000 9.000000
655.937000 14.000000
656.243000 12.000000
656.466000 20.000000
719.463000 250.000000
745.476000 244.000000
745.517000 12.000000
746.497000 10.000000
763.515000 8.000000
788.046000 674.000000
788.102000 29.000000
788.586000 8.000000
788.737000 10.000000
788.854000 8.000000
789.371000 8.000000
789.488000 18.000000
789.565000 19.000000
789.603000 30.000000
789.637000 14.000000
790.085000 11.000000
790.151000 17.000000
790.270000 14.000000
790.315000 29.000000
790.340000 16.000000
790.392000 31.000000
790.534000 86720.000000
790.607000 53.000000
791.156000 11.000000
791.251000 14.000000
791.539000 602.000000
791.753000 21.000000
792.002000 8.000000
792.083000 10.000000
792.543000 30.000000
793.662000 12.000000
794.787000 9.000000
795.019000 11.000000
795.793000 7.000000
796.457000 18.000000
797.312000 20.000000
797.633000 14.000000
797.997000 8.000000
799.803000 9.000000
801.143000 8.000000
802.957000 9.000000
804.516000 11.000000
804.554000 23.000000
805.497000 2273.000000
861.798000 14.000000
861.834000 25.000000
861.869000 32.000000
864.572000 12052.000000
865.578000 32.000000
867.293000 11.000000
869.495000 24.000000

