>compound LQB4577455
>parentmass 904.6999
>ionization [M+CH3COOH-H]-
>formula C48H96NO8P
>rt 795.759600
>profile qtof
#smiles_iso CCCCCCCCCCCCCCCCCCCCCCCC(=O)OC(COC(=O)CCCCCCCCCCCCCCC)COP(=O)([O-])OCC[N+](C)(C)C
#smiles_can CCCCCCCCCCCCCCCCCCCCCCCC(=O)OC(COC(=O)CCCCCCCCCCCCCCC)COP(=O)([O-])OCC[N+](C)(C)C
#inchikey UEWKKZXJWBVMLY-UHFFFAOYSA-N
#pubchem_id 138270315
#mb_accession LQB00117,LQB00503

>ms2peaks
141.026000 33.000000
151.474000 30.000000
168.042000 91.000000
224.069000 81.000000
227.200000 41.000000
237.224000 31.000000
255.231000 3446.000000
283.256000 92.000000
283.266000 194.000000
311.292000 306.000000
331.261000 30.000000
339.322000 766.000000
353.336000 21.000000
359.298000 30.000000
365.330000 20.000000
367.354000 2904.000000
368.965000 20.000000
395.401000 33.000000
410.994000 20.000000
480.314000 122.000000
503.334000 30.000000
508.347000 33.000000
532.971000 30.000000
536.369000 40.000000
565.477000 50.000000
574.420000 73.000000
576.989000 30.000000
592.428000 214.000000
592.472000 50.000000
629.517000 20.000000
630.515000 20.000000
648.618000 70.000000
648.665000 30.000000
664.666000 40.000000
666.633000 20.000000
682.637000 20.000000
692.647000 50.000000
822.647000 80.000000
828.059000 72.000000
830.595000 105.000000
830.656000 8360.000000
830.684000 2265.000000
830.731000 140.000000
831.642000 70.000000
844.636000 40.000000
844.700000 122.000000
844.728000 122.000000
845.575000 35.000000
845.643000 53.000000
857.704000 60.000000
858.726000 50.000000
904.539000 20.000000
904.637000 147.000000
904.671000 591.000000
904.698000 583.000000
904.721000 336.000000
904.775000 71.000000

>ms2peaks
141.026000 33.000000
151.474000 30.000000
168.042000 91.000000
224.069000 81.000000
227.200000 41.000000
237.224000 31.000000
255.231000 3446.000000
283.256000 92.000000
283.266000 194.000000
311.292000 306.000000
331.261000 30.000000
339.322000 766.000000
353.336000 21.000000
359.298000 30.000000
365.330000 20.000000
367.354000 2904.000000
368.965000 20.000000
395.401000 33.000000
410.994000 20.000000
480.314000 122.000000
503.334000 30.000000
508.347000 33.000000
532.971000 30.000000
536.369000 40.000000
565.477000 50.000000
574.420000 73.000000
576.989000 30.000000
592.428000 214.000000
592.472000 50.000000
629.517000 20.000000
630.515000 20.000000
648.618000 70.000000
648.665000 30.000000
664.666000 40.000000
666.633000 20.000000
682.637000 20.000000
692.647000 50.000000
822.647000 80.000000
828.059000 72.000000
830.595000 105.000000
830.656000 8360.000000
830.684000 2265.000000
830.731000 140.000000
831.642000 70.000000
844.636000 40.000000
844.700000 122.000000
844.728000 122.000000
845.575000 35.000000
845.643000 53.000000
857.704000 60.000000
858.726000 50.000000
904.539000 20.000000
904.637000 147.000000
904.671000 591.000000
904.698000 583.000000
904.721000 336.000000
904.775000 71.000000

