>compound LQB4003408
>parentmass 817.50335
>ionization [M-H]-
>formula C46H75O10P
>rt 474.464400
>profile qtof
#smiles_iso CC/C=C\C/C=C\C/C=C\C/C=C\CCCCCCC(=O)OCC(COP(=O)(O)OCC(CO)O)OC(=O)CCCCCC/C=C\C/C=C\C/C=C\C/C=C\CC
#smiles_can CCC=CCC=CCC=CCC=CCCCCCCC(=O)OCC(COP(=O)(O)OCC(CO)O)OC(=O)CCCCCCC=CCC=CCC=CCC=CCC
#inchikey YICHHSJHMIIOIM-CKKCRWTASA-N
#pubchem_id 138304869
#mb_accession LQB00277,LQB00278,LQB00663,LQB00664

>ms2
152.996000 24.000000
165.040000 65.000000
223.028000 45.000000
239.057000 60.000000
259.242000 95.000000
277.220000 15.000000
279.235000 85.000000
281.249000 20.000000
283.251000 60.000000
303.230000 934.000000
327.232000 80.000000
329.246000 10.000000
415.215000 15.000000
452.278000 20.000000
457.236000 10.000000
477.240000 10.000000
489.257000 10.000000
513.271000 20.000000
531.262000 20.000000
799.520000 15.000000
817.494000 988.000000
817.532000 199.000000

>ms2
78.961000 50.000000
152.993000 673.000000
163.076000 60.000000
170.999000 60.000000
177.086000 121.000000
191.104000 81.000000
205.194000 786.000000
205.208000 133.000000
217.197000 60.000000
223.023000 100.000000
227.033000 63.000000
229.196000 71.000000
231.198000 60.000000
231.210000 70.000000
231.221000 81.000000
239.057000 60.000000
257.226000 72.000000
259.241000 4765.000000
277.216000 55.000000
279.232000 1866.000000
283.203000 50.000000
283.243000 223.000000
285.205000 94.000000
285.227000 234.000000
301.212000 101.000000
302.282000 380.000000
302.307000 78.000000
303.232000 79379.000000
304.232000 88.000000
327.215000 112.000000
327.234000 804.000000
329.246000 45.000000
350.239000 40.000000
439.218000 131.000000
457.234000 156.000000
457.266000 50.000000
481.254000 33.000000
481.493000 20.000000
490.816000 20.000000
507.276000 23.000000
513.229000 71.000000
513.264000 255.000000
513.292000 40.000000
531.268000 1193.000000
537.239000 20.000000
555.287000 20.000000
569.372000 20.000000
605.068000 73.000000
618.469000 30.000000
799.515000 76.000000
814.889000 111.000000
814.921000 153.000000
817.203000 30.000000
817.501000 32724.000000
818.494000 110.000000
818.705000 30.000000

>ms2
152.996000 24.000000
165.040000 65.000000
223.028000 45.000000
239.057000 60.000000
259.242000 95.000000
277.220000 15.000000
279.235000 85.000000
281.249000 20.000000
283.251000 60.000000
303.230000 934.000000
327.232000 80.000000
329.246000 10.000000
415.215000 15.000000
452.278000 20.000000
457.236000 10.000000
477.240000 10.000000
489.257000 10.000000
513.271000 20.000000
531.262000 20.000000
799.520000 15.000000
817.494000 988.000000
817.532000 199.000000

>ms2
78.961000 50.000000
152.993000 673.000000
163.076000 60.000000
170.999000 60.000000
177.086000 121.000000
191.104000 81.000000
205.194000 786.000000
205.208000 133.000000
217.197000 60.000000
223.023000 100.000000
227.033000 63.000000
229.196000 71.000000
231.198000 60.000000
231.210000 70.000000
231.221000 81.000000
239.057000 60.000000
257.226000 72.000000
259.241000 4765.000000
277.216000 55.000000
279.232000 1866.000000
283.203000 50.000000
283.243000 223.000000
285.205000 94.000000
285.227000 234.000000
301.212000 101.000000
302.282000 380.000000
302.307000 78.000000
303.232000 79379.000000
304.232000 88.000000
327.215000 112.000000
327.234000 804.000000
329.246000 45.000000
350.239000 40.000000
439.218000 131.000000
457.234000 156.000000
457.266000 50.000000
481.254000 33.000000
481.493000 20.000000
490.816000 20.000000
507.276000 23.000000
513.229000 71.000000
513.264000 255.000000
513.292000 40.000000
531.268000 1193.000000
537.239000 20.000000
555.287000 20.000000
569.372000 20.000000
605.068000 73.000000
618.469000 30.000000
799.515000 76.000000
814.889000 111.000000
814.921000 153.000000
817.203000 30.000000
817.501000 32724.000000
818.494000 110.000000
818.705000 30.000000

