>compound LQB4204588
>parentmass 864.5715
>ionization [M+CH3COOH-H]-
>formula C46H80NO8P
>rt 535.642890
>profile qtof
#smiles_iso CCCCC/C=C\C/C=C\CCCCCCCC(=O)OCC(COP(=O)([O-])OCC[N+](C)(C)C)OC(=O)CCCCCC/C=C\C/C=C\C/C=C\C/C=C\CC
#smiles_can CCCCCC=CCC=CCCCCCCCC(=O)OCC(COP(=O)([O-])OCC[N+](C)(C)C)OC(=O)CCCCCCC=CCC=CCC=CCC=CCC
#inchikey RUHBZJXWUDKAMZ-ODAJXHQSSA-N
#pubchem_id 138256331
#mb_accession LQB00156,LQB00157,LQB00542,LQB00543

>ms2
78.958000 50.000000
168.043000 291.000000
191.105000 30.000000
205.195000 161.000000
206.059000 30.000000
217.196000 30.000000
224.067000 361.000000
231.210000 20.000000
242.076000 40.000000
242.089000 30.000000
253.216000 30.000000
259.242000 1254.000000
261.215000 20.000000
278.359000 51.000000
279.232000 8878.000000
281.242000 27.000000
283.241000 27.000000
283.271000 30.000000
285.222000 100.000000
302.287000 86.000000
302.334000 25.000000
303.166000 24.000000
303.232000 20880.000000
303.274000 37.000000
304.226000 42.000000
327.236000 31.000000
329.247000 55.000000
415.227000 65.000000
430.269000 24.000000
454.268000 26.000000
475.678000 21.000000
478.295000 25.000000
480.306000 20.000000
486.295000 426.000000
502.716000 15.000000
504.306000 2158.000000
504.459000 15.000000
504.897000 15.000000
510.278000 30.000000
510.295000 126.000000
519.282000 25.000000
528.302000 203.000000
528.328000 35.000000
719.457000 50.000000
745.482000 65.000000
782.537000 55.000000
788.025000 60.000000
788.071000 45.000000
790.092000 22.000000
790.293000 16.000000
790.536000 24833.000000
790.619000 58.000000
790.934000 16.000000
791.531000 85.000000
805.468000 60.000000
805.499000 249.000000
805.560000 16.000000
864.573000 2355.000000

>ms2
78.957000 80.000000
152.995000 70.000000
163.079000 40.000000
168.039000 276.000000
205.123000 40.000000
205.193000 142.000000
205.205000 51.000000
220.035000 40.000000
224.069000 426.000000
242.081000 70.000000
255.231000 60.000000
257.231000 40.000000
259.241000 1438.000000
278.372000 62.000000
279.198000 114.000000
279.232000 7734.000000
281.237000 66.000000
283.259000 204.000000
285.218000 63.000000
301.212000 122.000000
302.277000 85.000000
303.231000 20133.000000
303.320000 31.000000
319.234000 101.000000
327.224000 89.000000
329.249000 40.000000
415.226000 70.000000
430.263000 30.000000
464.309000 35.000000
480.298000 68.000000
481.332000 20.000000
486.263000 60.000000
486.296000 334.000000
491.836000 31.000000
502.726000 31.000000
504.285000 810.000000
504.310000 2010.000000
506.299000 20.000000
510.279000 91.000000
510.303000 71.000000
519.267000 30.000000
528.287000 91.000000
528.312000 101.000000
528.332000 50.000000
606.233000 20.000000
719.466000 40.000000
745.482000 71.000000
782.499000 183.000000
782.524000 256.000000
782.551000 92.000000
788.030000 123.000000
789.557000 40.000000
790.431000 71.000000
790.530000 25697.000000
791.544000 75.000000
804.477000 35.000000
805.478000 145.000000
805.499000 92.000000
805.522000 101.000000
864.510000 297.000000
864.559000 2500.000000
864.606000 423.000000

>ms2
78.958000 50.000000
168.043000 291.000000
191.105000 30.000000
205.195000 161.000000
206.059000 30.000000
217.196000 30.000000
224.067000 361.000000
231.210000 20.000000
242.076000 40.000000
242.089000 30.000000
253.216000 30.000000
259.242000 1254.000000
261.215000 20.000000
278.359000 51.000000
279.232000 8878.000000
281.242000 27.000000
283.241000 27.000000
283.271000 30.000000
285.222000 100.000000
302.287000 86.000000
302.334000 25.000000
303.166000 24.000000
303.232000 20880.000000
303.274000 37.000000
304.226000 42.000000
327.236000 31.000000
329.247000 55.000000
415.227000 65.000000
430.269000 24.000000
454.268000 26.000000
475.678000 21.000000
478.295000 25.000000
480.306000 20.000000
486.295000 426.000000
502.716000 15.000000
504.306000 2158.000000
504.459000 15.000000
504.897000 15.000000
510.278000 30.000000
510.295000 126.000000
519.282000 25.000000
528.302000 203.000000
528.328000 35.000000
719.457000 50.000000
745.482000 65.000000
782.537000 55.000000
788.025000 60.000000
788.071000 45.000000
790.092000 22.000000
790.293000 16.000000
790.536000 24833.000000
790.619000 58.000000
790.934000 16.000000
791.531000 85.000000
805.468000 60.000000
805.499000 249.000000
805.560000 16.000000
864.573000 2355.000000

>ms2
78.957000 80.000000
152.995000 70.000000
163.079000 40.000000
168.039000 276.000000
205.123000 40.000000
205.193000 142.000000
205.205000 51.000000
220.035000 40.000000
224.069000 426.000000
242.081000 70.000000
255.231000 60.000000
257.231000 40.000000
259.241000 1438.000000
278.372000 62.000000
279.198000 114.000000
279.232000 7734.000000
281.237000 66.000000
283.259000 204.000000
285.218000 63.000000
301.212000 122.000000
302.277000 85.000000
303.231000 20133.000000
303.320000 31.000000
319.234000 101.000000
327.224000 89.000000
329.249000 40.000000
415.226000 70.000000
430.263000 30.000000
464.309000 35.000000
480.298000 68.000000
481.332000 20.000000
486.263000 60.000000
486.296000 334.000000
491.836000 31.000000
502.726000 31.000000
504.285000 810.000000
504.310000 2010.000000
506.299000 20.000000
510.279000 91.000000
510.303000 71.000000
519.267000 30.000000
528.287000 91.000000
528.312000 101.000000
528.332000 50.000000
606.233000 20.000000
719.466000 40.000000
745.482000 71.000000
782.499000 183.000000
782.524000 256.000000
782.551000 92.000000
788.030000 123.000000
789.557000 40.000000
790.431000 71.000000
790.530000 25697.000000
791.544000 75.000000
804.477000 35.000000
805.478000 145.000000
805.499000 92.000000
805.522000 101.000000
864.510000 297.000000
864.559000 2500.000000
864.606000 423.000000

