>compound LQB4322032
>parentmass 652.588
>ionization [M+CH3COOH-H]-
>formula C38H75NO3
>rt 731.622000
>profile qtof
#smiles_iso CCCCCCCCCCCCCCCCCC(=O)NC(CO)C(/C=C/CCCCCCCCCCCCCCC)O
#smiles_can CCCCCCCCCCCCCCCCCC(=O)NC(CO)C(C=CCCCCCCCCCCCCCCC)O
#inchikey BDIIZHQNVIYLPJ-QOSDPKFLSA-N
#pubchem_id 138125208
#mb_accession LQB00066,LQB00452

>ms2
235.220000 30.000000
237.224000 378.000000
239.233000 33.000000
250.247000 50.000000
263.238000 576.000000
265.252000 3224.000000
266.243000 71.000000
267.265000 81.000000
268.269000 121.000000
278.291000 71.000000
281.281000 224.000000
282.279000 1152.000000
283.265000 889.000000
291.270000 1265.000000
293.273000 243.000000
293.288000 428.000000
294.282000 214.000000
296.289000 204.000000
298.275000 50.000000
306.279000 71.000000
307.339000 87.000000
308.295000 6938.000000
309.281000 68.000000
309.316000 61.000000
310.298000 111.000000
310.314000 298.000000
311.293000 316.000000
324.288000 1225.000000
326.305000 91.000000
336.306000 319.000000
336.326000 2114.000000
352.299000 71.000000
352.317000 224.000000
352.335000 81.000000
517.521000 40.000000
544.543000 1255.000000
544.564000 326.000000
556.560000 40.000000
560.505000 143.000000
560.531000 897.000000
560.557000 541.000000
562.557000 2349.000000
564.593000 44.000000
574.560000 183.000000
590.697000 140.000000
592.426000 35.000000
592.503000 97.000000
592.565000 18741.000000
593.570000 91.000000

>ms2
235.220000 30.000000
237.224000 378.000000
239.233000 33.000000
250.247000 50.000000
263.238000 576.000000
265.252000 3224.000000
266.243000 71.000000
267.265000 81.000000
268.269000 121.000000
278.291000 71.000000
281.281000 224.000000
282.279000 1152.000000
283.265000 889.000000
291.270000 1265.000000
293.273000 243.000000
293.288000 428.000000
294.282000 214.000000
296.289000 204.000000
298.275000 50.000000
306.279000 71.000000
307.339000 87.000000
308.295000 6938.000000
309.281000 68.000000
309.316000 61.000000
310.298000 111.000000
310.314000 298.000000
311.293000 316.000000
324.288000 1225.000000
326.305000 91.000000
336.306000 319.000000
336.326000 2114.000000
352.299000 71.000000
352.317000 224.000000
352.335000 81.000000
517.521000 40.000000
544.543000 1255.000000
544.564000 326.000000
556.560000 40.000000
560.505000 143.000000
560.531000 897.000000
560.557000 541.000000
562.557000 2349.000000
564.593000 44.000000
574.560000 183.000000
590.697000 140.000000
592.426000 35.000000
592.503000 97.000000
592.565000 18741.000000
593.570000 91.000000

