>compound LQB4125764
>parentmass 778.5575
>ionization [M+CH3COOH-H]-
>formula C39H78NO8P
>rt 563.116440
>profile qtof
#smiles_iso CCCCCCCCCCCCCCCC(=O)OC(COC(=O)CCCCCCCCCCCCCC)COP(=O)([O-])OCC[N+](C)(C)C
#smiles_can CCCCCCCCCCCCCCCC(=O)OC(COC(=O)CCCCCCCCCCCCCC)COP(=O)([O-])OCC[N+](C)(C)C
#inchikey LLHISNQVRRYJGL-UHFFFAOYSA-N
#pubchem_id 14818904
#mb_accession LQB00092,LQB00478

>ms2
168.041000 285.000000
224.065000 275.000000
227.202000 155.000000
240.463000 148.000000
241.216000 11796.000000
242.087000 63.000000
254.437000 72.000000
255.198000 93.000000
255.233000 9600.000000
256.237000 41.000000
269.249000 101.000000
281.254000 30.000000
282.247000 20.000000
283.257000 50.000000
284.262000 40.000000
303.234000 55.000000
377.205000 33.000000
391.077000 20.000000
391.229000 50.000000
406.289000 40.000000
448.277000 132.000000
448.300000 60.000000
462.289000 204.000000
462.307000 82.000000
462.318000 143.000000
466.283000 367.000000
466.304000 132.000000
480.308000 662.000000
480.351000 20.000000
494.300000 30.000000
522.470000 23.000000
628.527000 70.000000
633.449000 33.000000
659.464000 20.000000
702.332000 35.000000
702.567000 30.000000
704.494000 1730.000000
704.519000 11744.000000
705.514000 43.000000
718.540000 30.000000
719.453000 50.000000
719.492000 132.000000
746.535000 40.000000
778.510000 112.000000
778.546000 407.000000
778.575000 377.000000
778.605000 81.000000

>ms2
168.041000 285.000000
224.065000 275.000000
227.202000 155.000000
240.463000 148.000000
241.216000 11796.000000
242.087000 63.000000
254.437000 72.000000
255.198000 93.000000
255.233000 9600.000000
256.237000 41.000000
269.249000 101.000000
281.254000 30.000000
282.247000 20.000000
283.257000 50.000000
284.262000 40.000000
303.234000 55.000000
377.205000 33.000000
391.077000 20.000000
391.229000 50.000000
406.289000 40.000000
448.277000 132.000000
448.300000 60.000000
462.289000 204.000000
462.307000 82.000000
462.318000 143.000000
466.283000 367.000000
466.304000 132.000000
480.308000 662.000000
480.351000 20.000000
494.300000 30.000000
522.470000 23.000000
628.527000 70.000000
633.449000 33.000000
659.464000 20.000000
702.332000 35.000000
702.567000 30.000000
704.494000 1730.000000
704.519000 11744.000000
705.514000 43.000000
718.540000 30.000000
719.453000 50.000000
719.492000 132.000000
746.535000 40.000000
778.510000 112.000000
778.546000 407.000000
778.575000 377.000000
778.605000 81.000000

