>compound LQB4453092
>parentmass 868.6034000000001
>ionization [M+CH3COOH-H]-
>formula C46H84NO8P
>rt 595.478040
>profile qtof
#smiles_iso CCCCCCCCCCCCCCCC(=O)OCC(COP(=O)([O-])OCC[N+](C)(C)C)OC(=O)CCCCCCCC/C=C\C/C=C\C/C=C\C/C=C\CC
#smiles_can CCCCCCCCCCCCCCCC(=O)OCC(COP(=O)([O-])OCC[N+](C)(C)C)OC(=O)CCCCCCCCC=CCC=CCC=CCC=CCC
#inchikey HUAVKOMRGUBYMK-LTFXTMEVSA-N
#pubchem_id 138172457
#mb_accession LQB00111,LQB00112,LQB00497,LQB00498

>ms2peaks
78.958000 35.000000
168.044000 168.000000
205.121000 23.000000
206.061000 25.000000
224.068000 235.000000
233.226000 100.000000
242.076000 41.000000
253.221000 25.000000
254.429000 31.000000
255.232000 5951.000000
259.250000 23.000000
281.239000 76.000000
281.252000 316.000000
283.261000 85.000000
287.262000 157.000000
287.276000 184.000000
303.225000 65.000000
303.238000 65.000000
305.242000 35.000000
313.256000 70.000000
330.220000 55.000000
330.266000 21.000000
331.261000 16836.000000
332.262000 25.000000
391.204000 30.000000
391.229000 40.000000
406.261000 40.000000
462.274000 55.000000
462.296000 214.000000
467.256000 20.000000
480.262000 50.000000
480.304000 1169.000000
482.291000 15.000000
484.291000 10.000000
485.979000 10.000000
495.269000 11.000000
496.282000 11.000000
506.328000 16.000000
538.324000 75.000000
538.347000 55.000000
556.308000 30.000000
556.327000 80.000000
556.349000 55.000000
556.395000 10.000000
661.269000 17.000000
723.492000 44.000000
749.507000 25.000000
792.014000 40.000000
792.040000 45.000000
792.096000 35.000000
794.427000 20.000000
794.480000 71.000000
794.565000 20692.000000
794.642000 133.000000
795.549000 70.000000
808.540000 26.000000
809.484000 41.000000
809.526000 196.000000
809.562000 50.000000
868.546000 188.000000
868.569000 341.000000
868.593000 846.000000
868.620000 816.000000
868.669000 55.000000

>ms2peaks
168.042000 276.000000
205.116000 50.000000
224.063000 193.000000
224.080000 113.000000
233.232000 84.000000
254.428000 51.000000
254.457000 42.000000
255.233000 5383.000000
256.237000 60.000000
281.248000 223.000000
282.255000 153.000000
283.262000 153.000000
287.253000 61.000000
287.273000 254.000000
303.220000 117.000000
303.234000 162.000000
303.252000 30.000000
313.253000 40.000000
330.224000 156.000000
330.501000 35.000000
331.263000 15208.000000
462.274000 91.000000
462.294000 173.000000
462.323000 40.000000
480.306000 1223.000000
508.352000 20.000000
538.336000 130.000000
556.321000 111.000000
556.354000 101.000000
723.498000 63.000000
749.526000 50.000000
792.060000 93.000000
794.469000 84.000000
794.563000 21947.000000
794.763000 39.000000
795.575000 54.000000
809.520000 193.000000
809.552000 70.000000
868.537000 70.000000
868.573000 318.000000
868.591000 985.000000
868.618000 1061.000000
868.662000 81.000000

>ms2peaks
78.958000 35.000000
168.044000 168.000000
205.121000 23.000000
206.061000 25.000000
224.068000 235.000000
233.226000 100.000000
242.076000 41.000000
253.221000 25.000000
254.429000 31.000000
255.232000 5951.000000
259.250000 23.000000
281.239000 76.000000
281.252000 316.000000
283.261000 85.000000
287.262000 157.000000
287.276000 184.000000
303.225000 65.000000
303.238000 65.000000
305.242000 35.000000
313.256000 70.000000
330.220000 55.000000
330.266000 21.000000
331.261000 16836.000000
332.262000 25.000000
391.204000 30.000000
391.229000 40.000000
406.261000 40.000000
462.274000 55.000000
462.296000 214.000000
467.256000 20.000000
480.262000 50.000000
480.304000 1169.000000
482.291000 15.000000
484.291000 10.000000
485.979000 10.000000
495.269000 11.000000
496.282000 11.000000
506.328000 16.000000
538.324000 75.000000
538.347000 55.000000
556.308000 30.000000
556.327000 80.000000
556.349000 55.000000
556.395000 10.000000
661.269000 17.000000
723.492000 44.000000
749.507000 25.000000
792.014000 40.000000
792.040000 45.000000
792.096000 35.000000
794.427000 20.000000
794.480000 71.000000
794.565000 20692.000000
794.642000 133.000000
795.549000 70.000000
808.540000 26.000000
809.484000 41.000000
809.526000 196.000000
809.562000 50.000000
868.546000 188.000000
868.569000 341.000000
868.593000 846.000000
868.620000 816.000000
868.669000 55.000000

>ms2peaks
168.042000 276.000000
205.116000 50.000000
224.063000 193.000000
224.080000 113.000000
233.232000 84.000000
254.428000 51.000000
254.457000 42.000000
255.233000 5383.000000
256.237000 60.000000
281.248000 223.000000
282.255000 153.000000
283.262000 153.000000
287.253000 61.000000
287.273000 254.000000
303.220000 117.000000
303.234000 162.000000
303.252000 30.000000
313.253000 40.000000
330.224000 156.000000
330.501000 35.000000
331.263000 15208.000000
462.274000 91.000000
462.294000 173.000000
462.323000 40.000000
480.306000 1223.000000
508.352000 20.000000
538.336000 130.000000
556.321000 111.000000
556.354000 101.000000
723.498000 63.000000
749.526000 50.000000
792.060000 93.000000
794.469000 84.000000
794.563000 21947.000000
794.763000 39.000000
795.575000 54.000000
809.520000 193.000000
809.552000 70.000000
868.537000 70.000000
868.573000 318.000000
868.591000 985.000000
868.618000 1061.000000
868.662000 81.000000

