>compound LQB4397477
>parentmass 804.5758
>ionization [M+CH3COOH-H]-
>formula C41H80NO8P
>rt 569.813100
>profile qtof
#smiles_iso CCCCCCCCCCCCCCC(=O)OCC(COP(=O)([O-])OCC[N+](C)(C)C)OC(=O)CCCCCCC/C=C\CCCCCCCC
#smiles_can CCCCCCCCCCCCCCC(=O)OCC(COP(=O)([O-])OCC[N+](C)(C)C)OC(=O)CCCCCCCC=CCCCCCCCC
#inchikey ZEWLMKXMNQOCOQ-MRCUWXFGSA-N
#pubchem_id 24778663
#mb_accession LQB00093,LQB00479

>ms2peaks
168.043000 30.000000
224.073000 30.000000
241.217000 673.000000
253.216000 111.000000
255.230000 418.000000
267.231000 918.000000
269.254000 48.000000
271.220000 20.000000
281.248000 1325.000000
281.376000 20.000000
282.237000 30.000000
283.262000 90.000000
284.261000 60.000000
303.240000 20.000000
448.285000 30.000000
466.294000 111.000000
474.296000 30.000000
480.311000 80.000000
494.295000 23.000000
494.333000 25.000000
506.307000 20.000000
582.532000 20.000000
598.544000 61.000000
717.502000 20.000000
722.476000 20.000000
728.210000 30.000000
729.796000 21.000000
730.534000 2645.000000
730.578000 174.000000
744.518000 171.000000
744.597000 60.000000
804.579000 245.000000

>ms2peaks
168.043000 30.000000
224.073000 30.000000
241.217000 673.000000
253.216000 111.000000
255.230000 418.000000
267.231000 918.000000
269.254000 48.000000
271.220000 20.000000
281.248000 1325.000000
281.376000 20.000000
282.237000 30.000000
283.262000 90.000000
284.261000 60.000000
303.240000 20.000000
448.285000 30.000000
466.294000 111.000000
474.296000 30.000000
480.311000 80.000000
494.295000 23.000000
494.333000 25.000000
506.307000 20.000000
582.532000 20.000000
598.544000 61.000000
717.502000 20.000000
722.476000 20.000000
728.210000 30.000000
729.796000 21.000000
730.534000 2645.000000
730.578000 174.000000
744.518000 171.000000
744.597000 60.000000
804.579000 245.000000

