>compound LQB4663727
>parentmass 862.5601
>ionization [M+CH3COOH-H]-
>formula C46H78NO8P
>rt 521.925000
>profile qtof
#smiles_iso CCCCCC/C=C\CCCCCCCC(=O)OCC(COP(=O)([O-])OCC[N+](C)(C)C)OC(=O)CC/C=C\C/C=C\C/C=C\C/C=C\C/C=C\C/C=C\CC
#smiles_can CCCCCCC=CCCCCCCCC(=O)OCC(COP(=O)([O-])OCC[N+](C)(C)C)OC(=O)CCC=CCC=CCC=CCC=CCC=CCC=CCC
#inchikey DLRNZUPJXRVWRW-LKDYKOESSA-N
#pubchem_id 24778774
#mb_accession LQB00124,LQB00510

>ms2
121.104000 90.000000
152.997000 60.000000
168.028000 51.000000
168.043000 408.000000
177.163000 94.000000
189.162000 70.000000
191.176000 130.000000
203.180000 50.000000
223.004000 51.000000
224.070000 305.000000
229.195000 652.000000
241.010000 213.000000
241.198000 65.000000
242.071000 81.000000
249.186000 196.000000
252.441000 53.000000
253.216000 8775.000000
279.220000 91.000000
279.235000 163.000000
280.242000 152.000000
281.242000 80.000000
282.252000 86.000000
282.352000 80.000000
283.240000 4333.000000
283.275000 105.000000
284.262000 111.000000
297.215000 40.000000
309.215000 101.000000
327.230000 12489.000000
328.232000 42.000000
389.197000 100.000000
407.212000 41.000000
419.263000 53.000000
420.254000 70.000000
460.275000 256.000000
460.296000 133.000000
460.311000 81.000000
478.248000 90.000000
478.276000 1141.000000
478.295000 1698.000000
488.989000 20.000000
493.268000 30.000000
534.272000 50.000000
534.299000 172.000000
552.284000 60.000000
552.313000 111.000000
581.297000 80.000000
582.303000 90.000000
717.432000 60.000000
743.437000 60.000000
786.013000 70.000000
786.070000 90.000000
788.520000 25051.000000
788.655000 48.000000
789.492000 70.000000
789.538000 40.000000
803.440000 61.000000
803.477000 163.000000
803.530000 81.000000
862.450000 50.000000
862.530000 1310.000000
862.557000 2721.000000
862.601000 364.000000

>ms2
121.104000 90.000000
152.997000 60.000000
168.028000 51.000000
168.043000 408.000000
177.163000 94.000000
189.162000 70.000000
191.176000 130.000000
203.180000 50.000000
223.004000 51.000000
224.070000 305.000000
229.195000 652.000000
241.010000 213.000000
241.198000 65.000000
242.071000 81.000000
249.186000 196.000000
252.441000 53.000000
253.216000 8775.000000
279.220000 91.000000
279.235000 163.000000
280.242000 152.000000
281.242000 80.000000
282.252000 86.000000
282.352000 80.000000
283.240000 4333.000000
283.275000 105.000000
284.262000 111.000000
297.215000 40.000000
309.215000 101.000000
327.230000 12489.000000
328.232000 42.000000
389.197000 100.000000
407.212000 41.000000
419.263000 53.000000
420.254000 70.000000
460.275000 256.000000
460.296000 133.000000
460.311000 81.000000
478.248000 90.000000
478.276000 1141.000000
478.295000 1698.000000
488.989000 20.000000
493.268000 30.000000
534.272000 50.000000
534.299000 172.000000
552.284000 60.000000
552.313000 111.000000
581.297000 80.000000
582.303000 90.000000
717.432000 60.000000
743.437000 60.000000
786.013000 70.000000
786.070000 90.000000
788.520000 25051.000000
788.655000 48.000000
789.492000 70.000000
789.538000 40.000000
803.440000 61.000000
803.477000 163.000000
803.530000 81.000000
862.450000 50.000000
862.530000 1310.000000
862.557000 2721.000000
862.601000 364.000000

