>compound LQB4300748
>parentmass 824.5427
>ionization [M+CH3COOH-H]-
>formula C43H76NO8P
>rt 518.040660
>profile qtof
#smiles_iso CCCCCCCCCCCCCCC(=O)OCC(COP(=O)([O-])OCC[N+](C)(C)C)OC(=O)CCC/C=C\C/C=C\C/C=C\C/C=C\C/C=C\CC
#smiles_can CCCCCCCCCCCCCCC(=O)OCC(COP(=O)([O-])OCC[N+](C)(C)C)OC(=O)CCCC=CCC=CCC=CCC=CCC=CCC
#inchikey UJMUDAMKHIWLCZ-SWDVKVAGSA-N
#pubchem_id 138271824
#mb_accession LQB00096,LQB00482

>ms2
241.214000 296.000000
255.230000 55.000000
257.225000 91.000000
257.234000 25.000000
281.249000 30.000000
283.264000 31.000000
284.269000 20.000000
301.215000 636.000000
303.234000 10.000000
343.226000 15.000000
352.931000 10.000000
448.276000 20.000000
466.294000 121.000000
480.295000 10.000000
508.284000 10.000000
526.296000 20.000000
750.481000 117.000000
750.504000 994.000000
764.517000 35.000000
806.524000 21.000000
824.509000 20.000000
824.518000 40.000000
824.533000 90.000000
824.546000 46.000000
824.558000 35.000000
824.566000 30.000000
824.615000 16.000000

>ms2
241.214000 296.000000
255.230000 55.000000
257.225000 91.000000
257.234000 25.000000
281.249000 30.000000
283.264000 31.000000
284.269000 20.000000
301.215000 636.000000
303.234000 10.000000
343.226000 15.000000
352.931000 10.000000
448.276000 20.000000
466.294000 121.000000
480.295000 10.000000
508.284000 10.000000
526.296000 20.000000
750.481000 117.000000
750.504000 994.000000
764.517000 35.000000
806.524000 21.000000
824.509000 20.000000
824.518000 40.000000
824.533000 90.000000
824.546000 46.000000
824.558000 35.000000
824.566000 30.000000
824.615000 16.000000

