>compound LQB4193330
>parentmass 762.6942
>ionization [M+CH3COOH-H]-
>formula C46H89NO3
>rt 811.877400
>profile qtof
#smiles_iso CCCCCCCCCCCCCCC/C=C/C(C(CO)NC(=O)CCCCCCCCC/C=C\CCCCCCCCCCCCCC)O
#smiles_can CCCCCCCCCCCCCCCC=CC(C(CO)NC(=O)CCCCCCCCCC=CCCCCCCCCCCCCCC)O
#inchikey IKTUFJOEHVNDNZ-OCVNVDQCSA-N
#pubchem_id 138177929
#mb_accession LQB00071,LQB00457

>ms2
202.993000 20.000000
217.001000 25.000000
237.214000 41.000000
263.232000 66.000000
265.250000 623.000000
267.264000 60.000000
270.937000 20.000000
278.283000 50.000000
279.228000 25.000000
291.266000 688.000000
294.274000 45.000000
294.288000 65.000000
296.291000 80.000000
309.276000 40.000000
326.300000 43.000000
347.336000 30.000000
349.349000 75.000000
352.929000 33.000000
365.379000 30.000000
366.372000 131.000000
367.360000 19.000000
375.360000 786.000000
377.373000 85.000000
390.377000 132.000000
391.382000 24.000000
392.385000 1721.000000
393.339000 30.000000
393.357000 133.000000
393.378000 279.000000
403.386000 35.000000
408.382000 50.000000
411.021000 42.000000
416.391000 31.000000
418.404000 3818.000000
420.420000 121.000000
421.408000 19.000000
432.384000 30.000000
434.370000 55.000000
434.396000 464.000000
434.417000 122.000000
436.414000 40.000000
446.429000 105.000000
462.430000 45.000000
516.953000 20.000000
627.641000 35.000000
628.602000 23.000000
628.651000 70.000000
643.642000 30.000000
644.619000 80.000000
646.622000 40.000000
646.657000 50.000000
654.622000 106.000000
654.652000 378.000000
670.619000 101.000000
670.646000 454.000000
670.682000 50.000000
671.640000 25.000000
672.634000 301.000000
672.664000 734.000000
676.663000 100.000000
677.657000 90.000000
684.646000 40.000000
700.465000 45.000000
701.781000 10.000000
702.167000 10.000000
702.469000 18.000000
702.573000 35.000000
702.672000 15302.000000
703.039000 10.000000
703.185000 10.000000
703.260000 16.000000
703.693000 45.000000
762.539000 10.000000
762.678000 61.000000

>ms2
202.993000 20.000000
217.001000 25.000000
237.214000 41.000000
263.232000 66.000000
265.250000 623.000000
267.264000 60.000000
270.937000 20.000000
278.283000 50.000000
279.228000 25.000000
291.266000 688.000000
294.274000 45.000000
294.288000 65.000000
296.291000 80.000000
309.276000 40.000000
326.300000 43.000000
347.336000 30.000000
349.349000 75.000000
352.929000 33.000000
365.379000 30.000000
366.372000 131.000000
367.360000 19.000000
375.360000 786.000000
377.373000 85.000000
390.377000 132.000000
391.382000 24.000000
392.385000 1721.000000
393.339000 30.000000
393.357000 133.000000
393.378000 279.000000
403.386000 35.000000
408.382000 50.000000
411.021000 42.000000
416.391000 31.000000
418.404000 3818.000000
420.420000 121.000000
421.408000 19.000000
432.384000 30.000000
434.370000 55.000000
434.396000 464.000000
434.417000 122.000000
436.414000 40.000000
446.429000 105.000000
462.430000 45.000000
516.953000 20.000000
627.641000 35.000000
628.602000 23.000000
628.651000 70.000000
643.642000 30.000000
644.619000 80.000000
646.622000 40.000000
646.657000 50.000000
654.622000 106.000000
654.652000 378.000000
670.619000 101.000000
670.646000 454.000000
670.682000 50.000000
671.640000 25.000000
672.634000 301.000000
672.664000 734.000000
676.663000 100.000000
677.657000 90.000000
684.646000 40.000000
700.465000 45.000000
701.781000 10.000000
702.167000 10.000000
702.469000 18.000000
702.573000 35.000000
702.672000 15302.000000
703.039000 10.000000
703.185000 10.000000
703.260000 16.000000
703.693000 45.000000
762.539000 10.000000
762.678000 61.000000

