>compound LQB4887141
>parentmass 792.55315
>ionization [M-H]-
>formula C45H80NO8P
>rt 626.881200
>profile qtof
#smiles_iso CCCCCCCCCCCCCCCCCC(=O)OCC(COP(=O)(O)OCCN)OC(=O)CCCCC/C=C\C/C=C\C/C=C\C/C=C\C/C=C\CC
#smiles_can CCCCCCCCCCCCCCCCCC(=O)OCC(COP(=O)(O)OCCN)OC(=O)CCCCCC=CCC=CCC=CCC=CCC=CCC
#inchikey KYERVKWKQQBRQB-NIZIMQIGSA-N
#pubchem_id 138198992
#mb_accession LQB00204,LQB00205,LQB00590,LQB00591

>ms2
78.959000 155.000000
122.001000 80.000000
140.009000 509.000000
169.125000 35.000000
178.026000 35.000000
191.110000 40.000000
195.129000 39.000000
196.038000 674.000000
205.122000 40.000000
205.189000 30.000000
214.051000 75.000000
221.151000 55.000000
231.130000 25.000000
231.210000 337.000000
245.151000 45.000000
251.188000 30.000000
251.205000 152.000000
255.231000 237.000000
257.225000 65.000000
259.236000 36.000000
282.381000 103.000000
283.264000 16596.000000
284.266000 38.000000
285.257000 1923.000000
297.263000 25.000000
303.232000 541.000000
309.266000 102.000000
309.280000 194.000000
311.226000 100.000000
311.238000 35.000000
311.249000 45.000000
327.231000 61.000000
328.206000 65.000000
328.229000 115.000000
329.247000 31145.000000
330.235000 38.000000
330.255000 45.000000
331.253000 35.000000
357.271000 30.000000
406.271000 35.000000
452.240000 25.000000
462.266000 55.000000
462.302000 596.000000
480.282000 610.000000
480.307000 2383.000000
481.310000 15.000000
488.310000 25.000000
506.304000 35.000000
506.338000 45.000000
508.256000 62.000000
508.277000 307.000000
526.267000 60.000000
526.296000 197.000000
527.357000 10.000000
642.539000 10.000000
718.509000 30.000000
718.536000 40.000000
718.557000 45.000000
731.572000 16.000000
732.593000 36.000000
790.038000 55.000000
790.078000 45.000000
790.107000 20.000000
792.294000 20.000000
792.353000 13.000000
792.465000 40.000000
792.553000 22708.000000
792.662000 32.000000
793.546000 72.000000
793.575000 86.000000

>ms2
78.959000 100.000000
139.998000 35.000000
140.011000 255.000000
196.036000 413.000000
205.117000 20.000000
214.047000 65.000000
231.133000 25.000000
231.211000 141.000000
231.225000 35.000000
245.154000 30.000000
251.193000 55.000000
251.204000 95.000000
257.224000 45.000000
259.180000 25.000000
282.375000 73.000000
283.262000 8481.000000
284.260000 20.000000
285.257000 1300.000000
299.237000 20.000000
301.212000 20.000000
303.231000 85.000000
309.278000 75.000000
311.235000 89.000000
327.227000 60.000000
328.202000 33.000000
328.223000 67.000000
329.245000 17110.000000
330.245000 21.000000
452.249000 35.000000
462.271000 60.000000
462.294000 301.000000
465.233000 25.000000
480.303000 1602.000000
498.939000 10.000000
508.252000 40.000000
508.278000 121.000000
526.257000 15.000000
526.296000 130.000000
642.544000 15.000000
718.538000 15.000000
789.989000 20.000000
790.040000 30.000000
790.084000 35.000000
791.472000 10.000000
792.466000 55.000000
792.545000 13629.000000
792.811000 10.000000
792.924000 10.000000
793.106000 11.000000
793.510000 25.000000
793.549000 30.000000
793.579000 25.000000

>ms2
78.959000 155.000000
122.001000 80.000000
140.009000 509.000000
169.125000 35.000000
178.026000 35.000000
191.110000 40.000000
195.129000 39.000000
196.038000 674.000000
205.122000 40.000000
205.189000 30.000000
214.051000 75.000000
221.151000 55.000000
231.130000 25.000000
231.210000 337.000000
245.151000 45.000000
251.188000 30.000000
251.205000 152.000000
255.231000 237.000000
257.225000 65.000000
259.236000 36.000000
282.381000 103.000000
283.264000 16596.000000
284.266000 38.000000
285.257000 1923.000000
297.263000 25.000000
303.232000 541.000000
309.266000 102.000000
309.280000 194.000000
311.226000 100.000000
311.238000 35.000000
311.249000 45.000000
327.231000 61.000000
328.206000 65.000000
328.229000 115.000000
329.247000 31145.000000
330.235000 38.000000
330.255000 45.000000
331.253000 35.000000
357.271000 30.000000
406.271000 35.000000
452.240000 25.000000
462.266000 55.000000
462.302000 596.000000
480.282000 610.000000
480.307000 2383.000000
481.310000 15.000000
488.310000 25.000000
506.304000 35.000000
506.338000 45.000000
508.256000 62.000000
508.277000 307.000000
526.267000 60.000000
526.296000 197.000000
527.357000 10.000000
642.539000 10.000000
718.509000 30.000000
718.536000 40.000000
718.557000 45.000000
731.572000 16.000000
732.593000 36.000000
790.038000 55.000000
790.078000 45.000000
790.107000 20.000000
792.294000 20.000000
792.353000 13.000000
792.465000 40.000000
792.553000 22708.000000
792.662000 32.000000
793.546000 72.000000
793.575000 86.000000

>ms2
78.959000 100.000000
139.998000 35.000000
140.011000 255.000000
196.036000 413.000000
205.117000 20.000000
214.047000 65.000000
231.133000 25.000000
231.211000 141.000000
231.225000 35.000000
245.154000 30.000000
251.193000 55.000000
251.204000 95.000000
257.224000 45.000000
259.180000 25.000000
282.375000 73.000000
283.262000 8481.000000
284.260000 20.000000
285.257000 1300.000000
299.237000 20.000000
301.212000 20.000000
303.231000 85.000000
309.278000 75.000000
311.235000 89.000000
327.227000 60.000000
328.202000 33.000000
328.223000 67.000000
329.245000 17110.000000
330.245000 21.000000
452.249000 35.000000
462.271000 60.000000
462.294000 301.000000
465.233000 25.000000
480.303000 1602.000000
498.939000 10.000000
508.252000 40.000000
508.278000 121.000000
526.257000 15.000000
526.296000 130.000000
642.544000 15.000000
718.538000 15.000000
789.989000 20.000000
790.040000 30.000000
790.084000 35.000000
791.472000 10.000000
792.466000 55.000000
792.545000 13629.000000
792.811000 10.000000
792.924000 10.000000
793.106000 11.000000
793.510000 25.000000
793.549000 30.000000
793.579000 25.000000

