>compound LQB4229788
>parentmass 859.5314999999999
>ionization [M-H]-
>formula C45H81O13P
>rt 501.492000
>profile qtof
#smiles_iso CCCCCCCC/C=C\CCCCCCCC(=O)OCC(COP(=O)(O)OC1C(C(C(C(C1O)O)O)O)O)OC(=O)CCCCCCC/C=C\C/C=C\CCCCC
#smiles_can CCCCCCCCC=CCCCCCCCC(=O)OCC(COP(=O)(O)OC1C(C(C(C(C1O)O)O)O)O)OC(=O)CCCCCCCC=CCC=CCCCCC
#inchikey MXJMOLQIXMJUEL-RQOIEFAZSA-N
#pubchem_id 138215541
#mb_accession LQB00314,LQB00315,LQB00700,LQB00701

>ms2
78.960000 50.000000
96.969000 30.000000
152.994000 162.000000
223.000000 217.000000
224.065000 16.000000
241.010000 1035.000000
255.234000 355.000000
259.023000 130.000000
279.232000 1092.000000
281.250000 1264.000000
283.257000 35.000000
283.272000 30.000000
293.210000 80.000000
294.214000 50.000000
297.033000 208.000000
303.231000 32.000000
305.246000 402.000000
305.267000 55.000000
307.248000 55.000000
307.268000 86.000000
308.269000 90.000000
315.049000 79.000000
327.235000 33.000000
391.225000 152.000000
415.217000 86.000000
417.239000 607.000000
417.276000 30.000000
435.235000 30.000000
435.258000 41.000000
441.241000 25.000000
443.249000 56.000000
444.250000 38.000000
553.258000 50.000000
553.287000 110.000000
553.323000 20.000000
555.295000 15.000000
571.271000 45.000000
577.275000 126.000000
577.475000 17.000000
579.233000 20.000000
579.291000 673.000000
579.347000 20.000000
595.293000 35.000000
597.269000 25.000000
597.296000 101.000000
597.325000 25.000000
603.280000 40.000000
603.306000 31.000000
697.487000 25.000000
709.160000 16.000000
771.487000 36.000000
772.502000 106.000000
772.530000 45.000000
784.551000 20.000000
785.525000 45.000000
785.560000 121.000000
799.565000 58.000000
856.792000 50.000000
856.853000 45.000000
859.441000 55.000000
859.531000 16139.000000
859.788000 23.000000
860.525000 40.000000
860.564000 40.000000

>ms2
78.963000 20.000000
96.968000 16.000000
134.985000 10.000000
152.994000 139.000000
158.970000 9.000000
171.015000 7.000000
222.999000 204.000000
241.012000 774.000000
255.233000 16.000000
259.023000 104.000000
278.359000 16.000000
279.232000 1180.000000
281.247000 1402.000000
297.036000 126.000000
315.045000 47.000000
415.221000 110.000000
417.238000 643.000000
417.267000 30.000000
435.246000 64.000000
504.269000 7.000000
523.265000 7.000000
541.704000 9.000000
577.272000 153.000000
577.306000 24.000000
579.262000 37.000000
579.291000 559.000000
581.298000 7.000000
595.298000 13.000000
597.295000 122.000000
597.320000 41.000000
697.463000 22.000000
699.487000 14.000000
783.609000 23.000000
785.535000 24.000000
785.615000 9.000000
856.812000 37.000000
858.573000 9.000000
859.439000 19.000000
859.532000 11894.000000
859.718000 10.000000
859.890000 11.000000
860.248000 11.000000
860.534000 38.000000

>ms2
78.960000 50.000000
96.969000 30.000000
152.994000 162.000000
223.000000 217.000000
224.065000 16.000000
241.010000 1035.000000
255.234000 355.000000
259.023000 130.000000
279.232000 1092.000000
281.250000 1264.000000
283.257000 35.000000
283.272000 30.000000
293.210000 80.000000
294.214000 50.000000
297.033000 208.000000
303.231000 32.000000
305.246000 402.000000
305.267000 55.000000
307.248000 55.000000
307.268000 86.000000
308.269000 90.000000
315.049000 79.000000
327.235000 33.000000
391.225000 152.000000
415.217000 86.000000
417.239000 607.000000
417.276000 30.000000
435.235000 30.000000
435.258000 41.000000
441.241000 25.000000
443.249000 56.000000
444.250000 38.000000
553.258000 50.000000
553.287000 110.000000
553.323000 20.000000
555.295000 15.000000
571.271000 45.000000
577.275000 126.000000
577.475000 17.000000
579.233000 20.000000
579.291000 673.000000
579.347000 20.000000
595.293000 35.000000
597.269000 25.000000
597.296000 101.000000
597.325000 25.000000
603.280000 40.000000
603.306000 31.000000
697.487000 25.000000
709.160000 16.000000
771.487000 36.000000
772.502000 106.000000
772.530000 45.000000
784.551000 20.000000
785.525000 45.000000
785.560000 121.000000
799.565000 58.000000
856.792000 50.000000
856.853000 45.000000
859.441000 55.000000
859.531000 16139.000000
859.788000 23.000000
860.525000 40.000000
860.564000 40.000000

>ms2
78.963000 20.000000
96.968000 16.000000
134.985000 10.000000
152.994000 139.000000
158.970000 9.000000
171.015000 7.000000
222.999000 204.000000
241.012000 774.000000
255.233000 16.000000
259.023000 104.000000
278.359000 16.000000
279.232000 1180.000000
281.247000 1402.000000
297.036000 126.000000
315.045000 47.000000
415.221000 110.000000
417.238000 643.000000
417.267000 30.000000
435.246000 64.000000
504.269000 7.000000
523.265000 7.000000
541.704000 9.000000
577.272000 153.000000
577.306000 24.000000
579.262000 37.000000
579.291000 559.000000
581.298000 7.000000
595.298000 13.000000
597.295000 122.000000
597.320000 41.000000
697.463000 22.000000
699.487000 14.000000
783.609000 23.000000
785.535000 24.000000
785.615000 9.000000
856.812000 37.000000
858.573000 9.000000
859.439000 19.000000
859.532000 11894.000000
859.718000 10.000000
859.890000 11.000000
860.248000 11.000000
860.534000 38.000000

