>compound LQB4733431
>parentmass 690.5115
>ionization [M-H]-
>formula C37H74NO8P
>rt 594.992820
>profile qtof
#smiles_iso CCCCCCCCCCCCCCCC(=O)OCC(COP(=O)(O)OCCN)OC(=O)CCCCCCCCCCCCCCC
#smiles_can CCCCCCCCCCCCCCCC(=O)OCC(COP(=O)(O)OCCN)OC(=O)CCCCCCCCCCCCCCC
#inchikey SLKDGVPOSSLUAI-UHFFFAOYSA-N
#pubchem_id 65109
#mb_accession LQB00172,LQB00558

>ms2
140.009000 62.000000
196.037000 112.000000
207.354000 21.000000
214.049000 21.000000
227.202000 143.000000
254.448000 30.000000
255.234000 7479.000000
256.234000 24.000000
283.259000 65.000000
390.449000 20.000000
434.261000 60.000000
452.272000 267.000000
452.303000 40.000000
690.453000 70.000000
690.480000 429.000000
690.508000 938.000000
690.527000 735.000000

>ms2
140.009000 62.000000
196.037000 112.000000
207.354000 21.000000
214.049000 21.000000
227.202000 143.000000
254.448000 30.000000
255.234000 7479.000000
256.234000 24.000000
283.259000 65.000000
390.449000 20.000000
434.261000 60.000000
452.272000 267.000000
452.303000 40.000000
690.453000 70.000000
690.480000 429.000000
690.508000 938.000000
690.527000 735.000000

