>compound LQB5572686
>parentmass 758.495
>ionization [M-H]-
>formula C40H74NO10P
>rt 500.463960
>profile qtof
#smiles_iso CCCCCCCCCCCCCCCC(=O)OCC(COP(=O)(O)OCC(C(=O)O)N)OC(=O)CCCCCCC/C=C\C/C=C\CCCCC
#smiles_can CCCCCCCCCCCCCCCC(=O)OCC(COP(=O)(O)OCC(C(=O)O)N)OC(=O)CCCCCCCC=CCC=CCCCCC
#inchikey ZGNVQERQNSXHHO-BCTRXSSUSA-N
#pubchem_id 138312604
#mb_accession LQB00328,LQB00714

>ms2peaks
152.996000 130.000000
196.040000 40.000000
253.220000 60.000000
255.215000 81.000000
255.235000 398.000000
279.229000 158.000000
280.238000 70.000000
281.248000 489.000000
283.264000 193.000000
284.265000 121.000000
293.227000 30.000000
295.225000 296.000000
321.243000 150.000000
327.237000 70.000000
389.213000 33.000000
391.228000 142.000000
409.233000 80.000000
415.221000 124.000000
417.218000 70.000000
417.244000 70.000000
420.254000 90.000000
435.250000 80.000000
436.272000 63.000000
438.257000 40.000000
444.251000 40.000000
458.256000 50.000000
462.296000 73.000000
670.441000 50.000000
671.420000 92.000000
671.447000 307.000000
671.473000 409.000000
700.491000 115.000000
740.497000 120.000000
740.545000 33.000000
758.471000 408.000000
758.509000 918.000000
758.544000 122.000000

>ms2peaks
152.996000 130.000000
196.040000 40.000000
253.220000 60.000000
255.215000 81.000000
255.235000 398.000000
279.229000 158.000000
280.238000 70.000000
281.248000 489.000000
283.264000 193.000000
284.265000 121.000000
293.227000 30.000000
295.225000 296.000000
321.243000 150.000000
327.237000 70.000000
389.213000 33.000000
391.228000 142.000000
409.233000 80.000000
415.221000 124.000000
417.218000 70.000000
417.244000 70.000000
420.254000 90.000000
435.250000 80.000000
436.272000 63.000000
438.257000 40.000000
444.251000 40.000000
458.256000 50.000000
462.296000 73.000000
670.441000 50.000000
671.420000 92.000000
671.447000 307.000000
671.473000 409.000000
700.491000 115.000000
740.497000 120.000000
740.545000 33.000000
758.471000 408.000000
758.509000 918.000000
758.544000 122.000000

