>compound LQB5501901
>parentmass 726.659
>ionization [M+CH3COOH-H]-
>formula C42H85NO4
>rt 790.501800
>profile qtof
#smiles_iso CCCCCCCCCCCCCCCCCCCCCCCC(=O)NC(CO)C(C(CCCCCCCCCCCCCC)O)O
#smiles_can CCCCCCCCCCCCCCCCCCCCCCCC(=O)NC(CO)C(C(CCCCCCCCCCCCCC)O)O
#inchikey ZESJDNWGTANZCC-UHFFFAOYSA-N
#pubchem_id 14653935
#mb_accession LQB00020,LQB00406

>ms2
223.207000 131.000000
225.220000 1000.000000
237.221000 204.000000
239.236000 141.000000
241.220000 111.000000
248.238000 70.000000
250.253000 165.000000
251.238000 55.000000
253.216000 358.000000
255.231000 3018.000000
263.238000 132.000000
266.393000 116.000000
267.092000 44.000000
267.232000 15372.000000
268.275000 45.000000
278.248000 111.000000
279.232000 694.000000
280.262000 1265.000000
283.263000 112.000000
284.260000 612.000000
295.261000 173.000000
297.242000 297.000000
316.285000 490.000000
339.327000 184.000000
349.347000 1511.000000
351.359000 531.000000
362.372000 103.000000
365.375000 185.000000
366.373000 7033.000000
367.357000 13116.000000
378.373000 120.000000
379.355000 101.000000
380.389000 1061.000000
381.371000 956.000000
390.378000 163.000000
392.353000 73.000000
392.388000 5134.000000
394.364000 195.000000
396.389000 70.000000
404.388000 745.000000
406.364000 80.000000
407.382000 256.000000
408.348000 76.000000
408.383000 8145.000000
409.104000 85.000000
410.398000 23687.000000
422.398000 21169.000000
505.509000 72.000000
531.496000 80.000000
588.614000 90.000000
600.607000 1082.000000
602.617000 132.000000
612.603000 193.000000
616.580000 60.000000
616.607000 192.000000
618.615000 430.000000
630.618000 6671.000000
634.585000 211.000000
634.614000 1841.000000
636.591000 60.000000
636.617000 286.000000
636.646000 122.000000
646.610000 83.000000
648.589000 226.000000
648.626000 2540.000000
664.503000 111.000000
664.541000 326.000000
664.591000 90.000000
666.315000 131.000000
666.638000 65904.000000
667.046000 61.000000
667.306000 27.000000
667.635000 148.000000
674.868000 23.000000
676.727000 20.000000
693.894000 20.000000
726.592000 20.000000
726.666000 110.000000

>ms2
223.207000 131.000000
225.220000 1000.000000
237.221000 204.000000
239.236000 141.000000
241.220000 111.000000
248.238000 70.000000
250.253000 165.000000
251.238000 55.000000
253.216000 358.000000
255.231000 3018.000000
263.238000 132.000000
266.393000 116.000000
267.092000 44.000000
267.232000 15372.000000
268.275000 45.000000
278.248000 111.000000
279.232000 694.000000
280.262000 1265.000000
283.263000 112.000000
284.260000 612.000000
295.261000 173.000000
297.242000 297.000000
316.285000 490.000000
339.327000 184.000000
349.347000 1511.000000
351.359000 531.000000
362.372000 103.000000
365.375000 185.000000
366.373000 7033.000000
367.357000 13116.000000
378.373000 120.000000
379.355000 101.000000
380.389000 1061.000000
381.371000 956.000000
390.378000 163.000000
392.353000 73.000000
392.388000 5134.000000
394.364000 195.000000
396.389000 70.000000
404.388000 745.000000
406.364000 80.000000
407.382000 256.000000
408.348000 76.000000
408.383000 8145.000000
409.104000 85.000000
410.398000 23687.000000
422.398000 21169.000000
505.509000 72.000000
531.496000 80.000000
588.614000 90.000000
600.607000 1082.000000
602.617000 132.000000
612.603000 193.000000
616.580000 60.000000
616.607000 192.000000
618.615000 430.000000
630.618000 6671.000000
634.585000 211.000000
634.614000 1841.000000
636.591000 60.000000
636.617000 286.000000
636.646000 122.000000
646.610000 83.000000
648.589000 226.000000
648.626000 2540.000000
664.503000 111.000000
664.541000 326.000000
664.591000 90.000000
666.315000 131.000000
666.638000 65904.000000
667.046000 61.000000
667.306000 27.000000
667.635000 148.000000
674.868000 23.000000
676.727000 20.000000
693.894000 20.000000
726.592000 20.000000
726.666000 110.000000

