>compound LQB5172587
>parentmass 773.52825
>ionization [M-H]-
>formula C42H79O10P
>rt 527.845710
>profile qtof
#smiles_iso CCCCCCCCCCCCCCCCCC(=O)OCC(COP(=O)(O)OCC(CO)O)OC(=O)CCCCCCC/C=C\C/C=C\CCCCC
#smiles_can CCCCCCCCCCCCCCCCCC(=O)OCC(COP(=O)(O)OCC(CO)O)OC(=O)CCCCCCCC=CCC=CCCCCC
#inchikey JPRWHUSRRGNLOV-MLWYYCKJSA-N
#pubchem_id 138187875
#mb_accession LQB00257,LQB00258,LQB00643,LQB00644

>ms2peaks
152.996000 142.000000
171.007000 60.000000
209.020000 20.000000
227.030000 63.000000
255.232000 245.000000
261.217000 30.000000
269.249000 48.000000
278.359000 54.000000
279.231000 5224.000000
281.245000 74.000000
283.262000 2235.000000
307.262000 633.000000
309.274000 20.000000
415.218000 20.000000
419.250000 212.000000
441.908000 20.000000
461.590000 20.000000
483.262000 23.000000
489.253000 60.000000
493.290000 163.000000
507.261000 20.000000
511.297000 234.000000
699.478000 20.000000
699.540000 30.000000
741.494000 153.000000
741.526000 70.000000
771.088000 51.000000
773.428000 31.000000
773.472000 104.000000
773.525000 6939.000000
774.533000 40.000000

>ms2peaks
78.961000 100.000000
152.996000 316.000000
171.004000 101.000000
171.014000 50.000000
195.009000 30.000000
209.017000 50.000000
227.032000 132.000000
253.201000 33.000000
255.224000 173.000000
255.236000 102.000000
278.362000 51.000000
279.231000 10020.000000
280.238000 52.000000
281.245000 1103.000000
281.264000 124.000000
283.264000 3564.000000
307.265000 407.000000
309.273000 53.000000
415.228000 80.000000
419.255000 235.000000
437.267000 50.000000
457.235000 30.000000
459.251000 50.000000
461.268000 70.000000
465.279000 40.000000
477.264000 30.000000
479.267000 111.000000
483.260000 20.000000
489.270000 142.000000
493.260000 50.000000
493.291000 234.000000
493.326000 60.000000
507.264000 30.000000
511.285000 173.000000
511.307000 204.000000
699.533000 100.000000
713.513000 21.000000
741.465000 553.000000
741.502000 1570.000000
741.539000 194.000000
741.570000 50.000000
771.020000 20.000000
771.098000 80.000000
772.606000 31.000000
773.448000 92.000000
773.531000 10258.000000
774.499000 30.000000

>ms2peaks
152.996000 142.000000
171.007000 60.000000
209.020000 20.000000
227.030000 63.000000
255.232000 245.000000
261.217000 30.000000
269.249000 48.000000
278.359000 54.000000
279.231000 5224.000000
281.245000 74.000000
283.262000 2235.000000
307.262000 633.000000
309.274000 20.000000
415.218000 20.000000
419.250000 212.000000
441.908000 20.000000
461.590000 20.000000
483.262000 23.000000
489.253000 60.000000
493.290000 163.000000
507.261000 20.000000
511.297000 234.000000
699.478000 20.000000
699.540000 30.000000
741.494000 153.000000
741.526000 70.000000
771.088000 51.000000
773.428000 31.000000
773.472000 104.000000
773.525000 6939.000000
774.533000 40.000000

>ms2peaks
78.961000 100.000000
152.996000 316.000000
171.004000 101.000000
171.014000 50.000000
195.009000 30.000000
209.017000 50.000000
227.032000 132.000000
253.201000 33.000000
255.224000 173.000000
255.236000 102.000000
278.362000 51.000000
279.231000 10020.000000
280.238000 52.000000
281.245000 1103.000000
281.264000 124.000000
283.264000 3564.000000
307.265000 407.000000
309.273000 53.000000
415.228000 80.000000
419.255000 235.000000
437.267000 50.000000
457.235000 30.000000
459.251000 50.000000
461.268000 70.000000
465.279000 40.000000
477.264000 30.000000
479.267000 111.000000
483.260000 20.000000
489.270000 142.000000
493.260000 50.000000
493.291000 234.000000
493.326000 60.000000
507.264000 30.000000
511.285000 173.000000
511.307000 204.000000
699.533000 100.000000
713.513000 21.000000
741.465000 553.000000
741.502000 1570.000000
741.539000 194.000000
741.570000 50.000000
771.020000 20.000000
771.098000 80.000000
772.606000 31.000000
773.448000 92.000000
773.531000 10258.000000
774.499000 30.000000

