>compound LQB5108944
>parentmass 770.5728
>ionization [M-H]-
>formula C43H82NO8P
>rt 671.397600
>profile qtof
#smiles_iso CCCCCCCC/C=C\CCCCCCCCCC(=O)OC(COC(=O)CCCCCCC/C=C\CCCCCCCC)COP(=O)(O)OCCN
#smiles_can CCCCCCCCC=CCCCCCCCCCC(=O)OC(COC(=O)CCCCCCCC=CCCCCCCCC)COP(=O)(O)OCCN
#inchikey UITCASPZWUAJBW-HWSICPKZSA-N
#pubchem_id 9546827
#mb_accession LQB00210,LQB00596

>ms2
78.958000 73.000000
121.997000 20.000000
140.009000 90.000000
164.623000 20.000000
187.367000 21.000000
196.037000 203.000000
250.256000 21.000000
253.212000 20.000000
255.250000 21.000000
281.249000 6131.000000
281.362000 23.000000
283.254000 61.000000
283.274000 82.000000
305.245000 62.000000
307.273000 41.000000
309.278000 10234.000000
460.284000 111.000000
478.273000 215.000000
478.296000 244.000000
488.290000 71.000000
488.324000 82.000000
506.316000 152.000000
506.338000 102.000000
610.553000 91.000000
610.599000 51.000000
770.537000 1189.000000
770.570000 4886.000000
770.596000 1520.000000
770.632000 105.000000
770.792000 30.000000
771.226000 21.000000
771.579000 30.000000

>ms2
78.958000 73.000000
121.997000 20.000000
140.009000 90.000000
164.623000 20.000000
187.367000 21.000000
196.037000 203.000000
250.256000 21.000000
253.212000 20.000000
255.250000 21.000000
281.249000 6131.000000
281.362000 23.000000
283.254000 61.000000
283.274000 82.000000
305.245000 62.000000
307.273000 41.000000
309.278000 10234.000000
460.284000 111.000000
478.273000 215.000000
478.296000 244.000000
488.290000 71.000000
488.324000 82.000000
506.316000 152.000000
506.338000 102.000000
610.553000 91.000000
610.599000 51.000000
770.537000 1189.000000
770.570000 4886.000000
770.596000 1520.000000
770.632000 105.000000
770.792000 30.000000
771.226000 21.000000
771.579000 30.000000

