>compound LQB5970659
>parentmass 842.5931
>ionization [M+CH3COOH-H]-
>formula C44H82NO8P
>rt 575.829960
>profile qtof
#smiles_iso CCCCCCCCCCCCCCCC(=O)OCC(COP(=O)([O-])OCC[N+](C)(C)C)OC(=O)CCCCCCCCC/C=C\C/C=C\C/C=C\CC
#smiles_can CCCCCCCCCCCCCCCC(=O)OCC(COP(=O)([O-])OCC[N+](C)(C)C)OC(=O)CCCCCCCCCC=CCC=CCC=CCC
#inchikey FHYXYDNOQOCPNC-XSMZTDTHSA-N
#pubchem_id 14818931
#mb_accession LQB00108,LQB00494

>ms2peaks
152.993000 50.000000
168.042000 611.000000
207.213000 40.000000
224.066000 540.000000
233.232000 40.000000
242.076000 60.000000
254.443000 177.000000
255.190000 53.000000
255.232000 15833.000000
256.237000 40.000000
261.256000 172.000000
279.231000 756.000000
281.246000 397.000000
283.247000 50.000000
287.225000 60.000000
287.244000 101.000000
303.232000 60.000000
304.232000 50.000000
304.274000 60.000000
304.296000 148.000000
305.125000 65.000000
305.247000 51355.000000
306.248000 60.000000
329.241000 43.000000
391.220000 121.000000
406.271000 60.000000
418.249000 55.000000
441.249000 60.000000
456.287000 70.000000
462.283000 286.000000
462.303000 684.000000
480.253000 55.000000
480.307000 3355.000000
480.369000 50.000000
495.252000 20.000000
495.292000 23.000000
504.302000 20.000000
506.315000 30.000000
512.299000 359.000000
512.327000 163.000000
530.286000 60.000000
530.311000 408.000000
530.335000 113.000000
611.054000 45.000000
697.475000 170.000000
723.486000 90.000000
746.516000 83.000000
766.086000 83.000000
766.124000 100.000000
766.150000 60.000000
768.438000 53.000000
768.551000 46461.000000
769.543000 131.000000
769.588000 71.000000
782.568000 43.000000
783.497000 285.000000
783.516000 235.000000
783.540000 62.000000
842.586000 4156.000000
842.612000 846.000000
842.641000 217.000000

>ms2peaks
152.993000 50.000000
168.042000 611.000000
207.213000 40.000000
224.066000 540.000000
233.232000 40.000000
242.076000 60.000000
254.443000 177.000000
255.190000 53.000000
255.232000 15833.000000
256.237000 40.000000
261.256000 172.000000
279.231000 756.000000
281.246000 397.000000
283.247000 50.000000
287.225000 60.000000
287.244000 101.000000
303.232000 60.000000
304.232000 50.000000
304.274000 60.000000
304.296000 148.000000
305.125000 65.000000
305.247000 51355.000000
306.248000 60.000000
329.241000 43.000000
391.220000 121.000000
406.271000 60.000000
418.249000 55.000000
441.249000 60.000000
456.287000 70.000000
462.283000 286.000000
462.303000 684.000000
480.253000 55.000000
480.307000 3355.000000
480.369000 50.000000
495.252000 20.000000
495.292000 23.000000
504.302000 20.000000
506.315000 30.000000
512.299000 359.000000
512.327000 163.000000
530.286000 60.000000
530.311000 408.000000
530.335000 113.000000
611.054000 45.000000
697.475000 170.000000
723.486000 90.000000
746.516000 83.000000
766.086000 83.000000
766.124000 100.000000
766.150000 60.000000
768.438000 53.000000
768.551000 46461.000000
769.543000 131.000000
769.588000 71.000000
782.568000 43.000000
783.497000 285.000000
783.516000 235.000000
783.540000 62.000000
842.586000 4156.000000
842.612000 846.000000
842.641000 217.000000

