>compound LQB5391816
>parentmass 806.5011
>ionization [M-H]-
>formula C44H74NO10P
>rt 497.954160
>profile qtof
#smiles_iso CCCCCCCCCCCCCCCC(=O)OCC(COP(=O)(O)OCC(C(=O)O)N)OC(=O)CC/C=C\C/C=C\C/C=C\C/C=C\C/C=C\C/C=C\CC
#smiles_can CCCCCCCCCCCCCCCC(=O)OCC(COP(=O)(O)OCC(C(=O)O)N)OC(=O)CCC=CCC=CCC=CCC=CCC=CCC=CCC
#inchikey PWBBJQOVCTWPIM-LGFBOSHVSA-N
#pubchem_id 71585836
#mb_accession LQB00330,LQB00716

>ms2peaks
78.960000 500.000000
96.969000 142.000000
136.968000 50.000000
152.996000 2384.000000
171.005000 70.000000
229.196000 111.000000
241.192000 40.000000
254.440000 164.000000
255.233000 13149.000000
256.241000 42.000000
279.234000 83.000000
281.238000 141.000000
283.240000 653.000000
283.257000 266.000000
283.269000 704.000000
284.252000 95.000000
284.266000 357.000000
303.232000 90.000000
325.217000 82.000000
327.234000 2164.000000
328.239000 102.000000
343.234000 224.000000
389.986000 103.000000
391.226000 6364.000000
409.236000 3466.000000
417.243000 75.000000
419.247000 234.000000
419.262000 377.000000
420.249000 204.000000
420.269000 71.000000
437.271000 182.000000
463.224000 1134.000000
464.233000 101.000000
480.317000 40.000000
481.228000 194.000000
481.247000 121.000000
481.299000 20.000000
492.368000 20.000000
496.298000 23.000000
517.330000 40.000000
628.523000 20.000000
717.217000 40.000000
719.470000 11294.000000
719.532000 135.000000
720.468000 51.000000
747.496000 30.000000
748.464000 60.000000
748.483000 112.000000
748.507000 295.000000
788.536000 43.000000
803.962000 50.000000
805.398000 31.000000
806.426000 51.000000
806.502000 11185.000000
806.605000 71.000000
806.748000 33.000000
807.503000 60.000000

>ms2peaks
78.960000 500.000000
96.969000 142.000000
136.968000 50.000000
152.996000 2384.000000
171.005000 70.000000
229.196000 111.000000
241.192000 40.000000
254.440000 164.000000
255.233000 13149.000000
256.241000 42.000000
279.234000 83.000000
281.238000 141.000000
283.240000 653.000000
283.257000 266.000000
283.269000 704.000000
284.252000 95.000000
284.266000 357.000000
303.232000 90.000000
325.217000 82.000000
327.234000 2164.000000
328.239000 102.000000
343.234000 224.000000
389.986000 103.000000
391.226000 6364.000000
409.236000 3466.000000
417.243000 75.000000
419.247000 234.000000
419.262000 377.000000
420.249000 204.000000
420.269000 71.000000
437.271000 182.000000
463.224000 1134.000000
464.233000 101.000000
480.317000 40.000000
481.228000 194.000000
481.247000 121.000000
481.299000 20.000000
492.368000 20.000000
496.298000 23.000000
517.330000 40.000000
628.523000 20.000000
717.217000 40.000000
719.470000 11294.000000
719.532000 135.000000
720.468000 51.000000
747.496000 30.000000
748.464000 60.000000
748.483000 112.000000
748.507000 295.000000
788.536000 43.000000
803.962000 50.000000
805.398000 31.000000
806.426000 51.000000
806.502000 11185.000000
806.605000 71.000000
806.748000 33.000000
807.503000 60.000000

