>compound LQB5680709
>parentmass 788.5205
>ionization [M-H]-
>formula C45H76NO8P
>rt 564.831720
>profile qtof
#smiles_iso CCCCCCCC/C=C\CCCCCCCC(=O)OCC(COP(=O)(O)OCCN)OC(=O)CC/C=C\C/C=C\C/C=C\C/C=C\C/C=C\C/C=C\CC
#smiles_can CCCCCCCCC=CCCCCCCCC(=O)OCC(COP(=O)(O)OCCN)OC(=O)CCC=CCC=CCC=CCC=CCC=CCC=CCC
#inchikey JZSZAGWWWKKXLO-HILQMKNTSA-N
#pubchem_id 138191210
#mb_accession LQB00217,LQB00603

>ms2
78.959000 346.000000
93.069000 70.000000
105.070000 70.000000
107.088000 142.000000
117.074000 102.000000
119.087000 61.000000
121.106000 152.000000
122.000000 132.000000
133.103000 121.000000
135.116000 73.000000
137.133000 101.000000
140.011000 1357.000000
143.085000 70.000000
147.117000 101.000000
149.132000 192.000000
152.994000 71.000000
161.135000 91.000000
163.071000 80.000000
163.149000 173.000000
175.150000 90.000000
177.086000 70.000000
177.163000 449.000000
187.146000 69.000000
189.161000 145.000000
191.176000 368.000000
193.124000 81.000000
196.036000 1749.000000
201.161000 80.000000
203.109000 70.000000
203.179000 142.000000
214.045000 274.000000
217.122000 71.000000
219.136000 71.000000
229.196000 2589.000000
241.195000 70.000000
245.155000 76.000000
249.184000 521.000000
255.209000 184.000000
279.231000 101.000000
280.381000 67.000000
281.247000 41233.000000
282.361000 93.000000
283.241000 16569.000000
283.276000 116.000000
297.221000 111.000000
309.217000 213.000000
309.230000 92.000000
326.206000 191.000000
327.103000 53.000000
327.230000 40461.000000
329.246000 154.000000
404.253000 60.000000
417.238000 70.000000
419.255000 60.000000
437.253000 53.000000
450.236000 61.000000
460.276000 1244.000000
476.788000 51.000000
478.289000 8395.000000
506.258000 439.000000
524.273000 652.000000
541.939000 20.000000
559.724000 128.000000
563.490000 54.000000
701.503000 151.000000
714.525000 60.000000
786.025000 173.000000
786.060000 101.000000
787.562000 34.000000
788.085000 24.000000
788.201000 30.000000
788.351000 33.000000
788.512000 32053.000000
788.573000 178.000000
789.286000 31.000000
789.526000 61.000000

>ms2
78.959000 346.000000
93.069000 70.000000
105.070000 70.000000
107.088000 142.000000
117.074000 102.000000
119.087000 61.000000
121.106000 152.000000
122.000000 132.000000
133.103000 121.000000
135.116000 73.000000
137.133000 101.000000
140.011000 1357.000000
143.085000 70.000000
147.117000 101.000000
149.132000 192.000000
152.994000 71.000000
161.135000 91.000000
163.071000 80.000000
163.149000 173.000000
175.150000 90.000000
177.086000 70.000000
177.163000 449.000000
187.146000 69.000000
189.161000 145.000000
191.176000 368.000000
193.124000 81.000000
196.036000 1749.000000
201.161000 80.000000
203.109000 70.000000
203.179000 142.000000
214.045000 274.000000
217.122000 71.000000
219.136000 71.000000
229.196000 2589.000000
241.195000 70.000000
245.155000 76.000000
249.184000 521.000000
255.209000 184.000000
279.231000 101.000000
280.381000 67.000000
281.247000 41233.000000
282.361000 93.000000
283.241000 16569.000000
283.276000 116.000000
297.221000 111.000000
309.217000 213.000000
309.230000 92.000000
326.206000 191.000000
327.103000 53.000000
327.230000 40461.000000
329.246000 154.000000
404.253000 60.000000
417.238000 70.000000
419.255000 60.000000
437.253000 53.000000
450.236000 61.000000
460.276000 1244.000000
476.788000 51.000000
478.289000 8395.000000
506.258000 439.000000
524.273000 652.000000
541.939000 20.000000
559.724000 128.000000
563.490000 54.000000
701.503000 151.000000
714.525000 60.000000
786.025000 173.000000
786.060000 101.000000
787.562000 34.000000
788.085000 24.000000
788.201000 30.000000
788.351000 33.000000
788.512000 32053.000000
788.573000 178.000000
789.286000 31.000000
789.526000 61.000000

