>compound LQB5026969
>parentmass 761.5787
>ionization [M+CH3COOH-H]-
>formula C39H79N2O6P
>rt 540.970170
>profile qtof
#smiles_iso CCCCCCCCCCCCCCCC(=O)NC(COP(=O)([O-])OCC[N+](C)(C)C)C(/C=C/CCCCCCCCCCCCC)O
#smiles_can CCCCCCCCCCCCCCCC(=O)NC(COP(=O)([O-])OCC[N+](C)(C)C)C(C=CCCCCCCCCCCCCC)O
#inchikey RWKUXQNLWDTSLO-NHQGMKOOSA-N
#pubchem_id 12049462
#mb_accession LQB00355,LQB00356,LQB00741,LQB00742

>ms2
78.714000 52.000000
78.959000 8492.000000
96.969000 204.000000
122.986000 990.000000
124.996000 40.000000
167.520000 244.000000
168.042000 26281.000000
255.233000 223.000000
256.232000 28.000000
279.224000 40.000000
280.263000 40.000000
281.239000 141.000000
303.223000 71.000000
303.242000 50.000000
325.221000 63.000000
326.213000 40.000000
334.992000 34.000000
376.208000 43.000000
384.685000 40.000000
388.446000 40.000000
398.565000 40.000000
410.651000 44.000000
431.290000 72.000000
431.313000 73.000000
447.290000 42.000000
449.311000 1702.000000
505.283000 40.000000
534.466000 30.000000
598.412000 50.000000
598.439000 256.000000
598.461000 225.000000
598.486000 80.000000
616.446000 677.000000
616.475000 1322.000000
616.527000 50.000000
642.447000 110.000000
642.479000 234.000000
642.510000 173.000000
660.526000 40.000000
669.517000 40.000000
674.489000 60.000000
685.330000 215.000000
685.353000 956.000000
685.383000 746.000000
685.429000 121.000000
687.101000 140.000000
687.153000 109.000000
687.322000 100.000000
687.386000 229.000000
687.536000 276915.000000
688.195000 188.000000
688.282000 72.000000
688.515000 183.000000
688.553000 644.000000
688.587000 174.000000
689.004000 90.000000
689.550000 81.000000
701.576000 70.000000
702.460000 246.000000
702.483000 939.000000
702.507000 1496.000000
715.567000 100.000000
729.493000 101.000000
761.465000 118.000000
761.521000 565.000000
761.573000 7639.000000
762.498000 107.000000
764.593000 46.000000

>ms2
78.957000 623.000000
122.986000 90.000000
168.041000 2114.000000
255.233000 101.000000
256.231000 61.000000
267.221000 23.000000
269.240000 40.000000
281.244000 60.000000
282.228000 30.000000
283.264000 23.000000
295.265000 70.000000
326.216000 40.000000
327.228000 30.000000
395.567000 20.000000
404.263000 20.000000
449.312000 152.000000
451.239000 20.000000
452.268000 40.000000
598.454000 60.000000
616.456000 111.000000
616.488000 50.000000
627.513000 20.000000
642.471000 20.000000
685.367000 103.000000
685.427000 23.000000
685.550000 23.000000
687.541000 28055.000000
687.653000 40.000000
688.549000 86.000000
702.478000 90.000000
702.519000 70.000000
702.574000 23.000000
715.586000 30.000000
729.501000 45.000000
761.493000 245.000000
761.573000 295.000000
761.602000 81.000000

>ms2
78.714000 52.000000
78.959000 8492.000000
96.969000 204.000000
122.986000 990.000000
124.996000 40.000000
167.520000 244.000000
168.042000 26281.000000
255.233000 223.000000
256.232000 28.000000
279.224000 40.000000
280.263000 40.000000
281.239000 141.000000
303.223000 71.000000
303.242000 50.000000
325.221000 63.000000
326.213000 40.000000
334.992000 34.000000
376.208000 43.000000
384.685000 40.000000
388.446000 40.000000
398.565000 40.000000
410.651000 44.000000
431.290000 72.000000
431.313000 73.000000
447.290000 42.000000
449.311000 1702.000000
505.283000 40.000000
534.466000 30.000000
598.412000 50.000000
598.439000 256.000000
598.461000 225.000000
598.486000 80.000000
616.446000 677.000000
616.475000 1322.000000
616.527000 50.000000
642.447000 110.000000
642.479000 234.000000
642.510000 173.000000
660.526000 40.000000
669.517000 40.000000
674.489000 60.000000
685.330000 215.000000
685.353000 956.000000
685.383000 746.000000
685.429000 121.000000
687.101000 140.000000
687.153000 109.000000
687.322000 100.000000
687.386000 229.000000
687.536000 276915.000000
688.195000 188.000000
688.282000 72.000000
688.515000 183.000000
688.553000 644.000000
688.587000 174.000000
689.004000 90.000000
689.550000 81.000000
701.576000 70.000000
702.460000 246.000000
702.483000 939.000000
702.507000 1496.000000
715.567000 100.000000
729.493000 101.000000
761.465000 118.000000
761.521000 565.000000
761.573000 7639.000000
762.498000 107.000000
764.593000 46.000000

>ms2
78.957000 623.000000
122.986000 90.000000
168.041000 2114.000000
255.233000 101.000000
256.231000 61.000000
267.221000 23.000000
269.240000 40.000000
281.244000 60.000000
282.228000 30.000000
283.264000 23.000000
295.265000 70.000000
326.216000 40.000000
327.228000 30.000000
395.567000 20.000000
404.263000 20.000000
449.312000 152.000000
451.239000 20.000000
452.268000 40.000000
598.454000 60.000000
616.456000 111.000000
616.488000 50.000000
627.513000 20.000000
642.471000 20.000000
685.367000 103.000000
685.427000 23.000000
685.550000 23.000000
687.541000 28055.000000
687.653000 40.000000
688.549000 86.000000
702.478000 90.000000
702.519000 70.000000
702.574000 23.000000
715.586000 30.000000
729.501000 45.000000
761.493000 245.000000
761.573000 295.000000
761.602000 81.000000

