>compound LQB5249425
>parentmass 780.5484
>ionization [M-H]-
>formula C44H80NO8P
>rt 653.847600
>profile qtof
#smiles_iso CCCCCCCCCCCCCCCCCCC(=O)OCC(COP(=O)(O)OCCN)OC(=O)CCCCCC/C=C\C/C=C\C/C=C\C/C=C\CC
#smiles_can CCCCCCCCCCCCCCCCCCC(=O)OCC(COP(=O)(O)OCCN)OC(=O)CCCCCCC=CCC=CCC=CCC=CCC
#inchikey OFDOGRFSVOUXHN-PEDPXMNESA-N
#pubchem_id 138226315
#mb_accession LQB00225,LQB00611

>ms2peaks
78.960000 20.000000
140.007000 71.000000
196.039000 163.000000
205.193000 73.000000
214.052000 40.000000
218.426000 20.000000
222.076000 20.000000
259.239000 236.000000
259.252000 131.000000
283.213000 21.000000
297.278000 2017.000000
302.037000 21.000000
302.972000 21.000000
303.232000 3879.000000
303.306000 14.000000
331.260000 44.000000
332.270000 20.000000
333.279000 40.000000
446.298000 60.000000
464.315000 80.000000
476.297000 60.000000
482.268000 50.000000
494.326000 307.000000
500.274000 81.000000
603.550000 52.000000
647.017000 21.000000
720.545000 37.000000
778.094000 21.000000
780.503000 269.000000
780.544000 2929.000000
780.581000 472.000000
781.005000 20.000000
781.547000 34.000000

>ms2peaks
78.960000 20.000000
140.007000 71.000000
196.039000 163.000000
205.193000 73.000000
214.052000 40.000000
218.426000 20.000000
222.076000 20.000000
259.239000 236.000000
259.252000 131.000000
283.213000 21.000000
297.278000 2017.000000
302.037000 21.000000
302.972000 21.000000
303.232000 3879.000000
303.306000 14.000000
331.260000 44.000000
332.270000 20.000000
333.279000 40.000000
446.298000 60.000000
464.315000 80.000000
476.297000 60.000000
482.268000 50.000000
494.326000 307.000000
500.274000 81.000000
603.550000 52.000000
647.017000 21.000000
720.545000 37.000000
778.094000 21.000000
780.503000 269.000000
780.544000 2929.000000
780.581000 472.000000
781.005000 20.000000
781.547000 34.000000

