>compound LQB5843509
>parentmass 854.5894
>ionization [M+CH3COOH-H]-
>formula C45H82NO8P
>rt 582.411660
>profile qtof
#smiles_iso CCCCCCCCCCCCCCCCC(=O)OCC(COP(=O)([O-])OCC[N+](C)(C)C)OC(=O)CCCCCC/C=C\C/C=C\C/C=C\C/C=C\CC
#smiles_can CCCCCCCCCCCCCCCCC(=O)OCC(COP(=O)([O-])OCC[N+](C)(C)C)OC(=O)CCCCCCC=CCC=CCC=CCC=CCC
#inchikey HTEFXTFZCGTMAC-PHEBCRHUSA-N
#pubchem_id 138172174
#mb_accession LQB00128,LQB00514

>ms2peaks
168.039000 61.000000
205.193000 50.000000
224.066000 90.000000
255.230000 20.000000
259.229000 81.000000
259.245000 215.000000
269.246000 1694.000000
289.203000 42.000000
301.219000 51.000000
302.283000 21.000000
303.113000 21.000000
303.232000 4105.000000
305.248000 31.000000
408.381000 20.000000
462.028000 20.000000
476.312000 101.000000
494.317000 409.000000
504.935000 21.000000
510.282000 50.000000
528.304000 50.000000
722.969000 21.000000
772.517000 83.000000
777.683000 23.000000
778.092000 70.000000
780.367000 21.000000
780.493000 104.000000
780.548000 6216.000000
780.815000 23.000000
794.545000 33.000000
795.490000 47.000000
854.583000 510.000000
854.637000 60.000000

>ms2peaks
168.039000 61.000000
205.193000 50.000000
224.066000 90.000000
255.230000 20.000000
259.229000 81.000000
259.245000 215.000000
269.246000 1694.000000
289.203000 42.000000
301.219000 51.000000
302.283000 21.000000
303.113000 21.000000
303.232000 4105.000000
305.248000 31.000000
408.381000 20.000000
462.028000 20.000000
476.312000 101.000000
494.317000 409.000000
504.935000 21.000000
510.282000 50.000000
528.304000 50.000000
722.969000 21.000000
772.517000 83.000000
777.683000 23.000000
778.092000 70.000000
780.367000 21.000000
780.493000 104.000000
780.548000 6216.000000
780.815000 23.000000
794.545000 33.000000
795.490000 47.000000
854.583000 510.000000
854.637000 60.000000

