>compound LQB5320815
>parentmass 839.4861
>ionization [M-H]-
>formula C48H73O10P
>rt 459.879360
>profile qtof
#smiles_iso CC/C=C\C/C=C\C/C=C\C/C=C\C/C=C\CCCC(=O)OCC(COP(=O)(O)OCC(CO)O)OC(=O)CC/C=C\C/C=C\C/C=C\C/C=C\C/C=C\C/C=C\CC
#smiles_can CCC=CCC=CCC=CCC=CCC=CCCCC(=O)OCC(COP(=O)(O)OCC(CO)O)OC(=O)CCC=CCC=CCC=CCC=CCC=CCC=CCC
#inchikey YDODBXWAZBDOGC-UYABLQOYSA-N
#pubchem_id 138303433
#mb_accession LQB00283,LQB00669

>ms2
93.072000 6.000000
100.934000 6.000000
107.088000 8.000000
121.103000 10.000000
133.101000 9.000000
135.120000 10.000000
140.011000 8.000000
147.114000 7.000000
152.994000 57.000000
161.134000 10.000000
163.078000 6.000000
163.150000 8.000000
167.107000 6.000000
171.112000 8.000000
175.108000 7.000000
175.149000 10.000000
177.165000 26.000000
189.164000 6.000000
191.182000 14.000000
193.119000 8.000000
196.038000 6.000000
203.180000 64.000000
215.186000 7.000000
217.123000 7.000000
217.192000 8.000000
221.080000 6.000000
223.167000 14.000000
223.176000 10.000000
227.034000 6.000000
229.195000 114.000000
241.160000 6.000000
245.154000 8.000000
249.185000 27.000000
255.208000 8.000000
257.226000 360.000000
271.193000 7.000000
281.222000 5.000000
281.251000 5.000000
282.361000 6.000000
283.201000 6.000000
283.242000 605.000000
284.268000 24.000000
295.222000 5.000000
300.277000 12.000000
301.216000 2260.000000
302.216000 5.000000
309.218000 11.000000
315.183000 6.000000
326.178000 5.000000
327.231000 1602.000000
328.237000 5.000000
329.244000 5.000000
330.213000 5.000000
339.198000 7.000000
353.180000 10.000000
354.182000 11.000000
355.185000 8.000000
357.208000 23.000000
358.215000 18.000000
371.185000 14.000000
372.187000 7.000000
373.192000 7.000000
375.220000 8.000000
405.278000 12.000000
437.209000 15.000000
447.314000 7.000000
455.213000 8.000000
463.222000 25.000000
464.314000 14.000000
465.320000 10.000000
466.327000 28.000000
467.338000 22.000000
480.300000 5.000000
481.231000 9.000000
481.301000 6.000000
495.368000 4.000000
511.241000 20.000000
529.193000 3.000000
529.255000 48.000000
529.288000 5.000000
537.242000 6.000000
537.257000 21.000000
537.280000 11.000000
555.254000 13.000000
555.269000 36.000000
555.290000 10.000000
671.417000 7.000000
672.427000 2.000000
680.496000 6.000000
698.497000 6.000000
734.441000 5.000000
757.503000 9.000000
767.479000 4.000000
779.483000 4.000000
793.502000 10.000000
803.468000 5.000000
803.518000 12.000000
821.516000 80.000000
836.795000 6.000000
836.832000 9.000000
836.870000 10.000000
838.537000 5.000000
839.484000 4100.000000
839.620000 9.000000
840.482000 13.000000
840.535000 7.000000
840.732000 4.000000

>ms2
93.072000 6.000000
100.934000 6.000000
107.088000 8.000000
121.103000 10.000000
133.101000 9.000000
135.120000 10.000000
140.011000 8.000000
147.114000 7.000000
152.994000 57.000000
161.134000 10.000000
163.078000 6.000000
163.150000 8.000000
167.107000 6.000000
171.112000 8.000000
175.108000 7.000000
175.149000 10.000000
177.165000 26.000000
189.164000 6.000000
191.182000 14.000000
193.119000 8.000000
196.038000 6.000000
203.180000 64.000000
215.186000 7.000000
217.123000 7.000000
217.192000 8.000000
221.080000 6.000000
223.167000 14.000000
223.176000 10.000000
227.034000 6.000000
229.195000 114.000000
241.160000 6.000000
245.154000 8.000000
249.185000 27.000000
255.208000 8.000000
257.226000 360.000000
271.193000 7.000000
281.222000 5.000000
281.251000 5.000000
282.361000 6.000000
283.201000 6.000000
283.242000 605.000000
284.268000 24.000000
295.222000 5.000000
300.277000 12.000000
301.216000 2260.000000
302.216000 5.000000
309.218000 11.000000
315.183000 6.000000
326.178000 5.000000
327.231000 1602.000000
328.237000 5.000000
329.244000 5.000000
330.213000 5.000000
339.198000 7.000000
353.180000 10.000000
354.182000 11.000000
355.185000 8.000000
357.208000 23.000000
358.215000 18.000000
371.185000 14.000000
372.187000 7.000000
373.192000 7.000000
375.220000 8.000000
405.278000 12.000000
437.209000 15.000000
447.314000 7.000000
455.213000 8.000000
463.222000 25.000000
464.314000 14.000000
465.320000 10.000000
466.327000 28.000000
467.338000 22.000000
480.300000 5.000000
481.231000 9.000000
481.301000 6.000000
495.368000 4.000000
511.241000 20.000000
529.193000 3.000000
529.255000 48.000000
529.288000 5.000000
537.242000 6.000000
537.257000 21.000000
537.280000 11.000000
555.254000 13.000000
555.269000 36.000000
555.290000 10.000000
671.417000 7.000000
672.427000 2.000000
680.496000 6.000000
698.497000 6.000000
734.441000 5.000000
757.503000 9.000000
767.479000 4.000000
779.483000 4.000000
793.502000 10.000000
803.468000 5.000000
803.518000 12.000000
821.516000 80.000000
836.795000 6.000000
836.832000 9.000000
836.870000 10.000000
838.537000 5.000000
839.484000 4100.000000
839.620000 9.000000
840.482000 13.000000
840.535000 7.000000
840.732000 4.000000

