>compound LQB5825075
>parentmass 894.6198999999999
>ionization [M+CH3COOH-H]-
>formula C48H86NO8P
>rt 615.371700
>profile qtof
#smiles_iso CCCCCCCCCCCCCCCCCC(=O)OCC(COP(=O)([O-])OCC[N+](C)(C)C)OC(=O)CCCCC/C=C\C/C=C\C/C=C\C/C=C\C/C=C\CC
#smiles_can CCCCCCCCCCCCCCCCCC(=O)OCC(COP(=O)([O-])OCC[N+](C)(C)C)OC(=O)CCCCCC=CCC=CCC=CCC=CCC=CCC
#inchikey MAAMGQXOTCBPFS-CYDMDVBXSA-N
#pubchem_id 24778874
#mb_accession LQB00141,LQB00142,LQB00527,LQB00528

>ms2peaks
78.960000 45.000000
168.041000 173.000000
168.049000 70.000000
177.090000 25.000000
179.184000 20.000000
183.136000 20.000000
224.068000 301.000000
231.211000 106.000000
251.201000 79.000000
273.181000 21.000000
282.378000 64.000000
283.179000 21.000000
283.235000 93.000000
283.262000 6697.000000
284.263000 20.000000
285.259000 979.000000
295.500000 16.000000
303.238000 50.000000
309.284000 25.000000
311.236000 55.000000
328.209000 25.000000
328.227000 66.000000
329.247000 17088.000000
330.248000 30.000000
419.254000 70.000000
434.299000 25.000000
480.291000 20.000000
484.612000 10.000000
490.328000 398.000000
491.339000 10.000000
491.561000 10.000000
499.545000 10.000000
502.289000 21.000000
506.730000 10.000000
507.343000 10.000000
508.340000 1926.000000
508.374000 71.000000
509.347000 15.000000
511.403000 10.000000
536.310000 249.000000
554.318000 136.000000
630.549000 10.000000
749.522000 50.000000
775.546000 50.000000
790.520000 22.000000
817.979000 45.000000
818.017000 40.000000
819.565000 26.000000
820.250000 31.000000
820.582000 27154.000000
820.718000 35.000000
821.575000 85.000000
821.601000 45.000000
835.540000 244.000000
835.587000 40.000000
892.210000 10.000000
894.560000 20.000000
894.621000 2817.000000
894.678000 61.000000
894.853000 10.000000

>ms2peaks
168.043000 111.000000
224.066000 159.000000
231.208000 90.000000
255.230000 31.000000
257.231000 40.000000
259.245000 63.000000
282.387000 48.000000
283.263000 3848.000000
285.246000 143.000000
285.259000 399.000000
303.231000 408.000000
309.276000 204.000000
311.227000 50.000000
327.230000 42.000000
328.224000 75.000000
329.247000 9014.000000
330.243000 31.000000
357.289000 90.000000
419.259000 60.000000
490.324000 132.000000
490.360000 40.000000
502.289000 20.000000
503.304000 43.000000
508.309000 141.000000
508.341000 878.000000
508.380000 64.000000
516.345000 23.000000
534.365000 83.000000
536.321000 101.000000
554.336000 90.000000
599.415000 20.000000
749.502000 30.000000
818.015000 70.000000
818.064000 25.000000
820.508000 93.000000
820.586000 15098.000000
821.595000 80.000000
835.530000 105.000000
835.570000 142.000000
894.565000 206.000000
894.613000 2304.000000
894.660000 184.000000

>ms2peaks
78.960000 45.000000
168.041000 173.000000
168.049000 70.000000
177.090000 25.000000
179.184000 20.000000
183.136000 20.000000
224.068000 301.000000
231.211000 106.000000
251.201000 79.000000
273.181000 21.000000
282.378000 64.000000
283.179000 21.000000
283.235000 93.000000
283.262000 6697.000000
284.263000 20.000000
285.259000 979.000000
295.500000 16.000000
303.238000 50.000000
309.284000 25.000000
311.236000 55.000000
328.209000 25.000000
328.227000 66.000000
329.247000 17088.000000
330.248000 30.000000
419.254000 70.000000
434.299000 25.000000
480.291000 20.000000
484.612000 10.000000
490.328000 398.000000
491.339000 10.000000
491.561000 10.000000
499.545000 10.000000
502.289000 21.000000
506.730000 10.000000
507.343000 10.000000
508.340000 1926.000000
508.374000 71.000000
509.347000 15.000000
511.403000 10.000000
536.310000 249.000000
554.318000 136.000000
630.549000 10.000000
749.522000 50.000000
775.546000 50.000000
790.520000 22.000000
817.979000 45.000000
818.017000 40.000000
819.565000 26.000000
820.250000 31.000000
820.582000 27154.000000
820.718000 35.000000
821.575000 85.000000
821.601000 45.000000
835.540000 244.000000
835.587000 40.000000
892.210000 10.000000
894.560000 20.000000
894.621000 2817.000000
894.678000 61.000000
894.853000 10.000000

>ms2peaks
168.043000 111.000000
224.066000 159.000000
231.208000 90.000000
255.230000 31.000000
257.231000 40.000000
259.245000 63.000000
282.387000 48.000000
283.263000 3848.000000
285.246000 143.000000
285.259000 399.000000
303.231000 408.000000
309.276000 204.000000
311.227000 50.000000
327.230000 42.000000
328.224000 75.000000
329.247000 9014.000000
330.243000 31.000000
357.289000 90.000000
419.259000 60.000000
490.324000 132.000000
490.360000 40.000000
502.289000 20.000000
503.304000 43.000000
508.309000 141.000000
508.341000 878.000000
508.380000 64.000000
516.345000 23.000000
534.365000 83.000000
536.321000 101.000000
554.336000 90.000000
599.415000 20.000000
749.502000 30.000000
818.015000 70.000000
818.064000 25.000000
820.508000 93.000000
820.586000 15098.000000
821.595000 80.000000
835.530000 105.000000
835.570000 142.000000
894.565000 206.000000
894.613000 2304.000000
894.660000 184.000000

