>compound LQB5845368
>parentmass 720.6503
>ionization [M+CH3COOH-H]-
>formula C43H83NO3
>rt 791.203200
>profile qtof
#smiles_iso CCCCCCCCCCCCC/C=C\CCCCCCCCCC(=O)NC(CO)C(/C=C/CCCCCCCCCCCCC)O
#smiles_can CCCCCCCCCCCCCC=CCCCCCCCCCC(=O)NC(CO)C(C=CCCCCCCCCCCCCC)O
#inchikey YWTUDCXNLITZPX-HVZKQDKLSA-N
#pubchem_id 138309507
#mb_accession LQB00053,LQB00439

>ms2peaks
158.969000 20.000000
235.206000 20.000000
237.222000 143.000000
263.228000 70.000000
263.243000 70.000000
268.263000 30.000000
291.264000 20.000000
305.086000 50.000000
335.344000 33.000000
353.346000 40.000000
361.350000 152.000000
376.370000 60.000000
378.368000 213.000000
379.358000 110.000000
390.380000 40.000000
392.359000 30.000000
404.371000 193.000000
404.387000 327.000000
404.405000 204.000000
406.386000 58.000000
420.382000 110.000000
612.582000 60.000000
612.617000 60.000000
614.597000 30.000000
627.531000 30.000000
628.517000 101.000000
628.544000 101.000000
628.608000 101.000000
630.595000 101.000000
630.622000 143.000000
642.545000 70.000000
642.634000 23.000000
660.516000 40.000000
660.539000 121.000000
660.567000 143.000000
660.621000 1600.000000
660.647000 695.000000
720.558000 20.000000

>ms2peaks
158.969000 20.000000
235.206000 20.000000
237.222000 143.000000
263.228000 70.000000
263.243000 70.000000
268.263000 30.000000
291.264000 20.000000
305.086000 50.000000
335.344000 33.000000
353.346000 40.000000
361.350000 152.000000
376.370000 60.000000
378.368000 213.000000
379.358000 110.000000
390.380000 40.000000
392.359000 30.000000
404.371000 193.000000
404.387000 327.000000
404.405000 204.000000
406.386000 58.000000
420.382000 110.000000
612.582000 60.000000
612.617000 60.000000
614.597000 30.000000
627.531000 30.000000
628.517000 101.000000
628.544000 101.000000
628.608000 101.000000
630.595000 101.000000
630.622000 143.000000
642.545000 70.000000
642.634000 23.000000
660.516000 40.000000
660.539000 121.000000
660.567000 143.000000
660.621000 1600.000000
660.647000 695.000000
720.558000 20.000000

