>compound LQB5133034
>parentmass 740.6387
>ionization [M+CH3COOH-H]-
>formula C42H83NO5
>rt 745.344000
>profile qtof
#smiles_iso CCCCCCCCCCCCCCC(C(C(CO)NC(=O)C(CCCCCCCC/C=C\CCCCCCCCCCCC)O)O)O
#smiles_can CCCCCCCCCCCCCCC(C(C(CO)NC(=O)C(CCCCCCCCC=CCCCCCCCCCCCC)O)O)O
#inchikey DNHNBCDDNLBZMD-DQRAZIAOSA-N
#pubchem_id 138145303
#mb_accession LQB00007,LQB00393

>ms2
88.042000 40.000000
169.673000 20.000000
204.968000 20.000000
225.226000 71.000000
246.983000 50.000000
250.256000 20.000000
253.215000 133.000000
254.432000 20.000000
255.232000 337.000000
267.230000 448.000000
268.251000 30.000000
278.242000 30.000000
279.232000 50.000000
284.259000 213.000000
286.972000 61.000000
308.262000 60.000000
316.282000 96.000000
328.987000 50.000000
335.331000 1091.000000
363.330000 182.000000
365.350000 60.000000
376.356000 202.000000
380.352000 418.000000
381.335000 1662.000000
388.351000 60.000000
388.369000 60.000000
406.363000 152.000000
406.376000 122.000000
410.990000 60.000000
418.373000 80.000000
422.361000 146.000000
424.377000 1000.000000
436.377000 867.000000
485.573000 20.000000
516.950000 30.000000
532.981000 60.000000
560.997000 23.000000
614.582000 75.000000
626.597000 23.000000
644.597000 130.000000
648.591000 100.000000
650.603000 60.000000
655.613000 20.000000
662.587000 95.000000
662.613000 174.000000
678.458000 116.000000
680.615000 14419.000000
740.542000 23.000000

>ms2
88.042000 40.000000
169.673000 20.000000
204.968000 20.000000
225.226000 71.000000
246.983000 50.000000
250.256000 20.000000
253.215000 133.000000
254.432000 20.000000
255.232000 337.000000
267.230000 448.000000
268.251000 30.000000
278.242000 30.000000
279.232000 50.000000
284.259000 213.000000
286.972000 61.000000
308.262000 60.000000
316.282000 96.000000
328.987000 50.000000
335.331000 1091.000000
363.330000 182.000000
365.350000 60.000000
376.356000 202.000000
380.352000 418.000000
381.335000 1662.000000
388.351000 60.000000
388.369000 60.000000
406.363000 152.000000
406.376000 122.000000
410.990000 60.000000
418.373000 80.000000
422.361000 146.000000
424.377000 1000.000000
436.377000 867.000000
485.573000 20.000000
516.950000 30.000000
532.981000 60.000000
560.997000 23.000000
614.582000 75.000000
626.597000 23.000000
644.597000 130.000000
648.591000 100.000000
650.603000 60.000000
655.613000 20.000000
662.587000 95.000000
662.613000 174.000000
678.458000 116.000000
680.615000 14419.000000
740.542000 23.000000

