>compound LQB5414643
>parentmass 686.5913
>ionization [M+CH3COOH-H]-
>formula C38H77NO5
>rt 656.393400
>profile qtof
#smiles_iso CCCCCCCCCCCCCCCCCCC(C(=O)NC(CO)C(C(CCCCCCCCCCCCCC)O)O)O
#smiles_can CCCCCCCCCCCCCCCCCCC(C(=O)NC(CO)C(C(CCCCCCCCCCCCCC)O)O)O
#inchikey RYCCNLKFNBMCIU-UHFFFAOYSA-N
#pubchem_id 21259872
#mb_accession LQB00003,LQB00389

>ms2
225.215000 23.000000
250.258000 20.000000
253.222000 23.000000
255.233000 84.000000
266.243000 20.000000
267.230000 100.000000
279.227000 20.000000
280.261000 70.000000
281.284000 286.000000
284.260000 43.000000
306.274000 23.000000
309.282000 70.000000
323.302000 20.000000
326.304000 60.000000
327.287000 286.000000
338.301000 20.000000
352.320000 30.000000
368.311000 20.000000
370.319000 70.000000
370.340000 121.000000
382.326000 173.000000
579.183000 21.000000
608.562000 71.000000
626.565000 2032.000000
626.594000 320.000000

>ms2
225.215000 23.000000
250.258000 20.000000
253.222000 23.000000
255.233000 84.000000
266.243000 20.000000
267.230000 100.000000
279.227000 20.000000
280.261000 70.000000
281.284000 286.000000
284.260000 43.000000
306.274000 23.000000
309.282000 70.000000
323.302000 20.000000
326.304000 60.000000
327.287000 286.000000
338.301000 20.000000
352.320000 30.000000
368.311000 20.000000
370.319000 70.000000
370.340000 121.000000
382.326000 173.000000
579.183000 21.000000
608.562000 71.000000
626.565000 2032.000000
626.594000 320.000000

