>compound LQB5480338
>parentmass 764.5406
>ionization [M+CH3COOH-H]-
>formula C38H76NO8P
>rt 541.882080
>profile qtof
#smiles_iso CCCCCCCCCCCCCCCC(=O)OC(COC(=O)CCCCCCCCCCCCC)COP(=O)([O-])OCC[N+](C)(C)C
#smiles_can CCCCCCCCCCCCCCCC(=O)OC(COC(=O)CCCCCCCCCCCCC)COP(=O)([O-])OCC[N+](C)(C)C
#inchikey RFVFQQWKPSOBED-UHFFFAOYSA-N
#pubchem_id 10169024
#mb_accession LQB00083,LQB00469

>ms2peaks
78.959000 70.000000
152.994000 20.000000
168.032000 40.000000
168.045000 172.000000
224.068000 166.000000
226.489000 51.000000
226.515000 27.000000
227.200000 9470.000000
227.240000 39.000000
242.079000 26.000000
254.428000 33.000000
255.230000 7437.000000
279.224000 25.000000
282.249000 30.000000
283.246000 121.000000
283.266000 157.000000
303.214000 40.000000
303.234000 45.000000
305.220000 55.000000
305.239000 291.000000
305.251000 265.000000
363.193000 25.000000
434.247000 60.000000
434.263000 96.000000
437.266000 20.000000
452.240000 35.000000
452.266000 264.000000
452.282000 157.000000
458.286000 25.000000
462.285000 141.000000
462.308000 70.000000
479.295000 16.000000
480.250000 35.000000
480.299000 448.000000
480.317000 102.000000
507.414000 31.000000
512.594000 18.000000
616.433000 10.000000
617.464000 70.000000
619.412000 20.000000
628.529000 15.000000
643.478000 26.000000
645.431000 18.000000
676.497000 10.000000
677.481000 20.000000
688.312000 50.000000
688.540000 61.000000
689.515000 35.000000
689.545000 75.000000
690.493000 11601.000000
690.595000 24.000000
691.504000 21.000000
705.418000 35.000000
705.456000 65.000000
705.491000 36.000000
717.494000 15.000000
764.492000 536.000000
764.525000 796.000000
764.586000 30.000000

>ms2peaks
78.959000 70.000000
152.994000 20.000000
168.032000 40.000000
168.045000 172.000000
224.068000 166.000000
226.489000 51.000000
226.515000 27.000000
227.200000 9470.000000
227.240000 39.000000
242.079000 26.000000
254.428000 33.000000
255.230000 7437.000000
279.224000 25.000000
282.249000 30.000000
283.246000 121.000000
283.266000 157.000000
303.214000 40.000000
303.234000 45.000000
305.220000 55.000000
305.239000 291.000000
305.251000 265.000000
363.193000 25.000000
434.247000 60.000000
434.263000 96.000000
437.266000 20.000000
452.240000 35.000000
452.266000 264.000000
452.282000 157.000000
458.286000 25.000000
462.285000 141.000000
462.308000 70.000000
479.295000 16.000000
480.250000 35.000000
480.299000 448.000000
480.317000 102.000000
507.414000 31.000000
512.594000 18.000000
616.433000 10.000000
617.464000 70.000000
619.412000 20.000000
628.529000 15.000000
643.478000 26.000000
645.431000 18.000000
676.497000 10.000000
677.481000 20.000000
688.312000 50.000000
688.540000 61.000000
689.515000 35.000000
689.545000 75.000000
690.493000 11601.000000
690.595000 24.000000
691.504000 21.000000
705.418000 35.000000
705.456000 65.000000
705.491000 36.000000
717.494000 15.000000
764.492000 536.000000
764.525000 796.000000
764.586000 30.000000

