>compound LQB5740800
>parentmass 698.6279
>ionization [M+CH3COOH-H]-
>formula C40H81NO4
>rt 770.530200
>profile qtof
#smiles_iso CCCCCCCCCCCCCCCCCCCCCC(=O)NC(CO)C(C(CCCCCCCCCCCCCC)O)O
#smiles_can CCCCCCCCCCCCCCCCCCCCCC(=O)NC(CO)C(C(CCCCCCCCCCCCCC)O)O
#inchikey CIMNZQFRNXDRER-UHFFFAOYSA-N
#pubchem_id 14757379
#mb_accession LQB00018,LQB00404

>ms2
225.220000 224.000000
237.223000 50.000000
239.235000 43.000000
250.255000 60.000000
255.231000 766.000000
263.242000 44.000000
266.397000 58.000000
267.231000 3459.000000
279.227000 101.000000
279.246000 41.000000
280.261000 286.000000
280.280000 51.000000
281.244000 50.000000
284.258000 142.000000
297.244000 70.000000
316.282000 183.000000
321.310000 163.000000
321.329000 50.000000
323.329000 152.000000
338.240000 41.000000
338.339000 2057.000000
339.324000 2878.000000
350.344000 45.000000
352.357000 397.000000
353.341000 243.000000
362.338000 125.000000
364.355000 1276.000000
366.370000 63.000000
376.354000 204.000000
380.350000 1990.000000
381.169000 42.000000
382.333000 101.000000
382.364000 5343.000000
394.365000 4828.000000
396.381000 71.000000
408.386000 61.000000
445.399000 50.000000
505.423000 120.000000
572.574000 256.000000
584.567000 50.000000
588.578000 70.000000
590.589000 80.000000
602.588000 1439.000000
606.533000 50.000000
606.572000 387.000000
606.591000 214.000000
608.569000 50.000000
608.595000 132.000000
620.551000 50.000000
620.588000 448.000000
620.619000 81.000000
636.579000 120.000000
638.412000 66.000000
638.602000 20149.000000

>ms2
225.220000 224.000000
237.223000 50.000000
239.235000 43.000000
250.255000 60.000000
255.231000 766.000000
263.242000 44.000000
266.397000 58.000000
267.231000 3459.000000
279.227000 101.000000
279.246000 41.000000
280.261000 286.000000
280.280000 51.000000
281.244000 50.000000
284.258000 142.000000
297.244000 70.000000
316.282000 183.000000
321.310000 163.000000
321.329000 50.000000
323.329000 152.000000
338.240000 41.000000
338.339000 2057.000000
339.324000 2878.000000
350.344000 45.000000
352.357000 397.000000
353.341000 243.000000
362.338000 125.000000
364.355000 1276.000000
366.370000 63.000000
376.354000 204.000000
380.350000 1990.000000
381.169000 42.000000
382.333000 101.000000
382.364000 5343.000000
394.365000 4828.000000
396.381000 71.000000
408.386000 61.000000
445.399000 50.000000
505.423000 120.000000
572.574000 256.000000
584.567000 50.000000
588.578000 70.000000
590.589000 80.000000
602.588000 1439.000000
606.533000 50.000000
606.572000 387.000000
606.591000 214.000000
608.569000 50.000000
608.595000 132.000000
620.551000 50.000000
620.588000 448.000000
620.619000 81.000000
636.579000 120.000000
638.412000 66.000000
638.602000 20149.000000

