>compound LQB5348653
>parentmass 740.5203
>ionization [M-H]-
>formula C41H76NO8P
>rt 574.444560
>profile qtof
#smiles_iso CCCCCCCC/C=C\CCCCCCCC(=O)OCC(COP(=O)(O)OCCN)OC(=O)CCCCCCC/C=C\C/C=C\CCCCC
#smiles_can CCCCCCCCC=CCCCCCCCC(=O)OCC(COP(=O)(O)OCCN)OC(=O)CCCCCCCC=CCC=CCCCCC
#inchikey GKAFCSRKMWFPSJ-RQOIEFAZSA-N
#pubchem_id 25245362
#mb_accession LQB00209,LQB00595

>ms2
78.959000 250.000000
96.971000 20.000000
121.999000 60.000000
140.013000 515.000000
152.995000 45.000000
178.027000 20.000000
196.037000 765.000000
214.047000 80.000000
255.234000 25.000000
261.215000 95.000000
261.228000 30.000000
278.337000 35.000000
278.359000 151.000000
279.183000 24.000000
279.231000 42699.000000
280.364000 85.000000
281.247000 19107.000000
303.240000 31.000000
304.235000 45.000000
305.240000 31.000000
394.398000 25.000000
402.235000 45.000000
404.260000 31.000000
417.237000 30.000000
458.235000 35.000000
458.250000 75.000000
458.267000 168.000000
460.249000 55.000000
460.274000 265.000000
460.294000 138.000000
476.259000 153.000000
476.274000 219.000000
476.301000 36.000000
478.268000 278.000000
478.289000 2245.000000
494.153000 10.000000
557.654000 26.000000
559.364000 24.000000
559.465000 71.000000
575.028000 10.000000
632.577000 20.000000
662.576000 30.000000
662.625000 40.000000
738.132000 25.000000
738.185000 40.000000
738.210000 30.000000
739.533000 20.000000
739.638000 11.000000
740.186000 18.000000
740.436000 95.000000
740.516000 15642.000000
740.651000 16.000000
741.085000 16.000000
741.498000 28.000000
741.544000 35.000000

>ms2
78.959000 250.000000
96.971000 20.000000
121.999000 60.000000
140.013000 515.000000
152.995000 45.000000
178.027000 20.000000
196.037000 765.000000
214.047000 80.000000
255.234000 25.000000
261.215000 95.000000
261.228000 30.000000
278.337000 35.000000
278.359000 151.000000
279.183000 24.000000
279.231000 42699.000000
280.364000 85.000000
281.247000 19107.000000
303.240000 31.000000
304.235000 45.000000
305.240000 31.000000
394.398000 25.000000
402.235000 45.000000
404.260000 31.000000
417.237000 30.000000
458.235000 35.000000
458.250000 75.000000
458.267000 168.000000
460.249000 55.000000
460.274000 265.000000
460.294000 138.000000
476.259000 153.000000
476.274000 219.000000
476.301000 36.000000
478.268000 278.000000
478.289000 2245.000000
494.153000 10.000000
557.654000 26.000000
559.364000 24.000000
559.465000 71.000000
575.028000 10.000000
632.577000 20.000000
662.576000 30.000000
662.625000 40.000000
738.132000 25.000000
738.185000 40.000000
738.210000 30.000000
739.533000 20.000000
739.638000 11.000000
740.186000 18.000000
740.436000 95.000000
740.516000 15642.000000
740.651000 16.000000
741.085000 16.000000
741.498000 28.000000
741.544000 35.000000

