>compound LQB5753250
>parentmass 879.5082
>ionization [M-H]-
>formula C47H77O13P
>rt 474.698520
>profile qtof
#smiles_iso CCCCC/C=C\C/C=C\CCCCCCCC(=O)OCC(COP(=O)(O)OC1C(C(C(C(C1O)O)O)O)O)OC(=O)CCC/C=C\C/C=C\C/C=C\C/C=C\C/C=C\CC
#smiles_can CCCCCC=CCC=CCCCCCCCC(=O)OCC(COP(=O)(O)OC1C(C(C(C(C1O)O)O)O)O)OC(=O)CCCC=CCC=CCC=CCC=CCC=CCC
#inchikey PJGBJPJEYMOHKG-WJFLDVDQSA-N
#pubchem_id 138235964
#mb_accession LQB00322,LQB00708

>ms2peaks
223.003000 40.000000
241.012000 60.000000
279.217000 25.000000
279.233000 121.000000
301.207000 15.000000
301.212000 25.000000
301.222000 20.000000
301.229000 15.000000
315.042000 10.000000
415.215000 10.000000
437.211000 25.000000
543.271000 10.000000
577.251000 15.000000
577.261000 20.000000
577.272000 25.000000
577.284000 65.000000
595.274000 35.000000
599.265000 20.000000
817.488000 15.000000
819.501000 16.000000
879.464000 87.000000
879.472000 179.000000
879.481000 148.000000
879.489000 179.000000
879.513000 585.000000
879.531000 128.000000
879.539000 112.000000
879.573000 30.000000
879.627000 10.000000
879.635000 15.000000

>ms2peaks
223.003000 40.000000
241.012000 60.000000
279.217000 25.000000
279.233000 121.000000
301.207000 15.000000
301.212000 25.000000
301.222000 20.000000
301.229000 15.000000
315.042000 10.000000
415.215000 10.000000
437.211000 25.000000
543.271000 10.000000
577.251000 15.000000
577.261000 20.000000
577.272000 25.000000
577.284000 65.000000
595.274000 35.000000
599.265000 20.000000
817.488000 15.000000
819.501000 16.000000
879.464000 87.000000
879.472000 179.000000
879.481000 148.000000
879.489000 179.000000
879.513000 585.000000
879.531000 128.000000
879.539000 112.000000
879.573000 30.000000
879.627000 10.000000
879.635000 15.000000

