>compound LQB5568668
>parentmass 764.7082
>ionization [M+CH3COOH-H]-
>formula C46H91NO3
>rt 826.371600
>profile qtof
#smiles_iso CCCCCCCCCCCCCCCCCCCCCCCCCC(=O)NC(CO)C(/C=C/CCCCCCCCCCCCCCC)O
#smiles_can CCCCCCCCCCCCCCCCCCCCCCCCCC(=O)NC(CO)C(C=CCCCCCCCCCCCCCCC)O
#inchikey VEMKTJHNOOUCRU-OHYVAXEESA-N
#pubchem_id 138278543
#mb_accession LQB00070,LQB00456

>ms2peaks
237.214000 90.000000
253.249000 60.000000
263.237000 111.000000
263.252000 103.000000
265.252000 5073.000000
267.267000 218.000000
267.280000 121.000000
277.250000 43.000000
278.273000 91.000000
278.286000 245.000000
279.268000 112.000000
283.263000 81.000000
291.267000 5476.000000
293.283000 347.000000
294.278000 712.000000
296.278000 112.000000
296.294000 848.000000
306.272000 80.000000
309.275000 160.000000
319.290000 81.000000
319.303000 172.000000
322.309000 120.000000
326.287000 81.000000
326.307000 265.000000
349.347000 367.000000
366.367000 204.000000
367.351000 194.000000
375.365000 92.000000
376.214000 72.000000
377.376000 6100.000000
379.396000 72.000000
392.386000 1788.000000
393.417000 317.000000
394.374000 410.000000
394.403000 4719.000000
395.356000 195.000000
395.387000 4250.000000
405.391000 101.000000
405.411000 112.000000
408.369000 112.000000
408.380000 142.000000
408.400000 203.000000
418.398000 130.000000
419.096000 103.000000
420.418000 23947.000000
421.387000 94.000000
423.413000 122.000000
434.406000 188.000000
435.411000 113.000000
436.410000 3664.000000
438.422000 143.000000
438.443000 71.000000
448.413000 91.000000
448.451000 357.000000
629.644000 40.000000
630.643000 50.000000
645.658000 151.000000
654.652000 51.000000
656.639000 784.000000
656.664000 2165.000000
656.683000 1298.000000
658.662000 63.000000
668.662000 50.000000
672.538000 41.000000
672.659000 5126.000000
672.739000 83.000000
674.677000 8661.000000
674.745000 108.000000
676.704000 30.000000
686.672000 326.000000
686.700000 161.000000
702.392000 60.000000
702.439000 194.000000
702.471000 204.000000
702.496000 112.000000
704.446000 43.000000
704.683000 76444.000000
705.238000 42.000000
705.424000 52.000000
705.656000 81.000000
705.696000 204.000000
764.660000 50.000000
764.689000 305.000000
764.736000 173.000000

>ms2peaks
237.214000 90.000000
253.249000 60.000000
263.237000 111.000000
263.252000 103.000000
265.252000 5073.000000
267.267000 218.000000
267.280000 121.000000
277.250000 43.000000
278.273000 91.000000
278.286000 245.000000
279.268000 112.000000
283.263000 81.000000
291.267000 5476.000000
293.283000 347.000000
294.278000 712.000000
296.278000 112.000000
296.294000 848.000000
306.272000 80.000000
309.275000 160.000000
319.290000 81.000000
319.303000 172.000000
322.309000 120.000000
326.287000 81.000000
326.307000 265.000000
349.347000 367.000000
366.367000 204.000000
367.351000 194.000000
375.365000 92.000000
376.214000 72.000000
377.376000 6100.000000
379.396000 72.000000
392.386000 1788.000000
393.417000 317.000000
394.374000 410.000000
394.403000 4719.000000
395.356000 195.000000
395.387000 4250.000000
405.391000 101.000000
405.411000 112.000000
408.369000 112.000000
408.380000 142.000000
408.400000 203.000000
418.398000 130.000000
419.096000 103.000000
420.418000 23947.000000
421.387000 94.000000
423.413000 122.000000
434.406000 188.000000
435.411000 113.000000
436.410000 3664.000000
438.422000 143.000000
438.443000 71.000000
448.413000 91.000000
448.451000 357.000000
629.644000 40.000000
630.643000 50.000000
645.658000 151.000000
654.652000 51.000000
656.639000 784.000000
656.664000 2165.000000
656.683000 1298.000000
658.662000 63.000000
668.662000 50.000000
672.538000 41.000000
672.659000 5126.000000
672.739000 83.000000
674.677000 8661.000000
674.745000 108.000000
676.704000 30.000000
686.672000 326.000000
686.700000 161.000000
702.392000 60.000000
702.439000 194.000000
702.471000 204.000000
702.496000 112.000000
704.446000 43.000000
704.683000 76444.000000
705.238000 42.000000
705.424000 52.000000
705.656000 81.000000
705.696000 204.000000
764.660000 50.000000
764.689000 305.000000
764.736000 173.000000

