>compound LQB5092805
>parentmass 704.6183
>ionization [M+CH3COOH-H]-
>formula C42H79NO3
>rt 759.814800
>profile qtof
#smiles_iso CCCCCCCCCCCCC/C=C/C(C(CO)NC(=O)CCCCCCCCCCCCCCCC/C=C\C/C=C\CC)O
#smiles_can CCCCCCCCCCCCCC=CC(C(CO)NC(=O)CCCCCCCCCCCCCCCCC=CCC=CCC)O
#inchikey VMOXUICDIMVPPG-UZRIYOBRSA-N
#pubchem_id 138281222
#mb_accession LQB00050,LQB00051,LQB00436,LQB00437

>ms2peaks
235.203000 297.000000
237.222000 1388.000000
237.243000 71.000000
239.234000 70.000000
250.248000 60.000000
255.237000 50.000000
261.218000 160.000000
263.227000 338.000000
263.239000 847.000000
263.262000 60.000000
266.250000 222.000000
268.264000 192.000000
298.254000 45.000000
298.280000 60.000000
345.315000 1019.000000
347.329000 215.000000
361.354000 70.000000
362.338000 1143.000000
363.323000 960.000000
363.361000 80.000000
364.356000 192.000000
365.327000 71.000000
365.350000 101.000000
387.149000 82.000000
388.313000 62.000000
388.356000 7655.000000
390.346000 123.000000
390.372000 746.000000
402.336000 43.000000
404.349000 857.000000
404.367000 224.000000
406.369000 172.000000
569.567000 40.000000
596.565000 847.000000
596.584000 613.000000
612.554000 286.000000
612.576000 947.000000
612.636000 30.000000
614.543000 143.000000
614.563000 398.000000
614.586000 1751.000000
614.618000 338.000000
626.580000 80.000000
642.520000 30.000000
642.583000 101.000000
644.491000 49.000000
644.596000 17580.000000
644.667000 95.000000
645.596000 70.000000
704.602000 20.000000

>ms2peaks
233.231000 16.000000
235.206000 22.000000
237.221000 159.000000
246.986000 12.000000
250.260000 15.000000
261.222000 44.000000
263.237000 125.000000
266.250000 57.000000
268.264000 37.000000
281.248000 13.000000
286.969000 10.000000
294.969000 13.000000
322.965000 13.000000
345.315000 187.000000
347.331000 36.000000
362.340000 171.000000
363.322000 119.000000
364.354000 37.000000
364.372000 14.000000
365.338000 23.000000
388.358000 1023.000000
390.371000 148.000000
404.349000 162.000000
406.364000 28.000000
458.897000 10.000000
540.928000 6.000000
569.591000 7.000000
586.588000 6.000000
596.570000 90.000000
596.598000 33.000000
612.567000 217.000000
612.597000 37.000000
614.584000 272.000000
622.903000 7.000000
626.580000 10.000000
642.550000 15.000000
644.595000 2716.000000
645.616000 6.000000
668.895000 6.000000
704.598000 13.000000

>ms2peaks
235.203000 297.000000
237.222000 1388.000000
237.243000 71.000000
239.234000 70.000000
250.248000 60.000000
255.237000 50.000000
261.218000 160.000000
263.227000 338.000000
263.239000 847.000000
263.262000 60.000000
266.250000 222.000000
268.264000 192.000000
298.254000 45.000000
298.280000 60.000000
345.315000 1019.000000
347.329000 215.000000
361.354000 70.000000
362.338000 1143.000000
363.323000 960.000000
363.361000 80.000000
364.356000 192.000000
365.327000 71.000000
365.350000 101.000000
387.149000 82.000000
388.313000 62.000000
388.356000 7655.000000
390.346000 123.000000
390.372000 746.000000
402.336000 43.000000
404.349000 857.000000
404.367000 224.000000
406.369000 172.000000
569.567000 40.000000
596.565000 847.000000
596.584000 613.000000
612.554000 286.000000
612.576000 947.000000
612.636000 30.000000
614.543000 143.000000
614.563000 398.000000
614.586000 1751.000000
614.618000 338.000000
626.580000 80.000000
642.520000 30.000000
642.583000 101.000000
644.491000 49.000000
644.596000 17580.000000
644.667000 95.000000
645.596000 70.000000
704.602000 20.000000

>ms2peaks
233.231000 16.000000
235.206000 22.000000
237.221000 159.000000
246.986000 12.000000
250.260000 15.000000
261.222000 44.000000
263.237000 125.000000
266.250000 57.000000
268.264000 37.000000
281.248000 13.000000
286.969000 10.000000
294.969000 13.000000
322.965000 13.000000
345.315000 187.000000
347.331000 36.000000
362.340000 171.000000
363.322000 119.000000
364.354000 37.000000
364.372000 14.000000
365.338000 23.000000
388.358000 1023.000000
390.371000 148.000000
404.349000 162.000000
406.364000 28.000000
458.897000 10.000000
540.928000 6.000000
569.591000 7.000000
586.588000 6.000000
596.570000 90.000000
596.598000 33.000000
612.567000 217.000000
612.597000 37.000000
614.584000 272.000000
622.903000 7.000000
626.580000 10.000000
642.550000 15.000000
644.595000 2716.000000
645.616000 6.000000
668.895000 6.000000
704.598000 13.000000

