>compound LQB5500435
>parentmass 843.513
>ionization [M-H]-
>formula C48H77O10P
>rt 482.990280
>profile qtof
#smiles_iso CC/C=C\C/C=C\C/C=C\CCCCCCCCCC(=O)OCC(COP(=O)(O)OCC(CO)O)OC(=O)CC/C=C\C/C=C\C/C=C\C/C=C\C/C=C\C/C=C\CC
#smiles_can CCC=CCC=CCC=CCCCCCCCCCC(=O)OCC(COP(=O)(O)OCC(CO)O)OC(=O)CCC=CCC=CCC=CCC=CCC=CCC=CCC
#inchikey IUAHNRBNAVSHBB-PVFFKTCKSA-N
#pubchem_id 138180945
#mb_accession LQB00276,LQB00662

>ms2
78.959000 16.000000
140.012000 8.000000
152.981000 12.000000
152.994000 48.000000
195.151000 8.000000
196.038000 24.000000
205.121000 10.000000
205.192000 16.000000
207.101000 11.000000
209.116000 16.000000
229.198000 14.000000
231.211000 18.000000
235.134000 12.000000
236.098000 10.000000
255.233000 16.000000
259.241000 46.000000
283.241000 102.000000
283.264000 174.000000
284.269000 144.000000
285.254000 164.000000
285.274000 21.000000
303.230000 878.000000
304.229000 14.000000
305.247000 615.000000
305.277000 14.000000
317.216000 20.000000
318.209000 12.000000
319.224000 14.000000
327.230000 321.000000
329.246000 763.000000
331.201000 18.000000
331.259000 20.000000
332.194000 12.000000
341.219000 14.000000
343.221000 14.000000
344.233000 16.000000
359.205000 14.000000
360.222000 26.000000
360.236000 18.000000
419.247000 44.000000
419.264000 46.000000
420.246000 10.000000
420.262000 7.000000
420.276000 14.000000
437.250000 20.000000
437.273000 32.000000
438.262000 24.000000
464.317000 18.000000
465.312000 38.000000
480.306000 8.000000
481.303000 8.000000
492.351000 46.000000
493.321000 12.000000
493.357000 11.000000
513.246000 10.000000
531.270000 14.000000
533.276000 15.000000
537.234000 6.000000
539.300000 9.000000
555.288000 9.000000
588.323000 12.000000
604.366000 7.000000
631.470000 10.000000
673.407000 8.000000
677.387000 6.000000
738.463000 22.000000
738.495000 26.000000
755.404000 14.000000
755.488000 16.000000
756.491000 30.000000
783.515000 16.000000
793.498000 11.000000
797.501000 14.000000
797.554000 12.000000
805.525000 18.000000
805.554000 26.000000
805.578000 10.000000
807.507000 14.000000
807.538000 12.000000
809.544000 26.000000
811.464000 11.000000
825.481000 18.000000
825.521000 36.000000
825.551000 40.000000
825.575000 10.000000
828.582000 13.000000
843.413000 24.000000
843.493000 1372.000000
843.526000 1074.000000
843.642000 14.000000

>ms2
78.959000 16.000000
140.012000 8.000000
152.981000 12.000000
152.994000 48.000000
195.151000 8.000000
196.038000 24.000000
205.121000 10.000000
205.192000 16.000000
207.101000 11.000000
209.116000 16.000000
229.198000 14.000000
231.211000 18.000000
235.134000 12.000000
236.098000 10.000000
255.233000 16.000000
259.241000 46.000000
283.241000 102.000000
283.264000 174.000000
284.269000 144.000000
285.254000 164.000000
285.274000 21.000000
303.230000 878.000000
304.229000 14.000000
305.247000 615.000000
305.277000 14.000000
317.216000 20.000000
318.209000 12.000000
319.224000 14.000000
327.230000 321.000000
329.246000 763.000000
331.201000 18.000000
331.259000 20.000000
332.194000 12.000000
341.219000 14.000000
343.221000 14.000000
344.233000 16.000000
359.205000 14.000000
360.222000 26.000000
360.236000 18.000000
419.247000 44.000000
419.264000 46.000000
420.246000 10.000000
420.262000 7.000000
420.276000 14.000000
437.250000 20.000000
437.273000 32.000000
438.262000 24.000000
464.317000 18.000000
465.312000 38.000000
480.306000 8.000000
481.303000 8.000000
492.351000 46.000000
493.321000 12.000000
493.357000 11.000000
513.246000 10.000000
531.270000 14.000000
533.276000 15.000000
537.234000 6.000000
539.300000 9.000000
555.288000 9.000000
588.323000 12.000000
604.366000 7.000000
631.470000 10.000000
673.407000 8.000000
677.387000 6.000000
738.463000 22.000000
738.495000 26.000000
755.404000 14.000000
755.488000 16.000000
756.491000 30.000000
783.515000 16.000000
793.498000 11.000000
797.501000 14.000000
797.554000 12.000000
805.525000 18.000000
805.554000 26.000000
805.578000 10.000000
807.507000 14.000000
807.538000 12.000000
809.544000 26.000000
811.464000 11.000000
825.481000 18.000000
825.521000 36.000000
825.551000 40.000000
825.575000 10.000000
828.582000 13.000000
843.413000 24.000000
843.493000 1372.000000
843.526000 1074.000000
843.642000 14.000000

