>compound LQB5427374
>parentmass 793.50225
>ionization [M-H]-
>formula C44H75O10P
>rt 476.548860
>profile qtof
#smiles_iso CCCCC/C=C\C/C=C\CCCCCCCC(=O)OCC(COP(=O)(O)OCC(CO)O)OC(=O)CCCCCC/C=C\C/C=C\C/C=C\C/C=C\CC
#smiles_can CCCCCC=CCC=CCCCCCCCC(=O)OCC(COP(=O)(O)OCC(CO)O)OC(=O)CCCCCCC=CCC=CCC=CCC=CCC
#inchikey IOSMTWQOMVSNAG-DMQHYRIXSA-N
#pubchem_id 138179182
#mb_accession LQB00272,LQB00273,LQB00658,LQB00659

>ms2
152.997000 70.000000
205.195000 106.000000
259.241000 430.000000
279.231000 6224.000000
299.390000 21.000000
300.267000 21.000000
300.778000 21.000000
301.216000 42.000000
302.982000 21.000000
303.231000 5190.000000
433.240000 23.000000
439.221000 60.000000
446.563000 20.000000
489.254000 60.000000
507.268000 120.000000
513.261000 70.000000
531.265000 50.000000
551.770000 23.000000
711.519000 41.000000
775.504000 35.000000
793.374000 21.000000
793.495000 7344.000000
793.615000 33.000000

>ms2
78.958000 23.000000
150.976000 13.000000
152.994000 268.000000
171.007000 13.000000
177.092000 29.000000
179.183000 13.000000
191.108000 15.000000
205.194000 200.000000
227.034000 23.000000
231.215000 37.000000
253.212000 48.000000
253.228000 37.000000
257.216000 16.000000
257.236000 25.000000
259.232000 167.000000
259.244000 654.000000
261.223000 24.000000
267.209000 13.000000
277.214000 16.000000
278.357000 67.000000
278.372000 24.000000
279.232000 17447.000000
280.228000 39.000000
281.248000 157.000000
283.259000 26.000000
285.220000 39.000000
301.216000 101.000000
301.229000 37.000000
302.278000 34.000000
302.295000 50.000000
303.232000 13223.000000
304.235000 49.000000
329.252000 59.000000
415.223000 51.000000
415.239000 47.000000
433.236000 47.000000
436.279000 26.000000
437.287000 19.000000
439.224000 252.000000
457.240000 50.000000
489.227000 17.000000
489.256000 136.000000
489.283000 40.000000
507.270000 221.000000
513.241000 40.000000
513.255000 109.000000
513.271000 123.000000
513.295000 26.000000
531.254000 64.000000
531.274000 126.000000
551.106000 9.000000
557.671000 16.000000
719.532000 22.000000
790.945000 9.000000
791.009000 85.000000
792.565000 18.000000
793.299000 19.000000
793.369000 16.000000
793.428000 103.000000
793.503000 17177.000000
793.586000 76.000000
793.613000 22.000000
793.917000 9.000000
794.304000 5.000000
794.502000 51.000000
794.533000 26.000000

>ms2
152.997000 70.000000
205.195000 106.000000
259.241000 430.000000
279.231000 6224.000000
299.390000 21.000000
300.267000 21.000000
300.778000 21.000000
301.216000 42.000000
302.982000 21.000000
303.231000 5190.000000
433.240000 23.000000
439.221000 60.000000
446.563000 20.000000
489.254000 60.000000
507.268000 120.000000
513.261000 70.000000
531.265000 50.000000
551.770000 23.000000
711.519000 41.000000
775.504000 35.000000
793.374000 21.000000
793.495000 7344.000000
793.615000 33.000000

>ms2
78.958000 23.000000
150.976000 13.000000
152.994000 268.000000
171.007000 13.000000
177.092000 29.000000
179.183000 13.000000
191.108000 15.000000
205.194000 200.000000
227.034000 23.000000
231.215000 37.000000
253.212000 48.000000
253.228000 37.000000
257.216000 16.000000
257.236000 25.000000
259.232000 167.000000
259.244000 654.000000
261.223000 24.000000
267.209000 13.000000
277.214000 16.000000
278.357000 67.000000
278.372000 24.000000
279.232000 17447.000000
280.228000 39.000000
281.248000 157.000000
283.259000 26.000000
285.220000 39.000000
301.216000 101.000000
301.229000 37.000000
302.278000 34.000000
302.295000 50.000000
303.232000 13223.000000
304.235000 49.000000
329.252000 59.000000
415.223000 51.000000
415.239000 47.000000
433.236000 47.000000
436.279000 26.000000
437.287000 19.000000
439.224000 252.000000
457.240000 50.000000
489.227000 17.000000
489.256000 136.000000
489.283000 40.000000
507.270000 221.000000
513.241000 40.000000
513.255000 109.000000
513.271000 123.000000
513.295000 26.000000
531.254000 64.000000
531.274000 126.000000
551.106000 9.000000
557.671000 16.000000
719.532000 22.000000
790.945000 9.000000
791.009000 85.000000
792.565000 18.000000
793.299000 19.000000
793.369000 16.000000
793.428000 103.000000
793.503000 17177.000000
793.586000 76.000000
793.613000 22.000000
793.917000 9.000000
794.304000 5.000000
794.502000 51.000000
794.533000 26.000000

