>compound LQB5354618
>parentmass 762.5254
>ionization [M+CH3COOH-H]-
>formula C38H74NO8P
>rt 514.373160
>profile qtof
#smiles_iso CCCCCCCCCCCCCC(=O)OCC(COP(=O)([O-])OCC[N+](C)(C)C)OC(=O)CCCCCCC/C=C\CCCCCC
#smiles_can CCCCCCCCCCCCCC(=O)OCC(COP(=O)([O-])OCC[N+](C)(C)C)OC(=O)CCCCCCCC=CCCCCCC
#inchikey XGGMHQYOVYWRLV-VLGSPTGOSA-N
#pubchem_id 24778616
#mb_accession LQB00084,LQB00085,LQB00470,LQB00471

>ms2peaks
78.959000 15.000000
152.991000 9.000000
153.092000 10.000000
168.043000 51.000000
199.167000 18.000000
224.071000 50.000000
225.186000 146.000000
226.492000 9.000000
227.201000 2754.000000
228.207000 6.000000
241.217000 8.000000
242.079000 9.000000
252.424000 14.000000
253.216000 1741.000000
255.231000 182.000000
279.222000 5.000000
279.236000 11.000000
281.217000 6.000000
281.235000 9.000000
281.249000 25.000000
283.240000 24.000000
283.261000 5.000000
305.233000 10.000000
305.254000 15.000000
307.266000 5.000000
327.224000 30.000000
327.246000 17.000000
329.251000 14.000000
331.254000 8.000000
343.218000 18.000000
343.243000 5.000000
389.207000 7.000000
418.269000 10.000000
432.259000 5.000000
434.241000 7.000000
434.266000 28.000000
436.267000 8.000000
436.282000 25.000000
438.268000 5.000000
450.249000 6.000000
452.261000 33.000000
452.284000 56.000000
460.271000 21.000000
460.291000 22.000000
478.291000 194.000000
480.307000 13.000000
516.980000 3.000000
554.905000 4.000000
598.874000 4.000000
615.449000 3.000000
617.415000 8.000000
643.433000 4.000000
686.280000 4.000000
686.321000 9.000000
686.351000 6.000000
687.515000 6.000000
688.450000 356.000000
688.486000 2757.000000
688.582000 9.000000
689.476000 8.000000
689.518000 5.000000
703.423000 5.000000
703.455000 22.000000
712.468000 4.000000
762.446000 9.000000
762.479000 51.000000
762.505000 225.000000
762.535000 97.000000

>ms2peaks
152.995000 80.000000
168.043000 91.000000
224.066000 60.000000
225.176000 275.000000
225.187000 551.000000
225.197000 174.000000
227.201000 1803.000000
252.425000 62.000000
253.217000 3261.000000
255.227000 674.000000
255.241000 542.000000
281.249000 692.000000
283.256000 70.000000
284.253000 80.000000
284.273000 70.000000
285.263000 65.000000
303.228000 40.000000
329.238000 40.000000
391.229000 60.000000
392.230000 40.000000
393.222000 40.000000
420.260000 40.000000
421.258000 80.000000
437.266000 43.000000
438.263000 50.000000
452.282000 254.000000
460.272000 40.000000
462.290000 60.000000
478.281000 121.000000
480.302000 60.000000
491.267000 20.000000
673.474000 33.000000
674.483000 33.000000
675.437000 50.000000
675.484000 274.000000
675.533000 72.000000
686.281000 20.000000
686.419000 21.000000
687.516000 20.000000
688.426000 135.000000
688.482000 3708.000000
688.508000 919.000000
688.547000 170.000000
689.470000 21.000000
702.293000 23.000000
702.495000 20.000000
703.457000 40.000000
712.492000 40.000000
747.528000 43.000000
762.491000 194.000000
762.522000 460.000000
762.548000 224.000000

>ms2peaks
78.959000 15.000000
152.991000 9.000000
153.092000 10.000000
168.043000 51.000000
199.167000 18.000000
224.071000 50.000000
225.186000 146.000000
226.492000 9.000000
227.201000 2754.000000
228.207000 6.000000
241.217000 8.000000
242.079000 9.000000
252.424000 14.000000
253.216000 1741.000000
255.231000 182.000000
279.222000 5.000000
279.236000 11.000000
281.217000 6.000000
281.235000 9.000000
281.249000 25.000000
283.240000 24.000000
283.261000 5.000000
305.233000 10.000000
305.254000 15.000000
307.266000 5.000000
327.224000 30.000000
327.246000 17.000000
329.251000 14.000000
331.254000 8.000000
343.218000 18.000000
343.243000 5.000000
389.207000 7.000000
418.269000 10.000000
432.259000 5.000000
434.241000 7.000000
434.266000 28.000000
436.267000 8.000000
436.282000 25.000000
438.268000 5.000000
450.249000 6.000000
452.261000 33.000000
452.284000 56.000000
460.271000 21.000000
460.291000 22.000000
478.291000 194.000000
480.307000 13.000000
516.980000 3.000000
554.905000 4.000000
598.874000 4.000000
615.449000 3.000000
617.415000 8.000000
643.433000 4.000000
686.280000 4.000000
686.321000 9.000000
686.351000 6.000000
687.515000 6.000000
688.450000 356.000000
688.486000 2757.000000
688.582000 9.000000
689.476000 8.000000
689.518000 5.000000
703.423000 5.000000
703.455000 22.000000
712.468000 4.000000
762.446000 9.000000
762.479000 51.000000
762.505000 225.000000
762.535000 97.000000

>ms2peaks
152.995000 80.000000
168.043000 91.000000
224.066000 60.000000
225.176000 275.000000
225.187000 551.000000
225.197000 174.000000
227.201000 1803.000000
252.425000 62.000000
253.217000 3261.000000
255.227000 674.000000
255.241000 542.000000
281.249000 692.000000
283.256000 70.000000
284.253000 80.000000
284.273000 70.000000
285.263000 65.000000
303.228000 40.000000
329.238000 40.000000
391.229000 60.000000
392.230000 40.000000
393.222000 40.000000
420.260000 40.000000
421.258000 80.000000
437.266000 43.000000
438.263000 50.000000
452.282000 254.000000
460.272000 40.000000
462.290000 60.000000
478.281000 121.000000
480.302000 60.000000
491.267000 20.000000
673.474000 33.000000
674.483000 33.000000
675.437000 50.000000
675.484000 274.000000
675.533000 72.000000
686.281000 20.000000
686.419000 21.000000
687.516000 20.000000
688.426000 135.000000
688.482000 3708.000000
688.508000 919.000000
688.547000 170.000000
689.470000 21.000000
702.293000 23.000000
702.495000 20.000000
703.457000 40.000000
712.492000 40.000000
747.528000 43.000000
762.491000 194.000000
762.522000 460.000000
762.548000 224.000000

