>compound LQB5207636
>parentmass 786.50445
>ionization [M-H]-
>formula C45H74NO8P
>rt 536.282700
>profile qtof
#smiles_iso CCCCC/C=C\C/C=C\CCCCCCCC(=O)OCC(COP(=O)(O)OCCN)OC(=O)CC/C=C\C/C=C\C/C=C\C/C=C\C/C=C\C/C=C\CC
#smiles_can CCCCCC=CCC=CCCCCCCCC(=O)OCC(COP(=O)(O)OCCN)OC(=O)CCC=CCC=CCC=CCC=CCC=CCC=CCC
#inchikey HIZMZVSEIXACMP-LNYCXSEGSA-N
#pubchem_id 138168948
#mb_accession LQB00222,LQB00223,LQB00608,LQB00609

>ms2peaks
78.958000 213.000000
96.969000 71.000000
107.087000 172.000000
133.101000 92.000000
137.134000 91.000000
140.011000 713.000000
147.118000 60.000000
152.995000 70.000000
163.147000 84.000000
175.152000 71.000000
177.161000 142.000000
189.165000 91.000000
191.179000 183.000000
196.038000 907.000000
203.181000 63.000000
214.047000 102.000000
229.196000 1102.000000
241.193000 90.000000
249.185000 407.000000
255.213000 91.000000
278.365000 149.000000
279.232000 19120.000000
280.230000 32.000000
282.367000 35.000000
283.242000 8156.000000
283.273000 101.000000
297.217000 94.000000
309.224000 121.000000
325.216000 40.000000
326.207000 96.000000
327.232000 18694.000000
415.221000 40.000000
458.262000 729.000000
473.650000 42.000000
474.779000 41.000000
476.274000 3742.000000
506.261000 246.000000
506.290000 60.000000
524.269000 275.000000
564.987000 33.000000
653.613000 48.000000
698.479000 20.000000
699.500000 172.000000
768.563000 63.000000
783.556000 20.000000
784.013000 100.000000
785.543000 20.000000
786.429000 61.000000
786.504000 19437.000000
786.564000 172.000000
786.660000 45.000000
787.510000 53.000000

>ms2peaks
78.958000 205.000000
117.073000 50.000000
122.000000 60.000000
133.101000 60.000000
135.118000 80.000000
140.004000 102.000000
140.013000 356.000000
149.136000 70.000000
152.995000 235.000000
161.129000 50.000000
163.152000 73.000000
175.147000 60.000000
177.166000 173.000000
191.181000 163.000000
196.037000 920.000000
201.162000 60.000000
214.045000 50.000000
229.194000 775.000000
249.168000 60.000000
249.185000 254.000000
255.214000 70.000000
261.219000 70.000000
278.359000 87.000000
279.188000 56.000000
279.231000 15358.000000
281.248000 147.000000
282.368000 96.000000
283.241000 5979.000000
283.265000 925.000000
283.286000 75.000000
303.220000 141.000000
303.240000 142.000000
309.226000 103.000000
326.206000 157.000000
327.231000 14206.000000
415.226000 111.000000
417.229000 50.000000
419.249000 572.000000
419.270000 204.000000
433.233000 50.000000
437.238000 71.000000
437.264000 306.000000
437.282000 82.000000
458.241000 91.000000
458.264000 327.000000
458.282000 122.000000
476.251000 625.000000
476.274000 2377.000000
485.917000 20.000000
492.349000 23.000000
500.271000 33.000000
506.263000 155.000000
524.265000 112.000000
524.287000 143.000000
541.325000 52.000000
699.437000 71.000000
699.458000 204.000000
699.479000 377.000000
699.499000 816.000000
699.540000 80.000000
712.491000 20.000000
768.525000 23.000000
784.007000 83.000000
784.525000 22.000000
786.503000 15485.000000
786.592000 42.000000
787.476000 60.000000
787.547000 45.000000

>ms2peaks
78.958000 213.000000
96.969000 71.000000
107.087000 172.000000
133.101000 92.000000
137.134000 91.000000
140.011000 713.000000
147.118000 60.000000
152.995000 70.000000
163.147000 84.000000
175.152000 71.000000
177.161000 142.000000
189.165000 91.000000
191.179000 183.000000
196.038000 907.000000
203.181000 63.000000
214.047000 102.000000
229.196000 1102.000000
241.193000 90.000000
249.185000 407.000000
255.213000 91.000000
278.365000 149.000000
279.232000 19120.000000
280.230000 32.000000
282.367000 35.000000
283.242000 8156.000000
283.273000 101.000000
297.217000 94.000000
309.224000 121.000000
325.216000 40.000000
326.207000 96.000000
327.232000 18694.000000
415.221000 40.000000
458.262000 729.000000
473.650000 42.000000
474.779000 41.000000
476.274000 3742.000000
506.261000 246.000000
506.290000 60.000000
524.269000 275.000000
564.987000 33.000000
653.613000 48.000000
698.479000 20.000000
699.500000 172.000000
768.563000 63.000000
783.556000 20.000000
784.013000 100.000000
785.543000 20.000000
786.429000 61.000000
786.504000 19437.000000
786.564000 172.000000
786.660000 45.000000
787.510000 53.000000

>ms2peaks
78.958000 205.000000
117.073000 50.000000
122.000000 60.000000
133.101000 60.000000
135.118000 80.000000
140.004000 102.000000
140.013000 356.000000
149.136000 70.000000
152.995000 235.000000
161.129000 50.000000
163.152000 73.000000
175.147000 60.000000
177.166000 173.000000
191.181000 163.000000
196.037000 920.000000
201.162000 60.000000
214.045000 50.000000
229.194000 775.000000
249.168000 60.000000
249.185000 254.000000
255.214000 70.000000
261.219000 70.000000
278.359000 87.000000
279.188000 56.000000
279.231000 15358.000000
281.248000 147.000000
282.368000 96.000000
283.241000 5979.000000
283.265000 925.000000
283.286000 75.000000
303.220000 141.000000
303.240000 142.000000
309.226000 103.000000
326.206000 157.000000
327.231000 14206.000000
415.226000 111.000000
417.229000 50.000000
419.249000 572.000000
419.270000 204.000000
433.233000 50.000000
437.238000 71.000000
437.264000 306.000000
437.282000 82.000000
458.241000 91.000000
458.264000 327.000000
458.282000 122.000000
476.251000 625.000000
476.274000 2377.000000
485.917000 20.000000
492.349000 23.000000
500.271000 33.000000
506.263000 155.000000
524.265000 112.000000
524.287000 143.000000
541.325000 52.000000
699.437000 71.000000
699.458000 204.000000
699.479000 377.000000
699.499000 816.000000
699.540000 80.000000
712.491000 20.000000
768.525000 23.000000
784.007000 83.000000
784.525000 22.000000
786.503000 15485.000000
786.592000 42.000000
787.476000 60.000000
787.547000 45.000000

