>compound LQB5181835
>parentmass 738.5031
>ionization [M-H]-
>formula C41H74NO8P
>rt 566.100120
>profile qtof
#smiles_iso CCCCCCCCCCCCCCCC(=O)OCC(COP(=O)(O)OCCN)OC(=O)CCCCCC/C=C\C/C=C\C/C=C\C/C=C\CC
#smiles_can CCCCCCCCCCCCCCCC(=O)OCC(COP(=O)(O)OCCN)OC(=O)CCCCCCC=CCC=CCC=CCC=CCC
#inchikey NQIMLWFRWGTTOZ-JAXHXWBXSA-N
#pubchem_id 138221545
#mb_accession LQB00178,LQB00564

>ms2
78.959000 1154.000000
96.968000 173.000000
121.998000 194.000000
140.012000 2555.000000
141.093000 73.000000
152.996000 183.000000
163.076000 162.000000
177.093000 337.000000
178.034000 81.000000
179.180000 102.000000
191.116000 90.000000
191.180000 71.000000
196.037000 4525.000000
205.124000 81.000000
205.195000 2349.000000
214.047000 521.000000
217.191000 131.000000
217.207000 111.000000
219.136000 131.000000
225.187000 81.000000
231.213000 501.000000
254.432000 376.000000
255.233000 76104.000000
257.226000 123.000000
258.431000 68.000000
259.210000 147.000000
259.242000 12624.000000
267.212000 184.000000
283.210000 53.000000
285.218000 724.000000
285.232000 378.000000
301.211000 307.000000
302.280000 622.000000
302.308000 81.000000
303.105000 46.000000
303.148000 238.000000
303.231000 135795.000000
303.662000 44.000000
303.730000 48.000000
304.238000 120.000000
353.320000 86.000000
377.312000 91.000000
378.235000 130.000000
391.217000 141.000000
392.389000 60.000000
426.241000 81.000000
432.904000 51.000000
434.259000 1678.000000
434.275000 1120.000000
450.861000 100.000000
452.214000 61.000000
452.275000 14147.000000
482.237000 122.000000
482.258000 520.000000
482.276000 429.000000
500.260000 143.000000
500.277000 733.000000
500.316000 60.000000
511.460000 112.000000
519.620000 20.000000
541.579000 20.000000
601.460000 70.000000
607.190000 86.000000
648.017000 20.000000
660.587000 63.000000
695.448000 30.000000
736.140000 142.000000
736.175000 132.000000
736.212000 80.000000
737.356000 23.000000
737.579000 57.000000
737.995000 23.000000
738.499000 37547.000000
739.106000 23.000000
739.388000 26.000000
739.458000 63.000000
739.524000 85.000000
739.934000 33.000000
740.369000 26.000000
741.171000 33.000000

>ms2
78.959000 1154.000000
96.968000 173.000000
121.998000 194.000000
140.012000 2555.000000
141.093000 73.000000
152.996000 183.000000
163.076000 162.000000
177.093000 337.000000
178.034000 81.000000
179.180000 102.000000
191.116000 90.000000
191.180000 71.000000
196.037000 4525.000000
205.124000 81.000000
205.195000 2349.000000
214.047000 521.000000
217.191000 131.000000
217.207000 111.000000
219.136000 131.000000
225.187000 81.000000
231.213000 501.000000
254.432000 376.000000
255.233000 76104.000000
257.226000 123.000000
258.431000 68.000000
259.210000 147.000000
259.242000 12624.000000
267.212000 184.000000
283.210000 53.000000
285.218000 724.000000
285.232000 378.000000
301.211000 307.000000
302.280000 622.000000
302.308000 81.000000
303.105000 46.000000
303.148000 238.000000
303.231000 135795.000000
303.662000 44.000000
303.730000 48.000000
304.238000 120.000000
353.320000 86.000000
377.312000 91.000000
378.235000 130.000000
391.217000 141.000000
392.389000 60.000000
426.241000 81.000000
432.904000 51.000000
434.259000 1678.000000
434.275000 1120.000000
450.861000 100.000000
452.214000 61.000000
452.275000 14147.000000
482.237000 122.000000
482.258000 520.000000
482.276000 429.000000
500.260000 143.000000
500.277000 733.000000
500.316000 60.000000
511.460000 112.000000
519.620000 20.000000
541.579000 20.000000
601.460000 70.000000
607.190000 86.000000
648.017000 20.000000
660.587000 63.000000
695.448000 30.000000
736.140000 142.000000
736.175000 132.000000
736.212000 80.000000
737.356000 23.000000
737.579000 57.000000
737.995000 23.000000
738.499000 37547.000000
739.106000 23.000000
739.388000 26.000000
739.458000 63.000000
739.524000 85.000000
739.934000 33.000000
740.369000 26.000000
741.171000 33.000000

