>compound LQB5326648
>parentmass 764.51925
>ionization [M-H]-
>formula C43H76NO8P
>rt 586.269450
>profile qtof
#smiles_iso CCCCCCCCCCCCCCCCCC(=O)OCC(COP(=O)(O)OCCN)OC(=O)CCC/C=C\C/C=C\C/C=C\C/C=C\C/C=C\CC
#smiles_can CCCCCCCCCCCCCCCCCC(=O)OCC(COP(=O)(O)OCCN)OC(=O)CCCC=CCC=CCC=CCC=CCC=CCC
#inchikey MOJMRZJNAPRFBD-GLWDABGQSA-N
#pubchem_id 138212599
#mb_accession LQB00201,LQB00202,LQB00587,LQB00588

>ms2peaks
78.959000 346.000000
96.967000 80.000000
105.070000 83.000000
107.087000 80.000000
117.074000 120.000000
122.000000 173.000000
140.011000 1484.000000
149.129000 60.000000
151.145000 102.000000
152.995000 60.000000
161.138000 63.000000
163.080000 91.000000
163.147000 81.000000
177.090000 185.000000
177.157000 110.000000
177.171000 60.000000
178.032000 91.000000
181.126000 90.000000
187.152000 60.000000
189.159000 61.000000
193.120000 71.000000
195.132000 75.000000
196.037000 3036.000000
203.179000 2710.000000
214.048000 286.000000
215.178000 204.000000
217.119000 110.000000
223.157000 174.000000
223.170000 439.000000
229.187000 101.000000
229.197000 245.000000
231.137000 81.000000
237.220000 116.000000
245.151000 132.000000
255.233000 123.000000
256.425000 101.000000
257.226000 13007.000000
265.192000 121.000000
265.257000 83.000000
271.208000 112.000000
280.262000 244.000000
281.239000 110.000000
282.375000 254.000000
283.186000 91.000000
283.204000 330.000000
283.263000 57907.000000
285.250000 58.000000
299.202000 101.000000
300.276000 229.000000
300.929000 58.000000
301.093000 77.000000
301.215000 70174.000000
302.216000 70.000000
303.230000 80.000000
329.239000 81.000000
406.268000 122.000000
419.251000 60.000000
424.222000 93.000000
462.294000 1917.000000
478.795000 30.000000
480.217000 100.000000
480.237000 163.000000
480.253000 278.000000
480.307000 10482.000000
488.486000 90.000000
498.258000 664.000000
504.454000 20.000000
512.502000 20.000000
567.504000 93.000000
591.493000 70.000000
690.534000 30.000000
762.077000 50.000000
762.123000 122.000000
762.151000 30.000000
762.246000 23.000000
763.517000 24.000000
764.337000 45.000000
764.512000 32832.000000
765.243000 29.000000
765.522000 119.000000

>ms2peaks
78.959000 581.000000
83.051000 72.000000
93.070000 61.000000
96.964000 101.000000
117.071000 90.000000
122.002000 163.000000
137.137000 98.000000
140.011000 1529.000000
149.133000 101.000000
151.148000 193.000000
152.999000 61.000000
163.076000 90.000000
163.148000 141.000000
165.165000 75.000000
167.105000 60.000000
175.146000 80.000000
177.090000 121.000000
177.167000 170.000000
178.025000 100.000000
196.037000 2350.000000
203.099000 78.000000
203.179000 1922.000000
214.046000 223.000000
214.061000 70.000000
215.184000 161.000000
217.120000 80.000000
223.168000 377.000000
229.196000 234.000000
231.136000 130.000000
245.150000 80.000000
255.208000 83.000000
255.234000 99.000000
256.420000 71.000000
257.226000 11009.000000
265.195000 62.000000
271.207000 101.000000
280.260000 44.000000
282.370000 160.000000
282.390000 101.000000
283.203000 183.000000
283.264000 48292.000000
283.373000 21.000000
284.265000 121.000000
299.207000 121.000000
300.277000 306.000000
301.215000 61247.000000
329.243000 40.000000
381.203000 101.000000
381.364000 80.000000
406.270000 55.000000
419.258000 50.000000
424.228000 73.000000
462.263000 133.000000
462.295000 1714.000000
478.517000 20.000000
478.729000 27.000000
478.779000 20.000000
480.234000 215.000000
480.250000 357.000000
480.305000 9580.000000
480.364000 53.000000
480.882000 21.000000
498.248000 489.000000
498.268000 143.000000
498.286000 61.000000
529.494000 80.000000
628.537000 20.000000
762.085000 133.000000
762.116000 131.000000
762.160000 75.000000
763.553000 30.000000
764.278000 43.000000
764.380000 35.000000
764.515000 33977.000000
765.118000 23.000000
765.248000 28.000000
765.494000 68.000000
765.541000 103.000000
768.555000 33.000000

>ms2peaks
78.959000 346.000000
96.967000 80.000000
105.070000 83.000000
107.087000 80.000000
117.074000 120.000000
122.000000 173.000000
140.011000 1484.000000
149.129000 60.000000
151.145000 102.000000
152.995000 60.000000
161.138000 63.000000
163.080000 91.000000
163.147000 81.000000
177.090000 185.000000
177.157000 110.000000
177.171000 60.000000
178.032000 91.000000
181.126000 90.000000
187.152000 60.000000
189.159000 61.000000
193.120000 71.000000
195.132000 75.000000
196.037000 3036.000000
203.179000 2710.000000
214.048000 286.000000
215.178000 204.000000
217.119000 110.000000
223.157000 174.000000
223.170000 439.000000
229.187000 101.000000
229.197000 245.000000
231.137000 81.000000
237.220000 116.000000
245.151000 132.000000
255.233000 123.000000
256.425000 101.000000
257.226000 13007.000000
265.192000 121.000000
265.257000 83.000000
271.208000 112.000000
280.262000 244.000000
281.239000 110.000000
282.375000 254.000000
283.186000 91.000000
283.204000 330.000000
283.263000 57907.000000
285.250000 58.000000
299.202000 101.000000
300.276000 229.000000
300.929000 58.000000
301.093000 77.000000
301.215000 70174.000000
302.216000 70.000000
303.230000 80.000000
329.239000 81.000000
406.268000 122.000000
419.251000 60.000000
424.222000 93.000000
462.294000 1917.000000
478.795000 30.000000
480.217000 100.000000
480.237000 163.000000
480.253000 278.000000
480.307000 10482.000000
488.486000 90.000000
498.258000 664.000000
504.454000 20.000000
512.502000 20.000000
567.504000 93.000000
591.493000 70.000000
690.534000 30.000000
762.077000 50.000000
762.123000 122.000000
762.151000 30.000000
762.246000 23.000000
763.517000 24.000000
764.337000 45.000000
764.512000 32832.000000
765.243000 29.000000
765.522000 119.000000

>ms2peaks
78.959000 581.000000
83.051000 72.000000
93.070000 61.000000
96.964000 101.000000
117.071000 90.000000
122.002000 163.000000
137.137000 98.000000
140.011000 1529.000000
149.133000 101.000000
151.148000 193.000000
152.999000 61.000000
163.076000 90.000000
163.148000 141.000000
165.165000 75.000000
167.105000 60.000000
175.146000 80.000000
177.090000 121.000000
177.167000 170.000000
178.025000 100.000000
196.037000 2350.000000
203.099000 78.000000
203.179000 1922.000000
214.046000 223.000000
214.061000 70.000000
215.184000 161.000000
217.120000 80.000000
223.168000 377.000000
229.196000 234.000000
231.136000 130.000000
245.150000 80.000000
255.208000 83.000000
255.234000 99.000000
256.420000 71.000000
257.226000 11009.000000
265.195000 62.000000
271.207000 101.000000
280.260000 44.000000
282.370000 160.000000
282.390000 101.000000
283.203000 183.000000
283.264000 48292.000000
283.373000 21.000000
284.265000 121.000000
299.207000 121.000000
300.277000 306.000000
301.215000 61247.000000
329.243000 40.000000
381.203000 101.000000
381.364000 80.000000
406.270000 55.000000
419.258000 50.000000
424.228000 73.000000
462.263000 133.000000
462.295000 1714.000000
478.517000 20.000000
478.729000 27.000000
478.779000 20.000000
480.234000 215.000000
480.250000 357.000000
480.305000 9580.000000
480.364000 53.000000
480.882000 21.000000
498.248000 489.000000
498.268000 143.000000
498.286000 61.000000
529.494000 80.000000
628.537000 20.000000
762.085000 133.000000
762.116000 131.000000
762.160000 75.000000
763.553000 30.000000
764.278000 43.000000
764.380000 35.000000
764.515000 33977.000000
765.118000 23.000000
765.248000 28.000000
765.494000 68.000000
765.541000 103.000000
768.555000 33.000000

