>compound LQB5795491
>parentmass 582.5065
>ionization [M+CH3COOH-H]-
>formula C33H65NO3
>rt 561.978480
>profile qtof
#smiles_iso CCCCCCCCCCCCCCCC(=O)NC(CO)C(/C=C/CCCCCCCCCCCC)O
#smiles_can CCCCCCCCCCCCCCCC(=O)NC(CO)C(C=CCCCCCCCCCCCC)O
#inchikey KXVLPPCAUYSNGY-BYCLXTJYSA-N
#pubchem_id 138198887
#mb_accession LQB00025,LQB00026,LQB00411,LQB00412

>ms2
223.197000 91.000000
223.207000 132.000000
223.220000 60.000000
237.223000 214.000000
249.212000 76.000000
249.227000 100.000000
252.235000 63.000000
254.242000 71.000000
254.249000 152.000000
254.257000 60.000000
255.226000 71.000000
255.239000 121.000000
266.244000 121.000000
280.263000 886.000000
280.280000 81.000000
296.252000 131.000000
296.260000 61.000000
296.271000 40.000000
298.272000 20.000000
303.247000 20.000000
474.458000 162.000000
490.454000 101.000000
492.441000 20.000000
492.476000 101.000000
520.840000 23.000000
522.474000 928.000000
522.493000 499.000000
522.526000 40.000000

>ms2
223.205000 163.000000
225.223000 20.000000
236.239000 20.000000
237.220000 153.000000
249.220000 161.000000
253.250000 33.000000
254.246000 142.000000
255.228000 50.000000
266.248000 91.000000
280.264000 398.000000
280.279000 81.000000
296.249000 63.000000
474.468000 91.000000
490.461000 90.000000
492.471000 162.000000
504.477000 20.000000
522.482000 816.000000
522.498000 398.000000
522.534000 40.000000

>ms2
223.197000 91.000000
223.207000 132.000000
223.220000 60.000000
237.223000 214.000000
249.212000 76.000000
249.227000 100.000000
252.235000 63.000000
254.242000 71.000000
254.249000 152.000000
254.257000 60.000000
255.226000 71.000000
255.239000 121.000000
266.244000 121.000000
280.263000 886.000000
280.280000 81.000000
296.252000 131.000000
296.260000 61.000000
296.271000 40.000000
298.272000 20.000000
303.247000 20.000000
474.458000 162.000000
490.454000 101.000000
492.441000 20.000000
492.476000 101.000000
520.840000 23.000000
522.474000 928.000000
522.493000 499.000000
522.526000 40.000000

>ms2
223.205000 163.000000
225.223000 20.000000
236.239000 20.000000
237.220000 153.000000
249.220000 161.000000
253.250000 33.000000
254.246000 142.000000
255.228000 50.000000
266.248000 91.000000
280.264000 398.000000
280.279000 81.000000
296.249000 63.000000
474.468000 91.000000
490.461000 90.000000
492.471000 162.000000
504.477000 20.000000
522.482000 816.000000
522.498000 398.000000
522.534000 40.000000

