>compound LQB5016676
>parentmass 802.5588
>ionization [M+CH3COOH-H]-
>formula C41H78NO8P
>rt 540.359700
>profile qtof
#smiles_iso CCCCCCCCCCCCCCC(=O)OCC(COP(=O)([O-])OCC[N+](C)(C)C)OC(=O)CCCCCCC/C=C\C/C=C\CCCCC
#smiles_can CCCCCCCCCCCCCCC(=O)OCC(COP(=O)([O-])OCC[N+](C)(C)C)OC(=O)CCCCCCCC=CCC=CCCCCC
#inchikey DGBYUHHIADYUMU-AKMCNLDWSA-N
#pubchem_id 24778665
#mb_accession LQB00094,LQB00480

>ms2
168.038000 40.000000
224.067000 30.000000
225.221000 40.000000
241.215000 683.000000
255.230000 60.000000
265.221000 132.000000
279.230000 2331.000000
280.245000 93.000000
283.265000 40.000000
321.244000 20.000000
404.655000 20.000000
466.289000 101.000000
466.308000 60.000000
479.264000 20.000000
486.291000 20.000000
504.312000 40.000000
534.503000 30.000000
552.502000 100.000000
720.466000 62.000000
726.235000 31.000000
728.517000 2451.000000
741.527000 30.000000
742.421000 20.000000
742.508000 139.000000
743.480000 50.000000
770.479000 20.000000
802.508000 53.000000
802.557000 122.000000
802.585000 71.000000

>ms2
168.038000 40.000000
224.067000 30.000000
225.221000 40.000000
241.215000 683.000000
255.230000 60.000000
265.221000 132.000000
279.230000 2331.000000
280.245000 93.000000
283.265000 40.000000
321.244000 20.000000
404.655000 20.000000
466.289000 101.000000
466.308000 60.000000
479.264000 20.000000
486.291000 20.000000
504.312000 40.000000
534.503000 30.000000
552.502000 100.000000
720.466000 62.000000
726.235000 31.000000
728.517000 2451.000000
741.527000 30.000000
742.421000 20.000000
742.508000 139.000000
743.480000 50.000000
770.479000 20.000000
802.508000 53.000000
802.557000 122.000000
802.585000 71.000000

