>compound LQB5972156
>parentmass 550.3483
>ionization [M-H]-
>formula C27H54NO8P
>rt 447.036060
>profile qtof
#smiles_iso CCCCCCCCCCCCCCCCCC(=O)OC(COC(=O)CCC)COP(=O)(O)OCCN
#smiles_can CCCCCCCCCCCCCCCCCC(=O)OC(COC(=O)CCC)COP(=O)(O)OCCN
#inchikey UBMDHNXDDLIHNP-UHFFFAOYSA-N
#pubchem_id 138269195
#mb_accession LQB00235,LQB00621

>ms2
87.041000 102.000000
87.045000 102.000000
87.048000 132.000000
196.038000 40.000000
266.078000 30.000000
283.264000 775.000000
462.296000 33.000000
480.309000 53.000000
550.332000 51.000000
550.343000 50.000000
550.354000 80.000000

>ms2
87.041000 102.000000
87.045000 102.000000
87.048000 132.000000
196.038000 40.000000
266.078000 30.000000
283.264000 775.000000
462.296000 33.000000
480.309000 53.000000
550.332000 51.000000
550.343000 50.000000
550.354000 80.000000

