>compound LQB5652424
>parentmass 754.688
>ionization [M+CH3COOH-H]-
>formula C44H89NO4
>rt 803.306400
>profile qtof
#smiles_iso CCCCCCCCCCCCCCCCCCCCCCCC(=O)NC(CO)C(C(CCCCCCCCCCCCCCCC)O)O
#smiles_can CCCCCCCCCCCCCCCCCCCCCCCC(=O)NC(CO)C(C(CCCCCCCCCCCCCCCC)O)O
#inchikey DFLSLCOGWUJURA-UHFFFAOYSA-N
#pubchem_id 10212158
#mb_accession LQB00022,LQB00408

>ms2peaks
237.219000 90.000000
246.979000 131.000000
253.254000 111.000000
266.252000 30.000000
267.232000 131.000000
267.270000 40.000000
283.265000 214.000000
295.263000 1274.000000
300.986000 70.000000
307.264000 132.000000
308.287000 121.000000
308.303000 80.000000
312.291000 100.000000
328.991000 100.000000
338.353000 80.000000
339.336000 60.000000
349.347000 202.000000
363.364000 60.000000
364.357000 63.000000
366.362000 244.000000
366.382000 164.000000
367.353000 1225.000000
370.328000 115.000000
377.364000 80.000000
380.396000 151.000000
381.369000 144.000000
382.992000 73.000000
392.363000 101.000000
392.385000 438.000000
394.380000 73.000000
395.390000 81.000000
404.385000 121.000000
406.360000 60.000000
406.393000 111.000000
406.414000 80.000000
407.384000 70.000000
407.412000 223.000000
408.364000 92.000000
408.380000 550.000000
408.394000 163.000000
410.396000 2441.000000
410.981000 60.000000
422.397000 1703.000000
422.425000 112.000000
425.377000 61.000000
436.411000 129.000000
438.426000 246.000000
438.445000 60.000000
450.428000 201.000000
529.510000 60.000000
547.004000 40.000000
615.615000 91.000000
628.635000 140.000000
631.596000 50.000000
633.630000 70.000000
645.652000 40.000000
646.636000 158.000000
650.627000 50.000000
658.620000 204.000000
658.642000 306.000000
658.672000 154.000000
662.613000 86.000000
662.637000 191.000000
662.671000 60.000000
664.650000 85.000000
676.638000 162.000000
676.654000 102.000000
676.674000 122.000000
692.408000 43.000000
692.494000 50.000000
692.647000 142.000000
693.650000 201.000000
694.591000 116.000000
694.637000 3092.000000
694.660000 9413.000000
694.682000 2091.000000
694.742000 55.000000
694.886000 20.000000
695.655000 27.000000
721.683000 60.000000
754.623000 40.000000
754.703000 40.000000

>ms2peaks
237.219000 90.000000
246.979000 131.000000
253.254000 111.000000
266.252000 30.000000
267.232000 131.000000
267.270000 40.000000
283.265000 214.000000
295.263000 1274.000000
300.986000 70.000000
307.264000 132.000000
308.287000 121.000000
308.303000 80.000000
312.291000 100.000000
328.991000 100.000000
338.353000 80.000000
339.336000 60.000000
349.347000 202.000000
363.364000 60.000000
364.357000 63.000000
366.362000 244.000000
366.382000 164.000000
367.353000 1225.000000
370.328000 115.000000
377.364000 80.000000
380.396000 151.000000
381.369000 144.000000
382.992000 73.000000
392.363000 101.000000
392.385000 438.000000
394.380000 73.000000
395.390000 81.000000
404.385000 121.000000
406.360000 60.000000
406.393000 111.000000
406.414000 80.000000
407.384000 70.000000
407.412000 223.000000
408.364000 92.000000
408.380000 550.000000
408.394000 163.000000
410.396000 2441.000000
410.981000 60.000000
422.397000 1703.000000
422.425000 112.000000
425.377000 61.000000
436.411000 129.000000
438.426000 246.000000
438.445000 60.000000
450.428000 201.000000
529.510000 60.000000
547.004000 40.000000
615.615000 91.000000
628.635000 140.000000
631.596000 50.000000
633.630000 70.000000
645.652000 40.000000
646.636000 158.000000
650.627000 50.000000
658.620000 204.000000
658.642000 306.000000
658.672000 154.000000
662.613000 86.000000
662.637000 191.000000
662.671000 60.000000
664.650000 85.000000
676.638000 162.000000
676.654000 102.000000
676.674000 122.000000
692.408000 43.000000
692.494000 50.000000
692.647000 142.000000
693.650000 201.000000
694.591000 116.000000
694.637000 3092.000000
694.660000 9413.000000
694.682000 2091.000000
694.742000 55.000000
694.886000 20.000000
695.655000 27.000000
721.683000 60.000000
754.623000 40.000000
754.703000 40.000000

