>compound LQB6403045
>parentmass 714.6228
>ionization [M+CH3COOH-H]-
>formula C40H81NO5
>rt 743.309400
>profile qtof
#smiles_iso CCCCCCCCCCCCCCCCCCCCC(C(=O)NC(CO)C(C(CCCCCCCCCCCCCC)O)O)O
#smiles_can CCCCCCCCCCCCCCCCCCCCC(C(=O)NC(CO)C(C(CCCCCCCCCCCCCC)O)O)O
#inchikey XJDLBNONNWFVMN-UHFFFAOYSA-N
#pubchem_id 25201875
#mb_accession LQB00004,LQB00390

>ms2
88.041000 13.000000
141.016000 25.000000
223.014000 17.000000
225.225000 30.000000
241.221000 23.000000
253.217000 33.000000
255.232000 208.000000
267.233000 216.000000
268.263000 16.000000
278.248000 16.000000
279.233000 40.000000
280.261000 33.000000
284.260000 99.000000
305.024000 26.000000
308.256000 28.000000
309.316000 694.000000
316.281000 64.000000
337.308000 171.000000
339.327000 27.000000
350.344000 74.000000
354.336000 176.000000
354.352000 27.000000
355.320000 946.000000
362.346000 54.000000
380.350000 128.000000
382.370000 13.000000
386.938000 13.000000
387.026000 23.000000
392.355000 16.000000
396.344000 68.000000
398.361000 567.000000
410.361000 428.000000
468.938000 13.000000
550.874000 10.000000
588.564000 30.000000
606.584000 10.000000
618.570000 51.000000
618.598000 41.000000
622.569000 54.000000
622.602000 13.000000
624.587000 16.000000
636.562000 20.000000
636.595000 79.000000
636.628000 16.000000
652.535000 26.000000
654.388000 10.000000
654.602000 6927.000000
654.678000 16.000000
654.723000 22.000000
655.595000 20.000000
714.486000 7.000000

>ms2
88.041000 13.000000
141.016000 25.000000
223.014000 17.000000
225.225000 30.000000
241.221000 23.000000
253.217000 33.000000
255.232000 208.000000
267.233000 216.000000
268.263000 16.000000
278.248000 16.000000
279.233000 40.000000
280.261000 33.000000
284.260000 99.000000
305.024000 26.000000
308.256000 28.000000
309.316000 694.000000
316.281000 64.000000
337.308000 171.000000
339.327000 27.000000
350.344000 74.000000
354.336000 176.000000
354.352000 27.000000
355.320000 946.000000
362.346000 54.000000
380.350000 128.000000
382.370000 13.000000
386.938000 13.000000
387.026000 23.000000
392.355000 16.000000
396.344000 68.000000
398.361000 567.000000
410.361000 428.000000
468.938000 13.000000
550.874000 10.000000
588.564000 30.000000
606.584000 10.000000
618.570000 51.000000
618.598000 41.000000
622.569000 54.000000
622.602000 13.000000
624.587000 16.000000
636.562000 20.000000
636.595000 79.000000
636.628000 16.000000
652.535000 26.000000
654.388000 10.000000
654.602000 6927.000000
654.678000 16.000000
654.723000 22.000000
655.595000 20.000000
714.486000 7.000000

