>compound LQB6858875
>parentmass 766.538
>ionization [M-H]-
>formula C43H78NO8P
>rt 587.592540
>profile qtof
#smiles_iso CCCCC/C=C\C/C=C\CCCCCCCCCC(=O)OC(COC(=O)CCCCCCC/C=C\C/C=C\CCCCC)COP(=O)(O)OCCN
#smiles_can CCCCCC=CCC=CCCCCCCCCCC(=O)OC(COC(=O)CCCCCCCC=CCC=CCCCCC)COP(=O)(O)OCCN
#inchikey ZVMOCFAAUCJXQU-QWRCKZSHSA-N
#pubchem_id 138317509
#mb_accession LQB00220,LQB00606

>ms2
140.010000 141.000000
196.035000 121.000000
197.041000 53.000000
203.177000 91.000000
204.183000 33.000000
237.226000 95.000000
257.225000 235.000000
258.230000 421.000000
259.232000 54.000000
279.228000 847.000000
279.239000 378.000000
280.265000 73.000000
281.248000 317.000000
283.264000 959.000000
284.268000 918.000000
284.297000 40.000000
285.268000 449.000000
301.192000 50.000000
301.216000 1254.000000
302.208000 200.000000
302.222000 1173.000000
303.222000 857.000000
305.246000 665.000000
307.264000 622.000000
462.297000 33.000000
463.300000 50.000000
464.290000 50.000000
476.275000 50.000000
478.308000 50.000000
480.309000 121.000000
481.313000 193.000000
482.315000 171.000000
486.301000 33.000000
488.474000 43.000000
502.295000 23.000000
504.310000 50.000000
716.579000 20.000000
764.125000 50.000000
765.540000 21.000000
765.762000 26.000000
766.462000 41.000000
766.521000 3107.000000
766.552000 1582.000000
767.581000 20.000000

>ms2
140.010000 141.000000
196.035000 121.000000
197.041000 53.000000
203.177000 91.000000
204.183000 33.000000
237.226000 95.000000
257.225000 235.000000
258.230000 421.000000
259.232000 54.000000
279.228000 847.000000
279.239000 378.000000
280.265000 73.000000
281.248000 317.000000
283.264000 959.000000
284.268000 918.000000
284.297000 40.000000
285.268000 449.000000
301.192000 50.000000
301.216000 1254.000000
302.208000 200.000000
302.222000 1173.000000
303.222000 857.000000
305.246000 665.000000
307.264000 622.000000
462.297000 33.000000
463.300000 50.000000
464.290000 50.000000
476.275000 50.000000
478.308000 50.000000
480.309000 121.000000
481.313000 193.000000
482.315000 171.000000
486.301000 33.000000
488.474000 43.000000
502.295000 23.000000
504.310000 50.000000
716.579000 20.000000
764.125000 50.000000
765.540000 21.000000
765.762000 26.000000
766.462000 41.000000
766.521000 3107.000000
766.552000 1582.000000
767.581000 20.000000

