>compound LQB6024177
>parentmass 738.5031
>ionization [M-H]-
>formula C41H74NO8P
>rt 532.333140
>profile qtof
#smiles_iso CCCCC/C=C\C/C=C\CCCCCCCC(=O)OCC(COP(=O)(O)OCCN)OC(=O)CCCCCCC/C=C\C/C=C\CCCCC
#smiles_can CCCCCC=CCC=CCCCCCCCC(=O)OCC(COP(=O)(O)OCCN)OC(=O)CCCCCCCC=CCC=CCCCCC
#inchikey SSCDRSKJTAQNNB-MAZCIEHSSA-N
#pubchem_id 9546727
#mb_accession LQB00219,LQB00605

>ms2peaks
78.959000 152.000000
134.986000 70.000000
135.561000 40.000000
135.979000 367.000000
152.994000 40.000000
173.995000 70.000000
192.003000 366.000000
253.213000 70.000000
254.217000 123.000000
255.222000 50.000000
261.221000 96.000000
263.236000 50.000000
278.356000 141.000000
279.232000 30068.000000
281.242000 116.000000
282.386000 73.000000
283.262000 9271.000000
303.219000 51.000000
303.241000 72.000000
304.222000 80.000000
304.245000 90.000000
305.234000 101.000000
402.243000 61.000000
404.338000 50.000000
404.360000 131.000000
419.234000 60.000000
419.249000 110.000000
454.235000 500.000000
458.254000 480.000000
458.271000 327.000000
458.301000 95.000000
472.243000 100.000000
476.249000 214.000000
476.276000 633.000000
513.918000 20.000000
557.352000 51.000000
612.563000 50.000000
630.578000 50.000000
644.598000 20.000000
660.573000 101.000000
660.616000 151.000000
736.161000 53.000000
736.213000 45.000000
738.043000 33.000000
738.333000 20.000000
738.502000 19038.000000
738.959000 33.000000
739.515000 43.000000
739.675000 23.000000
741.831000 23.000000

>ms2peaks
78.959000 152.000000
134.986000 70.000000
135.561000 40.000000
135.979000 367.000000
152.994000 40.000000
173.995000 70.000000
192.003000 366.000000
253.213000 70.000000
254.217000 123.000000
255.222000 50.000000
261.221000 96.000000
263.236000 50.000000
278.356000 141.000000
279.232000 30068.000000
281.242000 116.000000
282.386000 73.000000
283.262000 9271.000000
303.219000 51.000000
303.241000 72.000000
304.222000 80.000000
304.245000 90.000000
305.234000 101.000000
402.243000 61.000000
404.338000 50.000000
404.360000 131.000000
419.234000 60.000000
419.249000 110.000000
454.235000 500.000000
458.254000 480.000000
458.271000 327.000000
458.301000 95.000000
472.243000 100.000000
476.249000 214.000000
476.276000 633.000000
513.918000 20.000000
557.352000 51.000000
612.563000 50.000000
630.578000 50.000000
644.598000 20.000000
660.573000 101.000000
660.616000 151.000000
736.161000 53.000000
736.213000 45.000000
738.043000 33.000000
738.333000 20.000000
738.502000 19038.000000
738.959000 33.000000
739.515000 43.000000
739.675000 23.000000
741.831000 23.000000

