>compound LQB6040985
>parentmass 748.491
>ionization [M-H]-
>formula C42H72NO8P
>rt 539.233020
>profile qtof
#smiles_iso CCCCCCCCCCCCCCC(=O)OCC(COP(=O)(O)OCCN)OC(=O)CC/C=C\C/C=C\C/C=C\C/C=C\C/C=C\C/C=C\CC
#smiles_can CCCCCCCCCCCCCCC(=O)OCC(COP(=O)(O)OCCN)OC(=O)CCC=CCC=CCC=CCC=CCC=CCC=CCC
#inchikey WIJRNOBSWIZHST-JTURFRPLSA-N
#pubchem_id 134775923
#mb_accession LQB00171,LQB00557

>ms2peaks
140.011000 40.000000
168.046000 70.000000
196.038000 50.000000
241.215000 408.000000
241.231000 91.000000
249.186000 20.000000
255.219000 40.000000
283.222000 40.000000
283.243000 182.000000
327.215000 42.000000
327.232000 398.000000
420.241000 33.000000
438.260000 131.000000
687.511000 101.000000
687.555000 163.000000
688.546000 255.000000
748.477000 316.000000
748.522000 131.000000

>ms2peaks
140.011000 40.000000
168.046000 70.000000
196.038000 50.000000
241.215000 408.000000
241.231000 91.000000
249.186000 20.000000
255.219000 40.000000
283.222000 40.000000
283.243000 182.000000
327.215000 42.000000
327.232000 398.000000
420.241000 33.000000
438.260000 131.000000
687.511000 101.000000
687.555000 163.000000
688.546000 255.000000
748.477000 316.000000
748.522000 131.000000

