>compound LQB6741999
>parentmass 883.53295
>ionization [M-H]-
>formula C47H81O13P
>rt 508.075050
>profile qtof
#smiles_iso CCCCCCCCCCCCCCCCCC(=O)OCC(COP(=O)(O)OC1C(C(C(C(C1O)O)O)O)O)OC(=O)CCC/C=C\C/C=C\C/C=C\C/C=C\C/C=C\CC
#smiles_can CCCCCCCCCCCCCCCCCC(=O)OCC(COP(=O)(O)OC1C(C(C(C(C1O)O)O)O)O)OC(=O)CCCC=CCC=CCC=CCC=CCC=CCC
#inchikey SUYDNPBYMBTSMM-GLWDABGQSA-N
#pubchem_id 138265138
#mb_accession LQB00309,LQB00310,LQB00695,LQB00696

>ms2peaks
78.959000 807.000000
96.968000 346.000000
151.149000 81.000000
152.996000 1878.000000
171.007000 130.000000
191.107000 81.000000
203.182000 584.000000
217.129000 68.000000
223.000000 3411.000000
223.172000 71.000000
224.202000 70.000000
229.190000 50.000000
240.260000 167.000000
241.012000 15547.000000
255.233000 67.000000
257.213000 523.000000
257.230000 2413.000000
259.023000 1715.000000
281.249000 141.000000
282.386000 130.000000
283.208000 107.000000
283.264000 24496.000000
284.266000 176.000000
297.036000 2878.000000
300.273000 110.000000
301.217000 15866.000000
302.219000 84.000000
303.228000 82.000000
315.046000 1101.000000
329.246000 60.000000
417.242000 110.000000
417.954000 87.000000
419.255000 11800.000000
420.251000 85.000000
437.207000 1419.000000
437.261000 641.000000
437.283000 183.000000
437.300000 112.000000
455.222000 90.000000
487.775000 43.000000
489.258000 40.000000
495.264000 40.000000
496.914000 40.000000
525.285000 51.000000
553.276000 43.000000
579.277000 50.000000
579.300000 102.000000
579.461000 40.000000
581.306000 15801.000000
582.323000 68.000000
599.225000 214.000000
599.243000 142.000000
599.262000 296.000000
599.321000 3706.000000
617.253000 193.000000
617.289000 202.000000
721.471000 202.000000
721.496000 132.000000
721.539000 30.000000
723.482000 253.000000
805.496000 30.000000
809.572000 90.000000
823.628000 41.000000
865.533000 50.000000
880.682000 102.000000
880.731000 612.000000
880.764000 520.000000
880.807000 163.000000
882.497000 60.000000
882.598000 109.000000
883.144000 66.000000
883.234000 73.000000
883.390000 134.000000
883.531000 146433.000000
883.953000 50.000000
884.448000 89.000000
884.540000 1241.000000
884.603000 101.000000
884.788000 50.000000
885.044000 63.000000
887.292000 50.000000

>ms2peaks
78.958000 724.000000
96.969000 141.000000
134.983000 81.000000
152.994000 1398.000000
171.002000 93.000000
203.180000 460.000000
223.002000 2333.000000
223.170000 102.000000
224.196000 100.000000
224.208000 70.000000
229.195000 70.000000
240.263000 127.000000
241.011000 10122.000000
255.231000 92.000000
257.215000 497.000000
257.228000 2062.000000
259.021000 969.000000
281.248000 52.000000
282.378000 85.000000
283.201000 83.000000
283.263000 15279.000000
284.268000 156.000000
297.038000 1581.000000
299.194000 51.000000
300.284000 74.000000
301.216000 10975.000000
303.227000 117.000000
315.045000 765.000000
417.235000 61.000000
417.941000 50.000000
419.256000 7881.000000
420.233000 71.000000
432.420000 70.000000
437.208000 990.000000
437.268000 673.000000
455.229000 80.000000
485.704000 30.000000
490.461000 30.000000
520.199000 30.000000
525.261000 30.000000
553.259000 30.000000
564.520000 30.000000
579.472000 64.000000
581.304000 10348.000000
599.227000 276.000000
599.257000 1436.000000
599.296000 1068.000000
599.323000 1590.000000
600.331000 30.000000
617.251000 82.000000
617.288000 131.000000
721.444000 60.000000
721.485000 90.000000
723.485000 70.000000
763.484000 33.000000
805.490000 23.000000
809.557000 63.000000
851.503000 40.000000
865.522000 55.000000
880.709000 244.000000
880.749000 215.000000
880.804000 81.000000
881.351000 42.000000
882.533000 53.000000
882.663000 40.000000
883.239000 55.000000
883.358000 70.000000
883.526000 112849.000000
883.714000 76.000000
884.047000 45.000000
884.535000 378.000000
884.591000 80.000000

>ms2peaks
78.959000 807.000000
96.968000 346.000000
151.149000 81.000000
152.996000 1878.000000
171.007000 130.000000
191.107000 81.000000
203.182000 584.000000
217.129000 68.000000
223.000000 3411.000000
223.172000 71.000000
224.202000 70.000000
229.190000 50.000000
240.260000 167.000000
241.012000 15547.000000
255.233000 67.000000
257.213000 523.000000
257.230000 2413.000000
259.023000 1715.000000
281.249000 141.000000
282.386000 130.000000
283.208000 107.000000
283.264000 24496.000000
284.266000 176.000000
297.036000 2878.000000
300.273000 110.000000
301.217000 15866.000000
302.219000 84.000000
303.228000 82.000000
315.046000 1101.000000
329.246000 60.000000
417.242000 110.000000
417.954000 87.000000
419.255000 11800.000000
420.251000 85.000000
437.207000 1419.000000
437.261000 641.000000
437.283000 183.000000
437.300000 112.000000
455.222000 90.000000
487.775000 43.000000
489.258000 40.000000
495.264000 40.000000
496.914000 40.000000
525.285000 51.000000
553.276000 43.000000
579.277000 50.000000
579.300000 102.000000
579.461000 40.000000
581.306000 15801.000000
582.323000 68.000000
599.225000 214.000000
599.243000 142.000000
599.262000 296.000000
599.321000 3706.000000
617.253000 193.000000
617.289000 202.000000
721.471000 202.000000
721.496000 132.000000
721.539000 30.000000
723.482000 253.000000
805.496000 30.000000
809.572000 90.000000
823.628000 41.000000
865.533000 50.000000
880.682000 102.000000
880.731000 612.000000
880.764000 520.000000
880.807000 163.000000
882.497000 60.000000
882.598000 109.000000
883.144000 66.000000
883.234000 73.000000
883.390000 134.000000
883.531000 146433.000000
883.953000 50.000000
884.448000 89.000000
884.540000 1241.000000
884.603000 101.000000
884.788000 50.000000
885.044000 63.000000
887.292000 50.000000

>ms2peaks
78.958000 724.000000
96.969000 141.000000
134.983000 81.000000
152.994000 1398.000000
171.002000 93.000000
203.180000 460.000000
223.002000 2333.000000
223.170000 102.000000
224.196000 100.000000
224.208000 70.000000
229.195000 70.000000
240.263000 127.000000
241.011000 10122.000000
255.231000 92.000000
257.215000 497.000000
257.228000 2062.000000
259.021000 969.000000
281.248000 52.000000
282.378000 85.000000
283.201000 83.000000
283.263000 15279.000000
284.268000 156.000000
297.038000 1581.000000
299.194000 51.000000
300.284000 74.000000
301.216000 10975.000000
303.227000 117.000000
315.045000 765.000000
417.235000 61.000000
417.941000 50.000000
419.256000 7881.000000
420.233000 71.000000
432.420000 70.000000
437.208000 990.000000
437.268000 673.000000
455.229000 80.000000
485.704000 30.000000
490.461000 30.000000
520.199000 30.000000
525.261000 30.000000
553.259000 30.000000
564.520000 30.000000
579.472000 64.000000
581.304000 10348.000000
599.227000 276.000000
599.257000 1436.000000
599.296000 1068.000000
599.323000 1590.000000
600.331000 30.000000
617.251000 82.000000
617.288000 131.000000
721.444000 60.000000
721.485000 90.000000
723.485000 70.000000
763.484000 33.000000
805.490000 23.000000
809.557000 63.000000
851.503000 40.000000
865.522000 55.000000
880.709000 244.000000
880.749000 215.000000
880.804000 81.000000
881.351000 42.000000
882.533000 53.000000
882.663000 40.000000
883.239000 55.000000
883.358000 70.000000
883.526000 112849.000000
883.714000 76.000000
884.047000 45.000000
884.535000 378.000000
884.591000 80.000000

