>compound LQB6372613
>parentmass 836.5413
>ionization [M+CH3COOH-H]-
>formula C44H76NO8P
>rt 516.128880
>profile qtof
#smiles_iso CCCCCCCCCCCCCC(=O)OCC(COP(=O)([O-])OCC[N+](C)(C)C)OC(=O)CC/C=C\C/C=C\C/C=C\C/C=C\C/C=C\C/C=C\CC
#smiles_can CCCCCCCCCCCCCC(=O)OCC(COP(=O)([O-])OCC[N+](C)(C)C)OC(=O)CCC=CCC=CCC=CCC=CCC=CCC=CCC
#inchikey HAIPHKFLSXSDAN-FEOZPROASA-N
#pubchem_id 24778640
#mb_accession LQB00091,LQB00477

>ms2peaks
78.959000 80.000000
121.100000 50.000000
152.997000 51.000000
168.043000 327.000000
175.149000 50.000000
177.162000 102.000000
191.183000 111.000000
224.067000 521.000000
226.512000 99.000000
227.201000 6191.000000
229.185000 123.000000
229.195000 369.000000
241.010000 163.000000
242.082000 50.000000
249.187000 134.000000
253.217000 114.000000
254.223000 111.000000
255.230000 213.000000
281.251000 153.000000
282.248000 108.000000
283.243000 3268.000000
283.264000 350.000000
284.261000 133.000000
309.223000 72.000000
327.230000 10667.000000
363.189000 83.000000
378.230000 40.000000
419.265000 81.000000
420.249000 127.000000
434.264000 461.000000
452.259000 617.000000
452.277000 1697.000000
452.303000 163.000000
480.273000 20.000000
481.359000 20.000000
534.281000 80.000000
534.312000 50.000000
552.314000 142.000000
553.282000 60.000000
579.292000 20.000000
580.249000 20.000000
580.302000 50.000000
581.299000 11.000000
582.306000 110.000000
691.417000 50.000000
717.440000 30.000000
749.504000 50.000000
760.092000 167.000000
762.427000 81.000000
762.504000 19165.000000
762.626000 45.000000
763.510000 80.000000
777.411000 61.000000
777.450000 112.000000
777.490000 131.000000
836.444000 41.000000
836.488000 415.000000
836.509000 826.000000
836.542000 3525.000000
836.588000 192.000000
836.619000 40.000000

>ms2peaks
78.959000 80.000000
121.100000 50.000000
152.997000 51.000000
168.043000 327.000000
175.149000 50.000000
177.162000 102.000000
191.183000 111.000000
224.067000 521.000000
226.512000 99.000000
227.201000 6191.000000
229.185000 123.000000
229.195000 369.000000
241.010000 163.000000
242.082000 50.000000
249.187000 134.000000
253.217000 114.000000
254.223000 111.000000
255.230000 213.000000
281.251000 153.000000
282.248000 108.000000
283.243000 3268.000000
283.264000 350.000000
284.261000 133.000000
309.223000 72.000000
327.230000 10667.000000
363.189000 83.000000
378.230000 40.000000
419.265000 81.000000
420.249000 127.000000
434.264000 461.000000
452.259000 617.000000
452.277000 1697.000000
452.303000 163.000000
480.273000 20.000000
481.359000 20.000000
534.281000 80.000000
534.312000 50.000000
552.314000 142.000000
553.282000 60.000000
579.292000 20.000000
580.249000 20.000000
580.302000 50.000000
581.299000 11.000000
582.306000 110.000000
691.417000 50.000000
717.440000 30.000000
749.504000 50.000000
760.092000 167.000000
762.427000 81.000000
762.504000 19165.000000
762.626000 45.000000
763.510000 80.000000
777.411000 61.000000
777.450000 112.000000
777.490000 131.000000
836.444000 41.000000
836.488000 415.000000
836.509000 826.000000
836.542000 3525.000000
836.588000 192.000000
836.619000 40.000000

