>compound LQB6836674
>parentmass 728.521
>ionization [M-H]-
>formula C40H76NO8P
>rt 594.137160
>profile qtof
#smiles_iso CCCCCCCCCCCCCCCCC(=O)OCC(COP(=O)(O)OCCN)OC(=O)CCCCCCC/C=C\C/C=C\CCCCC
#smiles_can CCCCCCCCCCCCCCCCC(=O)OCC(COP(=O)(O)OCCN)OC(=O)CCCCCCCC=CCC=CCCCCC
#inchikey UJCJWIHZUHMDIT-OHNCOSGTSA-N
#pubchem_id 138271670
#mb_accession LQB00190,LQB00576

>ms2
140.009000 20.000000
196.040000 53.000000
265.208000 40.000000
269.248000 807.000000
278.364000 21.000000
279.231000 2384.000000
466.297000 80.000000
668.576000 20.000000
728.518000 826.000000
728.535000 194.000000

>ms2
140.009000 20.000000
196.040000 53.000000
265.208000 40.000000
269.248000 807.000000
278.364000 21.000000
279.231000 2384.000000
466.297000 80.000000
668.576000 20.000000
728.518000 826.000000
728.535000 194.000000

