>compound LQB6499878
>parentmass 809.5150000000001
>ionization [M-H]-
>formula C41H79O13P
>rt 510.686400
>profile qtof
#smiles_iso CCCCCCCCCCCCCCCC(=O)OCC(COP(=O)(O)OC1C(C(C(C(C1O)O)O)O)O)OC(=O)CCCCCCCCCCCCCCC
#smiles_can CCCCCCCCCCCCCCCC(=O)OCC(COP(=O)(O)OC1C(C(C(C(C1O)O)O)O)O)OC(=O)CCCCCCCCCCCCCCC
#inchikey IBUKXRINTKQBRQ-UHFFFAOYSA-N
#pubchem_id 14185941
#mb_accession LQB00288,LQB00289,LQB00674,LQB00675

>ms2
78.960000 460.000000
96.973000 143.000000
152.996000 1649.000000
223.001000 705.000000
224.205000 57.000000
227.191000 60.000000
227.207000 103.000000
241.010000 2216.000000
254.437000 73.000000
255.231000 6443.000000
256.235000 84.000000
257.225000 146.000000
258.239000 50.000000
259.020000 166.000000
281.250000 64.000000
282.376000 63.000000
283.262000 3496.000000
284.265000 2320.000000
297.037000 439.000000
301.215000 989.000000
302.219000 602.000000
302.237000 124.000000
315.050000 91.000000
391.220000 2097.000000
392.225000 103.000000
409.227000 161.000000
419.229000 122.000000
419.256000 1561.000000
420.236000 235.000000
420.259000 1101.000000
437.197000 101.000000
437.220000 133.000000
437.265000 1164.000000
438.198000 91.000000
438.218000 214.000000
438.248000 152.000000
438.269000 194.000000
438.287000 143.000000
506.019000 20.000000
520.974000 21.000000
553.264000 1856.000000
553.290000 774.000000
553.319000 61.000000
571.288000 407.000000
581.306000 100.000000
599.273000 20.000000
647.460000 20.000000
649.443000 20.000000
649.531000 20.000000
720.183000 30.000000
721.421000 30.000000
721.463000 326.000000
721.510000 143.000000
722.476000 4524.000000
722.508000 676.000000
749.498000 46.000000
791.483000 33.000000
791.549000 33.000000
806.952000 130.000000
807.753000 33.000000
809.425000 91.000000
809.509000 31030.000000
810.510000 87.000000

>ms2
140.013000 25.000000
152.995000 12.000000
196.036000 27.000000
229.198000 32.000000
241.011000 15.000000
255.233000 76.000000
257.222000 13.000000
257.234000 40.000000
258.229000 25.000000
283.230000 20.000000
283.240000 89.000000
283.258000 31.000000
283.266000 16.000000
284.249000 122.000000
298.230000 10.000000
301.203000 50.000000
301.221000 153.000000
302.204000 19.000000
302.224000 116.000000
327.226000 244.000000
327.240000 102.000000
327.249000 30.000000
328.236000 294.000000
329.247000 12.000000
391.221000 34.000000
419.248000 9.000000
447.299000 12.000000
464.306000 17.000000
465.315000 17.000000
480.260000 16.000000
481.251000 12.000000
498.266000 101.000000
499.259000 60.000000
506.272000 7.000000
507.266000 13.000000
524.284000 10.000000
525.275000 19.000000
553.271000 25.000000
571.286000 7.000000
722.477000 22.000000
762.507000 9.000000
777.483000 19.000000
791.537000 13.000000
809.401000 10.000000
809.453000 85.000000
809.465000 153.000000
809.485000 642.000000
809.503000 367.000000
809.517000 197.000000
809.529000 142.000000
809.541000 101.000000
809.565000 50.000000

>ms2
78.960000 460.000000
96.973000 143.000000
152.996000 1649.000000
223.001000 705.000000
224.205000 57.000000
227.191000 60.000000
227.207000 103.000000
241.010000 2216.000000
254.437000 73.000000
255.231000 6443.000000
256.235000 84.000000
257.225000 146.000000
258.239000 50.000000
259.020000 166.000000
281.250000 64.000000
282.376000 63.000000
283.262000 3496.000000
284.265000 2320.000000
297.037000 439.000000
301.215000 989.000000
302.219000 602.000000
302.237000 124.000000
315.050000 91.000000
391.220000 2097.000000
392.225000 103.000000
409.227000 161.000000
419.229000 122.000000
419.256000 1561.000000
420.236000 235.000000
420.259000 1101.000000
437.197000 101.000000
437.220000 133.000000
437.265000 1164.000000
438.198000 91.000000
438.218000 214.000000
438.248000 152.000000
438.269000 194.000000
438.287000 143.000000
506.019000 20.000000
520.974000 21.000000
553.264000 1856.000000
553.290000 774.000000
553.319000 61.000000
571.288000 407.000000
581.306000 100.000000
599.273000 20.000000
647.460000 20.000000
649.443000 20.000000
649.531000 20.000000
720.183000 30.000000
721.421000 30.000000
721.463000 326.000000
721.510000 143.000000
722.476000 4524.000000
722.508000 676.000000
749.498000 46.000000
791.483000 33.000000
791.549000 33.000000
806.952000 130.000000
807.753000 33.000000
809.425000 91.000000
809.509000 31030.000000
810.510000 87.000000

>ms2
140.013000 25.000000
152.995000 12.000000
196.036000 27.000000
229.198000 32.000000
241.011000 15.000000
255.233000 76.000000
257.222000 13.000000
257.234000 40.000000
258.229000 25.000000
283.230000 20.000000
283.240000 89.000000
283.258000 31.000000
283.266000 16.000000
284.249000 122.000000
298.230000 10.000000
301.203000 50.000000
301.221000 153.000000
302.204000 19.000000
302.224000 116.000000
327.226000 244.000000
327.240000 102.000000
327.249000 30.000000
328.236000 294.000000
329.247000 12.000000
391.221000 34.000000
419.248000 9.000000
447.299000 12.000000
464.306000 17.000000
465.315000 17.000000
480.260000 16.000000
481.251000 12.000000
498.266000 101.000000
499.259000 60.000000
506.272000 7.000000
507.266000 13.000000
524.284000 10.000000
525.275000 19.000000
553.271000 25.000000
571.286000 7.000000
722.477000 22.000000
762.507000 9.000000
777.483000 19.000000
791.537000 13.000000
809.401000 10.000000
809.453000 85.000000
809.465000 153.000000
809.485000 642.000000
809.503000 367.000000
809.517000 197.000000
809.529000 142.000000
809.541000 101.000000
809.565000 50.000000

