>compound LQB6334729
>parentmass 773.53605
>ionization [M-H]-
>formula C42H79O10P
>rt 516.160440
>profile qtof
#smiles_iso CCCCCCCC/C=C\CCCCCCCC(=O)OCC(COP(=O)(O)OCC(CO)O)OC(=O)CCCCCCC/C=C\CCCCCCCC
#smiles_can CCCCCCCCC=CCCCCCCCC(=O)OCC(COP(=O)(O)OCC(CO)O)OC(=O)CCCCCCCC=CCCCCCCCC
#inchikey DSNRWDQKZIEDDB-CLFAGFIQSA-N
#pubchem_id 13921353
#mb_accession LQB00261,LQB00262,LQB00647,LQB00648

>ms2peaks
78.953000 20.000000
152.991000 112.000000
153.005000 50.000000
166.897000 20.000000
171.009000 20.000000
227.026000 20.000000
253.211000 40.000000
255.229000 40.000000
279.229000 81.000000
280.231000 50.000000
280.355000 83.000000
280.381000 80.000000
281.165000 31.000000
281.249000 30721.000000
281.493000 34.000000
282.243000 71.000000
283.260000 62.000000
307.265000 101.000000
309.274000 50.000000
417.235000 75.000000
491.271000 183.000000
491.288000 81.000000
509.285000 296.000000
509.308000 41.000000
713.481000 20.000000
771.122000 53.000000
773.268000 20.000000
773.457000 121.000000
773.535000 12105.000000
773.616000 116.000000
773.786000 34.000000
774.534000 60.000000

>ms2peaks
120.974000 20.000000
138.979000 111.000000
152.997000 20.000000
195.002000 60.000000
255.231000 121.000000
279.223000 20.000000
280.380000 102.000000
281.249000 5639.000000
281.764000 25.000000
283.264000 50.000000
307.256000 144.000000
307.273000 192.000000
403.236000 30.000000
417.215000 43.000000
417.243000 43.000000
459.249000 214.000000
477.249000 70.000000
477.269000 132.000000
483.264000 55.000000
507.943000 20.000000
699.512000 30.000000
727.601000 21.000000
741.026000 21.000000
741.474000 474.000000
741.509000 1280.000000
773.466000 51.000000
773.520000 1325.000000
773.545000 646.000000
773.568000 177.000000
773.604000 40.000000

>ms2peaks
78.953000 20.000000
152.991000 112.000000
153.005000 50.000000
166.897000 20.000000
171.009000 20.000000
227.026000 20.000000
253.211000 40.000000
255.229000 40.000000
279.229000 81.000000
280.231000 50.000000
280.355000 83.000000
280.381000 80.000000
281.165000 31.000000
281.249000 30721.000000
281.493000 34.000000
282.243000 71.000000
283.260000 62.000000
307.265000 101.000000
309.274000 50.000000
417.235000 75.000000
491.271000 183.000000
491.288000 81.000000
509.285000 296.000000
509.308000 41.000000
713.481000 20.000000
771.122000 53.000000
773.268000 20.000000
773.457000 121.000000
773.535000 12105.000000
773.616000 116.000000
773.786000 34.000000
774.534000 60.000000

>ms2peaks
120.974000 20.000000
138.979000 111.000000
152.997000 20.000000
195.002000 60.000000
255.231000 121.000000
279.223000 20.000000
280.380000 102.000000
281.249000 5639.000000
281.764000 25.000000
283.264000 50.000000
307.256000 144.000000
307.273000 192.000000
403.236000 30.000000
417.215000 43.000000
417.243000 43.000000
459.249000 214.000000
477.249000 70.000000
477.269000 132.000000
483.264000 55.000000
507.943000 20.000000
699.512000 30.000000
727.601000 21.000000
741.026000 21.000000
741.474000 474.000000
741.509000 1280.000000
773.466000 51.000000
773.520000 1325.000000
773.545000 646.000000
773.568000 177.000000
773.604000 40.000000

