>compound LQB6499046
>parentmass 804.5521
>ionization [M-H]-
>formula C46H80NO8P
>rt 643.536600
>profile qtof
#smiles_iso CCCCCCCCCCCCCCCCCCC(=O)OCC(COP(=O)(O)OCCN)OC(=O)CC/C=C\C/C=C\C/C=C\C/C=C\C/C=C\C/C=C\CC
#smiles_can CCCCCCCCCCCCCCCCCCC(=O)OCC(COP(=O)(O)OCCN)OC(=O)CCC=CCC=CCC=CCC=CCC=CCC=CCC
#inchikey PITVJCPCBXGCHJ-MXQGKLILSA-N
#pubchem_id 134758124
#mb_accession LQB00226,LQB00612

>ms2
78.959000 16.000000
121.999000 10.000000
140.011000 53.000000
177.163000 19.000000
191.187000 16.000000
196.037000 61.000000
229.198000 112.000000
231.134000 10.000000
249.187000 44.000000
255.232000 17.000000
281.247000 25.000000
282.364000 10.000000
283.242000 612.000000
296.350000 7.000000
297.222000 11.000000
297.278000 1435.000000
309.226000 13.000000
325.221000 6.000000
327.232000 1641.000000
450.230000 6.000000
464.307000 40.000000
466.965000 6.000000
476.321000 56.000000
491.341000 7.000000
494.320000 269.000000
494.347000 44.000000
506.259000 40.000000
524.267000 22.000000
730.579000 36.000000
731.611000 6.000000
736.577000 6.000000
743.599000 19.000000
744.614000 61.000000
802.018000 9.000000
804.545000 2883.000000
804.651000 6.000000

>ms2
78.959000 16.000000
121.999000 10.000000
140.011000 53.000000
177.163000 19.000000
191.187000 16.000000
196.037000 61.000000
229.198000 112.000000
231.134000 10.000000
249.187000 44.000000
255.232000 17.000000
281.247000 25.000000
282.364000 10.000000
283.242000 612.000000
296.350000 7.000000
297.222000 11.000000
297.278000 1435.000000
309.226000 13.000000
325.221000 6.000000
327.232000 1641.000000
450.230000 6.000000
464.307000 40.000000
466.965000 6.000000
476.321000 56.000000
491.341000 7.000000
494.320000 269.000000
494.347000 44.000000
506.259000 40.000000
524.267000 22.000000
730.579000 36.000000
731.611000 6.000000
736.577000 6.000000
743.599000 19.000000
744.614000 61.000000
802.018000 9.000000
804.545000 2883.000000
804.651000 6.000000

