>compound LQB6943622
>parentmass 784.5134
>ionization [M-H]-
>formula C42H76NO10P
>rt 506.479500
>profile qtof
#smiles_iso CCCCCCCC/C=C\CCCCCCCC(=O)OCC(COP(=O)(O)OCC(C(=O)O)N)OC(=O)CCCCCCC/C=C\C/C=C\CCCCC
#smiles_can CCCCCCCCC=CCCCCCCCC(=O)OCC(COP(=O)(O)OCC(C(=O)O)N)OC(=O)CCCCCCCC=CCC=CCCCCC
#inchikey MWONMGIZXLAUBR-RQOIEFAZSA-N
#pubchem_id 138215295
#mb_accession LQB00341,LQB00727

>ms2peaks
152.995000 60.000000
203.174000 61.000000
247.172000 274.000000
255.222000 82.000000
255.227000 92.000000
255.235000 296.000000
279.220000 123.000000
279.227000 337.000000
279.237000 317.000000
281.237000 82.000000
281.242000 143.000000
281.249000 295.000000
281.256000 142.000000
283.246000 46.000000
327.223000 40.000000
345.248000 20.000000
391.230000 33.000000
415.224000 80.000000
417.221000 30.000000
417.242000 131.000000
435.252000 40.000000
472.262000 20.000000
480.289000 70.000000
483.286000 33.000000
696.457000 20.000000
697.426000 20.000000
697.437000 30.000000
697.448000 71.000000
697.455000 71.000000
697.463000 92.000000
697.487000 411.000000
710.404000 20.000000
710.412000 41.000000
710.445000 61.000000
710.455000 133.000000
710.476000 285.000000
710.494000 61.000000
710.513000 30.000000
745.502000 33.000000
784.457000 93.000000
784.470000 153.000000
784.485000 112.000000
784.504000 357.000000
784.546000 142.000000

>ms2peaks
152.995000 60.000000
203.174000 61.000000
247.172000 274.000000
255.222000 82.000000
255.227000 92.000000
255.235000 296.000000
279.220000 123.000000
279.227000 337.000000
279.237000 317.000000
281.237000 82.000000
281.242000 143.000000
281.249000 295.000000
281.256000 142.000000
283.246000 46.000000
327.223000 40.000000
345.248000 20.000000
391.230000 33.000000
415.224000 80.000000
417.221000 30.000000
417.242000 131.000000
435.252000 40.000000
472.262000 20.000000
480.289000 70.000000
483.286000 33.000000
696.457000 20.000000
697.426000 20.000000
697.437000 30.000000
697.448000 71.000000
697.455000 71.000000
697.463000 92.000000
697.487000 411.000000
710.404000 20.000000
710.412000 41.000000
710.445000 61.000000
710.455000 133.000000
710.476000 285.000000
710.494000 61.000000
710.513000 30.000000
745.502000 33.000000
784.457000 93.000000
784.470000 153.000000
784.485000 112.000000
784.504000 357.000000
784.546000 142.000000

