>compound LQB6402630
>parentmass 838.5593
>ionization [M+CH3COOH-H]-
>formula C44H78NO8P
>rt 525.851640
>profile qtof
#smiles_iso CCCCCC/C=C\CCCCCCCC(=O)OCC(COP(=O)([O-])OCC[N+](C)(C)C)OC(=O)CCCCCC/C=C\C/C=C\C/C=C\C/C=C\CC
#smiles_can CCCCCCC=CCCCCCCCC(=O)OCC(COP(=O)([O-])OCC[N+](C)(C)C)OC(=O)CCCCCCC=CCC=CCC=CCC=CCC
#inchikey NJKOHDXHBBUJBZ-LMRIPGBISA-N
#pubchem_id 138219333
#mb_accession LQB00122,LQB00508

>ms2peaks
168.042000 100.000000
205.197000 145.000000
224.067000 163.000000
227.200000 132.000000
253.187000 83.000000
253.215000 3396.000000
259.243000 367.000000
259.254000 133.000000
277.212000 40.000000
283.257000 163.000000
285.215000 46.000000
302.281000 52.000000
303.232000 8744.000000
327.233000 91.000000
329.244000 468.000000
329.274000 50.000000
330.243000 30.000000
331.261000 100.000000
389.211000 53.000000
419.253000 40.000000
420.250000 30.000000
452.272000 60.000000
460.259000 40.000000
460.281000 110.000000
460.308000 40.000000
478.293000 899.000000
488.276000 30.000000
489.270000 30.000000
510.287000 81.000000
510.308000 70.000000
528.284000 90.000000
528.324000 100.000000
552.338000 30.000000
598.459000 20.000000
693.468000 40.000000
750.507000 43.000000
762.116000 83.000000
764.446000 206.000000
764.520000 12228.000000
765.520000 91.000000
779.505000 122.000000
793.509000 141.000000
820.516000 121.000000
838.506000 133.000000
838.541000 918.000000
838.579000 449.000000

>ms2peaks
168.042000 100.000000
205.197000 145.000000
224.067000 163.000000
227.200000 132.000000
253.187000 83.000000
253.215000 3396.000000
259.243000 367.000000
259.254000 133.000000
277.212000 40.000000
283.257000 163.000000
285.215000 46.000000
302.281000 52.000000
303.232000 8744.000000
327.233000 91.000000
329.244000 468.000000
329.274000 50.000000
330.243000 30.000000
331.261000 100.000000
389.211000 53.000000
419.253000 40.000000
420.250000 30.000000
452.272000 60.000000
460.259000 40.000000
460.281000 110.000000
460.308000 40.000000
478.293000 899.000000
488.276000 30.000000
489.270000 30.000000
510.287000 81.000000
510.308000 70.000000
528.284000 90.000000
528.324000 100.000000
552.338000 30.000000
598.459000 20.000000
693.468000 40.000000
750.507000 43.000000
762.116000 83.000000
764.446000 206.000000
764.520000 12228.000000
765.520000 91.000000
779.505000 122.000000
793.509000 141.000000
820.516000 121.000000
838.506000 133.000000
838.541000 918.000000
838.579000 449.000000

