>compound LQB6315180
>parentmass 791.4865
>ionization [M-H]-
>formula C44H73O10P
>rt 464.421960
>profile qtof
#smiles_iso CCCCC/C=C\C/C=C\CCCCCCCC(=O)OCC(COP(=O)(O)OCC(CO)O)OC(=O)CCC/C=C\C/C=C\C/C=C\C/C=C\C/C=C\CC
#smiles_can CCCCCC=CCC=CCCCCCCCC(=O)OCC(COP(=O)(O)OCC(CO)O)OC(=O)CCCC=CCC=CCC=CCC=CCC=CCC
#inchikey DTYJSYMMNJFNCQ-WJFLDVDQSA-N
#pubchem_id 138147428
#mb_accession LQB00274,LQB00660

>ms2
152.985000 45.000000
152.999000 55.000000
203.182000 55.000000
253.208000 65.000000
253.222000 106.000000
255.226000 20.000000
257.217000 204.000000
257.231000 199.000000
277.219000 50.000000
279.231000 4249.000000
283.210000 26.000000
283.253000 43.000000
283.276000 35.000000
291.191000 30.000000
293.217000 23.000000
297.243000 15.000000
300.278000 15.000000
301.216000 2220.000000
303.233000 20.000000
327.234000 110.000000
415.231000 25.000000
433.243000 15.000000
437.194000 35.000000
437.212000 45.000000
455.222000 31.000000
463.248000 10.000000
463.296000 10.000000
479.280000 15.000000
480.112000 10.000000
480.301000 12.000000
489.253000 65.000000
507.273000 80.000000
511.247000 65.000000
529.256000 80.000000
622.922000 10.000000
627.484000 10.000000
653.532000 16.000000
709.465000 10.000000
731.542000 15.000000
755.505000 18.000000
773.487000 10.000000
788.996000 10.000000
791.225000 10.000000
791.466000 1993.000000
791.491000 2967.000000
791.509000 778.000000
792.477000 30.000000

>ms2
152.985000 45.000000
152.999000 55.000000
203.182000 55.000000
253.208000 65.000000
253.222000 106.000000
255.226000 20.000000
257.217000 204.000000
257.231000 199.000000
277.219000 50.000000
279.231000 4249.000000
283.210000 26.000000
283.253000 43.000000
283.276000 35.000000
291.191000 30.000000
293.217000 23.000000
297.243000 15.000000
300.278000 15.000000
301.216000 2220.000000
303.233000 20.000000
327.234000 110.000000
415.231000 25.000000
433.243000 15.000000
437.194000 35.000000
437.212000 45.000000
455.222000 31.000000
463.248000 10.000000
463.296000 10.000000
479.280000 15.000000
480.112000 10.000000
480.301000 12.000000
489.253000 65.000000
507.273000 80.000000
511.247000 65.000000
529.256000 80.000000
622.922000 10.000000
627.484000 10.000000
653.532000 16.000000
709.465000 10.000000
731.542000 15.000000
755.505000 18.000000
773.487000 10.000000
788.996000 10.000000
791.225000 10.000000
791.466000 1993.000000
791.491000 2967.000000
791.509000 778.000000
792.477000 30.000000

