>compound LQB6682347
>parentmass 736.4922
>ionization [M-H]-
>formula C41H72NO8P
>rt 529.201560
>profile qtof
#smiles_iso CCCCCC/C=C\CCCCCCCC(=O)OCC(COP(=O)(O)OCCN)OC(=O)CCCCCC/C=C\C/C=C\C/C=C\C/C=C\CC
#smiles_can CCCCCCC=CCCCCCCCC(=O)OCC(COP(=O)(O)OCCN)OC(=O)CCCCCCC=CCC=CCC=CCC=CCC
#inchikey CXGZFWPMXPAZEA-NUNQZGBLSA-N
#pubchem_id 138140034
#mb_accession LQB00187,LQB00573

>ms2peaks
140.014000 61.000000
196.036000 30.000000
205.198000 40.000000
253.217000 978.000000
255.226000 65.000000
259.228000 50.000000
259.251000 91.000000
269.244000 20.000000
290.089000 30.000000
292.100000 21.000000
303.229000 1477.000000
432.252000 50.000000
450.241000 50.000000
450.255000 112.000000
450.269000 142.000000
482.273000 30.000000
676.585000 30.000000
734.217000 23.000000
736.479000 765.000000
736.496000 438.000000
736.511000 480.000000
736.566000 43.000000

>ms2peaks
140.014000 61.000000
196.036000 30.000000
205.198000 40.000000
253.217000 978.000000
255.226000 65.000000
259.228000 50.000000
259.251000 91.000000
269.244000 20.000000
290.089000 30.000000
292.100000 21.000000
303.229000 1477.000000
432.252000 50.000000
450.241000 50.000000
450.255000 112.000000
450.269000 142.000000
482.273000 30.000000
676.585000 30.000000
734.217000 23.000000
736.479000 765.000000
736.496000 438.000000
736.511000 480.000000
736.566000 43.000000

