>compound LQB6088480
>parentmass 743.4854499999999
>ionization [M-H]-
>formula C40H73O10P
>rt 480.076110
>profile qtof
#smiles_iso CCCCCC/C=C\CCCCCCCC(=O)OCC(COP(=O)(O)OCC(CO)O)OC(=O)CCCCCCC/C=C\C/C=C\CCCCC
#smiles_can CCCCCCC=CCCCCCCCC(=O)OCC(COP(=O)(O)OCC(CO)O)OC(=O)CCCCCCCC=CCC=CCCCCC
#inchikey PTJBFPPEYDFAAQ-RUGCENDASA-N
#pubchem_id 138239342
#mb_accession LQB00254,LQB00255,LQB00640,LQB00641

>ms2peaks
152.997000 10.000000
204.681000 7.000000
251.200000 26.000000
253.217000 833.000000
277.180000 6.000000
279.230000 816.000000
279.258000 20.000000
281.251000 27.000000
283.263000 15.000000
297.247000 6.000000
303.200000 6.000000
369.015000 6.000000
415.230000 6.000000
431.157000 11.000000
433.264000 6.000000
460.257000 7.000000
463.234000 9.000000
475.134000 6.000000
481.247000 11.000000
489.265000 17.000000
507.266000 18.000000
574.423000 6.000000
681.412000 6.000000
743.451000 116.000000
743.487000 759.000000
743.532000 41.000000
743.559000 17.000000
743.633000 12.000000
744.483000 6.000000

>ms2peaks
152.996000 84.000000
171.007000 70.000000
209.019000 19.000000
227.031000 46.000000
227.203000 12.000000
251.203000 16.000000
253.217000 1209.000000
261.222000 9.000000
277.203000 9.000000
278.360000 40.000000
279.231000 3171.000000
281.244000 30.000000
283.268000 7.000000
297.245000 12.000000
339.318000 16.000000
368.980000 6.000000
389.203000 88.000000
407.233000 6.000000
415.213000 22.000000
437.276000 6.000000
463.236000 47.000000
463.257000 43.000000
465.245000 7.000000
481.231000 17.000000
481.258000 120.000000
489.264000 44.000000
507.268000 29.000000
669.434000 6.000000
741.058000 6.000000
741.163000 9.000000
743.438000 339.000000
743.479000 3254.000000
743.755000 6.000000
744.494000 7.000000

>ms2peaks
152.997000 10.000000
204.681000 7.000000
251.200000 26.000000
253.217000 833.000000
277.180000 6.000000
279.230000 816.000000
279.258000 20.000000
281.251000 27.000000
283.263000 15.000000
297.247000 6.000000
303.200000 6.000000
369.015000 6.000000
415.230000 6.000000
431.157000 11.000000
433.264000 6.000000
460.257000 7.000000
463.234000 9.000000
475.134000 6.000000
481.247000 11.000000
489.265000 17.000000
507.266000 18.000000
574.423000 6.000000
681.412000 6.000000
743.451000 116.000000
743.487000 759.000000
743.532000 41.000000
743.559000 17.000000
743.633000 12.000000
744.483000 6.000000

>ms2peaks
152.996000 84.000000
171.007000 70.000000
209.019000 19.000000
227.031000 46.000000
227.203000 12.000000
251.203000 16.000000
253.217000 1209.000000
261.222000 9.000000
277.203000 9.000000
278.360000 40.000000
279.231000 3171.000000
281.244000 30.000000
283.268000 7.000000
297.245000 12.000000
339.318000 16.000000
368.980000 6.000000
389.203000 88.000000
407.233000 6.000000
415.213000 22.000000
437.276000 6.000000
463.236000 47.000000
463.257000 43.000000
465.245000 7.000000
481.231000 17.000000
481.258000 120.000000
489.264000 44.000000
507.268000 29.000000
669.434000 6.000000
741.058000 6.000000
741.163000 9.000000
743.438000 339.000000
743.479000 3254.000000
743.755000 6.000000
744.494000 7.000000

