>compound LQB6139160
>parentmass 865.5
>ionization [M-H]-
>formula C50H75O10P
>rt 469.692600
>profile qtof
#smiles_iso CC/C=C\C/C=C\C/C=C\C/C=C\C/C=C\C/C=C\CCC(=O)OCC(COP(=O)(O)OCC(CO)O)OC(=O)CC/C=C\C/C=C\C/C=C\C/C=C\C/C=C\C/C=C\CC
#smiles_can CCC=CCC=CCC=CCC=CCC=CCC=CCCC(=O)OCC(COP(=O)(O)OCC(CO)O)OC(=O)CCC=CCC=CCC=CCC=CCC=CCC=CCC
#inchikey XACKZSRNTPEYBU-GZSOIYOPSA-N
#pubchem_id 134777753
#mb_accession LQB00287,LQB00673

>ms2peaks
78.958000 58.000000
83.049000 20.000000
93.070000 74.000000
95.085000 50.000000
97.067000 19.000000
105.071000 52.000000
107.085000 98.000000
109.102000 52.000000
117.071000 92.000000
119.084000 34.000000
121.101000 122.000000
123.117000 64.000000
127.077000 19.000000
131.085000 56.000000
133.101000 104.000000
135.117000 90.000000
137.133000 63.000000
143.084000 32.000000
147.118000 92.000000
149.060000 29.000000
149.132000 87.000000
151.148000 36.000000
152.084000 18.000000
152.995000 579.000000
153.092000 19.000000
159.116000 40.000000
161.133000 88.000000
163.075000 88.000000
163.148000 133.000000
167.106000 28.000000
169.115000 19.000000
171.004000 44.000000
171.118000 26.000000
173.133000 28.000000
175.148000 147.000000
177.090000 65.000000
177.164000 486.000000
181.122000 38.000000
187.147000 36.000000
189.164000 82.000000
191.108000 50.000000
191.179000 504.000000
193.120000 22.000000
195.139000 29.000000
201.161000 48.000000
203.105000 41.000000
203.179000 157.000000
205.120000 30.000000
207.135000 18.000000
209.022000 24.000000
209.152000 22.000000
213.161000 22.000000
215.182000 42.000000
217.122000 54.000000
217.195000 96.000000
219.138000 42.000000
221.153000 30.000000
227.030000 32.000000
227.182000 30.000000
229.195000 2417.000000
231.138000 44.000000
233.151000 18.000000
241.195000 111.000000
243.140000 22.000000
245.043000 54.000000
245.156000 24.000000
249.185000 537.000000
255.211000 140.000000
257.154000 52.000000
267.211000 18.000000
271.172000 48.000000
279.212000 20.000000
281.227000 74.000000
282.349000 42.000000
282.363000 59.000000
282.998000 11.000000
283.209000 37.000000
283.242000 17846.000000
284.245000 22.000000
291.212000 28.000000
295.230000 10.000000
297.220000 83.000000
299.200000 12.000000
309.218000 261.000000
315.230000 15.000000
325.216000 36.000000
326.208000 160.000000
327.095000 27.000000
327.138000 14.000000
327.191000 14.000000
327.232000 51165.000000
327.379000 11.000000
328.237000 69.000000
463.221000 142.000000
474.571000 8.000000
478.491000 9.000000
481.231000 265.000000
494.941000 8.000000
508.750000 9.000000
527.983000 8.000000
537.257000 638.000000
555.270000 1653.000000
560.358000 8.000000
565.583000 18.000000
569.379000 14.000000
659.047000 11.000000
787.503000 9.000000
801.496000 9.000000
847.517000 16.000000
862.726000 24.000000
862.754000 66.000000
862.775000 99.000000
862.805000 42.000000
863.164000 12.000000
864.353000 13.000000
864.541000 20.000000
864.649000 10.000000
864.763000 11.000000
865.011000 9.000000
865.086000 10.000000
865.163000 10.000000
865.304000 20.000000
865.424000 20.000000
865.497000 40140.000000
865.614000 18.000000
865.965000 10.000000
866.034000 13.000000
866.496000 162.000000
866.880000 13.000000
867.486000 18.000000

>ms2peaks
78.958000 58.000000
83.049000 20.000000
93.070000 74.000000
95.085000 50.000000
97.067000 19.000000
105.071000 52.000000
107.085000 98.000000
109.102000 52.000000
117.071000 92.000000
119.084000 34.000000
121.101000 122.000000
123.117000 64.000000
127.077000 19.000000
131.085000 56.000000
133.101000 104.000000
135.117000 90.000000
137.133000 63.000000
143.084000 32.000000
147.118000 92.000000
149.060000 29.000000
149.132000 87.000000
151.148000 36.000000
152.084000 18.000000
152.995000 579.000000
153.092000 19.000000
159.116000 40.000000
161.133000 88.000000
163.075000 88.000000
163.148000 133.000000
167.106000 28.000000
169.115000 19.000000
171.004000 44.000000
171.118000 26.000000
173.133000 28.000000
175.148000 147.000000
177.090000 65.000000
177.164000 486.000000
181.122000 38.000000
187.147000 36.000000
189.164000 82.000000
191.108000 50.000000
191.179000 504.000000
193.120000 22.000000
195.139000 29.000000
201.161000 48.000000
203.105000 41.000000
203.179000 157.000000
205.120000 30.000000
207.135000 18.000000
209.022000 24.000000
209.152000 22.000000
213.161000 22.000000
215.182000 42.000000
217.122000 54.000000
217.195000 96.000000
219.138000 42.000000
221.153000 30.000000
227.030000 32.000000
227.182000 30.000000
229.195000 2417.000000
231.138000 44.000000
233.151000 18.000000
241.195000 111.000000
243.140000 22.000000
245.043000 54.000000
245.156000 24.000000
249.185000 537.000000
255.211000 140.000000
257.154000 52.000000
267.211000 18.000000
271.172000 48.000000
279.212000 20.000000
281.227000 74.000000
282.349000 42.000000
282.363000 59.000000
282.998000 11.000000
283.209000 37.000000
283.242000 17846.000000
284.245000 22.000000
291.212000 28.000000
295.230000 10.000000
297.220000 83.000000
299.200000 12.000000
309.218000 261.000000
315.230000 15.000000
325.216000 36.000000
326.208000 160.000000
327.095000 27.000000
327.138000 14.000000
327.191000 14.000000
327.232000 51165.000000
327.379000 11.000000
328.237000 69.000000
463.221000 142.000000
474.571000 8.000000
478.491000 9.000000
481.231000 265.000000
494.941000 8.000000
508.750000 9.000000
527.983000 8.000000
537.257000 638.000000
555.270000 1653.000000
560.358000 8.000000
565.583000 18.000000
569.379000 14.000000
659.047000 11.000000
787.503000 9.000000
801.496000 9.000000
847.517000 16.000000
862.726000 24.000000
862.754000 66.000000
862.775000 99.000000
862.805000 42.000000
863.164000 12.000000
864.353000 13.000000
864.541000 20.000000
864.649000 10.000000
864.763000 11.000000
865.011000 9.000000
865.086000 10.000000
865.163000 10.000000
865.304000 20.000000
865.424000 20.000000
865.497000 40140.000000
865.614000 18.000000
865.965000 10.000000
866.034000 13.000000
866.496000 162.000000
866.880000 13.000000
867.486000 18.000000

