>compound LQB6853768
>parentmass 790.5358000000001
>ionization [M-H]-
>formula C45H78NO8P
>rt 579.679380
>profile qtof
#smiles_iso CCCCCCCC/C=C\CCCCCCCC(=O)OCC(COP(=O)(O)OCCN)OC(=O)CCCCC/C=C\C/C=C\C/C=C\C/C=C\C/C=C\CC
#smiles_can CCCCCCCCC=CCCCCCCCC(=O)OCC(COP(=O)(O)OCCN)OC(=O)CCCCCC=CCC=CCC=CCC=CCC=CCC
#inchikey IZEXFAOLFRVCJS-LKVUMQLBSA-N
#pubchem_id 138182636
#mb_accession LQB00215,LQB00216,LQB00601,LQB00602

>ms2peaks
140.011000 50.000000
196.036000 101.000000
229.192000 50.000000
259.245000 111.000000
281.244000 636.000000
281.261000 163.000000
283.238000 266.000000
283.256000 154.000000
285.259000 121.000000
303.227000 775.000000
307.253000 274.000000
307.271000 234.000000
327.228000 816.000000
328.210000 30.000000
329.228000 133.000000
329.245000 806.000000
329.257000 327.000000
341.249000 40.000000
420.247000 43.000000
460.290000 40.000000
462.287000 111.000000
478.276000 142.000000
478.301000 50.000000
480.295000 287.000000
480.319000 101.000000
486.287000 60.000000
504.290000 90.000000
703.504000 50.000000
716.574000 60.000000
790.349000 20.000000
790.492000 1099.000000
790.523000 1904.000000
790.551000 353.000000
790.603000 40.000000

>ms2peaks
78.958000 110.000000
140.011000 551.000000
178.031000 53.000000
196.036000 663.000000
214.052000 60.000000
219.136000 43.000000
231.139000 50.000000
231.211000 347.000000
245.153000 43.000000
251.200000 192.000000
253.220000 50.000000
257.223000 70.000000
279.235000 122.000000
280.372000 122.000000
281.248000 14084.000000
282.255000 85.000000
283.246000 81.000000
283.272000 60.000000
284.269000 81.000000
285.256000 2078.000000
303.220000 102.000000
303.237000 100.000000
307.264000 53.000000
311.244000 131.000000
327.228000 60.000000
328.226000 94.000000
329.248000 27980.000000
331.177000 43.000000
331.255000 101.000000
331.268000 84.000000
417.224000 60.000000
438.269000 50.000000
460.280000 540.000000
460.302000 82.000000
478.240000 51.000000
478.273000 870.000000
478.292000 2100.000000
478.323000 205.000000
508.276000 152.000000
508.301000 80.000000
526.280000 174.000000
526.302000 183.000000
659.495000 89.000000
703.496000 90.000000
715.602000 20.000000
716.508000 23.000000
716.564000 184.000000
722.497000 20.000000
788.018000 70.000000
788.071000 111.000000
788.446000 23.000000
790.464000 61.000000
790.536000 16616.000000
791.024000 23.000000
791.538000 112.000000

>ms2peaks
140.011000 50.000000
196.036000 101.000000
229.192000 50.000000
259.245000 111.000000
281.244000 636.000000
281.261000 163.000000
283.238000 266.000000
283.256000 154.000000
285.259000 121.000000
303.227000 775.000000
307.253000 274.000000
307.271000 234.000000
327.228000 816.000000
328.210000 30.000000
329.228000 133.000000
329.245000 806.000000
329.257000 327.000000
341.249000 40.000000
420.247000 43.000000
460.290000 40.000000
462.287000 111.000000
478.276000 142.000000
478.301000 50.000000
480.295000 287.000000
480.319000 101.000000
486.287000 60.000000
504.290000 90.000000
703.504000 50.000000
716.574000 60.000000
790.349000 20.000000
790.492000 1099.000000
790.523000 1904.000000
790.551000 353.000000
790.603000 40.000000

>ms2peaks
78.958000 110.000000
140.011000 551.000000
178.031000 53.000000
196.036000 663.000000
214.052000 60.000000
219.136000 43.000000
231.139000 50.000000
231.211000 347.000000
245.153000 43.000000
251.200000 192.000000
253.220000 50.000000
257.223000 70.000000
279.235000 122.000000
280.372000 122.000000
281.248000 14084.000000
282.255000 85.000000
283.246000 81.000000
283.272000 60.000000
284.269000 81.000000
285.256000 2078.000000
303.220000 102.000000
303.237000 100.000000
307.264000 53.000000
311.244000 131.000000
327.228000 60.000000
328.226000 94.000000
329.248000 27980.000000
331.177000 43.000000
331.255000 101.000000
331.268000 84.000000
417.224000 60.000000
438.269000 50.000000
460.280000 540.000000
460.302000 82.000000
478.240000 51.000000
478.273000 870.000000
478.292000 2100.000000
478.323000 205.000000
508.276000 152.000000
508.301000 80.000000
526.280000 174.000000
526.302000 183.000000
659.495000 89.000000
703.496000 90.000000
715.602000 20.000000
716.508000 23.000000
716.564000 184.000000
722.497000 20.000000
788.018000 70.000000
788.071000 111.000000
788.446000 23.000000
790.464000 61.000000
790.536000 16616.000000
791.024000 23.000000
791.538000 112.000000

