>compound LQB6523198
>parentmass 742.6535
>ionization [M+CH3COOH-H]-
>formula C42H85NO5
>rt 786.036000
>profile qtof
#smiles_iso CCCCCCCCCCCCCCCCCCCCCCC(C(=O)NC(CO)C(C(CCCCCCCCCCCCCC)O)O)O
#smiles_can CCCCCCCCCCCCCCCCCCCCCCC(C(=O)NC(CO)C(C(CCCCCCCCCCCCCC)O)O)O
#inchikey ZFUXWVVVWGWGPQ-UHFFFAOYSA-N
#pubchem_id 25203220
#mb_accession LQB00006,LQB00392

>ms2peaks
88.037000 60.000000
225.219000 50.000000
239.240000 33.000000
251.229000 30.000000
253.222000 111.000000
255.232000 746.000000
267.231000 704.000000
268.263000 50.000000
269.238000 30.000000
279.234000 83.000000
280.264000 101.000000
281.253000 53.000000
284.258000 309.000000
298.272000 50.000000
308.255000 70.000000
316.284000 142.000000
335.350000 47.000000
337.345000 2073.000000
351.363000 71.000000
365.324000 60.000000
365.342000 297.000000
378.367000 153.000000
379.356000 80.000000
382.367000 736.000000
383.350000 3945.000000
390.366000 180.000000
398.356000 43.000000
408.383000 531.000000
424.377000 172.000000
426.391000 2283.000000
438.392000 1748.000000
588.594000 20.000000
616.603000 110.000000
618.604000 30.000000
628.590000 23.000000
632.598000 20.000000
634.596000 30.000000
646.590000 133.000000
646.614000 183.000000
646.645000 50.000000
650.608000 203.000000
652.625000 120.000000
664.621000 489.000000
664.650000 61.000000
680.487000 120.000000
680.543000 40.000000
681.671000 36.000000
682.362000 30.000000
682.632000 31503.000000
682.840000 23.000000

>ms2peaks
88.037000 60.000000
225.219000 50.000000
239.240000 33.000000
251.229000 30.000000
253.222000 111.000000
255.232000 746.000000
267.231000 704.000000
268.263000 50.000000
269.238000 30.000000
279.234000 83.000000
280.264000 101.000000
281.253000 53.000000
284.258000 309.000000
298.272000 50.000000
308.255000 70.000000
316.284000 142.000000
335.350000 47.000000
337.345000 2073.000000
351.363000 71.000000
365.324000 60.000000
365.342000 297.000000
378.367000 153.000000
379.356000 80.000000
382.367000 736.000000
383.350000 3945.000000
390.366000 180.000000
398.356000 43.000000
408.383000 531.000000
424.377000 172.000000
426.391000 2283.000000
438.392000 1748.000000
588.594000 20.000000
616.603000 110.000000
618.604000 30.000000
628.590000 23.000000
632.598000 20.000000
634.596000 30.000000
646.590000 133.000000
646.614000 183.000000
646.645000 50.000000
650.608000 203.000000
652.625000 120.000000
664.621000 489.000000
664.650000 61.000000
680.487000 120.000000
680.543000 40.000000
681.671000 36.000000
682.362000 30.000000
682.632000 31503.000000
682.840000 23.000000

