>compound LQB6607695
>parentmass 769.4999
>ionization [M-H]-
>formula C42H75O10P
>rt 476.365560
>profile qtof
#smiles_iso CCCCC/C=C\C/C=C\CCCCCCCC(=O)OCC(COP(=O)(O)OCC(CO)O)OC(=O)CCCCCCC/C=C\C/C=C\CCCCC
#smiles_can CCCCCC=CCC=CCCCCCCCC(=O)OCC(COP(=O)(O)OCC(CO)O)OC(=O)CCCCCCCC=CCC=CCCCCC
#inchikey AKWGRDPPGYFWIW-MAZCIEHSSA-N
#pubchem_id 49792064
#mb_accession LQB00271,LQB00657

>ms2
152.995000 70.000000
253.219000 35.000000
255.229000 21.000000
261.220000 25.000000
277.215000 505.000000
278.360000 57.000000
279.231000 8241.000000
279.286000 16.000000
281.246000 597.000000
283.260000 120.000000
305.246000 26.000000
315.201000 11.000000
406.776000 10.000000
415.221000 110.000000
434.317000 10.000000
489.261000 111.000000
491.264000 11.000000
507.268000 125.000000
509.286000 10.000000
609.469000 10.000000
706.493000 10.000000
709.591000 11.000000
730.853000 10.000000
767.060000 15.000000
769.421000 32.000000
769.498000 4588.000000

>ms2
152.995000 70.000000
253.219000 35.000000
255.229000 21.000000
261.220000 25.000000
277.215000 505.000000
278.360000 57.000000
279.231000 8241.000000
279.286000 16.000000
281.246000 597.000000
283.260000 120.000000
305.246000 26.000000
315.201000 11.000000
406.776000 10.000000
415.221000 110.000000
434.317000 10.000000
489.261000 111.000000
491.264000 11.000000
507.268000 125.000000
509.286000 10.000000
609.469000 10.000000
706.493000 10.000000
709.591000 11.000000
730.853000 10.000000
767.060000 15.000000
769.421000 32.000000
769.498000 4588.000000

