>compound LQB6833044
>parentmass 816.5525
>ionization [M-H]-
>formula C47H80NO8P
>rt 615.094800
>profile qtof
#smiles_iso CCCCCCCC/C=C\CCCCCCCCCC(=O)OCC(COP(=O)(O)OCCN)OC(=O)CC/C=C\C/C=C\C/C=C\C/C=C\C/C=C\C/C=C\CC
#smiles_can CCCCCCCCC=CCCCCCCCCCC(=O)OCC(COP(=O)(O)OCCN)OC(=O)CCC=CCC=CCC=CCC=CCC=CCC=CCC
#inchikey XRZUHOFZIRSWMJ-LJHHLTENSA-N
#pubchem_id 138299684
#mb_accession LQB00228,LQB00614

>ms2peaks
78.958000 10.000000
93.066000 10.000000
140.011000 25.000000
163.072000 10.000000
177.162000 15.000000
187.156000 10.000000
191.180000 10.000000
196.037000 65.000000
215.184000 10.000000
229.197000 95.000000
249.182000 20.000000
255.210000 10.000000
283.241000 474.000000
308.322000 10.000000
309.219000 10.000000
309.278000 1062.000000
327.231000 1382.000000
432.288000 10.000000
488.309000 65.000000
506.283000 21.000000
506.316000 158.000000
506.335000 106.000000
742.570000 37.000000
748.508000 10.000000
813.981000 21.000000
816.551000 1980.000000

>ms2peaks
78.958000 10.000000
93.066000 10.000000
140.011000 25.000000
163.072000 10.000000
177.162000 15.000000
187.156000 10.000000
191.180000 10.000000
196.037000 65.000000
215.184000 10.000000
229.197000 95.000000
249.182000 20.000000
255.210000 10.000000
283.241000 474.000000
308.322000 10.000000
309.219000 10.000000
309.278000 1062.000000
327.231000 1382.000000
432.288000 10.000000
488.309000 65.000000
506.283000 21.000000
506.316000 158.000000
506.335000 106.000000
742.570000 37.000000
748.508000 10.000000
813.981000 21.000000
816.551000 1980.000000

