>compound LQB6514021
>parentmass 885.5508
>ionization [M-H]-
>formula C47H83O13P
>rt 525.250980
>profile qtof
#smiles_iso CCCCCCCCCCCCCCCCCC(=O)OCC(COP(=O)(O)OC1C(C(C(C(C1O)O)O)O)O)OC(=O)CCCCCC/C=C\C/C=C\C/C=C\C/C=C\CC
#smiles_can CCCCCCCCCCCCCCCCCC(=O)OCC(COP(=O)(O)OC1C(C(C(C(C1O)O)O)O)O)OC(=O)CCCCCCC=CCC=CCC=CCC=CCC
#inchikey OJESNYFIPWSOPO-ZKVKLVECSA-N
#pubchem_id 138227586
#mb_accession LQB00308,LQB00694

>ms2
78.959000 5271.000000
96.969000 1396.000000
125.023000 50.000000
134.984000 392.000000
150.980000 40.000000
152.520000 60.000000
152.996000 13074.000000
161.049000 65.000000
163.073000 85.000000
171.005000 250.000000
177.092000 86.000000
186.981000 50.000000
191.111000 80.000000
204.982000 75.000000
204.991000 173.000000
205.132000 35.000000
205.196000 1673.000000
217.196000 95.000000
222.306000 72.000000
223.001000 18754.000000
231.203000 56.000000
231.216000 152.000000
238.992000 40.000000
240.261000 347.000000
240.311000 35.000000
240.944000 35.000000
241.012000 62220.000000
245.149000 35.000000
258.426000 37.000000
259.022000 6284.000000
259.244000 8309.000000
259.273000 76.000000
267.210000 40.000000
282.383000 259.000000
282.958000 42.000000
283.098000 37.000000
283.263000 76061.000000
283.976000 50.000000
284.265000 428.000000
285.220000 493.000000
286.393000 51.000000
293.025000 35.000000
297.037000 13999.000000
301.221000 162.000000
302.284000 401.000000
302.428000 37.000000
303.232000 78574.000000
303.561000 44.000000
304.236000 298.000000
304.380000 50.000000
306.626000 48.000000
307.506000 36.000000
308.032000 49.000000
308.129000 51.000000
308.490000 38.000000
315.008000 41.000000
315.049000 5528.000000
333.059000 50.000000
355.664000 53.000000
357.355000 50.000000
417.924000 65.000000
417.942000 60.000000
417.965000 57.000000
419.255000 62917.000000
420.262000 207.000000
437.266000 5261.000000
437.854000 50.000000
438.257000 40.000000
438.274000 56.000000
439.225000 8017.000000
439.287000 39.000000
457.231000 188.000000
457.252000 91.000000
477.050000 63.000000
481.200000 73.000000
482.341000 75.000000
482.775000 81.000000
484.660000 95.000000
485.606000 95.000000
488.096000 65.000000
489.857000 70.000000
491.528000 80.000000
492.920000 65.000000
493.213000 73.000000
493.744000 89.000000
494.513000 115.000000
497.085000 89.000000
499.733000 77.000000
500.092000 85.000000
500.881000 68.000000
501.587000 110.000000
503.148000 131.000000
510.834000 74.000000
525.275000 188.000000
525.291000 132.000000
527.241000 70.000000
563.721000 75.000000
579.481000 210.000000
581.309000 71271.000000
582.306000 166.000000
599.321000 19683.000000
601.278000 13468.000000
605.235000 45.000000
609.479000 67.000000
612.817000 49.000000
619.289000 1509.000000
623.504000 37.000000
723.472000 341.000000
723.498000 869.000000
723.529000 147.000000
725.458000 50.000000
725.491000 275.000000
725.517000 148.000000
725.553000 40.000000
765.513000 40.000000
793.489000 60.000000
793.541000 35.000000
795.529000 30.000000
802.588000 26.000000
825.669000 40.000000
835.467000 35.000000
835.510000 140.000000
835.575000 43.000000
837.289000 44.000000
853.520000 229.000000
853.566000 55.000000
867.521000 75.000000
868.761000 26.000000
882.685000 263.000000
882.761000 5213.000000
882.813000 338.000000
882.857000 221.000000
883.646000 140.000000
884.256000 145.000000
884.384000 130.000000
884.436000 57.000000
884.481000 135.000000
884.522000 62.000000
884.547000 152.000000
884.573000 164.000000
884.606000 183.000000
885.295000 168.000000
885.322000 102.000000
885.345000 296.000000
885.375000 179.000000
885.407000 166.000000
885.547000 297861.000000
886.549000 2765.000000
886.782000 15596.000000
886.817000 5444.000000
886.840000 4092.000000
887.041000 6248.000000
887.081000 413.000000
887.116000 512.000000
887.261000 8759.000000
887.330000 102.000000
887.483000 3045.000000
887.747000 1037.000000
887.846000 98.000000
887.915000 48.000000
887.942000 127.000000
888.166000 188.000000
888.207000 165.000000
888.550000 95.000000
890.474000 77.000000
891.018000 95.000000

>ms2
78.959000 5271.000000
96.969000 1396.000000
125.023000 50.000000
134.984000 392.000000
150.980000 40.000000
152.520000 60.000000
152.996000 13074.000000
161.049000 65.000000
163.073000 85.000000
171.005000 250.000000
177.092000 86.000000
186.981000 50.000000
191.111000 80.000000
204.982000 75.000000
204.991000 173.000000
205.132000 35.000000
205.196000 1673.000000
217.196000 95.000000
222.306000 72.000000
223.001000 18754.000000
231.203000 56.000000
231.216000 152.000000
238.992000 40.000000
240.261000 347.000000
240.311000 35.000000
240.944000 35.000000
241.012000 62220.000000
245.149000 35.000000
258.426000 37.000000
259.022000 6284.000000
259.244000 8309.000000
259.273000 76.000000
267.210000 40.000000
282.383000 259.000000
282.958000 42.000000
283.098000 37.000000
283.263000 76061.000000
283.976000 50.000000
284.265000 428.000000
285.220000 493.000000
286.393000 51.000000
293.025000 35.000000
297.037000 13999.000000
301.221000 162.000000
302.284000 401.000000
302.428000 37.000000
303.232000 78574.000000
303.561000 44.000000
304.236000 298.000000
304.380000 50.000000
306.626000 48.000000
307.506000 36.000000
308.032000 49.000000
308.129000 51.000000
308.490000 38.000000
315.008000 41.000000
315.049000 5528.000000
333.059000 50.000000
355.664000 53.000000
357.355000 50.000000
417.924000 65.000000
417.942000 60.000000
417.965000 57.000000
419.255000 62917.000000
420.262000 207.000000
437.266000 5261.000000
437.854000 50.000000
438.257000 40.000000
438.274000 56.000000
439.225000 8017.000000
439.287000 39.000000
457.231000 188.000000
457.252000 91.000000
477.050000 63.000000
481.200000 73.000000
482.341000 75.000000
482.775000 81.000000
484.660000 95.000000
485.606000 95.000000
488.096000 65.000000
489.857000 70.000000
491.528000 80.000000
492.920000 65.000000
493.213000 73.000000
493.744000 89.000000
494.513000 115.000000
497.085000 89.000000
499.733000 77.000000
500.092000 85.000000
500.881000 68.000000
501.587000 110.000000
503.148000 131.000000
510.834000 74.000000
525.275000 188.000000
525.291000 132.000000
527.241000 70.000000
563.721000 75.000000
579.481000 210.000000
581.309000 71271.000000
582.306000 166.000000
599.321000 19683.000000
601.278000 13468.000000
605.235000 45.000000
609.479000 67.000000
612.817000 49.000000
619.289000 1509.000000
623.504000 37.000000
723.472000 341.000000
723.498000 869.000000
723.529000 147.000000
725.458000 50.000000
725.491000 275.000000
725.517000 148.000000
725.553000 40.000000
765.513000 40.000000
793.489000 60.000000
793.541000 35.000000
795.529000 30.000000
802.588000 26.000000
825.669000 40.000000
835.467000 35.000000
835.510000 140.000000
835.575000 43.000000
837.289000 44.000000
853.520000 229.000000
853.566000 55.000000
867.521000 75.000000
868.761000 26.000000
882.685000 263.000000
882.761000 5213.000000
882.813000 338.000000
882.857000 221.000000
883.646000 140.000000
884.256000 145.000000
884.384000 130.000000
884.436000 57.000000
884.481000 135.000000
884.522000 62.000000
884.547000 152.000000
884.573000 164.000000
884.606000 183.000000
885.295000 168.000000
885.322000 102.000000
885.345000 296.000000
885.375000 179.000000
885.407000 166.000000
885.547000 297861.000000
886.549000 2765.000000
886.782000 15596.000000
886.817000 5444.000000
886.840000 4092.000000
887.041000 6248.000000
887.081000 413.000000
887.116000 512.000000
887.261000 8759.000000
887.330000 102.000000
887.483000 3045.000000
887.747000 1037.000000
887.846000 98.000000
887.915000 48.000000
887.942000 127.000000
888.166000 188.000000
888.207000 165.000000
888.550000 95.000000
890.474000 77.000000
891.018000 95.000000

