>compound LQB6325789
>parentmass 835.5323
>ionization [M-H]-
>formula C43H81O13P
>rt 514.649460
>profile qtof
#smiles_iso CCCCCCCCCCCCCCCC(=O)OCC(COP(=O)(O)OC1C(C(C(C(C1O)O)O)O)O)OC(=O)CCCCCCC/C=C\CCCCCCCC
#smiles_can CCCCCCCCCCCCCCCC(=O)OCC(COP(=O)(O)OC1C(C(C(C(C1O)O)O)O)O)OC(=O)CCCCCCCC=CCCCCCCCC
#inchikey PDLAMJKMOKWLAJ-ZCXUNETKSA-N
#pubchem_id 138234040
#mb_accession LQB00292,LQB00678

>ms2
78.959000 143.000000
152.995000 295.000000
204.988000 30.000000
223.002000 427.000000
241.010000 1254.000000
253.217000 40.000000
255.232000 2253.000000
256.231000 63.000000
259.020000 111.000000
279.232000 143.000000
281.189000 21.000000
281.246000 2301.000000
282.257000 20.000000
283.260000 71.000000
297.032000 142.000000
297.046000 91.000000
297.097000 20.000000
315.046000 101.000000
335.605000 20.000000
391.222000 1051.000000
392.233000 20.000000
409.235000 80.000000
417.238000 255.000000
419.254000 30.000000
463.564000 20.000000
524.799000 23.000000
551.503000 20.000000
553.275000 1367.000000
565.800000 20.000000
571.279000 183.000000
571.316000 30.000000
579.275000 173.000000
579.299000 194.000000
597.304000 50.000000
673.492000 60.000000
699.476000 20.000000
753.519000 35.000000
757.489000 30.000000
785.505000 20.000000
803.498000 91.000000
832.863000 40.000000
832.944000 20.000000
835.198000 22.000000
835.456000 50.000000
835.528000 18261.000000
835.640000 34.000000
836.519000 20.000000

>ms2
78.959000 143.000000
152.995000 295.000000
204.988000 30.000000
223.002000 427.000000
241.010000 1254.000000
253.217000 40.000000
255.232000 2253.000000
256.231000 63.000000
259.020000 111.000000
279.232000 143.000000
281.189000 21.000000
281.246000 2301.000000
282.257000 20.000000
283.260000 71.000000
297.032000 142.000000
297.046000 91.000000
297.097000 20.000000
315.046000 101.000000
335.605000 20.000000
391.222000 1051.000000
392.233000 20.000000
409.235000 80.000000
417.238000 255.000000
419.254000 30.000000
463.564000 20.000000
524.799000 23.000000
551.503000 20.000000
553.275000 1367.000000
565.800000 20.000000
571.279000 183.000000
571.316000 30.000000
579.275000 173.000000
579.299000 194.000000
597.304000 50.000000
673.492000 60.000000
699.476000 20.000000
753.519000 35.000000
757.489000 30.000000
785.505000 20.000000
803.498000 91.000000
832.863000 40.000000
832.944000 20.000000
835.198000 22.000000
835.456000 50.000000
835.528000 18261.000000
835.640000 34.000000
836.519000 20.000000

