>compound LQB6715630
>parentmass 869.5344
>ionization [M-H]-
>formula C50H79O10P
>rt 480.593340
>profile qtof
#smiles_iso CC/C=C\C/C=C\C/C=C\C/C=C\C/C=C\CCCCCC(=O)OCC(COP(=O)(O)OCC(CO)O)OC(=O)CCCCC/C=C\C/C=C\C/C=C\C/C=C\C/C=C\CC
#smiles_can CCC=CCC=CCC=CCC=CCC=CCCCCCC(=O)OCC(COP(=O)(O)OCC(CO)O)OC(=O)CCCCCC=CCC=CCC=CCC=CCC=CCC
#inchikey CSHJHZDRNJSEJU-LPEZNXMBSA-N
#pubchem_id 138138398
#mb_accession LQB00285,LQB00671

>ms2peaks
100.932000 20.000000
152.997000 30.000000
284.248000 20.000000
285.253000 40.000000
301.218000 30.000000
308.218000 20.000000
327.208000 40.000000
329.213000 23.000000
329.247000 806.000000
356.192000 20.000000
373.195000 20.000000
391.231000 20.000000
465.233000 20.000000
494.351000 30.000000
495.357000 60.000000
542.897000 20.000000
631.475000 30.000000
705.463000 84.000000
728.556000 40.000000
787.454000 20.000000
787.521000 23.000000
807.576000 20.000000
809.545000 23.000000
833.506000 20.000000
833.565000 30.000000
851.577000 102.000000
869.534000 683.000000
869.568000 193.000000
869.609000 110.000000

>ms2peaks
100.932000 20.000000
152.997000 30.000000
284.248000 20.000000
285.253000 40.000000
301.218000 30.000000
308.218000 20.000000
327.208000 40.000000
329.213000 23.000000
329.247000 806.000000
356.192000 20.000000
373.195000 20.000000
391.231000 20.000000
465.233000 20.000000
494.351000 30.000000
495.357000 60.000000
542.897000 20.000000
631.475000 30.000000
705.463000 84.000000
728.556000 40.000000
787.454000 20.000000
787.521000 23.000000
807.576000 20.000000
809.545000 23.000000
833.506000 20.000000
833.565000 30.000000
851.577000 102.000000
869.534000 683.000000
869.568000 193.000000
869.609000 110.000000

