>compound LQB6001302
>parentmass 706.63455
>ionization [M+CH3COOH-H]-
>formula C42H81NO3
>rt 784.449000
>profile qtof
#smiles_iso CCCCCCCCCCCCC/C=C/C(C(CO)NC(=O)CCCCCCCCC/C=C\CCCCCCCCCCCC)O
#smiles_can CCCCCCCCCCCCCC=CC(C(CO)NC(=O)CCCCCCCCCC=CCCCCCCCCCCCC)O
#inchikey FUWLDBVRSLAFFJ-DBOQMASJSA-N
#pubchem_id 138156076
#mb_accession LQB00048,LQB00049,LQB00434,LQB00435

>ms2peaks
235.202000 50.000000
237.221000 1946.000000
239.240000 60.000000
250.252000 70.000000
255.233000 60.000000
263.234000 1499.000000
266.249000 417.000000
268.263000 316.000000
281.255000 51.000000
298.273000 182.000000
336.319000 41.000000
344.050000 42.000000
347.329000 2473.000000
347.366000 40.000000
363.364000 122.000000
364.356000 1897.000000
365.341000 1347.000000
366.371000 40.000000
367.362000 40.000000
378.374000 50.000000
388.363000 50.000000
389.150000 125.000000
390.374000 8669.000000
392.390000 174.000000
404.353000 80.000000
405.359000 43.000000
406.367000 1174.000000
408.379000 79.000000
408.405000 40.000000
571.584000 40.000000
598.545000 92.000000
598.586000 1224.000000
614.552000 285.000000
614.588000 1031.000000
616.576000 711.000000
616.606000 1793.000000
616.649000 81.000000
628.510000 244.000000
628.553000 92.000000
628.595000 100.000000
644.589000 90.000000
646.521000 346.000000
646.542000 112.000000
646.612000 23148.000000
647.601000 66.000000
706.635000 120.000000

>ms2peaks
80.024000 60.000000
95.049000 81.000000
209.192000 111.000000
221.233000 60.000000
223.209000 121.000000
225.218000 120.000000
235.207000 745.000000
235.229000 70.000000
236.480000 90.000000
237.033000 60.000000
237.221000 16826.000000
239.238000 531.000000
245.223000 60.000000
250.252000 531.000000
251.238000 116.000000
255.233000 182.000000
261.210000 91.000000
261.221000 214.000000
261.239000 61.000000
262.256000 81.000000
262.422000 78.000000
263.237000 13635.000000
264.233000 108.000000
266.247000 2700.000000
268.262000 2928.000000
278.247000 141.000000
281.252000 296.000000
298.275000 867.000000
345.312000 95.000000
346.246000 90.000000
347.331000 17586.000000
349.349000 543.000000
349.371000 70.000000
363.210000 90.000000
363.361000 683.000000
363.381000 175.000000
364.357000 16512.000000
365.341000 11704.000000
366.375000 357.000000
367.359000 315.000000
378.376000 253.000000
388.362000 306.000000
389.129000 102.000000
389.148000 276.000000
389.191000 70.000000
390.373000 73310.000000
391.373000 111.000000
392.380000 1264.000000
392.399000 745.000000
404.341000 406.000000
404.366000 122.000000
405.089000 84.000000
405.363000 300.000000
406.369000 11873.000000
408.341000 81.000000
408.379000 551.000000
408.401000 112.000000
420.381000 90.000000
559.575000 60.000000
571.575000 242.000000
571.598000 133.000000
580.586000 80.000000
587.577000 387.000000
588.604000 90.000000
596.599000 103.000000
596.728000 101.000000
598.513000 60.000000
598.594000 10436.000000
600.584000 100.000000
600.626000 80.000000
610.595000 307.000000
612.655000 73.000000
614.587000 12860.000000
614.659000 63.000000
615.604000 83.000000
616.604000 22143.000000
618.616000 124.000000
628.488000 96.000000
628.513000 184.000000
628.534000 163.000000
628.577000 358.000000
628.604000 642.000000
644.570000 572.000000
644.593000 480.000000
644.627000 266.000000
646.356000 73.000000
646.476000 91.000000
646.513000 101.000000
646.613000 92231.000000
646.688000 103.000000
647.573000 81.000000
647.604000 254.000000
647.636000 286.000000
647.870000 76.000000
650.938000 73.000000
706.472000 30.000000
706.604000 132.000000
706.632000 286.000000

>ms2peaks
235.202000 50.000000
237.221000 1946.000000
239.240000 60.000000
250.252000 70.000000
255.233000 60.000000
263.234000 1499.000000
266.249000 417.000000
268.263000 316.000000
281.255000 51.000000
298.273000 182.000000
336.319000 41.000000
344.050000 42.000000
347.329000 2473.000000
347.366000 40.000000
363.364000 122.000000
364.356000 1897.000000
365.341000 1347.000000
366.371000 40.000000
367.362000 40.000000
378.374000 50.000000
388.363000 50.000000
389.150000 125.000000
390.374000 8669.000000
392.390000 174.000000
404.353000 80.000000
405.359000 43.000000
406.367000 1174.000000
408.379000 79.000000
408.405000 40.000000
571.584000 40.000000
598.545000 92.000000
598.586000 1224.000000
614.552000 285.000000
614.588000 1031.000000
616.576000 711.000000
616.606000 1793.000000
616.649000 81.000000
628.510000 244.000000
628.553000 92.000000
628.595000 100.000000
644.589000 90.000000
646.521000 346.000000
646.542000 112.000000
646.612000 23148.000000
647.601000 66.000000
706.635000 120.000000

>ms2peaks
80.024000 60.000000
95.049000 81.000000
209.192000 111.000000
221.233000 60.000000
223.209000 121.000000
225.218000 120.000000
235.207000 745.000000
235.229000 70.000000
236.480000 90.000000
237.033000 60.000000
237.221000 16826.000000
239.238000 531.000000
245.223000 60.000000
250.252000 531.000000
251.238000 116.000000
255.233000 182.000000
261.210000 91.000000
261.221000 214.000000
261.239000 61.000000
262.256000 81.000000
262.422000 78.000000
263.237000 13635.000000
264.233000 108.000000
266.247000 2700.000000
268.262000 2928.000000
278.247000 141.000000
281.252000 296.000000
298.275000 867.000000
345.312000 95.000000
346.246000 90.000000
347.331000 17586.000000
349.349000 543.000000
349.371000 70.000000
363.210000 90.000000
363.361000 683.000000
363.381000 175.000000
364.357000 16512.000000
365.341000 11704.000000
366.375000 357.000000
367.359000 315.000000
378.376000 253.000000
388.362000 306.000000
389.129000 102.000000
389.148000 276.000000
389.191000 70.000000
390.373000 73310.000000
391.373000 111.000000
392.380000 1264.000000
392.399000 745.000000
404.341000 406.000000
404.366000 122.000000
405.089000 84.000000
405.363000 300.000000
406.369000 11873.000000
408.341000 81.000000
408.379000 551.000000
408.401000 112.000000
420.381000 90.000000
559.575000 60.000000
571.575000 242.000000
571.598000 133.000000
580.586000 80.000000
587.577000 387.000000
588.604000 90.000000
596.599000 103.000000
596.728000 101.000000
598.513000 60.000000
598.594000 10436.000000
600.584000 100.000000
600.626000 80.000000
610.595000 307.000000
612.655000 73.000000
614.587000 12860.000000
614.659000 63.000000
615.604000 83.000000
616.604000 22143.000000
618.616000 124.000000
628.488000 96.000000
628.513000 184.000000
628.534000 163.000000
628.577000 358.000000
628.604000 642.000000
644.570000 572.000000
644.593000 480.000000
644.627000 266.000000
646.356000 73.000000
646.476000 91.000000
646.513000 101.000000
646.613000 92231.000000
646.688000 103.000000
647.573000 81.000000
647.604000 254.000000
647.636000 286.000000
647.870000 76.000000
650.938000 73.000000
706.472000 30.000000
706.604000 132.000000
706.632000 286.000000

