>compound LQB6306473
>parentmass 722.6282
>ionization [M+CH3COOH-H]-
>formula C42H81NO4
>rt 774.210000
>profile qtof
#smiles_iso CCCCCCCCCCCCC/C=C/C(C(CO)NC(=O)C(CCCCCCCC/C=C\CCCCCCCCCCCC)O)O
#smiles_can CCCCCCCCCCCCCC=CC(C(CO)NC(=O)C(CCCCCCCCC=CCCCCCCCCCCCC)O)O
#inchikey PYGVPCBXCGQXNA-SZHIUZGGSA-N
#pubchem_id 138240952
#mb_accession LQB00013,LQB00399

>ms2peaks
237.222000 337.000000
239.229000 90.000000
239.243000 143.000000
250.255000 182.000000
255.233000 40.000000
262.256000 40.000000
263.235000 202.000000
266.251000 264.000000
268.250000 185.000000
268.271000 417.000000
271.216000 70.000000
278.249000 50.000000
280.262000 120.000000
290.246000 60.000000
298.274000 193.000000
298.286000 71.000000
308.257000 50.000000
335.332000 1183.000000
363.320000 408.000000
363.339000 184.000000
365.336000 70.000000
376.355000 45.000000
380.335000 71.000000
380.353000 296.000000
381.335000 816.000000
388.354000 184.000000
392.353000 43.000000
406.364000 1122.000000
422.352000 112.000000
422.363000 407.000000
424.368000 143.000000
424.390000 90.000000
596.585000 80.000000
614.540000 101.000000
614.585000 775.000000
626.598000 80.000000
630.555000 112.000000
630.592000 183.000000
632.595000 121.000000
637.589000 100.000000
644.556000 70.000000
644.596000 490.000000
644.643000 40.000000
662.098000 30.000000
662.527000 50.000000
662.606000 19282.000000
662.680000 55.000000
663.637000 40.000000
722.570000 30.000000

>ms2peaks
237.222000 337.000000
239.229000 90.000000
239.243000 143.000000
250.255000 182.000000
255.233000 40.000000
262.256000 40.000000
263.235000 202.000000
266.251000 264.000000
268.250000 185.000000
268.271000 417.000000
271.216000 70.000000
278.249000 50.000000
280.262000 120.000000
290.246000 60.000000
298.274000 193.000000
298.286000 71.000000
308.257000 50.000000
335.332000 1183.000000
363.320000 408.000000
363.339000 184.000000
365.336000 70.000000
376.355000 45.000000
380.335000 71.000000
380.353000 296.000000
381.335000 816.000000
388.354000 184.000000
392.353000 43.000000
406.364000 1122.000000
422.352000 112.000000
422.363000 407.000000
424.368000 143.000000
424.390000 90.000000
596.585000 80.000000
614.540000 101.000000
614.585000 775.000000
626.598000 80.000000
630.555000 112.000000
630.592000 183.000000
632.595000 121.000000
637.589000 100.000000
644.556000 70.000000
644.596000 490.000000
644.643000 40.000000
662.098000 30.000000
662.527000 50.000000
662.606000 19282.000000
662.680000 55.000000
663.637000 40.000000
722.570000 30.000000

