>compound LQB6523108
>parentmass 855.50235
>ionization [M-H]-
>formula C45H77O13P
>rt 485.060940
>profile qtof
#smiles_iso CCCCCCCCCCCCCCCC(=O)OCC(COP(=O)(O)OC1C(C(C(C(C1O)O)O)O)O)OC(=O)CCC/C=C\C/C=C\C/C=C\C/C=C\C/C=C\CC
#smiles_can CCCCCCCCCCCCCCCC(=O)OCC(COP(=O)(O)OC1C(C(C(C(C1O)O)O)O)O)OC(=O)CCCC=CCC=CCC=CCC=CCC=CCC
#inchikey FQGSWQFJOVVRRB-LPHKCNJWSA-N
#pubchem_id 138154651
#mb_accession LQB00298,LQB00299,LQB00684,LQB00685

>ms2
152.995000 183.000000
196.037000 60.000000
203.183000 40.000000
223.000000 234.000000
241.010000 1386.000000
255.233000 1824.000000
257.224000 235.000000
257.237000 82.000000
259.021000 132.000000
283.264000 171.000000
284.266000 182.000000
293.200000 20.000000
297.037000 151.000000
301.217000 1041.000000
315.047000 100.000000
391.221000 754.000000
405.270000 20.000000
409.236000 35.000000
437.212000 112.000000
471.961000 20.000000
479.177000 20.000000
480.305000 91.000000
481.305000 92.000000
553.255000 224.000000
553.276000 632.000000
571.288000 305.000000
599.246000 112.000000
599.274000 71.000000
599.305000 35.000000
617.264000 30.000000
693.426000 50.000000
693.474000 30.000000
705.459000 40.000000
763.437000 20.000000
781.518000 50.000000
823.482000 70.000000
837.507000 20.000000
852.774000 42.000000
854.221000 20.000000
854.563000 20.000000
855.211000 16.000000
855.372000 22.000000
855.500000 13131.000000
855.566000 120.000000
855.713000 35.000000
856.506000 40.000000

>ms2
78.957000 95.000000
96.970000 65.000000
121.066000 25.000000
135.120000 22.000000
152.995000 352.000000
196.040000 76.000000
203.179000 55.000000
214.051000 30.000000
222.998000 432.000000
225.188000 50.000000
241.010000 2352.000000
254.433000 25.000000
255.170000 55.000000
255.231000 3086.000000
257.213000 86.000000
257.227000 382.000000
259.021000 183.000000
283.263000 540.000000
284.265000 503.000000
297.035000 352.000000
301.214000 2766.000000
311.201000 48.000000
312.202000 30.000000
315.043000 141.000000
315.065000 25.000000
356.194000 25.000000
373.190000 25.000000
374.200000 20.000000
391.222000 1769.000000
409.223000 125.000000
409.249000 66.000000
437.194000 121.000000
437.218000 121.000000
470.547000 23.000000
480.282000 105.000000
480.309000 204.000000
481.285000 18.000000
481.306000 203.000000
517.544000 15.000000
541.234000 18.000000
551.477000 15.000000
553.268000 2424.000000
553.297000 225.000000
571.284000 694.000000
599.243000 112.000000
599.258000 270.000000
599.278000 85.000000
617.258000 55.000000
693.444000 45.000000
705.450000 40.000000
705.488000 40.000000
781.520000 30.000000
821.513000 31.000000
823.465000 31.000000
837.494000 91.000000
837.526000 130.000000
852.755000 50.000000
852.791000 70.000000
852.813000 50.000000
855.027000 34.000000
855.324000 20.000000
855.401000 65.000000
855.493000 28235.000000
855.761000 20.000000
856.091000 20.000000
856.480000 60.000000
856.513000 55.000000

>ms2
152.995000 183.000000
196.037000 60.000000
203.183000 40.000000
223.000000 234.000000
241.010000 1386.000000
255.233000 1824.000000
257.224000 235.000000
257.237000 82.000000
259.021000 132.000000
283.264000 171.000000
284.266000 182.000000
293.200000 20.000000
297.037000 151.000000
301.217000 1041.000000
315.047000 100.000000
391.221000 754.000000
405.270000 20.000000
409.236000 35.000000
437.212000 112.000000
471.961000 20.000000
479.177000 20.000000
480.305000 91.000000
481.305000 92.000000
553.255000 224.000000
553.276000 632.000000
571.288000 305.000000
599.246000 112.000000
599.274000 71.000000
599.305000 35.000000
617.264000 30.000000
693.426000 50.000000
693.474000 30.000000
705.459000 40.000000
763.437000 20.000000
781.518000 50.000000
823.482000 70.000000
837.507000 20.000000
852.774000 42.000000
854.221000 20.000000
854.563000 20.000000
855.211000 16.000000
855.372000 22.000000
855.500000 13131.000000
855.566000 120.000000
855.713000 35.000000
856.506000 40.000000

>ms2
78.957000 95.000000
96.970000 65.000000
121.066000 25.000000
135.120000 22.000000
152.995000 352.000000
196.040000 76.000000
203.179000 55.000000
214.051000 30.000000
222.998000 432.000000
225.188000 50.000000
241.010000 2352.000000
254.433000 25.000000
255.170000 55.000000
255.231000 3086.000000
257.213000 86.000000
257.227000 382.000000
259.021000 183.000000
283.263000 540.000000
284.265000 503.000000
297.035000 352.000000
301.214000 2766.000000
311.201000 48.000000
312.202000 30.000000
315.043000 141.000000
315.065000 25.000000
356.194000 25.000000
373.190000 25.000000
374.200000 20.000000
391.222000 1769.000000
409.223000 125.000000
409.249000 66.000000
437.194000 121.000000
437.218000 121.000000
470.547000 23.000000
480.282000 105.000000
480.309000 204.000000
481.285000 18.000000
481.306000 203.000000
517.544000 15.000000
541.234000 18.000000
551.477000 15.000000
553.268000 2424.000000
553.297000 225.000000
571.284000 694.000000
599.243000 112.000000
599.258000 270.000000
599.278000 85.000000
617.258000 55.000000
693.444000 45.000000
705.450000 40.000000
705.488000 40.000000
781.520000 30.000000
821.513000 31.000000
823.465000 31.000000
837.494000 91.000000
837.526000 130.000000
852.755000 50.000000
852.791000 70.000000
852.813000 50.000000
855.027000 34.000000
855.324000 20.000000
855.401000 65.000000
855.493000 28235.000000
855.761000 20.000000
856.091000 20.000000
856.480000 60.000000
856.513000 55.000000

