>compound LQB6913833
>parentmass 789.6102000000001
>ionization [M+CH3COOH-H]-
>formula C41H83N2O6P
>rt 585.769800
>profile qtof
#smiles_iso CCCCCCCCCCCCCCCCCC(=O)NC(COP(=O)([O-])OCC[N+](C)(C)C)C(/C=C/CCCCCCCCCCCCC)O
#smiles_can CCCCCCCCCCCCCCCCCC(=O)NC(COP(=O)([O-])OCC[N+](C)(C)C)C(C=CCCCCCCCCCCCCC)O
#inchikey LKQLRGMMMAHREN-NWBJSICCSA-N
#pubchem_id 5353953
#mb_accession LQB00357,LQB00358,LQB00743,LQB00744

>ms2peaks
78.954000 516.000000
78.960000 1179.000000
89.026000 60.000000
119.034000 70.000000
122.985000 172.000000
152.990000 81.000000
167.529000 62.000000
168.042000 7117.000000
179.054000 43.000000
255.233000 70.000000
281.240000 91.000000
281.268000 60.000000
282.248000 93.000000
283.260000 326.000000
283.271000 163.000000
284.263000 244.000000
324.288000 40.000000
417.249000 50.000000
418.242000 90.000000
419.255000 124.000000
420.240000 40.000000
420.263000 91.000000
437.272000 41.000000
438.273000 50.000000
449.285000 50.000000
449.316000 388.000000
480.328000 45.000000
491.623000 20.000000
533.904000 20.000000
545.506000 20.000000
559.514000 60.000000
562.491000 50.000000
562.522000 84.000000
563.498000 91.000000
563.524000 153.000000
563.549000 101.000000
580.542000 20.000000
581.528000 60.000000
626.489000 63.000000
644.487000 173.000000
644.509000 236.000000
670.512000 172.000000
701.505000 71.000000
702.506000 183.000000
702.525000 347.000000
713.301000 64.000000
713.321000 154.000000
713.340000 143.000000
713.377000 60.000000
715.457000 101.000000
715.575000 103135.000000
716.568000 246.000000
716.603000 101.000000
730.492000 71.000000
730.522000 214.000000
730.547000 346.000000
730.582000 71.000000
742.558000 132.000000
742.598000 204.000000
743.521000 60.000000
743.563000 479.000000
743.593000 897.000000
743.646000 101.000000
789.477000 91.000000
789.536000 439.000000
789.608000 2452.000000
789.651000 196.000000
789.676000 82.000000

>ms2peaks
78.959000 180.000000
122.984000 16.000000
152.994000 13.000000
168.042000 707.000000
281.252000 15.000000
282.253000 17.000000
283.262000 65.000000
284.266000 65.000000
400.634000 7.000000
417.252000 12.000000
418.242000 13.000000
419.244000 16.000000
420.259000 31.000000
426.442000 7.000000
437.264000 10.000000
438.276000 13.000000
449.316000 39.000000
468.774000 6.000000
644.486000 29.000000
644.524000 14.000000
670.524000 17.000000
702.509000 77.000000
702.529000 37.000000
713.332000 30.000000
714.631000 13.000000
715.510000 44.000000
715.572000 10290.000000
716.572000 49.000000
730.511000 16.000000
730.533000 50.000000
743.588000 22.000000
789.526000 64.000000
789.559000 87.000000
789.601000 149.000000
789.622000 112.000000
789.665000 16.000000

>ms2peaks
78.954000 516.000000
78.960000 1179.000000
89.026000 60.000000
119.034000 70.000000
122.985000 172.000000
152.990000 81.000000
167.529000 62.000000
168.042000 7117.000000
179.054000 43.000000
255.233000 70.000000
281.240000 91.000000
281.268000 60.000000
282.248000 93.000000
283.260000 326.000000
283.271000 163.000000
284.263000 244.000000
324.288000 40.000000
417.249000 50.000000
418.242000 90.000000
419.255000 124.000000
420.240000 40.000000
420.263000 91.000000
437.272000 41.000000
438.273000 50.000000
449.285000 50.000000
449.316000 388.000000
480.328000 45.000000
491.623000 20.000000
533.904000 20.000000
545.506000 20.000000
559.514000 60.000000
562.491000 50.000000
562.522000 84.000000
563.498000 91.000000
563.524000 153.000000
563.549000 101.000000
580.542000 20.000000
581.528000 60.000000
626.489000 63.000000
644.487000 173.000000
644.509000 236.000000
670.512000 172.000000
701.505000 71.000000
702.506000 183.000000
702.525000 347.000000
713.301000 64.000000
713.321000 154.000000
713.340000 143.000000
713.377000 60.000000
715.457000 101.000000
715.575000 103135.000000
716.568000 246.000000
716.603000 101.000000
730.492000 71.000000
730.522000 214.000000
730.547000 346.000000
730.582000 71.000000
742.558000 132.000000
742.598000 204.000000
743.521000 60.000000
743.563000 479.000000
743.593000 897.000000
743.646000 101.000000
789.477000 91.000000
789.536000 439.000000
789.608000 2452.000000
789.651000 196.000000
789.676000 82.000000

>ms2peaks
78.959000 180.000000
122.984000 16.000000
152.994000 13.000000
168.042000 707.000000
281.252000 15.000000
282.253000 17.000000
283.262000 65.000000
284.266000 65.000000
400.634000 7.000000
417.252000 12.000000
418.242000 13.000000
419.244000 16.000000
420.259000 31.000000
426.442000 7.000000
437.264000 10.000000
438.276000 13.000000
449.316000 39.000000
468.774000 6.000000
644.486000 29.000000
644.524000 14.000000
670.524000 17.000000
702.509000 77.000000
702.529000 37.000000
713.332000 30.000000
714.631000 13.000000
715.510000 44.000000
715.572000 10290.000000
716.572000 49.000000
730.511000 16.000000
730.533000 50.000000
743.588000 22.000000
789.526000 64.000000
789.559000 87.000000
789.601000 149.000000
789.622000 112.000000
789.665000 16.000000

