>compound LQB6078691
>parentmass 819.6533
>ionization [M+CH3COOH-H]-
>formula C43H89N2O6P
>rt 678.122400
>profile qtof
#smiles_iso CCCCCCCCCCCCCCCCCCCC(=O)NC(COP(=O)([O-])OCC[N+](C)(C)C)C(CCCCCCCCCCCCCCC)O
#smiles_can CCCCCCCCCCCCCCCCCCCC(=O)NC(COP(=O)([O-])OCC[N+](C)(C)C)C(CCCCCCCCCCCCCCC)O
#inchikey UGRZESKDAPEULH-UHFFFAOYSA-N
#pubchem_id 74978593
#mb_accession LQB00348,LQB00734

>ms2
122.984000 10.000000
168.030000 30.000000
168.037000 82.000000
168.043000 70.000000
168.048000 60.000000
255.228000 15.000000
281.243000 15.000000
327.229000 35.000000
426.534000 13.000000
627.493000 85.000000
627.512000 35.000000
627.530000 90.000000
674.541000 20.000000
744.591000 25.000000
745.544000 35.000000
745.586000 484.000000
745.596000 864.000000
745.624000 3520.000000
759.573000 40.000000
759.597000 25.000000
759.634000 75.000000
760.577000 50.000000
773.602000 25.000000
775.609000 20.000000
819.586000 40.000000
819.605000 35.000000
819.651000 60.000000
819.679000 40.000000
819.698000 25.000000

>ms2
122.984000 10.000000
168.030000 30.000000
168.037000 82.000000
168.043000 70.000000
168.048000 60.000000
255.228000 15.000000
281.243000 15.000000
327.229000 35.000000
426.534000 13.000000
627.493000 85.000000
627.512000 35.000000
627.530000 90.000000
674.541000 20.000000
744.591000 25.000000
745.544000 35.000000
745.586000 484.000000
745.596000 864.000000
745.624000 3520.000000
759.573000 40.000000
759.597000 25.000000
759.634000 75.000000
760.577000 50.000000
773.602000 25.000000
775.609000 20.000000
819.586000 40.000000
819.605000 35.000000
819.651000 60.000000
819.679000 40.000000
819.698000 25.000000

