>compound LQB7669068
>parentmass 878.5879
>ionization [M+CH3COOH-H]-
>formula C47H82NO8P
>rt 574.693020
>profile qtof
#smiles_iso CCCCCCCCCCCCCCCCC(=O)OCC(COP(=O)([O-])OCC[N+](C)(C)C)OC(=O)CC/C=C\C/C=C\C/C=C\C/C=C\C/C=C\C/C=C\CC
#smiles_can CCCCCCCCCCCCCCCCC(=O)OCC(COP(=O)([O-])OCC[N+](C)(C)C)OC(=O)CCC=CCC=CCC=CCC=CCC=CCC=CCC
#inchikey KSRURLYJRNYEOH-CRVSLQDRSA-N
#pubchem_id 134744996
#mb_accession LQB00129,LQB00515

>ms2
168.040000 80.000000
168.050000 80.000000
177.165000 40.000000
224.070000 121.000000
229.195000 151.000000
249.184000 102.000000
255.217000 31.000000
269.247000 2644.000000
279.230000 81.000000
283.241000 1111.000000
297.221000 41.000000
309.219000 58.000000
326.218000 41.000000
326.817000 21.000000
327.230000 4247.000000
405.235000 30.000000
464.311000 20.000000
476.313000 172.000000
494.320000 938.000000
494.348000 153.000000
509.286000 20.000000
534.306000 70.000000
552.292000 53.000000
733.479000 20.000000
740.507000 80.000000
759.486000 40.000000
774.590000 20.000000
796.499000 20.000000
802.013000 77.000000
802.797000 22.000000
803.485000 21.000000
804.549000 8954.000000
804.675000 23.000000
805.559000 41.000000
819.501000 101.000000
819.551000 30.000000
878.592000 703.000000

>ms2
168.040000 80.000000
168.050000 80.000000
177.165000 40.000000
224.070000 121.000000
229.195000 151.000000
249.184000 102.000000
255.217000 31.000000
269.247000 2644.000000
279.230000 81.000000
283.241000 1111.000000
297.221000 41.000000
309.219000 58.000000
326.218000 41.000000
326.817000 21.000000
327.230000 4247.000000
405.235000 30.000000
464.311000 20.000000
476.313000 172.000000
494.320000 938.000000
494.348000 153.000000
509.286000 20.000000
534.306000 70.000000
552.292000 53.000000
733.479000 20.000000
740.507000 80.000000
759.486000 40.000000
774.590000 20.000000
796.499000 20.000000
802.013000 77.000000
802.797000 22.000000
803.485000 21.000000
804.549000 8954.000000
804.675000 23.000000
805.559000 41.000000
819.501000 101.000000
819.551000 30.000000
878.592000 703.000000

