>compound LQB7485561
>parentmass 828.5744
>ionization [M+CH3COOH-H]-
>formula C43H80NO8P
>rt 546.197160
>profile qtof
#smiles_iso CCCCCCC/C=C\CCCCCCCC(=O)OCC(COP(=O)([O-])OCC[N+](C)(C)C)OC(=O)CCCCCCC/C=C\C/C=C\CCCCC
#smiles_can CCCCCCCC=CCCCCCCCC(=O)OCC(COP(=O)([O-])OCC[N+](C)(C)C)OC(=O)CCCCCCCC=CCC=CCCCCC
#inchikey UJXPBTXUYBVHBS-ZFUXOTDWSA-N
#pubchem_id 138271945
#mb_accession LQB00130,LQB00516

>ms2
168.042000 10.000000
224.072000 15.000000
241.223000 10.000000
265.213000 30.000000
267.232000 260.000000
277.209000 16.000000
279.231000 714.000000
281.247000 25.000000
283.258000 10.000000
305.246000 23.000000
306.252000 10.000000
440.470000 15.000000
474.302000 15.000000
492.303000 50.000000
746.502000 10.000000
754.534000 841.000000
754.567000 112.000000
767.529000 45.000000
768.518000 10.000000
769.496000 15.000000
796.488000 10.000000
796.597000 16.000000
828.499000 25.000000
828.581000 140.000000
828.635000 25.000000

>ms2
168.042000 10.000000
224.072000 15.000000
241.223000 10.000000
265.213000 30.000000
267.232000 260.000000
277.209000 16.000000
279.231000 714.000000
281.247000 25.000000
283.258000 10.000000
305.246000 23.000000
306.252000 10.000000
440.470000 15.000000
474.302000 15.000000
492.303000 50.000000
746.502000 10.000000
754.534000 841.000000
754.567000 112.000000
767.529000 45.000000
768.518000 10.000000
769.496000 15.000000
796.488000 10.000000
796.597000 16.000000
828.499000 25.000000
828.581000 140.000000
828.635000 25.000000

