>compound LQB7464243
>parentmass 766.539
>ionization [M-H]-
>formula C43H78NO8P
>rt 603.747600
>profile qtof
#smiles_iso CCCCCCCCCCCCCCCC(=O)OCC(COP(=O)(O)OCCN)OC(=O)CCCCCCCC/C=C\C/C=C\C/C=C\C/C=C\CC
#smiles_can CCCCCCCCCCCCCCCC(=O)OCC(COP(=O)(O)OCCN)OC(=O)CCCCCCCCC=CCC=CCC=CCC=CCC
#inchikey ICYDFONFTSPCRL-BHYOAKPMSA-N
#pubchem_id 138175392
#mb_accession LQB00180,LQB00181,LQB00566,LQB00567

>ms2peaks
78.957000 131.000000
122.003000 70.000000
140.010000 530.000000
177.089000 40.000000
178.025000 50.000000
191.112000 40.000000
196.040000 703.000000
205.123000 71.000000
214.048000 90.000000
233.226000 162.000000
253.220000 48.000000
254.437000 84.000000
255.233000 14972.000000
259.241000 60.000000
281.238000 60.000000
281.254000 71.000000
283.259000 183.000000
287.259000 164.000000
287.277000 1010.000000
303.231000 352.000000
305.233000 55.000000
313.255000 293.000000
329.248000 151.000000
330.234000 220.000000
331.263000 40076.000000
331.327000 43.000000
331.431000 41.000000
434.251000 132.000000
434.265000 245.000000
434.281000 266.000000
452.239000 196.000000
452.274000 2097.000000
452.293000 810.000000
480.324000 53.000000
510.295000 276.000000
510.311000 71.000000
528.292000 112.000000
528.318000 100.000000
614.513000 20.000000
663.531000 83.000000
764.120000 100.000000
764.811000 30.000000
766.393000 40.000000
766.539000 18826.000000
766.630000 100.000000
766.768000 35.000000
767.542000 33.000000

>ms2peaks
140.012000 121.000000
196.037000 81.000000
255.231000 1581.000000
259.243000 162.000000
283.263000 1072.000000
287.270000 183.000000
301.213000 31.000000
303.231000 2245.000000
305.247000 89.000000
329.250000 21.000000
330.228000 20.000000
331.262000 4129.000000
332.263000 163.000000
434.263000 71.000000
434.310000 50.000000
451.315000 20.000000
452.277000 235.000000
462.293000 53.000000
480.305000 224.000000
482.259000 20.000000
491.147000 21.000000
510.289000 60.000000
528.300000 41.000000
543.296000 21.000000
634.901000 21.000000
766.532000 3959.000000
766.567000 371.000000
766.587000 103.000000
766.619000 40.000000

>ms2peaks
78.957000 131.000000
122.003000 70.000000
140.010000 530.000000
177.089000 40.000000
178.025000 50.000000
191.112000 40.000000
196.040000 703.000000
205.123000 71.000000
214.048000 90.000000
233.226000 162.000000
253.220000 48.000000
254.437000 84.000000
255.233000 14972.000000
259.241000 60.000000
281.238000 60.000000
281.254000 71.000000
283.259000 183.000000
287.259000 164.000000
287.277000 1010.000000
303.231000 352.000000
305.233000 55.000000
313.255000 293.000000
329.248000 151.000000
330.234000 220.000000
331.263000 40076.000000
331.327000 43.000000
331.431000 41.000000
434.251000 132.000000
434.265000 245.000000
434.281000 266.000000
452.239000 196.000000
452.274000 2097.000000
452.293000 810.000000
480.324000 53.000000
510.295000 276.000000
510.311000 71.000000
528.292000 112.000000
528.318000 100.000000
614.513000 20.000000
663.531000 83.000000
764.120000 100.000000
764.811000 30.000000
766.393000 40.000000
766.539000 18826.000000
766.630000 100.000000
766.768000 35.000000
767.542000 33.000000

>ms2peaks
140.012000 121.000000
196.037000 81.000000
255.231000 1581.000000
259.243000 162.000000
283.263000 1072.000000
287.270000 183.000000
301.213000 31.000000
303.231000 2245.000000
305.247000 89.000000
329.250000 21.000000
330.228000 20.000000
331.262000 4129.000000
332.263000 163.000000
434.263000 71.000000
434.310000 50.000000
451.315000 20.000000
452.277000 235.000000
462.293000 53.000000
480.305000 224.000000
482.259000 20.000000
491.147000 21.000000
510.289000 60.000000
528.300000 41.000000
543.296000 21.000000
634.901000 21.000000
766.532000 3959.000000
766.567000 371.000000
766.587000 103.000000
766.619000 40.000000

