>compound LQB7884909
>parentmass 714.5043
>ionization [M-H]-
>formula C39H74NO8P
>rt 568.706760
>profile qtof
#smiles_iso CCCCCCCCCCCCCCCC(=O)OCC(COP(=O)(O)OCCN)OC(=O)CCCCCCC/C=C\C/C=C\CCCCC
#smiles_can CCCCCCCCCCCCCCCC(=O)OCC(COP(=O)(O)OCCN)OC(=O)CCCCCCCC=CCC=CCCCCC
#inchikey HBZNVZIRJWODIB-BCTRXSSUSA-N
#pubchem_id 6426727
#mb_accession LQB00176,LQB00562

>ms2
78.958000 336.000000
122.002000 111.000000
140.009000 956.000000
152.995000 60.000000
178.023000 91.000000
196.028000 275.000000
196.039000 1000.000000
214.044000 102.000000
253.218000 70.000000
254.427000 120.000000
254.443000 99.000000
255.231000 22907.000000
261.221000 234.000000
278.349000 195.000000
278.361000 255.000000
278.391000 59.000000
279.131000 52.000000
279.191000 116.000000
279.231000 81710.000000
280.706000 38.000000
378.233000 33.000000
391.227000 40.000000
434.262000 827.000000
434.291000 113.000000
452.272000 3722.000000
452.323000 73.000000
458.262000 327.000000
458.289000 81.000000
476.266000 296.000000
476.293000 101.000000
550.243000 20.000000
657.572000 20.000000
712.254000 101.000000
713.547000 20.000000
714.258000 35.000000
714.331000 26.000000
714.499000 21112.000000
714.574000 129.000000
714.807000 32.000000
715.524000 60.000000

>ms2
78.958000 336.000000
122.002000 111.000000
140.009000 956.000000
152.995000 60.000000
178.023000 91.000000
196.028000 275.000000
196.039000 1000.000000
214.044000 102.000000
253.218000 70.000000
254.427000 120.000000
254.443000 99.000000
255.231000 22907.000000
261.221000 234.000000
278.349000 195.000000
278.361000 255.000000
278.391000 59.000000
279.131000 52.000000
279.191000 116.000000
279.231000 81710.000000
280.706000 38.000000
378.233000 33.000000
391.227000 40.000000
434.262000 827.000000
434.291000 113.000000
452.272000 3722.000000
452.323000 73.000000
458.262000 327.000000
458.289000 81.000000
476.266000 296.000000
476.293000 101.000000
550.243000 20.000000
657.572000 20.000000
712.254000 101.000000
713.547000 20.000000
714.258000 35.000000
714.331000 26.000000
714.499000 21112.000000
714.574000 129.000000
714.807000 32.000000
715.524000 60.000000

