>compound LQB7591276
>parentmass 872.6387
>ionization [M+CH3COOH-H]-
>formula C46H88NO8P
>rt 659.208600
>profile qtof
#smiles_iso CCCCCCCC/C=C\CCCCCCCCCC(=O)OC(COC(=O)CCCCCCC/C=C\CCCCCCCC)COP(=O)([O-])OCC[N+](C)(C)C
#smiles_can CCCCCCCCC=CCCCCCCCCCC(=O)OC(COC(=O)CCCCCCCC=CCCCCCCCC)COP(=O)([O-])OCC[N+](C)(C)C
#inchikey JLDQDLKBBDQYDE-IQDNDYAFSA-N
#pubchem_id 138186336
#mb_accession LQB00146,LQB00532

>ms2peaks
89.024000 50.000000
113.025000 20.000000
119.032000 30.000000
168.038000 30.000000
203.885000 20.000000
224.065000 60.000000
239.245000 20.000000
253.216000 154.000000
255.234000 21.000000
280.269000 21.000000
281.248000 4121.000000
281.276000 62.000000
283.252000 20.000000
306.246000 31.000000
308.319000 23.000000
309.278000 1934.000000
335.287000 20.000000
337.317000 20.000000
366.341000 20.000000
435.248000 30.000000
445.266000 33.000000
467.666000 20.000000
488.316000 50.000000
506.320000 140.000000
516.349000 60.000000
534.347000 162.000000
534.369000 153.000000
618.576000 20.000000
632.593000 80.000000
727.543000 30.000000
785.597000 71.000000
790.544000 41.000000
798.531000 85.000000
798.601000 5478.000000
798.641000 567.000000
799.583000 44.000000
812.587000 38.000000
812.664000 316.000000
812.698000 81.000000
813.557000 70.000000
826.648000 50.000000
826.705000 50.000000
872.571000 61.000000
872.621000 520.000000
872.663000 266.000000

>ms2peaks
89.024000 50.000000
113.025000 20.000000
119.032000 30.000000
168.038000 30.000000
203.885000 20.000000
224.065000 60.000000
239.245000 20.000000
253.216000 154.000000
255.234000 21.000000
280.269000 21.000000
281.248000 4121.000000
281.276000 62.000000
283.252000 20.000000
306.246000 31.000000
308.319000 23.000000
309.278000 1934.000000
335.287000 20.000000
337.317000 20.000000
366.341000 20.000000
435.248000 30.000000
445.266000 33.000000
467.666000 20.000000
488.316000 50.000000
506.320000 140.000000
516.349000 60.000000
534.347000 162.000000
534.369000 153.000000
618.576000 20.000000
632.593000 80.000000
727.543000 30.000000
785.597000 71.000000
790.544000 41.000000
798.531000 85.000000
798.601000 5478.000000
798.641000 567.000000
799.583000 44.000000
812.587000 38.000000
812.664000 316.000000
812.698000 81.000000
813.557000 70.000000
826.648000 50.000000
826.705000 50.000000
872.571000 61.000000
872.621000 520.000000
872.663000 266.000000

