>compound LQB7802433
>parentmass 911.5652
>ionization [M-H]-
>formula C49H85O13P
>rt 527.691120
>profile qtof
#smiles_iso CCCCCCCCCCCCCCCCCC(=O)OCC(COP(=O)(O)OC1C(C(C(C(C1O)O)O)O)O)OC(=O)CCCCC/C=C\C/C=C\C/C=C\C/C=C\C/C=C\CC
#smiles_can CCCCCCCCCCCCCCCCCC(=O)OCC(COP(=O)(O)OC1C(C(C(C(C1O)O)O)O)O)OC(=O)CCCCCC=CCC=CCC=CCC=CCC=CCC
#inchikey QLABQLNIHHHJCI-NIZIMQIGSA-N
#pubchem_id 138244996
#mb_accession LQB00312,LQB00698

>ms2
78.958000 190.000000
96.963000 45.000000
96.970000 60.000000
152.995000 600.000000
171.006000 36.000000
204.991000 30.000000
219.146000 35.000000
223.000000 958.000000
231.211000 41.000000
240.266000 30.000000
241.011000 3981.000000
242.014000 27.000000
251.196000 25.000000
259.021000 341.000000
282.375000 65.000000
283.264000 5796.000000
284.268000 81.000000
285.255000 265.000000
285.277000 45.000000
297.036000 755.000000
303.226000 65.000000
309.278000 75.000000
311.238000 50.000000
315.046000 286.000000
327.234000 30.000000
328.221000 30.000000
329.247000 4908.000000
329.288000 42.000000
330.254000 60.000000
419.220000 93.000000
419.254000 2897.000000
420.259000 35.000000
437.267000 249.000000
445.272000 35.000000
465.240000 505.000000
466.241000 25.000000
520.493000 27.000000
525.281000 30.000000
579.462000 20.000000
581.283000 592.000000
581.309000 3414.000000
599.308000 407.000000
599.324000 510.000000
607.321000 62.000000
627.287000 595.000000
627.316000 123.000000
645.288000 75.000000
645.308000 40.000000
645.332000 30.000000
723.489000 80.000000
749.463000 28.000000
749.492000 158.000000
749.526000 132.000000
751.497000 60.000000
751.535000 65.000000
791.514000 15.000000
819.538000 31.000000
829.491000 17.000000
829.544000 20.000000
833.527000 26.000000
861.525000 45.000000
879.515000 50.000000
879.542000 55.000000
893.506000 25.000000
908.635000 70.000000
908.689000 336.000000
908.739000 40.000000
910.505000 25.000000
910.603000 28.000000
911.184000 31.000000
911.463000 65.000000
911.564000 67894.000000
911.797000 26.000000
911.992000 34.000000
912.263000 32.000000
912.502000 28.000000
912.554000 323.000000
912.597000 137.000000
913.582000 30.000000

>ms2
78.958000 190.000000
96.963000 45.000000
96.970000 60.000000
152.995000 600.000000
171.006000 36.000000
204.991000 30.000000
219.146000 35.000000
223.000000 958.000000
231.211000 41.000000
240.266000 30.000000
241.011000 3981.000000
242.014000 27.000000
251.196000 25.000000
259.021000 341.000000
282.375000 65.000000
283.264000 5796.000000
284.268000 81.000000
285.255000 265.000000
285.277000 45.000000
297.036000 755.000000
303.226000 65.000000
309.278000 75.000000
311.238000 50.000000
315.046000 286.000000
327.234000 30.000000
328.221000 30.000000
329.247000 4908.000000
329.288000 42.000000
330.254000 60.000000
419.220000 93.000000
419.254000 2897.000000
420.259000 35.000000
437.267000 249.000000
445.272000 35.000000
465.240000 505.000000
466.241000 25.000000
520.493000 27.000000
525.281000 30.000000
579.462000 20.000000
581.283000 592.000000
581.309000 3414.000000
599.308000 407.000000
599.324000 510.000000
607.321000 62.000000
627.287000 595.000000
627.316000 123.000000
645.288000 75.000000
645.308000 40.000000
645.332000 30.000000
723.489000 80.000000
749.463000 28.000000
749.492000 158.000000
749.526000 132.000000
751.497000 60.000000
751.535000 65.000000
791.514000 15.000000
819.538000 31.000000
829.491000 17.000000
829.544000 20.000000
833.527000 26.000000
861.525000 45.000000
879.515000 50.000000
879.542000 55.000000
893.506000 25.000000
908.635000 70.000000
908.689000 336.000000
908.739000 40.000000
910.505000 25.000000
910.603000 28.000000
911.184000 31.000000
911.463000 65.000000
911.564000 67894.000000
911.797000 26.000000
911.992000 34.000000
912.263000 32.000000
912.502000 28.000000
912.554000 323.000000
912.597000 137.000000
913.582000 30.000000

