>compound LQB7934026
>parentmass 790.723
>ionization [M+CH3COOH-H]-
>formula C48H93NO3
>rt 826.269600
>profile qtof
#smiles_iso CCCCCCCCCCCCCCC/C=C/C(C(CO)NC(=O)CCCCCCCCCCC/C=C\CCCCCCCCCCCCCC)O
#smiles_can CCCCCCCCCCCCCCCC=CC(C(CO)NC(=O)CCCCCCCCCCCC=CCCCCCCCCCCCCCC)O
#inchikey KECJTXHJXGWEHT-ZCVYQDRTSA-N
#pubchem_id 138192557
#mb_accession LQB00072,LQB00458

>ms2
118.970000 20.000000
141.016000 43.000000
216.992000 143.000000
217.003000 580.000000
246.976000 30.000000
263.235000 43.000000
265.248000 203.000000
265.260000 71.000000
265.269000 40.000000
277.018000 23.000000
291.256000 60.000000
291.264000 91.000000
291.272000 70.000000
293.276000 53.000000
298.984000 61.000000
298.990000 112.000000
299.001000 296.000000
299.020000 82.000000
377.356000 50.000000
377.379000 90.000000
381.004000 172.000000
392.375000 50.000000
394.409000 91.000000
395.381000 90.000000
403.385000 71.000000
403.404000 111.000000
418.395000 140.000000
420.394000 102.000000
420.403000 123.000000
420.419000 388.000000
420.432000 123.000000
421.402000 120.000000
436.428000 81.000000
446.397000 61.000000
446.424000 600.000000
446.442000 255.000000
463.005000 204.000000
474.478000 50.000000
545.023000 30.000000
626.966000 20.000000
656.657000 121.000000
672.656000 50.000000
674.666000 145.000000
682.642000 30.000000
682.681000 132.000000
698.651000 50.000000
698.666000 60.000000
698.685000 60.000000
698.704000 40.000000
700.625000 40.000000
700.656000 50.000000
700.669000 61.000000
700.700000 162.000000
704.674000 111.000000
704.699000 40.000000
705.700000 50.000000
728.381000 51.000000
730.648000 260.000000
730.687000 2188.000000
730.707000 1078.000000
730.719000 768.000000

>ms2
118.970000 20.000000
141.016000 43.000000
216.992000 143.000000
217.003000 580.000000
246.976000 30.000000
263.235000 43.000000
265.248000 203.000000
265.260000 71.000000
265.269000 40.000000
277.018000 23.000000
291.256000 60.000000
291.264000 91.000000
291.272000 70.000000
293.276000 53.000000
298.984000 61.000000
298.990000 112.000000
299.001000 296.000000
299.020000 82.000000
377.356000 50.000000
377.379000 90.000000
381.004000 172.000000
392.375000 50.000000
394.409000 91.000000
395.381000 90.000000
403.385000 71.000000
403.404000 111.000000
418.395000 140.000000
420.394000 102.000000
420.403000 123.000000
420.419000 388.000000
420.432000 123.000000
421.402000 120.000000
436.428000 81.000000
446.397000 61.000000
446.424000 600.000000
446.442000 255.000000
463.005000 204.000000
474.478000 50.000000
545.023000 30.000000
626.966000 20.000000
656.657000 121.000000
672.656000 50.000000
674.666000 145.000000
682.642000 30.000000
682.681000 132.000000
698.651000 50.000000
698.666000 60.000000
698.685000 60.000000
698.704000 40.000000
700.625000 40.000000
700.656000 50.000000
700.669000 61.000000
700.700000 162.000000
704.674000 111.000000
704.699000 40.000000
705.700000 50.000000
728.381000 51.000000
730.648000 260.000000
730.687000 2188.000000
730.707000 1078.000000
730.719000 768.000000

