>compound LQB7556920
>parentmass 860.5447
>ionization [M+CH3COOH-H]-
>formula C46H76NO8P
>rt 503.631780
>profile qtof
#smiles_iso CCC/C=C\C/C=C\CCCCCCCC(=O)OCC(COP(=O)([O-])OCC[N+](C)(C)C)OC(=O)CC/C=C\C/C=C\C/C=C\C/C=C\C/C=C\C/C=C\CC
#smiles_can CCCC=CCC=CCCCCCCCC(=O)OCC(COP(=O)([O-])OCC[N+](C)(C)C)OC(=O)CCC=CCC=CCC=CCC=CCC=CCC=CCC
#inchikey GQTMDGAVIYVIDL-RVTNGMKESA-N
#pubchem_id 138163135
#mb_accession LQB00125,LQB00511

>ms2
78.956000 26.000000
96.969000 13.000000
168.038000 38.000000
168.046000 23.000000
191.176000 13.000000
203.180000 14.000000
223.000000 16.000000
224.067000 106.000000
229.190000 101.000000
229.208000 23.000000
241.010000 168.000000
251.174000 23.000000
251.200000 1308.000000
255.221000 26.000000
255.235000 16.000000
259.021000 13.000000
279.221000 16.000000
279.234000 78.000000
280.233000 89.000000
281.240000 68.000000
281.253000 122.000000
282.251000 99.000000
283.241000 554.000000
297.025000 16.000000
306.243000 17.000000
326.197000 18.000000
327.233000 1751.000000
387.178000 18.000000
415.226000 32.000000
417.229000 44.000000
417.254000 23.000000
418.242000 29.000000
436.272000 28.000000
458.248000 43.000000
458.266000 48.000000
458.281000 47.000000
476.267000 245.000000
476.289000 195.000000
476.313000 20.000000
480.330000 6.000000
485.612000 6.000000
491.228000 6.000000
508.342000 7.000000
534.290000 17.000000
546.900000 9.000000
552.285000 16.000000
552.308000 36.000000
553.268000 6.000000
577.273000 30.000000
578.285000 32.000000
579.290000 35.000000
580.287000 29.000000
580.319000 19.000000
598.312000 16.000000
698.478000 10.000000
778.496000 40.000000
782.525000 10.000000
784.027000 22.000000
786.413000 12.000000
786.448000 170.000000
786.475000 742.000000
786.485000 822.000000
786.505000 2651.000000
786.533000 541.000000
787.490000 38.000000
801.435000 19.000000
801.473000 70.000000
857.811000 30.000000
860.498000 788.000000
860.535000 2251.000000
861.527000 13.000000

>ms2
78.956000 26.000000
96.969000 13.000000
168.038000 38.000000
168.046000 23.000000
191.176000 13.000000
203.180000 14.000000
223.000000 16.000000
224.067000 106.000000
229.190000 101.000000
229.208000 23.000000
241.010000 168.000000
251.174000 23.000000
251.200000 1308.000000
255.221000 26.000000
255.235000 16.000000
259.021000 13.000000
279.221000 16.000000
279.234000 78.000000
280.233000 89.000000
281.240000 68.000000
281.253000 122.000000
282.251000 99.000000
283.241000 554.000000
297.025000 16.000000
306.243000 17.000000
326.197000 18.000000
327.233000 1751.000000
387.178000 18.000000
415.226000 32.000000
417.229000 44.000000
417.254000 23.000000
418.242000 29.000000
436.272000 28.000000
458.248000 43.000000
458.266000 48.000000
458.281000 47.000000
476.267000 245.000000
476.289000 195.000000
476.313000 20.000000
480.330000 6.000000
485.612000 6.000000
491.228000 6.000000
508.342000 7.000000
534.290000 17.000000
546.900000 9.000000
552.285000 16.000000
552.308000 36.000000
553.268000 6.000000
577.273000 30.000000
578.285000 32.000000
579.290000 35.000000
580.287000 29.000000
580.319000 19.000000
598.312000 16.000000
698.478000 10.000000
778.496000 40.000000
782.525000 10.000000
784.027000 22.000000
786.413000 12.000000
786.448000 170.000000
786.475000 742.000000
786.485000 822.000000
786.505000 2651.000000
786.533000 541.000000
787.490000 38.000000
801.435000 19.000000
801.473000 70.000000
857.811000 30.000000
860.498000 788.000000
860.535000 2251.000000
861.527000 13.000000

