>compound LQB7996843
>parentmass 842.5976
>ionization [M-H]-
>formula C46H86NO10P
>rt 594.347040
>profile qtof
#smiles_iso CCCCCCCC/C=C\CCCCCCCCCCCC(=O)OC(COC(=O)CCCCCCC/C=C\CCCCCCCC)COP(=O)(O)OCC(C(=O)O)N
#smiles_can CCCCCCCCC=CCCCCCCCCCCCC(=O)OC(COC(=O)CCCCCCCC=CCCCCCCCC)COP(=O)(O)OCC(C(=O)O)N
#inchikey FPXKHYLLOQURGZ-YQSYOFKPSA-N
#pubchem_id 138154510
#mb_accession LQB00343,LQB00729

>ms2peaks
152.997000 50.000000
168.050000 20.000000
224.066000 20.000000
253.232000 30.000000
255.215000 70.000000
255.238000 80.000000
256.234000 60.000000
281.229000 70.000000
281.247000 264.000000
281.263000 92.000000
282.248000 201.000000
305.250000 30.000000
331.258000 50.000000
337.303000 122.000000
337.320000 163.000000
417.245000 53.000000
447.287000 20.000000
473.300000 202.000000
491.305000 100.000000
501.332000 30.000000
745.545000 23.000000
755.549000 163.000000
755.587000 74.000000
760.518000 30.000000
767.627000 60.000000
768.490000 30.000000
768.548000 61.000000
768.585000 348.000000
768.618000 235.000000
798.602000 23.000000
842.546000 173.000000
842.583000 265.000000
842.615000 194.000000

>ms2peaks
152.997000 50.000000
168.050000 20.000000
224.066000 20.000000
253.232000 30.000000
255.215000 70.000000
255.238000 80.000000
256.234000 60.000000
281.229000 70.000000
281.247000 264.000000
281.263000 92.000000
282.248000 201.000000
305.250000 30.000000
331.258000 50.000000
337.303000 122.000000
337.320000 163.000000
417.245000 53.000000
447.287000 20.000000
473.300000 202.000000
491.305000 100.000000
501.332000 30.000000
745.545000 23.000000
755.549000 163.000000
755.587000 74.000000
760.518000 30.000000
767.627000 60.000000
768.490000 30.000000
768.548000 61.000000
768.585000 348.000000
768.618000 235.000000
798.602000 23.000000
842.546000 173.000000
842.583000 265.000000
842.615000 194.000000

