>compound LQB7024825
>parentmass 832.5125
>ionization [M-H]-
>formula C46H76NO10P
>rt 500.735520
>profile qtof
#smiles_iso CCCCCCCC/C=C\CCCCCCCC(=O)OCC(COP(=O)(O)OCC(C(=O)O)N)OC(=O)CC/C=C\C/C=C\C/C=C\C/C=C\C/C=C\C/C=C\CC
#smiles_can CCCCCCCCC=CCCCCCCCC(=O)OCC(COP(=O)(O)OCC(C(=O)O)N)OC(=O)CCC=CCC=CCC=CCC=CCC=CCC=CCC
#inchikey FZVOBDJBRIEKPS-HILQMKNTSA-N
#pubchem_id 138157682
#mb_accession LQB00344,LQB00730

>ms2
78.957000 111.000000
96.968000 51.000000
152.994000 765.000000
171.003000 20.000000
185.921000 21.000000
211.770000 20.000000
229.195000 40.000000
249.181000 20.000000
253.101000 21.000000
255.231000 20.000000
280.373000 62.000000
281.249000 4251.000000
283.232000 93.000000
283.246000 183.000000
326.211000 23.000000
327.214000 92.000000
327.233000 613.000000
417.240000 2456.000000
435.249000 1070.000000
445.273000 23.000000
456.524000 23.000000
463.221000 519.000000
481.233000 101.000000
743.131000 55.000000
745.450000 676.000000
745.459000 770.000000
745.478000 3126.000000
745.502000 542.000000
745.540000 85.000000
770.499000 30.000000
772.615000 80.000000
829.846000 33.000000
832.460000 401.000000
832.509000 3780.000000
832.569000 148.000000
833.500000 30.000000

>ms2
78.957000 111.000000
96.968000 51.000000
152.994000 765.000000
171.003000 20.000000
185.921000 21.000000
211.770000 20.000000
229.195000 40.000000
249.181000 20.000000
253.101000 21.000000
255.231000 20.000000
280.373000 62.000000
281.249000 4251.000000
283.232000 93.000000
283.246000 183.000000
326.211000 23.000000
327.214000 92.000000
327.233000 613.000000
417.240000 2456.000000
435.249000 1070.000000
445.273000 23.000000
456.524000 23.000000
463.221000 519.000000
481.233000 101.000000
743.131000 55.000000
745.450000 676.000000
745.459000 770.000000
745.478000 3126.000000
745.502000 542.000000
745.540000 85.000000
770.499000 30.000000
772.615000 80.000000
829.846000 33.000000
832.460000 401.000000
832.509000 3780.000000
832.569000 148.000000
833.500000 30.000000

