>compound LQB7745682
>parentmass 911.5637
>ionization [M-H]-
>formula C49H85O13P
>rt 526.493640
>profile qtof
#smiles_iso CCCCCCCC/C=C\CCCCCCCCCC(=O)OCC(COP(=O)(O)OC1C(C(C(C(C1O)O)O)O)O)OC(=O)CCCCCC/C=C\C/C=C\C/C=C\C/C=C\CC
#smiles_can CCCCCCCCC=CCCCCCCCCCC(=O)OCC(COP(=O)(O)OC1C(C(C(C(C1O)O)O)O)O)OC(=O)CCCCCCC=CCC=CCC=CCC=CCC
#inchikey QUFNTZNEDJYRSX-QWBVDZTBSA-N
#pubchem_id 138247874
#mb_accession LQB00324,LQB00710

>ms2
152.994000 151.000000
223.000000 266.000000
240.998000 61.000000
241.013000 480.000000
259.023000 73.000000
259.241000 40.000000
283.236000 50.000000
283.255000 376.000000
283.266000 611.000000
285.259000 40.000000
297.036000 81.000000
303.213000 81.000000
303.234000 653.000000
309.255000 60.000000
309.281000 357.000000
315.045000 103.000000
328.235000 20.000000
329.250000 388.000000
419.254000 275.000000
419.272000 71.000000
437.264000 43.000000
439.209000 33.000000
439.259000 20.000000
445.263000 234.000000
445.285000 91.000000
463.249000 30.000000
465.245000 50.000000
496.279000 20.000000
502.357000 20.000000
506.406000 20.000000
581.277000 50.000000
581.313000 224.000000
581.340000 91.000000
599.301000 70.000000
599.343000 60.000000
601.281000 83.000000
607.325000 315.000000
625.337000 60.000000
627.289000 70.000000
723.479000 20.000000
749.495000 40.000000
751.513000 20.000000
821.552000 30.000000
824.555000 33.000000
826.669000 33.000000
829.504000 30.000000
885.541000 183.000000
885.559000 61.000000
885.592000 60.000000
908.631000 20.000000
908.703000 50.000000
911.344000 20.000000
911.492000 194.000000
911.565000 10394.000000
912.568000 82.000000

>ms2
152.994000 151.000000
223.000000 266.000000
240.998000 61.000000
241.013000 480.000000
259.023000 73.000000
259.241000 40.000000
283.236000 50.000000
283.255000 376.000000
283.266000 611.000000
285.259000 40.000000
297.036000 81.000000
303.213000 81.000000
303.234000 653.000000
309.255000 60.000000
309.281000 357.000000
315.045000 103.000000
328.235000 20.000000
329.250000 388.000000
419.254000 275.000000
419.272000 71.000000
437.264000 43.000000
439.209000 33.000000
439.259000 20.000000
445.263000 234.000000
445.285000 91.000000
463.249000 30.000000
465.245000 50.000000
496.279000 20.000000
502.357000 20.000000
506.406000 20.000000
581.277000 50.000000
581.313000 224.000000
581.340000 91.000000
599.301000 70.000000
599.343000 60.000000
601.281000 83.000000
607.325000 315.000000
625.337000 60.000000
627.289000 70.000000
723.479000 20.000000
749.495000 40.000000
751.513000 20.000000
821.552000 30.000000
824.555000 33.000000
826.669000 33.000000
829.504000 30.000000
885.541000 183.000000
885.559000 61.000000
885.592000 60.000000
908.631000 20.000000
908.703000 50.000000
911.344000 20.000000
911.492000 194.000000
911.565000 10394.000000
912.568000 82.000000

