>compound LQB7308178
>parentmass 734.4739
>ionization [M-H]-
>formula C41H70NO8P
>rt 512.161860
>profile qtof
#smiles_iso CCCCCC/C=C\CCCCCCCC(=O)OCC(COP(=O)(O)OCCN)OC(=O)CCC/C=C\C/C=C\C/C=C\C/C=C\C/C=C\CC
#smiles_can CCCCCCC=CCCCCCCCC(=O)OCC(COP(=O)(O)OCCN)OC(=O)CCCC=CCC=CCC=CCC=CCC=CCC
#inchikey LEBOQMHVVYOZDX-DVKFGTQTSA-N
#pubchem_id 138200868
#mb_accession LQB00188,LQB00574

>ms2
152.995000 70.000000
196.035000 60.000000
203.189000 50.000000
253.216000 723.000000
253.228000 92.000000
255.219000 81.000000
255.224000 132.000000
255.231000 264.000000
255.239000 223.000000
257.224000 218.000000
283.260000 25.000000
301.215000 1255.000000
391.205000 131.000000
391.219000 61.000000
391.234000 111.000000
409.237000 50.000000
420.272000 20.000000
450.220000 25.000000
450.241000 51.000000
450.255000 163.000000
450.277000 30.000000
480.253000 30.000000
498.254000 40.000000
647.418000 60.000000
647.448000 60.000000
647.464000 183.000000
647.485000 50.000000
674.477000 24.000000
674.557000 30.000000
734.424000 103.000000
734.436000 164.000000
734.449000 184.000000
734.464000 254.000000
734.475000 458.000000
734.491000 418.000000
734.506000 143.000000

>ms2
152.995000 70.000000
196.035000 60.000000
203.189000 50.000000
253.216000 723.000000
253.228000 92.000000
255.219000 81.000000
255.224000 132.000000
255.231000 264.000000
255.239000 223.000000
257.224000 218.000000
283.260000 25.000000
301.215000 1255.000000
391.205000 131.000000
391.219000 61.000000
391.234000 111.000000
409.237000 50.000000
420.272000 20.000000
450.220000 25.000000
450.241000 51.000000
450.255000 163.000000
450.277000 30.000000
480.253000 30.000000
498.254000 40.000000
647.418000 60.000000
647.448000 60.000000
647.464000 183.000000
647.485000 50.000000
674.477000 24.000000
674.557000 30.000000
734.424000 103.000000
734.436000 164.000000
734.449000 184.000000
734.464000 254.000000
734.475000 458.000000
734.491000 418.000000
734.506000 143.000000

