>compound LQB7257342
>parentmass 658.5583
>ionization [M+CH3COOH-H]-
>formula C36H73NO5
>rt 591.209220
>profile qtof
#smiles_iso CCCCCCCCCCCCCCCCC(C(=O)NC(CO)C(C(CCCCCCCCCCCCCC)O)O)O
#smiles_can CCCCCCCCCCCCCCCCC(C(=O)NC(CO)C(C(CCCCCCCCCCCCCC)O)O)O
#inchikey BBAFBDLICMHBNU-UHFFFAOYSA-N
#pubchem_id 9894945
#mb_accession LQB00002,LQB00388

>ms2peaks
253.250000 120.000000
255.236000 50.000000
267.229000 30.000000
280.261000 20.000000
298.275000 20.000000
299.260000 121.000000
324.291000 50.000000
328.979000 40.000000
342.299000 162.000000
562.497000 20.000000
598.539000 857.000000

>ms2peaks
253.250000 120.000000
255.236000 50.000000
267.229000 30.000000
280.261000 20.000000
298.275000 20.000000
299.260000 121.000000
324.291000 50.000000
328.979000 40.000000
342.299000 162.000000
562.497000 20.000000
598.539000 857.000000

