>compound LQB7217103
>parentmass 806.5928
>ionization [M+CH3COOH-H]-
>formula C41H82NO8P
>rt 613.395600
>profile qtof
#smiles_iso CCCCCCCCCCCCCCCCC(=O)OC(COC(=O)CCCCCCCCCCCCCCC)COP(=O)([O-])OCC[N+](C)(C)C
#smiles_can CCCCCCCCCCCCCCCCC(=O)OC(COC(=O)CCCCCCCCCCCCCCC)COP(=O)([O-])OCC[N+](C)(C)C
#inchikey CNHYMCCAIZQMPA-UHFFFAOYSA-N
#pubchem_id 24778683
#mb_accession LQB00100,LQB00486

>ms2
224.071000 40.000000
241.210000 70.000000
241.218000 51.000000
241.227000 81.000000
255.231000 1009.000000
269.247000 541.000000
279.238000 23.000000
281.247000 60.000000
282.261000 30.000000
283.265000 141.000000
305.248000 276.000000
436.289000 30.000000
480.297000 30.000000
494.330000 132.000000
508.331000 23.000000
566.499000 20.000000
724.506000 111.000000
724.529000 71.000000
724.543000 81.000000
724.556000 30.000000
732.549000 948.000000
732.570000 388.000000
732.580000 204.000000
743.554000 20.000000
747.526000 20.000000
806.507000 91.000000
806.536000 71.000000
806.549000 40.000000
806.577000 51.000000
806.595000 92.000000
806.610000 81.000000

>ms2
224.071000 40.000000
241.210000 70.000000
241.218000 51.000000
241.227000 81.000000
255.231000 1009.000000
269.247000 541.000000
279.238000 23.000000
281.247000 60.000000
282.261000 30.000000
283.265000 141.000000
305.248000 276.000000
436.289000 30.000000
480.297000 30.000000
494.330000 132.000000
508.331000 23.000000
566.499000 20.000000
724.506000 111.000000
724.529000 71.000000
724.543000 81.000000
724.556000 30.000000
732.549000 948.000000
732.570000 388.000000
732.580000 204.000000
743.554000 20.000000
747.526000 20.000000
806.507000 91.000000
806.536000 71.000000
806.549000 40.000000
806.577000 51.000000
806.595000 92.000000
806.610000 81.000000

