>compound LQB7561381
>parentmass 886.5593
>ionization [M+CH3COOH-H]-
>formula C48H78NO8P
>rt 510.973200
>profile qtof
#smiles_iso CC/C=C\C/C=C\C/C=C\CCCCCCCC(=O)OCC(COP(=O)([O-])OCC[N+](C)(C)C)OC(=O)CC/C=C\C/C=C\C/C=C\C/C=C\C/C=C\C/C=C\CC
#smiles_can CCC=CCC=CCC=CCCCCCCCC(=O)OCC(COP(=O)([O-])OCC[N+](C)(C)C)OC(=O)CCC=CCC=CCC=CCC=CCC=CCC=CCC
#inchikey KQEBTLYBLYIGCO-HRBUQVTHSA-N
#pubchem_id 138196394
#mb_accession LQB00162,LQB00548

>ms2
78.956000 10.000000
135.118000 10.000000
168.037000 30.000000
168.043000 16.000000
168.047000 10.000000
177.164000 22.000000
191.175000 10.000000
223.001000 14.000000
224.067000 44.000000
229.196000 72.000000
241.011000 34.000000
249.184000 23.000000
255.228000 18.000000
256.234000 10.000000
269.252000 9.000000
277.216000 971.000000
279.233000 40.000000
281.223000 10.000000
281.235000 12.000000
281.240000 16.000000
281.246000 28.000000
281.254000 12.000000
282.253000 26.000000
283.241000 500.000000
284.268000 10.000000
297.215000 10.000000
301.223000 22.000000
303.222000 53.000000
303.236000 57.000000
305.241000 28.000000
306.249000 20.000000
325.209000 26.000000
327.232000 1520.000000
391.220000 9.000000
417.245000 12.000000
420.263000 18.000000
484.270000 26.000000
484.299000 16.000000
502.263000 22.000000
502.291000 279.000000
502.317000 30.000000
504.311000 8.000000
526.288000 12.000000
534.297000 28.000000
552.289000 12.000000
552.320000 18.000000
579.278000 9.000000
580.291000 18.000000
582.278000 7.000000
722.501000 26.000000
722.534000 17.000000
741.486000 9.000000
804.498000 21.000000
804.531000 12.000000
809.937000 15.000000
812.492000 546.000000
812.517000 3294.000000
812.597000 16.000000
812.644000 10.000000
813.528000 21.000000
826.507000 11.000000
826.624000 10.000000
827.462000 22.000000
827.501000 32.000000
883.732000 6.000000
885.579000 8.000000
886.467000 12.000000
886.540000 874.000000
886.571000 343.000000
886.584000 133.000000
886.655000 6.000000

>ms2
78.956000 10.000000
135.118000 10.000000
168.037000 30.000000
168.043000 16.000000
168.047000 10.000000
177.164000 22.000000
191.175000 10.000000
223.001000 14.000000
224.067000 44.000000
229.196000 72.000000
241.011000 34.000000
249.184000 23.000000
255.228000 18.000000
256.234000 10.000000
269.252000 9.000000
277.216000 971.000000
279.233000 40.000000
281.223000 10.000000
281.235000 12.000000
281.240000 16.000000
281.246000 28.000000
281.254000 12.000000
282.253000 26.000000
283.241000 500.000000
284.268000 10.000000
297.215000 10.000000
301.223000 22.000000
303.222000 53.000000
303.236000 57.000000
305.241000 28.000000
306.249000 20.000000
325.209000 26.000000
327.232000 1520.000000
391.220000 9.000000
417.245000 12.000000
420.263000 18.000000
484.270000 26.000000
484.299000 16.000000
502.263000 22.000000
502.291000 279.000000
502.317000 30.000000
504.311000 8.000000
526.288000 12.000000
534.297000 28.000000
552.289000 12.000000
552.320000 18.000000
579.278000 9.000000
580.291000 18.000000
582.278000 7.000000
722.501000 26.000000
722.534000 17.000000
741.486000 9.000000
804.498000 21.000000
804.531000 12.000000
809.937000 15.000000
812.492000 546.000000
812.517000 3294.000000
812.597000 16.000000
812.644000 10.000000
813.528000 21.000000
826.507000 11.000000
826.624000 10.000000
827.462000 22.000000
827.501000 32.000000
883.732000 6.000000
885.579000 8.000000
886.467000 12.000000
886.540000 874.000000
886.571000 343.000000
886.584000 133.000000
886.655000 6.000000

