>compound LQB7896821
>parentmass 847.5332
>ionization [M-H]-
>formula C44H81O13P
>rt 509.399580
>profile qtof
#smiles_iso CCCCCCCCCCCCCCCCC(=O)OCC(COP(=O)(O)OC1C(C(C(C(C1O)O)O)O)O)OC(=O)CCCCCCC/C=C\C/C=C\CCCCC
#smiles_can CCCCCCCCCCCCCCCCC(=O)OCC(COP(=O)(O)OC1C(C(C(C(C1O)O)O)O)O)OC(=O)CCCCCCCC=CCC=CCCCCC
#inchikey AJAKJCJJRMUWFW-OHNCOSGTSA-N
#pubchem_id 138118668
#mb_accession LQB00301,LQB00687

>ms2peaks
139.007000 4.000000
152.993000 12.000000
171.109000 4.000000
222.999000 30.000000
241.011000 118.000000
259.025000 4.000000
269.247000 157.000000
279.231000 144.000000
281.248000 10.000000
283.237000 12.000000
283.264000 10.000000
293.215000 6.000000
295.234000 9.000000
296.239000 9.000000
297.037000 20.000000
309.281000 4.000000
310.188000 4.000000
315.049000 8.000000
327.233000 6.000000
405.229000 30.000000
405.243000 52.000000
415.220000 17.000000
423.253000 12.000000
518.981000 4.000000
567.290000 112.000000
567.341000 9.000000
577.275000 16.000000
585.295000 20.000000
595.284000 5.000000
655.558000 4.000000
662.834000 4.000000
685.472000 6.000000
787.487000 12.000000
787.634000 4.000000
844.866000 10.000000
847.531000 1581.000000
847.624000 10.000000
848.525000 4.000000

>ms2peaks
139.007000 4.000000
152.993000 12.000000
171.109000 4.000000
222.999000 30.000000
241.011000 118.000000
259.025000 4.000000
269.247000 157.000000
279.231000 144.000000
281.248000 10.000000
283.237000 12.000000
283.264000 10.000000
293.215000 6.000000
295.234000 9.000000
296.239000 9.000000
297.037000 20.000000
309.281000 4.000000
310.188000 4.000000
315.049000 8.000000
327.233000 6.000000
405.229000 30.000000
405.243000 52.000000
415.220000 17.000000
423.253000 12.000000
518.981000 4.000000
567.290000 112.000000
567.341000 9.000000
577.275000 16.000000
585.295000 20.000000
595.284000 5.000000
655.558000 4.000000
662.834000 4.000000
685.472000 6.000000
787.487000 12.000000
787.634000 4.000000
844.866000 10.000000
847.531000 1581.000000
847.624000 10.000000
848.525000 4.000000

