>compound LQB7591130
>parentmass 944.637
>ionization [M+CH3COOH-H]-
>formula C52H88NO8P
>rt 602.195400
>profile qtof
#smiles_iso CC/C=C\C/C=C\C/C=C\C/C=C\CCCCCCCCCCC(=O)OC(COC(=O)CCCCCC/C=C\C/C=C\C/C=C\C/C=C\CC)COP(=O)([O-])OCC[N+](C)(C)C
#smiles_can CCC=CCC=CCC=CCC=CCCCCCCCCCCC(=O)OC(COC(=O)CCCCCCC=CCC=CCC=CCC=CCC)COP(=O)([O-])OCC[N+](C)(C)C
#inchikey FQDWYXVQJPZBTB-FEAMGXSHSA-N
#pubchem_id 138154605
#mb_accession LQB00167,LQB00553

>ms2
168.043000 80.000000
205.195000 60.000000
224.071000 50.000000
259.238000 116.000000
259.263000 31.000000
283.260000 37.000000
285.225000 31.000000
302.277000 37.000000
303.231000 3336.000000
358.213000 20.000000
359.278000 266.000000
359.297000 1162.000000
528.304000 51.000000
566.360000 80.000000
584.333000 40.000000
584.368000 224.000000
584.388000 91.000000
652.410000 20.000000
673.476000 23.000000
799.536000 33.000000
868.539000 21.000000
870.567000 1019.000000
870.600000 4707.000000
870.653000 234.000000
870.669000 96.000000
870.723000 40.000000
871.588000 45.000000
885.545000 111.000000
900.514000 20.000000
944.606000 204.000000
944.638000 327.000000
944.676000 133.000000
944.705000 60.000000

>ms2
168.043000 80.000000
205.195000 60.000000
224.071000 50.000000
259.238000 116.000000
259.263000 31.000000
283.260000 37.000000
285.225000 31.000000
302.277000 37.000000
303.231000 3336.000000
358.213000 20.000000
359.278000 266.000000
359.297000 1162.000000
528.304000 51.000000
566.360000 80.000000
584.333000 40.000000
584.368000 224.000000
584.388000 91.000000
652.410000 20.000000
673.476000 23.000000
799.536000 33.000000
868.539000 21.000000
870.567000 1019.000000
870.600000 4707.000000
870.653000 234.000000
870.669000 96.000000
870.723000 40.000000
871.588000 45.000000
885.545000 111.000000
900.514000 20.000000
944.606000 204.000000
944.638000 327.000000
944.676000 133.000000
944.705000 60.000000

