>compound LQB7932495
>parentmass 804.57645
>ionization [M+CH3COOH-H]-
>formula C41H80NO8P
>rt 569.255760
>profile qtof
#smiles_iso CCCCCCCCCCCCCCCC(=O)OCC(COP(=O)([O-])OCC[N+](C)(C)C)OC(=O)CCCCCCC/C=C\CCCCCCC
#smiles_can CCCCCCCCCCCCCCCC(=O)OCC(COP(=O)([O-])OCC[N+](C)(C)C)OC(=O)CCCCCCCC=CCCCCCCC
#inchikey ASFWPRURQHKRSL-ZZEZOPTASA-N
#pubchem_id 24778685
#mb_accession LQB00101,LQB00102,LQB00487,LQB00488

>ms2peaks
168.040000 80.000000
224.071000 100.000000
241.214000 295.000000
241.233000 51.000000
253.205000 60.000000
253.229000 83.000000
254.439000 72.000000
255.231000 3029.000000
266.399000 52.000000
267.231000 3205.000000
267.259000 63.000000
269.251000 101.000000
281.245000 390.000000
281.257000 101.000000
303.243000 30.000000
327.230000 20.000000
329.241000 50.000000
357.245000 20.000000
407.632000 20.000000
411.632000 20.000000
462.291000 50.000000
466.275000 30.000000
474.297000 70.000000
478.292000 50.000000
480.289000 111.000000
480.322000 111.000000
480.340000 40.000000
492.001000 20.000000
492.294000 60.000000
492.314000 71.000000
494.314000 20.000000
500.277000 30.000000
506.343000 30.000000
659.468000 33.000000
722.516000 21.000000
728.175000 44.000000
728.217000 55.000000
730.512000 1823.000000
730.540000 3753.000000
731.541000 50.000000
744.533000 74.000000
745.472000 23.000000
804.554000 194.000000
804.575000 285.000000
804.605000 132.000000

>ms2peaks
78.959000 40.000000
168.044000 91.000000
224.068000 142.000000
241.217000 1357.000000
253.218000 214.000000
254.434000 31.000000
255.231000 1854.000000
257.230000 103.000000
267.231000 2874.000000
267.261000 41.000000
269.246000 132.000000
279.233000 102.000000
281.246000 2788.000000
283.266000 142.000000
284.263000 85.000000
301.216000 264.000000
303.237000 40.000000
329.254000 40.000000
420.295000 20.000000
435.256000 20.000000
438.293000 100.000000
448.284000 20.000000
458.260000 60.000000
461.280000 30.000000
462.294000 80.000000
466.290000 133.000000
480.276000 40.000000
480.309000 152.000000
488.317000 20.000000
492.313000 100.000000
506.308000 90.000000
506.324000 50.000000
659.469000 50.000000
722.471000 60.000000
722.508000 225.000000
722.540000 91.000000
730.512000 984.000000
730.542000 5735.000000
730.590000 185.000000
731.570000 54.000000
744.492000 181.000000
744.535000 327.000000
804.489000 80.000000
804.539000 215.000000
804.567000 407.000000
804.599000 317.000000

>ms2peaks
168.040000 80.000000
224.071000 100.000000
241.214000 295.000000
241.233000 51.000000
253.205000 60.000000
253.229000 83.000000
254.439000 72.000000
255.231000 3029.000000
266.399000 52.000000
267.231000 3205.000000
267.259000 63.000000
269.251000 101.000000
281.245000 390.000000
281.257000 101.000000
303.243000 30.000000
327.230000 20.000000
329.241000 50.000000
357.245000 20.000000
407.632000 20.000000
411.632000 20.000000
462.291000 50.000000
466.275000 30.000000
474.297000 70.000000
478.292000 50.000000
480.289000 111.000000
480.322000 111.000000
480.340000 40.000000
492.001000 20.000000
492.294000 60.000000
492.314000 71.000000
494.314000 20.000000
500.277000 30.000000
506.343000 30.000000
659.468000 33.000000
722.516000 21.000000
728.175000 44.000000
728.217000 55.000000
730.512000 1823.000000
730.540000 3753.000000
731.541000 50.000000
744.533000 74.000000
745.472000 23.000000
804.554000 194.000000
804.575000 285.000000
804.605000 132.000000

>ms2peaks
78.959000 40.000000
168.044000 91.000000
224.068000 142.000000
241.217000 1357.000000
253.218000 214.000000
254.434000 31.000000
255.231000 1854.000000
257.230000 103.000000
267.231000 2874.000000
267.261000 41.000000
269.246000 132.000000
279.233000 102.000000
281.246000 2788.000000
283.266000 142.000000
284.263000 85.000000
301.216000 264.000000
303.237000 40.000000
329.254000 40.000000
420.295000 20.000000
435.256000 20.000000
438.293000 100.000000
448.284000 20.000000
458.260000 60.000000
461.280000 30.000000
462.294000 80.000000
466.290000 133.000000
480.276000 40.000000
480.309000 152.000000
488.317000 20.000000
492.313000 100.000000
506.308000 90.000000
506.324000 50.000000
659.469000 50.000000
722.471000 60.000000
722.508000 225.000000
722.540000 91.000000
730.512000 984.000000
730.542000 5735.000000
730.590000 185.000000
731.570000 54.000000
744.492000 181.000000
744.535000 327.000000
804.489000 80.000000
804.539000 215.000000
804.567000 407.000000
804.599000 317.000000

