>compound LQB7950517
>parentmass 867.519
>ionization [M-H]-
>formula C50H77O10P
>rt 476.289360
>profile qtof
#smiles_iso CC/C=C\C/C=C\C/C=C\C/C=C\C/C=C\CCCCCC(=O)OCC(COP(=O)(O)OCC(CO)O)OC(=O)CC/C=C\C/C=C\C/C=C\C/C=C\C/C=C\C/C=C\CC
#smiles_can CCC=CCC=CCC=CCC=CCC=CCCCCCC(=O)OCC(COP(=O)(O)OCC(CO)O)OC(=O)CCC=CCC=CCC=CCC=CCC=CCC=CCC
#inchikey XLPVYDBPWNWRKK-SUDBCHAPSA-N
#pubchem_id 138297554
#mb_accession LQB00286,LQB00672

>ms2peaks
78.956000 20.000000
93.069000 13.000000
100.932000 14.000000
107.087000 20.000000
121.101000 14.000000
135.119000 17.000000
137.136000 16.000000
149.132000 26.000000
152.996000 183.000000
158.978000 18.000000
161.139000 12.000000
163.146000 21.000000
171.008000 14.000000
175.152000 12.000000
177.090000 14.000000
177.165000 48.000000
179.179000 12.000000
187.136000 12.000000
189.165000 23.000000
191.108000 22.000000
191.175000 36.000000
191.189000 18.000000
193.117000 19.000000
203.188000 16.000000
205.119000 16.000000
227.032000 28.000000
229.195000 262.000000
231.210000 68.000000
241.009000 13.000000
249.184000 68.000000
251.200000 34.000000
255.208000 21.000000
257.224000 18.000000
267.229000 20.000000
279.229000 24.000000
281.234000 11.000000
282.353000 13.000000
283.242000 1762.000000
284.262000 28.000000
285.259000 508.000000
297.234000 12.000000
301.222000 13.000000
309.221000 20.000000
311.237000 32.000000
311.253000 10.000000
326.212000 29.000000
327.232000 4594.000000
327.275000 14.000000
328.204000 12.000000
328.226000 33.000000
328.242000 18.000000
329.247000 7620.000000
330.258000 16.000000
419.252000 10.000000
437.279000 10.000000
438.271000 10.000000
463.222000 114.000000
465.228000 30.000000
465.246000 38.000000
472.339000 9.000000
481.235000 33.000000
483.242000 22.000000
483.259000 18.000000
489.254000 9.000000
529.255000 16.000000
537.225000 8.000000
537.264000 60.000000
537.302000 15.000000
539.269000 62.000000
539.289000 60.000000
539.311000 12.000000
547.299000 8.000000
555.263000 80.000000
555.284000 58.000000
557.248000 14.000000
557.279000 88.000000
557.297000 68.000000
565.265000 16.000000
657.055000 10.000000
780.486000 16.000000
780.523000 16.000000
791.483000 11.000000
793.546000 12.000000
807.487000 11.000000
807.574000 17.000000
849.516000 14.000000
864.753000 28.000000
864.810000 28.000000
866.518000 8.000000
867.442000 87.000000
867.517000 13251.000000
867.607000 59.000000
867.797000 13.000000
867.959000 11.000000
868.510000 46.000000
868.549000 32.000000

>ms2peaks
78.956000 20.000000
93.069000 13.000000
100.932000 14.000000
107.087000 20.000000
121.101000 14.000000
135.119000 17.000000
137.136000 16.000000
149.132000 26.000000
152.996000 183.000000
158.978000 18.000000
161.139000 12.000000
163.146000 21.000000
171.008000 14.000000
175.152000 12.000000
177.090000 14.000000
177.165000 48.000000
179.179000 12.000000
187.136000 12.000000
189.165000 23.000000
191.108000 22.000000
191.175000 36.000000
191.189000 18.000000
193.117000 19.000000
203.188000 16.000000
205.119000 16.000000
227.032000 28.000000
229.195000 262.000000
231.210000 68.000000
241.009000 13.000000
249.184000 68.000000
251.200000 34.000000
255.208000 21.000000
257.224000 18.000000
267.229000 20.000000
279.229000 24.000000
281.234000 11.000000
282.353000 13.000000
283.242000 1762.000000
284.262000 28.000000
285.259000 508.000000
297.234000 12.000000
301.222000 13.000000
309.221000 20.000000
311.237000 32.000000
311.253000 10.000000
326.212000 29.000000
327.232000 4594.000000
327.275000 14.000000
328.204000 12.000000
328.226000 33.000000
328.242000 18.000000
329.247000 7620.000000
330.258000 16.000000
419.252000 10.000000
437.279000 10.000000
438.271000 10.000000
463.222000 114.000000
465.228000 30.000000
465.246000 38.000000
472.339000 9.000000
481.235000 33.000000
483.242000 22.000000
483.259000 18.000000
489.254000 9.000000
529.255000 16.000000
537.225000 8.000000
537.264000 60.000000
537.302000 15.000000
539.269000 62.000000
539.289000 60.000000
539.311000 12.000000
547.299000 8.000000
555.263000 80.000000
555.284000 58.000000
557.248000 14.000000
557.279000 88.000000
557.297000 68.000000
565.265000 16.000000
657.055000 10.000000
780.486000 16.000000
780.523000 16.000000
791.483000 11.000000
793.546000 12.000000
807.487000 11.000000
807.574000 17.000000
849.516000 14.000000
864.753000 28.000000
864.810000 28.000000
866.518000 8.000000
867.442000 87.000000
867.517000 13251.000000
867.607000 59.000000
867.797000 13.000000
867.959000 11.000000
868.510000 46.000000
868.549000 32.000000

