>compound LQB7490358
>parentmass 866.5902
>ionization [M+CH3COOH-H]-
>formula C46H82NO8P
>rt 578.171280
>profile qtof
#smiles_iso CCCCCCCCCCCCCCCCCC(=O)OCC(COP(=O)([O-])OCC[N+](C)(C)C)OC(=O)CCC/C=C\C/C=C\C/C=C\C/C=C\C/C=C\CC
#smiles_can CCCCCCCCCCCCCCCCCC(=O)OCC(COP(=O)([O-])OCC[N+](C)(C)C)OC(=O)CCCC=CCC=CCC=CCC=CCC=CCC
#inchikey ZMNDHWFRGYCJKG-AASFMASFSA-N
#pubchem_id 24778861
#mb_accession LQB00139,LQB00525

>ms2
151.149000 40.000000
168.041000 337.000000
177.164000 63.000000
203.179000 440.000000
223.175000 112.000000
224.068000 510.000000
242.080000 60.000000
255.230000 86.000000
256.424000 62.000000
257.225000 2797.000000
282.378000 81.000000
283.263000 9560.000000
300.272000 83.000000
301.057000 20.000000
301.215000 19462.000000
301.254000 87.000000
329.247000 94.000000
419.257000 110.000000
434.297000 30.000000
452.250000 30.000000
458.160000 30.000000
490.327000 428.000000
490.343000 121.000000
506.742000 40.000000
508.260000 91.000000
508.283000 153.000000
508.335000 2689.000000
526.272000 50.000000
526.291000 111.000000
565.397000 106.000000
601.348000 57.000000
721.475000 60.000000
747.466000 40.000000
747.499000 64.000000
790.038000 121.000000
790.073000 54.000000
791.337000 40.000000
791.611000 23.000000
792.549000 29679.000000
792.624000 88.000000
792.751000 32.000000
792.912000 25.000000
793.542000 71.000000
807.482000 101.000000
807.515000 224.000000
807.533000 72.000000
863.839000 31.000000
866.590000 3285.000000

>ms2
151.149000 40.000000
168.041000 337.000000
177.164000 63.000000
203.179000 440.000000
223.175000 112.000000
224.068000 510.000000
242.080000 60.000000
255.230000 86.000000
256.424000 62.000000
257.225000 2797.000000
282.378000 81.000000
283.263000 9560.000000
300.272000 83.000000
301.057000 20.000000
301.215000 19462.000000
301.254000 87.000000
329.247000 94.000000
419.257000 110.000000
434.297000 30.000000
452.250000 30.000000
458.160000 30.000000
490.327000 428.000000
490.343000 121.000000
506.742000 40.000000
508.260000 91.000000
508.283000 153.000000
508.335000 2689.000000
526.272000 50.000000
526.291000 111.000000
565.397000 106.000000
601.348000 57.000000
721.475000 60.000000
747.466000 40.000000
747.499000 64.000000
790.038000 121.000000
790.073000 54.000000
791.337000 40.000000
791.611000 23.000000
792.549000 29679.000000
792.624000 88.000000
792.751000 32.000000
792.912000 25.000000
793.542000 71.000000
807.482000 101.000000
807.515000 224.000000
807.533000 72.000000
863.839000 31.000000
866.590000 3285.000000

