>compound LQB7548264
>parentmass 890.5885
>ionization [M+CH3COOH-H]-
>formula C48H82NO8P
>rt 540.441900
>profile qtof
#smiles_iso CCCCC/C=C\C/C=C\CCCCCCCC(=O)OCC(COP(=O)([O-])OCC[N+](C)(C)C)OC(=O)CCCCC/C=C\C/C=C\C/C=C\C/C=C\C/C=C\CC
#smiles_can CCCCCC=CCC=CCCCCCCCC(=O)OCC(COP(=O)([O-])OCC[N+](C)(C)C)OC(=O)CCCCCC=CCC=CCC=CCC=CCC=CCC
#inchikey OUAMUEKHWHGDGC-JWZASGLLSA-N
#pubchem_id 138231066
#mb_accession LQB00159,LQB00545

>ms2
168.038000 70.000000
224.067000 150.000000
231.205000 74.000000
279.231000 1952.000000
279.241000 548.000000
285.262000 318.000000
307.271000 40.000000
311.253000 42.000000
327.237000 60.000000
328.218000 67.000000
329.246000 5417.000000
331.261000 42.000000
355.261000 20.000000
408.985000 20.000000
415.218000 30.000000
479.232000 20.000000
486.299000 101.000000
504.276000 61.000000
504.305000 407.000000
504.323000 204.000000
504.338000 81.000000
536.323000 80.000000
554.308000 50.000000
554.344000 20.000000
617.463000 20.000000
619.418000 60.000000
619.450000 75.000000
645.437000 23.000000
701.402000 30.000000
745.462000 52.000000
771.492000 23.000000
813.984000 53.000000
815.557000 20.000000
816.551000 10458.000000
816.611000 369.000000
816.716000 20.000000
817.574000 27.000000
831.503000 125.000000
890.477000 43.000000
890.552000 286.000000
890.587000 713.000000
890.614000 174.000000
890.647000 50.000000

>ms2
168.038000 70.000000
224.067000 150.000000
231.205000 74.000000
279.231000 1952.000000
279.241000 548.000000
285.262000 318.000000
307.271000 40.000000
311.253000 42.000000
327.237000 60.000000
328.218000 67.000000
329.246000 5417.000000
331.261000 42.000000
355.261000 20.000000
408.985000 20.000000
415.218000 30.000000
479.232000 20.000000
486.299000 101.000000
504.276000 61.000000
504.305000 407.000000
504.323000 204.000000
504.338000 81.000000
536.323000 80.000000
554.308000 50.000000
554.344000 20.000000
617.463000 20.000000
619.418000 60.000000
619.450000 75.000000
645.437000 23.000000
701.402000 30.000000
745.462000 52.000000
771.492000 23.000000
813.984000 53.000000
815.557000 20.000000
816.551000 10458.000000
816.611000 369.000000
816.716000 20.000000
817.574000 27.000000
831.503000 125.000000
890.477000 43.000000
890.552000 286.000000
890.587000 713.000000
890.614000 174.000000
890.647000 50.000000

