>compound LQB7393238
>parentmass 762.5019
>ionization [M-H]-
>formula C43H74NO8P
>rt 559.398480
>profile qtof
#smiles_iso CCCCCCCCCCCCCCCC(=O)OCC(COP(=O)(O)OCCN)OC(=O)CC/C=C\C/C=C\C/C=C\C/C=C\C/C=C\C/C=C\CC
#smiles_can CCCCCCCCCCCCCCCC(=O)OCC(COP(=O)(O)OCCN)OC(=O)CCC=CCC=CCC=CCC=CCC=CCC=CCC
#inchikey MPWUZHVZZKSTPV-LGFBOSHVSA-N
#pubchem_id 6426738
#mb_accession LQB00184,LQB00570

>ms2peaks
78.958000 1185.000000
93.071000 151.000000
95.085000 111.000000
96.970000 132.000000
105.069000 173.000000
107.087000 317.000000
109.103000 131.000000
117.069000 215.000000
119.084000 132.000000
121.103000 570.000000
122.000000 296.000000
123.117000 142.000000
127.079000 111.000000
131.084000 133.000000
133.102000 243.000000
135.118000 296.000000
137.135000 92.000000
140.012000 3388.000000
143.082000 102.000000
147.121000 224.000000
149.134000 245.000000
151.152000 81.000000
152.995000 131.000000
153.089000 108.000000
161.130000 181.000000
163.073000 144.000000
163.083000 111.000000
163.142000 105.000000
163.152000 183.000000
167.104000 85.000000
175.149000 295.000000
177.092000 233.000000
177.163000 1133.000000
178.027000 182.000000
181.126000 110.000000
187.157000 80.000000
189.167000 276.000000
191.100000 81.000000
191.181000 1041.000000
195.159000 79.000000
196.038000 4784.000000
201.163000 80.000000
203.171000 86.000000
203.182000 153.000000
205.128000 91.000000
209.156000 80.000000
214.047000 409.000000
215.174000 100.000000
217.124000 130.000000
217.198000 142.000000
227.178000 81.000000
229.196000 4618.000000
231.139000 100.000000
241.194000 304.000000
243.139000 141.000000
249.185000 1163.000000
254.434000 316.000000
255.155000 123.000000
255.233000 79708.000000
257.155000 150.000000
271.175000 91.000000
281.227000 163.000000
281.248000 153.000000
282.362000 215.000000
283.177000 74.000000
283.243000 35324.000000
285.186000 60.000000
291.216000 70.000000
297.220000 213.000000
299.199000 60.000000
303.239000 50.000000
309.222000 478.000000
315.234000 53.000000
325.209000 80.000000
326.203000 256.000000
326.227000 106.000000
327.232000 72238.000000
327.278000 75.000000
328.227000 126.000000
378.239000 196.000000
391.225000 90.000000
432.894000 49.000000
434.268000 3520.000000
434.307000 51.000000
450.239000 70.000000
450.879000 56.000000
452.276000 17983.000000
474.101000 20.000000
479.298000 20.000000
480.275000 35.000000
504.665000 20.000000
506.225000 50.000000
506.263000 1368.000000
524.257000 266.000000
524.279000 704.000000
541.875000 20.000000
553.618000 20.000000
563.494000 70.000000
575.695000 23.000000
581.593000 20.000000
688.546000 141.000000
744.544000 45.000000
760.098000 205.000000
760.186000 33.000000
760.498000 35.000000
761.492000 53.000000
762.268000 50.000000
762.338000 92.000000
762.501000 40537.000000
763.489000 139.000000
763.512000 94.000000
763.665000 41.000000

>ms2peaks
78.958000 1185.000000
93.071000 151.000000
95.085000 111.000000
96.970000 132.000000
105.069000 173.000000
107.087000 317.000000
109.103000 131.000000
117.069000 215.000000
119.084000 132.000000
121.103000 570.000000
122.000000 296.000000
123.117000 142.000000
127.079000 111.000000
131.084000 133.000000
133.102000 243.000000
135.118000 296.000000
137.135000 92.000000
140.012000 3388.000000
143.082000 102.000000
147.121000 224.000000
149.134000 245.000000
151.152000 81.000000
152.995000 131.000000
153.089000 108.000000
161.130000 181.000000
163.073000 144.000000
163.083000 111.000000
163.142000 105.000000
163.152000 183.000000
167.104000 85.000000
175.149000 295.000000
177.092000 233.000000
177.163000 1133.000000
178.027000 182.000000
181.126000 110.000000
187.157000 80.000000
189.167000 276.000000
191.100000 81.000000
191.181000 1041.000000
195.159000 79.000000
196.038000 4784.000000
201.163000 80.000000
203.171000 86.000000
203.182000 153.000000
205.128000 91.000000
209.156000 80.000000
214.047000 409.000000
215.174000 100.000000
217.124000 130.000000
217.198000 142.000000
227.178000 81.000000
229.196000 4618.000000
231.139000 100.000000
241.194000 304.000000
243.139000 141.000000
249.185000 1163.000000
254.434000 316.000000
255.155000 123.000000
255.233000 79708.000000
257.155000 150.000000
271.175000 91.000000
281.227000 163.000000
281.248000 153.000000
282.362000 215.000000
283.177000 74.000000
283.243000 35324.000000
285.186000 60.000000
291.216000 70.000000
297.220000 213.000000
299.199000 60.000000
303.239000 50.000000
309.222000 478.000000
315.234000 53.000000
325.209000 80.000000
326.203000 256.000000
326.227000 106.000000
327.232000 72238.000000
327.278000 75.000000
328.227000 126.000000
378.239000 196.000000
391.225000 90.000000
432.894000 49.000000
434.268000 3520.000000
434.307000 51.000000
450.239000 70.000000
450.879000 56.000000
452.276000 17983.000000
474.101000 20.000000
479.298000 20.000000
480.275000 35.000000
504.665000 20.000000
506.225000 50.000000
506.263000 1368.000000
524.257000 266.000000
524.279000 704.000000
541.875000 20.000000
553.618000 20.000000
563.494000 70.000000
575.695000 23.000000
581.593000 20.000000
688.546000 141.000000
744.544000 45.000000
760.098000 205.000000
760.186000 33.000000
760.498000 35.000000
761.492000 53.000000
762.268000 50.000000
762.338000 92.000000
762.501000 40537.000000
763.489000 139.000000
763.512000 94.000000
763.665000 41.000000

