>compound LQB7109492
>parentmass 844.6051
>ionization [M+CH3COOH-H]-
>formula C44H84NO8P
>rt 613.422000
>profile qtof
#smiles_iso CCCCCCCCCCCCCCCCCC(=O)OCC(COP(=O)([O-])OCC[N+](C)(C)C)OC(=O)CCCCCCC/C=C\C/C=C\CCCCC
#smiles_can CCCCCCCCCCCCCCCCCC(=O)OCC(COP(=O)([O-])OCC[N+](C)(C)C)OC(=O)CCCCCCCC=CCC=CCCCCC
#inchikey FORFDCPQKJHEBF-IUFKAHDJSA-N
#pubchem_id 14389460
#mb_accession LQB00132,LQB00518

>ms2
78.961000 164.000000
152.998000 70.000000
168.044000 898.000000
224.069000 1051.000000
242.079000 141.000000
255.233000 286.000000
261.220000 90.000000
278.398000 50.000000
278.829000 38.000000
278.949000 42.000000
279.129000 81.000000
279.164000 41.000000
279.232000 78980.000000
279.294000 52.000000
281.247000 388.000000
283.264000 29074.000000
284.266000 60.000000
307.260000 367.000000
415.233000 40.000000
419.254000 214.000000
430.274000 63.000000
434.315000 70.000000
480.295000 40.000000
486.298000 592.000000
490.328000 1336.000000
490.359000 122.000000
504.308000 753.000000
505.285000 23.000000
506.741000 41.000000
508.020000 29.000000
508.303000 118.000000
508.338000 5368.000000
508.392000 56.000000
523.298000 40.000000
532.341000 40.000000
555.713000 429.000000
563.731000 125.000000
563.768000 140.000000
699.500000 174.000000
725.501000 63.000000
768.111000 132.000000
768.134000 275.000000
768.176000 100.000000
770.356000 37.000000
770.566000 61621.000000
771.388000 35.000000
771.572000 175.000000
785.532000 632.000000
785.559000 153.000000
844.540000 136.000000
844.602000 6106.000000

>ms2
78.961000 164.000000
152.998000 70.000000
168.044000 898.000000
224.069000 1051.000000
242.079000 141.000000
255.233000 286.000000
261.220000 90.000000
278.398000 50.000000
278.829000 38.000000
278.949000 42.000000
279.129000 81.000000
279.164000 41.000000
279.232000 78980.000000
279.294000 52.000000
281.247000 388.000000
283.264000 29074.000000
284.266000 60.000000
307.260000 367.000000
415.233000 40.000000
419.254000 214.000000
430.274000 63.000000
434.315000 70.000000
480.295000 40.000000
486.298000 592.000000
490.328000 1336.000000
490.359000 122.000000
504.308000 753.000000
505.285000 23.000000
506.741000 41.000000
508.020000 29.000000
508.303000 118.000000
508.338000 5368.000000
508.392000 56.000000
523.298000 40.000000
532.341000 40.000000
555.713000 429.000000
563.731000 125.000000
563.768000 140.000000
699.500000 174.000000
725.501000 63.000000
768.111000 132.000000
768.134000 275.000000
768.176000 100.000000
770.356000 37.000000
770.566000 61621.000000
771.388000 35.000000
771.572000 175.000000
785.532000 632.000000
785.559000 153.000000
844.540000 136.000000
844.602000 6106.000000

