>compound LQB7170829
>parentmass 872.6355000000001
>ionization [M+CH3COOH-H]-
>formula C46H88NO8P
>rt 677.080800
>profile qtof
#smiles_iso CCCCCCCCCCCCCCCCCC(=O)OCC(COP(=O)([O-])OCC[N+](C)(C)C)OC(=O)CCCCCCCCC/C=C\C/C=C\CCCCC
#smiles_can CCCCCCCCCCCCCCCCCC(=O)OCC(COP(=O)([O-])OCC[N+](C)(C)C)OC(=O)CCCCCCCCCC=CCC=CCCCCC
#inchikey ZQLPLCXRBVPKGP-DYMXKLMASA-N
#pubchem_id 14818952
#mb_accession LQB00135,LQB00136,LQB00521,LQB00522

>ms2
168.040000 53.000000
168.054000 14.000000
217.002000 13.000000
224.072000 32.000000
253.216000 12.000000
255.220000 19.000000
255.235000 81.000000
279.233000 33.000000
281.245000 59.000000
281.276000 14.000000
283.263000 685.000000
283.297000 11.000000
306.301000 29.000000
307.261000 2637.000000
309.281000 48.000000
311.295000 14.000000
331.266000 9.000000
335.290000 139.000000
335.321000 16.000000
337.317000 16.000000
367.346000 12.000000
368.368000 9.000000
419.238000 9.000000
490.329000 72.000000
500.307000 23.000000
501.311000 4.000000
508.302000 23.000000
508.328000 49.000000
508.344000 90.000000
514.332000 32.000000
532.345000 22.000000
650.615000 12.000000
724.568000 20.000000
725.569000 25.000000
727.524000 17.000000
751.588000 27.000000
785.571000 33.000000
796.101000 15.000000
796.654000 33.000000
797.601000 35.000000
797.630000 34.000000
797.665000 45.000000
798.526000 36.000000
798.558000 562.000000
798.596000 2381.000000
798.631000 873.000000
798.697000 41.000000
799.591000 25.000000
810.659000 18.000000
812.663000 37.000000
813.537000 17.000000
813.586000 20.000000
826.651000 22.000000
826.698000 22.000000
872.572000 24.000000
872.601000 132.000000
872.631000 168.000000
872.666000 116.000000
872.716000 22.000000

>ms2
141.016000 18.000000
168.041000 26.000000
217.002000 32.000000
224.067000 50.000000
255.229000 25.000000
278.354000 20.000000
279.232000 1247.000000
281.246000 47.000000
281.258000 22.000000
283.261000 512.000000
299.009000 26.000000
307.261000 1391.000000
309.277000 31.000000
311.294000 600.000000
327.229000 11.000000
335.287000 22.000000
381.008000 27.000000
434.311000 9.000000
447.292000 9.000000
462.913000 11.000000
462.998000 16.000000
486.291000 17.000000
490.293000 13.000000
490.330000 18.000000
500.315000 9.000000
504.293000 20.000000
504.323000 19.000000
508.330000 74.000000
508.356000 37.000000
514.320000 23.000000
518.353000 30.000000
532.346000 21.000000
536.355000 54.000000
536.375000 67.000000
624.904000 10.000000
640.458000 9.000000
753.561000 18.000000
790.560000 36.000000
796.058000 18.000000
796.634000 22.000000
797.632000 43.000000
797.682000 22.000000
798.548000 318.000000
798.595000 4063.000000
799.632000 15.000000
810.079000 10.000000
812.596000 11.000000
812.665000 46.000000
813.529000 33.000000
813.584000 20.000000
872.606000 144.000000
872.637000 168.000000
872.665000 127.000000

>ms2
168.040000 53.000000
168.054000 14.000000
217.002000 13.000000
224.072000 32.000000
253.216000 12.000000
255.220000 19.000000
255.235000 81.000000
279.233000 33.000000
281.245000 59.000000
281.276000 14.000000
283.263000 685.000000
283.297000 11.000000
306.301000 29.000000
307.261000 2637.000000
309.281000 48.000000
311.295000 14.000000
331.266000 9.000000
335.290000 139.000000
335.321000 16.000000
337.317000 16.000000
367.346000 12.000000
368.368000 9.000000
419.238000 9.000000
490.329000 72.000000
500.307000 23.000000
501.311000 4.000000
508.302000 23.000000
508.328000 49.000000
508.344000 90.000000
514.332000 32.000000
532.345000 22.000000
650.615000 12.000000
724.568000 20.000000
725.569000 25.000000
727.524000 17.000000
751.588000 27.000000
785.571000 33.000000
796.101000 15.000000
796.654000 33.000000
797.601000 35.000000
797.630000 34.000000
797.665000 45.000000
798.526000 36.000000
798.558000 562.000000
798.596000 2381.000000
798.631000 873.000000
798.697000 41.000000
799.591000 25.000000
810.659000 18.000000
812.663000 37.000000
813.537000 17.000000
813.586000 20.000000
826.651000 22.000000
826.698000 22.000000
872.572000 24.000000
872.601000 132.000000
872.631000 168.000000
872.666000 116.000000
872.716000 22.000000

>ms2
141.016000 18.000000
168.041000 26.000000
217.002000 32.000000
224.067000 50.000000
255.229000 25.000000
278.354000 20.000000
279.232000 1247.000000
281.246000 47.000000
281.258000 22.000000
283.261000 512.000000
299.009000 26.000000
307.261000 1391.000000
309.277000 31.000000
311.294000 600.000000
327.229000 11.000000
335.287000 22.000000
381.008000 27.000000
434.311000 9.000000
447.292000 9.000000
462.913000 11.000000
462.998000 16.000000
486.291000 17.000000
490.293000 13.000000
490.330000 18.000000
500.315000 9.000000
504.293000 20.000000
504.323000 19.000000
508.330000 74.000000
508.356000 37.000000
514.320000 23.000000
518.353000 30.000000
532.346000 21.000000
536.355000 54.000000
536.375000 67.000000
624.904000 10.000000
640.458000 9.000000
753.561000 18.000000
790.560000 36.000000
796.058000 18.000000
796.634000 22.000000
797.632000 43.000000
797.682000 22.000000
798.548000 318.000000
798.595000 4063.000000
799.632000 15.000000
810.079000 10.000000
812.596000 11.000000
812.665000 46.000000
813.529000 33.000000
813.584000 20.000000
872.606000 144.000000
872.637000 168.000000
872.665000 127.000000

