>compound LQB7074728
>parentmass 784.4932
>ionization [M-H]-
>formula C45H72NO8P
>rt 515.789460
>profile qtof
#smiles_iso CC/C=C\C/C=C\C/C=C\CCCCCCCC(=O)OCC(COP(=O)(O)OCCN)OC(=O)CC/C=C\C/C=C\C/C=C\C/C=C\C/C=C\C/C=C\CC
#smiles_can CCC=CCC=CCC=CCCCCCCCC(=O)OCC(COP(=O)(O)OCCN)OC(=O)CCC=CCC=CCC=CCC=CCC=CCC=CCC
#inchikey UCWMHVFXQNTJNR-YVAAUFMTSA-N
#pubchem_id 138269664
#mb_accession LQB00224,LQB00610

>ms2peaks
140.013000 50.000000
177.165000 20.000000
182.058000 50.000000
196.035000 35.000000
196.051000 25.000000
219.068000 45.000000
220.071000 20.000000
229.197000 65.000000
234.086000 45.000000
249.186000 26.000000
255.222000 43.000000
269.109000 20.000000
277.217000 908.000000
279.233000 35.000000
281.242000 26.000000
283.242000 362.000000
283.255000 137.000000
287.132000 50.000000
288.130000 20.000000
301.222000 15.000000
320.226000 11.000000
327.235000 1071.000000
456.246000 50.000000
474.223000 18.000000
474.254000 166.000000
474.276000 95.000000
480.325000 10.000000
506.268000 20.000000
524.273000 30.000000
676.541000 10.000000
720.493000 35.000000
720.535000 20.000000
736.503000 15.000000
737.505000 37.000000
752.478000 35.000000
752.520000 100.000000
752.551000 100.000000
752.572000 35.000000
769.518000 131.000000
769.561000 80.000000
782.111000 16.000000
784.392000 20.000000
784.427000 45.000000
784.481000 1173.000000
784.504000 877.000000
784.526000 267.000000
784.565000 474.000000
784.608000 81.000000

>ms2peaks
140.013000 50.000000
177.165000 20.000000
182.058000 50.000000
196.035000 35.000000
196.051000 25.000000
219.068000 45.000000
220.071000 20.000000
229.197000 65.000000
234.086000 45.000000
249.186000 26.000000
255.222000 43.000000
269.109000 20.000000
277.217000 908.000000
279.233000 35.000000
281.242000 26.000000
283.242000 362.000000
283.255000 137.000000
287.132000 50.000000
288.130000 20.000000
301.222000 15.000000
320.226000 11.000000
327.235000 1071.000000
456.246000 50.000000
474.223000 18.000000
474.254000 166.000000
474.276000 95.000000
480.325000 10.000000
506.268000 20.000000
524.273000 30.000000
676.541000 10.000000
720.493000 35.000000
720.535000 20.000000
736.503000 15.000000
737.505000 37.000000
752.478000 35.000000
752.520000 100.000000
752.551000 100.000000
752.572000 35.000000
769.518000 131.000000
769.561000 80.000000
782.111000 16.000000
784.392000 20.000000
784.427000 45.000000
784.481000 1173.000000
784.504000 877.000000
784.526000 267.000000
784.565000 474.000000
784.608000 81.000000

