>compound LQB7663870
>parentmass 837.5479
>ionization [M-H]-
>formula C43H83O13P
>rt 541.765800
>profile qtof
#smiles_iso CCCCCCCCCCCCCCCCCC(=O)OC(COC(=O)CCCCCCCCCCCCCCC)COP(=O)(O)OC1C(C(C(C(C1O)O)O)O)O
#smiles_can CCCCCCCCCCCCCCCCCC(=O)OC(COC(=O)CCCCCCCCCCCCCCC)COP(=O)(O)OC1C(C(C(C(C1O)O)O)O)O
#inchikey NEXFZIYXCPIHEF-UHFFFAOYSA-N
#pubchem_id 75251680
#mb_accession LQB00291,LQB00677

>ms2
78.961000 153.000000
96.967000 63.000000
134.989000 30.000000
152.997000 406.000000
155.004000 20.000000
223.003000 265.000000
241.012000 1427.000000
255.234000 1511.000000
259.021000 153.000000
259.037000 40.000000
281.239000 61.000000
283.262000 3165.000000
285.272000 82.000000
286.266000 50.000000
297.032000 153.000000
297.043000 82.000000
315.047000 80.000000
328.239000 70.000000
329.245000 121.000000
330.245000 80.000000
391.223000 143.000000
391.248000 55.000000
419.255000 1089.000000
420.233000 61.000000
421.253000 121.000000
422.264000 90.000000
437.259000 81.000000
437.274000 272.000000
482.922000 20.000000
484.236000 20.000000
499.954000 20.000000
553.244000 40.000000
553.277000 215.000000
571.252000 20.000000
571.296000 33.000000
581.277000 255.000000
581.305000 947.000000
581.349000 81.000000
599.298000 81.000000
599.320000 203.000000
611.955000 20.000000
673.472000 63.000000
695.456000 70.000000
749.489000 84.000000
749.522000 40.000000
750.489000 236.000000
750.517000 622.000000
750.551000 71.000000
834.887000 60.000000
834.942000 100.000000
836.549000 46.000000
836.638000 40.000000
837.452000 61.000000
837.551000 27720.000000
837.621000 466.000000
838.559000 73.000000

>ms2
78.961000 153.000000
96.967000 63.000000
134.989000 30.000000
152.997000 406.000000
155.004000 20.000000
223.003000 265.000000
241.012000 1427.000000
255.234000 1511.000000
259.021000 153.000000
259.037000 40.000000
281.239000 61.000000
283.262000 3165.000000
285.272000 82.000000
286.266000 50.000000
297.032000 153.000000
297.043000 82.000000
315.047000 80.000000
328.239000 70.000000
329.245000 121.000000
330.245000 80.000000
391.223000 143.000000
391.248000 55.000000
419.255000 1089.000000
420.233000 61.000000
421.253000 121.000000
422.264000 90.000000
437.259000 81.000000
437.274000 272.000000
482.922000 20.000000
484.236000 20.000000
499.954000 20.000000
553.244000 40.000000
553.277000 215.000000
571.252000 20.000000
571.296000 33.000000
581.277000 255.000000
581.305000 947.000000
581.349000 81.000000
599.298000 81.000000
599.320000 203.000000
611.955000 20.000000
673.472000 63.000000
695.456000 70.000000
749.489000 84.000000
749.522000 40.000000
750.489000 236.000000
750.517000 622.000000
750.551000 71.000000
834.887000 60.000000
834.942000 100.000000
836.549000 46.000000
836.638000 40.000000
837.452000 61.000000
837.551000 27720.000000
837.621000 466.000000
838.559000 73.000000

