>compound LQB7329252
>parentmass 724.6445
>ionization [M+CH3COOH-H]-
>formula C42H83NO4
>rt 771.242400
>profile qtof
#smiles_iso CCCCCCCCCCCCCCC(C(C(CO)NC(=O)CCCCCCCCC/C=C\CCCCCCCCCCCC)O)O
#smiles_can CCCCCCCCCCCCCCC(C(C(CO)NC(=O)CCCCCCCCCC=CCCCCCCCCCCCC)O)O
#inchikey DNXQPFZSRNGGHL-DQRAZIAOSA-N
#pubchem_id 138145503
#mb_accession LQB00021,LQB00407

>ms2peaks
223.207000 61.000000
225.220000 275.000000
232.967000 50.000000
237.225000 60.000000
246.984000 50.000000
250.257000 40.000000
253.216000 91.000000
255.232000 694.000000
263.230000 50.000000
266.244000 42.000000
266.403000 52.000000
267.232000 3337.000000
279.223000 71.000000
279.237000 123.000000
280.262000 192.000000
284.258000 131.000000
297.250000 50.000000
316.284000 101.000000
347.332000 296.000000
349.350000 80.000000
363.355000 45.000000
364.357000 1672.000000
365.341000 2481.000000
378.370000 214.000000
379.357000 182.000000
388.357000 60.000000
390.372000 948.000000
402.375000 168.000000
406.369000 1793.000000
408.383000 5035.000000
419.068000 95.000000
420.346000 81.000000
420.383000 4471.000000
598.583000 133.000000
598.603000 162.000000
600.599000 53.000000
610.588000 51.000000
614.588000 60.000000
616.610000 80.000000
628.585000 316.000000
628.604000 1141.000000
632.586000 203.000000
632.603000 295.000000
632.620000 112.000000
634.616000 63.000000
646.580000 71.000000
646.614000 430.000000
646.640000 112.000000
662.513000 40.000000
662.550000 65.000000
664.622000 16512.000000
665.627000 84.000000
724.617000 30.000000

>ms2peaks
223.207000 61.000000
225.220000 275.000000
232.967000 50.000000
237.225000 60.000000
246.984000 50.000000
250.257000 40.000000
253.216000 91.000000
255.232000 694.000000
263.230000 50.000000
266.244000 42.000000
266.403000 52.000000
267.232000 3337.000000
279.223000 71.000000
279.237000 123.000000
280.262000 192.000000
284.258000 131.000000
297.250000 50.000000
316.284000 101.000000
347.332000 296.000000
349.350000 80.000000
363.355000 45.000000
364.357000 1672.000000
365.341000 2481.000000
378.370000 214.000000
379.357000 182.000000
388.357000 60.000000
390.372000 948.000000
402.375000 168.000000
406.369000 1793.000000
408.383000 5035.000000
419.068000 95.000000
420.346000 81.000000
420.383000 4471.000000
598.583000 133.000000
598.603000 162.000000
600.599000 53.000000
610.588000 51.000000
614.588000 60.000000
616.610000 80.000000
628.585000 316.000000
628.604000 1141.000000
632.586000 203.000000
632.603000 295.000000
632.620000 112.000000
634.616000 63.000000
646.580000 71.000000
646.614000 430.000000
646.640000 112.000000
662.513000 40.000000
662.550000 65.000000
664.622000 16512.000000
665.627000 84.000000
724.617000 30.000000

