>compound LQB7256597
>parentmass 770.5727
>ionization [M-H]-
>formula C43H82NO8P
>rt 686.452800
>profile qtof
#smiles_iso CCCCCCCCCCCCCCCCCC(=O)OCC(COP(=O)(O)OCCN)OC(=O)CCCCCCCCC/C=C\C/C=C\CCCCC
#smiles_can CCCCCCCCCCCCCCCCCC(=O)OCC(COP(=O)(O)OCCN)OC(=O)CCCCCCCCCC=CCC=CCCCCC
#inchikey WYDGEVICLIVPEG-OHNCOSGTSA-N
#pubchem_id 9546828
#mb_accession LQB00198,LQB00584

>ms2peaks
100.932000 15.000000
140.012000 25.000000
141.017000 10.000000
196.036000 15.000000
279.226000 30.000000
279.252000 21.000000
281.252000 35.000000
282.367000 15.000000
283.264000 768.000000
298.971000 10.000000
306.314000 10.000000
307.260000 2219.000000
307.308000 20.000000
309.276000 20.000000
311.304000 23.000000
315.013000 10.000000
328.993000 10.000000
335.302000 15.000000
372.922000 10.000000
411.020000 10.000000
420.954000 10.000000
462.293000 15.000000
464.991000 10.000000
480.286000 30.000000
480.309000 55.000000
486.282000 20.000000
504.287000 10.000000
770.509000 50.000000
770.563000 1043.000000
770.592000 260.000000
770.621000 50.000000
770.638000 25.000000
771.588000 10.000000

>ms2peaks
100.932000 15.000000
140.012000 25.000000
141.017000 10.000000
196.036000 15.000000
279.226000 30.000000
279.252000 21.000000
281.252000 35.000000
282.367000 15.000000
283.264000 768.000000
298.971000 10.000000
306.314000 10.000000
307.260000 2219.000000
307.308000 20.000000
309.276000 20.000000
311.304000 23.000000
315.013000 10.000000
328.993000 10.000000
335.302000 15.000000
372.922000 10.000000
411.020000 10.000000
420.954000 10.000000
462.293000 15.000000
464.991000 10.000000
480.286000 30.000000
480.309000 55.000000
486.282000 20.000000
504.287000 10.000000
770.509000 50.000000
770.563000 1043.000000
770.592000 260.000000
770.621000 50.000000
770.638000 25.000000
771.588000 10.000000

