>compound LQB7433999
>parentmass 844.6078
>ionization [M+CH3COOH-H]-
>formula C44H84NO8P
>rt 599.317620
>profile qtof
#smiles_iso CCCCCCCC/C=C\CCCCCCCC(=O)OCC(COP(=O)([O-])OCC[N+](C)(C)C)OC(=O)CCCCCCC/C=C\CCCCCCCC
#smiles_can CCCCCCCCC=CCCCCCCCC(=O)OCC(COP(=O)([O-])OCC[N+](C)(C)C)OC(=O)CCCCCCCC=CCCCCCCCC
#inchikey SNKAWJBJQDLSFF-YEUCEMRASA-N
#pubchem_id 6437081
#mb_accession LQB00144,LQB00530

>ms2
78.957000 70.000000
133.305000 20.000000
144.107000 20.000000
152.996000 45.000000
168.044000 326.000000
171.311000 23.000000
198.744000 20.000000
224.064000 275.000000
242.083000 20.000000
253.214000 142.000000
255.231000 1897.000000
279.228000 71.000000
280.345000 40.000000
280.370000 102.000000
280.395000 67.000000
281.247000 25521.000000
282.248000 63.000000
283.259000 43.000000
303.228000 70.000000
307.261000 1479.000000
307.287000 61.000000
309.282000 131.000000
417.233000 70.000000
462.301000 60.000000
474.296000 43.000000
480.304000 110.000000
488.285000 92.000000
488.312000 420.000000
494.645000 20.000000
506.045000 21.000000
506.304000 328.000000
506.323000 1293.000000
532.336000 100.000000
532.401000 20.000000
564.536000 20.000000
606.546000 20.000000
699.474000 30.000000
725.520000 23.000000
748.514000 43.000000
757.557000 90.000000
768.109000 110.000000
768.172000 50.000000
769.558000 35.000000
770.397000 43.000000
770.544000 4934.000000
770.568000 20918.000000
770.997000 26.000000
771.554000 97.000000
784.610000 80.000000
785.529000 183.000000
844.540000 125.000000
844.603000 3009.000000
844.664000 71.000000

>ms2
78.957000 70.000000
133.305000 20.000000
144.107000 20.000000
152.996000 45.000000
168.044000 326.000000
171.311000 23.000000
198.744000 20.000000
224.064000 275.000000
242.083000 20.000000
253.214000 142.000000
255.231000 1897.000000
279.228000 71.000000
280.345000 40.000000
280.370000 102.000000
280.395000 67.000000
281.247000 25521.000000
282.248000 63.000000
283.259000 43.000000
303.228000 70.000000
307.261000 1479.000000
307.287000 61.000000
309.282000 131.000000
417.233000 70.000000
462.301000 60.000000
474.296000 43.000000
480.304000 110.000000
488.285000 92.000000
488.312000 420.000000
494.645000 20.000000
506.045000 21.000000
506.304000 328.000000
506.323000 1293.000000
532.336000 100.000000
532.401000 20.000000
564.536000 20.000000
606.546000 20.000000
699.474000 30.000000
725.520000 23.000000
748.514000 43.000000
757.557000 90.000000
768.109000 110.000000
768.172000 50.000000
769.558000 35.000000
770.397000 43.000000
770.544000 4934.000000
770.568000 20918.000000
770.997000 26.000000
771.554000 97.000000
784.610000 80.000000
785.529000 183.000000
844.540000 125.000000
844.603000 3009.000000
844.664000 71.000000

