>compound LQB7334440
>parentmass 732.6412
>ionization [M+CH3COOH-H]-
>formula C44H83NO3
>rt 787.729800
>profile qtof
#smiles_iso CCCCCCCCCCCCCC/C=C\CCCCCCCCCC(=O)NC(CO)C(/C=C/CC/C=C/CCCCCCCCC)O
#smiles_can CCCCCCCCCCCCCCC=CCCCCCCCCCC(=O)NC(CO)C(C=CCCC=CCCCCCCCCC)O
#inchikey ZGVFAJCEIZNYIA-XCDRWYSCSA-N
#pubchem_id 138312702
#mb_accession LQB00065,LQB00451

>ms2peaks
84.008000 70.000000
141.018000 30.000000
235.198000 81.000000
235.211000 81.000000
240.958000 71.000000
246.985000 50.000000
261.224000 55.000000
263.241000 30.000000
279.229000 171.000000
281.250000 161.000000
293.214000 55.000000
322.947000 71.000000
322.963000 183.000000
322.978000 113.000000
328.993000 40.000000
375.358000 110.000000
390.378000 85.000000
392.383000 160.000000
393.360000 50.000000
393.385000 80.000000
404.968000 183.000000
416.389000 50.000000
418.393000 377.000000
418.415000 213.000000
418.436000 40.000000
434.382000 50.000000
434.407000 101.000000
486.970000 100.000000
492.986000 20.000000
568.945000 30.000000
617.618000 20.000000
624.599000 120.000000
640.612000 101.000000
642.593000 60.000000
642.612000 91.000000
642.634000 70.000000
646.619000 70.000000
647.594000 90.000000
647.633000 111.000000
654.609000 20.000000
672.622000 1562.000000
672.648000 225.000000
732.495000 43.000000
732.558000 20.000000

>ms2peaks
84.008000 70.000000
141.018000 30.000000
235.198000 81.000000
235.211000 81.000000
240.958000 71.000000
246.985000 50.000000
261.224000 55.000000
263.241000 30.000000
279.229000 171.000000
281.250000 161.000000
293.214000 55.000000
322.947000 71.000000
322.963000 183.000000
322.978000 113.000000
328.993000 40.000000
375.358000 110.000000
390.378000 85.000000
392.383000 160.000000
393.360000 50.000000
393.385000 80.000000
404.968000 183.000000
416.389000 50.000000
418.393000 377.000000
418.415000 213.000000
418.436000 40.000000
434.382000 50.000000
434.407000 101.000000
486.970000 100.000000
492.986000 20.000000
568.945000 30.000000
617.618000 20.000000
624.599000 120.000000
640.612000 101.000000
642.593000 60.000000
642.612000 91.000000
642.634000 70.000000
646.619000 70.000000
647.594000 90.000000
647.633000 111.000000
654.609000 20.000000
672.622000 1562.000000
672.648000 225.000000
732.495000 43.000000
732.558000 20.000000

