>compound LQB7685606
>parentmass 838.5557
>ionization [M+CH3COOH-H]-
>formula C44H78NO8P
>rt 516.591000
>profile qtof
#smiles_iso CCCCC/C=C\C/C=C\CCCCCCCC(=O)OCC(COP(=O)([O-])OCC[N+](C)(C)C)OC(=O)CCCCCCC/C=C\C/C=C\C/C=C\CC
#smiles_can CCCCCC=CCC=CCCCCCCCC(=O)OCC(COP(=O)([O-])OCC[N+](C)(C)C)OC(=O)CCCCCCCC=CCC=CCC=CCC
#inchikey HZGAVPNEGHQJID-OFWSBFIXSA-N
#pubchem_id 25244746
#mb_accession LQB00155,LQB00541

>ms2
168.042000 80.000000
224.070000 40.000000
227.208000 20.000000
253.228000 20.000000
255.229000 30.000000
277.217000 804.000000
278.218000 21.000000
279.208000 93.000000
279.232000 2426.000000
281.253000 20.000000
300.205000 20.000000
301.216000 30.000000
303.231000 50.000000
327.209000 20.000000
478.285000 20.000000
480.314000 20.000000
484.279000 20.000000
486.282000 40.000000
502.266000 30.000000
502.293000 72.000000
504.297000 43.000000
748.509000 21.000000
751.515000 41.000000
763.502000 23.000000
764.485000 764.000000
764.521000 1416.000000
764.548000 547.000000
779.471000 50.000000
838.523000 91.000000
838.558000 164.000000
838.605000 90.000000

>ms2
168.042000 80.000000
224.070000 40.000000
227.208000 20.000000
253.228000 20.000000
255.229000 30.000000
277.217000 804.000000
278.218000 21.000000
279.208000 93.000000
279.232000 2426.000000
281.253000 20.000000
300.205000 20.000000
301.216000 30.000000
303.231000 50.000000
327.209000 20.000000
478.285000 20.000000
480.314000 20.000000
484.279000 20.000000
486.282000 40.000000
502.266000 30.000000
502.293000 72.000000
504.297000 43.000000
748.509000 21.000000
751.515000 41.000000
763.502000 23.000000
764.485000 764.000000
764.521000 1416.000000
764.548000 547.000000
779.471000 50.000000
838.523000 91.000000
838.558000 164.000000
838.605000 90.000000

