>compound LQB7124939
>parentmass 752.5183
>ionization [M-H]-
>formula C42H76NO8P
>rt 591.098820
>profile qtof
#smiles_iso CCCCCCCCCCCCCCCCC(=O)OCC(COP(=O)(O)OCCN)OC(=O)CCCCCC/C=C\C/C=C\C/C=C\C/C=C\CC
#smiles_can CCCCCCCCCCCCCCCCC(=O)OCC(COP(=O)(O)OCCN)OC(=O)CCCCCCC=CCC=CCC=CCC=CCC
#inchikey CKWQBCHPEQMNNL-UMWXEKTDSA-N
#pubchem_id 138136039
#mb_accession LQB00191,LQB00577

>ms2peaks
140.000000 40.000000
140.013000 81.000000
196.036000 212.000000
205.194000 144.000000
231.211000 50.000000
259.236000 348.000000
259.249000 256.000000
268.395000 30.000000
269.248000 3377.000000
279.235000 55.000000
285.222000 75.000000
301.222000 41.000000
302.275000 61.000000
303.200000 239.000000
303.232000 6589.000000
303.267000 87.000000
305.224000 20.000000
305.557000 12.000000
330.252000 20.000000
426.226000 45.000000
436.292000 53.000000
448.276000 91.000000
448.311000 40.000000
466.248000 30.000000
466.291000 704.000000
482.268000 61.000000
750.092000 21.000000
752.448000 81.000000
752.512000 3219.000000
752.557000 198.000000

>ms2peaks
140.000000 40.000000
140.013000 81.000000
196.036000 212.000000
205.194000 144.000000
231.211000 50.000000
259.236000 348.000000
259.249000 256.000000
268.395000 30.000000
269.248000 3377.000000
279.235000 55.000000
285.222000 75.000000
301.222000 41.000000
302.275000 61.000000
303.200000 239.000000
303.232000 6589.000000
303.267000 87.000000
305.224000 20.000000
305.557000 12.000000
330.252000 20.000000
426.226000 45.000000
436.292000 53.000000
448.276000 91.000000
448.311000 40.000000
466.248000 30.000000
466.291000 704.000000
482.268000 61.000000
750.092000 21.000000
752.448000 81.000000
752.512000 3219.000000
752.557000 198.000000

