>compound LQB7020228
>parentmass 823.5513
>ionization [M-H]-
>formula C46H81O10P
>rt 505.144320
>profile qtof
#smiles_iso CCCCCCCC/C=C\CCCCCCCC(=O)OCC(COP(=O)(O)OCC(CO)O)OC(=O)CCCCCCCC/C=C\C/C=C\C/C=C\C/C=C\CC
#smiles_can CCCCCCCCC=CCCCCCCCC(=O)OCC(COP(=O)(O)OCC(CO)O)OC(=O)CCCCCCCCC=CCC=CCC=CCC=CCC
#inchikey LKKSDDHQPCIQOD-DCMOKHIZSA-N
#pubchem_id 138202930
#mb_accession LQB00267,LQB00653

>ms2
152.990000 91.000000
233.236000 30.000000
280.373000 71.000000
281.249000 4104.000000
283.273000 51.000000
285.262000 32.000000
287.267000 143.000000
303.239000 35.000000
309.277000 61.000000
329.246000 41.000000
330.225000 47.000000
331.262000 4028.000000
332.270000 30.000000
388.184000 20.000000
417.246000 20.000000
435.247000 35.000000
467.271000 23.000000
485.248000 20.000000
491.290000 23.000000
509.278000 93.000000
541.293000 51.000000
559.301000 61.000000
613.366000 20.000000
659.487000 33.000000
697.012000 21.000000
737.479000 20.000000
823.460000 64.000000
823.490000 166.000000
823.550000 5319.000000
823.616000 63.000000

>ms2
152.990000 91.000000
233.236000 30.000000
280.373000 71.000000
281.249000 4104.000000
283.273000 51.000000
285.262000 32.000000
287.267000 143.000000
303.239000 35.000000
309.277000 61.000000
329.246000 41.000000
330.225000 47.000000
331.262000 4028.000000
332.270000 30.000000
388.184000 20.000000
417.246000 20.000000
435.247000 35.000000
467.271000 23.000000
485.248000 20.000000
491.290000 23.000000
509.278000 93.000000
541.293000 51.000000
559.301000 61.000000
613.366000 20.000000
659.487000 33.000000
697.012000 21.000000
737.479000 20.000000
823.460000 64.000000
823.490000 166.000000
823.550000 5319.000000
823.616000 63.000000

