>compound LQB7239432
>parentmass 843.6559500000001
>ionization [M+CH3COOH-H]-
>formula C45H89N2O6P
>rt 661.484400
>profile qtof
#smiles_iso CCCCCCCCCCCCCCCCCCCCCC(=O)NC(COP(=O)([O-])OCC[N+](C)(C)C)C(/C=C/CC/C=C/CCCCCCCCC)O
#smiles_can CCCCCCCCCCCCCCCCCCCCCC(=O)NC(COP(=O)([O-])OCC[N+](C)(C)C)C(C=CCCC=CCCCCCCCCC)O
#inchikey UCLWWTCDZKLHGY-INARCNGISA-N
#pubchem_id 138269524
#mb_accession LQB00381,LQB00382,LQB00767,LQB00768

>ms2
168.041000 286.000000
281.252000 20.000000
416.814000 20.000000
447.279000 23.000000
451.631000 20.000000
698.538000 33.000000
724.569000 20.000000
769.615000 6414.000000
769.658000 279.000000
769.714000 30.000000
784.584000 70.000000
843.656000 193.000000

>ms2
78.959000 25.000000
122.984000 12.000000
127.003000 7.000000
158.971000 6.000000
168.042000 197.000000
281.255000 12.000000
338.961000 6.000000
431.349000 7.000000
438.962000 6.000000
447.296000 12.000000
468.905000 6.000000
680.539000 13.000000
738.985000 6.000000
767.161000 23.000000
767.230000 15.000000
769.616000 3884.000000
769.890000 7.000000
770.613000 12.000000
770.659000 13.000000
772.560000 6.000000
784.589000 26.000000
843.644000 74.000000
843.676000 65.000000

>ms2
168.041000 286.000000
281.252000 20.000000
416.814000 20.000000
447.279000 23.000000
451.631000 20.000000
698.538000 33.000000
724.569000 20.000000
769.615000 6414.000000
769.658000 279.000000
769.714000 30.000000
784.584000 70.000000
843.656000 193.000000

>ms2
78.959000 25.000000
122.984000 12.000000
127.003000 7.000000
158.971000 6.000000
168.042000 197.000000
281.255000 12.000000
338.961000 6.000000
431.349000 7.000000
438.962000 6.000000
447.296000 12.000000
468.905000 6.000000
680.539000 13.000000
738.985000 6.000000
767.161000 23.000000
767.230000 15.000000
769.616000 3884.000000
769.890000 7.000000
770.613000 12.000000
770.659000 13.000000
772.560000 6.000000
784.589000 26.000000
843.644000 74.000000
843.676000 65.000000

