>compound LQB7801942
>parentmass 854.5099
>ionization [M-H]-
>formula C48H74NO10P
>rt 484.395780
>profile qtof
#smiles_iso CC/C=C\C/C=C\C/C=C\C/C=C\CCCCCCC(=O)OCC(COP(=O)(O)OCC(C(=O)O)N)OC(=O)CC/C=C\C/C=C\C/C=C\C/C=C\C/C=C\C/C=C\CC
#smiles_can CCC=CCC=CCC=CCC=CCCCCCCC(=O)OCC(COP(=O)(O)OCC(C(=O)O)N)OC(=O)CCC=CCC=CCC=CCC=CCC=CCC=CCC
#inchikey WXLDEVYPZQFZLE-GGLIIMCGSA-N
#pubchem_id 138292917
#mb_accession LQB00345,LQB00731

>ms2
78.957000 91.000000
97.029000 65.000000
121.062000 60.000000
140.011000 70.000000
152.988000 101.000000
153.000000 91.000000
162.065000 80.000000
196.034000 234.000000
196.044000 102.000000
214.050000 60.000000
225.179000 63.000000
225.193000 131.000000
255.164000 80.000000
255.183000 80.000000
255.230000 70.000000
269.243000 91.000000
283.263000 3225.000000
293.191000 55.000000
295.204000 53.000000
301.179000 33.000000
303.227000 207.000000
311.204000 203.000000
327.228000 387.000000
337.183000 90.000000
355.183000 110.000000
373.200000 163.000000
439.217000 110.000000
457.238000 50.000000
463.221000 347.000000
480.302000 1148.000000
480.322000 639.000000
481.238000 144.000000
564.349000 20.000000
570.251000 20.000000
599.245000 20.000000
602.348000 30.000000
767.414000 50.000000
767.440000 143.000000
767.465000 602.000000
767.503000 173.000000
767.529000 50.000000
820.542000 40.000000
836.467000 81.000000
836.496000 173.000000
836.513000 203.000000
836.528000 91.000000
836.567000 70.000000
854.454000 152.000000
854.483000 427.000000
854.511000 856.000000
854.544000 132.000000
854.586000 110.000000
855.468000 37.000000
855.524000 101.000000

>ms2
78.957000 91.000000
97.029000 65.000000
121.062000 60.000000
140.011000 70.000000
152.988000 101.000000
153.000000 91.000000
162.065000 80.000000
196.034000 234.000000
196.044000 102.000000
214.050000 60.000000
225.179000 63.000000
225.193000 131.000000
255.164000 80.000000
255.183000 80.000000
255.230000 70.000000
269.243000 91.000000
283.263000 3225.000000
293.191000 55.000000
295.204000 53.000000
301.179000 33.000000
303.227000 207.000000
311.204000 203.000000
327.228000 387.000000
337.183000 90.000000
355.183000 110.000000
373.200000 163.000000
439.217000 110.000000
457.238000 50.000000
463.221000 347.000000
480.302000 1148.000000
480.322000 639.000000
481.238000 144.000000
564.349000 20.000000
570.251000 20.000000
599.245000 20.000000
602.348000 30.000000
767.414000 50.000000
767.440000 143.000000
767.465000 602.000000
767.503000 173.000000
767.529000 50.000000
820.542000 40.000000
836.467000 81.000000
836.496000 173.000000
836.513000 203.000000
836.528000 91.000000
836.567000 70.000000
854.454000 152.000000
854.483000 427.000000
854.511000 856.000000
854.544000 132.000000
854.586000 110.000000
855.468000 37.000000
855.524000 101.000000

