>compound LQB7545370
>parentmass 896.6354
>ionization [M+CH3COOH-H]-
>formula C48H88NO8P
>rt 658.819200
>profile qtof
#smiles_iso CCCCCCCCCCCCCCCCCC(=O)OCC(COP(=O)([O-])OCC[N+](C)(C)C)OC(=O)CCCCCCCC/C=C\C/C=C\C/C=C\C/C=C\CC
#smiles_can CCCCCCCCCCCCCCCCCC(=O)OCC(COP(=O)([O-])OCC[N+](C)(C)C)OC(=O)CCCCCCCCC=CCC=CCC=CCC=CCC
#inchikey WUIUYHXOIXOMHN-SHJNOZFHSA-N
#pubchem_id 138291977
#mb_accession LQB00140,LQB00526

>ms2
168.043000 95.000000
224.067000 35.000000
233.218000 10.000000
242.080000 25.000000
281.248000 50.000000
282.375000 20.000000
283.262000 2032.000000
287.273000 105.000000
303.235000 30.000000
311.295000 15.000000
330.224000 45.000000
330.363000 11.000000
330.828000 11.000000
331.262000 5379.000000
332.264000 12.000000
490.334000 85.000000
501.553000 10.000000
508.337000 479.000000
516.892000 10.000000
538.314000 35.000000
538.344000 16.000000
556.338000 60.000000
567.512000 17.000000
751.551000 26.000000
819.961000 15.000000
822.597000 7345.000000
822.884000 10.000000
823.592000 41.000000
837.549000 70.000000
837.603000 25.000000
896.586000 60.000000
896.634000 1039.000000

>ms2
168.043000 95.000000
224.067000 35.000000
233.218000 10.000000
242.080000 25.000000
281.248000 50.000000
282.375000 20.000000
283.262000 2032.000000
287.273000 105.000000
303.235000 30.000000
311.295000 15.000000
330.224000 45.000000
330.363000 11.000000
330.828000 11.000000
331.262000 5379.000000
332.264000 12.000000
490.334000 85.000000
501.553000 10.000000
508.337000 479.000000
516.892000 10.000000
538.314000 35.000000
538.344000 16.000000
556.338000 60.000000
567.512000 17.000000
751.551000 26.000000
819.961000 15.000000
822.597000 7345.000000
822.884000 10.000000
823.592000 41.000000
837.549000 70.000000
837.603000 25.000000
896.586000 60.000000
896.634000 1039.000000

