>compound LQB7140694
>parentmass 742.5376
>ionization [M-H]-
>formula C41H78NO8P
>rt 609.378000
>profile qtof
#smiles_iso CCCCCCCC/C=C\CCCCCCCC(=O)OCC(COP(=O)(O)OCCN)OC(=O)CCCCCCC/C=C\CCCCCCCC
#smiles_can CCCCCCCCC=CCCCCCCCC(=O)OCC(COP(=O)(O)OCCN)OC(=O)CCCCCCCC=CCCCCCCCC
#inchikey MWRBNPKJOOWZPW-CLFAGFIQSA-N
#pubchem_id 6437392
#mb_accession LQB00208,LQB00594

>ms2
78.961000 101.000000
122.001000 40.000000
140.010000 316.000000
196.037000 652.000000
214.045000 30.000000
253.217000 73.000000
255.234000 40.000000
280.374000 167.000000
281.135000 37.000000
281.249000 52596.000000
281.338000 57.000000
309.281000 121.000000
404.261000 61.000000
417.249000 33.000000
460.268000 265.000000
460.288000 397.000000
478.289000 2449.000000
514.269000 21.000000
563.484000 64.000000
565.517000 33.000000
690.403000 20.000000
740.190000 81.000000
742.010000 20.000000
742.539000 13993.000000
742.745000 20.000000
743.550000 74.000000

>ms2
78.961000 101.000000
122.001000 40.000000
140.010000 316.000000
196.037000 652.000000
214.045000 30.000000
253.217000 73.000000
255.234000 40.000000
280.374000 167.000000
281.135000 37.000000
281.249000 52596.000000
281.338000 57.000000
309.281000 121.000000
404.261000 61.000000
417.249000 33.000000
460.268000 265.000000
460.288000 397.000000
478.289000 2449.000000
514.269000 21.000000
563.484000 64.000000
565.517000 33.000000
690.403000 20.000000
740.190000 81.000000
742.010000 20.000000
742.539000 13993.000000
742.745000 20.000000
743.550000 74.000000

