>compound LQB7468026
>parentmass 705.51835
>ionization [M+CH3COOH-H]-
>formula C35H71N2O6P
>rt 480.162480
>profile qtof
#smiles_iso CCCCCCCCCCCCC/C=C/C(C(COP(=O)([O-])OCC[N+](C)(C)C)NC(=O)CCCCCCCCCCC)O
#smiles_can CCCCCCCCCCCCCC=CC(C(COP(=O)([O-])OCC[N+](C)(C)C)NC(=O)CCCCCCCCCCC)O
#inchikey HZCLJRFPXMKWHR-BYCLXTJYSA-N
#pubchem_id 49839718
#mb_accession LQB00353,LQB00354,LQB00739,LQB00740

>ms2peaks
78.958000 908.000000
96.967000 18.000000
122.982000 52.000000
167.524000 13.000000
168.041000 2742.000000
171.027000 7.000000
199.165000 10.000000
205.161000 7.000000
255.229000 8.000000
279.232000 8.000000
283.267000 24.000000
329.180000 8.000000
348.192000 8.000000
391.214000 7.000000
393.252000 7.000000
449.316000 122.000000
539.409000 11.000000
539.457000 16.000000
542.374000 10.000000
542.413000 18.000000
557.451000 10.000000
560.409000 102.000000
560.441000 14.000000
586.419000 42.000000
613.495000 10.000000
627.458000 10.000000
627.502000 44.000000
627.525000 68.000000
627.553000 14.000000
629.471000 32.000000
629.492000 48.000000
629.560000 18.000000
631.415000 76.000000
631.481000 24280.000000
632.457000 10.000000
632.485000 32.000000
645.511000 80.000000
645.530000 125.000000
645.558000 24.000000
645.571000 16.000000
646.400000 12.000000
646.445000 84.000000
646.473000 18.000000
687.454000 15.000000
687.497000 18.000000
687.562000 5.000000
705.437000 11.000000
705.509000 251.000000
705.538000 38.000000
705.624000 4.000000

>ms2peaks
78.958000 580.000000
96.966000 20.000000
122.987000 40.000000
133.066000 21.000000
152.995000 21.000000
167.532000 31.000000
168.042000 2234.000000
225.182000 30.000000
255.230000 111.000000
295.213000 20.000000
329.172000 20.000000
352.651000 20.000000
449.319000 101.000000
542.399000 40.000000
560.406000 110.000000
627.509000 90.000000
627.527000 81.000000
629.428000 21.000000
629.489000 83.000000
630.554000 32.000000
631.478000 14517.000000
632.470000 21.000000
645.521000 102.000000
645.543000 71.000000
645.559000 40.000000
646.440000 60.000000
687.493000 63.000000
705.502000 141.000000

>ms2peaks
78.958000 908.000000
96.967000 18.000000
122.982000 52.000000
167.524000 13.000000
168.041000 2742.000000
171.027000 7.000000
199.165000 10.000000
205.161000 7.000000
255.229000 8.000000
279.232000 8.000000
283.267000 24.000000
329.180000 8.000000
348.192000 8.000000
391.214000 7.000000
393.252000 7.000000
449.316000 122.000000
539.409000 11.000000
539.457000 16.000000
542.374000 10.000000
542.413000 18.000000
557.451000 10.000000
560.409000 102.000000
560.441000 14.000000
586.419000 42.000000
613.495000 10.000000
627.458000 10.000000
627.502000 44.000000
627.525000 68.000000
627.553000 14.000000
629.471000 32.000000
629.492000 48.000000
629.560000 18.000000
631.415000 76.000000
631.481000 24280.000000
632.457000 10.000000
632.485000 32.000000
645.511000 80.000000
645.530000 125.000000
645.558000 24.000000
645.571000 16.000000
646.400000 12.000000
646.445000 84.000000
646.473000 18.000000
687.454000 15.000000
687.497000 18.000000
687.562000 5.000000
705.437000 11.000000
705.509000 251.000000
705.538000 38.000000
705.624000 4.000000

>ms2peaks
78.958000 580.000000
96.966000 20.000000
122.987000 40.000000
133.066000 21.000000
152.995000 21.000000
167.532000 31.000000
168.042000 2234.000000
225.182000 30.000000
255.230000 111.000000
295.213000 20.000000
329.172000 20.000000
352.651000 20.000000
449.319000 101.000000
542.399000 40.000000
560.406000 110.000000
627.509000 90.000000
627.527000 81.000000
629.428000 21.000000
629.489000 83.000000
630.554000 32.000000
631.478000 14517.000000
632.470000 21.000000
645.521000 102.000000
645.543000 71.000000
645.559000 40.000000
646.440000 60.000000
687.493000 63.000000
705.502000 141.000000

