>compound LQB7088006
>parentmass 747.5143
>ionization [M-H]-
>formula C40H77O10P
>rt 518.817000
>profile qtof
#smiles_iso CCCCCCCCCCCCCCCC(=O)OCC(COP(=O)(O)OCC(CO)O)OC(=O)CCCCCCC/C=C\CCCCCCCC
#smiles_can CCCCCCCCCCCCCCCC(=O)OCC(COP(=O)(O)OCC(CO)O)OC(=O)CCCCCCCC=CCCCCCCCC
#inchikey PAZGBAOHGQRCBP-ZCXUNETKSA-N
#pubchem_id 5282293
#mb_accession LQB00241,LQB00627

>ms2
78.960000 786.000000
96.971000 142.000000
152.522000 42.000000
152.996000 4282.000000
171.007000 1650.000000
207.344000 40.000000
209.021000 559.000000
227.032000 1205.000000
237.221000 40.000000
245.041000 60.000000
253.207000 224.000000
253.224000 194.000000
254.421000 152.000000
254.438000 168.000000
255.232000 49768.000000
280.362000 328.000000
280.377000 205.000000
281.044000 113.000000
281.109000 72.000000
281.157000 163.000000
281.247000 109564.000000
282.005000 72.000000
283.265000 181.000000
389.979000 41.000000
391.219000 4453.000000
409.228000 193.000000
417.206000 71.000000
417.227000 418.000000
417.241000 387.000000
435.240000 153.000000
464.445000 42.000000
465.212000 51.000000
465.255000 3304.000000
483.203000 72.000000
483.231000 302.000000
483.267000 5137.000000
483.347000 23.000000
488.539000 30.000000
491.231000 71.000000
491.271000 1264.000000
509.269000 439.000000
509.285000 286.000000
509.297000 285.000000
511.296000 33.000000
511.524000 59.000000
561.843000 70.000000
562.239000 44.000000
563.490000 144.000000
563.677000 55.000000
673.441000 91.000000
673.465000 91.000000
673.485000 111.000000
673.520000 90.000000
745.086000 70.000000
745.119000 81.000000
745.132000 91.000000
745.155000 184.000000
745.245000 55.000000
746.434000 40.000000
746.513000 43.000000
747.045000 48.000000
747.167000 37.000000
747.502000 58901.000000
748.129000 50.000000
748.490000 181.000000
748.527000 91.000000
748.921000 43.000000
749.651000 50.000000

>ms2
78.960000 786.000000
96.971000 142.000000
152.522000 42.000000
152.996000 4282.000000
171.007000 1650.000000
207.344000 40.000000
209.021000 559.000000
227.032000 1205.000000
237.221000 40.000000
245.041000 60.000000
253.207000 224.000000
253.224000 194.000000
254.421000 152.000000
254.438000 168.000000
255.232000 49768.000000
280.362000 328.000000
280.377000 205.000000
281.044000 113.000000
281.109000 72.000000
281.157000 163.000000
281.247000 109564.000000
282.005000 72.000000
283.265000 181.000000
389.979000 41.000000
391.219000 4453.000000
409.228000 193.000000
417.206000 71.000000
417.227000 418.000000
417.241000 387.000000
435.240000 153.000000
464.445000 42.000000
465.212000 51.000000
465.255000 3304.000000
483.203000 72.000000
483.231000 302.000000
483.267000 5137.000000
483.347000 23.000000
488.539000 30.000000
491.231000 71.000000
491.271000 1264.000000
509.269000 439.000000
509.285000 286.000000
509.297000 285.000000
511.296000 33.000000
511.524000 59.000000
561.843000 70.000000
562.239000 44.000000
563.490000 144.000000
563.677000 55.000000
673.441000 91.000000
673.465000 91.000000
673.485000 111.000000
673.520000 90.000000
745.086000 70.000000
745.119000 81.000000
745.132000 91.000000
745.155000 184.000000
745.245000 55.000000
746.434000 40.000000
746.513000 43.000000
747.045000 48.000000
747.167000 37.000000
747.502000 58901.000000
748.129000 50.000000
748.490000 181.000000
748.527000 91.000000
748.921000 43.000000
749.651000 50.000000

