>compound LQB7483759
>parentmass 652.5855
>ionization [M+CH3COOH-H]-
>formula C38H75NO3
>rt 735.396200
>profile qtof
#smiles_iso CCCCCCCCCCCCCCCCCCCC(=O)NC(CO)C(/C=C/CCCCCCCCCCCCC)O
#smiles_can CCCCCCCCCCCCCCCCCCCC(=O)NC(CO)C(C=CCCCCCCCCCCCCC)O
#inchikey XWBWIAOWSABHFI-QOSDPKFLSA-N
#pubchem_id 6064609
#mb_accession LQB00037,LQB00038,LQB00039,LQB00423,LQB00424,LQB00425

>ms2peaks
209.194000 16.000000
225.222000 15.000000
235.206000 20.000000
237.222000 861.000000
239.242000 26.000000
250.246000 40.000000
263.236000 484.000000
266.246000 136.000000
268.265000 130.000000
281.241000 25.000000
293.283000 974.000000
298.279000 45.000000
309.317000 90.000000
310.284000 30.000000
310.306000 556.000000
310.320000 249.000000
311.293000 500.000000
334.310000 25.000000
335.277000 20.000000
336.327000 3534.000000
350.318000 66.000000
352.321000 488.000000
352.354000 25.000000
354.336000 40.000000
364.348000 40.000000
366.335000 21.000000
544.497000 30.000000
544.541000 448.000000
544.571000 80.000000
560.501000 46.000000
560.536000 434.000000
560.567000 85.000000
562.554000 989.000000
562.597000 50.000000
574.550000 86.000000
590.681000 21.000000
590.727000 45.000000
592.500000 36.000000
592.565000 8793.000000
592.636000 28.000000
593.576000 30.000000

>ms2peaks
209.186000 16.000000
235.202000 20.000000
237.218000 111.000000
239.231000 8.000000
240.959000 18.000000
250.251000 12.000000
263.235000 92.000000
266.244000 28.000000
268.262000 16.000000
280.954000 26.000000
281.250000 14.000000
293.283000 143.000000
300.987000 18.000000
309.320000 16.000000
310.306000 129.000000
310.326000 14.000000
311.293000 74.000000
321.314000 32.000000
321.334000 12.000000
324.987000 10.000000
336.324000 657.000000
336.357000 14.000000
338.338000 24.000000
339.326000 26.000000
350.328000 12.000000
352.293000 12.000000
352.321000 70.000000
362.952000 14.000000
364.346000 34.000000
364.358000 79.000000
380.354000 19.000000
404.977000 11.000000
444.967000 18.000000
488.973000 6.000000
533.535000 11.000000
544.543000 95.000000
544.567000 16.000000
544.584000 8.000000
560.534000 79.000000
560.562000 20.000000
562.549000 162.000000
562.573000 60.000000
590.686000 16.000000
592.560000 1861.000000
593.565000 8.000000

>ms2peaks
237.218000 265.000000
237.228000 203.000000
263.228000 224.000000
263.239000 358.000000
265.253000 225.000000
266.248000 110.000000
268.252000 61.000000
268.271000 60.000000
280.261000 92.000000
282.276000 70.000000
283.262000 80.000000
291.262000 121.000000
293.284000 706.000000
308.280000 215.000000
308.301000 338.000000
309.312000 44.000000
310.308000 520.000000
311.290000 378.000000
321.314000 23.000000
324.273000 30.000000
324.292000 94.000000
335.258000 41.000000
336.325000 2734.000000
337.285000 20.000000
352.312000 236.000000
352.329000 153.000000
355.456000 20.000000
362.954000 20.000000
364.362000 20.000000
366.348000 20.000000
544.511000 101.000000
544.536000 277.000000
544.569000 60.000000
560.521000 356.000000
560.545000 163.000000
560.573000 80.000000
562.539000 530.000000
562.564000 480.000000
562.604000 20.000000
574.541000 30.000000
592.535000 1479.000000
592.561000 5977.000000

>ms2peaks
209.194000 16.000000
225.222000 15.000000
235.206000 20.000000
237.222000 861.000000
239.242000 26.000000
250.246000 40.000000
263.236000 484.000000
266.246000 136.000000
268.265000 130.000000
281.241000 25.000000
293.283000 974.000000
298.279000 45.000000
309.317000 90.000000
310.284000 30.000000
310.306000 556.000000
310.320000 249.000000
311.293000 500.000000
334.310000 25.000000
335.277000 20.000000
336.327000 3534.000000
350.318000 66.000000
352.321000 488.000000
352.354000 25.000000
354.336000 40.000000
364.348000 40.000000
366.335000 21.000000
544.497000 30.000000
544.541000 448.000000
544.571000 80.000000
560.501000 46.000000
560.536000 434.000000
560.567000 85.000000
562.554000 989.000000
562.597000 50.000000
574.550000 86.000000
590.681000 21.000000
590.727000 45.000000
592.500000 36.000000
592.565000 8793.000000
592.636000 28.000000
593.576000 30.000000

>ms2peaks
209.186000 16.000000
235.202000 20.000000
237.218000 111.000000
239.231000 8.000000
240.959000 18.000000
250.251000 12.000000
263.235000 92.000000
266.244000 28.000000
268.262000 16.000000
280.954000 26.000000
281.250000 14.000000
293.283000 143.000000
300.987000 18.000000
309.320000 16.000000
310.306000 129.000000
310.326000 14.000000
311.293000 74.000000
321.314000 32.000000
321.334000 12.000000
324.987000 10.000000
336.324000 657.000000
336.357000 14.000000
338.338000 24.000000
339.326000 26.000000
350.328000 12.000000
352.293000 12.000000
352.321000 70.000000
362.952000 14.000000
364.346000 34.000000
364.358000 79.000000
380.354000 19.000000
404.977000 11.000000
444.967000 18.000000
488.973000 6.000000
533.535000 11.000000
544.543000 95.000000
544.567000 16.000000
544.584000 8.000000
560.534000 79.000000
560.562000 20.000000
562.549000 162.000000
562.573000 60.000000
590.686000 16.000000
592.560000 1861.000000
593.565000 8.000000

>ms2peaks
237.218000 265.000000
237.228000 203.000000
263.228000 224.000000
263.239000 358.000000
265.253000 225.000000
266.248000 110.000000
268.252000 61.000000
268.271000 60.000000
280.261000 92.000000
282.276000 70.000000
283.262000 80.000000
291.262000 121.000000
293.284000 706.000000
308.280000 215.000000
308.301000 338.000000
309.312000 44.000000
310.308000 520.000000
311.290000 378.000000
321.314000 23.000000
324.273000 30.000000
324.292000 94.000000
335.258000 41.000000
336.325000 2734.000000
337.285000 20.000000
352.312000 236.000000
352.329000 153.000000
355.456000 20.000000
362.954000 20.000000
364.362000 20.000000
366.348000 20.000000
544.511000 101.000000
544.536000 277.000000
544.569000 60.000000
560.521000 356.000000
560.545000 163.000000
560.573000 80.000000
562.539000 530.000000
562.564000 480.000000
562.604000 20.000000
574.541000 30.000000
592.535000 1479.000000
592.561000 5977.000000

