>compound LQB8301853
>parentmass 857.6783
>ionization [M+CH3COOH-H]-
>formula C46H91N2O6P
>rt 684.558600
>profile qtof
#smiles_iso CCCCCCCCCCCCC/C=C/C(C(COP(=O)([O-])OCC[N+](C)(C)C)NC(=O)CCCCCCCCC/C=C\CCCCCCCCCCC)O
#smiles_can CCCCCCCCCCCCCC=CC(C(COP(=O)([O-])OCC[N+](C)(C)C)NC(=O)CCCCCCCCCC=CCCCCCCCCCCC)O
#inchikey MNOXGTBPCAFFCM-SJWJHEOESA-N
#pubchem_id 138212311
#mb_accession LQB00368,LQB00754

>ms2peaks
78.957000 52.000000
78.966000 12.000000
122.984000 20.000000
168.040000 183.000000
283.259000 13.000000
305.241000 20.000000
306.250000 14.000000
327.225000 4.000000
333.283000 4.000000
334.290000 4.000000
419.252000 4.000000
420.253000 7.000000
421.942000 4.000000
435.012000 4.000000
449.314000 11.000000
449.724000 5.000000
459.609000 4.000000
494.346000 12.000000
495.359000 2.000000
712.573000 10.000000
770.468000 9.000000
781.182000 8.000000
783.634000 4507.000000
783.794000 13.000000
784.124000 11.000000
784.627000 30.000000
784.674000 8.000000
797.644000 9.000000
798.579000 24.000000
798.606000 20.000000
857.456000 8.000000
857.514000 30.000000
857.624000 43.000000
857.656000 60.000000
857.679000 98.000000
857.719000 12.000000

>ms2peaks
78.957000 52.000000
78.966000 12.000000
122.984000 20.000000
168.040000 183.000000
283.259000 13.000000
305.241000 20.000000
306.250000 14.000000
327.225000 4.000000
333.283000 4.000000
334.290000 4.000000
419.252000 4.000000
420.253000 7.000000
421.942000 4.000000
435.012000 4.000000
449.314000 11.000000
449.724000 5.000000
459.609000 4.000000
494.346000 12.000000
495.359000 2.000000
712.573000 10.000000
770.468000 9.000000
781.182000 8.000000
783.634000 4507.000000
783.794000 13.000000
784.124000 11.000000
784.627000 30.000000
784.674000 8.000000
797.644000 9.000000
798.579000 24.000000
798.606000 20.000000
857.456000 8.000000
857.514000 30.000000
857.624000 43.000000
857.656000 60.000000
857.679000 98.000000
857.719000 12.000000

