>compound LQB8105610
>parentmass 771.5146
>ionization [M-H]-
>formula C42H77O10P
>rt 509.157960
>profile qtof
#smiles_iso CCCCCCCCCCCCCCCC(=O)OCC(COP(=O)(O)OCC(CO)O)OC(=O)CCCCCCCCC/C=C\C/C=C\C/C=C\CC
#smiles_can CCCCCCCCCCCCCCCC(=O)OCC(COP(=O)(O)OCC(CO)O)OC(=O)CCCCCCCCCC=CCC=CCC=CCC
#inchikey CLWMQONPFNUMKX-SVNQLWEDSA-N
#pubchem_id 138136335
#mb_accession LQB00247,LQB00633

>ms2peaks
246.980000 30.000000
253.211000 30.000000
255.237000 162.000000
256.230000 70.000000
257.243000 43.000000
279.232000 447.000000
281.247000 572.000000
281.275000 61.000000
293.215000 30.000000
303.236000 82.000000
304.238000 121.000000
305.242000 224.000000
307.258000 70.000000
391.222000 20.000000
415.217000 40.000000
437.263000 23.000000
507.270000 53.000000
738.442000 20.000000
739.469000 187.000000
739.509000 70.000000
753.468000 21.000000
771.452000 71.000000
771.482000 450.000000
771.499000 523.000000
771.525000 777.000000
771.576000 60.000000

>ms2peaks
246.980000 30.000000
253.211000 30.000000
255.237000 162.000000
256.230000 70.000000
257.243000 43.000000
279.232000 447.000000
281.247000 572.000000
281.275000 61.000000
293.215000 30.000000
303.236000 82.000000
304.238000 121.000000
305.242000 224.000000
307.258000 70.000000
391.222000 20.000000
415.217000 40.000000
437.263000 23.000000
507.270000 53.000000
738.442000 20.000000
739.469000 187.000000
739.509000 70.000000
753.468000 21.000000
771.452000 71.000000
771.482000 450.000000
771.499000 523.000000
771.525000 777.000000
771.576000 60.000000

