>compound LQB8882793
>parentmass 862.5572
>ionization [M+CH3COOH-H]-
>formula C46H78NO8P
>rt 515.462460
>profile qtof
#smiles_iso CCCCC/C=C\C/C=C\CCCCCCCC(=O)OCC(COP(=O)([O-])OCC[N+](C)(C)C)OC(=O)CCC/C=C\C/C=C\C/C=C\C/C=C\C/C=C\CC
#smiles_can CCCCCC=CCC=CCCCCCCCC(=O)OCC(COP(=O)([O-])OCC[N+](C)(C)C)OC(=O)CCCC=CCC=CCC=CCC=CCC=CCC
#inchikey HRBNRYBXXRPMKP-OMCHRGCMSA-N
#pubchem_id 24778981
#mb_accession LQB00158,LQB00544

>ms2
168.040000 193.000000
203.174000 111.000000
203.188000 60.000000
223.167000 60.000000
224.061000 101.000000
224.071000 183.000000
229.191000 50.000000
241.013000 50.000000
255.223000 50.000000
257.223000 1265.000000
277.217000 41.000000
278.362000 41.000000
279.204000 188.000000
279.232000 4775.000000
281.244000 73.000000
282.247000 73.000000
283.201000 31.000000
283.256000 74.000000
285.264000 20.000000
286.778000 21.000000
296.229000 33.000000
300.282000 56.000000
300.976000 20.000000
301.215000 8874.000000
302.355000 25.000000
303.228000 172.000000
415.221000 50.000000
418.235000 40.000000
435.320000 20.000000
438.955000 20.000000
441.523000 20.000000
445.477000 20.000000
452.246000 20.000000
486.288000 203.000000
504.306000 1419.000000
508.273000 111.000000
519.244000 20.000000
526.281000 142.000000
526.323000 35.000000
579.317000 33.000000
673.448000 20.000000
717.452000 58.000000
780.479000 50.000000
780.528000 90.000000
786.034000 95.000000
788.435000 102.000000
788.479000 979.000000
788.521000 14000.000000
788.586000 128.000000
788.650000 54.000000
789.531000 65.000000
802.523000 40.000000
803.469000 145.000000
862.491000 163.000000
862.512000 287.000000
862.555000 1094.000000
862.594000 245.000000

>ms2
168.040000 193.000000
203.174000 111.000000
203.188000 60.000000
223.167000 60.000000
224.061000 101.000000
224.071000 183.000000
229.191000 50.000000
241.013000 50.000000
255.223000 50.000000
257.223000 1265.000000
277.217000 41.000000
278.362000 41.000000
279.204000 188.000000
279.232000 4775.000000
281.244000 73.000000
282.247000 73.000000
283.201000 31.000000
283.256000 74.000000
285.264000 20.000000
286.778000 21.000000
296.229000 33.000000
300.282000 56.000000
300.976000 20.000000
301.215000 8874.000000
302.355000 25.000000
303.228000 172.000000
415.221000 50.000000
418.235000 40.000000
435.320000 20.000000
438.955000 20.000000
441.523000 20.000000
445.477000 20.000000
452.246000 20.000000
486.288000 203.000000
504.306000 1419.000000
508.273000 111.000000
519.244000 20.000000
526.281000 142.000000
526.323000 35.000000
579.317000 33.000000
673.448000 20.000000
717.452000 58.000000
780.479000 50.000000
780.528000 90.000000
786.034000 95.000000
788.435000 102.000000
788.479000 979.000000
788.521000 14000.000000
788.586000 128.000000
788.650000 54.000000
789.531000 65.000000
802.523000 40.000000
803.469000 145.000000
862.491000 163.000000
862.512000 287.000000
862.555000 1094.000000
862.594000 245.000000

