>compound LQB8576586
>parentmass 769.4972
>ionization [M-H]-
>formula C42H75O10P
>rt 494.596410
>profile qtof
#smiles_iso CCCCCCCCCCCCCCCC(=O)OCC(COP(=O)(O)OCC(CO)O)OC(=O)CCCCCC/C=C\C/C=C\C/C=C\C/C=C\CC
#smiles_can CCCCCCCCCCCCCCCC(=O)OCC(COP(=O)(O)OCC(CO)O)OC(=O)CCCCCCC=CCC=CCC=CCC=CCC
#inchikey OSLKKANICVMRGE-JAXHXWBXSA-N
#pubchem_id 138230554
#mb_accession LQB00248,LQB00249,LQB00634,LQB00635

>ms2
78.958000 663.000000
96.969000 71.000000
152.995000 3499.000000
163.072000 120.000000
171.006000 1717.000000
177.095000 204.000000
191.106000 193.000000
205.122000 141.000000
205.196000 1988.000000
209.018000 366.000000
209.038000 71.000000
217.197000 91.000000
225.186000 63.000000
227.031000 1803.000000
231.202000 132.000000
231.215000 286.000000
245.043000 224.000000
254.436000 215.000000
255.232000 47532.000000
259.243000 7965.000000
267.212000 86.000000
279.216000 133.000000
279.232000 703.000000
284.259000 53.000000
285.204000 91.000000
285.223000 654.000000
301.212000 193.000000
301.230000 60.000000
302.274000 275.000000
302.290000 256.000000
302.302000 50.000000
303.232000 101627.000000
303.680000 48.000000
304.234000 91.000000
391.222000 2001.000000
409.217000 91.000000
409.237000 194.000000
439.209000 163.000000
439.228000 437.000000
457.241000 81.000000
465.233000 323.000000
465.259000 2768.000000
480.089000 52.000000
481.776000 51.000000
483.206000 51.000000
483.270000 7532.000000
513.222000 132.000000
513.256000 826.000000
513.276000 418.000000
513.313000 40.000000
513.451000 103.000000
531.238000 101.000000
531.272000 440.000000
531.311000 43.000000
695.443000 153.000000
695.469000 112.000000
695.498000 60.000000
737.448000 50.000000
737.486000 162.000000
766.612000 46.000000
767.005000 70.000000
767.042000 194.000000
767.072000 163.000000
767.113000 101.000000
767.156000 60.000000
768.503000 40.000000
768.579000 63.000000
769.165000 68.000000
769.495000 61063.000000
769.568000 98.000000
770.202000 39.000000
770.485000 150.000000
770.519000 128.000000

>ms2
78.962000 40.000000
152.995000 203.000000
191.115000 41.000000
205.194000 214.000000
209.024000 31.000000
227.029000 41.000000
231.223000 64.000000
255.232000 3672.000000
259.242000 683.000000
259.260000 81.000000
279.222000 428.000000
279.235000 510.000000
279.251000 91.000000
283.265000 172.000000
284.265000 31.000000
301.211000 51.000000
302.291000 50.000000
303.151000 30.000000
303.232000 9526.000000
304.227000 41.000000
391.221000 142.000000
391.238000 133.000000
409.236000 90.000000
465.240000 91.000000
465.267000 173.000000
480.440000 30.000000
483.257000 174.000000
483.282000 132.000000
489.270000 60.000000
507.278000 30.000000
513.264000 120.000000
643.511000 50.000000
665.475000 20.000000
767.064000 42.000000
767.127000 31.000000
769.415000 113.000000
769.496000 7910.000000
769.523000 2095.000000
769.569000 115.000000
770.501000 33.000000

>ms2
78.958000 663.000000
96.969000 71.000000
152.995000 3499.000000
163.072000 120.000000
171.006000 1717.000000
177.095000 204.000000
191.106000 193.000000
205.122000 141.000000
205.196000 1988.000000
209.018000 366.000000
209.038000 71.000000
217.197000 91.000000
225.186000 63.000000
227.031000 1803.000000
231.202000 132.000000
231.215000 286.000000
245.043000 224.000000
254.436000 215.000000
255.232000 47532.000000
259.243000 7965.000000
267.212000 86.000000
279.216000 133.000000
279.232000 703.000000
284.259000 53.000000
285.204000 91.000000
285.223000 654.000000
301.212000 193.000000
301.230000 60.000000
302.274000 275.000000
302.290000 256.000000
302.302000 50.000000
303.232000 101627.000000
303.680000 48.000000
304.234000 91.000000
391.222000 2001.000000
409.217000 91.000000
409.237000 194.000000
439.209000 163.000000
439.228000 437.000000
457.241000 81.000000
465.233000 323.000000
465.259000 2768.000000
480.089000 52.000000
481.776000 51.000000
483.206000 51.000000
483.270000 7532.000000
513.222000 132.000000
513.256000 826.000000
513.276000 418.000000
513.313000 40.000000
513.451000 103.000000
531.238000 101.000000
531.272000 440.000000
531.311000 43.000000
695.443000 153.000000
695.469000 112.000000
695.498000 60.000000
737.448000 50.000000
737.486000 162.000000
766.612000 46.000000
767.005000 70.000000
767.042000 194.000000
767.072000 163.000000
767.113000 101.000000
767.156000 60.000000
768.503000 40.000000
768.579000 63.000000
769.165000 68.000000
769.495000 61063.000000
769.568000 98.000000
770.202000 39.000000
770.485000 150.000000
770.519000 128.000000

>ms2
78.962000 40.000000
152.995000 203.000000
191.115000 41.000000
205.194000 214.000000
209.024000 31.000000
227.029000 41.000000
231.223000 64.000000
255.232000 3672.000000
259.242000 683.000000
259.260000 81.000000
279.222000 428.000000
279.235000 510.000000
279.251000 91.000000
283.265000 172.000000
284.265000 31.000000
301.211000 51.000000
302.291000 50.000000
303.151000 30.000000
303.232000 9526.000000
304.227000 41.000000
391.221000 142.000000
391.238000 133.000000
409.236000 90.000000
465.240000 91.000000
465.267000 173.000000
480.440000 30.000000
483.257000 174.000000
483.282000 132.000000
489.270000 60.000000
507.278000 30.000000
513.264000 120.000000
643.511000 50.000000
665.475000 20.000000
767.064000 42.000000
767.127000 31.000000
769.415000 113.000000
769.496000 7910.000000
769.523000 2095.000000
769.569000 115.000000
770.501000 33.000000

