>compound LQB8623891
>parentmass 764.5218
>ionization [M-H]-
>formula C43H76NO8P
>rt 579.945240
>profile qtof
#smiles_iso CCCCCCCCCCCCCCCC(=O)OCC(COP(=O)(O)OCCN)OC(=O)CCCCC/C=C\C/C=C\C/C=C\C/C=C\C/C=C\CC
#smiles_can CCCCCCCCCCCCCCCC(=O)OCC(COP(=O)(O)OCCN)OC(=O)CCCCCC=CCC=CCC=CCC=CCC=CCC
#inchikey BXSFSSDQHFBPDQ-SFVLIGPRSA-N
#pubchem_id 138131789
#mb_accession LQB00182,LQB00183,LQB00568,LQB00569

>ms2peaks
78.959000 81.000000
140.007000 101.000000
140.014000 142.000000
177.162000 50.000000
179.178000 40.000000
196.039000 356.000000
231.212000 490.000000
251.202000 92.000000
255.231000 5995.000000
257.232000 41.000000
283.229000 62.000000
285.259000 2405.000000
301.214000 31.000000
311.235000 100.000000
327.220000 20.000000
328.213000 93.000000
329.247000 10381.000000
391.243000 20.000000
434.260000 163.000000
434.277000 163.000000
452.244000 113.000000
452.276000 1559.000000
452.310000 133.000000
508.275000 170.000000
526.288000 118.000000
616.615000 34.000000
756.513000 20.000000
762.103000 40.000000
764.458000 114.000000
764.486000 781.000000
764.522000 7287.000000
764.590000 124.000000
764.986000 21.000000
765.514000 21.000000

>ms2peaks
78.959000 111.000000
122.000000 70.000000
140.012000 397.000000
177.093000 50.000000
191.104000 40.000000
196.035000 471.000000
209.149000 40.000000
214.042000 91.000000
217.115000 40.000000
231.211000 215.000000
251.203000 135.000000
254.434000 83.000000
255.231000 8166.000000
259.243000 172.000000
281.231000 184.000000
281.248000 928.000000
285.258000 1245.000000
285.276000 122.000000
301.212000 50.000000
302.281000 47.000000
303.232000 1794.000000
311.219000 50.000000
311.245000 111.000000
327.228000 80.000000
328.226000 75.000000
329.248000 19872.000000
434.260000 214.000000
434.289000 71.000000
452.245000 173.000000
452.274000 1121.000000
460.275000 40.000000
478.290000 161.000000
508.283000 181.000000
526.293000 120.000000
526.314000 40.000000
718.561000 20.000000
762.122000 80.000000
763.562000 20.000000
764.453000 127.000000
764.522000 12186.000000
765.373000 23.000000
765.534000 42.000000

>ms2peaks
78.959000 81.000000
140.007000 101.000000
140.014000 142.000000
177.162000 50.000000
179.178000 40.000000
196.039000 356.000000
231.212000 490.000000
251.202000 92.000000
255.231000 5995.000000
257.232000 41.000000
283.229000 62.000000
285.259000 2405.000000
301.214000 31.000000
311.235000 100.000000
327.220000 20.000000
328.213000 93.000000
329.247000 10381.000000
391.243000 20.000000
434.260000 163.000000
434.277000 163.000000
452.244000 113.000000
452.276000 1559.000000
452.310000 133.000000
508.275000 170.000000
526.288000 118.000000
616.615000 34.000000
756.513000 20.000000
762.103000 40.000000
764.458000 114.000000
764.486000 781.000000
764.522000 7287.000000
764.590000 124.000000
764.986000 21.000000
765.514000 21.000000

>ms2peaks
78.959000 111.000000
122.000000 70.000000
140.012000 397.000000
177.093000 50.000000
191.104000 40.000000
196.035000 471.000000
209.149000 40.000000
214.042000 91.000000
217.115000 40.000000
231.211000 215.000000
251.203000 135.000000
254.434000 83.000000
255.231000 8166.000000
259.243000 172.000000
281.231000 184.000000
281.248000 928.000000
285.258000 1245.000000
285.276000 122.000000
301.212000 50.000000
302.281000 47.000000
303.232000 1794.000000
311.219000 50.000000
311.245000 111.000000
327.228000 80.000000
328.226000 75.000000
329.248000 19872.000000
434.260000 214.000000
434.289000 71.000000
452.245000 173.000000
452.274000 1121.000000
460.275000 40.000000
478.290000 161.000000
508.283000 181.000000
526.293000 120.000000
526.314000 40.000000
718.561000 20.000000
762.122000 80.000000
763.562000 20.000000
764.453000 127.000000
764.522000 12186.000000
765.373000 23.000000
765.534000 42.000000

