>compound LQB8572953
>parentmass 767.481
>ionization [M-H]-
>formula C42H73O10P
>rt 488.124960
>profile qtof
#smiles_iso CCCCCCCCCCCCCCCC(=O)OCC(COP(=O)(O)OCC(CO)O)OC(=O)CCC/C=C\C/C=C\C/C=C\C/C=C\C/C=C\CC
#smiles_can CCCCCCCCCCCCCCCC(=O)OCC(COP(=O)(O)OCC(CO)O)OC(=O)CCCC=CCC=CCC=CCC=CCC=CCC
#inchikey GZBZSCNQFXTELT-LPHKCNJWSA-N
#pubchem_id 138165783
#mb_accession LQB00250,LQB00636

>ms2peaks
78.958000 50.000000
152.991000 142.000000
171.007000 173.000000
203.182000 122.000000
209.021000 71.000000
223.164000 53.000000
227.031000 101.000000
231.110000 40.000000
233.159000 31.000000
255.203000 82.000000
255.232000 3575.000000
255.276000 35.000000
257.224000 1153.000000
257.252000 60.000000
279.238000 50.000000
283.199000 53.000000
283.251000 116.000000
283.271000 92.000000
285.182000 42.000000
300.277000 52.000000
300.320000 21.000000
301.216000 5514.000000
302.220000 20.000000
307.616000 23.000000
387.221000 23.000000
391.221000 174.000000
425.466000 20.000000
433.237000 20.000000
437.202000 50.000000
465.226000 40.000000
465.252000 174.000000
465.281000 60.000000
483.247000 113.000000
483.267000 398.000000
483.284000 163.000000
489.231000 30.000000
497.054000 20.000000
511.240000 121.000000
529.256000 43.000000
603.378000 20.000000
671.467000 20.000000
693.476000 20.000000
695.470000 40.000000
735.452000 80.000000
765.038000 53.000000
765.092000 60.000000
767.412000 126.000000
767.449000 2442.000000
767.479000 10547.000000
767.557000 171.000000
768.466000 40.000000

>ms2peaks
78.958000 50.000000
152.991000 142.000000
171.007000 173.000000
203.182000 122.000000
209.021000 71.000000
223.164000 53.000000
227.031000 101.000000
231.110000 40.000000
233.159000 31.000000
255.203000 82.000000
255.232000 3575.000000
255.276000 35.000000
257.224000 1153.000000
257.252000 60.000000
279.238000 50.000000
283.199000 53.000000
283.251000 116.000000
283.271000 92.000000
285.182000 42.000000
300.277000 52.000000
300.320000 21.000000
301.216000 5514.000000
302.220000 20.000000
307.616000 23.000000
387.221000 23.000000
391.221000 174.000000
425.466000 20.000000
433.237000 20.000000
437.202000 50.000000
465.226000 40.000000
465.252000 174.000000
465.281000 60.000000
483.247000 113.000000
483.267000 398.000000
483.284000 163.000000
489.231000 30.000000
497.054000 20.000000
511.240000 121.000000
529.256000 43.000000
603.378000 20.000000
671.467000 20.000000
693.476000 20.000000
695.470000 40.000000
735.452000 80.000000
765.038000 53.000000
765.092000 60.000000
767.412000 126.000000
767.449000 2442.000000
767.479000 10547.000000
767.557000 171.000000
768.466000 40.000000

