>compound LQB8795577
>parentmass 845.5375
>ionization [M-H]-
>formula C48H79O10P
>rt 490.606320
>profile qtof
#smiles_iso CC/C=C\C/C=C\C/C=C\C/C=C\CCCCCCCCC(=O)OC(COC(=O)CCCCCC/C=C\C/C=C\C/C=C\C/C=C\CC)COP(=O)(O)OCC(CO)O
#smiles_can CCC=CCC=CCC=CCC=CCCCCCCCCC(=O)OC(COC(=O)CCCCCCC=CCC=CCC=CCC=CCC)COP(=O)(O)OCC(CO)O
#inchikey VPSNROSTZAMHMK-QKMVADAXSA-N
#pubchem_id 138282218
#mb_accession LQB00279,LQB00665

>ms2peaks
152.997000 214.000000
171.002000 40.000000
205.197000 152.000000
205.206000 51.000000
217.161000 60.000000
231.216000 43.000000
233.227000 91.000000
259.222000 91.000000
259.243000 1062.000000
281.248000 172.000000
283.244000 40.000000
285.218000 63.000000
287.266000 193.000000
287.281000 255.000000
302.278000 90.000000
303.232000 17654.000000
303.269000 84.000000
305.247000 173.000000
307.256000 152.000000
313.247000 66.000000
313.270000 43.000000
327.225000 80.000000
329.249000 235.000000
330.226000 103.000000
330.244000 35.000000
331.211000 104.000000
331.263000 20337.000000
331.306000 79.000000
333.269000 45.000000
359.229000 103.000000
439.226000 60.000000
457.239000 50.000000
466.327000 131.000000
485.263000 103.000000
505.353000 20.000000
513.247000 81.000000
513.271000 100.000000
516.304000 20.000000
531.252000 91.000000
531.280000 131.000000
541.292000 131.000000
559.277000 81.000000
559.298000 203.000000
663.534000 52.000000
809.522000 30.000000
811.547000 30.000000
827.509000 33.000000
827.567000 91.000000
842.880000 95.000000
842.942000 33.000000
844.526000 23.000000
845.536000 22032.000000
845.622000 56.000000
846.542000 70.000000

>ms2peaks
152.997000 214.000000
171.002000 40.000000
205.197000 152.000000
205.206000 51.000000
217.161000 60.000000
231.216000 43.000000
233.227000 91.000000
259.222000 91.000000
259.243000 1062.000000
281.248000 172.000000
283.244000 40.000000
285.218000 63.000000
287.266000 193.000000
287.281000 255.000000
302.278000 90.000000
303.232000 17654.000000
303.269000 84.000000
305.247000 173.000000
307.256000 152.000000
313.247000 66.000000
313.270000 43.000000
327.225000 80.000000
329.249000 235.000000
330.226000 103.000000
330.244000 35.000000
331.211000 104.000000
331.263000 20337.000000
331.306000 79.000000
333.269000 45.000000
359.229000 103.000000
439.226000 60.000000
457.239000 50.000000
466.327000 131.000000
485.263000 103.000000
505.353000 20.000000
513.247000 81.000000
513.271000 100.000000
516.304000 20.000000
531.252000 91.000000
531.280000 131.000000
541.292000 131.000000
559.277000 81.000000
559.298000 203.000000
663.534000 52.000000
809.522000 30.000000
811.547000 30.000000
827.509000 33.000000
827.567000 91.000000
842.880000 95.000000
842.942000 33.000000
844.526000 23.000000
845.536000 22032.000000
845.622000 56.000000
846.542000 70.000000

