>compound LQB8430166
>parentmass 693.4677
>ionization [M-H]-
>formula C36H71O10P
>rt 490.858440
>profile qtof
#smiles_iso CCCCCCCCCCCCCCCC(=O)OC(COC(=O)CCCCCCCCCCCCC)COP(=O)(O)OCC(CO)O
#smiles_can CCCCCCCCCCCCCCCC(=O)OC(COC(=O)CCCCCCCCCCCCC)COP(=O)(O)OCC(CO)O
#inchikey ZAXBYLHGBBMAAY-UHFFFAOYSA-N
#pubchem_id 20843301
#mb_accession LQB00236,LQB00622

>ms2
152.996000 80.000000
171.007000 25.000000
209.022000 26.000000
223.089000 16.000000
226.495000 16.000000
227.035000 45.000000
227.200000 2094.000000
255.231000 836.000000
277.032000 15.000000
281.256000 11.000000
283.260000 45.000000
285.264000 10.000000
363.193000 48.000000
391.195000 25.000000
391.226000 60.000000
409.207000 10.000000
437.225000 45.000000
455.235000 30.000000
465.258000 65.000000
465.276000 35.000000
483.253000 55.000000
483.267000 50.000000
483.284000 45.000000
629.548000 10.000000
661.393000 10.000000
691.275000 10.000000
693.335000 10.000000
693.437000 549.000000
693.454000 1407.000000
693.478000 548.000000
693.491000 495.000000
694.454000 12.000000

>ms2
152.996000 80.000000
171.007000 25.000000
209.022000 26.000000
223.089000 16.000000
226.495000 16.000000
227.035000 45.000000
227.200000 2094.000000
255.231000 836.000000
277.032000 15.000000
281.256000 11.000000
283.260000 45.000000
285.264000 10.000000
363.193000 48.000000
391.195000 25.000000
391.226000 60.000000
409.207000 10.000000
437.225000 45.000000
455.235000 30.000000
465.258000 65.000000
465.276000 35.000000
483.253000 55.000000
483.267000 50.000000
483.284000 45.000000
629.548000 10.000000
661.393000 10.000000
691.275000 10.000000
693.335000 10.000000
693.437000 549.000000
693.454000 1407.000000
693.478000 548.000000
693.491000 495.000000
694.454000 12.000000

