>compound LQB8213701
>parentmass 836.5422
>ionization [M+CH3COOH-H]-
>formula C44H76NO8P
>rt 507.761640
>profile qtof
#smiles_iso CCCCCC/C=C\CCCCCCCC(=O)OCC(COP(=O)([O-])OCC[N+](C)(C)C)OC(=O)CCC/C=C\C/C=C\C/C=C\C/C=C\C/C=C\CC
#smiles_can CCCCCCC=CCCCCCCCC(=O)OCC(COP(=O)([O-])OCC[N+](C)(C)C)OC(=O)CCCC=CCC=CCC=CCC=CCC=CCC
#inchikey IITWSVMUNFGFQI-MPAQOSGJSA-N
#pubchem_id 138177268
#mb_accession LQB00123,LQB00509

>ms2peaks
168.045000 41.000000
203.182000 70.000000
223.169000 40.000000
224.070000 40.000000
253.195000 61.000000
253.217000 1182.000000
253.242000 60.000000
257.224000 328.000000
257.234000 132.000000
301.216000 2468.000000
460.271000 71.000000
478.289000 410.000000
508.271000 63.000000
526.277000 73.000000
691.462000 20.000000
710.992000 21.000000
760.067000 31.000000
762.479000 1498.000000
762.507000 3821.000000
762.538000 429.000000
777.458000 101.000000
836.499000 112.000000
836.532000 142.000000
836.550000 163.000000
836.586000 40.000000

>ms2peaks
168.045000 41.000000
203.182000 70.000000
223.169000 40.000000
224.070000 40.000000
253.195000 61.000000
253.217000 1182.000000
253.242000 60.000000
257.224000 328.000000
257.234000 132.000000
301.216000 2468.000000
460.271000 71.000000
478.289000 410.000000
508.271000 63.000000
526.277000 73.000000
691.462000 20.000000
710.992000 21.000000
760.067000 31.000000
762.479000 1498.000000
762.507000 3821.000000
762.538000 429.000000
777.458000 101.000000
836.499000 112.000000
836.532000 142.000000
836.550000 163.000000
836.586000 40.000000

