>compound LQB8961219
>parentmass 797.5323
>ionization [M-H]-
>formula C44H79O10P
>rt 497.608020
>profile qtof
#smiles_iso CCCCCCCC/C=C\CCCCCCCC(=O)OCC(COP(=O)(O)OCC(CO)O)OC(=O)CCCCCCCCC/C=C\C/C=C\C/C=C\CC
#smiles_can CCCCCCCCC=CCCCCCCCC(=O)OCC(COP(=O)(O)OCC(CO)O)OC(=O)CCCCCCCCCC=CCC=CCC=CCC
#inchikey FGLCTGHXZAQEIH-ZYKQNZMBSA-N
#pubchem_id 138151504
#mb_accession LQB00264,LQB00650

>ms2
152.992000 65.000000
171.007000 20.000000
261.251000 35.000000
277.214000 40.000000
279.232000 1003.000000
280.366000 20.000000
281.248000 5637.000000
282.261000 25.000000
283.258000 60.000000
303.234000 16.000000
304.293000 42.000000
305.247000 5647.000000
307.262000 1167.000000
309.280000 25.000000
331.263000 25.000000
333.285000 20.000000
415.231000 20.000000
435.249000 40.000000
479.273000 15.000000
482.707000 10.000000
489.257000 10.000000
491.280000 58.000000
507.277000 21.000000
509.292000 68.000000
515.270000 60.000000
517.288000 15.000000
533.245000 10.000000
533.285000 56.000000
535.294000 21.000000
709.458000 10.000000
723.534000 10.000000
767.419000 30.000000
779.486000 30.000000
795.008000 15.000000
795.074000 21.000000
796.554000 11.000000
797.292000 10.000000
797.535000 6956.000000
797.619000 68.000000
798.524000 40.000000

>ms2
152.992000 65.000000
171.007000 20.000000
261.251000 35.000000
277.214000 40.000000
279.232000 1003.000000
280.366000 20.000000
281.248000 5637.000000
282.261000 25.000000
283.258000 60.000000
303.234000 16.000000
304.293000 42.000000
305.247000 5647.000000
307.262000 1167.000000
309.280000 25.000000
331.263000 25.000000
333.285000 20.000000
415.231000 20.000000
435.249000 40.000000
479.273000 15.000000
482.707000 10.000000
489.257000 10.000000
491.280000 58.000000
507.277000 21.000000
509.292000 68.000000
515.270000 60.000000
517.288000 15.000000
533.245000 10.000000
533.285000 56.000000
535.294000 21.000000
709.458000 10.000000
723.534000 10.000000
767.419000 30.000000
779.486000 30.000000
795.008000 15.000000
795.074000 21.000000
796.554000 11.000000
797.292000 10.000000
797.535000 6956.000000
797.619000 68.000000
798.524000 40.000000

