>compound LQB8404766
>parentmass 704.6157
>ionization [M+CH3COOH-H]-
>formula C42H79NO3
>rt 755.298000
>profile qtof
#smiles_iso CCCCCCCCCCCC/C=C\CCCCCCCCCC(=O)NC(CO)C(/C=C/CC/C=C/CCCCCCCCC)O
#smiles_can CCCCCCCCCCCCC=CCCCCCCCCCC(=O)NC(CO)C(C=CCCC=CCCCCCCCCC)O
#inchikey KADBCXSPXAVXJL-QWGNBJIWSA-N
#pubchem_id 138191316
#mb_accession LQB00060,LQB00446

>ms2peaks
233.200000 43.000000
234.475000 42.000000
235.206000 3410.000000
237.212000 134.000000
237.227000 256.000000
248.241000 91.000000
261.219000 2637.000000
263.227000 123.000000
263.239000 71.000000
264.229000 429.000000
266.247000 541.000000
268.258000 40.000000
279.230000 111.000000
296.250000 151.000000
296.267000 60.000000
345.305000 91.000000
345.318000 193.000000
347.329000 3760.000000
362.338000 173.000000
362.362000 50.000000
363.314000 132.000000
363.333000 112.000000
363.355000 92.000000
363.373000 163.000000
364.355000 3559.000000
365.338000 2745.000000
378.364000 74.000000
388.335000 622.000000
388.357000 1462.000000
389.144000 63.000000
390.323000 90.000000
390.371000 16729.000000
404.323000 50.000000
404.351000 429.000000
406.366000 2637.000000
408.389000 65.000000
420.380000 60.000000
585.552000 91.000000
594.556000 64.000000
596.519000 66.000000
596.552000 497.000000
596.578000 2316.000000
612.540000 658.000000
612.562000 1542.000000
612.586000 1132.000000
614.563000 805.000000
614.581000 4057.000000
614.610000 664.000000
614.648000 94.000000
619.572000 40.000000
626.586000 155.000000
642.557000 90.000000
642.587000 90.000000
644.596000 35433.000000
645.601000 95.000000
686.530000 20.000000
704.593000 30.000000

>ms2peaks
233.200000 43.000000
234.475000 42.000000
235.206000 3410.000000
237.212000 134.000000
237.227000 256.000000
248.241000 91.000000
261.219000 2637.000000
263.227000 123.000000
263.239000 71.000000
264.229000 429.000000
266.247000 541.000000
268.258000 40.000000
279.230000 111.000000
296.250000 151.000000
296.267000 60.000000
345.305000 91.000000
345.318000 193.000000
347.329000 3760.000000
362.338000 173.000000
362.362000 50.000000
363.314000 132.000000
363.333000 112.000000
363.355000 92.000000
363.373000 163.000000
364.355000 3559.000000
365.338000 2745.000000
378.364000 74.000000
388.335000 622.000000
388.357000 1462.000000
389.144000 63.000000
390.323000 90.000000
390.371000 16729.000000
404.323000 50.000000
404.351000 429.000000
406.366000 2637.000000
408.389000 65.000000
420.380000 60.000000
585.552000 91.000000
594.556000 64.000000
596.519000 66.000000
596.552000 497.000000
596.578000 2316.000000
612.540000 658.000000
612.562000 1542.000000
612.586000 1132.000000
614.563000 805.000000
614.581000 4057.000000
614.610000 664.000000
614.648000 94.000000
619.572000 40.000000
626.586000 155.000000
642.557000 90.000000
642.587000 90.000000
644.596000 35433.000000
645.601000 95.000000
686.530000 20.000000
704.593000 30.000000

