>compound LQB8577176
>parentmass 786.5283
>ionization [M+CH3COOH-H]-
>formula C40H74NO8P
>rt 502.978680
>profile qtof
#smiles_iso CCCCCCCCCCCCCC(=O)OCC(COP(=O)([O-])OCC[N+](C)(C)C)OC(=O)CCCCCCC/C=C\C/C=C\C/C=C\CC
#smiles_can CCCCCCCCCCCCCC(=O)OCC(COP(=O)([O-])OCC[N+](C)(C)C)OC(=O)CCCCCCCC=CCC=CCC=CCC
#inchikey AGQKQQAJRFTOGL-ZWABBIBGSA-N
#pubchem_id 24778626
#mb_accession LQB00088,LQB00474

>ms2
168.046000 30.000000
224.072000 28.000000
225.182000 40.000000
227.200000 805.000000
251.195000 112.000000
251.206000 142.000000
253.203000 45.000000
253.214000 140.000000
277.218000 279.000000
279.225000 55.000000
281.249000 45.000000
282.246000 45.000000
283.252000 25.000000
305.091000 16.000000
305.210000 21.000000
327.230000 43.000000
328.237000 35.000000
329.243000 20.000000
458.911000 15.000000
460.268000 15.000000
464.305000 10.000000
476.263000 10.000000
478.289000 20.000000
484.283000 25.000000
502.289000 70.000000
562.424000 11.000000
578.858000 10.000000
699.502000 11.000000
710.261000 10.000000
712.485000 1085.000000
727.443000 25.000000
786.449000 50.000000
786.484000 163.000000
786.513000 76.000000
786.528000 110.000000
786.554000 40.000000

>ms2
168.046000 30.000000
224.072000 28.000000
225.182000 40.000000
227.200000 805.000000
251.195000 112.000000
251.206000 142.000000
253.203000 45.000000
253.214000 140.000000
277.218000 279.000000
279.225000 55.000000
281.249000 45.000000
282.246000 45.000000
283.252000 25.000000
305.091000 16.000000
305.210000 21.000000
327.230000 43.000000
328.237000 35.000000
329.243000 20.000000
458.911000 15.000000
460.268000 15.000000
464.305000 10.000000
476.263000 10.000000
478.289000 20.000000
484.283000 25.000000
502.289000 70.000000
562.424000 11.000000
578.858000 10.000000
699.502000 11.000000
710.261000 10.000000
712.485000 1085.000000
727.443000 25.000000
786.449000 50.000000
786.484000 163.000000
786.513000 76.000000
786.528000 110.000000
786.554000 40.000000

