>compound LQB8329383
>parentmass 913.5835
>ionization [M-H]-
>formula C49H87O13P
>rt 548.537580
>profile qtof
#smiles_iso CCCCCCCCCCCCCCCCCC(=O)OCC(COP(=O)(O)OC1C(C(C(C(C1O)O)O)O)O)OC(=O)CCCCCCCC/C=C\C/C=C\C/C=C\C/C=C\CC
#smiles_can CCCCCCCCCCCCCCCCCC(=O)OCC(COP(=O)(O)OC1C(C(C(C(C1O)O)O)O)O)OC(=O)CCCCCCCCC=CCC=CCC=CCC=CCC
#inchikey VTYLJIRGLIZEIC-PYQGTGCGSA-N
#pubchem_id 138283546
#mb_accession LQB00311,LQB00697

>ms2peaks
78.959000 100.000000
96.971000 16.000000
134.981000 10.000000
152.994000 213.000000
170.210000 10.000000
223.001000 438.000000
233.230000 28.000000
240.259000 11.000000
241.011000 1719.000000
253.222000 10.000000
259.013000 55.000000
259.027000 131.000000
283.263000 2723.000000
284.271000 33.000000
287.273000 85.000000
297.034000 341.000000
303.242000 25.000000
315.049000 106.000000
330.229000 24.000000
331.261000 2564.000000
419.256000 1341.000000
420.261000 20.000000
437.260000 109.000000
467.251000 192.000000
467.266000 75.000000
485.279000 26.000000
499.119000 15.000000
501.282000 15.000000
581.287000 516.000000
581.311000 1295.000000
599.288000 66.000000
599.303000 194.000000
599.328000 158.000000
599.351000 35.000000
629.275000 54.000000
629.303000 220.000000
629.321000 148.000000
647.293000 25.000000
663.537000 20.000000
723.491000 15.000000
749.505000 33.000000
751.516000 60.000000
753.514000 25.000000
753.562000 10.000000
793.515000 15.000000
831.501000 10.000000
839.585000 16.000000
881.548000 35.000000
910.655000 55.000000
910.697000 60.000000
910.743000 43.000000
913.486000 123.000000
913.576000 36812.000000
913.673000 169.000000
913.763000 25.000000
914.049000 26.000000
914.574000 60.000000
914.616000 50.000000
915.553000 27.000000

>ms2peaks
78.959000 100.000000
96.971000 16.000000
134.981000 10.000000
152.994000 213.000000
170.210000 10.000000
223.001000 438.000000
233.230000 28.000000
240.259000 11.000000
241.011000 1719.000000
253.222000 10.000000
259.013000 55.000000
259.027000 131.000000
283.263000 2723.000000
284.271000 33.000000
287.273000 85.000000
297.034000 341.000000
303.242000 25.000000
315.049000 106.000000
330.229000 24.000000
331.261000 2564.000000
419.256000 1341.000000
420.261000 20.000000
437.260000 109.000000
467.251000 192.000000
467.266000 75.000000
485.279000 26.000000
499.119000 15.000000
501.282000 15.000000
581.287000 516.000000
581.311000 1295.000000
599.288000 66.000000
599.303000 194.000000
599.328000 158.000000
599.351000 35.000000
629.275000 54.000000
629.303000 220.000000
629.321000 148.000000
647.293000 25.000000
663.537000 20.000000
723.491000 15.000000
749.505000 33.000000
751.516000 60.000000
753.514000 25.000000
753.562000 10.000000
793.515000 15.000000
831.501000 10.000000
839.585000 16.000000
881.548000 35.000000
910.655000 55.000000
910.697000 60.000000
910.743000 43.000000
913.486000 123.000000
913.576000 36812.000000
913.673000 169.000000
913.763000 25.000000
914.049000 26.000000
914.574000 60.000000
914.616000 50.000000
915.553000 27.000000

