>compound LQB8826563
>parentmass 710.474
>ionization [M-H]-
>formula C39H70NO8P
>rt 526.964460
>profile qtof
#smiles_iso CCCCCCCCCCCCCC(=O)OCC(COP(=O)(O)OCCN)OC(=O)CCCCCC/C=C\C/C=C\C/C=C\C/C=C\CC
#smiles_can CCCCCCCCCCCCCC(=O)OCC(COP(=O)(O)OCCN)OC(=O)CCCCCCC=CCC=CCC=CCC=CCC
#inchikey MNVGUNLOWKLLFC-WNXRHBFNSA-N
#pubchem_id 138212407
#mb_accession LQB00170,LQB00556

>ms2
196.038000 30.000000
205.201000 45.000000
227.199000 325.000000
249.187000 131.000000
259.227000 33.000000
259.250000 81.000000
279.227000 20.000000
281.246000 90.000000
303.223000 316.000000
303.234000 307.000000
303.245000 184.000000
322.952000 20.000000
424.231000 40.000000
500.254000 20.000000
632.555000 20.000000
710.441000 153.000000
710.471000 173.000000
710.487000 112.000000

>ms2
196.038000 30.000000
205.201000 45.000000
227.199000 325.000000
249.187000 131.000000
259.227000 33.000000
259.250000 81.000000
279.227000 20.000000
281.246000 90.000000
303.223000 316.000000
303.234000 307.000000
303.245000 184.000000
322.952000 20.000000
424.231000 40.000000
500.254000 20.000000
632.555000 20.000000
710.441000 153.000000
710.471000 173.000000
710.487000 112.000000

