>compound LQB8004114
>parentmass 712.6428
>ionization [M+CH3COOH-H]-
>formula C41H83NO4
>rt 783.266400
>profile qtof
#smiles_iso CCCCCCCCCCCCCCCCCCCCCCC(=O)NC(CO)C(C(CCCCCCCCCCCCCC)O)O
#smiles_can CCCCCCCCCCCCCCCCCCCCCCC(=O)NC(CO)C(C(CCCCCCCCCCCCCC)O)O
#inchikey MBPABCUJJLJOFM-UHFFFAOYSA-N
#pubchem_id 14757380
#mb_accession LQB00019,LQB00405

>ms2
223.209000 50.000000
225.221000 265.000000
237.219000 101.000000
241.218000 73.000000
250.249000 40.000000
253.219000 142.000000
255.231000 1194.000000
263.236000 143.000000
266.243000 52.000000
266.385000 52.000000
267.231000 5344.000000
279.230000 203.000000
280.260000 508.000000
280.274000 122.000000
284.259000 256.000000
316.277000 194.000000
316.289000 152.000000
335.327000 479.000000
337.343000 310.000000
338.346000 43.000000
339.335000 73.000000
351.365000 83.000000
352.227000 62.000000
352.356000 1573.000000
353.340000 4342.000000
364.353000 60.000000
365.340000 94.000000
366.370000 356.000000
367.348000 192.000000
367.359000 284.000000
376.355000 100.000000
378.345000 72.000000
378.369000 1469.000000
380.358000 87.000000
382.370000 121.000000
390.370000 245.000000
393.351000 81.000000
394.366000 3257.000000
396.381000 9120.000000
396.430000 75.000000
408.381000 7269.000000
410.393000 133.000000
410.415000 60.000000
422.397000 120.000000
535.528000 34.000000
586.575000 174.000000
586.594000 317.000000
588.604000 95.000000
598.591000 60.000000
602.587000 172.000000
604.598000 111.000000
616.596000 1803.000000
616.616000 435.000000
620.557000 51.000000
620.588000 378.000000
620.609000 377.000000
622.613000 163.000000
634.581000 71.000000
634.611000 744.000000
650.558000 121.000000
650.608000 100.000000
652.620000 30426.000000
684.647000 20.000000
712.663000 50.000000

>ms2
223.209000 50.000000
225.221000 265.000000
237.219000 101.000000
241.218000 73.000000
250.249000 40.000000
253.219000 142.000000
255.231000 1194.000000
263.236000 143.000000
266.243000 52.000000
266.385000 52.000000
267.231000 5344.000000
279.230000 203.000000
280.260000 508.000000
280.274000 122.000000
284.259000 256.000000
316.277000 194.000000
316.289000 152.000000
335.327000 479.000000
337.343000 310.000000
338.346000 43.000000
339.335000 73.000000
351.365000 83.000000
352.227000 62.000000
352.356000 1573.000000
353.340000 4342.000000
364.353000 60.000000
365.340000 94.000000
366.370000 356.000000
367.348000 192.000000
367.359000 284.000000
376.355000 100.000000
378.345000 72.000000
378.369000 1469.000000
380.358000 87.000000
382.370000 121.000000
390.370000 245.000000
393.351000 81.000000
394.366000 3257.000000
396.381000 9120.000000
396.430000 75.000000
408.381000 7269.000000
410.393000 133.000000
410.415000 60.000000
422.397000 120.000000
535.528000 34.000000
586.575000 174.000000
586.594000 317.000000
588.604000 95.000000
598.591000 60.000000
602.587000 172.000000
604.598000 111.000000
616.596000 1803.000000
616.616000 435.000000
620.557000 51.000000
620.588000 378.000000
620.609000 377.000000
622.613000 163.000000
634.581000 71.000000
634.611000 744.000000
650.558000 121.000000
650.608000 100.000000
652.620000 30426.000000
684.647000 20.000000
712.663000 50.000000

