>compound LQB8333684
>parentmass 834.5288
>ionization [M-H]-
>formula C46H78NO10P
>rt 521.190600
>profile qtof
#smiles_iso CCCCCCCCCCCCCCCCCC(=O)OCC(COP(=O)(O)OCC(C(=O)O)N)OC(=O)CC/C=C\C/C=C\C/C=C\C/C=C\C/C=C\C/C=C\CC
#smiles_can CCCCCCCCCCCCCCCCCC(=O)OCC(COP(=O)(O)OCC(C(=O)O)N)OC(=O)CCC=CCC=CCC=CCC=CCC=CCC=CCC
#inchikey LYYHRRPTEXPVOR-HSBBONCLSA-N
#pubchem_id 91746251
#mb_accession LQB00340,LQB00726

>ms2
78.720000 62.000000
78.958000 3159.000000
96.969000 786.000000
134.981000 193.000000
149.132000 84.000000
152.527000 107.000000
152.995000 14542.000000
165.989000 43.000000
171.006000 427.000000
177.161000 162.000000
189.167000 43.000000
191.179000 70.000000
229.194000 592.000000
249.176000 111.000000
249.196000 60.000000
255.210000 60.000000
281.236000 85.000000
282.349000 86.000000
282.382000 336.000000
283.263000 74791.000000
284.243000 114.000000
284.271000 124.000000
309.222000 50.000000
327.232000 12592.000000
417.937000 162.000000
417.973000 143.000000
419.114000 48.000000
419.255000 55848.000000
420.245000 67.000000
435.901000 87.000000
437.265000 24332.000000
437.337000 64.000000
453.035000 51.000000
461.785000 62.000000
463.224000 7353.000000
478.136000 43.000000
481.235000 1621.000000
481.273000 50.000000
494.170000 30.000000
506.304000 30.000000
518.098000 33.000000
524.278000 90.000000
524.296000 51.000000
524.309000 111.000000
531.023000 30.000000
550.269000 53.000000
566.877000 56.000000
571.151000 50.000000
651.410000 60.000000
745.090000 83.000000
745.152000 184.000000
746.495000 43.000000
747.309000 40.000000
747.494000 57344.000000
747.569000 95.000000
748.478000 160.000000
748.532000 124.000000
773.509000 40.000000
831.826000 43.000000
831.892000 142.000000
831.932000 50.000000
834.430000 71.000000
834.529000 34959.000000
834.586000 421.000000
835.508000 245.000000
835.536000 102.000000
835.552000 184.000000
839.526000 83.000000

>ms2
78.720000 62.000000
78.958000 3159.000000
96.969000 786.000000
134.981000 193.000000
149.132000 84.000000
152.527000 107.000000
152.995000 14542.000000
165.989000 43.000000
171.006000 427.000000
177.161000 162.000000
189.167000 43.000000
191.179000 70.000000
229.194000 592.000000
249.176000 111.000000
249.196000 60.000000
255.210000 60.000000
281.236000 85.000000
282.349000 86.000000
282.382000 336.000000
283.263000 74791.000000
284.243000 114.000000
284.271000 124.000000
309.222000 50.000000
327.232000 12592.000000
417.937000 162.000000
417.973000 143.000000
419.114000 48.000000
419.255000 55848.000000
420.245000 67.000000
435.901000 87.000000
437.265000 24332.000000
437.337000 64.000000
453.035000 51.000000
461.785000 62.000000
463.224000 7353.000000
478.136000 43.000000
481.235000 1621.000000
481.273000 50.000000
494.170000 30.000000
506.304000 30.000000
518.098000 33.000000
524.278000 90.000000
524.296000 51.000000
524.309000 111.000000
531.023000 30.000000
550.269000 53.000000
566.877000 56.000000
571.151000 50.000000
651.410000 60.000000
745.090000 83.000000
745.152000 184.000000
746.495000 43.000000
747.309000 40.000000
747.494000 57344.000000
747.569000 95.000000
748.478000 160.000000
748.532000 124.000000
773.509000 40.000000
831.826000 43.000000
831.892000 142.000000
831.932000 50.000000
834.430000 71.000000
834.529000 34959.000000
834.586000 421.000000
835.508000 245.000000
835.536000 102.000000
835.552000 184.000000
839.526000 83.000000

