>compound LQB8708791
>parentmass 650.569
>ionization [M+CH3COOH-H]-
>formula C38H73NO3
>rt 663.517800
>profile qtof
#smiles_iso CCCCCCCCCCCCCCCCCCCC(=O)NC(CO)C(/C=C/CC/C=C/CCCCCCCCC)O
#smiles_can CCCCCCCCCCCCCCCCCCCC(=O)NC(CO)C(C=CCCC=CCCCCCCCCC)O
#inchikey NBSDZPNNDCXPFZ-CZIXKSQASA-N
#pubchem_id 15870106
#mb_accession LQB00056,LQB00442

>ms2
235.204000 341.000000
240.963000 26.000000
248.238000 25.000000
261.221000 214.000000
264.235000 70.000000
266.251000 45.000000
293.282000 365.000000
296.258000 30.000000
309.310000 50.000000
310.308000 360.000000
310.329000 30.000000
311.292000 203.000000
322.967000 45.000000
324.310000 11.000000
328.994000 10.000000
334.317000 10.000000
336.125000 11.000000
336.324000 1834.000000
350.311000 15.000000
352.318000 259.000000
354.331000 10.000000
404.971000 20.000000
531.518000 15.000000
542.504000 75.000000
542.530000 176.000000
544.531000 11.000000
558.502000 30.000000
558.522000 136.000000
560.537000 444.000000
562.558000 10.000000
572.538000 20.000000
579.884000 10.000000
590.544000 2754.000000
590.602000 35.000000
590.686000 13.000000

>ms2
235.204000 341.000000
240.963000 26.000000
248.238000 25.000000
261.221000 214.000000
264.235000 70.000000
266.251000 45.000000
293.282000 365.000000
296.258000 30.000000
309.310000 50.000000
310.308000 360.000000
310.329000 30.000000
311.292000 203.000000
322.967000 45.000000
324.310000 11.000000
328.994000 10.000000
334.317000 10.000000
336.125000 11.000000
336.324000 1834.000000
350.311000 15.000000
352.318000 259.000000
354.331000 10.000000
404.971000 20.000000
531.518000 15.000000
542.504000 75.000000
542.530000 176.000000
544.531000 11.000000
558.502000 30.000000
558.522000 136.000000
560.537000 444.000000
562.558000 10.000000
572.538000 20.000000
579.884000 10.000000
590.544000 2754.000000
590.602000 35.000000
590.686000 13.000000

