>compound LQB8404790
>parentmass 596.5243
>ionization [M+CH3COOH-H]-
>formula C34H67NO3
>rt 587.054100
>profile qtof
#smiles_iso CCCCCCCCCCCCCCCC(=O)NC(CO)C(/C=C/CCCCCCCCCCCCC)O
#smiles_can CCCCCCCCCCCCCCCC(=O)NC(CO)C(C=CCCCCCCCCCCCCC)O
#inchikey YDNKGFDKKRUKPY-ORIPQNMZSA-N
#pubchem_id 5353456
#mb_accession LQB00029,LQB00415

>ms2peaks
225.220000 182.000000
235.207000 398.000000
237.222000 15405.000000
239.236000 307.000000
239.251000 70.000000
250.253000 437.000000
251.239000 111.000000
253.251000 1315.000000
254.247000 5177.000000
255.232000 4517.000000
262.249000 63.000000
263.237000 4956.000000
266.248000 970.000000
266.265000 92.000000
268.263000 1356.000000
278.251000 192.000000
279.388000 215.000000
280.229000 127.000000
280.264000 32858.000000
281.249000 210.000000
294.245000 346.000000
295.255000 42.000000
295.329000 104.000000
295.437000 37.000000
296.258000 4404.000000
298.273000 420.000000
308.263000 48.000000
310.272000 90.000000
461.471000 122.000000
470.468000 47.000000
471.955000 173.000000
477.469000 123.000000
488.479000 4486.000000
490.507000 70.000000
500.473000 61.000000
504.474000 2934.000000
504.513000 68.000000
504.888000 35.000000
506.490000 7185.000000
508.500000 60.000000
518.488000 306.000000
521.445000 51.000000
534.806000 204.000000
534.842000 60.000000
536.297000 44.000000
536.389000 69.000000
536.499000 35601.000000
537.513000 78.000000

>ms2peaks
225.220000 182.000000
235.207000 398.000000
237.222000 15405.000000
239.236000 307.000000
239.251000 70.000000
250.253000 437.000000
251.239000 111.000000
253.251000 1315.000000
254.247000 5177.000000
255.232000 4517.000000
262.249000 63.000000
263.237000 4956.000000
266.248000 970.000000
266.265000 92.000000
268.263000 1356.000000
278.251000 192.000000
279.388000 215.000000
280.229000 127.000000
280.264000 32858.000000
281.249000 210.000000
294.245000 346.000000
295.255000 42.000000
295.329000 104.000000
295.437000 37.000000
296.258000 4404.000000
298.273000 420.000000
308.263000 48.000000
310.272000 90.000000
461.471000 122.000000
470.468000 47.000000
471.955000 173.000000
477.469000 123.000000
488.479000 4486.000000
490.507000 70.000000
500.473000 61.000000
504.474000 2934.000000
504.513000 68.000000
504.888000 35.000000
506.490000 7185.000000
508.500000 60.000000
518.488000 306.000000
521.445000 51.000000
534.806000 204.000000
534.842000 60.000000
536.297000 44.000000
536.389000 69.000000
536.499000 35601.000000
537.513000 78.000000

