>compound LQB8018491
>parentmass 766.5382
>ionization [M-H]-
>formula C43H78NO8P
>rt 587.978880
>profile qtof
#smiles_iso CCCCCCCC/C=C\CCCCCCCC(=O)OCC(COP(=O)(O)OCCN)OC(=O)CCCCCCCCC/C=C\C/C=C\C/C=C\CC
#smiles_can CCCCCCCCC=CCCCCCCCC(=O)OCC(COP(=O)(O)OCCN)OC(=O)CCCCCCCCCC=CCC=CCC=CCC
#inchikey FHPKJOCRZAXOEW-ZYKQNZMBSA-N
#pubchem_id 138151921
#mb_accession LQB00211,LQB00597

>ms2
196.047000 40.000000
255.235000 91.000000
256.229000 30.000000
279.238000 41.000000
281.239000 194.000000
281.244000 224.000000
281.248000 346.000000
281.253000 214.000000
281.258000 174.000000
281.263000 112.000000
283.267000 80.000000
286.257000 40.000000
303.218000 40.000000
303.223000 72.000000
303.231000 82.000000
303.240000 224.000000
305.247000 1571.000000
305.259000 336.000000
307.269000 30.000000
319.225000 70.000000
329.247000 20.000000
330.251000 60.000000
331.265000 50.000000
442.749000 20.000000
460.283000 30.000000
478.286000 111.000000
484.286000 20.000000
502.305000 33.000000
716.588000 40.000000
766.476000 30.000000
766.491000 61.000000
766.499000 101.000000
766.520000 794.000000
766.538000 285.000000
766.553000 531.000000

>ms2
196.047000 40.000000
255.235000 91.000000
256.229000 30.000000
279.238000 41.000000
281.239000 194.000000
281.244000 224.000000
281.248000 346.000000
281.253000 214.000000
281.258000 174.000000
281.263000 112.000000
283.267000 80.000000
286.257000 40.000000
303.218000 40.000000
303.223000 72.000000
303.231000 82.000000
303.240000 224.000000
305.247000 1571.000000
305.259000 336.000000
307.269000 30.000000
319.225000 70.000000
329.247000 20.000000
330.251000 60.000000
331.265000 50.000000
442.749000 20.000000
460.283000 30.000000
478.286000 111.000000
484.286000 20.000000
502.305000 33.000000
716.588000 40.000000
766.476000 30.000000
766.491000 61.000000
766.499000 101.000000
766.520000 794.000000
766.538000 285.000000
766.553000 531.000000

