>compound LQB8693608
>parentmass 885.7028
>ionization [M+CH3COOH-H]-
>formula C48H95N2O6P
>rt 771.152400
>profile qtof
#smiles_iso CCCCCCCCCCCCC/C=C\CCCCCCCCCC(=O)NC(COP(=O)([O-])OCC[N+](C)(C)C)C(/C=C/CCCCCCCCCCCCC)O
#smiles_can CCCCCCCCCCCCCC=CCCCCCCCCCC(=O)NC(COP(=O)([O-])OCC[N+](C)(C)C)C(C=CCCCCCCCCCCCCC)O
#inchikey PUPRMEGREMBBOX-CQKYAMJZSA-N
#pubchem_id 138239786
#mb_accession LQB00376,LQB00762

>ms2peaks
78.958000 37.000000
141.018000 10.000000
168.043000 115.000000
255.234000 7.000000
256.242000 6.000000
281.249000 7.000000
283.252000 6.000000
303.234000 12.000000
304.236000 6.000000
329.242000 7.000000
379.373000 6.000000
419.252000 9.000000
447.717000 9.000000
449.318000 7.000000
475.689000 6.000000
541.712000 6.000000
544.192000 7.000000
601.272000 6.000000
646.603000 7.000000
647.625000 15.000000
663.658000 6.000000
740.588000 9.000000
797.651000 9.000000
804.578000 19.000000
809.123000 12.000000
811.623000 366.000000
811.641000 527.000000
811.672000 3218.000000
811.808000 9.000000
812.113000 11.000000
812.682000 8.000000
825.674000 10.000000
826.620000 21.000000
826.652000 26.000000
885.448000 6.000000
885.507000 20.000000
885.541000 14.000000
885.560000 26.000000
885.665000 33.000000
885.683000 38.000000
885.703000 79.000000
885.724000 60.000000
885.786000 7.000000

>ms2peaks
78.958000 37.000000
141.018000 10.000000
168.043000 115.000000
255.234000 7.000000
256.242000 6.000000
281.249000 7.000000
283.252000 6.000000
303.234000 12.000000
304.236000 6.000000
329.242000 7.000000
379.373000 6.000000
419.252000 9.000000
447.717000 9.000000
449.318000 7.000000
475.689000 6.000000
541.712000 6.000000
544.192000 7.000000
601.272000 6.000000
646.603000 7.000000
647.625000 15.000000
663.658000 6.000000
740.588000 9.000000
797.651000 9.000000
804.578000 19.000000
809.123000 12.000000
811.623000 366.000000
811.641000 527.000000
811.672000 3218.000000
811.808000 9.000000
812.113000 11.000000
812.682000 8.000000
825.674000 10.000000
826.620000 21.000000
826.652000 26.000000
885.448000 6.000000
885.507000 20.000000
885.541000 14.000000
885.560000 26.000000
885.665000 33.000000
885.683000 38.000000
885.703000 79.000000
885.724000 60.000000
885.786000 7.000000

