>compound LQB8986771
>parentmass 624.5545999999999
>ionization [M+CH3COOH-H]-
>formula C36H71NO3
>rt 648.532500
>profile qtof
#smiles_iso CCCCCCCCCCCCCCCCCC(=O)NC(CO)C(/C=C/CCCCCCCCCCCCC)O
#smiles_can CCCCCCCCCCCCCCCCCC(=O)NC(CO)C(C=CCCCCCCCCCCCCC)O
#inchikey VODZWWMEJITOND-OWWNRXNESA-N
#pubchem_id 6372196
#mb_accession LQB00032,LQB00033,LQB00418,LQB00419

>ms2
80.025000 70.000000
95.048000 90.000000
209.190000 90.000000
219.206000 60.000000
225.220000 112.000000
235.205000 408.000000
236.465000 61.000000
237.220000 14695.000000
239.227000 276.000000
239.239000 296.000000
248.237000 63.000000
250.249000 631.000000
250.260000 245.000000
251.237000 70.000000
255.229000 245.000000
261.217000 81.000000
262.403000 64.000000
263.235000 11722.000000
264.433000 131.000000
265.251000 19259.000000
268.262000 2102.000000
280.260000 140.000000
281.245000 235.000000
281.284000 1693.000000
281.413000 85.000000
282.279000 13601.000000
282.382000 67.000000
283.251000 2471.000000
283.263000 8522.000000
296.286000 182.000000
296.305000 182.000000
298.273000 867.000000
306.270000 122.000000
306.286000 153.000000
307.324000 172.000000
307.340000 157.000000
308.294000 67043.000000
322.273000 674.000000
323.274000 93.000000
323.293000 84.000000
324.290000 8546.000000
326.301000 284.000000
326.313000 102.000000
338.302000 101.000000
471.976000 105.000000
477.512000 53.000000
489.491000 202.000000
489.517000 80.000000
505.497000 162.000000
514.500000 111.000000
516.510000 10436.000000
518.514000 101.000000
528.485000 60.000000
528.526000 90.000000
530.846000 60.000000
532.465000 333.000000
532.504000 8313.000000
532.861000 71.000000
534.521000 15751.000000
536.529000 81.000000
536.550000 80.000000
546.497000 215.000000
546.522000 550.000000
546.547000 92.000000
562.726000 112.000000
562.758000 429.000000
562.787000 122.000000
563.978000 105.000000
564.413000 82.000000
564.532000 52634.000000
565.537000 190.000000
615.352000 62.000000
617.599000 56.000000
624.551000 90.000000

>ms2
235.203000 60.000000
237.210000 448.000000
237.224000 1346.000000
239.235000 90.000000
250.255000 183.000000
253.249000 90.000000
254.229000 61.000000
254.247000 336.000000
255.232000 193.000000
263.236000 805.000000
263.255000 52.000000
265.252000 2021.000000
266.258000 101.000000
268.251000 133.000000
268.272000 115.000000
280.261000 1397.000000
281.291000 183.000000
282.261000 163.000000
282.279000 836.000000
282.297000 144.000000
283.263000 768.000000
291.268000 419.000000
294.278000 70.000000
296.244000 142.000000
296.261000 184.000000
296.294000 80.000000
298.275000 93.000000
306.281000 62.000000
308.294000 5287.000000
322.293000 65.000000
324.276000 173.000000
324.287000 480.000000
324.297000 143.000000
324.302000 133.000000
336.313000 60.000000
505.496000 30.000000
516.471000 91.000000
516.512000 1001.000000
516.552000 91.000000
532.483000 367.000000
532.507000 715.000000
532.523000 327.000000
533.511000 30.000000
534.486000 204.000000
534.519000 1713.000000
546.506000 80.000000
546.536000 45.000000
562.745000 91.000000
564.460000 106.000000
564.532000 12836.000000

>ms2
80.025000 70.000000
95.048000 90.000000
209.190000 90.000000
219.206000 60.000000
225.220000 112.000000
235.205000 408.000000
236.465000 61.000000
237.220000 14695.000000
239.227000 276.000000
239.239000 296.000000
248.237000 63.000000
250.249000 631.000000
250.260000 245.000000
251.237000 70.000000
255.229000 245.000000
261.217000 81.000000
262.403000 64.000000
263.235000 11722.000000
264.433000 131.000000
265.251000 19259.000000
268.262000 2102.000000
280.260000 140.000000
281.245000 235.000000
281.284000 1693.000000
281.413000 85.000000
282.279000 13601.000000
282.382000 67.000000
283.251000 2471.000000
283.263000 8522.000000
296.286000 182.000000
296.305000 182.000000
298.273000 867.000000
306.270000 122.000000
306.286000 153.000000
307.324000 172.000000
307.340000 157.000000
308.294000 67043.000000
322.273000 674.000000
323.274000 93.000000
323.293000 84.000000
324.290000 8546.000000
326.301000 284.000000
326.313000 102.000000
338.302000 101.000000
471.976000 105.000000
477.512000 53.000000
489.491000 202.000000
489.517000 80.000000
505.497000 162.000000
514.500000 111.000000
516.510000 10436.000000
518.514000 101.000000
528.485000 60.000000
528.526000 90.000000
530.846000 60.000000
532.465000 333.000000
532.504000 8313.000000
532.861000 71.000000
534.521000 15751.000000
536.529000 81.000000
536.550000 80.000000
546.497000 215.000000
546.522000 550.000000
546.547000 92.000000
562.726000 112.000000
562.758000 429.000000
562.787000 122.000000
563.978000 105.000000
564.413000 82.000000
564.532000 52634.000000
565.537000 190.000000
615.352000 62.000000
617.599000 56.000000
624.551000 90.000000

>ms2
235.203000 60.000000
237.210000 448.000000
237.224000 1346.000000
239.235000 90.000000
250.255000 183.000000
253.249000 90.000000
254.229000 61.000000
254.247000 336.000000
255.232000 193.000000
263.236000 805.000000
263.255000 52.000000
265.252000 2021.000000
266.258000 101.000000
268.251000 133.000000
268.272000 115.000000
280.261000 1397.000000
281.291000 183.000000
282.261000 163.000000
282.279000 836.000000
282.297000 144.000000
283.263000 768.000000
291.268000 419.000000
294.278000 70.000000
296.244000 142.000000
296.261000 184.000000
296.294000 80.000000
298.275000 93.000000
306.281000 62.000000
308.294000 5287.000000
322.293000 65.000000
324.276000 173.000000
324.287000 480.000000
324.297000 143.000000
324.302000 133.000000
336.313000 60.000000
505.496000 30.000000
516.471000 91.000000
516.512000 1001.000000
516.552000 91.000000
532.483000 367.000000
532.507000 715.000000
532.523000 327.000000
533.511000 30.000000
534.486000 204.000000
534.519000 1713.000000
546.506000 80.000000
546.536000 45.000000
562.745000 91.000000
564.460000 106.000000
564.532000 12836.000000

