>compound LQB8235680
>parentmass 909.5504
>ionization [M-H]-
>formula C49H83O13P
>rt 506.132040
>profile qtof
#smiles_iso CCCCCCCC/C=C\CCCCCCCC(=O)OCC(COP(=O)(O)OC1C(C(C(C(C1O)O)O)O)O)OC(=O)CCCCC/C=C\C/C=C\C/C=C\C/C=C\C/C=C\CC
#smiles_can CCCCCCCCC=CCCCCCCCC(=O)OCC(COP(=O)(O)OC1C(C(C(C(C1O)O)O)O)O)OC(=O)CCCCCC=CCC=CCC=CCC=CCC=CCC
#inchikey CVDYOYNJWLXMAW-LKVUMQLBSA-N
#pubchem_id 138139338
#mb_accession LQB00319,LQB00705

>ms2
152.993000 91.000000
222.998000 122.000000
241.010000 500.000000
255.236000 30.000000
259.019000 50.000000
259.238000 20.000000
281.249000 540.000000
297.036000 104.000000
303.215000 40.000000
303.232000 225.000000
307.252000 111.000000
307.266000 296.000000
309.277000 20.000000
311.244000 20.000000
315.045000 33.000000
329.247000 469.000000
417.236000 265.000000
435.265000 23.000000
443.254000 202.000000
465.239000 30.000000
493.398000 20.000000
527.632000 20.000000
579.273000 101.000000
579.301000 214.000000
597.308000 90.000000
601.266000 43.000000
605.286000 101.000000
605.321000 102.000000
623.324000 50.000000
627.290000 110.000000
747.497000 40.000000
749.486000 35.000000
822.523000 20.000000
835.549000 20.000000
906.659000 41.000000
906.717000 40.000000
909.521000 1265.000000
909.554000 7942.000000
909.601000 855.000000
910.546000 40.000000

>ms2
152.993000 91.000000
222.998000 122.000000
241.010000 500.000000
255.236000 30.000000
259.019000 50.000000
259.238000 20.000000
281.249000 540.000000
297.036000 104.000000
303.215000 40.000000
303.232000 225.000000
307.252000 111.000000
307.266000 296.000000
309.277000 20.000000
311.244000 20.000000
315.045000 33.000000
329.247000 469.000000
417.236000 265.000000
435.265000 23.000000
443.254000 202.000000
465.239000 30.000000
493.398000 20.000000
527.632000 20.000000
579.273000 101.000000
579.301000 214.000000
597.308000 90.000000
601.266000 43.000000
605.286000 101.000000
605.321000 102.000000
623.324000 50.000000
627.290000 110.000000
747.497000 40.000000
749.486000 35.000000
822.523000 20.000000
835.549000 20.000000
906.659000 41.000000
906.717000 40.000000
909.521000 1265.000000
909.554000 7942.000000
909.601000 855.000000
910.546000 40.000000

