>compound LQB8826109
>parentmass 842.5897
>ionization [M+CH3COOH-H]-
>formula C44H82NO8P
>rt 566.932320
>profile qtof
#smiles_iso CCCCCCCC/C=C\CCCCCCCC(=O)OCC(COP(=O)([O-])OCC[N+](C)(C)C)OC(=O)CCCCCCC/C=C\C/C=C\CCCCC
#smiles_can CCCCCCCCC=CCCCCCCCC(=O)OCC(COP(=O)([O-])OCC[N+](C)(C)C)OC(=O)CCCCCCCC=CCC=CCCCCC
#inchikey GDWULUGDXGHJIJ-RWLIYIGXSA-N
#pubchem_id 15151374
#mb_accession LQB00145,LQB00531

>ms2
78.958000 60.000000
168.042000 266.000000
168.052000 81.000000
224.069000 573.000000
253.219000 30.000000
255.229000 92.000000
261.223000 50.000000
278.360000 147.000000
279.169000 49.000000
279.231000 21902.000000
280.237000 45.000000
280.372000 88.000000
281.248000 9829.000000
305.246000 101.000000
307.263000 53.000000
417.239000 40.000000
430.265000 30.000000
432.292000 33.000000
486.295000 203.000000
486.327000 30.000000
486.793000 20.000000
488.303000 162.000000
488.319000 193.000000
504.299000 225.000000
504.317000 81.000000
506.319000 1549.000000
557.065000 43.000000
557.180000 33.000000
557.522000 114.000000
561.378000 59.000000
697.477000 66.000000
700.585000 33.000000
723.490000 40.000000
766.115000 90.000000
767.526000 23.000000
767.913000 32.000000
768.551000 24004.000000
769.558000 58.000000
783.517000 233.000000
839.916000 20.000000
842.554000 340.000000
842.587000 2139.000000

>ms2
78.958000 60.000000
168.042000 266.000000
168.052000 81.000000
224.069000 573.000000
253.219000 30.000000
255.229000 92.000000
261.223000 50.000000
278.360000 147.000000
279.169000 49.000000
279.231000 21902.000000
280.237000 45.000000
280.372000 88.000000
281.248000 9829.000000
305.246000 101.000000
307.263000 53.000000
417.239000 40.000000
430.265000 30.000000
432.292000 33.000000
486.295000 203.000000
486.327000 30.000000
486.793000 20.000000
488.303000 162.000000
488.319000 193.000000
504.299000 225.000000
504.317000 81.000000
506.319000 1549.000000
557.065000 43.000000
557.180000 33.000000
557.522000 114.000000
561.378000 59.000000
697.477000 66.000000
700.585000 33.000000
723.490000 40.000000
766.115000 90.000000
767.526000 23.000000
767.913000 32.000000
768.551000 24004.000000
769.558000 58.000000
783.517000 233.000000
839.916000 20.000000
842.554000 340.000000
842.587000 2139.000000

