>compound LQB8476883
>parentmass 902.6884
>ionization [M+CH3COOH-H]-
>formula C48H94NO8P
>rt 784.597800
>profile qtof
#smiles_iso CCCCCCCCCCCCCCCC(=O)OCC(COP(=O)([O-])OCC[N+](C)(C)C)OC(=O)CCCCCCCCCCC/C=C\CCCCCCCCCC
#smiles_can CCCCCCCCCCCCCCCC(=O)OCC(COP(=O)([O-])OCC[N+](C)(C)C)OC(=O)CCCCCCCCCCCC=CCCCCCCCCCC
#inchikey BTLDQGKXGHSRQN-FCQUAONHSA-N
#pubchem_id 138130353
#mb_accession LQB00118,LQB00504

>ms2peaks
141.017000 71.000000
168.042000 132.000000
224.072000 40.000000
227.203000 43.000000
253.125000 21.000000
253.212000 43.000000
254.443000 31.000000
255.113000 60.000000
255.229000 2329.000000
255.242000 467.000000
267.232000 20.000000
281.244000 600.000000
283.264000 181.000000
309.276000 50.000000
311.292000 45.000000
337.303000 326.000000
337.320000 183.000000
339.319000 50.000000
339.327000 121.000000
339.334000 51.000000
339.347000 51.000000
365.336000 919.000000
365.346000 327.000000
365.351000 347.000000
365.357000 193.000000
365.368000 102.000000
365.379000 40.000000
449.311000 40.000000
462.301000 40.000000
480.316000 115.000000
488.333000 20.000000
508.341000 20.000000
564.392000 20.000000
572.406000 60.000000
590.411000 135.000000
628.532000 60.000000
646.614000 234.000000
728.598000 43.000000
755.602000 33.000000
760.621000 60.000000
799.600000 123.000000
799.622000 156.000000
799.660000 1063.000000
799.687000 497.000000
799.720000 112.000000
800.663000 51.000000
826.123000 57.000000
826.681000 62.000000
828.604000 375.000000
828.612000 598.000000
828.628000 1080.000000
828.652000 5693.000000
828.707000 355.000000
828.718000 152.000000
842.706000 160.000000
843.620000 93.000000
902.630000 50.000000
902.638000 40.000000
902.647000 82.000000
902.655000 123.000000
902.664000 133.000000
902.672000 184.000000
902.681000 275.000000
902.689000 214.000000
902.698000 225.000000
902.706000 133.000000
902.715000 132.000000
902.723000 102.000000
902.740000 72.000000

>ms2peaks
141.017000 71.000000
168.042000 132.000000
224.072000 40.000000
227.203000 43.000000
253.125000 21.000000
253.212000 43.000000
254.443000 31.000000
255.113000 60.000000
255.229000 2329.000000
255.242000 467.000000
267.232000 20.000000
281.244000 600.000000
283.264000 181.000000
309.276000 50.000000
311.292000 45.000000
337.303000 326.000000
337.320000 183.000000
339.319000 50.000000
339.327000 121.000000
339.334000 51.000000
339.347000 51.000000
365.336000 919.000000
365.346000 327.000000
365.351000 347.000000
365.357000 193.000000
365.368000 102.000000
365.379000 40.000000
449.311000 40.000000
462.301000 40.000000
480.316000 115.000000
488.333000 20.000000
508.341000 20.000000
564.392000 20.000000
572.406000 60.000000
590.411000 135.000000
628.532000 60.000000
646.614000 234.000000
728.598000 43.000000
755.602000 33.000000
760.621000 60.000000
799.600000 123.000000
799.622000 156.000000
799.660000 1063.000000
799.687000 497.000000
799.720000 112.000000
800.663000 51.000000
826.123000 57.000000
826.681000 62.000000
828.604000 375.000000
828.612000 598.000000
828.628000 1080.000000
828.652000 5693.000000
828.707000 355.000000
828.718000 152.000000
842.706000 160.000000
843.620000 93.000000
902.630000 50.000000
902.638000 40.000000
902.647000 82.000000
902.655000 123.000000
902.664000 133.000000
902.672000 184.000000
902.681000 275.000000
902.689000 214.000000
902.698000 225.000000
902.706000 133.000000
902.715000 132.000000
902.723000 102.000000
902.740000 72.000000

