>compound LQB8808017
>parentmass 719.48485
>ionization [M-H]-
>formula C38H73O10P
>rt 495.306990
>profile qtof
#smiles_iso CCCCCCCCCCCCCCCC(=O)OCC(COP(=O)(O)OCC(CO)O)OC(=O)CCCCCCC/C=C\CCCCCC
#smiles_can CCCCCCCCCCCCCCCC(=O)OCC(COP(=O)(O)OCC(CO)O)OC(=O)CCCCCCCC=CCCCCCC
#inchikey NOFOTAHTYLXZNV-PEZBUJJGSA-N
#pubchem_id 138220866
#mb_accession LQB00238,LQB00239,LQB00624,LQB00625

>ms2peaks
78.961000 399.000000
96.972000 63.000000
152.996000 2013.000000
171.006000 1336.000000
209.021000 317.000000
227.029000 663.000000
227.197000 285.000000
252.411000 92.000000
252.422000 306.000000
252.456000 45.000000
253.089000 43.000000
253.215000 72225.000000
253.644000 43.000000
254.213000 77.000000
254.422000 117.000000
254.449000 57.000000
254.951000 46.000000
255.045000 45.000000
255.231000 29710.000000
281.246000 430.000000
281.259000 133.000000
283.252000 35.000000
389.168000 50.000000
389.198000 377.000000
389.219000 185.000000
391.179000 41.000000
391.217000 2354.000000
407.233000 40.000000
409.215000 81.000000
409.235000 101.000000
455.244000 45.000000
463.243000 777.000000
465.250000 2485.000000
481.247000 469.000000
481.272000 92.000000
481.719000 21.000000
482.649000 21.000000
483.262000 3155.000000
483.307000 40.000000
491.264000 23.000000
509.258000 20.000000
641.532000 20.000000
645.429000 131.000000
645.467000 50.000000
647.450000 20.000000
659.542000 23.000000
687.447000 38.000000
717.162000 60.000000
717.208000 205.000000
717.252000 50.000000
719.003000 60.000000
719.135000 61.000000
719.372000 60.000000
719.470000 39529.000000
719.548000 146.000000
719.912000 30.000000
720.471000 94.000000
722.276000 30.000000

>ms2peaks
152.996000 104.000000
171.000000 74.000000
223.081000 20.000000
227.200000 685.000000
253.218000 1503.000000
255.232000 1304.000000
280.368000 20.000000
281.237000 194.000000
281.251000 387.000000
283.263000 20.000000
308.960000 20.000000
389.211000 63.000000
391.221000 53.000000
417.237000 53.000000
437.225000 20.000000
455.236000 30.000000
463.243000 90.000000
465.256000 60.000000
481.256000 70.000000
483.272000 81.000000
491.300000 20.000000
509.284000 53.000000
627.510000 30.000000
641.535000 20.000000
645.485000 20.000000
659.540000 50.000000
673.667000 21.000000
711.837000 21.000000
719.437000 207.000000
719.479000 2323.000000
719.512000 352.000000

>ms2peaks
78.961000 399.000000
96.972000 63.000000
152.996000 2013.000000
171.006000 1336.000000
209.021000 317.000000
227.029000 663.000000
227.197000 285.000000
252.411000 92.000000
252.422000 306.000000
252.456000 45.000000
253.089000 43.000000
253.215000 72225.000000
253.644000 43.000000
254.213000 77.000000
254.422000 117.000000
254.449000 57.000000
254.951000 46.000000
255.045000 45.000000
255.231000 29710.000000
281.246000 430.000000
281.259000 133.000000
283.252000 35.000000
389.168000 50.000000
389.198000 377.000000
389.219000 185.000000
391.179000 41.000000
391.217000 2354.000000
407.233000 40.000000
409.215000 81.000000
409.235000 101.000000
455.244000 45.000000
463.243000 777.000000
465.250000 2485.000000
481.247000 469.000000
481.272000 92.000000
481.719000 21.000000
482.649000 21.000000
483.262000 3155.000000
483.307000 40.000000
491.264000 23.000000
509.258000 20.000000
641.532000 20.000000
645.429000 131.000000
645.467000 50.000000
647.450000 20.000000
659.542000 23.000000
687.447000 38.000000
717.162000 60.000000
717.208000 205.000000
717.252000 50.000000
719.003000 60.000000
719.135000 61.000000
719.372000 60.000000
719.470000 39529.000000
719.548000 146.000000
719.912000 30.000000
720.471000 94.000000
722.276000 30.000000

>ms2peaks
152.996000 104.000000
171.000000 74.000000
223.081000 20.000000
227.200000 685.000000
253.218000 1503.000000
255.232000 1304.000000
280.368000 20.000000
281.237000 194.000000
281.251000 387.000000
283.263000 20.000000
308.960000 20.000000
389.211000 63.000000
391.221000 53.000000
417.237000 53.000000
437.225000 20.000000
455.236000 30.000000
463.243000 90.000000
465.256000 60.000000
481.256000 70.000000
483.272000 81.000000
491.300000 20.000000
509.284000 53.000000
627.510000 30.000000
641.535000 20.000000
645.485000 20.000000
659.540000 50.000000
673.667000 21.000000
711.837000 21.000000
719.437000 207.000000
719.479000 2323.000000
719.512000 352.000000

