>compound LQB8510133
>parentmass 736.4889
>ionization [M-H]-
>formula C41H72NO8P
>rt 541.017000
>profile qtof
#smiles_iso CCCCCCCCCCCCCCCC(=O)OCC(COP(=O)(O)OCCN)OC(=O)CCC/C=C\C/C=C\C/C=C\C/C=C\C/C=C\CC
#smiles_can CCCCCCCCCCCCCCCC(=O)OCC(COP(=O)(O)OCCN)OC(=O)CCCC=CCC=CCC=CCC=CCC=CCC
#inchikey KHLRCNXJXSYNCK-LPHKCNJWSA-N
#pubchem_id 138193610
#mb_accession LQB00179,LQB00565

>ms2
78.959000 582.000000
93.069000 111.000000
96.967000 71.000000
117.072000 121.000000
121.102000 132.000000
121.999000 235.000000
137.132000 91.000000
140.011000 1594.000000
149.134000 80.000000
151.146000 172.000000
163.073000 164.000000
163.149000 120.000000
177.090000 212.000000
177.166000 91.000000
178.025000 131.000000
191.105000 91.000000
191.178000 71.000000
196.036000 2730.000000
203.181000 2086.000000
205.125000 70.000000
214.045000 225.000000
215.178000 150.000000
217.123000 187.000000
223.165000 428.000000
223.177000 143.000000
229.194000 244.000000
231.141000 205.000000
245.154000 80.000000
254.428000 199.000000
255.233000 47235.000000
256.425000 71.000000
257.227000 12116.000000
271.210000 91.000000
283.202000 491.000000
283.218000 92.000000
299.195000 111.000000
299.215000 50.000000
300.251000 81.000000
300.273000 213.000000
301.216000 62530.000000
301.595000 29.000000
302.222000 134.000000
378.223000 50.000000
378.249000 100.000000
391.222000 81.000000
424.229000 91.000000
434.233000 93.000000
434.262000 1532.000000
450.848000 79.000000
452.230000 168.000000
452.275000 8560.000000
480.219000 91.000000
480.246000 714.000000
498.208000 23.000000
498.260000 571.000000
507.880000 101.000000
511.460000 81.000000
561.955000 20.000000
601.184000 117.000000
734.098000 60.000000
734.151000 92.000000
734.189000 112.000000
735.637000 23.000000
736.483000 28762.000000
737.101000 28.000000
737.455000 66.000000
737.505000 45.000000
738.081000 23.000000
740.166000 30.000000

>ms2
78.959000 582.000000
93.069000 111.000000
96.967000 71.000000
117.072000 121.000000
121.102000 132.000000
121.999000 235.000000
137.132000 91.000000
140.011000 1594.000000
149.134000 80.000000
151.146000 172.000000
163.073000 164.000000
163.149000 120.000000
177.090000 212.000000
177.166000 91.000000
178.025000 131.000000
191.105000 91.000000
191.178000 71.000000
196.036000 2730.000000
203.181000 2086.000000
205.125000 70.000000
214.045000 225.000000
215.178000 150.000000
217.123000 187.000000
223.165000 428.000000
223.177000 143.000000
229.194000 244.000000
231.141000 205.000000
245.154000 80.000000
254.428000 199.000000
255.233000 47235.000000
256.425000 71.000000
257.227000 12116.000000
271.210000 91.000000
283.202000 491.000000
283.218000 92.000000
299.195000 111.000000
299.215000 50.000000
300.251000 81.000000
300.273000 213.000000
301.216000 62530.000000
301.595000 29.000000
302.222000 134.000000
378.223000 50.000000
378.249000 100.000000
391.222000 81.000000
424.229000 91.000000
434.233000 93.000000
434.262000 1532.000000
450.848000 79.000000
452.230000 168.000000
452.275000 8560.000000
480.219000 91.000000
480.246000 714.000000
498.208000 23.000000
498.260000 571.000000
507.880000 101.000000
511.460000 81.000000
561.955000 20.000000
601.184000 117.000000
734.098000 60.000000
734.151000 92.000000
734.189000 112.000000
735.637000 23.000000
736.483000 28762.000000
737.101000 28.000000
737.455000 66.000000
737.505000 45.000000
738.081000 23.000000
740.166000 30.000000

