>compound LQB8780440
>parentmass 774.5045
>ionization [M-H]-
>formula C44H74NO8P
>rt 544.695120
>profile qtof
#smiles_iso CCCCCCC/C=C\CCCCCCCC(=O)OCC(COP(=O)(O)OCCN)OC(=O)CC/C=C\C/C=C\C/C=C\C/C=C\C/C=C\C/C=C\CC
#smiles_can CCCCCCCC=CCCCCCCCC(=O)OCC(COP(=O)(O)OCCN)OC(=O)CCC=CCC=CCC=CCC=CCC=CCC=CCC
#inchikey XOUDAZVFABMKEQ-VFVAPGIQSA-N
#pubchem_id 138298600
#mb_accession LQB00194,LQB00580

>ms2peaks
140.013000 20.000000
229.192000 20.000000
254.834000 15.000000
255.185000 16.000000
255.444000 20.000000
267.230000 382.000000
279.235000 20.000000
283.239000 117.000000
283.249000 40.000000
326.209000 10.000000
327.229000 444.000000
364.956000 10.000000
446.270000 23.000000
460.952000 10.000000
464.274000 101.000000
506.275000 10.000000
687.507000 10.000000
702.501000 10.000000
713.543000 36.000000
714.550000 50.000000
774.440000 21.000000
774.481000 254.000000
774.501000 418.000000
775.494000 10.000000

>ms2peaks
140.013000 20.000000
229.192000 20.000000
254.834000 15.000000
255.185000 16.000000
255.444000 20.000000
267.230000 382.000000
279.235000 20.000000
283.239000 117.000000
283.249000 40.000000
326.209000 10.000000
327.229000 444.000000
364.956000 10.000000
446.270000 23.000000
460.952000 10.000000
464.274000 101.000000
506.275000 10.000000
687.507000 10.000000
702.501000 10.000000
713.543000 36.000000
714.550000 50.000000
774.440000 21.000000
774.481000 254.000000
774.501000 418.000000
775.494000 10.000000

