>compound LQB8060622
>parentmass 936.5752
>ionization [M+CH3COOH-H]-
>formula C52H80NO8P
>rt 521.055600
>profile qtof
#smiles_iso CC/C=C\C/C=C\C/C=C\C/C=C\C/C=C\C/C=C\CCC(=O)OCC(COP(=O)([O-])OCC[N+](C)(C)C)OC(=O)CC/C=C\C/C=C\C/C=C\C/C=C\C/C=C\C/C=C\CC
#smiles_can CCC=CCC=CCC=CCC=CCC=CCC=CCCC(=O)OCC(COP(=O)([O-])OCC[N+](C)(C)C)OC(=O)CCC=CCC=CCC=CCC=CCC=CCC=CCC
#inchikey XLKQWAMTMYIQMG-MYZZJVRYSA-N
#pubchem_id 13754721
#mb_accession LQB00169,LQB00555

>ms2
78.960000 14.000000
93.068000 7.000000
105.071000 7.000000
107.086000 12.000000
109.102000 10.000000
119.089000 10.000000
121.102000 15.000000
133.100000 7.000000
135.119000 9.000000
137.132000 11.000000
147.114000 6.000000
149.134000 8.000000
151.147000 6.000000
152.995000 10.000000
163.078000 6.000000
163.147000 8.000000
168.042000 91.000000
175.147000 10.000000
177.165000 43.000000
189.168000 10.000000
191.180000 45.000000
203.179000 15.000000
217.195000 11.000000
224.068000 122.000000
229.195000 212.000000
241.193000 7.000000
242.080000 14.000000
243.141000 6.000000
249.186000 54.000000
255.212000 12.000000
281.232000 11.000000
282.360000 8.000000
283.242000 1648.000000
284.265000 11.000000
297.221000 10.000000
309.223000 27.000000
309.281000 6.000000
325.215000 4.000000
326.198000 8.000000
326.211000 15.000000
326.263000 4.000000
327.231000 5051.000000
328.237000 7.000000
419.253000 34.000000
437.263000 5.000000
438.270000 4.000000
463.216000 28.000000
463.234000 11.000000
471.898000 4.000000
478.269000 14.000000
478.932000 4.000000
481.233000 6.000000
493.669000 4.000000
534.296000 143.000000
549.258000 5.000000
552.305000 787.000000
552.352000 14.000000
567.271000 6.000000
608.330000 6.000000
747.488000 43.000000
747.526000 11.000000
789.497000 9.000000
791.430000 5.000000
791.475000 12.000000
817.475000 13.000000
818.504000 5.000000
844.511000 6.000000
854.502000 6.000000
859.808000 37.000000
859.841000 13.000000
861.520000 5.000000
862.378000 5.000000
862.534000 10501.000000
862.664000 5.000000
862.957000 8.000000
863.512000 17.000000
863.546000 33.000000
864.050000 6.000000
876.508000 8.000000
876.549000 28.000000
877.479000 48.000000
877.506000 52.000000
890.529000 11.000000
890.571000 5.000000
904.523000 6.000000
905.492000 3.000000
908.556000 6.000000
918.531000 3.000000
933.637000 7.000000
936.570000 1087.000000
936.864000 3.000000
937.539000 15.000000
937.588000 6.000000

>ms2
78.960000 14.000000
93.068000 7.000000
105.071000 7.000000
107.086000 12.000000
109.102000 10.000000
119.089000 10.000000
121.102000 15.000000
133.100000 7.000000
135.119000 9.000000
137.132000 11.000000
147.114000 6.000000
149.134000 8.000000
151.147000 6.000000
152.995000 10.000000
163.078000 6.000000
163.147000 8.000000
168.042000 91.000000
175.147000 10.000000
177.165000 43.000000
189.168000 10.000000
191.180000 45.000000
203.179000 15.000000
217.195000 11.000000
224.068000 122.000000
229.195000 212.000000
241.193000 7.000000
242.080000 14.000000
243.141000 6.000000
249.186000 54.000000
255.212000 12.000000
281.232000 11.000000
282.360000 8.000000
283.242000 1648.000000
284.265000 11.000000
297.221000 10.000000
309.223000 27.000000
309.281000 6.000000
325.215000 4.000000
326.198000 8.000000
326.211000 15.000000
326.263000 4.000000
327.231000 5051.000000
328.237000 7.000000
419.253000 34.000000
437.263000 5.000000
438.270000 4.000000
463.216000 28.000000
463.234000 11.000000
471.898000 4.000000
478.269000 14.000000
478.932000 4.000000
481.233000 6.000000
493.669000 4.000000
534.296000 143.000000
549.258000 5.000000
552.305000 787.000000
552.352000 14.000000
567.271000 6.000000
608.330000 6.000000
747.488000 43.000000
747.526000 11.000000
789.497000 9.000000
791.430000 5.000000
791.475000 12.000000
817.475000 13.000000
818.504000 5.000000
844.511000 6.000000
854.502000 6.000000
859.808000 37.000000
859.841000 13.000000
861.520000 5.000000
862.378000 5.000000
862.534000 10501.000000
862.664000 5.000000
862.957000 8.000000
863.512000 17.000000
863.546000 33.000000
864.050000 6.000000
876.508000 8.000000
876.549000 28.000000
877.479000 48.000000
877.506000 52.000000
890.529000 11.000000
890.571000 5.000000
904.523000 6.000000
905.492000 3.000000
908.556000 6.000000
918.531000 3.000000
933.637000 7.000000
936.570000 1087.000000
936.864000 3.000000
937.539000 15.000000
937.588000 6.000000

