>compound LQB8787705
>parentmass 788.5435
>ionization [M+CH3COOH-H]-
>formula C40H76NO8P
>rt 521.592330
>profile qtof
#smiles_iso CCCCCCCCCCCCCC(=O)OCC(COP(=O)([O-])OCC[N+](C)(C)C)OC(=O)CCCCCCC/C=C\C/C=C\CCCCC
#smiles_can CCCCCCCCCCCCCC(=O)OCC(COP(=O)([O-])OCC[N+](C)(C)C)OC(=O)CCCCCCCC=CCC=CCCCCC
#inchikey IWXJKHSPEQSQMD-YPRCPECBSA-N
#pubchem_id 15151380
#mb_accession LQB00086,LQB00087,LQB00472,LQB00473

>ms2
168.043000 20.000000
227.202000 335.000000
253.220000 162.000000
279.231000 846.000000
283.260000 40.000000
419.262000 20.000000
452.274000 90.000000
478.290000 35.000000
486.290000 20.000000
504.313000 30.000000
673.529000 20.000000
701.517000 40.000000
714.499000 1031.000000
714.526000 398.000000
715.514000 20.000000
788.494000 60.000000
788.543000 144.000000

>ms2
168.041000 100.000000
224.068000 214.000000
225.184000 37.000000
227.200000 3002.000000
253.217000 1519.000000
255.233000 121.000000
279.232000 5524.000000
280.238000 30.000000
281.245000 81.000000
282.249000 11.000000
283.264000 114.000000
307.247000 20.000000
327.243000 20.000000
418.243000 33.000000
419.234000 30.000000
434.264000 101.000000
452.277000 316.000000
478.286000 60.000000
486.287000 63.000000
504.305000 103.000000
556.716000 32.000000
643.435000 30.000000
701.508000 162.000000
712.254000 53.000000
712.445000 21.000000
713.492000 20.000000
714.469000 806.000000
714.512000 5517.000000
729.493000 61.000000
738.521000 31.000000
788.483000 61.000000
788.510000 111.000000
788.544000 325.000000
788.580000 91.000000

>ms2
168.043000 20.000000
227.202000 335.000000
253.220000 162.000000
279.231000 846.000000
283.260000 40.000000
419.262000 20.000000
452.274000 90.000000
478.290000 35.000000
486.290000 20.000000
504.313000 30.000000
673.529000 20.000000
701.517000 40.000000
714.499000 1031.000000
714.526000 398.000000
715.514000 20.000000
788.494000 60.000000
788.543000 144.000000

>ms2
168.041000 100.000000
224.068000 214.000000
225.184000 37.000000
227.200000 3002.000000
253.217000 1519.000000
255.233000 121.000000
279.232000 5524.000000
280.238000 30.000000
281.245000 81.000000
282.249000 11.000000
283.264000 114.000000
307.247000 20.000000
327.243000 20.000000
418.243000 33.000000
419.234000 30.000000
434.264000 101.000000
452.277000 316.000000
478.286000 60.000000
486.287000 63.000000
504.305000 103.000000
556.716000 32.000000
643.435000 30.000000
701.508000 162.000000
712.254000 53.000000
712.445000 21.000000
713.492000 20.000000
714.469000 806.000000
714.512000 5517.000000
729.493000 61.000000
738.521000 31.000000
788.483000 61.000000
788.510000 111.000000
788.544000 325.000000
788.580000 91.000000

