>compound LQB8366725
>parentmass 668.582
>ionization [M+CH3COOH-H]-
>formula C38H75NO4
>rt 689.578800
>profile qtof
#smiles_iso CCCCCCCCCCCCCCCCCCC(C(=O)NC(CO)C(/C=C/CCCCCCCCCCCCC)O)O
#smiles_can CCCCCCCCCCCCCCCCCCC(C(=O)NC(CO)C(C=CCCCCCCCCCCCCC)O)O
#inchikey CFYLSUZUMMPFNC-NHQGMKOOSA-N
#pubchem_id 21259876
#mb_accession LQB00009,LQB00395

>ms2peaks
176.986000 30.000000
237.220000 50.000000
239.242000 43.000000
250.252000 56.000000
266.254000 73.000000
268.262000 152.000000
281.254000 30.000000
281.284000 336.000000
290.246000 30.000000
309.271000 30.000000
309.285000 122.000000
326.308000 113.000000
327.278000 30.000000
327.295000 103.000000
352.310000 50.000000
352.323000 176.000000
368.316000 80.000000
370.337000 30.000000
542.539000 20.000000
560.519000 50.000000
560.527000 81.000000
560.538000 60.000000
560.554000 51.000000
560.565000 40.000000
564.557000 61.000000
576.526000 73.000000
578.534000 23.000000
590.553000 153.000000
608.521000 215.000000
608.555000 2502.000000
608.570000 901.000000
608.581000 484.000000

>ms2peaks
176.986000 30.000000
237.220000 50.000000
239.242000 43.000000
250.252000 56.000000
266.254000 73.000000
268.262000 152.000000
281.254000 30.000000
281.284000 336.000000
290.246000 30.000000
309.271000 30.000000
309.285000 122.000000
326.308000 113.000000
327.278000 30.000000
327.295000 103.000000
352.310000 50.000000
352.323000 176.000000
368.316000 80.000000
370.337000 30.000000
542.539000 20.000000
560.519000 50.000000
560.527000 81.000000
560.538000 60.000000
560.554000 51.000000
560.565000 40.000000
564.557000 61.000000
576.526000 73.000000
578.534000 23.000000
590.553000 153.000000
608.521000 215.000000
608.555000 2502.000000
608.570000 901.000000
608.581000 484.000000

