>compound LQB9218362
>parentmass 833.5170499999999
>ionization [M-H]-
>formula C43H79O13P
>rt 498.099090
>profile qtof
#smiles_iso CCCCCCCCCCCCCCCC(=O)OCC(COP(=O)(O)OC1C(C(C(C(C1O)O)O)O)O)OC(=O)CCCCCCC/C=C\C/C=C\CCCCC
#smiles_can CCCCCCCCCCCCCCCC(=O)OCC(COP(=O)(O)OC1C(C(C(C(C1O)O)O)O)O)OC(=O)CCCCCCCC=CCC=CCCCCC
#inchikey BSNJSZUDOMPYIR-BCTRXSSUSA-N
#pubchem_id 138130059
#mb_accession LQB00293,LQB00294,LQB00679,LQB00680

>ms2
78.958000 438.000000
96.970000 131.000000
134.981000 40.000000
152.993000 1389.000000
223.000000 1438.000000
240.249000 52.000000
241.010000 5741.000000
253.216000 65.000000
254.430000 75.000000
255.231000 10792.000000
259.020000 628.000000
278.354000 123.000000
278.375000 62.000000
279.232000 11015.000000
279.268000 69.000000
280.232000 63.000000
295.223000 40.000000
297.037000 1277.000000
315.047000 347.000000
389.995000 52.000000
391.189000 72.000000
391.223000 4464.000000
392.221000 73.000000
409.229000 387.000000
409.258000 40.000000
415.222000 815.000000
497.250000 50.000000
551.541000 40.000000
553.272000 5285.000000
571.283000 1000.000000
571.308000 112.000000
577.237000 60.000000
577.272000 877.000000
595.272000 71.000000
595.296000 111.000000
671.470000 152.000000
673.462000 40.000000
759.529000 90.000000
830.888000 317.000000
831.596000 30.000000
832.493000 36.000000
833.201000 33.000000
833.374000 43.000000
833.512000 66572.000000
833.586000 90.000000
834.346000 66.000000
834.513000 181.000000

>ms2
78.959000 55.000000
96.964000 20.000000
134.987000 20.000000
152.996000 193.000000
223.000000 226.000000
241.010000 805.000000
251.204000 21.000000
253.208000 76.000000
253.221000 86.000000
255.233000 978.000000
256.236000 15.000000
259.020000 105.000000
278.350000 16.000000
279.232000 1279.000000
281.248000 247.000000
283.260000 85.000000
297.038000 153.000000
315.040000 45.000000
315.065000 30.000000
327.226000 26.000000
391.214000 159.000000
391.231000 183.000000
409.240000 45.000000
415.226000 330.000000
415.256000 60.000000
417.212000 25.000000
417.239000 110.000000
433.233000 30.000000
435.252000 38.000000
436.273000 20.000000
551.276000 10.000000
553.256000 153.000000
553.273000 163.000000
553.293000 111.000000
553.314000 30.000000
571.258000 30.000000
571.298000 75.000000
577.253000 95.000000
577.283000 279.000000
579.269000 50.000000
579.302000 45.000000
581.288000 15.000000
595.293000 70.000000
597.302000 10.000000
647.954000 10.000000
671.441000 16.000000
745.485000 16.000000
746.495000 85.000000
759.539000 38.000000
783.476000 16.000000
801.511000 15.000000
830.834000 50.000000
830.890000 30.000000
833.143000 15.000000
833.397000 20.000000
833.443000 106.000000
833.516000 10563.000000
833.711000 15.000000
834.519000 30.000000
837.961000 15.000000

>ms2
78.958000 438.000000
96.970000 131.000000
134.981000 40.000000
152.993000 1389.000000
223.000000 1438.000000
240.249000 52.000000
241.010000 5741.000000
253.216000 65.000000
254.430000 75.000000
255.231000 10792.000000
259.020000 628.000000
278.354000 123.000000
278.375000 62.000000
279.232000 11015.000000
279.268000 69.000000
280.232000 63.000000
295.223000 40.000000
297.037000 1277.000000
315.047000 347.000000
389.995000 52.000000
391.189000 72.000000
391.223000 4464.000000
392.221000 73.000000
409.229000 387.000000
409.258000 40.000000
415.222000 815.000000
497.250000 50.000000
551.541000 40.000000
553.272000 5285.000000
571.283000 1000.000000
571.308000 112.000000
577.237000 60.000000
577.272000 877.000000
595.272000 71.000000
595.296000 111.000000
671.470000 152.000000
673.462000 40.000000
759.529000 90.000000
830.888000 317.000000
831.596000 30.000000
832.493000 36.000000
833.201000 33.000000
833.374000 43.000000
833.512000 66572.000000
833.586000 90.000000
834.346000 66.000000
834.513000 181.000000

>ms2
78.959000 55.000000
96.964000 20.000000
134.987000 20.000000
152.996000 193.000000
223.000000 226.000000
241.010000 805.000000
251.204000 21.000000
253.208000 76.000000
253.221000 86.000000
255.233000 978.000000
256.236000 15.000000
259.020000 105.000000
278.350000 16.000000
279.232000 1279.000000
281.248000 247.000000
283.260000 85.000000
297.038000 153.000000
315.040000 45.000000
315.065000 30.000000
327.226000 26.000000
391.214000 159.000000
391.231000 183.000000
409.240000 45.000000
415.226000 330.000000
415.256000 60.000000
417.212000 25.000000
417.239000 110.000000
433.233000 30.000000
435.252000 38.000000
436.273000 20.000000
551.276000 10.000000
553.256000 153.000000
553.273000 163.000000
553.293000 111.000000
553.314000 30.000000
571.258000 30.000000
571.298000 75.000000
577.253000 95.000000
577.283000 279.000000
579.269000 50.000000
579.302000 45.000000
581.288000 15.000000
595.293000 70.000000
597.302000 10.000000
647.954000 10.000000
671.441000 16.000000
745.485000 16.000000
746.495000 85.000000
759.539000 38.000000
783.476000 16.000000
801.511000 15.000000
830.834000 50.000000
830.890000 30.000000
833.143000 15.000000
833.397000 20.000000
833.443000 106.000000
833.516000 10563.000000
833.711000 15.000000
834.519000 30.000000
837.961000 15.000000

