>compound LQB9982289
>parentmass 840.5738
>ionization [M+CH3COOH-H]-
>formula C44H80NO8P
>rt 558.242640
>profile qtof
#smiles_iso CCCCCCCCCCCCCCCC(=O)OCC(COP(=O)([O-])OCC[N+](C)(C)C)OC(=O)CCCCCC/C=C\C/C=C\C/C=C\C/C=C\CC
#smiles_can CCCCCCCCCCCCCCCC(=O)OCC(COP(=O)([O-])OCC[N+](C)(C)C)OC(=O)CCCCCCC=CCC=CCC=CCC=CCC
#inchikey JAVWFBAAZSHHAD-KKILVFCFSA-N
#pubchem_id 138183174
#mb_accession LQB00109,LQB00495

>ms2peaks
78.959000 195.000000
152.996000 61.000000
163.076000 61.000000
168.042000 1387.000000
177.092000 176.000000
191.108000 95.000000
205.122000 50.000000
205.195000 1132.000000
217.195000 72.000000
224.067000 2081.000000
224.090000 51.000000
231.209000 184.000000
242.080000 122.000000
254.430000 160.000000
254.453000 90.000000
255.233000 35246.000000
258.433000 57.000000
259.242000 5757.000000
267.210000 51.000000
283.206000 40.000000
285.220000 334.000000
301.217000 51.000000
302.282000 271.000000
303.150000 132.000000
303.232000 100623.000000
303.683000 45.000000
304.236000 123.000000
306.237000 40.000000
391.221000 285.000000
406.271000 90.000000
409.236000 121.000000
421.895000 40.000000
439.229000 76.000000
454.271000 108.000000
460.072000 41.000000
462.292000 2179.000000
478.772000 71.000000
480.307000 9833.000000
480.374000 26.000000
487.875000 30.000000
495.266000 90.000000
510.294000 602.000000
510.333000 40.000000
528.276000 61.000000
528.306000 796.000000
695.433000 61.000000
695.466000 254.000000
721.462000 91.000000
721.480000 111.000000
764.056000 61.000000
764.086000 122.000000
764.105000 109.000000
764.124000 173.000000
764.146000 122.000000
765.601000 50.000000
766.532000 66483.000000
766.693000 43.000000
767.523000 231.000000
767.554000 141.000000
767.697000 46.000000
781.485000 734.000000
781.506000 378.000000
781.534000 132.000000
837.927000 51.000000
840.568000 8523.000000

>ms2peaks
78.959000 195.000000
152.996000 61.000000
163.076000 61.000000
168.042000 1387.000000
177.092000 176.000000
191.108000 95.000000
205.122000 50.000000
205.195000 1132.000000
217.195000 72.000000
224.067000 2081.000000
224.090000 51.000000
231.209000 184.000000
242.080000 122.000000
254.430000 160.000000
254.453000 90.000000
255.233000 35246.000000
258.433000 57.000000
259.242000 5757.000000
267.210000 51.000000
283.206000 40.000000
285.220000 334.000000
301.217000 51.000000
302.282000 271.000000
303.150000 132.000000
303.232000 100623.000000
303.683000 45.000000
304.236000 123.000000
306.237000 40.000000
391.221000 285.000000
406.271000 90.000000
409.236000 121.000000
421.895000 40.000000
439.229000 76.000000
454.271000 108.000000
460.072000 41.000000
462.292000 2179.000000
478.772000 71.000000
480.307000 9833.000000
480.374000 26.000000
487.875000 30.000000
495.266000 90.000000
510.294000 602.000000
510.333000 40.000000
528.276000 61.000000
528.306000 796.000000
695.433000 61.000000
695.466000 254.000000
721.462000 91.000000
721.480000 111.000000
764.056000 61.000000
764.086000 122.000000
764.105000 109.000000
764.124000 173.000000
764.146000 122.000000
765.601000 50.000000
766.532000 66483.000000
766.693000 43.000000
767.523000 231.000000
767.554000 141.000000
767.697000 46.000000
781.485000 734.000000
781.506000 378.000000
781.534000 132.000000
837.927000 51.000000
840.568000 8523.000000

