>compound LQB9203093
>parentmass 640.5468
>ionization [M+CH3COOH-H]-
>formula C36H71NO4
>rt 619.810800
>profile qtof
#smiles_iso CCCCCCCCCCCCCCC/C=C/C(C(CO)NC(=O)C(CCCCCCCCCCCCCC)O)O
#smiles_can CCCCCCCCCCCCCCCC=CC(C(CO)NC(=O)C(CCCCCCCCCCCCCC)O)O
#inchikey LGIPKUHFCLCHJK-SJCQXOIGSA-N
#pubchem_id 138201662
#mb_accession LQB00014,LQB00400

>ms2
225.218000 100.000000
225.234000 50.000000
253.212000 70.000000
265.255000 63.000000
271.225000 74.000000
278.247000 40.000000
296.249000 131.000000
296.294000 73.000000
308.293000 50.000000
312.259000 50.000000
324.289000 63.000000
342.315000 20.000000
532.478000 63.000000
532.521000 70.000000
544.488000 23.000000
548.500000 110.000000
550.517000 20.000000
562.509000 93.000000
580.494000 224.000000
580.523000 908.000000
580.539000 684.000000

>ms2
225.218000 100.000000
225.234000 50.000000
253.212000 70.000000
265.255000 63.000000
271.225000 74.000000
278.247000 40.000000
296.249000 131.000000
296.294000 73.000000
308.293000 50.000000
312.259000 50.000000
324.289000 63.000000
342.315000 20.000000
532.478000 63.000000
532.521000 70.000000
544.488000 23.000000
548.500000 110.000000
550.517000 20.000000
562.509000 93.000000
580.494000 224.000000
580.523000 908.000000
580.539000 684.000000

