>compound LQB9195778
>parentmass 841.5005
>ionization [M-H]-
>formula C48H75O10P
>rt 471.867120
>profile qtof
#smiles_iso CC/C=C\C/C=C\C/C=C\C/C=C\CCCCCCC(=O)OCC(COP(=O)(O)OCC(CO)O)OC(=O)CC/C=C\C/C=C\C/C=C\C/C=C\C/C=C\C/C=C\CC
#smiles_can CCC=CCC=CCC=CCC=CCCCCCCC(=O)OCC(COP(=O)(O)OCC(CO)O)OC(=O)CCC=CCC=CCC=CCC=CCC=CCC=CCC
#inchikey NKKUHWUBWLYVOR-GGLIIMCGSA-N
#pubchem_id 138219622
#mb_accession LQB00282,LQB00668

>ms2
152.995000 106.000000
177.088000 30.000000
177.164000 40.000000
191.138000 28.000000
191.179000 51.000000
205.194000 117.000000
229.191000 137.000000
229.202000 55.000000
231.213000 25.000000
249.184000 59.000000
257.231000 21.000000
259.241000 304.000000
283.241000 1148.000000
283.265000 98.000000
284.276000 12.000000
302.290000 20.000000
303.231000 5273.000000
309.220000 20.000000
327.230000 3162.000000
329.247000 33.000000
359.223000 30.000000
360.223000 20.000000
439.230000 25.000000
448.318000 16.000000
457.234000 45.000000
463.209000 45.000000
463.247000 25.000000
466.316000 40.000000
466.332000 50.000000
467.315000 40.000000
467.340000 55.000000
480.300000 18.000000
481.235000 20.000000
500.526000 10.000000
513.250000 71.000000
531.271000 95.000000
537.260000 105.000000
555.267000 135.000000
700.519000 10.000000
767.521000 10.000000
795.488000 10.000000
805.513000 20.000000
823.494000 31.000000
823.527000 85.000000
838.852000 53.000000
840.240000 10.000000
841.349000 10.000000
841.429000 86.000000
841.494000 8669.000000
842.297000 11.000000
842.475000 30.000000
842.530000 15.000000

>ms2
152.995000 106.000000
177.088000 30.000000
177.164000 40.000000
191.138000 28.000000
191.179000 51.000000
205.194000 117.000000
229.191000 137.000000
229.202000 55.000000
231.213000 25.000000
249.184000 59.000000
257.231000 21.000000
259.241000 304.000000
283.241000 1148.000000
283.265000 98.000000
284.276000 12.000000
302.290000 20.000000
303.231000 5273.000000
309.220000 20.000000
327.230000 3162.000000
329.247000 33.000000
359.223000 30.000000
360.223000 20.000000
439.230000 25.000000
448.318000 16.000000
457.234000 45.000000
463.209000 45.000000
463.247000 25.000000
466.316000 40.000000
466.332000 50.000000
467.315000 40.000000
467.340000 55.000000
480.300000 18.000000
481.235000 20.000000
500.526000 10.000000
513.250000 71.000000
531.271000 95.000000
537.260000 105.000000
555.267000 135.000000
700.519000 10.000000
767.521000 10.000000
795.488000 10.000000
805.513000 20.000000
823.494000 31.000000
823.527000 85.000000
838.852000 53.000000
840.240000 10.000000
841.349000 10.000000
841.429000 86.000000
841.494000 8669.000000
842.297000 11.000000
842.475000 30.000000
842.530000 15.000000

