>compound LQB9131277
>parentmass 712.4879
>ionization [M-H]-
>formula C39H72NO8P
>rt 542.637300
>profile qtof
#smiles_iso CCCCCCCCCCCCCCCC(=O)OCC(COP(=O)(O)OCCN)OC(=O)CCCCCCC/C=C\C/C=C\C/C=C\CC
#smiles_can CCCCCCCCCCCCCCCC(=O)OCC(COP(=O)(O)OCCN)OC(=O)CCCCCCCC=CCC=CCC=CCC
#inchikey QONZHKTZKTUIMU-SVNQLWEDSA-N
#pubchem_id 10556777
#mb_accession LQB00177,LQB00563

>ms2peaks
152.991000 20.000000
196.044000 20.000000
255.232000 806.000000
259.211000 21.000000
275.200000 21.000000
277.214000 2009.000000
279.229000 50.000000
434.251000 30.000000
452.265000 80.000000
452.295000 60.000000
474.253000 40.000000
509.457000 33.000000
712.463000 153.000000
712.475000 265.000000
712.491000 459.000000
712.512000 173.000000

>ms2peaks
152.991000 20.000000
196.044000 20.000000
255.232000 806.000000
259.211000 21.000000
275.200000 21.000000
277.214000 2009.000000
279.229000 50.000000
434.251000 30.000000
452.265000 80.000000
452.295000 60.000000
474.253000 40.000000
509.457000 33.000000
712.463000 153.000000
712.475000 265.000000
712.491000 459.000000
712.512000 173.000000

