>compound LQB9173099
>parentmass 692.6162
>ionization [M+CH3COOH-H]-
>formula C41H79NO3
>rt 778.969800
>profile qtof
#smiles_iso CCCCCCCCCCCCCCCCCCCCCCC(=O)NC(CO)C(/C=C/CC/C=C/CCCCCCCCC)O
#smiles_can CCCCCCCCCCCCCCCCCCCCCCC(=O)NC(CO)C(C=CCCC=CCCCCCCCCC)O
#inchikey YVMFSKMDQVDKIS-QCVIXQMPSA-N
#pubchem_id 138309111
#mb_accession LQB00058,LQB00444

>ms2
141.014000 50.000000
201.025000 94.000000
235.175000 70.000000
235.206000 1743.000000
237.224000 60.000000
248.243000 83.000000
261.221000 1520.000000
264.228000 253.000000
266.239000 142.000000
266.253000 193.000000
279.232000 70.000000
283.022000 80.000000
296.256000 130.000000
333.316000 91.000000
334.272000 57.000000
335.308000 415.000000
335.330000 1772.000000
351.349000 112.000000
351.366000 121.000000
352.354000 2296.000000
353.338000 1061.000000
366.369000 100.000000
376.364000 93.000000
378.371000 7921.000000
392.345000 77.000000
392.384000 100.000000
393.359000 45.000000
394.363000 1173.000000
394.388000 91.000000
396.378000 70.000000
447.034000 43.000000
584.563000 990.000000
584.590000 235.000000
584.604000 152.000000
596.565000 33.000000
600.556000 764.000000
600.577000 856.000000
600.602000 114.000000
602.544000 280.000000
602.578000 2233.000000
602.613000 283.000000
614.586000 121.000000
628.520000 30.000000
630.580000 104.000000
630.632000 73.000000
632.524000 105.000000
632.591000 22897.000000
632.655000 103.000000
633.599000 60.000000
692.432000 20.000000
692.625000 60.000000

>ms2
141.014000 50.000000
201.025000 94.000000
235.175000 70.000000
235.206000 1743.000000
237.224000 60.000000
248.243000 83.000000
261.221000 1520.000000
264.228000 253.000000
266.239000 142.000000
266.253000 193.000000
279.232000 70.000000
283.022000 80.000000
296.256000 130.000000
333.316000 91.000000
334.272000 57.000000
335.308000 415.000000
335.330000 1772.000000
351.349000 112.000000
351.366000 121.000000
352.354000 2296.000000
353.338000 1061.000000
366.369000 100.000000
376.364000 93.000000
378.371000 7921.000000
392.345000 77.000000
392.384000 100.000000
393.359000 45.000000
394.363000 1173.000000
394.388000 91.000000
396.378000 70.000000
447.034000 43.000000
584.563000 990.000000
584.590000 235.000000
584.604000 152.000000
596.565000 33.000000
600.556000 764.000000
600.577000 856.000000
600.602000 114.000000
602.544000 280.000000
602.578000 2233.000000
602.613000 283.000000
614.586000 121.000000
628.520000 30.000000
630.580000 104.000000
630.632000 73.000000
632.524000 105.000000
632.591000 22897.000000
632.655000 103.000000
633.599000 60.000000
692.432000 20.000000
692.625000 60.000000

