>compound LQB9749126
>parentmass 760.4916
>ionization [M-H]-
>formula C43H72NO8P
>rt 526.865880
>profile qtof
#smiles_iso CCCCCC/C=C\CCCCCCCC(=O)OCC(COP(=O)(O)OCCN)OC(=O)CC/C=C\C/C=C\C/C=C\C/C=C\C/C=C\C/C=C\CC
#smiles_can CCCCCCC=CCCCCCCCC(=O)OCC(COP(=O)(O)OCCN)OC(=O)CCC=CCC=CCC=CCC=CCC=CCC=CCC
#inchikey PMUXXFUNXMXIFC-LSTLUVPYSA-N
#pubchem_id 138237126
#mb_accession LQB00189,LQB00575

>ms2
140.014000 183.000000
175.152000 40.000000
177.169000 70.000000
189.161000 50.000000
191.189000 70.000000
196.039000 305.000000
203.179000 50.000000
229.195000 245.000000
241.192000 41.000000
249.183000 131.000000
253.217000 3567.000000
283.244000 1285.000000
295.228000 77.000000
303.233000 30.000000
308.262000 21.000000
309.219000 81.000000
326.200000 31.000000
327.233000 4165.000000
327.269000 63.000000
432.249000 173.000000
446.297000 30.000000
450.240000 112.000000
450.259000 489.000000
450.278000 143.000000
464.294000 50.000000
506.273000 63.000000
524.279000 83.000000
700.454000 20.000000
742.542000 31.000000
758.081000 33.000000
760.431000 186.000000
760.449000 479.000000
760.489000 4395.000000

>ms2
140.014000 183.000000
175.152000 40.000000
177.169000 70.000000
189.161000 50.000000
191.189000 70.000000
196.039000 305.000000
203.179000 50.000000
229.195000 245.000000
241.192000 41.000000
249.183000 131.000000
253.217000 3567.000000
283.244000 1285.000000
295.228000 77.000000
303.233000 30.000000
308.262000 21.000000
309.219000 81.000000
326.200000 31.000000
327.233000 4165.000000
327.269000 63.000000
432.249000 173.000000
446.297000 30.000000
450.240000 112.000000
450.259000 489.000000
450.278000 143.000000
464.294000 50.000000
506.273000 63.000000
524.279000 83.000000
700.454000 20.000000
742.542000 31.000000
758.081000 33.000000
760.431000 186.000000
760.449000 479.000000
760.489000 4395.000000

