>compound LQB9787267
>parentmass 722.6628
>ionization [M+CH3COOH-H]-
>formula C43H85NO3
>rt 805.108200
>profile qtof
#smiles_iso CCCCCCCCCCCCCCCCCCCCCCCCC(=O)NC(CO)C(/C=C/CCCCCCCCCCCCC)O
#smiles_can CCCCCCCCCCCCCCCCCCCCCCCCC(=O)NC(CO)C(C=CCCCCCCCCCCCCC)O
#inchikey QHPYSHVSWAOLHS-BSKJHSHCSA-N
#pubchem_id 21259866
#mb_accession LQB00052,LQB00438

>ms2peaks
80.029000 60.000000
95.049000 92.000000
219.214000 50.000000
221.226000 60.000000
225.220000 81.000000
235.207000 411.000000
236.488000 83.000000
237.221000 15421.000000
239.236000 545.000000
249.228000 50.000000
250.252000 734.000000
251.233000 132.000000
255.229000 204.000000
262.255000 133.000000
262.416000 158.000000
263.237000 13719.000000
266.216000 63.000000
266.248000 2072.000000
268.262000 2308.000000
278.248000 80.000000
279.229000 172.000000
280.269000 80.000000
281.248000 458.000000
298.273000 927.000000
361.347000 224.000000
362.222000 90.000000
363.361000 20602.000000
365.379000 101.000000
365.398000 60.000000
377.378000 65.000000
379.197000 83.000000
379.391000 1560.000000
380.343000 93.000000
380.388000 17434.000000
381.336000 97.000000
381.371000 11496.000000
394.404000 172.000000
395.387000 60.000000
404.383000 285.000000
405.126000 286.000000
406.302000 65.000000
406.403000 74924.000000
406.453000 109.000000
407.345000 131.000000
407.403000 70.000000
420.369000 81.000000
420.385000 504.000000
421.075000 60.000000
421.380000 92.000000
422.397000 12881.000000
424.376000 71.000000
424.409000 266.000000
434.400000 101.000000
436.413000 205.000000
585.588000 60.000000
587.601000 162.000000
588.617000 30.000000
596.618000 80.000000
603.608000 438.000000
612.604000 81.000000
614.621000 10295.000000
616.623000 91.000000
626.604000 71.000000
626.624000 122.000000
630.614000 12354.000000
631.618000 85.000000
632.630000 22031.000000
634.647000 180.000000
644.625000 754.000000
644.644000 519.000000
660.557000 695.000000
660.588000 123.000000
662.353000 90.000000
662.434000 71.000000
662.500000 106.000000
662.640000 103191.000000
663.618000 65.000000
663.643000 284.000000
673.838000 20.000000
674.977000 20.000000
678.418000 20.000000
684.602000 35.000000
722.664000 745.000000
722.718000 23.000000
725.400000 63.000000
725.815000 61.000000

>ms2peaks
80.029000 60.000000
95.049000 92.000000
219.214000 50.000000
221.226000 60.000000
225.220000 81.000000
235.207000 411.000000
236.488000 83.000000
237.221000 15421.000000
239.236000 545.000000
249.228000 50.000000
250.252000 734.000000
251.233000 132.000000
255.229000 204.000000
262.255000 133.000000
262.416000 158.000000
263.237000 13719.000000
266.216000 63.000000
266.248000 2072.000000
268.262000 2308.000000
278.248000 80.000000
279.229000 172.000000
280.269000 80.000000
281.248000 458.000000
298.273000 927.000000
361.347000 224.000000
362.222000 90.000000
363.361000 20602.000000
365.379000 101.000000
365.398000 60.000000
377.378000 65.000000
379.197000 83.000000
379.391000 1560.000000
380.343000 93.000000
380.388000 17434.000000
381.336000 97.000000
381.371000 11496.000000
394.404000 172.000000
395.387000 60.000000
404.383000 285.000000
405.126000 286.000000
406.302000 65.000000
406.403000 74924.000000
406.453000 109.000000
407.345000 131.000000
407.403000 70.000000
420.369000 81.000000
420.385000 504.000000
421.075000 60.000000
421.380000 92.000000
422.397000 12881.000000
424.376000 71.000000
424.409000 266.000000
434.400000 101.000000
436.413000 205.000000
585.588000 60.000000
587.601000 162.000000
588.617000 30.000000
596.618000 80.000000
603.608000 438.000000
612.604000 81.000000
614.621000 10295.000000
616.623000 91.000000
626.604000 71.000000
626.624000 122.000000
630.614000 12354.000000
631.618000 85.000000
632.630000 22031.000000
634.647000 180.000000
644.625000 754.000000
644.644000 519.000000
660.557000 695.000000
660.588000 123.000000
662.353000 90.000000
662.434000 71.000000
662.500000 106.000000
662.640000 103191.000000
663.618000 65.000000
663.643000 284.000000
673.838000 20.000000
674.977000 20.000000
678.418000 20.000000
684.602000 35.000000
722.664000 745.000000
722.718000 23.000000
725.400000 63.000000
725.815000 61.000000

