>compound LQB9694659
>parentmass 696.6136
>ionization [M+CH3COOH-H]-
>formula C40H79NO4
>rt 773.563800
>profile qtof
#smiles_iso CCCCCCCCCCCCCCCCCCCCC(C(=O)NC(CO)C(/C=C/CCCCCCCCCCCCC)O)O
#smiles_can CCCCCCCCCCCCCCCCCCCCC(C(=O)NC(CO)C(C=CCCCCCCCCCCCCC)O)O
#inchikey FCCZDEAAQZWMGI-NWBJSICCSA-N
#pubchem_id 11331150
#mb_accession LQB00010,LQB00396

>ms2peaks
237.223000 714.000000
239.236000 480.000000
239.254000 82.000000
250.253000 532.000000
251.237000 61.000000
255.236000 60.000000
262.251000 111.000000
263.236000 488.000000
263.249000 74.000000
266.247000 458.000000
266.263000 72.000000
268.262000 1212.000000
278.237000 70.000000
278.253000 111.000000
280.258000 152.000000
280.271000 193.000000
290.250000 298.000000
298.273000 734.000000
307.300000 183.000000
308.250000 63.000000
309.314000 4474.000000
323.327000 90.000000
326.264000 81.000000
336.325000 76.000000
337.282000 124.000000
337.307000 1640.000000
339.326000 236.000000
350.344000 91.000000
351.326000 81.000000
354.333000 999.000000
354.361000 72.000000
355.302000 301.000000
355.318000 1553.000000
362.327000 204.000000
362.346000 325.000000
378.334000 122.000000
380.350000 3525.000000
395.337000 101.000000
396.346000 1712.000000
398.350000 204.000000
398.369000 338.000000
570.545000 152.000000
570.579000 61.000000
588.532000 196.000000
588.568000 2553.000000
590.580000 50.000000
600.542000 60.000000
600.575000 121.000000
604.527000 81.000000
604.560000 601.000000
604.586000 224.000000
606.554000 71.000000
606.579000 234.000000
606.606000 70.000000
618.542000 133.000000
618.578000 1112.000000
618.616000 92.000000
634.590000 131.000000
636.590000 41365.000000
637.585000 100.000000

>ms2peaks
237.223000 714.000000
239.236000 480.000000
239.254000 82.000000
250.253000 532.000000
251.237000 61.000000
255.236000 60.000000
262.251000 111.000000
263.236000 488.000000
263.249000 74.000000
266.247000 458.000000
266.263000 72.000000
268.262000 1212.000000
278.237000 70.000000
278.253000 111.000000
280.258000 152.000000
280.271000 193.000000
290.250000 298.000000
298.273000 734.000000
307.300000 183.000000
308.250000 63.000000
309.314000 4474.000000
323.327000 90.000000
326.264000 81.000000
336.325000 76.000000
337.282000 124.000000
337.307000 1640.000000
339.326000 236.000000
350.344000 91.000000
351.326000 81.000000
354.333000 999.000000
354.361000 72.000000
355.302000 301.000000
355.318000 1553.000000
362.327000 204.000000
362.346000 325.000000
378.334000 122.000000
380.350000 3525.000000
395.337000 101.000000
396.346000 1712.000000
398.350000 204.000000
398.369000 338.000000
570.545000 152.000000
570.579000 61.000000
588.532000 196.000000
588.568000 2553.000000
590.580000 50.000000
600.542000 60.000000
600.575000 121.000000
604.527000 81.000000
604.560000 601.000000
604.586000 224.000000
606.554000 71.000000
606.579000 234.000000
606.606000 70.000000
618.542000 133.000000
618.578000 1112.000000
618.616000 92.000000
634.590000 131.000000
636.590000 41365.000000
637.585000 100.000000

