>compound LQB9953473
>parentmass 742.5366
>ionization [M-H]-
>formula C41H78NO8P
>rt 624.469200
>profile qtof
#smiles_iso CCCCCCCCCCCCCCCCCC(=O)OCC(COP(=O)(O)OCCN)OC(=O)CCCCCCC/C=C\C/C=C\CCCCC
#smiles_can CCCCCCCCCCCCCCCCCC(=O)OCC(COP(=O)(O)OCCN)OC(=O)CCCCCCCC=CCC=CCCCCC
#inchikey YDTWOEYVDRKKCR-MLWYYCKJSA-N
#pubchem_id 9546748
#mb_accession LQB00196,LQB00582

>ms2
78.959000 163.000000
122.000000 80.000000
140.011000 570.000000
196.037000 949.000000
214.050000 133.000000
255.231000 53.000000
261.218000 112.000000
261.228000 51.000000
278.346000 67.000000
278.366000 244.000000
279.232000 58395.000000
280.236000 109.000000
281.253000 185.000000
282.378000 156.000000
282.559000 32.000000
282.759000 44.000000
283.263000 20688.000000
307.264000 94.000000
458.267000 286.000000
462.279000 92.000000
462.299000 633.000000
462.339000 60.000000
476.281000 203.000000
479.362000 21.000000
480.309000 2561.000000
558.881000 33.000000
740.213000 110.000000
741.337000 23.000000
741.774000 35.000000
742.534000 19147.000000
742.685000 26.000000
743.552000 55.000000

>ms2
78.959000 163.000000
122.000000 80.000000
140.011000 570.000000
196.037000 949.000000
214.050000 133.000000
255.231000 53.000000
261.218000 112.000000
261.228000 51.000000
278.346000 67.000000
278.366000 244.000000
279.232000 58395.000000
280.236000 109.000000
281.253000 185.000000
282.378000 156.000000
282.559000 32.000000
282.759000 44.000000
283.263000 20688.000000
307.264000 94.000000
458.267000 286.000000
462.279000 92.000000
462.299000 633.000000
462.339000 60.000000
476.281000 203.000000
479.362000 21.000000
480.309000 2561.000000
558.881000 33.000000
740.213000 110.000000
741.337000 23.000000
741.774000 35.000000
742.534000 19147.000000
742.685000 26.000000
743.552000 55.000000

