>compound LQB9408142
>parentmass 826.6211
>ionization [M-H]-
>formula C47H90NO8P
>rt 789.789600
>profile qtof
#smiles_iso CCCCCCCCCC/C=C\CCCCCCCCCCCC(=O)OC(COC(=O)CCCCCCC/C=C\CCCCCCCC)COP(=O)(O)OCCN
#smiles_can CCCCCCCCCCC=CCCCCCCCCCCCC(=O)OC(COC(=O)CCCCCCCC=CCCCCCCCC)COP(=O)(O)OCCN
#inchikey ISJLLEYVLZBZHK-BJSHFZDTSA-N
#pubchem_id 138180410
#mb_accession LQB00218,LQB00604

>ms2peaks
99.922000 20.000000
100.932000 286.000000
115.918000 30.000000
127.001000 23.000000
141.017000 20.000000
158.973000 306.000000
255.233000 20.000000
279.230000 70.000000
280.362000 40.000000
281.221000 82.000000
281.247000 1938.000000
291.010000 53.000000
325.321000 33.000000
363.304000 40.000000
363.325000 81.000000
365.338000 531.000000
365.358000 163.000000
367.353000 110.000000
387.023000 30.000000
544.377000 20.000000
562.383000 142.000000
648.635000 20.000000
666.624000 40.000000
744.603000 63.000000
826.579000 317.000000
826.611000 679.000000
826.640000 871.000000
826.677000 122.000000
826.685000 71.000000

>ms2peaks
99.922000 20.000000
100.932000 286.000000
115.918000 30.000000
127.001000 23.000000
141.017000 20.000000
158.973000 306.000000
255.233000 20.000000
279.230000 70.000000
280.362000 40.000000
281.221000 82.000000
281.247000 1938.000000
291.010000 53.000000
325.321000 33.000000
363.304000 40.000000
363.325000 81.000000
365.338000 531.000000
365.358000 163.000000
367.353000 110.000000
387.023000 30.000000
544.377000 20.000000
562.383000 142.000000
648.635000 20.000000
666.624000 40.000000
744.603000 63.000000
826.579000 317.000000
826.611000 679.000000
826.640000 871.000000
826.677000 122.000000
826.685000 71.000000

