>compound LQB9333270
>parentmass 795.516
>ionization [M-H]-
>formula C44H77O10P
>rt 503.914620
>profile qtof
#smiles_iso CCCCCCCCCCCCCCCC(=O)OCC(COP(=O)(O)OCC(CO)O)OC(=O)CCCCC/C=C\C/C=C\C/C=C\C/C=C\C/C=C\CC
#smiles_can CCCCCCCCCCCCCCCC(=O)OCC(COP(=O)(O)OCC(CO)O)OC(=O)CCCCCC=CCC=CCC=CCC=CCC=CCC
#inchikey AUXSCXICKMGRJE-SFVLIGPRSA-N
#pubchem_id 138122506
#mb_accession LQB00251,LQB00637

>ms2
78.959000 70.000000
96.971000 20.000000
152.996000 351.000000
171.008000 212.000000
205.198000 20.000000
209.021000 49.000000
227.030000 183.000000
231.217000 55.000000
243.209000 30.000000
245.042000 30.000000
251.203000 96.000000
254.437000 35.000000
255.231000 4747.000000
259.244000 30.000000
281.245000 75.000000
283.260000 26.000000
285.259000 765.000000
301.215000 20.000000
303.220000 91.000000
303.235000 121.000000
303.251000 35.000000
311.233000 50.000000
327.231000 46.000000
328.219000 50.000000
329.248000 9606.000000
330.256000 22.000000
391.200000 53.000000
391.225000 156.000000
391.253000 20.000000
409.231000 35.000000
433.234000 21.000000
465.239000 101.000000
465.263000 280.000000
483.251000 172.000000
483.273000 600.000000
522.057000 10.000000
539.237000 25.000000
539.281000 121.000000
557.283000 55.000000
721.473000 36.000000
763.436000 35.000000
763.476000 136.000000
763.502000 107.000000
763.529000 85.000000
792.995000 40.000000
793.048000 16.000000
795.371000 30.000000
795.513000 15288.000000
795.674000 15.000000
795.761000 25.000000
795.914000 16.000000
796.499000 35.000000
796.554000 16.000000

>ms2
78.959000 70.000000
96.971000 20.000000
152.996000 351.000000
171.008000 212.000000
205.198000 20.000000
209.021000 49.000000
227.030000 183.000000
231.217000 55.000000
243.209000 30.000000
245.042000 30.000000
251.203000 96.000000
254.437000 35.000000
255.231000 4747.000000
259.244000 30.000000
281.245000 75.000000
283.260000 26.000000
285.259000 765.000000
301.215000 20.000000
303.220000 91.000000
303.235000 121.000000
303.251000 35.000000
311.233000 50.000000
327.231000 46.000000
328.219000 50.000000
329.248000 9606.000000
330.256000 22.000000
391.200000 53.000000
391.225000 156.000000
391.253000 20.000000
409.231000 35.000000
433.234000 21.000000
465.239000 101.000000
465.263000 280.000000
483.251000 172.000000
483.273000 600.000000
522.057000 10.000000
539.237000 25.000000
539.281000 121.000000
557.283000 55.000000
721.473000 36.000000
763.436000 35.000000
763.476000 136.000000
763.502000 107.000000
763.529000 85.000000
792.995000 40.000000
793.048000 16.000000
795.371000 30.000000
795.513000 15288.000000
795.674000 15.000000
795.761000 25.000000
795.914000 16.000000
796.499000 35.000000
796.554000 16.000000

