>compound LQB9668031
>parentmass 857.6688
>ionization [M+CH3COOH-H]-
>formula C46H91N2O6P
>rt 702.618600
>profile qtof
#smiles_iso CCCCCCCCCCCCCCCCCCCCCCC(=O)NC(COP(=O)([O-])OCC[N+](C)(C)C)C(/C=C/CC/C=C/CCCCCCCCC)O
#smiles_can CCCCCCCCCCCCCCCCCCCCCCC(=O)NC(COP(=O)([O-])OCC[N+](C)(C)C)C(C=CCCC=CCCCCCCCCC)O
#inchikey PENYJGUXTJATDH-NBGJCBSLSA-N
#pubchem_id 138234396
#mb_accession LQB00383,LQB00769

>ms2peaks
78.959000 152.000000
78.972000 12.000000
96.969000 6.000000
122.987000 16.000000
141.017000 16.000000
168.042000 555.000000
183.014000 5.000000
281.245000 9.000000
283.267000 12.000000
309.278000 12.000000
447.282000 16.000000
447.302000 20.000000
482.733000 4.000000
485.950000 4.000000
498.238000 4.000000
513.980000 4.000000
558.376000 4.000000
630.577000 4.000000
636.586000 4.000000
649.575000 8.000000
653.949000 4.000000
654.590000 4.000000
694.550000 13.000000
712.540000 20.000000
712.577000 10.000000
738.554000 21.000000
781.134000 38.000000
781.183000 10.000000
783.485000 11.000000
783.536000 32.000000
783.621000 14922.000000
783.700000 90.000000
783.760000 12.000000
783.830000 16.000000
784.574000 15.000000
784.626000 32.000000
784.660000 10.000000
797.642000 28.000000
798.543000 28.000000
798.572000 58.000000
798.598000 24.000000
811.568000 11.000000
811.614000 12.000000
811.652000 24.000000
857.607000 52.000000
857.655000 489.000000
857.707000 20.000000

>ms2peaks
78.959000 152.000000
78.972000 12.000000
96.969000 6.000000
122.987000 16.000000
141.017000 16.000000
168.042000 555.000000
183.014000 5.000000
281.245000 9.000000
283.267000 12.000000
309.278000 12.000000
447.282000 16.000000
447.302000 20.000000
482.733000 4.000000
485.950000 4.000000
498.238000 4.000000
513.980000 4.000000
558.376000 4.000000
630.577000 4.000000
636.586000 4.000000
649.575000 8.000000
653.949000 4.000000
654.590000 4.000000
694.550000 13.000000
712.540000 20.000000
712.577000 10.000000
738.554000 21.000000
781.134000 38.000000
781.183000 10.000000
783.485000 11.000000
783.536000 32.000000
783.621000 14922.000000
783.700000 90.000000
783.760000 12.000000
783.830000 16.000000
784.574000 15.000000
784.626000 32.000000
784.660000 10.000000
797.642000 28.000000
798.543000 28.000000
798.572000 58.000000
798.598000 24.000000
811.568000 11.000000
811.614000 12.000000
811.652000 24.000000
857.607000 52.000000
857.655000 489.000000
857.707000 20.000000

