>compound LQB9649366
>parentmass 810.5303
>ionization [M-H]-
>formula C44H78NO10P
>rt 526.720440
>profile qtof
#smiles_iso CCCCCCCCCCCCCCCCCC(=O)OCC(COP(=O)(O)OCC(C(=O)O)N)OC(=O)CCCCCC/C=C\C/C=C\C/C=C\C/C=C\CC
#smiles_can CCCCCCCCCCCCCCCCCC(=O)OCC(COP(=O)(O)OCC(C(=O)O)N)OC(=O)CCCCCCC=CCC=CCC=CCC=CCC
#inchikey IULWELDCBXQXED-ZKVKLVECSA-N
#pubchem_id 138181120
#mb_accession LQB00336,LQB00722

>ms2peaks
78.959000 885.000000
96.968000 182.000000
113.099000 60.000000
134.983000 53.000000
140.009000 60.000000
152.995000 4030.000000
170.998000 81.000000
196.039000 91.000000
205.199000 51.000000
219.142000 50.000000
247.170000 110.000000
255.231000 346.000000
259.245000 326.000000
267.264000 79.000000
275.165000 70.000000
282.371000 103.000000
283.264000 23975.000000
301.243000 92.000000
301.257000 208.000000
303.233000 6563.000000
327.233000 200.000000
329.234000 111.000000
329.253000 90.000000
331.264000 111.000000
345.224000 206.000000
345.243000 1245.000000
347.255000 244.000000
373.278000 124.000000
391.225000 90.000000
409.235000 90.000000
417.938000 71.000000
419.257000 14071.000000
420.262000 114.000000
435.890000 61.000000
437.265000 6357.000000
439.225000 2063.000000
446.291000 121.000000
457.217000 183.000000
457.234000 255.000000
457.259000 133.000000
464.304000 317.000000
464.325000 224.000000
480.307000 50.000000
482.299000 30.000000
492.334000 20.000000
506.279000 20.000000
523.336000 20.000000
524.264000 40.000000
524.325000 35.000000
544.239000 30.000000
547.305000 20.000000
548.269000 33.000000
567.508000 150.000000
721.239000 60.000000
722.478000 130.000000
723.344000 57.000000
723.496000 22032.000000
724.515000 43.000000
736.525000 43.000000
749.520000 43.000000
765.521000 50.000000
792.501000 112.000000
792.538000 204.000000
792.560000 296.000000
792.586000 173.000000
808.007000 83.000000
810.456000 112.000000
810.529000 17026.000000
810.610000 80.000000
810.649000 40.000000
811.514000 84.000000
811.557000 50.000000

>ms2peaks
78.959000 885.000000
96.968000 182.000000
113.099000 60.000000
134.983000 53.000000
140.009000 60.000000
152.995000 4030.000000
170.998000 81.000000
196.039000 91.000000
205.199000 51.000000
219.142000 50.000000
247.170000 110.000000
255.231000 346.000000
259.245000 326.000000
267.264000 79.000000
275.165000 70.000000
282.371000 103.000000
283.264000 23975.000000
301.243000 92.000000
301.257000 208.000000
303.233000 6563.000000
327.233000 200.000000
329.234000 111.000000
329.253000 90.000000
331.264000 111.000000
345.224000 206.000000
345.243000 1245.000000
347.255000 244.000000
373.278000 124.000000
391.225000 90.000000
409.235000 90.000000
417.938000 71.000000
419.257000 14071.000000
420.262000 114.000000
435.890000 61.000000
437.265000 6357.000000
439.225000 2063.000000
446.291000 121.000000
457.217000 183.000000
457.234000 255.000000
457.259000 133.000000
464.304000 317.000000
464.325000 224.000000
480.307000 50.000000
482.299000 30.000000
492.334000 20.000000
506.279000 20.000000
523.336000 20.000000
524.264000 40.000000
524.325000 35.000000
544.239000 30.000000
547.305000 20.000000
548.269000 33.000000
567.508000 150.000000
721.239000 60.000000
722.478000 130.000000
723.344000 57.000000
723.496000 22032.000000
724.515000 43.000000
736.525000 43.000000
749.520000 43.000000
765.521000 50.000000
792.501000 112.000000
792.538000 204.000000
792.560000 296.000000
792.586000 173.000000
808.007000 83.000000
810.456000 112.000000
810.529000 17026.000000
810.610000 80.000000
810.649000 40.000000
811.514000 84.000000
811.557000 50.000000

