>compound LQB9249962
>parentmass 816.5691
>ionization [M-H]-
>formula C44H84NO10P
>rt 596.579580
>profile qtof
#smiles_iso CCCCCCCCCCCCCCCCCC(=O)OCC(COP(=O)(O)OCC(C(=O)O)N)OC(=O)CCCCCCCCC/C=C\CCCCCCCC
#smiles_can CCCCCCCCCCCCCCCCCC(=O)OCC(COP(=O)(O)OCC(C(=O)O)N)OC(=O)CCCCCCCCCC=CCCCCCCCC
#inchikey KVMIIDXBXADXIM-ZPHPHTNESA-N
#pubchem_id 138198087
#mb_accession LQB00334,LQB00720

>ms2
89.024000 184.000000
111.007000 30.000000
113.018000 20.000000
152.994000 193.000000
179.053000 20.000000
258.648000 20.000000
281.245000 203.000000
283.262000 1142.000000
303.231000 131.000000
308.302000 50.000000
309.280000 490.000000
311.293000 581.000000
311.312000 61.000000
339.321000 73.000000
417.228000 63.000000
419.251000 519.000000
419.265000 245.000000
437.249000 91.000000
437.269000 275.000000
445.275000 131.000000
447.272000 193.000000
447.308000 101.000000
463.276000 33.000000
465.299000 111.000000
475.321000 50.000000
564.536000 100.000000
576.542000 33.000000
638.580000 20.000000
726.549000 60.000000
726.594000 101.000000
729.502000 236.000000
729.529000 1101.000000
729.546000 773.000000
729.570000 419.000000
729.598000 92.000000
742.582000 123.000000
748.535000 201.000000
756.609000 65.000000
758.594000 45.000000
816.498000 40.000000
816.545000 523.000000
816.572000 1253.000000
816.601000 462.000000
816.656000 92.000000

>ms2
89.024000 184.000000
111.007000 30.000000
113.018000 20.000000
152.994000 193.000000
179.053000 20.000000
258.648000 20.000000
281.245000 203.000000
283.262000 1142.000000
303.231000 131.000000
308.302000 50.000000
309.280000 490.000000
311.293000 581.000000
311.312000 61.000000
339.321000 73.000000
417.228000 63.000000
419.251000 519.000000
419.265000 245.000000
437.249000 91.000000
437.269000 275.000000
445.275000 131.000000
447.272000 193.000000
447.308000 101.000000
463.276000 33.000000
465.299000 111.000000
475.321000 50.000000
564.536000 100.000000
576.542000 33.000000
638.580000 20.000000
726.549000 60.000000
726.594000 101.000000
729.502000 236.000000
729.529000 1101.000000
729.546000 773.000000
729.570000 419.000000
729.598000 92.000000
742.582000 123.000000
748.535000 201.000000
756.609000 65.000000
758.594000 45.000000
816.498000 40.000000
816.545000 523.000000
816.572000 1253.000000
816.601000 462.000000
816.656000 92.000000

