>compound LQB9164710
>parentmass 881.514
>ionization [M-H]-
>formula C47H79O13P
>rt 494.802360
>profile qtof
#smiles_iso CCCCCCCCCCCCCCCC(=O)OCC(COP(=O)(O)OC1C(C(C(C(C1O)O)O)O)O)OC(=O)CC/C=C\C/C=C\C/C=C\C/C=C\C/C=C\C/C=C\CC
#smiles_can CCCCCCCCCCCCCCCC(=O)OCC(COP(=O)(O)OC1C(C(C(C(C1O)O)O)O)O)OC(=O)CCC=CCC=CCC=CCC=CCC=CCC=CCC
#inchikey FPHAZHKZJQOPBU-LGFBOSHVSA-N
#pubchem_id 138154339
#mb_accession LQB00300,LQB00686

>ms2peaks
78.958000 1041.000000
95.084000 60.000000
96.970000 295.000000
121.099000 63.000000
134.988000 61.000000
152.995000 2178.000000
163.146000 63.000000
175.148000 121.000000
177.091000 60.000000
177.166000 161.000000
189.162000 80.000000
191.173000 112.000000
191.184000 112.000000
203.182000 90.000000
223.000000 2963.000000
229.193000 796.000000
240.257000 154.000000
241.011000 14205.000000
249.187000 166.000000
254.442000 191.000000
255.231000 18675.000000
256.235000 106.000000
257.238000 58.000000
259.021000 1418.000000
279.235000 50.000000
281.236000 57.000000
282.342000 63.000000
283.243000 6406.000000
297.034000 2713.000000
309.209000 60.000000
309.237000 70.000000
315.048000 989.000000
326.212000 121.000000
327.231000 12916.000000
328.232000 58.000000
333.066000 40.000000
390.002000 43.000000
391.176000 52.000000
391.223000 11541.000000
392.223000 163.000000
393.218000 28.000000
409.232000 1040.000000
410.245000 40.000000
437.248000 62.000000
463.221000 1428.000000
479.251000 53.000000
480.304000 43.000000
481.235000 60.000000
491.984000 50.000000
497.244000 120.000000
551.266000 51.000000
551.549000 80.000000
553.200000 50.000000
553.275000 12454.000000
570.276000 42.000000
571.284000 4182.000000
625.238000 351.000000
625.269000 1623.000000
625.295000 436.000000
625.305000 237.000000
625.331000 61.000000
643.257000 132.000000
643.284000 184.000000
643.305000 121.000000
719.407000 53.000000
719.455000 339.000000
719.486000 185.000000
721.412000 43.000000
721.466000 91.000000
721.510000 50.000000
761.482000 40.000000
807.516000 152.000000
807.546000 70.000000
821.554000 43.000000
831.492000 30.000000
849.475000 80.000000
863.528000 70.000000
878.669000 141.000000
878.687000 153.000000
878.716000 388.000000
878.760000 257.000000
878.835000 60.000000
880.063000 63.000000
880.460000 103.000000
880.551000 55.000000
881.278000 66.000000
881.376000 107.000000
881.513000 138546.000000
882.084000 83.000000
882.182000 87.000000
882.494000 203.000000
882.515000 277.000000
882.539000 123.000000
882.567000 81.000000
883.924000 89.000000

>ms2peaks
78.958000 1041.000000
95.084000 60.000000
96.970000 295.000000
121.099000 63.000000
134.988000 61.000000
152.995000 2178.000000
163.146000 63.000000
175.148000 121.000000
177.091000 60.000000
177.166000 161.000000
189.162000 80.000000
191.173000 112.000000
191.184000 112.000000
203.182000 90.000000
223.000000 2963.000000
229.193000 796.000000
240.257000 154.000000
241.011000 14205.000000
249.187000 166.000000
254.442000 191.000000
255.231000 18675.000000
256.235000 106.000000
257.238000 58.000000
259.021000 1418.000000
279.235000 50.000000
281.236000 57.000000
282.342000 63.000000
283.243000 6406.000000
297.034000 2713.000000
309.209000 60.000000
309.237000 70.000000
315.048000 989.000000
326.212000 121.000000
327.231000 12916.000000
328.232000 58.000000
333.066000 40.000000
390.002000 43.000000
391.176000 52.000000
391.223000 11541.000000
392.223000 163.000000
393.218000 28.000000
409.232000 1040.000000
410.245000 40.000000
437.248000 62.000000
463.221000 1428.000000
479.251000 53.000000
480.304000 43.000000
481.235000 60.000000
491.984000 50.000000
497.244000 120.000000
551.266000 51.000000
551.549000 80.000000
553.200000 50.000000
553.275000 12454.000000
570.276000 42.000000
571.284000 4182.000000
625.238000 351.000000
625.269000 1623.000000
625.295000 436.000000
625.305000 237.000000
625.331000 61.000000
643.257000 132.000000
643.284000 184.000000
643.305000 121.000000
719.407000 53.000000
719.455000 339.000000
719.486000 185.000000
721.412000 43.000000
721.466000 91.000000
721.510000 50.000000
761.482000 40.000000
807.516000 152.000000
807.546000 70.000000
821.554000 43.000000
831.492000 30.000000
849.475000 80.000000
863.528000 70.000000
878.669000 141.000000
878.687000 153.000000
878.716000 388.000000
878.760000 257.000000
878.835000 60.000000
880.063000 63.000000
880.460000 103.000000
880.551000 55.000000
881.278000 66.000000
881.376000 107.000000
881.513000 138546.000000
882.084000 83.000000
882.182000 87.000000
882.494000 203.000000
882.515000 277.000000
882.539000 123.000000
882.567000 81.000000
883.924000 89.000000

