>compound LQB9667456
>parentmass 820.6093
>ionization [M+CH3COOH-H]-
>formula C42H84NO8P
>rt 644.547000
>profile qtof
#smiles_iso CCCCCCCCCCCCCCCCCC(=O)OC(COC(=O)CCCCCCCCCCCCCCC)COP(=O)([O-])OCC[N+](C)(C)C
#smiles_can CCCCCCCCCCCCCCCCCC(=O)OC(COC(=O)CCCCCCCCCCCCCCC)COP(=O)([O-])OCC[N+](C)(C)C
#inchikey PZNPLUBHRSSFHT-UHFFFAOYSA-N
#pubchem_id 10147142
#mb_accession LQB00103,LQB00489

>ms2
78.957000 80.000000
168.041000 531.000000
224.066000 509.000000
224.086000 44.000000
242.078000 43.000000
254.434000 132.000000
255.233000 34807.000000
281.244000 62.000000
282.374000 65.000000
283.264000 13324.000000
284.265000 30.000000
331.273000 30.000000
391.217000 40.000000
419.251000 100.000000
424.874000 30.000000
434.305000 63.000000
462.303000 317.000000
480.304000 276.000000
480.332000 101.000000
490.309000 122.000000
490.327000 347.000000
490.354000 143.000000
506.729000 30.000000
508.341000 2161.000000
508.381000 81.000000
564.520000 40.000000
564.575000 33.000000
628.522000 61.000000
673.554000 30.000000
675.505000 93.000000
701.528000 73.000000
744.161000 50.000000
744.225000 111.000000
744.260000 71.000000
745.628000 131.000000
746.269000 30.000000
746.570000 34947.000000
746.647000 128.000000
747.074000 47.000000
747.564000 175.000000
760.629000 50.000000
761.509000 60.000000
761.545000 316.000000
788.574000 31.000000
820.563000 392.000000
820.610000 3069.000000

>ms2
78.957000 80.000000
168.041000 531.000000
224.066000 509.000000
224.086000 44.000000
242.078000 43.000000
254.434000 132.000000
255.233000 34807.000000
281.244000 62.000000
282.374000 65.000000
283.264000 13324.000000
284.265000 30.000000
331.273000 30.000000
391.217000 40.000000
419.251000 100.000000
424.874000 30.000000
434.305000 63.000000
462.303000 317.000000
480.304000 276.000000
480.332000 101.000000
490.309000 122.000000
490.327000 347.000000
490.354000 143.000000
506.729000 30.000000
508.341000 2161.000000
508.381000 81.000000
564.520000 40.000000
564.575000 33.000000
628.522000 61.000000
673.554000 30.000000
675.505000 93.000000
701.528000 73.000000
744.161000 50.000000
744.225000 111.000000
744.260000 71.000000
745.628000 131.000000
746.269000 30.000000
746.570000 34947.000000
746.647000 128.000000
747.074000 47.000000
747.564000 175.000000
760.629000 50.000000
761.509000 60.000000
761.545000 316.000000
788.574000 31.000000
820.563000 392.000000
820.610000 3069.000000

