>compound LQB9951567
>parentmass 766.5347
>ionization [M-H]-
>formula C43H78NO8P
>rt 620.103600
>profile qtof
#smiles_iso CCCCCCCCCCCCCCCCCC(=O)OCC(COP(=O)(O)OCCN)OC(=O)CCCCCC/C=C\C/C=C\C/C=C\C/C=C\CC
#smiles_can CCCCCCCCCCCCCCCCCC(=O)OCC(COP(=O)(O)OCCN)OC(=O)CCCCCCC=CCC=CCC=CCC=CCC
#inchikey YEHAZLUVAZKVRO-ZKVKLVECSA-N
#pubchem_id 138303640
#mb_accession LQB00200,LQB00586

>ms2peaks
78.958000 1299.000000
83.051000 130.000000
93.067000 101.000000
96.967000 288.000000
107.086000 80.000000
121.999000 378.000000
139.585000 69.000000
140.011000 4764.000000
141.089000 71.000000
151.151000 140.000000
152.994000 286.000000
163.075000 285.000000
169.119000 91.000000
177.094000 449.000000
178.024000 183.000000
179.188000 71.000000
183.132000 71.000000
189.161000 100.000000
191.106000 326.000000
195.424000 73.000000
196.037000 6939.000000
203.179000 116.000000
205.195000 3987.000000
211.168000 71.000000
214.046000 776.000000
217.196000 335.000000
219.140000 81.000000
225.186000 110.000000
229.199000 100.000000
231.210000 695.000000
245.153000 70.000000
247.163000 70.000000
257.228000 204.000000
258.437000 138.000000
259.241000 20139.000000
265.252000 120.000000
267.217000 142.000000
273.228000 71.000000
282.358000 111.000000
282.375000 387.000000
282.398000 110.000000
282.748000 63.000000
283.262000 143721.000000
283.555000 55.000000
284.587000 60.000000
285.009000 53.000000
285.220000 1633.000000
287.201000 75.000000
301.213000 408.000000
301.230000 111.000000
302.284000 1233.000000
302.906000 137.000000
303.099000 78.000000
303.144000 198.000000
303.230000 224152.000000
303.560000 105.000000
304.969000 76.000000
307.018000 96.000000
353.324000 74.000000
357.343000 161.000000
381.350000 104.000000
406.265000 214.000000
409.237000 186.000000
419.254000 193.000000
426.235000 142.000000
462.249000 81.000000
462.295000 5655.000000
477.969000 30.000000
478.776000 49.000000
478.804000 106.000000
479.356000 37.000000
479.663000 30.000000
480.303000 28184.000000
480.395000 47.000000
481.306000 51.000000
482.224000 72.000000
482.262000 2359.000000
488.038000 30.000000
500.237000 103.000000
500.271000 1663.000000
565.400000 159.000000
567.520000 85.000000
581.506000 53.000000
606.866000 69.000000
609.945000 64.000000
610.757000 63.000000
614.927000 53.000000
618.784000 53.000000
764.028000 60.000000
764.082000 143.000000
764.109000 286.000000
764.136000 153.000000
764.175000 73.000000
765.584000 73.000000
766.046000 40.000000
766.279000 48.000000
766.401000 102.000000
766.529000 55643.000000
767.484000 40.000000
767.539000 326.000000

>ms2peaks
78.958000 1299.000000
83.051000 130.000000
93.067000 101.000000
96.967000 288.000000
107.086000 80.000000
121.999000 378.000000
139.585000 69.000000
140.011000 4764.000000
141.089000 71.000000
151.151000 140.000000
152.994000 286.000000
163.075000 285.000000
169.119000 91.000000
177.094000 449.000000
178.024000 183.000000
179.188000 71.000000
183.132000 71.000000
189.161000 100.000000
191.106000 326.000000
195.424000 73.000000
196.037000 6939.000000
203.179000 116.000000
205.195000 3987.000000
211.168000 71.000000
214.046000 776.000000
217.196000 335.000000
219.140000 81.000000
225.186000 110.000000
229.199000 100.000000
231.210000 695.000000
245.153000 70.000000
247.163000 70.000000
257.228000 204.000000
258.437000 138.000000
259.241000 20139.000000
265.252000 120.000000
267.217000 142.000000
273.228000 71.000000
282.358000 111.000000
282.375000 387.000000
282.398000 110.000000
282.748000 63.000000
283.262000 143721.000000
283.555000 55.000000
284.587000 60.000000
285.009000 53.000000
285.220000 1633.000000
287.201000 75.000000
301.213000 408.000000
301.230000 111.000000
302.284000 1233.000000
302.906000 137.000000
303.099000 78.000000
303.144000 198.000000
303.230000 224152.000000
303.560000 105.000000
304.969000 76.000000
307.018000 96.000000
353.324000 74.000000
357.343000 161.000000
381.350000 104.000000
406.265000 214.000000
409.237000 186.000000
419.254000 193.000000
426.235000 142.000000
462.249000 81.000000
462.295000 5655.000000
477.969000 30.000000
478.776000 49.000000
478.804000 106.000000
479.356000 37.000000
479.663000 30.000000
480.303000 28184.000000
480.395000 47.000000
481.306000 51.000000
482.224000 72.000000
482.262000 2359.000000
488.038000 30.000000
500.237000 103.000000
500.271000 1663.000000
565.400000 159.000000
567.520000 85.000000
581.506000 53.000000
606.866000 69.000000
609.945000 64.000000
610.757000 63.000000
614.927000 53.000000
618.784000 53.000000
764.028000 60.000000
764.082000 143.000000
764.109000 286.000000
764.136000 153.000000
764.175000 73.000000
765.584000 73.000000
766.046000 40.000000
766.279000 48.000000
766.401000 102.000000
766.529000 55643.000000
767.484000 40.000000
767.539000 326.000000

