>compound LQB9153715
>parentmass 610.5382500000001
>ionization [M+CH3COOH-H]-
>formula C35H69NO3
>rt 614.760900
>profile qtof
#smiles_iso CCCCCCCCCCCCCCCCC(=O)NC(CO)C(/C=C/CCCCCCCCCCCCC)O
#smiles_can CCCCCCCCCCCCCCCCC(=O)NC(CO)C(C=CCCCCCCCCCCCCC)O
#inchikey ICWGMOFDULMCFL-SJCQXOIGSA-N
#pubchem_id 11664003
#mb_accession LQB00030,LQB00031,LQB00416,LQB00417

>ms2peaks
237.222000 50.000000
251.241000 40.000000
263.234000 40.000000
265.252000 20.000000
268.270000 65.000000
269.248000 50.000000
280.266000 30.000000
294.280000 322.000000
502.488000 60.000000
518.492000 75.000000
520.501000 91.000000
550.518000 571.000000

>ms2peaks
223.207000 32.000000
237.220000 28.000000
249.218000 16.000000
251.237000 30.000000
263.232000 22.000000
265.249000 20.000000
265.260000 8.000000
268.263000 30.000000
269.248000 16.000000
282.280000 36.000000
283.260000 19.000000
294.274000 84.000000
294.286000 30.000000
294.294000 10.000000
308.275000 14.000000
308.291000 90.000000
308.322000 6.000000
310.268000 16.000000
324.291000 20.000000
502.507000 28.000000
518.470000 10.000000
518.495000 42.000000
520.491000 12.000000
520.514000 54.000000
550.495000 47.000000
550.515000 337.000000
550.538000 52.000000

>ms2peaks
237.222000 50.000000
251.241000 40.000000
263.234000 40.000000
265.252000 20.000000
268.270000 65.000000
269.248000 50.000000
280.266000 30.000000
294.280000 322.000000
502.488000 60.000000
518.492000 75.000000
520.501000 91.000000
550.518000 571.000000

>ms2peaks
223.207000 32.000000
237.220000 28.000000
249.218000 16.000000
251.237000 30.000000
263.232000 22.000000
265.249000 20.000000
265.260000 8.000000
268.263000 30.000000
269.248000 16.000000
282.280000 36.000000
283.260000 19.000000
294.274000 84.000000
294.286000 30.000000
294.294000 10.000000
308.275000 14.000000
308.291000 90.000000
308.322000 6.000000
310.268000 16.000000
324.291000 20.000000
502.507000 28.000000
518.470000 10.000000
518.495000 42.000000
520.491000 12.000000
520.514000 54.000000
550.495000 47.000000
550.515000 337.000000
550.538000 52.000000

