>compound LQB9829775
>parentmass 750.5046
>ionization [M-H]-
>formula C42H74NO8P
>rt 561.721560
>profile qtof
#smiles_iso CCCCCCCCCCCCCCCCC(=O)OCC(COP(=O)(O)OCCN)OC(=O)CCC/C=C\C/C=C\C/C=C\C/C=C\C/C=C\CC
#smiles_can CCCCCCCCCCCCCCCCC(=O)OCC(COP(=O)(O)OCCN)OC(=O)CCCC=CCC=CCC=CCC=CCC=CCC
#inchikey YRRQJTQXWQBPQK-VZVMVVDZSA-N
#pubchem_id 138307871
#mb_accession LQB00192,LQB00578

>ms2peaks
140.012000 30.000000
196.038000 161.000000
203.179000 103.000000
214.045000 40.000000
229.187000 20.000000
239.231000 20.000000
255.224000 20.000000
257.217000 143.000000
257.230000 254.000000
269.178000 20.000000
269.247000 1063.000000
269.262000 225.000000
287.203000 20.000000
301.213000 2163.000000
301.242000 51.000000
418.257000 30.000000
436.281000 41.000000
448.279000 50.000000
466.288000 315.000000
466.314000 61.000000
480.262000 40.000000
498.253000 30.000000
676.515000 20.000000
748.142000 20.000000
750.377000 41.000000
750.426000 50.000000
750.479000 605.000000
750.509000 1048.000000
750.529000 216.000000
750.537000 133.000000
750.609000 43.000000
751.473000 20.000000

>ms2peaks
140.012000 30.000000
196.038000 161.000000
203.179000 103.000000
214.045000 40.000000
229.187000 20.000000
239.231000 20.000000
255.224000 20.000000
257.217000 143.000000
257.230000 254.000000
269.178000 20.000000
269.247000 1063.000000
269.262000 225.000000
287.203000 20.000000
301.213000 2163.000000
301.242000 51.000000
418.257000 30.000000
436.281000 41.000000
448.279000 50.000000
466.288000 315.000000
466.314000 61.000000
480.262000 40.000000
498.253000 30.000000
676.515000 20.000000
748.142000 20.000000
750.377000 41.000000
750.426000 50.000000
750.479000 605.000000
750.509000 1048.000000
750.529000 216.000000
750.537000 133.000000
750.609000 43.000000
751.473000 20.000000

