>compound LQB9203008
>parentmass 745.5007
>ionization [M-H]-
>formula C40H75O10P
>rt 493.977090
>profile qtof
#smiles_iso CCCCCCCCCCCCCCCC(=O)OCC(COP(=O)(O)OCC(CO)O)OC(=O)CCCCCCC/C=C\C/C=C\CCCCC
#smiles_can CCCCCCCCCCCCCCCC(=O)OCC(COP(=O)(O)OCC(CO)O)OC(=O)CCCCCCCC=CCC=CCCCCC
#inchikey ATBOMIWRCZXYSZ-BCTRXSSUSA-N
#pubchem_id 138121875
#mb_accession LQB00242,LQB00243,LQB00628,LQB00629

>ms2
78.958000 406.000000
96.968000 91.000000
134.985000 51.000000
152.995000 3079.000000
171.005000 1345.000000
209.015000 101.000000
209.026000 215.000000
227.032000 785.000000
245.042000 80.000000
253.205000 131.000000
253.218000 193.000000
254.423000 75.000000
254.439000 106.000000
254.724000 67.000000
255.233000 31430.000000
256.236000 101.000000
261.219000 132.000000
278.343000 91.000000
278.360000 173.000000
278.374000 214.000000
278.954000 71.000000
279.164000 53.000000
279.232000 82688.000000
280.230000 69.000000
281.231000 71.000000
281.247000 439.000000
283.260000 53.000000
391.221000 1854.000000
391.240000 551.000000
409.220000 111.000000
409.245000 111.000000
415.213000 203.000000
415.226000 91.000000
415.246000 91.000000
433.230000 131.000000
451.262000 64.000000
463.249000 52.000000
465.225000 185.000000
465.256000 1727.000000
465.278000 561.000000
479.492000 21.000000
481.273000 21.000000
481.775000 31.000000
483.237000 271.000000
483.273000 3990.000000
489.254000 470.000000
489.271000 397.000000
490.261000 20.000000
507.240000 111.000000
507.268000 348.000000
563.752000 20.000000
671.444000 40.000000
671.478000 84.000000
687.458000 33.000000
713.422000 70.000000
713.439000 81.000000
713.471000 581.000000
713.520000 111.000000
743.124000 122.000000
743.150000 235.000000
743.186000 51.000000
743.588000 35.000000
745.360000 40.000000
745.497000 47638.000000
746.484000 93.000000
746.518000 70.000000
746.604000 43.000000

>ms2
152.997000 94.000000
253.215000 1946.000000
255.232000 1113.000000
279.232000 1121.000000
280.359000 31.000000
280.764000 21.000000
281.233000 559.000000
281.249000 2233.000000
393.155000 23.000000
463.243000 73.000000
481.253000 20.000000
497.285000 20.000000
509.265000 20.000000
588.468000 82.000000
743.134000 20.000000
745.453000 145.000000
745.473000 420.000000
745.500000 2880.000000
745.568000 101.000000

>ms2
78.958000 406.000000
96.968000 91.000000
134.985000 51.000000
152.995000 3079.000000
171.005000 1345.000000
209.015000 101.000000
209.026000 215.000000
227.032000 785.000000
245.042000 80.000000
253.205000 131.000000
253.218000 193.000000
254.423000 75.000000
254.439000 106.000000
254.724000 67.000000
255.233000 31430.000000
256.236000 101.000000
261.219000 132.000000
278.343000 91.000000
278.360000 173.000000
278.374000 214.000000
278.954000 71.000000
279.164000 53.000000
279.232000 82688.000000
280.230000 69.000000
281.231000 71.000000
281.247000 439.000000
283.260000 53.000000
391.221000 1854.000000
391.240000 551.000000
409.220000 111.000000
409.245000 111.000000
415.213000 203.000000
415.226000 91.000000
415.246000 91.000000
433.230000 131.000000
451.262000 64.000000
463.249000 52.000000
465.225000 185.000000
465.256000 1727.000000
465.278000 561.000000
479.492000 21.000000
481.273000 21.000000
481.775000 31.000000
483.237000 271.000000
483.273000 3990.000000
489.254000 470.000000
489.271000 397.000000
490.261000 20.000000
507.240000 111.000000
507.268000 348.000000
563.752000 20.000000
671.444000 40.000000
671.478000 84.000000
687.458000 33.000000
713.422000 70.000000
713.439000 81.000000
713.471000 581.000000
713.520000 111.000000
743.124000 122.000000
743.150000 235.000000
743.186000 51.000000
743.588000 35.000000
745.360000 40.000000
745.497000 47638.000000
746.484000 93.000000
746.518000 70.000000
746.604000 43.000000

>ms2
152.997000 94.000000
253.215000 1946.000000
255.232000 1113.000000
279.232000 1121.000000
280.359000 31.000000
280.764000 21.000000
281.233000 559.000000
281.249000 2233.000000
393.155000 23.000000
463.243000 73.000000
481.253000 20.000000
497.285000 20.000000
509.265000 20.000000
588.468000 82.000000
743.134000 20.000000
745.453000 145.000000
745.473000 420.000000
745.500000 2880.000000
745.568000 101.000000

