>compound LQB9863995
>parentmass 717.4675
>ionization [M-H]-
>formula C38H71O10P
>rt 480.021540
>profile qtof
#smiles_iso CCCCCC/C=C\CCCCCCCC(=O)OCC(COP(=O)(O)OCC(CO)O)OC(=O)CCCCCCC/C=C\CCCCCC
#smiles_can CCCCCCC=CCCCCCCCC(=O)OCC(COP(=O)(O)OCC(CO)O)OC(=O)CCCCCCCC=CCCCCCC
#inchikey GHQNERCMPIDAAU-VMNXYWKNSA-N
#pubchem_id 11607301
#mb_accession LQB00253,LQB00639

>ms2
152.995000 74.000000
171.006000 28.000000
223.093000 27.000000
227.032000 23.000000
227.200000 248.000000
246.997000 10.000000
249.063000 12.000000
251.200000 19.000000
253.216000 1284.000000
255.229000 37.000000
279.232000 703.000000
283.265000 16.000000
328.970000 13.000000
329.022000 7.000000
331.265000 6.000000
363.188000 13.000000
364.247000 6.000000
389.216000 33.000000
407.216000 7.000000
410.975000 19.000000
437.216000 10.000000
455.234000 31.000000
460.306000 6.000000
463.246000 54.000000
473.158000 16.000000
481.250000 43.000000
481.269000 34.000000
487.034000 7.000000
489.258000 15.000000
507.266000 10.000000
618.469000 10.000000
627.521000 18.000000
647.841000 6.000000
657.515000 19.000000
659.459000 9.000000
699.526000 6.000000
715.204000 12.000000
717.434000 259.000000
717.461000 745.000000
717.482000 543.000000
717.500000 177.000000
717.567000 16.000000
718.455000 6.000000

>ms2
152.995000 74.000000
171.006000 28.000000
223.093000 27.000000
227.032000 23.000000
227.200000 248.000000
246.997000 10.000000
249.063000 12.000000
251.200000 19.000000
253.216000 1284.000000
255.229000 37.000000
279.232000 703.000000
283.265000 16.000000
328.970000 13.000000
329.022000 7.000000
331.265000 6.000000
363.188000 13.000000
364.247000 6.000000
389.216000 33.000000
407.216000 7.000000
410.975000 19.000000
437.216000 10.000000
455.234000 31.000000
460.306000 6.000000
463.246000 54.000000
473.158000 16.000000
481.250000 43.000000
481.269000 34.000000
487.034000 7.000000
489.258000 15.000000
507.266000 10.000000
618.469000 10.000000
627.521000 18.000000
647.841000 6.000000
657.515000 19.000000
659.459000 9.000000
699.526000 6.000000
715.204000 12.000000
717.434000 259.000000
717.461000 745.000000
717.482000 543.000000
717.500000 177.000000
717.567000 16.000000
718.455000 6.000000

