>compound LQB9983888
>parentmass 836.524
>ionization [M-H]-
>formula C49H76NO8P
>rt 537.701160
>profile qtof
#smiles_iso CC/C=C\C/C=C\C/C=C\C/C=C\C/C=C\CCCCCC(=O)OCC(COP(=O)(O)OCCN)OC(=O)CC/C=C\C/C=C\C/C=C\C/C=C\C/C=C\C/C=C\CC
#smiles_can CCC=CCC=CCC=CCC=CCC=CCCCCCC(=O)OCC(COP(=O)(O)OCCN)OC(=O)CCC=CCC=CCC=CCC=CCC=CCC=CCC
#inchikey JCLZWTOIRFULGD-SUDBCHAPSA-N
#pubchem_id 138183664
#mb_accession LQB00234,LQB00620

>ms2
78.958000 92.000000
81.071000 8.000000
83.052000 9.000000
93.070000 18.000000
95.085000 9.000000
96.968000 22.000000
105.070000 11.000000
107.081000 11.000000
107.088000 24.000000
109.099000 17.000000
117.068000 17.000000
119.089000 12.000000
121.102000 40.000000
122.001000 26.000000
123.120000 13.000000
131.085000 13.000000
133.101000 39.000000
135.117000 30.000000
137.129000 10.000000
137.141000 8.000000
140.011000 270.000000
143.084000 8.000000
147.117000 23.000000
149.057000 9.000000
149.127000 11.000000
149.136000 16.000000
151.146000 13.000000
152.995000 103.000000
159.117000 8.000000
161.131000 23.000000
163.075000 16.000000
163.148000 32.000000
167.107000 10.000000
173.135000 11.000000
175.148000 33.000000
177.086000 18.000000
177.098000 9.000000
177.165000 133.000000
178.029000 16.000000
181.122000 16.000000
187.147000 13.000000
189.161000 21.000000
189.171000 19.000000
191.103000 8.000000
191.112000 8.000000
191.178000 105.000000
195.135000 18.000000
196.037000 473.000000
199.152000 11.000000
201.163000 19.000000
203.105000 9.000000
203.180000 38.000000
205.123000 11.000000
205.204000 8.000000
207.134000 12.000000
213.164000 8.000000
214.047000 47.000000
215.179000 13.000000
217.121000 19.000000
217.197000 17.000000
219.145000 12.000000
221.155000 8.000000
227.174000 9.000000
229.195000 587.000000
231.138000 15.000000
231.209000 78.000000
241.196000 23.000000
245.156000 18.000000
249.184000 152.000000
251.198000 36.000000
255.213000 38.000000
255.234000 13.000000
255.245000 9.000000
257.154000 14.000000
257.217000 10.000000
259.168000 9.000000
273.184000 9.000000
279.232000 9.000000
281.225000 22.000000
282.346000 12.000000
282.369000 17.000000
283.241000 4590.000000
283.266000 419.000000
285.257000 452.000000
297.223000 42.000000
301.206000 13.000000
301.223000 9.000000
303.225000 9.000000
309.206000 10.000000
309.221000 55.000000
311.229000 16.000000
311.243000 16.000000
325.215000 10.000000
326.190000 24.000000
326.207000 30.000000
327.231000 11006.000000
327.286000 12.000000
327.342000 8.000000
328.219000 42.000000
328.243000 21.000000
329.247000 6968.000000
330.252000 11.000000
419.255000 408.000000
420.238000 11.000000
421.236000 9.000000
421.269000 17.000000
437.267000 156.000000
438.287000 9.000000
439.257000 16.000000
450.222000 7.000000
450.244000 9.000000
452.249000 20.000000
463.227000 9.000000
464.213000 12.000000
465.236000 60.000000
465.254000 19.000000
465.268000 8.000000
480.318000 4.000000
483.254000 9.000000
506.260000 108.000000
506.284000 16.000000
506.303000 5.000000
508.280000 446.000000
524.258000 47.000000
524.278000 112.000000
524.323000 10.000000
524.634000 12.000000
526.286000 2661.000000
527.290000 10.000000
552.285000 4.000000
657.735000 8.000000
676.496000 13.000000
747.163000 9.000000
747.505000 6.000000
748.487000 12.000000
749.473000 80.000000
749.508000 786.000000
754.549000 7.000000
762.513000 8.000000
762.549000 7.000000
764.494000 9.000000
764.539000 17.000000
765.517000 7.000000
776.515000 6.000000
804.497000 9.000000
804.530000 8.000000
818.511000 6.000000
833.823000 11.000000
833.855000 33.000000
833.885000 17.000000
833.899000 14.000000
833.974000 7.000000
835.604000 6.000000
835.913000 6.000000
836.076000 9.000000
836.175000 6.000000
836.304000 5.000000
836.438000 56.000000
836.520000 15105.000000
837.489000 21.000000
837.516000 44.000000
837.554000 19.000000
838.019000 6.000000

>ms2
78.958000 92.000000
81.071000 8.000000
83.052000 9.000000
93.070000 18.000000
95.085000 9.000000
96.968000 22.000000
105.070000 11.000000
107.081000 11.000000
107.088000 24.000000
109.099000 17.000000
117.068000 17.000000
119.089000 12.000000
121.102000 40.000000
122.001000 26.000000
123.120000 13.000000
131.085000 13.000000
133.101000 39.000000
135.117000 30.000000
137.129000 10.000000
137.141000 8.000000
140.011000 270.000000
143.084000 8.000000
147.117000 23.000000
149.057000 9.000000
149.127000 11.000000
149.136000 16.000000
151.146000 13.000000
152.995000 103.000000
159.117000 8.000000
161.131000 23.000000
163.075000 16.000000
163.148000 32.000000
167.107000 10.000000
173.135000 11.000000
175.148000 33.000000
177.086000 18.000000
177.098000 9.000000
177.165000 133.000000
178.029000 16.000000
181.122000 16.000000
187.147000 13.000000
189.161000 21.000000
189.171000 19.000000
191.103000 8.000000
191.112000 8.000000
191.178000 105.000000
195.135000 18.000000
196.037000 473.000000
199.152000 11.000000
201.163000 19.000000
203.105000 9.000000
203.180000 38.000000
205.123000 11.000000
205.204000 8.000000
207.134000 12.000000
213.164000 8.000000
214.047000 47.000000
215.179000 13.000000
217.121000 19.000000
217.197000 17.000000
219.145000 12.000000
221.155000 8.000000
227.174000 9.000000
229.195000 587.000000
231.138000 15.000000
231.209000 78.000000
241.196000 23.000000
245.156000 18.000000
249.184000 152.000000
251.198000 36.000000
255.213000 38.000000
255.234000 13.000000
255.245000 9.000000
257.154000 14.000000
257.217000 10.000000
259.168000 9.000000
273.184000 9.000000
279.232000 9.000000
281.225000 22.000000
282.346000 12.000000
282.369000 17.000000
283.241000 4590.000000
283.266000 419.000000
285.257000 452.000000
297.223000 42.000000
301.206000 13.000000
301.223000 9.000000
303.225000 9.000000
309.206000 10.000000
309.221000 55.000000
311.229000 16.000000
311.243000 16.000000
325.215000 10.000000
326.190000 24.000000
326.207000 30.000000
327.231000 11006.000000
327.286000 12.000000
327.342000 8.000000
328.219000 42.000000
328.243000 21.000000
329.247000 6968.000000
330.252000 11.000000
419.255000 408.000000
420.238000 11.000000
421.236000 9.000000
421.269000 17.000000
437.267000 156.000000
438.287000 9.000000
439.257000 16.000000
450.222000 7.000000
450.244000 9.000000
452.249000 20.000000
463.227000 9.000000
464.213000 12.000000
465.236000 60.000000
465.254000 19.000000
465.268000 8.000000
480.318000 4.000000
483.254000 9.000000
506.260000 108.000000
506.284000 16.000000
506.303000 5.000000
508.280000 446.000000
524.258000 47.000000
524.278000 112.000000
524.323000 10.000000
524.634000 12.000000
526.286000 2661.000000
527.290000 10.000000
552.285000 4.000000
657.735000 8.000000
676.496000 13.000000
747.163000 9.000000
747.505000 6.000000
748.487000 12.000000
749.473000 80.000000
749.508000 786.000000
754.549000 7.000000
762.513000 8.000000
762.549000 7.000000
764.494000 9.000000
764.539000 17.000000
765.517000 7.000000
776.515000 6.000000
804.497000 9.000000
804.530000 8.000000
818.511000 6.000000
833.823000 11.000000
833.855000 33.000000
833.885000 17.000000
833.899000 14.000000
833.974000 7.000000
835.604000 6.000000
835.913000 6.000000
836.076000 9.000000
836.175000 6.000000
836.304000 5.000000
836.438000 56.000000
836.520000 15105.000000
837.489000 21.000000
837.516000 44.000000
837.554000 19.000000
838.019000 6.000000

