>compound LQB9136774
>parentmass 838.5547
>ionization [M-H]-
>formula C46H82NO10P
>rt 551.379060
>profile qtof
#smiles_iso CCCCCCCCCCCCCCCCCC(=O)OCC(COP(=O)(O)OCC(C(=O)O)N)OC(=O)CCCCCCCC/C=C\C/C=C\C/C=C\C/C=C\CC
#smiles_can CCCCCCCCCCCCCCCCCC(=O)OCC(COP(=O)(O)OCC(C(=O)O)N)OC(=O)CCCCCCCCC=CCC=CCC=CCC=CCC
#inchikey LJUFXCVFKSJRPV-PYQGTGCGSA-N
#pubchem_id 138202734
#mb_accession LQB00338,LQB00724

>ms2
78.958000 267.000000
96.967000 80.000000
134.985000 51.000000
152.978000 94.000000
152.995000 1518.000000
241.001000 50.000000
255.232000 50.000000
256.231000 40.000000
275.209000 32.000000
282.366000 39.000000
283.263000 10940.000000
283.303000 56.000000
284.268000 169.000000
285.265000 88.000000
287.268000 50.000000
299.039000 60.000000
327.225000 40.000000
329.249000 71.000000
330.239000 83.000000
331.262000 2557.000000
331.293000 52.000000
419.216000 62.000000
419.254000 5306.000000
420.257000 116.000000
437.232000 113.000000
437.265000 2807.000000
467.252000 1274.000000
467.284000 92.000000
485.246000 70.000000
485.269000 254.000000
489.301000 20.000000
524.288000 23.000000
553.262000 141.000000
554.240000 40.000000
554.263000 173.000000
554.293000 40.000000
557.086000 20.000000
581.310000 176.000000
582.280000 147.000000
582.310000 142.000000
582.338000 30.000000
610.304000 20.000000
676.504000 50.000000
749.143000 40.000000
750.509000 30.000000
751.526000 11892.000000
751.617000 69.000000
752.528000 75.000000
835.915000 131.000000
837.526000 131.000000
837.580000 60.000000
838.347000 52.000000
838.433000 57.000000
838.544000 36213.000000
838.638000 213.000000
839.538000 134.000000
840.003000 38.000000

>ms2
78.958000 267.000000
96.967000 80.000000
134.985000 51.000000
152.978000 94.000000
152.995000 1518.000000
241.001000 50.000000
255.232000 50.000000
256.231000 40.000000
275.209000 32.000000
282.366000 39.000000
283.263000 10940.000000
283.303000 56.000000
284.268000 169.000000
285.265000 88.000000
287.268000 50.000000
299.039000 60.000000
327.225000 40.000000
329.249000 71.000000
330.239000 83.000000
331.262000 2557.000000
331.293000 52.000000
419.216000 62.000000
419.254000 5306.000000
420.257000 116.000000
437.232000 113.000000
437.265000 2807.000000
467.252000 1274.000000
467.284000 92.000000
485.246000 70.000000
485.269000 254.000000
489.301000 20.000000
524.288000 23.000000
553.262000 141.000000
554.240000 40.000000
554.263000 173.000000
554.293000 40.000000
557.086000 20.000000
581.310000 176.000000
582.280000 147.000000
582.310000 142.000000
582.338000 30.000000
610.304000 20.000000
676.504000 50.000000
749.143000 40.000000
750.509000 30.000000
751.526000 11892.000000
751.617000 69.000000
752.528000 75.000000
835.915000 131.000000
837.526000 131.000000
837.580000 60.000000
838.347000 52.000000
838.433000 57.000000
838.544000 36213.000000
838.638000 213.000000
839.538000 134.000000
840.003000 38.000000

