>compound LQB9242585
>parentmass 721.4993
>ionization [M-H]-
>formula C38H75O10P
>rt 514.700160
>profile qtof
#smiles_iso CCCCCCCCCCCCCCCC(=O)OCC(COP(=O)(O)OCC(CO)O)OC(=O)CCCCCCCCCCCCCCC
#smiles_can CCCCCCCCCCCCCCCC(=O)OCC(COP(=O)(O)OCC(CO)O)OC(=O)CCCCCCCCCCCCCCC
#inchikey BIABMEZBCHDPBV-UHFFFAOYSA-N
#pubchem_id 65144
#mb_accession LQB00237,LQB00623

>ms2
78.959000 694.000000
96.970000 100.000000
134.985000 73.000000
152.995000 3350.000000
171.005000 1756.000000
209.021000 541.000000
227.032000 1163.000000
227.199000 141.000000
237.220000 112.000000
245.037000 90.000000
254.413000 81.000000
254.428000 209.000000
254.439000 413.000000
255.030000 63.000000
255.103000 138.000000
255.233000 134330.000000
256.233000 121.000000
283.270000 40.000000
303.241000 61.000000
391.189000 174.000000
391.223000 4139.000000
400.975000 33.000000
409.218000 153.000000
409.249000 112.000000
433.227000 50.000000
440.175000 31.000000
463.792000 31.000000
465.247000 1808.000000
465.264000 3083.000000
465.285000 484.000000
481.757000 21.000000
483.235000 263.000000
483.274000 5890.000000
484.274000 21.000000
486.599000 20.000000
487.196000 20.000000
509.331000 96.000000
510.126000 113.000000
647.449000 131.000000
647.499000 60.000000
689.458000 204.000000
689.494000 234.000000
719.172000 101.000000
719.205000 163.000000
719.239000 236.000000
719.300000 62.000000
720.865000 39.000000
721.183000 33.000000
721.499000 52731.000000
722.260000 39.000000
722.512000 110.000000

>ms2
78.959000 694.000000
96.970000 100.000000
134.985000 73.000000
152.995000 3350.000000
171.005000 1756.000000
209.021000 541.000000
227.032000 1163.000000
227.199000 141.000000
237.220000 112.000000
245.037000 90.000000
254.413000 81.000000
254.428000 209.000000
254.439000 413.000000
255.030000 63.000000
255.103000 138.000000
255.233000 134330.000000
256.233000 121.000000
283.270000 40.000000
303.241000 61.000000
391.189000 174.000000
391.223000 4139.000000
400.975000 33.000000
409.218000 153.000000
409.249000 112.000000
433.227000 50.000000
440.175000 31.000000
463.792000 31.000000
465.247000 1808.000000
465.264000 3083.000000
465.285000 484.000000
481.757000 21.000000
483.235000 263.000000
483.274000 5890.000000
484.274000 21.000000
486.599000 20.000000
487.196000 20.000000
509.331000 96.000000
510.126000 113.000000
647.449000 131.000000
647.499000 60.000000
689.458000 204.000000
689.494000 234.000000
719.172000 101.000000
719.205000 163.000000
719.239000 236.000000
719.300000 62.000000
720.865000 39.000000
721.183000 33.000000
721.499000 52731.000000
722.260000 39.000000
722.512000 110.000000

