>compound LQB9949178
>parentmass 820.5176
>ionization [M-H]-
>formula C45H76NO10P
>rt 509.389140
>profile qtof
#smiles_iso CCCCCCCCCCCCCCCCC(=O)OCC(COP(=O)(O)OCC(C(=O)O)N)OC(=O)CC/C=C\C/C=C\C/C=C\C/C=C\C/C=C\C/C=C\CC
#smiles_can CCCCCCCCCCCCCCCCC(=O)OCC(COP(=O)(O)OCC(C(=O)O)N)OC(=O)CCC=CCC=CCC=CCC=CCC=CCC=CCC
#inchikey JDWLFPUFMDBHEL-KAFSZNKPSA-N
#pubchem_id 138184086
#mb_accession LQB00332,LQB00718

>ms2
78.958000 45.000000
152.997000 111.000000
171.014000 11.000000
241.011000 15.000000
255.232000 30.000000
269.231000 111.000000
269.250000 904.000000
279.232000 35.000000
281.250000 181.000000
283.238000 70.000000
283.265000 85.000000
297.234000 35.000000
297.280000 25.000000
327.221000 45.000000
327.237000 115.000000
377.242000 50.000000
391.224000 25.000000
405.210000 45.000000
405.235000 305.000000
405.249000 162.000000
423.228000 55.000000
423.256000 187.000000
463.215000 55.000000
463.231000 40.000000
478.286000 40.000000
478.310000 45.000000
480.304000 36.000000
481.191000 10.000000
481.231000 16.000000
539.308000 10.000000
540.318000 10.000000
558.302000 10.000000
626.550000 10.000000
627.528000 100.000000
628.515000 110.000000
628.545000 21.000000
658.587000 50.000000
673.420000 16.000000
715.486000 16.000000
732.507000 11.000000
733.446000 111.000000
733.473000 549.000000
733.498000 301.000000
746.503000 60.000000
760.616000 65.000000
788.496000 36.000000
802.508000 20.000000
820.458000 70.000000
820.481000 101.000000
820.521000 865.000000
820.552000 204.000000
820.576000 81.000000
820.613000 60.000000
820.635000 35.000000
821.528000 16.000000

>ms2
78.958000 45.000000
152.997000 111.000000
171.014000 11.000000
241.011000 15.000000
255.232000 30.000000
269.231000 111.000000
269.250000 904.000000
279.232000 35.000000
281.250000 181.000000
283.238000 70.000000
283.265000 85.000000
297.234000 35.000000
297.280000 25.000000
327.221000 45.000000
327.237000 115.000000
377.242000 50.000000
391.224000 25.000000
405.210000 45.000000
405.235000 305.000000
405.249000 162.000000
423.228000 55.000000
423.256000 187.000000
463.215000 55.000000
463.231000 40.000000
478.286000 40.000000
478.310000 45.000000
480.304000 36.000000
481.191000 10.000000
481.231000 16.000000
539.308000 10.000000
540.318000 10.000000
558.302000 10.000000
626.550000 10.000000
627.528000 100.000000
628.515000 110.000000
628.545000 21.000000
658.587000 50.000000
673.420000 16.000000
715.486000 16.000000
732.507000 11.000000
733.446000 111.000000
733.473000 549.000000
733.498000 301.000000
746.503000 60.000000
760.616000 65.000000
788.496000 36.000000
802.508000 20.000000
820.458000 70.000000
820.481000 101.000000
820.521000 865.000000
820.552000 204.000000
820.576000 81.000000
820.613000 60.000000
820.635000 35.000000
821.528000 16.000000

