>compound LQB9738121
>parentmass 878.5001
>ionization [M-H]-
>formula C50H74NO10P
>rt 482.321460
>profile qtof
#smiles_iso CC/C=C\C/C=C\C/C=C\C/C=C\C/C=C\C/C=C\CCC(=O)OCC(COP(=O)(O)OCC(C(=O)O)N)OC(=O)CC/C=C\C/C=C\C/C=C\C/C=C\C/C=C\C/C=C\CC
#smiles_can CCC=CCC=CCC=CCC=CCC=CCC=CCCC(=O)OCC(COP(=O)(O)OCC(C(=O)O)N)OC(=O)CCC=CCC=CCC=CCC=CCC=CCC=CCC
#inchikey RJCZACBLQGCNCW-GZSOIYOPSA-N
#pubchem_id 9832667
#mb_accession LQB00346,LQB00732

>ms2
78.954000 40.000000
78.964000 64.000000
96.972000 30.000000
152.995000 562.000000
171.002000 20.000000
229.199000 50.000000
249.181000 20.000000
255.236000 20.000000
283.239000 724.000000
285.270000 21.000000
312.317000 21.000000
327.220000 398.000000
327.225000 553.000000
327.235000 1475.000000
327.245000 311.000000
437.269000 21.000000
445.275000 21.000000
449.223000 21.000000
461.819000 21.000000
463.206000 394.000000
463.221000 2037.000000
463.234000 602.000000
481.222000 173.000000
481.235000 723.000000
481.247000 173.000000
481.253000 143.000000
490.025000 20.000000
791.414000 153.000000
791.422000 217.000000
791.442000 600.000000
791.465000 3087.000000
791.489000 444.000000
791.509000 218.000000
791.517000 112.000000
878.444000 247.000000
878.477000 1158.000000
878.492000 735.000000
878.507000 1522.000000
878.521000 442.000000
878.593000 816.000000
878.613000 265.000000
878.635000 358.000000
878.668000 51.000000

>ms2
78.954000 40.000000
78.964000 64.000000
96.972000 30.000000
152.995000 562.000000
171.002000 20.000000
229.199000 50.000000
249.181000 20.000000
255.236000 20.000000
283.239000 724.000000
285.270000 21.000000
312.317000 21.000000
327.220000 398.000000
327.225000 553.000000
327.235000 1475.000000
327.245000 311.000000
437.269000 21.000000
445.275000 21.000000
449.223000 21.000000
461.819000 21.000000
463.206000 394.000000
463.221000 2037.000000
463.234000 602.000000
481.222000 173.000000
481.235000 723.000000
481.247000 173.000000
481.253000 143.000000
490.025000 20.000000
791.414000 153.000000
791.422000 217.000000
791.442000 600.000000
791.465000 3087.000000
791.489000 444.000000
791.509000 218.000000
791.517000 112.000000
878.444000 247.000000
878.477000 1158.000000
878.492000 735.000000
878.507000 1522.000000
878.521000 442.000000
878.593000 816.000000
878.613000 265.000000
878.635000 358.000000
878.668000 51.000000

