>compound LQB9473632
>parentmass 762.5054
>ionization [M-H]-
>formula C43H74NO8P
>rt 545.763120
>profile qtof
#smiles_iso CCCCCCCC/C=C\CCCCCCCC(=O)OCC(COP(=O)(O)OCCN)OC(=O)CCC/C=C\C/C=C\C/C=C\C/C=C\C/C=C\CC
#smiles_can CCCCCCCCC=CCCCCCCCC(=O)OCC(COP(=O)(O)OCCN)OC(=O)CCCC=CCC=CCC=CCC=CCC=CCC
#inchikey AMKOUQLHUASJMB-HHHWHCSPSA-N
#pubchem_id 138119793
#mb_accession LQB00214,LQB00600

>ms2
78.958000 224.000000
121.999000 60.000000
140.012000 592.000000
152.998000 50.000000
163.079000 50.000000
168.037000 81.000000
168.046000 173.000000
177.094000 95.000000
177.159000 83.000000
196.036000 979.000000
203.176000 683.000000
214.048000 82.000000
215.178000 71.000000
223.169000 285.000000
229.192000 170.000000
231.135000 60.000000
255.233000 154.000000
256.415000 69.000000
257.227000 4659.000000
279.235000 122.000000
280.356000 103.000000
280.374000 88.000000
281.248000 19898.000000
283.198000 127.000000
283.216000 82.000000
299.201000 70.000000
300.263000 81.000000
300.278000 137.000000
301.215000 25758.000000
303.209000 53.000000
303.227000 154.000000
303.239000 146.000000
327.222000 40.000000
460.263000 255.000000
460.286000 469.000000
460.311000 62.000000
478.290000 3950.000000
480.238000 173.000000
480.265000 132.000000
498.256000 173.000000
498.289000 70.000000
565.506000 50.000000
675.482000 20.000000
687.523000 122.000000
687.553000 81.000000
688.535000 1030.000000
688.583000 174.000000
703.511000 33.000000
760.080000 80.000000
762.129000 22.000000
762.501000 19823.000000
762.567000 183.000000
763.318000 23.000000

>ms2
78.958000 224.000000
121.999000 60.000000
140.012000 592.000000
152.998000 50.000000
163.079000 50.000000
168.037000 81.000000
168.046000 173.000000
177.094000 95.000000
177.159000 83.000000
196.036000 979.000000
203.176000 683.000000
214.048000 82.000000
215.178000 71.000000
223.169000 285.000000
229.192000 170.000000
231.135000 60.000000
255.233000 154.000000
256.415000 69.000000
257.227000 4659.000000
279.235000 122.000000
280.356000 103.000000
280.374000 88.000000
281.248000 19898.000000
283.198000 127.000000
283.216000 82.000000
299.201000 70.000000
300.263000 81.000000
300.278000 137.000000
301.215000 25758.000000
303.209000 53.000000
303.227000 154.000000
303.239000 146.000000
327.222000 40.000000
460.263000 255.000000
460.286000 469.000000
460.311000 62.000000
478.290000 3950.000000
480.238000 173.000000
480.265000 132.000000
498.256000 173.000000
498.289000 70.000000
565.506000 50.000000
675.482000 20.000000
687.523000 122.000000
687.553000 81.000000
688.535000 1030.000000
688.583000 174.000000
703.511000 33.000000
760.080000 80.000000
762.129000 22.000000
762.501000 19823.000000
762.567000 183.000000
763.318000 23.000000

