>compound LQB9164190
>parentmass 724.6471
>ionization [M+CH3COOH-H]-
>formula C42H83NO4
>rt 791.646000
>profile qtof
#smiles_iso CCCCCCCCCCCCCCCCCCCCCCC(C(=O)NC(CO)C(/C=C/CCCCCCCCCCCCC)O)O
#smiles_can CCCCCCCCCCCCCCCCCCCCCCC(C(=O)NC(CO)C(C=CCCCCCCCCCCCCC)O)O
#inchikey WAYLDHLWVYQNSQ-JMUUFCRMSA-N
#pubchem_id 11636054
#mb_accession LQB00012,LQB00398

>ms2peaks
217.002000 73.000000
232.961000 50.000000
235.199000 59.000000
237.220000 1317.000000
239.220000 71.000000
239.240000 572.000000
246.978000 50.000000
248.237000 50.000000
250.235000 61.000000
250.252000 448.000000
250.265000 194.000000
251.238000 75.000000
255.229000 122.000000
262.250000 131.000000
262.272000 50.000000
263.236000 937.000000
263.258000 61.000000
265.243000 63.000000
266.248000 1214.000000
267.233000 72.000000
267.258000 50.000000
268.262000 2188.000000
269.248000 50.000000
278.244000 171.000000
280.263000 775.000000
290.247000 438.000000
296.259000 61.000000
298.273000 1092.000000
308.260000 187.000000
309.311000 71.000000
314.962000 70.000000
326.264000 122.000000
328.979000 80.000000
335.334000 194.000000
337.346000 7279.000000
338.354000 62.000000
351.366000 264.000000
364.358000 128.000000
365.342000 2726.000000
367.346000 121.000000
367.372000 80.000000
372.358000 60.000000
378.368000 192.000000
378.386000 102.000000
379.374000 35.000000
382.366000 1480.000000
383.352000 3309.000000
390.372000 1113.000000
394.361000 110.000000
396.387000 60.000000
406.365000 153.000000
408.383000 6737.000000
423.365000 184.000000
423.386000 82.000000
424.341000 92.000000
424.378000 2981.000000
426.392000 951.000000
436.381000 71.000000
598.585000 224.000000
598.619000 70.000000
614.591000 90.000000
616.545000 102.000000
616.596000 3627.000000
616.618000 750.000000
616.653000 97.000000
618.622000 60.000000
628.589000 234.000000
628.620000 91.000000
632.573000 298.000000
632.601000 906.000000
632.646000 61.000000
634.568000 112.000000
634.600000 613.000000
634.618000 551.000000
636.597000 132.000000
636.630000 204.000000
636.661000 92.000000
646.567000 146.000000
646.609000 2569.000000
662.509000 81.000000
662.526000 225.000000
662.554000 111.000000
662.582000 71.000000
664.624000 73244.000000
665.111000 66.000000
665.585000 64.000000
665.623000 201.000000
665.641000 102.000000
671.573000 79.000000
724.506000 23.000000
724.565000 30.000000

>ms2peaks
217.002000 73.000000
232.961000 50.000000
235.199000 59.000000
237.220000 1317.000000
239.220000 71.000000
239.240000 572.000000
246.978000 50.000000
248.237000 50.000000
250.235000 61.000000
250.252000 448.000000
250.265000 194.000000
251.238000 75.000000
255.229000 122.000000
262.250000 131.000000
262.272000 50.000000
263.236000 937.000000
263.258000 61.000000
265.243000 63.000000
266.248000 1214.000000
267.233000 72.000000
267.258000 50.000000
268.262000 2188.000000
269.248000 50.000000
278.244000 171.000000
280.263000 775.000000
290.247000 438.000000
296.259000 61.000000
298.273000 1092.000000
308.260000 187.000000
309.311000 71.000000
314.962000 70.000000
326.264000 122.000000
328.979000 80.000000
335.334000 194.000000
337.346000 7279.000000
338.354000 62.000000
351.366000 264.000000
364.358000 128.000000
365.342000 2726.000000
367.346000 121.000000
367.372000 80.000000
372.358000 60.000000
378.368000 192.000000
378.386000 102.000000
379.374000 35.000000
382.366000 1480.000000
383.352000 3309.000000
390.372000 1113.000000
394.361000 110.000000
396.387000 60.000000
406.365000 153.000000
408.383000 6737.000000
423.365000 184.000000
423.386000 82.000000
424.341000 92.000000
424.378000 2981.000000
426.392000 951.000000
436.381000 71.000000
598.585000 224.000000
598.619000 70.000000
614.591000 90.000000
616.545000 102.000000
616.596000 3627.000000
616.618000 750.000000
616.653000 97.000000
618.622000 60.000000
628.589000 234.000000
628.620000 91.000000
632.573000 298.000000
632.601000 906.000000
632.646000 61.000000
634.568000 112.000000
634.600000 613.000000
634.618000 551.000000
636.597000 132.000000
636.630000 204.000000
636.661000 92.000000
646.567000 146.000000
646.609000 2569.000000
662.509000 81.000000
662.526000 225.000000
662.554000 111.000000
662.582000 71.000000
664.624000 73244.000000
665.111000 66.000000
665.585000 64.000000
665.623000 201.000000
665.641000 102.000000
671.573000 79.000000
724.506000 23.000000
724.565000 30.000000

