>compound LQB9698078
>parentmass 857.5197
>ionization [M-H]-
>formula C45H79O13P
>rt 498.100140
>profile qtof
#smiles_iso CCCCCCCCCCCCCCCC(=O)OCC(COP(=O)(O)OC1C(C(C(C(C1O)O)O)O)O)OC(=O)CCCCCC/C=C\C/C=C\C/C=C\C/C=C\CC
#smiles_can CCCCCCCCCCCCCCCC(=O)OCC(COP(=O)(O)OC1C(C(C(C(C1O)O)O)O)O)OC(=O)CCCCCCC=CCC=CCC=CCC=CCC
#inchikey VWRYMIZQLPXULA-JAXHXWBXSA-N
#pubchem_id 138284476
#mb_accession LQB00297,LQB00683

>ms2
78.958000 1195.000000
96.969000 429.000000
134.984000 152.000000
152.530000 58.000000
152.996000 2814.000000
171.004000 81.000000
177.090000 91.000000
191.107000 100.000000
204.992000 70.000000
205.126000 83.000000
205.195000 450.000000
217.192000 60.000000
223.000000 5473.000000
225.191000 54.000000
231.213000 177.000000
240.272000 151.000000
241.011000 22210.000000
254.443000 103.000000
255.232000 24832.000000
259.021000 1925.000000
259.230000 432.000000
259.243000 2400.000000
285.221000 235.000000
295.904000 42.000000
297.037000 3926.000000
299.620000 41.000000
301.225000 80.000000
302.287000 97.000000
302.335000 73.000000
303.232000 30661.000000
303.267000 151.000000
315.012000 41.000000
315.047000 1775.000000
390.014000 94.000000
391.224000 16064.000000
392.222000 69.000000
409.234000 1734.000000
439.221000 1685.000000
439.244000 451.000000
457.233000 63.000000
470.998000 43.000000
472.618000 56.000000
478.127000 55.000000
481.134000 43.000000
497.248000 182.000000
501.583000 43.000000
502.324000 43.000000
507.189000 50.000000
515.573000 40.000000
551.537000 132.000000
552.875000 48.000000
553.275000 18305.000000
554.324000 45.000000
571.254000 435.000000
571.285000 4401.000000
601.269000 3385.000000
601.313000 145.000000
619.273000 420.000000
619.309000 101.000000
695.440000 92.000000
695.465000 133.000000
695.483000 81.000000
797.674000 45.000000
854.763000 307.000000
854.812000 468.000000
854.839000 377.000000
854.895000 60.000000
855.411000 53.000000
856.333000 50.000000
856.512000 70.000000
856.575000 81.000000
857.102000 50.000000
857.309000 113.000000
857.397000 126.000000
857.513000 156772.000000
857.625000 305.000000
858.247000 85.000000
858.380000 82.000000
858.499000 290.000000
858.530000 429.000000
858.574000 135.000000
858.716000 46.000000

>ms2
78.958000 1195.000000
96.969000 429.000000
134.984000 152.000000
152.530000 58.000000
152.996000 2814.000000
171.004000 81.000000
177.090000 91.000000
191.107000 100.000000
204.992000 70.000000
205.126000 83.000000
205.195000 450.000000
217.192000 60.000000
223.000000 5473.000000
225.191000 54.000000
231.213000 177.000000
240.272000 151.000000
241.011000 22210.000000
254.443000 103.000000
255.232000 24832.000000
259.021000 1925.000000
259.230000 432.000000
259.243000 2400.000000
285.221000 235.000000
295.904000 42.000000
297.037000 3926.000000
299.620000 41.000000
301.225000 80.000000
302.287000 97.000000
302.335000 73.000000
303.232000 30661.000000
303.267000 151.000000
315.012000 41.000000
315.047000 1775.000000
390.014000 94.000000
391.224000 16064.000000
392.222000 69.000000
409.234000 1734.000000
439.221000 1685.000000
439.244000 451.000000
457.233000 63.000000
470.998000 43.000000
472.618000 56.000000
478.127000 55.000000
481.134000 43.000000
497.248000 182.000000
501.583000 43.000000
502.324000 43.000000
507.189000 50.000000
515.573000 40.000000
551.537000 132.000000
552.875000 48.000000
553.275000 18305.000000
554.324000 45.000000
571.254000 435.000000
571.285000 4401.000000
601.269000 3385.000000
601.313000 145.000000
619.273000 420.000000
619.309000 101.000000
695.440000 92.000000
695.465000 133.000000
695.483000 81.000000
797.674000 45.000000
854.763000 307.000000
854.812000 468.000000
854.839000 377.000000
854.895000 60.000000
855.411000 53.000000
856.333000 50.000000
856.512000 70.000000
856.575000 81.000000
857.102000 50.000000
857.309000 113.000000
857.397000 126.000000
857.513000 156772.000000
857.625000 305.000000
858.247000 85.000000
858.380000 82.000000
858.499000 290.000000
858.530000 429.000000
858.574000 135.000000
858.716000 46.000000

