>compound LQB9156322
>parentmass 873.5632
>ionization [M-H]-
>formula C50H83O10P
>rt 505.870560
>profile qtof
#smiles_iso CC/C=C\C/C=C\C/C=C\C/C=C\CCCCCCCCC(=O)OCC(COP(=O)(O)OCC(CO)O)OC(=O)CCCCCCCC/C=C\C/C=C\C/C=C\C/C=C\CC
#smiles_can CCC=CCC=CCC=CCC=CCCCCCCCCC(=O)OCC(COP(=O)(O)OCC(CO)O)OC(=O)CCCCCCCCC=CCC=CCC=CCC=CCC
#inchikey YNQYXRLLDSEUMY-CKKCRWTASA-N
#pubchem_id 138306632
#mb_accession LQB00284,LQB00670

>ms2
152.990000 61.000000
269.247000 33.000000
270.246000 60.000000
287.278000 110.000000
303.219000 82.000000
303.236000 266.000000
304.245000 66.000000
331.263000 3585.000000
359.296000 90.000000
406.239000 30.000000
467.258000 33.000000
471.711000 20.000000
481.454000 50.000000
485.267000 33.000000
541.295000 40.000000
559.307000 60.000000
568.271000 20.000000
569.302000 40.000000
709.473000 70.000000
791.470000 40.000000
799.523000 20.000000
799.630000 20.000000
870.837000 41.000000
873.508000 218.000000
873.541000 1633.000000
873.562000 2468.000000
873.591000 1622.000000
873.627000 184.000000
874.148000 20.000000

>ms2
152.990000 61.000000
269.247000 33.000000
270.246000 60.000000
287.278000 110.000000
303.219000 82.000000
303.236000 266.000000
304.245000 66.000000
331.263000 3585.000000
359.296000 90.000000
406.239000 30.000000
467.258000 33.000000
471.711000 20.000000
481.454000 50.000000
485.267000 33.000000
541.295000 40.000000
559.307000 60.000000
568.271000 20.000000
569.302000 40.000000
709.473000 70.000000
791.470000 40.000000
799.523000 20.000000
799.630000 20.000000
870.837000 41.000000
873.508000 218.000000
873.541000 1633.000000
873.562000 2468.000000
873.591000 1622.000000
873.627000 184.000000
874.148000 20.000000

