>compound LQB9632379
>parentmass 890.5886
>ionization [M+CH3COOH-H]-
>formula C48H82NO8P
>rt 556.580280
>profile qtof
#smiles_iso CCCCCCCC/C=C\CCCCCCCC(=O)OCC(COP(=O)([O-])OCC[N+](C)(C)C)OC(=O)CC/C=C\C/C=C\C/C=C\C/C=C\C/C=C\C/C=C\CC
#smiles_can CCCCCCCCC=CCCCCCCCC(=O)OCC(COP(=O)([O-])OCC[N+](C)(C)C)OC(=O)CCC=CCC=CCC=CCC=CCC=CCC=CCC
#inchikey FPEVDFOXMCHLKL-MIIHFGKESA-N
#pubchem_id 24778956
#mb_accession LQB00152,LQB00538

>ms2peaks
78.960000 70.000000
143.085000 25.000000
147.118000 23.000000
149.136000 21.000000
168.043000 172.000000
177.163000 90.000000
189.163000 25.000000
196.035000 45.000000
203.180000 30.000000
224.070000 208.000000
229.195000 314.000000
242.080000 25.000000
249.185000 65.000000
255.223000 28.000000
279.233000 20.000000
280.369000 28.000000
281.221000 36.000000
281.248000 5064.000000
282.357000 22.000000
283.242000 2637.000000
297.224000 26.000000
326.207000 63.000000
327.232000 7295.000000
328.235000 31.000000
381.354000 75.000000
417.237000 50.000000
475.261000 26.000000
478.271000 25.000000
482.015000 10.000000
488.307000 254.000000
504.748000 11.000000
506.323000 1539.000000
521.295000 20.000000
534.286000 70.000000
534.304000 75.000000
548.249000 15.000000
552.309000 85.000000
745.473000 25.000000
771.488000 35.000000
786.509000 25.000000
813.958000 55.000000
814.018000 16.000000
815.520000 11.000000
816.552000 17987.000000
816.718000 25.000000
817.560000 76.000000
831.504000 70.000000
831.530000 131.000000
837.964000 11.000000
890.503000 20.000000
890.588000 1578.000000

>ms2peaks
78.960000 70.000000
143.085000 25.000000
147.118000 23.000000
149.136000 21.000000
168.043000 172.000000
177.163000 90.000000
189.163000 25.000000
196.035000 45.000000
203.180000 30.000000
224.070000 208.000000
229.195000 314.000000
242.080000 25.000000
249.185000 65.000000
255.223000 28.000000
279.233000 20.000000
280.369000 28.000000
281.221000 36.000000
281.248000 5064.000000
282.357000 22.000000
283.242000 2637.000000
297.224000 26.000000
326.207000 63.000000
327.232000 7295.000000
328.235000 31.000000
381.354000 75.000000
417.237000 50.000000
475.261000 26.000000
478.271000 25.000000
482.015000 10.000000
488.307000 254.000000
504.748000 11.000000
506.323000 1539.000000
521.295000 20.000000
534.286000 70.000000
534.304000 75.000000
548.249000 15.000000
552.309000 85.000000
745.473000 25.000000
771.488000 35.000000
786.509000 25.000000
813.958000 55.000000
814.018000 16.000000
815.520000 11.000000
816.552000 17987.000000
816.718000 25.000000
817.560000 76.000000
831.504000 70.000000
831.530000 131.000000
837.964000 11.000000
890.503000 20.000000
890.588000 1578.000000

