>compound AU00680696
>parentmass 237.12339999999998
>ionization [M+H]+
>formula C12H16N2O3
>rt 393.010000
>profile qtof
#smiles_iso CCNC(=O)[C@@H](C)OC(=O)NC1=CC=CC=C1
#smiles_can CCNC(=O)C(C)OC(=O)NC1=CC=CC=C1
#inchikey AMRQXHFXNZFDCH-SECBINFHSA-N
#pubchem_id 152031
#mb_accession AU260301,AU260302,AU260303,AU260304,AU260305,AU260306

>ms2
118.085600 180020.000000
119.088700 12996.000000
120.043600 150544.000000
121.046700 12660.000000
138.053500 9564.000000
144.064200 48028.000000
164.069400 41848.000000
192.064700 1813348.000000
193.067900 116156.000000
194.069500 12432.000000
237.123100 243360.000000
238.126000 27512.000000

>ms2
118.085600 77032.000000
119.089000 6080.000000
120.043900 199740.000000
121.047100 21660.000000
122.048800 1460.000000
138.054300 2520.000000
144.064300 1500.000000
164.069800 5164.000000
192.064200 34816.000000
193.067700 4056.000000

>ms2
118.085500 17300.000000
119.088400 1640.000000
120.043600 92976.000000
121.046600 7688.000000
122.048800 480.000000

>ms2
118.085300 7868.000000
119.088500 972.000000
120.043400 31248.000000
121.046500 3448.000000
122.048300 544.000000
138.054200 304.000000

>ms2
118.084900 820.000000
120.043300 7440.000000
121.048000 812.000000

>ms2
45.033800 17564.000000
46.065100 11296.000000
55.017400 8784.000000
72.044100 68128.000000
72.080400 466200.000000
73.083600 15132.000000
92.049900 30084.000000
95.049600 5148.000000
100.076600 76696.000000
101.079900 4144.000000
105.045400 4500.000000
118.087100 161728.000000
119.089500 12840.000000
120.044400 168428.000000
121.047200 18144.000000
138.054800 5508.000000
192.064400 33040.000000
193.068500 2564.000000

