>compound AU00357067
>parentmass 837.5318
>ionization [M+H]+
>formula C41H76N2O15
>rt 540.600000
>profile qtof
#smiles_iso CC[C@@H]1[C@@]([C@@H]([C@H](C(=NOCOCCOC)[C@@H](C[C@@]([C@@H]([C@H]([C@@H]([C@H](C(=O)O1)C)O[C@H]2C[C@@]([C@H]([C@@H](O2)C)O)(C)OC)C)O[C@H]3[C@@H]([C@H](C[C@H](O3)C)N(C)C)O)(C)O)C)C)O)(C)O
#smiles_can CCC1C(C(C(C(=NOCOCCOC)C(CC(C(C(C(C(C(=O)O1)C)OC2CC(C(C(O2)C)O)(C)OC)C)OC3C(C(CC(O3)C)N(C)C)O)(C)O)C)C)O)(C)O
#inchikey RXZBMPWDPOLZGW-HITVVWEBSA-N
#pubchem_id 444037
#mb_accession AU218506

>ms2peaks
55.053700 4184.000000
72.080400 37280.000000
83.049100 238992.000000
84.052400 10356.000000
87.044100 6284.000000
88.075300 6700.000000
98.097300 25760.000000
99.080700 3376.000000
113.060800 7340.000000
115.076700 10836.000000
116.071300 24248.000000
116.108100 101396.000000
117.111100 6308.000000
127.075100 10416.000000
158.116700 600744.000000
159.119800 55784.000000
160.122000 3196.000000
176.127000 3960.000000
316.211000 5404.000000
380.240000 4372.000000
398.253200 10372.000000
416.264600 4140.000000
446.275600 4596.000000
522.330100 22032.000000
523.331100 5608.000000
540.351300 6204.000000
555.364700 5976.000000
558.364400 17736.000000
559.368300 4732.000000
573.374500 5668.000000
603.384500 7600.000000
661.427400 8620.000000
679.438200 182892.000000
680.441500 68480.000000
681.444500 15208.000000
837.534900 11512.000000
838.538100 5760.000000

