>compound AU00893043
>parentmass 453.2748
>ionization [M+H]+
>formula C27H36N2O4
>rt 725.112000
>profile qtof
#smiles_iso CCOC1=C(C=CC(=C1)CC(=O)N[C@@H](CC(C)C)C2=CC=CC=C2N3CCCCC3)C(=O)O
#smiles_can CCOC1=C(C=CC(=C1)CC(=O)NC(CC(C)C)C2=CC=CC=C2N3CCCCC3)C(=O)O
#inchikey FAEKWTJYAYMJKF-QHCPKHFHSA-N
#pubchem_id 65981
#mb_accession AU218901,AU218902,AU218903,AU218904,AU218905

>ms2
162.128200 17072.000000
230.192000 19520.000000
453.279800 2451060.000000
454.282600 707460.000000
455.285300 98976.000000

>ms2
162.128700 636176.000000
163.131900 55348.000000
230.192300 1084908.000000
231.195500 133880.000000
292.156800 194036.000000
293.160100 29000.000000
453.279500 2371244.000000
454.282400 717712.000000
455.284700 81628.000000

>ms2
162.128600 739980.000000
163.131700 66216.000000
174.128400 36908.000000
207.066400 14428.000000
230.192700 2492404.000000
231.195500 566884.000000
232.198700 30060.000000
292.156500 93512.000000
293.159100 14544.000000
453.278300 136440.000000
454.281500 36852.000000

>ms2
146.097100 45352.000000
162.128700 321604.000000
163.132000 33608.000000
172.113100 19952.000000
174.128900 258856.000000
175.131900 29588.000000
179.071400 26408.000000
202.160000 14940.000000
230.193000 2508164.000000
231.195600 606340.000000
232.198700 34368.000000

>ms2
118.065400 38372.000000
120.081200 12728.000000
130.065500 38028.000000
131.072800 25744.000000
132.081200 44372.000000
144.081300 34780.000000
145.088300 16580.000000
146.097200 204780.000000
147.100000 18068.000000
158.097000 33924.000000
159.104200 24652.000000
160.112300 26944.000000
162.128500 189160.000000
163.131400 22064.000000
172.113000 106100.000000
173.119200 35052.000000
174.128700 870856.000000
175.132100 83176.000000
179.070900 33100.000000
186.128400 21464.000000
188.144200 15856.000000
189.055400 12688.000000
202.160200 39388.000000
230.192600 2494092.000000
231.195400 504632.000000
232.198500 26816.000000

