>compound AU00981432
>parentmass 400.1467
>ionization [M+H]+
>formula C21H19F2N3O3
>rt 340.764000
>profile qtof
#smiles_iso CN1CCN(CC1)C2=C(C=C3C(=C2)N(C=C(C3=O)C(=O)O)C4=CC=C(C=C4)F)F
#smiles_can CN1CCN(CC1)C2=C(C=C3C(=C2)N(C=C(C3=O)C(=O)O)C4=CC=C(C=C4)F)F
#inchikey NOCJXYPHIIZEHN-UHFFFAOYSA-N
#pubchem_id 56206
#mb_accession AU102802,AU102803,AU102804,AU102805,AU102806

>ms2peaks
199.074800 356.000000
299.101800 740.000000
299.162200 312.000000
356.160300 7472.000000
357.165600 1780.000000
382.140900 4004.000000
383.145700 1204.000000
400.150700 57120.000000
401.154000 15616.000000
402.158000 1868.000000

>ms2peaks
133.085900 396.000000
279.094300 308.000000
285.085900 824.000000
299.100700 6680.000000
300.105800 1500.000000
306.142700 588.000000
334.135900 628.000000
336.159100 308.000000
352.114500 320.000000
354.111300 776.000000
354.147100 584.000000
356.160800 7312.000000
357.163600 2296.000000
362.135100 320.000000
380.146900 480.000000
382.140300 9464.000000
383.143000 2648.000000
384.142800 332.000000
400.150300 54952.000000
401.153700 15240.000000
402.157100 1752.000000

>ms2peaks
149.024900 408.000000
185.108800 884.000000
196.101000 356.000000
225.080600 336.000000
227.056700 352.000000
241.076200 344.000000
242.074500 560.000000
264.103200 300.000000
268.082000 300.000000
269.091700 304.000000
278.110800 620.000000
278.125900 344.000000
279.092200 676.000000
280.127500 320.000000
281.088200 404.000000
282.056700 568.000000
285.085800 1156.000000
291.122300 584.000000
292.092700 324.000000
297.085500 324.000000
299.101100 11336.000000
300.104500 2136.000000
301.109900 352.000000
305.077100 408.000000
305.137800 468.000000
306.071700 384.000000
306.105500 1308.000000
306.142600 4400.000000
307.108000 352.000000
307.144400 952.000000
311.087200 700.000000
311.099400 488.000000
313.119400 312.000000
324.080900 444.000000
324.117600 728.000000
325.078400 492.000000
326.148300 492.000000
329.074800 400.000000
334.102200 676.000000
334.138100 1696.000000
335.105000 336.000000
335.137500 440.000000
336.154900 380.000000
337.098200 384.000000
338.149300 352.000000
339.082600 1064.000000
339.160300 316.000000
340.086500 584.000000
343.092000 388.000000
352.111100 900.000000
354.108400 1864.000000
354.144500 700.000000
355.107300 556.000000
356.159600 1008.000000
362.132300 740.000000
380.144900 1268.000000
381.147300 368.000000
382.139900 6980.000000
383.145300 1944.000000
384.144300 396.000000
400.150100 34644.000000
401.151900 10100.000000

>ms2peaks
144.082600 492.000000
185.108400 3740.000000
186.112200 688.000000
191.100200 440.000000
196.099600 976.000000
201.050700 584.000000
203.064500 376.000000
209.063800 660.000000
222.074700 908.000000
223.074200 380.000000
225.085800 440.000000
227.056300 764.000000
228.063200 792.000000
229.071500 608.000000
230.075100 372.000000
236.057200 316.000000
236.074700 364.000000
236.087200 444.000000
237.081600 668.000000
238.064000 340.000000
240.062200 484.000000
241.071500 1320.000000
242.078500 1392.000000
243.071500 300.000000
248.075400 428.000000
249.085300 1128.000000
250.087700 824.000000
251.098300 1252.000000
254.079200 356.000000
255.074400 964.000000
256.057700 908.000000
257.062800 608.000000
257.092800 432.000000
261.086900 556.000000
262.090300 444.000000
263.099300 1828.000000
264.044800 344.000000
264.104100 968.000000
265.079700 352.000000
265.111300 692.000000
268.082300 380.000000
269.090000 1416.000000
270.097800 1104.000000
271.083300 376.000000
271.095800 332.000000
277.075100 552.000000
277.104900 628.000000
278.078900 424.000000
278.110900 1652.000000
279.097500 1112.000000
280.123700 616.000000
281.088200 492.000000
282.059400 580.000000
283.070500 612.000000
283.102500 692.000000
284.053600 424.000000
284.077300 448.000000
285.087100 952.000000
290.111500 804.000000
291.080400 840.000000
291.094300 816.000000
291.117600 1272.000000
292.085800 312.000000
297.086100 872.000000
298.089600 328.000000
299.100400 6408.000000
300.104100 1412.000000
302.063600 728.000000
304.128600 320.000000
305.077100 672.000000
305.103700 324.000000
305.134100 988.000000
306.069600 524.000000
306.105400 1804.000000
306.142100 3652.000000
307.107500 316.000000
307.145100 1344.000000
311.070600 436.000000
311.086200 1144.000000
312.065800 312.000000
312.100400 316.000000
319.080300 492.000000
319.093200 520.000000
323.085500 420.000000
324.083900 644.000000
324.116700 720.000000
325.082600 672.000000
326.111000 388.000000
326.150300 680.000000
329.075900 1288.000000
334.097600 712.000000
334.139000 756.000000
335.107900 308.000000
337.084400 372.000000
338.080400 368.000000
338.147800 720.000000
339.085000 1356.000000
339.119900 324.000000
340.085300 432.000000
343.091700 876.000000
352.092800 544.000000
352.110800 392.000000
353.095500 316.000000
353.108100 352.000000
354.106200 896.000000
354.138000 436.000000
362.132400 796.000000
380.136800 384.000000
382.140500 2076.000000
383.144200 416.000000
400.151300 8632.000000
401.153600 2084.000000

>ms2peaks
356.163700 508.000000
382.139700 344.000000
400.150900 47332.000000
401.153800 13924.000000
402.156100 1884.000000

