>compound AU00589079
>parentmass 287.0948
>ionization [M+H]+
>formula C13H18O5S
>rt 550.680000
>profile qtof
#smiles_iso CCOC1C(C2=C(O1)C=CC(=C2)OS(=O)(=O)C)(C)C
#smiles_can CCOC1C(C2=C(O1)C=CC(=C2)OS(=O)(=O)C)(C)C
#inchikey IRCMYGHHKLLGHV-UHFFFAOYSA-N
#pubchem_id 33360
#mb_accession AU253601,AU253602,AU253603,AU253604,AU253605,AU253606

>ms2
121.064100 4580.000000
122.068300 520.000000
149.094500 688.000000
161.059200 1000.000000
163.074500 1188.000000
179.069200 676.000000
241.052600 2444.000000
242.054500 372.000000
259.063200 15568.000000
260.066900 2244.000000
261.059900 584.000000
285.077200 404.000000
287.094400 8124.000000
288.096500 1392.000000
289.092200 436.000000

>ms2
121.064300 12636.000000
122.066600 964.000000
133.063700 1336.000000
137.058400 1724.000000
145.064800 532.000000
149.095200 1044.000000
161.058500 9056.000000
162.066200 3300.000000
163.073000 1376.000000
175.149900 428.000000
179.069300 3152.000000
180.074700 828.000000
213.055800 524.000000
230.115500 320.000000
241.053200 3084.000000
242.054100 408.000000
254.114400 608.000000
259.063600 2660.000000
260.071200 420.000000

>ms2
115.053000 464.000000
121.064000 5048.000000
122.067200 616.000000
133.063800 3788.000000
134.071600 1640.000000
135.079100 500.000000
137.059100 2304.000000
138.063000 300.000000
145.064000 624.000000
149.094500 640.000000
161.058600 7276.000000
162.065000 3592.000000
163.072500 1448.000000
175.148300 356.000000
179.069900 1008.000000

>ms2
115.054200 436.000000
121.063400 1724.000000
133.063400 3156.000000
134.070300 1580.000000
135.080300 796.000000
137.058800 1228.000000
145.063500 504.000000
147.042700 532.000000
161.059300 1688.000000
162.065000 1048.000000
163.071400 572.000000

>ms2
115.052900 764.000000
121.064500 884.000000
123.043800 332.000000
133.064200 912.000000
134.070700 1152.000000
137.058100 600.000000
145.065400 340.000000
147.044500 360.000000
161.058200 380.000000

>ms2
121.065300 8108.000000
122.068800 832.000000
133.063800 1528.000000
134.070500 324.000000
137.059500 1544.000000
149.095500 436.000000
161.059400 6084.000000
162.066100 2956.000000
163.075000 1352.000000
175.148100 340.000000
179.069400 1096.000000
241.053800 724.000000
254.110300 316.000000
259.064200 680.000000

