>compound AU00107618
>parentmass 261.1209
>ionization [M+H]+
>formula C12H15F3N2O
>rt 550.800000
>profile qtof
#smiles_iso CCN(C(C)CC1=CC(=CC=C1)C(F)(F)F)N=O
#smiles_can CCN(C(C)CC1=CC(=CC=C1)C(F)(F)F)N=O
#inchikey JVGWNJLSTCQSCZ-UHFFFAOYSA-N
#pubchem_id 101196224
#mb_accession AU211601,AU211602,AU211603,AU211604,AU211605

>ms2peaks
159.040500 145268.000000
160.043500 14276.000000
167.066000 2156.000000
185.075700 1780.000000
187.072100 352996.000000
188.075000 28764.000000
210.107800 13472.000000
211.115200 18784.000000
212.118900 2264.000000
219.111300 2516.000000
237.122500 14828.000000
238.125400 2016.000000
239.118500 1928.000000
241.114100 2348.000000
261.120700 276412.000000
262.123700 26848.000000
263.126000 1980.000000

>ms2peaks
147.060300 1360.000000
159.040700 825888.000000
160.043500 51800.000000
167.065500 3400.000000
187.072000 103488.000000
188.075500 9300.000000
210.107800 10736.000000
211.115200 9460.000000
212.118900 976.000000

>ms2peaks
109.044700 1520.000000
119.028200 1384.000000
127.034300 600.000000
139.034700 4124.000000
146.095100 1452.000000
147.059200 2712.000000
159.040800 796668.000000
160.043500 52696.000000
167.066000 2328.000000
187.071700 8688.000000
188.075300 996.000000
210.108300 7976.000000
211.112800 1024.000000

>ms2peaks
109.044300 4884.000000
119.028000 4404.000000
139.034700 19552.000000
147.034800 7324.000000
159.040700 764044.000000
160.043500 58380.000000
210.108400 4580.000000

>ms2peaks
109.044500 10424.000000
119.028200 11380.000000
133.025000 2936.000000
137.038300 3016.000000
139.034100 31444.000000
140.037900 2208.000000
146.051000 2856.000000
147.034300 18584.000000
148.037100 2192.000000
159.040800 380564.000000
160.043500 28696.000000

