>compound AU00400808
>parentmass 326.1839
>ionization [M+Na]+
>formula C17H25N3O2
>rt 198.220000
>profile qtof
#smiles_iso C1C[C@H](N(C1)C(=O)CNC23CC4CC(C2)CC(C4)(C3)O)C#N
#smiles_can C1CC(N(C1)C(=O)CNC23CC4CC(C2)CC(C4)(C3)O)C#N
#inchikey SYOKIDBDQMKNDQ-XWTIBIIYSA-N
#pubchem_id 6918537
#mb_accession AU226631,AU226632,AU226633

>ms2
299.174400 468.000000
326.185100 13604.000000
327.189200 3512.000000

>ms2
299.178600 1432.000000
326.186300 6436.000000
327.190600 1548.000000

>ms2
180.138200 436.000000
299.173000 368.000000
326.185400 644.000000

