>compound AU00082761
>parentmass 296.1412
>ionization [M+H]+
>formula C16H22ClNO2
>rt 610.810000
>profile qtof
#smiles_iso CCOCCN(C(=O)CCl)C(=C(C)C)C1=CC=CC=C1
#smiles_can CCOCCN(C(=O)CCl)C(=C(C)C)C1=CC=CC=C1
#inchikey CSWIKHNSBZVWNQ-UHFFFAOYSA-N
#pubchem_id 6450826
#mb_accession AU253501,AU253502,AU253503,AU253504,AU253505,AU253506

>ms2
131.085000 137260.000000
132.088300 13600.000000
148.051600 23964.000000
220.168900 17212.000000
250.099600 1752304.000000
251.102900 183176.000000
252.096900 341808.000000
253.099800 21136.000000
296.141800 1708876.000000
297.145100 249908.000000
298.139200 422752.000000

>ms2
115.053800 17076.000000
116.061200 18936.000000
129.069000 64548.000000
131.084900 2207220.000000
132.088200 176332.000000
174.126700 15848.000000
176.105500 17484.000000
219.161200 11776.000000
220.169100 123816.000000
221.172700 15332.000000
250.099200 976084.000000
251.102300 111380.000000
252.096300 203932.000000
253.099500 16712.000000
296.141100 113908.000000
297.144600 18368.000000
298.138600 27136.000000

>ms2
115.053700 46832.000000
116.061400 53764.000000
128.061200 21200.000000
129.069100 170004.000000
130.072500 16664.000000
131.084900 1913992.000000
132.088200 144360.000000
160.111000 42320.000000
174.126700 24792.000000
220.169100 85928.000000
221.172200 11760.000000
250.099200 24088.000000

>ms2
115.053600 72828.000000
116.061200 65024.000000
117.064600 7708.000000
127.052600 3300.000000
128.060800 34368.000000
129.068900 156276.000000
130.072300 17584.000000
131.084600 564200.000000
132.087600 44984.000000
144.079200 3304.000000
145.063100 5024.000000
145.087300 4512.000000
146.094600 5084.000000
148.110200 5408.000000
155.058900 7208.000000
158.094500 4420.000000
159.102200 3588.000000
160.110800 34692.000000
161.114600 3812.000000
172.110400 3132.000000
174.126300 11564.000000
190.121400 3380.000000
220.167900 12048.000000

>ms2
115.053600 101516.000000
116.061200 67708.000000
117.064200 8140.000000
119.084000 784.000000
126.044800 1176.000000
127.053300 6572.000000
128.060800 55884.000000
129.068700 105656.000000
130.072800 12112.000000
131.084500 127388.000000
132.087500 14844.000000
133.088300 1400.000000
141.068900 1032.000000
142.075500 1488.000000
143.072000 1408.000000
144.079200 7472.000000
145.063500 6152.000000
145.086900 4748.000000
146.066800 784.000000
146.094100 3748.000000
147.101200 872.000000
148.110400 2684.000000
155.059100 11392.000000
156.063000 1528.000000
157.086800 776.000000
158.094400 5304.000000
159.102700 2400.000000
160.110300 10724.000000
161.113500 1520.000000
172.111300 2416.000000
174.125600 1848.000000

>ms2
45.033700 9388.000000
73.064600 87004.000000
91.054300 345028.000000
92.057800 18788.000000
105.070800 15352.000000
115.054800 17428.000000
116.062600 36484.000000
128.062000 6612.000000
129.070400 76212.000000
130.074000 8276.000000
131.086400 949072.000000
132.089700 111936.000000
133.093000 4776.000000
160.112400 19944.000000
174.128300 14128.000000
176.107400 5596.000000
220.170600 75016.000000
221.173800 11428.000000
250.100000 207300.000000
251.103400 35660.000000
252.097400 66116.000000
253.100500 5444.000000
296.141900 28392.000000
297.144700 5652.000000
298.139500 7648.000000

