>compound AU00425889
>parentmass 303.1955
>ionization [M+H]+
>formula C19H26O3
>rt 492.650000
>profile qtof
#smiles_iso C[C@]12CCC(=O)C=C1CC[C@@H]3[C@@H]2[C@H](C[C@]4([C@H]3CCC4=O)C)O
#smiles_can CC12CCC(=O)C=C1CCC3C2C(CC4(C3CCC4=O)C)O
#inchikey WSCUHXPGYUMQEX-KCZNZURUSA-N
#pubchem_id 94141
#mb_accession AU282901,AU282902,AU282903,AU282904,AU282905,AU282906

>ms2
267.173300 8676.000000
285.184300 22520.000000
286.187500 5544.000000
303.195100 458268.000000
304.198500 87604.000000
305.201000 9924.000000

>ms2
119.084700 2864.000000
121.063900 16284.000000
121.099400 884.000000
122.066900 2084.000000
123.079400 17584.000000
124.082400 1860.000000
129.069100 1148.000000
131.084200 3012.000000
133.063900 952.000000
133.100100 5180.000000
135.079500 4144.000000
135.115700 1628.000000
137.095300 1848.000000
143.083800 5416.000000
145.099900 18764.000000
146.104000 2432.000000
147.078900 3504.000000
147.115200 2564.000000
149.095000 3532.000000
151.110600 6952.000000
152.114700 1004.000000
155.085000 1592.000000
157.064400 816.000000
157.100300 4352.000000
159.078900 2868.000000
159.115400 4228.000000
161.094200 4400.000000
161.131100 1208.000000
163.110300 17328.000000
164.114200 1828.000000
169.100700 1728.000000
171.079200 2088.000000
171.115400 5820.000000
172.118700 820.000000
173.095300 4484.000000
175.110300 12704.000000
176.114200 1804.000000
177.126400 2280.000000
181.100800 1028.000000
183.115600 3176.000000
185.094500 1776.000000
185.131200 6624.000000
186.135200 944.000000
187.110700 2604.000000
189.125900 9952.000000
190.129600 1444.000000
193.100200 908.000000
195.115400 4252.000000
197.094700 4428.000000
197.131600 3532.000000
198.099000 856.000000
199.110700 1828.000000
199.148200 2092.000000
201.126800 2956.000000
203.141700 3164.000000
207.116100 2056.000000
209.130900 7520.000000
210.135600 1500.000000
211.111000 2332.000000
211.147800 1812.000000
213.125700 2208.000000
215.142700 2044.000000
221.131200 940.000000
223.147300 3060.000000
224.152400 864.000000
225.126500 5512.000000
225.162600 5204.000000
226.129500 1028.000000
226.166500 1376.000000
227.141900 11152.000000
228.145400 2336.000000
229.157400 920.000000
239.142500 18420.000000
239.178100 5256.000000
240.145400 3060.000000
240.182300 1024.000000
241.158000 5376.000000
242.162700 1260.000000
243.173700 12220.000000
244.177100 2436.000000
245.153300 1456.000000
249.162400 10324.000000
250.166400 2220.000000
252.151300 1356.000000
257.153300 5304.000000
257.188500 3272.000000
258.155400 1580.000000
259.169600 2420.000000
267.173700 61968.000000
268.176600 14152.000000
269.177300 1804.000000
285.184700 88248.000000
286.187500 18844.000000
287.189800 2312.000000
303.195300 153436.000000
304.198200 32884.000000
305.202600 3460.000000

>ms2
115.054500 1276.000000
116.059300 376.000000
117.069000 2980.000000
119.084600 5084.000000
120.088000 548.000000
121.063900 22864.000000
121.100400 2808.000000
122.066700 2080.000000
123.079400 19804.000000
124.083200 1508.000000
128.061200 1616.000000
129.068800 4064.000000
130.076200 1124.000000
131.084600 9124.000000
132.087600 1208.000000
133.063500 1260.000000
133.100400 9676.000000
134.103900 1352.000000
135.079200 6884.000000
135.115800 3596.000000
136.083500 964.000000
136.121700 564.000000
137.095600 2412.000000
141.068000 1556.000000
142.076300 1408.000000
143.084300 13056.000000
144.089100 1776.000000
145.100100 31524.000000
146.072900 404.000000
146.103600 3792.000000
147.079200 7424.000000
147.115300 5636.000000
148.085200 1332.000000
148.119000 880.000000
149.094800 4768.000000
149.131600 352.000000
150.100400 964.000000
151.110700 3420.000000
153.066900 332.000000
154.075800 376.000000
155.084300 3840.000000
156.091300 1136.000000
157.062600 572.000000
157.099400 8332.000000
158.104700 1524.000000
159.079700 4184.000000
159.115400 8348.000000
160.085300 644.000000
160.118000 1364.000000
161.095000 7980.000000
161.132100 1828.000000
162.100000 1344.000000
163.110800 15920.000000
164.114200 3044.000000
165.067700 728.000000
165.127600 424.000000
167.084600 2016.000000
168.091400 772.000000
169.100100 6208.000000
170.105400 1260.000000
171.079200 1492.000000
171.115700 9880.000000
172.120100 1364.000000
173.094900 6008.000000
173.130100 2464.000000
174.100100 1164.000000
175.110400 11568.000000
176.114500 1812.000000
177.090000 488.000000
177.126500 1372.000000
179.086000 1176.000000
179.106600 552.000000
180.092200 476.000000
181.100600 2312.000000
182.105300 812.000000
183.078100 504.000000
183.115500 8948.000000
184.084700 304.000000
184.121100 1684.000000
185.095500 1996.000000
185.131400 8692.000000
186.099400 508.000000
186.135200 1280.000000
187.111500 3332.000000
187.147200 740.000000
188.115800 664.000000
188.151900 344.000000
189.126600 8444.000000
190.129200 1324.000000
191.104800 652.000000
192.095000 456.000000
193.098900 1396.000000
194.107100 900.000000
195.115600 2712.000000
196.122600 688.000000
197.095300 5528.000000
197.131500 5248.000000
198.100300 1164.000000
198.133400 940.000000
199.110500 3636.000000
199.146500 4848.000000
200.115300 832.000000
200.150200 1056.000000
201.092100 300.000000
201.127000 3784.000000
201.163500 1256.000000
202.130100 996.000000
202.170900 312.000000
203.107800 304.000000
203.143400 1948.000000
204.146500 488.000000
205.121100 456.000000
206.110600 548.000000
207.116000 2808.000000
208.120300 804.000000
209.130700 8868.000000
210.103900 408.000000
210.136100 1720.000000
211.110800 2772.000000
211.146500 2344.000000
212.117200 1088.000000
213.125700 2640.000000
213.162600 1140.000000
214.131700 716.000000
215.142500 2432.000000
215.177300 1084.000000
216.144700 364.000000
216.180300 304.000000
217.122500 432.000000
217.159500 768.000000
220.123100 648.000000
221.132200 1512.000000
222.141400 336.000000
223.147400 4244.000000
224.115500 316.000000
224.150600 1308.000000
225.126700 5012.000000
225.163100 6248.000000
226.129700 992.000000
226.166300 1928.000000
227.142400 9540.000000
228.146300 1936.000000
229.122700 452.000000
229.157200 1108.000000
234.138900 792.000000
237.123500 704.000000
238.129600 460.000000
239.142000 7000.000000
239.178300 3752.000000
240.145200 1680.000000
240.181700 1052.000000
241.158700 6976.000000
242.162000 1496.000000
243.133500 432.000000
243.173400 7096.000000
244.176100 1508.000000
245.153500 1156.000000
249.162900 5544.000000
250.166600 1400.000000
252.150100 5236.000000
253.153400 1128.000000
255.176800 360.000000
257.152900 1632.000000
257.190200 1388.000000
258.160500 864.000000
258.195600 492.000000
259.169000 2888.000000
260.171300 380.000000
267.173100 24292.000000
268.176700 5572.000000
269.179200 580.000000
270.158900 1488.000000
285.184200 15076.000000
286.187400 4252.000000
287.186800 472.000000
287.197200 412.000000
303.195000 6636.000000
304.198500 1684.000000

>ms2
115.053100 3400.000000
117.068800 4296.000000
118.073100 420.000000
119.085000 6260.000000
120.087600 832.000000
121.063700 14220.000000
121.100100 1364.000000
122.067700 1624.000000
123.079400 10240.000000
128.060600 5184.000000
129.068400 5992.000000
130.076500 2944.000000
131.084600 8252.000000
132.054800 496.000000
132.088700 840.000000
133.062900 1604.000000
133.100100 6620.000000
134.103400 980.000000
135.079400 3916.000000
135.115900 1960.000000
136.083100 672.000000
137.095000 1008.000000
141.068300 3196.000000
142.076100 3328.000000
143.084100 10672.000000
144.089100 2004.000000
145.064000 1348.000000
145.099700 19120.000000
146.070400 596.000000
146.103600 2404.000000
147.078800 5068.000000
147.115400 3740.000000
148.085700 1564.000000
148.119700 492.000000
149.094400 3012.000000
150.100500 528.000000
151.110500 1300.000000
152.060700 556.000000
153.068200 1616.000000
154.076700 1396.000000
155.084000 5436.000000
156.091000 1840.000000
157.063800 756.000000
157.100000 7176.000000
158.070700 748.000000
159.079400 3436.000000
159.115400 5580.000000
160.085700 892.000000
160.120600 784.000000
161.094100 4196.000000
161.130600 1228.000000
162.133200 316.000000
163.110300 7500.000000
164.113200 1212.000000
165.069400 1040.000000
166.075700 904.000000
167.083300 2260.000000
168.091900 1900.000000
169.099500 5692.000000
170.105400 1404.000000
171.079400 1336.000000
171.115300 5220.000000
172.086300 524.000000
172.119100 1112.000000
173.094500 3308.000000
173.131300 1976.000000
174.100700 1772.000000
175.110100 3860.000000
176.116300 896.000000
177.126800 616.000000
178.078100 624.000000
179.084300 1572.000000
180.090900 1108.000000
181.100500 3304.000000
182.106500 1688.000000
183.079500 776.000000
183.114600 5952.000000
184.120300 1536.000000
185.094000 1672.000000
185.131300 4344.000000
186.100400 464.000000
186.136100 968.000000
187.110600 1608.000000
187.146100 652.000000
188.116800 576.000000
189.126300 3028.000000
190.131100 348.000000
191.084900 320.000000
192.092100 908.000000
193.100100 1808.000000
194.107400 1468.000000
195.077500 432.000000
195.115700 2932.000000
196.124100 1064.000000
197.094800 3412.000000
197.130400 3772.000000
198.099800 1120.000000
198.136100 664.000000
199.111000 2072.000000
199.147500 2604.000000
200.116500 536.000000
200.152100 536.000000
201.126500 1940.000000
201.162700 728.000000
202.133900 684.000000
203.143200 496.000000
205.100700 388.000000
206.106900 392.000000
207.116900 1788.000000
208.122200 980.000000
209.092100 524.000000
209.130400 2884.000000
210.101900 368.000000
210.136900 660.000000
211.112400 1248.000000
211.145900 1068.000000
212.116500 956.000000
213.126000 1796.000000
213.162700 500.000000
214.132100 1016.000000
215.142200 780.000000
217.158900 448.000000
219.116100 668.000000
220.121600 308.000000
221.131300 756.000000
223.114100 312.000000
223.147400 1496.000000
224.116700 596.000000
224.152700 540.000000
225.127200 1360.000000
225.163800 1828.000000
226.132800 868.000000
227.142700 2908.000000
228.148100 1092.000000
229.154000 300.000000
234.141900 608.000000
237.126500 1820.000000
238.130400 748.000000
239.142200 1192.000000
239.180100 776.000000
240.146800 688.000000
241.156800 1536.000000
242.164900 676.000000
243.173700 1288.000000
249.165100 588.000000
252.150100 3176.000000
253.153200 652.000000
255.137200 332.000000
257.155200 432.000000
258.161300 696.000000
259.169900 392.000000
267.175100 1400.000000
268.177200 416.000000
270.162000 1284.000000
271.163500 300.000000
285.184100 1360.000000

>ms2
115.053500 4032.000000
116.059800 1280.000000
117.069300 3976.000000
118.074500 412.000000
119.085000 3892.000000
121.063800 9108.000000
121.100100 588.000000
122.068100 1000.000000
123.079600 5020.000000
124.082900 600.000000
127.052600 552.000000
128.060800 8640.000000
129.068500 7672.000000
130.076000 3960.000000
131.049000 484.000000
131.084600 6012.000000
132.056200 840.000000
132.087900 884.000000
133.063700 1784.000000
133.100600 3244.000000
134.071600 536.000000
134.102700 472.000000
135.079800 2480.000000
135.114800 556.000000
141.068600 4408.000000
142.076400 3940.000000
143.084000 7596.000000
144.055600 552.000000
144.090600 1964.000000
145.063000 1928.000000
145.100100 7920.000000
146.070700 1236.000000
146.105300 1152.000000
147.079100 3204.000000
147.115500 1588.000000
148.087100 2160.000000
149.094200 916.000000
152.060200 764.000000
153.068500 2364.000000
154.076000 2456.000000
155.083500 5024.000000
156.091200 2936.000000
157.062500 740.000000
157.099800 4744.000000
158.071900 712.000000
158.106200 888.000000
159.079400 2264.000000
159.115400 2780.000000
160.088000 584.000000
160.118000 524.000000
161.094300 2308.000000
161.129300 380.000000
162.101000 784.000000
163.110400 2988.000000
164.112800 304.000000
165.068500 2368.000000
166.075900 1336.000000
167.084200 3104.000000
168.092000 3000.000000
169.064600 512.000000
169.099600 5080.000000
170.106100 1100.000000
171.079000 1108.000000
171.115200 1516.000000
172.086400 464.000000
173.094100 1516.000000
173.132900 552.000000
174.101900 2036.000000
175.109200 1144.000000
176.116000 328.000000
178.076500 988.000000
179.084400 2312.000000
181.062200 300.000000
181.099700 2412.000000
182.071100 444.000000
182.107200 1376.000000
183.079400 664.000000
183.115200 2176.000000
184.087500 580.000000
184.121500 492.000000
185.095100 1052.000000
185.130600 1332.000000
187.110400 824.000000
187.145400 384.000000
188.115100 412.000000
189.126200 664.000000
191.083400 896.000000
192.093100 928.000000
193.100400 1348.000000
194.108500 1208.000000
195.080500 368.000000
195.116700 1324.000000
196.086100 468.000000
196.120300 436.000000
197.095800 1312.000000
197.131400 1084.000000
198.103000 372.000000
199.110600 960.000000
199.148600 712.000000
200.116800 548.000000
201.123900 740.000000
202.133600 460.000000
204.091700 428.000000
205.100900 588.000000
207.118200 552.000000
208.122500 516.000000
209.095300 452.000000
209.131200 940.000000
210.101200 332.000000
210.137900 556.000000
211.109900 964.000000
212.118800 492.000000
213.125400 1184.000000
214.131900 556.000000
215.140300 636.000000
219.114400 672.000000
223.145800 412.000000
224.120900 352.000000
225.164400 356.000000
226.132400 320.000000
227.141800 808.000000
228.149500 528.000000
237.127000 1900.000000
241.159000 356.000000
243.135700 424.000000
251.141900 400.000000
252.152500 600.000000
253.155200 364.000000

>ms2
55.017400 1040.000000
55.053700 772.000000
67.053500 1308.000000
69.033200 1084.000000
69.069100 1444.000000
71.048300 620.000000
79.053900 1752.000000
81.069500 3288.000000
83.049300 2144.000000
91.054200 988.000000
93.069800 2320.000000
95.048500 832.000000
95.085700 1660.000000
97.064800 6556.000000
98.068600 520.000000
99.044700 412.000000
105.071400 2344.000000
107.048800 400.000000
107.086000 1608.000000
109.065700 2376.000000
109.101100 512.000000
111.083100 520.000000
115.054400 836.000000
117.069100 2236.000000
119.085000 5636.000000
120.088700 620.000000
121.064400 25976.000000
121.100500 2964.000000
122.067400 2348.000000
122.103000 340.000000
123.079800 24892.000000
124.082900 2040.000000
128.061800 944.000000
129.068300 2132.000000
130.075900 1012.000000
131.084800 6412.000000
132.088800 732.000000
133.064800 1020.000000
133.100500 7764.000000
134.104100 872.000000
135.079800 5624.000000
135.115600 3244.000000
136.083600 788.000000
136.120000 480.000000
137.095400 1752.000000
141.069100 1724.000000
142.075900 716.000000
143.084600 8976.000000
144.088500 940.000000
145.100400 30920.000000
146.071100 352.000000
146.103900 3804.000000
147.079100 5880.000000
147.116000 6572.000000
148.083300 596.000000
148.119500 848.000000
149.095200 4412.000000
149.132700 340.000000
150.098700 592.000000
151.110800 5636.000000
152.112400 732.000000
153.091000 328.000000
155.084400 2512.000000
156.089300 452.000000
157.064100 792.000000
157.100400 5028.000000
158.104800 892.000000
159.079000 2576.000000
159.115800 6656.000000
160.084300 664.000000
160.119100 980.000000
161.095000 6080.000000
161.130600 1520.000000
162.099400 1112.000000
163.111000 18024.000000
164.114800 2108.000000
165.126500 428.000000
167.084100 1108.000000
168.090700 676.000000
169.100600 3772.000000
171.079300 2224.000000
171.116300 8892.000000
172.119400 1044.000000
173.095500 4924.000000
173.131600 1820.000000
174.138500 344.000000
175.111200 10372.000000
176.115400 2136.000000
177.125000 1892.000000
179.084500 576.000000
181.099500 1992.000000
182.108700 628.000000
183.078700 392.000000
183.116000 5912.000000
184.119700 1112.000000
185.096200 2452.000000
185.131500 7100.000000
186.096900 504.000000
186.133800 1112.000000
187.110400 3248.000000
187.145700 696.000000
188.114200 524.000000
189.126800 10196.000000
190.130200 1672.000000
191.104200 548.000000
191.141500 360.000000
192.094300 400.000000
193.101200 1292.000000
194.106400 912.000000
195.117100 2944.000000
196.121500 756.000000
197.095700 5480.000000
197.131800 3500.000000
198.098000 724.000000
198.135500 772.000000
199.110100 2576.000000
199.147400 2816.000000
200.116200 508.000000
200.153000 756.000000
201.128300 2792.000000
201.162700 964.000000
202.128800 500.000000
203.106400 624.000000
203.143700 2492.000000
204.147000 508.000000
205.100700 348.000000
207.115800 2204.000000
208.120000 764.000000
209.131500 6288.000000
210.136800 1924.000000
211.110700 2400.000000
211.147900 1636.000000
212.116700 680.000000
212.152700 516.000000
213.126200 2560.000000
213.163200 720.000000
214.131500 524.000000
215.141900 1804.000000
215.179700 764.000000
216.146200 524.000000
217.122800 332.000000
217.162100 432.000000
220.121200 388.000000
221.133000 904.000000
223.148200 3404.000000
224.153400 832.000000
225.126900 3760.000000
225.163100 5528.000000
226.130300 1236.000000
226.165900 1340.000000
227.143000 10312.000000
228.147000 1836.000000
229.121100 356.000000
229.157400 1008.000000
234.140600 660.000000
237.126800 744.000000
239.142900 11152.000000
239.179400 3536.000000
240.146000 2396.000000
240.183500 700.000000
241.158500 5884.000000
242.161500 1240.000000
243.136800 736.000000
243.174700 8976.000000
244.175700 1448.000000
245.153100 1108.000000
249.162900 5276.000000
250.166900 1800.000000
252.149900 3732.000000
253.153200 840.000000
257.153700 3320.000000
257.190600 1980.000000
258.158700 1100.000000
258.194800 628.000000
259.169800 2896.000000
260.174100 508.000000
261.183900 476.000000
267.174700 43104.000000
268.177600 7508.000000
269.179300 912.000000
270.161600 1020.000000
285.185200 55100.000000
286.188400 12100.000000
287.192000 1016.000000
303.196300 65460.000000
304.199300 13120.000000
305.201500 1124.000000

