>compound AU00143071
>parentmass 253.2162
>ionization [M+H]+
>formula C16H28O2
>rt 671.100000
>profile qtof
#smiles_iso C1CCCCOC(=O)CCCCC/C=C\CCC1
#smiles_can C1CCCCOC(=O)CCCCCC=CCCC1
#inchikey NVIPUOMWGQAOIT-RQOWECAXSA-N
#pubchem_id 5365703
#mb_accession AU245306

>ms2
121.101200 348.000000
133.099200 416.000000
137.094200 476.000000
181.120700 440.000000
233.188000 472.000000

