>compound AU01213677
>parentmass 100.1121
>ionization [M+H]+
>formula C6H13N
>rt 169.620000
>profile qtof
#smiles_iso C1CCC(CC1)N
#smiles_can C1CCC(CC1)N
#inchikey PAFZNILMFXTMIY-UHFFFAOYSA-N
#pubchem_id 7965
#mb_accession AU244106

>ms2
53.038100 336.000000
55.053700 9188.000000
56.057600 540.000000
58.064600 652.000000
74.094800 356.000000
83.085200 2728.000000
100.111800 468.000000

