>compound AU01896782
>parentmass 230.2478
>ionization [M+H]+
>formula C14H31NO
>rt 660.288000
>profile qtof
#smiles_iso CCCCCCCCCCCC[N+](C)(C)[O-]
#smiles_can CCCCCCCCCCCC[N+](C)(C)[O-]
#inchikey SYELZBGXAIXKHU-UHFFFAOYSA-N
#pubchem_id 15433
#mb_accession AU283901,AU283902,AU283903,AU283904,AU283906

>ms2peaks
212.236200 18496.000000
230.248000 2492212.000000
231.250500 575732.000000
232.253000 41784.000000

>ms2peaks
212.236300 144776.000000
213.240000 23456.000000
230.247100 1808540.000000
231.250400 175500.000000
232.253200 16168.000000

>ms2peaks
114.126300 364.000000
128.142900 1168.000000
142.158700 948.000000
156.173500 592.000000
170.187600 680.000000
184.203600 380.000000
198.220100 2272.000000
212.236100 35100.000000
213.239700 5596.000000
214.242300 544.000000
230.246800 20008.000000
231.250400 3120.000000

>ms2peaks
128.142600 320.000000
142.157600 408.000000
156.172700 372.000000
184.205100 412.000000
198.219800 924.000000
212.236900 4664.000000
213.240100 900.000000

>ms2peaks
57.069700 444.000000
58.064000 2356.000000
76.075500 716.000000
155.140200 588.000000
172.172400 352.000000
212.199000 888.000000
213.208400 316.000000
230.246800 744.000000

