>compound AU01322506
>parentmass 255.0652
>ionization [M+H]+
>formula C15H10O4
>rt 413.400000
>profile qtof
#smiles_iso C1=CC(=CC=C1C2=COC3=C(C2=O)C=CC(=C3)O)O
#smiles_can C1=CC(=CC=C1C2=COC3=C(C2=O)C=CC(=C3)O)O
#inchikey ZQSIJRDFPHDXIC-UHFFFAOYSA-N
#pubchem_id 5281708
#mb_accession AU287401,AU287402,AU287403,AU287404,AU287405,AU287406

>ms2peaks
255.064700 154244.000000
256.067800 23072.000000
257.071400 3084.000000

>ms2peaks
137.022400 2588.000000
181.063500 1060.000000
199.074500 6460.000000
227.069500 3188.000000
255.065100 167400.000000
256.068300 27844.000000
257.070700 3112.000000

>ms2peaks
119.048700 476.000000
121.028100 460.000000
128.061900 1112.000000
129.070200 948.000000
131.046500 324.000000
131.085900 312.000000
133.027800 1080.000000
137.022200 8804.000000
138.024400 728.000000
141.068900 596.000000
143.084700 828.000000
145.027700 1524.000000
149.023100 980.000000
152.060600 1268.000000
153.068700 3048.000000
154.072200 512.000000
157.063600 2108.000000
158.067100 300.000000
169.064100 528.000000
171.078900 3080.000000
181.063300 6312.000000
182.069000 1384.000000
184.049900 1140.000000
185.056700 480.000000
197.058600 640.000000
198.065500 592.000000
199.074200 21580.000000
200.078100 2940.000000
209.061000 1028.000000
210.066600 644.000000
211.074100 644.000000
226.057800 536.000000
227.068900 11256.000000
228.071300 1696.000000
237.054100 4152.000000
238.057300 668.000000
255.064400 43612.000000
256.067400 7920.000000
257.069700 744.000000

>ms2peaks
115.053700 436.000000
119.047700 724.000000
121.029100 900.000000
127.053200 320.000000
128.061300 5104.000000
129.068700 1876.000000
130.074600 320.000000
131.048600 1752.000000
133.028000 744.000000
134.034000 764.000000
137.022300 11552.000000
138.025900 920.000000
141.068000 1336.000000
143.084700 1140.000000
145.026300 1820.000000
145.062700 728.000000
147.041500 492.000000
149.021100 700.000000
151.052500 436.000000
152.060400 9764.000000
153.068200 8564.000000
154.072000 1380.000000
156.055500 464.000000
157.063100 2028.000000
165.068100 768.000000
168.053300 416.000000
169.062900 1456.000000
171.078600 3224.000000
172.082700 392.000000
181.063400 14772.000000
182.067500 3100.000000
184.050400 2808.000000
185.056500 636.000000
187.040500 324.000000
193.046100 380.000000
197.059100 2560.000000
198.065600 2788.000000
199.074000 13408.000000
200.077200 2276.000000
210.068900 764.000000
211.070800 392.000000
212.047600 512.000000
226.059900 520.000000
227.069400 5776.000000
228.073100 748.000000
237.054400 3212.000000
238.056100 768.000000
255.064600 4452.000000
256.068400 1096.000000

>ms2peaks
115.052500 812.000000
116.059200 336.000000
118.041800 308.000000
121.027600 468.000000
126.045500 372.000000
127.052800 740.000000
128.060900 5456.000000
129.067700 1216.000000
131.047500 1444.000000
134.034300 572.000000
137.022600 5092.000000
138.024600 384.000000
139.053300 320.000000
141.068700 1320.000000
143.084900 428.000000
144.054600 548.000000
145.064500 1040.000000
147.043100 492.000000
150.047400 396.000000
151.053000 552.000000
152.060600 14968.000000
153.067800 5376.000000
154.074600 956.000000
155.048900 472.000000
156.055600 584.000000
157.064200 900.000000
163.053100 580.000000
165.068600 608.000000
168.054700 564.000000
169.063600 2908.000000
170.069700 792.000000
171.079400 676.000000
181.063500 6476.000000
182.068600 1936.000000
184.051100 1452.000000
197.058700 3092.000000
198.063800 1340.000000
199.074400 2064.000000
209.059700 416.000000
210.064000 496.000000
226.061200 308.000000
227.069200 540.000000
237.053800 508.000000
255.066000 384.000000

>ms2peaks
129.068400 784.000000
133.026500 800.000000
137.022200 6176.000000
143.083500 948.000000
145.026700 1800.000000
153.068700 1576.000000
157.063800 1176.000000
171.079300 1952.000000
181.063300 4076.000000
182.068400 812.000000
199.074100 18672.000000
200.078300 2384.000000
227.068800 9460.000000
228.072700 1080.000000
237.053200 3288.000000
255.064800 135764.000000
256.068000 17516.000000
257.069600 2164.000000

