>compound AU01666959
>parentmass 173.2138
>ionization [M+H]+
>formula C11H26N+
>rt 364.600000
>profile qtof
#smiles_iso CCCCCCCC[N+](C)(C)C
#smiles_can CCCCCCCC[N+](C)(C)C
#inchikey HTKPDYSCAPSXIR-UHFFFAOYSA-N
#pubchem_id 24950
#mb_accession AU284701,AU284702,AU284703

>ms2peaks
172.205400 667888.000000
173.208200 75192.000000

>ms2peaks
172.205200 266560.000000
173.208100 38944.000000
174.210600 2048.000000

>ms2peaks
172.204400 13636.000000
173.207800 2624.000000

