>compound AU01327890
>parentmass 282.0214
>ionization [M+H]+
>formula C11H14Cl3NO
>rt 419.560000
>profile qtof
#smiles_iso CCCNCCOC1=C(C=C(C=C1Cl)Cl)Cl
#smiles_can CCCNCCOC1=C(C=C(C=C1Cl)Cl)Cl
#inchikey CLFQSOIBYICELN-UHFFFAOYSA-N
#pubchem_id 3842173
#mb_accession AU264701,AU264702,AU264703,AU264704,AU264705,AU264706

>ms2
282.021300 1360644.000000
283.024300 117208.000000
284.018400 1057876.000000

>ms2
222.946600 7104.000000
224.943800 4880.000000
239.973200 8556.000000
241.970600 7360.000000
246.043900 3300.000000
282.020600 358600.000000
283.023600 37116.000000
284.017500 269036.000000

>ms2
132.959400 432.000000
134.093900 744.000000
152.001100 340.000000
158.974700 2304.000000
159.981900 936.000000
160.954900 640.000000
160.972500 1280.000000
161.961800 1648.000000
161.982500 452.000000
163.957900 728.000000
166.920000 1056.000000
168.916700 680.000000
179.927600 980.000000
181.924500 912.000000
182.035000 428.000000
186.970300 832.000000
187.977400 2060.000000
188.968200 700.000000
188.983200 456.000000
189.978000 1240.000000
190.982200 328.000000
191.977500 620.000000
194.915300 4320.000000
194.953100 780.000000
195.918900 344.000000
196.911900 3460.000000
196.930000 3268.000000
196.948900 640.000000
198.927500 3132.000000
202.989600 320.000000
220.006100 320.000000
222.947100 4200.000000
223.952800 436.000000
224.943600 3240.000000
239.972900 1296.000000
241.971400 1120.000000
246.044000 392.000000
282.019800 7748.000000
283.023700 776.000000
284.017200 6756.000000

>ms2
122.999400 588.000000
125.014200 1084.000000
127.011700 456.000000
132.960200 2504.000000
134.095300 712.000000
134.956600 1160.000000
151.999500 492.000000
153.007600 496.000000
158.974600 3032.000000
159.981900 1400.000000
160.953400 1852.000000
160.972100 1472.000000
161.961900 4192.000000
162.950100 588.000000
162.968500 432.000000
163.958500 1864.000000
166.919700 5884.000000
168.916900 4552.000000
169.965700 472.000000
179.928600 1544.000000
181.926700 1688.000000
186.970000 496.000000
187.977500 1620.000000
188.963000 348.000000
189.977600 1284.000000
194.915300 4040.000000
194.950400 560.000000
196.911900 3292.000000
196.930300 1792.000000
198.927900 1980.000000
208.922500 364.000000
222.947900 644.000000
224.943200 364.000000

>ms2
122.997900 1172.000000
125.014000 1876.000000
127.011600 384.000000
128.001900 348.000000
132.959200 3924.000000
133.962400 328.000000
134.956400 1804.000000
142.942900 1116.000000
144.940300 496.000000
151.999900 364.000000
153.009500 536.000000
154.005800 316.000000
158.974700 2312.000000
159.981500 748.000000
160.952500 752.000000
160.972600 868.000000
161.961900 4792.000000
162.951000 456.000000
163.958500 2900.000000
166.919800 10764.000000
167.924700 876.000000
168.917300 7488.000000
169.967200 600.000000
178.919100 340.000000
179.928300 1780.000000
180.916300 404.000000
181.925200 1708.000000
187.977300 740.000000
188.962000 304.000000
189.981500 452.000000
191.977800 344.000000
194.914900 1860.000000
196.911900 1804.000000
196.930800 384.000000
198.926400 652.000000

>ms2
58.064500 38572.000000
59.072000 5236.000000
72.080300 23860.000000
73.083500 1512.000000
86.096300 70036.000000
87.100400 3240.000000
158.975000 1716.000000
160.972000 928.000000
187.977300 2464.000000
189.978800 1176.000000
194.915800 2840.000000
196.912800 2876.000000
196.931500 1576.000000
198.927700 1532.000000
222.946900 7024.000000
224.943700 5160.000000
239.973200 4788.000000
241.971600 4104.000000
246.042200 1400.000000
248.039300 948.000000
282.020700 168920.000000
283.024700 19892.000000
284.017900 133304.000000

