>compound AU02539265
>parentmass 208.1332
>ionization [M+H]+
>formula C12H17NO2
>rt 272.820000
>profile qtof
#smiles_iso CCNC(C)CC1=CC2=C(COO2)C=C1
#smiles_can CCNC(C)CC1=CC2=C(COO2)C=C1
#inchikey SKPIISDJIUTQMZ-UHFFFAOYSA-N
#pubchem_id 21966318
#mb_accession AU171306

>ms2
55.017100 33972.000000
72.080000 788284.000000
73.083200 22640.000000
77.037600 12436.000000
79.053400 177672.000000
91.053500 12864.000000
95.048500 22656.000000
103.054300 76428.000000
105.070500 1142760.000000
106.073800 166952.000000
115.054700 16084.000000
121.028300 21600.000000
122.036100 42872.000000
133.065300 1939304.000000
134.068400 123156.000000
135.044600 1753536.000000
136.047500 129540.000000
148.051300 10516.000000
151.075900 27896.000000
163.076400 1249144.000000
164.078900 214308.000000
165.081100 15280.000000
208.133800 106316.000000

