>compound AU02042766
>parentmass 331.0812
>ionization [M+H]+
>formula C17H14O7
>rt 344.448000
>profile qtof
#smiles_iso COC1=C2C3=C(C(=O)OCC3)C(=O)OC2=C4C5CCOC5OC4=C1
#smiles_can COC1=C2C3=C(C(=O)OCC3)C(=O)OC2=C4C5CCOC5OC4=C1
#inchikey WPCVRWVBBXIRMA-UHFFFAOYSA-N
#pubchem_id 23670
#mb_accession AU596500,AU596501,AU596502,AU596503,AU596504

>ms2peaks
331.081100 1482236.000000

>ms2peaks
313.069500 32840.000000
331.080500 1737304.000000

>ms2peaks
189.054800 5532.000000
201.091600 6068.000000
215.070700 5248.000000
216.077800 4968.000000
217.086300 12424.000000
229.086000 12560.000000
241.086200 11232.000000
243.065100 14992.000000
245.081100 55388.000000
246.084600 8000.000000
257.044400 16488.000000
257.080900 27272.000000
269.081200 9032.000000
275.055100 41100.000000
276.059000 6512.000000
285.076100 67720.000000
286.079500 11360.000000
287.055300 5472.000000
287.090700 10592.000000
303.086200 43116.000000
313.071200 231332.000000
314.074300 39108.000000
331.081900 982968.000000

>ms2peaks
115.054500 1592.000000
117.069100 764.000000
122.060000 1456.000000
127.054200 884.000000
128.062000 3672.000000
129.069200 2976.000000
130.076800 740.000000
131.049100 1364.000000
131.085400 1168.000000
133.063900 1428.000000
137.058800 916.000000
141.069800 3176.000000
142.077200 2284.000000
143.049200 1340.000000
143.084300 2740.000000
144.056300 1548.000000
145.027600 952.000000
145.064000 4156.000000
145.100100 764.000000
146.036500 852.000000
147.043900 2964.000000
147.079500 1200.000000
148.050300 868.000000
149.022600 676.000000
149.057800 796.000000
152.061800 2200.000000
153.069100 3832.000000
154.075500 1452.000000
155.049500 1144.000000
155.057700 1012.000000
155.085500 3016.000000
156.055500 696.000000
157.064700 3536.000000
158.071900 4116.000000
159.043700 1564.000000
159.079500 2856.000000
160.050100 1544.000000
161.059400 3336.000000
161.094600 1004.000000
163.038700 1352.000000
164.046400 1228.000000
165.053700 844.000000
165.069800 1804.000000
165.091400 668.000000
166.076400 636.000000
167.085800 824.000000
168.057800 1228.000000
169.064600 5260.000000
170.071900 3752.000000
171.043600 3848.000000
171.079200 4304.000000
172.050500 1544.000000
172.084700 972.000000
173.023500 1716.000000
173.059000 8020.000000
173.095600 4452.000000
174.066000 2684.000000
174.100300 788.000000
175.038900 5224.000000
175.075300 2676.000000
176.044700 936.000000
177.054000 2860.000000
178.060100 1544.000000
179.069200 1584.000000
181.064500 2844.000000
182.071600 1652.000000
183.044300 908.000000
183.079800 3272.000000
184.051400 1556.000000
185.059600 7512.000000
185.095600 2264.000000
186.030700 888.000000
186.067100 7112.000000
187.038000 2344.000000
187.073900 8316.000000
188.045700 2200.000000
188.080400 2024.000000
189.054000 53212.000000
189.090900 5100.000000
190.059400 7272.000000
191.033100 1940.000000
191.070200 4940.000000
193.049400 1456.000000
195.079400 1452.000000
196.049700 704.000000
197.059400 5612.000000
198.066700 7316.000000
199.038100 4316.000000
199.074800 8768.000000
200.045700 4256.000000
200.080200 1928.000000
201.054300 18612.000000
201.090600 28928.000000
202.061300 8720.000000
203.033500 4864.000000
203.069200 7956.000000
204.037400 804.000000
204.073300 1488.000000
205.049000 1228.000000
205.085700 2376.000000
207.062900 760.000000
207.101700 2688.000000
209.058800 1372.000000
210.066900 956.000000
211.039400 1092.000000
211.075100 4672.000000
212.046200 3836.000000
212.081200 1168.000000
213.053800 6004.000000
213.090100 6116.000000
214.062200 20100.000000
215.033000 1828.000000
215.069400 16732.000000
216.040400 916.000000
216.077500 13948.000000
217.048800 8028.000000
217.085600 66460.000000
218.053600 1488.000000
218.088800 9928.000000
219.064700 1852.000000
221.043900 2556.000000
224.046500 1064.000000
225.054300 8296.000000
226.061700 10352.000000
227.033100 3820.000000
227.069600 20820.000000
228.040500 1852.000000
228.076400 7280.000000
229.049200 20084.000000
229.085500 32308.000000
230.053700 4012.000000
230.088700 4688.000000
231.064000 3996.000000
231.097200 972.000000
232.068300 956.000000
233.080500 1436.000000
235.095500 5620.000000
237.054700 1244.000000
238.062800 640.000000
239.033500 704.000000
239.069600 3716.000000
240.074700 872.000000
241.048900 6112.000000
241.085300 22672.000000
242.056600 17860.000000
242.088200 4120.000000
243.027400 3412.000000
243.064300 28148.000000
244.070200 8348.000000
245.080700 126236.000000
246.083600 16892.000000
247.061100 1636.000000
252.041400 1472.000000
253.047200 2964.000000
254.057500 4640.000000
255.026800 1812.000000
255.064100 5096.000000
256.070300 3172.000000
257.044300 60548.000000
257.080600 49520.000000
258.047200 9772.000000
258.083700 8104.000000
259.058100 2860.000000
259.092200 2084.000000
260.064600 984.000000
261.040100 2052.000000
262.044300 1020.000000
263.090500 916.000000
267.064600 2752.000000
269.043400 8456.000000
269.079800 7704.000000
270.050700 11264.000000
270.083600 1376.000000
271.022300 1524.000000
271.058200 3828.000000
272.067300 5024.000000
273.075700 2148.000000
275.054400 58588.000000
276.058300 9988.000000
280.034500 1268.000000
281.044600 1028.000000
282.050600 1648.000000
283.022000 936.000000
283.059600 4484.000000
284.067500 4580.000000
285.075400 91676.000000
286.041600 1032.000000
286.078100 14676.000000
287.054200 11928.000000
287.089400 7444.000000
288.058900 2656.000000
289.035200 1860.000000
289.068900 1532.000000
295.059100 3064.000000
297.038400 1024.000000
298.046700 3360.000000
299.049800 720.000000
301.070400 3164.000000
302.076100 1300.000000
303.048400 1324.000000
303.085900 23372.000000
311.050700 720.000000
313.070000 106412.000000
314.073600 19108.000000
315.049300 696.000000
316.055800 1104.000000
329.063100 1076.000000
331.080500 107372.000000

>ms2peaks
115.053900 6704.000000
116.059600 1304.000000
117.069800 2308.000000
118.040000 1168.000000
119.047900 832.000000
121.065000 680.000000
127.054000 2288.000000
128.061300 12584.000000
129.033200 920.000000
129.069100 7628.000000
130.041600 936.000000
130.076500 2024.000000
131.048200 5088.000000
131.084200 2524.000000
132.055700 1500.000000
133.027200 656.000000
133.063900 4056.000000
135.043000 1740.000000
137.059200 1444.000000
139.053400 1180.000000
140.061000 1436.000000
141.069300 12268.000000
142.076500 5256.000000
143.048000 5748.000000
143.084300 3844.000000
144.055900 4916.000000
145.027800 2216.000000
145.064100 12608.000000
145.100700 1084.000000
146.035600 4704.000000
146.069700 2016.000000
147.043200 6128.000000
147.079400 2024.000000
148.049700 1172.000000
149.059500 1496.000000
151.054800 740.000000
151.074800 696.000000
152.061300 6568.000000
153.069200 8944.000000
154.075900 3244.000000
155.048800 3288.000000
155.058400 3528.000000
155.084600 3784.000000
156.055900 2120.000000
157.027800 1328.000000
157.064400 10352.000000
158.034700 1168.000000
158.071800 11896.000000
159.043400 6576.000000
159.079000 7140.000000
160.051500 3996.000000
161.023100 912.000000
161.059100 7096.000000
161.094800 1376.000000
162.063600 940.000000
163.038500 2344.000000
163.074900 1168.000000
164.044900 1588.000000
165.054000 804.000000
165.069100 3448.000000
166.074200 704.000000
167.086200 856.000000
168.056500 4484.000000
169.028400 728.000000
169.064000 10660.000000
170.071100 7432.000000
171.043400 11764.000000
171.079400 7344.000000
172.050000 4852.000000
172.085000 1232.000000
173.022900 5152.000000
173.058800 16120.000000
173.095100 5736.000000
174.029900 1776.000000
174.065600 7420.000000
175.038200 9788.000000
175.073900 3504.000000
176.044600 2252.000000
177.053800 4608.000000
178.060900 3404.000000
179.068600 2228.000000
181.064100 5040.000000
182.071100 1964.000000
183.042900 2552.000000
183.080300 3204.000000
184.050900 3044.000000
184.086500 744.000000
185.059100 20696.000000
185.095500 1548.000000
186.031300 2488.000000
186.066500 14976.000000
187.038200 7648.000000
187.074600 10864.000000
188.046200 5616.000000
188.081200 2692.000000
189.054100 130580.000000
190.058600 18692.000000
191.033200 5592.000000
191.068500 4968.000000
192.038400 828.000000
192.073900 836.000000
193.049200 1956.000000
195.044800 924.000000
195.078300 712.000000
196.050800 2008.000000
197.022900 988.000000
197.058800 11248.000000
198.066500 12700.000000
199.038400 10200.000000
199.074200 9404.000000
200.045600 10044.000000
200.081100 2744.000000
201.053700 39280.000000
201.090400 22840.000000
202.060900 18300.000000
203.033200 8292.000000
203.068400 7432.000000
204.038100 1216.000000
204.073100 1148.000000
205.048600 1580.000000
205.085400 1316.000000
207.065700 728.000000
207.099600 1804.000000
209.060100 1612.000000
210.067100 936.000000
211.037100 2272.000000
211.074600 5016.000000
212.045900 13448.000000
212.080300 1304.000000
213.053800 15740.000000
213.090300 3376.000000
214.026000 2488.000000
214.061600 29652.000000
215.033100 3832.000000
215.068600 21224.000000
216.040400 1604.000000
216.076800 11408.000000
217.049000 8704.000000
217.085300 79224.000000
218.053300 1512.000000
218.088400 11012.000000
219.028800 844.000000
219.064300 1872.000000
219.090800 1100.000000
221.043100 4216.000000
223.038300 740.000000
224.046600 2300.000000
225.018100 792.000000
225.054100 11852.000000
226.061700 11368.000000
227.033400 6056.000000
227.069600 18208.000000
228.040100 2608.000000
228.076300 7564.000000
229.048900 24004.000000
229.085000 15124.000000
230.053800 4596.000000
230.088700 2612.000000
231.026700 672.000000
231.063800 2992.000000
232.070700 1212.000000
233.044000 684.000000
235.096100 1344.000000
237.052700 1048.000000
238.061200 1104.000000
239.033100 1592.000000
239.068300 2816.000000
240.040500 996.000000
241.012600 756.000000
241.049300 12352.000000
241.085200 11844.000000
242.019100 1100.000000
242.056200 14520.000000
242.087900 1816.000000
243.028800 4732.000000
243.064000 15468.000000
244.032500 748.000000
244.069600 3440.000000
245.043800 4212.000000
245.080400 41936.000000
246.084100 7744.000000
247.059500 1204.000000
247.086700 1020.000000
252.041000 1644.000000
253.048700 2828.000000
254.056100 2672.000000
255.028200 4360.000000
255.063700 3452.000000
256.034300 968.000000
256.070500 1752.000000
257.043600 33316.000000
257.080200 19712.000000
258.047100 4240.000000
258.082900 3416.000000
259.058000 1284.000000
261.036300 1132.000000
267.064900 1352.000000
268.036500 844.000000
269.043100 15468.000000
269.079900 1572.000000
270.049300 5492.000000
271.023000 752.000000
271.059000 2196.000000
272.066500 720.000000
273.074200 800.000000
275.053600 15924.000000
276.057200 2916.000000
280.035800 824.000000
283.021900 1220.000000
283.059200 1968.000000
284.064500 1188.000000
285.075300 19840.000000
286.078500 3868.000000
287.054800 6964.000000
287.087200 1008.000000
288.057100 1500.000000
297.038700 1504.000000
298.046500 1272.000000
301.069200 1144.000000
303.085600 2796.000000
313.069900 9752.000000
314.072800 2216.000000
331.081500 4860.000000

