>compound AU02287387
>parentmass 316.0347
>ionization [M+H]+
>formula C14H9ClF3NO2
>rt 638.880000
>profile qtof
#smiles_iso C1CC1C#CC2(C3=C(C=CC(=C3)Cl)NC(=O)O2)C(F)(F)F
#smiles_can C1CC1C#CC2(C3=C(C=CC(=C3)Cl)NC(=O)O2)C(F)(F)F
#inchikey XPOQHMRABVBWPR-UHFFFAOYSA-N
#pubchem_id 3203
#mb_accession AU235701,AU235702,AU235703,AU235704,AU235705,AU235706

>ms2
168.080100 888.000000
203.047600 896.000000
220.010700 784.000000
222.053000 516.000000
232.012800 1696.000000
234.015700 476.000000
236.072500 664.000000
237.074400 2180.000000
238.078500 348.000000
244.012300 3600.000000
245.015500 724.000000
246.008900 1128.000000
252.036900 1172.000000
254.035400 396.000000
270.027400 492.000000
272.044100 5408.000000
273.046200 852.000000
274.041900 1440.000000
278.016500 416.000000
298.024100 920.000000
300.023600 360.000000
316.033700 7212.000000
317.037400 1128.000000
318.032100 1916.000000

>ms2
167.073200 484.000000
168.079400 3980.000000
169.082100 468.000000
188.026200 452.000000
201.034000 728.000000
202.039800 852.000000
203.047900 1604.000000
204.036400 384.000000
205.046300 928.000000
217.068000 684.000000
220.012500 572.000000
222.013100 392.000000
222.052500 1176.000000
223.057900 392.000000
224.008000 648.000000
232.012600 3564.000000
232.030300 1400.000000
233.013100 376.000000
234.009500 844.000000
235.058400 972.000000
236.067800 868.000000
237.075100 2708.000000
238.077700 444.000000
244.012900 7416.000000
245.016000 864.000000
246.010700 1724.000000
247.013300 332.000000
250.024300 1012.000000
252.017600 380.000000
252.035900 1272.000000
254.038100 572.000000
263.054800 332.000000
270.029400 796.000000
272.045000 936.000000
278.019500 996.000000
280.016300 400.000000

>ms2
167.072600 916.000000
168.079700 4364.000000
169.083700 644.000000
188.024300 1036.000000
189.032800 464.000000
197.061300 336.000000
201.033700 1168.000000
202.040700 1636.000000
203.047300 1016.000000
205.048900 344.000000
212.006200 556.000000
215.051500 372.000000
216.063600 300.000000
217.068000 772.000000
220.013400 560.000000
222.050600 1960.000000
224.005500 2952.000000
225.010600 484.000000
226.002500 756.000000
230.017600 360.000000
232.012800 2548.000000
232.032900 900.000000
233.022700 304.000000
233.037200 344.000000
234.008500 864.000000
234.028000 684.000000
235.058900 508.000000
236.067800 580.000000
237.015000 340.000000
237.071800 640.000000
244.013000 3644.000000
245.012400 624.000000
246.009200 1000.000000
250.022200 1416.000000
251.025000 328.000000
252.019100 620.000000
252.037500 360.000000

>ms2
162.010100 300.000000
164.026500 652.000000
166.063700 892.000000
167.071600 3092.000000
168.079400 3836.000000
169.082200 596.000000
170.052900 340.000000
175.017000 708.000000
185.045000 528.000000
185.063300 404.000000
188.024900 1140.000000
189.038700 1388.000000
190.043700 468.000000
191.999700 348.000000
196.053900 376.000000
197.063000 868.000000
198.050300 328.000000
200.007600 376.000000
201.033600 1108.000000
202.040300 1064.000000
203.034800 408.000000
203.046800 392.000000
204.038600 540.000000
209.046500 792.000000
212.006300 912.000000
214.045100 336.000000
215.054500 832.000000
216.062400 1088.000000
217.068800 504.000000
222.052100 964.000000
224.007100 3660.000000
225.008100 528.000000
225.016400 300.000000
226.004200 1156.000000
230.017200 408.000000
232.013800 1248.000000
232.029900 1044.000000
233.017500 304.000000
234.009500 352.000000
234.026100 492.000000
235.059700 616.000000
236.068800 576.000000
237.016000 764.000000
239.012800 316.000000
244.012900 1156.000000
246.009900 340.000000
250.020500 744.000000

>ms2
138.026900 792.000000
140.048200 460.000000
141.068600 468.000000
151.016800 320.000000
162.010400 564.000000
164.023100 464.000000
166.063400 1304.000000
167.071200 3584.000000
168.079800 2320.000000
169.031800 404.000000
170.052500 304.000000
172.994500 388.000000
174.008000 348.000000
182.037500 324.000000
184.055000 348.000000
185.061700 400.000000
188.025400 988.000000
189.037500 1672.000000
190.042500 484.000000
191.998900 640.000000
195.046900 516.000000
196.052700 760.000000
197.062100 612.000000
198.068800 380.000000
200.006300 312.000000
201.031300 436.000000
202.039700 840.000000
203.049500 352.000000
209.043600 372.000000
212.005600 604.000000
214.044100 544.000000
215.052300 632.000000
216.061100 1040.000000
217.065000 420.000000
222.051900 732.000000
224.007600 1712.000000
226.004600 532.000000
230.017000 392.000000
232.017400 384.000000

>ms2
53.038500 1428.000000
167.071000 1252.000000
168.079200 5664.000000
169.083300 868.000000
185.044300 348.000000
188.024200 896.000000
189.037200 320.000000
190.046100 300.000000
201.033200 900.000000
202.040900 1008.000000
203.031100 388.000000
203.047500 1536.000000
204.034900 368.000000
205.044000 588.000000
209.041400 444.000000
212.006900 704.000000
216.061600 600.000000
217.070800 568.000000
220.010600 492.000000
222.050900 1400.000000
223.057600 376.000000
224.007000 2544.000000
225.009400 312.000000
226.003600 820.000000
232.012200 2452.000000
233.016800 344.000000
234.011800 848.000000
235.059700 476.000000
236.067800 908.000000
237.014700 384.000000
237.074700 1432.000000
244.011900 5032.000000
245.018500 608.000000
246.009600 1484.000000
250.022700 1400.000000
251.026300 360.000000
252.016100 356.000000
252.033800 676.000000
270.030300 604.000000
272.043500 312.000000
278.014600 488.000000

