>compound AU02383261
>parentmass 363.2166
>ionization [M+H]+
>formula C21H30O5
>rt 468.040000
>profile qtof
#smiles_iso C[C@]12CCC(=O)C=C1CC[C@@H]3[C@@H]2[C@H](C[C@]4([C@H]3CC[C@@]4(C(=O)CO)O)C)O
#smiles_can CC12CCC(=O)C=C1CCC3C2C(CC4(C3CCC4(C(=O)CO)O)C)O
#inchikey JYGXADMDTFJGBT-VWUMJDOOSA-N
#pubchem_id 5754
#mb_accession AU280901,AU280902,AU280903,AU280904,AU280905,AU280906

>ms2peaks
121.063600 836.000000
267.174500 1148.000000
303.194700 15060.000000
304.199100 4280.000000
309.183200 1960.000000
327.194800 3432.000000
328.196200 788.000000
345.207100 2204.000000
361.201100 1664.000000
363.217000 156456.000000
364.220000 33356.000000
365.222100 6000.000000

>ms2peaks
119.085600 376.000000
121.063900 10076.000000
122.067400 1376.000000
123.079300 1724.000000
131.084700 512.000000
133.100000 632.000000
135.080200 1772.000000
135.116000 364.000000
137.058400 312.000000
137.094500 424.000000
141.070500 304.000000
143.084400 652.000000
145.099300 1420.000000
147.079000 1060.000000
147.115700 1700.000000
149.096100 1340.000000
149.130100 548.000000
151.073400 664.000000
155.085100 612.000000
157.100300 1364.000000
159.078800 572.000000
159.116000 1640.000000
161.095200 1712.000000
161.130300 524.000000
163.110700 2244.000000
169.099600 936.000000
171.077900 708.000000
171.115900 1184.000000
173.094900 1036.000000
173.132000 580.000000
175.110700 1596.000000
177.126700 640.000000
179.104800 464.000000
181.100600 428.000000
183.116300 968.000000
185.094300 876.000000
185.132400 644.000000
187.110800 2860.000000
187.145800 348.000000
188.112600 456.000000
189.125000 916.000000
193.100600 432.000000
195.112800 836.000000
197.098800 444.000000
197.130600 512.000000
199.110400 884.000000
199.147600 348.000000
201.126800 1296.000000
203.106400 424.000000
203.138800 560.000000
205.122000 956.000000
207.118700 608.000000
207.136100 704.000000
209.132100 1084.000000
211.110600 428.000000
211.147800 840.000000
213.126000 1344.000000
215.107600 316.000000
215.141000 728.000000
217.121400 340.000000
217.157500 328.000000
219.135500 500.000000
221.134900 644.000000
223.108400 556.000000
223.147200 1588.000000
224.114600 368.000000
225.128300 1728.000000
225.164000 544.000000
226.132600 356.000000
227.107200 320.000000
227.140500 1048.000000
229.155000 892.000000
231.136700 1460.000000
233.129000 580.000000
235.149000 368.000000
239.143000 2096.000000
240.145100 444.000000
241.157400 3212.000000
242.162300 592.000000
243.138400 660.000000
243.173000 1952.000000
244.175200 424.000000
245.150700 396.000000
247.147500 460.000000
249.162000 1940.000000
250.163600 344.000000
251.141700 1552.000000
251.179000 812.000000
252.146900 540.000000
253.157300 736.000000
255.169800 308.000000
257.156200 312.000000
263.143500 512.000000
263.179900 676.000000
265.156700 1172.000000
266.160600 364.000000
267.174000 7168.000000
268.176700 2864.000000
269.152300 724.000000
269.188700 7240.000000
270.195500 1120.000000
271.168700 552.000000
273.160900 596.000000
279.176200 1524.000000
280.175000 472.000000
281.152700 1244.000000
281.190200 2712.000000
282.195700 764.000000
283.168800 576.000000
285.185800 1192.000000
286.189000 464.000000
287.200800 1288.000000
291.173100 3892.000000
292.175900 960.000000
297.184200 5696.000000
298.189500 1124.000000
299.163800 688.000000
299.199100 1780.000000
300.201900 356.000000
301.180400 460.000000
303.195100 4824.000000
304.197700 968.000000
309.184000 11404.000000
310.187300 2840.000000
311.185000 312.000000
315.194800 1548.000000
316.196200 320.000000
317.212000 436.000000
327.194700 18444.000000
328.198200 4128.000000
329.199400 540.000000
345.205400 7772.000000
346.211400 2156.000000
347.214500 340.000000
361.199000 1284.000000
362.204000 504.000000
363.215800 55192.000000
364.219700 13864.000000
365.221900 2088.000000

>ms2peaks
117.068800 436.000000
119.084600 1164.000000
121.064000 14460.000000
122.066700 1604.000000
123.079800 3304.000000
124.083200 300.000000
128.061200 484.000000
129.069100 1016.000000
131.085100 2348.000000
133.064900 788.000000
133.100600 1776.000000
135.079000 3292.000000
135.116600 1104.000000
136.084300 432.000000
137.059300 376.000000
137.094300 884.000000
139.075000 412.000000
141.069100 1116.000000
142.076900 360.000000
143.084800 3728.000000
144.087900 500.000000
145.064800 596.000000
145.100000 4584.000000
146.102900 392.000000
147.079600 2240.000000
147.116000 4808.000000
148.119300 692.000000
149.095200 1488.000000
149.131500 648.000000
150.097100 308.000000
151.074100 508.000000
153.090400 388.000000
155.083900 1760.000000
156.090000 340.000000
157.063800 456.000000
157.099600 3536.000000
158.104100 428.000000
159.078800 2056.000000
159.116200 2892.000000
160.118000 516.000000
161.095000 2620.000000
161.132700 900.000000
162.096700 404.000000
163.111000 4656.000000
164.114200 596.000000
167.084300 648.000000
168.091500 352.000000
169.099800 2956.000000
170.104300 660.000000
171.079000 1448.000000
171.115700 2680.000000
172.122400 1196.000000
173.094800 3100.000000
173.132000 1932.000000
174.098000 468.000000
175.074600 324.000000
175.110000 3412.000000
176.114400 516.000000
177.089400 408.000000
177.125100 1012.000000
179.083900 444.000000
181.100100 1248.000000
182.106400 460.000000
183.116200 2580.000000
184.119800 472.000000
185.095500 1840.000000
185.131300 2104.000000
186.098400 340.000000
186.136300 484.000000
187.110700 3928.000000
187.149700 672.000000
188.114700 644.000000
189.126600 1816.000000
191.104000 468.000000
193.099600 840.000000
193.120600 324.000000
194.108700 360.000000
195.115000 1532.000000
197.094200 1020.000000
197.131100 1480.000000
199.111400 1292.000000
199.147300 1336.000000
201.126100 1348.000000
203.106200 780.000000
203.139900 872.000000
205.120700 1016.000000
207.116000 1364.000000
208.119600 456.000000
209.096300 540.000000
209.132600 2640.000000
210.137600 644.000000
211.109600 876.000000
211.148200 1240.000000
212.119400 320.000000
213.126200 2244.000000
213.163000 452.000000
214.131800 816.000000
215.142300 1188.000000
216.144600 336.000000
217.123000 364.000000
219.113900 380.000000
219.137700 512.000000
220.122900 408.000000
221.131800 1184.000000
222.137000 540.000000
223.108900 1036.000000
223.147900 1820.000000
225.127000 3432.000000
225.161600 1068.000000
226.128500 652.000000
227.141800 1892.000000
227.175800 536.000000
228.147300 408.000000
229.156300 920.000000
231.138000 904.000000
233.131100 368.000000
234.138000 364.000000
235.111500 512.000000
235.147500 716.000000
237.127300 572.000000
237.164900 560.000000
239.143000 2628.000000
239.179400 572.000000
240.146200 724.000000
241.158000 5052.000000
241.195800 324.000000
242.160800 1140.000000
243.137600 796.000000
243.174200 1896.000000
244.178700 332.000000
245.153200 496.000000
247.147000 656.000000
249.125700 484.000000
249.163700 1908.000000
250.169600 724.000000
251.142200 1804.000000
251.181000 1468.000000
252.148000 828.000000
252.187900 368.000000
253.122600 344.000000
253.154800 960.000000
254.164500 344.000000
255.173500 652.000000
257.153900 384.000000
259.170100 320.000000
261.148200 368.000000
261.163600 700.000000
263.141800 544.000000
263.180700 564.000000
265.156900 1024.000000
266.165500 688.000000
267.136800 528.000000
267.173800 4976.000000
268.180900 3208.000000
269.153600 1040.000000
269.189700 5344.000000
270.159200 316.000000
270.194400 848.000000
271.169700 548.000000
273.162200 632.000000
279.173100 1116.000000
281.155000 580.000000
281.189900 2092.000000
282.193600 508.000000
283.168800 648.000000
284.176300 304.000000
285.184300 728.000000
286.188800 728.000000
287.199100 824.000000
291.173300 2124.000000
292.179200 680.000000
297.184900 2772.000000
298.188900 792.000000
299.160800 360.000000
299.198400 592.000000
303.194900 1568.000000
309.184500 4868.000000
310.189700 1104.000000
315.191900 772.000000
327.194800 4916.000000
328.198900 1408.000000
345.203900 952.000000
363.216300 2736.000000
364.222600 740.000000

>ms2peaks
115.053300 736.000000
117.069500 808.000000
119.084600 2456.000000
121.063800 9876.000000
121.101200 556.000000
122.067400 1012.000000
123.079300 4104.000000
128.061000 1712.000000
129.069000 2472.000000
130.077300 628.000000
131.084100 3284.000000
132.087400 388.000000
133.063900 616.000000
133.099300 2204.000000
135.079400 1792.000000
135.115200 1152.000000
136.085400 420.000000
137.094700 664.000000
141.068800 1376.000000
142.075700 1356.000000
143.084200 4076.000000
144.091600 900.000000
145.063500 892.000000
145.099700 6020.000000
147.079200 2036.000000
147.116000 5096.000000
148.086700 304.000000
148.118500 896.000000
149.094800 1380.000000
149.130200 460.000000
151.110900 328.000000
153.068200 504.000000
154.074200 816.000000
155.084100 2232.000000
156.089800 604.000000
157.064600 348.000000
157.099600 4116.000000
158.073400 324.000000
158.103900 784.000000
159.079800 2024.000000
159.114900 4420.000000
160.085600 444.000000
160.121100 604.000000
161.093800 2504.000000
161.131800 908.000000
163.110600 4440.000000
164.113800 732.000000
165.067200 408.000000
166.077200 460.000000
167.083800 1088.000000
168.090100 412.000000
169.099000 3564.000000
170.103500 720.000000
171.079300 1596.000000
171.115100 2616.000000
172.084100 352.000000
172.120800 1084.000000
173.095000 2948.000000
173.131800 1588.000000
174.100700 824.000000
174.134000 320.000000
175.110200 1664.000000
176.115600 520.000000
177.126700 692.000000
179.083000 504.000000
181.099700 1268.000000
182.106700 532.000000
183.115300 2516.000000
184.119000 668.000000
185.093700 1304.000000
185.130500 2384.000000
186.136300 548.000000
187.109800 1680.000000
187.147100 484.000000
189.126300 1140.000000
191.085000 300.000000
192.092000 480.000000
193.099400 832.000000
194.109200 812.000000
195.115200 1640.000000
196.121300 424.000000
197.095100 680.000000
197.130000 2096.000000
198.102100 312.000000
198.135300 320.000000
199.110300 1264.000000
199.147200 900.000000
201.127200 764.000000
202.130700 324.000000
205.120600 580.000000
207.114600 1368.000000
208.121900 808.000000
209.092500 380.000000
209.130900 1720.000000
210.138200 644.000000
211.110200 948.000000
211.145900 1308.000000
212.150900 468.000000
213.125100 1492.000000
213.160000 520.000000
214.130600 388.000000
215.143800 1020.000000
217.121800 376.000000
219.116000 456.000000
220.123100 300.000000
221.131600 840.000000
222.138500 608.000000
223.110600 616.000000
223.146100 1376.000000
224.117300 420.000000
224.154800 308.000000
225.128000 1492.000000
225.163400 1120.000000
226.134800 564.000000
226.168300 304.000000
227.142100 664.000000
228.145400 608.000000
229.156500 404.000000
233.129500 356.000000
235.146400 440.000000
237.126100 424.000000
238.134600 352.000000
239.139400 1228.000000
239.176800 304.000000
240.144800 336.000000
241.157400 2032.000000
242.163200 776.000000
243.172600 616.000000
248.154900 476.000000
249.162900 824.000000
251.141100 764.000000
251.178900 776.000000
252.148400 412.000000
253.156700 1492.000000
254.165700 608.000000
263.143400 332.000000
265.157100 396.000000
266.166600 308.000000
267.174800 1576.000000
268.180700 1516.000000
269.151700 468.000000
269.187900 1284.000000
270.189900 312.000000
271.166100 320.000000
279.173600 332.000000
281.186400 692.000000
286.192100 320.000000
287.195200 420.000000
291.175400 324.000000
294.156600 320.000000
297.182700 636.000000
298.185800 308.000000
309.183100 708.000000
312.172100 332.000000
327.194000 476.000000

>ms2peaks
115.052700 944.000000
117.068700 1708.000000
119.085000 3396.000000
121.064000 13680.000000
121.100300 1236.000000
123.079700 2392.000000
128.061100 2676.000000
129.068300 3252.000000
130.075900 1184.000000
131.084200 6004.000000
132.089200 684.000000
133.063700 1104.000000
133.100000 4032.000000
135.079500 2492.000000
135.115900 704.000000
137.095200 932.000000
141.068000 2588.000000
142.076100 2064.000000
143.084100 5380.000000
144.088700 928.000000
145.063800 1380.000000
145.100000 6436.000000
146.105400 1056.000000
147.078800 4684.000000
147.115200 3196.000000
148.085400 1156.000000
148.118900 608.000000
149.094300 2040.000000
151.111100 504.000000
153.069100 1012.000000
154.077000 772.000000
155.084300 3036.000000
156.090000 1240.000000
157.063800 524.000000
157.099700 4408.000000
158.069500 632.000000
158.104600 704.000000
159.079000 2924.000000
159.115400 3720.000000
160.120700 500.000000
161.094600 4112.000000
161.130600 924.000000
162.100300 624.000000
163.110300 4852.000000
164.113100 748.000000
165.067800 852.000000
166.076800 532.000000
167.084400 1164.000000
167.106000 308.000000
168.092600 1032.000000
169.100700 3268.000000
170.105100 788.000000
171.079200 1680.000000
171.115700 3632.000000
172.086100 432.000000
172.120100 736.000000
173.095000 3056.000000
173.133800 1376.000000
174.102200 1800.000000
175.109600 1900.000000
176.116000 300.000000
177.125900 1088.000000
178.077400 380.000000
179.083700 1000.000000
180.092400 876.000000
181.100900 2392.000000
182.105800 616.000000
183.084600 336.000000
183.115000 3536.000000
184.121200 764.000000
185.095900 1444.000000
185.131100 2912.000000
186.135200 496.000000
187.110800 1640.000000
187.146200 556.000000
188.118100 600.000000
189.088200 324.000000
189.125900 3340.000000
190.129500 488.000000
191.084800 408.000000
192.091800 692.000000
193.099600 1344.000000
194.106800 728.000000
195.116800 1328.000000
196.121900 840.000000
197.093500 672.000000
197.130900 2956.000000
198.102400 492.000000
198.134900 544.000000
199.109900 1184.000000
199.146200 2260.000000
200.115600 476.000000
200.149900 316.000000
201.126300 1756.000000
201.161500 364.000000
202.133000 668.000000
203.142300 936.000000
205.100900 584.000000
207.116100 1152.000000
208.125900 692.000000
209.132200 1436.000000
210.138600 624.000000
211.110600 724.000000
211.148800 1096.000000
212.119400 628.000000
213.127000 1844.000000
213.162500 844.000000
214.132500 520.000000
215.143200 564.000000
217.158300 380.000000
219.115400 404.000000
220.123400 408.000000
221.131000 696.000000
223.146400 1484.000000
224.150700 528.000000
225.126400 768.000000
225.162700 948.000000
226.132700 752.000000
226.167700 588.000000
227.141400 2324.000000
228.149700 796.000000
229.120700 800.000000
229.157300 380.000000
234.138400 308.000000
237.125600 312.000000
238.133800 360.000000
239.144000 664.000000
239.179200 676.000000
241.158300 4296.000000
242.163700 2000.000000
243.173000 1296.000000
244.145000 2244.000000
245.151700 1372.000000
249.165900 448.000000
253.158000 1212.000000
257.186700 528.000000
259.168900 7832.000000
260.172400 1640.000000
267.174600 1188.000000
268.179100 440.000000
285.185200 1192.000000
303.197000 1348.000000

>ms2peaks
95.085100 324.000000
97.066900 812.000000
109.066000 540.000000
117.069300 332.000000
119.084900 1452.000000
121.064000 16636.000000
122.067500 1956.000000
123.079200 2188.000000
125.058700 448.000000
128.060500 376.000000
129.068500 608.000000
130.076500 340.000000
131.084600 1932.000000
133.062700 536.000000
133.100700 2156.000000
134.102700 324.000000
135.079600 2428.000000
135.116500 556.000000
137.058000 448.000000
137.095000 928.000000
139.072200 372.000000
141.069800 1240.000000
142.074800 344.000000
143.083600 2848.000000
144.088900 380.000000
145.064200 628.000000
145.100000 3692.000000
147.078700 2732.000000
147.115100 4096.000000
148.081900 468.000000
148.120000 528.000000
149.094200 1416.000000
149.131100 668.000000
151.074900 300.000000
155.083600 1020.000000
157.065300 336.000000
157.099400 2764.000000
158.103100 420.000000
159.078800 1972.000000
159.115400 3544.000000
160.120400 836.000000
161.094200 1892.000000
161.131700 1056.000000
163.110200 3716.000000
164.114200 528.000000
165.088300 300.000000
167.083500 748.000000
169.098900 2564.000000
170.103600 568.000000
171.079900 1128.000000
171.115100 1776.000000
172.121700 656.000000
173.095400 1988.000000
173.131200 1416.000000
174.098600 480.000000
175.110100 2828.000000
176.114400 456.000000
177.090700 428.000000
177.125600 760.000000
179.104500 364.000000
181.099800 948.000000
183.115600 2304.000000
185.096500 1196.000000
185.131500 1560.000000
186.100400 308.000000
187.110000 3240.000000
187.147800 492.000000
188.113000 592.000000
189.125900 1756.000000
191.103800 348.000000
193.099700 308.000000
195.115900 892.000000
196.120800 496.000000
197.095700 636.000000
197.131000 1144.000000
199.111300 1232.000000
199.146800 772.000000
201.126400 1548.000000
203.105600 564.000000
203.142900 712.000000
205.121300 960.000000
207.116200 688.000000
207.133600 372.000000
209.131100 2376.000000
210.134900 524.000000
211.110800 1016.000000
211.146500 1056.000000
212.114800 364.000000
213.125700 1820.000000
214.131800 640.000000
215.142300 1232.000000
217.119300 308.000000
217.155500 316.000000
219.138300 376.000000
221.132000 912.000000
223.111500 376.000000
223.146700 1528.000000
225.126700 2716.000000
225.162700 1224.000000
226.129600 396.000000
227.142600 1652.000000
228.145500 492.000000
229.121400 340.000000
229.156600 632.000000
231.136100 664.000000
233.132300 748.000000
235.107400 364.000000
235.142500 308.000000
237.126400 376.000000
237.163100 388.000000
239.142300 2252.000000
239.177500 464.000000
240.146800 468.000000
241.121200 504.000000
241.157800 4348.000000
242.160600 896.000000
243.136000 828.000000
243.173800 1800.000000
244.175200 480.000000
245.151700 572.000000
247.145700 428.000000
249.131000 364.000000
249.163600 1408.000000
250.172200 384.000000
251.143600 1232.000000
251.177100 1388.000000
252.144600 448.000000
253.156700 1288.000000
254.167200 324.000000
257.152600 480.000000
259.168600 796.000000
261.158500 408.000000
263.145700 448.000000
263.179300 744.000000
265.161100 1052.000000
266.160300 396.000000
267.136100 456.000000
267.173900 6628.000000
268.178200 2748.000000
269.153600 932.000000
269.188700 5560.000000
270.162300 340.000000
270.192300 1432.000000
271.169300 704.000000
273.162700 412.000000
276.145600 304.000000
279.172600 1124.000000
281.151400 720.000000
281.188500 2112.000000
282.192600 900.000000
283.162600 700.000000
285.183300 1384.000000
286.187700 860.000000
287.197500 768.000000
288.204500 348.000000
291.173000 2560.000000
292.177400 616.000000
297.183800 3248.000000
298.186200 1036.000000
299.161200 324.000000
299.197800 968.000000
300.203100 408.000000
301.179800 596.000000
302.181100 320.000000
303.194300 9064.000000
304.196800 2964.000000
309.184600 7552.000000
310.187100 2036.000000
311.188900 500.000000
315.194700 912.000000
317.211600 356.000000
327.195100 9652.000000
328.198500 2068.000000
345.204400 3136.000000
346.207700 792.000000
361.201500 416.000000
363.215900 14844.000000
364.219400 3772.000000

