>compound AU02243295
>parentmass 196.0757
>ionization [M+H]+
>formula C13H9NO
>rt 419.700000
>profile qtof
#smiles_iso C1=CC=C2C(=C1)C(=O)C3=CC=CC=C3N2
#smiles_can C1=CC=C2C(=C1)C(=O)C3=CC=CC=C3N2
#inchikey FZEYVTFCMJSGMP-UHFFFAOYSA-N
#pubchem_id 2015
#mb_accession AU231001,AU231002,AU231003,AU231004,AU231005,AU231006

>ms2peaks
196.075500 2387540.000000
197.078300 408240.000000
198.081200 22692.000000

>ms2peaks
167.071300 80876.000000
168.076900 18116.000000
195.066500 23040.000000
196.075200 2470148.000000
197.077800 505116.000000
198.080600 26596.000000

>ms2peaks
139.053200 21776.000000
166.063700 51264.000000
167.071800 840532.000000
168.077400 156008.000000
178.063600 22768.000000
195.066800 177976.000000
196.075100 2387972.000000
197.078100 360952.000000
198.080700 18028.000000

>ms2peaks
115.053500 12896.000000
128.048600 13304.000000
139.053200 85628.000000
140.048900 27232.000000
140.058800 20576.000000
141.068100 18584.000000
151.053000 10876.000000
166.064000 251084.000000
167.072000 2100292.000000
168.076300 270200.000000
169.064100 11504.000000
169.079800 15724.000000
177.056200 13696.000000
178.063700 19768.000000
195.067000 218648.000000
196.074800 759876.000000
197.078000 94316.000000

>ms2peaks
115.053600 19880.000000
128.048400 12312.000000
139.053100 213232.000000
140.048700 70728.000000
141.053700 11804.000000
141.066500 10460.000000
165.055000 7640.000000
166.063900 631560.000000
167.071600 1298636.000000
168.075100 168708.000000
169.062600 7492.000000
169.078500 7232.000000
177.055700 10960.000000
195.066700 44760.000000
196.074000 58116.000000
197.077200 9436.000000

>ms2peaks
166.063800 6568.000000
167.071900 100508.000000
168.077700 24760.000000
195.067100 27652.000000
196.075700 1214944.000000
197.078500 195088.000000
198.081600 11504.000000

