>compound AU02718037
>parentmass 207.1492
>ionization [M+H]+
>formula C12H18N2O
>rt 258.000000
>profile qtof
#smiles_iso CCNCC(=O)NC1=C(C=CC=C1C)C
#smiles_can CCNCC(=O)NC1=C(C=CC=C1C)C
#inchikey WRMRXPASUROZGT-UHFFFAOYSA-N
#pubchem_id 24415
#mb_accession AU211301,AU211302,AU211303,AU211304,AU211305

>ms2
122.095700 9132.000000
207.149100 580756.000000
208.151600 69256.000000
209.155500 4936.000000

>ms2
122.095600 8216.000000
123.099000 852.000000
132.079600 548.000000
150.090400 5232.000000
189.137000 332.000000
207.148200 5340.000000
208.151600 1116.000000

>ms2
117.056200 888.000000
122.096100 3716.000000
123.080100 792.000000
123.098400 556.000000
132.079300 1344.000000
134.094100 752.000000
144.079600 356.000000
150.090100 2956.000000

>ms2
117.057000 948.000000
118.064800 308.000000
122.096100 2000.000000
123.079500 616.000000
132.079200 500.000000
134.094400 368.000000
150.089100 388.000000

>ms2
117.056100 524.000000
118.065100 360.000000
122.095400 372.000000

