>compound AU02939754
>parentmass 299.20060000000007
>ionization [M+H]+
>formula C20H26O2
>rt 561.800000
>profile qtof
#smiles_iso C[C@]12CC[C@H]3[C@H]([C@@H]1CC[C@]2(C#C)O)CCC4=CC(=O)CC[C@H]34
#smiles_can CC12CCC3C(C1CCC2(C#C)O)CCC4=CC(=O)CCC34
#inchikey VIKNJXKGJWUCNN-XGXHKTLJSA-N
#pubchem_id 6230
#mb_accession AU279801,AU279802,AU279803,AU279804,AU279805,AU279806

>ms2
231.173300 12624.000000
281.189800 16336.000000
299.200800 1912624.000000
300.203900 372316.000000
301.206300 34012.000000

>ms2
117.068900 6224.000000
119.084600 18496.000000
121.100400 6636.000000
123.079700 6064.000000
129.068900 10344.000000
131.084600 22932.000000
133.064200 4268.000000
133.099900 14616.000000
135.079500 19256.000000
135.115400 5280.000000
141.069000 4720.000000
143.084500 19096.000000
145.100000 35572.000000
146.103800 4960.000000
147.079400 6948.000000
147.115600 10520.000000
149.094800 18724.000000
155.084600 7244.000000
157.099900 20332.000000
159.079100 7716.000000
159.115500 15860.000000
161.094500 13976.000000
161.131400 6392.000000
163.110300 16240.000000
167.084100 4632.000000
169.099700 18716.000000
171.115600 42876.000000
172.119400 6932.000000
173.094800 6732.000000
173.131200 25144.000000
174.135100 5064.000000
175.110900 12496.000000
181.099800 11316.000000
183.115600 14232.000000
185.094900 8224.000000
185.131400 19704.000000
187.110400 9772.000000
189.126100 10684.000000
193.099800 4676.000000
195.115500 11304.000000
197.131100 13148.000000
199.110500 7332.000000
199.147300 11312.000000
201.126600 9216.000000
203.142100 4272.000000
207.115700 8040.000000
209.130700 6752.000000
211.110700 4760.000000
211.147100 19252.000000
213.126500 4756.000000
213.163100 30076.000000
214.165900 5632.000000
221.131700 16124.000000
222.136500 5076.000000
223.147500 30492.000000
224.151700 4644.000000
225.127100 5840.000000
227.141900 5168.000000
229.157600 7144.000000
231.173700 121648.000000
232.176700 22392.000000
235.147200 10932.000000
237.162400 9200.000000
239.142300 6500.000000
239.178100 14444.000000
241.157500 9372.000000
253.157300 9080.000000
253.194000 5712.000000
257.189600 5328.000000
263.178700 27224.000000
264.182800 6312.000000
281.189700 75964.000000
282.192700 16524.000000
299.200500 844384.000000
300.203500 144352.000000
301.206300 13068.000000

>ms2
109.063800 1100.000000
115.053600 9172.000000
116.060000 2532.000000
117.069100 13776.000000
118.071900 1180.000000
119.084800 21312.000000
120.087800 2276.000000
121.064000 4388.000000
121.100200 10144.000000
122.067800 528.000000
122.103000 820.000000
123.079700 8104.000000
123.116200 3360.000000
124.083300 580.000000
124.118700 352.000000
125.094600 340.000000
127.051700 992.000000
128.061000 12080.000000
129.068700 21648.000000
130.075400 6488.000000
131.084500 39612.000000
132.058900 336.000000
132.087600 4772.000000
133.063800 5168.000000
133.100000 16056.000000
134.069000 500.000000
134.104300 1908.000000
135.079600 33004.000000
135.116200 6084.000000
136.082900 4020.000000
136.119300 732.000000
137.095400 4248.000000
138.100300 536.000000
141.068800 10980.000000
142.075900 8988.000000
143.084300 36864.000000
144.056800 784.000000
144.089500 6804.000000
145.064000 3224.000000
145.100100 47380.000000
146.070200 700.000000
146.103700 6156.000000
147.079300 8076.000000
147.115600 9892.000000
148.120400 1376.000000
149.095000 19956.000000
149.131300 2388.000000
150.098700 1844.000000
151.111600 1672.000000
152.061400 620.000000
153.069800 2200.000000
154.076600 2920.000000
155.084300 13928.000000
156.091400 7880.000000
157.063900 1928.000000
157.100000 29800.000000
158.104200 5164.000000
159.079200 7344.000000
159.115700 17216.000000
160.083800 1516.000000
160.119100 2660.000000
161.094900 20712.000000
161.131100 13792.000000
162.099600 3448.000000
162.134200 1752.000000
163.110700 15536.000000
164.113800 1936.000000
165.068500 3516.000000
166.076000 1844.000000
167.084100 7012.000000
168.091500 3732.000000
169.099900 23544.000000
170.105800 5524.000000
171.115600 43928.000000
172.086300 432.000000
172.119800 6768.000000
173.095400 5580.000000
173.131300 19788.000000
174.099400 892.000000
174.134400 4236.000000
175.110400 13204.000000
175.145300 896.000000
176.114700 2260.000000
177.127300 1792.000000
178.077400 1608.000000
179.084100 4956.000000
180.090700 2084.000000
181.099900 12276.000000
182.105800 3868.000000
183.078900 808.000000
183.115700 16072.000000
184.086300 616.000000
184.121100 3716.000000
185.095000 5304.000000
185.131300 21220.000000
186.099500 1236.000000
186.136100 4144.000000
187.110600 5664.000000
187.148000 5172.000000
188.117900 2212.000000
188.150400 1108.000000
189.126000 5240.000000
189.163800 1808.000000
190.078100 308.000000
190.130600 880.000000
191.085000 932.000000
191.140400 476.000000
192.092300 2096.000000
193.100500 7512.000000
194.106600 3008.000000
195.115700 9888.000000
196.088200 324.000000
196.121000 3052.000000
197.094200 2132.000000
197.131000 9088.000000
198.101000 632.000000
198.137300 2384.000000
199.110100 3512.000000
199.146900 4800.000000
200.115600 1064.000000
200.151500 1100.000000
201.126400 6184.000000
201.162800 1676.000000
202.132200 1488.000000
203.103800 316.000000
203.141400 2432.000000
203.175700 656.000000
205.100000 2036.000000
206.107400 2556.000000
207.115800 7512.000000
208.122200 3988.000000
209.093100 396.000000
209.131100 5692.000000
210.103200 312.000000
210.135100 1548.000000
211.111300 3504.000000
211.147500 13080.000000
212.117600 1024.000000
212.149800 2516.000000
213.126100 2976.000000
213.162900 27116.000000
214.132400 1168.000000
214.165800 5784.000000
215.141500 2616.000000
215.173200 356.000000
216.147900 1160.000000
217.158700 624.000000
219.116200 2036.000000
220.124200 2380.000000
221.131800 11152.000000
222.137500 3776.000000
223.147000 14292.000000
224.119000 640.000000
224.150200 4384.000000
225.126400 3008.000000
225.162800 2588.000000
226.042100 456.000000
226.131900 1288.000000
226.170100 448.000000
227.016900 328.000000
227.142100 2416.000000
228.148100 472.000000
229.157800 2784.000000
230.158700 316.000000
231.173600 55740.000000
232.177300 10496.000000
233.131700 1644.000000
233.181200 580.000000
234.138700 1828.000000
235.147100 5756.000000
236.150600 1348.000000
237.127000 456.000000
237.163700 3928.000000
238.133700 912.000000
238.166200 1808.000000
239.142200 2884.000000
239.178700 3344.000000
240.147800 1248.000000
240.182100 856.000000
241.157200 2232.000000
242.161100 456.000000
247.148200 708.000000
248.155200 3128.000000
249.159200 604.000000
251.142000 800.000000
252.151300 896.000000
253.158200 4208.000000
253.193400 1224.000000
254.162300 964.000000
255.174100 628.000000
257.190100 1140.000000
258.190300 300.000000
261.161000 508.000000
263.178900 8080.000000
264.182800 1360.000000
266.165300 2068.000000
267.169400 512.000000
281.189300 13748.000000
282.194300 3244.000000
283.198600 364.000000
299.200300 25936.000000
300.203200 6820.000000
301.209400 896.000000

>ms2
109.063700 492.000000
115.053500 12940.000000
116.059900 3072.000000
117.069100 9804.000000
118.072100 912.000000
119.084300 13616.000000
120.087900 2136.000000
121.063300 2088.000000
121.100100 4736.000000
122.104800 592.000000
123.078900 4256.000000
123.115900 1864.000000
127.052900 1772.000000
128.060800 20488.000000
129.068300 26272.000000
130.075600 7816.000000
131.084300 24320.000000
132.055600 576.000000
132.088800 2828.000000
133.063600 3828.000000
133.099600 9092.000000
134.102400 1036.000000
135.079100 20676.000000
135.115300 2184.000000
136.082600 2280.000000
136.120100 316.000000
137.094200 1392.000000
141.068400 13840.000000
142.075800 11724.000000
143.083900 28816.000000
144.054800 728.000000
144.089700 5328.000000
145.063000 2740.000000
145.099600 22956.000000
146.069800 1080.000000
146.103700 2616.000000
147.078600 4120.000000
147.115300 3392.000000
148.085600 1644.000000
148.118900 456.000000
149.094400 8420.000000
149.130600 840.000000
150.097600 1020.000000
151.110100 408.000000
152.059300 1608.000000
153.068300 3924.000000
154.075700 4728.000000
155.084000 13172.000000
156.091000 9628.000000
157.063300 1236.000000
157.099400 16600.000000
158.070400 608.000000
158.105400 2764.000000
159.078800 3092.000000
159.114900 7004.000000
160.084300 1284.000000
160.120300 876.000000
161.094300 11944.000000
161.130900 6604.000000
162.100900 2200.000000
162.135300 1080.000000
163.110000 5284.000000
164.112600 948.000000
165.068400 4468.000000
166.074900 3604.000000
167.083600 6660.000000
168.090600 4380.000000
169.099400 12992.000000
170.106100 3688.000000
171.115000 18200.000000
172.119300 3008.000000
173.094200 1760.000000
173.130600 6440.000000
174.099600 800.000000
174.134800 944.000000
175.110100 5440.000000
176.114500 952.000000
177.124400 468.000000
178.076200 2808.000000
179.084000 4456.000000
180.091300 3232.000000
181.099300 6316.000000
182.106000 3000.000000
183.079200 828.000000
183.115300 5352.000000
184.087000 600.000000
184.121000 1800.000000
185.095200 1272.000000
185.130900 6540.000000
186.135700 940.000000
187.110300 1320.000000
187.147100 2080.000000
188.117900 1904.000000
188.152400 300.000000
189.125900 1424.000000
189.162400 636.000000
190.075800 324.000000
190.133000 428.000000
191.084500 1644.000000
192.090400 2464.000000
193.099500 4256.000000
194.107100 2204.000000
195.080900 396.000000
195.115600 4192.000000
196.086100 456.000000
196.122700 2140.000000
197.093900 1124.000000
197.131700 2768.000000
198.101100 736.000000
198.137700 1164.000000
199.108800 1172.000000
199.146500 840.000000
200.115600 576.000000
200.152300 340.000000
201.126200 1836.000000
202.133000 1112.000000
203.085300 388.000000
203.140600 624.000000
204.092100 352.000000
205.100200 2228.000000
206.107100 1936.000000
207.115100 2356.000000
208.121900 1972.000000
209.130000 2436.000000
210.136700 664.000000
211.112400 836.000000
211.145600 3124.000000
212.149700 620.000000
213.126100 800.000000
213.162200 5232.000000
214.131100 552.000000
214.166000 1356.000000
215.139600 424.000000
216.147400 424.000000
218.106900 448.000000
219.116300 1408.000000
220.122000 1172.000000
221.131100 2348.000000
222.137500 756.000000
223.111700 464.000000
223.145900 2664.000000
224.116200 312.000000
224.123000 416.000000
224.153600 548.000000
225.124600 1036.000000
225.164100 508.000000
226.132600 440.000000
227.140500 508.000000
229.155700 516.000000
231.172300 5668.000000
232.176100 1144.000000
233.131800 1172.000000
234.135100 664.000000
235.147600 944.000000
236.152100 400.000000
237.163000 884.000000
238.133500 304.000000
238.165800 328.000000
239.141500 412.000000
239.176700 420.000000
241.159200 352.000000
247.148600 348.000000
248.157100 604.000000
252.145800 300.000000
253.157600 488.000000
263.180900 664.000000
265.157900 428.000000
266.165100 368.000000
281.190100 536.000000
299.202200 312.000000

>ms2
115.053700 15380.000000
116.059500 3908.000000
117.069400 7784.000000
118.072100 892.000000
119.084800 7224.000000
120.088000 888.000000
121.063600 1316.000000
121.100900 1504.000000
123.079900 1760.000000
126.046000 432.000000
127.053600 2004.000000
128.061100 31304.000000
129.068400 24360.000000
130.075500 8504.000000
131.048400 1084.000000
131.084500 13600.000000
132.055900 876.000000
132.088400 1808.000000
133.064100 3296.000000
133.100200 3532.000000
134.070000 784.000000
135.079100 8960.000000
135.116600 636.000000
136.082700 976.000000
137.093100 384.000000
141.068600 19648.000000
142.076000 13424.000000
143.084200 15728.000000
144.056500 816.000000
144.090200 3360.000000
145.064200 3920.000000
145.100200 8200.000000
146.070600 1952.000000
146.103200 904.000000
147.078900 2980.000000
147.116000 1164.000000
148.086000 1024.000000
149.095000 3012.000000
152.060700 3016.000000
153.068700 7080.000000
154.075700 5992.000000
155.083800 10856.000000
156.091700 7016.000000
157.063700 1280.000000
157.099500 6596.000000
158.070000 756.000000
158.106500 1660.000000
159.079200 1852.000000
159.115600 2292.000000
160.087400 764.000000
160.117400 332.000000
161.094500 5452.000000
161.131700 1896.000000
162.100700 1080.000000
163.110800 1056.000000
165.068600 7948.000000
166.075500 3784.000000
167.083800 5844.000000
168.090200 3244.000000
169.064000 644.000000
169.099700 5288.000000
170.106400 1828.000000
171.079300 456.000000
171.115700 4876.000000
172.119300 1128.000000
173.095400 768.000000
173.129900 1492.000000
174.103900 480.000000
175.111900 1508.000000
178.076000 4268.000000
179.083900 5300.000000
180.090800 1944.000000
181.099600 4508.000000
182.074100 308.000000
182.105800 1900.000000
183.079500 488.000000
183.115800 1944.000000
184.120600 300.000000
185.095200 592.000000
185.130600 1500.000000
187.110100 680.000000
187.148700 432.000000
188.117100 1036.000000
189.069400 324.000000
189.127600 560.000000
190.075700 656.000000
191.083800 2108.000000
192.092500 2692.000000
193.099600 3492.000000
194.105800 964.000000
195.077200 372.000000
195.113800 2000.000000
196.123500 808.000000
197.093700 300.000000
197.130700 920.000000
198.099700 456.000000
198.141000 468.000000
199.111100 396.000000
201.127000 604.000000
202.132800 1092.000000
203.083000 736.000000
204.093100 824.000000
205.100100 2040.000000
206.106300 1348.000000
207.115200 1720.000000
208.121100 900.000000
209.129600 808.000000
210.138000 316.000000
211.108500 320.000000
211.147500 692.000000
213.161000 612.000000
218.109500 448.000000
219.115700 740.000000
220.122400 520.000000
221.130400 448.000000
223.112500 444.000000
223.146300 424.000000
231.173700 408.000000
233.132000 392.000000
247.143400 304.000000

>ms2
55.017500 1992.000000
55.053500 4308.000000
67.053400 12712.000000
69.069300 4084.000000
71.048300 1516.000000
79.053800 23092.000000
80.057200 1416.000000
81.033100 2680.000000
81.069300 29292.000000
82.073100 2220.000000
83.048700 71984.000000
84.052200 4012.000000
91.054300 26748.000000
92.058100 1912.000000
93.070100 23288.000000
94.073200 1520.000000
95.049100 3644.000000
95.085500 15184.000000
96.089400 1356.000000
97.065100 4928.000000
103.054200 1156.000000
105.070700 19292.000000
106.074700 1508.000000
107.050000 11596.000000
107.086700 9872.000000
108.054900 1196.000000
108.089600 1160.000000
109.066200 82268.000000
109.102300 5496.000000
110.069600 4872.000000
111.080800 3104.000000
115.053000 4332.000000
116.060900 1532.000000
117.069600 14196.000000
118.072700 1396.000000
119.085100 32192.000000
120.088300 3552.000000
121.064400 4388.000000
121.100800 9872.000000
122.103700 1228.000000
123.080100 8752.000000
123.117000 2348.000000
128.061200 5544.000000
129.068600 13720.000000
130.075000 3740.000000
131.084600 30688.000000
132.088000 2904.000000
133.063300 4176.000000
133.100100 12712.000000
134.103500 1232.000000
135.079400 24176.000000
135.115700 4596.000000
136.082900 1712.000000
137.094500 3548.000000
141.068900 5744.000000
142.075800 3672.000000
143.084300 24440.000000
144.089300 3628.000000
145.064400 1704.000000
145.099900 33612.000000
146.102600 3116.000000
147.079300 5668.000000
147.115200 8200.000000
148.119200 1408.000000
149.094900 17304.000000
149.131700 1968.000000
150.097900 2020.000000
151.110300 1952.000000
153.068700 1260.000000
154.076000 1668.000000
155.084100 7824.000000
156.091500 4128.000000
157.063500 1724.000000
157.099700 20488.000000
158.105000 3120.000000
159.079500 6100.000000
159.115300 14708.000000
160.119400 2296.000000
161.094900 15004.000000
161.131000 9160.000000
162.099500 2264.000000
163.110400 13820.000000
164.114500 1392.000000
165.069300 1568.000000
166.075100 1332.000000
167.084000 5244.000000
168.090400 2584.000000
169.099900 21348.000000
170.104700 3520.000000
171.115400 35084.000000
172.119700 5540.000000
173.094700 3536.000000
173.130900 18856.000000
174.134400 2804.000000
175.109900 9740.000000
176.113600 1976.000000
177.126400 1812.000000
179.084400 3048.000000
180.091100 1940.000000
181.099600 9772.000000
183.115200 13732.000000
184.120100 2508.000000
185.094800 5160.000000
185.131200 15632.000000
186.135900 3676.000000
187.110300 6008.000000
187.147200 3656.000000
188.116400 2228.000000
189.125800 5472.000000
189.161800 1368.000000
191.142600 1268.000000
192.090700 1472.000000
193.099800 5000.000000
194.106500 2008.000000
195.115900 8572.000000
196.120500 2088.000000
197.094900 1184.000000
197.131400 8736.000000
198.135200 1876.000000
199.110500 3532.000000
199.146800 6768.000000
200.150000 1084.000000
201.125500 5928.000000
201.161700 1516.000000
202.130600 1800.000000
203.142300 2096.000000
205.099400 1636.000000
206.106800 1768.000000
207.115900 6896.000000
208.122300 2540.000000
209.130800 5572.000000
210.136300 1496.000000
211.110600 2964.000000
211.146900 14700.000000
212.151600 2792.000000
213.126100 3000.000000
213.162600 24292.000000
214.166600 3996.000000
215.140900 2304.000000
219.115000 1468.000000
220.122900 1548.000000
221.131700 10528.000000
222.136600 3336.000000
223.147200 15176.000000
224.150400 3456.000000
225.126500 3968.000000
225.162800 2204.000000
226.131500 1308.000000
227.142000 2864.000000
229.157400 4388.000000
231.173600 78432.000000
232.177400 13608.000000
234.139600 1472.000000
235.147700 6428.000000
236.149900 1440.000000
237.162400 4588.000000
238.167000 1432.000000
239.141800 3872.000000
239.178100 5736.000000
240.148500 1080.000000
240.181800 1716.000000
241.156600 4776.000000
248.154400 2056.000000
253.158200 4984.000000
253.195100 2140.000000
254.161200 1196.000000
255.175000 1284.000000
257.188000 2596.000000
263.178500 14964.000000
264.181800 3364.000000
266.166000 1440.000000
281.189800 33112.000000
282.192500 7956.000000
299.200600 208792.000000
300.203500 50516.000000
301.206600 4860.000000

