>compound AU02665323
>parentmass 188.0818
>ionization [M+H]+
>formula C10H9N3O
>rt 306.000000
>profile qtof
#smiles_iso CC1=NN=C(C(=O)N1)C2=CC=CC=C2
#smiles_can CC1=NN=C(C(=O)N1)C2=CC=CC=C2
#inchikey OUSYWCQYMPDAEO-UHFFFAOYSA-N
#pubchem_id 135413636
#mb_accession AU206401,AU206402,AU206403,AU206404,AU206405

>ms2
119.059100 3244.000000
160.085800 45200.000000
161.088700 6544.000000
188.081000 1080360.000000
189.083800 85228.000000
190.086600 5204.000000

>ms2
119.059400 30612.000000
120.063000 2444.000000
142.063400 1524.000000
160.085900 340700.000000
161.088700 32224.000000
188.081100 294384.000000
189.083800 24792.000000
190.086600 1688.000000

>ms2
117.057100 644.000000
118.052200 516.000000
119.059600 24400.000000
120.063000 2192.000000
130.064700 3064.000000
131.071800 1940.000000
142.063700 980.000000
160.085900 98776.000000
161.088700 10076.000000
188.080900 15144.000000
189.083800 1876.000000

>ms2
118.052500 416.000000
119.059800 3432.000000
120.062100 412.000000
127.040900 480.000000
130.064000 2548.000000
131.067100 512.000000
142.064700 396.000000
160.085400 8836.000000
161.088700 1148.000000
188.081400 428.000000

>ms2
118.051200 360.000000
119.060200 436.000000
130.063500 764.000000
160.084400 900.000000

