>compound AU02739111
>parentmass 326.1751
>ionization [M+H]+
>formula C20H23NO3
>rt 658.488000
>profile qtof
#smiles_iso CC1=C(C(=CC=C1)C)N([C@@H](C)C(=O)OC)C(=O)CC2=CC=CC=C2
#smiles_can CC1=C(C(=CC=C1)C)N(C(C)C(=O)OC)C(=O)CC2=CC=CC=C2
#inchikey CJPQIRJHIZUAQP-INIZCTEOSA-N
#pubchem_id 5491362
#mb_accession AU262201,AU262202,AU262203,AU262205,AU262206

>ms2peaks
148.111100 249304.000000
149.114100 23888.000000
208.132700 1208144.000000
209.135700 112360.000000
266.153800 414160.000000
267.156700 67864.000000
294.148900 2191172.000000
295.152200 421644.000000
296.154800 36540.000000
326.175800 2469852.000000
327.178700 625472.000000
328.181300 55852.000000

>ms2peaks
121.088000 165620.000000
122.094300 30404.000000
148.111700 2459208.000000
149.114600 338996.000000
150.117700 13088.000000
208.133000 2377188.000000
209.136100 328740.000000
210.137800 19896.000000
266.153900 472852.000000
267.156800 80308.000000
294.148900 289416.000000
295.151800 57592.000000
326.174800 38816.000000

>ms2peaks
120.080000 28440.000000
121.087900 512812.000000
122.093300 62132.000000
133.087200 18212.000000
148.111300 2079964.000000
149.114300 263292.000000
208.132500 419920.000000
209.135400 50468.000000

>ms2peaks
118.064300 43012.000000
119.084600 12196.000000
120.080100 132368.000000
121.087900 502272.000000
122.092000 44180.000000
131.084400 23752.000000
132.080000 40844.000000
133.087500 126988.000000
134.091700 11972.000000
146.095100 13464.000000
148.111100 1719940.000000
149.114500 147232.000000
196.111000 12316.000000

>ms2peaks
91.054800 3476.000000
115.038800 560.000000
120.079700 892.000000
121.088000 15648.000000
122.094000 2092.000000
148.111200 95672.000000
149.114200 10408.000000
150.117800 512.000000
208.132300 34344.000000
209.135500 4752.000000
221.115600 1580.000000
253.141600 512.000000
266.152600 2676.000000
267.156200 704.000000
294.147500 1832.000000

