>compound AU02245604
>parentmass 467.1995
>ionization [M+H]+
>formula C25H32ClFO5
>rt 639.690000
>profile qtof
#smiles_iso CCC(=O)O[C@@]1([C@H](C[C@@H]2[C@@]1(C[C@@H]([C@]3([C@H]2CCC4=CC(=O)C=C[C@@]43C)F)O)C)C)C(=O)CCl
#smiles_can CCC(=O)OC1(C(CC2C1(CC(C3(C2CCC4=CC(=O)C=CC43C)F)O)C)C)C(=O)CCl
#inchikey CBGUOGMQLZIXBE-XGQKBEPLSA-N
#pubchem_id 32798
#mb_accession AU283701,AU283702,AU283703,AU283704,AU283705,AU283706

>ms2
133.099200 1404.000000
147.079200 6060.000000
159.079500 1484.000000
161.094800 2540.000000
169.076200 1344.000000
171.055900 2272.000000
171.078300 4248.000000
173.094800 3012.000000
185.071500 5588.000000
185.095000 4936.000000
187.073200 7868.000000
203.105900 1856.000000
213.066300 2260.000000
213.127500 3512.000000
241.159200 1424.000000
253.156800 5880.000000
263.142500 16468.000000
264.145500 2680.000000
275.142900 2396.000000
277.158100 4860.000000
278.164800 8304.000000
279.173500 35024.000000
280.176400 6080.000000
281.153300 2612.000000
291.174000 6344.000000
292.176700 1592.000000
295.168000 1956.000000
297.182700 1760.000000
301.157300 5844.000000
309.185000 8668.000000
310.187900 2052.000000
313.133700 1324.000000
319.169100 18720.000000
320.171600 3604.000000
327.150600 12352.000000
328.152700 2208.000000
329.147000 3688.000000
337.135000 7880.000000
337.179800 5396.000000
338.140200 1888.000000
339.132800 2368.000000
345.161600 15204.000000
346.164600 2764.000000
347.159300 4616.000000
355.146000 98116.000000
356.148800 21464.000000
357.143000 28748.000000
358.145800 4140.000000
373.156700 185308.000000
374.159700 42676.000000
375.154000 58836.000000
376.156400 10300.000000
377.149800 2856.000000
391.167100 1468.000000
429.182000 3568.000000
447.193200 129340.000000
448.196100 34604.000000
449.190800 38532.000000
450.195100 6628.000000
467.199700 262920.000000
468.203000 64700.000000
469.197300 75560.000000

>ms2
119.085600 1880.000000
121.064000 5340.000000
121.100800 6788.000000
133.040100 2940.000000
133.063100 944.000000
133.100300 5472.000000
135.038400 1028.000000
135.079500 8104.000000
137.095100 1692.000000
143.061300 2000.000000
143.084800 1368.000000
145.039500 1068.000000
145.062000 2288.000000
145.099500 1240.000000
147.079500 38340.000000
148.082700 3224.000000
149.094600 3832.000000
157.076500 1860.000000
157.101200 1096.000000
159.056400 896.000000
159.079300 10432.000000
160.083200 1772.000000
161.058000 1804.000000
161.095400 10904.000000
162.098200 1448.000000
163.074200 1540.000000
167.061100 4916.000000
169.040800 1100.000000
169.060200 2120.000000
169.077400 3288.000000
171.056000 15320.000000
171.079000 25572.000000
171.115900 2224.000000
172.059100 1444.000000
172.082700 3324.000000
173.053400 4604.000000
173.094700 16400.000000
174.098900 2120.000000
175.091700 1804.000000
175.109700 1196.000000
177.089800 3212.000000
179.105800 1692.000000
183.055700 3212.000000
183.078000 1412.000000
185.071900 28868.000000
185.095100 29452.000000
186.075900 2904.000000
186.098400 3472.000000
187.073700 32928.000000
187.111000 2904.000000
188.076700 3908.000000
189.089800 5076.000000
193.076400 5000.000000
195.056200 2772.000000
195.076000 1620.000000
197.071400 2752.000000
197.094800 2552.000000
199.073600 3416.000000
199.111200 2488.000000
203.106000 6496.000000
209.095600 2804.000000
211.111000 4284.000000
213.067000 6284.000000
213.088900 1840.000000
213.126800 18524.000000
214.130500 2788.000000
215.063600 2248.000000
215.106100 1208.000000
221.095300 2624.000000
223.111000 9668.000000
224.117100 2708.000000
225.125400 2028.000000
227.106800 1036.000000
227.142400 2928.000000
235.110600 2108.000000
237.127000 3920.000000
239.106400 1340.000000
239.142500 5080.000000
240.145800 944.000000
241.122400 5036.000000
241.158000 6860.000000
242.128300 916.000000
242.162100 968.000000
247.087600 1324.000000
248.118900 1208.000000
249.126700 3952.000000
250.131200 968.000000
251.083200 2812.000000
251.142300 2356.000000
253.158300 24660.000000
254.161500 5040.000000
261.066600 1196.000000
261.126000 3184.000000
261.163200 1504.000000
262.132200 1292.000000
263.142700 68032.000000
264.146200 13304.000000
265.151700 1652.000000
267.137100 4160.000000
267.173700 4680.000000
268.140800 900.000000
268.176600 1136.000000
271.090600 912.000000
273.125000 1000.000000
273.163600 1228.000000
275.083300 1776.000000
275.142400 11064.000000
276.148600 3344.000000
277.158600 30840.000000
278.166300 82172.000000
279.173800 115324.000000
280.177000 18772.000000
281.153200 6620.000000
281.186100 2676.000000
282.157000 1120.000000
283.149000 1620.000000
286.137800 1424.000000
287.119300 3336.000000
288.150800 6752.000000
289.154700 2172.000000
291.174300 34200.000000
292.177500 6960.000000
293.155600 968.000000
295.131600 1172.000000
295.168600 4220.000000
296.174900 5152.000000
297.102000 944.000000
297.183200 3680.000000
301.158900 30120.000000
302.162000 6700.000000
306.161600 6876.000000
307.163400 1444.000000
309.185100 18732.000000
310.188000 4052.000000
311.120000 2208.000000
313.099000 3300.000000
313.134800 8164.000000
314.138600 1816.000000
315.101500 1044.000000
315.134800 2584.000000
319.169100 38968.000000
320.172600 10060.000000
321.170400 1804.000000
327.151000 34324.000000
328.153700 8232.000000
329.148100 11372.000000
330.148400 1672.000000
331.129800 1492.000000
337.135000 30908.000000
337.179200 6324.000000
338.139800 7096.000000
338.185100 1204.000000
339.134000 8108.000000
339.175400 1100.000000
340.135800 1548.000000
345.160900 22736.000000
346.164800 6044.000000
347.158300 8140.000000
348.162500 1332.000000
355.146400 179080.000000
356.149400 39096.000000
357.143400 51388.000000
358.146500 6956.000000
373.156800 93800.000000
374.160100 21264.000000
375.154300 31768.000000
376.156300 5140.000000
377.149300 1728.000000
391.167300 2676.000000
393.163300 1420.000000
429.182400 1788.000000
447.192100 7364.000000
448.195900 2124.000000
449.189900 2756.000000
467.198500 2892.000000
469.193700 1056.000000

>ms2
119.084800 3884.000000
121.063700 10860.000000
121.100400 7488.000000
122.067800 1272.000000
122.104800 736.000000
123.079400 860.000000
128.061700 1404.000000
129.068400 960.000000
131.048300 564.000000
131.084100 3968.000000
132.056000 1008.000000
133.040500 2412.000000
133.063000 2028.000000
133.100000 5480.000000
134.104400 860.000000
135.079300 13592.000000
136.083200 1408.000000
137.095300 1168.000000
141.069200 1096.000000
143.024500 1244.000000
143.061000 2384.000000
143.084400 2704.000000
144.057800 756.000000
144.088900 712.000000
145.063400 4976.000000
145.099800 2588.000000
146.068500 868.000000
147.079300 55308.000000
148.082400 5088.000000
149.094700 4248.000000
150.098700 800.000000
153.046000 664.000000
155.060300 752.000000
155.084200 1004.000000
156.090400 616.000000
157.040700 680.000000
157.063600 880.000000
157.077100 2524.000000
157.099900 2856.000000
158.071500 1476.000000
158.103200 564.000000
159.079100 21608.000000
160.083200 2804.000000
161.058800 2360.000000
161.095100 14524.000000
162.097800 2200.000000
163.074300 1820.000000
165.070100 844.000000
167.060900 7592.000000
168.063000 648.000000
169.040800 1372.000000
169.060000 2872.000000
169.075300 2072.000000
169.100900 712.000000
171.055600 15816.000000
171.079200 38680.000000
171.115600 3120.000000
172.060200 1504.000000
172.082800 4184.000000
173.053400 5592.000000
173.094900 23620.000000
174.098100 2920.000000
175.074200 1020.000000
175.091800 1372.000000
175.110000 1772.000000
177.090100 2116.000000
179.060300 552.000000
179.085000 712.000000
179.106400 684.000000
181.039600 600.000000
183.056100 4152.000000
183.079500 2060.000000
183.114700 912.000000
184.087400 804.000000
185.071500 27912.000000
185.095000 25924.000000
186.074900 2640.000000
186.098200 3528.000000
187.073500 29916.000000
187.110800 3392.000000
188.077300 3528.000000
188.112900 748.000000
189.069600 796.000000
189.090200 3376.000000
190.093400 568.000000
191.085500 1424.000000
193.076300 4512.000000
193.098200 712.000000
194.079200 996.000000
195.055300 3316.000000
195.076300 1432.000000
195.115700 844.000000
196.060400 568.000000
197.033600 684.000000
197.056000 848.000000
197.071400 2296.000000
197.095000 6388.000000
198.099800 1468.000000
199.074100 3812.000000
199.110400 5804.000000
200.114300 636.000000
201.088700 1160.000000
201.126800 1040.000000
203.068000 1404.000000
203.105600 3476.000000
204.108400 672.000000
205.101600 1240.000000
207.079300 552.000000
207.117400 900.000000
208.085500 1676.000000
209.072300 984.000000
209.095200 5200.000000
210.101900 2156.000000
211.074100 940.000000
211.111000 9208.000000
212.115200 2072.000000
213.066100 2416.000000
213.087300 1520.000000
213.126200 25168.000000
214.129400 3388.000000
215.064600 1240.000000
215.107800 1144.000000
219.056400 760.000000
221.072200 632.000000
221.095000 7268.000000
221.131500 644.000000
222.101000 3168.000000
223.110500 18620.000000
224.115300 5360.000000
225.089900 860.000000
225.125100 3264.000000
226.133700 596.000000
227.105600 1284.000000
227.142600 2524.000000
230.108600 600.000000
231.115600 1348.000000
233.070800 1192.000000
233.095000 844.000000
234.102700 3000.000000
235.110600 6392.000000
235.147900 2292.000000
236.116700 2392.000000
236.151000 640.000000
237.092800 684.000000
237.125500 6456.000000
238.131500 1176.000000
239.105900 1720.000000
239.141800 7372.000000
240.111400 556.000000
240.146600 1268.000000
241.122000 3612.000000
241.158600 3324.000000
242.124400 724.000000
242.164100 680.000000
243.114300 820.000000
244.122100 572.000000
245.095100 564.000000
245.131900 2512.000000
246.103200 1032.000000
246.139100 784.000000
247.051600 1188.000000
247.086700 1824.000000
247.109400 1148.000000
248.118300 6172.000000
249.082900 812.000000
249.126200 7820.000000
249.162300 888.000000
250.132600 2368.000000
250.169900 1252.000000
251.081600 1332.000000
251.105100 880.000000
251.141100 4596.000000
252.148100 2280.000000
253.157500 22744.000000
254.161500 4248.000000
257.070700 1036.000000
257.130300 932.000000
258.140900 744.000000
259.068700 744.000000
259.109700 1488.000000
259.147400 1464.000000
260.117300 3052.000000
260.155200 1440.000000
261.066700 1100.000000
261.125700 3448.000000
261.163200 4776.000000
262.134100 4084.000000
262.169200 1348.000000
263.142200 76084.000000
264.112000 972.000000
264.146000 15820.000000
265.153600 1520.000000
266.163800 780.000000
267.095700 608.000000
267.136900 2524.000000
267.172900 2968.000000
268.139700 716.000000
268.176200 736.000000
271.086800 1216.000000
271.110200 1068.000000
272.118100 1044.000000
273.126200 4484.000000
273.161800 2084.000000
274.132500 2244.000000
275.082100 1720.000000
275.142500 9340.000000
276.148600 5912.000000
277.121700 2472.000000
277.157500 30024.000000
278.165800 110140.000000
279.172600 65020.000000
280.176200 12248.000000
281.152100 4316.000000
281.184700 1636.000000
282.155700 556.000000
283.147700 1388.000000
284.154800 660.000000
285.070600 596.000000
285.104700 1136.000000
286.134200 5084.000000
287.118800 1904.000000
287.132000 1616.000000
288.121100 640.000000
288.149700 12140.000000
289.114300 1104.000000
289.155400 3332.000000
290.127400 1028.000000
291.136500 2500.000000
291.173800 26744.000000
292.144100 624.000000
292.177400 5720.000000
293.149100 676.000000
293.185900 564.000000
295.089200 992.000000
295.127800 704.000000
295.168400 2368.000000
296.175600 6612.000000
297.104300 736.000000
297.181200 2940.000000
298.177000 692.000000
299.083100 1104.000000
301.157900 27856.000000
302.162300 7356.000000
303.164300 804.000000
304.144200 1552.000000
305.152300 776.000000
306.161400 13276.000000
307.165200 2992.000000
309.140000 740.000000
309.184000 4580.000000
310.188800 1204.000000
311.117700 1564.000000
312.122700 748.000000
313.098800 3084.000000
313.135400 5936.000000
314.104100 828.000000
314.135000 1604.000000
315.097900 828.000000
315.132000 1976.000000
319.168200 13892.000000
320.171400 2672.000000
321.169100 872.000000
322.112000 980.000000
324.172800 1376.000000
327.150700 16736.000000
328.154600 3612.000000
329.146800 5296.000000
330.149400 1004.000000
337.133900 13792.000000
337.179100 2124.000000
338.139100 3168.000000
339.133500 4548.000000
340.133500 968.000000
345.161400 3372.000000
346.167200 1056.000000
347.157500 1472.000000
355.145500 34920.000000
356.148800 9044.000000
357.142400 10796.000000
358.145700 1564.000000
373.155900 6188.000000
374.158200 1296.000000
375.151400 1808.000000
376.156200 696.000000

>ms2
115.054400 1536.000000
116.061400 480.000000
117.069400 1420.000000
119.085100 4488.000000
120.088400 744.000000
121.064000 13988.000000
121.100500 5592.000000
122.066700 1188.000000
122.103500 800.000000
123.081400 580.000000
127.029500 428.000000
128.061400 3112.000000
129.008900 412.000000
129.069100 1412.000000
130.074900 468.000000
131.047500 816.000000
131.084500 5480.000000
132.055400 1568.000000
132.088800 1004.000000
133.041100 1724.000000
133.063700 2412.000000
133.100500 4980.000000
134.069900 348.000000
134.104400 660.000000
135.079300 12048.000000
136.084100 1268.000000
137.094900 812.000000
141.043900 376.000000
141.068900 2796.000000
142.076700 1156.000000
143.024900 1388.000000
143.061100 2108.000000
143.084100 5784.000000
144.055700 1796.000000
144.091200 564.000000
145.040300 664.000000
145.063500 7276.000000
145.100300 3524.000000
146.071400 1032.000000
146.104800 400.000000
147.079600 53796.000000
148.083200 6540.000000
149.094800 3496.000000
150.098900 356.000000
151.074300 392.000000
153.044400 532.000000
153.068400 444.000000
155.059600 1360.000000
155.084000 2888.000000
156.055000 492.000000
156.091300 972.000000
157.041800 772.000000
157.064200 1204.000000
157.077000 1552.000000
157.100400 3976.000000
158.071300 3188.000000
158.105100 600.000000
159.079300 25532.000000
160.083800 2856.000000
161.058100 2672.000000
161.094900 12456.000000
162.064500 464.000000
162.097700 2024.000000
163.074100 2120.000000
163.107800 464.000000
165.069200 1312.000000
166.074300 608.000000
167.060800 7956.000000
167.084500 1012.000000
168.062800 980.000000
168.091600 440.000000
169.040900 920.000000
169.060400 3436.000000
169.101100 1416.000000
170.072200 972.000000
170.106100 1000.000000
171.056200 8640.000000
171.079300 32576.000000
171.116400 2508.000000
172.060400 1076.000000
172.083500 5220.000000
172.118000 392.000000
173.052300 2520.000000
173.094800 20792.000000
174.099300 2272.000000
175.074300 1164.000000
175.090700 1040.000000
175.111900 2024.000000
177.089700 1212.000000
178.077000 504.000000
179.064300 408.000000
179.083900 1432.000000
180.091300 756.000000
181.063600 592.000000
181.074800 436.000000
181.099600 1292.000000
182.073000 660.000000
182.107700 432.000000
183.056500 1924.000000
183.078900 1928.000000
183.116400 1444.000000
184.086100 1428.000000
184.120700 512.000000
185.071100 10764.000000
185.094800 19512.000000
186.075100 1084.000000
186.098900 2772.000000
187.073900 16684.000000
187.111100 2956.000000
188.076700 2104.000000
188.117900 536.000000
189.070800 832.000000
189.090400 1800.000000
189.128300 456.000000
190.077300 844.000000
190.094100 376.000000
191.061800 428.000000
191.084500 1300.000000
192.091500 620.000000
193.041000 384.000000
193.077800 1488.000000
193.101000 1960.000000
194.077800 428.000000
194.106100 588.000000
195.056600 1564.000000
195.078000 2332.000000
195.115200 1948.000000
196.087400 1788.000000
196.121200 444.000000
197.056300 576.000000
197.071300 940.000000
197.095300 6008.000000
198.101900 3488.000000
199.074200 2608.000000
199.111300 4912.000000
200.078900 388.000000
200.100600 568.000000
200.113800 832.000000
201.089400 536.000000
201.126300 392.000000
202.076400 368.000000
203.085300 620.000000
203.106700 988.000000
204.092000 552.000000
205.074700 424.000000
205.100600 2476.000000
206.107300 836.000000
207.055700 344.000000
207.080600 1028.000000
207.116400 1560.000000
208.087700 3424.000000
208.119800 896.000000
209.071700 624.000000
209.094700 7176.000000
209.132100 476.000000
210.101500 3188.000000
211.073100 1148.000000
211.110900 7436.000000
212.080600 464.000000
212.117200 2916.000000
213.090700 1184.000000
213.126600 15708.000000
214.130100 1984.000000
215.086400 488.000000
215.107000 616.000000
215.137100 372.000000
216.093500 924.000000
217.100100 988.000000
218.105700 964.000000
219.055100 476.000000
219.079900 1124.000000
219.114900 1352.000000
220.088100 1072.000000
220.122200 888.000000
221.095600 10592.000000
221.132900 896.000000
222.102800 5672.000000
222.135400 584.000000
223.110800 15236.000000
224.082000 380.000000
224.117300 4692.000000
225.088800 568.000000
225.125900 2628.000000
226.096100 492.000000
226.132900 1044.000000
227.106000 1264.000000
227.142700 1552.000000
228.110000 428.000000
229.099000 784.000000
230.108800 1924.000000
231.115800 2676.000000
232.086200 880.000000
232.122500 952.000000
233.071100 772.000000
233.095300 1916.000000
233.131000 1032.000000
234.103400 5352.000000
234.139200 564.000000
235.111100 8360.000000
235.147400 2628.000000
236.117400 3948.000000
236.153500 1180.000000
237.066200 400.000000
237.087700 564.000000
237.127600 5244.000000
237.160000 420.000000
238.098400 388.000000
238.132600 1840.000000
239.105400 1664.000000
239.142200 5136.000000
240.110100 496.000000
240.146200 1064.000000
241.122200 1332.000000
241.157800 1096.000000
242.107100 668.000000
242.127300 576.000000
243.116600 1440.000000
244.123000 1752.000000
245.097200 1044.000000
245.131900 4276.000000
246.105500 1832.000000
246.137600 1952.000000
247.050800 476.000000
247.089100 1144.000000
247.110300 2516.000000
247.146500 1172.000000
248.118700 13556.000000
249.086600 804.000000
249.125700 9940.000000
249.162900 992.000000
250.097200 368.000000
250.131900 3056.000000
250.171100 1760.000000
251.107200 568.000000
251.142700 3512.000000
252.148100 2536.000000
253.122800 600.000000
253.157900 11296.000000
254.162600 1876.000000
257.071200 660.000000
257.132700 820.000000
258.103300 736.000000
258.139000 1080.000000
259.111400 2604.000000
259.147700 1508.000000
260.119400 5316.000000
260.155500 2064.000000
261.070500 448.000000
261.127000 4640.000000
261.163900 6212.000000
262.134300 8920.000000
262.167000 1620.000000
263.142700 68268.000000
264.114100 1148.000000
264.147400 14372.000000
265.121600 480.000000
265.154100 2252.000000
266.163600 756.000000
267.138200 1024.000000
267.173200 1188.000000
268.123500 852.000000
268.140800 384.000000
268.178400 368.000000
269.134000 692.000000
271.090800 732.000000
271.112600 1860.000000
271.148500 560.000000
272.117000 2636.000000
273.126900 7548.000000
273.162300 1096.000000
274.132500 3024.000000
274.168200 636.000000
275.083600 784.000000
275.106800 440.000000
275.142000 3980.000000
276.114000 764.000000
276.150400 6832.000000
277.122800 2036.000000
277.158000 14832.000000
278.166000 50828.000000
279.172400 22040.000000
280.138700 600.000000
280.176100 3672.000000
281.154400 4104.000000
282.155800 848.000000
283.149200 1648.000000
284.151100 480.000000
285.104700 788.000000
285.125800 428.000000
286.135100 6356.000000
287.121300 900.000000
287.140100 3596.000000
288.149600 9792.000000
289.122700 812.000000
289.155300 2296.000000
290.128600 840.000000
291.136900 5616.000000
291.173700 9684.000000
292.141600 1224.000000
292.177500 1868.000000
294.156100 348.000000
295.088200 480.000000
295.129600 488.000000
295.167800 584.000000
296.175900 2584.000000
297.101300 372.000000
297.178600 768.000000
298.169800 424.000000
299.084200 1052.000000
301.158400 11572.000000
302.162700 3800.000000
303.118400 404.000000
303.157200 420.000000
303.172200 524.000000
304.144300 1624.000000
305.150900 1156.000000
306.160700 8116.000000
307.164400 1944.000000
308.097000 536.000000
309.185100 776.000000
311.119000 528.000000
313.097800 1020.000000
313.135300 1684.000000
314.138100 360.000000
315.100800 376.000000
315.132000 636.000000
319.168900 3148.000000
320.173200 652.000000
322.115400 572.000000
323.118500 428.000000
324.173700 712.000000
327.150200 4292.000000
328.153400 1272.000000
329.145800 1272.000000
337.135800 3444.000000
337.179400 428.000000
338.140600 656.000000
339.134500 1204.000000
340.131300 436.000000
345.160200 652.000000
355.145700 3440.000000
356.151700 712.000000
357.141800 1036.000000

>ms2
115.053100 2552.000000
116.060100 984.000000
117.069000 1712.000000
119.084500 4624.000000
120.088200 456.000000
121.063800 14604.000000
121.100400 2792.000000
122.068100 1452.000000
122.104000 412.000000
123.077200 760.000000
126.044800 404.000000
127.028800 384.000000
127.053300 512.000000
128.061100 6552.000000
129.009700 308.000000
129.068900 4180.000000
130.075900 1040.000000
131.047900 1544.000000
131.084600 6008.000000
132.055600 3580.000000
132.091500 692.000000
133.040200 976.000000
133.062800 1628.000000
133.100100 5012.000000
134.070600 356.000000
134.102500 808.000000
135.079400 9328.000000
136.084700 884.000000
137.094100 488.000000
139.030400 320.000000
139.054500 328.000000
141.045000 660.000000
141.068200 4208.000000
142.076000 3360.000000
143.025200 1108.000000
143.061100 976.000000
143.084000 8896.000000
144.055600 3432.000000
144.089600 1404.000000
145.021900 492.000000
145.063600 9352.000000
145.099900 3728.000000
146.070600 2916.000000
146.102900 580.000000
147.079400 44268.000000
148.082500 4388.000000
149.094700 2384.000000
150.099000 480.000000
151.073600 356.000000
152.061200 556.000000
153.046100 420.000000
153.069500 1440.000000
154.076000 556.000000
155.059300 1288.000000
155.083900 3780.000000
156.056100 908.000000
156.090500 1568.000000
157.040400 640.000000
157.063100 1936.000000
157.076600 860.000000
157.099700 4896.000000
158.071200 6724.000000
158.103700 636.000000
159.078900 23208.000000
160.066900 492.000000
160.083400 3772.000000
161.059100 1400.000000
161.094600 9268.000000
162.097700 1044.000000
163.074500 1216.000000
163.089000 452.000000
163.111400 380.000000
165.068700 2344.000000
166.075300 912.000000
167.061100 4076.000000
167.083600 1880.000000
168.092000 724.000000
169.039100 500.000000
169.062900 2792.000000
169.100300 1804.000000
170.070500 1768.000000
170.108000 1332.000000
171.056400 2724.000000
171.079000 29832.000000
171.115300 1968.000000
172.058400 300.000000
172.084200 4968.000000
173.052700 1064.000000
173.094800 13628.000000
174.098400 2016.000000
175.074700 536.000000
175.091700 604.000000
175.110300 1552.000000
176.083400 364.000000
177.046100 388.000000
177.068800 336.000000
177.088900 348.000000
178.076100 1216.000000
179.084400 3488.000000
180.090900 1760.000000
181.041000 328.000000
181.063300 1528.000000
181.100100 1936.000000
182.071600 1536.000000
183.057100 752.000000
183.078800 3304.000000
183.115400 1248.000000
184.086500 2040.000000
185.072300 3456.000000
185.094800 12608.000000
186.074700 548.000000
186.100200 2128.000000
187.073400 8292.000000
187.110500 1412.000000
188.077900 1004.000000
188.115100 476.000000
189.069300 900.000000
189.088700 968.000000
190.076500 1360.000000
191.085500 2020.000000
192.092100 1216.000000
193.078200 888.000000
193.099500 3992.000000
194.070900 948.000000
194.106500 1100.000000
195.056700 700.000000
195.078200 3172.000000
195.115300 2088.000000
196.087200 3388.000000
196.121200 460.000000
197.054900 624.000000
197.076700 352.000000
197.094300 5448.000000
197.132800 344.000000
198.102000 4500.000000
199.072800 1928.000000
199.110300 3136.000000
200.113300 332.000000
201.088400 672.000000
202.075100 852.000000
203.084500 1320.000000
204.091500 1048.000000
205.063900 424.000000
205.076300 332.000000
205.099700 3320.000000
206.071500 436.000000
206.107500 1648.000000
207.078000 1368.000000
207.116500 1920.000000
208.086200 5892.000000
208.121100 412.000000
209.095300 8016.000000
209.129600 420.000000
210.102100 5068.000000
211.074500 588.000000
211.109800 6312.000000
212.078100 312.000000
212.116900 2644.000000
213.090200 580.000000
213.125900 6876.000000
214.129700 1100.000000
215.085000 1848.000000
216.092300 1380.000000
217.100500 2244.000000
218.070000 392.000000
218.107100 764.000000
219.057500 308.000000
219.079700 1600.000000
219.115800 1772.000000
220.086200 2352.000000
220.124400 1316.000000
221.094800 11036.000000
221.131300 1212.000000
222.101100 7260.000000
223.110300 9508.000000
224.081900 368.000000
224.116500 3012.000000
225.091700 492.000000
225.125800 2112.000000
226.097900 864.000000
226.130100 436.000000
227.082500 516.000000
227.104700 824.000000
227.140600 616.000000
228.090600 796.000000
229.099400 2292.000000
230.107700 4224.000000
231.079000 1096.000000
231.114200 3004.000000
232.087700 760.000000
232.119600 956.000000
233.071600 456.000000
233.095500 5864.000000
233.132900 1040.000000
234.102500 5104.000000
234.138200 504.000000
235.110300 7876.000000
235.147300 3148.000000
236.117500 4932.000000
236.153000 964.000000
237.087300 588.000000
237.126000 3876.000000
237.162000 376.000000
238.131900 1804.000000
239.104000 588.000000
239.142300 2184.000000
240.144900 412.000000
241.099100 564.000000
242.105800 956.000000
243.115600 2236.000000
244.086700 420.000000
244.123000 1416.000000
245.094800 2340.000000
245.131500 5596.000000
246.102800 2152.000000
246.137700 2348.000000
247.111100 5808.000000
247.146100 1084.000000
248.118400 17684.000000
249.125500 9960.000000
249.162100 592.000000
250.094500 376.000000
250.133200 3240.000000
250.170100 1164.000000
251.105800 340.000000
251.141700 2064.000000
251.171600 332.000000
252.149100 1560.000000
253.102400 472.000000
253.118300 464.000000
253.158400 3692.000000
254.128000 424.000000
254.157100 568.000000
255.115300 672.000000
256.124000 708.000000
257.092800 436.000000
257.132200 1612.000000
258.103000 2196.000000
258.138600 1032.000000
259.110000 4248.000000
259.147400 1700.000000
260.118500 4052.000000
260.155300 1424.000000
261.085400 432.000000
261.125900 6208.000000
261.163200 6908.000000
262.097400 680.000000
262.134000 8404.000000
262.167400 1228.000000
263.142400 57592.000000
264.111400 876.000000
264.146000 12396.000000
265.119700 396.000000
265.153100 1808.000000
266.161200 556.000000
267.112900 328.000000
267.139100 476.000000
267.173700 588.000000
268.128200 644.000000
269.133800 668.000000
270.137500 344.000000
271.110200 2332.000000
271.146700 428.000000
272.117600 2096.000000
273.126000 8596.000000
273.161400 832.000000
274.132600 2888.000000
275.103200 624.000000
275.140800 2028.000000
276.113400 1216.000000
276.149700 4160.000000
277.121600 1984.000000
277.157300 8412.000000
278.127300 1000.000000
278.165500 13288.000000
279.138300 424.000000
279.171100 5740.000000
280.177800 636.000000
281.153100 3032.000000
282.158200 484.000000
283.146900 624.000000
285.126600 1268.000000
285.160000 308.000000
286.134100 3952.000000
287.139900 3440.000000
288.149500 4288.000000
289.120500 1404.000000
289.154400 1288.000000
290.131100 696.000000
291.136900 4984.000000
291.173700 1952.000000
292.140100 1184.000000
292.177300 772.000000
295.168900 336.000000
296.178900 484.000000
299.078600 304.000000
301.158100 4892.000000
302.163300 1408.000000
304.144800 468.000000
305.156000 676.000000
306.159500 3100.000000
307.165000 584.000000
313.099200 512.000000
319.168700 588.000000
327.146900 760.000000
337.132500 304.000000
355.147600 392.000000

>ms2
57.032700 4064.000000
67.053200 1256.000000
69.033600 740.000000
69.069300 2144.000000
75.043200 484.000000
76.978300 3156.000000
78.975600 892.000000
79.054200 1456.000000
81.069100 1540.000000
83.085100 1140.000000
91.054700 1024.000000
93.010500 4864.000000
93.070400 3872.000000
95.007100 940.000000
95.085700 7392.000000
105.070200 1260.000000
107.086800 5028.000000
109.102600 2892.000000
115.054700 576.000000
117.069600 888.000000
119.025700 668.000000
119.085100 4268.000000
120.088400 456.000000
121.064300 15204.000000
121.100800 9112.000000
122.068400 1384.000000
122.105200 820.000000
123.081200 796.000000
128.061400 1248.000000
129.068700 852.000000
131.084100 3372.000000
132.053900 664.000000
133.040200 1832.000000
133.063200 1684.000000
133.100000 5352.000000
134.102500 912.000000
135.038400 844.000000
135.079300 14240.000000
136.083700 1312.000000
137.096300 840.000000
141.044000 492.000000
141.069500 1040.000000
142.075300 592.000000
143.025100 956.000000
143.061100 2044.000000
143.084700 3120.000000
145.040400 556.000000
145.063300 5216.000000
145.099900 2704.000000
146.069400 996.000000
147.079600 53184.000000
148.083000 5128.000000
149.094900 4924.000000
151.108300 484.000000
153.046800 728.000000
155.060300 1112.000000
155.084200 972.000000
156.090200 456.000000
157.041700 1032.000000
157.061700 736.000000
157.076300 2184.000000
157.100500 2572.000000
158.071900 1484.000000
158.104400 448.000000
159.079100 19672.000000
160.082700 3188.000000
161.057400 1240.000000
161.095300 16468.000000
162.098100 2000.000000
163.074100 1408.000000
163.109700 876.000000
165.068900 1072.000000
167.061100 6756.000000
168.063400 924.000000
169.040400 1272.000000
169.058600 2212.000000
169.076000 1960.000000
169.102600 468.000000
170.070100 512.000000
170.109400 700.000000
171.055900 16828.000000
171.079300 31896.000000
171.115900 1868.000000
172.059900 1144.000000
172.083200 4468.000000
172.118300 564.000000
173.053900 3528.000000
173.095100 21544.000000
174.057500 516.000000
174.099100 2136.000000
175.076700 992.000000
175.089700 980.000000
175.110600 1668.000000
177.090200 1820.000000
179.085200 512.000000
179.105300 560.000000
181.078500 464.000000
181.102600 536.000000
183.055800 3196.000000
183.078800 1260.000000
183.116900 752.000000
184.087400 624.000000
185.055600 1276.000000
185.071800 23196.000000
185.094900 21676.000000
186.075100 2076.000000
186.098800 3244.000000
187.073900 26928.000000
187.110600 2896.000000
188.078300 2668.000000
188.115900 820.000000
189.072000 536.000000
189.089200 3148.000000
190.094000 636.000000
191.085200 968.000000
193.077100 3060.000000
193.101200 684.000000
194.079000 604.000000
195.056800 1772.000000
195.078400 2208.000000
195.115700 932.000000
196.060900 660.000000
196.086000 1100.000000
197.054600 696.000000
197.071700 1516.000000
197.095300 6224.000000
198.100800 1716.000000
199.074000 3112.000000
199.110200 3840.000000
200.077500 688.000000
200.114100 544.000000
201.090900 688.000000
203.069600 724.000000
203.106800 3060.000000
205.076500 448.000000
205.100500 1224.000000
207.079900 604.000000
207.094900 488.000000
207.117700 448.000000
208.086800 1776.000000
209.070900 684.000000
209.095000 5472.000000
209.131400 452.000000
210.101200 2152.000000
211.052400 488.000000
211.075500 784.000000
211.111400 8108.000000
212.116600 2016.000000
213.066800 2024.000000
213.090600 1580.000000
213.127000 20124.000000
214.130300 3848.000000
215.065400 792.000000
215.107500 720.000000
217.100800 604.000000
219.056800 500.000000
219.079400 688.000000
219.092800 520.000000
219.115600 508.000000
221.072700 496.000000
221.094800 6224.000000
221.130900 1296.000000
222.103300 2844.000000
223.111100 16680.000000
224.116600 4268.000000
225.088000 700.000000
225.126700 3116.000000
226.098400 588.000000
226.134700 652.000000
227.107300 928.000000
227.141500 2056.000000
228.147300 464.000000
229.099700 460.000000
230.108400 1016.000000
231.116900 1092.000000
232.121200 468.000000
233.072100 572.000000
233.095600 1196.000000
233.131600 544.000000
234.103100 2916.000000
235.051300 500.000000
235.110500 5744.000000
235.148600 2236.000000
236.118200 1788.000000
236.150300 544.000000
237.066800 448.000000
237.091000 468.000000
237.126400 5672.000000
238.133400 1196.000000
239.107400 1048.000000
239.142700 5652.000000
240.146400 1188.000000
241.121700 2880.000000
241.157200 2616.000000
242.123200 484.000000
242.160900 740.000000
243.117500 664.000000
244.125800 644.000000
245.095500 808.000000
245.132300 2116.000000
246.105000 752.000000
246.138500 1116.000000
247.050500 836.000000
247.089100 1572.000000
247.109300 1336.000000
247.145300 804.000000
248.119000 6924.000000
249.086700 576.000000
249.126500 8068.000000
249.164900 692.000000
250.131900 2404.000000
250.170000 1272.000000
251.082700 1552.000000
251.106200 800.000000
251.141800 2576.000000
252.148900 1348.000000
253.158600 21240.000000
254.161900 4444.000000
255.166100 464.000000
257.073300 840.000000
257.133200 628.000000
258.139400 608.000000
259.111900 1952.000000
259.147300 1744.000000
260.118900 3288.000000
260.154700 1392.000000
261.067600 960.000000
261.127400 4332.000000
261.163200 4612.000000
262.134400 5076.000000
262.170100 1168.000000
263.142900 76620.000000
264.146700 18668.000000
265.121000 516.000000
265.154500 1752.000000
266.166900 484.000000
267.136700 2008.000000
267.174100 2656.000000
268.122300 512.000000
268.177300 644.000000
271.086700 752.000000
271.113200 1048.000000
272.119500 1584.000000
273.126500 4272.000000
273.163400 1708.000000
274.133700 2308.000000
275.082900 1288.000000
275.142800 7812.000000
276.112600 452.000000
276.150100 6652.000000
277.121300 2692.000000
277.158500 26772.000000
278.166600 88304.000000
279.173500 62556.000000
280.176700 10380.000000
281.152800 4628.000000
281.185300 1152.000000
282.159800 900.000000
283.149500 1152.000000
284.152200 472.000000
285.104200 604.000000
286.135200 5324.000000
287.119600 1676.000000
287.140300 1776.000000
288.150600 11024.000000
289.116700 1076.000000
289.155000 2780.000000
290.130200 964.000000
290.160000 516.000000
291.138100 3492.000000
291.174200 24680.000000
292.143600 792.000000
292.177000 5820.000000
293.150100 796.000000
293.183000 612.000000
295.087100 720.000000
295.128400 600.000000
295.168400 2276.000000
296.176900 5540.000000
297.100600 484.000000
297.181900 2220.000000
299.083800 1308.000000
301.159200 25360.000000
302.163000 5312.000000
303.112300 576.000000
303.166900 512.000000
304.144000 1124.000000
305.156600 728.000000
306.160900 12772.000000
307.166100 2656.000000
309.139800 536.000000
309.185000 6064.000000
310.187300 856.000000
311.119800 1180.000000
312.126600 652.000000
313.100200 2192.000000
313.135500 4844.000000
314.107200 648.000000
314.140100 1000.000000
315.093700 704.000000
315.132900 1672.000000
319.169100 16112.000000
320.172300 3896.000000
321.173000 688.000000
322.113500 1016.000000
324.170500 1316.000000
327.151900 13876.000000
328.153700 3004.000000
329.147700 5340.000000
330.150600 784.000000
331.129900 672.000000
331.140400 520.000000
337.136100 13452.000000
337.178400 1672.000000
338.137000 3672.000000
338.185000 472.000000
339.133100 4068.000000
339.174300 548.000000
340.139000 896.000000
345.162000 5300.000000
346.163900 1320.000000
347.161500 1452.000000
355.146300 47972.000000
356.149600 13224.000000
357.143800 14400.000000
358.146100 2472.000000
373.156000 10572.000000
374.159900 3024.000000
375.153800 4056.000000
376.157500 784.000000
391.168500 644.000000

