>compound AU03103433
>parentmass 253.09719999999996
>ionization [M+H]+
>formula C15H12N2O2
>rt 361.460000
>profile qtof
#smiles_iso C1=CC=C2C(=C1)C=CC3=C(N2C(=O)N)C=CC(=C3)O
#smiles_can C1=CC=C2C(=C1)C=CC3=C(N2C(=O)N)C=CC(=C3)O
#inchikey VPZIYMMSJFWLSP-UHFFFAOYSA-N
#pubchem_id 129274
#mb_accession AU234701,AU234702,AU234703,AU234704,AU234705,AU234706

>ms2peaks
194.095200 64848.000000
208.074400 17004.000000
210.090500 105280.000000
211.093400 15144.000000
237.101400 627784.000000
238.104300 52032.000000
253.096600 2162444.000000
254.099600 312576.000000
255.106800 31308.000000

>ms2peaks
182.094900 9556.000000
192.079500 64852.000000
193.085400 12996.000000
194.095300 429000.000000
195.098200 42712.000000
208.074700 334772.000000
209.080000 81600.000000
210.090300 1505688.000000
211.093500 170756.000000
212.096200 10732.000000
220.074000 8480.000000
236.069500 14028.000000
237.101300 166996.000000
238.104200 18116.000000
253.096300 492916.000000
254.099100 72232.000000

>ms2peaks
165.068600 35608.000000
167.071800 69584.000000
168.076000 11216.000000
179.071600 12916.000000
180.079500 33088.000000
181.086800 15960.000000
182.095200 107720.000000
183.079200 9804.000000
183.098200 14320.000000
191.071800 9236.000000
192.079900 113248.000000
193.086900 66312.000000
194.095500 527316.000000
195.066600 55908.000000
195.098900 43280.000000
196.070800 8660.000000
208.074800 648260.000000
209.081200 197636.000000
210.090600 1647308.000000
211.093800 172092.000000
212.096800 12960.000000
253.096500 13908.000000

>ms2peaks
117.056900 10624.000000
139.053100 5920.000000
140.048200 3560.000000
141.068600 4140.000000
152.061100 27676.000000
153.068600 29064.000000
154.065900 4616.000000
154.071100 5024.000000
155.084400 5784.000000
163.052900 3420.000000
164.060100 3368.000000
165.068900 99512.000000
166.067000 19052.000000
167.072100 312612.000000
168.075800 35344.000000
169.063700 3332.000000
177.057900 3680.000000
177.068000 5396.000000
178.064400 14252.000000
179.072000 64820.000000
180.079600 152468.000000
181.063900 29112.000000
181.087000 70332.000000
182.095400 146512.000000
183.068300 8088.000000
183.077200 8596.000000
183.098400 18100.000000
190.064300 49348.000000
191.071600 54312.000000
192.080000 114076.000000
193.087700 219864.000000
194.095600 318744.000000
195.067100 186156.000000
195.099000 23092.000000
196.070500 24800.000000
206.059300 7152.000000
207.067000 29116.000000
208.075100 416548.000000
209.082200 257900.000000
210.090500 496908.000000
211.093800 56508.000000
212.096300 4512.000000

>ms2peaks
115.053400 6316.000000
116.048800 2620.000000
117.056500 6948.000000
127.052700 3908.000000
128.048000 4480.000000
128.060500 5632.000000
129.068500 3308.000000
133.051200 2680.000000
139.053000 22460.000000
140.048900 12436.000000
140.060100 10416.000000
141.055300 2780.000000
141.068100 4524.000000
145.063100 3116.000000
150.045700 3516.000000
151.052700 8364.000000
152.060900 82912.000000
153.068200 50736.000000
154.064600 13896.000000
155.058900 4296.000000
155.069900 3868.000000
155.083500 3400.000000
156.079600 2564.000000
163.052700 10608.000000
164.060300 10948.000000
165.068600 138100.000000
166.064500 69988.000000
167.071900 469168.000000
168.055100 5144.000000
168.075300 48496.000000
169.063500 11436.000000
169.077900 2796.000000
170.060500 2592.000000
176.060100 4996.000000
177.056400 9772.000000
178.064200 48404.000000
179.071700 117148.000000
180.079700 284868.000000
181.063800 40664.000000
181.086500 101080.000000
182.067200 8584.000000
182.094500 49356.000000
183.066800 12000.000000
183.098000 5428.000000
184.072800 2604.000000
189.055700 2872.000000
190.064300 80900.000000
191.071900 107120.000000
192.079700 117632.000000
193.087500 245880.000000
194.058900 7476.000000
194.094800 86500.000000
195.067000 138664.000000
196.070400 18192.000000
206.059000 12920.000000
207.066700 54764.000000
208.074600 145984.000000
209.082300 166244.000000
210.089400 65064.000000
211.093400 8516.000000

>ms2peaks
117.057400 6680.000000
165.068900 10368.000000
167.072100 17980.000000
180.080000 9540.000000
181.086200 5320.000000
182.095700 37076.000000
192.080400 59628.000000
193.086900 24416.000000
194.096100 348824.000000
195.067400 18732.000000
195.099200 25888.000000
208.075400 329628.000000
209.081400 90320.000000
210.091100 927796.000000
211.094600 133104.000000
212.096800 7772.000000
236.070700 6536.000000
237.102400 71656.000000
238.105300 4812.000000
253.097200 228244.000000
254.100000 32768.000000

