>compound AU03227750
>parentmass 306.08109999999994
>ionization [M+H]+
>formula C17H17Cl2N
>rt 539.750000
>profile qtof
#smiles_iso CN[C@H]1CC[C@H](C2=CC=CC=C12)C3=CC(=C(C=C3)Cl)Cl
#smiles_can CNC1CCC(C2=CC=CC=C12)C3=CC(=C(C=C3)Cl)Cl
#inchikey VGKDLMBJGBXTGI-SJCJKPOMSA-N
#pubchem_id 68617
#mb_accession AU150001,AU150002,AU150003,AU150004,AU150005,AU150006

>ms2peaks
129.068700 11764.000000
158.975700 12204.000000
275.039600 586428.000000
276.042700 77664.000000
277.036500 284220.000000
278.039300 22408.000000
306.082000 114672.000000
307.084500 18452.000000
308.078600 61588.000000
309.081600 6720.000000

>ms2peaks
128.061000 7008.000000
129.068700 95792.000000
130.072100 7432.000000
158.975100 455412.000000
159.978400 23668.000000
160.972300 203088.000000
161.975400 7036.000000
196.990900 5884.000000
275.038300 451892.000000
276.041700 51976.000000
277.035300 245444.000000
278.038100 16248.000000

>ms2peaks
129.068900 140100.000000
130.072100 10432.000000
158.975100 825056.000000
159.978400 50148.000000
160.972300 511052.000000
161.975400 15844.000000
196.990300 9972.000000
197.994200 1132.000000
198.987900 5720.000000
199.989800 324.000000
275.038300 27492.000000
276.041700 4440.000000
277.035300 16768.000000

>ms2peaks
122.999100 28900.000000
128.061000 46688.000000
129.068700 112920.000000
130.072600 8680.000000
158.975100 964096.000000
159.978400 49360.000000
160.972300 471748.000000
161.975400 15720.000000

>ms2peaks
122.998900 201420.000000
124.006000 50264.000000
124.995700 42972.000000
126.003100 12912.000000
127.053200 20900.000000
128.061300 191300.000000
129.068700 159648.000000
130.072200 14820.000000
132.959400 36784.000000
134.956500 16492.000000
145.063600 19264.000000
155.059500 33852.000000
158.975200 2116232.000000
159.978600 110640.000000
160.972300 1025040.000000
162.021700 29816.000000
203.084300 14328.000000
204.092000 18260.000000
205.100300 38776.000000
225.045600 23836.000000

>ms2peaks
91.054700 109432.000000
92.058000 6096.000000
115.055000 10060.000000
122.998700 7728.000000
128.061300 24440.000000
129.069900 253560.000000
130.073000 23276.000000
155.058900 5068.000000
158.975400 986276.000000
159.978800 67656.000000
160.972500 513404.000000
196.991500 13796.000000
198.988800 8260.000000
205.100200 5952.000000
240.069400 19928.000000
275.039100 265012.000000
276.042100 60380.000000
277.036300 173356.000000

