>compound AU03776173
>parentmass 291.2067
>ionization [M+H]+
>formula C17H26N2O2
>rt 366.000000
>profile qtof
#smiles_iso CC(C)C(CCCNC)(C#N)C1=CC(=C(C=C1)OC)OC
#smiles_can CC(C)C(CCCNC)(C#N)C1=CC(=C(C=C1)OC)OC
#inchikey WLOBUUJURNEQCL-UHFFFAOYSA-N
#pubchem_id 93168
#mb_accession AU204501,AU204502,AU204503,AU204504,AU204505

>ms2peaks
151.074400 2624.000000
165.089000 744.000000
177.090200 1932.000000
218.117300 1280.000000
233.154200 1020.000000
248.151400 3272.000000
260.164300 16920.000000
261.167900 2836.000000
264.195400 784.000000
291.207200 1464808.000000
292.210500 252616.000000
293.213300 20256.000000

>ms2peaks
122.095600 13856.000000
138.066700 6884.000000
151.074400 87124.000000
153.137500 8396.000000
165.089000 34908.000000
177.090000 72852.000000
218.117300 28584.000000
248.151600 112516.000000
260.164300 324128.000000
261.167900 44684.000000
291.206700 1252984.000000
292.210500 167928.000000
293.213300 13608.000000

>ms2peaks
121.064200 4636.000000
122.095600 13348.000000
123.043400 2664.000000
123.101200 1220.000000
124.051000 7720.000000
126.127400 2184.000000
131.047900 2956.000000
133.064200 2584.000000
134.070900 2376.000000
135.043300 5324.000000
135.079400 1960.000000
139.074000 16240.000000
144.055800 1712.000000
145.063900 3220.000000
147.078000 3716.000000
148.086600 1024.000000
149.058100 2176.000000
149.094600 1712.000000
151.074400 180660.000000
153.079800 1172.000000
153.137800 5512.000000
159.079400 4892.000000
160.087400 4284.000000
161.059400 936.000000
161.094100 2000.000000
162.066100 3568.000000
163.074400 5660.000000
164.081700 8372.000000
165.090200 95568.000000
172.075200 2496.000000
173.081600 1008.000000
173.093800 1068.000000
174.067500 920.000000
174.090100 4888.000000
175.074200 3912.000000
176.071000 4768.000000
176.079400 3652.000000
177.090100 121892.000000
179.105400 7712.000000
185.084200 956.000000
186.090300 6004.000000
188.069700 3608.000000
188.103000 3412.000000
189.078400 2620.000000
189.088100 2924.000000
193.121100 4456.000000
196.086500 932.000000
197.095900 2996.000000
201.090300 3348.000000
201.124300 936.000000
204.100200 5428.000000
205.119300 1720.000000
211.112600 1152.000000
212.118900 5128.000000
213.089600 2320.000000
213.122400 928.000000
214.122100 7828.000000
215.106200 1800.000000
215.124100 1564.000000
216.102000 3400.000000
216.138300 1000.000000
218.116300 38292.000000
220.132400 3404.000000
221.137200 936.000000
228.113300 4372.000000
228.137200 1676.000000
229.117800 1196.000000
229.145200 2460.000000
230.116600 5864.000000
231.126200 1168.000000
232.132600 2132.000000
233.128100 36284.000000
233.152900 9012.000000
244.134300 5804.000000
245.140200 13192.000000
246.143300 2912.000000
248.151400 48448.000000
249.155200 7552.000000
250.159800 912.000000
260.164200 51500.000000
261.167900 10332.000000
262.169400 968.000000
264.195400 5148.000000
291.206300 35460.000000

>ms2peaks
115.053400 2952.000000
116.059200 728.000000
117.069200 2336.000000
118.041000 1404.000000
119.048400 2180.000000
120.055200 936.000000
121.063900 8544.000000
122.035700 992.000000
122.070400 1072.000000
122.095300 4268.000000
123.042900 6304.000000
123.080200 684.000000
124.050700 6864.000000
128.061600 1068.000000
129.068400 1352.000000
131.047900 7496.000000
132.054300 2068.000000
133.052000 736.000000
133.063600 6388.000000
134.070900 6092.000000
135.079100 2704.000000
139.073400 6920.000000
141.067300 760.000000
142.063600 1060.000000
143.071400 1248.000000
144.055800 3508.000000
144.080200 2284.000000
145.063500 5456.000000
146.059400 8660.000000
147.043400 1332.000000
147.063800 1520.000000
147.077700 7288.000000
148.086100 1604.000000
149.058600 4220.000000
149.094500 2172.000000
151.074300 134716.000000
153.081400 844.000000
156.043200 1456.000000
156.080400 1580.000000
157.063200 1044.000000
157.086500 920.000000
158.058600 732.000000
158.071700 1776.000000
159.068200 2280.000000
159.078900 5544.000000
160.050800 768.000000
160.075400 6172.000000
161.058500 2796.000000
161.093500 3900.000000
162.066300 4736.000000
163.073500 4112.000000
164.082000 7044.000000
165.089900 51500.000000
167.085000 712.000000
170.058000 1388.000000
171.067200 972.000000
171.078300 888.000000
173.081100 3052.000000
173.094800 1888.000000
174.054500 1976.000000
174.063300 1776.000000
174.090400 14656.000000
175.061700 3268.000000
175.073300 2768.000000
175.093600 2032.000000
176.069800 5960.000000
176.080100 5636.000000
177.090000 38864.000000
179.104900 2824.000000
184.075000 932.000000
184.084900 716.000000
185.082200 1268.000000
185.094300 1456.000000
186.089700 6644.000000
187.073000 1424.000000
187.098000 11840.000000
188.069600 7904.000000
188.103100 2096.000000
189.077300 3476.000000
189.088800 2456.000000
190.085300 5096.000000
192.112900 8792.000000
197.095700 2620.000000
198.092200 936.000000
199.097500 1132.000000
200.106000 1232.000000
201.091200 2040.000000
202.120400 1384.000000
203.114300 1480.000000
204.099800 4268.000000
205.108400 1740.000000
205.132100 1548.000000
212.118200 1984.000000
213.090200 1928.000000
214.122200 7780.000000
215.107600 772.000000
215.124900 1664.000000
216.100900 3720.000000
217.108500 4588.000000
218.116400 5848.000000
219.117100 1032.000000
220.131300 2296.000000
228.112500 1132.000000
230.116700 4372.000000
231.116900 1220.000000
233.127400 21884.000000
234.130800 4188.000000
243.137100 980.000000
244.133000 4552.000000
245.137700 1660.000000
248.149400 2672.000000
260.163900 1772.000000

>ms2peaks
107.047100 420.000000
115.053600 6068.000000
116.051700 656.000000
116.060400 1224.000000
117.056600 984.000000
117.068600 2764.000000
118.040400 1424.000000
118.063900 1008.000000
119.048200 3448.000000
119.084200 824.000000
120.054300 1692.000000
120.079500 500.000000
121.063800 9116.000000
122.035000 1868.000000
122.069900 1136.000000
122.096100 460.000000
123.042800 6380.000000
123.078300 460.000000
124.051100 4664.000000
126.126600 352.000000
127.053200 724.000000
128.048400 1816.000000
128.061100 2736.000000
129.055500 532.000000
129.068700 2948.000000
130.040100 1224.000000
130.063700 1836.000000
131.071800 1464.000000
131.085500 880.000000
132.043800 1932.000000
132.053600 2720.000000
132.080200 1948.000000
133.026400 640.000000
133.051500 1636.000000
133.064100 7792.000000
134.036400 468.000000
134.071800 7816.000000
135.079200 2840.000000
138.066300 9032.000000
139.072900 2752.000000
140.048700 484.000000
141.068600 1284.000000
142.063900 2000.000000
143.047900 712.000000
143.071500 2036.000000
143.084300 908.000000
144.055600 5656.000000
144.079600 5740.000000
145.084800 1072.000000
146.059000 16704.000000
146.095100 2460.000000
147.043000 2452.000000
147.064100 2256.000000
147.078000 6924.000000
147.100600 524.000000
148.037400 536.000000
148.049700 1040.000000
148.084400 1564.000000
149.058100 5792.000000
149.094700 2100.000000
151.074300 61704.000000
152.061400 1016.000000
153.067500 976.000000
153.078200 544.000000
154.063200 1020.000000
154.076200 732.000000
155.059100 1620.000000
155.073300 608.000000
156.043300 2628.000000
156.079400 2976.000000
157.050000 360.000000
157.063300 1440.000000
157.086200 1752.000000
157.102000 360.000000
158.070600 1700.000000
158.095300 1192.000000
159.042500 396.000000
159.066800 7052.000000
159.078900 5520.000000
160.039300 1200.000000
160.049100 768.000000
160.074400 11088.000000
160.086600 7660.000000
161.058900 5716.000000
161.078800 1264.000000
161.094100 4668.000000
162.066600 3052.000000
162.088500 388.000000
162.097000 636.000000
162.114800 532.000000
163.073800 1928.000000
164.082200 3384.000000
165.068700 1020.000000
165.089800 14852.000000
166.078100 504.000000
167.085100 484.000000
168.082500 336.000000
169.050100 356.000000
169.062900 472.000000
170.058300 1796.000000
170.070200 628.000000
170.095800 600.000000
171.067100 1740.000000
171.079300 1320.000000
171.102400 1092.000000
173.058600 316.000000
173.081200 3888.000000
174.052800 3316.000000
174.090500 13060.000000
175.060800 2008.000000
175.072500 2148.000000
175.093900 2232.000000
175.112900 316.000000
176.069700 3556.000000
176.081500 3040.000000
176.105800 772.000000
177.071700 572.000000
177.090000 9276.000000
178.094700 1376.000000
179.086600 360.000000
179.104900 832.000000
181.064400 588.000000
182.071800 820.000000
182.095900 384.000000
183.101800 384.000000
184.076100 1720.000000
184.112300 412.000000
185.058100 432.000000
185.083100 1404.000000
185.094100 1044.000000
186.055400 432.000000
186.090500 5360.000000
187.061500 1420.000000
187.097600 4160.000000
188.103400 1304.000000
189.076300 2624.000000
189.088700 1464.000000
190.085000 1864.000000
190.107800 1296.000000
191.106100 1576.000000
192.114900 1488.000000
196.086100 608.000000
197.095600 1396.000000
198.067400 364.000000
198.090900 1160.000000
199.075200 372.000000
199.098900 2432.000000
200.069000 1268.000000
200.105400 1640.000000
201.078200 816.000000
201.091200 608.000000
201.114100 708.000000
202.121400 1384.000000
203.093000 4728.000000
203.116400 1348.000000
204.100300 3632.000000
205.105300 892.000000
205.131500 1184.000000
206.115600 364.000000
206.138000 320.000000
212.107100 568.000000
213.090000 468.000000
214.083600 796.000000
214.122100 4248.000000
215.092200 776.000000
215.124100 996.000000
216.101400 1636.000000
217.103800 676.000000
218.118300 540.000000
229.107500 476.000000
230.116200 1324.000000
231.110800 1940.000000
232.118800 964.000000
233.128000 5560.000000
234.132400 696.000000
244.132200 1632.000000
245.137400 408.000000
247.144400 1812.000000

