>compound AU03749639
>parentmass 241.0641
>ionization [M+H]+
>formula C10H12N2O3S
>rt 329.520000
>profile qtof
#smiles_iso CC(C)N1C(=O)C2=CC=CC=C2NS1(=O)=O
#smiles_can CC(C)N1C(=O)C2=CC=CC=C2NS1(=O)=O
#inchikey ZOMSMJKLGFBRBS-UHFFFAOYSA-N
#pubchem_id 2328
#mb_accession AU231301,AU231302,AU231303,AU231304,AU231306

>ms2peaks
197.028600 444.000000
199.016100 17156.000000
200.017800 1648.000000
201.012300 1016.000000
241.063200 1396.000000

>ms2peaks
120.044500 1064.000000
135.054100 2160.000000
181.990200 620.000000
199.015700 8572.000000
200.018800 888.000000
201.009800 540.000000

>ms2peaks
120.043800 1276.000000
135.054500 1680.000000
138.000900 496.000000
181.989500 624.000000
199.016500 1068.000000

>ms2peaks
120.043200 420.000000
135.054900 520.000000

>ms2peaks
107.061200 308.000000
120.044200 2072.000000
125.014100 368.000000
135.055000 3872.000000
136.057300 376.000000
138.002200 408.000000
181.991400 1036.000000
199.016800 10944.000000
200.020800 916.000000
201.013600 576.000000

