>compound AU03154165
>parentmass 134.07130000000004
>ionization [M+H]+
>formula C7H7N3
>rt 345.942857
>profile qtof
#smiles_iso CC1=CC2=NNN=C2C=C1
#smiles_can CC1=CC2=NNN=C2C=C1
#inchikey LRUDIIUSNGCQKF-UHFFFAOYSA-N
#pubchem_id 8705
#mb_accession AU241601,AU241602,AU241603,AU241604,AU241606,AU405101,AU405102

>ms2
134.070200 703296.000000
135.073100 46492.000000

>ms2
134.070500 189228.000000
135.073300 13872.000000

>ms2
134.069900 14064.000000
135.073200 1012.000000

>ms2
134.070100 896.000000

>ms2
51.022400 1312.000000
53.038100 8324.000000
66.045700 1708.000000
67.040900 2252.000000
77.038200 8152.000000
78.033400 1336.000000
78.045500 1168.000000
79.054000 115072.000000
80.049600 3904.000000
80.057800 5848.000000
89.039000 2360.000000
91.042100 2448.000000
95.049500 20900.000000
96.052400 1432.000000
105.045800 17100.000000
106.066100 15044.000000
134.070800 223656.000000
135.073500 23636.000000

>ms2
134.071500 504480.000000
135.074600 34348.000000

>ms2
134.071300 143968.000000
135.074200 8600.000000

