>compound AU03037979
>parentmass 150.0913
>ionization [M+H]+
>formula C9H11NO
>rt 384.000000
>profile qtof
#smiles_iso CC1=CC(=C(C=C1)NC=O)C
#smiles_can CC1=CC(=C(C=C1)NC=O)C
#inchikey JOFDPSBOUCXJCC-UHFFFAOYSA-N
#pubchem_id 92363
#mb_accession AU383001,AU383002,AU383003,AU383004

>ms2
117.056700 6052.000000
122.095500 25240.000000
123.079600 36796.000000
132.079800 67212.000000
133.083300 7020.000000
150.090300 1075312.000000
151.093400 69556.000000
152.096500 6016.000000

>ms2
106.064600 1436.000000
107.072100 1312.000000
114.091300 516.000000
115.053800 328.000000
117.056600 20248.000000
118.059900 1852.000000
120.080000 1728.000000
121.063800 1376.000000
121.088000 1188.000000
122.095800 32096.000000
123.079600 33848.000000
130.064300 964.000000
131.071600 1016.000000
132.080100 43120.000000
133.083300 4824.000000
135.066900 2248.000000
148.074100 524.000000
150.090300 65492.000000
151.093400 5320.000000
152.096500 388.000000

>ms2
106.064500 744.000000
107.070700 704.000000
117.056500 7340.000000
118.060400 708.000000
120.080100 1760.000000
121.064500 668.000000
121.087800 556.000000
122.095700 1692.000000
123.079500 2348.000000
130.064100 760.000000
131.070300 416.000000
132.080100 2172.000000
150.091000 1268.000000

>ms2
106.065700 744.000000
107.070300 300.000000
117.056700 1772.000000
120.080100 792.000000

