>compound AU03636466
>parentmass 161.0921
>ionization [M+H]+
>formula C6H12N2O3
>rt 129.045000
>profile qtof
#smiles_iso CN(C)NC(=O)CCC(=O)O
#smiles_can CN(C)NC(=O)CCC(=O)O
#inchikey NOQGZXFMHARMLW-UHFFFAOYSA-N
#pubchem_id 15331
#mb_accession AU262901,AU262902,AU262903,AU262906

>ms2peaks
143.080200 132620.000000
144.083200 7104.000000
161.091000 57320.000000
162.094200 3300.000000

>ms2peaks
115.085500 504.000000
141.064000 412.000000
143.080000 20324.000000
144.082800 1404.000000
161.090100 624.000000

>ms2peaks
143.080400 860.000000

>ms2peaks
55.017800 452.000000
58.064200 648.000000
59.059500 896.000000
61.075200 3740.000000
72.044700 804.000000
115.086400 1308.000000
143.080600 45852.000000
144.083600 2924.000000
145.085600 308.000000
161.091100 2608.000000

