>compound AU04564669
>parentmass 274.2529
>ionization [M+H]+
>formula C19H31N
>rt 503.950000
>profile qtof
#smiles_iso CC(CC1=CC=C(C=C1)C(C)(C)C)CN2CCCCC2
#smiles_can CC(CC1=CC=C(C=C1)C(C)(C)C)CN2CCCCC2
#inchikey MGNFYQILYYYUBS-UHFFFAOYSA-N
#pubchem_id 91694
#mb_accession AU258901,AU258902,AU258903,AU258904,AU258905,AU258906

>ms2
274.253100 1687140.000000
275.255900 348108.000000
276.258500 27436.000000

>ms2
147.115400 32672.000000
274.252800 1669728.000000
275.255700 396388.000000
276.258700 27348.000000

>ms2
117.068800 5924.000000
119.084500 16340.000000
132.092000 24448.000000
147.115700 334248.000000
148.118800 36860.000000
161.130800 9424.000000
189.162500 15672.000000
218.189500 5792.000000
274.252400 902680.000000
275.255900 170028.000000
276.258900 12608.000000

>ms2
115.053600 9164.000000
117.069200 30756.000000
118.072400 3872.000000
119.084800 56832.000000
120.087900 6584.000000
131.084300 7472.000000
132.092400 123696.000000
133.095500 12772.000000
145.099800 6492.000000
146.106600 3116.000000
147.115800 358372.000000
148.119000 41020.000000
149.121400 2336.000000
159.115600 3072.000000
161.131100 10868.000000
162.134400 1808.000000
189.162200 3840.000000
218.187600 1948.000000
274.251900 60344.000000
275.255200 13220.000000

>ms2
115.053600 23408.000000
116.059200 3540.000000
117.069300 66996.000000
118.072700 8608.000000
119.084700 45812.000000
120.088000 4964.000000
128.060500 788.000000
129.069100 1528.000000
130.075900 1124.000000
131.084800 15384.000000
132.092600 133908.000000
133.095900 15696.000000
145.099900 4832.000000
146.107800 3976.000000
147.115900 86380.000000
148.119300 11608.000000
159.115900 4148.000000
160.119200 720.000000
161.130700 2452.000000
258.220600 732.000000
274.253600 916.000000

>ms2
57.069400 39132.000000
69.069200 4400.000000
86.096300 125908.000000
87.099600 5512.000000
91.054400 4352.000000
105.070800 4524.000000
119.085200 8084.000000
132.092800 8812.000000
147.116100 167260.000000
148.119100 19060.000000
161.131200 5184.000000
189.162700 9832.000000
274.252800 862472.000000
275.256400 202888.000000
276.258900 16776.000000

