>compound AU04184525
>parentmass 455.1786
>ionization [M+H]+
>formula C20H22N8O5
>rt 235.740000
>profile qtof
#smiles_iso CN(CC1=CN=C2C(=N1)C(=NC(=N2)N)N)C3=CC=C(C=C3)C(=O)N[C@@H](CCC(=O)O)C(=O)O
#smiles_can CN(CC1=CN=C2C(=N1)C(=NC(=N2)N)N)C3=CC=C(C=C3)C(=O)NC(CCC(=O)O)C(=O)O
#inchikey FBOZXECLQNJBKD-ZDUSSCGKSA-N
#pubchem_id 126941
#mb_accession AU273001,AU273002,AU273003,AU273004,AU273005,AU273006

>ms2
308.125300 9316.000000
309.125800 1232.000000
454.171400 356.000000
455.178000 68872.000000
456.180300 17100.000000
457.183600 2416.000000

>ms2
134.059700 1204.000000
175.071000 2724.000000
308.124900 114460.000000
309.127100 20892.000000
310.131100 2072.000000
326.139000 760.000000
455.177400 22932.000000
456.180000 6252.000000
457.184600 848.000000

>ms2
134.058900 14624.000000
135.061600 1528.000000
175.071500 18652.000000
176.076500 2396.000000
177.087200 1672.000000
308.125000 104472.000000
309.127300 22012.000000
310.130400 1900.000000

>ms2
133.049500 1572.000000
134.059200 28756.000000
135.062000 3292.000000
148.061900 456.000000
160.061300 516.000000
163.071600 308.000000
175.071300 50476.000000
176.077100 8212.000000
177.085700 4452.000000
178.090400 372.000000
292.089600 300.000000
308.124600 24992.000000
309.128000 5584.000000
310.131600 336.000000

>ms2
121.049600 716.000000
133.049600 4556.000000
134.059300 33132.000000
135.062300 3276.000000
148.060900 1656.000000
149.066200 512.000000
160.060500 1928.000000
163.069700 428.000000
175.071600 77732.000000
176.077900 20984.000000
177.086400 7164.000000
178.089700 556.000000
308.124900 3220.000000
309.130900 612.000000

>ms2
134.059000 20712.000000
135.062900 1688.000000
175.071600 27952.000000
176.076900 4608.000000
177.086700 2088.000000
308.125200 109212.000000
309.127700 20436.000000
310.132700 2088.000000
455.178500 2276.000000
456.172200 772.000000

