>compound AU05515413
>parentmass 777.694
>ionization [M+H]+
>formula C15H11I4NO4
>rt 563.640000
>profile qtof
#smiles_iso C1=C(C=C(C(=C1I)OC2=CC(=C(C(=C2)I)O)I)I)C[C@@H](C(=O)O)N
#smiles_can C1=C(C=C(C(=C1I)OC2=CC(=C(C(=C2)I)O)I)I)CC(C(=O)O)N
#inchikey XUIIKFGFIJCVMT-LBPRGKRZSA-N
#pubchem_id 5819
#mb_accession AU274306

>ms2peaks
323.965000 360.000000
350.975400 516.000000
379.952300 432.000000
576.765100 308.000000
604.781100 732.000000
633.774000 328.000000
731.690400 1924.000000
732.692800 320.000000

