>compound AU05032667
>parentmass 153.0546
>ionization [M+H]+
>formula C8H8O3
>rt 361.416000
>profile qtof
#smiles_iso COC(=O)C1=CC=C(C=C1)O
#smiles_can COC(=O)C1=CC=C(C=C1)O
#inchikey LXCFILQKKLGQFO-UHFFFAOYSA-N
#pubchem_id 7456
#mb_accession AU237101,AU237102,AU237103,AU237104,AU237106

>ms2peaks
121.026900 5584.000000
153.052700 13544.000000
154.057500 1000.000000

>ms2peaks
121.027500 3284.000000

>ms2peaks
121.028100 1360.000000

>ms2peaks
121.027200 312.000000

>ms2peaks
59.048800 380.000000
81.070000 332.000000
121.028200 6388.000000
122.030800 756.000000
153.053300 2124.000000

