>compound AU05746263
>parentmass 278.1903
>ionization [M+H]+
>formula C20H23N
>rt 385.200000
>profile qtof
#smiles_iso C/C=C\1/C(CC(N1C)C)(C2=CC=CC=C2)C3=CC=CC=C3
#smiles_can CC=C1C(CC(N1C)C)(C2=CC=CC=C2)C3=CC=CC=C3
#inchikey AJRJPORIQGYFMT-PVOVUMCXSA-N
#pubchem_id 5378015
#mb_accession AU161501,AU161502,AU161503,AU161504,AU161505

>ms2
234.126000 1148.000000
278.190300 1363308.000000
279.193700 235116.000000
280.196400 20892.000000

>ms2
234.126600 28420.000000
249.150400 53664.000000
278.190300 1646288.000000
279.193700 318960.000000
280.196400 22676.000000

>ms2
158.094900 5312.000000
171.103300 4968.000000
186.126500 62648.000000
201.149800 41324.000000
208.109400 3564.000000
234.127100 527092.000000
235.130400 76896.000000
249.150600 343860.000000
250.154100 59052.000000
251.158900 4156.000000
278.190300 695888.000000
279.193700 139592.000000
280.196400 9164.000000

>ms2
156.079400 5844.000000
186.127100 298008.000000
207.103400 30156.000000
219.103800 63796.000000
234.127500 1152128.000000
235.130800 149888.000000
236.134700 9032.000000
249.150400 101920.000000
278.189900 55468.000000

>ms2
117.069700 2332.000000
118.064400 4252.000000
130.064300 3092.000000
132.079600 3236.000000
141.069300 2416.000000
144.078600 6856.000000
155.084400 2128.000000
158.095300 140960.000000
167.085300 2512.000000
172.110600 27024.000000
179.083700 4612.000000
184.111800 2372.000000
186.127100 236480.000000
192.090100 5692.000000
201.149000 6080.000000
202.077200 4368.000000
204.089200 4688.000000
205.099700 4228.000000
207.103300 25744.000000
208.107700 4772.000000
217.089400 5132.000000
219.103800 221664.000000
220.107700 35916.000000
234.127400 422744.000000
236.133800 4700.000000
262.158600 2480.000000
278.191500 2444.000000

