>compound AU05805277
>parentmass 250.1802
>ionization [M+H]+
>formula C15H23NO2
>rt 373.200000
>profile qtof
#smiles_iso COC1=CC=C(C=C1)C(CN)C2(CCCCC2)O
#smiles_can COC1=CC=C(C=C1)C(CN)C2(CCCCC2)O
#inchikey SUQHIQRIIBKNOR-UHFFFAOYSA-N
#pubchem_id 9795857
#mb_accession AU201601,AU201602,AU201603,AU201604,AU201605

>ms2
121.063600 3140.000000
124.109900 628.000000
131.047400 472.000000
147.078400 1572.000000
159.042000 1308.000000
159.079100 500.000000
173.095700 460.000000
201.126200 896.000000
203.141700 7468.000000
204.145200 1132.000000
215.142500 80784.000000
216.145000 11484.000000
217.148200 1248.000000
232.169000 89500.000000
233.172100 11888.000000
234.176000 1048.000000
250.179500 29780.000000
251.182600 5536.000000

>ms2
121.063900 23732.000000
122.067100 3088.000000
124.111200 428.000000
131.047800 964.000000
132.056400 1028.000000
135.079400 1976.000000
147.079200 26544.000000
148.082700 2080.000000
150.091600 544.000000
159.078900 5360.000000
160.083400 840.000000
161.094900 388.000000
173.094600 10724.000000
174.098000 1232.000000
183.114800 1004.000000
187.110600 800.000000
201.125300 896.000000
203.142200 3196.000000
204.144300 360.000000
215.142100 56156.000000
216.145300 6576.000000
217.149200 892.000000
232.169300 4192.000000
233.171200 640.000000

>ms2
115.053600 592.000000
117.069900 548.000000
119.085500 300.000000
121.063900 24680.000000
122.066800 2968.000000
128.061000 508.000000
131.048100 856.000000
132.055400 2084.000000
133.062900 620.000000
135.079300 3256.000000
141.068600 772.000000
144.056400 1220.000000
145.063300 888.000000
146.071900 328.000000
147.079200 25328.000000
148.082800 2968.000000
149.096200 364.000000
150.090700 740.000000
158.070900 2180.000000
159.079200 6912.000000
160.084500 940.000000
161.095600 1600.000000
168.092400 452.000000
172.087700 348.000000
173.094800 11140.000000
174.099700 1960.000000
183.115200 760.000000
187.112400 840.000000
201.125200 372.000000
213.125800 340.000000
215.141900 4300.000000
216.145400 972.000000

>ms2
115.053400 2336.000000
116.061400 320.000000
117.067800 1016.000000
118.065400 344.000000
119.084600 660.000000
121.063900 19640.000000
122.067600 1816.000000
127.053400 348.000000
128.061800 1500.000000
129.068300 1480.000000
130.075500 308.000000
131.048600 1296.000000
132.056200 2512.000000
133.062300 692.000000
135.066700 388.000000
135.079600 1268.000000
141.068300 1004.000000
142.076200 428.000000
143.083900 304.000000
144.055800 1960.000000
145.063900 1456.000000
146.070900 640.000000
147.078900 8932.000000
148.083100 1012.000000
155.085400 344.000000
158.071800 3864.000000
159.078800 3832.000000
160.084900 716.000000
161.095000 1332.000000
171.080100 320.000000
172.086500 416.000000
173.094500 3336.000000
174.100000 824.000000

>ms2
115.053500 3360.000000
116.059600 648.000000
117.069600 636.000000
118.063900 328.000000
119.084200 400.000000
121.063800 9184.000000
122.067700 1080.000000
127.054100 300.000000
128.061100 1692.000000
129.069600 776.000000
130.073100 568.000000
131.047800 2292.000000
132.055800 2704.000000
133.062600 656.000000
135.079400 540.000000
141.069800 1096.000000
142.075200 364.000000
143.048700 668.000000
144.056100 1632.000000
145.063500 1404.000000
146.070400 364.000000
147.079300 2112.000000
153.070100 408.000000
155.057700 524.000000
157.065000 376.000000
158.071100 2332.000000
159.078300 1168.000000
171.079800 620.000000
173.094500 604.000000

