>compound AU05624552
>parentmass 319.154
>ionization [M+H]+
>formula C18H22O5
>rt 593.724000
>profile qtof
#smiles_iso CC1CCCC(=O)CCCC=CC2=C(C(=CC(=C2)O)O)C(=O)O1
#smiles_can CC1CCCC(=O)CCCC=CC2=C(C(=CC(=C2)O)O)C(=O)O1
#inchikey MBMQEIFVQACCCH-UHFFFAOYSA-N
#pubchem_id 165628
#mb_accession AU597000,AU597001,AU597002,AU597003,AU597004

>ms2peaks
165.018100 852.000000
187.075500 1912.000000
189.055800 316.000000
203.070300 492.000000
205.086800 336.000000
215.069500 584.000000
217.086000 1440.000000
229.086100 812.000000
231.065400 1500.000000
232.068800 376.000000
245.080800 376.000000
249.075400 452.000000
255.137700 540.000000
257.155200 1108.000000
259.096300 384.000000
265.123200 900.000000
266.127500 412.000000
275.164400 320.000000
283.133400 9124.000000
284.135100 2080.000000
301.143700 19792.000000
302.147400 4836.000000
319.153500 19460.000000

>ms2peaks
125.095500 636.000000
157.064300 632.000000
161.058800 624.000000
165.017900 892.000000
169.062100 448.000000
173.057600 376.000000
175.038800 684.000000
175.073100 468.000000
177.054700 784.000000
177.090800 428.000000
178.059900 400.000000
185.058900 4548.000000
186.063900 464.000000
187.074800 11736.000000
189.054400 2176.000000
199.074400 680.000000
201.089900 592.000000
203.069700 4796.000000
203.105000 380.000000
204.073200 804.000000
205.085200 1968.000000
206.091300 400.000000
213.055300 1168.000000
213.089500 816.000000
215.069500 1964.000000
215.106900 320.000000
217.085500 1716.000000
219.176600 324.000000
221.080700 532.000000
227.070100 1344.000000
229.084900 2780.000000
231.064200 4940.000000
232.068600 652.000000
239.108400 376.000000
241.086800 1276.000000
241.122900 400.000000
242.089400 524.000000
243.100700 656.000000
249.075500 600.000000
255.137500 1420.000000
256.139700 432.000000
257.153600 308.000000
259.095700 516.000000
265.121100 2792.000000
283.131800 6992.000000
284.135300 2384.000000
301.143600 3248.000000
302.147900 860.000000

>ms2peaks
128.060200 432.000000
129.069900 520.000000
131.085200 676.000000
141.069600 712.000000
145.065600 332.000000
147.043100 656.000000
147.082200 340.000000
157.064000 2960.000000
159.081000 328.000000
161.058500 1008.000000
163.039400 596.000000
165.017500 600.000000
169.064900 1232.000000
173.059300 476.000000
175.039300 1552.000000
175.074900 1716.000000
177.053200 1000.000000
177.091800 700.000000
185.059400 8576.000000
187.075000 9300.000000
188.078600 1124.000000
189.054800 3140.000000
190.059600 464.000000
197.059500 540.000000
199.074200 1036.000000
201.090000 732.000000
203.069900 7324.000000
204.073100 1368.000000
205.047100 576.000000
205.085700 1032.000000
211.074400 520.000000
213.054400 896.000000
213.090800 880.000000
214.063100 400.000000
215.069900 908.000000
217.085400 344.000000
219.172700 476.000000
227.070800 596.000000
229.084800 1380.000000
231.063400 612.000000
241.085500 1260.000000
250.096400 380.000000
265.121000 568.000000
283.131800 424.000000

>ms2peaks
115.053700 644.000000
123.044000 368.000000
128.061500 932.000000
129.069400 1656.000000
131.049700 428.000000
131.083700 628.000000
133.064000 524.000000
139.053400 356.000000
141.069800 2480.000000
144.058000 308.000000
145.062900 372.000000
147.044000 1268.000000
147.079400 912.000000
149.059300 356.000000
153.068700 416.000000
157.064500 6192.000000
158.069100 780.000000
159.078900 528.000000
160.051100 1632.000000
161.059700 2416.000000
163.075900 308.000000
165.020200 340.000000
167.048000 368.000000
168.057900 508.000000
169.064100 1728.000000
173.057700 568.000000
175.038600 3124.000000
175.075000 2692.000000
176.079400 564.000000
177.055300 764.000000
177.089800 648.000000
184.051000 400.000000
185.059000 5648.000000
186.063300 1088.000000
187.074700 3700.000000
188.079800 408.000000
189.053500 1348.000000
197.059500 500.000000
199.075400 496.000000
201.091100 432.000000
203.069400 4120.000000
204.073300 536.000000
213.052800 820.000000
214.059000 304.000000
215.069000 372.000000
219.172800 308.000000
226.062400 324.000000
227.070600 396.000000
229.084100 396.000000

>ms2peaks
115.054800 1044.000000
123.043600 340.000000
127.054700 440.000000
128.061100 3004.000000
129.069200 2232.000000
131.050000 848.000000
132.054900 480.000000
133.064700 568.000000
139.053900 680.000000
141.069400 2220.000000
143.050500 692.000000
145.065400 428.000000
147.043100 2732.000000
147.079700 636.000000
149.058400 568.000000
152.061400 432.000000
153.069900 360.000000
157.064500 4480.000000
160.051700 2188.000000
161.059500 2180.000000
168.055500 688.000000
169.063500 1064.000000
173.058400 316.000000
174.067200 428.000000
175.038400 2900.000000
175.074700 1460.000000
177.055600 308.000000
184.052000 348.000000
185.059900 2388.000000
186.064400 544.000000
187.074500 864.000000
189.053800 988.000000
197.057800 556.000000
203.070800 640.000000
213.053300 388.000000

