>compound AU05841981
>parentmass 303.1955
>ionization [M+H]+
>formula C19H26O3
>rt 473.560000
>profile qtof
#smiles_iso C[C@]12CCC(=O)C=C1CC[C@@H]3[C@@H]2C(=O)C[C@]4([C@H]3CC[C@@H]4O)C
#smiles_can CC12CCC(=O)C=C1CCC3C2C(=O)CC4(C3CCC4O)C
#inchikey WTPMRQZHJLJSBO-XQALERBDSA-N
#pubchem_id 5282365
#mb_accession AU281501,AU281502,AU281503,AU281504,AU281505,AU281506

>ms2
267.173700 3504.000000
303.195500 660648.000000
304.198900 125448.000000
305.201000 15408.000000

>ms2
121.064000 27484.000000
131.084600 5972.000000
133.100000 5964.000000
135.079100 3252.000000
137.094800 2788.000000
145.099700 5416.000000
147.079200 12244.000000
147.115900 3192.000000
149.095200 3536.000000
151.110800 3508.000000
159.079000 3484.000000
159.115600 6132.000000
161.095000 4552.000000
163.110700 4060.000000
167.104800 3160.000000
171.078900 4736.000000
171.114800 3416.000000
173.094800 9356.000000
177.126900 2832.000000
187.110800 3056.000000
189.126000 4008.000000
201.126100 3740.000000
211.110100 2708.000000
213.126400 6496.000000
223.146900 4628.000000
225.126200 2792.000000
225.162700 4840.000000
227.142100 11828.000000
239.141900 2940.000000
239.178100 4032.000000
241.157700 16432.000000
242.161500 3628.000000
243.173100 9168.000000
245.152700 5900.000000
249.162400 5476.000000
257.188600 5996.000000
259.168600 36440.000000
260.171400 6828.000000
267.173500 39724.000000
268.177100 8676.000000
285.184600 29276.000000
286.188000 7476.000000
303.195300 528336.000000
304.198400 105392.000000
305.201300 11272.000000

>ms2
115.053500 860.000000
117.069800 1708.000000
119.084600 4952.000000
120.089100 696.000000
121.064300 49056.000000
122.067600 4532.000000
123.080100 7244.000000
123.115000 416.000000
124.083000 900.000000
125.097400 560.000000
128.061700 1608.000000
129.069100 3028.000000
130.077100 792.000000
131.084600 11040.000000
132.056300 536.000000
132.087900 1472.000000
133.063600 2052.000000
133.100500 11404.000000
134.104400 1368.000000
135.079900 6512.000000
135.116000 3096.000000
136.083800 784.000000
137.059100 528.000000
137.095300 3800.000000
138.098600 552.000000
139.074700 772.000000
141.069300 1508.000000
142.076600 1184.000000
143.084800 7604.000000
144.089100 1352.000000
145.064600 1804.000000
145.099900 19260.000000
146.070000 584.000000
146.103500 2508.000000
147.079500 19684.000000
147.116000 6624.000000
148.083800 2248.000000
148.120100 1144.000000
149.095000 8596.000000
149.131000 888.000000
150.100300 1032.000000
151.072500 480.000000
151.111300 2300.000000
153.067000 572.000000
153.092000 460.000000
154.076300 484.000000
155.084500 6112.000000
156.090000 1172.000000
157.065500 1324.000000
157.100300 8560.000000
158.071800 668.000000
158.103700 1284.000000
159.079900 6344.000000
159.115800 10464.000000
160.083700 884.000000
160.119200 1412.000000
161.095300 11468.000000
161.131000 2856.000000
162.100100 1952.000000
162.133900 384.000000
163.074000 768.000000
163.111100 14156.000000
164.114800 2116.000000
165.068600 456.000000
165.124400 660.000000
167.084100 1228.000000
167.105700 3144.000000
168.092100 828.000000
169.099900 5968.000000
170.107100 1176.000000
171.079200 6780.000000
171.115700 9372.000000
172.083700 956.000000
172.119300 1692.000000
173.095300 11916.000000
173.130900 1964.000000
174.100900 2676.000000
175.111400 5576.000000
175.148700 728.000000
176.114100 904.000000
177.090800 540.000000
177.127100 4304.000000
178.130400 632.000000
179.084400 724.000000
179.105200 896.000000
180.091700 568.000000
181.100400 2808.000000
181.119600 496.000000
182.108000 1028.000000
183.116300 10628.000000
184.120400 2356.000000
185.095000 4672.000000
185.131500 8564.000000
186.100400 1152.000000
186.136000 1488.000000
187.110400 4628.000000
187.147600 1296.000000
188.117800 2848.000000
189.090800 824.000000
189.126800 11700.000000
190.129900 1860.000000
191.106100 1240.000000
192.091500 408.000000
193.100000 1592.000000
193.120200 1244.000000
194.106200 956.000000
195.116200 3084.000000
196.120000 848.000000
197.095800 2784.000000
197.131900 7612.000000
198.102000 912.000000
198.136500 1944.000000
199.111300 4860.000000
199.147700 5988.000000
200.115100 772.000000
200.151300 1576.000000
201.126400 9236.000000
201.162100 916.000000
202.129600 1588.000000
203.105600 504.000000
203.142300 4056.000000
204.145700 880.000000
205.100200 564.000000
205.121300 684.000000
207.117200 2832.000000
207.138100 1452.000000
208.121600 1356.000000
209.131500 5148.000000
210.138100 1080.000000
211.111700 3268.000000
211.147300 2144.000000
212.117700 1888.000000
212.153100 800.000000
213.127200 7980.000000
213.163300 3300.000000
214.133400 1348.000000
214.169700 500.000000
215.106200 428.000000
215.142600 2780.000000
215.178300 604.000000
216.148800 420.000000
217.122300 892.000000
217.158400 1388.000000
219.117000 476.000000
220.125400 520.000000
221.131200 1664.000000
221.152100 4052.000000
222.137400 556.000000
222.157300 520.000000
223.147600 7348.000000
224.151500 2008.000000
225.126900 4140.000000
225.163200 6756.000000
226.133100 1740.000000
226.165900 1488.000000
227.142100 13412.000000
228.146400 2400.000000
229.122500 1244.000000
229.158500 1604.000000
230.165300 552.000000
231.137700 480.000000
231.173200 792.000000
233.154100 2092.000000
234.140600 956.000000
239.143100 3324.000000
239.180100 4672.000000
240.146300 868.000000
240.181900 1272.000000
241.158700 26044.000000
242.163800 6608.000000
243.140400 656.000000
243.173600 8224.000000
244.145900 3684.000000
244.176900 1756.000000
245.153200 7424.000000
246.157300 1220.000000
247.131600 436.000000
247.168400 608.000000
249.163100 4260.000000
250.168000 1140.000000
252.150100 792.000000
257.153000 1008.000000
257.190000 3920.000000
258.194800 796.000000
259.169300 76188.000000
260.172800 14248.000000
261.181300 1656.000000
262.187500 388.000000
267.173900 18232.000000
268.177400 4428.000000
269.181200 492.000000
270.161900 772.000000
285.185300 14948.000000
286.187200 4724.000000
287.191000 488.000000
288.169300 440.000000
303.196000 44420.000000
304.199400 11608.000000
305.202300 880.000000

>ms2
115.053800 2584.000000
116.060900 1148.000000
117.069300 3508.000000
118.073900 344.000000
119.084500 7532.000000
120.087100 1084.000000
121.063900 34200.000000
121.100700 2204.000000
122.067400 2688.000000
123.079800 7292.000000
124.082700 900.000000
127.051100 548.000000
128.060800 4028.000000
129.068500 6396.000000
130.075200 2616.000000
131.084200 14704.000000
132.055400 1416.000000
132.087700 2420.000000
133.063100 1856.000000
133.099800 9336.000000
134.069600 424.000000
134.103100 1488.000000
135.079700 4440.000000
135.115300 2088.000000
136.082800 556.000000
137.057100 448.000000
137.094700 2776.000000
139.074500 332.000000
141.068600 3060.000000
142.075500 4672.000000
143.083700 13500.000000
144.055600 656.000000
144.091200 3252.000000
145.063600 2484.000000
145.099800 18336.000000
146.070400 1376.000000
146.103500 2720.000000
147.078900 12432.000000
147.115700 4604.000000
148.085000 2592.000000
148.120200 604.000000
149.095000 5080.000000
149.130000 448.000000
151.109600 744.000000
152.060600 392.000000
153.068100 1684.000000
154.075600 1496.000000
155.084400 7728.000000
156.090800 3416.000000
157.062900 828.000000
157.099600 10744.000000
158.071200 1440.000000
158.104700 2320.000000
159.078800 4456.000000
159.115800 8724.000000
160.120200 1436.000000
161.094900 10668.000000
161.130800 3048.000000
162.101400 3668.000000
162.133800 644.000000
163.110100 11660.000000
164.113000 1616.000000
165.068400 1416.000000
165.092900 428.000000
166.074800 948.000000
167.083700 2396.000000
167.104700 652.000000
168.091600 2732.000000
169.099900 7268.000000
170.071700 308.000000
170.105500 2316.000000
171.079400 3880.000000
171.115000 8492.000000
172.085400 1028.000000
172.119700 1796.000000
173.094600 7712.000000
173.131400 2344.000000
174.102300 8848.000000
174.136600 752.000000
175.109100 4912.000000
175.145500 784.000000
177.087400 332.000000
177.126100 2748.000000
178.076200 828.000000
178.129500 548.000000
179.084800 1704.000000
179.104400 580.000000
180.091200 1416.000000
181.100200 4832.000000
182.106000 2420.000000
183.079300 560.000000
183.115500 10240.000000
184.086200 760.000000
184.120100 2592.000000
185.094600 3284.000000
185.131000 6244.000000
186.101400 1284.000000
186.136000 1800.000000
187.110300 3196.000000
187.145600 992.000000
188.116300 2912.000000
189.125700 11348.000000
190.130100 1692.000000
192.091700 876.000000
193.099100 2568.000000
194.105500 1716.000000
195.079200 400.000000
195.115500 2952.000000
196.086600 660.000000
196.120400 1956.000000
197.094000 1776.000000
197.131200 6272.000000
198.102600 1216.000000
198.136200 1268.000000
199.109400 3772.000000
199.146600 7100.000000
200.114800 1052.000000
200.149700 1180.000000
201.126200 7868.000000
201.162100 732.000000
202.131400 2272.000000
203.106400 388.000000
203.141200 3600.000000
204.145400 732.000000
205.099400 488.000000
206.108100 408.000000
207.114300 1296.000000
208.122900 2040.000000
209.094600 392.000000
209.131500 2532.000000
210.102800 756.000000
210.136200 904.000000
211.109500 1912.000000
211.145900 776.000000
212.116500 1280.000000
213.125600 3272.000000
213.162100 2156.000000
214.131200 1172.000000
214.167300 460.000000
215.141600 1264.000000
216.145900 484.000000
217.120000 616.000000
217.156800 1372.000000
218.161900 536.000000
219.113700 864.000000
220.124700 656.000000
221.131600 860.000000
221.152600 700.000000
223.108500 584.000000
223.146200 4468.000000
224.118600 872.000000
224.151500 1708.000000
225.127700 1488.000000
225.162800 2356.000000
226.134000 3296.000000
226.165800 572.000000
227.141400 5992.000000
228.146700 1580.000000
229.120900 4124.000000
229.157200 912.000000
230.123300 784.000000
233.131200 308.000000
233.154300 416.000000
234.137200 408.000000
237.124800 380.000000
239.142200 1328.000000
239.178200 1096.000000
240.182700 604.000000
241.157300 11092.000000
242.162400 4680.000000
243.140900 412.000000
243.172300 1648.000000
244.144800 10276.000000
245.150400 5092.000000
246.155100 656.000000
249.164000 800.000000
252.151200 524.000000
253.154700 360.000000
255.138300 484.000000
257.185900 424.000000
259.168000 23196.000000
260.171500 4488.000000
267.172800 1652.000000
268.175500 316.000000
270.158200 484.000000
285.184100 2112.000000
286.184800 324.000000
303.193400 1064.000000

>ms2
115.053800 4456.000000
116.059500 1640.000000
117.069600 3840.000000
119.084700 6664.000000
120.087900 892.000000
121.063900 21876.000000
121.100800 1196.000000
122.068200 1976.000000
123.079700 4168.000000
127.053400 972.000000
128.061100 10628.000000
129.068400 10792.000000
130.076300 5192.000000
131.047200 1040.000000
131.084300 13632.000000
132.054700 1640.000000
132.088600 1568.000000
133.063400 2512.000000
133.100400 6408.000000
134.069500 852.000000
134.104300 916.000000
135.079600 2960.000000
135.115000 1040.000000
136.083700 392.000000
137.095900 1036.000000
141.068700 6592.000000
142.076200 7396.000000
143.084000 11560.000000
144.056200 876.000000
144.090500 2496.000000
145.064000 3968.000000
145.099800 11124.000000
146.070900 2568.000000
146.104000 1460.000000
147.079300 8000.000000
147.115200 1520.000000
148.086500 3792.000000
149.094000 2880.000000
150.100100 300.000000
152.060800 1124.000000
153.068500 4116.000000
154.075300 2040.000000
155.084300 8304.000000
156.091700 4232.000000
157.062500 1264.000000
157.099500 7548.000000
158.071600 1708.000000
159.078800 5244.000000
159.116100 4440.000000
160.085100 1032.000000
160.119300 996.000000
161.094500 8220.000000
161.131200 1208.000000
162.101400 3508.000000
163.110300 5628.000000
164.113900 860.000000
165.068300 3356.000000
166.076500 1860.000000
167.083800 3488.000000
168.091500 3260.000000
169.062500 592.000000
169.099200 5736.000000
170.070000 348.000000
170.106800 2172.000000
171.078800 2260.000000
171.115300 4936.000000
172.085300 1372.000000
173.095100 4840.000000
173.131200 1096.000000
174.102500 13592.000000
175.108400 4064.000000
176.117300 604.000000
177.126300 1108.000000
178.075900 1456.000000
179.084500 3452.000000
180.091700 1836.000000
181.099900 4148.000000
182.108400 1516.000000
183.083600 708.000000
183.115500 4928.000000
184.085100 1056.000000
184.121200 1820.000000
185.094200 2140.000000
185.131200 2952.000000
186.102200 1772.000000
186.138000 1128.000000
187.110800 2732.000000
187.145000 1004.000000
188.118900 3228.000000
189.126000 5348.000000
190.129900 668.000000
191.084200 556.000000
192.093500 972.000000
193.099800 2552.000000
194.107900 1648.000000
195.077600 416.000000
195.116000 2096.000000
196.086400 392.000000
196.120500 888.000000
197.092800 1352.000000
197.131500 2120.000000
198.101700 640.000000
198.137400 908.000000
199.110300 1852.000000
199.146400 2960.000000
200.117600 504.000000
201.125300 2824.000000
202.132200 1060.000000
203.142000 1252.000000
205.101500 664.000000
206.109600 584.000000
207.114900 840.000000
208.125400 936.000000
209.097900 376.000000
209.131600 1204.000000
210.136000 468.000000
211.109600 1620.000000
211.147500 400.000000
212.117900 916.000000
213.125800 1900.000000
213.161500 608.000000
214.131400 628.000000
215.144000 604.000000
217.156700 348.000000
219.114700 500.000000
223.149500 672.000000
224.156200 396.000000
225.123600 468.000000
225.163000 384.000000
226.133300 2276.000000
227.142100 7404.000000
228.146400 2120.000000
229.121400 12924.000000
230.124500 3080.000000
231.130800 304.000000
234.140900 388.000000
237.124100 556.000000
239.138300 300.000000
241.157900 1964.000000
242.165000 952.000000
243.135000 1156.000000
243.171300 564.000000
244.144500 8360.000000
245.149800 2524.000000
246.155700 360.000000
255.137300 504.000000
259.169000 2572.000000
260.173600 424.000000

>ms2
55.017700 932.000000
55.053800 1384.000000
67.053700 2064.000000
69.032900 1188.000000
69.069000 2104.000000
71.048500 968.000000
79.052700 1576.000000
81.069300 4292.000000
83.048600 2180.000000
91.054300 1240.000000
93.070300 3296.000000
95.085700 2620.000000
97.065300 3532.000000
105.070200 1756.000000
107.085300 2348.000000
111.080200 1032.000000
119.084700 4352.000000
121.063800 38256.000000
121.100300 2060.000000
122.066900 3392.000000
123.079000 5296.000000
129.068500 1448.000000
131.083900 8276.000000
133.063000 1368.000000
133.100100 7320.000000
135.079200 5240.000000
135.115400 1476.000000
137.094600 3812.000000
143.084000 4624.000000
145.062900 1204.000000
145.099600 10888.000000
146.103500 1612.000000
147.078800 12872.000000
147.116000 2576.000000
148.082600 1728.000000
149.094400 3828.000000
151.110500 2508.000000
155.083800 2476.000000
157.099500 4940.000000
159.078900 3936.000000
159.115200 6744.000000
160.120200 1164.000000
161.094400 6524.000000
161.131600 1592.000000
163.110100 8772.000000
164.114700 1020.000000
167.105200 3372.000000
169.099300 3404.000000
171.078900 4528.000000
171.114600 5708.000000
172.082300 1016.000000
172.117900 1208.000000
173.094500 8392.000000
173.131500 1128.000000
175.110300 3988.000000
177.125500 2828.000000
181.099800 2000.000000
183.115500 5496.000000
184.119100 996.000000
185.094700 2584.000000
185.130800 5208.000000
186.100400 868.000000
186.135600 852.000000
187.109800 3140.000000
188.118800 880.000000
189.125700 7464.000000
190.128000 848.000000
191.107600 932.000000
193.098800 1048.000000
193.120900 1828.000000
195.115600 2168.000000
197.093100 1684.000000
197.130300 4268.000000
199.110700 2604.000000
199.146200 3744.000000
201.125700 5640.000000
202.130200 1316.000000
203.142000 2920.000000
207.115200 1652.000000
207.135000 984.000000
209.131100 3372.000000
211.109300 2724.000000
211.146400 1324.000000
212.116800 1456.000000
213.125500 5128.000000
213.162600 1788.000000
215.142500 1496.000000
221.132200 1164.000000
221.151900 1964.000000
223.147600 6692.000000
224.151800 1480.000000
225.126400 1992.000000
225.162400 4748.000000
226.132900 1644.000000
226.166000 1624.000000
227.141300 10484.000000
228.144600 2144.000000
229.157500 1280.000000
233.152000 1240.000000
239.142500 2096.000000
239.177500 3388.000000
240.183100 1236.000000
241.157200 19876.000000
242.161600 4660.000000
243.172200 7416.000000
244.144900 2000.000000
244.177600 1272.000000
245.152000 5564.000000
246.154400 1032.000000
249.162000 4064.000000
250.166400 936.000000
257.188200 3340.000000
259.168200 47948.000000
260.171000 8544.000000
261.180300 936.000000
267.172700 22336.000000
268.176000 6408.000000
285.183700 21464.000000
286.186800 4520.000000
303.195100 169268.000000
304.197200 45260.000000
305.200900 4972.000000

