>compound AU05042339
>parentmass 420.95110000000005
>ionization [M+H]+
>formula C12H4Cl2F6N4S
>rt 641.750000
>profile qtof
#smiles_iso C1=C(C=C(C(=C1Cl)N2C(=C(C(=N2)C#N)SC(F)(F)F)N)Cl)C(F)(F)F
#smiles_can C1=C(C=C(C(=C1Cl)N2C(=C(C(=N2)C#N)SC(F)(F)F)N)Cl)C(F)(F)F
#inchikey FQXWEKADCSXYOC-UHFFFAOYSA-N
#pubchem_id 9953940
#mb_accession AU242001,AU242002,AU242003,AU242004,AU242005,AU242006

>ms2
420.950200 5080.000000
421.951200 1148.000000
422.946400 2984.000000

>ms2
420.952700 6696.000000
421.957400 1072.000000
422.948500 3724.000000

>ms2
149.022300 424.000000
245.999100 364.000000
264.986200 372.000000
285.014000 308.000000
316.986500 4020.000000
317.989900 620.000000
318.983500 1124.000000
319.980700 740.000000
321.980800 600.000000
420.948700 5112.000000
421.952500 764.000000
422.946300 2708.000000

>ms2
149.023000 484.000000
154.988600 380.000000
237.968100 360.000000
246.003700 524.000000
254.971300 412.000000
262.965800 308.000000
264.979900 1336.000000
266.976400 536.000000
274.962300 336.000000
285.015900 556.000000
289.976800 1044.000000
316.986200 5420.000000
317.985200 752.000000
318.983400 1684.000000
319.980400 628.000000
420.946900 416.000000

>ms2
228.966700 328.000000
237.968800 1080.000000
238.970300 344.000000
239.960300 456.000000
239.972100 456.000000
246.003500 356.000000
251.969100 364.000000
254.967500 552.000000
256.966000 400.000000
262.964200 1036.000000
264.980800 2080.000000
266.974300 700.000000
274.964100 792.000000
285.013300 360.000000
289.976100 1088.000000
291.970300 312.000000
316.987300 2056.000000
318.982200 492.000000

>ms2
149.022200 384.000000
154.987700 300.000000
264.982400 564.000000
316.986100 3680.000000
317.990300 688.000000
318.983300 1052.000000
319.984000 948.000000
321.981600 364.000000
351.951600 336.000000
420.949600 4276.000000
421.956700 920.000000
422.946300 2488.000000

