>compound AU05134974
>parentmass 181.072
>ionization [M+H]+
>formula C7H8N4O2
>rt 233.160000
>profile qtof
#smiles_iso CN1C2=C(C(=O)N(C1=O)C)NC=N2
#smiles_can CN1C2=C(C(=O)N(C1=O)C)NC=N2
#inchikey ZFXYFBGIUFBOJW-UHFFFAOYSA-N
#pubchem_id 2153
#mb_accession AU111401,AU111402,AU111403,AU111404

>ms2
124.049400 6304.000000
181.070900 175780.000000
182.073900 13912.000000
183.075300 1156.000000

>ms2
120.052600 392.000000
124.049400 39788.000000
125.052600 2304.000000
126.053900 352.000000
137.080800 2580.000000
142.061200 648.000000
149.044700 480.000000
163.058100 388.000000
181.070700 54856.000000
182.074200 5000.000000

>ms2
124.049100 14584.000000
125.052700 1204.000000
137.080800 492.000000
142.059500 312.000000
149.045100 376.000000
181.070200 3144.000000

>ms2
124.049700 1624.000000

