>compound AU06576737
>parentmass 184.0869
>ionization [M+H]+
>formula C11H9N3
>rt 423.460000
>profile qtof
#smiles_iso C1=CC=C2C(=C1)C3=C(N2)N=C(C=C3)N
#smiles_can C1=CC=C2C(=C1)C3=C(N2)N=C(C=C3)N
#inchikey FJTNLJLPLJDTRM-UHFFFAOYSA-N
#pubchem_id 62805
#mb_accession AU244301,AU244302,AU244303,AU244304,AU244305,AU244306

>ms2peaks
167.058900 9092.000000
184.086000 1695636.000000
185.089000 144884.000000
186.091500 10048.000000

>ms2peaks
140.048200 66816.000000
157.074200 14148.000000
167.059100 202712.000000
168.062300 21068.000000
183.077300 9300.000000
184.085800 1748868.000000
185.088800 79644.000000

>ms2peaks
130.064100 6792.000000
140.048600 501864.000000
141.051600 42512.000000
157.074700 18172.000000
166.051500 19272.000000
167.059300 675176.000000
168.062400 52364.000000
183.078100 17828.000000
184.086000 196052.000000

>ms2peaks
113.037800 12748.000000
114.033300 7012.000000
130.063900 12584.000000
139.040800 6348.000000
140.048700 1059868.000000
141.051700 80264.000000
156.067100 7144.000000
157.075100 7892.000000
165.043500 6320.000000
166.051600 84704.000000
167.059300 257088.000000
168.062400 24528.000000
183.078200 12460.000000
184.085400 14344.000000

>ms2peaks
113.037800 22236.000000
114.033200 15760.000000
129.056400 2744.000000
130.063800 6320.000000
138.032500 7628.000000
139.040300 20212.000000
140.048500 466556.000000
141.051500 48272.000000
142.053800 3568.000000
155.058600 4016.000000
156.066500 4040.000000
165.043600 8600.000000
166.051300 81412.000000
167.058000 30956.000000
168.062100 3828.000000

>ms2peaks
140.048700 85516.000000
141.052100 8460.000000
157.074900 12512.000000
167.059400 221432.000000
168.062600 19332.000000
183.078000 10224.000000
184.086300 728700.000000
185.088900 42628.000000

