>compound AU06556285
>parentmass 306.1271
>ionization [M+H]+
>formula C15H19N3O2S
>rt 332.820000
>profile qtof
#smiles_iso CC1=C(C(=CC=C1)C)N(CN2C=CC=N2)C(=O)CS(=O)C
#smiles_can CC1=C(C(=CC=C1)C)N(CN2C=CC=N2)C(=O)CS(=O)C
#inchikey GFGYMDAFJMPNCC-UHFFFAOYSA-N
#pubchem_id 51071993
#mb_accession AU265001,AU265002,AU265003,AU265004,AU265005,AU265006

>ms2peaks
134.095500 560776.000000
135.098700 49040.000000
238.089300 2239784.000000
239.091900 301152.000000
240.085800 72744.000000
306.126700 511860.000000
307.129500 84628.000000
308.124500 17904.000000

>ms2peaks
134.095600 1879144.000000
135.098900 221460.000000
146.094800 12160.000000
175.098000 37704.000000
238.089100 305552.000000
239.091800 40664.000000
240.085400 12700.000000

>ms2peaks
132.079600 14860.000000
133.087200 17744.000000
134.095400 1866160.000000
135.098600 202244.000000
175.097800 58572.000000

>ms2peaks
132.079400 41212.000000
133.086600 20048.000000
134.095300 1442956.000000
135.098600 143420.000000
156.079200 12276.000000
160.073900 15616.000000
175.097500 26820.000000

>ms2peaks
117.056500 11564.000000
118.063800 7500.000000
119.071800 6008.000000
132.079500 67524.000000
133.085700 12376.000000
134.095300 884908.000000
135.098400 87408.000000
156.079300 17012.000000
160.074000 9724.000000
175.097100 5664.000000

>ms2peaks
61.010100 66992.000000
62.989300 57492.000000
77.005200 36484.000000
105.001600 594928.000000
106.004700 16116.000000
106.997600 13988.000000
132.079600 8284.000000
133.088000 13812.000000
134.096100 1272568.000000
135.099100 146256.000000
146.095700 6780.000000
175.098300 39200.000000
238.089200 82228.000000
239.092500 12564.000000

