>compound AU06393739
>parentmass 286.1438
>ionization [M+H]+
>formula C17H19NO3
>rt 602.460000
>profile qtof
#smiles_iso C1CCN(CC1)C(=O)/C=C/C=C/C2=CC3=C(C=C2)OCO3
#smiles_can C1CCN(CC1)C(=O)C=CC=CC2=CC3=C(C=C2)OCO3
#inchikey MXXWOMGUGJBKIW-YPCIICBESA-N
#pubchem_id 638024
#mb_accession AU252301,AU252302,AU252303,AU252304,AU252305,AU252306

>ms2peaks
201.053400 168460.000000
202.056600 19348.000000
286.144100 2447612.000000
287.146600 687912.000000
288.148800 53676.000000

>ms2peaks
115.053600 18608.000000
135.043100 285040.000000
136.046200 24096.000000
143.047900 47196.000000
151.097800 28692.000000
159.042400 17552.000000
171.042900 71972.000000
173.058500 63764.000000
201.054000 2474836.000000
202.057200 265220.000000
203.059700 19180.000000
286.143700 1536572.000000
287.146700 272792.000000
288.150000 21412.000000

>ms2peaks
115.053800 151748.000000
116.056600 17644.000000
135.043100 549352.000000
136.046300 36208.000000
143.048000 324576.000000
144.051300 31260.000000
145.063500 10572.000000
150.089900 14088.000000
151.097900 50416.000000
159.042800 81212.000000
171.043100 371708.000000
172.046200 39704.000000
173.058500 138964.000000
174.062000 15064.000000
185.094900 10372.000000
201.053900 1997328.000000
202.057200 207092.000000
203.059200 16528.000000
286.143500 55360.000000
287.146800 10804.000000

>ms2peaks
115.053900 446724.000000
116.056900 43980.000000
117.069200 8260.000000
122.095600 6924.000000
127.053100 6392.000000
129.068900 2244.000000
131.048100 4820.000000
134.095800 4180.000000
135.043200 367584.000000
136.046200 25028.000000
143.048200 438452.000000
144.051400 42432.000000
145.063400 13640.000000
150.089800 9772.000000
151.097900 27156.000000
152.101500 3176.000000
155.058800 7944.000000
157.063900 2244.000000
159.043000 95500.000000
160.046400 12320.000000
161.058000 4756.000000
171.043100 318384.000000
172.046500 34640.000000
173.058600 77816.000000
174.061800 10444.000000
185.095200 2288.000000
189.053500 2540.000000
201.053900 416928.000000
202.057100 47864.000000
203.059700 3712.000000
218.117100 2792.000000

>ms2peaks
115.053800 529944.000000
116.057100 46208.000000
117.068700 5280.000000
122.095500 7012.000000
127.052900 6112.000000
128.060700 2764.000000
131.048100 4856.000000
134.095100 3524.000000
135.043100 160776.000000
136.046400 14272.000000
143.048200 205632.000000
144.051400 25560.000000
145.063000 7908.000000
150.090000 6996.000000
151.097500 9928.000000
155.058800 7164.000000
159.042400 38272.000000
160.046400 4720.000000
171.042800 84908.000000
172.046600 13504.000000
173.057800 18260.000000
174.061300 2776.000000
201.053200 44020.000000
202.056400 7560.000000

>ms2peaks
69.069300 92488.000000
84.080500 50080.000000
86.096200 46688.000000
112.077100 68684.000000
115.054800 129352.000000
116.057800 13288.000000
117.070000 8116.000000
135.043900 316176.000000
136.047000 24604.000000
143.048600 135600.000000
144.051700 14892.000000
150.090100 8536.000000
151.098200 28572.000000
159.043100 34236.000000
171.043100 158264.000000
172.046500 15256.000000
173.059100 74264.000000
174.062400 7664.000000
185.095100 5560.000000
201.054300 1096068.000000
202.057500 148008.000000
203.060100 12772.000000
286.144100 410064.000000
287.147500 87628.000000
288.150500 8168.000000

