>compound AU06976630
>parentmass 259.2056
>ionization [M+H]+
>formula C18H26O
>rt 808.740000
>profile qtof
#smiles_iso CC1COCC2=CC3=C(C=C12)C(C(C3(C)C)C)(C)C
#smiles_can CC1COCC2=CC3=C(C=C12)C(C(C3(C)C)C)(C)C
#inchikey ONKNPOPIGWHAQC-UHFFFAOYSA-N
#pubchem_id 91497
#mb_accession AU244901,AU244902,AU244903,AU244904,AU244905,AU244906

>ms2
133.100000 1476.000000
161.094900 1204.000000
175.110700 27644.000000
176.113700 4032.000000
257.189300 7704.000000
258.192200 2008.000000
259.205600 197432.000000
260.208800 36344.000000
261.211700 4184.000000

>ms2
133.100000 3924.000000
147.078500 3008.000000
148.083600 436.000000
159.114600 676.000000
161.094400 6632.000000
162.097200 936.000000
175.110300 86584.000000
176.113700 10720.000000
177.116500 1140.000000
187.109500 952.000000
189.126300 3564.000000
190.128500 496.000000
203.141200 1488.000000
239.176500 684.000000
257.189700 8472.000000
258.192700 2084.000000
259.204500 22072.000000
260.207600 4228.000000
261.210500 460.000000

>ms2
119.084900 2000.000000
129.068600 680.000000
133.099900 4108.000000
134.103800 464.000000
141.069600 384.000000
142.076900 372.000000
145.099000 544.000000
146.070300 340.000000
147.079100 8280.000000
147.115500 692.000000
148.082900 1388.000000
157.098800 972.000000
159.082100 312.000000
159.118800 464.000000
161.094400 7092.000000
162.098900 712.000000
169.099400 948.000000
170.105600 340.000000
171.114600 304.000000
173.129700 336.000000
175.110400 46072.000000
176.113700 6672.000000
177.116600 480.000000
187.110800 1748.000000
189.123900 1208.000000
197.130900 364.000000
210.136400 304.000000
224.154400 1160.000000
225.038400 544.000000
227.141800 2656.000000
228.147900 668.000000
239.180000 912.000000
242.166700 1136.000000
243.168600 444.000000
257.189600 2024.000000
258.191700 516.000000
259.204600 392.000000

>ms2
115.054200 416.000000
117.067600 432.000000
119.083900 3380.000000
120.087400 360.000000
128.060900 900.000000
129.068100 2296.000000
131.084400 844.000000
132.055200 492.000000
133.100200 2864.000000
134.102700 348.000000
141.066900 808.000000
142.076100 500.000000
146.071500 304.000000
147.078800 7232.000000
148.082400 952.000000
157.099800 752.000000
159.077900 332.000000
160.085000 456.000000
161.093700 1904.000000
169.100600 420.000000
171.117000 316.000000
175.110200 10084.000000
176.114000 1388.000000
187.112100 344.000000
194.108800 324.000000
209.131700 864.000000
210.135400 300.000000
212.118600 316.000000
224.154800 392.000000
227.140900 2932.000000
228.148500 992.000000

>ms2
115.053000 612.000000
117.069400 1100.000000
119.084000 3484.000000
128.061000 1636.000000
129.068600 1944.000000
131.084500 592.000000
132.056000 348.000000
132.091500 324.000000
133.100300 1064.000000
141.069400 636.000000
142.075000 628.000000
143.084900 488.000000
145.062100 736.000000
146.071700 456.000000
147.078800 2816.000000
148.083400 336.000000
155.085500 360.000000
171.114000 308.000000
175.109300 940.000000
179.084900 444.000000
209.131200 488.000000
212.119600 456.000000
227.141900 828.000000

>ms2
119.086100 968.000000
133.100300 3908.000000
145.101500 536.000000
147.079500 5948.000000
148.083400 836.000000
157.100900 708.000000
159.115100 448.000000
161.095300 10712.000000
162.099000 804.000000
175.111500 83476.000000
176.114500 10844.000000
177.118900 700.000000
187.112100 776.000000
189.126400 2992.000000
190.130300 428.000000
203.143000 1796.000000
227.143800 1064.000000
239.180000 696.000000
242.166400 812.000000
257.190300 4368.000000
258.192100 1280.000000
259.205800 15448.000000
260.209300 2396.000000

