>compound AU06008990
>parentmass 313.2162
>ionization [M+H]+
>formula C21H28O2
>rt 636.180000
>profile qtof
#smiles_iso CC(=O)[C@H]1CC[C@@H]2[C@@]1(CC[C@@H]3[C@H]2C=CC4=CC(=O)CC[C@@]34C)C
#smiles_can CC(=O)C1CCC2C1(CCC3C2C=CC4=CC(=O)CCC34C)C
#inchikey JGMOKGBVKVMRFX-HQZYFCCVSA-N
#pubchem_id 9051
#mb_accession AU282701,AU282702,AU282703,AU282704,AU282705,AU282706

>ms2peaks
229.157600 14948.000000
239.142000 9828.000000
253.194500 21496.000000
255.173700 10136.000000
269.189200 12744.000000
271.205000 18356.000000
277.194600 14644.000000
295.205500 159440.000000
296.208900 35444.000000
313.216300 1934260.000000
314.219500 389716.000000
315.222300 34516.000000

>ms2peaks
119.084700 4480.000000
121.064300 7568.000000
121.100100 4880.000000
123.080100 4696.000000
127.074600 4712.000000
131.084100 9256.000000
133.064300 3228.000000
133.100100 13384.000000
135.078900 3064.000000
135.116000 6700.000000
137.095000 9288.000000
143.084400 9176.000000
145.099900 15760.000000
147.079100 12664.000000
147.115700 10004.000000
149.095300 10948.000000
151.110100 6380.000000
155.084100 9452.000000
157.100100 16988.000000
159.079000 3444.000000
159.115700 31568.000000
160.119700 3908.000000
161.095000 26360.000000
161.130800 4336.000000
163.110900 23420.000000
164.114900 3176.000000
169.100100 6636.000000
171.079200 16212.000000
171.116000 23908.000000
172.118800 3824.000000
173.095000 43424.000000
173.131200 11560.000000
174.098800 5536.000000
175.110900 33448.000000
175.146700 3504.000000
176.114200 4712.000000
177.126400 25688.000000
178.129400 3480.000000
181.100300 6580.000000
183.115900 12076.000000
185.095100 4864.000000
185.131300 10152.000000
187.110700 11792.000000
187.147300 13128.000000
189.126700 21588.000000
191.142000 6032.000000
195.115900 9936.000000
197.131700 15176.000000
198.135300 3276.000000
199.111300 24628.000000
199.147500 12336.000000
200.114000 4536.000000
201.126500 12928.000000
203.141900 4604.000000
207.115800 5476.000000
209.131400 7212.000000
211.110900 8316.000000
211.147500 31960.000000
212.151900 5584.000000
213.126000 13052.000000
213.163000 11148.000000
215.141800 7256.000000
215.178900 7056.000000
217.158000 10544.000000
221.132000 11340.000000
222.136500 3276.000000
225.126800 18024.000000
225.163500 19044.000000
226.131800 3524.000000
226.166500 3184.000000
227.141700 6440.000000
229.158100 47232.000000
230.161300 8320.000000
231.173000 7552.000000
235.147600 7872.000000
237.163000 25056.000000
238.166500 4444.000000
239.142600 28256.000000
240.147300 5344.000000
243.173400 10448.000000
249.163600 5180.000000
251.178400 17956.000000
252.184200 6320.000000
253.158100 8396.000000
253.195000 67352.000000
254.198000 13076.000000
255.174000 47528.000000
256.177400 8432.000000
267.173800 9144.000000
267.210100 7544.000000
268.178600 2972.000000
269.189900 55372.000000
270.193600 12424.000000
271.205100 45628.000000
272.208600 8844.000000
277.194700 38304.000000
278.198000 9492.000000
295.205800 293964.000000
296.208800 54576.000000
297.212800 6124.000000
313.216600 589208.000000
314.219700 109844.000000
315.222500 13572.000000

>ms2peaks
115.054500 2188.000000
117.069100 3268.000000
118.074300 364.000000
119.085100 10572.000000
120.088900 1396.000000
121.064200 9320.000000
121.100500 5332.000000
122.068300 764.000000
122.104400 836.000000
123.079700 7424.000000
123.116400 1196.000000
124.083400 792.000000
125.094900 744.000000
127.074500 1728.000000
128.061500 3948.000000
129.069100 8464.000000
130.075400 1824.000000
131.084400 21412.000000
132.056500 640.000000
132.088000 3044.000000
133.064100 5848.000000
133.100100 20348.000000
134.104300 2288.000000
135.079400 4800.000000
135.115600 7116.000000
136.082900 608.000000
136.117800 1000.000000
137.095200 6716.000000
137.132100 492.000000
138.098300 692.000000
139.110800 524.000000
141.068700 4432.000000
142.076200 4988.000000
143.084000 20204.000000
144.055000 424.000000
144.089700 3664.000000
145.063600 1756.000000
145.100100 28200.000000
146.070900 1200.000000
146.103600 3632.000000
147.079200 16548.000000
147.115600 16556.000000
148.085000 3144.000000
148.119200 2360.000000
149.095000 17100.000000
149.131000 3064.000000
150.098600 2176.000000
150.135700 456.000000
151.111000 4872.000000
152.062100 400.000000
152.114600 436.000000
153.070200 1012.000000
153.126100 336.000000
154.075900 1188.000000
155.084300 18512.000000
156.091100 4196.000000
157.100000 35956.000000
158.071300 2624.000000
158.104200 5524.000000
159.079600 4988.000000
159.115500 35932.000000
160.085800 1380.000000
160.119600 4448.000000
161.094900 28864.000000
161.131500 5920.000000
162.100500 4332.000000
162.134400 816.000000
163.110300 32880.000000
164.113900 3980.000000
165.068200 1068.000000
165.089800 364.000000
165.127000 652.000000
166.075900 1012.000000
167.084300 2592.000000
168.091600 1980.000000
169.100000 19064.000000
170.106100 3160.000000
171.079100 7028.000000
171.115600 32668.000000
172.083500 1108.000000
172.119100 6652.000000
173.095000 40540.000000
173.131100 14056.000000
174.099200 5256.000000
174.134200 2864.000000
175.110800 44180.000000
175.147200 3756.000000
176.114900 6920.000000
176.150900 704.000000
177.126200 10660.000000
178.076100 384.000000
178.129300 1568.000000
179.084100 1596.000000
180.090900 1236.000000
181.099900 10096.000000
182.105800 3232.000000
183.115800 23184.000000
184.087900 356.000000
184.120100 4452.000000
185.095000 3480.000000
185.131100 15620.000000
186.100200 960.000000
186.135200 2952.000000
187.110800 8532.000000
187.146900 12856.000000
188.115800 1664.000000
188.151400 2124.000000
189.126300 12264.000000
189.162900 856.000000
190.129600 1764.000000
191.086600 308.000000
191.141900 2464.000000
192.091600 1680.000000
192.146700 412.000000
193.100600 3744.000000
194.106900 1744.000000
195.115900 16720.000000
196.121100 4196.000000
197.095700 1400.000000
197.131500 25132.000000
198.101000 828.000000
198.135600 4876.000000
199.111100 12172.000000
199.146600 12512.000000
200.115900 2772.000000
200.152000 2012.000000
201.126100 9932.000000
201.162500 3000.000000
202.130100 2220.000000
202.166000 628.000000
203.142800 2688.000000
204.144000 300.000000
205.102400 392.000000
205.122600 352.000000
205.157400 544.000000
206.107800 1056.000000
207.115700 6672.000000
208.123800 2804.000000
209.131500 10972.000000
210.103100 496.000000
210.137000 3584.000000
211.110800 6040.000000
211.147300 39064.000000
212.116400 3464.000000
212.151300 7600.000000
213.126500 8128.000000
213.162800 9780.000000
214.132500 2344.000000
214.166400 2012.000000
215.141900 5860.000000
215.177700 2252.000000
216.146300 1160.000000
216.182200 712.000000
217.120800 352.000000
217.158100 2340.000000
218.160300 532.000000
219.115500 776.000000
220.122500 1092.000000
221.131800 11280.000000
222.137600 3720.000000
223.147600 4108.000000
224.118800 716.000000
224.153300 1860.000000
225.126200 9736.000000
225.163000 21116.000000
226.131500 3132.000000
226.166900 4284.000000
227.142700 5656.000000
227.178600 5100.000000
228.150500 4592.000000
228.180700 764.000000
229.157900 20616.000000
230.161700 3764.000000
230.197300 348.000000
231.173800 1588.000000
232.179300 316.000000
233.132200 1100.000000
234.140000 1412.000000
235.147700 6200.000000
236.152600 1680.000000
237.163000 18040.000000
238.132900 876.000000
238.166300 4044.000000
239.141900 14476.000000
239.177700 1000.000000
240.147600 4308.000000
240.186900 440.000000
241.157100 2108.000000
241.190700 708.000000
242.167700 1200.000000
243.173700 4868.000000
243.208300 352.000000
244.175900 876.000000
245.188700 324.000000
247.148100 688.000000
248.154200 1764.000000
249.162700 4204.000000
250.167400 868.000000
251.141700 1264.000000
251.178900 14320.000000
252.147400 624.000000
252.184500 6960.000000
253.158000 5044.000000
253.194300 27864.000000
254.163800 1740.000000
254.197600 7184.000000
255.173900 22088.000000
256.177400 4132.000000
257.152600 832.000000
257.176800 432.000000
257.187800 316.000000
258.160200 468.000000
262.170900 1120.000000
265.161800 612.000000
265.193800 300.000000
266.166900 1960.000000
267.173800 3120.000000
267.210500 1908.000000
268.179500 1904.000000
269.189300 23448.000000
270.193000 5236.000000
271.204900 11212.000000
272.209100 2352.000000
277.195000 9280.000000
278.197600 2344.000000
280.182100 2508.000000
281.187000 1208.000000
285.183700 560.000000
285.222800 528.000000
295.204900 36556.000000
296.208400 8460.000000
297.210800 804.000000
298.191900 2796.000000
299.196700 728.000000
313.215900 41128.000000
314.218900 10476.000000

>ms2peaks
115.053700 5576.000000
116.061300 1892.000000
117.069000 5952.000000
118.073800 988.000000
119.084800 15008.000000
120.088100 1732.000000
121.063900 9132.000000
121.099700 4272.000000
122.067300 848.000000
122.104100 652.000000
123.079700 7204.000000
123.116700 640.000000
124.083200 688.000000
127.052900 1468.000000
127.074300 824.000000
128.061000 14380.000000
129.068800 18980.000000
130.075500 6184.000000
131.084500 29528.000000
132.055900 1864.000000
132.087900 3616.000000
133.063900 9136.000000
133.099900 18592.000000
134.069600 1692.000000
134.103400 2516.000000
135.079000 4628.000000
135.116000 4952.000000
136.083900 540.000000
136.119000 488.000000
137.095100 3092.000000
141.068800 11964.000000
142.076200 16356.000000
143.084200 30812.000000
144.057000 920.000000
144.090600 6164.000000
145.063700 4660.000000
145.099900 33644.000000
146.070800 3308.000000
146.103300 4012.000000
147.079200 16224.000000
147.115700 11940.000000
148.085300 4348.000000
148.120000 1216.000000
149.094800 15112.000000
149.131000 1604.000000
150.097300 1888.000000
150.134000 316.000000
151.111200 1316.000000
152.060200 1120.000000
153.068800 3860.000000
154.076200 5356.000000
155.084500 30564.000000
156.091000 10344.000000
157.100200 34244.000000
158.071300 5992.000000
158.103900 5252.000000
159.079500 6160.000000
159.115500 25532.000000
160.087200 4768.000000
160.119500 3092.000000
161.094500 21748.000000
161.131400 3592.000000
162.100400 5016.000000
162.135000 480.000000
163.110800 24736.000000
164.113600 2732.000000
165.068700 4972.000000
165.126000 680.000000
166.075700 3432.000000
167.084500 8900.000000
168.091300 6580.000000
169.100100 27552.000000
170.105500 7160.000000
171.078900 6068.000000
171.115800 24660.000000
172.087000 1132.000000
172.120400 4412.000000
173.094700 24244.000000
173.131500 8456.000000
174.099000 4736.000000
174.134700 1396.000000
175.110500 24252.000000
175.146600 1676.000000
176.114600 3896.000000
177.126000 3296.000000
178.076400 1228.000000
178.128900 520.000000
179.084200 5272.000000
180.091300 4520.000000
181.099800 15932.000000
182.068300 444.000000
182.106800 7216.000000
183.115300 23424.000000
184.087200 832.000000
184.121200 5772.000000
185.094400 3396.000000
185.131200 12184.000000
186.101700 1492.000000
186.136900 2116.000000
187.110900 5244.000000
187.147000 7540.000000
188.118100 964.000000
188.151500 1280.000000
189.126400 3364.000000
189.162000 340.000000
190.132100 636.000000
191.084500 1340.000000
192.092600 3144.000000
193.100100 5616.000000
194.107400 3220.000000
195.115800 17900.000000
196.087600 836.000000
196.122000 9336.000000
197.094800 1996.000000
197.131200 16972.000000
198.101700 1452.000000
198.136700 4732.000000
199.109900 5768.000000
199.146600 5376.000000
200.118000 3048.000000
200.152500 860.000000
201.126500 5160.000000
201.161500 1328.000000
202.132900 1400.000000
203.139600 760.000000
204.090400 392.000000
205.100500 1292.000000
206.107900 2868.000000
207.115600 5552.000000
208.123100 3420.000000
209.096300 580.000000
209.131500 10456.000000
210.101600 1276.000000
210.137900 4748.000000
211.111000 3636.000000
211.147200 18716.000000
212.117800 2720.000000
212.151200 4172.000000
213.126200 8240.000000
213.162200 4264.000000
214.133600 3704.000000
214.163300 1064.000000
215.140500 3168.000000
215.177700 740.000000
216.146400 752.000000
217.157200 588.000000
219.117000 720.000000
220.123600 1556.000000
221.131300 5380.000000
222.138800 4184.000000
223.110900 636.000000
223.147100 3544.000000
224.119700 1264.000000
224.154900 2680.000000
225.126300 5304.000000
225.162700 10096.000000
226.133000 2112.000000
226.168900 3140.000000
227.141600 4380.000000
227.178700 3812.000000
228.149800 5812.000000
228.181000 544.000000
229.157500 5080.000000
230.159200 1240.000000
233.131000 1212.000000
234.136900 1220.000000
235.148300 2508.000000
236.154500 1448.000000
237.126400 724.000000
237.162900 8484.000000
238.133200 628.000000
238.169100 3160.000000
239.141300 4116.000000
239.175600 936.000000
240.148800 2532.000000
241.156800 1476.000000
242.162000 536.000000
243.173400 2016.000000
247.147400 1200.000000
248.153200 964.000000
249.161900 1116.000000
251.141300 1908.000000
251.178000 4380.000000
252.146900 640.000000
252.185700 2672.000000
253.156900 3808.000000
253.193800 6620.000000
254.164200 2896.000000
254.198200 1492.000000
255.173000 5072.000000
256.177600 1024.000000
257.149700 348.000000
257.186200 372.000000
262.169900 1020.000000
265.158700 1644.000000
266.165100 1392.000000
267.171400 1084.000000
267.208700 344.000000
268.180600 1524.000000
269.188700 3276.000000
270.193800 960.000000
271.205700 1280.000000
272.210700 432.000000
277.196000 1080.000000
280.182600 1468.000000
281.186300 688.000000
283.169500 596.000000
295.206200 2512.000000
296.209200 692.000000
298.192300 1156.000000
299.193400 544.000000
313.216600 2104.000000
314.218600 792.000000

>ms2peaks
115.053800 9868.000000
116.060500 3580.000000
117.069000 8824.000000
118.072600 1268.000000
119.048500 648.000000
119.084800 10240.000000
120.087900 1340.000000
121.063900 5644.000000
121.099700 1288.000000
122.067800 712.000000
123.079300 4372.000000
124.084700 532.000000
126.045100 436.000000
127.053400 2168.000000
128.061200 26152.000000
129.068600 29404.000000
130.075700 9532.000000
131.048000 2644.000000
131.084400 30988.000000
132.055200 2876.000000
132.088100 3152.000000
133.063500 8632.000000
133.100100 10284.000000
134.071100 2040.000000
134.103700 1088.000000
135.079500 2256.000000
135.116000 1828.000000
137.095200 1164.000000
141.068700 21976.000000
142.076200 25052.000000
143.084100 27352.000000
144.055600 1600.000000
144.090800 5808.000000
145.063400 6904.000000
145.099900 20768.000000
146.071100 5496.000000
146.103800 2384.000000
147.079200 10716.000000
147.115300 4804.000000
148.086200 5192.000000
148.119300 596.000000
149.094900 6808.000000
150.098700 880.000000
152.061400 2696.000000
153.068100 9724.000000
154.076100 9872.000000
155.084300 27628.000000
156.091400 12520.000000
157.063600 2836.000000
157.099500 18456.000000
158.071100 6392.000000
158.103900 3484.000000
159.079100 6728.000000
159.115700 10244.000000
160.086600 4444.000000
161.094900 10040.000000
161.130500 856.000000
162.100200 2036.000000
163.110500 8696.000000
164.113900 1220.000000
165.068600 11324.000000
166.075600 7596.000000
167.084100 15628.000000
168.091700 9288.000000
169.099700 22180.000000
170.071700 680.000000
170.105700 6176.000000
171.079100 2244.000000
171.115500 10028.000000
172.087500 984.000000
173.094500 9136.000000
173.131400 2524.000000
174.100200 2116.000000
175.110300 6240.000000
175.147900 676.000000
177.068400 364.000000
177.128400 480.000000
178.076100 3744.000000
179.084100 7964.000000
180.091700 5784.000000
181.099700 16144.000000
182.071600 704.000000
182.106300 9288.000000
183.079700 1356.000000
183.115400 12128.000000
184.086500 1048.000000
184.121200 3580.000000
185.094800 3784.000000
185.130700 4604.000000
186.102500 1432.000000
186.136600 1344.000000
187.111700 1724.000000
187.147200 2616.000000
188.117900 604.000000
188.151800 400.000000
189.127500 876.000000
191.084400 2680.000000
192.091200 3616.000000
193.099200 5816.000000
194.106900 3852.000000
195.080400 948.000000
195.115500 10980.000000
196.086800 724.000000
196.121800 6036.000000
197.095500 2152.000000
197.130600 7412.000000
198.101300 1936.000000
198.136500 1760.000000
199.110400 3084.000000
199.145800 2124.000000
200.117700 2460.000000
200.152300 344.000000
201.126200 1352.000000
201.163000 344.000000
202.130400 404.000000
203.087700 524.000000
204.091700 724.000000
205.100200 2704.000000
206.106800 3136.000000
207.115600 4784.000000
208.122500 1720.000000
209.094500 1076.000000
209.131000 7192.000000
210.102900 828.000000
210.137600 2604.000000
211.111000 2484.000000
211.146500 5660.000000
212.118000 2284.000000
212.151500 1528.000000
213.126400 5724.000000
213.162500 1344.000000
214.132600 2260.000000
215.141300 1076.000000
216.147600 420.000000
218.107400 532.000000
219.115600 1192.000000
220.123700 1108.000000
221.131000 2364.000000
222.139300 1912.000000
223.110400 684.000000
223.147700 2316.000000
224.119700 1032.000000
224.153400 920.000000
225.126100 1816.000000
225.162600 2000.000000
226.131400 1152.000000
226.167500 780.000000
227.141600 3068.000000
227.177700 848.000000
228.149600 1736.000000
229.154700 744.000000
232.122600 404.000000
233.131200 1052.000000
234.140000 564.000000
235.146900 896.000000
236.155300 584.000000
237.128400 608.000000
237.163400 2680.000000
238.134000 824.000000
238.168700 1268.000000
239.142300 1744.000000
240.150300 1088.000000
241.156000 688.000000
247.147900 1184.000000
248.151500 320.000000
249.160100 368.000000
251.142200 1068.000000
251.177900 644.000000
252.186600 612.000000
253.159000 1548.000000
253.192900 856.000000
254.165200 1388.000000
255.174700 1000.000000
256.177800 484.000000
265.158300 1312.000000
266.166100 632.000000
283.167200 356.000000

>ms2peaks
55.017200 560.000000
55.053600 484.000000
57.032800 432.000000
67.054000 1564.000000
69.069800 556.000000
79.053800 1612.000000
81.069800 1916.000000
83.049200 2872.000000
91.054300 1536.000000
93.070100 1208.000000
95.049200 328.000000
95.086800 860.000000
105.071300 924.000000
107.049400 1440.000000
107.087000 432.000000
109.065300 3792.000000
115.053900 872.000000
116.059800 396.000000
117.069000 3484.000000
118.073400 424.000000
119.084900 3468.000000
121.064000 1208.000000
121.100600 1492.000000
123.080200 2572.000000
123.116400 1856.000000
125.094800 1540.000000
128.061900 688.000000
129.069300 3804.000000
131.084900 8824.000000
132.089100 672.000000
133.064400 1404.000000
133.100300 8460.000000
134.103500 660.000000
135.079700 7572.000000
135.116800 3328.000000
136.084400 564.000000
136.119900 432.000000
137.094300 1132.000000
137.130900 1308.000000
141.068400 1320.000000
142.076300 1032.000000
143.084600 5536.000000
144.090700 1316.000000
145.062400 456.000000
145.100200 7496.000000
146.104000 792.000000
147.079500 2420.000000
147.115900 3104.000000
148.084800 436.000000
148.117900 380.000000
149.095400 5520.000000
149.131400 1524.000000
150.100900 592.000000
151.111100 1052.000000
153.067400 584.000000
155.084300 2344.000000
156.092200 1028.000000
157.061900 560.000000
157.100200 7204.000000
158.105900 904.000000
159.079200 2304.000000
159.115900 8948.000000
160.119800 980.000000
161.095400 4084.000000
161.131500 1768.000000
162.098700 744.000000
163.111000 4112.000000
163.148200 628.000000
164.114300 532.000000
165.067500 732.000000
167.084300 1116.000000
168.090700 532.000000
169.101100 2332.000000
170.106100 744.000000
171.080700 368.000000
171.115900 6268.000000
172.085300 340.000000
172.119400 1268.000000
173.095300 1340.000000
173.131300 3752.000000
174.135700 460.000000
175.111500 2812.000000
175.147700 2216.000000
176.115500 424.000000
176.150700 400.000000
177.126400 640.000000
179.085500 676.000000
181.100500 2088.000000
182.107500 572.000000
183.116000 4592.000000
184.087700 352.000000
184.119500 944.000000
185.095400 1324.000000
185.131900 8860.000000
186.100000 472.000000
186.135700 1404.000000
187.110900 2280.000000
187.147000 5016.000000
188.116700 868.000000
188.152500 688.000000
189.126900 2948.000000
189.160700 332.000000
190.130400 468.000000
191.142100 584.000000
193.099700 872.000000
194.104700 416.000000
195.115800 2224.000000
196.122100 740.000000
197.095300 704.000000
197.132400 3308.000000
198.136900 696.000000
199.111100 944.000000
199.147100 3672.000000
200.118500 308.000000
200.153900 872.000000
201.126700 1756.000000
201.163700 1228.000000
202.130300 592.000000
202.163500 328.000000
203.141700 1084.000000
203.180900 420.000000
204.143900 308.000000
205.102500 388.000000
206.108500 540.000000
207.116700 2020.000000
208.121900 1044.000000
209.131200 2112.000000
210.137500 712.000000
211.110000 988.000000
211.149600 1340.000000
212.119100 304.000000
213.126400 1516.000000
213.163500 1312.000000
215.141600 1004.000000
215.178600 516.000000
217.154100 412.000000
219.115200 348.000000
221.132700 1728.000000
222.136700 676.000000
223.148100 1380.000000
225.126900 1544.000000
225.162200 2864.000000
226.129700 508.000000
226.168800 512.000000
227.141700 940.000000
227.179600 6164.000000
228.182100 864.000000
229.157200 444.000000
233.131000 356.000000
234.139400 376.000000
235.148000 1684.000000
236.155000 820.000000
237.164600 3152.000000
238.167900 776.000000
239.141900 1300.000000
239.178700 740.000000
240.147500 424.000000
241.159200 636.000000
243.174500 812.000000
245.190000 26564.000000
246.193700 4800.000000
247.198000 624.000000
248.153700 1076.000000
249.164100 1268.000000
251.177900 736.000000
253.157900 880.000000
253.194000 952.000000
254.165500 516.000000
255.174200 572.000000
257.187200 336.000000
266.165700 1084.000000
267.174400 1532.000000
267.209200 616.000000
270.192100 372.000000
277.194600 2668.000000
278.195200 676.000000
284.176300 312.000000
285.183000 304.000000
295.204800 8564.000000
296.211100 1456.000000
311.197300 300.000000
313.216900 43312.000000
314.220100 10436.000000
315.222700 1060.000000

