>compound AU06588963
>parentmass 165.1022
>ionization [M+H]+
>formula C9H12N2O
>rt 306.780000
>profile qtof
#smiles_iso CN(C)C(=O)NC1=CC=CC=C1
#smiles_can CN(C)C(=O)NC1=CC=CC=C1
#inchikey XXOYNJXVWVNOOJ-UHFFFAOYSA-N
#pubchem_id 7560
#mb_accession AU261101,AU261102,AU261103,AU261104,AU261106

>ms2
165.101200 1463404.000000
166.104200 103748.000000
167.106300 8324.000000

>ms2
120.043600 18944.000000
121.047300 1180.000000
165.101300 67496.000000
166.104300 6792.000000

>ms2
120.043400 4528.000000
132.066400 352.000000
165.100800 1104.000000

>ms2
120.043800 368.000000

>ms2
46.065100 73468.000000
56.012500 5560.000000
72.044500 1039368.000000
73.047300 40548.000000
92.049700 24116.000000
95.049400 5548.000000
120.044000 30712.000000
165.101500 127252.000000
166.104200 15528.000000

