>compound AU06374644
>parentmass 916.5264
>ionization [M+H]+
>formula C46H77NO17
>rt 464.749091
>profile qtof
#smiles_iso CC[C@@H]1[C@H](/C=C(/C=C/C(=O)[C@@H](C[C@@H]([C@@H]([C@H]([C@@H](CC(=O)O1)O)C)O[C@H]2[C@@H]([C@H]([C@@H]([C@H](O2)C)O[C@H]3C[C@@]([C@H]([C@@H](O3)C)O)(C)O)N(C)C)O)CC=O)C)\C)CO[C@H]4[C@@H]([C@@H]([C@@H]([C@H](O4)C)O)OC)OC
#smiles_can CCC1C(C=C(C=CC(=O)C(CC(C(C(C(CC(=O)O1)O)C)OC2C(C(C(C(O2)C)OC3CC(C(C(O3)C)O)(C)O)N(C)C)O)CC=O)C)C)COC4C(C(C(C(O4)C)O)OC)OC
#inchikey WBPYTXDJUQJLPQ-VMXQISHHSA-N
#pubchem_id 5280440
#mb_accession AU105701,AU105702,AU105703,AU105704,AU105706,AU251901,AU251902,AU251903,AU251904,AU251905,AU251906

>ms2
916.535600 18152.000000
917.547200 9384.000000

>ms2
174.113500 944.000000
318.195200 448.000000
772.450800 424.000000
916.538300 29304.000000
917.542700 15040.000000

>ms2
127.076400 636.000000
132.103300 640.000000
145.086200 1396.000000
156.102300 300.000000
174.113400 9004.000000
175.117100 888.000000
276.185700 384.000000
318.194100 2984.000000
319.194700 348.000000
319.203100 440.000000
407.247700 748.000000
772.455800 3836.000000
773.461800 1540.000000
774.464500 548.000000
916.539300 28124.000000
917.543100 15092.000000

>ms2
127.076500 4120.000000
132.103100 5248.000000
143.070300 644.000000
145.087300 10464.000000
156.103400 3596.000000
158.119500 528.000000
172.099100 536.000000
174.114300 94280.000000
175.117400 8636.000000
232.157100 852.000000
276.183600 2756.000000
318.195100 9388.000000
348.201800 496.000000
389.236400 1608.000000
391.253300 932.000000
407.247600 2776.000000
408.251300 1092.000000
409.263700 1136.000000
425.259500 652.000000
598.367700 2140.000000
599.368400 812.000000
772.457700 15096.000000
773.462200 7364.000000
774.474000 3296.000000
775.479500 700.000000
916.538200 15596.000000
917.542900 10284.000000

>ms2
116.071300 1272.000000
127.076400 7220.000000
132.103100 12524.000000
133.106200 1020.000000
143.071900 1540.000000
145.087100 14420.000000
146.090800 1080.000000
156.103900 8600.000000
157.106900 1112.000000
172.098400 1116.000000
174.114500 194100.000000
175.117300 17464.000000
176.118700 1356.000000
232.157100 3148.000000
276.183000 2628.000000
318.194500 4464.000000
389.236400 1868.000000
407.244600 2908.000000
598.366200 1708.000000
772.458000 5768.000000
773.464900 2664.000000
774.460600 1084.000000
774.478100 1436.000000
916.543000 1612.000000

>ms2
174.110000 312.000000
916.529200 16604.000000
917.533000 8452.000000

>ms2
174.110400 992.000000
772.455100 472.000000
916.526600 18492.000000
917.530100 10896.000000

>ms2
127.075000 424.000000
132.098700 524.000000
145.084200 1008.000000
156.100800 484.000000
174.111300 7924.000000
175.114700 616.000000
276.181300 376.000000
318.189700 2172.000000
407.239100 600.000000
772.447800 3464.000000
773.451600 1332.000000
774.459700 336.000000
916.528900 17800.000000
917.531900 9064.000000

>ms2
127.074600 2304.000000
132.101200 3796.000000
143.069000 576.000000
145.085100 6428.000000
146.088400 616.000000
156.100700 2228.000000
158.118100 520.000000
172.093800 396.000000
174.111400 56464.000000
175.114500 6088.000000
176.117800 616.000000
232.153100 916.000000
276.180600 1672.000000
318.191200 5328.000000
319.193300 1024.000000
371.224000 488.000000
373.233400 480.000000
389.234100 1368.000000
390.230000 332.000000
391.249600 612.000000
407.244400 1948.000000
408.248900 464.000000
409.259300 804.000000
425.253000 428.000000
427.273900 328.000000
598.361000 996.000000
599.366500 424.000000
772.452500 9544.000000
773.457100 3940.000000
774.462200 1772.000000
775.466300 400.000000
916.534500 6816.000000
917.534300 4604.000000

>ms2
116.069900 1020.000000
127.074100 4464.000000
132.100400 8912.000000
133.104100 780.000000
143.068400 1084.000000
145.084700 9384.000000
146.088300 716.000000
156.100400 6564.000000
157.103500 1272.000000
158.116500 948.000000
172.093700 1172.000000
174.111200 125812.000000
175.114100 11596.000000
176.117100 1132.000000
232.153100 1548.000000
276.180000 1848.000000
318.190700 3048.000000
319.191100 660.000000
371.218600 676.000000
389.228900 1168.000000
391.247200 756.000000
407.243000 1812.000000
598.361500 1108.000000
772.447100 2868.000000
773.449300 1516.000000
774.465000 772.000000
916.519700 824.000000
916.536600 692.000000

>ms2
83.048400 1000.000000
101.059200 1620.000000
116.069100 472.000000
127.074500 5736.000000
132.100800 6908.000000
143.069400 564.000000
145.084900 7556.000000
156.101000 4408.000000
157.103800 636.000000
158.117600 636.000000
172.096500 712.000000
174.111500 90432.000000
175.114300 7768.000000
176.114600 1152.000000
232.153800 812.000000
276.180000 2188.000000
277.184100 516.000000
318.190600 4232.000000
319.193600 572.000000
389.230700 1352.000000
391.251900 484.000000
407.242600 1232.000000
409.263600 484.000000
598.364600 720.000000
599.362200 728.000000
772.449900 4404.000000
773.451500 2472.000000
774.455000 1172.000000
774.478400 916.000000
916.527200 8744.000000
917.529700 4880.000000

