>compound AU07661902
>parentmass 224.0837
>ionization [M+H]+
>formula C12H14ClNO
>rt 292.380000
>profile qtof
#smiles_iso C1CCC(C(=O)C1)(C2=CC=CC=C2Cl)N
#smiles_can C1CCC(C(=O)C1)(C2=CC=CC=C2Cl)N
#inchikey BEQZHFIKTBVCAU-UHFFFAOYSA-N
#pubchem_id 123767
#mb_accession AU154606

>ms2peaks
67.053300 179716.000000
95.048500 31772.000000
115.054000 23468.000000
116.061600 20692.000000
125.015500 1995024.000000
126.018700 120884.000000
127.012300 548008.000000
128.015400 14532.000000
128.061800 37620.000000
129.069400 38812.000000
130.077300 23960.000000
138.010400 14520.000000
138.994200 50940.000000
140.991300 11696.000000
141.009800 58464.000000
143.007300 14664.000000
143.072600 12372.000000
143.084600 21468.000000
144.092900 45004.000000
151.030600 102084.000000
152.061700 11012.000000
153.027500 21044.000000
153.069400 73660.000000
154.077200 89704.000000
163.030600 146660.000000
164.034500 11448.000000
165.009900 87620.000000
165.027500 34772.000000
165.046100 34712.000000
167.006700 20128.000000
167.043200 12304.000000
172.087800 12880.000000
179.062100 512600.000000
180.065400 45312.000000
181.059200 123296.000000
189.046500 90180.000000
191.043500 26188.000000
206.073100 80076.000000
207.057500 583808.000000
208.062000 51352.000000
209.054400 134512.000000
224.083800 39260.000000
226.080900 11780.000000

