>compound AU07026685
>parentmass 332.9696
>ionization [M+H]+
>formula C9H11Cl2FN2O2S2
>rt 600.000000
>profile qtof
#smiles_iso CN(C)S(=O)(=O)N(C1=CC=CC=C1)SC(F)(Cl)Cl
#smiles_can CN(C)S(=O)(=O)N(C1=CC=CC=C1)SC(F)(Cl)Cl
#inchikey WURGXGVFSMYFCG-UHFFFAOYSA-N
#pubchem_id 14145
#mb_accession AU313401,AU313402,AU313403,AU313404

>ms2
120.081300 428.000000
121.087500 1620.000000
123.012600 2636.000000
124.015900 512.000000
125.985800 1404.000000
127.983000 880.000000
199.051400 332.000000
223.949300 64332.000000
224.951500 5608.000000
225.945900 37948.000000
226.949000 2560.000000
269.007400 2584.000000
271.004600 2368.000000
332.969900 2580.000000
333.974000 352.000000
334.967100 1848.000000

>ms2
121.087600 560.000000
122.004300 556.000000
123.013100 31748.000000
125.985700 652.000000
127.982500 424.000000
153.004800 436.000000
188.979500 812.000000
190.976000 388.000000
199.052600 316.000000
223.949300 41636.000000
224.951500 4004.000000
225.945900 26264.000000
226.949000 1272.000000

>ms2
120.079700 460.000000
121.089300 444.000000
122.004800 1520.000000
123.013000 69316.000000
153.003400 956.000000
188.979600 896.000000
223.949300 14436.000000
224.951500 1688.000000
225.945900 8056.000000
226.949000 580.000000

>ms2
120.079500 376.000000
122.005100 2792.000000
123.013100 67240.000000
153.002000 664.000000
223.950200 992.000000
225.943900 460.000000

