>compound AU07629011
>parentmass 336.1837
>ionization [M+H]+
>formula C18H26ClN3O
>rt 225.210000
>profile qtof
#smiles_iso CCN(CCCC(C)NC1=C2C=CC(=CC2=NC=C1)Cl)CCO
#smiles_can CCN(CCCC(C)NC1=C2C=CC(=CC2=NC=C1)Cl)CCO
#inchikey XXSMGPRMXLTPCZ-UHFFFAOYSA-N
#pubchem_id 3652
#mb_accession AU274101,AU274102,AU274103,AU274104,AU274105,AU274106

>ms2
247.099300 12176.000000
336.184000 509336.000000
337.187000 92564.000000
338.181300 125896.000000

>ms2
158.152700 55400.000000
159.155300 5568.000000
164.024500 3868.000000
179.035900 4200.000000
191.034700 2436.000000
247.098900 289900.000000
248.101800 44304.000000
249.095900 78480.000000
250.098400 7980.000000
336.183200 355932.000000
337.186200 62028.000000
338.180100 82392.000000

>ms2
156.067500 2080.000000
158.152800 104684.000000
159.155800 11720.000000
164.024700 8236.000000
166.021700 2836.000000
179.035600 40224.000000
180.038100 3920.000000
181.033100 10024.000000
191.035800 23800.000000
192.040500 3660.000000
193.032800 7364.000000
205.051900 4040.000000
247.098900 399040.000000
248.101800 59544.000000
249.096000 108032.000000
250.099100 9736.000000
336.182100 19884.000000
337.185700 4316.000000
338.179700 6296.000000

>ms2
130.120900 1356.000000
140.141700 968.000000
144.066800 2480.000000
155.059500 3416.000000
156.066800 9928.000000
156.137800 944.000000
157.068700 1140.000000
158.152600 43908.000000
159.155500 4960.000000
163.017200 1536.000000
164.024700 9020.000000
166.022100 2044.000000
177.031600 1440.000000
178.027500 2772.000000
179.035800 103212.000000
180.038500 11380.000000
181.032800 30008.000000
182.035600 1828.000000
191.035900 55804.000000
192.040100 8760.000000
193.032800 15204.000000
194.036100 1860.000000
195.006300 892.000000
203.036400 1876.000000
204.044100 1644.000000
205.051200 18156.000000
206.057500 3712.000000
207.048200 4580.000000
208.055400 1348.000000
247.099000 168836.000000
248.101900 25780.000000
249.095900 44588.000000
250.099700 3852.000000

>ms2
117.056000 1200.000000
128.048600 960.000000
129.055900 1688.000000
133.051500 696.000000
138.010000 816.000000
143.058400 2600.000000
144.066800 11608.000000
145.070800 1008.000000
151.016200 956.000000
155.059200 4932.000000
156.066900 17964.000000
157.069900 2564.000000
158.152600 8232.000000
159.155500 768.000000
162.008900 3144.000000
163.016500 5944.000000
164.006700 816.000000
164.025000 8264.000000
165.013800 1276.000000
165.028000 724.000000
166.022600 2848.000000
169.074300 1008.000000
176.054400 752.000000
177.033000 3576.000000
178.028400 6716.000000
179.036000 125432.000000
180.038300 12372.000000
181.032900 34164.000000
182.036100 2036.000000
190.029300 2156.000000
191.036200 60744.000000
192.039700 8264.000000
193.033000 18428.000000
194.037600 1740.000000
195.006600 1512.000000
203.036400 4640.000000
204.041900 1876.000000
205.033400 1712.000000
205.051800 18508.000000
206.055700 2760.000000
207.049300 5704.000000
208.051400 920.000000
217.051500 748.000000
219.066600 732.000000
247.099100 29964.000000
248.100600 5984.000000
249.096400 9968.000000
250.100300 944.000000

>ms2
69.069400 8484.000000
72.080200 1552.000000
90.092400 1872.000000
102.091800 6280.000000
156.066600 2100.000000
158.153100 86028.000000
159.155900 8752.000000
164.025200 5848.000000
166.021400 1348.000000
179.035800 27340.000000
180.039200 2500.000000
181.033100 7428.000000
191.036200 15304.000000
192.039900 2504.000000
193.033200 4216.000000
205.052600 2540.000000
247.099600 250472.000000
248.102600 52428.000000
249.096600 89332.000000
250.099500 10096.000000
336.183900 99860.000000
337.186900 18248.000000
338.181400 29260.000000

