>compound AU07094276
>parentmass 373.285
>ionization [M+H]+
>formula C23H36N2O2
>rt 594.960000
>profile qtof
#smiles_iso C[C@]12CC[C@H]3[C@H]([C@@H]1CC[C@@H]2C(=O)NC(C)(C)C)CC[C@@H]4[C@@]3(C=CC(=O)N4)C
#smiles_can CC12CCC3C(C1CCC2C(=O)NC(C)(C)C)CCC4C3(C=CC(=O)N4)C
#inchikey DBEPLOCGEIEOCV-WSBQPABSSA-N
#pubchem_id 57363
#mb_accession AU270201,AU270202,AU270203,AU270204,AU270205,AU270206

>ms2peaks
373.285800 2392504.000000
374.288200 899124.000000
375.291300 85396.000000

>ms2peaks
305.258600 22056.000000
317.222600 266656.000000
318.225800 44988.000000
373.286300 2416900.000000
374.288800 862480.000000
375.291700 83324.000000

>ms2peaks
175.147200 16676.000000
255.173400 12436.000000
305.259200 329808.000000
306.262300 68944.000000
317.222800 560808.000000
318.226200 100612.000000
373.286300 2476060.000000
374.288800 752324.000000
375.291700 78848.000000

>ms2peaks
119.084500 9220.000000
121.100000 13224.000000
122.058800 5960.000000
131.084300 10720.000000
133.100100 23872.000000
135.115800 12976.000000
136.074400 5932.000000
138.089800 7044.000000
143.084200 9784.000000
145.099800 19376.000000
147.115500 26316.000000
149.130800 9312.000000
150.089500 7648.000000
157.099600 6092.000000
159.115700 13172.000000
161.094200 10164.000000
161.131100 13332.000000
164.105800 5832.000000
171.115400 6552.000000
173.131100 29348.000000
175.110300 5708.000000
175.146800 62512.000000
176.106100 7728.000000
176.149700 8804.000000
177.161800 10316.000000
178.121600 7096.000000
183.115600 6304.000000
185.131100 23472.000000
187.146700 34452.000000
189.162700 39808.000000
190.165800 6032.000000
195.115600 7568.000000
197.131000 9024.000000
203.141600 12540.000000
213.162700 12292.000000
215.141700 16452.000000
215.178300 7364.000000
216.139400 6436.000000
220.168400 26716.000000
227.178500 16368.000000
232.168400 16816.000000
237.163400 16024.000000
239.178300 7664.000000
246.184500 27984.000000
249.195500 24412.000000
254.189100 7416.000000
255.173300 28624.000000
256.173200 7812.000000
257.188300 5608.000000
265.158200 6188.000000
272.200100 21876.000000
273.202500 5876.000000
274.215400 15736.000000
282.184600 20844.000000
283.168500 7664.000000
299.211700 5772.000000
300.194700 24292.000000
305.258500 835656.000000
306.261400 146276.000000
307.264300 12588.000000
317.222000 241692.000000
318.225000 47712.000000
319.227100 5752.000000
331.274100 7568.000000
355.273900 16088.000000
357.252600 9276.000000
373.284700 1114220.000000
374.288000 235340.000000
375.290300 26444.000000

>ms2peaks
115.053500 1660.000000
117.069200 4288.000000
119.084500 15264.000000
120.087400 1720.000000
121.063800 2792.000000
121.100500 9172.000000
122.059500 9988.000000
122.102900 1260.000000
123.065300 1956.000000
123.078800 1316.000000
123.116200 1196.000000
124.075000 5188.000000
126.090200 3560.000000
128.061100 2732.000000
129.068500 6012.000000
130.076600 1788.000000
131.084200 21000.000000
132.087400 2576.000000
133.063500 1724.000000
133.100000 31652.000000
134.058700 5256.000000
134.102600 3880.000000
135.079400 2184.000000
135.115600 11872.000000
136.074500 8576.000000
136.111700 1528.000000
136.120300 1256.000000
138.090100 7760.000000
140.105500 2040.000000
141.068900 2380.000000
142.075500 1880.000000
143.084100 13664.000000
144.088200 2068.000000
145.100000 32172.000000
146.103000 3660.000000
147.079200 5072.000000
147.115600 38296.000000
148.074600 6728.000000
148.118500 4316.000000
149.079300 1120.000000
149.095300 2344.000000
149.131000 8944.000000
150.090300 7892.000000
150.134100 1376.000000
152.105800 2704.000000
155.084100 7888.000000
156.090700 1456.000000
157.099600 10480.000000
158.103900 2080.000000
159.079000 5000.000000
159.115400 18352.000000
160.074900 1504.000000
160.117900 2316.000000
161.094700 9324.000000
161.130800 14384.000000
162.091700 3220.000000
162.133800 1940.000000
163.110200 3112.000000
163.146600 3080.000000
164.106100 5656.000000
166.121900 1656.000000
167.084700 1708.000000
169.099800 5464.000000
170.106000 1580.000000
171.079400 1296.000000
171.115600 10588.000000
172.121100 2100.000000
173.094400 5332.000000
173.131000 29600.000000
174.090700 2940.000000
174.134300 4244.000000
175.110600 6928.000000
175.146900 39648.000000
176.105900 8916.000000
176.150400 4884.000000
177.110900 1220.000000
177.162200 3132.000000
178.120700 4800.000000
178.157100 4320.000000
180.136800 1600.000000
181.099800 4844.000000
182.106900 2696.000000
183.115700 6180.000000
184.119900 1776.000000
185.093700 1536.000000
185.131100 22008.000000
186.134600 3852.000000
187.147000 42676.000000
188.105200 2032.000000
188.149400 7932.000000
189.126700 1580.000000
189.162500 24360.000000
190.121200 3508.000000
190.165500 4736.000000
191.140600 1492.000000
192.137500 2488.000000
194.151600 2688.000000
195.115600 6628.000000
196.120500 1540.000000
197.131200 11132.000000
198.134500 2748.000000
199.110600 4216.000000
199.146600 3784.000000
200.111700 1588.000000
201.126700 3236.000000
201.162900 2960.000000
202.123000 4080.000000
202.162000 1084.000000
203.142200 6248.000000
204.140800 2008.000000
204.174200 4460.000000
206.189100 1140.000000
209.131000 2964.000000
211.146500 5228.000000
212.148900 1244.000000
213.125900 2756.000000
213.162500 8988.000000
214.164100 2412.000000
215.141800 20044.000000
215.177800 2772.000000
216.142200 5256.000000
218.152400 1584.000000
220.168100 9992.000000
221.171000 1672.000000
222.138500 1372.000000
223.145800 3328.000000
227.141200 1580.000000
227.178300 7404.000000
228.181200 1872.000000
229.194600 1364.000000
230.152200 1688.000000
231.184900 1176.000000
232.168000 14536.000000
233.172200 2584.000000
237.162500 9040.000000
238.166200 1800.000000
239.178600 2644.000000
240.135600 1348.000000
241.158000 1872.000000
246.184500 13052.000000
247.148700 1604.000000
247.187900 2280.000000
249.195000 15192.000000
250.199100 3152.000000
254.189100 6356.000000
255.173000 9484.000000
256.172700 2548.000000
256.205100 2168.000000
257.185400 1360.000000
258.184200 3696.000000
265.158800 2504.000000
272.200000 8348.000000
273.203800 1788.000000
274.215600 3224.000000
275.216400 1364.000000
282.184500 9252.000000
283.170600 1856.000000
283.187600 2416.000000
299.210700 8084.000000
300.194900 6960.000000
301.194300 3092.000000
305.258500 216308.000000
306.261400 48580.000000
307.263700 4628.000000
317.221700 28388.000000
318.224300 6028.000000
329.222800 1524.000000
331.273100 4728.000000
355.273600 10328.000000
356.276300 2956.000000
357.253700 10644.000000
358.257100 3252.000000
373.284600 57256.000000
374.288000 17336.000000
375.290400 2244.000000

>ms2peaks
57.069500 16340.000000
69.033200 16824.000000
72.044100 18808.000000
81.069500 8992.000000
95.085700 20264.000000
98.060300 6464.000000
121.101400 7156.000000
175.147100 14012.000000
189.163400 6528.000000
220.169400 7588.000000
255.174400 8404.000000
272.201800 6508.000000
274.216200 6388.000000
300.196800 7424.000000
305.259800 231336.000000
306.262500 42916.000000
317.223300 311776.000000
318.226500 63528.000000
319.228400 6140.000000
373.286400 1202852.000000
374.289400 476096.000000
375.292100 53564.000000

