>compound AU07002374
>parentmass 375.1721
>ionization [M+H]+
>formula C22H27ClO3
>rt 605.970000
>profile qtof
#smiles_iso CC(=O)[C@]1(CC[C@@H]2[C@@]1(CC[C@H]3[C@H]2C=C(C4=CC(=O)[C@@H]5C[C@@H]5[C@]34C)Cl)C)O
#smiles_can CC(=O)C1(CCC2C1(CCC3C2C=C(C4=CC(=O)C5CC5C34C)Cl)C)O
#inchikey DUSHUSLJJMDGTE-ZJPMUUANSA-N
#pubchem_id 5284537
#mb_accession AU239601,AU239602,AU239603,AU239604,AU239605,AU239606

>ms2
321.183100 5472.000000
375.172200 725452.000000
376.175500 126040.000000
377.169700 155360.000000

>ms2
133.100100 4008.000000
147.116000 5552.000000
175.110400 4664.000000
219.056400 11768.000000
239.141400 2764.000000
249.163600 3176.000000
251.142500 3552.000000
261.162700 3744.000000
263.143100 2680.000000
273.103700 3388.000000
277.158000 6452.000000
278.164400 5488.000000
279.173100 17296.000000
280.176700 3068.000000
293.152800 5408.000000
293.190000 4940.000000
297.185600 2716.000000
303.173300 9308.000000
306.161700 2992.000000
313.135700 7852.000000
314.142600 6656.000000
315.149700 9624.000000
316.152000 2984.000000
317.146400 2776.000000
321.185000 79252.000000
322.187600 19596.000000
339.150200 3216.000000
339.194400 4720.000000
357.161500 36492.000000
358.165100 9392.000000
359.158400 11700.000000
375.172400 531776.000000
376.175700 101084.000000
377.170000 125044.000000

>ms2
115.053200 336.000000
117.069900 844.000000
119.084900 2620.000000
120.088700 500.000000
121.064400 1896.000000
121.100400 1768.000000
122.103100 324.000000
123.080000 1876.000000
123.115700 632.000000
125.096000 712.000000
127.029500 392.000000
127.074100 352.000000
128.061700 644.000000
129.068800 2064.000000
130.076400 556.000000
131.049500 404.000000
131.085100 4512.000000
132.086800 544.000000
133.063900 1084.000000
133.100100 11680.000000
134.103200 1704.000000
135.079800 2592.000000
135.116300 2012.000000
137.059900 476.000000
137.095400 1748.000000
139.028500 360.000000
141.045900 520.000000
141.069400 1656.000000
142.076700 1612.000000
143.043600 452.000000
143.084200 4932.000000
144.055800 376.000000
144.090000 704.000000
145.064800 2488.000000
145.100200 7016.000000
146.071000 932.000000
146.103600 972.000000
147.079000 4608.000000
147.115400 14216.000000
148.083700 592.000000
148.119300 1856.000000
149.058300 560.000000
149.095200 3196.000000
149.131500 416.000000
150.099200 576.000000
151.110100 2224.000000
152.064000 320.000000
152.112200 320.000000
153.044300 844.000000
153.067200 408.000000
153.089700 332.000000
154.075700 428.000000
155.025000 980.000000
155.061500 756.000000
155.084900 3732.000000
156.091200 900.000000
157.022600 320.000000
157.041400 540.000000
157.063800 1112.000000
157.099400 6164.000000
158.069400 620.000000
158.104500 612.000000
159.079200 4788.000000
159.115400 5880.000000
160.086100 644.000000
160.121100 900.000000
161.095000 2560.000000
161.131100 1196.000000
163.030300 408.000000
163.110600 4360.000000
164.114100 580.000000
165.045900 952.000000
165.069000 604.000000
165.125800 828.000000
167.025100 1508.000000
167.058700 360.000000
167.085100 1428.000000
168.090700 840.000000
169.040300 1552.000000
169.061400 836.000000
169.100700 4500.000000
170.069400 484.000000
170.105200 788.000000
171.036800 588.000000
171.079500 3088.000000
171.115800 4436.000000
172.085100 656.000000
172.121400 700.000000
173.094200 3028.000000
173.132400 1200.000000
174.137000 412.000000
175.110300 12792.000000
176.114700 1884.000000
177.045400 3068.000000
177.092500 348.000000
177.126000 2352.000000
178.049900 400.000000
178.131500 400.000000
179.024400 1000.000000
179.042800 1064.000000
179.061000 1572.000000
179.084700 1244.000000
180.091300 880.000000
181.022300 440.000000
181.039800 6980.000000
181.065300 400.000000
181.077600 1220.000000
181.100900 4044.000000
182.044700 752.000000
182.105600 1128.000000
183.038000 1344.000000
183.055700 2196.000000
183.078500 2424.000000
183.115800 6684.000000
184.087400 1652.000000
184.121600 1172.000000
185.054200 668.000000
185.094600 9156.000000
185.131200 3304.000000
186.099700 1284.000000
186.134500 480.000000
187.075100 1128.000000
187.110700 3636.000000
187.147400 760.000000
188.114900 660.000000
189.045600 2120.000000
189.090100 580.000000
189.125800 3328.000000
190.048100 440.000000
190.128800 744.000000
191.024600 964.000000
191.040800 968.000000
191.060700 3248.000000
191.081800 600.000000
192.064700 592.000000
192.090200 500.000000
193.040900 2444.000000
193.057000 1156.000000
193.077100 1236.000000
193.100400 4472.000000
193.123600 960.000000
194.047500 532.000000
194.083200 320.000000
194.105700 1476.000000
195.038500 552.000000
195.055500 3000.000000
195.077700 968.000000
195.115800 6836.000000
196.058300 488.000000
196.084300 452.000000
196.121300 2592.000000
197.055700 668.000000
197.094900 2756.000000
197.131400 3764.000000
198.101900 620.000000
198.136900 1012.000000
199.111300 2604.000000
199.145000 888.000000
200.116000 752.000000
201.044000 744.000000
201.126400 4020.000000
202.130800 804.000000
203.061100 2512.000000
203.107600 532.000000
203.143300 920.000000
204.064500 324.000000
204.089700 380.000000
205.041400 4108.000000
205.057600 1024.000000
205.077500 1228.000000
205.100000 2924.000000
205.119700 432.000000
206.042400 664.000000
206.081800 340.000000
206.104900 992.000000
207.038600 1308.000000
207.056600 2232.000000
207.075100 824.000000
207.115300 5732.000000
208.087800 348.000000
208.121500 2028.000000
209.053000 888.000000
209.071400 816.000000
209.094800 2240.000000
209.131100 4808.000000
210.102500 1076.000000
210.136300 1416.000000
211.111400 3200.000000
211.147100 1504.000000
212.117200 644.000000
212.149800 320.000000
213.048000 392.000000
213.088800 488.000000
213.126400 2324.000000
213.161600 612.000000
215.061800 1396.000000
215.105600 540.000000
215.143700 416.000000
216.066200 492.000000
217.041000 564.000000
217.058200 620.000000
217.077400 1884.000000
217.100000 1184.000000
217.121500 360.000000
217.158300 388.000000
218.080000 484.000000
218.108200 928.000000
219.056300 24848.000000
219.117100 4528.000000
220.059600 3276.000000
220.097000 368.000000
220.121100 2292.000000
221.053600 7068.000000
221.071100 4284.000000
221.094700 2152.000000
221.132500 3892.000000
222.076300 524.000000
222.100000 1204.000000
222.137500 1416.000000
223.051300 916.000000
223.069500 984.000000
223.111100 4208.000000
223.147600 3284.000000
224.116800 1264.000000
224.151600 820.000000
225.127000 3340.000000
225.163700 1160.000000
226.131400 1256.000000
227.060600 612.000000
227.103700 1516.000000
227.141600 1832.000000
227.179700 1156.000000
228.181600 320.000000
229.077000 1500.000000
229.123900 492.000000
230.104900 592.000000
231.056200 892.000000
231.091800 1724.000000
231.113600 1156.000000
232.097800 516.000000
232.124000 1728.000000
233.073000 1256.000000
233.090100 948.000000
233.110600 540.000000
233.131800 5392.000000
234.102600 464.000000
234.139100 2684.000000
235.069300 480.000000
235.088000 1296.000000
235.111200 3568.000000
235.147600 8516.000000
236.118000 2032.000000
236.153700 2716.000000
237.088300 500.000000
237.126200 6656.000000
237.163000 4220.000000
238.133900 2132.000000
238.165100 1024.000000
239.141400 4164.000000
240.149200 828.000000
241.076500 980.000000
241.120900 764.000000
241.158800 916.000000
242.082300 368.000000
243.057100 396.000000
243.070300 472.000000
243.095200 1184.000000
243.115800 884.000000
243.174400 396.000000
244.098500 752.000000
244.121600 640.000000
245.071900 6244.000000
245.107600 2024.000000
245.131600 2332.000000
245.189500 5040.000000
246.078200 928.000000
246.104800 528.000000
246.139600 2836.000000
246.194500 1352.000000
247.069600 1104.000000
247.086300 1464.000000
247.111200 1492.000000
247.146700 6008.000000
248.119200 1424.000000
248.153700 2404.000000
249.085100 488.000000
249.094900 560.000000
249.125800 3964.000000
249.162800 7224.000000
250.133400 2516.000000
250.169000 2960.000000
251.106100 544.000000
251.142000 9640.000000
251.177900 4624.000000
252.148200 2232.000000
252.183700 504.000000
253.077900 620.000000
253.122900 628.000000
253.157800 3792.000000
253.191800 468.000000
254.161600 844.000000
255.092900 1040.000000
255.135700 532.000000
255.173200 664.000000
256.112700 364.000000
257.069600 1148.000000
257.091100 972.000000
257.108800 2128.000000
257.132200 524.000000
258.112200 552.000000
258.139900 360.000000
259.069200 596.000000
259.088800 2628.000000
259.106700 948.000000
259.120000 896.000000
259.147800 3252.000000
260.089600 892.000000
260.120100 400.000000
260.154800 3056.000000
261.084000 972.000000
261.103400 1088.000000
261.127200 1952.000000
261.163100 9620.000000
262.134800 1872.000000
262.167400 2792.000000
263.142400 12152.000000
264.148200 4016.000000
265.120600 988.000000
265.157300 4512.000000
265.194500 800.000000
266.127300 544.000000
266.162500 1396.000000
267.136600 772.000000
267.170100 1032.000000
268.096000 340.000000
268.178000 460.000000
269.075300 592.000000
269.110800 1536.000000
269.155100 396.000000
269.190600 656.000000
270.112000 368.000000
270.139000 448.000000
271.089500 1188.000000
271.122400 1428.000000
271.147500 388.000000
272.096600 576.000000
272.126800 504.000000
273.104600 3784.000000
273.163400 1484.000000
274.108800 1728.000000
274.137500 1456.000000
275.119600 1984.000000
275.141400 2100.000000
275.178800 4640.000000
276.125100 828.000000
276.145600 400.000000
276.182800 1464.000000
277.116100 824.000000
277.158500 16104.000000
277.195000 1152.000000
278.165000 17112.000000
279.173300 38120.000000
280.143100 520.000000
280.177700 6656.000000
281.104800 844.000000
281.181100 568.000000
283.087300 964.000000
283.124800 724.000000
284.093000 456.000000
285.104700 1280.000000
285.141200 472.000000
285.162300 1816.000000
286.108400 716.000000
286.169300 576.000000
287.088100 532.000000
287.118000 3196.000000
287.150900 364.000000
288.124200 1184.000000
288.148300 2300.000000
289.114400 1592.000000
289.134400 1612.000000
289.152500 800.000000
290.139800 460.000000
291.132700 716.000000
291.170900 924.000000
292.180800 560.000000
293.153300 14728.000000
293.189300 6048.000000
294.157600 3248.000000
294.193900 1376.000000
295.123800 672.000000
295.166200 1488.000000
295.205700 2420.000000
296.134100 672.000000
296.174600 976.000000
296.205400 352.000000
297.104600 564.000000
297.141600 2508.000000
297.184800 3440.000000
298.114400 364.000000
298.143900 672.000000
298.186600 668.000000
299.118800 3664.000000
300.125700 864.000000
301.098900 396.000000
301.120900 1100.000000
301.134500 2116.000000
302.134700 616.000000
303.174700 11808.000000
304.177600 2984.000000
305.131800 332.000000
305.184500 668.000000
306.160700 5992.000000
307.167200 1920.000000
311.156700 488.000000
311.198100 720.000000
312.203000 340.000000
313.134700 16280.000000
314.142400 13576.000000
315.149200 12928.000000
316.143800 4676.000000
317.145300 2940.000000
321.184800 63736.000000
322.188400 12932.000000
323.193100 1944.000000
324.131200 480.000000
329.130100 432.000000
329.166700 2140.000000
330.171700 620.000000
331.157300 816.000000
332.152200 984.000000
333.159600 1312.000000
334.153900 444.000000
335.155600 392.000000
339.151300 3152.000000
339.194400 3364.000000
340.153000 1060.000000
340.200000 1340.000000
341.150900 1312.000000
342.138800 604.000000
357.161200 17004.000000
358.165400 3396.000000
359.158500 4660.000000
375.172100 56456.000000
376.175200 14268.000000
377.169500 16404.000000

>ms2
115.053100 1540.000000
116.061500 580.000000
117.068600 2192.000000
119.046900 400.000000
119.084600 4392.000000
120.087600 552.000000
121.063700 2892.000000
121.100100 1756.000000
122.067300 340.000000
123.079000 1496.000000
123.115600 364.000000
125.013400 312.000000
125.095400 308.000000
127.030600 440.000000
127.052600 448.000000
128.060900 3488.000000
129.068600 4168.000000
130.076200 1444.000000
131.047300 1392.000000
131.084700 8368.000000
132.054500 340.000000
132.087200 1152.000000
133.063500 2456.000000
133.099700 13688.000000
134.103000 1036.000000
135.079000 2192.000000
135.115800 1776.000000
137.094100 896.000000
139.029700 876.000000
141.008900 424.000000
141.045500 688.000000
141.069100 2924.000000
142.075900 5680.000000
143.083800 7660.000000
144.055900 852.000000
144.089100 1744.000000
145.063200 6012.000000
145.099600 9680.000000
146.070900 1780.000000
146.105100 1096.000000
147.078900 4212.000000
147.115300 12356.000000
148.083100 628.000000
148.118300 1220.000000
149.057100 300.000000
149.094000 2232.000000
149.130700 304.000000
151.028700 760.000000
151.110900 1780.000000
152.061800 508.000000
153.045300 792.000000
153.068100 1928.000000
154.075100 1200.000000
155.024100 1268.000000
155.058700 1504.000000
155.084100 7760.000000
156.091100 3088.000000
157.062700 2788.000000
157.099600 9476.000000
158.070600 1792.000000
158.104800 1904.000000
159.078600 5516.000000
159.114700 5168.000000
160.085600 1044.000000
160.119100 756.000000
161.094400 2464.000000
161.131300 808.000000
162.098400 600.000000
163.029700 1548.000000
163.111100 1960.000000
164.033100 300.000000
165.045100 1644.000000
165.069100 2276.000000
165.125500 448.000000
166.075700 1240.000000
167.025000 1316.000000
167.042500 428.000000
167.060400 632.000000
167.083200 3848.000000
168.053700 400.000000
168.091200 2504.000000
169.040300 1328.000000
169.063500 1344.000000
169.099300 7008.000000
170.071300 1152.000000
170.106100 1900.000000
171.038400 452.000000
171.078400 5392.000000
171.115100 3872.000000
172.085400 1564.000000
172.118500 1104.000000
173.093900 2752.000000
173.130900 1408.000000
174.098700 668.000000
175.029200 792.000000
175.073800 448.000000
175.110000 7468.000000
176.036000 308.000000
176.113800 1260.000000
177.026300 312.000000
177.045100 5132.000000
177.125300 1140.000000
178.015700 316.000000
178.048000 408.000000
178.077000 796.000000
179.024600 1180.000000
179.042400 1232.000000
179.060700 860.000000
179.083900 4424.000000
180.090700 2248.000000
181.022200 520.000000
181.040300 3992.000000
181.061300 844.000000
181.075900 616.000000
181.100000 6364.000000
182.042000 596.000000
182.069200 616.000000
182.107200 2276.000000
183.037000 1596.000000
183.054400 844.000000
183.078100 3372.000000
183.115300 6872.000000
184.086800 3748.000000
184.118700 1656.000000
185.093700 9092.000000
185.130700 3032.000000
186.099300 1580.000000
186.133200 592.000000
187.073600 816.000000
187.109700 2460.000000
187.145600 512.000000
188.080400 416.000000
188.115400 648.000000
189.045100 2616.000000
189.087500 588.000000
189.126100 1340.000000
190.073900 488.000000
191.024700 3680.000000
191.041900 600.000000
191.060900 3400.000000
191.083800 1588.000000
192.063200 640.000000
192.091100 1520.000000
193.024000 928.000000
193.038600 2604.000000
193.058600 824.000000
193.074500 648.000000
193.099400 6872.000000
193.119800 492.000000
194.046100 504.000000
194.073500 776.000000
194.106400 3268.000000
195.037400 664.000000
195.055600 1240.000000
195.078100 2612.000000
195.115200 8976.000000
196.086500 1496.000000
196.121500 3832.000000
197.094800 3112.000000
197.132100 3556.000000
198.100400 1004.000000
198.136200 1344.000000
199.110700 2556.000000
199.146600 880.000000
200.116500 748.000000
200.149500 364.000000
201.045200 1284.000000
201.126800 1740.000000
202.077800 592.000000
202.129000 372.000000
203.042600 364.000000
203.061100 2892.000000
203.084500 1280.000000
203.142400 508.000000
204.030900 376.000000
204.064100 596.000000
204.091200 1432.000000
205.039700 3280.000000
205.076600 1284.000000
205.099200 4604.000000
206.045700 1004.000000
206.106400 2844.000000
207.036900 1336.000000
207.056000 1960.000000
207.077300 812.000000
207.115300 8676.000000
208.059100 396.000000
208.086500 2104.000000
208.122000 3800.000000
209.054300 856.000000
209.074400 308.000000
209.094500 5388.000000
209.130900 5852.000000
210.101500 2456.000000
210.138000 2116.000000
211.110000 2684.000000
211.145400 1896.000000
212.117200 796.000000
212.152800 388.000000
213.126000 1272.000000
214.129400 388.000000
215.060800 1396.000000
215.084100 540.000000
215.139600 468.000000
216.091400 572.000000
217.041900 596.000000
217.060400 464.000000
217.076200 1796.000000
217.099400 2712.000000
218.045600 320.000000
218.080400 532.000000
218.107200 2684.000000
219.055600 12492.000000
219.090900 1396.000000
219.115300 6288.000000
220.059500 1824.000000
220.086600 892.000000
220.122500 3192.000000
221.053200 3684.000000
221.069600 2312.000000
221.093200 3500.000000
221.130200 6668.000000
222.102200 2504.000000
222.137200 2740.000000
223.067000 664.000000
223.109900 7016.000000
223.146400 3472.000000
224.116300 2644.000000
224.152500 1128.000000
225.126300 3044.000000
225.164000 1016.000000
226.134400 776.000000
227.061500 708.000000
227.105600 1000.000000
227.141300 948.000000
227.179200 784.000000
228.068100 312.000000
229.043100 392.000000
229.076500 1572.000000
229.100900 988.000000
229.121000 364.000000
230.083100 340.000000
230.089500 484.000000
230.105300 1292.000000
231.055900 736.000000
231.070000 336.000000
231.090900 1564.000000
231.114300 2952.000000
232.089800 808.000000
232.122600 4064.000000
233.072500 768.000000
233.095200 1348.000000
233.130300 6948.000000
234.103300 1108.000000
234.138100 3072.000000
235.085500 672.000000
235.111400 4628.000000
235.146700 9968.000000
236.117300 4312.000000
236.152600 2924.000000
237.126700 6884.000000
237.162000 3472.000000
238.132400 2492.000000
238.163100 752.000000
239.101100 364.000000
239.142500 2404.000000
240.148800 552.000000
241.077200 1004.000000
241.101800 328.000000
241.155200 564.000000
242.159100 300.000000
243.055700 396.000000
243.070700 432.000000
243.093000 1232.000000
243.116700 700.000000
244.099200 684.000000
244.122500 1112.000000
245.073100 1488.000000
245.107300 1432.000000
245.131700 3532.000000
245.188900 2276.000000
246.075300 788.000000
246.100400 696.000000
246.138300 3144.000000
246.193000 472.000000
247.068700 668.000000
247.088700 692.000000
247.109800 1624.000000
247.145600 3788.000000
248.116200 2100.000000
248.153500 1804.000000
249.125700 5632.000000
249.163000 4488.000000
250.133400 4124.000000
250.168500 3572.000000
251.141400 7444.000000
251.179300 3620.000000
252.148400 2212.000000
252.181200 976.000000
253.077000 324.000000
253.121200 528.000000
253.157400 2708.000000
254.167300 596.000000
255.057700 332.000000
255.091000 868.000000
255.114900 608.000000
255.174700 372.000000
256.100600 456.000000
257.070800 728.000000
257.108100 956.000000
257.132800 552.000000
258.084200 368.000000
258.137800 564.000000
259.071400 504.000000
259.088100 1268.000000
259.109300 896.000000
259.147900 2420.000000
260.095100 364.000000
260.117000 664.000000
260.154600 3440.000000
261.097300 432.000000
261.105800 504.000000
261.125200 1436.000000
261.162600 6392.000000
262.132500 2936.000000
262.167100 1584.000000
263.141700 23952.000000
264.111100 432.000000
264.146400 5844.000000
265.120500 364.000000
265.156600 2988.000000
266.125300 328.000000
266.161500 840.000000
267.092400 396.000000
267.138300 316.000000
267.171200 440.000000
269.073200 332.000000
269.106400 1104.000000
269.127600 396.000000
270.138800 1068.000000
271.086700 1220.000000
271.122200 692.000000
271.146100 476.000000
272.094500 1024.000000
272.145600 368.000000
273.102900 1568.000000
273.127100 1184.000000
273.162300 392.000000
274.111300 828.000000
274.134300 1000.000000
275.101500 520.000000
275.117000 992.000000
275.142900 880.000000
275.178500 1720.000000
276.126600 420.000000
276.147100 512.000000
276.182000 460.000000
277.157100 12148.000000
278.128400 620.000000
278.164200 10280.000000
279.173200 23964.000000
280.176400 4236.000000
281.108500 592.000000
281.153500 480.000000
281.180000 564.000000
283.090500 376.000000
283.102600 388.000000
283.123100 348.000000
285.102500 944.000000
285.166700 940.000000
286.104200 488.000000
286.167300 444.000000
287.119200 1304.000000
288.125800 644.000000
288.148700 1408.000000
289.116100 428.000000
289.132800 768.000000
289.153300 840.000000
291.135700 724.000000
292.146600 412.000000
293.152300 7336.000000
293.189700 1368.000000
294.156700 1720.000000
294.196300 736.000000
295.119900 312.000000
295.166700 384.000000
295.202200 528.000000
296.131900 504.000000
296.173000 468.000000
297.099100 336.000000
297.138700 696.000000
297.188300 496.000000
298.111200 352.000000
299.118000 3444.000000
300.120600 984.000000
301.117300 1132.000000
303.136800 304.000000
303.172900 3004.000000
304.180100 760.000000
306.160200 2544.000000
307.168100 1020.000000
313.134100 4732.000000
314.141600 3980.000000
315.145200 2256.000000
316.138800 1280.000000
317.150100 584.000000
321.183400 7328.000000
322.188400 2276.000000
323.194200 300.000000
329.165600 380.000000
332.151200 568.000000
339.145800 560.000000
339.196900 460.000000
340.201400 332.000000
357.160200 752.000000
375.172100 1168.000000
377.168800 576.000000

>ms2
115.053700 3216.000000
116.058300 788.000000
117.069100 2500.000000
118.071400 312.000000
119.084500 3776.000000
120.088600 736.000000
121.064500 2136.000000
121.101100 964.000000
122.067400 336.000000
123.079300 708.000000
125.015700 624.000000
127.029200 388.000000
127.052300 780.000000
128.061000 7396.000000
129.068700 8628.000000
130.075600 2364.000000
131.047900 1724.000000
131.084500 8088.000000
132.054700 1608.000000
132.088400 1472.000000
133.064000 2012.000000
133.100200 9984.000000
134.071800 440.000000
134.103800 1132.000000
135.079700 1928.000000
135.116500 1068.000000
137.093800 628.000000
139.029800 716.000000
141.068800 8032.000000
142.076400 9872.000000
143.083800 8264.000000
144.056200 2288.000000
144.091000 2236.000000
145.063100 7084.000000
145.099600 6568.000000
146.071200 2280.000000
146.104700 1064.000000
147.079800 2552.000000
147.115500 5188.000000
148.086600 512.000000
148.119200 996.000000
149.057600 328.000000
149.095500 1428.000000
150.099000 320.000000
151.029200 656.000000
151.110500 1216.000000
152.061200 1992.000000
153.046200 768.000000
153.068400 4436.000000
154.076200 3196.000000
155.024100 960.000000
155.059300 1912.000000
155.084300 10888.000000
156.091400 5512.000000
157.063200 3268.000000
157.099800 8060.000000
158.071000 2800.000000
158.104800 1856.000000
159.079000 5496.000000
159.115100 3564.000000
160.085800 1352.000000
160.120700 468.000000
161.094500 1576.000000
161.132600 792.000000
162.020900 452.000000
163.028500 1412.000000
163.111700 580.000000
165.027500 380.000000
165.045100 1060.000000
165.068500 7412.000000
166.075600 3828.000000
167.027200 476.000000
167.083900 7464.000000
168.055600 624.000000
168.092200 3936.000000
169.041000 752.000000
169.063400 2692.000000
169.099600 6860.000000
170.070300 1644.000000
170.106100 1916.000000
171.079000 5692.000000
171.115500 3200.000000
172.085900 1788.000000
172.119000 1116.000000
173.095200 2052.000000
173.130300 572.000000
174.101000 448.000000
175.030600 1128.000000
175.109700 2740.000000
176.037900 508.000000
176.114700 504.000000
177.044700 2840.000000
177.069600 480.000000
177.128500 716.000000
178.015800 724.000000
178.048700 408.000000
178.076400 4092.000000
179.025900 1468.000000
179.043700 768.000000
179.060400 908.000000
179.083900 8552.000000
180.091700 4084.000000
181.024700 544.000000
181.040900 2208.000000
181.062300 2004.000000
181.099600 9656.000000
182.071000 1420.000000
182.106900 3832.000000
183.039400 808.000000
183.079400 3620.000000
183.115100 9104.000000
184.086400 4940.000000
184.119500 1772.000000
185.094800 7156.000000
185.131300 1852.000000
186.099600 1516.000000
186.135900 424.000000
187.074800 592.000000
187.110000 1176.000000
187.146100 300.000000
188.117400 308.000000
189.045300 1704.000000
189.067500 540.000000
189.125800 532.000000
190.076800 908.000000
191.023500 3192.000000
191.061300 1828.000000
191.084200 4184.000000
192.030600 984.000000
192.092500 4744.000000
193.023100 820.000000
193.041100 1016.000000
193.057800 640.000000
193.074100 532.000000
193.099600 10364.000000
194.070200 904.000000
194.106800 4832.000000
195.037100 396.000000
195.079600 4036.000000
195.115300 7764.000000
196.086300 2480.000000
196.123000 2676.000000
197.094200 2608.000000
197.131000 3052.000000
198.099800 648.000000
198.135600 780.000000
199.110900 1900.000000
199.146600 380.000000
200.117000 420.000000
201.045300 804.000000
201.126200 736.000000
202.078100 1656.000000
203.040300 332.000000
203.060300 1652.000000
203.083800 3376.000000
204.067600 656.000000
204.091200 4012.000000
205.041000 2188.000000
205.057300 616.000000
205.076100 1172.000000
205.099800 8004.000000
206.044900 572.000000
206.106800 4180.000000
207.038200 520.000000
207.055500 920.000000
207.079600 2348.000000
207.115700 8312.000000
208.086700 3192.000000
208.122300 2984.000000
209.054900 396.000000
209.094400 4904.000000
209.130800 5908.000000
210.102400 2324.000000
210.139400 1908.000000
211.110300 2260.000000
211.145500 1176.000000
212.118100 524.000000
213.044100 452.000000
213.123400 616.000000
214.052800 352.000000
214.133800 328.000000
215.042800 304.000000
215.061500 1108.000000
215.085400 1204.000000
216.073500 440.000000
216.091400 1792.000000
217.077200 1480.000000
217.100100 4688.000000
218.071900 504.000000
218.108500 4000.000000
219.056500 4524.000000
219.078300 1104.000000
219.091400 696.000000
219.115500 6352.000000
220.060200 1004.000000
220.085700 1236.000000
220.123300 4376.000000
221.053600 884.000000
221.095100 5388.000000
221.131700 5720.000000
222.102300 3968.000000
222.137800 2180.000000
223.110300 5280.000000
223.146600 1860.000000
224.116400 2028.000000
224.152800 868.000000
225.125500 1116.000000
225.160400 436.000000
226.130500 340.000000
227.062800 760.000000
228.065000 416.000000
228.096900 328.000000
229.039200 312.000000
229.057300 348.000000
229.075800 1020.000000
229.100500 1876.000000
230.087000 476.000000
230.108300 2740.000000
231.054800 532.000000
231.077300 688.000000
231.095800 612.000000
231.116500 4468.000000
232.087300 564.000000
232.123200 3516.000000
233.072800 304.000000
233.095900 1872.000000
233.131100 5012.000000
234.103600 2092.000000
234.137200 2468.000000
235.111100 6232.000000
235.146600 8704.000000
236.118600 4072.000000
236.152500 1920.000000
237.125200 4472.000000
237.163100 1488.000000
238.131400 1788.000000
238.166000 508.000000
239.060000 396.000000
239.143600 1496.000000
240.066000 408.000000
240.148000 388.000000
241.077900 716.000000
241.095400 372.000000
241.164400 368.000000
242.104400 324.000000
243.059500 408.000000
243.091800 916.000000
243.117100 768.000000
244.098800 472.000000
244.122500 1020.000000
245.070000 656.000000
245.095900 660.000000
245.107400 712.000000
245.132700 4968.000000
245.193200 304.000000
246.102800 768.000000
246.138900 2924.000000
247.078300 344.000000
247.110700 2372.000000
247.146200 2284.000000
248.117800 3708.000000
248.151900 648.000000
249.126800 6180.000000
249.163000 3004.000000
250.134000 2952.000000
250.171800 1080.000000
251.140700 3152.000000
251.178000 1084.000000
252.147000 772.000000
252.179900 320.000000
253.075700 332.000000
253.156600 644.000000
255.093500 504.000000
255.116500 700.000000
256.123600 420.000000
257.074100 408.000000
257.101000 312.000000
257.129700 400.000000
258.080700 396.000000
258.140700 516.000000
259.080900 356.000000
259.089400 360.000000
259.110600 940.000000
259.148600 1572.000000
260.117900 760.000000
260.154900 1320.000000
261.100400 300.000000
261.126700 1204.000000
261.163300 2512.000000
262.133200 2280.000000
262.165800 1048.000000
263.142900 15660.000000
264.146300 4480.000000
265.158000 2028.000000
266.163000 532.000000
267.091500 348.000000
267.140400 328.000000
269.070700 300.000000
270.138800 356.000000
271.093500 472.000000
271.150300 432.000000
272.096200 360.000000
273.104700 372.000000
273.126600 1356.000000
274.110800 368.000000
274.130400 476.000000
275.108300 300.000000
275.138300 564.000000
275.182000 404.000000
277.119000 392.000000
277.157000 3736.000000
278.127900 608.000000
278.164700 2272.000000
279.132400 380.000000
279.173400 7124.000000
280.176400 2096.000000
281.108800 700.000000
285.106700 496.000000
287.105000 316.000000
287.143600 328.000000
288.149900 428.000000
289.159100 644.000000
291.134300 564.000000
293.152800 2752.000000
293.191000 316.000000
294.153600 472.000000
299.119200 1652.000000
300.126300 436.000000
301.117500 440.000000
303.173100 480.000000
306.159100 448.000000
307.170100 364.000000
313.135900 752.000000
314.146200 300.000000
321.183400 712.000000

>ms2
55.053400 796.000000
59.048900 1208.000000
61.027900 908.000000
67.053400 1416.000000
69.032000 968.000000
69.069700 744.000000
71.048200 1392.000000
79.054100 864.000000
81.070000 1292.000000
83.048700 1844.000000
85.064600 1436.000000
87.043600 2480.000000
91.054600 1116.000000
93.069900 1712.000000
95.049400 1400.000000
95.085500 1112.000000
97.063900 720.000000
105.070000 1364.000000
107.050100 908.000000
107.085900 1232.000000
109.064900 1432.000000
109.102400 1132.000000
111.080900 1404.000000
117.068700 1220.000000
119.084900 2988.000000
121.063800 2360.000000
121.099600 1664.000000
123.079300 2136.000000
129.068500 1764.000000
131.084100 3004.000000
133.062900 936.000000
133.100000 9728.000000
134.104100 924.000000
135.079500 1940.000000
135.116200 1116.000000
137.094700 1156.000000
141.068500 1116.000000
142.076800 1036.000000
143.084600 3284.000000
144.088100 792.000000
145.063400 2764.000000
145.099800 6436.000000
146.103200 984.000000
147.079100 2672.000000
147.115400 11272.000000
148.118700 1432.000000
149.095000 1968.000000
151.109800 1772.000000
155.084100 2796.000000
156.091600 760.000000
157.063300 832.000000
157.100000 4648.000000
159.079300 2384.000000
159.115700 3532.000000
160.120000 728.000000
161.094900 2072.000000
163.110300 2700.000000
165.045400 928.000000
167.085100 1024.000000
169.040300 1344.000000
169.100000 2576.000000
171.079200 2008.000000
171.115600 3600.000000
173.093300 1420.000000
173.130200 760.000000
175.110600 7248.000000
176.114100 856.000000
177.044100 2460.000000
177.126400 1448.000000
179.084200 1248.000000
181.039600 4012.000000
181.076000 1048.000000
181.100100 2796.000000
182.105700 856.000000
183.035800 1104.000000
183.056200 1140.000000
183.079400 1384.000000
183.115700 4440.000000
184.086600 1184.000000
184.120700 1000.000000
185.095100 6852.000000
185.131100 1860.000000
186.098100 1020.000000
187.076200 768.000000
187.109400 2280.000000
189.045700 2056.000000
189.126500 2844.000000
191.023500 876.000000
191.061200 2392.000000
192.091500 948.000000
193.040700 1836.000000
193.099800 2504.000000
193.121600 964.000000
194.106200 1288.000000
195.054900 1344.000000
195.115300 5800.000000
196.121400 2132.000000
197.095300 2356.000000
197.130400 2464.000000
199.110500 2380.000000
199.144700 860.000000
201.126900 2984.000000
203.060700 2036.000000
205.039500 2764.000000
205.077200 1052.000000
205.101000 2028.000000
206.106600 1300.000000
207.037300 1164.000000
207.056300 2016.000000
207.115300 3456.000000
208.120700 1000.000000
209.095100 1392.000000
209.131800 3100.000000
210.101500 932.000000
210.137200 1208.000000
211.110400 2368.000000
211.146900 852.000000
213.126300 2140.000000
215.061200 1032.000000
217.076600 1108.000000
217.100200 856.000000
218.108400 1148.000000
219.056000 17824.000000
219.115400 2784.000000
220.058700 2156.000000
220.123100 1256.000000
221.052500 4276.000000
221.068600 2116.000000
221.093900 1016.000000
221.131000 3660.000000
222.102000 1164.000000
222.136100 1104.000000
223.067800 780.000000
223.110600 2756.000000
223.146800 2400.000000
224.117100 988.000000
225.126700 2124.000000
225.162700 932.000000
226.133200 992.000000
227.105400 888.000000
227.141300 1028.000000
227.179400 1016.000000
231.092200 1476.000000
231.115800 1028.000000
232.122900 1460.000000
233.071900 768.000000
233.131300 3392.000000
234.138200 1288.000000
235.110200 2852.000000
235.147400 5756.000000
236.117400 1404.000000
236.152400 1332.000000
237.126300 5512.000000
237.163100 4068.000000
238.132500 1624.000000
238.167000 904.000000
239.141400 3060.000000
241.157500 860.000000
243.092700 1108.000000
245.071700 3844.000000
245.109200 1380.000000
245.132300 1312.000000
245.188300 5148.000000
246.076300 928.000000
246.138800 2044.000000
246.191900 1160.000000
247.069100 1152.000000
247.109900 984.000000
247.147100 3772.000000
248.115500 808.000000
248.153300 1344.000000
249.126100 2812.000000
249.162300 5080.000000
250.133700 1404.000000
250.167700 2024.000000
251.142600 6512.000000
251.178600 3400.000000
252.148600 1236.000000
252.182800 1044.000000
253.156700 2688.000000
255.091700 824.000000
257.109900 1100.000000
259.086800 2136.000000
259.147700 2256.000000
260.154100 2408.000000
261.104900 776.000000
261.125800 1604.000000
261.162900 6848.000000
262.133500 1520.000000
262.166500 1716.000000
263.142100 12564.000000
264.147600 3796.000000
265.156500 3352.000000
269.109000 940.000000
271.087000 1000.000000
271.124100 1024.000000
272.090700 720.000000
273.103400 3372.000000
273.125600 844.000000
275.105300 804.000000
275.117800 1552.000000
275.139300 1164.000000
275.179300 2908.000000
277.158500 11832.000000
277.193500 968.000000
278.165300 12268.000000
279.173600 28552.000000
280.177300 5344.000000
285.102900 884.000000
285.161800 1024.000000
287.118400 1780.000000
288.150000 1068.000000
289.117600 788.000000
289.134900 1072.000000
293.153700 9076.000000
293.189500 3728.000000
294.157100 2320.000000
294.191100 1080.000000
295.166400 1288.000000
295.204200 2316.000000
297.140800 1904.000000
297.184400 2468.000000
299.118900 2728.000000
301.118600 788.000000
301.134300 1052.000000
303.131800 720.000000
303.173000 8556.000000
304.178300 2448.000000
306.160600 4540.000000
307.165800 1200.000000
311.158500 728.000000
313.134500 9632.000000
314.140900 9120.000000
315.148700 9208.000000
316.148200 2652.000000
317.146900 2604.000000
321.184800 60316.000000
322.188000 15248.000000
323.193900 1848.000000
329.165500 2544.000000
332.152200 788.000000
333.162500 1424.000000
339.149200 2528.000000
339.195500 3524.000000
340.199200 1004.000000
341.149100 764.000000
357.160900 19168.000000
358.164800 4844.000000
359.159800 6716.000000
375.172300 141692.000000
376.175300 36012.000000
377.169900 54148.000000

