>compound AU07318127
>parentmass 103.0614
>ionization [M+H]+
>formula C2H6N4O
>rt 75.600000
>profile qtof
#smiles_iso C(=NC(=O)N)(N)N
#smiles_can C(=NC(=O)N)(N)N
#inchikey SQSPRWMERUQXNE-UHFFFAOYSA-N
#pubchem_id 8859
#mb_accession AU278406

>ms2
60.054900 8660.000000
86.034800 320.000000

