>compound AU08004750
>parentmass 189.1022
>ionization [M+H]+
>formula C11H12N2O
>rt 282.395000
>profile qtof
#smiles_iso CC1=CC(=O)N(N1C)C2=CC=CC=C2
#smiles_can CC1=CC(=O)N(N1C)C2=CC=CC=C2
#inchikey VEQOALNAAJBPNY-UHFFFAOYSA-N
#pubchem_id 2206
#mb_accession AU227301,AU227302,AU227303,AU227304,AU227305,AU227306,AU265201,AU265202,AU265203,AU265204,AU265205,AU265206

>ms2peaks
189.102100 2475716.000000
190.104700 372876.000000
191.106800 22960.000000

>ms2peaks
118.064000 11624.000000
120.079900 13040.000000
130.064000 34072.000000
131.071500 38244.000000
132.079100 19464.000000
144.079500 43060.000000
145.063400 15728.000000
146.082600 42848.000000
146.093300 12048.000000
147.090300 70276.000000
161.106000 63160.000000
172.074600 11556.000000
174.077500 43460.000000
189.101200 1510452.000000
190.104300 139732.000000
191.106700 8780.000000

>ms2peaks
115.053300 18772.000000
116.058100 2432.000000
117.056700 15876.000000
117.069000 15720.000000
118.064100 24464.000000
119.068800 2984.000000
120.079700 21396.000000
121.082900 2180.000000
128.048300 4688.000000
128.060000 1948.000000
129.056300 14716.000000
130.064200 92480.000000
131.059400 39144.000000
131.071300 57468.000000
132.043900 3388.000000
132.067200 26068.000000
132.078700 27464.000000
133.051100 15192.000000
133.074600 7920.000000
134.046900 3168.000000
134.055900 2168.000000
134.095100 7328.000000
135.054800 1772.000000
142.063600 1384.000000
143.071500 9112.000000
144.079600 60012.000000
145.063500 19960.000000
145.074800 36560.000000
146.059700 3044.000000
146.082500 55804.000000
147.090500 102516.000000
148.074500 4004.000000
148.093300 9924.000000
149.070000 8616.000000
155.059100 2604.000000
156.065400 1536.000000
157.050600 12696.000000
158.057600 3624.000000
159.054000 6576.000000
159.090700 5572.000000
160.097800 4072.000000
161.106200 25340.000000
162.108700 2808.000000
171.089900 1240.000000
172.075000 9804.000000
173.069800 10028.000000
174.077600 53684.000000
175.081100 5576.000000
189.101400 205540.000000
190.104200 21336.000000
191.106700 1836.000000

>ms2peaks
115.053800 17496.000000
116.058500 1844.000000
117.056300 10900.000000
117.068900 5792.000000
118.064400 11256.000000
119.060400 1748.000000
119.070200 1344.000000
120.080000 6656.000000
126.044900 316.000000
127.052700 868.000000
128.048400 7752.000000
128.061000 1444.000000
129.056500 10644.000000
130.064000 51180.000000
131.059600 39752.000000
132.043900 2744.000000
132.067100 22944.000000
132.077700 6032.000000
133.050800 5224.000000
133.073400 2632.000000
134.047200 2556.000000
134.095500 1716.000000
142.063900 1048.000000
143.071800 5520.000000
144.079400 14228.000000
145.074700 27712.000000
146.058900 3172.000000
146.082100 12216.000000
147.090300 20584.000000
148.075300 524.000000
148.094200 2948.000000
149.069600 1408.000000
155.059100 2280.000000
156.043400 1240.000000
156.064300 688.000000
157.051300 2648.000000
157.075700 380.000000
158.046700 1284.000000
158.057800 1308.000000
159.053500 3552.000000
159.090800 3180.000000
160.074100 356.000000
160.097100 1040.000000
161.106500 1188.000000
171.055900 316.000000
171.091300 888.000000
172.074500 628.000000
173.070000 4856.000000
174.077200 6328.000000
175.080700 1172.000000
189.101200 6012.000000
190.103800 892.000000

>ms2peaks
115.053400 7944.000000
116.049400 1012.000000
116.058100 1260.000000
117.056200 5020.000000
118.064000 3496.000000
119.060100 904.000000
120.080000 812.000000
127.040800 300.000000
128.048100 5712.000000
129.055900 3548.000000
130.064100 24000.000000
131.059400 22568.000000
132.042800 1660.000000
132.066200 7076.000000
133.050900 924.000000
133.071400 972.000000
134.046600 784.000000
142.065000 500.000000
143.071600 2460.000000
144.079200 3460.000000
145.074700 11528.000000
146.059800 1448.000000
147.090800 1712.000000
155.060200 608.000000
156.044400 688.000000
156.067300 300.000000
157.051100 320.000000
158.046300 652.000000
159.055000 448.000000
159.090200 960.000000
173.069800 1316.000000
174.077600 444.000000
189.100900 304.000000

>ms2peaks
115.053300 18772.000000
116.058100 2432.000000
117.056700 15876.000000
117.069000 15720.000000
118.064100 24464.000000
119.068800 2984.000000
120.079700 21396.000000
121.082900 2180.000000
128.048300 4688.000000
128.060000 1948.000000
129.056300 14716.000000
130.064200 92480.000000
131.059400 39144.000000
131.071300 57468.000000
132.043900 3388.000000
132.067200 26068.000000
132.078700 27464.000000
133.051100 15192.000000
133.074600 7920.000000
134.046900 3168.000000
134.055900 2168.000000
134.095100 7328.000000
135.054800 1772.000000
142.063600 1384.000000
143.071500 9112.000000
144.079600 60012.000000
145.063500 19960.000000
145.074800 36560.000000
146.059700 3044.000000
146.082500 55804.000000
147.090500 102516.000000
148.074500 4004.000000
148.093300 9924.000000
149.070000 8616.000000
155.059100 2604.000000
156.065400 1536.000000
157.050600 12696.000000
158.057600 3624.000000
159.054000 6576.000000
159.090700 5572.000000
160.097800 4072.000000
161.106200 25340.000000
162.108700 2808.000000
171.089900 1240.000000
172.075000 9804.000000
173.069800 10028.000000
174.077600 53684.000000
175.081100 5576.000000
189.101400 205540.000000
190.104200 21336.000000
191.106700 1836.000000

>ms2peaks
189.102900 2498244.000000
190.104700 422872.000000
191.106900 24964.000000

>ms2peaks
118.064300 19132.000000
120.079800 22548.000000
130.064100 55588.000000
131.071700 59584.000000
132.079200 34144.000000
144.079800 67740.000000
145.063800 24944.000000
146.082700 70276.000000
147.090500 122736.000000
148.093800 10020.000000
149.069600 10316.000000
161.106200 100328.000000
172.074200 20048.000000
174.077600 81056.000000
189.101600 1954888.000000
190.104700 235268.000000
191.107500 13496.000000

>ms2peaks
115.053400 13104.000000
116.059000 2196.000000
117.056500 11500.000000
117.068800 11104.000000
118.064500 17636.000000
119.069800 2208.000000
120.080000 15980.000000
121.082400 1732.000000
128.048800 4388.000000
129.056100 9236.000000
130.064200 62320.000000
131.059800 29432.000000
131.071500 41784.000000
132.043500 2940.000000
132.067200 20184.000000
132.078800 19816.000000
133.051100 10800.000000
133.075100 5408.000000
134.046600 2960.000000
134.076700 728.000000
134.095300 5716.000000
135.054500 1436.000000
142.063100 932.000000
143.071300 7120.000000
144.079900 41724.000000
145.074900 27064.000000
146.082500 46200.000000
147.090600 81416.000000
148.073900 2320.000000
148.093800 8336.000000
149.069700 6224.000000
155.059500 2576.000000
156.042600 1416.000000
156.068100 1332.000000
157.051100 9656.000000
158.057900 4136.000000
159.054000 5220.000000
159.090400 5128.000000
160.056500 800.000000
160.097400 3280.000000
161.106100 18712.000000
162.090200 860.000000
162.109000 2156.000000
171.090400 1168.000000
172.074200 7660.000000
173.070100 8048.000000
174.077800 38796.000000
175.080800 3872.000000
189.101500 138660.000000
190.104400 18332.000000
191.107400 1164.000000

>ms2peaks
115.053700 11216.000000
116.057300 1120.000000
117.056700 8388.000000
117.067600 3796.000000
118.063800 8580.000000
119.071100 1308.000000
120.079800 4128.000000
121.075900 332.000000
121.083300 484.000000
127.053200 428.000000
128.048400 5072.000000
129.056100 8756.000000
130.064000 41072.000000
131.059500 32672.000000
132.042800 2336.000000
132.066700 15472.000000
132.077700 4928.000000
133.050300 4436.000000
133.073200 2372.000000
134.045700 2456.000000
134.095500 1456.000000
135.052400 332.000000
142.063300 644.000000
143.071300 4436.000000
144.079500 11300.000000
145.074700 23336.000000
146.058500 2316.000000
146.082200 8828.000000
147.090000 16880.000000
148.073800 464.000000
148.093500 1480.000000
149.068400 1556.000000
155.058700 1500.000000
156.042400 924.000000
156.065300 420.000000
157.051400 2492.000000
158.044800 628.000000
158.057600 1068.000000
159.053800 2028.000000
159.091000 1960.000000
160.057300 320.000000
160.098100 588.000000
161.106000 1376.000000
171.090400 548.000000
172.075100 848.000000
172.096900 352.000000
173.069300 3744.000000
174.076800 5696.000000
175.079500 512.000000
189.100500 4280.000000
190.104200 808.000000

>ms2peaks
115.054000 5588.000000
117.056400 4756.000000
118.063800 3284.000000
119.061300 412.000000
120.079200 492.000000
127.053900 400.000000
128.048300 5268.000000
129.055800 3088.000000
130.064000 20388.000000
131.059300 20420.000000
132.043300 1352.000000
132.066300 7304.000000
133.051600 944.000000
133.070700 700.000000
134.045700 524.000000
142.064400 356.000000
143.071800 1976.000000
144.079200 3756.000000
145.074800 9740.000000
146.059000 1652.000000
146.081600 2288.000000
147.065000 308.000000
147.090700 2344.000000
155.058500 1224.000000
156.042600 352.000000
158.046600 664.000000
159.089900 876.000000
173.070500 700.000000

>ms2peaks
56.049200 86588.000000
58.064800 87480.000000
65.038100 11708.000000
68.048900 4292.000000
69.057100 4600.000000
70.064600 5712.000000
77.038400 6296.000000
81.044400 6084.000000
91.054800 18904.000000
92.049600 4728.000000
95.049500 9948.000000
95.060900 6892.000000
96.044900 7088.000000
96.068700 34388.000000
98.060700 13460.000000
103.055200 4672.000000
104.050400 61924.000000
105.045300 6180.000000
106.066400 40456.000000
115.054600 4776.000000
117.057500 7264.000000
117.070300 14136.000000
118.065800 23104.000000
120.081000 21136.000000
130.064900 40680.000000
131.060000 7404.000000
131.072800 41712.000000
132.067500 6408.000000
132.080500 19196.000000
133.051700 6212.000000
133.075800 5744.000000
134.096500 4184.000000
144.080300 37664.000000
145.064400 15784.000000
145.074100 10072.000000
146.083500 38784.000000
147.091100 75740.000000
148.075000 4208.000000
148.094400 5244.000000
149.070500 5116.000000
157.051600 5412.000000
161.106900 45388.000000
162.110300 4088.000000
172.075300 10224.000000
174.078200 43040.000000
189.102300 801180.000000
190.105300 95360.000000
191.108000 5276.000000

