>compound AU08011727
>parentmass 276.082
>ionization [M+H]+
>formula C12H18ClNO2S
>rt 552.000000
>profile qtof
#smiles_iso CC1=CSC(=C1N(C(C)COC)C(=O)CCl)C
#smiles_can CC1=CSC(=C1N(C(C)COC)C(=O)CCl)C
#inchikey JLYFCTQDENRSOL-UHFFFAOYSA-N
#pubchem_id 91744
#mb_accession AU339101,AU339102,AU339103,AU339104,AU339105

>ms2peaks
168.082900 2848.000000
244.055600 322084.000000
245.058100 40636.000000
246.052200 95160.000000
247.055200 6880.000000
276.082000 216540.000000
277.084800 26856.000000
278.078900 60052.000000
279.081500 5416.000000

>ms2peaks
167.075400 3488.000000
168.082900 69940.000000
186.012600 3152.000000
204.023500 2960.000000
244.055300 502884.000000
245.058200 56948.000000
246.052300 144296.000000
247.054900 10932.000000

>ms2peaks
111.025600 2512.000000
120.080500 1072.000000
124.033400 1320.000000
125.040700 3744.000000
126.036400 12476.000000
127.020500 1372.000000
127.043300 2112.000000
127.056500 2208.000000
128.051900 4048.000000
129.036700 1976.000000
134.095900 4244.000000
135.103700 5200.000000
137.028200 1808.000000
138.036100 7680.000000
139.041400 956.000000
140.052100 1824.000000
149.022000 948.000000
150.036200 5876.000000
151.042700 1448.000000
151.056300 9936.000000
152.014900 3820.000000
152.052100 10772.000000
153.022900 8024.000000
153.059400 4096.000000
154.029900 1668.000000
154.066500 1364.000000
166.031100 4520.000000
166.066900 4340.000000
167.075100 16400.000000
168.083300 189404.000000
169.086000 16864.000000
170.078600 6204.000000
174.012600 1060.000000
186.012800 10300.000000
188.010100 3188.000000
202.007900 2848.000000
203.015300 7004.000000
204.006000 1268.000000
204.022700 4384.000000
205.011900 2504.000000
206.020700 1584.000000
244.055300 131628.000000
245.058200 16816.000000
246.052300 39160.000000
247.054900 3208.000000

>ms2peaks
111.026600 4096.000000
112.030500 552.000000
113.042000 476.000000
114.037200 356.000000
115.055300 448.000000
117.057000 568.000000
117.068200 808.000000
118.065700 1020.000000
118.076100 512.000000
119.071300 1172.000000
120.080300 3960.000000
122.096500 1224.000000
123.013300 696.000000
123.025900 996.000000
124.021400 1500.000000
124.033500 2184.000000
125.029300 1504.000000
125.041200 5324.000000
126.036800 29224.000000
127.020800 1288.000000
127.042400 4336.000000
127.057100 1848.000000
128.032300 1036.000000
128.051800 7016.000000
129.035800 1316.000000
129.053700 524.000000
132.081000 584.000000
133.088200 548.000000
134.056500 388.000000
134.095800 5000.000000
135.026100 788.000000
135.103200 9368.000000
136.020900 2320.000000
136.033000 872.000000
136.106700 676.000000
137.028400 6040.000000
138.036400 18304.000000
139.023700 420.000000
139.041300 1696.000000
139.056600 1048.000000
140.033000 524.000000
140.052800 1904.000000
141.054200 416.000000
141.072500 348.000000
144.986800 600.000000
147.001300 384.000000
149.023700 352.000000
149.041000 932.000000
150.036600 9968.000000
151.019300 540.000000
151.043400 3232.000000
151.056600 7364.000000
152.015400 9036.000000
152.052200 22952.000000
153.023400 11860.000000
153.058800 8080.000000
154.030200 3576.000000
154.048700 728.000000
154.067000 2284.000000
155.020800 368.000000
155.032400 372.000000
155.068800 404.000000
156.027800 472.000000
158.035800 492.000000
159.002700 504.000000
166.031200 3968.000000
166.067600 3484.000000
167.035800 832.000000
167.075300 7108.000000
168.083400 69340.000000
169.086300 6480.000000
170.079400 2104.000000
171.995800 568.000000
174.012800 840.000000
183.997600 372.000000
186.013100 6196.000000
187.014400 448.000000
188.010600 1676.000000
202.008300 880.000000
203.015900 3344.000000
204.005500 412.000000
204.022700 1104.000000
205.012000 844.000000
206.020900 444.000000
244.055300 11676.000000
245.058200 1260.000000
246.052300 2956.000000
247.054900 392.000000

>ms2peaks
111.025800 2532.000000
112.030800 360.000000
113.024300 360.000000
113.040100 384.000000
115.053700 480.000000
117.056700 1308.000000
117.068800 544.000000
118.064400 2204.000000
119.072200 1704.000000
120.080000 3456.000000
121.084900 572.000000
122.095500 344.000000
123.012600 1144.000000
123.025800 1172.000000
124.020800 2264.000000
124.032800 1416.000000
125.028600 1684.000000
125.041500 2828.000000
126.036800 23284.000000
127.020700 984.000000
127.042600 2212.000000
128.052300 3900.000000
129.036800 576.000000
129.054600 472.000000
132.080500 696.000000
133.050800 384.000000
133.085100 352.000000
134.018100 408.000000
134.095700 3860.000000
135.025100 1468.000000
135.103400 3268.000000
136.021000 4412.000000
138.000300 1664.000000
138.036300 17016.000000
139.040200 1256.000000
139.057600 496.000000
140.033200 820.000000
140.051400 1096.000000
144.987000 720.000000
148.020000 464.000000
149.025700 440.000000
149.040400 516.000000
150.036500 7028.000000
151.043400 1872.000000
151.056800 1560.000000
153.023000 5864.000000
154.011400 404.000000
154.030500 2372.000000
154.048100 460.000000
154.067200 1068.000000
155.036000 312.000000
159.002700 352.000000
166.031300 2184.000000
166.067600 1404.000000
167.075400 940.000000
168.046200 596.000000
168.083100 8924.000000
170.079000 444.000000
186.013600 948.000000
203.014500 336.000000
244.055300 312.000000
245.058200 52.000000
246.052300 332.000000
247.054900 52.000000

