>compound AU08357738
>parentmass 260.1645
>ionization [M+H]+
>formula C16H21NO2
>rt 379.548000
>profile qtof
#smiles_iso CC(C)NCC(COC1=CC=CC2=CC=CC=C21)O
#smiles_can CC(C)NCC(COC1=CC=CC2=CC=CC=C21)O
#inchikey AQHHHDLHHXJYJD-UHFFFAOYSA-N
#pubchem_id 4946
#mb_accession AU110801,AU110802,AU110803,AU110804,AU110805

>ms2
183.078800 18844.000000
260.164200 2469312.000000
261.167200 519428.000000
262.170100 40032.000000

>ms2
116.106400 58788.000000
117.109500 6032.000000
129.068800 11680.000000
141.068700 13272.000000
145.063600 13400.000000
153.068600 7052.000000
155.084400 47876.000000
156.087500 6032.000000
157.063700 120680.000000
158.067300 12580.000000
165.068600 15940.000000
183.079400 302412.000000
184.082500 36620.000000
218.116800 59676.000000
219.120400 8744.000000
242.153000 7032.000000
260.164000 1127720.000000
261.167200 141796.000000
262.170100 11716.000000

>ms2
115.053700 6660.000000
116.106300 16236.000000
117.068600 1384.000000
117.109700 1568.000000
126.044900 964.000000
127.053400 4712.000000
128.060800 15076.000000
129.068700 47480.000000
130.072200 5000.000000
141.068500 20376.000000
142.072400 2720.000000
143.047800 8556.000000
143.084600 1084.000000
144.054500 2608.000000
145.063400 36604.000000
146.066400 3860.000000
152.060400 2344.000000
153.068500 33252.000000
154.075200 11212.000000
155.084400 158504.000000
156.087400 18112.000000
157.063500 116208.000000
158.066900 12560.000000
159.068400 804.000000
165.068600 48916.000000
166.071900 6916.000000
167.074800 868.000000
168.055900 13748.000000
169.059400 2764.000000
171.079300 8452.000000
181.063800 2460.000000
182.070500 3136.000000
183.079400 137572.000000
184.082300 16864.000000
185.086000 1552.000000
218.116100 6996.000000
219.120200 1240.000000
260.163700 18976.000000
261.166000 3812.000000

>ms2
115.053600 14932.000000
116.058000 2004.000000
116.106500 2428.000000
117.069200 3952.000000
118.073500 516.000000
126.046000 2968.000000
127.053400 17256.000000
128.061100 40072.000000
129.068800 73780.000000
130.072600 6636.000000
139.053500 1240.000000
140.061100 1496.000000
141.068900 12644.000000
142.073400 1900.000000
143.048200 3260.000000
143.084200 1100.000000
144.055500 5008.000000
145.063800 44092.000000
146.067100 4004.000000
152.060800 6960.000000
153.068800 48196.000000
154.075900 24780.000000
155.084300 100412.000000
156.087700 12748.000000
157.063600 47996.000000
158.067300 5160.000000
164.062000 860.000000
165.068700 47308.000000
166.072400 7328.000000
167.075100 792.000000
168.055900 15372.000000
169.060200 2492.000000
171.079400 2616.000000
181.063500 2904.000000
182.071100 4020.000000
183.079000 13656.000000
184.082800 1840.000000

>ms2
115.053500 19520.000000
116.058100 2756.000000
117.068900 2484.000000
126.045500 6364.000000
127.053200 32592.000000
128.061000 74364.000000
129.068600 51112.000000
130.071800 5464.000000
131.047500 600.000000
139.053000 3260.000000
140.060900 2764.000000
141.069000 7232.000000
142.073400 1296.000000
143.049000 760.000000
143.082300 472.000000
144.055700 3240.000000
145.063600 44688.000000
146.067400 5120.000000
151.052000 592.000000
152.060700 15332.000000
153.068500 44716.000000
154.075700 19728.000000
155.084500 25176.000000
156.087400 3204.000000
157.063800 8724.000000
158.067000 1436.000000
163.051700 796.000000
164.060000 1764.000000
165.068400 33812.000000
166.072000 4392.000000
167.076500 604.000000
168.055700 10172.000000
170.068800 524.000000
171.079400 556.000000
181.064100 3136.000000
182.072100 2244.000000
183.078800 1276.000000
196.051800 424.000000

