>compound AU08700852
>parentmass 441.167
>ionization [M+H]+
>formula C24H20N6O3
>rt 465.560000
>profile qtof
#smiles_iso CCOC1=NC2=CC=CC(=C2N1CC3=CC=C(C=C3)C4=CC=CC=C4C5=NNN=N5)C(=O)O
#smiles_can CCOC1=NC2=CC=CC(=C2N1CC3=CC=C(C=C3)C4=CC=CC=C4C5=NNN=N5)C(=O)O
#inchikey HTQMVQVXFRQIKW-UHFFFAOYSA-N
#pubchem_id 2541
#mb_accession AU213701,AU213702,AU213703,AU213704,AU213705,AU213706

>ms2peaks
207.091300 564.000000
235.095400 624.000000
235.123900 688.000000
236.128300 312.000000
263.128300 19588.000000
264.132400 3984.000000
265.136100 440.000000
413.162800 364.000000
423.156900 8652.000000
424.159300 2284.000000
425.160400 564.000000
441.166500 16684.000000
442.170700 5000.000000
443.172900 956.000000

>ms2peaks
180.077500 408.000000
189.065300 440.000000
191.046800 404.000000
192.079800 788.000000
193.086800 600.000000
194.095500 988.000000
206.083500 300.000000
207.076500 1352.000000
207.090000 5864.000000
208.094900 944.000000
210.090100 2008.000000
211.094000 348.000000
220.098600 600.000000
234.113600 536.000000
235.096900 6264.000000
235.122000 5400.000000
236.127100 928.000000
263.128100 23144.000000
264.131200 4040.000000
265.132300 456.000000
338.104000 2444.000000
339.108300 744.000000
349.106300 356.000000
350.090600 616.000000
352.106500 1576.000000
353.111500 348.000000
367.117100 312.000000
380.138800 1396.000000
381.137900 552.000000
395.148600 3052.000000
396.156900 864.000000
423.156100 8892.000000
424.159300 2608.000000
441.167300 792.000000

>ms2peaks
153.069300 376.000000
161.034100 316.000000
165.069300 760.000000
167.083500 556.000000
178.076400 1520.000000
179.043000 528.000000
179.084200 324.000000
180.079600 2812.000000
181.085000 416.000000
189.065500 940.000000
190.063900 2000.000000
191.044100 532.000000
191.071000 832.000000
192.079000 2904.000000
193.086900 1868.000000
194.095000 3996.000000
195.098300 580.000000
205.076000 392.000000
206.082800 1504.000000
207.090700 12848.000000
208.093700 2128.000000
208.110700 1280.000000
209.098700 488.000000
209.112600 548.000000
210.090100 5312.000000
211.093900 680.000000
218.095400 1104.000000
219.092400 584.000000
220.098800 1308.000000
233.107200 312.000000
234.115900 1052.000000
235.097400 4084.000000
235.122400 7024.000000
236.099700 756.000000
236.125700 1472.000000
263.128500 5684.000000
264.133500 912.000000
309.106400 408.000000
310.111000 332.000000
337.098100 404.000000
338.102800 2152.000000
339.110700 556.000000
349.106700 1008.000000
350.093100 1560.000000
351.097600 624.000000
352.107300 3988.000000
367.121900 848.000000
380.140300 1176.000000
381.140100 464.000000
395.147600 1484.000000
396.153100 768.000000
423.156100 820.000000

>ms2peaks
140.048900 420.000000
152.061900 1000.000000
153.068900 1392.000000
154.070200 304.000000
161.034400 760.000000
163.053000 332.000000
165.069000 2760.000000
166.073500 660.000000
167.071600 328.000000
167.083200 424.000000
173.034700 700.000000
177.055700 500.000000
178.077300 2820.000000
179.044700 744.000000
179.081800 1216.000000
180.079800 5948.000000
181.083600 676.000000
189.063600 924.000000
190.063900 5572.000000
191.070700 2248.000000
192.069000 1928.000000
192.079600 4020.000000
193.086100 2544.000000
194.095500 3980.000000
195.096000 784.000000
205.075000 1248.000000
206.082600 4496.000000
207.090900 13432.000000
208.076600 504.000000
208.093900 2068.000000
209.099900 400.000000
209.113400 320.000000
210.090600 5492.000000
211.094200 968.000000
217.086400 388.000000
218.095500 836.000000
219.090600 904.000000
220.099300 1228.000000
233.110300 564.000000
234.114500 1440.000000
235.097000 1124.000000
235.122900 3484.000000
236.123300 672.000000
263.131000 568.000000
308.120700 464.000000
309.103700 1208.000000
310.107600 560.000000
310.116100 508.000000
322.099700 300.000000
324.116600 324.000000
337.097600 748.000000
338.111200 616.000000
349.107500 832.000000
350.091200 900.000000
351.098400 640.000000
352.106600 3296.000000
353.111300 960.000000

>ms2peaks
140.049700 376.000000
152.061400 2168.000000
153.068000 2696.000000
154.070500 568.000000
161.033300 1448.000000
163.052700 956.000000
164.060900 388.000000
165.069300 5140.000000
166.072000 1104.000000
167.070900 368.000000
167.084400 1168.000000
168.066900 304.000000
169.063400 436.000000
173.035600 656.000000
177.056600 888.000000
177.068100 816.000000
178.076800 5588.000000
179.043900 1108.000000
179.077500 1088.000000
180.079800 8128.000000
181.082700 1036.000000
182.085200 340.000000
189.063700 548.000000
191.071200 5044.000000
192.079500 4836.000000
193.086300 2540.000000
194.095300 3048.000000
195.097800 592.000000
196.073800 564.000000
205.075100 3560.000000
206.082500 5844.000000
207.090400 8576.000000
208.077400 400.000000
208.094500 1012.000000
208.112400 428.000000
210.090700 2436.000000
211.094300 652.000000
217.092500 568.000000
218.094500 480.000000
219.090600 1060.000000
220.098800 948.000000
233.107100 500.000000
234.115900 1572.000000
235.120200 1228.000000
236.128100 300.000000
308.096900 312.000000
308.117000 624.000000
309.103700 1064.000000
310.109700 480.000000
322.100300 404.000000
324.114800 728.000000
337.097300 396.000000
348.101800 360.000000
349.085100 360.000000
349.106200 704.000000
350.092100 420.000000
351.101100 428.000000
352.107100 1368.000000
353.111900 568.000000

>ms2peaks
152.060000 352.000000
153.068900 1096.000000
161.033200 376.000000
165.067800 1468.000000
167.082400 568.000000
173.033400 376.000000
178.076800 1920.000000
179.043100 464.000000
179.082800 612.000000
180.079000 3840.000000
181.082900 544.000000
189.062500 312.000000
190.064300 2712.000000
191.045200 564.000000
191.070800 1228.000000
192.079300 2716.000000
193.086500 2284.000000
194.095400 4488.000000
195.099800 884.000000
205.073600 640.000000
206.082000 2188.000000
207.091100 18148.000000
208.094000 3592.000000
208.111800 1076.000000
209.112800 308.000000
210.090100 8276.000000
211.093500 1236.000000
218.093900 1152.000000
219.095400 432.000000
220.097800 1176.000000
233.074400 352.000000
233.110300 600.000000
234.114200 1464.000000
235.096600 5768.000000
235.122500 8012.000000
236.100000 1252.000000
236.125600 1980.000000
251.127700 396.000000
263.128200 10868.000000
264.131700 2168.000000
265.134000 312.000000
308.117800 388.000000
309.105400 640.000000
310.114800 412.000000
337.099200 480.000000
338.105600 2916.000000
339.111300 1268.000000
349.104600 1016.000000
350.093400 1876.000000
351.098400 440.000000
352.107800 4816.000000
353.110200 1368.000000
367.116900 780.000000
368.098100 324.000000
368.116800 396.000000
380.141000 1152.000000
381.145200 440.000000
395.149600 1704.000000
396.156200 772.000000
423.154500 1904.000000
424.160200 512.000000

