>compound AU08611681
>parentmass 489.04349999999994
>ionization [M+H]+
>formula C21H11ClF6N2O3
>rt 769.420000
>profile qtof
#smiles_iso C1=CC(=C(C(=C1)F)C(=O)NC(=O)NC2=C(C=C(C=C2)OC3=C(C=C(C=C3)C(F)(F)F)Cl)F)F
#smiles_can C1=CC(=C(C(=C1)F)C(=O)NC(=O)NC2=C(C=C(C=C2)OC3=C(C=C(C=C3)C(F)(F)F)Cl)F)F
#inchikey RYLHNOVXKPXDIP-UHFFFAOYSA-N
#pubchem_id 91766
#mb_accession AU233401,AU233402,AU233403,AU233404,AU233405,AU233406

>ms2
141.013100 708.000000
158.039700 5624.000000
159.042300 636.000000
489.042500 13548.000000
490.046100 3600.000000
491.040200 5396.000000

>ms2
133.083300 324.000000
141.013600 3704.000000
142.018000 564.000000
158.040100 23748.000000
159.042700 2140.000000
306.030900 724.000000
489.044200 1400.000000
490.041200 392.000000

>ms2
133.084700 428.000000
140.030400 316.000000
141.013600 8404.000000
142.016300 932.000000
158.039900 29144.000000
159.043700 2260.000000
165.090300 312.000000
306.030400 780.000000
308.025900 344.000000

>ms2
140.030100 504.000000
141.012900 15660.000000
142.015700 1148.000000
158.039300 19172.000000
159.043100 1272.000000
306.028300 744.000000
308.029700 300.000000

>ms2
140.030200 524.000000
141.013700 16156.000000
142.016900 1296.000000
158.039900 9560.000000
159.042800 568.000000

>ms2
141.013400 3256.000000
158.040400 14216.000000
159.043000 1320.000000

