>compound AU08842475
>parentmass 345.0767
>ionization [M+H]+
>formula C15H18Cl2N2O3
>rt 743.088000
>profile qtof
#smiles_iso CC(C)OC1=C(C=C(C(=C1)N2C(=O)OC(=N2)C(C)(C)C)Cl)Cl
#smiles_can CC(C)OC1=C(C=C(C(=C1)N2C(=O)OC(=N2)C(C)(C)C)Cl)Cl
#inchikey CHNUNORXWHYHNE-UHFFFAOYSA-N
#pubchem_id 29732
#mb_accession AU262601,AU262602,AU262603,AU262605,AU262606

>ms2
219.955700 1484.000000
221.953300 660.000000
223.063100 564.000000
237.079500 856.000000
250.999200 316.000000
297.082100 24056.000000
298.083300 6608.000000
299.063200 2500.000000
299.076600 2340.000000
300.058200 568.000000
301.060200 376.000000
303.029400 20948.000000
304.031700 2392.000000
305.026800 12828.000000
306.028900 944.000000
323.041000 336.000000
345.076600 32828.000000
346.080000 5872.000000
347.073900 19520.000000

>ms2
133.084800 432.000000
148.954400 336.000000
174.991100 720.000000
175.965700 872.000000
176.949300 6044.000000
177.956500 484.000000
178.946800 3500.000000
182.994800 1052.000000
183.977900 1872.000000
184.986200 6880.000000
185.977100 372.000000
185.990600 356.000000
186.983500 1324.000000
195.067600 356.000000
201.943500 516.000000
203.942800 456.000000
218.969900 1056.000000
219.955600 49016.000000
220.958700 3768.000000
221.952200 27484.000000
222.955800 1700.000000
223.064300 2064.000000
223.948400 332.000000
224.065600 844.000000
225.043200 536.000000
237.076400 1344.000000
239.057800 428.000000
250.999600 332.000000
252.995700 320.000000
259.039900 660.000000
261.032900 556.000000
267.049100 528.000000
281.050500 2292.000000
282.051200 564.000000
283.031900 376.000000
283.047700 320.000000
297.081800 7948.000000
299.061400 30008.000000
300.062200 8272.000000
301.058200 3148.000000
303.029500 38356.000000
304.032900 4648.000000
305.026400 22028.000000
306.030700 2332.000000
323.038300 656.000000
328.076900 320.000000
345.076300 10092.000000
346.079700 2196.000000
347.074400 6104.000000

>ms2
128.996000 524.000000
139.003300 356.000000
139.988800 416.000000
140.972700 740.000000
147.971000 840.000000
148.954800 2316.000000
149.968200 524.000000
150.951200 1448.000000
154.997100 320.000000
155.983600 944.000000
157.979700 532.000000
173.949200 1300.000000
175.946100 860.000000
175.965900 1608.000000
176.949200 29184.000000
177.952500 2092.000000
178.946400 16456.000000
179.949200 652.000000
182.994300 1528.000000
183.978200 8584.000000
184.002000 628.000000
184.986200 33196.000000
185.977600 2292.000000
185.989500 3428.000000
186.982800 7548.000000
187.986500 432.000000
195.068500 304.000000
201.945400 2748.000000
202.950100 1064.000000
202.974300 588.000000
203.941200 1596.000000
204.948100 488.000000
207.031400 304.000000
218.970500 620.000000
219.955400 37060.000000
220.959000 4016.000000
221.952300 20164.000000
222.955400 1116.000000
223.062500 1636.000000
223.952700 344.000000
224.066800 500.000000
225.041700 3184.000000
226.042300 908.000000
233.037600 484.000000
237.078300 2244.000000
238.080800 548.000000
239.073300 352.000000
246.964000 352.000000
265.018400 340.000000
266.999300 564.000000
281.050800 2648.000000
282.051400 852.000000
283.029300 2780.000000
284.028800 588.000000
285.022900 356.000000
285.031600 316.000000
299.060800 34028.000000
300.061800 9688.000000
301.059200 3828.000000
303.028400 3296.000000
304.033400 664.000000
305.026300 2168.000000
345.071900 364.000000

>ms2
112.977800 556.000000
114.975600 476.000000
120.959700 480.000000
122.022900 868.000000
122.957200 312.000000
127.989500 808.000000
128.996100 5400.000000
129.980900 1152.000000
129.999800 484.000000
130.992900 1424.000000
131.976300 360.000000
139.989300 408.000000
140.972500 4604.000000
140.994200 516.000000
141.974200 428.000000
142.969900 1396.000000
145.953800 480.000000
147.969500 748.000000
148.001900 612.000000
148.954000 10752.000000
149.958700 728.000000
150.951400 6040.000000
155.983100 2792.000000
156.991100 760.000000
157.981400 520.000000
163.964800 568.000000
165.963200 448.000000
173.949500 3412.000000
175.945900 1864.000000
176.948800 15164.000000
177.953000 1100.000000
178.945500 9072.000000
179.949800 564.000000
183.978200 1720.000000
184.000900 736.000000
184.986200 21384.000000
185.976400 520.000000
185.989700 2240.000000
186.983300 5432.000000
191.000000 332.000000
201.944000 528.000000
202.951800 1408.000000
204.949500 476.000000
207.030900 784.000000
209.010000 700.000000
219.956600 704.000000
221.950000 444.000000
223.025800 544.000000
223.062800 1392.000000
225.041200 6696.000000
226.040700 1492.000000
227.022100 2080.000000
228.019500 672.000000
229.002300 608.000000
229.021700 304.000000
237.080000 312.000000
248.986700 1088.000000
249.990300 412.000000
265.019500 960.000000
266.997400 7464.000000
267.998200 1884.000000
268.998100 608.000000
281.049100 408.000000
283.029300 4624.000000
284.029100 1460.000000
285.008000 544.000000
285.027700 588.000000
299.063800 1380.000000
300.061200 432.000000

>ms2
57.069600 1856.000000
140.971900 496.000000
147.970500 756.000000
148.955400 680.000000
155.984200 1024.000000
173.948500 756.000000
175.947800 752.000000
175.965200 1364.000000
176.949800 20360.000000
177.954300 1292.000000
178.946700 10316.000000
179.952000 600.000000
180.943100 348.000000
182.994300 696.000000
183.978200 6056.000000
184.003700 504.000000
184.986800 25056.000000
185.975400 968.000000
185.987800 1788.000000
186.984100 4856.000000
187.984900 384.000000
191.958800 352.000000
195.066500 348.000000
201.945800 1940.000000
202.950500 608.000000
202.978000 316.000000
203.942200 1416.000000
204.950600 328.000000
218.970800 936.000000
219.956000 38324.000000
220.959400 2920.000000
221.952800 19044.000000
222.956000 1672.000000
223.062500 1732.000000
225.042400 2916.000000
226.043100 588.000000
227.022000 544.000000
227.042900 548.000000
237.079200 1288.000000
238.075500 312.000000
239.075900 372.000000
259.042300 396.000000
261.036300 336.000000
265.017600 364.000000
267.001100 460.000000
281.050700 2116.000000
282.055900 420.000000
283.029600 2440.000000
284.033400 720.000000
285.028300 544.000000
297.082200 1368.000000
298.085600 324.000000
299.061400 36640.000000
300.061800 7728.000000
301.059900 4152.000000
303.029500 11656.000000
304.033800 1412.000000
305.028100 6552.000000
306.030600 644.000000
345.077800 2756.000000
346.081300 552.000000
347.075500 1456.000000

