>compound AU08765415
>parentmass 253.0972
>ionization [M+H]+
>formula C15H12N2O2
>rt 354.000000
>profile qtof
#smiles_iso C1=CC=C2C(=C1)C3C(O3)C4=CC=CC=C4N2C(=O)N
#smiles_can C1=CC=C2C(=C1)C3C(O3)C4=CC=CC=C4N2C(=O)N
#inchikey ZRWWEEVEIOGMMT-UHFFFAOYSA-N
#pubchem_id 2555
#mb_accession AU203801,AU203802,AU203803,AU203804,AU203805

>ms2peaks
180.080000 46564.000000
181.082900 8040.000000
208.075100 9540.000000
209.078500 1844.000000
210.091100 235932.000000
211.094300 28352.000000
212.097400 2192.000000
236.070500 75952.000000
237.073400 12428.000000
253.097100 223216.000000

>ms2peaks
167.071500 2568.000000
180.080000 481332.000000
181.082900 78244.000000
182.095300 112820.000000
183.098700 13300.000000
192.079500 3856.000000
208.075000 21412.000000
209.078100 3176.000000
210.090800 421400.000000
211.094300 45668.000000
212.097400 2984.000000
236.070000 20112.000000
237.073400 3732.000000

>ms2peaks
165.068500 6428.000000
167.071800 25400.000000
168.075600 4068.000000
179.071600 4676.000000
180.080200 773916.000000
181.082900 112240.000000
182.095800 240648.000000
183.098800 23340.000000
192.079900 4148.000000
208.074800 5120.000000
210.091100 101192.000000
211.094300 12824.000000

>ms2peaks
153.067400 6388.000000
167.072200 79664.000000
168.075400 9884.000000
180.080100 1099960.000000
181.082900 116068.000000
182.095300 90312.000000
183.098800 9468.000000

>ms2peaks
128.048500 6144.000000
151.053500 5068.000000
152.061100 61188.000000
154.065000 5080.000000
167.072000 99400.000000
168.075300 13064.000000
180.080100 969912.000000
181.082900 87764.000000

