>compound AU08368699
>parentmass 203.062
>ionization [M+H]+
>formula C12H11OP
>rt 391.530000
>profile qtof
#smiles_iso C1=CC=C(C=C1)P(=O)C2=CC=CC=C2
#smiles_can C1=CC=C(C=C1)P(=O)C2=CC=CC=C2
#inchikey ASUOLLHGALPRFK-UHFFFAOYSA-N
#pubchem_id 254003
#mb_accession AU249401,AU249402,AU249403,AU249404,AU249405,AU249406

>ms2peaks
203.061900 168724.000000
204.064400 25052.000000
205.068200 1468.000000

>ms2peaks
125.014600 10180.000000
126.018700 856.000000
183.035300 560.000000
203.061900 87048.000000
204.064800 14852.000000
205.068700 888.000000

>ms2peaks
125.014600 3536.000000
183.036200 444.000000
203.061600 3540.000000
204.064700 548.000000

>ms2peaks
125.015500 836.000000
183.035600 1060.000000
203.062300 372.000000

>ms2peaks
152.060900 384.000000

>ms2peaks
46.967900 668.000000
125.014500 3656.000000
183.037300 356.000000
203.061800 29584.000000
204.063800 3988.000000

