>compound AU09162658
>parentmass 271.0415
>ionization [M+H]+
>formula C10H11ClN4OS
>rt 286.680000
>profile qtof
#smiles_iso C1CS/C(=N\C(=O)N)/N1CC2=CN=C(C=C2)Cl
#smiles_can C1CSC(=NC(=O)N)N1CC2=CN=C(C=C2)Cl
#inchikey LEZHOZPJYAQQNU-UVTDQMKNSA-N
#pubchem_id 16212161
#mb_accession AU208006

>ms2
90.033600 3176.000000
101.017100 4328.000000
103.032200 2848.000000
126.009800 324536.000000
127.013000 27108.000000
128.006700 95484.000000
129.010400 7012.000000
132.054600 4240.000000
144.019200 3584.000000
165.046300 2064.000000
168.030600 7044.000000
186.012900 24816.000000
187.017400 2008.000000
188.009500 7744.000000
192.057800 20968.000000
211.008000 2832.000000
228.035100 189292.000000
229.037500 18104.000000
230.032100 55348.000000
231.034800 3140.000000
254.014500 65768.000000
255.016700 6912.000000
256.011600 20592.000000
271.041100 3864.000000

