>compound AU09811612
>parentmass 254.0594
>ionization [M+H]+
>formula C10H11N3O3S
>rt 270.000000
>profile qtof
#smiles_iso CC1=CC(=NO1)NS(=O)(=O)C2=CC=C(C=C2)N
#smiles_can CC1=CC(=NO1)NS(=O)(=O)C2=CC=C(C=C2)N
#inchikey JLKIGFTWXXRPMT-UHFFFAOYSA-N
#pubchem_id 5329
#mb_accession AU101802,AU101803,AU101804,AU101805,AU101806

>ms2
108.044800 584.000000
132.066800 864.000000
146.070000 4976.000000
147.077700 13372.000000
148.085000 3516.000000
156.010100 113212.000000
157.013100 8032.000000
158.006200 4900.000000
160.085500 13404.000000
160.999800 1620.000000
161.089100 1200.000000
176.026300 1260.000000
188.080600 11560.000000
189.083500 1420.000000
190.096300 3068.000000
194.037200 2164.000000
254.058900 21824.000000
255.060100 2668.000000
256.053700 964.000000

>ms2
108.043500 868.000000
119.060500 484.000000
121.075200 348.000000
130.053100 312.000000
131.058700 496.000000
132.067400 364.000000
133.061900 512.000000
133.074100 552.000000
143.059500 764.000000
146.069800 3948.000000
147.078000 5584.000000
148.085500 1476.000000
156.010300 19508.000000
157.013200 2132.000000
158.006500 880.000000
159.053700 328.000000
160.085800 8040.000000
161.000500 852.000000
161.090000 736.000000
173.058100 492.000000
176.027100 804.000000
188.081700 652.000000

>ms2
108.044000 508.000000
119.058600 304.000000
121.074400 360.000000
131.059800 432.000000
133.070600 380.000000
143.060800 528.000000
145.061400 372.000000
146.070700 2536.000000
147.077800 2016.000000
156.011000 2900.000000
157.013100 344.000000
159.077300 452.000000
160.085700 2004.000000

>ms2
119.060500 380.000000
129.043000 328.000000
146.070300 1752.000000
147.077300 596.000000
159.078100 380.000000

>ms2
147.078000 4228.000000
148.085900 2232.000000
156.009900 33164.000000
157.012900 2136.000000
190.096400 5904.000000
194.037000 2236.000000
254.059200 341432.000000

