>compound AU09699148
>parentmass 196.0604
>ionization [M+H]+
>formula C9H9NO4
>rt 206.484000
>profile qtof
#smiles_iso CC(=O)NC1=CC(=C(C=C1)O)C(=O)O
#smiles_can CC(=O)NC1=CC(=C(C=C1)O)C(=O)O
#inchikey GEFDRROBUCULOD-UHFFFAOYSA-N
#pubchem_id 65512
#mb_accession AU272501,AU272502,AU272503,AU272504,AU272506

>ms2
136.038100 2800.000000
152.068300 804.000000
154.049700 336.000000
178.048700 20500.000000
179.051500 2384.000000
195.050400 300.000000
196.059000 31880.000000
197.062800 2704.000000
198.063800 380.000000

>ms2
136.038100 17160.000000
137.041700 1852.000000
149.057900 400.000000
150.053900 484.000000
152.068800 876.000000
154.048200 448.000000
178.048500 11320.000000
179.051400 1408.000000
196.059100 2528.000000

>ms2
136.038300 5884.000000
137.042400 396.000000
150.054700 404.000000
154.049500 368.000000
178.048000 1112.000000

>ms2
136.038200 388.000000

>ms2
108.045800 948.000000
117.054300 316.000000
136.038200 15444.000000
137.041800 1176.000000
150.055100 496.000000
152.069200 1112.000000
154.048800 2920.000000
155.054000 332.000000
178.048800 12076.000000
179.052100 1044.000000
196.059500 8456.000000
197.065800 676.000000

