>compound AU09237972
>parentmass 256.0596
>ionization [M+H]+
>formula C9H10ClN5O2
>rt 277.280000
>profile qtof
#smiles_iso C1CN(C(=N1)N[N+](=O)[O-])CC2=CN=C(C=C2)Cl
#smiles_can C1CN(C(=N1)N[N+](=O)[O-])CC2=CN=C(C=C2)Cl
#inchikey YWTYJOPNNQFBPC-UHFFFAOYSA-N
#pubchem_id 86418
#mb_accession AU303601,AU303602,AU303603,AU303604,AU303605,AU303606

>ms2
128.025400 1960.000000
174.089100 7328.000000
175.096800 57444.000000
209.058300 56844.000000
210.065500 54868.000000
211.055500 16056.000000
212.059300 36324.000000
213.061300 3040.000000
214.045500 8196.000000
226.060500 1328.000000
256.059400 193744.000000
257.061700 16804.000000
258.056400 48156.000000
259.058500 2636.000000

>ms2
126.009200 3480.000000
128.006400 1148.000000
128.025000 11700.000000
130.022200 3616.000000
146.069500 1672.000000
147.064800 1124.000000
151.017200 1860.000000
167.023700 1272.000000
173.081300 3320.000000
174.089100 22988.000000
175.096900 223540.000000
176.081900 1204.000000
181.026400 1292.000000
194.044700 1188.000000
195.035400 1192.000000
209.058300 147340.000000
210.063800 25656.000000
211.055000 39088.000000
212.059300 24880.000000
213.061300 1688.000000
214.054500 5564.000000
256.059400 4140.000000
257.061700 536.000000
258.056400 1384.000000

>ms2
126.009800 6976.000000
127.016800 1720.000000
128.024900 8724.000000
133.062800 2556.000000
133.075000 3212.000000
134.070000 2676.000000
139.005500 1220.000000
141.020300 2520.000000
146.058100 2736.000000
146.069900 9256.000000
147.065200 9124.000000
148.085700 3672.000000
151.016900 1420.000000
158.070000 3464.000000
159.065000 1612.000000
159.077500 5292.000000
167.022800 1484.000000
167.036000 3548.000000
175.097000 232888.000000
180.030200 1848.000000
193.039500 1340.000000
194.046800 2132.000000
209.058300 134400.000000
210.063800 12832.000000
211.055000 37040.000000
212.059300 24880.000000

>ms2
113.002100 584.000000
118.051900 1168.000000
119.047200 1232.000000
119.059400 2040.000000
120.055000 2492.000000
121.061800 764.000000
122.070700 780.000000
126.009600 5436.000000
127.016900 1580.000000
128.025200 3444.000000
129.014300 540.000000
131.046600 856.000000
131.059300 3804.000000
132.054900 2292.000000
132.066000 1536.000000
133.062300 7232.000000
133.075000 5236.000000
134.070400 5244.000000
135.077500 1932.000000
138.009500 496.000000
139.004700 1468.000000
140.025800 728.000000
141.020900 5072.000000
145.050100 1176.000000
147.065500 17828.000000
148.070700 2008.000000
148.085600 8312.000000
149.088000 656.000000
151.016500 660.000000
152.012900 728.000000
153.021200 660.000000
154.015700 716.000000
155.036100 748.000000
157.062500 2928.000000
158.070300 8388.000000
159.077700 15200.000000
160.083600 1708.000000
165.019900 612.000000
166.016300 1832.000000
167.019900 564.000000
167.036400 3428.000000
168.013000 688.000000
168.032700 516.000000
169.033800 1304.000000
172.073000 572.000000
175.097000 95296.000000
180.018100 1300.000000
180.031700 1328.000000
181.026700 5308.000000
182.015100 596.000000
182.029800 1132.000000
183.023700 1720.000000
191.092100 2572.000000
193.027300 568.000000
193.040300 552.000000
194.046800 3256.000000
196.044500 976.000000
207.041800 1004.000000
209.058300 84048.000000
210.063800 9452.000000
211.055000 24092.000000
212.059300 1368.000000

>ms2
113.003200 360.000000
117.043900 880.000000
117.055600 540.000000
118.038500 804.000000
118.052000 2728.000000
119.047000 1920.000000
119.059600 4600.000000
120.054800 5616.000000
121.061600 1004.000000
121.075500 384.000000
122.069900 1148.000000
125.996700 448.000000
126.009600 3284.000000
127.017300 2016.000000
128.007700 880.000000
128.025100 748.000000
129.014200 668.000000
129.044800 680.000000
130.023800 340.000000
130.038900 932.000000
131.046700 848.000000
131.059100 6492.000000
132.055000 3108.000000
132.066200 2716.000000
133.062000 8284.000000
133.074800 4272.000000
134.070400 4660.000000
135.054100 416.000000
135.077500 2056.000000
137.996100 300.000000
138.008800 700.000000
139.004800 2328.000000
140.011300 316.000000
140.025700 764.000000
141.002300 628.000000
141.020000 5436.000000
142.025200 488.000000
143.017000 1604.000000
144.019500 700.000000
144.054800 448.000000
145.049800 3136.000000
146.070300 12984.000000
147.065400 17876.000000
148.049500 460.000000
148.071800 1948.000000
148.085900 6336.000000
149.083200 408.000000
149.087500 512.000000
150.065100 496.000000
151.004900 756.000000
151.014200 500.000000
152.011400 648.000000
153.007700 1936.000000
154.015100 660.000000
155.005800 660.000000
155.036700 372.000000
156.055800 760.000000
157.062400 3816.000000
158.070100 8920.000000
159.077600 17148.000000
160.080800 2032.000000
163.060400 1324.000000
165.020600 1032.000000
166.015400 5108.000000
167.021000 416.000000
167.036100 2144.000000
168.012600 1452.000000
168.030900 536.000000
169.015100 324.000000
169.033600 652.000000
172.073600 1008.000000
173.081100 30908.000000
174.088300 14812.000000
175.096400 21904.000000
180.019000 4408.000000
181.026700 4264.000000
182.014700 1912.000000
182.029100 840.000000
182.046800 340.000000
183.023200 1148.000000
191.091600 3096.000000
192.096700 324.000000
193.025900 708.000000
194.046200 2052.000000
196.043800 520.000000
207.042000 2112.000000
208.049900 5488.000000
209.058300 32768.000000
210.049000 1668.000000
210.063800 4056.000000
211.055000 9980.000000
212.059300 632.000000

>ms2
56.048900 7864.000000
72.068200 1544.000000
84.055400 24824.000000
97.063300 1552.000000
99.056100 2244.000000
126.009700 18168.000000
127.013600 1956.000000
128.006300 6152.000000
128.025300 19200.000000
130.021900 5464.000000
133.074400 2328.000000
141.019800 2316.000000
146.057300 2032.000000
146.069800 7288.000000
147.064500 6120.000000
148.085300 3000.000000
151.017100 2640.000000
158.069100 2876.000000
159.076800 3780.000000
167.023900 2280.000000
167.035000 3180.000000
173.080700 11564.000000
174.088600 38416.000000
175.096600 282916.000000
176.099400 26428.000000
181.027000 3496.000000
193.038400 2044.000000
194.045300 2856.000000
209.058000 214536.000000
210.063500 34652.000000
211.054800 70396.000000
212.058300 28896.000000
213.062000 1616.000000
214.054300 3956.000000
256.058700 3188.000000

