>compound AU09657097
>parentmass 202.1802
>ionization [M+H]+
>formula C11H23NO2
>rt 80.904000
>profile qtof
#smiles_iso CC1(CC(CC(N1CCO)(C)C)O)C
#smiles_can CC1(CC(CC(N1CCO)(C)C)O)C
#inchikey STEYNUVPFMIUOY-UHFFFAOYSA-N
#pubchem_id 104301
#mb_accession AU252101,AU252102,AU252103,AU252104,AU252106

>ms2
202.179600 1407552.000000
203.182800 157164.000000
204.185100 12356.000000

>ms2
123.115700 9800.000000
128.105300 2408.000000
146.115800 8356.000000
184.168400 1840.000000
202.179400 262240.000000
203.182200 31436.000000
204.186500 2840.000000

>ms2
121.100700 316.000000
123.115500 6092.000000
124.119400 484.000000
128.105700 2408.000000
141.113800 844.000000
142.120900 444.000000
146.116200 1904.000000
184.168900 1300.000000
202.179000 13596.000000
203.182600 2032.000000

>ms2
121.098900 332.000000
123.115900 1080.000000
128.106400 604.000000
202.177900 532.000000

>ms2
55.053700 3800.000000
57.069400 27600.000000
58.064500 8520.000000
59.048700 6996.000000
60.044100 3000.000000
62.059600 315060.000000
63.062900 5088.000000
67.053800 8232.000000
72.043800 2744.000000
81.069600 22652.000000
83.085300 9368.000000
84.080800 31576.000000
85.064800 92264.000000
86.067900 3872.000000
88.075700 6564.000000
95.086000 2192.000000
102.092500 422036.000000
103.095700 12192.000000
123.116800 16824.000000
128.106500 3836.000000
146.116600 12068.000000
202.179800 340060.000000
203.183300 44936.000000
204.185000 2844.000000

