>compound AU09752196
>parentmass 386.1744
>ionization [M+H]+
>formula C17H27N3O5S
>rt 254.400000
>profile qtof
#smiles_iso CC[N+]1(CCCC1CNC(=O)C2=CC(=C(C=C2OC)N)S(=O)(=O)CC)[O-]
#smiles_can CC[N+]1(CCCC1CNC(=O)C2=CC(=C(C=C2OC)N)S(=O)(=O)CC)[O-]
#inchikey LLIKIPAUZJTRGB-UHFFFAOYSA-N
#pubchem_id 71313372
#mb_accession AU214301,AU214302,AU214303,AU214304,AU214305

>ms2
242.047900 19872.000000
243.050200 1280.000000
386.175000 2319796.000000
387.178200 432740.000000
388.174500 73688.000000

>ms2
127.122100 18372.000000
128.106100 55540.000000
242.047900 1029232.000000
243.050200 81696.000000
244.044700 26184.000000
259.073800 14916.000000
368.163300 25200.000000
386.175000 1987864.000000
387.178200 328160.000000
388.174500 56976.000000

>ms2
127.122100 12036.000000
127.122200 12036.000000
128.106100 24056.000000
196.005200 46772.000000
214.016000 24872.000000
242.048400 2392896.000000
243.050200 338132.000000
244.044700 88036.000000
259.073900 14884.000000
325.121800 7676.000000
368.163300 17596.000000
386.174400 125752.000000
387.178200 23940.000000
388.174500 6016.000000

>ms2
149.046100 33780.000000
168.010200 15768.000000
177.995100 6276.000000
196.005800 430352.000000
214.016400 166016.000000
242.048400 2421316.000000
243.050200 330964.000000
244.044700 76584.000000
259.073700 4600.000000
325.120900 3964.000000

>ms2
132.007000 10748.000000
140.015000 16592.000000
149.046000 172948.000000
168.010200 81340.000000
177.994500 32200.000000
196.005400 1298740.000000
197.008400 91860.000000
198.001600 32688.000000
214.016100 259540.000000
215.019000 18940.000000
216.022300 7436.000000
242.047600 1524184.000000
243.050200 127608.000000
244.044700 31352.000000

