>compound AU09525521
>parentmass 420.0948
>ionization [M+H]+
>formula C15H16F3N5O4S
>rt 525.684000
>profile qtof
#smiles_iso CC1=NC(=NC(=N1)OC)NC(=O)NS(=O)(=O)C2=CC=CC=C2CCC(F)(F)F
#smiles_can CC1=NC(=NC(=N1)OC)NC(=O)NS(=O)(=O)C2=CC=CC=C2CCC(F)(F)F
#inchikey LTUNNEGNEKBSEH-UHFFFAOYSA-N
#pubchem_id 91751
#mb_accession AU261701,AU261702,AU261703,AU261705,AU261706

>ms2
141.076100 13628.000000
167.055100 14372.000000
168.058700 1204.000000
420.094600 154680.000000
421.096800 30920.000000
422.093100 9000.000000

>ms2
141.076400 119496.000000
142.079000 7148.000000
166.071500 3208.000000
167.055400 100420.000000
168.057900 7952.000000
169.058400 768.000000
173.005300 3824.000000
174.007700 708.000000
217.013400 2204.000000
237.019500 2484.000000
377.089800 3404.000000
420.095000 29696.000000
421.097900 7692.000000
422.094500 2060.000000

>ms2
141.075900 90744.000000
142.078100 6508.000000
143.079600 660.000000
166.071400 2980.000000
167.055100 78704.000000
168.057400 5944.000000
169.059600 544.000000
173.006100 9828.000000
174.007800 1288.000000
175.002600 564.000000
215.016700 472.000000
217.011400 2008.000000
237.019300 924.000000
377.090800 2348.000000

>ms2
109.044600 460.000000
133.044200 780.000000
141.075900 24480.000000
142.079000 1684.000000
153.050400 420.000000
166.071300 800.000000
167.055100 21056.000000
168.058100 2112.000000
173.005200 5552.000000
174.009800 544.000000
181.055800 348.000000

>ms2
56.049400 1744.000000
57.044300 556.000000
109.045600 1932.000000
141.076400 100772.000000
142.078700 6544.000000
166.071200 3464.000000
167.055400 77188.000000
168.058300 6096.000000
169.060600 512.000000
173.005700 9912.000000
174.007700 1000.000000
175.001100 672.000000
215.016600 596.000000
217.012200 2136.000000
237.018600 1312.000000
377.089500 1460.000000
420.095100 2792.000000

