>compound AU09824838
>parentmass 222.04289999999997
>ionization [M+H]+
>formula C10H8ClN3O
>rt 318.390000
>profile qtof
#smiles_iso C1=CC=C(C=C1)N2C(=O)C(=C(C=N2)N)Cl
#smiles_can C1=CC=C(C=C1)N2C(=O)C(=C(C=N2)N)Cl
#inchikey WYKYKTKDBLFHCY-UHFFFAOYSA-N
#pubchem_id 15546
#mb_accession AU231701,AU231702,AU231703,AU231704,AU231705,AU231706,AU330002,AU330003,AU330004,AU330005

>ms2
222.042600 1713520.000000
223.045600 147772.000000
224.039900 423092.000000

>ms2
128.984100 18944.000000
146.010500 18032.000000
186.065200 19468.000000
193.027600 16052.000000
222.042500 2080176.000000
223.045400 188740.000000
224.039600 528176.000000

>ms2
119.059400 4880.000000
128.984100 40716.000000
129.987600 2288.000000
130.064000 12284.000000
130.981300 13816.000000
131.059700 8408.000000
132.043600 7844.000000
132.066500 2228.000000
140.025300 2072.000000
141.043600 1792.000000
141.055700 2156.000000
142.051600 4356.000000
143.058300 2396.000000
146.010500 59808.000000
147.013600 2696.000000
148.007600 16356.000000
149.013900 8608.000000
150.009300 10752.000000
151.011800 3628.000000
152.006700 2944.000000
158.059100 4372.000000
158.067500 3588.000000
159.054100 10296.000000
159.076800 3444.000000
160.061300 3664.000000
169.038300 2752.000000
177.020300 3856.000000
178.004300 3436.000000
186.065000 17296.000000
187.071000 2916.000000
193.027700 29676.000000
194.031900 4040.000000
195.026600 11224.000000
205.016300 7220.000000
207.012300 2604.000000
222.042300 355560.000000
223.045200 36052.000000
224.039400 95032.000000

>ms2
113.037300 364.000000
114.034400 824.000000
114.046100 924.000000
115.039300 676.000000
115.052700 984.000000
116.049100 732.000000
116.997100 2108.000000
117.055800 1084.000000
118.050600 312.000000
118.995500 948.000000
119.058700 2144.000000
120.043500 568.000000
122.998700 2700.000000
124.995300 740.000000
125.014800 1188.000000
128.048500 1132.000000
128.983600 17016.000000
129.055300 1400.000000
129.986900 824.000000
130.063600 15992.000000
130.980800 5612.000000
130.998900 552.000000
131.059300 7252.000000
132.043700 5884.000000
132.065500 3096.000000
133.050700 1440.000000
138.008300 684.000000
140.024600 1304.000000
140.048100 3612.000000
141.055600 5452.000000
142.021900 348.000000
142.051400 4916.000000
143.034300 424.000000
143.058700 1824.000000
144.043300 516.000000
144.065900 508.000000
145.074900 624.000000
146.010000 42768.000000
147.013100 2600.000000
147.053500 436.000000
148.006800 16656.000000
149.013600 7060.000000
150.008800 13592.000000
151.011400 3160.000000
152.006800 3292.000000
153.009200 316.000000
156.044900 460.000000
157.052000 416.000000
158.058300 3364.000000
159.054000 3788.000000
159.076000 976.000000
160.061600 1676.000000
164.025200 736.000000
166.004500 832.000000
167.014700 408.000000
168.021400 600.000000
169.036900 2008.000000
170.044100 416.000000
176.002600 568.000000
176.024400 1300.000000
177.017500 964.000000
178.003900 896.000000
179.017100 552.000000
180.003000 336.000000
186.064400 3632.000000
187.068100 492.000000
193.027500 8792.000000
194.032400 1056.000000
195.025500 3484.000000
205.016400 968.000000
207.015300 504.000000
222.041300 19216.000000
223.043500 2668.000000
224.038800 6952.000000

>ms2
113.038000 616.000000
114.032600 1136.000000
114.046500 752.000000
115.040700 504.000000
115.054100 648.000000
116.047700 544.000000
116.996500 2540.000000
117.055700 584.000000
118.995800 600.000000
119.059600 808.000000
122.998800 4840.000000
124.002100 388.000000
124.996000 1540.000000
125.013300 1104.000000
128.049200 768.000000
128.983700 4012.000000
129.042900 564.000000
129.055400 796.000000
130.064300 8588.000000
130.980800 1720.000000
131.059600 3808.000000
132.043300 1956.000000
132.065700 1192.000000
133.050200 896.000000
140.025800 364.000000
140.048600 4816.000000
141.055700 3660.000000
142.051100 2272.000000
143.034400 436.000000
143.061400 588.000000
146.010400 19132.000000
147.014000 1156.000000
148.007200 7232.000000
149.013600 4556.000000
150.009100 6244.000000
151.011200 1672.000000
152.006700 1740.000000
156.044800 556.000000
157.060700 400.000000
158.058000 1080.000000
158.069800 616.000000
159.053800 1676.000000
160.061100 488.000000
164.024000 592.000000
166.021800 452.000000
186.067700 820.000000
193.027900 992.000000
195.027800 408.000000
222.041500 912.000000
224.039500 304.000000

>ms2
65.038900 720.000000
92.049300 1024.000000
104.049800 1032.000000
128.984300 3508.000000
130.064100 568.000000
130.981700 656.000000
131.061100 484.000000
132.043400 496.000000
146.010800 2444.000000
148.007700 548.000000
159.055300 716.000000
186.066200 1352.000000
193.027400 1808.000000
194.035600 532.000000
195.028800 732.000000
207.021800 500.000000
222.042900 88392.000000
223.045400 7928.000000
224.039900 24168.000000

>ms2
186.064900 6720.000000
222.042400 700508.000000
223.045200 60408.000000
224.039500 171496.000000
225.042200 13984.000000

>ms2
119.059200 1400.000000
120.044100 840.000000
128.984100 15920.000000
130.063900 4392.000000
131.060100 2564.000000
132.043300 3392.000000
132.066500 880.000000
135.044000 672.000000
140.024800 644.000000
141.043200 696.000000
142.050900 1292.000000
143.059400 700.000000
144.055500 528.000000
146.010400 18320.000000
148.007800 5988.000000
149.013900 2724.000000
150.009300 3828.000000
151.011800 1400.000000
152.006300 1008.000000
158.058900 1108.000000
158.068500 1412.000000
159.053500 3552.000000
159.075300 1032.000000
160.060800 1288.000000
169.037900 820.000000
177.019700 1576.000000
178.003000 848.000000
180.000500 548.000000
186.065700 6004.000000
193.028000 10732.000000
194.032000 1008.000000
195.026100 3376.000000
197.029800 732.000000
205.015200 2520.000000
207.011100 804.000000
222.042400 105560.000000
223.045200 12828.000000
224.039500 30712.000000
225.042200 2120.000000

>ms2
114.034000 488.000000
116.997100 644.000000
117.057400 336.000000
119.061100 648.000000
122.999700 1236.000000
124.997100 336.000000
125.013100 320.000000
128.984300 6000.000000
129.056600 452.000000
130.064000 4624.000000
131.059700 1876.000000
132.044200 1812.000000
132.066500 796.000000
133.051200 492.000000
140.024600 324.000000
140.048700 324.000000
141.044500 524.000000
142.052200 1316.000000
143.036500 320.000000
143.061300 560.000000
146.011000 12244.000000
149.014400 1568.000000
150.009900 2944.000000
151.013200 544.000000
152.007100 996.000000
158.060000 560.000000
159.055000 912.000000
159.075600 480.000000
160.062000 672.000000
164.024700 348.000000
169.042700 340.000000
177.017400 376.000000
178.002900 372.000000
186.065300 792.000000
193.027800 3308.000000
194.033500 328.000000
195.024900 776.000000
222.042400 6376.000000
223.045200 872.000000
224.039500 1752.000000

>ms2
114.033400 484.000000
116.047900 316.000000
116.996500 604.000000
117.055600 364.000000
122.999200 1392.000000
128.047700 456.000000
128.983800 1084.000000
130.064200 2816.000000
131.059500 1088.000000
132.042100 708.000000
133.049700 312.000000
142.052600 388.000000
146.010500 5104.000000
148.007300 1984.000000
149.014400 436.000000
150.009500 2024.000000
151.012500 364.000000
158.068000 368.000000
159.054000 416.000000

