>compound AU10230246
>parentmass 273.1849
>ionization [M+H]+
>formula C18H24O2
>rt 721.740000
>profile qtof
#smiles_iso C[C@]12CC[C@H]3[C@H]([C@@H]1CC[C@H]2O)CCC4=C3C=CC(=C4)O
#smiles_can CC12CCC3C(C1CCC2O)CCC4=C3C=CC(=C4)O
#inchikey VOXZDWNPVJITMN-SFFUCWETSA-N
#pubchem_id 68570
#mb_accession AU281701,AU281702,AU281703,AU281704,AU281705,AU281706

>ms2
191.082200 332.000000
224.063500 2364.000000
255.172900 800.000000
271.168300 492.000000
273.184400 17260.000000
274.187700 4096.000000
275.191700 340.000000

>ms2
175.110100 428.000000
191.085000 320.000000
224.063500 1412.000000
225.125600 392.000000
226.041900 852.000000
227.180000 320.000000
240.148900 872.000000
255.173300 11164.000000
256.178000 3000.000000
273.184300 13072.000000
274.185900 2876.000000

>ms2
157.099800 2640.000000
161.094900 344.000000
175.109800 688.000000
185.094500 1656.000000
191.088700 376.000000
197.131500 576.000000
203.107800 436.000000
208.033300 332.000000
211.109800 408.000000
212.156000 1892.000000
213.158700 416.000000
225.126100 2696.000000
226.043000 2416.000000
226.134300 1048.000000
227.178500 1208.000000
228.025200 404.000000
240.150200 4532.000000
241.154200 956.000000
255.173200 11068.000000
256.176100 2232.000000
273.187000 1200.000000
274.191100 336.000000

>ms2
128.065000 316.000000
129.068300 1132.000000
141.068500 320.000000
142.077000 888.000000
143.083300 460.000000
155.084700 388.000000
157.064600 424.000000
157.100100 2100.000000
158.104000 356.000000
182.107000 444.000000
183.117000 604.000000
185.095600 1124.000000
191.085000 356.000000
197.131000 2748.000000
198.138500 952.000000
211.109800 604.000000
212.155300 2148.000000
213.158700 660.000000
225.126800 5664.000000
226.044100 1588.000000
226.130500 1260.000000
227.177500 796.000000
228.021700 808.000000
240.150200 1652.000000
241.152500 376.000000
255.172700 1360.000000
256.177600 420.000000

>ms2
128.060700 788.000000
129.068600 1144.000000
141.068800 592.000000
142.078500 736.000000
143.083000 452.000000
153.068900 360.000000
155.083500 928.000000
156.090600 484.000000
157.099400 1404.000000
167.083200 880.000000
168.092700 680.000000
169.097900 624.000000
170.105600 384.000000
182.108100 1404.000000
183.115500 864.000000
195.080700 304.000000
197.132000 3996.000000
198.134400 796.000000
210.008900 380.000000
210.102800 804.000000
211.110600 664.000000
212.153700 628.000000
225.126200 3184.000000
226.043100 440.000000
226.131400 664.000000
228.021400 880.000000
240.150300 440.000000

>ms2
157.099500 880.000000
175.112300 404.000000
185.094600 776.000000
203.107300 412.000000
212.155100 928.000000
224.064900 708.000000
225.127300 1352.000000
226.041100 1592.000000
226.134800 832.000000
227.180500 656.000000
240.150800 2312.000000
241.156100 384.000000
255.173800 9268.000000
256.178800 1996.000000
273.184900 6696.000000
274.190200 1180.000000

