>compound AU10877244
>parentmass 213.1386
>ionization [M+H]+
>formula C14H16N2
>rt 338.900000
>profile qtof
#smiles_iso CC1=C(C=CC(=C1)C2=CC(=C(C=C2)N)C)N
#smiles_can CC1=C(C=CC(=C1)C2=CC(=C(C=C2)N)C)N
#inchikey NUIURNJTPRWVAP-UHFFFAOYSA-N
#pubchem_id 8413
#mb_accession AU243401,AU243402,AU243403,AU243404,AU243405,AU243406

>ms2
196.111000 11944.000000
198.114100 8528.000000
211.122200 11688.000000
212.130400 767636.000000
213.137600 1226060.000000
214.141000 120612.000000
215.144000 8908.000000

>ms2
179.083700 5892.000000
180.079600 27292.000000
181.087400 79132.000000
182.090500 11984.000000
194.095500 4820.000000
195.102500 4932.000000
196.111100 214504.000000
197.113000 35280.000000
198.114200 142460.000000
199.117200 18500.000000
211.122100 42236.000000
212.130100 902692.000000
213.137000 502360.000000
214.140600 56328.000000

>ms2
120.079800 3176.000000
130.064000 2404.000000
131.072000 1976.000000
132.077900 1620.000000
141.068400 1492.000000
143.071400 1636.000000
144.080200 3156.000000
152.060400 6332.000000
153.068400 5760.000000
154.065000 2140.000000
154.074600 2360.000000
156.079400 4024.000000
157.086500 3968.000000
164.061000 2488.000000
165.068500 9264.000000
166.071200 1848.000000
167.071100 3268.000000
167.081600 1724.000000
168.079100 4884.000000
169.086700 6540.000000
170.095000 9396.000000
171.101800 2808.000000
177.069000 1548.000000
178.076100 13572.000000
179.083500 12224.000000
180.079600 152232.000000
181.087100 178180.000000
182.090000 27184.000000
183.090100 6644.000000
184.110200 7108.000000
185.116700 2336.000000
193.087200 1600.000000
194.095200 20308.000000
195.092100 12864.000000
195.100700 15820.000000
196.110100 112420.000000
197.107000 59832.000000
198.113800 108624.000000
199.117100 13968.000000
210.114200 2432.000000
211.122000 116124.000000
212.129700 297712.000000
213.134000 47416.000000
214.138400 4848.000000

>ms2
120.079600 4336.000000
128.060900 5304.000000
130.064300 9860.000000
131.071200 4348.000000
139.053400 3088.000000
141.068700 4288.000000
143.071700 5744.000000
144.079400 7428.000000
151.052600 3044.000000
152.060700 37980.000000
153.068400 35232.000000
154.067100 7784.000000
155.058900 3304.000000
155.070700 3828.000000
156.079700 13388.000000
157.087000 5492.000000
163.053000 9452.000000
164.060300 10864.000000
165.068500 38516.000000
166.070600 6292.000000
167.072000 10300.000000
167.083300 5708.000000
168.079100 16172.000000
169.087300 27252.000000
170.094800 23768.000000
171.099600 4076.000000
176.060800 5760.000000
177.068000 6920.000000
178.076400 41924.000000
179.082600 16420.000000
180.080000 578580.000000
181.086600 201468.000000
182.088300 33200.000000
183.090500 9972.000000
184.111100 14716.000000
193.087300 9096.000000
194.095500 36476.000000
195.091300 59476.000000
196.098800 80016.000000
197.106300 76612.000000
198.113500 46296.000000
199.116900 7196.000000
210.113100 4092.000000
211.122300 85800.000000
212.129000 54448.000000
213.133100 9200.000000

>ms2
115.053700 5020.000000
120.079400 2912.000000
127.053100 3624.000000
128.060700 10108.000000
129.068000 4288.000000
130.064300 13116.000000
131.070600 2948.000000
139.052900 7592.000000
140.048600 3596.000000
141.068500 7208.000000
143.071700 7188.000000
144.079500 6320.000000
150.045100 3336.000000
151.053100 7036.000000
152.061000 81024.000000
153.068100 55164.000000
154.065300 13352.000000
155.060100 6960.000000
155.069400 4552.000000
156.079600 9948.000000
157.085600 3404.000000
163.052900 20284.000000
164.059600 7908.000000
165.068600 41888.000000
166.072200 8528.000000
167.071600 15660.000000
168.079200 27116.000000
169.086900 34832.000000
170.094000 16412.000000
171.097000 2340.000000
176.060800 9616.000000
177.067700 10268.000000
178.076200 23264.000000
179.071800 10876.000000
180.079800 355048.000000
181.084600 61804.000000
182.084100 17484.000000
183.089700 3992.000000
184.110200 4288.000000
192.079400 2448.000000
193.087100 10688.000000
194.095100 21760.000000
195.090800 73980.000000
196.097100 33424.000000
197.104900 17988.000000
198.111800 5208.000000
209.106100 3440.000000
211.121800 12724.000000
212.128000 4300.000000

>ms2
106.066200 3848.000000
107.074200 4084.000000
165.068700 2844.000000
170.096000 2948.000000
178.077000 4480.000000
179.084900 8164.000000
180.080800 49928.000000
181.088200 122564.000000
182.091500 15652.000000
183.091200 2708.000000
194.095800 7304.000000
195.103000 6980.000000
196.111600 169060.000000
197.111400 30340.000000
198.115100 125988.000000
199.118200 14744.000000
211.123200 57768.000000
212.130500 495428.000000
213.137500 324472.000000
214.141700 33368.000000

