>compound AU10353956
>parentmass 198.1349
>ionization [M+H]+
>formula C8H15N5O
>rt 284.780000
>profile qtof
#smiles_iso CCNC1=NC(=O)NC(=N1)NC(C)C
#smiles_can CCNC1=NC(=O)NC(=N1)NC(C)C
#inchikey NFMIMWNQWAWNDW-UHFFFAOYSA-N
#pubchem_id 135398733
#mb_accession AU255001,AU255002,AU255003,AU255004,AU255005,AU255006

>ms2peaks
156.087100 143712.000000
198.135000 2382876.000000
199.137300 240200.000000

>ms2peaks
114.065700 34520.000000
128.055900 14156.000000
128.081100 36916.000000
156.087100 1598036.000000
157.089400 68616.000000
198.134300 1180152.000000
199.136900 78792.000000

>ms2peaks
114.065600 32276.000000
115.068600 2056.000000
128.055700 20160.000000
128.080800 6828.000000
138.076500 4860.000000
139.060100 4252.000000
156.087100 303128.000000
157.089100 19264.000000
198.134000 25088.000000
199.137200 2952.000000

>ms2peaks
113.081800 464.000000
114.065200 7132.000000
128.055500 5172.000000
128.080000 896.000000
138.076300 1304.000000
139.059600 1108.000000
141.064800 404.000000
156.086500 17160.000000
157.088800 1216.000000
198.133700 584.000000

>ms2peaks
114.066400 620.000000
128.055500 1180.000000
156.087100 720.000000

>ms2peaks
68.024200 3660.000000
69.008100 111092.000000
71.060000 43076.000000
85.050800 5992.000000
86.034900 362504.000000
87.038000 6332.000000
96.056100 6132.000000
97.040200 100144.000000
98.043600 3196.000000
113.084000 8668.000000
114.068200 191228.000000
115.070500 7284.000000
128.057100 14940.000000
128.082500 24364.000000
138.078100 3452.000000
139.062100 3120.000000
156.088100 562988.000000
157.090800 32024.000000
198.135100 592812.000000
199.138100 49388.000000

