>compound AU10643057
>parentmass 200.0852
>ionization [M+H]+
>formula C8H13N3OS
>rt 427.200000
>profile qtof
#smiles_iso CC(C)(C)C1=NN=C(NC1=O)SC
#smiles_can CC(C)(C)C1=NN=C(NC1=O)SC
#inchikey MIWRSUQXSCLDNV-UHFFFAOYSA-N
#pubchem_id 135502804
#mb_accession AU206501,AU206502,AU206503,AU206504,AU206505

>ms2
130.042900 4308.000000
172.089600 28168.000000
173.091600 2508.000000
200.084700 872004.000000
201.087400 66172.000000
202.081400 27236.000000

>ms2
116.027300 14844.000000
127.086500 1464.000000
130.042400 15768.000000
142.042100 4340.000000
144.021100 2720.000000
156.057500 6384.000000
157.065800 33236.000000
158.068100 2704.000000
172.089600 244688.000000
173.092100 18200.000000
174.085100 9900.000000
185.061000 4312.000000
200.084600 281740.000000
201.087400 25372.000000
202.081400 11044.000000

>ms2
116.027100 16916.000000
117.029100 672.000000
124.085900 668.000000
126.101300 764.000000
127.085600 400.000000
130.042600 3832.000000
131.044000 380.000000
132.037200 380.000000
138.064700 508.000000
139.073300 464.000000
140.040100 364.000000
141.033900 1056.000000
142.042300 28252.000000
143.044600 1856.000000
144.021200 1112.000000
144.038000 1096.000000
155.062500 356.000000
156.057600 31064.000000
157.065500 58156.000000
158.056600 1168.000000
158.068600 4668.000000
159.060900 2348.000000
170.037100 2708.000000
172.089300 66340.000000
173.091600 6960.000000
174.085000 2684.000000
185.061400 1964.000000
200.084200 11336.000000

>ms2
115.019700 336.000000
116.027300 4032.000000
117.029100 364.000000
127.019500 1044.000000
128.028600 304.000000
130.041300 916.000000
140.027100 548.000000
141.034800 2404.000000
142.042300 35156.000000
143.045400 2276.000000
156.057900 37780.000000
157.065400 16640.000000
158.053500 1532.000000
158.068300 1480.000000
159.062100 416.000000
170.037500 1152.000000
172.089200 5468.000000
173.093800 472.000000
185.059000 368.000000

>ms2
116.026600 592.000000
127.019100 1988.000000
128.026600 428.000000
129.034800 400.000000
140.026500 692.000000
141.034800 3984.000000
142.042300 15428.000000
144.037800 836.000000
156.057900 15756.000000
158.054400 992.000000

