>compound AU10805206
>parentmass 345.1153
>ionization [M+H]+
>formula C22H17ClN2
>rt 670.230000
>profile qtof
#smiles_iso C1=CC=C(C=C1)C(C2=CC=CC=C2)(C3=CC=CC=C3Cl)N4C=CN=C4
#smiles_can C1=CC=C(C=C1)C(C2=CC=CC=C2)(C3=CC=CC=C3Cl)N4C=CN=C4
#inchikey VNFPBHJOKIVQEB-UHFFFAOYSA-N
#pubchem_id 2812
#mb_accession AU268901,AU268902,AU268903,AU268904,AU268905,AU268906

>ms2peaks
277.077600 1516468.000000
278.081000 258716.000000
279.075000 403216.000000
280.077500 46500.000000

>ms2peaks
165.068800 53080.000000
166.072100 6508.000000
241.100700 10444.000000
242.108200 13688.000000
277.077800 1275404.000000
278.081300 215856.000000
279.075000 343216.000000
280.077600 40616.000000
327.078100 7260.000000

>ms2peaks
125.014100 7284.000000
165.069000 787780.000000
166.072200 78936.000000
199.030300 72460.000000
200.033900 9196.000000
201.026900 21940.000000
241.101000 138120.000000
242.108400 191476.000000
243.111700 33952.000000
249.047000 5784.000000
262.053800 5772.000000
277.077900 1020068.000000
278.081100 175720.000000
279.075300 248872.000000
280.078400 32068.000000

>ms2peaks
125.014100 13716.000000
165.068800 1539388.000000
166.072100 142116.000000
167.075600 8076.000000
199.030000 166288.000000
200.033300 24392.000000
201.027100 50108.000000
215.084500 13440.000000
226.076700 14516.000000
239.084700 22844.000000
240.092100 24744.000000
241.100700 376500.000000
242.107800 374284.000000
243.111500 54852.000000
249.045700 10680.000000
262.053300 12960.000000
277.077200 88516.000000
278.080500 19388.000000
279.074600 25268.000000

>ms2peaks
125.014100 8772.000000
163.052800 9320.000000
164.060300 16184.000000
165.068800 969476.000000
166.072100 101196.000000
167.075600 5324.000000
199.030000 145388.000000
200.033200 19188.000000
201.027000 42328.000000
215.084300 23472.000000
226.076700 31356.000000
227.082500 11756.000000
239.084800 69348.000000
240.091800 49532.000000
241.100600 361820.000000
242.106500 138220.000000
243.110600 18452.000000
249.045400 5608.000000
262.053400 10884.000000

>ms2peaks
125.015500 4416.000000
165.069600 414400.000000
166.072900 48932.000000
199.030900 49416.000000
200.034300 7412.000000
201.027300 14020.000000
241.101700 105756.000000
242.109200 126208.000000
243.112300 21164.000000
249.047100 3848.000000
262.055200 3284.000000
277.078200 634556.000000
278.081900 140644.000000
279.075600 214192.000000
280.078800 33056.000000
327.079600 5068.000000

