>compound AU10123950
>parentmass 151.0866
>ionization [M+H]+
>formula C8H10N2O
>rt 135.705000
>profile qtof
#smiles_iso CC(=O)NC1=CC=C(C=C1)N
#smiles_can CC(=O)NC1=CC=C(C=C1)N
#inchikey CHMBIJAOCISYEW-UHFFFAOYSA-N
#pubchem_id 31230
#mb_accession AU276101,AU276102,AU276103,AU276106

>ms2peaks
133.075000 15368.000000
151.085200 865984.000000
152.088100 68932.000000
153.090900 4592.000000

>ms2peaks
108.067500 436.000000
109.076100 2284.000000
133.074500 15220.000000
134.058800 460.000000
134.078500 1628.000000
151.084900 59328.000000
152.087700 5864.000000

>ms2peaks
108.067400 360.000000
109.074800 504.000000
133.074600 1764.000000
151.084800 1048.000000

>ms2peaks
65.037700 2324.000000
68.049300 604.000000
80.048500 1000.000000
82.063200 700.000000
92.049500 8884.000000
93.055900 1076.000000
108.068800 2804.000000
109.076900 19436.000000
110.060600 2612.000000
110.079500 2152.000000
133.075100 9564.000000
134.078600 660.000000
151.085700 83404.000000
152.088500 6560.000000
153.090700 484.000000

