>compound AU10646364
>parentmass 289.2162
>ionization [M+H]+
>formula C19H28O2
>rt 590.910000
>profile qtof
#smiles_iso C[C@]12CC[C@H]3[C@H]([C@@H]1CC[C@@H]2O)CCC4=CC(=O)CC[C@]34C
#smiles_can CC12CCC3C(C1CCC2O)CCC4=CC(=O)CCC34C
#inchikey MUMGGOZAMZWBJJ-DYKIIFRCSA-N
#pubchem_id 6013
#mb_accession AU280201,AU280202,AU280203,AU280204,AU280205,AU280206

>ms2peaks
271.204800 8460.000000
287.200100 7560.000000
289.216200 1448236.000000
290.219500 223592.000000
291.222000 24684.000000

>ms2peaks
121.100800 3676.000000
123.079800 13724.000000
133.100900 3752.000000
135.115900 3988.000000
145.099600 8144.000000
147.115500 9336.000000
157.099400 5644.000000
159.115600 8904.000000
161.131500 9516.000000
163.110400 5504.000000
163.146700 3984.000000
171.115600 7176.000000
173.130800 5996.000000
175.146400 12264.000000
177.126200 7596.000000
185.131200 3792.000000
187.147000 11644.000000
189.126800 4272.000000
189.162500 9464.000000
197.131300 5812.000000
199.147100 7916.000000
201.163000 6248.000000
211.148100 4972.000000
213.163000 11492.000000
217.157100 3592.000000
227.178800 4476.000000
253.194600 53048.000000
254.198000 10932.000000
271.205400 58796.000000
272.208800 13904.000000
289.216200 686616.000000
290.219500 124200.000000
291.222600 11276.000000

>ms2peaks
109.064700 2284.000000
115.053300 760.000000
117.069300 1324.000000
119.084500 6296.000000
120.087300 664.000000
121.064300 3448.000000
121.100500 4432.000000
122.067700 508.000000
122.104100 560.000000
123.079600 23848.000000
124.083200 1976.000000
125.095600 352.000000
128.062200 1100.000000
129.069600 1956.000000
130.076500 764.000000
131.084200 7232.000000
132.088900 796.000000
133.066200 760.000000
133.100100 9116.000000
134.105100 1056.000000
135.079200 1400.000000
135.115700 5120.000000
136.119600 796.000000
137.094400 1860.000000
137.131900 460.000000
141.069300 1228.000000
142.076200 940.000000
143.084600 4868.000000
144.090500 836.000000
145.100200 13712.000000
146.104400 1500.000000
147.078800 1324.000000
147.115700 15176.000000
148.119100 1376.000000
149.095000 3744.000000
149.131400 3624.000000
150.100100 388.000000
150.133900 556.000000
151.111000 1056.000000
155.084100 2120.000000
157.100500 8000.000000
158.102600 1308.000000
159.115500 15032.000000
160.118600 1988.000000
161.095100 2908.000000
161.131300 10964.000000
162.100500 536.000000
162.134500 1376.000000
163.110700 6256.000000
163.147400 3836.000000
164.115000 852.000000
164.149300 552.000000
165.125900 1116.000000
168.091200 392.000000
169.100600 3240.000000
170.105400 492.000000
171.115600 7240.000000
172.119400 1580.000000
173.095100 324.000000
173.131200 6184.000000
174.134800 1104.000000
175.110700 2700.000000
175.146800 12824.000000
176.114200 532.000000
176.150500 1628.000000
177.126400 8896.000000
178.129600 1288.000000
179.139200 688.000000
181.101900 408.000000
183.115300 3472.000000
184.122200 1060.000000
185.132100 5588.000000
186.135200 928.000000
187.147000 10804.000000
188.151700 2548.000000
189.126200 2716.000000
189.162300 3952.000000
190.130000 496.000000
190.165200 784.000000
191.142000 1632.000000
192.146500 452.000000
193.157700 896.000000
196.121900 308.000000
197.131700 7688.000000
198.136200 2012.000000
199.147500 7524.000000
200.151600 1384.000000
201.127600 1180.000000
201.163000 5508.000000
202.165200 1144.000000
203.140800 1300.000000
205.159100 656.000000
211.147500 5584.000000
212.151200 1416.000000
213.162700 10684.000000
214.165800 2144.000000
215.142700 3280.000000
215.176300 640.000000
216.147000 560.000000
217.158500 2296.000000
218.160100 376.000000
219.173400 1036.000000
220.178500 300.000000
223.150800 360.000000
224.154400 604.000000
225.164000 2816.000000
226.166600 632.000000
227.178700 3428.000000
228.182600 748.000000
229.159300 1040.000000
229.195100 1248.000000
230.161100 364.000000
231.174300 1024.000000
238.170100 748.000000
243.175600 812.000000
243.211800 1024.000000
245.189400 2160.000000
246.195200 452.000000
253.194400 21072.000000
254.197900 4004.000000
255.203000 608.000000
256.186400 380.000000
271.205400 12928.000000
272.209300 3828.000000
287.194100 328.000000
289.215900 26692.000000
290.218900 7480.000000
291.222000 760.000000

>ms2peaks
109.064500 1504.000000
115.053300 1112.000000
116.060900 392.000000
117.069800 1840.000000
119.084500 6556.000000
120.088200 856.000000
121.063900 2456.000000
121.100000 2568.000000
123.079500 19016.000000
124.082400 2064.000000
128.061100 2108.000000
129.068400 4420.000000
130.075300 1548.000000
131.084400 7244.000000
132.087600 768.000000
133.062700 704.000000
133.099900 8332.000000
134.103200 884.000000
135.079400 612.000000
135.115900 2288.000000
137.094600 1344.000000
137.130200 364.000000
141.067900 1692.000000
142.075800 1756.000000
143.084000 5548.000000
144.090600 1604.000000
145.099600 10680.000000
146.103600 1568.000000
147.078800 964.000000
147.115800 6652.000000
148.085900 492.000000
148.119100 1224.000000
149.094900 2024.000000
149.130600 1284.000000
151.109500 360.000000
154.075900 468.000000
155.083100 2840.000000
156.089900 1460.000000
157.099700 6732.000000
158.104000 1340.000000
159.115100 9036.000000
160.119300 1264.000000
161.094600 1316.000000
161.130700 3740.000000
162.102500 424.000000
162.134900 632.000000
163.111000 2104.000000
163.145900 792.000000
167.084400 644.000000
168.089500 732.000000
169.100600 2768.000000
170.106300 984.000000
171.115100 4092.000000
172.119000 944.000000
173.095700 452.000000
173.131400 2480.000000
175.110200 1224.000000
175.146900 3224.000000
177.125600 2404.000000
181.098900 532.000000
182.106900 1012.000000
183.114400 4444.000000
184.123700 1108.000000
185.130800 2588.000000
186.135500 440.000000
187.147000 3420.000000
188.115600 344.000000
188.151300 688.000000
189.124500 924.000000
189.162600 668.000000
195.115800 444.000000
196.124200 488.000000
197.130100 3352.000000
198.137300 1004.000000
199.146000 3008.000000
200.150700 672.000000
201.126500 300.000000
201.162300 1524.000000
202.133300 304.000000
209.129900 456.000000
211.148000 1444.000000
212.153000 796.000000
213.162200 2832.000000
214.164900 420.000000
215.140400 876.000000
215.177100 324.000000
223.145800 368.000000
225.162900 768.000000
227.178200 1748.000000
229.192600 320.000000
238.168700 552.000000
253.192700 2152.000000
254.198300 460.000000
271.207700 736.000000
289.213900 576.000000

>ms2peaks
109.064200 600.000000
115.052300 2004.000000
116.062000 532.000000
117.069100 2284.000000
119.084900 3884.000000
121.064200 1928.000000
121.101000 928.000000
123.079600 8724.000000
124.083000 1008.000000
127.053600 400.000000
128.060600 4140.000000
129.068400 4520.000000
130.075600 1920.000000
131.084500 5544.000000
132.089800 548.000000
133.064100 388.000000
133.100100 4388.000000
134.103400 416.000000
135.080600 448.000000
135.116600 412.000000
137.095700 556.000000
141.068800 3220.000000
142.077000 3124.000000
143.084000 4312.000000
144.091300 1840.000000
145.062500 472.000000
145.100400 5628.000000
146.104200 856.000000
147.081000 684.000000
147.116000 2388.000000
149.093800 800.000000
149.131300 336.000000
153.068500 1044.000000
154.076100 964.000000
155.083600 2452.000000
156.091200 1632.000000
157.099900 3360.000000
158.104800 596.000000
159.116100 2888.000000
161.093900 832.000000
161.129800 672.000000
163.110500 604.000000
165.069300 380.000000
167.084900 1332.000000
168.091800 1040.000000
169.099600 1960.000000
170.106400 728.000000
171.115300 2156.000000
173.130400 960.000000
174.100700 312.000000
175.112500 392.000000
177.124800 456.000000
181.099100 564.000000
182.106500 632.000000
183.115500 1544.000000
185.130200 932.000000
187.146200 604.000000
189.123600 392.000000
195.118200 436.000000
197.130900 1124.000000
198.135700 300.000000
199.147500 960.000000
209.130700 504.000000
213.164200 308.000000
223.148100 548.000000

>ms2peaks
67.053900 3360.000000
69.069400 5000.000000
79.053700 10928.000000
81.069400 16908.000000
83.048700 20516.000000
91.054200 2092.000000
93.070100 8464.000000
95.085800 8344.000000
97.065300 276424.000000
98.068500 15804.000000
105.070400 3516.000000
107.086100 5168.000000
109.066200 132140.000000
110.068800 9196.000000
119.084900 4856.000000
121.064300 3316.000000
121.100800 4812.000000
123.079900 20128.000000
124.083300 1636.000000
131.084500 3624.000000
133.100200 6820.000000
135.116100 3372.000000
137.094100 1972.000000
143.084900 3200.000000
145.100200 7564.000000
147.115900 12548.000000
149.094700 2192.000000
149.130700 2620.000000
157.100000 6492.000000
159.116000 12212.000000
160.119300 1600.000000
161.093900 2420.000000
161.131300 10112.000000
163.110300 4544.000000
163.146300 4176.000000
169.100600 1772.000000
171.115500 7164.000000
173.131400 4956.000000
175.110500 3500.000000
175.146900 12080.000000
176.149800 1596.000000
177.126600 7592.000000
183.116100 3732.000000
185.131700 3768.000000
187.147300 10772.000000
188.150600 1776.000000
189.126700 3184.000000
189.162800 6728.000000
197.130700 7504.000000
199.146800 6756.000000
201.162800 6176.000000
203.142000 1412.000000
211.147600 4832.000000
213.162800 11200.000000
214.165400 2064.000000
215.142000 2572.000000
217.158400 2712.000000
219.173500 1684.000000
225.163400 2540.000000
227.178500 3872.000000
243.208800 1424.000000
245.189400 1908.000000
253.195100 33636.000000
254.198100 7128.000000
271.205500 36232.000000
272.208500 7572.000000
289.216200 214952.000000
290.219600 49216.000000
291.221800 4992.000000

