>compound AU11342702
>parentmass 240.07860000000002
>ionization [M+H]+
>formula C12H14ClNO2
>rt 536.110000
>profile qtof
#smiles_iso CC1(CON(C1=O)CC2=CC=CC=C2Cl)C
#smiles_can CC1(CON(C1=O)CC2=CC=CC=C2Cl)C
#inchikey KIEDNEWSYUYDSN-UHFFFAOYSA-N
#pubchem_id 54778
#mb_accession AU254801,AU254802,AU254803,AU254804,AU254805,AU254806

>ms2
125.014700 170700.000000
126.018100 10380.000000
127.011400 39868.000000
128.069800 6184.000000
240.078600 872664.000000
241.081900 109152.000000
242.075600 300108.000000

>ms2
125.014600 536404.000000
126.017800 38344.000000
127.011600 168520.000000
128.014600 8652.000000
128.069300 2912.000000
240.077800 45160.000000
241.080900 6796.000000
242.074900 18636.000000

>ms2
125.014600 581564.000000
126.017800 50380.000000
127.011600 195016.000000
128.014500 9604.000000

>ms2
125.014300 433820.000000
126.017500 36080.000000
127.011300 153620.000000
128.014600 7692.000000

>ms2
125.014500 215260.000000
126.017700 19816.000000
127.011500 78464.000000
128.014200 4328.000000

>ms2
125.015700 364696.000000
126.019000 41740.000000
127.012700 126076.000000
128.015600 6312.000000
128.070700 2436.000000
240.079400 34548.000000
241.082100 4456.000000
242.076100 11600.000000

