>compound AU11846238
>parentmass 292.2060000000001
>ionization [M+H]+
>formula C21H25N
>rt 586.920000
>profile qtof
#smiles_iso CC(C)(C)C#C/C=C/CN(C)CC1=CC=CC2=CC=CC=C21
#smiles_can CC(C)(C)C#CC=CCN(C)CC1=CC=CC2=CC=CC=C21
#inchikey DOMXUEMWDBAQBQ-WEVVVXLNSA-N
#pubchem_id 1549008
#mb_accession AU271201,AU271202,AU271203,AU271204,AU271205,AU271206

>ms2peaks
141.069100 852280.000000
142.072500 83984.000000
150.126600 22964.000000
170.095400 46672.000000
205.100500 29940.000000
261.163100 17448.000000
292.207200 2511076.000000
294.212900 65208.000000

>ms2peaks
115.053800 48508.000000
121.100500 18952.000000
141.069800 2505792.000000
143.075400 17296.000000
150.126800 36092.000000
170.095400 80556.000000
179.084200 13608.000000
205.100300 38776.000000
261.162900 24796.000000
292.205900 175492.000000
293.209000 42136.000000

>ms2peaks
115.053700 134808.000000
116.057100 16752.000000
141.069700 2503452.000000
143.075400 19108.000000
170.095100 29232.000000

>ms2peaks
115.053800 286728.000000
116.056700 31728.000000
139.052800 16428.000000
141.069400 2489084.000000
142.072300 414348.000000
143.075300 17184.000000

>ms2peaks
115.054000 594232.000000
116.057000 61460.000000
139.053100 29192.000000
141.069400 2370092.000000
142.072500 288776.000000
143.075700 14152.000000

>ms2peaks
79.054100 40776.000000
91.054700 47672.000000
93.070500 221368.000000
94.073700 16268.000000
105.071000 33076.000000
115.054100 26388.000000
119.085700 6652.000000
121.101900 10964.000000
141.069900 1249216.000000
142.073000 184532.000000
143.075800 7140.000000
150.127300 7496.000000
170.096100 20252.000000
205.100500 10276.000000
292.206600 23656.000000
293.209800 7288.000000

