>compound AU11213721
>parentmass 531.156
>ionization [M+H]+
>formula C26H28Cl2N4O4
>rt 563.340000
>profile qtof
#smiles_iso CC(=O)N1CCN(CC1)C2=CC=C(C=C2)OC[C@H]3CO[C@](O3)(CN4C=CN=C4)C5=C(C=C(C=C5)Cl)Cl
#smiles_can CC(=O)N1CCN(CC1)C2=CC=C(C=C2)OCC3COC(O3)(CN4C=CN=C4)C5=C(C=C(C=C5)Cl)Cl
#inchikey XMAYWYJOQHXEEK-OZXSUGGESA-N
#pubchem_id 456201
#mb_accession AU269701,AU269702,AU269703,AU269704,AU269705,AU269706

>ms2
531.156100 1631252.000000
532.158900 508712.000000
533.153500 1026324.000000

>ms2
531.156000 1954712.000000
532.158700 605012.000000
533.153200 1272608.000000

>ms2
217.133000 12268.000000
219.112200 18220.000000
220.119500 15416.000000
244.004800 16284.000000
255.007800 11900.000000
489.145900 44036.000000
490.149800 12812.000000
491.143800 26904.000000
531.157600 1678188.000000
532.160300 542124.000000
533.154900 1152444.000000

>ms2
112.075500 4412.000000
120.043000 4716.000000
135.066600 37992.000000
136.073400 7912.000000
144.078900 4720.000000
146.094800 6008.000000
148.074200 26756.000000
158.974200 6280.000000
163.121800 5404.000000
167.080100 27644.000000
172.074200 8876.000000
172.954300 3788.000000
174.090000 32492.000000
177.100900 43204.000000
178.107500 14080.000000
184.990200 6692.000000
185.961400 13520.000000
187.958500 6820.000000
189.136600 9628.000000
192.100900 6304.000000
200.105800 6492.000000
204.100400 4424.000000
205.131300 4676.000000
209.034700 8820.000000
215.116700 4688.000000
216.100500 26804.000000
216.124800 6728.000000
217.132400 88712.000000
218.135400 11540.000000
219.111800 137312.000000
220.119100 97828.000000
221.122300 11952.000000
233.127300 4920.000000
234.111100 16088.000000
234.133800 4096.000000
235.142900 38076.000000
236.145600 4864.000000
238.004900 16316.000000
239.009700 4184.000000
240.001600 10232.000000
244.004200 92384.000000
245.008000 9472.000000
246.001400 43956.000000
247.004000 4300.000000
247.062300 4964.000000
247.142800 5912.000000
255.007500 65880.000000
256.010600 7180.000000
257.004700 35008.000000
259.143800 22388.000000
267.007500 18788.000000
268.013800 7104.000000
269.004800 9508.000000
270.011000 4592.000000
277.153300 9036.000000
282.031100 14688.000000
284.027800 7576.000000
311.034500 8264.000000
313.030700 4576.000000
378.065200 5416.000000
420.075600 6236.000000
421.106000 13872.000000
423.105100 7252.000000
446.102800 9260.000000
448.098800 5912.000000
489.144600 146348.000000
490.147300 40024.000000
491.142200 84172.000000
492.144800 14560.000000
493.139500 4000.000000
531.155500 750804.000000
532.158500 219740.000000
533.153300 442892.000000

>ms2
112.075300 6776.000000
115.053200 1200.000000
117.056300 1664.000000
117.068300 1000.000000
118.064000 2848.000000
120.043600 15224.000000
120.080000 5140.000000
121.048100 1540.000000
122.059400 14488.000000
122.998500 1772.000000
123.062600 1636.000000
127.049400 7928.000000
129.069000 2228.000000
130.064000 6200.000000
131.047000 2120.000000
131.071700 3012.000000
132.056300 2796.000000
132.079400 5072.000000
133.051500 1988.000000
133.063700 2316.000000
134.058900 17516.000000
135.066900 97528.000000
136.074000 38072.000000
137.077100 2464.000000
139.029600 1436.000000
143.071400 1140.000000
144.079300 20880.000000
145.063400 3180.000000
145.087100 14236.000000
146.058800 11804.000000
146.095100 26884.000000
147.065900 3428.000000
147.098300 2508.000000
148.074600 117068.000000
149.014000 2524.000000
149.077600 9192.000000
150.021500 3808.000000
151.029700 2140.000000
151.062800 1048.000000
154.064300 1328.000000
156.079500 6300.000000
157.086000 1192.000000
157.968100 3016.000000
158.095300 11708.000000
158.975000 25700.000000
159.065700 2400.000000
159.098300 1552.000000
159.963600 1064.000000
159.980200 2656.000000
160.074100 10712.000000
160.972000 11632.000000
161.081200 3876.000000
161.106800 1464.000000
161.977100 968.000000
162.090200 8928.000000
163.030400 4776.000000
163.086400 1352.000000
163.090300 1188.000000
163.121800 13620.000000
164.070000 2456.000000
164.124000 1088.000000
165.027200 1112.000000
167.024600 11340.000000
167.080400 88252.000000
168.028700 1152.000000
168.083000 6196.000000
169.021100 2188.000000
169.966900 17660.000000
170.094100 1024.000000
170.973400 2216.000000
171.065800 1648.000000
171.964200 8016.000000
172.074200 19248.000000
172.110600 4584.000000
172.954200 24280.000000
173.081500 4496.000000
174.090300 104832.000000
174.951000 12292.000000
175.093400 10844.000000
175.120600 2412.000000
176.092900 6160.000000
177.101300 191352.000000
178.085300 3968.000000
178.107700 48980.000000
179.024100 2832.000000
179.112700 5308.000000
181.041200 1080.000000
184.990800 24104.000000
185.962200 51248.000000
186.968200 8656.000000
186.987300 14012.000000
187.122400 2020.000000
187.959700 26884.000000
188.105900 8408.000000
188.128600 1852.000000
188.965800 3116.000000
189.103400 1440.000000
189.137500 19828.000000
189.956000 1020.000000
190.084800 3452.000000
190.141800 2716.000000
191.093400 3252.000000
191.116300 4788.000000
192.100400 21160.000000
193.103900 2344.000000
199.006000 1244.000000
200.105900 16520.000000
201.003300 976.000000
201.108000 2276.000000
201.994300 3820.000000
202.965000 5768.000000
203.036000 14512.000000
203.115700 1444.000000
203.990200 3124.000000
204.039500 2040.000000
204.100400 8588.000000
204.962500 2796.000000
205.032900 4548.000000
205.096900 5256.000000
205.132500 9668.000000
206.134200 1368.000000
209.035900 12592.000000
210.039900 1440.000000
211.032400 3340.000000
213.993700 2440.000000
215.117000 7584.000000
216.101000 36336.000000
216.124500 8524.000000
217.104300 5792.000000
217.132700 109600.000000
218.115500 7596.000000
218.135900 15848.000000
219.111900 182316.000000
220.118800 84152.000000
221.122000 9624.000000
224.998000 1740.000000
226.004700 1320.000000
230.139500 4244.000000
231.146200 2820.000000
233.046800 3728.000000
233.127600 5156.000000
234.111600 15220.000000
234.134400 4916.000000
235.114700 2036.000000
235.143100 38464.000000
236.145300 6256.000000
238.005400 40580.000000
239.009300 7792.000000
240.002500 18860.000000
241.008000 2952.000000
244.004400 89036.000000
245.007800 11356.000000
246.001700 49016.000000
247.004800 3276.000000
247.062900 13416.000000
247.142900 4428.000000
248.000200 1692.000000
248.066100 2544.000000
249.060000 3224.000000
255.008200 108168.000000
256.011300 15624.000000
257.005200 57980.000000
258.008200 5060.000000
259.002600 2112.000000
259.143700 11032.000000
260.146800 2268.000000
261.158100 1064.000000
267.007900 45852.000000
268.013000 9868.000000
269.005000 24784.000000
270.010700 4156.000000
271.003200 2280.000000
276.149000 1860.000000
277.153500 3172.000000
281.023600 8932.000000
282.030600 9296.000000
283.020500 5460.000000
284.028200 4672.000000
297.017600 5088.000000
299.015600 2808.000000
311.034900 9328.000000
312.037300 1976.000000
313.030500 7072.000000
364.050200 2324.000000
366.046700 1244.000000
378.065300 13156.000000
379.067100 3300.000000
380.062500 6980.000000
381.065600 1016.000000
419.089700 1024.000000
420.077500 5680.000000
421.107600 9948.000000
422.072200 4052.000000
422.111200 3020.000000
423.104700 5720.000000
446.101400 9616.000000
447.105200 2528.000000
448.100100 5744.000000
449.112200 1096.000000
487.125800 2232.000000
489.144900 68392.000000
490.148000 20644.000000
491.142500 41552.000000
492.144600 7852.000000
493.142200 2440.000000
531.155700 77808.000000
532.158900 27300.000000
533.152600 48664.000000

>ms2
69.044500 6240.000000
81.044400 12688.000000
82.052500 95212.000000
86.059800 4552.000000
112.077000 20280.000000
135.067900 16304.000000
148.075600 7592.000000
167.080800 7500.000000
174.090300 7676.000000
177.101800 14436.000000
216.101400 9536.000000
217.133300 33972.000000
219.112500 45440.000000
220.119900 35376.000000
234.112000 5284.000000
235.143500 12352.000000
238.006200 6668.000000
244.004900 34456.000000
246.002100 17328.000000
255.008500 24904.000000
257.005600 9804.000000
259.144500 10984.000000
267.008400 5556.000000
282.032000 5588.000000
421.107300 5840.000000
489.145900 71128.000000
490.148500 17328.000000
491.143400 44664.000000
492.147300 8168.000000
531.157500 892540.000000
532.160500 275288.000000
533.155000 595032.000000

