>compound AU11301802
>parentmass 287.20060000000007
>ionization [M+H]+
>formula C19H26O2
>rt 563.300000
>profile qtof
#smiles_iso C[C@]12CCC(=O)C=C1CC[C@@H]3[C@@H]2CC[C@]4([C@H]3CCC4=O)C
#smiles_can CC12CCC(=O)C=C1CCC3C2CCC4(C3CCC4=O)C
#inchikey AEMFNILZOJDQLW-QAGGRKNESA-N
#pubchem_id 6128
#mb_accession AU280301,AU280302,AU280303,AU280304,AU280305,AU280306

>ms2
287.200500 850076.000000
288.203900 145336.000000
289.207100 16232.000000

>ms2
123.079500 4996.000000
131.084000 1336.000000
133.099700 2808.000000
145.099400 2936.000000
147.115200 2420.000000
159.115700 3548.000000
161.096300 1108.000000
161.132000 1548.000000
169.099400 1468.000000
171.116300 1632.000000
173.131300 6336.000000
174.135400 1060.000000
183.116200 1244.000000
185.131300 3800.000000
187.147400 2884.000000
191.142500 1408.000000
195.115700 1080.000000
199.145400 1320.000000
205.157600 1600.000000
209.131600 1756.000000
211.147100 6508.000000
212.150900 1900.000000
213.126500 1304.000000
217.157600 2480.000000
225.164100 1136.000000
227.179400 1736.000000
229.157800 5164.000000
241.194700 1324.000000
251.178200 5980.000000
252.181900 1304.000000
269.188900 17544.000000
270.193200 4924.000000
287.200400 210432.000000
288.203500 41468.000000
289.206500 5232.000000

>ms2
109.065000 1124.000000
115.054600 304.000000
117.069400 812.000000
119.084900 2436.000000
121.063300 632.000000
121.100400 1096.000000
123.079500 9456.000000
124.084100 724.000000
125.094400 448.000000
128.060000 736.000000
129.068300 832.000000
130.077400 368.000000
131.084000 4256.000000
132.088800 424.000000
133.100100 5644.000000
134.104200 724.000000
135.079800 472.000000
135.116700 1024.000000
137.096000 840.000000
141.067700 644.000000
143.084300 2316.000000
144.091400 492.000000
145.100000 6796.000000
146.104500 816.000000
147.080800 464.000000
147.116800 2484.000000
149.094900 932.000000
149.130400 1168.000000
155.084400 1352.000000
157.099900 2476.000000
158.107300 392.000000
159.080000 564.000000
159.116100 4724.000000
160.119500 524.000000
161.096000 604.000000
161.131400 2608.000000
163.111100 868.000000
167.086200 416.000000
169.100300 1980.000000
170.106000 364.000000
171.115900 3420.000000
172.119300 396.000000
173.094200 608.000000
173.131000 7788.000000
174.133600 1296.000000
175.110900 1100.000000
175.146000 532.000000
177.127300 1044.000000
179.141100 312.000000
181.099400 1108.000000
182.105400 512.000000
183.116000 2780.000000
184.119800 588.000000
185.131800 4416.000000
186.134500 800.000000
187.111100 448.000000
187.147700 2180.000000
189.124400 612.000000
191.144200 1444.000000
195.115400 1664.000000
196.123600 772.000000
197.132600 456.000000
199.111100 392.000000
199.147400 1784.000000
200.152400 408.000000
201.127100 624.000000
201.162100 376.000000
203.144300 448.000000
205.160200 304.000000
209.131800 2112.000000
210.137500 324.000000
211.147100 6032.000000
212.151600 1248.000000
213.129000 612.000000
213.163600 552.000000
214.130800 448.000000
217.158800 836.000000
223.147400 728.000000
225.163900 1404.000000
226.166000 348.000000
227.144300 664.000000
227.179000 1572.000000
229.158000 3400.000000
230.163300 684.000000
241.195300 612.000000
243.175500 324.000000
245.191100 456.000000
251.177400 2856.000000
252.180300 536.000000
269.189900 4956.000000
270.193800 1120.000000
287.199800 10204.000000
288.204500 1948.000000

>ms2
109.063500 328.000000
115.053400 844.000000
117.068800 1060.000000
119.084600 1832.000000
121.063700 620.000000
121.100900 864.000000
123.079500 8204.000000
124.082700 668.000000
128.061000 1168.000000
129.067800 1752.000000
130.075000 1152.000000
131.083700 4348.000000
132.088300 708.000000
133.100500 3336.000000
134.103500 484.000000
135.077900 584.000000
135.114600 820.000000
137.095100 644.000000
141.067700 792.000000
142.076300 1080.000000
143.084500 2452.000000
144.091900 1036.000000
145.100000 5052.000000
146.103600 880.000000
147.079200 352.000000
147.114600 1252.000000
149.094100 796.000000
153.068100 340.000000
154.075900 684.000000
155.082600 1200.000000
156.091300 880.000000
157.099600 2512.000000
158.106400 784.000000
159.078900 500.000000
159.115400 2912.000000
160.121300 808.000000
161.094500 476.000000
161.130900 704.000000
163.110800 900.000000
165.069400 392.000000
167.083500 1004.000000
168.091200 608.000000
169.099200 2324.000000
170.105400 764.000000
171.115300 2092.000000
172.122100 416.000000
173.130400 2980.000000
174.136400 604.000000
175.109000 364.000000
180.092700 476.000000
181.100300 1044.000000
182.108900 532.000000
183.115800 1864.000000
184.119800 472.000000
185.130700 2100.000000
186.135100 488.000000
187.110400 316.000000
187.146500 1320.000000
195.113700 988.000000
196.122500 772.000000
197.131400 520.000000
199.146600 708.000000
207.115300 324.000000
209.131300 716.000000
211.145400 1600.000000
212.151500 404.000000
213.124800 380.000000
225.163100 520.000000
227.177500 440.000000
229.159100 724.000000
269.192400 432.000000
287.199300 444.000000

>ms2
115.053100 972.000000
116.059600 468.000000
117.069500 1296.000000
119.084200 1780.000000
121.065200 308.000000
123.079500 3848.000000
124.083300 464.000000
128.061300 3192.000000
129.069400 2488.000000
130.075700 1492.000000
131.084200 2600.000000
132.087300 432.000000
133.099700 1160.000000
135.080000 320.000000
141.068500 1408.000000
142.076600 1544.000000
143.084200 2780.000000
144.092200 1152.000000
145.063800 516.000000
145.100100 2216.000000
146.105300 344.000000
147.116100 444.000000
149.095200 408.000000
152.061400 304.000000
153.069000 888.000000
154.075300 740.000000
155.084200 1620.000000
156.091100 960.000000
157.099600 1384.000000
159.116100 1348.000000
165.068000 844.000000
166.076300 460.000000
167.084400 1072.000000
168.090700 560.000000
169.100600 1292.000000
170.107000 480.000000
171.116100 644.000000
173.132300 664.000000
179.087200 380.000000
180.091200 492.000000
181.098600 1124.000000
183.116600 660.000000
185.131700 672.000000
194.108800 408.000000
196.122900 424.000000
199.147300 440.000000
214.134100 328.000000

>ms2
55.017300 552.000000
67.054500 576.000000
69.069400 1180.000000
79.054100 1556.000000
81.069100 1376.000000
83.048800 3608.000000
93.069400 504.000000
97.065400 27900.000000
98.068300 2860.000000
109.065700 12844.000000
117.068300 536.000000
119.084600 2220.000000
121.063500 844.000000
121.100000 1148.000000
123.079500 10208.000000
124.084300 532.000000
125.094700 488.000000
129.068800 716.000000
131.084200 2712.000000
133.099700 4240.000000
134.104300 512.000000
135.078500 616.000000
135.116500 1132.000000
137.095000 632.000000
143.083900 1632.000000
145.100000 5068.000000
147.079000 496.000000
147.115500 3468.000000
149.093700 620.000000
149.130100 972.000000
153.088700 508.000000
155.084700 460.000000
157.098700 2208.000000
159.078700 464.000000
159.115600 3220.000000
161.093800 1104.000000
161.131000 1936.000000
163.110400 1132.000000
169.098900 1836.000000
171.116600 1852.000000
173.094200 616.000000
173.131300 6856.000000
175.110100 1008.000000
177.125400 1320.000000
181.100200 872.000000
183.115300 1536.000000
185.130400 4268.000000
186.134700 536.000000
187.109200 684.000000
187.146900 2868.000000
189.128000 496.000000
191.142200 1096.000000
195.115900 1096.000000
197.130600 796.000000
199.109800 764.000000
199.147100 1916.000000
201.124400 596.000000
203.143400 584.000000
205.158100 640.000000
209.131500 2420.000000
210.137100 624.000000
211.147300 6112.000000
212.150900 1428.000000
213.125900 1032.000000
213.163900 484.000000
215.144900 540.000000
217.156300 2024.000000
223.147400 828.000000
225.162000 1660.000000
227.142100 728.000000
227.177600 1784.000000
228.184700 552.000000
229.158100 3756.000000
230.159400 760.000000
241.195900 916.000000
243.172900 536.000000
245.186400 552.000000
251.178000 3976.000000
252.183000 876.000000
269.189600 9612.000000
270.192700 2632.000000
287.200200 91860.000000
288.203700 19992.000000
289.206800 1972.000000

