>compound AU11428625
>parentmass 886.5310999999999
>ionization [M+H]+
>formula C49H75NO13
>rt 731.040000
>profile qtof
#smiles_iso CC[C@H](C)[C@@H]1[C@H](C=C[C@@]2(O1)C[C@@H]3C[C@H](O2)C/C=C(/[C@H]([C@H](/C=C/C=C/4\CO[C@H]5[C@@]4([C@@H](C=C([C@H]5O)C)C(=O)O3)O)C)O[C@H]6C[C@@H]([C@H]([C@@H](O6)C)O[C@H]7C[C@@H]([C@H]([C@@H](O7)C)NC)OC)OC)\C)C
#smiles_can CCC(C)C1C(C=CC2(O1)CC3CC(O2)CC=C(C(C(C=CC=C4COC5C4(C(C=C(C5O)C)C(=O)O3)O)C)OC6CC(C(C(O6)C)OC7CC(C(C(O7)C)NC)OC)OC)C)C
#inchikey CXEGAUYXQAKHKJ-NSBHKLITSA-N
#pubchem_id 11549937
#mb_accession AU263601,AU263602,AU263603,AU263605,AU263606

>ms2
158.116900 4096.000000
886.535600 171376.000000
887.538700 99092.000000
888.542600 26844.000000

>ms2
126.089600 1288.000000
158.116400 27972.000000
159.120300 2144.000000
302.196400 5476.000000
886.536100 250172.000000
887.538600 135300.000000
888.542000 35548.000000

>ms2
126.090100 12220.000000
158.116300 372736.000000
159.119800 24892.000000
160.121000 2012.000000
270.168900 7336.000000
302.195400 38140.000000
303.199400 6728.000000
868.525400 4524.000000
869.523600 1976.000000
886.533900 177588.000000
887.537300 114184.000000
888.540500 27268.000000

>ms2
126.090500 58320.000000
158.116600 1743032.000000
159.119800 112680.000000
221.152500 17368.000000
226.142800 14272.000000
270.169000 14208.000000
302.195400 31192.000000

>ms2
58.064500 16536.000000
82.065000 77916.000000
83.068100 5004.000000
126.091000 42752.000000
158.116600 766144.000000
159.119900 68228.000000
160.122100 4292.000000
193.157400 3876.000000
221.153000 8028.000000
226.143300 6988.000000
270.169400 10328.000000
302.195900 45180.000000
303.199000 7492.000000
886.535200 84532.000000
887.537200 47992.000000
888.539000 15704.000000

