>compound AU11136277
>parentmass 341.2111
>ionization [M+H]+
>formula C22H28O3
>rt 580.360000
>profile qtof
#smiles_iso CC12CCC(=O)C=C1C=CC3[C@@H]2CCC4([C@H]3CCC45CCC(=O)O5)C
#smiles_can CC12CCC(=O)C=C1C=CC3C2CCC4(C3CCC45CCC(=O)O5)C
#inchikey UJVLDDZCTMKXJK-AFDHUMPMSA-N
#pubchem_id 24728626
#mb_accession AU239401,AU239402,AU239403,AU239404,AU239405,AU239406

>ms2peaks
341.211300 1386312.000000
342.214700 308556.000000
343.216700 33576.000000

>ms2peaks
143.084100 6520.000000
169.099900 11736.000000
173.095100 16872.000000
175.110800 8284.000000
179.105400 7452.000000
187.111000 57364.000000
188.114300 7020.000000
205.121400 37476.000000
283.168800 18176.000000
305.190100 9552.000000
323.200500 19100.000000
341.211700 1246412.000000
342.214800 268228.000000
343.217400 30124.000000

>ms2peaks
117.068600 1412.000000
119.084800 8192.000000
121.064100 2056.000000
121.100400 4212.000000
123.079700 3092.000000
125.059400 1392.000000
128.061400 1692.000000
129.068400 1220.000000
131.084700 7764.000000
132.087300 1052.000000
133.063700 2680.000000
133.100300 7968.000000
135.079300 6620.000000
135.116400 2160.000000
137.094400 3304.000000
141.069000 1876.000000
143.084300 22780.000000
144.088100 2932.000000
145.063300 2120.000000
145.099900 22608.000000
146.103000 2456.000000
147.079100 10436.000000
147.116100 3712.000000
148.083200 1120.000000
149.095500 7676.000000
153.090400 3848.000000
155.084300 3904.000000
157.099800 8812.000000
158.104200 1228.000000
159.079200 8440.000000
159.115600 7760.000000
160.083800 1348.000000
160.118600 1144.000000
161.095000 15280.000000
161.130900 1616.000000
162.098300 2484.000000
163.110700 8452.000000
164.113000 988.000000
165.089800 7676.000000
166.093100 1104.000000
167.105900 4000.000000
169.099800 32836.000000
170.103800 4636.000000
171.078900 4580.000000
171.115600 5628.000000
172.119300 1200.000000
173.094900 39292.000000
174.098700 5488.000000
175.110600 24380.000000
176.114300 3376.000000
177.126000 5572.000000
179.105600 13072.000000
180.110000 1436.000000
181.100400 4500.000000
181.121100 1836.000000
183.115800 7832.000000
184.119900 1164.000000
185.095300 1656.000000
185.131400 10500.000000
186.137100 2000.000000
187.110800 75316.000000
188.113900 11108.000000
189.127000 3388.000000
193.120900 1388.000000
195.116000 4168.000000
197.095100 972.000000
197.131800 3284.000000
199.110400 4448.000000
199.146900 2372.000000
201.127600 2440.000000
205.121600 43456.000000
206.124700 6944.000000
207.116800 1692.000000
207.134800 1912.000000
209.131600 5004.000000
210.138000 2316.000000
211.111200 1764.000000
211.145000 1516.000000
213.126500 4760.000000
214.131000 1076.000000
215.141700 1768.000000
217.120600 1480.000000
219.137600 1288.000000
221.131100 2928.000000
222.137600 956.000000
223.111500 1372.000000
223.147200 4532.000000
224.150600 972.000000
225.127500 2880.000000
225.163100 2804.000000
227.142200 4400.000000
228.148200 1020.000000
231.137000 1860.000000
235.148500 1596.000000
237.128100 1160.000000
237.162200 1504.000000
239.141800 2296.000000
241.158500 4524.000000
242.161100 992.000000
243.173400 3600.000000
245.152900 2748.000000
247.147000 2200.000000
249.125400 964.000000
249.162500 1332.000000
253.157700 1240.000000
257.152000 3088.000000
259.169100 4564.000000
260.171800 1332.000000
261.165000 2180.000000
263.142100 1484.000000
263.179400 4012.000000
265.157800 7296.000000
266.163700 1400.000000
267.138600 1116.000000
267.174800 1644.000000
268.182600 2516.000000
269.185800 1024.000000
271.167400 2144.000000
277.157200 1324.000000
277.194700 1840.000000
279.174200 3100.000000
281.154000 1008.000000
281.189300 6200.000000
282.193200 1516.000000
283.168500 26872.000000
284.172200 6192.000000
285.177900 1076.000000
287.179600 2800.000000
295.205200 5252.000000
296.206900 1916.000000
297.185200 1444.000000
299.200600 1068.000000
305.189800 9688.000000
306.192200 3152.000000
323.200300 17964.000000
324.203300 4268.000000
326.188200 1176.000000
341.211400 190144.000000
342.214400 40296.000000
343.217400 6264.000000

>ms2peaks
107.085100 344.000000
115.053700 2728.000000
116.060000 776.000000
117.068700 3384.000000
119.084500 14188.000000
120.088500 1536.000000
121.063700 3328.000000
121.100000 4016.000000
122.104500 368.000000
123.079200 3532.000000
125.058500 1496.000000
127.053500 508.000000
128.061300 5176.000000
129.068500 5932.000000
130.076000 1492.000000
131.084100 16860.000000
132.056900 604.000000
132.087900 2652.000000
133.063800 3576.000000
133.100100 12676.000000
134.104400 1028.000000
135.079300 6300.000000
135.115000 1836.000000
136.083200 616.000000
137.094300 1904.000000
141.068400 5680.000000
142.076000 5040.000000
143.084200 34140.000000
144.054500 1024.000000
144.088200 4764.000000
145.062800 3772.000000
145.099900 33980.000000
146.070000 1040.000000
146.103800 3776.000000
147.079100 12932.000000
147.115200 5436.000000
148.084300 2300.000000
149.094300 9612.000000
149.131300 596.000000
150.098100 1208.000000
151.074500 484.000000
151.109200 580.000000
152.059600 312.000000
153.068400 1500.000000
153.089300 1608.000000
154.076000 4312.000000
155.083900 7704.000000
156.090200 2528.000000
157.099800 15804.000000
158.071500 1840.000000
158.104000 2160.000000
159.078700 7496.000000
159.115200 11768.000000
160.085200 1724.000000
160.118900 1696.000000
161.094500 13516.000000
161.131200 1956.000000
162.099100 1636.000000
163.073600 724.000000
163.110300 6980.000000
164.113300 864.000000
165.068900 1044.000000
165.089500 4604.000000
166.074200 416.000000
166.093300 524.000000
167.084800 2436.000000
167.105900 1320.000000
168.092100 1628.000000
169.099700 31276.000000
170.105800 6984.000000
171.078900 2760.000000
171.115300 7912.000000
172.085800 1184.000000
172.120400 1388.000000
173.094800 29080.000000
173.131500 2148.000000
174.098500 4744.000000
175.110200 17872.000000
176.114100 2044.000000
177.090200 704.000000
177.125300 4596.000000
178.129500 676.000000
179.083600 1504.000000
179.105600 6896.000000
180.091200 1388.000000
180.108200 840.000000
181.099300 7392.000000
181.124700 392.000000
182.105300 2032.000000
183.115500 11404.000000
184.085600 652.000000
184.119200 1820.000000
185.094300 2088.000000
185.131000 14624.000000
186.136800 3308.000000
187.110200 24392.000000
188.113800 4312.000000
189.125600 2428.000000
190.129200 312.000000
191.105300 868.000000
192.091600 624.000000
193.098000 1972.000000
193.120800 628.000000
194.107000 2024.000000
195.115300 5476.000000
196.121000 1532.000000
197.095000 736.000000
197.131200 4216.000000
198.103300 456.000000
198.134700 1176.000000
199.109800 4252.000000
199.147000 2692.000000
200.115500 1140.000000
200.150700 568.000000
201.125200 1820.000000
201.160000 380.000000
202.131700 368.000000
203.083100 304.000000
205.100200 632.000000
205.121000 10972.000000
206.110000 620.000000
206.125000 1664.000000
207.116100 2548.000000
208.122600 2384.000000
209.091800 908.000000
209.131300 4204.000000
210.103300 444.000000
210.138100 2944.000000
211.110600 1432.000000
211.145100 2052.000000
212.117500 660.000000
212.153700 636.000000
213.125400 3200.000000
214.131100 792.000000
215.104800 620.000000
215.139000 1072.000000
217.100600 656.000000
217.119500 872.000000
218.106600 624.000000
219.117300 1364.000000
219.136700 656.000000
220.121000 508.000000
221.131700 4724.000000
222.135100 1496.000000
223.110400 1372.000000
223.146500 5428.000000
224.150600 1164.000000
225.124900 2040.000000
225.162500 1772.000000
226.134300 484.000000
226.168900 364.000000
227.141400 2240.000000
228.148000 1284.000000
229.123400 536.000000
229.153000 348.000000
231.113900 356.000000
231.136500 864.000000
232.122900 736.000000
233.132500 1196.000000
234.141200 436.000000
235.111100 388.000000
235.146900 2668.000000
236.151300 548.000000
237.125500 688.000000
237.163200 1652.000000
238.131000 472.000000
239.142800 1816.000000
239.177000 564.000000
240.147100 608.000000
241.119300 608.000000
241.158100 1816.000000
243.172600 1532.000000
244.176400 308.000000
245.131800 488.000000
245.152300 684.000000
246.137800 716.000000
247.147500 1304.000000
248.152400 792.000000
249.127400 832.000000
249.159800 1000.000000
250.132900 416.000000
250.170400 704.000000
251.141800 648.000000
251.182200 432.000000
252.145700 552.000000
253.117700 320.000000
253.158400 1420.000000
253.195800 452.000000
254.163200 436.000000
255.136300 392.000000
257.128300 368.000000
257.153300 1552.000000
258.159600 432.000000
259.150600 408.000000
259.168700 880.000000
261.163300 1700.000000
262.165300 536.000000
263.140900 876.000000
263.178000 1752.000000
264.182900 716.000000
265.157000 2600.000000
266.165600 1008.000000
267.137600 696.000000
267.173500 1348.000000
268.142900 336.000000
268.180600 3188.000000
269.183100 596.000000
271.169200 1148.000000
272.160700 328.000000
277.156500 872.000000
277.196500 812.000000
279.173000 1296.000000
280.177300 520.000000
281.152400 612.000000
281.189900 2452.000000
282.194300 660.000000
283.168600 7080.000000
284.171300 1444.000000
285.149600 344.000000
287.177300 692.000000
290.170500 304.000000
295.171600 440.000000
295.206300 988.000000
296.213900 336.000000
297.182600 320.000000
299.199700 300.000000
305.189500 2276.000000
306.198900 420.000000
308.177100 456.000000
323.199700 2892.000000
324.202700 1052.000000
326.187400 888.000000
341.209100 9304.000000
342.216200 2116.000000

>ms2peaks
115.053400 4600.000000
116.059900 892.000000
117.069200 5988.000000
118.072200 980.000000
119.084600 11596.000000
120.087500 1616.000000
121.064000 2120.000000
121.099900 2864.000000
122.103000 488.000000
123.079700 2164.000000
124.081700 304.000000
125.059200 632.000000
127.055100 892.000000
128.061000 12564.000000
129.068300 11264.000000
130.075900 4216.000000
131.047500 1192.000000
131.084400 18144.000000
132.054900 556.000000
132.088200 2040.000000
133.064100 3708.000000
133.100000 8432.000000
134.071100 748.000000
134.104200 1236.000000
135.079000 4296.000000
135.114600 832.000000
136.085400 380.000000
137.095000 972.000000
141.068600 10200.000000
142.076300 9532.000000
143.084100 27876.000000
144.055700 1620.000000
144.089200 3740.000000
145.063300 3612.000000
145.099900 26140.000000
146.070200 1616.000000
146.104000 2740.000000
147.078900 7664.000000
147.115100 2648.000000
149.094400 5588.000000
152.060300 892.000000
153.068200 3472.000000
154.076100 7636.000000
155.084300 11356.000000
156.091000 5356.000000
157.064100 796.000000
157.099900 14564.000000
158.071200 3460.000000
158.104000 2020.000000
159.078400 4696.000000
159.115400 7388.000000
160.085600 1776.000000
160.119200 972.000000
161.094900 7184.000000
161.129800 616.000000
162.099200 1420.000000
163.110300 3388.000000
165.068800 2528.000000
165.089600 916.000000
166.076100 1620.000000
167.084200 3028.000000
168.090900 3812.000000
169.099600 16388.000000
170.106400 6020.000000
171.079900 1632.000000
171.115100 5672.000000
172.084700 616.000000
172.122400 852.000000
173.094600 13332.000000
173.130900 2152.000000
174.099000 1604.000000
175.110600 7092.000000
176.115100 704.000000
177.094100 348.000000
177.126000 1312.000000
178.076200 740.000000
179.084600 2652.000000
179.105300 912.000000
180.090800 1812.000000
181.099500 8120.000000
182.105300 1856.000000
183.079500 536.000000
183.115900 7972.000000
184.085000 784.000000
184.121000 1568.000000
185.096100 940.000000
185.131000 5568.000000
186.099700 312.000000
186.136700 1584.000000
187.110200 5320.000000
187.145400 520.000000
188.114700 836.000000
189.125500 704.000000
191.084500 600.000000
192.091200 1444.000000
193.099900 3196.000000
194.107800 2096.000000
195.114900 5852.000000
196.120800 1848.000000
197.095900 1172.000000
197.130400 3156.000000
198.101400 820.000000
198.136000 996.000000
199.109600 1488.000000
199.146700 1336.000000
200.114900 512.000000
201.126500 780.000000
201.163700 316.000000
203.085400 356.000000
204.089300 400.000000
205.100600 1084.000000
205.120800 1256.000000
206.107100 1480.000000
207.115400 1856.000000
208.123400 1680.000000
209.095200 468.000000
209.130700 3360.000000
210.138300 1212.000000
211.109300 1116.000000
211.146000 1028.000000
212.151300 460.000000
213.126600 1288.000000
214.131900 516.000000
217.100700 620.000000
217.121800 376.000000
219.116700 968.000000
220.123200 760.000000
221.131100 2208.000000
222.136600 748.000000
223.111900 508.000000
223.147600 2260.000000
224.117400 456.000000
224.151300 784.000000
225.128100 616.000000
225.163000 1236.000000
226.130600 484.000000
226.166100 352.000000
227.140200 1000.000000
228.149200 488.000000
231.114600 640.000000
232.121000 756.000000
233.129000 984.000000
235.147100 1520.000000
236.151000 480.000000
237.128600 660.000000
237.163900 636.000000
239.142500 1120.000000
239.177100 464.000000
240.147200 448.000000
241.117800 308.000000
241.155300 348.000000
247.146000 640.000000
248.153600 440.000000
249.162400 844.000000
251.144800 316.000000
252.148300 304.000000
253.157900 1552.000000
254.161300 396.000000
257.151500 336.000000
263.177500 620.000000
265.158900 700.000000
266.168700 384.000000
267.173500 900.000000
268.180400 1024.000000
271.168100 332.000000
283.169300 892.000000
341.208900 332.000000

>ms2peaks
71.048600 3348.000000
79.053800 8736.000000
81.069900 2452.000000
83.048400 9964.000000
91.054300 7524.000000
93.069800 5772.000000
95.085200 2388.000000
97.065100 24192.000000
99.044600 13700.000000
105.070300 5724.000000
107.086700 60084.000000
108.089500 4624.000000
119.084900 7308.000000
121.100700 4108.000000
123.079700 2388.000000
131.084500 6260.000000
133.100300 5376.000000
135.079300 5356.000000
137.095300 2732.000000
143.084400 18848.000000
145.099900 15340.000000
147.079300 7460.000000
147.115800 3632.000000
149.094900 6204.000000
153.089200 3044.000000
155.084300 3168.000000
157.099600 6528.000000
159.079400 6108.000000
159.115300 5932.000000
161.094400 11940.000000
163.110000 6124.000000
165.089300 5944.000000
167.105800 2516.000000
169.099800 28996.000000
170.103100 4352.000000
171.079900 2408.000000
171.115800 4656.000000
173.094800 31748.000000
174.098300 3724.000000
175.110700 18160.000000
176.113800 2316.000000
177.126200 5420.000000
179.105100 8924.000000
181.099800 3180.000000
183.116200 5380.000000
185.131600 7708.000000
187.110500 69460.000000
188.114200 10196.000000
189.125200 2492.000000
195.116200 3056.000000
197.131200 2676.000000
199.110400 3232.000000
199.146500 2456.000000
205.121000 45440.000000
206.124600 6284.000000
209.131200 3860.000000
213.125700 2880.000000
221.132000 2460.000000
223.147700 4032.000000
227.143000 3484.000000
241.156700 4068.000000
243.172500 2552.000000
245.153100 2788.000000
257.152600 2380.000000
259.167600 3468.000000
263.177800 2908.000000
265.158000 5124.000000
268.180700 2568.000000
279.172000 3488.000000
281.189100 6196.000000
283.168200 23636.000000
284.171300 4536.000000
295.205000 4396.000000
305.189300 9172.000000
306.193400 2248.000000
323.200800 18444.000000
324.203600 5240.000000
341.210900 433232.000000
342.214400 120552.000000
343.217200 13644.000000

