>compound AU12753894
>parentmass 214.06289999999998
>ionization [M+H]+
>formula C10H12ClNO2
>rt 588.036000
>profile qtof
#smiles_iso CC(C)OC(=O)NC1=CC(=CC=C1)Cl
#smiles_can CC(C)OC(=O)NC1=CC(=CC=C1)Cl
#inchikey CWJSHJJYOPWUGX-UHFFFAOYSA-N
#pubchem_id 2728
#mb_accession AU262301,AU262302,AU262303,AU262305,AU262306

>ms2peaks
126.009700 728.000000
154.004800 6932.000000
155.007200 440.000000
156.001200 1356.000000
172.015100 45868.000000
173.017400 4832.000000
174.011400 15592.000000
175.015700 772.000000

>ms2peaks
124.086400 744.000000
126.009900 5576.000000
127.013900 688.000000
128.026500 676.000000
144.056900 936.000000
154.004100 28568.000000
155.007600 2468.000000
156.001300 8124.000000
157.005500 736.000000
172.014400 17752.000000
173.017900 1876.000000
174.012100 7616.000000
175.014300 376.000000

>ms2peaks
126.009300 11228.000000
127.013600 860.000000
128.006200 4004.000000
128.025200 368.000000
144.057600 536.000000
154.003800 12228.000000
155.008100 1152.000000
156.001000 3900.000000
157.003500 300.000000
172.014300 1528.000000
174.012000 400.000000

>ms2peaks
126.009900 1224.000000

>ms2peaks
116.026300 328.000000
124.085800 1280.000000
126.009700 10008.000000
127.013600 380.000000
128.006700 2600.000000
128.025900 792.000000
129.008500 512.000000
130.022300 324.000000
139.005300 808.000000
144.057200 956.000000
154.004200 31068.000000
155.007300 1208.000000
156.001200 6100.000000
157.004500 648.000000
172.014700 24832.000000
173.019000 1888.000000
174.011600 5060.000000
175.015000 344.000000

