>compound AU12029328
>parentmass 285.142
>ionization [M+H]+
>formula C17H20N2S
>rt 439.770000
>profile qtof
#smiles_iso CC(CN1C2=CC=CC=C2SC3=CC=CC=C31)N(C)C
#smiles_can CC(CN1C2=CC=CC=C2SC3=CC=CC=C31)N(C)C
#inchikey PWWVAXIEGOYWEE-UHFFFAOYSA-N
#pubchem_id 4927
#mb_accession AU250501,AU250502,AU250503,AU250504,AU250505,AU250506

>ms2
198.035500 30528.000000
199.039200 5072.000000
240.083000 43584.000000
241.085900 8208.000000
285.141700 889880.000000
286.144500 148840.000000
287.139100 26436.000000

>ms2
162.035600 1904.000000
198.036100 213516.000000
199.039100 34700.000000
200.032500 8840.000000
207.102000 1192.000000
225.059600 1884.000000
240.083100 75828.000000
241.086600 17012.000000
242.079800 4208.000000
285.141600 32156.000000
286.145100 6796.000000
287.140700 1644.000000

>ms2
136.020100 1724.000000
154.064300 3112.000000
162.035500 14240.000000
163.039700 1636.000000
171.024600 1708.000000
198.036200 249820.000000
199.039300 42060.000000
200.032000 12584.000000
206.095000 4576.000000
207.102800 7296.000000
208.108400 3392.000000
224.051500 3048.000000
225.059500 14144.000000
226.062100 1888.000000
239.074600 1776.000000
240.083200 46040.000000
241.086600 7736.000000
242.080000 1808.000000

>ms2
130.064600 2204.000000
136.020600 3248.000000
154.063900 18228.000000
155.066100 2120.000000
162.036000 12660.000000
163.039100 1696.000000
166.064600 3192.000000
171.025100 5192.000000
180.079800 1840.000000
193.087000 3664.000000
197.028400 6152.000000
198.036400 268208.000000
199.039900 44848.000000
200.032600 11172.000000
206.095800 11028.000000
207.101800 7788.000000
208.109700 3344.000000
224.051800 10904.000000
225.059300 20616.000000
226.063100 3392.000000
239.075100 1468.000000
240.083800 6276.000000

>ms2
127.053800 1960.000000
128.048800 4208.000000
130.064000 3504.000000
136.020900 2092.000000
140.047900 1676.000000
147.024900 1220.000000
148.020800 1476.000000
153.055600 2116.000000
154.064000 56704.000000
155.066500 9084.000000
162.035900 5268.000000
165.068400 1512.000000
166.063900 14148.000000
167.070300 3940.000000
171.025100 16940.000000
172.026000 3464.000000
180.079900 3184.000000
191.071800 1132.000000
192.080000 1912.000000
193.087100 7176.000000
194.090600 1240.000000
196.021100 2056.000000
197.028300 18952.000000
198.036400 205884.000000
199.039500 33544.000000
200.031900 8020.000000
206.095900 14560.000000
207.099800 3776.000000
208.110400 1220.000000
223.043300 4220.000000
224.051900 17620.000000
225.058400 11124.000000
226.049000 1160.000000
226.060600 1352.000000

>ms2
56.048900 3612.000000
58.064300 1912.000000
71.072500 21304.000000
84.080500 2576.000000
86.096400 355284.000000
87.099700 17900.000000
162.035500 8028.000000
198.036400 225964.000000
199.039000 43468.000000
200.032000 8864.000000
206.095000 2632.000000
207.102600 4920.000000
225.059100 8952.000000
240.083300 76440.000000
241.086000 10808.000000
242.080700 2588.000000
285.141200 10184.000000

