>compound AU12638569
>parentmass 254.1434
>ionization [M+H]+
>formula C11H19N5S
>rt 613.200000
>profile qtof
#smiles_iso CC(C)(C)NC1=NC(=NC(=N1)NC2CC2)SC
#smiles_can CC(C)(C)NC1=NC(=NC(=N1)NC2CC2)SC
#inchikey HDHLIWCXDDZUFH-UHFFFAOYSA-N
#pubchem_id 91590
#mb_accession AU400801,AU400802,AU400803,AU400804,AU400805

>ms2peaks
198.080200 139940.000000
254.143700 2465172.000000
255.145700 323592.000000
256.139600 83924.000000

>ms2peaks
125.081200 13800.000000
198.080700 2232336.000000
199.826000 179696.000000
200.076300 85316.000000
254.143700 1126588.000000
255.145700 86280.000000
256.139600 24052.000000

>ms2peaks
116.027100 16672.000000
125.081400 76044.000000
150.076300 63228.000000
156.058000 110748.000000
157.060200 8276.000000
170.048300 32172.000000
171.069000 14476.000000
198.080700 1557584.000000
199.080700 119556.000000
200.076300 49372.000000

>ms2peaks
114.036700 1772.000000
116.027100 14356.000000
117.029900 784.000000
123.065700 2420.000000
125.081300 29544.000000
126.010600 948.000000
126.084400 1956.000000
127.006600 2764.000000
131.063000 788.000000
141.021500 1996.000000
143.037400 1632.000000
150.076300 37940.000000
151.080000 2272.000000
152.092300 3524.000000
153.020800 1104.000000
156.032800 7800.000000
156.058100 62516.000000
157.039800 824.000000
157.060600 4068.000000
158.049200 6496.000000
168.032500 8016.000000
170.048700 17764.000000
171.051100 1016.000000
171.068900 4680.000000
172.044100 964.000000
182.049100 3292.000000
183.057100 1484.000000
198.080700 147932.000000
199.080700 14568.000000
200.076300 6336.000000

>ms2peaks
114.036300 376.000000
116.026900 4608.000000
117.029600 564.000000
123.065500 1172.000000
125.081500 4224.000000
126.011300 1100.000000
126.083300 512.000000
127.006500 1232.000000
136.060500 988.000000
140.025700 416.000000
141.022200 668.000000
150.075900 5088.000000
151.006900 808.000000
151.080400 392.000000
152.092600 436.000000
153.020400 648.000000
155.017900 352.000000
156.033000 512.000000
156.058200 8560.000000
158.048500 2668.000000
168.033500 4292.000000
169.016500 544.000000
170.048500 3172.000000
171.068100 488.000000
182.048400 1764.000000
183.055600 420.000000
198.080700 5060.000000
199.080700 672.000000

