>compound AU12922190
>parentmass 302.1057
>ionization [M+H]+
>formula C13H19NO5S
>rt 332.858182
>profile qtof
#smiles_iso CC1=C(C(=CC=C1)C)N(CCOC)C(=O)CS(=O)(=O)O
#smiles_can CC1=C(C(=CC=C1)C)N(CCOC)C(=O)CS(=O)(=O)O
#inchikey RVSCDWJKJDBFRS-UHFFFAOYSA-N
#pubchem_id 86290104
#mb_accession AU204301,AU204302,AU204303,AU204304,AU204305,AU255501,AU255502,AU255503,AU255504,AU255505,AU255506

>ms2
270.079700 50488.000000
271.081800 7684.000000
272.077500 2724.000000
273.079700 492.000000
302.105500 40420.000000
303.108500 6412.000000
304.102300 1920.000000

>ms2
132.080000 908.000000
133.085400 468.000000
146.095700 316.000000
147.103200 3016.000000
148.108800 1244.000000
174.090700 3452.000000
175.093800 508.000000
189.114000 1736.000000
190.118600 428.000000
206.116200 772.000000
270.079000 52180.000000
271.081500 7088.000000
272.074400 2192.000000
302.106100 600.000000

>ms2
117.055800 376.000000
131.071200 324.000000
132.079400 8708.000000
133.083900 1240.000000
146.094300 2728.000000
148.110100 3340.000000
149.114800 336.000000
159.103200 596.000000
174.090200 15452.000000
175.094100 2044.000000
189.114100 1304.000000
190.120900 392.000000
206.117400 1024.000000
252.068200 356.000000
270.078700 10636.000000
271.080700 1968.000000
272.074900 616.000000

>ms2
117.057000 1220.000000
130.065200 752.000000
131.072100 1980.000000
132.079900 17756.000000
133.084200 2460.000000
144.079200 864.000000
145.087500 412.000000
146.095600 8628.000000
147.102800 3960.000000
148.110300 2284.000000
149.113900 372.000000
158.098200 504.000000
159.102800 936.000000
174.090300 16924.000000
175.094300 1684.000000
206.117800 416.000000
270.078000 704.000000

>ms2
117.057000 2628.000000
118.061800 516.000000
130.064000 2156.000000
131.072000 5200.000000
132.080000 17160.000000
133.083600 1868.000000
134.096300 324.000000
144.079100 1260.000000
145.088900 464.000000
146.095500 10736.000000
147.098600 1840.000000
148.111800 992.000000
158.095800 1056.000000
159.100500 528.000000
174.090500 6988.000000
175.093900 1020.000000

>ms2
261.003400 304.000000
270.079000 21912.000000
271.081800 3896.000000
272.075300 1112.000000
302.105000 13700.000000
303.108800 2652.000000
304.103100 744.000000

>ms2
132.079600 1092.000000
147.103500 2848.000000
148.107700 540.000000
174.090400 3864.000000
175.092200 420.000000
189.114100 1348.000000
190.121400 412.000000
206.118500 556.000000
259.083600 348.000000
270.079500 45596.000000
271.082000 7036.000000
272.076800 2168.000000
302.104900 524.000000

>ms2
117.055800 420.000000
131.069200 420.000000
132.079900 8616.000000
133.082700 1284.000000
145.086200 492.000000
146.095400 2152.000000
147.103100 8632.000000
148.109400 2424.000000
149.112600 328.000000
156.088800 384.000000
159.102500 624.000000
174.089900 14888.000000
175.093300 2260.000000
189.112800 1160.000000
190.121100 416.000000
204.102700 512.000000
206.117100 844.000000
252.065400 640.000000
270.079600 10408.000000
271.082600 1872.000000
272.078900 664.000000

>ms2
117.056200 1292.000000
130.063600 636.000000
131.071300 1580.000000
132.079300 13888.000000
133.083500 2044.000000
144.080100 420.000000
145.087000 416.000000
146.095200 6016.000000
147.102200 2404.000000
148.110300 1928.000000
158.095100 500.000000
159.101300 504.000000
174.089600 12640.000000
175.092400 2392.000000
206.115200 324.000000
270.079600 616.000000

>ms2
117.056800 828.000000
130.063200 968.000000
131.072500 2492.000000
132.079800 6964.000000
133.083400 800.000000
144.081300 616.000000
146.095200 5204.000000
147.098200 868.000000
148.111300 664.000000
158.096600 468.000000
174.090900 2740.000000
175.093500 656.000000

>ms2
132.080700 6212.000000
133.083700 904.000000
146.096700 1460.000000
147.103800 6324.000000
148.110700 1720.000000
159.104100 312.000000
174.091100 9776.000000
175.094400 1876.000000
189.114800 1608.000000
206.116300 816.000000
259.082600 336.000000
270.079400 21096.000000
271.083100 3600.000000
272.077500 1108.000000

