>compound AU12011478
>parentmass 267.933
>ionization [M+H]+
>formula C8H4Cl3NO3
>rt 232.120000
>profile qtof
#smiles_iso C1=C(C(=C(C(=C1Cl)Cl)C(=O)N)Cl)C(=O)O
#smiles_can C1=C(C(=C(C(=C1Cl)Cl)C(=O)N)Cl)C(=O)O
#inchikey XKFUETYLBPYNKF-UHFFFAOYSA-N
#pubchem_id 19028628
#mb_accession AU264801,AU264802,AU264803

>ms2
267.932300 1016.000000
269.930900 1376.000000

>ms2
250.903900 964.000000
252.902900 720.000000
267.932500 828.000000
269.930000 1072.000000

>ms2
250.902800 600.000000
252.899400 468.000000

