>compound AU12415724
>parentmass 413.1197
>ionization [M+H]+
>formula C21H21ClN4OS
>rt 432.460000
>profile qtof
#smiles_iso C1CN(CCN1CCC2=C(C=C3C(=C2)CC(=O)N3)Cl)C4=NSC5=CC=CC=C54
#smiles_can C1CN(CCN1CCC2=C(C=C3C(=C2)CC(=O)N3)Cl)C4=NSC5=CC=CC=C54
#inchikey MVWVFYHBGMAFLY-UHFFFAOYSA-N
#pubchem_id 60854
#mb_accession AU274701,AU274702,AU274703,AU274704,AU274705,AU274706

>ms2peaks
194.034800 1452.000000
413.120000 283192.000000
414.123200 69996.000000
415.117600 90944.000000

>ms2peaks
177.046500 7084.000000
191.116300 3748.000000
194.035500 34108.000000
195.038800 3588.000000
196.032600 10640.000000
220.089800 2292.000000
413.119600 287156.000000
414.122200 65496.000000
415.116700 86232.000000

>ms2peaks
130.065000 1940.000000
131.071500 2376.000000
159.066500 11312.000000
166.040800 9324.000000
168.037600 2300.000000
177.046800 45516.000000
178.049400 5208.000000
191.116900 17020.000000
192.122200 2008.000000
194.035800 298772.000000
195.038900 31320.000000
196.032900 69444.000000
197.035900 5084.000000
203.062700 2080.000000
205.078900 3788.000000
220.089300 12980.000000
221.092200 1604.000000
232.089300 2944.000000
237.077900 6884.000000
238.080100 1496.000000
239.076100 1620.000000
411.104800 2220.000000
413.119800 95144.000000
414.121800 26488.000000
415.117000 34548.000000

>ms2peaks
130.064200 9812.000000
131.071800 7872.000000
151.031200 2088.000000
158.058700 8204.000000
159.066700 55480.000000
160.069300 4740.000000
166.040700 42088.000000
167.044100 4280.000000
168.037800 8588.000000
177.046700 51164.000000
178.050200 5068.000000
191.116600 20412.000000
192.120300 3588.000000
194.036000 367236.000000
195.038900 33584.000000
196.032900 79928.000000
197.036100 5696.000000
203.062600 3300.000000
205.078400 3272.000000
217.066000 2200.000000
220.089500 9356.000000
232.091100 1952.000000
237.078400 2160.000000
413.118400 6748.000000
414.120700 1876.000000
415.116200 2392.000000

>ms2peaks
130.064000 28876.000000
131.071600 26976.000000
132.075500 2492.000000
134.004700 1216.000000
136.020500 2884.000000
139.029900 5076.000000
141.026600 1524.000000
149.015000 1408.000000
150.035500 2608.000000
151.015700 1120.000000
151.029500 2520.000000
158.058500 16608.000000
159.066700 115372.000000
160.020400 1124.000000
160.069600 12348.000000
166.040700 96644.000000
167.043800 10564.000000
168.037500 26232.000000
169.041500 1668.000000
175.031100 1212.000000
177.046800 38964.000000
178.049200 4132.000000
179.044000 1272.000000
191.116600 16564.000000
192.120800 2500.000000
194.035800 208120.000000
195.038600 21164.000000
196.032900 52524.000000
197.035300 4072.000000
203.062100 2604.000000
205.078100 1504.000000
217.066200 1952.000000
220.090100 2836.000000

>ms2peaks
130.064300 1572.000000
131.071500 1376.000000
158.058400 1568.000000
159.066700 11900.000000
160.070800 1396.000000
166.040600 9216.000000
168.038400 2224.000000
177.047200 38692.000000
178.049700 3404.000000
179.042900 1168.000000
191.117200 16932.000000
192.120200 1880.000000
194.035900 187248.000000
195.038900 26416.000000
196.033000 61684.000000
197.036100 4424.000000
203.064000 1408.000000
205.078400 2556.000000
220.090100 8792.000000
221.091500 1592.000000
232.090400 1876.000000
237.077900 5016.000000
239.075600 1432.000000
411.103800 1360.000000
413.119900 116876.000000
414.122500 35988.000000
415.117600 52108.000000

