>compound AU12452163
>parentmass 361.201
>ionization [M+H]+
>formula C21H28O5
>rt 467.060000
>profile qtof
#smiles_iso C[C@]12C[C@@H]([C@H]3[C@H]([C@@H]1CC[C@@]2(C(=O)CO)O)CCC4=CC(=O)C=C[C@]34C)O
#smiles_can CC12CC(C3C(C1CCC2(C(=O)CO)O)CCC4=CC(=O)C=CC34C)O
#inchikey OIGNJSKKLXVSLS-VWUMJDOOSA-N
#pubchem_id 5755
#mb_accession AU239801,AU239802,AU239803,AU239804,AU239805,AU239806

>ms2
121.064200 1056.000000
135.079000 1116.000000
147.079000 11300.000000
148.083200 1744.000000
161.094300 1208.000000
163.074300 964.000000
163.110600 760.000000
165.089500 1280.000000
171.078900 3204.000000
173.094500 4940.000000
187.109400 684.000000
197.093800 1020.000000
199.110700 1752.000000
211.109600 720.000000
213.126000 768.000000
223.110600 3048.000000
225.126200 1188.000000
227.141300 736.000000
237.126700 1568.000000
239.142100 1796.000000
241.156500 932.000000
249.125400 1412.000000
251.141600 716.000000
263.141600 1744.000000
265.157400 6124.000000
266.162300 1808.000000
267.172800 4320.000000
268.176500 808.000000
269.191300 944.000000
277.157100 1908.000000
279.136100 1520.000000
279.173600 7332.000000
280.178300 1724.000000
281.151900 1360.000000
283.170300 1968.000000
285.186200 1300.000000
289.157400 7972.000000
290.161200 1628.000000
295.167700 2996.000000
297.183600 3820.000000
298.186100 736.000000
307.168600 24544.000000
308.171400 6052.000000
309.183300 1288.000000
313.179100 1124.000000
315.200700 640.000000
325.179100 47024.000000
326.182100 10720.000000
327.193000 2816.000000
328.196400 624.000000
343.190100 124700.000000
344.192900 26024.000000
345.197400 4204.000000
359.182800 808.000000
361.200100 72524.000000
362.203800 17476.000000

>ms2
119.085400 920.000000
121.063900 11688.000000
122.067400 692.000000
123.079900 1168.000000
125.059600 1104.000000
127.074800 320.000000
131.083900 1128.000000
133.063900 1264.000000
133.100200 1492.000000
135.079400 5796.000000
135.115200 612.000000
136.083000 624.000000
137.059400 304.000000
137.095100 760.000000
139.074500 1368.000000
141.066800 496.000000
143.084000 1384.000000
145.063300 984.000000
145.099900 2572.000000
147.079200 44808.000000
148.082700 4252.000000
149.094700 2328.000000
149.132000 432.000000
151.073500 1196.000000
151.111900 316.000000
153.088500 540.000000
155.083600 756.000000
157.065000 664.000000
157.086800 368.000000
157.099800 1480.000000
158.070400 400.000000
159.079500 2844.000000
159.116500 1384.000000
161.058400 312.000000
161.094300 4900.000000
162.098200 468.000000
163.074400 3720.000000
163.110000 1680.000000
164.078300 396.000000
165.089800 3736.000000
165.126200 352.000000
166.092200 456.000000
167.087100 316.000000
169.099400 996.000000
171.079000 18512.000000
171.115300 1112.000000
172.082600 2428.000000
173.094600 19156.000000
174.099000 2356.000000
175.111000 2752.000000
177.090200 788.000000
179.106000 1092.000000
181.097900 420.000000
183.080200 468.000000
183.100300 756.000000
183.115300 836.000000
185.095200 3424.000000
185.132200 648.000000
186.098000 568.000000
187.074000 748.000000
187.111200 5252.000000
188.115000 804.000000
189.089800 772.000000
189.127700 768.000000
191.104700 800.000000
193.122800 452.000000
195.079800 444.000000
195.117500 596.000000
196.087400 312.000000
197.095200 2644.000000
197.134500 324.000000
198.100500 524.000000
199.111300 4380.000000
200.115100 964.000000
201.090900 356.000000
201.126900 2080.000000
203.106300 628.000000
205.120400 1328.000000
207.113600 488.000000
207.134300 388.000000
209.094700 1752.000000
209.129700 1132.000000
210.102300 608.000000
211.109900 4068.000000
211.150200 516.000000
212.115100 776.000000
213.090200 1184.000000
213.126000 3644.000000
214.094700 440.000000
214.129400 344.000000
215.106400 628.000000
215.145200 680.000000
217.121000 1040.000000
219.117700 308.000000
219.136300 336.000000
221.096200 1544.000000
221.129500 616.000000
222.097500 420.000000
223.111100 11596.000000
223.147700 792.000000
224.114600 2464.000000
225.093300 440.000000
225.126100 5304.000000
225.163400 432.000000
226.131400 1952.000000
227.105500 452.000000
227.141700 2256.000000
228.149400 524.000000
229.120400 524.000000
229.160500 684.000000
231.099100 516.000000
231.137100 732.000000
233.095400 448.000000
233.128100 328.000000
234.102400 352.000000
235.111000 1716.000000
235.146100 380.000000
237.125900 6668.000000
238.129200 1632.000000
239.142200 10048.000000
240.145600 1952.000000
241.122200 404.000000
241.157500 4684.000000
242.160400 612.000000
243.135000 572.000000
243.174000 1060.000000
245.134200 316.000000
245.153500 468.000000
247.110700 1572.000000
247.147300 404.000000
248.115600 668.000000
249.127000 4576.000000
249.162200 1864.000000
250.130600 888.000000
250.167200 360.000000
251.103000 548.000000
251.142100 3748.000000
251.178800 796.000000
252.145900 780.000000
253.124300 480.000000
253.159800 840.000000
255.137800 660.000000
255.172300 376.000000
260.119700 724.000000
261.127100 1916.000000
261.163400 644.000000
262.131400 532.000000
263.142300 5472.000000
263.178000 312.000000
264.149400 1744.000000
265.121000 652.000000
265.158400 12756.000000
266.164300 9508.000000
267.138100 1016.000000
267.172900 14656.000000
268.176600 3688.000000
269.118400 428.000000
269.155300 656.000000
269.189200 4412.000000
270.193600 684.000000
271.148200 544.000000
271.163700 316.000000
273.166300 420.000000
274.134000 1492.000000
275.142500 376.000000
276.149200 716.000000
277.158400 6848.000000
278.162500 1360.000000
279.138000 1704.000000
279.173700 13464.000000
280.141500 492.000000
280.177100 2848.000000
281.153000 1932.000000
281.188600 1704.000000
282.157100 564.000000
282.188700 360.000000
283.169500 1988.000000
284.172700 588.000000
285.183600 5380.000000
286.190500 912.000000
287.199000 1136.000000
289.158300 16280.000000
290.162200 4372.000000
291.174100 2672.000000
292.175600 380.000000
294.159700 300.000000
295.169600 4660.000000
296.171600 908.000000
297.146100 472.000000
297.184400 4880.000000
298.189500 1020.000000
299.165000 372.000000
299.196700 1016.000000
301.182600 336.000000
307.169100 20004.000000
308.172200 4356.000000
309.184000 6900.000000
310.189100 988.000000
313.178500 1372.000000
315.196800 1504.000000
325.179200 19984.000000
326.182900 5464.000000
327.194300 10928.000000
328.198500 1964.000000
343.190200 41288.000000
344.192600 9328.000000
345.204400 6948.000000
346.209000 708.000000
361.199600 880.000000

>ms2
115.052900 804.000000
117.068800 828.000000
119.084100 2460.000000
121.064000 19388.000000
122.067300 1336.000000
123.079600 2304.000000
125.059000 676.000000
127.075100 316.000000
128.060700 1364.000000
129.068400 1932.000000
130.076600 544.000000
131.048400 416.000000
131.085000 3492.000000
132.056000 1092.000000
132.091200 360.000000
133.063800 2164.000000
133.100400 3216.000000
134.103900 444.000000
135.079500 8276.000000
135.117300 576.000000
136.083300 720.000000
137.058800 604.000000
137.095200 1420.000000
139.074100 944.000000
141.069700 904.000000
142.076300 432.000000
143.084100 3324.000000
144.089000 516.000000
145.063600 2924.000000
145.100500 4676.000000
146.103500 888.000000
147.079300 44932.000000
147.114800 3092.000000
148.082900 4284.000000
149.095100 1732.000000
151.073800 956.000000
151.109900 740.000000
153.091100 616.000000
155.084900 1620.000000
156.090600 528.000000
157.063800 524.000000
157.099900 3464.000000
158.071300 1248.000000
158.105300 636.000000
159.079300 5536.000000
159.115600 3224.000000
160.119600 380.000000
161.094800 5124.000000
161.131000 652.000000
162.098200 620.000000
163.074700 2400.000000
163.110500 2944.000000
164.076700 316.000000
165.068800 456.000000
165.089100 1288.000000
165.125700 388.000000
167.084300 1000.000000
168.091900 372.000000
169.099700 2272.000000
170.069300 384.000000
170.105100 360.000000
171.079100 23860.000000
171.115400 2568.000000
172.084100 3260.000000
173.094700 24920.000000
173.129900 1328.000000
174.098100 2984.000000
175.074500 484.000000
175.110900 3224.000000
176.113100 304.000000
177.092000 432.000000
177.125100 1012.000000
179.083800 524.000000
179.105900 412.000000
180.091800 424.000000
181.102000 1340.000000
182.104600 556.000000
183.079000 936.000000
183.115300 1628.000000
184.087900 484.000000
185.095400 6368.000000
185.130600 1584.000000
186.098600 1244.000000
187.072200 300.000000
187.110400 5832.000000
187.147100 356.000000
188.114700 524.000000
189.089600 696.000000
189.125600 1728.000000
191.086700 324.000000
191.105600 776.000000
192.110400 388.000000
193.097300 888.000000
193.121200 484.000000
195.078700 1228.000000
195.115900 1828.000000
196.086800 848.000000
197.094600 3964.000000
197.130600 1296.000000
198.101600 792.000000
199.110600 5944.000000
199.145700 808.000000
200.114900 856.000000
201.092100 576.000000
201.126900 956.000000
203.108100 540.000000
203.143600 376.000000
205.099700 940.000000
205.119700 952.000000
206.106100 380.000000
207.116500 1432.000000
208.085800 1376.000000
208.120600 676.000000
209.094800 3048.000000
209.131200 1752.000000
210.100800 1452.000000
210.134900 376.000000
211.110500 5520.000000
211.145200 656.000000
212.117400 1760.000000
213.091800 680.000000
213.126600 3176.000000
214.130600 552.000000
215.105500 656.000000
215.141700 808.000000
217.100000 376.000000
217.122100 440.000000
219.116500 736.000000
219.135500 412.000000
220.123100 372.000000
221.095400 1832.000000
221.130200 1576.000000
222.102100 1708.000000
222.135200 352.000000
223.111000 12068.000000
223.146500 1596.000000
224.115500 2868.000000
225.126500 6096.000000
225.162100 904.000000
226.132000 2128.000000
227.106800 324.000000
227.141200 2432.000000
228.147000 780.000000
229.159700 420.000000
230.108500 352.000000
231.116100 380.000000
231.136700 372.000000
232.125700 308.000000
233.095300 344.000000
233.130800 412.000000
234.101500 1008.000000
234.135100 420.000000
235.110100 1584.000000
235.148000 876.000000
236.116000 820.000000
237.091500 364.000000
237.126600 7076.000000
237.163700 380.000000
238.131900 1992.000000
239.107500 700.000000
239.142200 9588.000000
240.146200 2220.000000
241.157400 4308.000000
242.162400 940.000000
243.115100 372.000000
243.136600 404.000000
243.174700 1064.000000
245.095900 464.000000
246.103400 480.000000
247.112700 1824.000000
247.147100 660.000000
248.116700 1228.000000
249.126300 4500.000000
249.163300 2364.000000
250.132300 1532.000000
250.166500 420.000000
251.107000 444.000000
251.141500 6172.000000
251.178100 1016.000000
252.113500 324.000000
252.146500 1456.000000
253.119900 608.000000
253.157300 1680.000000
255.136500 436.000000
255.170300 400.000000
259.111700 716.000000
260.117400 1612.000000
261.127300 1644.000000
261.160100 308.000000
262.133300 1036.000000
262.171100 308.000000
263.143200 3692.000000
263.178000 472.000000
264.148100 2428.000000
265.158200 7696.000000
266.164800 11988.000000
267.134800 644.000000
267.172500 7804.000000
268.179400 2560.000000
269.154200 700.000000
269.189400 4100.000000
270.191600 604.000000
271.146500 316.000000
271.168800 332.000000
274.134800 2384.000000
275.138600 760.000000
276.146600 840.000000
277.158200 2832.000000
278.160100 1064.000000
279.137000 752.000000
279.172800 3904.000000
280.176500 1188.000000
281.152400 948.000000
281.189600 1260.000000
282.161700 304.000000
283.169400 536.000000
285.184500 1580.000000
286.190200 612.000000
287.197500 560.000000
289.158100 5128.000000
290.161600 1260.000000
291.173400 1524.000000
292.146500 404.000000
294.161200 920.000000
295.167900 1548.000000
296.172500 508.000000
297.145900 516.000000
297.183100 2456.000000
298.186100 300.000000
299.165000 408.000000
299.200600 544.000000
307.169600 3752.000000
308.171200 812.000000
309.184000 4136.000000
310.187000 688.000000
313.177500 328.000000
315.197100 688.000000
325.180800 1540.000000
327.193100 3500.000000
328.199800 688.000000
343.189300 2040.000000
344.194400 992.000000
345.205100 820.000000

>ms2
115.054000 1284.000000
117.069400 1596.000000
119.084900 4244.000000
120.089400 536.000000
121.064200 17416.000000
122.067400 2036.000000
123.078900 2024.000000
125.057100 632.000000
128.061500 2896.000000
129.068000 2748.000000
130.076400 1152.000000
131.049000 624.000000
131.084500 3280.000000
132.055800 2552.000000
132.088900 424.000000
133.063200 2324.000000
133.099800 2948.000000
135.079300 6424.000000
135.114700 604.000000
136.081600 692.000000
137.057800 664.000000
137.094200 700.000000
139.075300 436.000000
141.069100 1976.000000
142.076000 1216.000000
143.084400 3328.000000
144.056000 652.000000
144.091000 620.000000
145.063500 5016.000000
145.099800 7212.000000
146.070100 1028.000000
146.102700 1040.000000
147.079300 36088.000000
147.115300 2932.000000
148.082700 3876.000000
149.094900 1552.000000
151.072800 460.000000
153.068800 1040.000000
154.076600 724.000000
155.083900 3388.000000
156.090400 688.000000
157.064900 816.000000
157.100300 3080.000000
158.071000 5748.000000
158.104900 512.000000
159.079000 7416.000000
159.116000 2320.000000
160.084400 1176.000000
160.120100 368.000000
161.094600 4424.000000
161.133400 320.000000
162.099000 556.000000
163.073800 1448.000000
163.110200 1800.000000
165.068900 1144.000000
165.090700 884.000000
166.077500 740.000000
167.083400 1212.000000
168.091800 704.000000
169.063400 1036.000000
169.099900 2392.000000
170.070100 952.000000
171.079200 25016.000000
171.116100 1848.000000
172.083900 3596.000000
172.121100 544.000000
173.094900 22516.000000
174.098100 2612.000000
175.111000 1844.000000
176.120000 412.000000
177.090500 552.000000
177.126000 520.000000
178.078400 596.000000
179.083700 1904.000000
180.090600 992.000000
181.063300 744.000000
181.100700 1968.000000
182.071800 944.000000
182.103900 496.000000
182.111100 484.000000
183.078000 1440.000000
183.115500 1720.000000
184.086600 1064.000000
185.094300 3776.000000
185.133000 956.000000
186.101500 916.000000
187.073500 436.000000
187.111100 2780.000000
188.113500 448.000000
189.089400 376.000000
189.126900 716.000000
190.075900 888.000000
191.084400 732.000000
192.090800 904.000000
193.100500 1728.000000
194.071900 624.000000
194.105300 788.000000
195.078700 3100.000000
195.115900 1712.000000
196.087100 2240.000000
196.122700 388.000000
197.095000 5164.000000
197.131000 980.000000
198.100500 1620.000000
198.137300 304.000000
199.110600 2632.000000
199.146800 552.000000
200.113500 520.000000
201.126900 648.000000
203.082800 396.000000
205.099500 2332.000000
205.122600 300.000000
206.106500 968.000000
207.079700 432.000000
207.116400 1776.000000
208.086700 4216.000000
208.121200 596.000000
209.094700 5660.000000
209.130400 1016.000000
210.102700 2568.000000
211.109700 5040.000000
211.146100 780.000000
212.116200 2124.000000
213.087700 332.000000
213.126000 2412.000000
214.130600 552.000000
215.142800 400.000000
217.099700 552.000000
218.109800 592.000000
219.078600 732.000000
219.115600 772.000000
220.088500 624.000000
220.121900 448.000000
221.095700 2828.000000
221.130700 1364.000000
222.102000 3036.000000
223.110200 9868.000000
223.151000 684.000000
224.115600 4836.000000
225.125900 3440.000000
225.161000 504.000000
226.134900 2028.000000
227.140100 1208.000000
228.149300 328.000000
229.096700 364.000000
230.106700 408.000000
231.079300 480.000000
231.119000 528.000000
232.088300 384.000000
232.124800 332.000000
233.096500 1016.000000
233.129200 552.000000
234.104400 2004.000000
234.138800 396.000000
235.109600 1696.000000
235.146400 520.000000
236.118700 1396.000000
236.150200 308.000000
237.091000 396.000000
237.126400 4980.000000
238.131900 1464.000000
239.143100 4024.000000
239.175700 332.000000
240.146800 804.000000
241.099600 380.000000
241.157700 1092.000000
242.164800 340.000000
243.173200 460.000000
244.121700 324.000000
245.094200 756.000000
245.130600 420.000000
246.101600 952.000000
246.136700 432.000000
247.110100 1696.000000
247.146900 392.000000
248.119200 1880.000000
248.153400 348.000000
249.125800 2940.000000
249.162200 2016.000000
250.132400 1168.000000
250.163200 432.000000
251.141400 8568.000000
251.176200 528.000000
252.146300 2252.000000
253.158200 1308.000000
256.129300 360.000000
259.111800 1724.000000
260.116900 1648.000000
261.128600 1232.000000
262.133100 1076.000000
263.141800 1720.000000
264.148300 1944.000000
265.158500 2880.000000
266.166400 5332.000000
267.171800 2008.000000
268.179200 828.000000
269.188700 488.000000
273.125400 540.000000
274.134100 2000.000000
275.136300 680.000000
276.149700 656.000000
277.158100 640.000000
278.163500 464.000000
279.137000 512.000000
279.175800 1396.000000
280.173700 300.000000
281.154900 404.000000
281.191500 392.000000
289.158000 1220.000000
291.168400 556.000000
294.162100 540.000000
295.166800 656.000000
297.182800 360.000000
307.166800 372.000000
309.186900 300.000000

>ms2
115.054200 3212.000000
116.060000 788.000000
117.069100 2280.000000
119.084600 4288.000000
120.088200 500.000000
121.063900 15588.000000
122.067000 1536.000000
123.080300 1332.000000
127.053100 492.000000
128.060800 6496.000000
129.068500 6580.000000
130.075300 2276.000000
131.047800 1908.000000
131.084700 5060.000000
132.055700 5316.000000
132.088900 848.000000
133.063200 1908.000000
133.100600 1884.000000
135.079200 3968.000000
135.116900 400.000000
136.084200 592.000000
137.057200 336.000000
141.068900 3724.000000
142.075300 2432.000000
143.084500 5164.000000
144.055800 2048.000000
145.062900 6320.000000
145.099700 6712.000000
146.070600 2484.000000
146.104400 744.000000
147.079300 24816.000000
147.115800 1972.000000
148.083100 2536.000000
149.093500 1160.000000
150.105400 368.000000
152.060300 1176.000000
153.067300 2144.000000
154.076600 1256.000000
155.084400 4724.000000
156.090700 1264.000000
157.063600 2452.000000
157.099200 2732.000000
158.070900 11384.000000
159.078800 7500.000000
159.115700 1628.000000
160.085800 1312.000000
161.094800 2916.000000
163.074700 812.000000
163.110600 1320.000000
165.068800 3476.000000
166.075100 1604.000000
167.084100 1964.000000
168.054500 376.000000
168.091500 1104.000000
169.063200 1608.000000
169.099800 2592.000000
170.071200 1292.000000
170.106100 344.000000
171.079100 21136.000000
172.083600 2760.000000
172.122800 576.000000
173.095100 11996.000000
174.098900 1688.000000
175.110500 848.000000
176.116700 308.000000
177.068500 308.000000
177.090500 320.000000
178.077100 1928.000000
179.084700 3108.000000
180.090400 1980.000000
181.063100 1884.000000
181.099700 1868.000000
182.070500 1880.000000
182.106800 796.000000
183.078700 1904.000000
183.116300 1256.000000
184.086500 1092.000000
184.118400 300.000000
185.094100 3380.000000
185.130100 828.000000
186.101500 716.000000
187.110300 936.000000
189.069700 852.000000
189.124800 472.000000
190.076500 1652.000000
191.083600 1800.000000
192.092300 1740.000000
193.099900 2232.000000
194.070800 720.000000
194.105300 1228.000000
195.078200 4980.000000
195.115600 1900.000000
196.086700 3536.000000
196.121000 872.000000
197.094400 4000.000000
197.132400 1072.000000
198.101800 1868.000000
199.110600 1468.000000
199.148800 656.000000
200.117600 344.000000
201.126000 352.000000
202.076500 412.000000
203.084300 1160.000000
204.091600 1212.000000
205.099300 2612.000000
206.073700 316.000000
206.107600 1580.000000
207.080300 1684.000000
207.116500 1680.000000
208.087000 6156.000000
208.125900 372.000000
209.094100 6092.000000
209.129600 1072.000000
210.101900 3088.000000
211.110100 4464.000000
211.146100 404.000000
212.117000 896.000000
213.125800 840.000000
215.084900 516.000000
216.090400 824.000000
217.099400 1128.000000
218.070500 300.000000
218.106900 808.000000
219.078400 940.000000
219.118100 792.000000
220.085400 644.000000
220.122600 508.000000
221.094600 2808.000000
221.131500 572.000000
222.102000 3860.000000
223.110100 6680.000000
223.148100 504.000000
224.117200 2388.000000
225.124700 1568.000000
226.134600 1100.000000
227.141500 612.000000
228.092700 516.000000
228.148200 612.000000
229.099800 440.000000
230.109000 464.000000
231.079000 888.000000
231.116400 996.000000
232.086100 936.000000
232.124600 424.000000
233.095200 1908.000000
233.131200 524.000000
234.102500 1832.000000
234.144800 364.000000
235.110200 1572.000000
236.116900 1544.000000
237.126400 2372.000000
238.132100 1056.000000
239.142700 1132.000000
240.145000 328.000000
241.098200 512.000000
241.157500 320.000000
243.118500 304.000000
244.089400 656.000000
245.095500 964.000000
245.133100 312.000000
246.102300 728.000000
246.139200 308.000000
247.110600 1120.000000
248.118200 1692.000000
249.126100 1248.000000
249.163500 1280.000000
250.131400 636.000000
251.141800 7244.000000
252.145900 1536.000000
253.157500 1196.000000
258.100100 412.000000
259.111900 1384.000000
260.117400 668.000000
261.126100 588.000000
262.133400 448.000000
263.140400 668.000000
264.149900 304.000000
265.122600 376.000000
265.157000 1908.000000
266.166700 900.000000
267.168700 392.000000
273.128100 604.000000
274.131200 536.000000
279.136900 320.000000
294.159500 412.000000

>ms2
57.032600 300.000000
67.053700 448.000000
69.069000 388.000000
79.054200 456.000000
81.069200 896.000000
83.049800 352.000000
91.054400 300.000000
93.069600 612.000000
95.085400 476.000000
97.064900 640.000000
105.069400 596.000000
107.085100 1104.000000
109.066900 496.000000
109.102600 336.000000
111.081700 320.000000
115.052700 448.000000
117.069700 700.000000
119.085300 2596.000000
120.087800 304.000000
121.064300 20672.000000
122.067700 1336.000000
123.079300 2372.000000
125.059400 768.000000
127.073100 312.000000
128.060800 772.000000
129.069900 668.000000
131.047800 360.000000
131.084100 2868.000000
132.054000 664.000000
132.089000 456.000000
133.063700 2512.000000
133.099700 2172.000000
135.079900 8352.000000
135.115200 560.000000
136.084300 556.000000
137.057700 404.000000
137.094800 1068.000000
139.074000 1408.000000
141.069300 968.000000
143.085000 2568.000000
144.089500 440.000000
145.063600 1900.000000
145.099900 5148.000000
146.070800 492.000000
146.104200 676.000000
147.079500 46676.000000
147.115700 2352.000000
148.082200 5308.000000
148.117700 332.000000
149.095600 1892.000000
149.131800 620.000000
151.073400 1228.000000
151.110800 460.000000
153.088800 616.000000
155.083900 1400.000000
157.084800 512.000000
157.100200 2936.000000
158.071500 1208.000000
158.103600 508.000000
159.079400 6032.000000
159.116700 2536.000000
160.083900 912.000000
160.121800 464.000000
161.095000 5500.000000
161.131300 688.000000
162.100200 664.000000
163.074400 2396.000000
163.110200 2636.000000
164.114100 312.000000
165.091200 2128.000000
165.126600 380.000000
167.085300 564.000000
169.063700 372.000000
169.099900 2228.000000
170.104600 376.000000
171.079600 21804.000000
171.115900 1388.000000
172.083100 2644.000000
172.121300 436.000000
173.095200 22604.000000
174.099200 3356.000000
175.110000 2944.000000
176.119400 336.000000
177.091000 644.000000
177.125600 588.000000
179.084200 312.000000
179.107300 452.000000
181.099900 980.000000
182.073900 320.000000
182.104600 372.000000
183.081100 664.000000
183.099300 436.000000
183.115600 1236.000000
184.086300 364.000000
185.094400 4400.000000
185.131400 1384.000000
186.101000 732.000000
186.134300 300.000000
187.073000 384.000000
187.111100 5460.000000
188.115000 624.000000
189.089000 572.000000
189.126500 1244.000000
191.105100 1036.000000
193.102600 688.000000
194.104600 336.000000
195.078700 928.000000
195.116300 1192.000000
196.087500 672.000000
197.095800 4092.000000
197.132600 1184.000000
198.101600 1156.000000
199.111000 4464.000000
199.146100 684.000000
200.113900 888.000000
201.089600 332.000000
201.125800 1368.000000
202.137400 308.000000
203.106100 356.000000
204.093500 340.000000
205.101600 572.000000
205.121600 628.000000
207.116600 1040.000000
208.087100 944.000000
209.094900 2840.000000
209.131100 1676.000000
210.101300 1164.000000
211.111300 5536.000000
211.145800 756.000000
212.116600 1128.000000
213.089500 956.000000
213.126600 4360.000000
214.128900 508.000000
215.105700 512.000000
215.141700 628.000000
217.100300 356.000000
217.121700 1032.000000
218.118800 304.000000
219.116200 664.000000
219.133400 364.000000
220.123800 344.000000
221.095000 1920.000000
221.131000 1200.000000
222.101500 1444.000000
222.136800 400.000000
223.111000 12636.000000
223.145600 1028.000000
224.116700 2524.000000
225.089100 316.000000
225.126100 5984.000000
225.164400 788.000000
226.134600 1800.000000
227.143000 2252.000000
228.148300 448.000000
229.122500 360.000000
229.159100 536.000000
231.113800 392.000000
231.139300 588.000000
232.119100 320.000000
232.126700 328.000000
233.133400 316.000000
234.102500 724.000000
235.111600 1488.000000
235.149800 616.000000
236.117000 448.000000
237.090500 424.000000
237.126400 6016.000000
237.160700 348.000000
238.132300 1380.000000
239.142900 9512.000000
239.178300 580.000000
240.144600 2184.000000
241.123600 388.000000
241.158100 4912.000000
242.162300 1024.000000
243.134400 376.000000
243.170400 1004.000000
245.092800 316.000000
245.128600 560.000000
245.156000 340.000000
246.104000 580.000000
247.112200 1484.000000
247.147100 808.000000
248.118300 1320.000000
249.126100 4036.000000
249.163100 2400.000000
250.131500 1312.000000
250.169000 456.000000
251.106000 500.000000
251.142800 7936.000000
251.177800 500.000000
252.113800 344.000000
252.147100 1336.000000
253.122000 524.000000
253.157400 928.000000
255.139800 644.000000
255.171500 440.000000
257.152200 432.000000
259.112500 588.000000
260.118600 1116.000000
261.125700 2172.000000
261.160300 728.000000
262.135300 824.000000
263.142900 4752.000000
263.175800 476.000000
264.145800 1752.000000
265.158400 8192.000000
266.165800 9172.000000
267.139000 772.000000
267.173800 9028.000000
268.178700 2668.000000
269.153800 824.000000
269.188200 3108.000000
270.193300 648.000000
271.143100 356.000000
271.169500 412.000000
273.162600 440.000000
274.135300 1864.000000
275.138500 620.000000
276.149600 716.000000
277.159700 4840.000000
278.162600 948.000000
279.138100 1520.000000
279.174000 6320.000000
280.139900 416.000000
280.176500 1480.000000
281.152700 1260.000000
281.189900 1408.000000
282.192300 560.000000
283.167200 1156.000000
285.184200 3048.000000
286.187500 904.000000
287.199900 588.000000
289.158200 8688.000000
290.162000 2792.000000
291.173700 1912.000000
292.179600 396.000000
294.159900 804.000000
295.170000 2824.000000
296.174800 912.000000
297.148500 776.000000
297.184700 3520.000000
298.188700 620.000000
299.199600 552.000000
307.169400 8332.000000
308.171400 2028.000000
309.184800 4324.000000
310.187500 776.000000
313.185400 356.000000
315.194800 688.000000
325.179800 5536.000000
326.183600 2140.000000
327.195200 5876.000000
328.200600 672.000000
343.190900 11088.000000
344.195900 2660.000000
345.202600 3000.000000
346.209200 412.000000

