>compound AU12943657
>parentmass 226.0935
>ionization [M+H]+
>formula C8H11N5O3
>rt 248.235000
>profile qtof
#smiles_iso C1=NC2=C(N1COCCO)N=C(NC2=O)N
#smiles_can C1=NC2=C(N1COCCO)N=C(NC2=O)N
#inchikey MKUXAQIIEYXACX-UHFFFAOYSA-N
#pubchem_id 135398513
#mb_accession AU278001,AU278002,AU278005,AU278006

>ms2peaks
226.093500 11764.000000
227.097400 1228.000000

>ms2peaks
165.052800 432.000000
226.097100 472.000000

>ms2peaks
135.028900 2132.000000
152.055600 468.000000
153.039400 1308.000000

>ms2peaks
165.053500 380.000000
226.096000 448.000000

