>compound AU12450407
>parentmass 122.0964
>ionization [M+H]+
>formula C8H11N
>rt 228.960000
>profile qtof
#smiles_iso C1=CC=C(C=C1)CCN
#smiles_can C1=CC=C(C=C1)CCN
#inchikey BHHGXPLMPWCGHP-UHFFFAOYSA-N
#pubchem_id 1001
#mb_accession AU510901

>ms2peaks
105.071400 816.000000
122.096500 18112.000000
123.099800 1848.000000

