>compound AU12511096
>parentmass 327.0081
>ionization [M+H]+
>formula C9H18Cl3O4P
>rt 626.664000
>profile qtof
#smiles_iso CC(CCl)OP(=O)(OC(C)CCl)OC(C)CCl
#smiles_can CC(CCl)OP(=O)(OC(C)CCl)OC(C)CCl
#inchikey KVMPUXDNESXNOH-UHFFFAOYSA-N
#pubchem_id 26176
#mb_accession AU247001,AU247002,AU247003,AU247004,AU247005

>ms2peaks
174.990900 37660.000000
175.995000 1196.000000
176.988800 6248.000000
193.001900 696.000000
250.999500 42020.000000
252.002400 2628.000000
252.997500 17928.000000
254.001000 648.000000
254.996500 300.000000
327.007600 14964.000000
328.013500 1756.000000
329.005100 13712.000000

>ms2peaks
174.990800 15352.000000
175.996500 740.000000
176.988600 3128.000000
250.999600 1564.000000
252.996400 1048.000000

>ms2peaks
138.995200 480.000000
141.068600 368.000000
150.045800 436.000000
151.054300 812.000000
152.060900 25608.000000
153.068700 35148.000000
154.072500 4568.000000
155.059600 388.000000
157.004600 372.000000
168.056400 2924.000000
169.062700 3388.000000
170.069600 1156.000000
171.079400 4588.000000
172.084500 600.000000
175.014500 2800.000000
179.059300 1448.000000
180.062600 356.000000
181.074900 632.000000
187.029300 764.000000
202.075200 1048.000000
203.083300 536.000000
205.042000 368.000000
215.024400 10400.000000
216.030500 2188.000000
233.035500 46892.000000
234.038100 6856.000000
235.039600 796.000000
252.048600 4740.000000
253.053200 612.000000

>ms2peaks
128.059000 320.000000
138.993500 1216.000000
139.999000 608.000000
141.069500 624.000000
145.063200 472.000000
150.045700 648.000000
151.051700 1796.000000
152.061200 45292.000000
153.068000 23588.000000
154.071800 2876.000000
155.059800 592.000000
155.077100 352.000000
157.003800 652.000000
168.056000 12428.000000
169.062800 6980.000000
170.069600 1304.000000
171.080400 976.000000
175.014100 3244.000000
179.059900 2192.000000
180.064600 448.000000
181.074500 392.000000
187.029600 2288.000000
188.033500 360.000000
202.076600 1044.000000
203.084600 588.000000
215.025000 10000.000000
216.027800 2324.000000
233.035300 24052.000000
234.039900 3968.000000
235.039900 444.000000
252.048700 2968.000000
253.053000 308.000000

>ms2peaks
150.043200 368.000000
151.054400 812.000000
152.061100 11864.000000
153.066400 2724.000000
155.060700 320.000000
168.056200 4440.000000
169.062300 1688.000000
170.069800 316.000000
175.014900 688.000000
179.058400 768.000000
187.028600 980.000000
202.078800 368.000000
215.023900 1328.000000
233.034500 1372.000000
234.038800 336.000000

