>compound AU13330902
>parentmass 310.2165
>ionization [M+H]+
>formula C21H27NO
>rt 480.000000
>profile qtof
#smiles_iso CCC(=O)C(CC(C)N(C)C)(C1=CC=CC=C1)C2=CC=CC=C2
#smiles_can CCC(=O)C(CC(C)N(C)C)(C1=CC=CC=C1)C2=CC=CC=C2
#inchikey USSIQXCVUWKGNF-UHFFFAOYSA-N
#pubchem_id 4095
#mb_accession AU162801,AU162802,AU162803,AU162804,AU162805

>ms2peaks
265.159200 455396.000000
310.217200 1924628.000000

>ms2peaks
223.110700 100584.000000
247.147300 54284.000000
265.158100 1785524.000000
310.215700 73236.000000

>ms2peaks
115.053500 6596.000000
116.057700 724.000000
117.068900 19948.000000
118.072300 2328.000000
119.084000 808.000000
128.061000 3316.000000
129.068600 14708.000000
130.072700 2204.000000
131.048200 592.000000
131.084600 6104.000000
132.088300 1024.000000
135.079200 5376.000000
141.068300 1668.000000
143.084100 7016.000000
144.088000 928.000000
145.063400 9564.000000
145.099600 4080.000000
147.079000 5828.000000
153.068700 680.000000
154.076400 1096.000000
155.082600 1236.000000
158.071300 1584.000000
159.078900 7164.000000
159.115600 30132.000000
160.119100 4012.000000
161.095300 1976.000000
165.069400 1204.000000
167.084300 10760.000000
168.087800 1828.000000
169.099800 6584.000000
170.103400 1160.000000
178.076500 3160.000000
179.083900 4116.000000
180.088300 860.000000
183.079000 2108.000000
187.110300 14868.000000
188.114100 2072.000000
191.084100 4664.000000
192.090900 1516.000000
193.098900 1496.000000
194.071600 5624.000000
195.078800 5336.000000
195.115800 78784.000000
196.083200 836.000000
196.119100 13320.000000
197.122300 752.000000
203.084200 2360.000000
205.099700 20604.000000
206.104200 3864.000000
207.115200 8820.000000
208.119800 1632.000000
209.095200 720.000000
209.132200 1044.000000
217.099600 2332.000000
219.116000 113384.000000
220.119100 17604.000000
221.094900 924.000000
221.127800 1772.000000
223.111000 112444.000000
224.114500 20452.000000
225.118500 1956.000000
232.123600 7308.000000
233.126400 1304.000000
236.118300 9836.000000
237.122300 1828.000000
247.147200 28220.000000
248.150200 6404.000000
265.158000 115460.000000
267.164300 2036.000000

>ms2peaks
115.054100 13424.000000
116.057800 1732.000000
117.069600 29348.000000
118.072300 2436.000000
119.084300 332.000000
127.053300 1048.000000
129.069100 19456.000000
130.074200 2708.000000
131.048700 1272.000000
131.084700 5616.000000
132.054700 524.000000
132.088700 536.000000
135.079400 2048.000000
136.084700 300.000000
141.069300 5916.000000
142.073800 856.000000
143.048400 420.000000
143.084700 5464.000000
144.056000 768.000000
144.089800 880.000000
145.063900 11424.000000
145.100600 1880.000000
147.079800 3504.000000
152.061600 2452.000000
153.067900 772.000000
154.076800 2192.000000
155.059400 2112.000000
155.083400 888.000000
156.091800 408.000000
157.063300 452.000000
158.072000 2772.000000
159.079700 4336.000000
159.116100 6880.000000
160.118400 756.000000
161.097100 312.000000
165.069300 5520.000000
166.076300 2684.000000
167.084800 28812.000000
168.088400 4336.000000
169.075000 500.000000
169.100200 2992.000000
170.104600 468.000000
172.086500 412.000000
177.070400 352.000000
180.092200 2676.000000
181.064000 320.000000
181.100200 1588.000000
183.079900 704.000000
187.110800 1380.000000
189.068000 392.000000
190.076500 2788.000000
192.091200 2852.000000
193.100000 1804.000000
195.077900 6016.000000
195.116200 24436.000000
196.119300 4224.000000
202.076900 3088.000000
205.099100 20632.000000
206.105100 4336.000000
207.082100 344.000000
207.115600 2696.000000
208.087100 1644.000000
208.122800 728.000000
209.095000 2448.000000
210.100700 348.000000
215.084700 428.000000
216.092200 460.000000
219.116100 42380.000000
221.095400 3868.000000
221.121600 920.000000
222.100400 732.000000
224.117100 4564.000000
225.119900 868.000000
231.118500 524.000000
232.124400 5432.000000
233.130000 1116.000000
235.113600 1376.000000
236.119000 6412.000000
237.122600 1432.000000
247.147800 1580.000000
248.151000 512.000000
265.158800 1736.000000
266.160700 612.000000

>ms2peaks
115.053800 16884.000000
116.059000 1712.000000
117.069200 21216.000000
118.072400 1672.000000
126.044300 348.000000
127.053800 2088.000000
129.068700 16636.000000
130.074400 2388.000000
131.048100 1812.000000
131.084800 3680.000000
132.054700 524.000000
132.087900 628.000000
135.079500 416.000000
141.069000 8096.000000
142.074700 1384.000000
143.047200 752.000000
143.084500 1876.000000
144.055800 824.000000
144.090200 456.000000
145.063400 7872.000000
145.099900 656.000000
147.079600 988.000000
151.052000 436.000000
153.067400 2464.000000
154.076600 2604.000000
155.059200 4100.000000
155.083300 764.000000
157.063400 1020.000000
158.071000 2324.000000
159.079100 1812.000000
159.117400 1236.000000
167.084400 27896.000000
168.087800 3824.000000
169.099400 876.000000
172.086700 476.000000
177.069300 668.000000
179.083800 6168.000000
180.091100 2008.000000
181.098900 1520.000000
182.107100 420.000000
189.069700 2216.000000
190.076500 4852.000000
192.090600 3200.000000
193.100100 1680.000000
194.071700 25800.000000
195.076600 4328.000000
195.116500 2268.000000
196.082500 620.000000
196.118400 424.000000
204.092400 57660.000000
205.097400 14404.000000
206.104200 1824.000000
207.082200 660.000000
207.115100 596.000000
208.087600 1288.000000
209.094100 1236.000000
215.083800 1912.000000
216.093100 1364.000000
219.113700 8216.000000
220.118700 1312.000000
221.095800 3624.000000
222.099100 732.000000
223.110900 676.000000
224.117100 468.000000
231.116300 440.000000
232.123500 1796.000000
233.128800 476.000000
235.111600 1080.000000
236.118300 1308.000000
237.121800 396.000000

