>compound AU13780670
>parentmass 288.2533
>ionization [M+H]+
>formula C16H33NO3
>rt 702.510000
>profile qtof
#smiles_iso CCCCCCCCCCCC(=O)N(CCO)CCO
#smiles_can CCCCCCCCCCCC(=O)N(CCO)CCO
#inchikey AOMUHOFOVNGZAN-UHFFFAOYSA-N
#pubchem_id 8430
#mb_accession AU284601,AU284602,AU284603,AU284604,AU284605,AU284606

>ms2
227.199600 18384.000000
228.202800 3020.000000
270.241700 6988.000000
288.253100 573692.000000
289.256100 86960.000000
290.259400 8804.000000

>ms2
165.160800 588.000000
183.172700 2604.000000
227.199600 84684.000000
228.202500 15588.000000
229.205200 1504.000000
230.245700 1224.000000
270.242000 17868.000000
271.245200 3908.000000
272.246200 504.000000
288.252600 26460.000000
289.255200 5392.000000
290.259900 604.000000

>ms2
123.116100 412.000000
183.173300 544.000000
226.214800 2692.000000
227.199800 35200.000000
228.203200 7260.000000
230.245600 436.000000
270.241800 14168.000000
271.245200 2872.000000

>ms2
142.084900 348.000000
226.215700 2592.000000
227.200100 3556.000000
228.203100 956.000000
270.241400 2568.000000
271.245300 424.000000

>ms2
126.090500 312.000000
142.085500 396.000000
226.213600 572.000000
227.200500 320.000000

>ms2
55.053800 1420.000000
57.069300 14992.000000
58.073400 648.000000
60.043600 476.000000
62.059200 636.000000
67.053500 2424.000000
68.048600 440.000000
69.069200 952.000000
70.064600 22344.000000
71.068400 888.000000
71.084900 8496.000000
72.088400 348.000000
73.028400 488.000000
81.069900 2032.000000
83.085300 1264.000000
85.101000 3100.000000
88.075800 66200.000000
89.079000 2760.000000
95.085700 3392.000000
97.101500 680.000000
106.088100 38192.000000
107.091000 2588.000000
109.101200 1064.000000
123.115800 460.000000
165.162800 468.000000
183.172300 2332.000000
184.176500 408.000000
226.215200 2088.000000
227.200000 68976.000000
228.203000 10632.000000
229.205100 1196.000000
230.248000 532.000000
270.242100 16288.000000
271.244700 3300.000000
288.252800 9572.000000
289.256700 2160.000000

