>compound AU13922616
>parentmass 413.3288
>ionization [M+H]+
>formula C27H42NO2+
>rt 686.460000
>profile qtof
#smiles_iso CC(C)(C)CC(C)(C)C1=CC=C(C=C1)OCCOCC[N+](C)(C)CC2=CC=CC=C2
#smiles_can CC(C)(C)CC(C)(C)C1=CC=C(C=C1)OCCOCC[N+](C)(C)CC2=CC=CC=C2
#inchikey SIYLLGKDQZGJHK-UHFFFAOYSA-N
#pubchem_id 2335
#mb_accession AU284001,AU284002,AU284003,AU284004

>ms2peaks
412.321100 624580.000000
413.324200 158660.000000
414.327400 24084.000000

>ms2peaks
300.194100 4248.000000
320.258600 11944.000000
412.320800 587024.000000
413.324200 155152.000000
414.327200 25344.000000

>ms2peaks
208.131000 1860.000000
233.189200 2288.000000
300.195000 30148.000000
301.198400 6336.000000
320.257900 114904.000000
321.261200 25624.000000
322.263500 3844.000000
412.320900 341484.000000
413.324100 93576.000000
414.326400 16620.000000

>ms2peaks
116.106600 1372.000000
121.063800 1316.000000
134.096200 1940.000000
135.078900 2380.000000
135.103200 856.000000
135.115500 840.000000
136.108800 744.000000
149.094900 1656.000000
159.115800 968.000000
161.095200 764.000000
177.126200 1032.000000
204.137100 1560.000000
208.131800 6080.000000
209.135500 1084.000000
233.188900 6744.000000
234.191300 1328.000000
277.214300 860.000000
300.195300 10604.000000
301.197100 2188.000000
320.257600 137148.000000
321.260800 33404.000000
322.264700 4632.000000
412.319900 23484.000000
413.322700 8544.000000
414.328600 1544.000000

