>compound AU13413822
>parentmass 291.0895
>ionization [M+H]+
>formula C15H15ClN2O2
>rt 600.684000
>profile qtof
#smiles_iso CN(C)C(=O)NC1=CC=C(C=C1)OC2=CC=C(C=C2)Cl
#smiles_can CN(C)C(=O)NC1=CC=C(C=C1)OC2=CC=C(C=C2)Cl
#inchikey IVUXTESCPZUGJC-UHFFFAOYSA-N
#pubchem_id 16115
#mb_accession AU261201,AU261202,AU261203,AU261205,AU261206

>ms2peaks
164.093000 14920.000000
291.090300 2501240.000000
292.092500 572912.000000
293.086900 897984.000000

>ms2peaks
118.064200 13748.000000
147.067000 16520.000000
163.085400 10064.000000
164.093300 125956.000000
165.096800 11920.000000
218.036100 43372.000000
219.038900 6520.000000
220.032900 12132.000000
246.030800 8028.000000
291.089500 1081476.000000
292.092700 133344.000000
293.086700 200356.000000

>ms2peaks
118.064300 18236.000000
119.068900 2608.000000
120.079700 2532.000000
126.993600 2792.000000
127.053000 724.000000
128.060800 3908.000000
128.990900 892.000000
134.022500 652.000000
145.063000 1220.000000
146.059000 1376.000000
147.066800 8108.000000
148.069500 852.000000
149.014200 736.000000
149.069500 4008.000000
154.064200 1244.000000
155.059800 2220.000000
155.071300 2132.000000
163.029700 17072.000000
163.085500 12004.000000
164.033000 1636.000000
164.092800 23040.000000
165.026600 4580.000000
165.095700 2452.000000
168.054700 940.000000
182.058100 748.000000
183.067100 2764.000000
190.039900 5100.000000
191.027400 916.000000
192.036400 1388.000000
211.061400 1948.000000
218.036000 125452.000000
219.038600 17652.000000
220.032900 31300.000000
221.036700 2512.000000
246.030700 3340.000000
248.028000 1096.000000
291.088800 14148.000000
292.092000 2388.000000
293.087100 4400.000000

>ms2peaks
110.999000 1392.000000
115.053500 752.000000
118.064200 4696.000000
119.036000 332.000000
119.068000 584.000000
120.079100 788.000000
126.044100 848.000000
126.993100 656.000000
127.053100 7276.000000
128.061000 39292.000000
129.010200 332.000000
129.064500 5068.000000
130.066300 584.000000
131.048700 308.000000
132.043000 1328.000000
139.004000 568.000000
139.053100 3148.000000
140.059500 1852.000000
145.063300 10300.000000
146.066800 1420.000000
149.013800 4572.000000
150.020500 756.000000
151.011200 1256.000000
151.999700 1316.000000
153.054300 652.000000
154.063500 11184.000000
155.058700 16852.000000
155.070000 10816.000000
156.059800 2328.000000
162.020600 720.000000
163.029200 29092.000000
164.032000 3152.000000
165.026500 6272.000000
166.029200 620.000000
168.055200 7168.000000
169.059700 856.000000
170.059600 332.000000
173.014100 476.000000
175.029700 1508.000000
176.030400 312.000000
177.026200 688.000000
178.018600 464.000000
182.058500 2916.000000
183.065900 8400.000000
184.069400 1116.000000
189.020200 336.000000
190.040300 6664.000000
191.024800 1572.000000
191.042100 1152.000000
192.037500 2176.000000
193.021400 476.000000
211.061500 308.000000
217.028000 352.000000
218.035900 13100.000000
219.039000 2268.000000
220.032000 4840.000000
221.036400 460.000000
258.054300 308.000000

>ms2peaks
46.065200 97412.000000
56.012500 6124.000000
72.044700 1090056.000000
73.047400 51708.000000
118.064900 16460.000000
147.066900 11256.000000
163.030200 9676.000000
163.085700 10144.000000
164.093600 76452.000000
165.096400 7596.000000
218.036400 93264.000000
219.039700 12544.000000
220.033500 26376.000000
246.031200 5588.000000
291.089600 284660.000000
292.092700 56360.000000
293.087300 80496.000000

