>compound AU13977004
>parentmass 183.09169999999997
>ionization [M+H]+
>formula C12H10N2
>rt 284.940000
>profile qtof
#smiles_iso CC1=NC=CC2=C1NC3=CC=CC=C23
#smiles_can CC1=NC=CC2=C1NC3=CC=CC=C23
#inchikey PSFDQSOCUJVVGF-UHFFFAOYSA-N
#pubchem_id 5281404
#mb_accession AU288001,AU288002,AU288003,AU288004,AU288005,AU288006

>ms2
183.091700 2341756.000000
184.094300 395180.000000
185.096900 17752.000000

>ms2
115.053800 27300.000000
142.064100 28648.000000
168.067000 30920.000000
182.082700 23116.000000
183.091500 2416424.000000
184.094200 411076.000000
185.097000 18836.000000

>ms2
115.053600 268556.000000
116.056600 31372.000000
128.060900 11528.000000
129.068800 19512.000000
140.048300 25664.000000
141.055700 21852.000000
142.064000 145324.000000
143.067400 15096.000000
154.063500 16832.000000
155.071000 12972.000000
156.079100 26352.000000
166.063500 11752.000000
167.059200 28364.000000
168.066900 200548.000000
169.070200 19440.000000
181.074200 24232.000000
182.082700 154672.000000
183.090800 2152616.000000
184.093900 232148.000000
185.096600 10860.000000

>ms2
113.038000 2844.000000
114.045500 5936.000000
115.053800 378660.000000
116.056700 41864.000000
117.056600 5412.000000
127.053400 4700.000000
128.048900 5440.000000
128.060900 24596.000000
129.068600 17280.000000
130.064400 3768.000000
139.053000 5708.000000
140.048300 73504.000000
141.055900 74792.000000
142.063800 69876.000000
143.067500 8584.000000
154.063900 58484.000000
155.070300 22952.000000
156.079000 13648.000000
166.063400 8220.000000
167.059100 26040.000000
168.067100 193792.000000
169.070100 18648.000000
181.074900 65636.000000
182.082700 147280.000000
183.090600 330064.000000
184.093600 38356.000000

>ms2
113.038200 6128.000000
114.033200 2252.000000
114.045700 10364.000000
115.053700 228936.000000
116.056500 27748.000000
117.057000 6064.000000
126.045500 3500.000000
127.052900 11052.000000
128.048700 14272.000000
128.060700 29172.000000
129.056600 4064.000000
129.067000 6512.000000
130.064300 5800.000000
139.040600 1772.000000
139.053200 5696.000000
140.048500 120596.000000
141.055800 97580.000000
142.061900 17392.000000
143.069400 2540.000000
153.055900 3628.000000
154.063800 96716.000000
156.064500 3012.000000
156.078200 4448.000000
166.051400 6168.000000
166.061200 3700.000000
167.059000 17740.000000
168.067000 76200.000000
169.070500 9384.000000
179.059100 3604.000000
180.066400 2504.000000
181.074800 67248.000000
182.082200 41516.000000
183.089800 28316.000000
184.093400 4096.000000

>ms2
115.054900 82908.000000
116.057900 7224.000000
142.064700 43068.000000
167.059500 6840.000000
168.067400 44044.000000
182.083400 34392.000000
183.091900 1251468.000000
184.094400 210076.000000
185.097700 9540.000000

