>compound AU13258125
>parentmass 496.3997
>ionization [M+H]+
>formula C29H53NO5
>rt 870.700000
>profile qtof
#smiles_iso CCCCCCCCCCC[C@@H](C[C@H]1[C@@H](C(=O)O1)CCCCCC)OC(=O)[C@H](CC(C)C)NC=O
#smiles_can CCCCCCCCCCCC(CC1C(C(=O)O1)CCCCCC)OC(=O)C(CC(C)C)NC=O
#inchikey AHLBNYSZXLDEJQ-FWEHEUNISA-N
#pubchem_id 3034010
#mb_accession AU236201,AU236202,AU236203,AU236204,AU236205,AU236206

>ms2
160.095000 2072.000000
237.076400 712.000000
239.074500 372.000000
319.299400 3184.000000
320.300600 752.000000
337.310400 1608.000000
338.312500 644.000000
445.117600 1356.000000
446.119700 1712.000000
447.115200 688.000000
448.115500 312.000000
479.394300 384.000000
495.383300 636.000000
496.400000 3636.000000
497.401900 1288.000000

>ms2
132.101600 636.000000
133.084700 880.000000
137.131800 364.000000
142.084900 1176.000000
151.145200 328.000000
160.095200 3244.000000
161.101700 484.000000
165.163800 432.000000
177.108900 460.000000
179.139900 384.000000
181.068500 452.000000
191.181800 344.000000
193.194300 1256.000000
194.197100 412.000000
211.204500 668.000000
223.063900 508.000000
224.062300 384.000000
237.079000 1172.000000
238.078300 420.000000
257.247800 388.000000
283.175900 1192.000000
283.265900 952.000000
285.277800 336.000000
291.304800 896.000000
292.306500 332.000000
301.286400 1184.000000
319.300800 4608.000000
320.298400 1480.000000
337.310800 1680.000000
338.314000 640.000000
359.028300 892.000000
360.029900 500.000000
429.090300 676.000000
430.087900 888.000000
431.085600 532.000000
432.080800 356.000000
437.288000 332.000000
445.122000 388.000000
446.117100 824.000000
479.398600 1408.000000
480.399900 372.000000

>ms2
123.116600 384.000000
133.085200 908.000000
142.084800 464.000000
151.146000 344.000000
160.094900 956.000000
163.058200 332.000000
167.055200 556.000000
167.143000 308.000000
179.143200 548.000000
181.068600 620.000000
191.176800 312.000000
193.197100 548.000000
223.064900 724.000000
225.041600 448.000000
226.046400 308.000000
237.077600 1572.000000
238.080300 672.000000
239.075200 576.000000
283.173900 432.000000
283.263400 1108.000000
284.262800 392.000000
291.309400 404.000000
299.064300 480.000000
300.061200 444.000000
301.288400 408.000000
319.299000 820.000000
355.076500 340.000000
356.068900 408.000000
357.010900 508.000000
359.026600 2824.000000
360.027500 2032.000000
361.025300 1300.000000
362.024500 328.000000
363.018300 308.000000
394.164800 1136.000000
395.168300 488.000000

>ms2
132.100200 416.000000
133.085200 320.000000
137.131600 328.000000
167.054400 684.000000
181.069600 432.000000
223.062200 512.000000
225.043200 1144.000000
226.041500 504.000000
237.078700 1332.000000
238.079800 676.000000
239.077200 612.000000
283.265500 1068.000000
284.265400 376.000000
299.063500 648.000000
300.057800 384.000000
342.995400 524.000000
357.011300 768.000000
359.026900 1880.000000
360.028000 1448.000000
361.025400 1004.000000
361.043700 472.000000
394.166600 1024.000000
395.172000 604.000000

>ms2
149.043500 744.000000
167.054400 820.000000
181.069300 716.000000
223.064700 460.000000
225.042700 1560.000000
226.041800 456.000000
227.023300 400.000000
227.038800 452.000000
237.078700 1040.000000
238.075900 396.000000
239.075600 356.000000
283.264200 492.000000
284.267200 324.000000
299.059000 608.000000
342.995600 312.000000
343.991500 400.000000
344.001400 300.000000
357.015400 560.000000
358.014100 304.000000
359.029300 396.000000
360.030300 512.000000
395.164000 372.000000

>ms2
114.092100 308.000000
132.101100 508.000000
133.084500 596.000000
137.131000 340.000000
142.084800 508.000000
149.042400 372.000000
151.147600 364.000000
160.095100 572.000000
167.055500 612.000000
177.110200 456.000000
179.142500 364.000000
181.071200 932.000000
193.193400 648.000000
217.132900 388.000000
223.062900 968.000000
224.060700 432.000000
225.042400 936.000000
226.045000 348.000000
237.078700 2176.000000
238.079200 720.000000
239.075700 396.000000
283.175200 512.000000
283.259700 904.000000
291.307000 472.000000
299.061300 396.000000
301.286900 480.000000
319.299600 608.000000
320.300800 312.000000
337.307900 312.000000
357.014200 716.000000
358.013900 444.000000
359.028100 3220.000000
360.029100 1024.000000
361.027600 1080.000000
394.167600 1312.000000
395.173800 484.000000
429.093500 472.000000

