>compound AU13816067
>parentmass 236.0117
>ionization [M+Na]+
>formula C5H12NO4PS
>rt 194.100000
>profile qtof
#smiles_iso CNC(=O)CSP(=O)(OC)OC
#smiles_can CNC(=O)CSP(=O)(OC)OC
#inchikey PZXOQEXFMJCDPG-UHFFFAOYSA-N
#pubchem_id 14210
#mb_accession AU302730,AU302731

>ms2peaks
236.012200 13684.000000
237.015300 868.000000
238.009600 876.000000

>ms2peaks
236.015900 568.000000

