>compound AU13858326
>parentmass 309.1121
>ionization [M+H]+
>formula C19H16O4
>rt 562.700000
>profile qtof
#smiles_iso CC(=O)CC(C1=CC=CC=C1)C2=C(C3=CC=CC=C3OC2=O)O
#smiles_can CC(=O)CC(C1=CC=CC=C1)C2=C(C3=CC=CC=C3OC2=O)O
#inchikey PJVWKTKQMONHTI-UHFFFAOYSA-N
#pubchem_id 54678486
#mb_accession AU241501,AU241502,AU241503,AU241504,AU241505,AU241506

>ms2
147.079400 74128.000000
163.038000 771072.000000
164.041200 49672.000000
251.069900 221272.000000
252.072800 33456.000000
291.100200 12288.000000
309.112400 2137628.000000
310.115700 359236.000000
311.117500 27432.000000

>ms2
121.027600 7236.000000
129.069000 8612.000000
147.079800 117996.000000
148.082800 12952.000000
163.038300 1083016.000000
164.041500 76648.000000
183.079500 6228.000000
189.053800 9612.000000
191.033200 8932.000000
251.070400 1219852.000000
252.073300 153892.000000
253.076000 13584.000000
291.101300 20352.000000
309.111600 45584.000000
310.114500 10072.000000

>ms2
121.027400 38000.000000
129.068300 22376.000000
131.048000 20568.000000
147.079100 65800.000000
155.084000 31260.000000
163.037700 837260.000000
164.040900 55208.000000
167.083700 8764.000000
171.078900 10740.000000
173.021800 45252.000000
179.083900 8020.000000
183.079100 91032.000000
184.082300 10800.000000
189.052800 12036.000000
191.032600 124724.000000
192.035600 13532.000000
205.063400 10488.000000
223.073800 43656.000000
224.076700 8340.000000
233.058800 15884.000000
251.069500 1553448.000000
252.072700 190072.000000
253.075200 15624.000000

>ms2
121.027700 133996.000000
122.030700 10544.000000
128.060600 8884.000000
129.032600 4324.000000
129.068700 23724.000000
130.039400 2264.000000
130.072700 2484.000000
131.048100 37944.000000
132.050700 4288.000000
145.027300 4972.000000
147.079100 22124.000000
148.082600 2704.000000
152.060800 7064.000000
153.068500 7844.000000
154.075600 4028.000000
155.084400 119736.000000
156.087600 15020.000000
157.027400 14440.000000
158.029500 2088.000000
163.037900 407580.000000
164.041000 32068.000000
165.042700 2856.000000
165.068800 18272.000000
166.073600 4164.000000
167.084300 35616.000000
168.087100 4604.000000
171.079000 4372.000000
173.022100 59752.000000
174.025200 6652.000000
175.037500 8016.000000
177.068800 5428.000000
178.076600 25780.000000
179.083200 14188.000000
180.088000 2456.000000
181.064300 3164.000000
183.079500 122552.000000
184.083000 14972.000000
189.053500 10124.000000
191.033000 217072.000000
192.036300 18736.000000
193.036600 2084.000000
195.079400 11260.000000
196.082600 2160.000000
205.063800 24712.000000
206.068100 4496.000000
207.079100 3508.000000
223.074500 92596.000000
224.077300 12664.000000
233.059300 28948.000000
234.062400 7412.000000
249.053100 5880.000000
250.061400 2456.000000
251.069900 298020.000000
252.073100 45516.000000
253.075600 4652.000000

>ms2
115.054100 2500.000000
119.048000 1560.000000
121.027800 189504.000000
122.031200 13812.000000
127.053200 1500.000000
128.061200 13816.000000
129.032600 8316.000000
129.068800 15436.000000
130.040200 3304.000000
130.072800 1416.000000
131.048300 19824.000000
132.052000 2632.000000
139.037400 1172.000000
141.068800 2124.000000
145.027200 8452.000000
145.063800 2184.000000
147.079500 4760.000000
149.022300 1040.000000
151.053800 956.000000
152.060600 19612.000000
153.068400 17712.000000
154.075600 7156.000000
155.084500 111060.000000
156.087500 15044.000000
157.027300 12140.000000
158.030600 1224.000000
163.037900 149364.000000
164.041200 14332.000000
165.068800 32396.000000
166.074600 9504.000000
167.084400 44840.000000
168.087700 5760.000000
169.063000 2188.000000
173.022300 24600.000000
174.025800 3364.000000
175.037400 6160.000000
176.060600 6036.000000
177.068900 10944.000000
178.076600 47652.000000
179.081900 11324.000000
180.056900 1104.000000
181.064000 3480.000000
183.079400 33672.000000
184.082700 5372.000000
189.053200 3052.000000
191.032800 82564.000000
192.036300 8576.000000
193.039000 1068.000000
194.072800 1936.000000
195.079700 7636.000000
196.082500 1420.000000
205.064200 23776.000000
206.067500 4812.000000
207.078600 1216.000000
221.058700 1068.000000
223.074600 41004.000000
224.078100 8632.000000
233.058800 15548.000000
234.063900 3668.000000
249.054500 4936.000000
250.061400 2260.000000
251.069600 24956.000000
252.071900 3888.000000

>ms2
91.054300 4484.000000
121.028200 27216.000000
129.069300 14468.000000
131.048800 13820.000000
147.079800 70368.000000
148.082900 7012.000000
155.084600 17636.000000
163.038000 553396.000000
164.041500 53648.000000
165.043200 4336.000000
167.084500 4740.000000
171.080000 5052.000000
173.022500 18112.000000
175.038300 5384.000000
178.076700 4012.000000
183.080000 47160.000000
184.083500 6372.000000
189.053700 9524.000000
191.033400 71232.000000
192.036900 7308.000000
205.063700 4480.000000
223.075000 27172.000000
224.078300 4316.000000
233.059100 9396.000000
251.069900 791832.000000
252.073600 135316.000000
253.076300 11604.000000
291.101600 8912.000000
309.113800 10316.000000

