>compound AU13342584
>parentmass 477.2303
>ionization [M+H]+
>formula C29H33ClN2O2
>rt 496.990000
>profile qtof
#smiles_iso CN(C)C(=O)C(CCN1CCC(CC1)(C2=CC=C(C=C2)Cl)O)(C3=CC=CC=C3)C4=CC=CC=C4
#smiles_can CN(C)C(=O)C(CCN1CCC(CC1)(C2=CC=C(C=C2)Cl)O)(C3=CC=CC=C3)C4=CC=CC=C4
#inchikey RDOIQAHITMMDAJ-UHFFFAOYSA-N
#pubchem_id 3955
#mb_accession AU250401,AU250402,AU250403,AU250404,AU250405,AU250406

>ms2peaks
266.153200 84868.000000
477.230400 2403020.000000
478.233200 739916.000000
479.228200 752392.000000

>ms2peaks
266.153800 2420228.000000
267.156700 418060.000000
268.159500 27592.000000
477.229900 2042552.000000
478.233100 503856.000000
479.227800 548760.000000

>ms2peaks
210.126800 65664.000000
238.121700 12716.000000
266.154700 2508228.000000
267.157000 1054920.000000
268.159700 70460.000000
477.229900 103144.000000
478.233500 34524.000000
479.227300 33608.000000

>ms2peaks
193.100400 13544.000000
210.127300 571388.000000
211.130100 68356.000000
238.122200 81780.000000
239.125200 13712.000000
266.154700 2510584.000000
267.157200 909628.000000
268.160000 63676.000000

>ms2peaks
115.053400 15608.000000
167.084200 25696.000000
178.076200 19220.000000
193.099900 36296.000000
210.127000 1765676.000000
211.130300 230600.000000
212.132800 12112.000000
238.121800 219948.000000
239.125000 29864.000000
266.153900 2287668.000000
267.156700 522092.000000
268.159400 34816.000000

>ms2peaks
72.044000 9768.000000
210.127500 110192.000000
211.131000 11100.000000
238.122700 18896.000000
266.155000 1265944.000000
267.157800 615520.000000
268.160800 47624.000000
477.231700 203396.000000
478.235300 74016.000000
479.229500 63596.000000

