>compound AU13967459
>parentmass 405.1576
>ionization [M+H]+
>formula C21H25ClN2O4
>rt 535.200000
>profile qtof
#smiles_iso C1C[N+](CCN1C(C2=CC=CC=C2)C3=CC=C(C=C3)Cl)(CCOCC(=O)O)[O-]
#smiles_can C1C[N+](CCN1C(C2=CC=CC=C2)C3=CC=C(C=C3)Cl)(CCOCC(=O)O)[O-]
#inchikey IVDOUUOLLFEMJQ-UHFFFAOYSA-N
#pubchem_id 45038602
#mb_accession AU212501,AU212502,AU212503,AU212504,AU212505

>ms2peaks
201.043800 688.000000
387.179100 2924.000000
388.183100 632.000000
405.157900 96452.000000
406.160900 24052.000000
407.155800 23952.000000
408.158500 3872.000000

>ms2peaks
121.064100 768.000000
132.064500 568.000000
146.080200 2800.000000
147.087400 440.000000
187.105800 1644.000000
188.112100 328.000000
201.045900 6932.000000
202.049000 972.000000
203.043300 2424.000000
206.096400 408.000000
216.057100 504.000000
217.042800 324.000000
229.063800 788.000000
231.062700 444.000000
240.058600 464.000000
241.064700 2248.000000
242.071900 2620.000000
243.062700 564.000000
243.078600 384.000000
244.069200 656.000000
267.121400 448.000000
284.109100 612.000000
299.131100 2072.000000
300.131500 408.000000
301.129200 592.000000
312.137400 864.000000
313.144000 432.000000
387.146800 516.000000
388.154000 1196.000000
389.155700 516.000000
390.151400 404.000000
405.157900 22420.000000
406.162500 5508.000000
407.155700 6156.000000
408.160500 1344.000000

>ms2peaks
132.063900 2060.000000
146.079500 1976.000000
147.086500 520.000000
165.068700 1128.000000
166.076700 2088.000000
167.079700 340.000000
179.084000 500.000000
187.106400 3068.000000
201.045900 26036.000000
202.049000 4168.000000
203.043300 7272.000000
206.095700 1280.000000
207.099200 328.000000
216.055900 496.000000
217.042400 436.000000
228.056000 2372.000000
229.063300 2436.000000
230.059700 612.000000
231.062500 540.000000
240.057200 3116.000000
241.063200 3476.000000
242.071400 5324.000000
243.062200 1220.000000
244.069400 1248.000000
283.099900 492.000000
284.106800 584.000000
285.113100 652.000000
286.103900 352.000000
299.130000 2976.000000
300.136300 816.000000
312.140100 316.000000
313.143800 328.000000
405.157700 2000.000000

>ms2peaks
132.064600 1932.000000
138.022000 376.000000
146.079200 748.000000
160.095200 304.000000
166.076300 9336.000000
179.086200 840.000000
183.080500 584.000000
187.106400 1820.000000
193.075100 748.000000
199.031100 376.000000
201.046000 33196.000000
203.042900 8560.000000
206.096100 2096.000000
207.098000 324.000000
216.058000 432.000000
228.057900 4964.000000
229.063600 1132.000000
230.055900 1016.000000
241.062200 528.000000
242.072100 2844.000000
243.076500 556.000000
244.071100 616.000000
285.114900 688.000000
299.131100 1212.000000

>ms2peaks
132.064900 1224.000000
138.022200 512.000000
146.080800 460.000000
153.069000 332.000000
164.062000 360.000000
166.076800 23000.000000
179.085200 904.000000
183.079300 732.000000
187.106300 1096.000000
193.074700 1288.000000
194.074900 352.000000
199.033500 364.000000
201.045900 24292.000000
203.043300 6408.000000
206.095600 864.000000
228.057300 3680.000000
229.059900 628.000000
230.053700 1108.000000
240.058000 1196.000000
241.060200 476.000000
242.056300 416.000000
242.073200 1464.000000
244.070000 524.000000
299.128000 440.000000

