>compound AU14000583
>parentmass 295.1288
>ionization [M+H]+
>formula C14H18N2O5
>rt 593.865000
>profile qtof
#smiles_iso CC1=C(C(=C(C(=C1[N+](=O)[O-])C(C)(C)C)[N+](=O)[O-])C)C(=O)C
#smiles_can CC1=C(C(=C(C(=C1[N+](=O)[O-])C(C)(C)C)[N+](=O)[O-])C)C(=O)C
#inchikey WXCMHFPAUCOJIG-UHFFFAOYSA-N
#pubchem_id 6669
#mb_accession AU245501,AU245503,AU245504,AU245506

>ms2peaks
183.066900 576.000000
203.104900 516.000000
221.116300 828.000000

>ms2peaks
161.094200 888.000000
165.053700 300.000000

>ms2peaks
161.093700 528.000000

>ms2peaks
161.094700 1240.000000
165.052400 340.000000
221.117000 408.000000

