>compound AU14636673
>parentmass 391.3207
>ionization [M+H]+
>formula C25H42O3
>rt 878.970000
>profile qtof
#smiles_iso CCCCCCCCOC(=O)CCC1=CC(=C(C(=C1)C(C)(C)C)O)C(C)(C)C
#smiles_can CCCCCCCCOC(=O)CCC1=CC(=C(C(=C1)C(C)(C)C)O)C(C)(C)C
#inchikey CFXCGWWYIDZIMU-UHFFFAOYSA-N
#pubchem_id 9908458
#mb_accession AU252701,AU252702,AU252703,AU252704,AU252705,AU252706

>ms2peaks
149.022500 3592.000000
149.058000 3432.000000
150.024400 396.000000
167.069100 17728.000000
168.072200 1372.000000
172.113500 1480.000000
223.132600 2672.000000
224.134200 436.000000
261.148200 900.000000
279.195300 1348.000000
280.200000 364.000000
335.258100 6052.000000
336.261700 1996.000000
391.320700 676.000000

>ms2peaks
133.083700 356.000000
149.022100 7388.000000
149.058400 6712.000000
150.061900 636.000000
167.068900 7440.000000
168.071400 1104.000000
195.121000 1052.000000
313.271100 320.000000

>ms2peaks
121.063300 324.000000
149.021800 8476.000000
149.058200 3800.000000
150.026000 808.000000
150.060500 544.000000
163.109200 336.000000
167.068300 1068.000000
195.121100 400.000000
219.171700 348.000000

>ms2peaks
121.063900 440.000000
149.022100 7400.000000
149.058500 1168.000000
150.025800 756.000000
163.110200 488.000000
167.069100 324.000000
219.174600 476.000000

>ms2peaks
121.027200 300.000000
121.065000 332.000000
149.022100 5328.000000
149.058200 736.000000
163.108800 596.000000
219.173100 404.000000

>ms2peaks
57.069100 1688.000000
71.085000 960.000000
107.050300 824.000000
149.022100 8296.000000
149.058200 7844.000000
150.025900 664.000000
150.061100 992.000000
167.068700 4344.000000
168.072400 472.000000
172.112400 344.000000
219.174500 532.000000

