>compound AU14945426
>parentmass 134.0713
>ionization [M+H]+
>formula C7H7N3
>rt 229.308000
>profile qtof
#smiles_iso C1=CC=C2C(=C1)NC(=N2)N
#smiles_can C1=CC=C2C(=C1)NC(=N2)N
#inchikey JWYUFVNJZUSCSM-UHFFFAOYSA-N
#pubchem_id 13624
#mb_accession AU200301,AU200302,AU200303,AU200304,AU200305

>ms2
134.071600 1420992.000000
135.074500 96384.000000

>ms2
117.044500 4108.000000
133.063300 10800.000000
134.071600 810652.000000
135.074600 54432.000000

>ms2
117.043900 2292.000000
133.062700 9784.000000
134.070400 108344.000000
135.073400 7286.000000

>ms2
117.043900 824.000000
133.062500 4680.000000
134.070200 10800.000000

>ms2
133.063000 1216.000000
134.071000 1184.000000

