>compound AU14283523
>parentmass 297.0556000000001
>ionization [M+H]+
>formula C14H14Cl2N2O
>rt 519.300000
>profile qtof
#smiles_iso C=CCOC(CN1C=CN=C1)C2=C(C=C(C=C2)Cl)Cl
#smiles_can C=CCOC(CN1C=CN=C1)C2=C(C=C(C=C2)Cl)Cl
#inchikey PZBPKYOVPCNPJY-UHFFFAOYSA-N
#pubchem_id 37175
#mb_accession AU285801,AU285802,AU285803,AU285804,AU285805,AU285806

>ms2
255.007900 10952.000000
297.056100 2088376.000000
298.058800 323944.000000
299.052900 1254536.000000

>ms2
158.975300 243576.000000
159.978400 14856.000000
160.972400 127160.000000
172.990700 27148.000000
174.988100 14460.000000
176.037800 81560.000000
177.040600 8956.000000
178.035100 16248.000000
184.990900 18816.000000
186.987700 9300.000000
199.006900 14788.000000
200.986100 126716.000000
201.989600 11632.000000
202.983000 67292.000000
211.006700 20096.000000
213.004000 12248.000000
229.017500 10684.000000
255.008300 110984.000000
256.011400 12860.000000
257.005200 60812.000000
297.055600 1113432.000000
298.058800 133948.000000
299.052800 570148.000000

>ms2
122.998400 3244.000000
128.060800 1364.000000
129.068700 2736.000000
137.013500 1768.000000
138.021800 1572.000000
141.068500 12380.000000
149.014500 2920.000000
150.022200 5532.000000
158.975000 269308.000000
159.978300 17636.000000
160.971900 141156.000000
161.975000 6500.000000
163.029100 2264.000000
164.037200 7888.000000
166.032900 2204.000000
172.990500 49672.000000
173.994100 4752.000000
174.987600 27568.000000
175.028900 4904.000000
176.037400 59424.000000
177.040200 7144.000000
178.034400 13728.000000
182.975800 1932.000000
184.990200 6032.000000
186.969500 6268.000000
186.987000 3696.000000
188.966700 3692.000000
195.982300 1648.000000
199.006000 5592.000000
200.985400 31844.000000
201.988800 3108.000000
202.982500 18972.000000
203.035700 4224.000000
211.006500 3824.000000
213.003700 2392.000000
239.013400 1532.000000
255.007800 48624.000000
256.010200 7880.000000
257.005200 30800.000000
297.054700 20256.000000
298.057700 4004.000000
299.051600 13168.000000

>ms2
115.053600 1768.000000
122.998400 6348.000000
124.005800 1724.000000
124.995800 1540.000000
125.014900 952.000000
128.061200 1772.000000
129.068500 4784.000000
130.074200 800.000000
132.960000 1640.000000
136.006300 756.000000
137.013300 3468.000000
138.021700 3476.000000
139.011000 1236.000000
139.053100 1500.000000
140.018000 996.000000
140.060200 928.000000
141.068700 17944.000000
142.072200 2256.000000
149.014100 2560.000000
150.021400 4504.000000
151.011500 796.000000
152.017900 948.000000
158.975200 149928.000000
159.978300 12416.000000
160.972000 80264.000000
161.976100 3288.000000
163.029700 968.000000
164.037000 2756.000000
166.034400 1288.000000
171.984300 1088.000000
172.990700 22692.000000
173.993600 2012.000000
174.987700 14324.000000
175.029100 2700.000000
175.992000 1056.000000
176.037400 16124.000000
177.027300 1320.000000
177.040900 2816.000000
178.035000 3856.000000
182.975900 1408.000000
184.970900 1008.000000
186.970600 2028.000000
188.966600 1092.000000
195.982000 1048.000000
197.980100 884.000000
200.986800 1884.000000
202.982600 1476.000000
203.036300 2104.000000
255.009000 5944.000000
256.013700 784.000000
257.005000 3320.000000

>ms2
115.054000 3920.000000
122.998800 16420.000000
124.006200 5804.000000
124.995500 3952.000000
125.013000 1488.000000
126.003800 1560.000000
128.060900 2908.000000
129.068600 6424.000000
130.071700 724.000000
132.959500 3060.000000
134.956900 2020.000000
136.006900 1364.000000
137.013800 4716.000000
138.022000 5428.000000
139.011200 1352.000000
139.025700 672.000000
139.053500 2080.000000
140.018700 1544.000000
140.060100 1832.000000
141.068900 22144.000000
142.072100 2656.000000
149.014700 2892.000000
150.021300 1656.000000
151.011600 688.000000
155.058000 688.000000
158.975300 132820.000000
159.978800 10968.000000
160.972200 75452.000000
161.975100 3348.000000
162.969600 888.000000
164.038000 896.000000
165.009900 1036.000000
170.974700 1076.000000
171.983400 1632.000000
172.964800 672.000000
172.990800 7388.000000
173.980900 1196.000000
173.995000 1336.000000
174.987500 4640.000000
175.029800 2188.000000
176.037100 3876.000000
177.031500 880.000000
178.035500 1340.000000
182.974100 1140.000000
195.983300 804.000000
203.036400 1724.000000

>ms2
45.034100 1328.000000
53.001300 2948.000000
67.041400 1716.000000
68.048600 1280.000000
69.044200 237844.000000
70.047200 6752.000000
72.043700 4412.000000
80.049000 1436.000000
81.044400 38732.000000
82.051700 4896.000000
82.064800 11328.000000
109.077700 47060.000000
110.080800 3260.000000
122.998500 1456.000000
129.069000 1636.000000
141.069200 6528.000000
149.014700 1756.000000
150.022300 3512.000000
158.975500 183684.000000
159.978700 14324.000000
160.972400 105960.000000
161.975800 4264.000000
163.030600 1596.000000
164.037500 4704.000000
172.991000 33844.000000
173.994500 2548.000000
174.988300 18948.000000
175.029700 4264.000000
176.037800 56248.000000
177.040700 7504.000000
178.034600 13560.000000
182.974800 2176.000000
184.990700 9580.000000
186.970200 5296.000000
186.987700 4596.000000
188.967500 2984.000000
199.006600 8392.000000
200.008900 1328.000000
200.986100 64676.000000
201.988400 5604.000000
202.983200 35324.000000
203.035900 3268.000000
203.986600 2024.000000
211.007000 9360.000000
212.009600 1360.000000
213.003500 5688.000000
229.018100 2844.000000
231.013800 2068.000000
255.008500 72748.000000
256.010600 8784.000000
257.005200 39496.000000
297.055900 253564.000000
298.058600 47748.000000
299.053200 142800.000000

