>compound AU14758595
>parentmass 202.04330000000002
>ionization [M+H]+
>formula C10H7N3S
>rt 363.720000
>profile qtof
#smiles_iso C1=CC=C2C(=C1)NC(=N2)C3=CSC=N3
#smiles_can C1=CC=C2C(=C1)NC(=N2)C3=CSC=N3
#inchikey WJCNZQLZVWNLKY-UHFFFAOYSA-N
#pubchem_id 5430
#mb_accession AU286001,AU286002,AU286003,AU286004,AU286005,AU286006

>ms2
175.030800 14208.000000
202.043100 2179064.000000
203.045600 285664.000000
204.038600 88228.000000

>ms2
131.059600 29248.000000
175.031900 419668.000000
176.034600 30844.000000
202.043400 2453420.000000
203.045900 361272.000000
204.039000 101984.000000

>ms2
131.059300 291388.000000
132.062500 26284.000000
143.058900 47124.000000
158.069700 40120.000000
170.069300 18124.000000
175.031200 1970188.000000
176.034000 151496.000000
177.026900 47944.000000
202.042300 1458352.000000
203.044900 146208.000000
204.038200 43712.000000

>ms2
118.051600 7752.000000
131.059500 648320.000000
132.062500 45768.000000
134.004800 23292.000000
142.051100 8120.000000
143.059100 72224.000000
144.062500 6540.000000
157.061900 14264.000000
158.069900 22216.000000
169.061900 5392.000000
170.069900 19204.000000
174.023500 6856.000000
175.031400 986304.000000
176.034200 78700.000000
177.027100 28216.000000
202.042500 158192.000000
203.045100 17676.000000
204.038600 5940.000000

>ms2
118.051700 8316.000000
129.043700 5096.000000
130.051200 1636.000000
131.059700 298924.000000
132.062600 28368.000000
134.004800 17584.000000
135.008400 1928.000000
142.051300 11212.000000
143.059300 53248.000000
144.062200 5132.000000
148.021000 1520.000000
156.054500 4052.000000
157.062200 6916.000000
158.069400 4300.000000
168.054300 4796.000000
170.069800 6084.000000
174.023400 7108.000000
175.031400 123708.000000
176.033900 13980.000000
177.027800 5832.000000
202.042100 12140.000000
203.045100 2072.000000

>ms2
131.059600 15664.000000
143.059400 3460.000000
158.070500 4344.000000
175.031500 164484.000000
176.034600 15124.000000
177.027800 5200.000000
202.042700 520268.000000
203.045400 62680.000000
204.038300 19932.000000

