>compound AU15001992
>parentmass 214.1121
>ionization [M+H]+
>formula C8H15N5S
>rt 493.200000
>profile qtof
#smiles_iso CC(C)(C)NC1=NC(=NC(=N1)N)SC
#smiles_can CC(C)(C)NC1=NC(=NC(=N1)N)SC
#inchikey MWWBDLRPMWTLRX-UHFFFAOYSA-N
#pubchem_id 13019211
#mb_accession AU204601,AU204602,AU204603,AU204604,AU204605

>ms2peaks
158.049200 404640.000000
159.050800 13160.000000
160.044600 9972.000000
214.112400 2247196.000000
215.114600 136584.000000
216.108100 50844.000000

>ms2peaks
158.049200 1061832.000000
159.050800 39444.000000
160.044600 33992.000000
214.112400 117680.000000
215.114600 12952.000000
216.108100 5160.000000

>ms2peaks
116.026800 10108.000000
158.048600 371172.000000
159.050800 18572.000000
160.044600 13468.000000

>ms2peaks
116.027200 7644.000000
117.030000 620.000000
125.068700 448.000000
143.025100 1396.000000
158.048600 49640.000000
159.051100 2928.000000

>ms2peaks
116.026900 1872.000000
125.068700 204.000000
143.025400 452.000000
158.048300 4052.000000

