>compound AU15361588
>parentmass 185.0631
>ionization [M+H]+
>formula C9H12O2S
>rt 278.600000
>profile qtof
#smiles_iso CC1=CC(=CC(=C1S(=O)C)C)O
#smiles_can CC1=CC(=CC(=C1S(=O)C)C)O
#inchikey ZHBBDQFXEDCQFI-UHFFFAOYSA-N
#pubchem_id 3029900
#mb_accession AU233801,AU233802,AU233803,AU233804,AU233805,AU233806

>ms2peaks
122.071500 30520.000000
168.058800 55412.000000
170.038200 79148.000000
171.041100 9304.000000
185.062000 1470928.000000
186.065000 106816.000000
187.057700 39352.000000

>ms2peaks
121.063700 18420.000000
122.071700 164748.000000
123.075100 14420.000000
136.086800 3696.000000
137.058400 2256.000000
138.066200 6108.000000
152.027500 14892.000000
153.035500 93076.000000
154.038900 8256.000000
155.031000 3644.000000
168.059100 256500.000000
169.062100 21948.000000
170.038400 436252.000000
171.041400 28392.000000
172.034600 14724.000000
185.062000 191628.000000
186.064800 16932.000000
187.058500 7848.000000

>ms2peaks
107.048200 1228.000000
109.065100 1132.000000
121.063900 26480.000000
122.071600 137916.000000
123.042500 1444.000000
123.075200 11736.000000
125.041000 2876.000000
135.080000 1160.000000
137.004700 1044.000000
137.058600 1644.000000
138.066300 2748.000000
151.019700 13228.000000
152.027300 26020.000000
153.035600 202536.000000
154.038200 14596.000000
155.031300 6372.000000
168.059000 57808.000000
169.062200 5964.000000
170.038300 75508.000000
171.041200 5940.000000
172.033700 2680.000000
185.061700 4048.000000

>ms2peaks
107.048800 1032.000000
109.064300 764.000000
119.046900 548.000000
120.054100 484.000000
121.063900 17108.000000
122.071200 23272.000000
123.025700 712.000000
123.042400 1108.000000
123.074500 2532.000000
124.033200 340.000000
125.040600 1712.000000
133.009900 448.000000
134.015500 344.000000
135.024500 1004.000000
135.078700 492.000000
137.004300 1920.000000
137.058700 864.000000
138.012100 1504.000000
138.065100 616.000000
150.011700 376.000000
151.019700 17272.000000
152.026800 8484.000000
153.035400 48720.000000
154.039200 3992.000000
155.032500 1376.000000
168.058800 3552.000000
169.062600 308.000000
170.037900 3540.000000

>ms2peaks
107.049500 348.000000
109.063000 460.000000
120.056500 364.000000
121.063900 7516.000000
122.071000 2148.000000
123.024900 984.000000
123.073600 320.000000
125.043000 328.000000
133.008600 384.000000
134.018100 776.000000
137.004100 2440.000000
138.011500 1500.000000
150.011900 728.000000
151.020000 7264.000000
152.025800 1816.000000
153.016600 412.000000
153.034900 2912.000000
154.040400 408.000000

>ms2peaks
44.979500 1736.000000
77.038300 1452.000000
79.053500 2836.000000
91.054600 5124.000000
93.069500 1888.000000
95.049600 4444.000000
103.054700 2728.000000
107.049900 13272.000000
108.054700 1300.000000
109.065600 6172.000000
121.064400 22804.000000
122.072300 185620.000000
123.075700 12264.000000
136.087500 2916.000000
137.059100 1764.000000
138.066100 3972.000000
151.020500 2436.000000
152.027900 17052.000000
153.036000 118812.000000
154.039000 9912.000000
155.031400 3404.000000
168.059200 166852.000000
169.062400 13492.000000
170.038500 256924.000000
171.041400 20020.000000
172.035100 7676.000000
185.062000 191028.000000
186.065100 18928.000000
187.058900 6216.000000

