>compound AU15115964
>parentmass 243.0782
>ionization [M+H]+
>formula C12H15ClO3
>rt 660.288000
>profile qtof
#smiles_iso CCOC(=O)C(C)(C)OC1=CC=C(C=C1)Cl
#smiles_can CCOC(=O)C(C)(C)OC1=CC=C(C=C1)Cl
#inchikey KNHUKKLJHYUCFP-UHFFFAOYSA-N
#pubchem_id 2796
#mb_accession AU271901,AU271902,AU271903,AU271904,AU271906

>ms2
169.040900 1056.000000
186.048400 588.000000
197.035500 688.000000
243.078600 892.000000

>ms2
135.116100 432.000000
141.010800 424.000000
169.040700 1028.000000
186.048700 328.000000

>ms2
131.072700 552.000000
141.009200 488.000000
165.067900 676.000000

>ms2
130.064600 476.000000
141.008400 400.000000

>ms2
59.047900 328.000000
135.115700 300.000000
168.036800 400.000000
169.040500 1116.000000
171.035000 372.000000

