>compound AU15820969
>parentmass 370.2377000000001
>ionization [M+H]+
>formula C23H31NO3
>rt 715.350000
>profile qtof
#smiles_iso CC[C@]12CC[C@H]3[C@H]([C@@H]1CC[C@]2(C#C)OC(=O)C)CCC4=C/C(=N/O)/CC[C@H]34
#smiles_can CCC12CCC3C(C1CCC2(C#C)OC(=O)C)CCC4=CC(=NO)CCC34
#inchikey KIQQMECNKUGGKA-NMYWJIRASA-N
#pubchem_id 6540478
#mb_accession AU280001,AU280002,AU280003,AU280004,AU280005,AU280006

>ms2
370.238000 665076.000000
371.241300 137864.000000
372.244000 19064.000000

>ms2
310.216400 12344.000000
311.219300 3156.000000
370.237900 524064.000000
371.241300 117096.000000
372.244000 18632.000000

>ms2
117.069200 2096.000000
119.084900 2420.000000
124.074800 16364.000000
125.078100 1664.000000
129.069100 4068.000000
131.084500 7356.000000
132.079100 1428.000000
133.099700 5824.000000
136.073500 1752.000000
141.068500 1868.000000
143.084200 6632.000000
145.100200 6044.000000
146.096900 1696.000000
147.115500 2696.000000
148.110500 1484.000000
150.090900 1664.000000
155.083800 3224.000000
157.099800 6616.000000
158.094900 1652.000000
159.115300 6172.000000
160.111100 2068.000000
161.131400 2140.000000
164.105500 1684.000000
167.084600 1876.000000
169.100000 3312.000000
171.115300 2976.000000
173.131000 2692.000000
176.106100 4504.000000
178.121300 3008.000000
181.100400 2044.000000
183.115600 4956.000000
185.130600 5064.000000
187.146400 2288.000000
190.121400 1388.000000
193.098600 1540.000000
195.115500 2192.000000
197.130800 2628.000000
199.147000 2076.000000
207.115100 2224.000000
209.130500 3060.000000
211.145200 1304.000000
221.131100 1904.000000
223.147000 2072.000000
224.148800 1384.000000
225.161500 1936.000000
235.145600 1424.000000
236.142700 1620.000000
237.161600 2800.000000
238.161300 1456.000000
249.165000 1532.000000
260.199300 2520.000000
264.174400 3564.000000
277.193500 2016.000000
278.192000 1640.000000
282.184400 3108.000000
292.205900 1744.000000
293.211000 1504.000000
310.216100 43576.000000
311.220200 11360.000000
312.223600 1540.000000
328.227000 5044.000000
370.237700 258364.000000
371.240700 57168.000000
372.244000 9148.000000

>ms2
115.053500 3560.000000
116.060700 1056.000000
117.068800 4940.000000
118.065000 1164.000000
118.072400 804.000000
119.084500 4112.000000
120.080900 848.000000
120.089500 584.000000
121.085800 592.000000
121.099300 676.000000
122.058900 1588.000000
122.095500 1272.000000
124.074700 31088.000000
125.077700 3132.000000
127.053400 504.000000
128.061400 4580.000000
129.068600 9224.000000
130.064500 1584.000000
130.075000 2576.000000
131.072400 1100.000000
131.084200 13828.000000
132.079800 2752.000000
133.063000 388.000000
133.085900 948.000000
133.100300 7308.000000
134.095200 1820.000000
135.078400 608.000000
135.101300 404.000000
135.115100 1188.000000
136.074600 1256.000000
136.112500 348.000000
137.097400 560.000000
137.129600 332.000000
138.091000 1208.000000
141.068500 3908.000000
142.076200 3736.000000
143.084300 10292.000000
144.090100 2708.000000
145.061800 576.000000
145.087500 1884.000000
145.100000 11088.000000
146.095200 2912.000000
147.080700 580.000000
147.101100 848.000000
147.115300 3480.000000
148.073600 1088.000000
148.110400 1424.000000
149.020600 316.000000
149.094400 2116.000000
149.115200 504.000000
149.129500 736.000000
150.089300 3316.000000
152.061100 556.000000
152.105800 796.000000
153.067800 1148.000000
154.076000 1280.000000
155.059400 996.000000
155.084300 5736.000000
156.090700 2820.000000
157.099700 8432.000000
158.097300 3096.000000
159.080700 520.000000
159.115000 7776.000000
160.111000 3196.000000
161.096700 712.000000
161.117400 1692.000000
161.129700 1880.000000
162.089600 1300.000000
162.126700 1436.000000
163.097000 604.000000
164.105700 2784.000000
165.069100 1624.000000
166.077200 884.000000
166.122400 356.000000
167.083500 3424.000000
168.090800 2000.000000
169.099900 6052.000000
170.097700 1600.000000
170.105500 1580.000000
171.115400 6996.000000
172.116100 1956.000000
173.093900 472.000000
173.131000 2984.000000
174.088500 1212.000000
174.126700 1372.000000
175.109800 1204.000000
175.133800 392.000000
175.146000 464.000000
176.105900 4936.000000
176.143300 456.000000
177.111900 804.000000
178.076500 324.000000
178.121500 3920.000000
179.083700 1796.000000
179.123200 432.000000
180.090600 1064.000000
181.099100 4076.000000
182.105200 1396.000000
183.115100 5112.000000
184.112700 1848.000000
185.095000 336.000000
185.131200 5672.000000
186.088900 332.000000
186.134400 1276.000000
187.110500 480.000000
187.128600 340.000000
187.146600 1088.000000
188.105600 872.000000
188.145600 548.000000
190.076800 348.000000
190.121000 1352.000000
191.083800 692.000000
191.107700 496.000000
191.128600 352.000000
192.092200 1084.000000
192.136300 476.000000
193.100200 2020.000000
194.105900 1724.000000
195.114700 3140.000000
196.120700 1688.000000
197.130900 2940.000000
198.132200 1508.000000
199.147100 1796.000000
200.109200 436.000000
200.143500 972.000000
201.112600 320.000000
201.148400 320.000000
201.163300 648.000000
202.122100 652.000000
203.085000 396.000000
203.144700 420.000000
204.090100 444.000000
204.136900 476.000000
205.099200 1412.000000
207.116400 2428.000000
208.120700 1464.000000
209.130800 2356.000000
210.132500 1520.000000
211.133800 812.000000
211.146200 1460.000000
212.143500 928.000000
213.125400 484.000000
213.146800 468.000000
213.160600 880.000000
214.122000 380.000000
214.155900 908.000000
216.138200 656.000000
218.108300 476.000000
219.115400 1016.000000
220.122300 728.000000
221.129900 2232.000000
222.129500 1596.000000
223.145300 2488.000000
224.145800 944.000000
225.162500 1760.000000
226.163000 732.000000
227.175000 448.000000
228.174200 456.000000
232.120600 376.000000
233.130300 808.000000
234.130500 612.000000
234.138300 820.000000
235.146300 1768.000000
236.142200 2116.000000
237.163000 1712.000000
238.159600 1244.000000
239.163400 512.000000
239.175300 376.000000
240.170700 440.000000
241.157100 436.000000
243.174900 308.000000
243.197100 324.000000
244.207500 440.000000
247.146600 1496.000000
248.143100 912.000000
249.161900 1864.000000
250.158700 1268.000000
251.177500 1204.000000
252.173900 752.000000
253.182700 316.000000
254.152200 384.000000
255.193400 304.000000
260.199700 1960.000000
261.160100 752.000000
261.202000 392.000000
262.159000 580.000000
263.172700 608.000000
264.173000 4348.000000
265.160500 436.000000
265.179300 1084.000000
266.164900 336.000000
266.191600 524.000000
268.167600 312.000000
268.204100 424.000000
275.178900 424.000000
276.183700 580.000000
277.191700 460.000000
278.190500 1592.000000
279.193900 552.000000
281.175300 424.000000
282.184400 4256.000000
282.221600 476.000000
283.190300 1016.000000
284.203200 324.000000
292.205500 1488.000000
293.211600 944.000000
294.215300 352.000000
296.195700 428.000000
310.215500 21748.000000
311.219800 5424.000000
312.223700 788.000000
324.192500 936.000000
326.214500 324.000000
328.227100 1868.000000
329.230200 612.000000
370.236800 22344.000000
371.240100 6408.000000
372.242200 1152.000000

>ms2
115.053700 4520.000000
116.060500 1388.000000
117.055900 872.000000
117.068800 4536.000000
119.084500 2296.000000
120.080600 840.000000
121.087900 692.000000
121.099100 512.000000
122.059800 932.000000
122.096300 560.000000
123.079100 348.000000
124.075100 22092.000000
125.078000 1888.000000
127.054900 424.000000
128.061000 8236.000000
129.068600 12144.000000
130.075200 3280.000000
131.072800 1140.000000
131.084400 10036.000000
132.081300 2328.000000
133.064700 364.000000
133.086700 1168.000000
133.100600 3052.000000
134.095300 1712.000000
135.082200 476.000000
135.099400 320.000000
136.075200 960.000000
138.090500 868.000000
141.069200 6284.000000
142.076200 5188.000000
143.084400 8756.000000
144.080400 2368.000000
145.063500 1356.000000
145.100200 6164.000000
146.095200 2440.000000
147.103500 1068.000000
147.115700 916.000000
148.074400 628.000000
148.111400 1872.000000
149.095200 1360.000000
150.090500 1616.000000
151.098100 328.000000
152.060900 924.000000
153.068900 3584.000000
154.075900 2624.000000
155.059200 1260.000000
155.084100 6284.000000
156.090600 2760.000000
157.100500 6356.000000
158.095500 3204.000000
159.078700 528.000000
159.106900 1672.000000
159.114400 3084.000000
160.110800 2348.000000
161.096400 568.000000
161.118000 1548.000000
161.132000 804.000000
162.091000 664.000000
162.126100 1144.000000
163.111000 372.000000
164.105200 1632.000000
165.068400 2620.000000
165.109900 308.000000
166.075300 1408.000000
167.084000 3276.000000
168.092800 1712.000000
169.099800 3516.000000
170.106600 1972.000000
171.115700 3504.000000
172.113000 1484.000000
173.095500 300.000000
173.131500 1644.000000
174.089500 412.000000
174.128000 1004.000000
175.112300 660.000000
175.145800 432.000000
176.105800 1336.000000
177.111300 308.000000
178.077200 1660.000000
178.121800 1648.000000
179.084400 2292.000000
179.126800 340.000000
180.091000 1652.000000
181.099900 2744.000000
183.115600 2656.000000
184.112300 1296.000000
185.131400 2444.000000
186.128900 776.000000
187.145900 440.000000
190.121700 488.000000
191.084900 1024.000000
192.092300 1164.000000
193.100200 2668.000000
194.105900 1248.000000
195.115000 1888.000000
196.114500 1020.000000
197.129000 1416.000000
198.131300 864.000000
199.147000 1060.000000
200.147500 492.000000
203.084800 440.000000
204.091700 464.000000
205.100600 1728.000000
206.106000 1100.000000
207.116400 2124.000000
208.120900 1104.000000
209.131900 1324.000000
210.129400 920.000000
211.146600 500.000000
212.144300 732.000000
213.126500 528.000000
213.159600 320.000000
214.158700 376.000000
217.100000 440.000000
218.107000 428.000000
219.116500 1288.000000
220.116400 724.000000
221.131200 1236.000000
222.130600 1480.000000
223.147100 1124.000000
224.144800 572.000000
225.160700 424.000000
226.120300 332.000000
226.161700 424.000000
233.131300 868.000000
234.127500 760.000000
235.135800 456.000000
235.149600 748.000000
236.142400 1088.000000
237.150600 564.000000
237.162100 628.000000
238.158900 652.000000
239.177700 312.000000
247.147200 876.000000
248.145500 724.000000
249.163500 1196.000000
250.162400 1096.000000
251.176400 360.000000
253.186300 332.000000
260.198300 420.000000
261.165500 520.000000
262.160400 748.000000
264.173300 2348.000000
265.176300 600.000000
266.163100 324.000000
266.190600 344.000000
278.189100 784.000000
282.185000 3232.000000
283.189700 764.000000
292.204300 504.000000
310.217600 2676.000000
311.219900 764.000000
370.234500 836.000000

>ms2
98.060400 1064.000000
117.069200 1216.000000
119.085000 1404.000000
124.075000 9484.000000
129.068800 1928.000000
131.084600 3364.000000
133.100000 2792.000000
143.083800 3296.000000
145.099800 3160.000000
147.114400 868.000000
155.083400 892.000000
157.100300 3132.000000
159.115900 3092.000000
164.106100 1128.000000
167.085200 1088.000000
169.099300 1028.000000
171.115100 1996.000000
173.131400 1248.000000
176.106700 1772.000000
178.119200 840.000000
181.099700 1180.000000
183.115500 2088.000000
185.131200 2252.000000
195.115100 1464.000000
197.130200 1408.000000
199.147300 832.000000
209.132200 1100.000000
221.130600 884.000000
225.163100 1028.000000
237.162800 968.000000
260.199100 984.000000
264.174300 2136.000000
282.185500 1204.000000
310.216300 15648.000000
311.220900 4592.000000
328.227600 1560.000000
370.238100 162468.000000
371.240900 45072.000000
372.243400 5608.000000

