>compound AU15110780
>parentmass 225.125
>ionization [M+H]+
>formula C9H21O4P
>rt 563.250000
>profile qtof
#smiles_iso CCCOP(=O)(OCCC)OCCC
#smiles_can CCCOP(=O)(OCCC)OCCC
#inchikey RXPQRKFMDQNODS-UHFFFAOYSA-N
#pubchem_id 10546
#mb_accession AU250001,AU250002

>ms2peaks
141.030300 53916.000000
142.033600 2060.000000
143.034100 620.000000
149.022300 712.000000
183.077500 64204.000000
184.082000 4376.000000
185.082700 748.000000
225.124800 24860.000000
226.127600 3048.000000

>ms2peaks
141.030000 6552.000000
149.021800 1684.000000
183.077600 952.000000

