>compound AU16350684
>parentmass 225.1234
>ionization [M+H]+
>formula C11H16N2O3
>rt 120.000000
>profile qtof
#smiles_iso C1=CC(=CC=C1CC(=O)N)OCC(CN)O
#smiles_can C1=CC(=CC=C1CC(=O)N)OCC(CN)O
#inchikey UWMXVJVTKRSOPW-UHFFFAOYSA-N
#pubchem_id 14211540
#mb_accession AU202401,AU202402,AU202403,AU202404,AU202405

>ms2peaks
145.064000 444.000000
162.089100 640.000000
178.085500 996.000000
180.100500 2412.000000
181.103900 328.000000
190.085400 3600.000000
191.089100 552.000000
208.095500 3476.000000
225.122800 63772.000000
226.126300 6256.000000

>ms2peaks
121.063900 700.000000
133.064100 2708.000000
134.067000 400.000000
145.063600 7760.000000
146.067500 1076.000000
147.042300 704.000000
152.069300 408.000000
162.090600 2208.000000
163.073300 320.000000
163.094700 304.000000
164.069300 1468.000000
165.054800 776.000000
173.058400 1424.000000
178.085200 6600.000000
179.088400 816.000000
180.101100 2232.000000
182.079200 760.000000
190.085400 9672.000000
191.089900 552.000000
208.095900 4868.000000
209.100000 456.000000
225.122800 5268.000000

>ms2peaks
115.053800 540.000000
116.048900 384.000000
117.069500 516.000000
119.048500 424.000000
121.063900 680.000000
131.048100 312.000000
133.063700 4040.000000
134.059300 996.000000
145.063600 8040.000000
146.067500 1184.000000
147.043000 920.000000
162.065900 712.000000
162.089900 656.000000
164.070000 804.000000
173.061800 324.000000
178.085000 1300.000000
190.085600 612.000000

>ms2peaks
115.054800 932.000000
117.033200 408.000000
117.058200 316.000000
117.070100 424.000000
119.049100 360.000000
133.063600 1860.000000
134.060600 408.000000
144.055200 352.000000
145.063900 2852.000000
146.067200 328.000000

>ms2peaks
115.053900 964.000000
133.064500 436.000000
145.063200 664.000000

