>compound AU16616111
>parentmass 393.2072
>ionization [M+H]+
>formula C22H29FO5
>rt 515.750000
>profile qtof
#smiles_iso C[C@@H]1C[C@H]2[C@@H]3C[C@@H](C4=CC(=O)C=C[C@@]4([C@H]3[C@H](C[C@@]2([C@]1(C(=O)CO)O)C)O)C)F
#smiles_can CC1CC2C3CC(C4=CC(=O)C=CC4(C3C(CC2(C1(C(=O)CO)O)C)O)C)F
#inchikey MKPDWECBUAZOHP-AFYJWTTESA-N
#pubchem_id 5875
#mb_accession AU282001,AU282002,AU282003,AU282004,AU282005,AU282006

>ms2peaks
121.063800 1184.000000
135.079000 1480.000000
139.074600 780.000000
147.079000 2136.000000
161.094200 1160.000000
171.078800 3572.000000
172.083100 620.000000
173.094700 608.000000
177.089200 692.000000
179.105600 1616.000000
185.095500 884.000000
187.109900 632.000000
191.105000 676.000000
195.101000 1096.000000
197.096100 2060.000000
203.104800 664.000000
209.094400 592.000000
211.111100 1672.000000
215.106200 836.000000
221.115000 1288.000000
223.111000 3412.000000
224.115000 1328.000000
225.126000 2040.000000
226.130200 600.000000
235.110700 2684.000000
237.126900 5544.000000
238.129000 1316.000000
239.127100 3372.000000
239.141100 4120.000000
240.144300 856.000000
249.126800 1016.000000
251.141400 736.000000
253.123600 544.000000
255.135900 660.000000
261.125000 804.000000
263.141300 1636.000000
265.158500 576.000000
267.137900 1136.000000
275.141600 2912.000000
276.146600 856.000000
277.117100 548.000000
277.158900 4620.000000
278.163000 1724.000000
279.174300 7336.000000
280.177000 2072.000000
281.189200 612.000000
289.155900 1232.000000
291.174200 4528.000000
292.176300 1336.000000
293.153400 876.000000
295.168300 2408.000000
296.172300 740.000000
297.183600 3020.000000
298.186200 632.000000
301.156800 4572.000000
302.164600 824.000000
307.168900 2656.000000
309.183500 5500.000000
310.188200 1096.000000
319.168700 12488.000000
320.172100 2920.000000
321.176800 616.000000
325.180900 2652.000000
326.183800 824.000000
327.194300 3016.000000
337.179900 25788.000000
338.182500 6820.000000
339.179900 704.000000
345.185600 644.000000
355.189800 35296.000000
356.193200 9384.000000
357.186500 3336.000000
358.190900 956.000000
373.201500 6032.000000
374.202700 1816.000000
375.196700 25216.000000
376.199900 7260.000000
377.202900 1280.000000
393.207300 108472.000000
394.210600 27820.000000
395.212800 3896.000000

>ms2peaks
119.085600 556.000000
121.064100 4096.000000
121.099400 692.000000
122.067900 468.000000
123.080000 500.000000
125.057700 436.000000
131.085300 672.000000
133.065300 316.000000
133.100700 928.000000
135.079300 2932.000000
135.116200 360.000000
136.082400 492.000000
137.094900 724.000000
139.054300 416.000000
139.074800 752.000000
141.091200 340.000000
143.084500 616.000000
145.063000 1560.000000
145.099500 1444.000000
147.079200 7308.000000
147.115700 748.000000
149.022900 716.000000
149.094800 1488.000000
151.073500 940.000000
151.110500 580.000000
153.089300 1560.000000
155.067200 308.000000
155.082500 324.000000
157.099900 1248.000000
159.079700 2248.000000
159.116800 324.000000
160.084500 572.000000
161.061100 404.000000
161.095000 2848.000000
163.074200 1012.000000
163.110200 1992.000000
164.112300 328.000000
165.070400 544.000000
165.090600 868.000000
167.105700 572.000000
169.084600 356.000000
171.079100 16224.000000
172.083000 2200.000000
173.094500 3136.000000
174.098600 620.000000
175.075700 528.000000
175.109500 1128.000000
177.088900 1976.000000
177.125900 312.000000
179.084800 332.000000
179.105400 1840.000000
180.111000 304.000000
181.099100 324.000000
181.121300 456.000000
183.078500 624.000000
183.116600 464.000000
185.095100 3936.000000
186.098200 492.000000
187.074500 748.000000
187.111000 1556.000000
189.088900 452.000000
189.126500 628.000000
191.085300 1300.000000
191.105600 1464.000000
192.111200 388.000000
193.100500 428.000000
193.123200 868.000000
195.081200 536.000000
195.100700 1016.000000
197.094600 5772.000000
198.097400 1056.000000
198.109200 336.000000
199.074900 396.000000
199.111000 2220.000000
200.114800 348.000000
201.124800 740.000000
203.104800 1540.000000
205.119900 368.000000
208.084600 436.000000
209.094900 2124.000000
209.116700 324.000000
209.138100 372.000000
210.102400 560.000000
211.111400 5180.000000
212.115100 1196.000000
213.090000 1968.000000
213.125400 1192.000000
215.106800 2928.000000
216.109400 768.000000
217.100600 748.000000
217.125100 444.000000
219.115700 616.000000
219.137500 364.000000
220.121700 400.000000
221.094500 1712.000000
221.117200 1656.000000
222.101700 1356.000000
223.110100 7948.000000
224.115200 2016.000000
225.092800 604.000000
225.125300 3580.000000
226.129000 864.000000
227.105500 896.000000
227.140500 852.000000
228.109000 332.000000
229.122100 528.000000
229.158200 412.000000
231.115800 460.000000
233.132500 316.000000
235.110500 8188.000000
236.115800 1604.000000
237.126800 15492.000000
238.130500 3332.000000
239.141500 11412.000000
240.145400 2924.000000
241.123900 488.000000
241.155400 348.000000
243.101400 388.000000
245.130600 460.000000
247.111700 1028.000000
248.117300 672.000000
249.127400 3576.000000
249.160900 380.000000
250.134700 476.000000
251.106300 976.000000
251.142200 2412.000000
252.144700 340.000000
253.123200 1252.000000
253.157400 828.000000
255.138600 948.000000
256.141100 376.000000
257.135100 404.000000
258.140400 328.000000
259.113500 736.000000
259.149600 676.000000
260.119900 612.000000
261.125900 2816.000000
261.161900 860.000000
262.130900 1284.000000
263.107500 584.000000
263.142000 5364.000000
264.144700 1536.000000
265.122400 612.000000
265.159100 1388.000000
266.160800 544.000000
267.137700 2444.000000
267.173000 812.000000
268.138400 460.000000
268.175600 368.000000
269.117200 360.000000
271.145500 316.000000
272.116600 520.000000
273.126600 636.000000
273.160800 720.000000
275.141500 4988.000000
275.164700 356.000000
276.147600 2224.000000
277.122100 1536.000000
277.157700 11740.000000
278.124200 432.000000
278.162500 4024.000000
279.138100 1052.000000
279.173500 15216.000000
280.177200 3396.000000
281.120800 348.000000
281.153600 1084.000000
281.188600 796.000000
286.135700 1124.000000
287.138800 360.000000
289.160200 2700.000000
290.161000 804.000000
291.139400 732.000000
291.173800 10300.000000
292.177900 2536.000000
293.151600 1184.000000
293.179100 336.000000
294.157800 448.000000
295.133300 568.000000
295.168500 3064.000000
296.175300 1836.000000
297.182800 3928.000000
298.166400 448.000000
298.188800 1396.000000
299.179500 1476.000000
300.188900 320.000000
301.158800 6852.000000
302.160200 1900.000000
303.166500 300.000000
304.147800 404.000000
307.168200 3108.000000
308.170600 660.000000
309.185400 4040.000000
310.188600 1364.000000
311.190900 304.000000
315.172600 452.000000
315.198900 500.000000
317.192400 484.000000
319.169300 12032.000000
320.172600 2504.000000
321.175800 524.000000
325.180200 1572.000000
326.184300 440.000000
327.196100 1808.000000
328.200400 528.000000
329.154000 300.000000
329.191100 308.000000
337.179400 13548.000000
338.182300 3804.000000
339.179500 720.000000
340.176300 428.000000
345.187600 576.000000
355.189900 10656.000000
356.192900 2444.000000
357.189600 968.000000
358.185800 388.000000
358.195600 500.000000
373.198800 660.000000
375.195500 4760.000000
376.200100 1560.000000
393.208400 1368.000000

>ms2peaks
115.053300 664.000000
117.068800 412.000000
119.084900 2196.000000
121.064100 6116.000000
121.099900 1348.000000
122.067200 556.000000
123.080000 1924.000000
123.116500 360.000000
125.059000 1440.000000
125.095600 504.000000
128.060700 816.000000
129.068800 712.000000
130.077300 408.000000
131.084900 3288.000000
132.055500 620.000000
133.063700 2256.000000
133.101200 2024.000000
135.079600 8884.000000
136.082500 736.000000
137.056900 720.000000
137.094700 2500.000000
138.099900 304.000000
139.074700 532.000000
139.110500 432.000000
141.068400 836.000000
142.075300 372.000000
143.070900 400.000000
143.084300 2284.000000
145.064000 2244.000000
145.099800 1812.000000
146.070200 652.000000
147.079500 30684.000000
148.082800 3288.000000
149.022900 816.000000
149.095000 4528.000000
150.098700 520.000000
151.074200 1680.000000
151.109800 484.000000
153.090000 4556.000000
154.092600 476.000000
155.082900 584.000000
157.064700 444.000000
157.099800 1364.000000
158.070900 980.000000
158.105300 380.000000
159.079500 8196.000000
161.059600 412.000000
161.095100 6868.000000
162.099600 1140.000000
163.074800 1616.000000
163.110300 540.000000
165.068600 416.000000
165.089100 928.000000
167.085900 396.000000
167.105900 2176.000000
169.063400 844.000000
169.099400 716.000000
170.069200 380.000000
171.079800 16000.000000
171.116600 1324.000000
172.082900 2608.000000
173.095300 9400.000000
174.098000 1520.000000
175.075000 940.000000
175.110300 1604.000000
177.090100 2968.000000
178.078100 372.000000
178.093600 480.000000
179.084900 660.000000
181.101900 680.000000
182.070900 300.000000
183.078800 1068.000000
183.115800 340.000000
185.095200 9352.000000
186.099400 1184.000000
187.074600 4672.000000
187.110500 5028.000000
188.077700 836.000000
188.114700 1000.000000
189.070600 384.000000
189.090100 1284.000000
189.128100 560.000000
190.094100 312.000000
191.105300 304.000000
193.083400 492.000000
193.101100 804.000000
194.108700 384.000000
195.079900 752.000000
195.101200 496.000000
195.115000 1216.000000
196.088800 1020.000000
196.123300 332.000000
197.095500 5236.000000
197.130300 560.000000
198.101600 1088.000000
199.074200 632.000000
199.109900 3800.000000
200.115000 472.000000
201.088300 932.000000
201.127700 860.000000
203.106600 1036.000000
204.091100 520.000000
205.101500 752.000000
206.105500 316.000000
207.116700 684.000000
208.086400 876.000000
209.095800 3416.000000
209.133200 1644.000000
210.102900 2080.000000
210.135400 404.000000
211.110700 10996.000000
212.116200 2728.000000
213.090700 1328.000000
213.127300 5752.000000
214.128800 1152.000000
215.106500 4520.000000
215.142300 556.000000
216.110300 1088.000000
217.100100 408.000000
218.106400 368.000000
219.116800 1644.000000
220.088500 344.000000
220.121700 416.000000
221.095100 2884.000000
221.134100 872.000000
222.102900 3048.000000
222.136600 408.000000
223.110800 7540.000000
224.116300 2376.000000
225.091700 400.000000
225.127100 4132.000000
226.096600 404.000000
226.133000 1168.000000
227.105500 1244.000000
227.141100 2268.000000
228.111900 376.000000
228.146000 652.000000
229.122700 304.000000
231.113100 456.000000
231.120400 532.000000
232.122000 300.000000
233.095200 568.000000
233.129900 472.000000
234.102300 856.000000
235.111600 5936.000000
235.148200 896.000000
236.116500 1732.000000
236.154500 376.000000
237.126900 16820.000000
237.163700 960.000000
238.096600 396.000000
238.130400 3672.000000
239.104600 2036.000000
239.142100 9804.000000
240.109000 684.000000
240.146100 2212.000000
241.121300 1720.000000
241.157300 448.000000
242.124400 524.000000
244.126200 348.000000
245.095900 492.000000
245.131500 664.000000
246.103000 468.000000
246.138000 452.000000
247.111100 788.000000
247.148200 516.000000
248.117700 2260.000000
248.151200 332.000000
249.126100 5020.000000
249.164000 856.000000
250.132900 1624.000000
250.169100 488.000000
251.106900 692.000000
251.142400 2576.000000
251.179100 564.000000
252.150300 1628.000000
253.121200 3464.000000
253.158300 3668.000000
254.125100 736.000000
254.161600 832.000000
255.136400 1900.000000
256.139700 776.000000
257.132200 716.000000
258.139500 440.000000
259.108900 764.000000
259.148400 676.000000
260.117200 1392.000000
261.125600 2592.000000
261.162100 952.000000
262.134500 3104.000000
262.166300 312.000000
263.106700 476.000000
263.142300 8892.000000
263.179800 560.000000
264.113200 312.000000
264.148200 2772.000000
265.122800 448.000000
265.157000 2276.000000
266.162600 692.000000
267.136900 2208.000000
267.173300 1216.000000
268.140500 572.000000
269.150900 452.000000
271.110200 428.000000
271.151700 364.000000
272.117900 920.000000
273.127400 816.000000
273.163700 580.000000
274.134500 1252.000000
274.167000 316.000000
275.143300 2792.000000
276.148900 2188.000000
277.121700 852.000000
277.158600 8148.000000
278.165300 7624.000000
279.138300 1296.000000
279.173900 22580.000000
280.143700 300.000000
280.177700 5572.000000
281.153800 1288.000000
281.189500 948.000000
282.157200 320.000000
282.194200 304.000000
284.155700 300.000000
286.135000 1352.000000
287.142100 496.000000
288.143000 356.000000
289.121200 304.000000
289.157700 3780.000000
290.130800 588.000000
290.164800 984.000000
291.138400 736.000000
291.173900 8604.000000
292.141700 352.000000
292.177800 2644.000000
293.153100 1456.000000
293.184900 328.000000
294.155600 668.000000
295.133700 432.000000
295.168900 3732.000000
296.176500 1792.000000
297.183800 1964.000000
298.188000 416.000000
301.157900 3132.000000
302.161300 848.000000
304.145500 708.000000
306.165100 800.000000
307.168000 2888.000000
308.173300 1088.000000
309.184000 2944.000000
310.185300 720.000000
311.164500 2040.000000
312.167900 796.000000
319.168400 4840.000000
320.170200 1260.000000
325.178900 1268.000000
326.182500 496.000000
327.196700 460.000000
337.179500 4372.000000
338.183800 1172.000000
355.189400 4172.000000
356.197000 1016.000000

>ms2peaks
115.053100 808.000000
116.059700 316.000000
117.068000 1020.000000
119.085000 3296.000000
120.089600 480.000000
121.063900 7464.000000
121.100500 1456.000000
122.067900 1008.000000
123.079300 956.000000
125.058800 672.000000
125.094100 512.000000
128.061400 2632.000000
129.068700 1508.000000
130.076200 588.000000
131.047400 636.000000
131.084300 3576.000000
132.055000 1244.000000
132.088600 592.000000
133.063000 1628.000000
133.100200 1756.000000
134.072700 520.000000
135.079100 5516.000000
137.058600 368.000000
137.075100 332.000000
137.094600 1976.000000
141.068500 1464.000000
142.075800 1048.000000
143.084200 4508.000000
144.055400 564.000000
144.088200 788.000000
145.063400 4880.000000
145.100000 1988.000000
147.079000 28576.000000
148.082300 3404.000000
149.021900 1380.000000
149.094800 1848.000000
151.073400 896.000000
151.110800 532.000000
153.068600 760.000000
153.089000 856.000000
155.083800 2024.000000
156.090000 908.000000
157.063900 604.000000
157.099500 2708.000000
158.070900 2592.000000
158.106700 316.000000
159.078800 10836.000000
160.083000 1780.000000
161.057300 616.000000
161.095000 5008.000000
162.097700 784.000000
163.075200 560.000000
163.110400 500.000000
165.069600 1316.000000
165.089700 468.000000
166.077100 388.000000
167.084300 1388.000000
167.103900 436.000000
168.055000 348.000000
169.062400 1176.000000
169.099500 1584.000000
170.070500 852.000000
171.079000 15156.000000
171.115200 1224.000000
172.083100 2436.000000
173.095000 9788.000000
174.097600 1392.000000
175.073800 456.000000
175.110400 1136.000000
177.089200 940.000000
178.076500 768.000000
179.085000 2012.000000
180.089600 676.000000
181.062800 696.000000
181.100100 1456.000000
182.072500 796.000000
182.107900 404.000000
183.078300 2264.000000
183.114700 844.000000
184.086000 1100.000000
185.056700 376.000000
185.094500 7000.000000
186.098100 1020.000000
187.073900 2764.000000
187.111000 2576.000000
188.077500 380.000000
189.068100 628.000000
189.090900 940.000000
189.126600 320.000000
190.074700 436.000000
191.087000 996.000000
192.091200 1096.000000
193.100000 2736.000000
194.071200 488.000000
194.106000 1064.000000
195.079200 1908.000000
195.114200 1532.000000
196.085700 2068.000000
196.120400 320.000000
197.094100 5856.000000
197.130900 732.000000
198.099300 1604.000000
199.073200 364.000000
199.109800 2052.000000
201.087900 496.000000
201.126600 424.000000
203.084200 668.000000
204.091800 1896.000000
205.099500 1272.000000
206.108000 948.000000
207.078000 628.000000
207.115800 1856.000000
208.087300 2656.000000
208.120500 616.000000
209.094500 5436.000000
209.131200 1612.000000
210.102000 3376.000000
210.132400 336.000000
211.110200 6236.000000
211.149100 416.000000
212.116100 3080.000000
213.091700 408.000000
213.126600 2872.000000
214.129400 688.000000
215.084900 352.000000
215.105200 2332.000000
216.093100 516.000000
216.109600 424.000000
217.101600 700.000000
218.108000 708.000000
219.076700 328.000000
219.114800 2936.000000
220.087100 932.000000
220.122700 1032.000000
221.095300 3660.000000
221.130600 1152.000000
222.102400 7552.000000
222.136600 436.000000
223.110200 9432.000000
224.117200 3364.000000
225.090900 476.000000
225.125500 2892.000000
226.096700 484.000000
226.130600 1064.000000
227.105300 380.000000
227.141700 1452.000000
228.144700 392.000000
229.099400 420.000000
230.107900 848.000000
231.115500 796.000000
232.084700 580.000000
232.122300 596.000000
233.095300 1448.000000
233.131800 752.000000
234.102900 1368.000000
234.137200 388.000000
235.110600 4692.000000
235.147700 712.000000
236.114800 2236.000000
236.159200 616.000000
237.126000 9500.000000
237.161100 804.000000
238.095900 456.000000
238.130500 2124.000000
239.104700 1336.000000
239.142400 4548.000000
240.109800 308.000000
241.121900 560.000000
242.119200 340.000000
243.114100 832.000000
244.121700 692.000000
245.094400 1392.000000
245.129100 812.000000
246.100900 988.000000
246.137600 768.000000
247.110700 2220.000000
247.146900 612.000000
248.117900 3116.000000
249.126200 3668.000000
249.161400 492.000000
250.130900 1644.000000
250.172000 432.000000
251.102600 300.000000
251.141800 1844.000000
251.180200 364.000000
252.109800 332.000000
252.148900 1636.000000
253.120900 1424.000000
253.155600 1616.000000
254.125300 400.000000
254.161600 348.000000
255.136700 900.000000
257.131700 692.000000
258.103100 528.000000
258.141400 316.000000
259.111900 1496.000000
259.146700 736.000000
260.116400 1492.000000
261.126400 2704.000000
261.163800 868.000000
262.133800 4420.000000
263.103300 424.000000
263.141500 7728.000000
264.111500 528.000000
264.148400 3380.000000
265.156500 1128.000000
266.160600 780.000000
267.137000 1092.000000
267.174000 328.000000
271.112200 868.000000
271.146400 524.000000
272.116400 840.000000
273.126100 748.000000
273.162800 340.000000
274.135900 1524.000000
275.141200 1528.000000
276.149300 2436.000000
277.121200 328.000000
277.156300 4144.000000
278.126700 416.000000
278.164000 3560.000000
279.139900 432.000000
279.172400 6628.000000
280.177100 1480.000000
281.153500 596.000000
281.186000 332.000000
282.158500 400.000000
286.133900 1268.000000
287.135300 396.000000
289.157000 1160.000000
290.130400 316.000000
290.158500 340.000000
291.136100 680.000000
291.173200 1096.000000
292.140700 420.000000
292.177900 400.000000
293.155400 436.000000
295.169100 632.000000
296.176300 612.000000
297.183500 404.000000
301.157000 1012.000000
304.143900 408.000000
306.161500 644.000000
307.167700 896.000000
308.175800 376.000000
309.188200 308.000000
319.170200 944.000000
320.170600 332.000000
325.179600 372.000000

>ms2peaks
115.053400 2660.000000
117.070000 2196.000000
119.084000 2804.000000
120.087900 468.000000
121.064100 11580.000000
122.067800 1312.000000
123.078900 612.000000
127.053000 588.000000
128.061400 5552.000000
129.068300 3576.000000
130.075800 1124.000000
131.048400 996.000000
131.084100 2896.000000
132.055800 1728.000000
132.086400 424.000000
133.063300 1036.000000
133.100200 1340.000000
135.079900 2128.000000
135.116700 348.000000
136.083100 316.000000
137.093800 428.000000
139.054300 3640.000000
140.059600 496.000000
141.068500 2248.000000
142.075900 2664.000000
143.084000 4720.000000
144.055800 948.000000
144.088100 928.000000
145.063500 5548.000000
145.100000 3900.000000
146.071400 1448.000000
146.103700 488.000000
147.079700 9864.000000
147.117000 756.000000
148.082100 1196.000000
149.023000 476.000000
149.094800 800.000000
151.075300 472.000000
152.060000 1620.000000
153.068300 1808.000000
154.074400 1140.000000
155.084300 2860.000000
156.055000 324.000000
156.091300 1152.000000
157.063600 1064.000000
157.098700 2184.000000
158.071300 3140.000000
159.079400 6356.000000
159.115000 760.000000
160.084500 1100.000000
161.093900 2048.000000
163.110100 904.000000
165.068700 4696.000000
166.074900 1720.000000
167.084200 2600.000000
168.054400 348.000000
168.091000 1196.000000
169.063200 2904.000000
169.099700 1916.000000
170.070200 1348.000000
171.079400 22660.000000
172.083200 3680.000000
173.093700 2716.000000
174.098600 656.000000
175.110900 720.000000
176.118500 324.000000
177.065900 396.000000
178.077000 2164.000000
179.083800 4620.000000
180.090600 1540.000000
181.064100 2864.000000
181.099300 2328.000000
182.071100 2524.000000
182.106200 480.000000
183.079600 2500.000000
183.117100 596.000000
184.086500 1408.000000
185.094300 3336.000000
186.098800 392.000000
187.073300 456.000000
187.110800 560.000000
189.069300 1500.000000
189.088000 372.000000
190.075700 1544.000000
191.084400 3692.000000
192.091500 2468.000000
193.099700 3004.000000
194.072300 2144.000000
194.106600 1776.000000
195.079400 4668.000000
195.114200 1940.000000
196.086200 4076.000000
196.120900 404.000000
197.095000 5740.000000
197.127700 300.000000
198.100000 1372.000000
199.111600 1208.000000
202.077000 704.000000
203.084200 1420.000000
204.090600 1292.000000
205.061900 724.000000
205.100300 2980.000000
206.070100 780.000000
206.106400 1296.000000
207.079800 1932.000000
207.115800 1516.000000
208.087200 5844.000000
208.123500 444.000000
209.095000 5724.000000
209.131400 872.000000
210.100700 3984.000000
211.109900 3232.000000
212.117100 1380.000000
213.094000 368.000000
213.127600 612.000000
215.084100 1048.000000
215.106800 764.000000
216.090500 1116.000000
217.099900 1648.000000
218.068100 496.000000
218.106800 696.000000
219.080300 1568.000000
219.115700 1568.000000
220.087100 2496.000000
220.121500 704.000000
221.095100 4136.000000
221.130800 900.000000
222.102700 9108.000000
223.108800 4752.000000
224.081700 308.000000
224.117700 2636.000000
225.090600 480.000000
225.123900 1360.000000
226.129700 324.000000
227.083200 484.000000
227.107800 328.000000
229.101500 1192.000000
230.106500 980.000000
231.080500 628.000000
231.117800 944.000000
232.089000 968.000000
233.094600 2624.000000
233.128900 464.000000
234.103000 4020.000000
234.136200 352.000000
235.110200 6528.000000
236.116100 2132.000000
237.126500 3020.000000
238.127900 636.000000
239.142000 1316.000000
240.146700 356.000000
241.099300 444.000000
242.108900 384.000000
243.117000 1276.000000
244.088000 484.000000
244.123400 684.000000
245.095100 2292.000000
245.134200 680.000000
246.103900 1684.000000
246.136500 560.000000
247.110100 4772.000000
248.117300 3216.000000
249.124700 2816.000000
250.132400 712.000000
251.106700 440.000000
251.141100 656.000000
256.126100 356.000000
257.093500 364.000000
257.130000 384.000000
258.141200 352.000000
259.111000 1228.000000
259.154800 308.000000
260.116600 1384.000000
261.087300 308.000000
261.096100 396.000000
261.126600 2064.000000
261.160100 412.000000
262.096000 456.000000
262.133800 1944.000000
263.105000 416.000000
263.141200 1960.000000
264.113000 388.000000
264.146700 804.000000
271.109800 1512.000000
272.117400 996.000000
273.127500 512.000000
274.135500 808.000000
275.107500 312.000000
275.141300 504.000000
276.149200 540.000000
277.123500 332.000000
277.158700 604.000000
278.161900 312.000000
279.174900 328.000000
283.153100 300.000000
285.130100 484.000000
286.132300 744.000000
287.135900 468.000000
289.122800 360.000000

>ms2peaks
57.033200 512.000000
69.033800 356.000000
69.069300 576.000000
71.049400 752.000000
81.069300 364.000000
93.069900 356.000000
95.050500 496.000000
95.085500 1164.000000
107.086000 696.000000
109.101400 400.000000
111.080900 368.000000
115.054800 612.000000
117.069900 476.000000
119.085300 2196.000000
121.064200 5680.000000
121.100500 2544.000000
122.067000 564.000000
122.104600 320.000000
123.080100 1908.000000
125.058900 1352.000000
125.096100 1004.000000
128.060800 508.000000
129.068100 660.000000
131.085200 2096.000000
132.056900 376.000000
133.065100 1552.000000
133.099500 1448.000000
135.079400 7796.000000
136.082600 796.000000
137.059300 712.000000
137.095800 2476.000000
139.073500 336.000000
141.069300 576.000000
143.083500 2004.000000
144.055600 352.000000
145.063800 1900.000000
145.100100 1332.000000
146.069200 532.000000
147.079500 30128.000000
148.082600 2940.000000
149.024100 524.000000
149.094700 3860.000000
150.097400 468.000000
151.075400 1876.000000
151.110100 952.000000
153.090100 4012.000000
154.094500 512.000000
155.069500 324.000000
155.086500 596.000000
156.090500 492.000000
157.065700 476.000000
157.100200 1360.000000
158.072000 904.000000
159.079500 6596.000000
159.117600 388.000000
160.083100 1264.000000
161.095200 7196.000000
162.098000 836.000000
163.076000 888.000000
163.111700 656.000000
165.089500 984.000000
167.085900 484.000000
167.105400 2236.000000
169.063200 836.000000
169.086200 304.000000
169.101300 984.000000
171.079900 13468.000000
171.116500 1180.000000
172.083000 2428.000000
173.095300 10208.000000
174.097900 1620.000000
175.075700 600.000000
175.111300 1204.000000
177.090200 2728.000000
178.095400 588.000000
179.084300 768.000000
180.090100 412.000000
181.100400 644.000000
183.079600 1276.000000
183.116800 452.000000
185.096000 7680.000000
186.099100 860.000000
187.074700 3600.000000
187.110200 2780.000000
188.079800 532.000000
189.067500 316.000000
189.090200 1396.000000
191.083100 384.000000
191.107900 472.000000
192.092300 376.000000
193.085100 408.000000
193.101100 1136.000000
195.077500 988.000000
195.100200 644.000000
195.114300 956.000000
196.085800 796.000000
197.094900 4500.000000
197.133900 544.000000
198.100800 1252.000000
199.074900 532.000000
199.110100 3704.000000
200.111400 452.000000
200.121400 364.000000
201.092700 540.000000
201.126600 664.000000
203.106300 992.000000
204.093300 440.000000
205.098500 680.000000
206.106000 420.000000
207.115800 868.000000
208.087800 1060.000000
209.095600 3148.000000
209.132400 988.000000
210.101200 1764.000000
211.110900 8604.000000
212.116700 2360.000000
213.092300 804.000000
213.126700 5144.000000
214.129800 632.000000
215.105900 4684.000000
215.141300 388.000000
216.110400 684.000000
217.104200 320.000000
219.116900 1696.000000
220.089100 356.000000
220.121800 792.000000
221.095500 2552.000000
221.132700 556.000000
222.102700 2800.000000
223.111500 6680.000000
224.117200 2684.000000
225.089700 620.000000
225.126300 3728.000000
226.132200 748.000000
227.104900 576.000000
227.142400 1680.000000
229.085600 364.000000
231.113900 860.000000
232.124200 304.000000
233.093800 676.000000
234.103100 952.000000
235.110400 5192.000000
235.148200 616.000000
236.117000 1676.000000
236.154800 432.000000
237.127000 16204.000000
238.130700 4472.000000
239.104900 1400.000000
239.142300 8156.000000
240.112300 572.000000
240.146500 2104.000000
241.122600 1892.000000
241.158900 692.000000
242.126100 832.000000
243.116200 580.000000
245.094700 308.000000
245.131300 580.000000
246.102700 592.000000
246.137700 464.000000
247.111100 756.000000
247.148700 524.000000
248.120700 1604.000000
249.126900 3440.000000
249.162500 824.000000
250.132200 1348.000000
250.166800 524.000000
251.105700 504.000000
251.143000 2212.000000
252.109100 424.000000
252.149000 1088.000000
253.120900 2308.000000
253.157600 3848.000000
254.126600 748.000000
254.163100 868.000000
255.138000 1200.000000
256.140900 476.000000
259.110900 904.000000
259.147300 612.000000
260.120100 1280.000000
261.126300 2324.000000
261.162700 736.000000
262.134900 2440.000000
263.111100 492.000000
263.142500 8480.000000
264.149300 2600.000000
265.123400 540.000000
265.158500 2076.000000
266.164000 704.000000
267.137300 2628.000000
267.175000 1352.000000
268.140300 560.000000
268.179200 524.000000
272.121300 680.000000
273.125000 604.000000
273.159900 648.000000
274.133800 1312.000000
275.143500 3584.000000
276.150200 2788.000000
277.123000 944.000000
277.159000 7488.000000
278.129900 452.000000
278.165900 6840.000000
279.174100 26060.000000
280.147500 340.000000
280.177400 6680.000000
281.152400 1520.000000
281.189000 1516.000000
283.146500 544.000000
283.166700 416.000000
286.137800 1260.000000
287.138900 480.000000
289.159600 3904.000000
290.130700 380.000000
290.162100 996.000000
291.137600 536.000000
291.174500 7404.000000
292.177100 2312.000000
293.155600 1060.000000
294.157100 340.000000
295.133500 928.000000
295.169300 4188.000000
296.134100 308.000000
296.175300 1732.000000
297.146300 308.000000
297.182300 2352.000000
298.188600 684.000000
301.159300 3100.000000
302.163600 936.000000
304.147700 388.000000
306.161900 556.000000
307.168500 3272.000000
308.174100 1228.000000
309.184000 4396.000000
310.190000 920.000000
311.164200 3392.000000
312.167900 984.000000
313.172300 436.000000
319.170000 6628.000000
320.173200 1800.000000
325.179200 1440.000000
326.182200 488.000000
327.195400 868.000000
328.195800 368.000000
337.179900 7472.000000
338.182900 2040.000000
339.190500 400.000000
345.188400 320.000000
355.191300 12432.000000
356.194500 3632.000000
357.200600 644.000000
373.204100 1188.000000
374.205300 492.000000
375.201200 300.000000

