>compound AU16467051
>parentmass 308.00399999999996
>ionization [M+H]+
>formula C15H8Cl2FNO
>rt 768.900000
>profile qtof
#smiles_iso C1=CC(=CC=C1OC2=C3C(=CC(=CC3=NC=C2)Cl)Cl)F
#smiles_can C1=CC(=CC=C1OC2=C3C(=CC(=CC3=NC=C2)Cl)Cl)F
#inchikey WRPIRSINYZBGPK-UHFFFAOYSA-N
#pubchem_id 3391107
#mb_accession AU254701,AU254702,AU254703,AU254704,AU254705,AU254706

>ms2
308.005500 2481964.000000
309.008000 475652.000000
310.002000 2055528.000000

>ms2
196.977900 13508.000000
272.026400 26492.000000
308.004500 2458008.000000
309.007200 486956.000000
310.001200 2064152.000000

>ms2
150.009200 16584.000000
162.009500 20064.000000
196.978700 218400.000000
197.981500 18944.000000
198.975500 113960.000000
213.981500 103500.000000
214.984100 11180.000000
215.978600 56788.000000
228.968300 49696.000000
230.965300 26856.000000
237.057900 15884.000000
244.031500 35104.000000
245.039400 59004.000000
247.036300 12620.000000
272.027100 281456.000000
273.031000 42952.000000
274.024100 54924.000000
280.008500 30720.000000
282.005700 17556.000000
287.997100 13524.000000
308.004100 2004860.000000
309.007300 319912.000000
310.001200 1363240.000000

>ms2
122.998600 19264.000000
124.995500 4568.000000
150.009400 73504.000000
151.014200 9200.000000
152.006200 16172.000000
162.009400 192348.000000
163.012700 16800.000000
164.006400 34392.000000
166.003700 4688.000000
168.019700 22460.000000
169.967800 5096.000000
170.017100 4948.000000
178.014700 15340.000000
179.012100 8640.000000
180.015900 6472.000000
183.058700 8228.000000
183.970600 14184.000000
184.978000 31444.000000
185.967800 6892.000000
186.975500 17904.000000
190.064000 4344.000000
195.970300 7892.000000
196.978600 819808.000000
197.981600 66732.000000
198.975700 461584.000000
199.978900 22180.000000
208.054300 7504.000000
209.062600 34180.000000
210.069700 27052.000000
212.973200 16196.000000
213.981500 481156.000000
214.984500 40704.000000
215.978700 239240.000000
216.981500 14340.000000
217.020400 11576.000000
219.022700 10952.000000
225.033000 21384.000000
226.040000 7900.000000
227.029900 4456.000000
228.968700 170800.000000
229.971900 15400.000000
230.965900 88588.000000
231.969100 5608.000000
237.057800 68984.000000
238.063300 21300.000000
243.024200 6140.000000
244.031900 76248.000000
245.039600 136376.000000
246.039800 19040.000000
247.036700 28384.000000
253.028100 14628.000000
254.035000 12696.000000
255.025300 6768.000000
256.032000 6144.000000
260.002800 6180.000000
272.027200 324980.000000
273.030700 57092.000000
274.024100 69176.000000
280.009000 24716.000000
281.010400 4612.000000
282.005900 15176.000000
287.997000 16148.000000
289.994800 12828.000000
308.004000 446052.000000
309.007100 74996.000000
310.001200 257500.000000

>ms2
114.033200 3860.000000
115.040800 5464.000000
122.998600 36772.000000
124.995800 9560.000000
126.032800 3668.000000
127.040500 13200.000000
150.009300 63956.000000
151.016700 21964.000000
152.006200 14216.000000
153.012800 4940.000000
154.038600 5548.000000
156.959100 3276.000000
161.001300 7588.000000
162.009300 598260.000000
163.012500 40640.000000
164.006300 109208.000000
165.008600 6216.000000
168.019700 17536.000000
169.967200 13432.000000
170.017400 3684.000000
171.965100 9120.000000
178.014800 11888.000000
179.012400 29296.000000
180.018500 12284.000000
181.009300 5904.000000
182.051500 3992.000000
183.059300 18828.000000
183.970300 8296.000000
184.978100 54544.000000
185.967700 4752.000000
185.982300 5760.000000
186.975300 31252.000000
190.063700 13044.000000
191.069700 3496.000000
195.970400 5668.000000
196.978500 393836.000000
197.981800 36808.000000
198.975500 206056.000000
199.979000 11600.000000
208.054700 17100.000000
209.062200 47724.000000
210.069300 32152.000000
211.073800 3952.000000
212.973200 4984.000000
213.981400 362224.000000
214.984100 34916.000000
215.978400 200212.000000
216.981500 11876.000000
217.020900 10468.000000
219.022200 7572.000000
224.025100 3592.000000
225.033000 21572.000000
226.038500 5796.000000
227.030600 4772.000000
228.968400 93880.000000
229.971600 9964.000000
230.965200 54516.000000
231.968100 3328.000000
237.057800 70620.000000
238.062500 16716.000000
243.023400 9424.000000
244.031600 35904.000000
245.039000 51428.000000
246.031500 8200.000000
247.035900 12468.000000
253.028100 9836.000000
254.034600 5816.000000
255.024500 4440.000000
256.031600 3200.000000
272.026800 75168.000000
273.030400 14848.000000
274.022900 18320.000000
280.007100 3296.000000
287.997900 3596.000000
308.003400 19280.000000
309.007000 3180.000000
310.001000 12480.000000

>ms2
123.036600 5912.000000
150.010500 12272.000000
162.010300 11104.000000
196.979600 128388.000000
197.982700 10164.000000
198.976600 62700.000000
213.982300 63508.000000
215.979200 30988.000000
228.969500 36436.000000
230.965900 22716.000000
237.057800 9408.000000
244.032500 18288.000000
245.039700 36520.000000
247.037000 8560.000000
272.027600 131028.000000
273.031400 22648.000000
274.024500 31672.000000
280.009800 15560.000000
282.005400 9052.000000
287.997500 7812.000000
308.004800 1172756.000000
309.008000 247824.000000
310.001700 859884.000000

