>compound AU16607465
>parentmass 379.21149999999994
>ionization [M+H]+
>formula C21H30O6
>rt 265.060000
>profile qtof
#smiles_iso C[C@]12CCC(=O)C=C1[C@@H](C[C@@H]3[C@@H]2[C@H](C[C@]4([C@H]3CC[C@@]4(C(=O)CO)O)C)O)O
#smiles_can CC12CCC(=O)C=C1C(CC3C2C(CC4(C3CCC4(C(=O)CO)O)C)O)O
#inchikey GNFTWPCIRXSCQF-UJXAPRPESA-N
#pubchem_id 6852390
#mb_accession AU283801,AU283802,AU283803,AU283804,AU283805,AU283806

>ms2
173.095300 360.000000
217.119500 360.000000
239.140600 868.000000
247.146600 420.000000
265.157400 816.000000
267.175000 1064.000000
279.172500 492.000000
283.169500 760.000000
284.178600 472.000000
285.185000 944.000000
289.160300 580.000000
295.168600 460.000000
297.187000 908.000000
301.180900 556.000000
307.168500 1176.000000
308.172700 496.000000
313.177200 2404.000000
314.184400 560.000000
315.195000 496.000000
325.180700 4488.000000
326.185400 1024.000000
331.192300 708.000000
343.189400 5760.000000
344.193000 1708.000000
361.201800 2240.000000
362.205800 684.000000
379.211500 67844.000000
380.214300 15624.000000
381.214200 2656.000000

>ms2
117.069200 308.000000
121.063200 336.000000
123.079500 312.000000
131.083500 340.000000
135.077900 356.000000
137.058300 496.000000
139.073000 584.000000
143.082300 460.000000
145.099600 1044.000000
147.079400 720.000000
147.115600 324.000000
149.094800 616.000000
151.074800 412.000000
155.067500 536.000000
155.085000 432.000000
157.100800 340.000000
159.078500 380.000000
161.095000 972.000000
163.107900 300.000000
165.089400 372.000000
169.099500 552.000000
171.077300 660.000000
171.115300 572.000000
173.095100 1280.000000
175.111000 524.000000
179.103800 472.000000
181.099000 380.000000
183.115400 592.000000
185.094500 616.000000
187.110700 960.000000
189.090300 416.000000
191.106400 300.000000
193.119100 324.000000
195.118000 408.000000
197.094200 300.000000
197.130200 388.000000
199.110700 752.000000
201.125200 392.000000
203.106000 468.000000
205.120900 512.000000
207.115400 696.000000
209.091100 316.000000
209.129300 892.000000
210.135600 300.000000
211.111700 932.000000
211.148500 500.000000
213.126700 668.000000
215.105700 460.000000
215.142500 352.000000
217.121300 836.000000
219.114000 336.000000
221.132400 1036.000000
223.113600 472.000000
223.145600 772.000000
224.155300 308.000000
225.126700 928.000000
225.170900 300.000000
226.129000 312.000000
227.141700 824.000000
229.122800 540.000000
231.137500 412.000000
233.116300 452.000000
235.134500 376.000000
235.145700 564.000000
236.151000 328.000000
237.125800 1316.000000
237.160700 632.000000
239.142600 3644.000000
239.177700 552.000000
240.145500 728.000000
241.122200 492.000000
241.158800 1308.000000
242.160900 340.000000
243.137700 688.000000
245.152800 508.000000
247.147400 1408.000000
248.150800 516.000000
249.127100 1076.000000
249.162500 724.000000
251.144100 620.000000
253.116500 304.000000
253.156400 624.000000
255.136000 952.000000
256.179100 360.000000
257.151900 1680.000000
259.169800 396.000000
261.160800 716.000000
263.142500 820.000000
264.144900 300.000000
265.157400 3648.000000
266.161800 1216.000000
267.137900 1324.000000
267.173200 4408.000000
268.138400 316.000000
268.179800 788.000000
269.152500 528.000000
269.190600 472.000000
271.131400 492.000000
271.145800 380.000000
277.160000 628.000000
279.172800 2304.000000
280.175900 652.000000
281.152500 604.000000
282.160300 556.000000
283.169300 4796.000000
284.173400 2040.000000
285.146700 700.000000
285.184000 4064.000000
286.188700 756.000000
289.156600 1256.000000
290.163400 364.000000
295.167100 2712.000000
296.169800 424.000000
297.184200 3252.000000
298.187700 772.000000
299.164000 480.000000
301.178300 640.000000
303.194200 424.000000
307.167800 4432.000000
308.173700 1324.000000
313.179200 3952.000000
314.184300 1372.000000
315.196300 1048.000000
317.171100 448.000000
325.178500 9312.000000
326.183600 2168.000000
331.190500 900.000000
343.189100 8896.000000
344.193800 2040.000000
361.200600 4016.000000
362.200300 1044.000000
379.209700 13408.000000
380.213700 3312.000000

>ms2
119.085100 476.000000
121.063600 780.000000
123.081800 316.000000
131.083600 1044.000000
133.100800 932.000000
135.080600 572.000000
137.058400 560.000000
139.073300 1232.000000
141.068700 468.000000
143.083500 1144.000000
145.061700 344.000000
145.099100 1556.000000
147.078500 1004.000000
147.114700 724.000000
149.093800 868.000000
151.076200 344.000000
153.067600 348.000000
153.089000 436.000000
155.083300 1104.000000
157.099500 1404.000000
159.078500 924.000000
159.115500 820.000000
161.094800 1276.000000
163.074900 512.000000
163.109800 564.000000
169.099800 1604.000000
171.079300 552.000000
171.115000 936.000000
173.095100 2000.000000
174.098200 368.000000
175.110800 1532.000000
177.088800 320.000000
179.083100 356.000000
179.106200 732.000000
181.099200 960.000000
182.105500 360.000000
183.081500 324.000000
183.116700 1836.000000
184.120000 340.000000
185.094400 1160.000000
185.132400 888.000000
187.109900 1568.000000
189.091200 452.000000
191.104100 524.000000
193.101100 524.000000
195.114900 1188.000000
197.093800 1008.000000
197.131200 1184.000000
198.100100 312.000000
199.111300 1040.000000
199.147400 432.000000
201.125200 748.000000
205.101300 504.000000
205.122700 408.000000
207.115200 1108.000000
208.121800 336.000000
209.132100 1564.000000
210.133700 344.000000
211.110800 1112.000000
211.148000 808.000000
212.117900 380.000000
213.126100 1028.000000
215.106000 344.000000
215.142500 636.000000
217.122900 600.000000
219.115600 532.000000
221.130600 1928.000000
222.133800 332.000000
223.111000 1188.000000
223.147500 1220.000000
224.116100 400.000000
224.151800 336.000000
225.127100 1432.000000
225.165500 556.000000
226.131400 392.000000
227.141600 1084.000000
229.123000 652.000000
231.138100 300.000000
233.130800 360.000000
235.147900 876.000000
237.127500 1344.000000
237.161800 748.000000
238.169400 564.000000
239.141600 3956.000000
239.177000 540.000000
240.146300 872.000000
241.122400 612.000000
241.159900 1508.000000
243.137000 400.000000
245.131900 312.000000
247.147500 1428.000000
248.150900 484.000000
249.126200 688.000000
249.161500 672.000000
251.142100 724.000000
251.173500 328.000000
252.148000 500.000000
253.158400 676.000000
255.136300 828.000000
255.172900 648.000000
257.152300 1008.000000
261.163800 828.000000
263.142400 732.000000
264.148700 392.000000
265.124100 304.000000
265.157100 2396.000000
266.166500 1964.000000
267.137400 776.000000
267.172300 3224.000000
268.143000 388.000000
268.178200 660.000000
269.152600 580.000000
269.190300 308.000000
271.129700 452.000000
277.158400 428.000000
279.173100 1816.000000
280.179500 348.000000
281.154900 620.000000
283.169300 1900.000000
284.175500 2636.000000
285.147000 584.000000
285.185300 1704.000000
286.188600 360.000000
289.156600 864.000000
295.170000 1256.000000
296.177600 400.000000
297.151200 300.000000
297.184800 956.000000
298.189700 364.000000
299.162900 600.000000
301.176300 300.000000
307.167600 2156.000000
308.171400 392.000000
313.180900 1816.000000
314.176900 300.000000
317.175500 336.000000
325.178900 1856.000000
326.184900 460.000000
331.188400 512.000000
343.189100 1196.000000
361.203400 436.000000

>ms2
115.056100 348.000000
117.068100 768.000000
119.085500 836.000000
121.063600 1012.000000
123.080000 340.000000
128.060700 1308.000000
129.069500 772.000000
131.084200 2232.000000
133.062100 308.000000
133.099700 1168.000000
135.080400 1060.000000
137.058400 524.000000
139.073700 904.000000
141.069000 500.000000
142.076400 416.000000
143.083900 2772.000000
144.090500 700.000000
145.062700 620.000000
145.099700 2924.000000
147.079500 1104.000000
147.115800 1244.000000
149.094300 916.000000
151.073400 344.000000
154.075400 444.000000
155.084400 1860.000000
156.090500 484.000000
157.099800 1768.000000
158.106200 440.000000
159.078700 1196.000000
159.115100 952.000000
161.094800 1348.000000
163.075000 484.000000
165.069900 564.000000
165.089000 336.000000
167.085300 1304.000000
168.091900 576.000000
169.099600 2456.000000
170.107300 452.000000
171.078300 1272.000000
171.115000 1880.000000
172.084600 400.000000
172.118400 380.000000
173.093700 2380.000000
173.132900 556.000000
174.100400 408.000000
175.111000 824.000000
179.084900 744.000000
180.091000 480.000000
181.099500 2124.000000
182.104600 876.000000
183.079800 312.000000
183.115800 2600.000000
184.085300 300.000000
184.120700 588.000000
185.095400 876.000000
185.131600 984.000000
186.101500 368.000000
187.110300 1628.000000
189.088800 724.000000
189.128000 404.000000
191.104600 396.000000
192.091200 500.000000
193.099900 1284.000000
194.105600 560.000000
195.115100 2528.000000
196.086300 324.000000
196.121600 572.000000
197.092900 992.000000
197.131700 1744.000000
198.097600 308.000000
198.135000 476.000000
199.109900 752.000000
199.145900 612.000000
200.121100 436.000000
201.125900 508.000000
205.098600 668.000000
206.109100 1264.000000
207.114600 1772.000000
208.122200 700.000000
209.094600 544.000000
209.132300 1912.000000
210.100900 312.000000
211.110400 1300.000000
211.146100 1256.000000
212.116500 376.000000
212.152800 468.000000
213.125800 1540.000000
213.162000 388.000000
214.129600 320.000000
214.136800 300.000000
215.106800 432.000000
215.144000 356.000000
219.113700 804.000000
220.121100 344.000000
221.099100 384.000000
221.129900 1204.000000
222.100600 316.000000
222.136000 360.000000
223.110700 1152.000000
223.146700 1560.000000
224.115600 492.000000
224.154400 540.000000
225.125900 1148.000000
225.163200 1044.000000
226.134100 360.000000
227.142500 704.000000
230.108900 304.000000
231.116600 340.000000
232.126200 592.000000
233.130400 536.000000
235.109500 420.000000
235.145500 696.000000
236.116200 316.000000
236.152300 340.000000
237.125800 1040.000000
237.162400 816.000000
238.132600 512.000000
238.169600 776.000000
239.143400 1880.000000
239.177300 556.000000
240.150300 680.000000
241.120900 380.000000
241.158600 756.000000
246.136800 312.000000
247.144600 840.000000
249.122500 596.000000
249.160500 868.000000
251.141800 1248.000000
252.148600 448.000000
253.158000 500.000000
255.139800 372.000000
255.174000 400.000000
265.157500 1040.000000
266.165800 1200.000000
267.139700 508.000000
267.171500 1288.000000
268.174400 372.000000
269.151600 956.000000
270.156000 364.000000
279.171100 352.000000
283.168000 512.000000
284.176000 1060.000000
285.183800 636.000000
295.169400 380.000000
307.168200 376.000000

>ms2
115.054300 736.000000
117.069200 532.000000
119.084400 1256.000000
121.064100 1092.000000
128.061300 1844.000000
129.068800 1640.000000
130.074600 560.000000
131.084700 1912.000000
132.056500 328.000000
133.062200 308.000000
133.101100 844.000000
135.079200 576.000000
137.058600 488.000000
139.073700 436.000000
141.069300 1268.000000
142.076800 1180.000000
143.083900 2652.000000
144.090200 608.000000
145.063800 656.000000
145.100300 2016.000000
147.080800 720.000000
147.116100 732.000000
149.094700 568.000000
153.069500 1212.000000
154.077600 1144.000000
155.084400 2004.000000
156.091800 1352.000000
157.064700 596.000000
157.100300 1868.000000
158.071000 348.000000
159.079400 1048.000000
159.115600 812.000000
160.086500 444.000000
161.094800 624.000000
163.110400 532.000000
165.069100 1620.000000
166.077000 788.000000
167.083700 1500.000000
168.092000 1060.000000
169.064300 304.000000
169.099800 2564.000000
170.105400 784.000000
171.079100 880.000000
171.115100 1292.000000
172.085700 388.000000
172.121500 512.000000
173.095400 1024.000000
175.109400 660.000000
178.075900 604.000000
179.084000 1404.000000
180.091300 816.000000
181.100000 1628.000000
182.106600 776.000000
183.079200 380.000000
183.115800 2164.000000
184.120400 544.000000
185.094900 1232.000000
185.131100 952.000000
187.110300 628.000000
191.083400 444.000000
192.090300 744.000000
193.100700 1636.000000
194.106200 668.000000
195.080100 348.000000
195.116100 1748.000000
196.086500 308.000000
196.123200 632.000000
197.095800 720.000000
197.132800 1232.000000
198.136300 344.000000
199.110800 836.000000
199.147300 596.000000
200.116100 368.000000
201.124400 300.000000
203.086100 480.000000
205.098600 752.000000
206.106800 1224.000000
207.115000 1264.000000
208.120200 816.000000
209.095000 428.000000
209.131900 2168.000000
210.139900 496.000000
211.110200 1180.000000
211.150200 636.000000
212.116300 380.000000
213.125700 796.000000
217.100500 456.000000
219.115800 540.000000
220.121400 516.000000
221.133400 688.000000
222.101300 312.000000
222.142300 336.000000
223.110600 544.000000
223.147900 1380.000000
224.116600 460.000000
224.154400 476.000000
225.126200 552.000000
225.161600 576.000000
227.139900 356.000000
228.150500 300.000000
231.115500 452.000000
232.127700 312.000000
233.132700 380.000000
234.136000 344.000000
237.127500 780.000000
237.166500 340.000000
238.132300 312.000000
238.173700 448.000000
239.142500 536.000000
241.155500 468.000000
249.125200 504.000000
249.161900 316.000000
251.142200 880.000000
252.149500 424.000000
269.149900 556.000000
270.159800 332.000000
284.176700 392.000000

>ms2
119.083600 552.000000
121.064700 604.000000
123.078800 368.000000
125.060500 304.000000
131.083900 1140.000000
133.101300 680.000000
135.079900 744.000000
137.058900 548.000000
139.073800 896.000000
143.083500 1564.000000
145.063100 360.000000
145.099200 1772.000000
146.102400 324.000000
147.077400 1040.000000
147.114600 872.000000
149.095200 964.000000
151.074100 380.000000
155.083600 1232.000000
157.100000 1748.000000
159.079000 656.000000
159.114200 840.000000
161.094100 1312.000000
163.073800 364.000000
163.110200 580.000000
167.084500 404.000000
169.100700 1240.000000
171.079200 856.000000
171.115700 1680.000000
173.095400 2120.000000
174.100300 512.000000
175.111200 1260.000000
177.087400 476.000000
179.105200 616.000000
181.099100 920.000000
183.080900 436.000000
183.115500 1432.000000
184.120100 568.000000
185.095100 1032.000000
185.130000 572.000000
187.109900 1444.000000
188.115800 312.000000
189.089700 960.000000
189.123800 484.000000
191.105000 380.000000
193.100900 564.000000
195.114400 1168.000000
196.121200 364.000000
197.094800 1044.000000
197.131700 1588.000000
198.101400 324.000000
198.135900 416.000000
199.111200 1292.000000
199.144900 520.000000
201.125300 660.000000
202.133600 372.000000
203.105600 376.000000
203.141500 316.000000
205.101000 684.000000
205.118200 456.000000
207.115700 1304.000000
208.122300 388.000000
209.096100 708.000000
209.132800 1532.000000
210.136200 660.000000
211.109900 1312.000000
211.146500 1036.000000
212.151700 504.000000
213.126600 1400.000000
214.131000 376.000000
215.106400 384.000000
215.142500 508.000000
217.121600 760.000000
219.117700 528.000000
221.130600 1788.000000
222.137500 388.000000
223.111100 1248.000000
223.146300 1316.000000
224.115000 368.000000
224.151000 412.000000
225.125600 1308.000000
225.162200 696.000000
227.141900 1600.000000
229.125000 340.000000
231.137100 464.000000
233.117400 400.000000
234.136800 408.000000
235.146300 852.000000
237.125800 1312.000000
237.163000 612.000000
238.170500 612.000000
239.142700 4148.000000
239.179400 448.000000
240.144300 1352.000000
241.122000 468.000000
241.156700 1132.000000
243.138200 588.000000
247.147100 1140.000000
249.128400 672.000000
249.163600 824.000000
250.085100 332.000000
250.131500 532.000000
251.141000 1560.000000
251.175200 304.000000
252.146500 340.000000
253.124700 368.000000
253.158200 804.000000
254.161200 380.000000
255.138100 1104.000000
255.174000 592.000000
257.151400 1192.000000
259.167700 300.000000
261.161700 588.000000
263.141600 444.000000
265.158600 3564.000000
266.164100 2104.000000
267.138300 932.000000
267.172400 4504.000000
268.144400 332.000000
268.178400 888.000000
269.153200 536.000000
270.155800 304.000000
271.132300 528.000000
271.167300 412.000000
273.150200 348.000000
277.158100 724.000000
279.174100 1964.000000
280.178100 572.000000
281.154200 516.000000
283.169200 2824.000000
284.176300 2672.000000
285.144000 436.000000
285.184700 2640.000000
286.186900 464.000000
289.140100 352.000000
289.158000 840.000000
295.168200 2000.000000
296.176700 592.000000
297.184400 1980.000000
298.192000 440.000000
299.162100 688.000000
301.175900 428.000000
307.169400 3312.000000
308.170100 764.000000
313.181300 1932.000000
314.182600 560.000000
315.193900 528.000000
325.178900 3996.000000
326.182300 1248.000000
331.192700 664.000000
343.188500 3324.000000
344.194000 1332.000000
361.201700 1480.000000
362.208900 396.000000
379.211400 2428.000000
380.213400 892.000000

