>compound AU16165077
>parentmass 360.1565
>ionization [M+H]+
>formula C15H22FN3O6
>rt 442.200000
>profile qtof
#smiles_iso CCCCCOC(=O)NC1=NC(=O)N(C=C1F)[C@H]2[C@@H]([C@@H]([C@H](O2)C)O)O
#smiles_can CCCCCOC(=O)NC1=NC(=O)N(C=C1F)C2C(C(C(O2)C)O)O
#inchikey GAGWJHPBXLXJQN-UORFTKCHSA-N
#pubchem_id 60953
#mb_accession AU214001,AU214002,AU214003,AU214004,AU214005,AU214006

>ms2peaks
130.039200 2220.000000
174.030000 14640.000000
244.109000 422224.000000
245.111900 47828.000000
246.113600 4868.000000
360.156600 33180.000000
361.159000 6492.000000

>ms2peaks
130.039900 11084.000000
174.029400 52948.000000
175.032700 3768.000000
244.108800 95768.000000
245.111800 9488.000000

>ms2peaks
130.040200 36952.000000
131.042800 2044.000000
156.019500 1156.000000
174.029900 73284.000000
175.033400 5416.000000
176.032700 504.000000
200.117000 472.000000
244.109200 28024.000000
245.111500 3224.000000

>ms2peaks
113.013800 876.000000
130.040200 63460.000000
131.043000 3508.000000
132.044900 328.000000
156.018800 2872.000000
174.029600 35824.000000
175.032500 3048.000000
176.033300 384.000000
244.109200 2092.000000
245.111500 352.000000

>ms2peaks
112.031700 664.000000
113.014400 1692.000000
130.040400 49728.000000
131.043200 2640.000000
156.019800 3364.000000
174.030100 6184.000000
175.032500 340.000000

>ms2peaks
71.085300 4280.000000
130.040500 75712.000000
131.043300 3564.000000
156.019600 2356.000000
174.030400 183680.000000
175.032800 13600.000000
176.035100 1348.000000
200.119300 1192.000000
244.109400 98960.000000
245.111700 11916.000000
246.113500 1416.000000

