>compound AU16396843
>parentmass 272.0951
>ionization [M+H]+
>formula C12H17NO4S
>rt 376.876364
>profile qtof
#smiles_iso CC1=CSC(=C1N(C(C)COC)C(=O)C(=O)O)C
#smiles_can CC1=CSC(=C1N(C(C)COC)C(=O)C(=O)O)C
#inchikey HOYCASTVMCEOTP-UHFFFAOYSA-N
#pubchem_id 86290064
#mb_accession AU204001,AU204002,AU204003,AU204004,AU204005,AU264501,AU264502,AU264503,AU264504,AU264505,AU264506

>ms2
168.085600 448.000000
196.078100 1680.000000
200.108600 1836.000000
226.089800 2800.000000
240.068900 81248.000000
241.071800 10128.000000
242.065300 2864.000000
272.095300 27748.000000
273.098400 4472.000000
274.094400 1608.000000

>ms2
126.035600 1700.000000
128.052600 580.000000
135.104000 376.000000
138.036100 1676.000000
139.041100 384.000000
152.051200 472.000000
154.030700 2076.000000
166.067300 2036.000000
167.075000 496.000000
168.082900 3812.000000
169.086000 620.000000
194.062300 728.000000
196.077800 2300.000000
197.082600 372.000000
198.093900 488.000000
200.109600 496.000000
212.074400 708.000000
226.087600 396.000000
240.068300 48648.000000
241.071800 5488.000000
242.065100 2004.000000

>ms2
111.026400 768.000000
125.040200 468.000000
126.036000 5948.000000
127.039900 472.000000
128.051600 488.000000
129.036600 360.000000
132.080000 344.000000
133.087200 680.000000
134.093600 368.000000
135.103800 1180.000000
136.022200 328.000000
138.035800 3512.000000
139.038900 400.000000
151.056000 360.000000
152.016600 704.000000
152.051100 1400.000000
153.023300 468.000000
153.058400 1000.000000
154.031200 3820.000000
155.034600 372.000000
156.048700 328.000000
166.067000 1564.000000
167.073800 1020.000000
168.082600 4576.000000
169.086700 580.000000
194.063100 504.000000
196.078000 1104.000000
212.071600 424.000000
240.068300 6336.000000
241.071800 772.000000
242.065100 508.000000

>ms2
111.026400 348.000000
120.080700 656.000000
123.013500 608.000000
125.041200 380.000000
126.036500 4812.000000
127.041200 592.000000
128.050500 312.000000
133.087100 436.000000
134.094700 388.000000
135.104200 632.000000
136.020000 496.000000
138.035900 2664.000000
140.050600 332.000000
151.044400 328.000000
152.014600 648.000000
152.051800 1248.000000
153.058300 688.000000
154.030700 1988.000000
166.066300 620.000000
167.075300 488.000000
168.083100 1460.000000
240.067300 456.000000

>ms2
111.026600 328.000000
120.080300 304.000000
123.014400 356.000000
126.036300 3760.000000
127.038900 408.000000
132.080000 360.000000
134.097200 388.000000
136.020100 500.000000
137.027300 364.000000
138.036200 1508.000000
150.034900 612.000000
152.014600 664.000000
152.053100 684.000000
154.029900 388.000000

>ms2
168.083400 480.000000
196.078300 1252.000000
200.107700 1260.000000
226.087400 1520.000000
240.068100 48060.000000
241.070600 7444.000000
242.066600 2364.000000
243.065300 360.000000
272.093800 16212.000000
273.096300 2312.000000
274.094600 852.000000

>ms2
111.026200 308.000000
126.036300 1404.000000
128.051900 384.000000
138.036800 1820.000000
139.023200 356.000000
139.038700 328.000000
152.052800 348.000000
154.030500 2860.000000
166.067200 2244.000000
167.075100 384.000000
168.083200 3816.000000
169.087000 432.000000
194.060500 684.000000
196.077200 2544.000000
197.080700 348.000000
198.093300 804.000000
200.104300 452.000000
212.073400 720.000000
226.089400 452.000000
240.068200 42816.000000
241.070600 5780.000000
242.065400 2036.000000

>ms2
111.024500 412.000000
125.040700 544.000000
126.035900 5728.000000
127.018400 324.000000
127.040100 640.000000
132.078600 440.000000
133.087100 472.000000
134.094000 552.000000
135.102700 812.000000
138.036100 3836.000000
139.019100 368.000000
139.039600 436.000000
140.051700 424.000000
151.055300 376.000000
152.015400 524.000000
152.051600 1424.000000
153.058500 772.000000
154.030200 4616.000000
156.025500 308.000000
161.083600 320.000000
166.066500 1888.000000
167.072800 548.000000
168.082500 4144.000000
169.085400 492.000000
194.059900 644.000000
196.076900 1268.000000
212.073700 572.000000
240.067200 7388.000000
241.070500 1192.000000

>ms2
120.080000 612.000000
123.012500 344.000000
125.041600 484.000000
126.035600 4964.000000
127.021800 316.000000
127.037800 552.000000
128.029500 456.000000
132.078500 384.000000
133.086700 508.000000
134.095200 648.000000
135.103600 508.000000
136.019900 444.000000
138.035200 2836.000000
139.020800 304.000000
139.040800 428.000000
150.035000 488.000000
152.014100 736.000000
152.051300 1416.000000
153.023200 404.000000
153.058900 720.000000
154.030400 1480.000000
155.035900 336.000000
166.066300 408.000000
168.082300 944.000000
240.071800 504.000000

>ms2
123.011500 300.000000
125.028200 300.000000
125.040400 352.000000
126.036100 3068.000000
127.037600 304.000000
132.080500 332.000000
133.088200 332.000000
136.020800 368.000000
137.026700 324.000000
137.999000 312.000000
138.035300 1188.000000
150.034900 300.000000
151.044000 364.000000
152.016300 388.000000
152.049400 828.000000
153.057100 336.000000

>ms2
73.064700 344.000000
125.040900 340.000000
126.037000 1360.000000
128.051500 316.000000
135.102900 484.000000
138.036100 1704.000000
152.052000 440.000000
154.029600 1696.000000
166.067700 852.000000
167.075200 344.000000
168.081900 2140.000000
169.089200 384.000000
196.078200 1020.000000
198.093700 360.000000
211.092100 372.000000
240.067600 9944.000000
241.071200 1264.000000
242.066500 604.000000

