>compound AU16920194
>parentmass 258.0795
>ionization [M+H]+
>formula C11H15NO4S
>rt 313.240000
>profile qtof
#smiles_iso CCC1=CC=CC(=C1NC(=O)CS(=O)(=O)O)C
#smiles_can CCC1=CC=CC(=C1NC(=O)CS(=O)(=O)O)C
#inchikey QPVPJECIHVSBLZ-UHFFFAOYSA-N
#pubchem_id 71312480
#mb_accession AU234001,AU234002,AU234003,AU234004,AU234005,AU234006

>ms2peaks
136.111200 2820.000000
137.115200 372.000000
178.121800 484.000000
240.068100 472.000000
258.078300 16384.000000
259.081800 1924.000000
260.079800 596.000000

>ms2peaks
119.084100 376.000000
120.080700 440.000000
134.094700 472.000000
135.103500 1132.000000
136.111200 7812.000000
137.113300 1128.000000
144.079300 596.000000
147.066300 336.000000
148.074300 1636.000000
148.110500 872.000000
158.094100 1220.000000
159.100900 632.000000
162.090600 836.000000
176.106200 496.000000
177.113100 584.000000
178.122700 652.000000
240.069400 524.000000
258.077900 1888.000000

>ms2peaks
117.068900 300.000000
119.084900 324.000000
120.079900 1060.000000
134.095800 488.000000
135.102800 908.000000
136.110800 4852.000000
137.113700 560.000000
143.071300 488.000000
144.077300 644.000000
147.066200 592.000000
148.073600 924.000000
148.110300 764.000000
158.095300 576.000000
159.102900 440.000000
162.090700 812.000000
177.114500 560.000000

>ms2peaks
117.070000 452.000000
118.064100 340.000000
119.085500 496.000000
120.079300 1512.000000
133.087100 300.000000
134.094800 756.000000
135.103300 328.000000
136.110300 1172.000000
144.079200 668.000000
147.066000 432.000000
148.112100 556.000000
158.095500 352.000000
162.089700 316.000000

>ms2peaks
118.064400 592.000000
119.073400 488.000000
120.078700 1012.000000
134.096100 372.000000
143.070300 444.000000
144.079800 356.000000

>ms2peaks
119.085200 372.000000
120.081100 696.000000
134.095100 960.000000
135.102100 1280.000000
136.110900 8900.000000
137.114800 788.000000
144.078500 496.000000
147.065300 464.000000
148.074600 1592.000000
148.111800 768.000000
158.094900 972.000000
162.090700 496.000000
176.106400 396.000000
177.111700 420.000000
178.119400 440.000000
230.047100 312.000000
240.070700 484.000000
258.078300 1016.000000

