>compound AU16873489
>parentmass 208.09679999999997
>ionization [M+H]+
>formula C11H13NO3
>rt 291.600000
>profile qtof
#smiles_iso CC(C)N(C1=CC=CC=C1)C(=O)C(=O)O
#smiles_can CC(C)N(C1=CC=CC=C1)C(=O)C(=O)O
#inchikey HYHJOUPYTUBFIX-UHFFFAOYSA-N
#pubchem_id 155385
#mb_accession AU207301,AU207302,AU207303,AU207304,AU207305

>ms2peaks
120.043800 6428.000000
121.046900 940.000000
147.065000 340.000000
162.090000 6552.000000
163.093700 924.000000
166.048800 10280.000000
189.054500 396.000000
208.096500 4924.000000

>ms2peaks
120.043800 6680.000000
121.046900 808.000000
124.072300 312.000000
137.082000 684.000000
150.076300 532.000000
151.084200 372.000000
162.089700 528.000000
164.092500 2868.000000
166.049100 716.000000

>ms2peaks
120.044200 1648.000000
137.080700 600.000000
150.076200 772.000000
164.092800 2716.000000
178.106600 388.000000

>ms2peaks
120.042900 576.000000
137.081200 372.000000
150.076000 512.000000
164.092900 1848.000000

>ms2peaks
137.081200 316.000000

