>compound AU16781493
>parentmass 427.2455
>ionization [M+Na]+
>formula C24H36O5
>rt 716.250000
>profile qtof
#smiles_iso CC[C@H](C)C(=O)O[C@H]1C[C@H](C=C2[C@H]1[C@H]([C@H](C=C2)C)CC[C@@H]3C[C@H](CC(=O)O3)O)C
#smiles_can CCC(C)C(=O)OC1CC(C=C2C1C(C(C=C2)C)CCC3CC(CC(=O)O3)O)C
#inchikey PCZOHLXUXFIOCF-BXMDZJJMSA-N
#pubchem_id 53232
#mb_accession AU221230,AU221232,AU221233,AU221234

>ms2peaks
427.248600 30544.000000
428.251600 8764.000000

>ms2peaks
159.118600 300.000000
295.130800 320.000000
310.157500 476.000000
323.165600 488.000000
325.178900 24136.000000
326.182600 6480.000000
327.184400 700.000000
342.142000 320.000000
427.247400 25524.000000
428.251000 6936.000000
429.252400 1080.000000

>ms2peaks
199.151100 320.000000
325.178100 2184.000000
326.183200 576.000000
427.246000 680.000000

>ms2peaks
159.118800 428.000000
295.130700 516.000000

