>compound AU16069832
>parentmass 362.1154000000001
>ionization [M+H]+
>formula C19H20ClNO4
>rt 538.110000
>profile qtof
#smiles_iso CC(C)(C(=O)O)OC1=CC=C(C=C1)CCNC(=O)C2=CC=C(C=C2)Cl
#smiles_can CC(C)(C(=O)O)OC1=CC=C(C=C1)CCNC(=O)C2=CC=C(C=C2)Cl
#inchikey IIBYAHWJQTYFKB-UHFFFAOYSA-N
#pubchem_id 39042
#mb_accession AU234101,AU234102,AU234103,AU234104,AU234105,AU234106

>ms2
138.991700 328.000000
163.073900 508.000000
207.099300 336.000000
276.077500 4552.000000
277.081200 884.000000
278.073900 1944.000000
316.109700 9208.000000
317.111000 1704.000000
318.105700 3116.000000
319.110400 412.000000
344.105300 1092.000000
345.108800 316.000000
346.098200 480.000000
362.115200 28860.000000
363.119000 6320.000000
364.110900 7976.000000

>ms2
121.064100 4228.000000
122.066700 612.000000
138.993400 11548.000000
139.996800 1196.000000
140.990700 4288.000000
161.095300 2556.000000
163.074500 604.000000
178.121200 788.000000
189.090900 392.000000
207.100900 1840.000000
208.103100 376.000000
276.078100 12312.000000
277.083200 2052.000000
278.075700 4072.000000
279.077500 672.000000
316.110000 20640.000000
317.111800 4236.000000
318.108100 5792.000000
319.109300 900.000000
344.103700 1572.000000
346.102900 832.000000
362.113500 1860.000000
363.117500 544.000000
364.115900 744.000000

>ms2
120.054700 300.000000
121.063800 8252.000000
122.066700 932.000000
138.993300 22804.000000
139.996500 1608.000000
140.990600 7396.000000
141.993900 344.000000
161.094800 3644.000000
162.099300 636.000000
163.072700 548.000000
189.090200 472.000000
207.102600 428.000000
276.077100 1672.000000
277.080200 496.000000
278.080300 492.000000
316.107700 1864.000000
317.113700 576.000000
318.106400 608.000000

>ms2
110.998600 552.000000
121.064000 7904.000000
122.067000 1092.000000
138.993400 18660.000000
139.997100 1256.000000
140.990900 4536.000000
161.094800 1196.000000

>ms2
121.064200 5164.000000
122.068400 476.000000
138.993400 9876.000000
139.995900 604.000000
140.989900 3188.000000
161.095200 320.000000

>ms2
120.057500 376.000000
121.064200 11184.000000
122.067200 1144.000000
138.993900 31120.000000
139.996600 2076.000000
140.990500 7044.000000
141.995400 436.000000
161.094700 4276.000000
162.099200 640.000000
163.073600 340.000000
178.121900 652.000000
189.091400 628.000000
207.100800 1656.000000
276.078200 5348.000000
277.081000 1168.000000
278.076500 1316.000000
316.109000 6236.000000
317.111600 1404.000000
318.105900 2068.000000
319.108700 588.000000
344.101600 416.000000
362.114800 324.000000

