>compound AU16299042
>parentmass 255.1016
>ionization [M+H]+
>formula C16H14O3
>rt 518.520000
>profile qtof
#smiles_iso CC(C1=CC(=CC=C1)C(=O)C2=CC=CC=C2)C(=O)O
#smiles_can CC(C1=CC(=CC=C1)C(=O)C2=CC=CC=C2)C(=O)O
#inchikey DKYWVDODHFEZIM-UHFFFAOYSA-N
#pubchem_id 3825
#mb_accession AU115004,AU115005,AU115006

>ms2peaks
121.063900 356.000000
131.048900 1400.000000
149.058900 360.000000
165.068600 2440.000000
166.075900 2312.000000
167.081600 428.000000
177.052800 1852.000000
179.085200 552.000000
190.075300 308.000000
191.083100 612.000000
193.063900 876.000000
194.071900 6200.000000
195.075900 692.000000
209.095300 664.000000
227.017600 320.000000

>ms2peaks
131.047700 460.000000
165.069000 4156.000000
166.073600 1516.000000
177.052900 544.000000
189.069900 312.000000
191.083900 304.000000
193.064200 328.000000
194.071400 1568.000000

>ms2peaks
105.034400 6800.000000
106.036400 636.000000
121.063600 832.000000
131.049400 4028.000000
132.051600 492.000000
149.058700 536.000000
165.069500 400.000000
166.076700 524.000000
177.054500 19604.000000
178.057500 2168.000000
181.100900 680.000000
191.087100 824.000000
194.072800 8820.000000
195.075200 1560.000000
209.096600 73468.000000
210.100000 10792.000000
211.103400 916.000000
213.038300 464.000000
255.101900 4116.000000
256.108400 736.000000

