>compound AU16689222
>parentmass 494.1511
>ionization [M+H]+
>formula C23H28ClN3O5S
>rt 608.760000
>profile qtof
#smiles_iso COC1=C(C=C(C=C1)Cl)C(=O)NCCC2=CC=C(C=C2)S(=O)(=O)NC(=O)NC3CCCCC3
#smiles_can COC1=C(C=C(C=C1)Cl)C(=O)NCCC2=CC=C(C=C2)S(=O)(=O)NC(=O)NC3CCCCC3
#inchikey ZNNLBTZKUZBEKO-UHFFFAOYSA-N
#pubchem_id 3488
#mb_accession AU235401,AU235402,AU235403,AU235404,AU235405,AU235406

>ms2
169.003900 3500.000000
369.067000 447100.000000
370.070200 62948.000000
371.064600 131404.000000
372.066800 14868.000000
395.045800 20784.000000
396.049600 4076.000000
397.042600 6820.000000
494.151300 254340.000000
495.153700 67852.000000
496.148900 89512.000000

>ms2
169.003800 75676.000000
170.007300 5488.000000
171.000600 19096.000000
304.072500 19196.000000
306.070200 5244.000000
352.039400 7052.000000
369.066900 926448.000000
370.069600 145768.000000
371.064300 284620.000000
372.066600 25248.000000
395.046000 55316.000000
396.048600 12064.000000
397.042800 18888.000000

>ms2
134.095000 2980.000000
167.014800 12420.000000
168.019400 5224.000000
169.004100 548012.000000
170.007300 38196.000000
171.001100 137616.000000
172.003900 6324.000000
198.030200 9316.000000
210.102500 3948.000000
245.071700 3832.000000
245.997100 5540.000000
259.051400 21460.000000
260.054100 2832.000000
261.048500 5488.000000
288.078300 47848.000000
289.082300 7800.000000
290.075500 12756.000000
303.066100 3636.000000
304.073100 167992.000000
305.076300 28624.000000
306.070600 46552.000000
307.072700 4692.000000
352.040500 17868.000000
353.043900 3872.000000
354.037200 6136.000000
369.067200 353528.000000
370.069100 58112.000000
371.064000 106484.000000
372.065000 13096.000000
394.168000 4448.000000
395.045800 28280.000000
396.048900 5528.000000
397.043100 8664.000000

>ms2
125.985800 4708.000000
134.095500 8592.000000
167.014700 29924.000000
168.019200 8760.000000
169.004100 852272.000000
170.007300 60420.000000
171.001300 199624.000000
172.004200 9524.000000
198.030600 21792.000000
200.028000 6036.000000
210.103300 9000.000000
245.072000 8316.000000
259.051500 50888.000000
260.054200 8276.000000
261.048600 13628.000000
262.061800 11856.000000
288.078000 42548.000000
289.080700 6160.000000
290.074800 11972.000000
304.073300 126216.000000
305.075800 19596.000000
306.070200 35496.000000
307.073200 4376.000000
369.066600 23392.000000
370.067700 5528.000000
371.062400 8688.000000
394.165000 5356.000000

>ms2
125.985800 10936.000000
134.035500 6740.000000
167.015000 16388.000000
168.019300 5964.000000
169.004100 968104.000000
170.007500 66768.000000
171.001400 214368.000000
171.992000 5884.000000
172.003800 9296.000000
198.030700 10472.000000
210.102900 7756.000000
259.051600 31180.000000
260.054700 5632.000000
261.048400 8444.000000
262.062300 14056.000000
288.078300 10000.000000
304.073400 17716.000000
306.069800 5424.000000

>ms2
83.085400 3484.000000
100.112500 8736.000000
134.095700 4740.000000
166.030000 2364.000000
167.015400 13800.000000
168.019400 4496.000000
169.004300 416240.000000
170.007600 33708.000000
171.001400 103764.000000
172.004900 7220.000000
198.031500 10976.000000
200.027300 3640.000000
210.102700 4132.000000
245.071800 4284.000000
245.998600 3328.000000
259.052000 27800.000000
260.054700 3988.000000
261.049100 6336.000000
262.062100 3948.000000
288.078400 32876.000000
289.081000 4416.000000
290.075500 7964.000000
303.066600 4020.000000
304.073600 124780.000000
305.076600 20456.000000
306.071200 29252.000000
307.074100 4136.000000
352.040800 7800.000000
354.037600 2368.000000
369.067100 285168.000000
370.069500 56372.000000
371.064700 107592.000000
372.066300 12720.000000
373.061300 2312.000000
394.166900 5032.000000
395.046800 28488.000000
396.050000 4076.000000
397.043800 7332.000000

