>compound AU17938997
>parentmass 342.1852
>ionization [M+H]+
>formula C24H23NO
>rt 763.608000
>profile qtof
#smiles_iso CCCCCN1C=C(C2=CC=CC=C21)C(=O)C3=CC=CC4=CC=CC=C43
#smiles_can CCCCCN1C=C(C2=CC=CC=C21)C(=O)C3=CC=CC4=CC=CC=C43
#inchikey JDNLPKCAXICMBW-UHFFFAOYSA-N
#pubchem_id 10382701
#mb_accession AU170601,AU170602,AU170603,AU170604,AU170605

>ms2
155.049600 13724.000000
342.188500 2280720.000000
343.190800 642304.000000
344.193500 59348.000000

>ms2
145.065100 13704.000000
155.050000 731184.000000
156.053200 68080.000000
214.124100 148920.000000
215.126800 22144.000000
342.188600 2053888.000000
343.191400 501288.000000
344.194200 47672.000000

>ms2
127.054900 77836.000000
144.045200 53132.000000
145.065700 128208.000000
146.069200 12740.000000
155.050500 2022084.000000
156.053600 216304.000000
157.056100 12552.000000
214.124500 468588.000000
215.127500 61440.000000
342.188400 211744.000000
343.191300 57108.000000

>ms2
126.046900 20824.000000
127.055100 301704.000000
128.058300 26692.000000
144.045400 233700.000000
145.065800 476488.000000
146.069000 38840.000000
155.050500 1568952.000000
156.053800 139776.000000
214.124500 219576.000000
215.127800 25632.000000

>ms2
116.050300 15656.000000
117.071100 8540.000000
126.047300 43840.000000
127.055200 462512.000000
128.058400 41936.000000
144.045500 215788.000000
145.065900 641196.000000
146.069100 49860.000000
155.050300 342820.000000
156.054800 41688.000000
158.060700 4600.000000
214.124300 31616.000000
215.127800 5160.000000

