>compound AU17780554
>parentmass 261.03209999999996
>ionization [M+H]+
>formula C7H15Cl2N2O2P
>rt 350.240000
>profile qtof
#smiles_iso C1CN(P(=O)(OC1)NCCCl)CCCl
#smiles_can C1CN(P(=O)(OC1)NCCCl)CCCl
#inchikey HOMGKSMUEGBAAB-UHFFFAOYSA-N
#pubchem_id 3690
#mb_accession AU272301,AU272302,AU272303,AU272304,AU272305,AU272306

>ms2
153.980800 11672.000000
182.011900 19768.000000
233.000200 47164.000000
234.996900 26068.000000
261.032200 2292876.000000
262.035000 179776.000000
263.028900 1789436.000000

>ms2
120.056500 36428.000000
122.053400 8220.000000
127.965100 9740.000000
141.981000 12240.000000
146.035300 32156.000000
153.980800 405620.000000
154.983900 9340.000000
155.977700 76080.000000
182.012100 306236.000000
183.015300 12476.000000
184.009100 61700.000000
200.022800 97224.000000
202.019500 19640.000000
233.000200 483512.000000
234.003000 22684.000000
234.997200 255832.000000
261.031700 1072956.000000
262.034400 62644.000000
263.028700 607420.000000

>ms2
116.949400 9424.000000
118.004600 3364.000000
118.041000 2568.000000
118.947000 3288.000000
120.019600 3184.000000
120.056700 29628.000000
122.053900 7028.000000
125.949600 12488.000000
126.970000 2524.000000
127.947000 3072.000000
127.965300 10652.000000
128.024900 12416.000000
129.962700 3288.000000
136.015000 5444.000000
141.980900 20416.000000
143.978100 5200.000000
146.035500 27864.000000
153.980900 458416.000000
154.984100 14116.000000
155.977900 101772.000000
164.045600 2384.000000
171.990700 3904.000000
182.012300 53288.000000
183.015200 3064.000000
184.009300 13728.000000
200.022700 7464.000000
233.000100 42748.000000
234.003200 2732.000000
234.997300 26964.000000
261.031100 21076.000000
263.028700 12768.000000

>ms2
116.949300 8992.000000
118.004800 4332.000000
118.040800 1132.000000
118.946800 2720.000000
120.020200 2404.000000
120.056500 9760.000000
122.053900 3568.000000
123.970800 3588.000000
125.949500 10064.000000
126.969300 1704.000000
127.946900 2920.000000
127.965100 8220.000000
128.024700 7824.000000
129.961800 2448.000000
135.971000 992.000000
136.015100 5456.000000
141.980700 12640.000000
143.960600 1512.000000
143.977400 3484.000000
146.035400 6640.000000
153.980800 153184.000000
154.984100 4252.000000
155.977600 36660.000000
156.980400 844.000000
171.991900 2796.000000
173.988100 788.000000
182.011800 2984.000000
184.008400 836.000000
232.998500 1724.000000
234.994800 788.000000

>ms2
116.949300 2412.000000
118.005100 1504.000000
118.042700 444.000000
118.946800 892.000000
120.019800 848.000000
120.056900 2196.000000
121.063000 308.000000
122.054100 800.000000
123.970200 2032.000000
125.949500 2652.000000
125.967700 628.000000
126.968800 392.000000
127.946500 736.000000
127.965400 2804.000000
128.024500 2556.000000
129.961900 936.000000
135.970900 504.000000
136.014600 1328.000000
141.980500 5324.000000
143.959900 344.000000
143.977600 968.000000
146.034900 744.000000
153.980400 24008.000000
154.984200 912.000000
155.977300 4796.000000
171.992000 396.000000

>ms2
56.049200 16384.000000
62.999400 49188.000000
64.996200 9968.000000
67.054100 7480.000000
78.010400 187000.000000
79.013800 4588.000000
80.007300 47464.000000
80.026100 6396.000000
82.065100 7356.000000
84.080600 5780.000000
92.026700 714196.000000
93.030000 13852.000000
94.024000 99288.000000
116.950900 13232.000000
118.042600 5264.000000
120.057900 51396.000000
122.054600 9628.000000
125.950400 4936.000000
127.966400 10056.000000
128.025700 6204.000000
136.015600 3980.000000
141.981300 12548.000000
146.036100 21628.000000
153.981400 283444.000000
154.984800 6716.000000
155.978800 60764.000000
182.012800 119184.000000
183.015800 4692.000000
184.009900 24200.000000
200.023700 38612.000000
202.020000 8176.000000
233.001000 158608.000000
234.003800 8200.000000
234.998300 96424.000000
261.032400 300688.000000
262.035500 25300.000000
263.029600 184980.000000

