>compound AU17555650
>parentmass 316.1213
>ionization [M+H]+
>formula C14H21NO5S
>rt 416.000000
>profile qtof
#smiles_iso CCC1=CC=CC(=C1N(COCC)C(=O)CS(=O)(=O)O)C
#smiles_can CCC1=CC=CC(=C1N(COCC)C(=O)CS(=O)(=O)O)C
#inchikey HXAIQOCRALNGKB-UHFFFAOYSA-N
#pubchem_id 6426848
#mb_accession AU203001,AU203002,AU203003

>ms2peaks
148.112700 2444.000000
270.080100 14572.000000

>ms2peaks
120.080300 936.000000
148.112700 6844.000000
188.106400 1488.000000
242.047000 332.000000
270.079300 4116.000000

>ms2peaks
120.080300 1724.000000
133.088000 2912.000000
148.110600 3916.000000

