>compound AU17877691
>parentmass 705.397
>ionization [M+H]+
>formula C38H52N6O7
>rt 648.036000
>profile qtof
#smiles_iso CC(C)(C)[C@@H](C(=O)N[C@@H](CC1=CC=CC=C1)[C@H](CN(CC2=CC=C(C=C2)C3=CC=CC=N3)NC(=O)[C@H](C(C)(C)C)NC(=O)OC)O)NC(=O)OC
#smiles_can CC(C)(C)C(C(=O)NC(CC1=CC=CC=C1)C(CN(CC2=CC=C(C=C2)C3=CC=CC=N3)NC(=O)C(C(C)(C)C)NC(=O)OC)O)NC(=O)OC
#inchikey AXRYRYVKAWYZBR-GASGPIRDSA-N
#pubchem_id 148192
#mb_accession AU214801,AU214802,AU214803,AU214804,AU214805

>ms2peaks
705.404200 429236.000000
706.407000 165168.000000
707.409600 33132.000000

>ms2peaks
168.081400 7088.000000
335.198900 28828.000000
336.202300 5152.000000
534.311200 10536.000000
687.392000 5016.000000
705.403700 554172.000000
706.406800 228896.000000
707.409400 44732.000000

>ms2peaks
144.102400 10628.000000
146.097400 2072.000000
167.073700 6832.000000
168.081600 154652.000000
169.085100 17240.000000
170.096200 5264.000000
311.177100 6984.000000
322.194900 3052.000000
335.199400 414116.000000
336.202500 65448.000000
337.204100 7760.000000
371.209300 7700.000000
372.211600 2460.000000
397.225300 2412.000000
424.241300 7088.000000
499.273700 10308.000000
500.276000 4104.000000
502.281700 3008.000000
516.301600 3620.000000
534.312000 105036.000000
535.315100 35348.000000
536.317500 6480.000000
544.296400 2228.000000
612.359100 24060.000000
613.363400 9320.000000
614.363600 2104.000000
673.372100 6316.000000
674.379100 2676.000000
687.391900 20072.000000
688.396400 8228.000000
689.403200 2568.000000
705.403700 322452.000000
706.406100 141572.000000
707.408400 26028.000000

>ms2peaks
120.081100 12664.000000
144.102500 84176.000000
146.096900 10872.000000
167.073400 37904.000000
168.081500 1243220.000000
169.085300 110120.000000
311.177300 11308.000000
322.193200 7260.000000
328.182300 12952.000000
335.199200 726500.000000
336.202100 115204.000000
337.204100 12720.000000
363.220100 9152.000000
371.210000 9416.000000
424.241200 20812.000000
425.243400 7728.000000
499.274000 12600.000000
502.282100 7128.000000
516.301000 8448.000000
534.311500 134812.000000
535.314000 49344.000000
536.317700 7292.000000
612.359500 17796.000000
613.362700 7492.000000
705.401900 24912.000000
706.405600 13724.000000

>ms2peaks
120.081100 22212.000000
144.102700 251768.000000
145.105800 16452.000000
146.097100 15056.000000
167.073600 94492.000000
168.081700 2166916.000000
328.183300 11956.000000
335.199400 323644.000000
336.202200 57320.000000
363.220300 11572.000000
534.312300 25736.000000

