>compound AU17020028
>parentmass 273.1267
>ionization [M+H]+
>formula C12H20N2O3S
>rt 170.180000
>profile qtof
#smiles_iso CC(C)NCC(C1=CC=C(C=C1)NS(=O)(=O)C)O
#smiles_can CC(C)NCC(C1=CC=C(C=C1)NS(=O)(=O)C)O
#inchikey ZBMZVLHSJCTVON-UHFFFAOYSA-N
#pubchem_id 5253
#mb_accession AU238301,AU238302,AU238303,AU238304,AU238305,AU238306

>ms2peaks
213.068000 41648.000000
214.070300 5088.000000
255.115300 950464.000000
256.118200 105400.000000
257.111700 28264.000000
273.126000 439080.000000
274.128600 53912.000000
275.122500 15832.000000

>ms2peaks
133.074900 104348.000000
134.082000 40080.000000
135.085100 3504.000000
176.129300 57268.000000
177.132400 9212.000000
198.056900 2868.000000
213.068200 564792.000000
214.070900 49448.000000
215.064800 18376.000000
255.115400 512548.000000
256.118100 64440.000000
257.111400 17360.000000
273.125300 2940.000000

>ms2peaks
116.048200 6032.000000
117.056400 10272.000000
118.063900 8968.000000
119.059200 3968.000000
132.066900 14576.000000
133.075000 492420.000000
134.082200 193392.000000
135.085500 14820.000000
161.106200 3860.000000
175.121300 4136.000000
176.129500 79504.000000
177.132500 10576.000000
213.068300 245864.000000
214.070500 26332.000000
215.064800 9100.000000
255.115100 24880.000000
256.118200 3656.000000

>ms2peaks
116.049000 8768.000000
117.056200 11228.000000
118.064000 8392.000000
119.059600 4800.000000
131.059300 1432.000000
132.066700 24504.000000
133.075100 251020.000000
134.081800 70852.000000
135.085900 6060.000000
161.106300 2360.000000
175.120800 1892.000000
176.129200 10860.000000
177.132800 1288.000000
213.068100 10076.000000
214.070500 1420.000000

>ms2peaks
116.048800 8104.000000
117.056200 11320.000000
118.053100 2344.000000
118.064100 7360.000000
119.059500 5204.000000
120.063900 772.000000
131.059700 3152.000000
132.066900 27796.000000
133.074900 133696.000000
134.059500 2432.000000
134.080300 18548.000000
135.085500 1476.000000
144.054900 888.000000

>ms2peaks
106.066200 6936.000000
107.073400 3284.000000
116.048600 2656.000000
117.056400 4460.000000
118.064500 3752.000000
119.060300 2404.000000
132.067200 5296.000000
133.075300 194336.000000
134.082600 83024.000000
135.086300 7572.000000
161.106100 1656.000000
175.121600 2244.000000
176.130100 61044.000000
177.132900 7472.000000
198.057500 1872.000000
213.068700 271232.000000
214.072000 32116.000000
215.065300 12988.000000
255.116100 214708.000000
256.119300 30828.000000
257.112600 8188.000000
273.126600 1436.000000

