>compound AU17274030
>parentmass 435.2177
>ionization [M+H]+
>formula C24H31FO6
>rt 521.270000
>profile qtof
#smiles_iso C[C@]12C[C@@H]([C@]3([C@H]([C@@H]1C[C@@H]4[C@]2(OC(O4)(C)C)C(=O)CO)CCC5=CC(=O)C=C[C@@]53C)F)O
#smiles_can CC1(OC2CC3C4CCC5=CC(=O)C=CC5(C4(C(CC3(C2(O1)C(=O)CO)C)O)F)C)C
#inchikey YNDXUCZADRHECN-JNQJZLCISA-N
#pubchem_id 6436
#mb_accession AU282601,AU282602,AU282603,AU282604,AU282605,AU282606

>ms2
147.079200 3496.000000
187.074700 2652.000000
213.126500 4092.000000
223.111300 3216.000000
225.126600 6632.000000
237.125700 2644.000000
253.158100 2656.000000
263.142600 3036.000000
275.141800 3332.000000
279.137500 5128.000000
281.153400 5716.000000
293.153400 10272.000000
294.156900 2744.000000
297.147200 4868.000000
303.137300 4916.000000
309.147300 3944.000000
311.164100 22832.000000
312.167500 4944.000000
321.147800 23236.000000
322.150500 4976.000000
327.158900 4220.000000
329.173900 4284.000000
339.158900 65232.000000
340.161900 14196.000000
341.157700 6036.000000
343.152700 4240.000000
355.154600 2852.000000
357.169400 63824.000000
358.172500 15332.000000
359.168300 5136.000000
397.201000 79936.000000
398.203700 22392.000000
399.206000 3416.000000
415.211800 478608.000000
416.215100 105704.000000
417.216400 18780.000000
435.218200 507788.000000
436.221200 115924.000000
437.224600 17116.000000

>ms2
121.063900 4160.000000
123.079500 1548.000000
125.058700 2056.000000
131.083600 992.000000
133.063700 3624.000000
135.079400 5716.000000
137.058200 3004.000000
139.074300 2604.000000
141.053700 1828.000000
143.084000 1000.000000
145.063700 1624.000000
147.079500 29004.000000
148.083500 2396.000000
151.038500 1452.000000
151.074100 10536.000000
152.076900 976.000000
153.053400 3360.000000
153.089700 2280.000000
155.068800 4976.000000
159.064700 1820.000000
159.079600 8984.000000
160.082700 1280.000000
161.058800 3348.000000
161.095100 13808.000000
162.097700 1628.000000
163.073900 3024.000000
169.062800 1828.000000
169.083500 1464.000000
171.079300 11476.000000
172.082800 1772.000000
173.094600 10724.000000
174.098600 1600.000000
175.075500 1236.000000
175.110100 896.000000
177.089900 960.000000
179.069300 4604.000000
181.085500 1416.000000
183.078800 1224.000000
185.059500 1260.000000
185.094900 10424.000000
186.098100 1692.000000
187.074200 16284.000000
187.111100 2592.000000
188.077500 2600.000000
189.088900 1452.000000
195.080100 936.000000
197.095600 6428.000000
197.131600 3528.000000
198.098400 1164.000000
199.110500 7508.000000
200.115000 1036.000000
201.090300 1728.000000
203.104600 2132.000000
207.114000 1348.000000
209.094900 4244.000000
210.101400 1028.000000
211.110500 9560.000000
212.115100 2016.000000
213.089500 2920.000000
213.126800 57152.000000
214.130100 8508.000000
215.105400 2120.000000
215.142400 6648.000000
216.146000 988.000000
219.115300 868.000000
221.095000 1908.000000
221.130900 2140.000000
223.111200 22756.000000
224.116200 6144.000000
225.126700 46016.000000
226.129900 7276.000000
227.106000 2272.000000
227.141800 5176.000000
229.120600 992.000000
231.100900 1216.000000
233.094800 1068.000000
235.111200 9248.000000
235.147300 1852.000000
236.116600 1900.000000
237.090500 1436.000000
237.127200 16436.000000
238.129300 3968.000000
239.107100 2248.000000
239.142300 14536.000000
240.147600 3004.000000
241.121700 14388.000000
241.158700 1216.000000
242.126500 2876.000000
243.102400 884.000000
243.136800 7092.000000
244.141100 1196.000000
245.132500 1628.000000
247.111000 2064.000000
247.147500 1532.000000
249.126900 7296.000000
250.131400 2196.000000
251.106000 3212.000000
251.142600 12164.000000
252.146300 3456.000000
253.121800 17404.000000
253.158300 25140.000000
254.125600 2688.000000
254.161800 5240.000000
255.138000 4432.000000
255.172300 1028.000000
256.143800 872.000000
257.117700 1116.000000
257.130800 1244.000000
257.151800 1208.000000
259.111000 2172.000000
260.117400 1464.000000
261.126700 11616.000000
262.131400 4476.000000
263.142400 34512.000000
264.146000 6788.000000
265.121300 3272.000000
265.158300 15652.000000
266.162100 2716.000000
267.137500 5776.000000
268.142300 1480.000000
269.116900 3016.000000
269.151800 5540.000000
270.155900 856.000000
271.131800 932.000000
273.127000 2468.000000
274.131100 840.000000
275.142600 28356.000000
276.145400 5852.000000
277.122100 4656.000000
277.157600 2028.000000
278.128000 2696.000000
279.137800 28744.000000
280.142500 7976.000000
281.153300 33208.000000
282.157000 6724.000000
283.133400 2544.000000
283.168200 15116.000000
284.150200 912.000000
284.171300 3328.000000
285.126800 2120.000000
291.137400 9928.000000
292.141900 2104.000000
293.153500 60956.000000
294.156100 14080.000000
295.132700 6668.000000
296.137800 1976.000000
297.148100 18636.000000
298.151900 3940.000000
299.145500 1568.000000
299.161800 3160.000000
301.158700 2008.000000
301.180000 1344.000000
303.137800 21416.000000
304.141400 5232.000000
309.147900 10812.000000
310.151100 3004.000000
311.164200 78584.000000
312.167100 17296.000000
313.162200 3492.000000
314.163200 948.000000
315.155100 1208.000000
315.164200 1008.000000
321.148300 85364.000000
322.150900 16964.000000
323.150200 2908.000000
325.142100 1228.000000
327.158800 5176.000000
328.161200 1344.000000
329.174100 12880.000000
330.177000 3324.000000
331.173500 1592.000000
337.143200 980.000000
339.159100 165428.000000
340.162000 34728.000000
341.157800 7884.000000
342.158200 1548.000000
343.153200 4848.000000
344.157200 984.000000
351.195800 1256.000000
355.152000 1760.000000
357.169700 76796.000000
358.172500 18868.000000
359.168600 4736.000000
360.168600 1240.000000
361.179900 1424.000000
369.210200 1116.000000
379.189900 3344.000000
380.194200 952.000000
397.201200 167120.000000
398.204400 45072.000000
399.206200 6296.000000
415.211700 73100.000000
416.214600 20212.000000
417.215600 4020.000000
435.217400 8196.000000
436.221700 2116.000000

>ms2
115.052900 704.000000
117.069600 1244.000000
119.085300 2064.000000
121.064100 13556.000000
122.067300 1664.000000
123.042800 648.000000
123.079600 2308.000000
125.058600 3452.000000
127.038300 880.000000
127.073900 788.000000
128.061500 1308.000000
129.069300 1008.000000
131.084800 3796.000000
132.056100 844.000000
133.063800 8468.000000
133.101400 840.000000
135.043500 676.000000
135.079300 11348.000000
136.081900 1140.000000
137.058800 6112.000000
138.060900 704.000000
139.037500 548.000000
139.074000 4416.000000
141.053500 2476.000000
141.069500 912.000000
143.084000 4856.000000
145.063900 5968.000000
145.099700 1696.000000
146.069900 904.000000
147.079400 54828.000000
148.082600 5780.000000
149.058400 1576.000000
151.038000 3848.000000
151.074000 10500.000000
152.077900 1208.000000
153.052900 3020.000000
153.089800 1816.000000
155.069300 2988.000000
155.084300 2484.000000
157.064100 788.000000
157.100700 1616.000000
158.071200 1804.000000
159.079100 27036.000000
160.083300 3260.000000
161.058600 5188.000000
161.094600 21396.000000
162.060600 796.000000
162.097800 2580.000000
163.074200 4040.000000
165.070500 1376.000000
165.090400 1032.000000
167.069000 892.000000
167.086300 1000.000000
169.063400 3800.000000
169.084600 1744.000000
169.101000 1528.000000
171.079200 36244.000000
172.083000 4968.000000
173.094900 30288.000000
174.098500 3340.000000
175.073700 1908.000000
175.090500 856.000000
175.111000 952.000000
177.090500 1532.000000
179.069500 3804.000000
179.085000 1712.000000
181.100200 1792.000000
182.071800 712.000000
183.078800 3948.000000
183.115200 1592.000000
184.086400 1304.000000
185.059700 1348.000000
185.094900 15080.000000
186.099500 3200.000000
187.074100 22724.000000
187.110300 5716.000000
188.077400 3184.000000
188.115600 1056.000000
189.072700 944.000000
189.089600 2908.000000
191.085600 1088.000000
192.090400 744.000000
193.084600 960.000000
193.098500 1516.000000
195.079000 2420.000000
195.115900 2532.000000
196.085900 1444.000000
197.095100 13768.000000
197.131400 11768.000000
198.099600 3456.000000
198.134800 1788.000000
199.073400 1364.000000
199.110300 13324.000000
200.114900 1592.000000
201.089300 2672.000000
201.126000 1676.000000
203.086200 624.000000
203.105200 1628.000000
205.083300 608.000000
205.099200 1988.000000
207.081000 696.000000
207.115500 5164.000000
208.088300 1824.000000
208.120600 1308.000000
209.095200 11700.000000
209.130800 1224.000000
210.101700 4572.000000
211.075400 1128.000000
211.110800 15824.000000
212.116300 5052.000000
213.126600 107716.000000
214.129600 16280.000000
215.105300 1820.000000
215.142100 10828.000000
216.144900 2100.000000
217.084900 860.000000
217.100300 556.000000
218.107000 712.000000
219.080200 828.000000
219.115300 1756.000000
220.089600 552.000000
220.121800 664.000000
221.094700 5004.000000
221.131200 4360.000000
222.101900 3796.000000
222.135500 1184.000000
223.111000 36328.000000
224.117400 12740.000000
225.126600 73604.000000
226.130100 12324.000000
227.105700 3848.000000
227.141100 9508.000000
228.108700 744.000000
228.145400 1372.000000
229.099600 632.000000
229.121200 932.000000
229.156600 764.000000
230.109000 588.000000
231.101400 1380.000000
231.114600 1420.000000
232.124100 784.000000
233.095800 2512.000000
233.132300 3700.000000
234.102800 1992.000000
234.135900 1124.000000
235.110700 17732.000000
235.147500 6100.000000
236.115700 4244.000000
236.152400 1336.000000
237.089200 2580.000000
237.126200 29508.000000
238.096400 888.000000
238.130100 5380.000000
239.105700 4416.000000
239.142000 23828.000000
240.110800 988.000000
240.145700 4920.000000
241.121400 11692.000000
241.157000 2540.000000
242.109300 636.000000
242.127000 3796.000000
242.163100 832.000000
243.116800 1680.000000
243.136500 3184.000000
244.122100 920.000000
244.139100 564.000000
245.095300 1316.000000
245.131000 4456.000000
246.102900 2252.000000
246.134700 764.000000
247.110300 4416.000000
247.147600 3108.000000
248.118500 4724.000000
248.152500 596.000000
249.126100 14692.000000
250.132200 4600.000000
251.105800 6200.000000
251.142400 25756.000000
252.109400 1352.000000
252.147800 6920.000000
253.121800 19348.000000
253.158000 28424.000000
254.124100 3140.000000
254.161500 5584.000000
255.100300 852.000000
255.136800 4280.000000
255.168300 712.000000
256.140500 560.000000
257.131900 3240.000000
258.103400 688.000000
258.135300 836.000000
259.110500 3080.000000
260.119100 5848.000000
261.126500 18780.000000
262.097800 628.000000
262.132900 8588.000000
263.142600 64124.000000
264.113600 1528.000000
264.145900 12412.000000
265.120800 5040.000000
265.157800 18380.000000
266.126400 1100.000000
266.162000 3992.000000
267.137600 6544.000000
268.142900 1724.000000
269.117700 1888.000000
269.153700 4796.000000
270.102700 872.000000
270.118600 640.000000
270.155700 552.000000
271.169600 888.000000
273.125900 4432.000000
274.135000 1232.000000
275.142700 30564.000000
276.113700 996.000000
276.145400 8148.000000
277.121700 6652.000000
277.154800 1660.000000
278.127500 4904.000000
279.136700 20956.000000
280.142700 9852.000000
281.152800 29512.000000
282.156400 6812.000000
283.167500 6508.000000
284.152900 848.000000
284.171000 1224.000000
285.125400 2528.000000
286.132700 1152.000000
288.116000 1744.000000
289.117800 924.000000
290.126600 648.000000
291.137900 10252.000000
292.140600 2412.000000
293.152800 41636.000000
294.156800 9340.000000
295.132500 5792.000000
295.157800 1716.000000
296.137400 1744.000000
297.121300 704.000000
297.147700 10312.000000
298.151100 2144.000000
299.141400 852.000000
299.159200 1132.000000
301.158800 1524.000000
303.137000 17532.000000
304.140200 4184.000000
305.144800 728.000000
306.124000 592.000000
309.146300 6532.000000
310.149600 1836.000000
311.163400 27636.000000
312.167800 5696.000000
313.143000 972.000000
313.167300 1396.000000
319.133000 596.000000
321.148300 31060.000000
322.150900 6892.000000
323.150300 1212.000000
325.143600 584.000000
327.122000 808.000000
327.160400 916.000000
329.173800 5236.000000
330.175400 1596.000000
331.169300 748.000000
339.158900 45536.000000
340.162400 10652.000000
341.160800 2276.000000
342.161200 860.000000
357.168900 4868.000000
358.174100 1248.000000
359.165900 1188.000000
397.200300 25836.000000
398.204300 7500.000000
399.205200 1096.000000
415.212000 940.000000
417.209100 576.000000

>ms2
115.053700 1796.000000
116.060500 516.000000
117.068800 1560.000000
119.083900 3108.000000
121.064000 28000.000000
122.067000 1844.000000
123.043700 1880.000000
123.079600 3268.000000
125.059000 3364.000000
127.038800 784.000000
128.060500 3552.000000
129.067900 3032.000000
131.048200 1548.000000
131.084300 6288.000000
132.056200 2008.000000
133.063500 9996.000000
133.100600 1424.000000
134.067800 808.000000
135.079300 15104.000000
136.083400 1932.000000
137.058500 5524.000000
138.061300 564.000000
139.036400 560.000000
139.053400 524.000000
139.074300 3076.000000
141.053600 2680.000000
141.068600 3180.000000
142.075000 1288.000000
143.084000 9272.000000
144.055500 2500.000000
144.088500 1684.000000
145.063100 14572.000000
145.100100 3748.000000
146.069900 2444.000000
147.079100 68292.000000
148.082200 7440.000000
149.058200 1456.000000
149.092600 736.000000
151.037800 2428.000000
151.074400 6460.000000
152.060200 544.000000
152.076600 796.000000
153.053000 1508.000000
153.068600 1492.000000
153.087900 512.000000
154.074700 464.000000
155.069800 1104.000000
155.084300 6840.000000
156.054600 508.000000
157.062800 2448.000000
157.100200 2500.000000
158.071400 5468.000000
158.105400 596.000000
159.079100 43516.000000
160.083200 6820.000000
161.057800 5920.000000
161.094600 19288.000000
162.063100 624.000000
162.098700 3004.000000
163.074200 2672.000000
165.068500 3676.000000
166.075200 1192.000000
167.068600 468.000000
167.083600 3180.000000
168.054900 628.000000
168.090700 796.000000
169.063400 5072.000000
169.087600 960.000000
169.099800 2720.000000
170.070700 1348.000000
170.107300 1148.000000
171.079200 54856.000000
172.083400 7764.000000
173.094500 38536.000000
174.098100 4800.000000
175.074100 1084.000000
175.089800 1212.000000
175.110000 1612.000000
177.089100 872.000000
178.075900 1456.000000
179.069500 1396.000000
179.084000 5260.000000
180.090800 2164.000000
181.064100 1328.000000
181.099400 4312.000000
182.071500 2120.000000
182.105100 1560.000000
183.078700 5088.000000
183.115400 1792.000000
184.085500 3144.000000
185.058900 1360.000000
185.094900 19056.000000
186.065000 460.000000
186.099200 3684.000000
187.073900 19356.000000
187.110300 5432.000000
188.078700 2752.000000
188.112500 1168.000000
189.068700 1832.000000
189.090000 1784.000000
190.076700 1164.000000
191.083900 2676.000000
191.105000 528.000000
192.091100 3428.000000
193.099000 5328.000000
194.070800 944.000000
194.104600 1244.000000
195.078800 6636.000000
195.115700 4856.000000
196.086700 6456.000000
196.121300 1848.000000
197.094700 20560.000000
197.130800 12844.000000
198.101200 5756.000000
198.135000 2084.000000
199.074400 2072.000000
199.110100 11508.000000
200.114200 2172.000000
201.089900 1680.000000
201.126900 1052.000000
203.083000 1488.000000
203.104500 1208.000000
204.092500 1908.000000
205.099900 4860.000000
206.106900 2800.000000
207.079400 1188.000000
207.115500 10664.000000
208.086700 8948.000000
208.118200 1888.000000
209.094700 24664.000000
209.131100 2800.000000
210.102000 13064.000000
210.134500 768.000000
211.072900 1336.000000
211.109900 22144.000000
212.078600 572.000000
212.116300 6784.000000
213.126300 91456.000000
214.129500 15764.000000
215.085200 1660.000000
215.105100 968.000000
215.141200 5172.000000
216.091900 1152.000000
216.145400 1048.000000
217.100100 2200.000000
218.107000 2060.000000
219.079800 1760.000000
219.115200 4588.000000
220.087200 1832.000000
220.122800 2416.000000
221.094800 9316.000000
221.131100 6400.000000
222.102200 9832.000000
222.134400 996.000000
223.110400 36528.000000
224.116800 19184.000000
225.126300 57056.000000
226.097200 1288.000000
226.129900 10240.000000
227.084500 640.000000
227.105500 3640.000000
227.141300 6840.000000
228.090800 700.000000
228.111500 772.000000
228.144200 1224.000000
229.101400 2040.000000
229.118000 584.000000
230.106600 2960.000000
231.077800 1568.000000
231.113800 2400.000000
232.085200 1200.000000
232.123300 2028.000000
233.094200 5072.000000
233.131200 5416.000000
234.102500 6208.000000
234.137500 1024.000000
235.110900 20988.000000
235.147000 6932.000000
236.084200 496.000000
236.115000 8524.000000
236.149200 1604.000000
237.089700 3448.000000
237.126100 26348.000000
238.097900 1984.000000
238.131900 6588.000000
239.105300 2956.000000
239.141600 17528.000000
240.110900 992.000000
240.145100 3756.000000
241.121500 6216.000000
241.157800 1644.000000
242.107700 2188.000000
242.126600 2244.000000
242.156600 460.000000
243.115200 2988.000000
243.135700 1132.000000
244.121200 1188.000000
245.095300 4268.000000
245.130800 5196.000000
246.101900 6908.000000
246.136800 1220.000000
247.109900 7508.000000
247.146600 4192.000000
248.117600 11736.000000
248.150500 728.000000
249.125300 13976.000000
250.096600 1516.000000
250.132500 6520.000000
251.104700 4904.000000
251.142100 18096.000000
252.109400 1924.000000
252.146900 6140.000000
253.121300 13112.000000
253.157300 14280.000000
254.124700 3024.000000
254.161200 2856.000000
255.102400 740.000000
255.119000 944.000000
255.136300 1896.000000
256.135600 492.000000
257.132200 3696.000000
258.101900 1972.000000
258.135500 996.000000
259.110100 3596.000000
260.117800 11372.000000
261.088300 876.000000
261.125200 16704.000000
262.097100 1468.000000
262.132600 9332.000000
263.105100 2812.000000
263.141900 37132.000000
264.112200 2776.000000
264.145600 9912.000000
265.119500 5896.000000
265.157800 11060.000000
266.125900 2084.000000
266.161400 2276.000000
267.137100 4484.000000
268.141000 1340.000000
269.114600 732.000000
269.131300 596.000000
269.150200 1468.000000
270.102300 1040.000000
271.106800 736.000000
272.118100 508.000000
273.127700 2776.000000
274.095600 760.000000
274.132100 976.000000
275.107600 1828.000000
275.142200 16236.000000
276.114600 2008.000000
276.145500 4768.000000
277.121000 4376.000000
277.155700 1088.000000
278.128600 4324.000000
279.096700 704.000000
279.137200 10028.000000
280.104900 460.000000
280.143600 6312.000000
281.152200 11396.000000
282.155200 2504.000000
283.166400 2064.000000
284.152500 496.000000
285.125400 3520.000000
286.132900 1068.000000
288.113400 3152.000000
289.116900 1324.000000
290.128600 792.000000
291.137100 4536.000000
292.141300 1596.000000
293.117800 588.000000
293.152000 9544.000000
294.156200 3116.000000
295.131600 2672.000000
296.137200 984.000000
297.148100 2432.000000
298.149400 860.000000
301.158800 820.000000
303.137000 5948.000000
304.140700 1596.000000
306.123600 1148.000000
307.133100 512.000000
309.147100 1324.000000
310.148200 476.000000
311.163400 4808.000000
312.166900 1456.000000
321.146900 6056.000000
322.150800 1764.000000
329.171000 556.000000
339.158600 6172.000000
340.162500 1752.000000
397.198700 1156.000000
398.203300 460.000000

>ms2
115.053400 4840.000000
116.059600 684.000000
117.069400 3000.000000
119.048400 452.000000
119.085000 4820.000000
120.088400 556.000000
121.064100 34836.000000
122.068000 2908.000000
123.042500 1676.000000
123.060200 436.000000
123.080000 1556.000000
125.058600 2008.000000
127.040300 456.000000
127.053600 860.000000
128.061200 9896.000000
129.068300 6784.000000
130.075600 1584.000000
131.048100 2532.000000
131.084600 9288.000000
132.055700 4224.000000
132.088000 1296.000000
133.063400 7168.000000
133.099700 1864.000000
134.068600 1036.000000
135.044200 616.000000
135.079700 11440.000000
136.083300 1044.000000
137.059000 2928.000000
137.074500 1232.000000
139.054000 820.000000
139.073800 2184.000000
141.054100 1008.000000
141.068900 7076.000000
142.075300 3188.000000
143.084700 13060.000000
144.056400 5144.000000
144.088400 1952.000000
145.063400 21520.000000
145.100300 5092.000000
146.051000 376.000000
146.070600 5160.000000
146.103500 840.000000
147.079400 60024.000000
148.082800 6188.000000
149.058600 1632.000000
149.077200 544.000000
149.096400 768.000000
151.038500 1352.000000
151.055900 316.000000
151.074700 1992.000000
152.061400 1644.000000
153.054800 964.000000
153.069400 3488.000000
154.076000 1280.000000
155.084400 10532.000000
156.053800 888.000000
156.090100 2296.000000
157.063600 4440.000000
157.099900 3372.000000
158.071500 16452.000000
159.079300 52452.000000
160.083400 7432.000000
161.058300 3396.000000
161.095000 12924.000000
162.063600 740.000000
162.099900 2072.000000
163.074300 2248.000000
165.069000 7556.000000
166.075100 3200.000000
167.084200 5976.000000
168.056200 1080.000000
168.091400 1880.000000
169.063900 5724.000000
169.100300 5072.000000
170.070300 3232.000000
171.079500 59008.000000
172.084300 10280.000000
173.095200 30012.000000
174.098000 4492.000000
175.075200 1036.000000
175.091000 660.000000
175.111700 976.000000
176.060700 464.000000
177.069000 1044.000000
177.091400 508.000000
178.076600 3936.000000
179.084100 9804.000000
180.090900 5236.000000
181.064100 3788.000000
181.099100 6640.000000
182.071500 5980.000000
182.106400 3592.000000
183.079200 9988.000000
183.115100 2204.000000
184.086800 4828.000000
184.120700 408.000000
185.059800 956.000000
185.094800 16016.000000
185.131200 1440.000000
186.100500 2992.000000
187.074700 10160.000000
187.110400 3340.000000
188.077700 1336.000000
188.114200 388.000000
189.069100 2440.000000
189.089500 1144.000000
190.076600 4160.000000
191.084000 6668.000000
192.091800 12636.000000
193.099100 8884.000000
194.071800 2716.000000
194.105800 3260.000000
195.079800 14064.000000
195.115700 7616.000000
196.086500 11240.000000
196.121200 2000.000000
197.094800 20304.000000
197.131800 7432.000000
198.102200 10688.000000
198.135300 1256.000000
199.074100 1720.000000
199.110000 9008.000000
200.078200 352.000000
200.114400 1372.000000
201.089500 1000.000000
201.123600 492.000000
202.075800 1692.000000
203.085100 4212.000000
203.103200 568.000000
204.091200 4128.000000
205.063600 1316.000000
205.099900 8076.000000
206.070900 864.000000
206.106600 4816.000000
207.079100 2684.000000
207.115800 14048.000000
208.087600 15020.000000
208.119600 3120.000000
209.094700 29396.000000
209.130800 2240.000000
210.102000 23392.000000
211.076000 988.000000
211.110100 16192.000000
212.082400 624.000000
212.116900 4692.000000
213.126700 52816.000000
214.094800 672.000000
214.130500 9808.000000
215.085600 2696.000000
215.102500 552.000000
215.138500 2384.000000
216.091700 3428.000000
217.100400 5200.000000
218.072200 1212.000000
218.107400 3460.000000
219.078500 3616.000000
219.115500 5584.000000
220.087200 6152.000000
220.122700 2868.000000
221.095000 12308.000000
221.131500 5292.000000
222.102300 15396.000000
222.136000 956.000000
223.110400 26252.000000
224.081400 1020.000000
224.117800 14220.000000
225.088900 2620.000000
225.126600 27032.000000
226.076600 400.000000
226.097900 1656.000000
226.130600 4832.000000
227.084800 1060.000000
227.106300 2456.000000
227.142400 2272.000000
228.093600 1672.000000
228.111000 844.000000
228.147300 516.000000
229.100500 3920.000000
230.107900 6308.000000
231.080600 2696.000000
231.116200 3608.000000
232.086600 2808.000000
232.123000 2956.000000
233.095400 10112.000000
233.131000 3700.000000
234.102600 8684.000000
234.136900 1648.000000
235.111100 22532.000000
235.147100 4584.000000
236.083100 888.000000
236.117100 9800.000000
236.149400 1056.000000
237.090700 2340.000000
237.126300 15132.000000
238.097800 4340.000000
238.132700 4660.000000
239.104500 2436.000000
239.141700 7164.000000
240.095700 932.000000
240.109300 860.000000
240.146000 1192.000000
241.100800 1448.000000
241.121300 1888.000000
241.156500 864.000000
242.107900 3448.000000
243.080700 344.000000
243.114700 3544.000000
244.087100 724.000000
244.120800 848.000000
245.095200 8952.000000
245.131400 4192.000000
246.102600 9020.000000
246.137700 1004.000000
247.072900 516.000000
247.110500 9168.000000
247.144600 1376.000000
248.118300 16248.000000
249.089900 1760.000000
249.125200 9644.000000
250.097500 2060.000000
250.132300 4944.000000
251.105100 3436.000000
251.141500 8020.000000
252.113900 1528.000000
252.148800 3920.000000
253.121400 5768.000000
253.158700 4084.000000
254.128800 1072.000000
254.161000 952.000000
255.082500 492.000000
255.119200 608.000000
255.138300 904.000000
256.124100 368.000000
257.099600 320.000000
257.130400 2300.000000
258.102500 2256.000000
258.136300 884.000000
259.111200 4604.000000
260.118800 10200.000000
261.089900 1408.000000
261.125700 8984.000000
262.097500 964.000000
262.133600 5876.000000
263.105900 2140.000000
263.142600 13372.000000
264.112900 3308.000000
264.146400 2672.000000
265.122000 4244.000000
265.158100 3688.000000
266.126800 1096.000000
266.162100 788.000000
267.114700 352.000000
267.136900 1376.000000
268.141900 756.000000
269.149300 340.000000
270.103700 1048.000000
271.110500 644.000000
272.121500 328.000000
273.089900 608.000000
273.125300 1804.000000
274.097500 844.000000
274.132500 816.000000
275.105700 1104.000000
275.142600 6456.000000
276.112300 2092.000000
276.145600 1776.000000
277.121300 2564.000000
277.153500 428.000000
278.129800 1856.000000
279.107700 312.000000
279.137500 3244.000000
280.110200 380.000000
280.145000 3432.000000
281.119500 440.000000
281.152700 2420.000000
282.155600 804.000000
283.150600 368.000000
283.167000 480.000000
285.125600 1192.000000
287.107800 476.000000
288.113400 1580.000000
289.119600 680.000000
290.126200 332.000000
291.138600 1060.000000
292.145600 484.000000
293.117700 368.000000
293.153100 2596.000000
294.154900 756.000000
295.131600 868.000000
296.144000 484.000000
297.146700 492.000000
303.139000 1004.000000
304.139900 308.000000
305.111300 328.000000
308.134000 420.000000
311.164200 664.000000
321.147800 840.000000
322.154300 308.000000
339.160200 588.000000

>ms2
55.017100 3140.000000
55.054100 452.000000
59.048600 13476.000000
60.053400 448.000000
67.053500 876.000000
69.033500 2468.000000
69.069300 1104.000000
71.048800 1052.000000
73.027100 608.000000
79.053800 2096.000000
81.033800 720.000000
81.069300 5344.000000
83.049300 1844.000000
83.085500 528.000000
85.028100 640.000000
85.064900 420.000000
87.043600 2168.000000
91.054000 1312.000000
93.070100 8752.000000
94.073700 724.000000
95.049400 3264.000000
95.085800 6436.000000
96.088700 444.000000
97.028400 2284.000000
97.065100 1912.000000
99.044800 1832.000000
101.024200 1864.000000
105.070900 3968.000000
107.049700 652.000000
107.086600 2280.000000
109.065900 3152.000000
111.044700 1152.000000
111.081000 1252.000000
113.060000 832.000000
115.040600 1128.000000
115.053300 696.000000
117.070000 1368.000000
119.049500 680.000000
119.084800 1956.000000
121.064400 16800.000000
122.067200 1196.000000
123.043000 1072.000000
123.080200 2248.000000
125.059600 2384.000000
127.038200 668.000000
127.075700 904.000000
128.061800 860.000000
129.069100 984.000000
131.084700 3124.000000
132.055900 680.000000
133.063900 6144.000000
133.100700 732.000000
134.069200 792.000000
135.079900 8540.000000
136.082200 900.000000
137.058500 5064.000000
138.061900 564.000000
139.074600 2944.000000
140.078500 472.000000
141.053500 2844.000000
141.069900 592.000000
142.076000 480.000000
143.084500 3004.000000
144.056100 644.000000
144.087600 664.000000
145.063600 4380.000000
145.100500 1208.000000
147.079300 41740.000000
148.082500 4880.000000
149.058500 920.000000
151.038300 2568.000000
151.074200 9204.000000
152.078800 708.000000
153.053300 1932.000000
153.089800 1112.000000
155.068600 1408.000000
155.083700 1816.000000
157.063700 1088.000000
157.100000 1400.000000
158.071000 2148.000000
159.063900 1236.000000
159.079000 21656.000000
160.082700 2808.000000
161.058400 3856.000000
161.095000 16344.000000
162.098500 1984.000000
163.074300 1928.000000
165.069800 956.000000
165.089800 444.000000
167.068800 640.000000
167.084900 1008.000000
169.047700 464.000000
169.063800 2264.000000
169.084800 1168.000000
169.100800 1096.000000
170.069700 468.000000
171.079100 27460.000000
172.083700 3736.000000
173.095100 21308.000000
174.098100 3168.000000
175.074300 1384.000000
177.089300 1172.000000
179.069900 3536.000000
179.082800 1636.000000
180.091200 908.000000
181.099300 1448.000000
182.069700 484.000000
182.106900 444.000000
183.079200 3032.000000
183.115400 1136.000000
184.084000 868.000000
185.058700 1100.000000
185.094900 12176.000000
186.099700 2416.000000
187.074700 16712.000000
187.111900 2996.000000
188.078900 2476.000000
188.113900 604.000000
189.070500 752.000000
189.090000 1624.000000
191.086500 816.000000
191.107300 428.000000
192.091100 824.000000
193.084900 472.000000
193.100000 1864.000000
194.104400 768.000000
195.079500 2764.000000
195.116700 1944.000000
196.086000 1668.000000
196.121300 480.000000
197.095200 12844.000000
197.131700 8896.000000
198.101800 3208.000000
198.134400 1396.000000
199.074000 1408.000000
199.111100 7576.000000
200.114100 1348.000000
201.089800 1640.000000
201.127900 780.000000
202.096600 464.000000
203.085100 744.000000
203.105800 1504.000000
204.091900 564.000000
205.101600 1068.000000
206.107100 780.000000
207.080500 524.000000
207.115800 4148.000000
208.087100 1964.000000
208.119100 580.000000
209.095300 10700.000000
209.130100 1076.000000
210.100700 5428.000000
211.111300 14464.000000
212.116100 3416.000000
213.127000 83080.000000
214.094000 836.000000
214.130400 11304.000000
215.084200 472.000000
215.105800 1576.000000
215.141800 7204.000000
216.144900 1188.000000
217.100100 628.000000
218.109700 480.000000
219.080100 884.000000
219.116800 1660.000000
220.084700 692.000000
220.124300 800.000000
221.094900 4752.000000
221.132500 2868.000000
222.101900 2992.000000
222.135200 1172.000000
223.110800 27028.000000
224.116800 11204.000000
225.126900 57076.000000
226.094500 952.000000
226.130400 9996.000000
227.106400 2996.000000
227.142300 5704.000000
228.113700 740.000000
228.145100 916.000000
229.081500 528.000000
229.101700 728.000000
229.120600 688.000000
230.107600 872.000000
231.105000 1020.000000
231.111300 860.000000
232.088500 708.000000
232.123200 1144.000000
233.094200 2008.000000
233.131700 2856.000000
234.103300 1792.000000
234.137900 772.000000
235.110800 15076.000000
235.147300 4452.000000
236.115000 3924.000000
236.150400 892.000000
237.091200 1872.000000
237.126800 21728.000000
238.097000 1256.000000
238.130500 4916.000000
239.105200 2588.000000
239.142400 18652.000000
240.112600 960.000000
240.145300 2928.000000
241.121900 10924.000000
241.159300 1924.000000
242.106900 568.000000
242.128100 3104.000000
242.162000 448.000000
243.115400 1712.000000
243.136600 2728.000000
244.122500 736.000000
244.143000 764.000000
245.096000 1252.000000
245.132200 2560.000000
246.104100 1788.000000
246.139700 600.000000
247.111200 3236.000000
247.148300 2204.000000
248.119100 3800.000000
248.152300 428.000000
249.126800 10788.000000
250.133100 3700.000000
251.106000 4488.000000
251.142600 16984.000000
252.112500 1320.000000
252.147100 5148.000000
253.122200 14932.000000
253.158400 21796.000000
254.124700 2736.000000
254.161700 5236.000000
255.101800 632.000000
255.138200 3260.000000
255.170900 536.000000
256.142700 596.000000
257.132600 2064.000000
257.152100 460.000000
258.101300 660.000000
259.112000 2124.000000
260.118500 4320.000000
261.127000 15972.000000
262.096900 644.000000
262.132500 5808.000000
263.143300 45208.000000
264.114500 1692.000000
264.146600 9064.000000
265.122000 4608.000000
265.158200 15768.000000
266.126700 1276.000000
266.161500 2776.000000
267.138300 7028.000000
268.142300 1884.000000
269.116200 2012.000000
269.153300 2996.000000
270.101300 536.000000
270.122000 548.000000
270.157000 764.000000
271.145500 516.000000
271.161700 828.000000
273.126800 2684.000000
274.129900 796.000000
275.143100 25112.000000
276.114300 940.000000
276.147100 6088.000000
277.122700 6080.000000
277.155500 900.000000
278.129200 3384.000000
279.137300 18392.000000
280.143600 7020.000000
281.153900 25780.000000
282.157500 5060.000000
283.149100 2268.000000
283.168200 5364.000000
284.149900 604.000000
284.172300 1472.000000
285.127900 2444.000000
286.131200 836.000000
288.115600 1584.000000
289.119900 816.000000
290.127300 440.000000
291.138700 8356.000000
292.142200 1620.000000
293.153700 40064.000000
294.156900 9344.000000
295.133600 4628.000000
295.155800 1360.000000
296.137500 1292.000000
297.149300 9020.000000
298.152900 2260.000000
299.161300 1164.000000
301.160300 828.000000
303.137800 13580.000000
304.141600 3200.000000
305.142600 616.000000
307.132700 436.000000
309.149400 5072.000000
310.153000 1124.000000
311.164800 34548.000000
312.167800 5652.000000
313.161800 1280.000000
321.149100 31496.000000
322.151800 7756.000000
323.151800 1072.000000
325.143700 604.000000
327.159800 1136.000000
329.173900 4808.000000
330.178800 736.000000
331.169300 764.000000
337.146900 428.000000
339.159500 54792.000000
340.162500 12764.000000
341.161500 2208.000000
342.162000 928.000000
343.152800 808.000000
351.194900 428.000000
357.169600 12196.000000
358.174000 3372.000000
359.170100 1312.000000
379.188500 836.000000
397.201800 44780.000000
398.204500 13216.000000
399.207800 2132.000000
415.213100 4696.000000
416.212000 1768.000000
417.214000 580.000000

