>compound AU17025542
>parentmass 236.1645
>ionization [M+H]+
>formula C14H21NO2
>rt 312.000000
>profile qtof
#smiles_iso COC1=CC=CC(=C1)C2(CCCCC2CN)O
#smiles_can COC1=CC=CC(=C1)C2(CCCCC2CN)O
#inchikey QNPPIKMBCJUUTG-UHFFFAOYSA-N
#pubchem_id 3056578
#mb_accession AU201501,AU201502,AU201503,AU201504,AU201505

>ms2peaks
121.064900 1996.000000
159.063500 1996.000000
189.126600 191512.000000
190.129600 28896.000000
191.132700 2316.000000
201.127300 2208.000000
217.105600 1248.000000
218.153300 168020.000000
219.156100 25660.000000
220.159700 1836.000000
236.163600 22592.000000

>ms2peaks
121.063800 28932.000000
122.067100 2892.000000
147.079200 1216.000000
159.079400 1060.000000
189.126600 133256.000000
190.129700 17840.000000
191.133900 1496.000000
201.126100 3012.000000
218.153300 1740.000000

>ms2peaks
121.064000 56316.000000
122.067700 6248.000000
123.069400 704.000000
135.080000 988.000000
144.056100 496.000000
145.064800 456.000000
147.079400 4240.000000
159.078600 1420.000000
160.085000 672.000000
173.093400 692.000000
189.126200 20124.000000
190.129800 2912.000000
191.133500 404.000000
201.126700 592.000000

>ms2peaks
115.053700 384.000000
117.068700 500.000000
121.064000 38308.000000
122.067200 4704.000000
128.061500 644.000000
129.069500 664.000000
131.047700 532.000000
132.056400 528.000000
135.079000 456.000000
144.055900 924.000000
145.063300 1124.000000
147.079200 3044.000000
148.081400 520.000000
158.071300 692.000000
159.078800 1196.000000
160.087300 692.000000
173.094200 316.000000
189.126000 1008.000000

>ms2peaks
115.053600 1868.000000
116.058900 472.000000
121.063900 16792.000000
122.067900 1812.000000
128.060500 1232.000000
129.069200 952.000000
131.047600 400.000000
132.055600 428.000000
142.074100 368.000000
144.057100 960.000000
145.063800 688.000000
146.069200 336.000000
147.079400 1160.000000
155.059400 444.000000
158.070800 384.000000
159.078200 476.000000

