>compound AU18367368
>parentmass 338.1363
>ionization [M+Na]+
>formula C18H21NO4
>rt 224.640000
>profile qtof
#smiles_iso CN1CC[C@]23[C@@H]4C(=O)CC[C@]2([C@H]1CC5=C3C(=C(C=C5)OC)O4)O
#smiles_can CN1CCC23C4C(=O)CCC2(C1CC5=C3C(=C(C=C5)OC)O4)O
#inchikey BRUQQQPBMZOVGD-XFKAJCMBSA-N
#pubchem_id 5284603
#mb_accession AU160230,AU160231,AU160232,AU160233

>ms2
338.138500 49512.000000
339.141800 8804.000000
340.145200 1260.000000

>ms2
338.138900 45356.000000
339.142400 8544.000000

>ms2
338.139200 11992.000000
339.142900 2780.000000

>ms2
338.139300 1240.000000

