>compound AU18750677
>parentmass 182.0126
>ionization [M+H]+
>formula C5H11NS3
>rt 215.790000
>profile qtof
#smiles_iso CN(C)C1CSSSC1
#smiles_can CN(C)C1CSSSC1
#inchikey DNVLJEWNNDHELH-UHFFFAOYSA-N
#pubchem_id 35970
#mb_accession AU382501,AU382502,AU382503,AU382504

>ms2
136.955100 14128.000000
138.950900 1720.000000
142.992600 900.000000
182.013400 24916.000000
183.015300 2152.000000
184.009100 3592.000000

>ms2
136.955000 15924.000000
138.950800 2432.000000
182.012900 1432.000000

>ms2
136.955200 3560.000000
138.951300 508.000000

>ms2
136.953600 528.000000

