>compound AU18071880
>parentmass 376.2129
>ionization [M+NH4]+
>formula C21H26O5
>rt 570.756000
>profile qtof
#smiles_iso CC(C)(C1=CC=C(C=C1)OCC2CO2)C3=CC=C(C=C3)OCC(CO)O
#smiles_can CC(C)(C1=CC=C(C=C1)OCC2CO2)C3=CC=C(C=C3)OCC(CO)O
#inchikey NBLIPZBCGXIEFO-UHFFFAOYSA-N
#pubchem_id 150694
#mb_accession AU581249,AU581250,AU581251,AU581252,AU581253

>ms2peaks
135.079200 3460.000000
161.095200 2100.000000
173.094700 5568.000000
191.105200 35116.000000
209.116500 128676.000000
211.121800 1492.000000
250.084900 2044.000000
329.172900 1252.000000
341.175800 3764.000000
376.211800 229868.000000

>ms2peaks
135.079300 32776.000000
161.094700 19936.000000
173.095400 8292.000000
191.105800 149552.000000
193.110800 1292.000000
209.116500 151656.000000
210.119800 20576.000000
211.121900 1796.000000
232.074300 764.000000
250.085500 1736.000000
329.174200 1052.000000
341.177400 928.000000
376.211000 2688.000000

>ms2peaks
133.064200 656.000000
135.079700 76672.000000
161.095000 19280.000000
173.094700 4376.000000
191.106000 127252.000000
193.111100 888.000000
209.116100 35980.000000
232.074600 1972.000000
250.083800 712.000000

>ms2peaks
117.069200 736.000000
133.063700 1672.000000
133.101100 460.000000
135.079700 84680.000000
137.086200 692.000000
145.064500 1040.000000
147.079000 1344.000000
161.094800 12392.000000
173.094900 2136.000000
191.105700 55928.000000
193.110200 684.000000
204.078900 428.000000
209.116100 6448.000000
210.120100 916.000000
232.075100 940.000000

>ms2peaks
107.049200 380.000000
115.053800 916.000000
116.056800 388.000000
117.069500 864.000000
119.046900 380.000000
119.084400 520.000000
128.061200 448.000000
129.071300 460.000000
131.048700 316.000000
133.063100 1804.000000
133.099300 412.000000
135.079600 54460.000000
137.086200 548.000000
145.063600 1048.000000
147.079800 820.000000
155.083100 376.000000
161.095300 5876.000000
173.096900 1008.000000
191.105900 11328.000000
196.088500 636.000000
203.074300 328.000000
204.077400 428.000000
209.117300 492.000000
228.075900 684.000000
232.076200 364.000000

