>compound AU18442448
>parentmass 261.03209999999996
>ionization [M+H]+
>formula C7H15Cl2N2O2P
>rt 372.740000
>profile qtof
#smiles_iso C1CNP(=O)(OC1)N(CCCl)CCCl
#smiles_can C1CNP(=O)(OC1)N(CCCl)CCCl
#inchikey CMSMOCZEIVJLDB-UHFFFAOYSA-N
#pubchem_id 2907
#mb_accession AU272701,AU272702,AU272703,AU272704,AU272705,AU272706

>ms2peaks
233.000100 24076.000000
234.997100 11704.000000
261.032200 1547412.000000
262.034800 114088.000000
263.029000 1060884.000000

>ms2peaks
120.020000 23832.000000
138.030200 19364.000000
140.001900 232944.000000
141.005100 9692.000000
141.998800 120312.000000
142.017500 76340.000000
143.001900 4520.000000
143.020400 3388.000000
144.014400 49296.000000
185.023000 8228.000000
199.038400 6136.000000
233.000100 169348.000000
234.002500 9544.000000
234.996900 91404.000000
261.031500 596424.000000
262.034200 40816.000000
263.028600 338296.000000

>ms2peaks
120.020000 23168.000000
135.031100 1220.000000
138.030300 14224.000000
140.001900 240864.000000
141.005000 9596.000000
141.980300 9936.000000
141.998900 129584.000000
142.017400 47944.000000
143.001800 4028.000000
143.021100 2292.000000
143.978000 2608.000000
144.014300 32816.000000
154.017900 1408.000000
155.995700 2080.000000
167.996500 2544.000000
171.006500 3520.000000
174.006400 1628.000000
185.022500 4360.000000
199.038900 2312.000000
203.972100 1640.000000
232.999700 20144.000000
234.001500 1328.000000
234.997200 12020.000000
261.031200 15500.000000
262.033700 2036.000000
263.028200 9408.000000

>ms2peaks
114.010100 420.000000
120.020400 6380.000000
123.972300 1152.000000
127.965900 656.000000
138.030600 4284.000000
140.001900 82044.000000
141.005100 3940.000000
141.980600 9828.000000
141.999000 46824.000000
142.017400 15072.000000
143.001900 1596.000000
143.020600 1320.000000
143.978200 2088.000000
145.020100 492.000000
154.018300 740.000000
156.011700 484.000000
167.997500 744.000000
171.007400 760.000000
202.028600 660.000000
203.972300 456.000000
233.001500 472.000000

>ms2peaks
114.008200 356.000000
120.020900 1652.000000
123.971100 916.000000
127.965300 400.000000
138.030700 980.000000
140.001600 15468.000000
141.005400 968.000000
141.980400 4440.000000
141.999000 9372.000000
142.017800 3060.000000
142.999900 312.000000
143.977500 948.000000
144.014900 1852.000000
146.039100 488.000000
147.043700 336.000000
154.038300 472.000000
174.033700 732.000000
202.026800 488.000000

>ms2peaks
56.049000 31332.000000
58.064700 44100.000000
59.067900 1492.000000
62.999100 22556.000000
64.996000 5224.000000
70.064600 9408.000000
78.009900 6220.000000
80.007300 1552.000000
106.043000 67744.000000
107.046700 1816.000000
108.039900 13476.000000
110.001500 14968.000000
112.017100 2464.000000
120.020300 18520.000000
138.030900 40104.000000
140.002100 189028.000000
141.004600 8088.000000
141.980900 6296.000000
141.999000 112624.000000
142.017500 54000.000000
143.002300 2796.000000
143.020800 3108.000000
144.014700 37232.000000
155.996000 1768.000000
167.995700 1552.000000
171.007300 2596.000000
174.007400 1600.000000
185.022700 5516.000000
197.023700 1664.000000
199.038700 4920.000000
233.000200 98072.000000
234.003100 4836.000000
234.997500 51956.000000
261.032100 230128.000000
262.034800 21784.000000
263.029300 144856.000000

