>compound AU18999119
>parentmass 232.1308
>ionization [M+H]+
>formula C12H16F3N
>rt 372.000000
>profile qtof
#smiles_iso CCNC(C)CC1=CC(=CC=C1)C(F)(F)F
#smiles_can CCNC(C)CC1=CC(=CC=C1)C(F)(F)F
#inchikey DBGIVFWFUFKIQN-UHFFFAOYSA-N
#pubchem_id 3337
#mb_accession AU224801,AU224802,AU224803,AU224804,AU224805

>ms2peaks
159.040900 98800.000000
160.043400 6252.000000
187.072100 88576.000000
188.075600 8248.000000
232.130600 2220188.000000
233.133700 215388.000000
234.136400 12516.000000

>ms2peaks
159.040900 2088952.000000
160.044200 107156.000000
187.072100 205168.000000
188.075600 19404.000000
232.130500 323488.000000
233.133700 27984.000000

>ms2peaks
109.044400 2848.000000
119.028200 2084.000000
139.034600 10060.000000
159.040900 1792936.000000
160.044200 140436.000000
187.071600 7728.000000
200.066600 992.000000

>ms2peaks
109.044400 11696.000000
119.028400 9144.000000
139.034600 43768.000000
147.034400 17144.000000
159.040900 1177244.000000
160.044200 95056.000000

>ms2peaks
133.024600 7804.000000
137.038300 6772.000000
139.034300 56960.000000
140.037500 4892.000000
146.051600 5188.000000
147.034200 41036.000000
148.037300 4420.000000
158.032400 5084.000000
159.040600 547580.000000
160.044200 41328.000000

