>compound AU18874729
>parentmass 192.0655
>ionization [M+H]+
>formula C10H9NO3
>rt 233.616000
>profile qtof
#smiles_iso C1=CC2=C(C=C1O)C(=CN2)CC(=O)O
#smiles_can C1=CC2=C(C=C1O)C(=CN2)CC(=O)O
#inchikey DUUGKQCEGZLZNO-UHFFFAOYSA-N
#pubchem_id 1826
#mb_accession AU279501,AU279503,AU279504,AU279505,AU279506

>ms2
146.058500 11728.000000
147.061700 1660.000000
160.037400 372.000000
162.052300 348.000000
191.058200 336.000000
192.064900 6620.000000
193.066500 952.000000

>ms2
117.058500 576.000000
118.065100 776.000000
119.048500 504.000000
146.059000 7888.000000
147.062100 880.000000

>ms2
117.055300 1112.000000
118.064000 812.000000
119.047700 596.000000
128.048600 428.000000
133.049400 452.000000
146.058700 3028.000000

>ms2
117.054600 552.000000
146.059000 836.000000

>ms2
118.063400 540.000000
119.047400 440.000000
132.043600 356.000000
146.059200 20264.000000
147.061800 1588.000000
192.063100 440.000000

