>compound AU18456926
>parentmass 169.076
>ionization [M+H]+
>formula C11H8N2
>rt 480.660000
>profile qtof
#smiles_iso C1=CC=C2C(=C1)C3=C(N2)C=CN=C3
#smiles_can C1=CC=C2C(=C1)C3=C(N2)C=CN=C3
#inchikey RDMFHRSPDKWERA-UHFFFAOYSA-N
#pubchem_id 130802
#mb_accession AU288101,AU288102,AU288103,AU288104,AU288105,AU288106

>ms2peaks
169.075700 2248456.000000
170.078300 283032.000000
171.081400 12444.000000

>ms2peaks
115.054100 12056.000000
142.064100 15548.000000
168.067300 108484.000000
169.075900 2355324.000000
170.078500 342180.000000
171.081300 15408.000000

>ms2peaks
115.053700 292016.000000
116.056500 29044.000000
140.048000 32528.000000
141.055300 31100.000000
142.063700 147800.000000
143.067000 13992.000000
167.058500 16064.000000
168.066800 242248.000000
169.074800 2183912.000000
170.077700 220704.000000
171.080800 11108.000000

>ms2peaks
113.038000 6248.000000
114.045600 14352.000000
115.053800 166108.000000
116.055500 17488.000000
117.056400 12820.000000
128.048500 8724.000000
129.056000 8300.000000
140.048600 180120.000000
141.056100 168112.000000
142.063600 79932.000000
143.066200 7504.000000
152.048100 9152.000000
166.051300 8796.000000
167.059300 59792.000000
168.067300 1000412.000000
169.074400 517640.000000
170.077600 44304.000000

>ms2peaks
113.038100 13656.000000
114.033800 3860.000000
114.045900 26820.000000
115.053800 89464.000000
116.050700 11328.000000
117.056800 14228.000000
125.037600 2204.000000
128.048600 9824.000000
129.044400 4084.000000
129.056200 3196.000000
139.041200 3136.000000
140.048800 302380.000000
141.056100 175856.000000
142.053300 27416.000000
142.059500 24440.000000
143.058200 3864.000000
152.048400 2668.000000
153.043600 2024.000000
165.043000 1948.000000
166.051800 16460.000000
167.059300 56000.000000
168.067400 333040.000000
169.073100 68592.000000
170.076800 8048.000000

>ms2peaks
115.054600 19032.000000
140.048900 7496.000000
142.064500 18900.000000
168.067600 125252.000000
169.075900 1211376.000000
170.078500 182656.000000
171.081500 6600.000000

