>compound AU18862895
>parentmass 373.15799999999996
>ionization [M+H]+
>formula C20H24N2O3S
>rt 375.450000
>profile qtof
#smiles_iso CN(C)CCN1C2=CC=CC=C2S[C@H]([C@H](C1=O)O)C3=CC=C(C=C3)OC
#smiles_can CN(C)CCN1C2=CC=CC=C2SC(C(C1=O)O)C3=CC=C(C=C3)OC
#inchikey NZHUXMZTSSZXSB-MOPGFXCFSA-N
#pubchem_id 91638
#mb_accession AU229001,AU229002,AU229003,AU229004,AU229005,AU229006

>ms2
178.030900 93892.000000
223.089000 13788.000000
328.099500 38068.000000
372.157900 65284.000000
373.158700 2433672.000000
374.160800 767688.000000
375.157900 151008.000000

>ms2
150.035900 43232.000000
176.080500 24288.000000
178.031200 2679008.000000
179.034000 274792.000000
180.027000 77920.000000
197.109400 17808.000000
223.089100 194332.000000
224.092200 23776.000000
328.099700 194520.000000
329.102400 38380.000000
372.157800 85768.000000
373.157900 1766416.000000
374.160400 345424.000000
375.157500 66736.000000

>ms2
148.049500 24724.000000
150.036200 401360.000000
151.038900 27976.000000
176.080800 91244.000000
178.032000 2512460.000000
179.034400 449672.000000
180.027400 128876.000000
197.109500 13232.000000
223.089500 87988.000000
328.100400 80068.000000
329.102800 15080.000000
372.158600 13968.000000
373.158400 36084.000000
374.160000 13112.000000

>ms2
121.063900 17072.000000
136.020600 17060.000000
148.049400 49356.000000
150.036100 1591640.000000
151.039100 103260.000000
152.031800 40772.000000
176.080500 44860.000000
178.031500 2535500.000000
179.034200 299488.000000
180.027300 92188.000000
180.045200 13060.000000
328.099800 21928.000000

>ms2
109.010300 15672.000000
117.056500 13112.000000
121.064100 24144.000000
136.020500 21516.000000
148.049500 41844.000000
149.057500 13224.000000
150.036200 2088160.000000
151.039100 141360.000000
152.031900 52848.000000
176.080500 11492.000000
178.031300 1519820.000000
179.034300 108760.000000
180.027100 37788.000000

>ms2
148.049500 24724.000000
150.036200 401360.000000
151.038900 27976.000000
176.080800 91244.000000
178.032000 2512460.000000
179.034400 449672.000000
180.027400 128876.000000
197.109500 13232.000000
223.089500 87988.000000
328.100400 80068.000000
329.102800 15080.000000
372.158600 13968.000000
373.158400 36084.000000
374.160000 13112.000000

