>compound AU19295699
>parentmass 125.0379
>ionization [M+H]+
>formula C2H8N2O2S
>rt 122.790000
>profile qtof
#smiles_iso CN(C)S(=O)(=O)N
#smiles_can CN(C)S(=O)(=O)N
#inchikey QMHAHUAQAJVBIW-UHFFFAOYSA-N
#pubchem_id 134472
#mb_accession AU277501,AU277506

>ms2
108.011600 356.000000
125.036800 8756.000000
127.032400 376.000000

>ms2
108.010900 1024.000000
125.036400 804.000000

