>compound AU19710614
>parentmass 315.1485
>ionization [M+H]+
>formula C13H22N4O3S
>rt 192.000000
>profile qtof
#smiles_iso CN/C(=C\[N+](=O)[O-])/NCCSCC1=CC=C(O1)CN(C)C
#smiles_can CNC(=C[N+](=O)[O-])NCCSCC1=CC=C(O1)CN(C)C
#inchikey VMXUWOKSQNHOCA-UKTHLTGXSA-N
#pubchem_id 3001055
#mb_accession AU111502,AU111503,AU111504,AU111505,AU111506

>ms2
147.021000 7464.000000
164.092700 12512.000000
176.047800 1468376.000000
177.101100 7556.000000
178.108500 10760.000000
224.097200 248112.000000
270.090200 147420.000000
315.148100 92080.000000
316.150700 13888.000000

>ms2
117.047000 2892.000000
118.031200 5340.000000
121.075200 7264.000000
125.004800 277804.000000
127.000400 9192.000000
129.047000 10788.000000
130.055100 352864.000000
131.057900 16624.000000
133.051500 4196.000000
135.025700 3024.000000
135.090300 20380.000000
136.073900 1912.000000
137.082400 2228.000000
138.090400 13700.000000
144.075700 8796.000000
145.041900 5296.000000
146.050000 2628.000000
147.066600 3548.000000
147.090300 2616.000000
149.070300 8408.000000
151.019900 2460.000000
152.027300 2604.000000
154.054600 5128.000000
159.045000 2932.000000
163.085500 13944.000000
163.121900 2008.000000
165.100900 55300.000000
170.062300 20260.000000
171.065600 1956.000000
176.048000 305248.000000
178.031500 7376.000000
178.043200 9820.000000
178.107800 14676.000000
181.078300 40700.000000
182.082000 4628.000000
191.117100 95900.000000
193.054600 24132.000000
195.070000 2960.000000
196.040700 1812.000000
207.094100 2336.000000
209.072900 3504.000000
223.089300 6728.000000
224.097000 38812.000000
225.100300 5340.000000

>ms2
115.032200 1480.000000
117.047600 2972.000000
118.031600 2396.000000
118.064800 2676.000000
120.067600 848.000000
120.079300 2028.000000
122.058700 2028.000000
122.081600 2744.000000
123.025200 1488.000000
123.091000 1116.000000
124.074700 7912.000000
125.004800 160652.000000
127.000400 6312.000000
127.019800 1052.000000
129.047400 8616.000000
130.055100 110980.000000
131.058700 7508.000000
132.043500 12004.000000
132.079500 1200.000000
133.051100 12576.000000
133.074800 3000.000000
134.057100 3428.000000
134.082300 1956.000000
135.024900 3432.000000
135.090700 38208.000000
136.074500 3116.000000
137.004800 1200.000000
137.082200 2296.000000
137.106100 2112.000000
138.012500 1464.000000
138.035500 804.000000
138.090300 3832.000000
139.031800 1400.000000
140.052300 1232.000000
143.062800 904.000000
145.042000 2932.000000
145.075300 940.000000
146.058700 1432.000000
146.081700 1524.000000
147.066900 9424.000000
147.090000 4424.000000
148.074700 60560.000000
149.070500 17536.000000
149.105700 2300.000000
150.036100 2836.000000
150.090200 1640.000000
151.020100 5744.000000
152.026300 1452.000000
152.051300 1768.000000
153.035800 3340.000000
153.045200 1828.000000
154.054000 2044.000000
159.045400 4388.000000
159.090500 1524.000000
160.074800 3308.000000
160.098000 1040.000000
161.105600 1160.000000
163.121900 2872.000000
164.051600 948.000000
164.092800 11284.000000
165.100900 28128.000000
167.062800 12280.000000
168.066500 936.000000
170.061200 2760.000000
177.101300 44704.000000
178.031100 12868.000000
179.115500 1212.000000
180.046200 864.000000
181.078200 14904.000000
182.080200 1888.000000
191.116900 33316.000000
193.053700 4896.000000
194.061500 5004.000000
195.093800 852.000000
207.092300 868.000000
209.073200 3544.000000
223.089400 4156.000000
224.096300 1632.000000

>ms2
107.048100 672.000000
114.036300 392.000000
115.031900 980.000000
117.047300 3028.000000
117.056200 1760.000000
118.032300 788.000000
118.064500 6604.000000
119.047600 1112.000000
119.058900 2192.000000
119.067500 884.000000
120.044100 828.000000
120.067400 1672.000000
120.079700 3344.000000
122.059700 2136.000000
122.080200 2556.000000
122.095000 524.000000
123.024900 2488.000000
123.065300 440.000000
123.091100 1200.000000
124.032500 864.000000
124.074800 3212.000000
125.004900 73400.000000
126.009000 5224.000000
126.036300 472.000000
127.020800 804.000000
127.073100 504.000000
129.047000 10060.000000
131.026500 832.000000
131.060000 3680.000000
133.075300 4340.000000
134.017100 548.000000
134.058800 5008.000000
134.082000 2952.000000
135.025200 2796.000000
135.090700 34724.000000
136.020200 748.000000
136.074400 2364.000000
137.004700 1384.000000
137.083100 716.000000
137.106400 3316.000000
138.011700 804.000000
138.035700 1240.000000
138.090900 828.000000
139.031400 2512.000000
140.035900 468.000000
140.051300 1740.000000
142.042300 772.000000
144.066600 636.000000
145.041900 724.000000
145.075400 1328.000000
146.059800 3256.000000
146.081800 772.000000
147.054300 1780.000000
147.066700 4996.000000
147.090800 5428.000000
148.074500 49196.000000
149.070400 12172.000000
149.106000 2668.000000
150.036100 4616.000000
150.090000 1208.000000
150.113100 504.000000
151.019800 6012.000000
151.043300 1012.000000
152.025500 1016.000000
152.052300 1388.000000
153.036900 756.000000
153.047200 1000.000000
154.052900 872.000000
159.044800 3536.000000
159.090200 1764.000000
160.049500 384.000000
160.074800 3168.000000
160.095500 520.000000
161.069400 832.000000
161.079200 652.000000
161.105800 964.000000
162.076600 1184.000000
163.085700 18760.000000
163.122200 1104.000000
164.014400 764.000000
164.051800 900.000000
165.101000 8172.000000
166.031200 560.000000
166.055800 572.000000
166.104400 736.000000
167.062700 5144.000000
168.065800 580.000000
173.106900 436.000000
174.092500 408.000000
175.085100 444.000000
176.048800 2108.000000
176.094200 852.000000
177.101100 20364.000000
178.031000 11056.000000
179.118100 428.000000
180.027200 368.000000
180.047800 556.000000
181.078300 4204.000000
182.082200 384.000000
189.101900 520.000000
191.117100 4444.000000
192.046300 5520.000000
192.122900 496.000000
193.050800 1052.000000
194.062400 1612.000000
195.094000 656.000000
209.073500 780.000000
223.088900 1280.000000

>ms2
176.047800 113352.000000
270.090700 174680.000000
315.149100 2385160.000000

