>compound AU19628285
>parentmass 402.1588
>ionization [M+Na]+
>formula C22H22FN3O2
>rt 384.640000
>profile qtof
#smiles_iso C1CN(CC=C1N2C3=CC=CC=C3NC2=O)CCCC(=O)C4=CC=C(C=C4)F
#smiles_can C1CN(CC=C1N2C3=CC=CC=C3NC2=O)CCCC(=O)C4=CC=C(C=C4)F
#inchikey RMEDXOLNCUSCGS-UHFFFAOYSA-N
#pubchem_id 3168
#mb_accession AU120730,AU120731,AU120732

>ms2peaks
400.146500 2668.000000
401.149500 1172.000000
402.161400 15132.000000
403.164300 3924.000000

>ms2peaks
118.146900 356.000000
400.152400 1040.000000
401.152200 648.000000
402.161300 14724.000000
403.164500 4500.000000

>ms2peaks
209.071000 484.000000
400.153000 456.000000
402.161800 6428.000000
403.164200 1876.000000

