>compound AU19026963
>parentmass 381.1455
>ionization [M+Na]+
>formula C16H26N2O5S
>rt 832.110000
>profile qtof
#smiles_iso CC1(C[C@@H]1C(=O)N/C(=C\CCCCSC[C@@H](C(=O)O)N)/C(=O)O)C
#smiles_can CC1(CC1C(=O)NC(=CCCCCSCC(C(=O)O)N)C(=O)O)C
#inchikey DHSUYTOATWAVLW-WFVMDLQDSA-N
#pubchem_id 6435415
#mb_accession AU212930,AU212932,AU212933,AU212934

>ms2peaks
250.086500 360.000000

>ms2peaks
232.077100 2152.000000
233.078000 364.000000
250.089600 536.000000
251.096500 344.000000

>ms2peaks
204.081900 524.000000
232.074900 996.000000
233.080700 480.000000

>ms2peaks
177.070300 336.000000
203.075400 376.000000
204.081900 584.000000
205.077300 316.000000
232.076900 648.000000

