>compound AU19063860
>parentmass 321.202
>ionization [M+H]+
>formula C14H28N2O6
>rt 156.000000
>profile qtof
#smiles_iso C(CCC(=O)N(CCO)CCO)CC(=O)N(CCO)CCO
#smiles_can C(CCC(=O)N(CCO)CCO)CC(=O)N(CCO)CCO
#inchikey OKRNLSUTBJUVKA-UHFFFAOYSA-N
#pubchem_id 95283
#mb_accession AU406401,AU406402,AU406403,AU406404,AU406405,AU406406

>ms2
216.122400 17224.000000
217.124900 2268.000000
303.191500 76376.000000
304.194100 12376.000000
305.198500 1912.000000
321.202100 198468.000000
323.208100 4528.000000

>ms2
155.069500 1452.000000
173.079900 6636.000000
174.109900 544.000000
188.127100 676.000000
198.111700 14264.000000
199.114700 1668.000000
216.122600 102144.000000
217.125700 11404.000000
218.126600 1312.000000
234.132600 2724.000000
260.147000 588.000000
303.191300 101172.000000
304.193900 14812.000000
305.196300 2260.000000
321.202000 20360.000000
322.204400 4140.000000
323.205300 792.000000

>ms2
127.073500 352.000000
129.054200 480.000000
154.085300 2516.000000
154.120500 688.000000
155.069300 7484.000000
156.073800 968.000000
156.099500 316.000000
170.116400 604.000000
172.097500 420.000000
172.131600 464.000000
173.080000 13500.000000
174.083700 1300.000000
174.111600 4216.000000
175.115500 308.000000
180.100300 440.000000
188.127600 4380.000000
189.130100 456.000000
198.111500 23712.000000
199.114800 3284.000000
216.122200 38144.000000
217.124900 4636.000000
218.128600 656.000000
234.134800 352.000000
260.148100 340.000000
303.191100 31580.000000
304.195500 5664.000000
305.196000 1000.000000
321.200800 352.000000

>ms2
114.054500 348.000000
126.090500 900.000000
127.074800 920.000000
130.086100 1020.000000
137.058100 424.000000
154.085200 5576.000000
155.069500 6060.000000
155.088600 384.000000
156.073500 728.000000
156.101000 432.000000
170.116900 764.000000
173.080000 5576.000000
174.084400 464.000000
174.111700 4500.000000
180.102300 448.000000
188.127300 6120.000000
189.130100 520.000000
198.111400 11196.000000
199.114300 1420.000000
216.122700 6780.000000
303.191100 2548.000000
304.192800 520.000000

>ms2
126.089800 768.000000
127.074300 1136.000000
130.086100 752.000000
142.085200 788.000000
144.102100 344.000000
154.084400 2364.000000
155.068800 1892.000000
156.100600 520.000000
170.115900 564.000000
173.079400 800.000000
174.111400 2160.000000
188.127200 2448.000000
189.129300 444.000000
198.111600 2332.000000
216.120800 1076.000000

>ms2
55.053800 500.000000
70.064800 5748.000000
83.049200 648.000000
88.076100 29900.000000
89.080000 1620.000000
106.087800 3784.000000
127.073900 456.000000
129.055600 836.000000
154.085800 1868.000000
154.122700 472.000000
155.070700 4480.000000
156.074300 456.000000
173.080800 9464.000000
174.112300 2524.000000
175.114400 420.000000
188.127700 3356.000000
198.112700 25616.000000
199.115800 3044.000000
216.123300 72912.000000
217.126100 8616.000000
218.128900 964.000000
234.132800 1260.000000
260.148700 460.000000
303.192300 62256.000000
304.195100 9592.000000
305.198300 1060.000000
321.202400 5760.000000

