>compound AU19628811
>parentmass 494.3299
>ionization [M+H]+
>formula C28H47NO4S
>rt 473.460000
>profile qtof
#smiles_iso CCN(CC)CCSCC(=O)O[C@@H]1C[C@@]([C@H]([C@@H]([C@@]23CC[C@H]([C@@]1([C@@H]2C(=O)CC3)C)C)C)O)(C)C=C
#smiles_can CCN(CC)CCSCC(=O)OC1CC(C(C(C23CCC(C1(C2C(=O)CC3)C)C)C)O)(C)C=C
#inchikey UURAUHCOJAIIRQ-QGLSALSOSA-N
#pubchem_id 656958
#mb_accession AU105503,AU105504,AU105505,AU105506

>ms2peaks
119.016600 39612.000000
133.101900 15408.000000
147.117700 13992.000000
149.096900 15180.000000
159.117500 11276.000000
161.133100 12004.000000
163.112700 58528.000000
173.133100 14660.000000
175.112900 14584.000000
175.148900 16224.000000
177.128300 21852.000000
187.148900 14580.000000
192.106900 2086156.000000
193.109900 136820.000000
194.102800 47796.000000
203.144300 14708.000000
211.149200 11440.000000
221.155200 20848.000000
227.180900 16152.000000
229.196600 13600.000000
245.192500 43376.000000
257.228100 15136.000000
267.212600 32456.000000
285.223600 56576.000000
286.226700 12684.000000
303.233800 27640.000000
494.334000 23840.000000

>ms2peaks
119.016800 104748.000000
119.086400 15996.000000
120.019600 5712.000000
121.101900 13384.000000
123.081200 4664.000000
123.117500 5180.000000
131.086200 8392.000000
133.101900 27060.000000
135.081000 7548.000000
135.117700 10792.000000
137.096800 5672.000000
143.086200 6064.000000
145.102000 17796.000000
147.081200 5284.000000
147.117600 25540.000000
149.096700 26620.000000
149.133200 11692.000000
157.101900 10748.000000
159.117600 22964.000000
161.097100 9012.000000
161.133400 18552.000000
163.112900 78352.000000
163.148800 8024.000000
164.115700 10304.000000
165.128300 6488.000000
169.101800 6376.000000
171.117200 12432.000000
173.133400 19440.000000
175.112700 18328.000000
175.149300 18748.000000
177.128400 26920.000000
183.117500 6960.000000
185.133500 12772.000000
187.113400 4392.000000
187.149100 17268.000000
189.128600 10088.000000
189.164800 5228.000000
191.144000 8204.000000
192.106900 870348.000000
193.109600 58428.000000
194.102900 21064.000000
197.133900 9532.000000
199.149700 9464.000000
201.165100 13104.000000
203.144200 16284.000000
205.160200 6220.000000
211.149400 12488.000000
213.165300 5700.000000
215.144600 9584.000000
215.181300 6952.000000
217.160300 6248.000000
221.155400 9492.000000
225.165100 6560.000000
227.181400 13396.000000
229.160400 8148.000000
229.196400 9244.000000
241.197100 4728.000000
245.192000 14316.000000
257.227700 6840.000000
267.212500 16096.000000
285.224100 16484.000000
303.233600 5812.000000

>ms2peaks
115.055200 2204.000000
117.070700 3564.000000
119.017200 129976.000000
119.086600 23048.000000
120.020100 6924.000000
120.089800 2860.000000
121.012800 5716.000000
121.065600 4464.000000
121.102100 18816.000000
122.105500 1996.000000
123.081200 6372.000000
123.117900 3728.000000
125.097500 3584.000000
128.062500 2312.000000
129.070400 4228.000000
130.077900 1628.000000
131.086400 14780.000000
132.089500 1988.000000
133.102300 41936.000000
134.105400 3680.000000
135.081200 10980.000000
135.117800 10832.000000
136.122300 1256.000000
137.096900 6024.000000
137.133700 2748.000000
141.070600 2172.000000
142.079100 2476.000000
143.086400 10300.000000
144.093000 2220.000000
145.066300 1384.000000
145.102200 25460.000000
146.106100 2980.000000
147.081300 6796.000000
147.117800 28040.000000
148.121400 3244.000000
149.097300 28456.000000
149.133800 8484.000000
150.101100 3600.000000
151.112800 3132.000000
155.086300 5472.000000
156.093800 3488.000000
157.102100 14256.000000
158.107800 3164.000000
159.081700 1964.000000
159.118000 28044.000000
160.121800 4148.000000
161.097000 10908.000000
161.133500 18408.000000
162.101600 1704.000000
162.138200 2920.000000
163.113200 69488.000000
163.149600 4448.000000
164.116700 8836.000000
165.128100 5696.000000
169.102200 9248.000000
170.109900 3096.000000
171.117700 15192.000000
172.122900 2432.000000
173.097000 3800.000000
173.133900 19388.000000
174.137200 2860.000000
175.112800 17072.000000
175.149200 16748.000000
176.116900 2980.000000
176.153100 2220.000000
177.128800 19612.000000
177.164600 2064.000000
178.132300 2776.000000
179.144800 2444.000000
182.110100 2188.000000
183.117900 8424.000000
184.123000 1876.000000
185.134000 13596.000000
186.138600 2380.000000
187.113600 4340.000000
187.149500 15256.000000
188.153600 2680.000000
189.128700 9152.000000
189.165300 3772.000000
190.133300 1292.000000
191.144400 6808.000000
192.107300 248880.000000
193.110200 19436.000000
193.160600 1712.000000
194.103000 7752.000000
196.126100 2008.000000
197.133900 9188.000000
198.140200 2872.000000
199.149300 7540.000000
200.155200 1808.000000
201.128900 3816.000000
201.165600 8640.000000
202.168000 1680.000000
203.144500 8768.000000
203.181400 2624.000000
205.160600 3316.000000
211.150000 8268.000000
212.156400 2824.000000
213.165100 4720.000000
215.145100 6020.000000
215.181400 3336.000000
217.160500 2928.000000
221.154600 2816.000000
225.165000 4292.000000
226.170700 1532.000000
227.181000 6496.000000
228.184900 1824.000000
229.161000 4728.000000
229.197600 4632.000000
230.167600 1720.000000
239.181400 2004.000000
241.198000 2140.000000
245.193900 3156.000000
257.226500 1868.000000
267.212900 4516.000000
285.224200 3480.000000

>ms2peaks
192.106100 61440.000000
193.109000 5196.000000
494.333900 1027088.000000
495.336900 278832.000000
496.335800 58240.000000

