>compound AU19044154
>parentmass 284.9612
>ionization [M+H]+
>formula C6H12Cl3O4P
>rt 424.890000
>profile qtof
#smiles_iso C(CCl)OP(=O)(OCCCl)OCCCl
#smiles_can C(CCl)OP(=O)(OCCCl)OCCCl
#inchikey HQUQLFOMPYWACS-UHFFFAOYSA-N
#pubchem_id 8295
#mb_accession AU246301,AU246302

>ms2
124.999000 1812.000000
160.975900 3220.000000
162.971800 592.000000
186.991500 2920.000000
188.988300 772.000000
222.968100 11712.000000
223.971500 756.000000
224.965600 5576.000000
248.982800 448.000000
284.960900 31944.000000
285.963500 2456.000000
286.958200 29080.000000

>ms2
124.999000 2300.000000
160.976100 7472.000000
162.973700 1308.000000
186.992700 688.000000
222.968400 4232.000000
223.970900 364.000000
224.964400 1892.000000
284.960300 1100.000000
286.956800 800.000000

