>compound AU19903853
>parentmass 629.3697000000001
>ionization [M+H]+
>formula C37H48N4O5
>rt 708.610000
>profile qtof
#smiles_iso CC1=C(C(=CC=C1)C)OCC(=O)N[C@@H](CC2=CC=CC=C2)[C@H](C[C@H](CC3=CC=CC=C3)NC(=O)[C@H](C(C)C)N4CCCNC4=O)O
#smiles_can CC1=C(C(=CC=C1)C)OCC(=O)NC(CC2=CC=CC=C2)C(CC(CC3=CC=CC=C3)NC(=O)C(C(C)C)N4CCCNC4=O)O
#inchikey KJHKTHWMRKYKJE-SUGCFTRWSA-N
#pubchem_id 92727
#mb_accession AU228801,AU228802,AU228803,AU228804,AU228805,AU228806

>ms2peaks
155.116800 26500.000000
183.111800 179896.000000
184.114900 15348.000000
429.252600 13972.000000
447.264200 658280.000000
448.267200 163236.000000
449.270100 20204.000000
611.358900 52172.000000
612.362200 18624.000000
629.370600 1578632.000000
630.373700 565780.000000
631.375800 97968.000000

>ms2peaks
155.117100 189068.000000
156.119900 13860.000000
183.112000 1040592.000000
184.115200 93380.000000
429.253900 183120.000000
430.256400 48468.000000
447.264700 1361608.000000
448.267800 372936.000000
449.270300 41932.000000
611.359500 75728.000000
612.362900 30844.000000
629.369900 46988.000000
630.373400 21876.000000

>ms2peaks
120.079900 87060.000000
121.083000 7616.000000
155.116800 900708.000000
156.119700 66372.000000
183.111900 1446084.000000
184.115000 124724.000000
185.116800 8860.000000
250.158200 27764.000000
310.179900 79608.000000
311.182300 18300.000000
384.231400 12352.000000
412.227000 26536.000000
413.229700 7404.000000
429.253800 605216.000000
430.256900 170424.000000
431.259300 19820.000000
447.264500 334144.000000
448.267400 104356.000000
449.270000 12660.000000
611.358600 14852.000000
612.361400 7748.000000

>ms2peaks
120.079900 202112.000000
121.083200 16968.000000
131.084200 8892.000000
135.079100 7620.000000
155.116700 1430572.000000
156.119800 107644.000000
180.100700 22300.000000
183.111800 599636.000000
184.114900 54480.000000
233.132200 9552.000000
250.158500 57980.000000
251.161300 13228.000000
310.180000 115764.000000
311.181900 28436.000000
384.231600 24976.000000
385.234400 7388.000000
412.227200 19008.000000
429.253700 125500.000000
430.256100 37436.000000
447.263500 14964.000000

>ms2peaks
117.069200 15460.000000
120.080300 363796.000000
121.083600 30748.000000
129.069200 14528.000000
131.084800 34616.000000
132.080600 13924.000000
135.079700 37772.000000
155.117500 2572040.000000
156.120400 270080.000000
172.111200 19248.000000
180.101000 39908.000000
183.112200 378532.000000
184.115400 34092.000000
233.131900 13732.000000
250.159200 119308.000000
251.162000 23272.000000
310.180400 67372.000000
311.180900 18420.000000
384.232200 23804.000000
429.254000 17832.000000

>ms2peaks
120.079900 87060.000000
121.083000 7616.000000
155.116800 900708.000000
156.119700 66372.000000
183.111900 1446084.000000
184.115000 124724.000000
185.116800 8860.000000
250.158200 27764.000000
310.179900 79608.000000
311.182300 18300.000000
384.231400 12352.000000
412.227000 26536.000000
413.229700 7404.000000
429.253800 605216.000000
430.256900 170424.000000
431.259300 19820.000000
447.264500 334144.000000
448.267400 104356.000000
449.270000 12660.000000
611.358600 14852.000000
612.361400 7748.000000

