>compound AU19235031
>parentmass 149.9775
>ionization [M+H]+
>formula C4H4ClNOS
>rt 263.742000
>profile qtof
#smiles_iso CN1C(=O)C=C(S1)Cl
#smiles_can CN1C(=O)C=C(S1)Cl
#inchikey DHNRXBZYEKSXIM-UHFFFAOYSA-N
#pubchem_id 33344
#mb_accession AU214101,AU214102,AU214103,AU214104,AU214105,AU287101,AU287102,AU287103,AU287104,AU287106

>ms2peaks
149.978400 317104.000000
150.980900 12868.000000
151.975400 86956.000000

>ms2peaks
115.009100 3304.000000
118.935700 4448.000000
120.932200 2180.000000
120.950400 2992.000000
132.950500 1576.000000
134.954200 11468.000000
136.951500 3772.000000
149.978200 155196.000000
150.981200 8000.000000
151.975200 44480.000000

>ms2peaks
115.008900 1664.000000
116.999300 392.000000
118.936000 3464.000000
120.951300 1336.000000
132.951100 412.000000
134.954400 15588.000000
136.951100 6176.000000
147.962000 384.000000
149.977900 20812.000000
151.975000 8436.000000

>ms2peaks
115.009400 424.000000
118.935500 572.000000
134.954800 4196.000000
136.950700 1948.000000
149.978100 1696.000000

>ms2peaks
134.955000 620.000000

>ms2peaks
149.976100 116268.000000
150.978300 5748.000000
151.973400 37692.000000

>ms2peaks
118.934100 1612.000000
134.952600 3772.000000
149.976500 42536.000000
150.979200 2232.000000
151.973400 14712.000000

>ms2peaks
115.007100 376.000000
118.934100 596.000000
120.950500 320.000000
134.952400 4404.000000
136.949400 2076.000000
149.975800 4756.000000
150.979200 316.000000
151.972600 1992.000000

>ms2peaks
134.952100 1652.000000
136.951500 400.000000
149.975900 644.000000

>ms2peaks
58.028200 952.000000
58.995000 412.000000
70.994400 732.000000
115.007600 1620.000000
116.996400 476.000000
118.934900 1868.000000
120.950700 616.000000
134.953200 3936.000000
136.949000 1152.000000
149.976300 77108.000000
150.979200 2528.000000
151.973200 18220.000000

