>compound AU19373638
>parentmass 177.1386
>ionization [M+H]+
>formula C11H16N2
>rt 257.820000
>profile qtof
#smiles_iso C1CN(CCN1)CC2=CC=CC=C2
#smiles_can C1CN(CCN1)CC2=CC=CC=C2
#inchikey IQXXEPZFOOTTBA-UHFFFAOYSA-N
#pubchem_id 75994
#mb_accession AU169406

>ms2peaks
56.048800 31096.000000
65.038100 8368.000000
85.075500 162024.000000
86.079200 6336.000000
91.054700 908500.000000
92.057700 73216.000000
177.139000 232020.000000
178.143000 35544.000000

