>compound AU19752637
>parentmass 343.0529
>ionization [M+H]+
>formula C12H14N4O4S2
>rt 415.488000
>profile qtof
#smiles_iso COC(=O)NC(=S)NC1=CC=CC=C1NC(=S)NC(=O)OC
#smiles_can COC(=O)NC(=S)NC1=CC=CC=C1NC(=S)NC(=O)OC
#inchikey QGHREAKMXXNCOA-UHFFFAOYSA-N
#pubchem_id 3032791
#mb_accession AU262001,AU262002,AU262003,AU262005,AU262006

>ms2peaks
151.031200 93108.000000
152.034600 7308.000000
153.027100 3392.000000
160.048200 1156.000000
192.075700 8368.000000
194.036800 4100.000000
209.036500 2844.000000
226.063700 54300.000000
227.066100 5968.000000
228.060300 2324.000000
235.993700 5596.000000
251.057400 4836.000000
268.020200 49556.000000
269.023700 7248.000000
270.017400 4308.000000
277.037900 1960.000000
279.001000 2408.000000
309.063800 1140.000000
311.026400 109976.000000
312.028000 15656.000000
313.023000 9236.000000
343.053300 214076.000000
344.055200 30740.000000
345.049300 18124.000000

>ms2peaks
134.070500 3356.000000
135.054500 3588.000000
149.014900 3372.000000
151.031500 635192.000000
152.034400 37184.000000
153.027200 19244.000000
160.049400 15584.000000
192.075500 25644.000000
194.037400 26732.000000
195.040800 3328.000000
209.037200 3432.000000
219.032800 11416.000000
226.063800 14500.000000
235.993600 28084.000000
236.996000 3468.000000
245.012000 3264.000000
251.058400 10488.000000
268.020400 27612.000000
269.023100 3928.000000
277.038200 9080.000000
278.999600 8792.000000
311.026300 28276.000000
312.028700 4608.000000

>ms2peaks
118.051600 2836.000000
119.058100 1256.000000
134.070500 2460.000000
135.054400 3188.000000
149.015600 6900.000000
151.031500 248412.000000
152.034100 21288.000000
153.027200 8456.000000
160.049300 15288.000000
161.051600 1624.000000
177.011200 2484.000000
190.042500 1268.000000
192.075600 5096.000000
192.988400 4020.000000
194.037300 2980.000000
219.031900 3564.000000
235.994100 3380.000000
245.013500 1500.000000

>ms2peaks
118.051600 21628.000000
119.059000 7688.000000
122.005400 3256.000000
132.054700 4356.000000
133.062000 1060.000000
134.005100 1056.000000
134.070300 2352.000000
135.012200 1884.000000
135.054200 2352.000000
149.015400 20816.000000
150.021900 3768.000000
151.031400 200944.000000
152.033800 16960.000000
153.027100 8684.000000
160.049200 30900.000000
161.052500 3576.000000
175.018700 2452.000000
176.025100 1028.000000
177.010700 2348.000000
192.987000 3764.000000
202.006800 1116.000000

>ms2peaks
74.005400 13596.000000
76.039000 8952.000000
85.969300 10648.000000
109.076000 3168.000000
117.995600 5488.000000
118.051500 2076.000000
134.070000 2940.000000
135.053800 5268.000000
149.015300 10072.000000
151.031300 377356.000000
152.034300 37356.000000
153.027100 18860.000000
160.049200 27828.000000
161.052100 2900.000000
177.010500 3352.000000
192.075500 17992.000000
192.986800 6372.000000
193.079700 1972.000000
194.036900 13468.000000
219.032600 6876.000000
226.062900 2888.000000
235.993100 16736.000000
236.997200 1988.000000
245.011600 2416.000000
251.060400 3888.000000
268.020100 7916.000000
277.038000 3520.000000
279.000400 3192.000000
311.025400 6096.000000

