>compound AU20929349
>parentmass 279.0933
>ionization [M+H]+
>formula C18H15OP
>rt 535.890000
>profile qtof
#smiles_iso C1=CC=C(C=C1)P(=O)(C2=CC=CC=C2)C3=CC=CC=C3
#smiles_can C1=CC=C(C=C1)P(=O)(C2=CC=CC=C2)C3=CC=CC=C3
#inchikey FIQMHBFVRAXMOP-UHFFFAOYSA-N
#pubchem_id 13097
#mb_accession AU247201,AU247202,AU247203,AU247204,AU247205,AU247206

>ms2peaks
279.093500 910948.000000
280.096800 156600.000000
281.099700 16552.000000

>ms2peaks
201.045600 39752.000000
202.049000 4984.000000
279.093100 793152.000000
280.096400 133884.000000
281.099400 12428.000000

>ms2peaks
128.062000 544.000000
154.078600 740.000000
171.035400 860.000000
173.050400 5492.000000
174.054200 636.000000
183.037000 968.000000
201.045500 47856.000000
202.048900 7000.000000
203.053800 524.000000
279.093000 60288.000000
280.095900 11272.000000
281.099700 820.000000

>ms2peaks
122.997800 1052.000000
125.014000 420.000000
128.060800 2320.000000
129.068900 2920.000000
133.019100 1508.000000
141.068700 1100.000000
147.034300 932.000000
153.069200 1056.000000
154.076900 3728.000000
155.081100 584.000000
170.027400 440.000000
171.035000 6252.000000
173.050300 17376.000000
174.054900 3244.000000
183.034200 4788.000000
184.037600 556.000000
199.029800 632.000000
201.045500 37804.000000
202.048500 5260.000000
279.092200 4768.000000
280.095800 1196.000000

>ms2peaks
122.999300 1236.000000
125.014000 748.000000
128.061400 5408.000000
129.069300 3616.000000
130.073700 452.000000
133.019400 3328.000000
141.068100 1612.000000
142.072200 316.000000
145.018300 392.000000
147.035000 1512.000000
152.060600 1592.000000
153.068400 2176.000000
154.076200 5212.000000
155.079800 712.000000
157.018400 436.000000
170.027200 1136.000000
171.035100 7860.000000
172.039700 1128.000000
173.050400 10320.000000
174.053800 1548.000000
183.034200 6960.000000
184.038100 936.000000
199.029300 640.000000
201.045700 9240.000000
202.049900 1044.000000
279.093100 316.000000

>ms2peaks
173.050400 2844.000000
201.045500 19940.000000
202.048800 3196.000000
279.093000 121064.000000
280.096200 20156.000000
281.098500 2008.000000

