>compound AU20608233
>parentmass 271.0601
>ionization [M+H]+
>formula C15H10O5
>rt 461.590000
>profile qtof
#smiles_iso C1=CC(=CC=C1C2=COC3=CC(=CC(=C3C2=O)O)O)O
#smiles_can C1=CC(=CC=C1C2=COC3=CC(=CC(=C3C2=O)O)O)O
#inchikey TZBJGXHYKVUXJN-UHFFFAOYSA-N
#pubchem_id 5280961
#mb_accession AU241901,AU241902,AU241903,AU241904,AU241905,AU241906

>ms2
223.062500 544.000000
271.059500 45712.000000
272.062900 7112.000000

>ms2
149.022100 412.000000
153.017400 712.000000
215.069600 1188.000000
243.064800 1524.000000
253.049800 304.000000
271.060000 50648.000000
272.062400 7548.000000

>ms2
121.026000 300.000000
131.049100 332.000000
135.042400 320.000000
137.021300 356.000000
141.067300 700.000000
145.027800 1100.000000
149.021600 1836.000000
153.016600 4208.000000
154.021100 360.000000
159.043300 724.000000
159.077800 344.000000
165.015800 496.000000
169.063300 836.000000
183.026800 392.000000
183.044600 312.000000
187.034500 360.000000
187.073200 508.000000
197.059600 1304.000000
201.051300 348.000000
215.068400 6084.000000
216.070500 1052.000000
225.053900 404.000000
243.064200 4176.000000
244.066100 996.000000
253.049100 2120.000000
254.050800 420.000000
271.058900 16820.000000
272.064100 3512.000000

>ms2
115.053200 348.000000
119.048500 468.000000
121.028300 404.000000
129.070200 308.000000
131.048100 648.000000
131.084600 300.000000
135.042500 704.000000
137.022600 320.000000
141.068300 1664.000000
145.027500 732.000000
145.063000 632.000000
149.022600 1004.000000
150.027900 312.000000
153.017100 6832.000000
154.019600 548.000000
155.047300 456.000000
159.042900 908.000000
159.078000 460.000000
160.048500 308.000000
163.037600 320.000000
165.016600 536.000000
169.063600 2512.000000
173.059600 584.000000
178.023500 304.000000
183.041500 388.000000
184.048600 392.000000
187.074200 736.000000
197.058400 2196.000000
200.043100 736.000000
213.055000 344.000000
215.068600 3580.000000
216.072100 756.000000
225.054200 460.000000
243.063700 2164.000000
253.047800 1288.000000
254.052100 300.000000
271.059100 2492.000000
272.064700 416.000000

>ms2
115.053500 1112.000000
121.027600 336.000000
127.053300 352.000000
128.061800 440.000000
131.049000 576.000000
139.052500 504.000000
141.068800 1696.000000
144.055200 512.000000
145.064100 676.000000
153.017100 3444.000000
154.019100 484.000000
155.048500 580.000000
168.057000 444.000000
169.063300 1012.000000
183.045100 332.000000
185.059300 372.000000
197.058600 1288.000000
200.045500 392.000000
215.068500 428.000000

>ms2
119.048300 332.000000
131.048000 424.000000
145.025800 536.000000
149.022800 1264.000000
153.017500 3472.000000
159.043000 544.000000
169.063200 540.000000
173.058600 492.000000
187.034600 300.000000
197.060400 848.000000
201.055200 368.000000
215.070000 4372.000000
216.072800 788.000000
225.056700 356.000000
243.064900 2988.000000
244.066300 748.000000
253.047600 1356.000000
254.052600 400.000000
271.059800 44644.000000
272.063200 5944.000000

