>compound AU20137824
>parentmass 152.01649999999998
>ionization [M+H]+
>formula C7H5NOS
>rt 308.020000
>profile qtof
#smiles_iso C1=CC=C2C(=C1)C(=O)NS2
#smiles_can C1=CC=C2C(=C1)C(=O)NS2
#inchikey DMSMPAJRVJJAGA-UHFFFAOYSA-N
#pubchem_id 17520
#mb_accession AU286201,AU286202,AU286203,AU286204,AU286205,AU286206

>ms2peaks
134.004700 2552.000000
152.015400 337340.000000
153.018200 21012.000000
154.011600 12716.000000

>ms2peaks
109.010800 1844.000000
124.020100 1472.000000
134.005200 25844.000000
135.008400 2208.000000
135.998900 2036.000000
151.008200 1020.000000
152.015500 201964.000000
153.018300 14600.000000
154.011500 7988.000000

>ms2peaks
109.009800 436.000000
124.022100 612.000000
132.996600 2336.000000
134.005000 31792.000000
135.007200 2720.000000
135.998100 2896.000000
151.006300 508.000000
152.015100 34380.000000
153.018200 3676.000000
154.011600 1968.000000

>ms2peaks
132.996800 2264.000000
134.004600 8636.000000
135.008000 880.000000
135.997900 760.000000
152.014800 3836.000000

>ms2peaks
132.996700 1280.000000
134.003700 1688.000000

>ms2peaks
80.049300 2168.000000
105.035100 3360.000000
109.012100 6636.000000
124.021900 980.000000
134.005300 25868.000000
135.007900 1952.000000
135.998300 984.000000
151.008400 1028.000000
152.015800 187968.000000
153.018900 18032.000000
154.012500 7828.000000

