>compound AU20794955
>parentmass 282.1601
>ionization [M+H]+
>formula C17H19N3O
>rt 274.800000
>profile qtof
#smiles_iso CN1CCN2C(C1)C3=CC=CC=C3CC4=C2N=CC(=C4)O
#smiles_can CN1CCN2C(C1)C3=CC=CC=C3CC4=C2N=CC(=C4)O
#inchikey DAWYIZBOUQIVNX-UHFFFAOYSA-N
#pubchem_id 11500131
#mb_accession AU155501,AU155502,AU155503,AU155504,AU155505

>ms2peaks
211.086000 10860.000000
225.101000 2284.000000
239.116600 956.000000
251.117000 948.000000
282.160100 1317208.000000
283.163300 195288.000000
284.166100 15188.000000

>ms2peaks
211.085900 315652.000000
212.088600 41824.000000
225.101400 51396.000000
226.103900 7728.000000
239.117100 18968.000000
251.117200 26356.000000
252.120800 4948.000000
282.160100 767140.000000
283.163300 125372.000000
284.166100 10340.000000

>ms2peaks
144.079700 5948.000000
149.069600 6612.000000
166.064000 6800.000000
211.086000 824044.000000
212.089000 93884.000000
213.091200 4932.000000
223.085300 5184.000000
225.101800 124776.000000
226.104600 16080.000000
236.093800 5488.000000
239.117200 30656.000000
240.119700 5992.000000
251.117500 52948.000000
253.133100 4460.000000
282.159700 59312.000000

>ms2peaks
115.053400 6828.000000
129.068700 4584.000000
130.064200 4696.000000
131.071300 3892.000000
141.069100 4272.000000
147.054100 4320.000000
149.070200 7196.000000
156.079500 5064.000000
168.078900 3888.000000
169.074600 3964.000000
181.075200 4144.000000
183.090200 7268.000000
184.073800 5364.000000
194.082800 4432.000000
208.074400 3944.000000
211.086100 692128.000000
212.089100 77368.000000
213.092100 4616.000000
222.077700 4424.000000
224.092900 5312.000000
225.101700 63504.000000
226.104500 9808.000000
237.100800 4464.000000
239.117200 30656.000000
251.117500 52948.000000

>ms2peaks
115.053500 7964.000000
116.049200 5756.000000
128.061100 5664.000000
129.068900 6968.000000
130.064200 9048.000000
131.071500 4928.000000
133.038600 2428.000000
134.046800 2404.000000
135.054800 1924.000000
140.049300 2980.000000
142.063900 2496.000000
143.071300 2544.000000
145.063200 1552.000000
145.085300 1836.000000
147.054000 5304.000000
149.069500 3360.000000
151.049500 2908.000000
152.061000 3664.000000
153.068300 4552.000000
155.059900 2304.000000
155.070700 3104.000000
157.083800 2152.000000
165.068200 1652.000000
168.077200 6352.000000
169.075100 5488.000000
170.095500 2500.000000
178.064700 1664.000000
180.079700 5132.000000
182.059600 3696.000000
192.066900 3616.000000
193.074300 5024.000000
194.059500 2716.000000
195.089300 2856.000000
197.078400 5020.000000
198.090100 5452.000000
206.082700 1456.000000
207.090100 2796.000000
208.073800 3616.000000
208.097900 1584.000000
211.085800 286092.000000
212.089100 34248.000000
213.092000 1704.000000
221.070500 6100.000000
222.077300 3804.000000
224.092300 4568.000000
225.101500 15436.000000
226.105300 2728.000000
234.078400 2936.000000
235.086000 19020.000000
236.090400 4752.000000
237.101400 2816.000000
239.117700 2116.000000
249.101600 3244.000000
250.097200 2288.000000
251.117100 2228.000000

