>compound AU21479225
>parentmass 370.1649
>ionization [M+H]+
>formula C21H23NO5
>rt 288.876000
>profile qtof
#smiles_iso CC(=O)O[C@H]1C=C[C@H]2[C@H]3CC4=C5[C@]2([C@H]1OC5=C(C=C4)OC(=O)C)CCN3C
#smiles_can CC(=O)OC1C=CC2C3CC4=C5C2(C1OC5=C(C=C4)OC(=O)C)CCN3C
#inchikey GVGLGOZIDCSQPN-PVHGPHFFSA-N
#pubchem_id 5462328
#mb_accession AU153301,AU153302,AU153303,AU153304,AU153305

>ms2
370.167800 84848.000000
371.170000 19868.000000
372.172300 2740.000000

>ms2
211.075000 524.000000
268.133400 684.000000
310.144200 1256.000000
328.155500 1376.000000
370.167800 101104.000000
371.170400 25320.000000
372.171900 3236.000000

>ms2
161.060300 384.000000
165.070400 948.000000
181.064500 340.000000
183.081000 948.000000
187.076700 356.000000
191.087900 932.000000
193.065900 2912.000000
194.072000 372.000000
203.071800 456.000000
207.082700 368.000000
209.060300 1168.000000
209.097500 344.000000
211.076000 5204.000000
212.081000 1076.000000
219.081500 1208.000000
220.083000 360.000000
221.099400 348.000000
225.093200 456.000000
227.073100 364.000000
229.086200 1080.000000
237.092900 2732.000000
238.096400 328.000000
239.104300 444.000000
253.084800 344.000000
255.102500 576.000000
266.121700 696.000000
267.128100 472.000000
268.134200 8008.000000
269.136800 1016.000000
286.143800 572.000000
310.144300 3580.000000
311.149400 912.000000
328.156000 7316.000000
329.158500 1248.000000
370.167500 47836.000000
371.170100 13920.000000

>ms2
145.062200 428.000000
152.061300 440.000000
153.070100 496.000000
155.086700 404.000000
157.064500 380.000000
161.060000 528.000000
165.070200 3564.000000
166.075000 752.000000
173.061700 680.000000
178.083900 336.000000
179.085400 608.000000
181.063300 1660.000000
183.080200 2744.000000
184.084600 344.000000
185.061200 796.000000
187.074300 1068.000000
190.077900 432.000000
191.085400 3612.000000
192.090000 620.000000
193.064400 5284.000000
193.101100 444.000000
194.070000 1028.000000
199.076800 388.000000
201.092900 2076.000000
202.089300 376.000000
207.080000 832.000000
208.091000 320.000000
209.060400 3460.000000
209.097900 1068.000000
210.063900 596.000000
211.075800 9100.000000
212.080900 1528.000000
218.075700 308.000000
219.080900 2820.000000
221.094300 700.000000
223.072600 444.000000
225.090500 732.000000
227.071600 704.000000
227.107900 300.000000
229.086700 2244.000000
229.107800 304.000000
230.088900 476.000000
237.092100 2492.000000
238.093500 712.000000
239.107300 856.000000
240.104200 740.000000
250.124700 448.000000
253.086500 384.000000
253.109400 604.000000
255.101000 932.000000
266.118500 476.000000
267.129200 416.000000
268.133500 8768.000000
269.138400 1732.000000
286.144700 1084.000000
310.145000 1448.000000
311.150800 412.000000
328.155400 5196.000000
329.158000 1016.000000
370.167300 8156.000000
371.169900 2220.000000

>ms2
117.069400 304.000000
141.069900 576.000000
145.063800 708.000000
147.043200 416.000000
152.062000 528.000000
153.069700 2056.000000
154.071800 432.000000
155.086300 1448.000000
157.064500 816.000000
159.081500 308.000000
161.060100 368.000000
165.069900 9120.000000
166.074500 1396.000000
167.081100 400.000000
168.056200 500.000000
169.064700 744.000000
171.043800 324.000000
173.057600 768.000000
174.064200 312.000000
178.080100 612.000000
179.085300 956.000000
181.064900 4172.000000
181.102600 492.000000
182.068800 768.000000
183.080100 3000.000000
185.060500 800.000000
186.065500 504.000000
187.074900 860.000000
189.071300 412.000000
190.076500 932.000000
191.085100 5152.000000
192.088300 720.000000
193.065500 3720.000000
193.102600 500.000000
194.071300 960.000000
195.080100 324.000000
197.058400 416.000000
199.076200 832.000000
201.090500 1892.000000
202.080600 460.000000
203.086800 416.000000
207.078600 724.000000
208.051400 380.000000
209.060000 3852.000000
209.094000 1060.000000
211.075500 4412.000000
212.081700 980.000000
218.072800 312.000000
219.081000 2432.000000
220.086100 492.000000
221.097200 416.000000
222.068800 340.000000
222.128200 508.000000
225.086500 452.000000
227.071700 1396.000000
229.085600 1228.000000
237.091900 1364.000000
238.096000 300.000000
239.104700 360.000000
240.101900 312.000000
240.139500 392.000000
250.124000 336.000000
252.100600 424.000000
253.110200 308.000000
254.115100 304.000000
266.120400 536.000000
268.132600 3040.000000
269.137900 832.000000
286.145300 432.000000
328.155200 1248.000000
329.158500 516.000000
370.165200 424.000000

