>compound AU21851088
>parentmass 264.079
>ionization [M+H]+
>formula C9H11F2N3O4
>rt 141.000000
>profile qtof
#smiles_iso C1=CN(C(=O)N=C1N)[C@H]2C([C@@H]([C@H](O2)CO)O)(F)F
#smiles_can C1=CN(C(=O)N=C1N)C2C(C(C(O2)CO)O)(F)F
#inchikey SDUQYLNIPVEERB-QPPQHZFASA-N
#pubchem_id 60750
#mb_accession AU210601,AU210602

>ms2
112.050400 124.000000
163.001900 96.000000
264.079200 1846.000000

>ms2
112.050400 210.000000
144.990800 236.000000
163.001900 161.000000

