>compound AU21360752
>parentmass 131.1291
>ionization [M+H]+
>formula C5H14N4
>rt 259.080000
>profile qtof
#smiles_iso C(CCN=C(N)N)CN
#smiles_can C(CCN=C(N)N)CN
#inchikey QYPPJABKJHAVHS-UHFFFAOYSA-N
#pubchem_id 199
#mb_accession AU510701

>ms2
114.102900 2640.000000
131.129100 14872.000000
132.132200 984.000000

