>compound AU21663403
>parentmass 315.1623
>ionization [M+H]+
>formula C19H23ClN2
>rt 554.640000
>profile qtof
#smiles_iso CN(C)CCCN1C2=CC=CC=C2CCC3=C1C=C(C=C3)Cl
#smiles_can CN(C)CCCN1C2=CC=CC=C2CCC3=C1C=C(C=C3)Cl
#inchikey GDLIGKIOYRNHDA-UHFFFAOYSA-N
#pubchem_id 2801
#mb_accession AU152706

>ms2peaks
58.064400 842712.000000
59.067600 22996.000000
86.096600 1093732.000000
87.099200 71268.000000
220.111500 16048.000000
227.049200 29452.000000
229.046200 5804.000000
235.135300 22340.000000
242.073200 119436.000000
243.076400 22356.000000
244.070100 36416.000000
270.104600 54516.000000
271.107400 10396.000000
272.101600 16540.000000
315.163300 104648.000000
316.165800 28216.000000
317.160100 36976.000000

