>compound AU21479688
>parentmass 191.04510000000002
>ionization [M+H]+
>formula C9H6N2O3
>rt 337.890000
>profile qtof
#smiles_iso C1=CC=C2C(=C1)C(=CC=[N+]2[O-])[N+](=O)[O-]
#smiles_can C1=CC=C2C(=C1)C(=CC=[N+]2[O-])[N+](=O)[O-]
#inchikey YHQDZJICGQWFHK-UHFFFAOYSA-N
#pubchem_id 5955
#mb_accession AU251801,AU251802,AU251803,AU251804,AU251805,AU251806

>ms2
128.047400 856.000000
144.042900 572.000000
145.050900 6040.000000
146.054800 812.000000
149.044800 712.000000
161.045500 10376.000000
162.014900 556.000000
162.047500 1016.000000
177.040200 2668.000000
191.044100 72548.000000
192.046800 6864.000000

>ms2
116.048400 1988.000000
117.051300 304.000000
128.048100 12420.000000
129.051900 1180.000000
132.042800 2224.000000
133.049400 972.000000
144.042400 2016.000000
145.050500 28664.000000
146.055100 3156.000000
149.045600 2796.000000
160.037600 556.000000
161.045600 10184.000000
162.016200 1652.000000
162.049800 716.000000
177.040300 12344.000000
178.044700 1348.000000
191.043600 7980.000000
192.046500 744.000000

>ms2
116.048500 2336.000000
128.048300 30032.000000
129.051200 3292.000000
132.042200 548.000000
144.044600 388.000000
145.050900 14084.000000
149.044900 728.000000
161.045800 644.000000
162.016500 540.000000
177.040600 3772.000000
178.045700 504.000000

>ms2
116.048300 688.000000
128.048400 15080.000000
129.051600 2408.000000
145.051600 1016.000000
177.044700 652.000000

>ms2
128.048100 4256.000000
129.051600 496.000000

>ms2
116.048900 2284.000000
128.048700 14712.000000
129.052000 1496.000000
132.043700 1760.000000
133.051000 916.000000
144.044100 1268.000000
145.051300 12048.000000
149.046600 3048.000000
160.037200 1004.000000
161.046400 8296.000000
162.017500 916.000000
162.050700 1096.000000
177.041300 26724.000000
178.045100 1936.000000
191.044800 12060.000000
192.045800 864.000000

