>compound AU22330355
>parentmass 382.0832
>ionization [M+H]+
>formula C17H14F3N3O2S
>rt 615.790000
>profile qtof
#smiles_iso CC1=CC=C(C=C1)C2=CC(=NN2C3=CC=C(C=C3)S(=O)(=O)N)C(F)(F)F
#smiles_can CC1=CC=C(C=C1)C2=CC(=NN2C3=CC=C(C=C3)S(=O)(=O)N)C(F)(F)F
#inchikey RZEKVGVHFLEQIL-UHFFFAOYSA-N
#pubchem_id 2662
#mb_accession AU235601,AU235602,AU235603,AU235604,AU235605,AU235606

>ms2
382.083100 129316.000000
383.085000 29432.000000
384.082600 7148.000000

>ms2
300.089500 612.000000
302.101100 636.000000
303.109300 1672.000000
332.077700 616.000000
362.077500 2480.000000
363.077900 504.000000
382.083200 92544.000000
383.085700 20648.000000
384.082300 6012.000000

>ms2
184.035700 612.000000
185.043600 856.000000
207.102800 1508.000000
208.104400 420.000000
233.106600 968.000000
261.077900 500.000000
262.090300 640.000000
263.096500 756.000000
267.073900 456.000000
275.078500 1100.000000
281.089000 1816.000000
282.095800 2956.000000
283.103100 3144.000000
284.106900 448.000000
286.075800 720.000000
287.079700 2732.000000
288.080500 688.000000
300.086200 4716.000000
301.092800 6552.000000
302.101600 10892.000000
303.109300 16856.000000
304.111200 2824.000000
311.070600 592.000000
317.088900 1152.000000
318.093400 432.000000
332.075900 5196.000000
333.077400 1236.000000
334.092800 744.000000
342.070200 1860.000000
343.075000 584.000000
362.076300 30176.000000
363.079100 7164.000000
364.074100 2168.000000
382.082700 81760.000000
383.084700 17992.000000
384.080600 6064.000000

>ms2
115.052600 960.000000
116.059900 320.000000
117.070000 668.000000
118.064900 352.000000
130.064600 552.000000
131.072200 724.000000
153.051800 432.000000
165.037600 840.000000
166.044800 356.000000
180.060400 876.000000
184.015700 464.000000
184.037200 784.000000
185.043700 1984.000000
187.048000 332.000000
191.072800 368.000000
193.088400 400.000000
200.068100 352.000000
201.063100 312.000000
206.095700 1220.000000
207.102100 2976.000000
208.108300 1404.000000
218.081900 336.000000
221.019900 416.000000
230.086100 312.000000
231.091300 516.000000
232.097900 1064.000000
233.106000 3956.000000
234.110200 744.000000
235.079600 476.000000
236.087800 456.000000
243.089900 424.000000
247.065100 456.000000
254.078600 396.000000
255.077900 940.000000
261.081600 1068.000000
262.087600 1736.000000
263.096300 2792.000000
264.095500 408.000000
266.070600 420.000000
267.072600 2684.000000
268.076600 912.000000
272.061000 520.000000
273.063700 588.000000
275.079500 1664.000000
276.080000 340.000000
279.091500 508.000000
280.082400 360.000000
281.087300 6476.000000
282.094700 10904.000000
283.102400 6940.000000
284.106000 1336.000000
286.074300 912.000000
287.079500 4508.000000
288.081900 980.000000
289.091300 316.000000
294.076400 420.000000
300.087100 4356.000000
301.093800 10896.000000
302.101300 8172.000000
303.109100 9588.000000
304.113000 1484.000000
311.069700 452.000000
312.075700 680.000000
313.077300 456.000000
314.084600 2332.000000
315.087900 496.000000
317.095000 576.000000
332.076700 4576.000000
333.078600 820.000000
334.091600 1756.000000
335.067000 396.000000
335.093500 620.000000
342.073500 2012.000000
343.074200 324.000000
362.076700 27408.000000
363.078900 7772.000000
364.073000 1496.000000
382.082200 7444.000000
383.085300 1640.000000

>ms2
115.053800 1316.000000
116.060200 340.000000
118.065800 328.000000
125.019300 740.000000
130.063100 2072.000000
131.071400 1296.000000
133.044100 888.000000
134.038800 580.000000
138.026300 372.000000
138.982900 780.000000
140.047100 320.000000
142.062800 340.000000
153.050400 1080.000000
155.059200 328.000000
160.054600 632.000000
164.030300 364.000000
164.048900 340.000000
165.037300 6184.000000
165.069200 636.000000
166.045300 1652.000000
172.037400 436.000000
177.050400 472.000000
178.064000 632.000000
178.077600 492.000000
179.052300 352.000000
179.085200 1412.000000
180.061200 2308.000000
181.065400 412.000000
182.043900 420.000000
184.015400 1476.000000
184.035900 964.000000
185.043700 1888.000000
186.042400 440.000000
190.064300 784.000000
191.070800 1104.000000
192.078500 652.000000
193.087600 1044.000000
194.093300 364.000000
198.051700 332.000000
203.074300 332.000000
204.079200 1240.000000
205.085800 772.000000
206.095200 3464.000000
207.103900 5444.000000
208.109200 1376.000000
210.087600 396.000000
212.042800 588.000000
214.064900 448.000000
216.079500 440.000000
217.086300 632.000000
218.083300 1596.000000
219.087300 432.000000
221.018600 1612.000000
221.073500 444.000000
225.063800 496.000000
229.074700 400.000000
230.083500 644.000000
231.091500 1952.000000
232.098000 3216.000000
233.072800 432.000000
233.106600 7684.000000
234.069600 608.000000
234.111500 1404.000000
235.079900 1336.000000
236.085000 1388.000000
237.088400 428.000000
238.059800 604.000000
240.061800 668.000000
241.071000 400.000000
242.082700 420.000000
243.091600 772.000000
244.091500 336.000000
246.058700 464.000000
247.064700 1796.000000
248.066800 320.000000
248.076600 436.000000
249.102000 536.000000
252.080900 432.000000
254.080800 532.000000
255.072900 1584.000000
256.077300 620.000000
256.088000 544.000000
260.072700 420.000000
261.081800 3712.000000
262.089800 2800.000000
263.097000 4696.000000
264.100200 1196.000000
265.056700 380.000000
266.066300 568.000000
267.072200 9016.000000
268.074700 2216.000000
269.084500 400.000000
272.062900 484.000000
273.071100 852.000000
275.077900 852.000000
275.093500 304.000000
279.095800 724.000000
280.080900 1484.000000
281.088000 21608.000000
282.094600 18780.000000
283.100700 6356.000000
284.070700 316.000000
284.104600 1076.000000
285.069100 724.000000
285.082800 352.000000
286.073800 1180.000000
287.077400 3576.000000
288.082100 720.000000
294.078800 896.000000
299.063700 668.000000
299.075100 688.000000
299.102400 516.000000
300.087300 3556.000000
301.093300 11612.000000
302.100200 5264.000000
303.107900 2564.000000
312.069400 1208.000000
313.079700 740.000000
314.084700 6020.000000
315.088800 1284.000000
317.088400 372.000000
332.076400 2896.000000
333.080900 504.000000
334.090700 1268.000000
335.099400 336.000000
342.070700 1068.000000
343.069900 400.000000
362.076600 8724.000000
363.080000 2816.000000
364.073600 648.000000
382.080600 432.000000

>ms2
184.036600 680.000000
185.043800 632.000000
207.103900 1412.000000
208.109900 760.000000
232.098800 592.000000
233.105900 1048.000000
263.095900 1276.000000
267.072600 792.000000
275.080600 1400.000000
281.089800 1904.000000
282.095300 3716.000000
283.103100 3480.000000
284.105000 552.000000
287.079000 2492.000000
288.081200 556.000000
300.086500 2608.000000
301.094300 6632.000000
302.101700 7452.000000
303.109500 12052.000000
304.114300 2140.000000
317.091900 660.000000
332.077900 5364.000000
333.080700 1316.000000
334.091000 1512.000000
342.071000 1052.000000
343.071400 688.000000
362.077300 27216.000000
363.080100 5384.000000
364.073600 1864.000000
382.083700 106996.000000
383.085900 21548.000000
384.083800 5340.000000

