>compound AU22781202
>parentmass 202.08539999999996
>ionization [M+H]+
>formula C7H12ClN5
>rt 445.290000
>profile qtof
#smiles_iso CC(C)(C)NC1=NC(=NC(=N1)N)Cl
#smiles_can CC(C)(C)NC1=NC(=NC(=N1)N)Cl
#inchikey LMKQNTMFZLAJDV-UHFFFAOYSA-N
#pubchem_id 108201
#mb_accession AU253801,AU253802,AU253803,AU253804,AU253805,AU253806

>ms2
146.022100 227452.000000
147.024100 9544.000000
148.019000 58152.000000
202.085100 433924.000000
203.087400 36316.000000
204.082100 125200.000000

>ms2
146.022000 465468.000000
148.018900 133132.000000
202.084400 23196.000000
203.087700 2516.000000
204.081800 7424.000000

>ms2
110.044500 904.000000
146.022000 174652.000000
147.023200 8296.000000
148.018600 55568.000000

>ms2
146.021400 28800.000000
148.018300 9400.000000

>ms2
146.021100 2532.000000
148.018800 1096.000000

>ms2
57.069200 6164.000000
68.023900 8124.000000
79.005700 11948.000000
81.002500 2528.000000
104.001700 5256.000000
110.046600 4208.000000
146.022800 273660.000000
147.024700 11704.000000
148.019900 74716.000000
202.085700 31292.000000
203.089200 2408.000000
204.081800 7556.000000

