>compound AU22652651
>parentmass 310.1413
>ionization [M+H]+
>formula C17H18F3NO
>rt 516.000000
>profile qtof
#smiles_iso CNCCC(C1=CC=CC=C1)OC2=CC=C(C=C2)C(F)(F)F
#smiles_can CNCCC(C1=CC=CC=C1)OC2=CC=C(C=C2)C(F)(F)F
#inchikey RTHCYVBBDHJXIQ-UHFFFAOYSA-N
#pubchem_id 3386
#mb_accession AU150901,AU150902,AU150903,AU150904,AU150905

>ms2
148.111400 55648.000000
149.115000 5744.000000
265.159000 12144.000000
310.142100 503680.000000
311.144600 68096.000000
312.146700 6452.000000

>ms2
117.069000 300.000000
148.109400 1472.000000
149.115000 412.000000
159.115800 1296.000000
187.110400 812.000000
195.115100 1064.000000
196.120300 316.000000
205.102000 304.000000
219.114800 1660.000000
220.121000 436.000000
223.110500 3608.000000
224.115100 844.000000
232.125200 328.000000
247.147600 2572.000000
248.149400 368.000000
265.157700 34332.000000
310.141500 1644.000000
311.144300 304.000000

>ms2
115.053000 304.000000
117.069000 804.000000
129.068900 704.000000
143.084200 364.000000
145.062700 616.000000
159.079700 428.000000
159.115700 1452.000000
167.085200 652.000000
187.109300 532.000000
195.115600 2868.000000
196.119700 436.000000
204.091700 620.000000
205.099600 992.000000
207.116400 588.000000
218.109100 840.000000
219.116100 3520.000000
220.119700 512.000000
223.111200 3268.000000
224.115400 704.000000
236.119300 344.000000
247.148000 860.000000
248.153000 332.000000
265.157400 3052.000000

>ms2
115.053300 736.000000
117.069600 980.000000
129.068600 780.000000
141.070600 316.000000
145.023600 308.000000
145.063000 360.000000
159.117700 376.000000
165.069200 344.000000
167.084800 904.000000
194.072600 584.000000
195.118200 736.000000
203.084000 440.000000
204.092600 1752.000000
205.099000 784.000000
217.100700 600.000000
218.107500 1360.000000
219.115600 1648.000000
220.119700 324.000000
223.110200 752.000000
236.117400 388.000000

>ms2
115.053700 740.000000
117.069400 1148.000000
128.060900 584.000000
129.070200 584.000000
145.026100 704.000000
152.059900 368.000000
165.068700 692.000000
166.076600 348.000000
167.084700 1168.000000
178.076500 544.000000
183.058200 332.000000
190.077600 372.000000
191.084900 340.000000
194.071000 1388.000000
202.077500 724.000000
203.084800 1160.000000
204.092300 2064.000000
205.097900 544.000000
217.100100 948.000000
218.107800 840.000000
219.115200 380.000000

