>compound AU22624634
>parentmass 232.1332
>ionization [M+H]+
>formula C14H17NO2
>rt 588.910000
>profile qtof
#smiles_iso CCN(CC)C1=CC2=C(C=C1)C(=CC(=O)O2)C
#smiles_can CCN(CC)C1=CC2=C(C=C1)C(=CC(=O)O2)C
#inchikey AFYCEAFSNDLKSX-UHFFFAOYSA-N
#pubchem_id 7050
#mb_accession AU248301,AU248302,AU248303,AU248304,AU248305,AU248306

>ms2
232.133000 1112756.000000
233.136200 138656.000000
234.138400 14652.000000

>ms2
176.142800 16428.000000
188.069800 32804.000000
188.142500 15552.000000
202.085900 8952.000000
203.092700 25228.000000
204.100200 11724.000000
204.137600 12324.000000
232.132900 1541856.000000
233.136200 183816.000000
234.139200 18012.000000

>ms2
115.054900 1152.000000
117.055200 464.000000
117.068700 708.000000
118.062700 764.000000
120.078200 304.000000
130.064200 856.000000
131.047900 840.000000
131.071500 840.000000
132.055900 1024.000000
132.079800 4376.000000
133.062600 384.000000
133.085800 368.000000
134.058800 376.000000
134.094800 780.000000
143.072100 364.000000
144.079600 7040.000000
145.084900 1188.000000
146.060900 620.000000
146.095300 1748.000000
147.070200 332.000000
147.101800 544.000000
148.074800 340.000000
148.111600 1396.000000
157.085600 408.000000
158.096100 2040.000000
159.103400 1508.000000
160.051800 696.000000
160.075100 4504.000000
160.110900 2268.000000
161.058100 616.000000
161.080200 892.000000
161.118100 1196.000000
162.125600 560.000000
172.111400 2220.000000
173.119700 1088.000000
174.066200 1484.000000
174.090500 8140.000000
174.126500 488.000000
175.066800 336.000000
175.096900 3120.000000
176.104100 1284.000000
176.142400 12484.000000
177.145500 2268.000000
186.127000 960.000000
188.069700 41976.000000
188.142400 5644.000000
189.073200 5764.000000
189.114000 1692.000000
189.146000 704.000000
190.074800 448.000000
190.122400 740.000000
192.041600 344.000000
192.102600 556.000000
202.085700 8784.000000
202.121700 688.000000
203.092500 4392.000000
204.100600 3016.000000
204.137500 5008.000000
205.104400 400.000000
205.139900 500.000000
216.100600 2388.000000
217.107500 1884.000000
218.110600 332.000000
232.132600 53372.000000
233.135500 9280.000000
234.139100 780.000000

>ms2
115.053500 3396.000000
116.061400 2580.000000
117.057400 892.000000
117.067800 1440.000000
118.040100 304.000000
118.065000 1052.000000
119.071100 716.000000
120.079100 936.000000
128.060300 304.000000
130.064800 1200.000000
131.048900 3896.000000
131.070400 720.000000
132.055700 5584.000000
132.079600 6468.000000
133.063400 856.000000
133.084200 988.000000
134.059600 392.000000
134.095500 624.000000
142.064900 672.000000
143.072100 1560.000000
144.079600 7448.000000
145.051700 784.000000
145.062000 328.000000
145.083700 1096.000000
146.059500 2640.000000
146.095800 2312.000000
147.065600 828.000000
147.101100 972.000000
148.074300 448.000000
148.110700 2200.000000
157.088000 532.000000
158.095500 1948.000000
159.066500 544.000000
160.050600 1468.000000
160.074800 9292.000000
160.111200 2220.000000
161.057900 472.000000
161.079500 1464.000000
161.118900 1532.000000
162.123800 876.000000
172.110600 2192.000000
173.085300 400.000000
173.118400 640.000000
174.066200 4164.000000
174.090500 9764.000000
174.127200 604.000000
175.097000 1976.000000
176.105800 692.000000
176.142400 6212.000000
177.145900 892.000000
186.126400 432.000000
188.069700 57644.000000
189.072900 7768.000000
189.113000 636.000000
192.040500 688.000000
202.085500 6648.000000
202.122600 384.000000
203.089600 1148.000000
204.102400 480.000000
204.136600 908.000000
216.099800 2220.000000
217.104800 584.000000
232.133000 4916.000000
233.137000 696.000000

>ms2
115.053500 5860.000000
116.061000 3068.000000
117.056500 1824.000000
118.040900 328.000000
118.063900 1364.000000
119.071200 404.000000
120.078800 676.000000
128.062700 380.000000
129.069300 704.000000
130.064600 1516.000000
131.048000 8384.000000
131.071100 940.000000
132.055700 9364.000000
132.079600 5008.000000
133.060500 1376.000000
133.083900 704.000000
134.095300 748.000000
142.063900 904.000000
143.071900 2948.000000
144.042600 444.000000
144.079800 3576.000000
145.051300 1700.000000
145.063500 1072.000000
145.083800 652.000000
146.059600 3048.000000
146.095300 1608.000000
147.062100 436.000000
148.110100 604.000000
158.094600 616.000000
159.067000 552.000000
160.050500 1060.000000
160.074500 6428.000000
160.112300 904.000000
161.057400 364.000000
161.077900 488.000000
172.111500 352.000000
174.066500 5988.000000
174.089700 4444.000000
175.069500 868.000000
175.095500 708.000000
176.142700 784.000000
188.069800 20636.000000
189.072800 2940.000000
192.041900 604.000000
202.084700 1584.000000
216.101500 596.000000
232.133900 336.000000

>ms2
132.079700 1480.000000
144.080200 2508.000000
158.095500 908.000000
159.102700 876.000000
160.075300 1296.000000
160.111700 640.000000
172.111700 1056.000000
174.090000 2104.000000
175.098600 1744.000000
176.102800 692.000000
176.141900 7100.000000
177.146000 1220.000000
188.069900 18740.000000
188.142600 2784.000000
189.073600 2060.000000
189.114200 1232.000000
202.085300 3416.000000
203.093000 5860.000000
204.099600 3608.000000
204.137400 2796.000000
216.101100 1508.000000
217.108700 1368.000000
232.132700 125520.000000
233.135900 19164.000000

