>compound AU23172457
>parentmass 319.0732
>ionization [M+H]+
>formula C17H15ClO4
>rt 570.000000
>profile qtof
#smiles_iso CC(C)(C(=O)O)OC1=CC=C(C=C1)C(=O)C2=CC=C(C=C2)Cl
#smiles_can CC(C)(C(=O)O)OC1=CC=C(C=C1)C(=O)C2=CC=C(C=C2)Cl
#inchikey MQOBSOSZFYZQOK-UHFFFAOYSA-N
#pubchem_id 64929
#mb_accession AU205601,AU205602,AU205603,AU205604,AU205605

>ms2
138.994400 412.000000
159.100100 488.000000
233.036200 21020.000000
234.038800 2648.000000
235.033000 4396.000000
236.036200 540.000000
319.073300 39740.000000
320.076800 8444.000000
321.071500 12760.000000
322.077100 1456.000000

>ms2
121.028100 1212.000000
138.993500 2988.000000
140.991500 884.000000
233.035700 31632.000000
234.038700 5852.000000
235.033200 9884.000000
236.035100 760.000000
319.072300 864.000000

>ms2
121.027400 5652.000000
122.031600 612.000000
138.993200 13672.000000
139.997100 1048.000000
140.990600 4332.000000
233.035700 15816.000000
234.038700 2636.000000
235.033200 4928.000000
236.035100 516.000000

>ms2
121.027400 6044.000000
122.030800 536.000000
138.993200 16188.000000
139.997100 1496.000000
140.990600 6108.000000
203.142400 1088.000000
219.173400 2044.000000
233.035700 2080.000000
234.038700 284.000000
235.033200 696.000000

>ms2
110.999600 592.000000
112.996200 496.000000
121.027800 3344.000000
121.101100 364.000000
122.030800 300.000000
138.993200 8076.000000
139.997100 836.000000
140.990600 2644.000000
203.142400 1036.000000
219.173400 708.000000

