>compound AU23172662
>parentmass 732.4681
>ionization [M+H]+
>formula C41H65NO10
>rt 669.936000
>profile qtof
#smiles_iso CC[C@H]1CCC[C@@H]([C@H](C(=O)C2=C[C@H]3[C@@H]4C[C@@H](C[C@H]4C=C[C@H]3[C@@H]2CC(=O)O1)O[C@H]5[C@@H]([C@@H]([C@H]([C@@H](O5)C)OC)OC)OC)C)O[C@H]6CC[C@@H]([C@H](O6)C)N(C)C
#smiles_can CCC1CCCC(C(C(=O)C2=CC3C4CC(CC4C=CC3C2CC(=O)O1)OC5C(C(C(C(O5)C)OC)OC)OC)C)OC6CCC(C(O6)C)N(C)C
#inchikey SRJQTHAZUNRMPR-UYQKXTDMSA-N
#pubchem_id 443059
#mb_accession AU263501,AU263502,AU263503,AU263505,AU263506

>ms2peaks
142.121600 35504.000000
732.469700 679896.000000
733.473300 307680.000000
734.476100 70848.000000

>ms2peaks
142.122100 357412.000000
143.125100 28488.000000
189.110800 2992.000000
732.470800 558448.000000
733.474300 258024.000000
734.476900 61416.000000

>ms2peaks
142.121800 1186248.000000
143.124800 95864.000000
160.131500 8144.000000
189.111300 26636.000000
449.216700 9072.000000
732.469500 254592.000000
733.473500 116236.000000
734.477400 25452.000000

>ms2peaks
124.111000 5540.000000
125.058800 12956.000000
129.089800 11652.000000
142.121700 1037180.000000
143.124800 78888.000000
145.084600 23156.000000
155.083500 5256.000000
157.084600 40980.000000
160.131900 29188.000000
189.111000 75556.000000
190.114200 8572.000000
199.074000 6932.000000
201.089600 6460.000000
215.106100 6496.000000
225.090700 9900.000000

>ms2peaks
59.048700 6828.000000
69.069500 12048.000000
75.043500 24664.000000
97.065100 34316.000000
98.096900 43512.000000
99.044600 27932.000000
99.080700 18252.000000
101.060300 12384.000000
125.059700 5628.000000
142.122200 901532.000000
143.125200 79824.000000
144.127700 4688.000000
145.085000 9524.000000
157.085200 20548.000000
160.132400 15904.000000
189.111400 63816.000000
190.114700 6084.000000
449.216500 6548.000000
732.470800 137816.000000
733.474100 62024.000000
734.476300 16464.000000

