>compound AU23522445
>parentmass 252.1417
>ionization [M+H]+
>formula C14H21NOS
>rt 719.028000
>profile qtof
#smiles_iso CCCN(CCC)C(=O)SCC1=CC=CC=C1
#smiles_can CCCN(CCC)C(=O)SCC1=CC=CC=C1
#inchikey NQLVQOSNDJXLKG-UHFFFAOYSA-N
#pubchem_id 62020
#mb_accession AU257001,AU257002,AU257003,AU257004,AU257006

>ms2peaks
128.106200 178668.000000
129.109200 15804.000000
252.142200 2425204.000000
253.144700 424428.000000
254.138500 91808.000000

>ms2peaks
128.106300 72636.000000
129.109600 6240.000000
144.082600 1964.000000
192.175000 1792.000000
225.042000 1276.000000
252.141600 100312.000000
253.144400 17252.000000
254.138700 4768.000000

>ms2peaks
128.105500 2028.000000
225.039900 1644.000000
252.141300 416.000000

>ms2peaks
128.105000 436.000000
225.042000 664.000000

>ms2peaks
65.038000 9532.000000
86.060000 29656.000000
91.055200 1004340.000000
92.058100 103876.000000
128.106700 45988.000000
252.141400 53580.000000
253.143800 8560.000000

