>compound AU23111226
>parentmass 251.0373
>ionization [M+H]+
>formula C12H10O4S
>rt 321.120000
>profile qtof
#smiles_iso C1=CC(=CC=C1O)S(=O)(=O)C2=CC=C(C=C2)O
#smiles_can C1=CC(=CC=C1O)S(=O)(=O)C2=CC=C(C=C2)O
#inchikey VPWNQTHUCYMVMZ-UHFFFAOYSA-N
#pubchem_id 6626
#mb_accession AU237001,AU237002,AU237003,AU237006

>ms2
156.994300 2076.000000
251.036400 15320.000000
252.038800 1832.000000
253.033100 1152.000000

>ms2
156.993800 8272.000000
157.996200 872.000000
158.990700 436.000000
251.036600 3772.000000
252.040600 596.000000

>ms2
156.995000 1608.000000

>ms2
156.994000 6220.000000
157.996600 376.000000
158.991300 360.000000
251.036200 1996.000000
252.037300 404.000000

