>compound AU24464180
>parentmass 193.09719999999996
>ionization [M+H]+
>formula C10H12N2O2
>rt 175.740000
>profile qtof
#smiles_iso CN1[C@@H](C[C@H](C1=O)O)C2=CN=CC=C2
#smiles_can CN1C(CC(C1=O)O)C2=CN=CC=C2
#inchikey XOKCJXZZNAUIQN-DTWKUNHWSA-N
#pubchem_id 107963
#mb_accession AU227501,AU227502,AU227503,AU227504,AU227505,AU227506

>ms2peaks
134.058800 7492.000000
193.096400 572236.000000
194.099400 51816.000000
195.101100 4444.000000

>ms2peaks
118.064300 4192.000000
133.075000 1500.000000
134.059000 68064.000000
135.062500 5080.000000
136.038000 6668.000000
136.074500 3528.000000
146.059200 1652.000000
147.090200 1716.000000
149.069700 14580.000000
150.073200 1472.000000
162.054400 1972.000000
175.084800 4736.000000
193.096400 291832.000000
194.099400 25716.000000
195.101800 2344.000000

>ms2peaks
116.048700 620.000000
117.056000 1176.000000
118.064300 3720.000000
120.043100 388.000000
121.075000 676.000000
123.090000 556.000000
130.063600 496.000000
131.059800 792.000000
132.066400 812.000000
133.051500 404.000000
133.074200 1528.000000
134.058700 31944.000000
135.062500 2880.000000
136.037800 4508.000000
136.074200 2980.000000
144.044100 512.000000
146.058200 1580.000000
146.082600 308.000000
147.090400 1420.000000
148.074900 416.000000
149.069000 8448.000000
150.073900 624.000000
162.052700 688.000000
164.069200 436.000000
165.099300 504.000000
175.085200 1316.000000
193.095700 23184.000000
194.099500 2664.000000

>ms2peaks
117.056600 796.000000
118.063900 1888.000000
130.063600 312.000000
131.060100 756.000000
132.067600 568.000000
133.074900 896.000000
134.045800 316.000000
134.059100 5144.000000
136.038500 856.000000
136.073900 760.000000
146.059800 340.000000
147.091800 528.000000
149.070100 1196.000000
193.095800 1112.000000

>ms2peaks
117.057100 912.000000
118.064800 860.000000
131.059000 544.000000
133.075900 312.000000
134.058000 676.000000

>ms2peaks
116.048700 620.000000
117.056000 1176.000000
118.064300 3720.000000
120.043100 388.000000
121.075000 676.000000
123.090000 556.000000
130.063600 496.000000
131.059800 792.000000
132.066400 812.000000
133.051500 404.000000
133.074200 1528.000000
134.058700 31944.000000
135.062500 2880.000000
136.037800 4508.000000
136.074200 2980.000000
144.044100 512.000000
146.058200 1580.000000
146.082600 308.000000
147.090400 1420.000000
148.074900 416.000000
149.069000 8448.000000
150.073900 624.000000
162.052700 688.000000
164.069200 436.000000
165.099300 504.000000
175.085200 1316.000000
193.095700 23184.000000
194.099500 2664.000000

