>compound AU24845006
>parentmass 290.1387
>ionization [M+H]+
>formula C16H19NO4
>rt 271.200000
>profile qtof
#smiles_iso CN1C2CCC1[C@H]([C@H](C2)OC(=O)C3=CC=CC=C3)C(=O)O
#smiles_can CN1C2CCC1C(C(C2)OC(=O)C3=CC=CC=C3)C(=O)O
#inchikey GVGYEFKIHJTNQZ-CLRIEMFWSA-N
#pubchem_id 442997
#mb_accession AU159001,AU159002,AU159003,AU159004,AU159005

>ms2
168.101200 95380.000000
272.127600 6596.000000
290.139400 2249092.000000
291.142200 347428.000000
292.144400 36580.000000

>ms2
150.090300 47388.000000
168.101100 1707832.000000
272.127900 79352.000000
290.139400 1311164.000000
291.142200 146056.000000
292.144400 16292.000000

>ms2
119.048400 27560.000000
122.095700 25236.000000
124.111300 22796.000000
132.079900 7992.000000
135.066900 8204.000000
140.069500 9412.000000
150.090400 104880.000000
151.093700 8652.000000
168.101000 1144700.000000
272.127700 26592.000000
290.138300 50040.000000

>ms2
117.056400 2908.000000
118.062900 1256.000000
119.048300 22900.000000
120.051600 2244.000000
121.064100 1292.000000
122.059400 1160.000000
122.095600 22324.000000
123.098600 1948.000000
124.111400 9824.000000
125.114500 1196.000000
130.064500 912.000000
132.079500 8060.000000
134.058300 1156.000000
135.066700 12428.000000
136.070600 1472.000000
137.058700 3212.000000
140.069600 8392.000000
140.105900 2160.000000
141.073300 916.000000
150.090200 42028.000000
151.094000 3652.000000
168.101100 181684.000000
169.104200 15656.000000
170.105600 1048.000000
272.127500 2436.000000
290.139300 988.000000

>ms2
117.056300 2784.000000
118.040600 692.000000
118.063600 1332.000000
119.048100 9144.000000
120.043200 416.000000
120.051800 1368.000000
120.080800 1168.000000
121.063100 448.000000
121.086600 560.000000
122.058800 960.000000
122.095600 8432.000000
123.099700 960.000000
124.111200 3712.000000
130.064000 868.000000
131.071400 496.000000
132.079900 3592.000000
133.084300 548.000000
134.059200 2088.000000
135.066800 9188.000000
136.071200 656.000000
137.058100 608.000000
140.069300 3708.000000
140.104800 412.000000
141.074600 408.000000
148.075200 364.000000
150.090200 7960.000000
151.095900 668.000000
168.101400 19736.000000
169.104600 2240.000000

