>compound AU24034183
>parentmass 393.2072
>ionization [M+H]+
>formula C22H29FO5
>rt 498.000000
>profile qtof
#smiles_iso C[C@@H]1C[C@H]2[C@@H]3CCC4=CC(=O)C=C[C@@]4([C@]3([C@H](C[C@@]2([C@]1(C(=O)CO)O)C)O)F)C
#smiles_can CC1CC2C3CCC4=CC(=O)C=CC4(C3(C(CC2(C1(C(=O)CO)O)C)O)F)C
#inchikey UREBDLICKHMUKA-CXSFZGCWSA-N
#pubchem_id 5743
#mb_accession AU107801,AU107802,AU107803,AU107804,AU107805

>ms2peaks
149.021700 2128.000000
167.032000 688.000000
261.142900 312.000000
279.160600 456.000000
355.190200 544.000000
373.202100 1036.000000
374.205000 320.000000
393.208300 1136.000000
394.213400 456.000000

>ms2peaks
147.080000 476.000000
149.022000 2024.000000
150.025100 360.000000
167.035000 580.000000
237.127000 528.000000
319.168800 396.000000
338.181700 348.000000
355.191000 696.000000

>ms2peaks
149.022100 2532.000000
237.126500 424.000000

>ms2peaks
131.083900 308.000000
147.081900 336.000000
149.021800 2096.000000
171.079400 396.000000

>ms2peaks
149.022700 1484.000000
150.027200 308.000000

