>compound AU24796723
>parentmass 319.1628
>ionization [M+H]+
>formula C15H21F3N2O2
>rt 486.570000
>profile qtof
#smiles_iso COCCCCC(=NOCCN)C1=CC=C(C=C1)C(F)(F)F
#smiles_can COCCCCC(=NOCCN)C1=CC=C(C=C1)C(F)(F)F
#inchikey CJOFXWAVKWHTFT-UHFFFAOYSA-N
#pubchem_id 3404
#mb_accession AU274001,AU274002,AU274003,AU274004,AU274005,AU274006

>ms2
200.067100 23844.000000
226.082700 31284.000000
228.098400 16052.000000
258.109400 316076.000000
259.116000 126112.000000
260.124400 106508.000000
261.127500 12596.000000
302.134900 10112.000000
319.162700 1943628.000000
320.165900 255000.000000
321.168200 20956.000000

>ms2
130.064600 1008.000000
131.071200 2032.000000
146.117300 696.000000
158.094800 916.000000
159.040000 1044.000000
172.035600 8028.000000
173.040100 776.000000
174.051000 2292.000000
180.061000 2548.000000
183.041800 636.000000
184.047900 1164.000000
185.055900 2712.000000
186.055800 844.000000
188.068200 632.000000
190.044600 1228.000000
190.121400 1132.000000
198.051300 3864.000000
199.059100 3536.000000
199.070800 2660.000000
200.067400 122108.000000
201.070200 14928.000000
202.045900 644.000000
202.072700 712.000000
209.056100 868.000000
210.064900 984.000000
211.071800 860.000000
212.076700 1148.000000
214.082800 1916.000000
224.066600 2952.000000
226.083000 54528.000000
227.088300 13328.000000
228.098400 50712.000000
229.102600 7788.000000
230.079000 976.000000
230.110000 976.000000
239.110800 820.000000
240.098700 888.000000
241.084100 1236.000000
242.090200 10876.000000
243.094300 1660.000000
244.093600 25552.000000
245.097000 3696.000000
252.098500 880.000000
258.109200 44640.000000
259.116900 42020.000000
260.124200 26628.000000
261.127200 4032.000000
270.109200 3332.000000
272.124400 2116.000000
276.119300 2104.000000
302.135400 9188.000000
303.137400 1728.000000
319.162100 19780.000000
320.165100 4016.000000

>ms2
130.064000 9848.000000
131.071700 14992.000000
132.078300 2720.000000
142.075900 768.000000
145.025000 1804.000000
153.050800 928.000000
157.087000 1628.000000
158.095200 2636.000000
159.040100 3724.000000
165.049600 1696.000000
171.040900 2192.000000
172.035400 15852.000000
173.036500 1412.000000
173.095000 1000.000000
174.051900 3184.000000
179.064900 1572.000000
180.060800 18148.000000
181.064600 2180.000000
183.040800 3280.000000
184.046700 1396.000000
185.055300 4252.000000
186.051400 2960.000000
186.069000 888.000000
187.058300 1272.000000
188.067000 1404.000000
190.047100 2028.000000
191.065900 2588.000000
198.051700 13520.000000
199.057900 4304.000000
199.070200 3068.000000
200.067300 145300.000000
201.070100 18640.000000
202.046700 1536.000000
202.074400 892.000000
206.077100 1012.000000
209.056900 2412.000000
210.063600 2464.000000
211.059600 4060.000000
212.066900 3784.000000
213.073700 748.000000
214.082400 3604.000000
224.066800 5436.000000
225.073900 1264.000000
226.082400 29680.000000
227.066900 808.000000
227.088700 6448.000000
228.098800 35880.000000
229.101800 5224.000000
230.078200 1608.000000
240.099000 2660.000000
241.082800 836.000000
242.089900 3628.000000
244.093000 26456.000000
245.096400 3804.000000
258.108800 2120.000000
259.117200 1488.000000
260.123800 1632.000000
272.125800 1388.000000
302.137200 1024.000000

>ms2
115.053400 608.000000
130.064000 29548.000000
131.071300 22776.000000
132.078000 3324.000000
133.044000 2352.000000
135.046500 484.000000
140.049400 488.000000
141.068200 772.000000
142.077000 1312.000000
143.072100 736.000000
144.080200 380.000000
145.024700 11028.000000
146.027800 1076.000000
151.034400 744.000000
153.049900 1556.000000
156.079600 1260.000000
157.086800 2000.000000
158.095000 2124.000000
159.040400 5804.000000
159.058600 680.000000
160.053700 2240.000000
163.035700 528.000000
164.042000 476.000000
165.049900 2820.000000
166.050500 424.000000
171.040000 4984.000000
172.035500 17004.000000
173.031000 3824.000000
173.055100 1124.000000
173.096000 404.000000
174.050400 3368.000000
175.054800 728.000000
177.049100 1208.000000
178.044500 400.000000
179.056700 1640.000000
180.060400 26092.000000
181.063000 3676.000000
183.039900 6080.000000
184.043500 648.000000
184.047300 772.000000
185.043900 6872.000000
186.050600 2940.000000
186.068800 732.000000
187.023000 520.000000
187.058800 1048.000000
188.066500 1712.000000
190.046100 3212.000000
191.064600 3016.000000
192.070200 520.000000
196.047500 1056.000000
197.056600 524.000000
198.051100 19240.000000
199.056800 2936.000000
199.070900 2068.000000
200.067100 74996.000000
201.070700 9704.000000
202.047900 532.000000
204.060200 408.000000
206.074600 600.000000
209.055600 1868.000000
210.062500 1308.000000
211.060400 5560.000000
212.066700 3960.000000
213.071900 576.000000
214.082200 1640.000000
224.067700 2764.000000
225.074500 868.000000
226.082300 9716.000000
227.087900 1720.000000
228.098000 7404.000000
229.101000 1420.000000
230.077000 624.000000
240.098700 832.000000
241.084800 644.000000
244.093100 4548.000000
245.093900 752.000000

>ms2
115.053700 1300.000000
116.058300 388.000000
117.055200 396.000000
125.019800 1324.000000
127.033600 1204.000000
128.060000 628.000000
129.056100 392.000000
129.069200 652.000000
130.064100 52508.000000
131.070900 20984.000000
132.077800 3004.000000
133.043400 5952.000000
134.043700 516.000000
135.046500 724.000000
140.048500 980.000000
141.068200 2152.000000
142.076200 1996.000000
143.027500 460.000000
143.071300 1912.000000
144.078300 628.000000
145.024900 38828.000000
146.028000 3444.000000
147.033200 336.000000
148.053200 320.000000
151.034000 3256.000000
152.030500 436.000000
152.037100 668.000000
153.048900 2408.000000
154.046900 504.000000
155.024700 480.000000
155.058200 472.000000
156.079500 2176.000000
157.086300 1608.000000
158.039000 320.000000
158.057700 356.000000
158.070400 356.000000
158.093600 1040.000000
159.040700 6384.000000
159.058100 820.000000
160.053800 4316.000000
161.042200 332.000000
161.058400 1112.000000
163.036300 708.000000
164.041700 1412.000000
165.049200 2908.000000
166.045200 952.000000
171.040600 4560.000000
171.059000 664.000000
172.035600 17116.000000
173.031100 7364.000000
173.053300 1216.000000
174.034800 584.000000
174.051500 2944.000000
175.052300 380.000000
177.050500 1252.000000
178.046100 976.000000
178.066000 304.000000
179.052800 5124.000000
180.060600 27380.000000
181.064300 3172.000000
182.035900 932.000000
183.040400 8984.000000
184.043200 1560.000000
185.043200 13464.000000
186.050100 4040.000000
186.070800 580.000000
187.021100 1080.000000
187.058300 1128.000000
188.042000 328.000000
188.066900 1364.000000
189.052000 724.000000
190.046500 2580.000000
191.042500 336.000000
191.047500 384.000000
191.065800 1876.000000
192.062300 516.000000
192.069100 472.000000
195.041500 364.000000
196.048900 952.000000
198.051400 16704.000000
199.056700 2576.000000
199.073300 512.000000
200.066900 30632.000000
201.069800 3760.000000
202.043500 312.000000
202.073300 380.000000
204.060500 792.000000
209.056000 1448.000000
210.062100 432.000000
211.059800 6284.000000
212.065000 2596.000000
213.070400 492.000000
214.081700 816.000000
224.067400 1976.000000
225.076000 664.000000
226.082500 3948.000000
227.086400 624.000000
228.099700 1108.000000
244.093600 472.000000

>ms2
45.033800 6260.000000
55.053800 19588.000000
56.025400 4672.000000
57.069400 5796.000000
62.059800 12752.000000
71.048900 885236.000000
72.052300 37664.000000
87.080700 25580.000000
130.064300 5124.000000
131.072300 10460.000000
172.036400 10776.000000
180.061600 12196.000000
185.056500 4512.000000
198.051700 10640.000000
200.068100 137200.000000
201.071400 16272.000000
226.083800 38128.000000
227.089500 10340.000000
228.099600 43740.000000
229.103200 7852.000000
242.090800 6580.000000
244.094700 24740.000000
258.110100 14416.000000
259.116900 17604.000000
260.124700 9964.000000

