>compound AU24754289
>parentmass 229.0859
>ionization [M+H]+
>formula C14H12O3
>rt 648.820000
>profile qtof
#smiles_iso COC1=CC(=C(C=C1)C(=O)C2=CC=CC=C2)O
#smiles_can COC1=CC(=C(C=C1)C(=O)C2=CC=CC=C2)O
#inchikey DXGLGDHPHMLXJC-UHFFFAOYSA-N
#pubchem_id 4632
#mb_accession AU275801,AU275802,AU275803,AU275804,AU275805,AU275806

>ms2
151.037400 54820.000000
152.040500 4648.000000
229.085100 612084.000000
230.088100 94124.000000
231.090800 9544.000000

>ms2
151.037600 390240.000000
152.040700 35060.000000
153.042600 3484.000000
229.084800 100776.000000
230.088000 17316.000000

>ms2
123.042800 5020.000000
151.037900 359508.000000
152.041100 32504.000000
153.043700 2684.000000
168.056100 2316.000000
229.085500 2920.000000

>ms2
123.043300 3412.000000
124.048400 436.000000
136.014500 1364.000000
139.053200 2020.000000
140.060700 1712.000000
151.037800 80856.000000
152.041100 8960.000000
152.060400 748.000000
153.042100 732.000000
168.057300 1984.000000

>ms2
123.043100 1264.000000
136.013800 1632.000000
137.023600 356.000000
139.052900 6676.000000
140.059400 3168.000000
141.065000 468.000000
150.044700 572.000000
151.038000 22132.000000
152.041200 1672.000000
152.060500 1444.000000
168.055200 1368.000000
169.063500 664.000000

>ms2
95.049700 4392.000000
105.034700 18908.000000
106.038300 1972.000000
123.043300 3088.000000
151.038200 285948.000000
152.041500 33528.000000
153.043400 2828.000000
229.085400 87296.000000
230.088600 12884.000000

