>compound AU24511245
>parentmass 385.2373
>ionization [M+H]+
>formula C24H32O4
>rt 651.120000
>profile qtof
#smiles_iso CC1=C[C@@H]2[C@H](CC[C@]3([C@H]2CC[C@@]3(C(=O)C)OC(=O)C)C)[C@@]4(C1=CC(=O)CC4)C
#smiles_can CC1=CC2C(CCC3(C2CCC3(C(=O)C)OC(=O)C)C)C4(C1=CC(=O)CC4)C
#inchikey RQZAXGRLVPAYTJ-GQFGMJRRSA-N
#pubchem_id 11683
#mb_accession AU281401,AU281402,AU281403,AU281404,AU281405,AU281406

>ms2peaks
255.173700 14888.000000
265.194700 25752.000000
267.173800 72756.000000
268.177100 14464.000000
283.204500 12452.000000
307.205100 15600.000000
325.216300 413928.000000
326.219700 86772.000000
385.238300 2433440.000000
386.241200 789352.000000
387.244200 74884.000000

>ms2peaks
121.064100 6732.000000
133.100600 13592.000000
145.100200 8504.000000
147.116700 6280.000000
149.094500 6792.000000
151.111100 10708.000000
159.115900 7088.000000
161.095100 21316.000000
169.100400 15040.000000
171.116100 8356.000000
173.095200 12744.000000
175.110700 42688.000000
177.126100 6836.000000
183.116100 20924.000000
187.110900 49076.000000
188.114200 8284.000000
189.126800 20024.000000
197.131800 7932.000000
199.146900 7128.000000
201.126900 8156.000000
209.131400 15532.000000
211.147200 17308.000000
215.142700 14828.000000
223.147600 48264.000000
224.155500 196200.000000
225.162400 96540.000000
226.165900 14936.000000
229.158300 7628.000000
237.163000 15912.000000
239.142600 10484.000000
241.158100 48752.000000
242.161700 8600.000000
243.174000 19116.000000
247.147400 11336.000000
249.163500 45016.000000
250.167500 10144.000000
253.158800 9492.000000
255.174200 114112.000000
256.177600 22444.000000
263.179000 26420.000000
264.185300 12820.000000
265.158600 18256.000000
265.195000 221936.000000
266.198100 45368.000000
267.174500 938120.000000
268.177700 155024.000000
269.180800 12380.000000
281.190000 76440.000000
282.197800 205716.000000
283.204800 144772.000000
284.208500 26480.000000
289.194800 20892.000000
307.205700 120524.000000
308.208900 29088.000000
325.216600 1244716.000000
326.220100 226176.000000
327.222600 20484.000000
385.238100 494076.000000
386.241300 114040.000000
387.243700 14008.000000

>ms2peaks
119.084400 5804.000000
121.064100 11220.000000
121.099900 6860.000000
123.079800 3840.000000
131.084900 6832.000000
133.100100 38300.000000
134.103600 4548.000000
135.079700 6932.000000
135.116100 6192.000000
137.094900 9716.000000
143.084000 8252.000000
145.100200 25844.000000
146.104000 4092.000000
147.079100 6440.000000
147.115900 14816.000000
149.094800 12016.000000
151.110600 10936.000000
155.084300 7848.000000
157.099800 29752.000000
158.103900 4052.000000
159.078700 5072.000000
159.115400 22900.000000
160.120000 4080.000000
161.094700 43028.000000
161.131200 4508.000000
162.099500 6276.000000
163.110500 9444.000000
169.100000 39252.000000
170.103800 5508.000000
171.078800 4048.000000
171.115600 28552.000000
172.119000 4188.000000
173.094900 26344.000000
173.131300 14276.000000
174.099700 4488.000000
175.110700 116368.000000
176.113900 13412.000000
177.125900 6080.000000
181.100500 8256.000000
183.115700 72856.000000
184.120200 10932.000000
185.094900 12336.000000
185.131600 15180.000000
186.136600 4220.000000
187.110800 95972.000000
188.114500 13680.000000
189.126300 30048.000000
190.130200 3992.000000
193.100700 5108.000000
194.107800 4276.000000
195.115600 16820.000000
196.121800 6436.000000
197.131500 34624.000000
198.138700 32912.000000
199.110700 5692.000000
199.146700 25580.000000
200.153300 10216.000000
201.126600 10436.000000
201.161800 5540.000000
207.115600 8168.000000
208.123100 5144.000000
209.131400 67588.000000
210.136800 19916.000000
211.110000 5544.000000
211.147100 83412.000000
212.151800 20008.000000
213.126200 11308.000000
213.162000 11236.000000
215.142100 17700.000000
219.116300 4036.000000
221.131100 8904.000000
222.138300 6740.000000
223.147500 99032.000000
224.155400 737260.000000
225.161500 237760.000000
226.165600 30628.000000
227.141900 7544.000000
229.158100 7604.000000
231.136900 3852.000000
233.131500 4268.000000
234.139500 13768.000000
235.146800 12984.000000
236.152800 4936.000000
237.126900 5152.000000
237.163000 36592.000000
238.166900 7756.000000
239.142300 15380.000000
239.178400 7820.000000
240.148000 4052.000000
241.158000 65272.000000
242.161200 13260.000000
243.173700 12452.000000
247.147300 8696.000000
248.153800 4516.000000
249.163300 64008.000000
250.168000 17244.000000
251.142300 7588.000000
252.148600 5360.000000
253.157900 12560.000000
255.173900 46468.000000
256.177300 10716.000000
263.178200 17816.000000
264.185600 19652.000000
265.158300 15836.000000
265.194700 132500.000000
266.165000 11660.000000
266.198000 28532.000000
267.174000 551744.000000
268.177300 93736.000000
269.180600 7168.000000
281.189700 98640.000000
282.197400 417736.000000
283.203200 157588.000000
284.207600 22880.000000
289.195100 12072.000000
292.182000 4280.000000
307.205300 59772.000000
308.208900 15808.000000
310.191500 7552.000000
325.216200 163388.000000
326.219300 40600.000000
327.222100 5004.000000
385.237100 7156.000000

>ms2peaks
117.069600 3780.000000
119.084700 12236.000000
121.063700 9332.000000
121.100400 8264.000000
123.078500 5556.000000
128.060900 5496.000000
129.068500 9252.000000
131.084400 16420.000000
133.100000 45684.000000
134.103700 6440.000000
135.079500 6872.000000
135.115200 6936.000000
137.094700 9408.000000
141.068800 7280.000000
142.076100 12796.000000
143.084100 18196.000000
144.090500 4772.000000
145.062900 4884.000000
145.099900 37496.000000
146.103800 5520.000000
147.079200 7188.000000
147.115300 20788.000000
149.094400 9052.000000
151.110600 4356.000000
155.083900 14536.000000
156.091000 8044.000000
157.099700 47080.000000
158.104200 5612.000000
159.079100 9408.000000
159.115400 27236.000000
160.086400 6292.000000
160.119700 5536.000000
161.094600 37608.000000
161.131100 5224.000000
162.100200 7552.000000
163.109800 7088.000000
167.084000 9660.000000
168.091000 5340.000000
169.099700 54812.000000
170.105100 9912.000000
171.079100 8324.000000
171.115100 37912.000000
172.086200 5816.000000
172.120600 6768.000000
173.094600 27096.000000
173.131000 16524.000000
174.100700 8568.000000
175.110500 116148.000000
176.113900 15752.000000
177.125900 3292.000000
179.083600 10932.000000
180.091000 4544.000000
181.099500 19828.000000
182.106200 8892.000000
183.115700 92660.000000
184.119800 15024.000000
185.094400 11844.000000
185.130800 25664.000000
186.136500 5636.000000
187.110500 80940.000000
187.146000 4692.000000
188.114600 13100.000000
189.125500 19268.000000
193.099400 13572.000000
194.107000 17908.000000
195.115300 32228.000000
196.121800 13152.000000
197.094500 3228.000000
197.131000 58748.000000
198.138200 52688.000000
199.110100 6244.000000
199.146000 35580.000000
200.152700 11108.000000
201.125600 6848.000000
201.161900 5564.000000
206.107000 3248.000000
207.115400 16008.000000
208.122800 20040.000000
209.131400 255400.000000
210.136400 53356.000000
211.110500 8096.000000
211.147000 147828.000000
212.151100 30780.000000
213.125700 7476.000000
213.161000 9628.000000
215.141500 9580.000000
219.115600 7840.000000
220.123000 5712.000000
221.130900 15916.000000
222.138700 17508.000000
223.147000 107164.000000
224.155000 627260.000000
225.126300 10296.000000
225.160900 187380.000000
226.132600 4468.000000
227.141400 5392.000000
233.131200 4324.000000
234.138800 24476.000000
235.146100 21104.000000
236.153700 7916.000000
237.125700 4900.000000
237.162600 22508.000000
238.133800 3220.000000
238.167300 7272.000000
239.141500 14092.000000
239.178200 8880.000000
240.147800 5476.000000
241.157100 21496.000000
242.162000 5320.000000
247.146700 5504.000000
248.154400 5508.000000
249.162700 67812.000000
250.167700 20836.000000
251.141500 14976.000000
251.173300 3324.000000
252.148300 9952.000000
253.156900 10824.000000
254.163100 4844.000000
255.172000 7480.000000
263.178400 10100.000000
264.185800 15116.000000
265.156900 11292.000000
265.193600 42044.000000
266.164900 11816.000000
266.197800 7980.000000
267.173500 335132.000000
268.176900 64468.000000
269.180700 6120.000000
274.171100 3228.000000
281.189300 48792.000000
282.196900 188648.000000
283.201600 55532.000000
292.180700 4092.000000
295.168400 5248.000000
307.204500 10940.000000
310.192100 8624.000000
325.215300 13108.000000
326.217900 3784.000000

>ms2peaks
115.054300 6364.000000
117.069000 6152.000000
119.084800 15696.000000
121.063900 6624.000000
121.100300 4456.000000
123.080000 3448.000000
128.061200 13360.000000
129.068700 18056.000000
130.076000 8280.000000
131.084700 24836.000000
132.089500 3336.000000
133.064100 5320.000000
133.100300 40724.000000
134.104100 5232.000000
135.079200 6036.000000
135.116400 4384.000000
137.095500 5124.000000
141.068700 16772.000000
142.076400 26880.000000
143.084300 30304.000000
144.090900 7528.000000
145.063700 8836.000000
145.100200 44820.000000
146.071400 3224.000000
146.104500 6784.000000
147.079400 7556.000000
147.115700 17248.000000
149.095000 5444.000000
152.061500 2628.000000
153.068500 8440.000000
154.076300 6796.000000
155.084500 32388.000000
156.091400 17000.000000
157.063500 3288.000000
157.099900 43832.000000
158.071200 5980.000000
158.105300 7196.000000
159.079100 10520.000000
159.115500 22608.000000
160.086800 13784.000000
160.120800 4544.000000
161.094700 24280.000000
161.131100 2712.000000
163.110100 3948.000000
165.068400 13532.000000
166.076200 6740.000000
167.084100 30132.000000
168.091400 14756.000000
169.100100 63520.000000
170.105600 14764.000000
171.079300 13188.000000
171.115700 31752.000000
172.087100 11968.000000
172.120800 5964.000000
173.094900 32520.000000
173.131200 12528.000000
174.100900 7660.000000
174.136000 2364.000000
175.110800 67968.000000
176.114000 11156.000000
178.076200 6276.000000
179.084600 40060.000000
180.091400 14452.000000
181.100000 33536.000000
182.107100 18472.000000
183.115900 107408.000000
184.120300 21588.000000
185.095100 10612.000000
185.131400 23264.000000
186.100600 4196.000000
186.136900 5484.000000
187.110800 54636.000000
187.146100 3304.000000
188.115000 9256.000000
189.126000 7352.000000
191.084300 3192.000000
192.092400 6924.000000
193.100100 34912.000000
194.108000 60248.000000
195.115500 54460.000000
196.122100 22392.000000
197.095500 3720.000000
197.131700 72760.000000
198.102100 2832.000000
198.138400 38484.000000
199.110400 5832.000000
199.147100 25896.000000
200.116700 2372.000000
200.152600 7292.000000
201.126100 2960.000000
205.100100 5424.000000
206.107100 6976.000000
207.116000 27644.000000
208.123300 31528.000000
209.132100 450588.000000
210.136700 92936.000000
211.111300 14436.000000
211.147200 115216.000000
212.117500 6832.000000
212.151100 24220.000000
213.125800 5260.000000
213.160000 3952.000000
215.140700 2764.000000
219.115800 16228.000000
220.122600 9476.000000
221.131800 18524.000000
222.138200 16292.000000
223.147500 102644.000000
224.155300 219600.000000
225.127100 12060.000000
225.161200 74056.000000
226.133000 6524.000000
226.166600 12428.000000
227.142100 3100.000000
228.149000 2688.000000
233.132100 6356.000000
234.139500 20964.000000
235.146900 19968.000000
236.152800 6708.000000
237.126600 8508.000000
237.163300 11388.000000
238.132800 6120.000000
238.168400 3628.000000
239.142300 16856.000000
239.178400 7804.000000
240.148700 4888.000000
241.157500 5276.000000
247.146400 2744.000000
248.153900 3040.000000
249.163600 64976.000000
250.167700 16876.000000
251.142700 22108.000000
252.148300 14080.000000
253.157200 11828.000000
254.162800 3804.000000
259.147900 3276.000000
263.179300 6244.000000
264.186300 5264.000000
265.158200 10308.000000
265.194300 13348.000000
266.165500 9720.000000
266.198900 2456.000000
267.174300 249852.000000
268.177500 49732.000000
269.181300 4848.000000
277.158100 3984.000000
281.190000 15676.000000
282.197100 34456.000000
283.201600 10332.000000
295.168700 4828.000000

>ms2peaks
59.048500 2340.000000
67.053800 2964.000000
79.053800 3156.000000
81.069400 7228.000000
83.048600 16612.000000
85.064200 5372.000000
91.054200 3892.000000
93.069900 10900.000000
95.085500 7892.000000
97.065000 30132.000000
99.080400 8944.000000
105.070000 6140.000000
107.085800 12072.000000
109.065800 2232.000000
109.102100 9952.000000
111.080900 4760.000000
119.085500 10736.000000
121.065000 13760.000000
121.101100 10240.000000
123.080100 5208.000000
123.117200 2216.000000
129.069100 2224.000000
131.085200 6284.000000
133.100900 24724.000000
134.104500 3328.000000
135.080100 4432.000000
135.116400 4376.000000
137.095600 5212.000000
143.084700 5120.000000
145.100500 15104.000000
147.079700 3952.000000
147.116100 8416.000000
149.095600 8316.000000
151.110900 5936.000000
155.084300 4700.000000
157.100200 14668.000000
158.104200 2268.000000
159.079400 2828.000000
159.115700 11584.000000
161.095100 21944.000000
161.131600 2976.000000
162.099700 3116.000000
163.110300 4896.000000
169.100300 21540.000000
170.104700 2888.000000
171.079200 2592.000000
171.115700 14932.000000
172.119300 2080.000000
173.094900 12644.000000
173.131400 7696.000000
175.111000 59204.000000
176.114000 6456.000000
177.126000 4384.000000
181.099900 3860.000000
183.116000 38452.000000
184.119800 5144.000000
185.095100 7096.000000
185.131700 7640.000000
187.110800 49752.000000
188.114800 8464.000000
189.126600 14996.000000
190.130900 2196.000000
193.099500 3144.000000
194.107800 2556.000000
195.115900 9708.000000
196.123400 3828.000000
197.131900 18952.000000
198.139200 19780.000000
199.111800 2744.000000
199.146700 14724.000000
200.153400 4544.000000
201.126300 6472.000000
201.161200 2560.000000
207.116000 4968.000000
208.124000 4876.000000
209.132100 47732.000000
210.137300 12760.000000
211.110600 3292.000000
211.147600 50896.000000
212.152400 10680.000000
213.126100 6936.000000
213.161900 6972.000000
215.141800 9508.000000
216.145600 2044.000000
219.116000 2144.000000
221.132100 4932.000000
222.139500 5848.000000
223.147900 53620.000000
224.155600 326720.000000
225.161900 131396.000000
226.166300 17964.000000
227.141900 4376.000000
229.157700 3368.000000
231.137200 2340.000000
233.130600 2388.000000
234.139400 8740.000000
235.146900 7616.000000
236.154200 2304.000000
237.127200 3484.000000
237.163200 22420.000000
238.167700 4476.000000
239.142500 9332.000000
239.179200 3836.000000
240.148100 2424.000000
241.158300 35680.000000
242.161800 6248.000000
243.173500 8064.000000
247.147500 5484.000000
248.154000 2676.000000
249.163700 41000.000000
250.168300 11732.000000
251.143000 4676.000000
252.149700 3480.000000
253.157900 7600.000000
254.162200 2264.000000
255.174400 44076.000000
256.177600 8324.000000
263.179600 12372.000000
264.186500 12080.000000
265.158200 10252.000000
265.195300 98472.000000
266.165400 6416.000000
266.199000 21080.000000
267.174600 408024.000000
268.177800 88044.000000
269.180800 6808.000000
279.174500 2172.000000
281.190300 61680.000000
282.197900 213716.000000
283.204100 102108.000000
284.208300 15136.000000
289.195600 9868.000000
290.198300 2288.000000
292.182800 2092.000000
307.206100 49636.000000
308.209700 12328.000000
310.193500 5036.000000
325.216900 230224.000000
326.220400 60668.000000
327.223900 5368.000000
385.238700 53892.000000
386.241200 16676.000000

