>compound AU24021807
>parentmass 167.0703
>ionization [M+H]+
>formula C9H10O3
>rt 428.268000
>profile qtof
#smiles_iso CCOC(=O)C1=CC=C(C=C1)O
#smiles_can CCOC(=O)C1=CC=C(C=C1)O
#inchikey NUVBSKCKDOMJSU-UHFFFAOYSA-N
#pubchem_id 8434
#mb_accession AU236701,AU236702,AU236703,AU236704,AU236706

>ms2
121.027300 2772.000000
122.031800 332.000000
139.037300 28840.000000
140.040900 2312.000000
167.068600 5972.000000
168.071100 752.000000

>ms2
121.027300 10124.000000
122.030100 844.000000
139.037600 9008.000000
140.043900 496.000000

>ms2
121.027600 3956.000000
122.030800 360.000000
139.038600 632.000000

>ms2
121.027400 932.000000

>ms2
53.039100 388.000000
59.048500 348.000000
95.050100 1508.000000
121.027800 11948.000000
122.029800 756.000000
139.038100 15872.000000
140.041200 1204.000000

