>compound AU25157099
>parentmass 342.1467
>ionization [M+H]+
>formula C17H24ClNO4
>rt 439.190000
>profile qtof
#smiles_iso CCC(=NOC/C=C/Cl)C1=C(CC(CC1=O)C2CCOCC2)O
#smiles_can CCC(=NOCC=CCl)C1=C(CC(CC1=O)C2CCOCC2)O
#inchikey IOYNQIMAUDJVEI-ZFNPBRLTSA-N
#pubchem_id 136055781
#mb_accession AU233501,AU233502,AU233503,AU233504,AU233505,AU233506

>ms2peaks
151.031200 1404.000000
166.085100 8676.000000
215.106300 1640.000000
222.111700 4460.000000
222.147900 4912.000000
232.131900 2480.000000
233.115700 3408.000000
250.143700 238624.000000
251.148900 62596.000000
252.158100 34448.000000
253.161700 4836.000000
288.159900 1572.000000
306.169800 4484.000000
311.028500 1636.000000
324.135800 1916.000000
342.147000 279184.000000
343.150600 40492.000000
344.143800 69720.000000

>ms2peaks
121.063900 3696.000000
131.084300 2048.000000
133.100400 1292.000000
135.078500 2988.000000
136.038400 2084.000000
136.074400 3936.000000
137.057900 1936.000000
138.053700 2428.000000
138.090100 8012.000000
139.061900 1376.000000
139.074800 2464.000000
140.069500 3116.000000
143.084900 1676.000000
145.099700 3132.000000
146.096500 1360.000000
147.079400 1980.000000
148.075000 3676.000000
149.058300 2508.000000
150.090300 1780.000000
151.031100 5308.000000
152.069900 1716.000000
158.095400 2024.000000
159.080200 1376.000000
159.115200 1788.000000
160.074700 5896.000000
160.111200 1980.000000
161.059200 2316.000000
161.094900 3456.000000
162.053600 1580.000000
162.090700 2708.000000
163.074500 1620.000000
164.069200 18784.000000
165.073900 1872.000000
165.088900 1716.000000
166.085000 115556.000000
167.088200 9332.000000
169.100200 1464.000000
173.094700 1856.000000
174.090100 1744.000000
176.105900 4360.000000
178.085400 1240.000000
186.090500 2932.000000
187.110400 3076.000000
188.105200 3732.000000
190.120800 3780.000000
191.104500 1952.000000
194.116500 1416.000000
204.100700 5768.000000
204.136700 8332.000000
205.121100 4928.000000
206.119000 2248.000000
207.123500 1588.000000
208.132100 9316.000000
210.148300 2544.000000
214.120600 2184.000000
215.105400 2488.000000
222.111900 16812.000000
222.148100 43732.000000
223.116000 2360.000000
223.132100 3032.000000
223.152500 7652.000000
224.127300 1440.000000
224.163100 4392.000000
232.132400 6924.000000
233.117800 1920.000000
234.148000 3228.000000
235.132700 3032.000000
250.143400 246368.000000
251.148900 59476.000000
252.157700 32144.000000
253.162100 5172.000000
288.159400 2404.000000
342.146800 9368.000000
343.149900 1736.000000
344.144400 2536.000000

>ms2peaks
115.053400 596.000000
117.069900 1432.000000
118.063400 616.000000
119.047900 680.000000
119.085000 1924.000000
120.043200 684.000000
120.080900 1168.000000
121.064100 6432.000000
121.101100 660.000000
122.060600 2544.000000
122.095300 668.000000
123.044500 596.000000
123.078700 752.000000
124.038200 2336.000000
124.074700 1744.000000
126.054000 776.000000
128.060500 1156.000000
129.069800 2020.000000
130.064400 940.000000
130.074200 808.000000
131.048100 632.000000
131.084200 3884.000000
132.079900 2204.000000
133.063700 2648.000000
133.099800 1940.000000
134.058900 2876.000000
134.095100 1536.000000
135.079700 4328.000000
136.038200 5216.000000
136.074700 13264.000000
137.059000 2956.000000
137.081500 2392.000000
137.093100 620.000000
138.054100 3988.000000
138.090400 14304.000000
139.061100 3588.000000
139.073900 2592.000000
139.094300 1712.000000
140.069600 2616.000000
141.070100 1120.000000
142.048300 1232.000000
143.084200 2528.000000
144.079400 1632.000000
145.063400 1784.000000
145.087500 944.000000
145.100300 2824.000000
146.059100 2292.000000
146.095100 2328.000000
147.043400 2448.000000
147.079400 3016.000000
147.115700 872.000000
148.038100 2488.000000
148.074400 6896.000000
148.111300 2308.000000
149.058700 8664.000000
149.080300 1208.000000
149.094400 1560.000000
150.089000 2612.000000
151.030900 5012.000000
151.074700 776.000000
151.096300 576.000000
152.069600 2396.000000
153.073500 736.000000
154.078700 688.000000
155.058700 572.000000
155.083000 568.000000
156.062600 652.000000
157.087600 676.000000
157.098100 868.000000
158.071400 708.000000
158.094700 2444.000000
159.079100 2512.000000
159.099900 576.000000
159.115000 2484.000000
160.048400 728.000000
160.074200 9992.000000
160.110800 2580.000000
161.058400 2260.000000
161.080800 1308.000000
161.094800 3892.000000
161.115200 520.000000
162.053800 2904.000000
162.090000 3880.000000
162.126100 1080.000000
163.059300 976.000000
163.073400 1600.000000
163.098700 728.000000
163.109800 1404.000000
164.069300 26644.000000
164.105600 1628.000000
165.074400 3180.000000
165.090100 1448.000000
166.085200 103844.000000
167.088800 9764.000000
168.089100 640.000000
169.099900 1448.000000
170.095300 548.000000
171.086000 784.000000
171.102200 640.000000
171.116700 936.000000
172.110700 936.000000
173.094300 1640.000000
174.091300 2056.000000
174.125100 544.000000
175.074700 972.000000
175.098600 1036.000000
175.109300 1120.000000
176.069400 2436.000000
176.106000 4244.000000
176.141800 712.000000
177.090900 1012.000000
177.125200 1164.000000
178.084100 1384.000000
178.121300 1732.000000
180.100500 520.000000
180.136900 2236.000000
181.085400 788.000000
186.090200 2608.000000
186.128700 832.000000
187.110500 2712.000000
188.106600 3920.000000
189.090400 772.000000
189.111000 824.000000
189.127700 652.000000
190.084400 904.000000
190.121500 2160.000000
191.105800 1032.000000
192.101700 1068.000000
192.136300 960.000000
194.117000 1916.000000
194.152600 580.000000
199.098300 684.000000
202.122800 576.000000
204.101500 3200.000000
204.137000 5948.000000
205.120900 3336.000000
205.138300 584.000000
206.119800 2032.000000
207.122400 668.000000
208.133000 6660.000000
209.138100 952.000000
210.146300 1092.000000
214.122000 1396.000000
215.104600 564.000000
222.112300 5280.000000
222.147700 18440.000000
223.113100 520.000000
223.131300 844.000000
223.152300 2876.000000
224.127500 604.000000
224.164100 1876.000000
232.131500 2712.000000
234.148600 5104.000000
235.134600 1016.000000
235.152000 696.000000
250.143100 31144.000000
251.147400 6160.000000
252.159400 3188.000000
288.158700 572.000000

>ms2peaks
115.053600 1768.000000
116.049500 372.000000
116.061800 628.000000
117.068600 1484.000000
118.064000 932.000000
119.047900 576.000000
119.071600 476.000000
119.084300 1772.000000
120.043400 1492.000000
120.080000 1944.000000
121.063500 8472.000000
121.099700 440.000000
122.058400 2948.000000
122.095600 592.000000
123.042300 496.000000
123.063500 596.000000
123.080000 560.000000
124.038100 2696.000000
124.074000 1536.000000
125.041700 304.000000
125.078100 496.000000
126.055300 640.000000
128.060600 2140.000000
129.068200 1808.000000
130.063500 1672.000000
130.075600 728.000000
131.048300 776.000000
131.071700 656.000000
131.084800 3568.000000
132.042500 856.000000
132.078500 2196.000000
133.051200 340.000000
133.063500 2140.000000
133.085800 568.000000
133.100200 1324.000000
134.058700 2604.000000
134.095100 1540.000000
135.062800 348.000000
135.078900 1828.000000
135.098000 312.000000
135.106200 300.000000
136.037600 5012.000000
136.074000 12584.000000
137.040400 432.000000
137.058200 2392.000000
137.080500 2672.000000
138.052500 2344.000000
138.065200 756.000000
138.089900 12756.000000
139.061800 1852.000000
139.073500 1156.000000
139.094000 796.000000
140.069500 1196.000000
141.069000 1252.000000
142.048900 1768.000000
142.063800 492.000000
142.077200 504.000000
143.071500 816.000000
143.083600 2296.000000
144.055600 612.000000
144.079900 1328.000000
145.062900 1304.000000
145.099500 1792.000000
146.058000 1920.000000
146.094400 1816.000000
147.042400 2156.000000
147.066500 1168.000000
147.078200 2160.000000
147.100800 300.000000
147.116000 584.000000
148.037000 2496.000000
148.074000 4364.000000
148.109000 900.000000
149.057800 13164.000000
149.079100 996.000000
149.094900 812.000000
150.061400 1360.000000
150.089700 1488.000000
151.030800 3600.000000
151.072400 412.000000
152.033300 540.000000
152.069000 1644.000000
153.073500 892.000000
154.075300 844.000000
155.055400 416.000000
155.083800 632.000000
156.078400 520.000000
157.062400 392.000000
157.086100 320.000000
158.057200 400.000000
158.070500 544.000000
158.094300 2120.000000
159.078500 1636.000000
159.100100 408.000000
159.115200 1224.000000
160.047000 468.000000
160.073800 5148.000000
160.109400 2192.000000
161.057300 1772.000000
161.080600 1028.000000
161.093600 1392.000000
161.114900 432.000000
162.053900 2388.000000
162.090100 3072.000000
162.126000 552.000000
163.061000 836.000000
163.072000 708.000000
163.094300 556.000000
163.111500 644.000000
164.068800 15064.000000
165.073200 1372.000000
165.085100 784.000000
166.084500 47728.000000
167.088600 4776.000000
168.088200 416.000000
169.099400 468.000000
170.094200 824.000000
171.081300 516.000000
171.104300 500.000000
172.111800 436.000000
173.086100 684.000000
174.089900 1928.000000
175.096200 516.000000
175.110300 444.000000
176.069700 1904.000000
176.105600 1900.000000
177.074500 304.000000
177.089000 632.000000
177.107900 428.000000
177.126200 536.000000
178.085700 764.000000
178.123200 588.000000
180.100600 668.000000
180.136900 664.000000
181.087100 308.000000
184.072300 368.000000
186.089800 720.000000
187.075400 316.000000
187.109600 376.000000
188.106600 1016.000000
189.088500 420.000000
190.084400 752.000000
190.119300 628.000000
191.091400 416.000000
192.100400 552.000000
192.136600 560.000000
194.115600 732.000000
194.152900 332.000000
195.123300 312.000000
199.109700 300.000000
202.087700 316.000000
202.124500 304.000000
204.099800 724.000000
204.135500 1732.000000
205.122000 684.000000
206.114900 544.000000
208.133400 1080.000000
222.112200 516.000000
222.147700 2644.000000
223.153900 364.000000
224.124800 312.000000
232.134700 508.000000
234.146700 4168.000000
235.149600 620.000000
250.142000 2840.000000
251.144800 304.000000

>ms2peaks
111.044300 300.000000
115.053500 1596.000000
116.059900 380.000000
117.056500 864.000000
117.068800 1788.000000
118.065900 976.000000
119.049600 612.000000
119.071100 412.000000
119.085000 824.000000
120.043600 1320.000000
120.079300 1072.000000
121.063700 10688.000000
122.059400 2280.000000
122.097100 308.000000
123.042900 516.000000
123.067700 584.000000
123.080100 512.000000
124.038100 2316.000000
124.074700 1544.000000
126.053100 332.000000
128.060600 2328.000000
129.068700 1956.000000
130.064200 1616.000000
130.075300 684.000000
131.047700 1004.000000
131.074200 768.000000
131.084300 2000.000000
132.044000 1220.000000
132.080100 2012.000000
133.050900 500.000000
133.064100 1000.000000
133.085800 692.000000
133.100600 876.000000
134.058600 1912.000000
134.095500 1444.000000
135.042900 488.000000
135.079800 860.000000
136.038100 2764.000000
136.074500 7224.000000
137.058300 1116.000000
137.081100 1000.000000
138.053600 1216.000000
138.090100 6264.000000
139.061400 780.000000
139.093600 944.000000
140.068400 524.000000
141.069100 1212.000000
142.048500 1460.000000
142.064200 380.000000
142.075500 728.000000
143.070400 732.000000
143.084700 948.000000
144.053900 472.000000
144.078900 1292.000000
144.089500 644.000000
145.062200 1120.000000
145.087400 704.000000
145.098400 520.000000
146.058700 2256.000000
146.094800 1204.000000
147.042500 2224.000000
147.065200 1228.000000
147.080200 1020.000000
147.103100 360.000000
148.038400 1604.000000
148.074200 4296.000000
148.110900 568.000000
149.058100 11856.000000
149.079300 676.000000
150.060400 1408.000000
150.089100 1008.000000
151.031700 1976.000000
151.061100 320.000000
152.069800 940.000000
153.069500 548.000000
154.076100 388.000000
155.060000 416.000000
156.077900 576.000000
157.064600 408.000000
157.085900 524.000000
158.071100 376.000000
158.095400 552.000000
159.066900 328.000000
159.078800 820.000000
159.106100 360.000000
160.049800 424.000000
160.074500 2788.000000
160.110700 960.000000
161.058100 904.000000
161.083100 720.000000
161.093900 680.000000
162.054000 1368.000000
162.090400 1416.000000
163.061800 404.000000
163.097500 376.000000
164.069400 5468.000000
164.106100 536.000000
165.073100 564.000000
166.084700 13824.000000
167.089400 1520.000000
170.094600 440.000000
171.086600 332.000000
171.099900 308.000000
172.077500 356.000000
172.109900 528.000000
173.081100 324.000000
173.094500 328.000000
174.090300 1044.000000
175.069300 388.000000
175.099100 404.000000
176.070100 904.000000
176.106800 692.000000
177.090600 420.000000
177.108400 384.000000
178.120500 308.000000
180.138700 340.000000
188.108100 536.000000
190.086100 608.000000
190.122000 304.000000
192.100200 300.000000
192.135600 368.000000
194.114700 396.000000
202.086000 320.000000
204.137900 312.000000
206.115200 324.000000
206.150200 316.000000
208.132000 380.000000
222.150900 408.000000
234.149200 1620.000000
250.144500 620.000000

>ms2peaks
55.017800 828.000000
55.053700 1628.000000
56.048800 764.000000
57.033700 552.000000
57.070700 840.000000
58.064900 620.000000
67.054100 4524.000000
68.048600 676.000000
69.033400 540.000000
69.069500 1436.000000
70.064600 1544.000000
71.048500 628.000000
71.072600 688.000000
72.044800 1624.000000
72.080500 760.000000
74.999200 3808.000000
76.996400 1292.000000
79.053900 1972.000000
81.032600 612.000000
81.070000 2400.000000
82.064800 1156.000000
83.049200 4728.000000
84.045200 636.000000
85.064500 972.000000
91.054600 1804.000000
93.070200 4092.000000
94.065100 1260.000000
95.049700 1160.000000
95.086000 792.000000
96.044700 5060.000000
96.080800 524.000000
98.059900 4920.000000
105.069700 756.000000
107.086700 872.000000
108.081100 588.000000
109.065400 660.000000
110.060600 2700.000000
113.084400 540.000000
114.091100 892.000000
115.053400 704.000000
117.069500 1520.000000
119.048700 616.000000
119.085100 3300.000000
120.043800 736.000000
120.080700 1120.000000
121.064200 5664.000000
121.100400 540.000000
122.058800 3016.000000
123.043800 648.000000
123.079500 848.000000
124.038400 2000.000000
124.075000 1408.000000
126.054900 1280.000000
128.060600 820.000000
129.068200 1168.000000
130.064200 776.000000
131.085200 2720.000000
132.079500 1920.000000
133.064900 1928.000000
133.100200 2180.000000
134.059000 1900.000000
134.095400 992.000000
135.079700 4024.000000
136.039300 4516.000000
136.075300 11408.000000
137.058700 2796.000000
137.081600 1548.000000
138.053900 2736.000000
138.090800 14348.000000
139.061700 3300.000000
139.074800 2428.000000
139.093000 1044.000000
140.069900 3212.000000
141.069900 756.000000
142.049500 1464.000000
143.071100 592.000000
143.084900 1636.000000
144.080400 1516.000000
144.090200 508.000000
145.064700 1344.000000
145.086900 540.000000
145.100300 2996.000000
146.060300 1716.000000
146.095100 1216.000000
147.042600 1592.000000
147.067200 1260.000000
147.080400 2428.000000
147.115600 748.000000
148.039200 1732.000000
148.074300 5496.000000
148.110900 1852.000000
149.059400 6456.000000
149.080900 892.000000
149.096300 1216.000000
150.061800 1064.000000
150.090300 2268.000000
151.031700 4204.000000
152.069500 2228.000000
153.075400 796.000000
156.064600 740.000000
157.100300 644.000000
158.095200 2112.000000
159.080100 1788.000000
159.115400 2028.000000
160.074700 7500.000000
160.110900 2140.000000
161.059300 1928.000000
161.079600 1116.000000
161.094400 2820.000000
162.055100 2268.000000
162.091000 2188.000000
162.126200 916.000000
163.063600 864.000000
163.073600 1296.000000
163.110800 1296.000000
164.069800 23536.000000
165.073800 2616.000000
165.089400 1712.000000
166.085700 100168.000000
167.089400 9324.000000
168.089000 740.000000
169.100200 1420.000000
170.096900 732.000000
171.079100 804.000000
171.104800 508.000000
171.114000 640.000000
172.111300 880.000000
173.095200 2160.000000
174.090600 1668.000000
174.126300 520.000000
175.074600 820.000000
175.096800 1004.000000
175.111100 1040.000000
176.070000 1424.000000
176.106100 3976.000000
176.142000 688.000000
177.074900 680.000000
177.089400 1040.000000
177.111700 572.000000
177.127700 800.000000
178.084300 832.000000
178.121500 1432.000000
179.091300 640.000000
180.104300 720.000000
180.137700 1256.000000
181.086500 676.000000
186.089800 2064.000000
186.127700 1060.000000
187.111000 2324.000000
188.106400 4412.000000
189.089800 1424.000000
189.115300 720.000000
190.086100 928.000000
190.121800 3496.000000
191.107800 1672.000000
192.099400 1028.000000
192.138300 884.000000
194.117600 1556.000000
194.152500 584.000000
202.121300 1184.000000
204.102000 4156.000000
204.138200 5968.000000
205.086600 512.000000
205.122000 3288.000000
205.140900 1044.000000
206.117700 1844.000000
207.123700 896.000000
208.132800 6744.000000
209.136400 764.000000
210.148400 1912.000000
214.122700 1196.000000
215.106000 1092.000000
220.132100 784.000000
222.112000 9248.000000
222.148900 27632.000000
223.116700 1368.000000
223.131600 808.000000
223.153000 4440.000000
224.129900 1032.000000
224.162900 2232.000000
232.132700 4048.000000
233.116900 980.000000
233.135100 772.000000
234.148000 4008.000000
235.133600 1624.000000
235.152200 800.000000
250.144100 89632.000000
251.149100 19828.000000
252.158600 8064.000000
253.163800 1476.000000
288.159700 972.000000
342.147000 1760.000000
344.146300 508.000000

