>compound AU25750875
>parentmass 262.1186
>ionization [M+H]+
>formula C13H15N3O3
>rt 254.676000
>profile qtof
#smiles_iso CC(C)C1(C(=O)NC(=N1)C2=C(C=CC=N2)C(=O)O)C
#smiles_can CC(C)C1(C(=O)NC(=N1)C2=C(C=CC=N2)C(=O)O)C
#inchikey CLQMBPJKHLGMQK-UHFFFAOYSA-N
#pubchem_id 54738
#mb_accession AU263001,AU263002,AU263003,AU263005,AU263006

>ms2
217.096000 15528.000000
220.070800 23852.000000
234.123100 26448.000000
262.118900 2243152.000000
263.121600 370096.000000
264.122900 29052.000000

>ms2
147.054700 6524.000000
148.049400 15016.000000
149.033600 70060.000000
173.106400 44680.000000
174.064900 15944.000000
191.067900 8192.000000
199.085500 22816.000000
202.060500 122972.000000
203.063300 12728.000000
216.112700 54460.000000
217.096800 561032.000000
218.099800 61136.000000
219.062600 7812.000000
220.071300 360084.000000
221.073700 31992.000000
234.123500 320108.000000
235.126100 35508.000000
244.107500 13400.000000
262.118600 1171532.000000
263.121500 125520.000000
264.123400 12048.000000

>ms2
131.022900 56140.000000
132.026300 4160.000000
132.079300 1652.000000
133.038200 9104.000000
136.038500 2012.000000
147.054300 51520.000000
148.049300 44352.000000
149.033700 326040.000000
150.036500 19636.000000
151.041200 1696.000000
166.060000 2220.000000
171.090000 2476.000000
173.057000 5564.000000
173.106300 25168.000000
174.065200 128616.000000
175.067900 12616.000000
175.084900 10656.000000
176.079600 5236.000000
177.064500 4444.000000
178.061200 1996.000000
191.068000 19340.000000
192.073300 3764.000000
199.085500 58720.000000
200.088800 7668.000000
201.052000 10980.000000
202.060400 278588.000000
203.063000 29048.000000
204.065200 2208.000000
216.111800 17000.000000
217.096700 260696.000000
218.099500 32156.000000
219.063000 11636.000000
219.101800 2660.000000
220.070800 84228.000000
221.073300 10180.000000
234.123300 33692.000000
235.126100 4932.000000
262.117900 29272.000000
263.120900 4104.000000

>ms2
119.059200 1240.000000
129.043200 2804.000000
130.063200 1416.000000
131.022900 114484.000000
132.026500 9000.000000
133.038500 19848.000000
134.042000 1356.000000
136.036900 756.000000
144.080100 580.000000
145.062500 1128.000000
146.070400 1508.000000
147.054100 74140.000000
148.054700 8404.000000
149.033400 47400.000000
150.036300 3520.000000
155.060600 676.000000
156.066300 1856.000000
157.072800 1164.000000
159.041600 724.000000
160.061800 956.000000
171.089100 1024.000000
172.049000 840.000000
173.057000 1140.000000
174.064900 15200.000000
175.068000 2020.000000
175.084200 860.000000
183.052200 688.000000
184.060700 1232.000000
186.066100 1140.000000
191.067500 1128.000000
192.073000 812.000000
199.085000 752.000000
201.052400 660.000000
202.059800 7932.000000
203.064200 1228.000000

>ms2
58.064700 2800.000000
69.069400 146024.000000
70.072700 6540.000000
71.072500 2600.000000
71.084900 1952.000000
86.096300 152628.000000
87.099700 8524.000000
97.064900 5564.000000
105.045700 6400.000000
131.023100 18396.000000
133.038700 2764.000000
147.054200 18948.000000
148.049200 24232.000000
149.033700 124984.000000
150.036600 8124.000000
166.060000 2620.000000
173.105900 26184.000000
174.065200 52484.000000
175.067800 5696.000000
175.085000 6668.000000
176.079800 3472.000000
177.065200 2308.000000
190.132300 2444.000000
191.067800 10900.000000
192.074800 2624.000000
199.085600 29108.000000
200.088200 3220.000000
201.051600 4604.000000
202.060400 129824.000000
203.063300 13844.000000
216.112700 25072.000000
217.096600 278548.000000
218.099700 42900.000000
219.062800 8340.000000
219.102800 3104.000000
220.071300 152608.000000
221.074200 14876.000000
234.123400 126524.000000
235.125800 15420.000000
244.107000 5900.000000
262.118500 379236.000000
263.121700 49204.000000
264.122300 5084.000000

