>compound AU25979040
>parentmass 330.15
>ionization [M+H]+
>formula C19H20FNO3
>rt 478.740000
>profile qtof
#smiles_iso C1CNC[C@H]([C@@H]1C2=CC=C(C=C2)F)COC3=CC4=C(C=C3)OCO4
#smiles_can C1CNCC(C1C2=CC=C(C=C2)F)COC3=CC4=C(C=C3)OCO4
#inchikey AHOUBRCZNHFOSL-YOEHRIQHSA-N
#pubchem_id 43815
#mb_accession AU152606

>ms2peaks
56.048400 7200.000000
57.056700 1396.000000
58.064200 1224.000000
68.048200 2132.000000
70.064200 87192.000000
71.067700 5472.000000
82.064500 1452.000000
86.059200 1432.000000
97.088000 1136.000000
109.044800 3412.000000
123.043300 5524.000000
123.059300 9464.000000
135.059600 9860.000000
136.066400 3848.000000
137.074900 2268.000000
138.070300 1600.000000
139.038000 2192.000000
147.059900 2188.000000
148.067100 1552.000000
149.075300 1944.000000
150.071300 3444.000000
151.038500 20932.000000
152.041400 1656.000000
161.075900 4256.000000
163.090900 18528.000000
164.092000 2480.000000
175.090600 1636.000000
176.099100 3304.000000
178.101800 10172.000000
179.104000 1760.000000
190.101800 1660.000000
192.118200 101684.000000
193.122800 17184.000000
194.125700 1320.000000
208.111600 1724.000000
313.124000 2644.000000
330.150500 220584.000000
331.154100 49580.000000
332.155800 6276.000000

