>compound AU25428965
>parentmass 528.078
>ionization [M+H]+
>formula C22H17ClF3N3O7
>rt 694.650000
>profile qtof
#smiles_iso COC(=O)[C@]12CC3=C(C1=NN(CO2)C(=O)N(C4=CC=C(C=C4)OC(F)(F)F)C(=O)OC)C=CC(=C3)Cl
#smiles_can COC(=O)C12CC3=C(C1=NN(CO2)C(=O)N(C4=CC=C(C=C4)OC(F)(F)F)C(=O)OC)C=CC(=C3)Cl
#inchikey VBCVPMMZEGZULK-NRFANRHFSA-N
#pubchem_id 107720
#mb_accession AU259801,AU259802,AU259803,AU259804,AU259805,AU259806

>ms2peaks
150.009200 2888.000000
168.020100 1748.000000
190.004800 2464.000000
196.014200 1272.000000
218.041200 5940.000000
223.014600 1612.000000
249.041900 17036.000000
250.044200 1820.000000
251.038900 4132.000000
267.052200 4904.000000
269.049800 1344.000000
291.058200 1848.000000
293.031700 35336.000000
294.034700 6032.000000
295.029200 11388.000000
325.057600 1396.000000
484.085000 1652.000000
496.052100 5424.000000
498.049700 1872.000000
528.077900 240556.000000
529.081200 56996.000000
530.075600 71308.000000

>ms2peaks
150.009300 43728.000000
151.012700 4324.000000
152.006400 12380.000000
160.049100 996.000000
162.010000 1828.000000
163.029200 876.000000
168.019700 24308.000000
169.022900 2168.000000
170.016900 7456.000000
178.004600 9988.000000
179.005900 1180.000000
180.002000 2644.000000
189.020100 7040.000000
190.004000 33304.000000
191.008100 4200.000000
192.001200 9196.000000
193.005500 912.000000
194.035000 892.000000
195.019400 1820.000000
196.014700 16104.000000
197.017700 1764.000000
198.012100 4928.000000
203.017600 15304.000000
204.022300 1368.000000
206.035200 2768.000000
207.029000 1948.000000
208.015200 2700.000000
208.032100 1020.000000
209.028700 836.000000
210.012100 856.000000
214.023600 1264.000000
214.073000 3368.000000
215.039600 1180.000000
216.025700 972.000000
217.015300 20440.000000
218.041600 163604.000000
219.011400 5908.000000
219.044800 14264.000000
220.044700 928.000000
221.028200 1296.000000
221.046900 1588.000000
222.031400 1736.000000
223.014500 25600.000000
223.038800 1884.000000
224.017900 3712.000000
225.011900 6652.000000
230.994200 2180.000000
232.992700 1264.000000
235.026300 3912.000000
237.024700 1312.000000
249.042000 143756.000000
250.044700 18708.000000
251.039100 37368.000000
252.041200 3936.000000
262.032200 3192.000000
263.021400 18856.000000
264.023500 2508.000000
265.018700 6192.000000
265.036200 11752.000000
266.039500 1568.000000
267.051500 10196.000000
268.054400 1624.000000
269.049700 2564.000000
280.043300 1576.000000
281.067100 1788.000000
291.058400 6308.000000
293.031900 103796.000000
294.034100 16720.000000
295.028800 28152.000000
296.032700 3220.000000
311.040400 928.000000
325.058400 4516.000000
326.062000 892.000000
327.054300 1788.000000
422.049600 1028.000000
452.063200 3536.000000
454.063800 1448.000000
484.085500 5104.000000
485.087500 1296.000000
486.085200 1444.000000
496.052000 13548.000000
497.054900 4144.000000
498.049100 5176.000000
499.055900 944.000000
528.077300 30732.000000
529.080000 9036.000000
530.075200 10692.000000

>ms2peaks
132.043900 2608.000000
150.009200 53716.000000
151.012500 5652.000000
152.006000 13696.000000
155.058800 2024.000000
160.048800 3736.000000
162.009500 5936.000000
163.029300 2680.000000
164.006700 1708.000000
164.025500 2120.000000
165.029200 1228.000000
167.024700 1652.000000
168.019700 33008.000000
169.023000 3844.000000
170.016600 8976.000000
177.031400 1040.000000
178.004000 2704.000000
179.026100 3324.000000
180.001000 1184.000000
180.019500 3280.000000
189.019900 10280.000000
190.004000 45272.000000
190.046200 5692.000000
191.009100 4440.000000
192.001200 12980.000000
192.021100 1360.000000
194.034100 992.000000
195.019600 4220.000000
196.015300 3804.000000
197.015700 1540.000000
198.012100 1304.000000
203.017900 76784.000000
204.009000 2864.000000
204.020100 6508.000000
206.035500 1620.000000
207.021300 6040.000000
208.015800 3560.000000
209.017500 2076.000000
210.013400 1436.000000
214.072200 4504.000000
215.040800 2492.000000
216.026100 1012.000000
217.014700 26948.000000
218.041200 193816.000000
219.012200 7412.000000
219.032300 13136.000000
219.042900 15920.000000
220.034000 2180.000000
221.026700 4544.000000
221.046600 2332.000000
222.030300 1496.000000
223.014200 23084.000000
224.018100 4248.000000
225.012000 6380.000000
225.028600 2608.000000
230.994400 5084.000000
232.992100 1908.000000
235.025200 3444.000000
249.041400 37840.000000
250.045200 5188.000000
251.038600 11120.000000
263.021100 16768.000000
264.023700 2996.000000
265.018400 5152.000000
265.033600 3188.000000
267.054800 976.000000
293.032000 7916.000000
294.036700 976.000000
295.029000 1696.000000
422.048600 1136.000000
454.073700 1028.000000

>ms2peaks
122.999200 1700.000000
127.040500 1584.000000
128.061000 2800.000000
132.043400 6236.000000
134.022600 3252.000000
137.014400 1448.000000
142.064500 1268.000000
149.014200 3184.000000
150.009300 53980.000000
151.012700 4072.000000
152.006300 14160.000000
155.059200 5092.000000
160.049300 9184.000000
162.009500 15904.000000
163.013000 1872.000000
163.030500 4464.000000
164.006400 5696.000000
164.024500 3244.000000
165.030800 2244.000000
166.022600 1052.000000
167.024500 4664.000000
168.019900 31360.000000
169.023200 4380.000000
170.016800 9564.000000
176.024000 2248.000000
177.008500 2216.000000
177.032300 4116.000000
178.040500 1784.000000
179.025100 7668.000000
180.019700 6332.000000
181.022300 2852.000000
182.017800 2092.000000
189.020200 14816.000000
190.004400 51284.000000
190.025300 2868.000000
190.046700 14340.000000
191.011700 6200.000000
191.035700 1088.000000
191.050500 1116.000000
192.001300 14812.000000
192.018700 1816.000000
194.036000 1184.000000
195.019500 13252.000000
196.022900 1912.000000
197.017500 3244.000000
199.049700 1252.000000
203.018100 209888.000000
204.021200 16180.000000
205.015900 1492.000000
206.004300 2448.000000
207.020000 10716.000000
208.016400 6288.000000
209.017500 3476.000000
210.011700 2148.000000
214.072400 2780.000000
215.042300 2516.000000
216.026100 1304.000000
217.015500 21188.000000
218.041500 104192.000000
219.012400 6312.000000
219.031300 22224.000000
220.034500 2744.000000
221.028500 6148.000000
222.030100 1088.000000
223.014300 10756.000000
224.020000 1872.000000
225.012100 3920.000000
225.029100 1664.000000
230.994600 5428.000000
232.990300 1740.000000
235.025700 1112.000000
249.041700 7092.000000
251.039000 3176.000000
263.021200 6208.000000
265.017300 2460.000000
390.024700 1152.000000

>ms2peaks
115.053700 1516.000000
122.998300 1868.000000
127.040300 3552.000000
128.061000 4404.000000
132.043400 9320.000000
134.022600 10036.000000
137.014600 1836.000000
142.063900 2972.000000
149.014300 5132.000000
150.009300 39904.000000
151.011700 6288.000000
152.005900 11420.000000
154.038300 1640.000000
155.059100 5524.000000
156.065300 1540.000000
160.049100 4836.000000
162.009500 31092.000000
163.013000 4616.000000
163.030500 4212.000000
164.005600 7896.000000
164.025200 3516.000000
165.029900 2820.000000
166.020800 1732.000000
167.025000 7924.000000
168.019800 23912.000000
169.022800 5612.000000
170.017500 6980.000000
175.003200 1688.000000
175.022700 2140.000000
176.026000 2468.000000
177.009300 2224.000000
177.033300 6148.000000
178.038400 1704.000000
179.025500 10620.000000
180.020400 6304.000000
181.022100 3636.000000
182.016900 2264.000000
189.020300 12640.000000
190.004400 28952.000000
190.024000 1992.000000
190.046300 13788.000000
191.011200 3848.000000
191.049200 1636.000000
192.001300 8408.000000
192.018300 2464.000000
195.019900 11428.000000
196.022600 1500.000000
197.017300 3296.000000
203.018200 284296.000000
204.020700 19172.000000
205.022700 1524.000000
206.004600 2080.000000
207.020100 8028.000000
208.016300 4100.000000
209.016700 2588.000000
215.041500 2676.000000
216.026000 1512.000000
217.015500 9172.000000
218.018500 2016.000000
218.041400 24036.000000
219.013200 2668.000000
219.030800 13444.000000
220.034500 1940.000000
221.028600 4064.000000
223.015600 2864.000000
230.995700 2084.000000

>ms2peaks
45.033300 956.000000
56.012800 30508.000000
57.016200 972.000000
75.043600 2404.000000
104.049500 720.000000
128.060600 948.000000
132.043400 2356.000000
134.021800 1332.000000
146.033300 916.000000
149.013700 1072.000000
150.009200 24540.000000
150.053400 1372.000000
151.012800 2224.000000
152.006700 8464.000000
153.010300 676.000000
155.059200 2040.000000
160.049300 5148.000000
161.051500 1100.000000
162.009300 6660.000000
163.010600 800.000000
163.029600 2532.000000
164.005800 1944.000000
164.024500 1664.000000
165.028600 1628.000000
166.022200 728.000000
167.025000 1916.000000
168.020300 49628.000000
169.023600 4240.000000
170.017300 15892.000000
171.020800 960.000000
176.025500 1068.000000
177.008700 648.000000
177.032200 1160.000000
178.004300 1772.000000
178.040200 1220.000000
179.025500 4420.000000
180.020500 3648.000000
181.021400 1272.000000
182.016700 748.000000
189.020900 11060.000000
190.004800 38212.000000
190.046900 6720.000000
191.012300 3448.000000
192.001700 9800.000000
192.020900 1328.000000
193.005100 1012.000000
194.036900 1544.000000
195.020800 6384.000000
196.015700 7292.000000
197.016700 2276.000000
197.045400 736.000000
198.012400 1572.000000
203.018500 106412.000000
204.020700 7160.000000
205.011000 860.000000
205.022100 1028.000000
205.051900 712.000000
206.006500 1024.000000
206.035300 1184.000000
207.022500 4900.000000
208.015400 6236.000000
209.017700 2324.000000
210.012500 1564.000000
214.072000 3248.000000
215.040700 2192.000000
215.076900 656.000000
216.025700 676.000000
217.015700 21736.000000
218.042200 128156.000000
219.013300 5152.000000
219.031800 14804.000000
219.043700 13736.000000
220.017600 924.000000
220.035100 1908.000000
221.028500 4100.000000
221.048400 1592.000000
222.031000 1608.000000
223.015100 18700.000000
224.018600 2416.000000
225.012900 5700.000000
225.031300 1808.000000
226.026700 1368.000000
227.028800 784.000000
230.995700 3636.000000
231.033200 788.000000
232.993000 1088.000000
235.026400 2776.000000
237.024400 1028.000000
249.042700 45204.000000
250.045600 5256.000000
251.039700 12304.000000
252.042700 1348.000000
263.021600 14408.000000
264.024900 2004.000000
265.020200 3680.000000
265.036500 2120.000000
267.035300 1024.000000
267.051100 1776.000000
269.047900 696.000000
280.042900 672.000000
291.058800 996.000000
293.032900 8996.000000
294.034800 1900.000000
295.029100 2956.000000
325.058900 1120.000000
452.062600 688.000000
454.076100 700.000000
484.083900 760.000000
496.049900 732.000000
496.058400 808.000000
498.057500 700.000000
528.083200 736.000000

