>compound AU25345773
>parentmass 414.9933
>ionization [M+H]+
>formula C18H14Cl4N2O
>rt 624.684000
>profile qtof
#smiles_iso C1=CC(=C(C=C1Cl)Cl)COC(CN2C=CN=C2)C3=C(C=C(C=C3)Cl)Cl
#smiles_can C1=CC(=C(C=C1Cl)Cl)COC(CN2C=CN=C2)C3=C(C=C(C=C3)Cl)Cl
#inchikey BYBLEWFAAKGYCD-UHFFFAOYSA-N
#pubchem_id 4189
#mb_accession AU270602,AU270603,AU270604,AU270605,AU270606

>ms2peaks
119.085200 2996.000000
120.089000 452.000000
135.079400 1620.000000

>ms2peaks
115.054900 436.000000
117.070400 528.000000
119.084600 10096.000000
120.088200 1684.000000
129.054600 432.000000
133.063400 496.000000
135.079200 6008.000000
136.082400 684.000000

>ms2peaks
119.084600 6328.000000
120.088700 932.000000
135.079500 2452.000000

>ms2peaks
115.051300 336.000000
117.069800 376.000000
119.085100 5540.000000
120.088000 820.000000
133.064000 344.000000
135.080500 1288.000000
158.973700 308.000000

>ms2peaks
107.084500 488.000000
115.053000 372.000000
119.085200 18164.000000
120.088300 1576.000000
129.053000 736.000000
133.065100 388.000000
135.079500 7012.000000
136.082500 1096.000000

