>compound AU25439808
>parentmass 331.22679999999997
>ionization [M+H]+
>formula C21H30O3
>rt 599.940000
>profile qtof
#smiles_iso CC(=O)C1(CCC2C1(CCC3C2CCC4=CC(=O)CCC34C)C)O
#smiles_can CC(=O)C1(CCC2C1(CCC3C2CCC4=CC(=O)CCC34C)C)O
#inchikey DBPWSSGDRRHUNT-UHFFFAOYSA-N
#pubchem_id 521928
#mb_accession AU239701,AU239702,AU239703,AU239704,AU239705,AU239706

>ms2peaks
313.216300 12364.000000
331.227000 896224.000000
332.230500 164840.000000
333.232800 19560.000000

>ms2peaks
121.063700 2152.000000
123.079400 6388.000000
137.095200 4848.000000
145.100000 6128.000000
147.115600 3328.000000
149.095700 2384.000000
157.100200 3404.000000
159.115500 5484.000000
161.131200 4520.000000
163.110500 10888.000000
171.115600 5068.000000
173.131400 4532.000000
175.110600 4360.000000
175.146600 5824.000000
177.126400 9140.000000
185.131300 3128.000000
187.147400 4588.000000
189.126700 4344.000000
191.142200 2628.000000
197.131200 2688.000000
199.146500 6296.000000
203.142500 3836.000000
205.157700 10112.000000
211.147300 3344.000000
213.162600 5728.000000
215.142400 2256.000000
217.157500 8720.000000
225.162900 2680.000000
229.157800 3776.000000
231.173300 7160.000000
237.162400 4620.000000
241.157600 3512.000000
243.173900 2680.000000
245.189200 2656.000000
251.178800 2728.000000
253.194400 23188.000000
254.197700 5240.000000
255.173800 6908.000000
259.169000 4348.000000
269.189500 6472.000000
270.195500 3660.000000
271.205300 36800.000000
272.208300 7420.000000
277.195000 6004.000000
285.219500 2424.000000
287.201300 3156.000000
289.215300 6180.000000
295.205000 36012.000000
296.209900 7792.000000
313.216000 87904.000000
314.219400 18404.000000
315.222200 2292.000000
331.226800 427152.000000
332.230000 78888.000000
333.233200 10812.000000

>ms2peaks
109.065300 1076.000000
117.069100 696.000000
119.085000 4196.000000
120.088200 572.000000
121.064100 3248.000000
121.100900 1948.000000
122.067600 316.000000
123.079600 12620.000000
124.084000 1128.000000
125.097300 380.000000
127.075700 548.000000
128.061100 584.000000
129.069600 1076.000000
131.085200 5112.000000
132.088900 744.000000
133.100000 6888.000000
135.079400 2852.000000
135.116200 3432.000000
136.084800 420.000000
137.094900 7412.000000
138.097900 660.000000
139.111600 516.000000
141.069200 732.000000
142.075500 672.000000
143.084200 4128.000000
144.088600 836.000000
145.100200 14480.000000
146.104300 1968.000000
147.080100 1724.000000
147.115800 8768.000000
148.084800 332.000000
148.118900 1280.000000
149.095400 4472.000000
149.131200 2328.000000
150.098500 836.000000
150.135500 388.000000
151.111000 1844.000000
153.090400 420.000000
155.084400 1508.000000
156.091900 560.000000
157.100400 6556.000000
158.104900 1304.000000
159.115500 12508.000000
160.120100 2608.000000
161.095200 2508.000000
161.131000 7776.000000
162.100700 416.000000
162.134300 1328.000000
163.111000 14208.000000
163.146800 2364.000000
164.113500 1484.000000
165.126600 956.000000
167.083900 588.000000
168.091100 312.000000
169.099600 4300.000000
170.103800 816.000000
171.115600 10320.000000
172.120400 1936.000000
173.094700 1280.000000
173.131500 10164.000000
174.099900 356.000000
174.134200 940.000000
175.110700 5280.000000
175.146900 10072.000000
176.114100 856.000000
176.149700 1696.000000
177.126500 10904.000000
178.130100 1628.000000
179.107200 460.000000
179.141700 472.000000
181.100700 1488.000000
182.104500 472.000000
183.115600 4392.000000
184.120100 1148.000000
185.095800 540.000000
185.131300 8172.000000
186.135900 2064.000000
187.110000 2580.000000
187.147300 8100.000000
188.113400 600.000000
188.151300 1256.000000
189.126100 5716.000000
189.161800 2876.000000
190.131100 1284.000000
190.167000 480.000000
191.142400 2520.000000
192.143600 312.000000
195.115500 2744.000000
196.120400 612.000000
197.131700 6128.000000
198.137600 1540.000000
199.111800 1032.000000
199.147200 10104.000000
200.150900 1644.000000
201.126000 2656.000000
201.162600 2136.000000
202.128700 376.000000
203.141200 5388.000000
203.176600 568.000000
204.144000 988.000000
205.157800 6028.000000
206.162200 1248.000000
207.116400 876.000000
209.131700 2224.000000
210.137600 636.000000
211.147500 6828.000000
212.152200 1456.000000
213.126000 2132.000000
213.162900 8100.000000
214.131800 380.000000
214.167100 1520.000000
215.141900 2968.000000
215.178500 796.000000
216.148100 840.000000
217.158000 6836.000000
218.162000 944.000000
219.135600 372.000000
219.173400 392.000000
221.131400 1348.000000
221.149500 336.000000
222.137100 868.000000
223.146500 1520.000000
223.166500 308.000000
224.154000 504.000000
225.127900 1048.000000
225.163400 3440.000000
226.134400 360.000000
226.165700 936.000000
227.141800 1340.000000
227.180000 2516.000000
228.146500 408.000000
229.158400 4140.000000
229.193800 480.000000
230.161100 824.000000
231.139300 484.000000
231.173900 2344.000000
232.178900 632.000000
235.147600 1452.000000
236.149800 364.000000
237.162900 5884.000000
238.166700 1264.000000
239.143000 1916.000000
239.177400 908.000000
240.149400 512.000000
240.183100 404.000000
241.158500 2528.000000
242.165000 588.000000
243.135700 516.000000
243.173200 2820.000000
243.208400 304.000000
244.180000 468.000000
245.190200 1416.000000
248.157800 420.000000
249.161600 1016.000000
251.178100 3148.000000
252.186800 2404.000000
253.157900 1628.000000
253.194700 20424.000000
254.162400 352.000000
254.197600 4676.000000
255.173300 7372.000000
255.198500 440.000000
256.177800 1588.000000
257.154000 352.000000
257.189200 656.000000
259.168600 2340.000000
262.171700 304.000000
267.175000 1116.000000
267.210800 1536.000000
268.212100 316.000000
269.189600 5288.000000
270.196800 4760.000000
271.205200 19400.000000
272.208300 4196.000000
273.184200 984.000000
273.211600 356.000000
274.187000 404.000000
277.193700 3684.000000
278.199000 1136.000000
280.183800 460.000000
285.183900 424.000000
285.219200 944.000000
287.200500 1104.000000
288.207000 500.000000
289.214500 2288.000000
290.218600 572.000000
295.205900 14468.000000
296.208000 3528.000000
297.211700 492.000000
313.215700 16388.000000
314.220100 3812.000000
315.222700 620.000000
331.226800 17056.000000
332.230400 5128.000000

>ms2peaks
109.063700 572.000000
115.054300 816.000000
117.068600 1736.000000
119.084500 5160.000000
120.087700 748.000000
121.063900 2044.000000
121.100100 1516.000000
123.079600 11672.000000
124.083100 1000.000000
125.094900 304.000000
128.061100 1416.000000
129.069600 2560.000000
130.075800 1180.000000
131.084400 6056.000000
133.062900 644.000000
133.099800 6340.000000
134.104000 1172.000000
135.078600 2084.000000
135.115200 2068.000000
137.094400 4104.000000
138.097700 420.000000
141.067900 1344.000000
142.076500 1476.000000
143.084200 5728.000000
144.090700 1476.000000
145.100100 13880.000000
146.103300 1956.000000
147.079500 2280.000000
147.115200 9796.000000
148.085700 812.000000
148.119000 1004.000000
149.095100 2540.000000
149.131500 1508.000000
150.098100 476.000000
151.111400 728.000000
153.068900 504.000000
154.078800 344.000000
155.084100 3612.000000
156.091500 2000.000000
157.099800 8288.000000
158.104300 1400.000000
159.077700 576.000000
159.115400 11256.000000
160.119600 1812.000000
161.094400 2436.000000
161.131200 5248.000000
162.099900 376.000000
162.134000 792.000000
163.110400 7028.000000
163.147300 1080.000000
164.114500 888.000000
165.068700 380.000000
167.084100 712.000000
168.091100 920.000000
169.099800 5632.000000
170.106500 1840.000000
171.115400 8140.000000
172.120500 1284.000000
173.094800 1112.000000
173.131400 6152.000000
174.104000 352.000000
174.135700 1432.000000
175.111200 2892.000000
175.146600 5468.000000
176.116300 484.000000
176.151500 916.000000
177.125300 4044.000000
178.127500 728.000000
180.090600 448.000000
181.100500 1332.000000
182.106600 868.000000
183.115300 4084.000000
184.121600 928.000000
185.096100 404.000000
185.131200 4528.000000
186.134000 872.000000
187.109800 1240.000000
187.146500 3352.000000
188.150200 600.000000
189.125600 2220.000000
189.162000 752.000000
191.140300 964.000000
192.091100 304.000000
193.098200 760.000000
194.106700 332.000000
195.115100 2904.000000
196.121000 796.000000
197.131400 4012.000000
198.137900 1432.000000
199.109800 528.000000
199.147400 4224.000000
200.151100 1020.000000
201.126100 1344.000000
201.162500 872.000000
202.131900 436.000000
203.142700 1096.000000
205.157900 1276.000000
206.107800 332.000000
207.115800 712.000000
208.121500 416.000000
209.132200 1400.000000
210.139500 652.000000
211.110000 328.000000
211.147000 4220.000000
212.153100 1404.000000
213.126200 828.000000
213.162600 4560.000000
214.134600 320.000000
214.165600 1208.000000
215.141300 1096.000000
216.147200 376.000000
217.156800 932.000000
221.128100 508.000000
222.141600 744.000000
223.146500 1164.000000
224.153500 472.000000
225.127500 328.000000
225.161600 1648.000000
227.141100 536.000000
227.175900 668.000000
229.157500 724.000000
231.177700 344.000000
233.132300 384.000000
235.147900 416.000000
236.154000 540.000000
237.162500 3232.000000
238.167100 836.000000
239.143000 676.000000
240.147700 388.000000
241.156700 792.000000
242.162700 344.000000
243.175600 556.000000
248.155300 316.000000
249.166700 344.000000
251.178800 1608.000000
252.184200 1468.000000
253.194200 4320.000000
254.197300 884.000000
255.174600 2320.000000
256.177500 792.000000
265.160900 392.000000
269.190400 924.000000
270.198300 1344.000000
271.204400 2552.000000
272.209200 588.000000
277.191600 484.000000
280.181400 476.000000
285.189900 316.000000
295.204100 1008.000000
313.216800 432.000000

>ms2peaks
109.063800 368.000000
115.054000 1384.000000
116.062100 408.000000
117.068700 2240.000000
119.085100 5016.000000
121.063900 1624.000000
121.100700 1408.000000
122.069800 668.000000
123.079700 8592.000000
124.083300 688.000000
127.052700 352.000000
128.060700 3488.000000
129.068200 5424.000000
130.077100 1976.000000
131.084500 6404.000000
132.088200 968.000000
133.064000 776.000000
133.099900 4344.000000
135.079700 1264.000000
135.116000 844.000000
137.095300 1488.000000
141.068800 2812.000000
142.076500 3568.000000
143.084000 6152.000000
144.091200 2228.000000
145.099800 11836.000000
146.069700 576.000000
146.104400 1096.000000
147.079800 1632.000000
147.115800 5148.000000
148.087200 1176.000000
148.119100 692.000000
149.095200 1880.000000
149.130400 688.000000
151.109900 348.000000
152.059500 324.000000
153.068100 1136.000000
154.075300 1104.000000
155.084400 3384.000000
156.091700 4012.000000
157.099800 5060.000000
158.107500 828.000000
159.080500 684.000000
159.115300 5624.000000
160.121200 916.000000
161.094600 1236.000000
161.131600 2004.000000
162.102400 484.000000
162.135100 404.000000
163.110800 2928.000000
163.147400 348.000000
164.113200 428.000000
165.069000 808.000000
166.074700 420.000000
167.083700 1428.000000
168.091600 1232.000000
169.099700 3752.000000
170.106100 1700.000000
171.080500 376.000000
171.115200 3808.000000
172.123300 968.000000
173.095500 628.000000
173.131200 2664.000000
174.106700 300.000000
174.137000 460.000000
175.111200 1228.000000
175.148000 1468.000000
177.127000 856.000000
179.085000 860.000000
180.093700 748.000000
181.101000 1972.000000
182.108200 1516.000000
183.115600 3780.000000
184.121200 796.000000
185.131200 2428.000000
186.135600 428.000000
187.110000 484.000000
187.146800 932.000000
189.125600 664.000000
191.082600 324.000000
192.089900 360.000000
193.100700 740.000000
194.108200 676.000000
195.115000 1772.000000
196.122200 840.000000
197.131200 2712.000000
198.137700 768.000000
199.108900 396.000000
199.147000 1588.000000
200.154500 624.000000
201.126300 496.000000
206.107500 328.000000
207.117100 1076.000000
208.123700 344.000000
209.131600 1368.000000
210.139900 560.000000
211.146800 1336.000000
213.124900 528.000000
213.162500 1736.000000
215.143600 384.000000
221.132000 328.000000
222.138700 312.000000
223.148100 836.000000
224.153300 604.000000
225.163300 720.000000
226.168100 308.000000
227.140800 344.000000
235.146300 308.000000
236.154900 332.000000
237.162800 1256.000000
238.166100 636.000000
251.177200 320.000000
252.186200 384.000000
253.194700 588.000000
255.174000 524.000000
256.178500 356.000000

>ms2peaks
55.053700 740.000000
67.053700 1260.000000
69.069400 880.000000
79.053800 2356.000000
81.069100 3692.000000
83.049000 7032.000000
85.063900 1032.000000
87.044300 744.000000
93.070400 2240.000000
95.085600 3372.000000
97.065600 48308.000000
98.068500 4068.000000
105.070300 992.000000
107.086900 1072.000000
109.066100 26948.000000
110.069300 2684.000000
119.084500 3032.000000
121.064300 2452.000000
121.100500 2528.000000
123.080100 11912.000000
124.082600 760.000000
131.084500 3004.000000
133.099900 4700.000000
134.104700 724.000000
135.080200 1772.000000
135.115700 2304.000000
137.095200 5960.000000
139.110600 696.000000
143.084700 2776.000000
145.100200 12964.000000
146.102800 1480.000000
147.079300 1384.000000
147.115600 6552.000000
148.119300 988.000000
149.095000 3424.000000
149.131200 1844.000000
151.110700 1420.000000
155.083600 1740.000000
157.100100 5208.000000
158.104500 864.000000
159.115300 10372.000000
160.119300 1524.000000
161.095100 2764.000000
161.131300 5764.000000
162.133400 784.000000
163.110600 13816.000000
163.146300 1256.000000
164.114000 1548.000000
169.099800 3704.000000
170.105000 744.000000
171.116200 7580.000000
172.119000 1268.000000
173.095300 1108.000000
173.131600 8096.000000
174.134600 1208.000000
175.111300 5100.000000
175.147000 7460.000000
177.126400 9136.000000
178.129900 1176.000000
181.100000 868.000000
183.116100 3312.000000
185.130900 6144.000000
186.134700 884.000000
187.109900 1944.000000
187.147300 5776.000000
188.150300 900.000000
189.126300 5036.000000
189.163500 1856.000000
190.129700 1092.000000
191.141500 2708.000000
195.115300 1400.000000
197.130600 4616.000000
198.137500 944.000000
199.147100 5912.000000
200.151200 1396.000000
201.126300 2136.000000
201.162300 2124.000000
203.141900 5196.000000
204.145100 764.000000
205.157500 7940.000000
206.160900 1000.000000
209.130500 2444.000000
211.147200 5772.000000
212.152200 1476.000000
213.126000 1644.000000
213.163600 6304.000000
214.165800 1060.000000
215.141300 2268.000000
216.147000 688.000000
217.157700 6592.000000
218.161500 1520.000000
221.131100 796.000000
223.147400 1320.000000
225.126800 932.000000
225.162500 2832.000000
226.165400 720.000000
227.142800 1104.000000
227.179100 1768.000000
229.157900 3072.000000
231.173000 4060.000000
232.175900 880.000000
235.146400 1160.000000
237.162400 5492.000000
238.167100 868.000000
239.141800 1584.000000
239.176700 716.000000
241.158600 2588.000000
242.160400 764.000000
243.173200 2376.000000
245.189100 1852.000000
251.179400 2304.000000
252.185800 1780.000000
253.157800 1420.000000
253.195000 20536.000000
254.198200 3720.000000
255.173500 6380.000000
256.177300 1032.000000
257.188200 1056.000000
259.167900 3112.000000
267.210000 1492.000000
269.189100 5112.000000
270.196800 3056.000000
271.205700 28136.000000
272.208300 5012.000000
273.184600 1268.000000
277.195200 3804.000000
278.197400 1200.000000
285.220600 1616.000000
287.200300 2152.000000
289.215400 3692.000000
295.205600 21244.000000
296.209200 4736.000000
297.215300 720.000000
313.216500 40936.000000
314.219600 9880.000000
315.222900 1264.000000
331.227000 134832.000000
332.230500 34424.000000
333.233000 3820.000000

