>compound AU25424658
>parentmass 505.2595999999999
>ionization [M+H]+
>formula C28H37FO7
>rt 678.360000
>profile qtof
#smiles_iso CCC(=O)OCC(=O)C1(C(CC2C1(CC(C3(C2CCC4=CC(=O)C=CC43C)F)O)C)C)OC(=O)CC
#smiles_can CCC(=O)OCC(=O)C1(C(CC2C1(CC(C3(C2CCC4=CC(=O)C=CC43C)F)O)C)C)OC(=O)CC
#inchikey CIWBQSYVNNPZIQ-UHFFFAOYSA-N
#pubchem_id 546807
#mb_accession AU283201,AU283202,AU283203,AU283204,AU283205,AU283206

>ms2
147.079300 2304.000000
153.089700 2860.000000
185.094600 8988.000000
209.117100 2492.000000
223.131000 4396.000000
263.142600 2272.000000
275.142100 2788.000000
277.157800 5912.000000
279.174000 63496.000000
280.177000 11724.000000
291.173100 17888.000000
292.177100 3920.000000
295.168300 2324.000000
297.183700 3252.000000
301.158200 18376.000000
302.161900 4180.000000
309.183900 12440.000000
310.187300 2664.000000
319.169100 72536.000000
320.171700 16264.000000
321.174200 2660.000000
337.179700 65228.000000
338.182500 15728.000000
339.160000 2464.000000
339.181800 3256.000000
355.189700 31800.000000
356.193500 8116.000000
357.191700 2060.000000
365.210200 2468.000000
375.195000 3836.000000
383.219700 2416.000000
393.205900 44868.000000
394.208900 12008.000000
395.211300 1964.000000
399.179500 3020.000000
411.216600 313876.000000
412.219400 81960.000000
413.220700 13876.000000
431.221700 3188.000000
483.239100 6136.000000
484.241200 2580.000000
485.253500 211196.000000
486.256400 63960.000000
487.257900 10580.000000
503.242200 7924.000000
504.247000 4600.000000
505.259500 373952.000000
506.263100 110568.000000
507.265500 17584.000000

>ms2
119.084500 1304.000000
121.063800 2268.000000
123.080100 2512.000000
131.084100 1196.000000
133.063900 1372.000000
133.100100 6820.000000
135.079400 11468.000000
136.082300 1248.000000
137.095300 3560.000000
145.064200 1196.000000
147.079000 21612.000000
148.082300 2072.000000
149.094800 8232.000000
151.073900 2136.000000
151.111300 4492.000000
153.089800 23172.000000
154.093700 2152.000000
159.079400 8264.000000
160.083200 1240.000000
161.058000 1720.000000
161.095000 8228.000000
163.074700 1236.000000
163.110900 1452.000000
165.089500 1712.000000
167.105400 12564.000000
168.108800 1516.000000
169.063800 2204.000000
171.079200 14188.000000
172.084000 1576.000000
173.095100 9464.000000
175.111200 1984.000000
177.089900 6736.000000
179.106000 1200.000000
181.121400 1180.000000
183.079000 1528.000000
185.095000 40740.000000
186.098800 4928.000000
187.074300 11684.000000
187.110600 2688.000000
188.077900 1520.000000
189.090300 2348.000000
195.101100 1276.000000
197.095100 4064.000000
199.074500 2176.000000
199.111600 3220.000000
203.106100 3932.000000
207.136800 1972.000000
209.095000 2464.000000
209.115900 6808.000000
210.118800 1420.000000
211.110500 3920.000000
213.088500 1504.000000
213.126900 3416.000000
215.105900 2224.000000
221.094700 4276.000000
223.111400 5284.000000
223.132200 12184.000000
224.114700 1628.000000
224.135700 1696.000000
225.126500 2620.000000
229.085900 1248.000000
233.115700 1200.000000
235.111100 2752.000000
237.126300 3236.000000
239.105600 4772.000000
239.141300 2100.000000
241.121300 1856.000000
243.101400 1260.000000
249.125900 4140.000000
251.129000 1732.000000
251.141900 2404.000000
253.122500 1212.000000
253.158100 3372.000000
259.147200 1592.000000
261.127200 7320.000000
262.132600 2220.000000
263.106800 1848.000000
263.142400 22368.000000
264.145300 4320.000000
265.157500 3660.000000
267.136200 1812.000000
267.173200 3192.000000
273.164400 2532.000000
275.142200 16648.000000
276.148300 4560.000000
277.121800 2540.000000
277.158300 36812.000000
278.127500 1148.000000
278.163500 13096.000000
279.174300 228200.000000
280.177200 46140.000000
281.152900 4136.000000
281.183900 6192.000000
286.136200 1812.000000
289.157700 9504.000000
290.161900 2396.000000
291.174200 96568.000000
292.177100 21528.000000
293.152900 4696.000000
293.180200 2084.000000
294.155500 1416.000000
295.168900 13196.000000
296.173000 3680.000000
297.183600 9628.000000
298.187000 2280.000000
301.158600 72692.000000
302.161900 18204.000000
303.139400 1220.000000
303.164700 1684.000000
305.154300 1556.000000
306.161100 1608.000000
307.168600 8368.000000
308.172800 1644.000000
309.184700 35904.000000
310.188200 9160.000000
311.163200 2716.000000
311.189000 1220.000000
319.169200 207268.000000
320.172500 41972.000000
321.148700 3320.000000
321.172800 5500.000000
325.179200 4800.000000
327.195400 2388.000000
335.204300 1260.000000
337.179700 160644.000000
338.182900 38184.000000
339.160800 4692.000000
339.181000 6552.000000
340.167100 1436.000000
351.194500 3048.000000
355.190400 125252.000000
356.193700 29956.000000
357.190700 6432.000000
358.188400 1516.000000
365.211300 4596.000000
366.216700 1412.000000
367.189900 3492.000000
375.195000 10700.000000
376.198500 3012.000000
381.169300 1380.000000
383.221200 2408.000000
393.206100 73108.000000
394.209100 20456.000000
395.209800 3260.000000
399.181900 2128.000000
411.216800 124784.000000
412.219700 34708.000000
413.220500 5956.000000
431.224900 1320.000000
485.252000 13032.000000
486.254700 4364.000000
505.260400 3124.000000

>ms2
115.054200 968.000000
119.084800 4132.000000
121.063700 5036.000000
121.100400 3048.000000
123.079600 5312.000000
128.062200 868.000000
131.084500 2960.000000
133.063500 1968.000000
133.100300 10396.000000
134.104000 1636.000000
135.079500 22580.000000
136.082400 2408.000000
137.096000 4216.000000
143.084500 2056.000000
145.063800 3212.000000
145.100900 2588.000000
147.079400 45488.000000
148.082700 4100.000000
149.094900 12312.000000
150.097800 1620.000000
151.073700 2904.000000
151.110300 3772.000000
153.090000 24032.000000
154.093300 2732.000000
155.083900 1204.000000
157.099700 2416.000000
158.071000 1176.000000
159.079400 19880.000000
159.116200 1112.000000
160.082700 2640.000000
161.059000 2264.000000
161.094900 11236.000000
162.097800 1668.000000
163.075000 2044.000000
163.110600 1160.000000
165.090000 2936.000000
167.105500 19988.000000
168.108900 2308.000000
169.064300 2652.000000
169.100900 964.000000
171.079300 34752.000000
171.114800 2176.000000
172.083000 4036.000000
173.094800 19964.000000
174.097700 3488.000000
175.074500 1092.000000
175.110600 2068.000000
177.090000 8424.000000
178.094400 1132.000000
179.105400 1360.000000
183.079200 2680.000000
183.116300 844.000000
185.058400 2328.000000
185.095100 38580.000000
186.098400 6680.000000
187.074500 19816.000000
187.109900 4960.000000
188.077400 3344.000000
189.090300 3580.000000
191.106100 1148.000000
195.079100 1288.000000
195.101200 1808.000000
197.095700 8384.000000
198.100200 1816.000000
199.073900 2984.000000
199.110400 5164.000000
201.089200 1548.000000
201.127800 1260.000000
203.106200 6064.000000
208.088000 1052.000000
209.094900 5056.000000
209.116500 2064.000000
210.102000 1480.000000
211.074600 1760.000000
211.111000 6120.000000
212.116000 1788.000000
213.091200 2592.000000
213.127100 7568.000000
214.128900 1084.000000
215.105300 2320.000000
221.096000 7820.000000
221.116000 1264.000000
222.099700 2124.000000
223.110500 11676.000000
223.131500 3032.000000
224.116100 3548.000000
225.091200 1232.000000
225.127000 4396.000000
226.130500 1240.000000
227.106100 1864.000000
227.141800 1108.000000
229.122000 1476.000000
231.116100 1540.000000
233.117000 1316.000000
233.134500 1084.000000
234.102900 964.000000
235.110600 7252.000000
236.115400 2060.000000
237.089600 1328.000000
237.126900 7636.000000
237.163100 1656.000000
238.131200 1880.000000
239.106700 6244.000000
239.142400 4420.000000
240.109500 1808.000000
240.145900 896.000000
241.121400 2632.000000
241.158200 948.000000
243.102300 1356.000000
243.115300 924.000000
245.131300 1228.000000
246.102200 1156.000000
247.110600 1868.000000
248.117800 2684.000000
249.126200 11612.000000
249.163400 1548.000000
250.131600 2972.000000
251.106400 1244.000000
251.141700 5392.000000
252.147200 1952.000000
253.121800 1860.000000
253.158900 6320.000000
254.161900 1280.000000
255.136100 1320.000000
258.140200 844.000000
259.109800 2712.000000
259.146700 2024.000000
260.116900 1992.000000
261.126700 11976.000000
261.163800 1572.000000
262.133100 5492.000000
262.167900 1132.000000
263.106400 2212.000000
263.142100 32944.000000
264.111200 1024.000000
264.147500 7572.000000
265.157300 5360.000000
266.163800 1160.000000
267.138500 2332.000000
267.173400 3592.000000
268.178000 864.000000
272.119700 2856.000000
273.126300 2876.000000
273.163300 3524.000000
274.132400 1376.000000
275.142500 18736.000000
276.148500 10956.000000
277.122000 4560.000000
277.157800 49112.000000
278.164600 28572.000000
279.174100 164988.000000
280.142300 1812.000000
280.177400 32952.000000
281.153400 3696.000000
281.185800 4908.000000
282.156700 1060.000000
283.147800 1736.000000
286.134700 5432.000000
287.139400 2340.000000
289.157800 11892.000000
290.129200 2360.000000
290.161100 2932.000000
291.174200 93456.000000
292.177700 21092.000000
293.153700 4960.000000
293.180200 2216.000000
294.157300 1488.000000
295.134100 1856.000000
295.169000 14764.000000
296.174200 6252.000000
297.183400 5444.000000
298.186600 1684.000000
301.158100 59084.000000
302.161900 12932.000000
303.136500 960.000000
303.163700 2100.000000
304.145300 3036.000000
305.151600 1744.000000
306.159400 3880.000000
307.168300 9624.000000
308.172400 2460.000000
309.185100 22304.000000
310.186900 4116.000000
311.163700 3468.000000
312.167800 1048.000000
317.156100 928.000000
319.169300 97332.000000
320.172200 21068.000000
321.172400 3264.000000
325.180000 4384.000000
326.183800 960.000000
327.197100 2328.000000
335.164700 836.000000
335.202200 1116.000000
337.179900 78036.000000
338.183100 19608.000000
339.181900 3212.000000
340.167500 1072.000000
351.195000 1724.000000
355.190300 39164.000000
356.193800 9356.000000
357.190300 3756.000000
358.188900 1024.000000
365.213100 1376.000000
367.192600 1112.000000
375.195300 5064.000000
376.197000 1292.000000
393.205300 15440.000000
394.209300 4504.000000
411.216400 4288.000000
412.218500 1004.000000

>ms2
115.053500 1272.000000
117.070100 880.000000
119.084600 4996.000000
120.088500 476.000000
121.064000 8624.000000
121.100600 3168.000000
122.067700 704.000000
123.079400 5040.000000
123.115700 552.000000
124.082500 624.000000
125.058700 688.000000
125.095700 556.000000
128.061500 2068.000000
129.067800 1112.000000
131.047700 448.000000
131.084800 4016.000000
132.056100 824.000000
133.063400 2420.000000
133.100500 9124.000000
134.103400 1396.000000
135.079700 22804.000000
136.083100 2724.000000
137.094700 3216.000000
138.098500 500.000000
139.112800 428.000000
141.069200 1676.000000
142.076600 1092.000000
143.084100 4832.000000
144.056400 808.000000
144.088100 772.000000
145.063600 4816.000000
145.100700 4644.000000
146.104200 484.000000
147.079600 49716.000000
148.082700 5576.000000
149.095000 10688.000000
150.098800 1536.000000
151.074000 1948.000000
151.110400 1600.000000
153.090000 12580.000000
154.093300 1388.000000
155.059200 352.000000
155.084300 1760.000000
156.056600 372.000000
156.091200 484.000000
157.065900 776.000000
157.100000 3648.000000
158.072000 2148.000000
158.104000 564.000000
159.079300 23204.000000
159.115400 1612.000000
160.082900 3376.000000
161.058400 2728.000000
161.095100 12132.000000
162.098900 1532.000000
163.074300 1796.000000
163.110400 932.000000
164.079400 376.000000
165.069600 672.000000
165.089500 3044.000000
166.092600 432.000000
167.086000 888.000000
167.105300 13620.000000
168.109000 2364.000000
169.063500 3144.000000
169.100400 1684.000000
170.070700 1052.000000
170.110000 420.000000
171.079500 37596.000000
171.116000 2028.000000
172.082900 5940.000000
173.094900 20020.000000
174.098500 3116.000000
175.075800 1084.000000
175.089300 480.000000
175.109700 3140.000000
176.115500 680.000000
177.090300 4616.000000
177.126400 492.000000
178.076400 792.000000
179.085000 1364.000000
179.106800 792.000000
180.090800 460.000000
181.062700 676.000000
181.100500 980.000000
182.071500 688.000000
182.107300 520.000000
183.079600 2844.000000
183.115600 1140.000000
184.084300 832.000000
185.095300 27632.000000
186.064000 456.000000
186.099100 4172.000000
187.074400 20116.000000
187.111100 3920.000000
188.077700 2908.000000
188.115100 828.000000
189.074400 408.000000
189.089600 2728.000000
189.127800 492.000000
190.074400 680.000000
191.085600 1164.000000
191.104400 908.000000
192.091100 392.000000
193.100500 1628.000000
194.070700 428.000000
194.104000 392.000000
195.079300 2268.000000
195.101300 944.000000
195.115700 1456.000000
196.085700 1184.000000
197.094400 9612.000000
198.100400 2396.000000
199.073800 2520.000000
199.110500 4952.000000
200.077000 448.000000
200.116000 1000.000000
201.090600 1528.000000
201.126000 1228.000000
203.074700 428.000000
203.085300 696.000000
203.105800 3564.000000
204.093000 724.000000
204.108100 656.000000
205.100000 1444.000000
206.071500 384.000000
206.106400 508.000000
207.078500 844.000000
207.115900 1320.000000
208.087400 2020.000000
208.119700 676.000000
209.095600 9096.000000
209.128600 656.000000
210.103000 2408.000000
211.074800 1260.000000
211.110700 9208.000000
212.115800 2140.000000
213.089600 2092.000000
213.126100 7796.000000
214.094500 380.000000
214.129600 1768.000000
215.082600 528.000000
215.104700 1748.000000
216.094600 944.000000
216.109600 432.000000
217.099500 1048.000000
217.118500 384.000000
218.107800 644.000000
219.080900 964.000000
219.115000 1392.000000
220.087000 884.000000
220.122000 576.000000
221.095500 10868.000000
221.130900 1068.000000
222.100800 4140.000000
223.110800 16564.000000
224.115900 3768.000000
225.091000 1516.000000
225.126000 3988.000000
226.095500 520.000000
226.133100 992.000000
227.105600 1596.000000
227.141200 1132.000000
228.093200 388.000000
229.084100 456.000000
229.099400 1000.000000
229.120400 1096.000000
230.108000 1616.000000
231.079500 352.000000
231.085300 356.000000
231.115500 2812.000000
232.086200 644.000000
232.123200 936.000000
233.094500 1776.000000
233.132400 1152.000000
234.103200 3324.000000
234.137600 392.000000
235.110600 10684.000000
235.146500 1368.000000
236.116200 3988.000000
236.152300 908.000000
237.088400 892.000000
237.126700 8800.000000
237.163400 1216.000000
238.094500 384.000000
238.131300 1952.000000
239.106300 5024.000000
239.141400 3652.000000
240.109400 868.000000
240.147300 812.000000
241.097600 448.000000
241.121300 2980.000000
241.157100 776.000000
242.106400 712.000000
242.124500 824.000000
243.116700 1528.000000
244.123500 1528.000000
245.095900 1288.000000
245.132300 2192.000000
246.102100 2292.000000
246.136700 1176.000000
247.110300 2784.000000
247.149100 1576.000000
248.118600 6788.000000
248.153600 584.000000
249.126900 13860.000000
249.162900 1728.000000
250.099500 504.000000
250.133000 3284.000000
250.169200 600.000000
251.106400 1392.000000
251.142500 5580.000000
251.177600 636.000000
252.108400 372.000000
252.145600 1668.000000
253.099800 384.000000
253.120700 1540.000000
253.158600 6152.000000
254.125100 400.000000
254.161200 960.000000
255.117100 372.000000
255.137400 640.000000
257.096300 452.000000
257.132500 1516.000000
258.103900 904.000000
258.139900 1996.000000
259.111200 3532.000000
259.146500 2596.000000
260.118800 4168.000000
260.152700 880.000000
261.126500 12432.000000
261.161800 2768.000000
262.099900 724.000000
262.133800 12060.000000
262.168300 1108.000000
263.106000 2492.000000
263.142500 29932.000000
264.112600 948.000000
264.147700 12400.000000
265.121400 736.000000
265.156600 4096.000000
266.164000 1532.000000
267.102000 656.000000
267.136700 1848.000000
267.173200 2284.000000
268.121600 608.000000
268.141800 716.000000
268.178600 672.000000
269.131700 832.000000
271.110200 2656.000000
271.144800 640.000000
272.119100 4580.000000
273.125400 3124.000000
273.162800 3552.000000
274.134500 2884.000000
274.166800 1168.000000
275.106900 784.000000
275.142400 11440.000000
276.112600 980.000000
276.150200 14448.000000
277.121700 3876.000000
277.157900 29860.000000
278.126300 1608.000000
278.165100 24904.000000
279.173800 69644.000000
280.177500 14928.000000
281.153500 3744.000000
281.185100 1964.000000
282.158200 836.000000
283.147300 1232.000000
283.168800 384.000000
284.154100 424.000000
285.126100 792.000000
286.134200 10560.000000
287.139300 2908.000000
288.119600 360.000000
288.148800 880.000000
289.121400 1996.000000
289.158400 7984.000000
290.129900 3612.000000
290.163000 2248.000000
291.136400 3212.000000
291.173800 43020.000000
292.140000 860.000000
292.177200 10028.000000
293.152600 2532.000000
293.179900 1648.000000
294.156500 1232.000000
295.134900 964.000000
295.168700 7804.000000
296.136700 372.000000
296.174400 4248.000000
297.181900 2216.000000
298.191400 564.000000
301.158600 24040.000000
302.161800 6620.000000
303.137000 716.000000
303.164700 988.000000
304.146400 3588.000000
305.151200 1716.000000
306.161600 4016.000000
307.168400 5544.000000
308.172600 2500.000000
309.145600 412.000000
309.184500 5732.000000
310.187600 1508.000000
311.164000 2216.000000
312.168800 704.000000
313.169000 384.000000
317.155200 532.000000
319.169300 23156.000000
320.172100 6512.000000
321.151600 732.000000
321.175500 876.000000
325.179700 1792.000000
327.193100 700.000000
328.203300 380.000000
337.179900 15288.000000
338.182200 5984.000000
339.179900 792.000000
345.192600 376.000000
351.161600 448.000000
355.188500 3804.000000
356.193000 936.000000
357.187300 828.000000
375.197800 988.000000
376.201100 460.000000
393.209800 1076.000000
394.213900 384.000000

>ms2
115.053900 2392.000000
116.060900 908.000000
117.069300 2664.000000
119.085000 8800.000000
120.087800 1032.000000
121.063900 15212.000000
121.100400 3740.000000
122.067700 1620.000000
122.103300 480.000000
123.079700 5772.000000
123.115500 492.000000
124.082900 668.000000
125.058500 936.000000
125.095600 592.000000
127.052500 480.000000
128.061100 5480.000000
129.068800 3164.000000
130.076500 1088.000000
131.048800 1348.000000
131.084600 8892.000000
132.056100 3604.000000
132.088000 992.000000
133.063800 2680.000000
133.100300 9244.000000
134.069400 796.000000
134.103600 1440.000000
135.079700 24444.000000
136.083100 2208.000000
137.061200 792.000000
137.095300 2912.000000
139.074700 308.000000
141.069200 4064.000000
142.076400 2968.000000
143.084700 11000.000000
144.055800 2680.000000
144.089000 1256.000000
145.063600 9304.000000
145.099900 7180.000000
146.070000 2560.000000
146.103000 800.000000
147.079400 59796.000000
148.082800 9104.000000
149.094900 10672.000000
150.096600 1268.000000
151.074000 1404.000000
151.111200 832.000000
152.061800 676.000000
153.069200 1060.000000
153.089400 7644.000000
154.075700 824.000000
154.093800 776.000000
155.059000 960.000000
155.084500 4832.000000
156.055900 724.000000
156.090300 1504.000000
157.062900 1392.000000
157.100300 4872.000000
158.071100 5932.000000
158.103200 860.000000
159.079100 36380.000000
160.083400 5176.000000
161.058000 2684.000000
161.094800 14832.000000
162.060300 448.000000
162.064900 368.000000
162.099000 1640.000000
163.073900 1560.000000
163.111500 1128.000000
165.069400 1780.000000
165.090100 1792.000000
166.076400 1300.000000
166.094300 328.000000
167.084700 2844.000000
167.105400 8028.000000
168.056400 572.000000
168.092500 652.000000
168.108900 1248.000000
169.063500 3980.000000
169.100200 3248.000000
170.070600 1996.000000
170.106600 1380.000000
171.079500 40304.000000
171.115500 2820.000000
172.083300 6056.000000
173.094800 23808.000000
174.098700 3872.000000
175.074000 1268.000000
175.094700 648.000000
175.110700 3372.000000
176.114300 612.000000
177.090100 2552.000000
178.076600 1520.000000
179.084400 4096.000000
179.106600 324.000000
180.091600 1408.000000
181.063300 904.000000
181.098500 1920.000000
182.071400 2112.000000
182.105700 568.000000
183.079100 3932.000000
183.115900 1500.000000
184.085700 1620.000000
184.120100 488.000000
185.059400 1456.000000
185.095000 27632.000000
186.064500 596.000000
186.099300 4644.000000
187.074500 16648.000000
187.111100 4616.000000
188.077700 2052.000000
188.114000 912.000000
189.071000 1044.000000
189.090600 2176.000000
189.126300 880.000000
190.075300 1336.000000
191.084300 2072.000000
191.104800 540.000000
192.092400 1416.000000
193.100600 4304.000000
194.072300 1324.000000
194.105400 1144.000000
195.079300 5204.000000
195.115800 2272.000000
196.087300 3932.000000
196.121800 620.000000
197.094700 12104.000000
198.101900 4136.000000
199.073500 2032.000000
199.110500 6440.000000
200.082300 368.000000
200.114800 1516.000000
201.090200 1004.000000
201.125900 1132.000000
202.078600 1064.000000
202.095500 388.000000
203.084200 1072.000000
203.106700 1520.000000
204.092800 1084.000000
205.063600 388.000000
205.100500 4276.000000
206.071300 432.000000
206.107900 1684.000000
207.080800 1372.000000
207.115500 3140.000000
208.087200 5492.000000
208.120500 816.000000
209.095400 14068.000000
209.129900 932.000000
210.102200 5868.000000
211.075100 908.000000
211.110600 9548.000000
212.116800 3476.000000
213.090000 1904.000000
213.126400 7172.000000
214.094900 344.000000
214.131300 1448.000000
215.085100 1300.000000
215.106000 2304.000000
216.091800 1912.000000
217.099500 2468.000000
217.126200 380.000000
218.069700 528.000000
218.108500 1772.000000
219.080200 2548.000000
219.116000 2752.000000
220.085900 2168.000000
220.123900 1896.000000
221.095300 17752.000000
221.131900 2544.000000
222.101600 7908.000000
222.136700 700.000000
223.110500 21952.000000
224.081700 824.000000
224.115600 7040.000000
225.090200 1352.000000
225.126100 5516.000000
226.098400 852.000000
226.130900 1548.000000
227.083400 540.000000
227.105000 1456.000000
227.140700 848.000000
228.094400 1088.000000
229.100100 2724.000000
230.107800 3148.000000
231.079900 1176.000000
231.116000 4556.000000
232.087700 1752.000000
232.122400 1744.000000
233.095100 6040.000000
233.131300 2524.000000
234.102800 6668.000000
234.138800 1176.000000
235.110700 17080.000000
235.147400 2048.000000
236.082300 472.000000
236.117100 5868.000000
236.153000 1612.000000
237.091100 1160.000000
237.126400 9824.000000
237.161700 1300.000000
238.096400 388.000000
238.131100 2284.000000
238.161700 356.000000
239.105100 4044.000000
239.142300 3632.000000
240.096800 436.000000
240.111100 916.000000
240.145400 704.000000
241.099600 716.000000
241.120200 1392.000000
241.157100 520.000000
242.108100 1604.000000
243.078000 340.000000
243.116200 5080.000000
244.086600 780.000000
244.123200 3500.000000
245.095000 4548.000000
245.130700 4236.000000
246.102400 5048.000000
246.137800 1808.000000
247.110100 9112.000000
247.145800 2492.000000
248.118600 13192.000000
248.153000 1148.000000
249.089700 1616.000000
249.126300 18328.000000
249.162500 2100.000000
250.098100 428.000000
250.132700 5108.000000
250.168800 848.000000
251.106600 1252.000000
251.141700 5892.000000
251.178300 644.000000
252.112100 804.000000
252.146800 2228.000000
253.102000 772.000000
253.121700 1172.000000
253.156900 3492.000000
254.100500 424.000000
254.126200 312.000000
254.160200 772.000000
255.115200 764.000000
255.136300 536.000000
256.123700 640.000000
257.094700 828.000000
257.131000 2316.000000
258.102400 1456.000000
258.139100 3444.000000
259.111300 4680.000000
259.146900 3312.000000
260.118400 6900.000000
260.152200 1508.000000
261.126000 18244.000000
261.161400 3536.000000
262.134400 21292.000000
263.105800 2156.000000
263.142000 38848.000000
264.111500 1752.000000
264.148000 15212.000000
265.119500 1092.000000
265.156800 3984.000000
266.124700 300.000000
266.163300 1088.000000
267.113800 436.000000
267.139400 1160.000000
267.174200 2068.000000
268.123400 1244.000000
268.177000 452.000000
269.129200 1268.000000
270.133800 320.000000
271.111800 5296.000000
271.147300 956.000000
272.118000 6684.000000
272.153400 352.000000
273.125700 4116.000000
273.163300 2172.000000
274.098500 644.000000
274.134200 5128.000000
274.167600 1288.000000
275.106200 2196.000000
275.142400 8072.000000
276.113900 1624.000000
276.150300 16144.000000
277.121700 3640.000000
277.157400 20988.000000
278.128500 1416.000000
278.164900 19240.000000
279.137000 2908.000000
279.173300 31540.000000
280.144100 1108.000000
280.177000 7076.000000
281.153500 3972.000000
281.183900 868.000000
282.154300 948.000000
283.149000 1184.000000
284.118100 364.000000
284.148800 572.000000
285.126100 1936.000000
286.135400 11572.000000
287.139000 3672.000000
288.111100 504.000000
288.148600 720.000000
289.123300 3540.000000
289.158300 4600.000000
290.129300 3528.000000
290.162900 1408.000000
291.136200 3944.000000
291.173300 18492.000000
292.146100 920.000000
292.177700 4424.000000
293.153400 1136.000000
293.178700 400.000000
294.158500 636.000000
295.134200 764.000000
295.168900 2740.000000
296.172400 1040.000000
297.185500 872.000000
299.144500 708.000000
300.151900 364.000000
301.157600 12596.000000
302.129100 356.000000
302.161900 4316.000000
303.136300 1072.000000
303.165300 792.000000
304.146000 3476.000000
305.153100 1364.000000
306.161300 3360.000000
307.167400 2924.000000
308.174300 736.000000
309.186000 1556.000000
310.189000 424.000000
311.166700 760.000000
312.169800 324.000000
317.151100 592.000000
319.168600 6148.000000
320.172000 2024.000000
321.149600 440.000000
321.165700 320.000000
321.177700 356.000000
324.165000 364.000000
337.180000 2400.000000
338.183500 716.000000
357.193500 368.000000

>ms2
57.032900 67680.000000
58.036100 2364.000000
67.053200 1144.000000
69.032900 944.000000
69.069100 1684.000000
75.043800 1144.000000
79.053500 1260.000000
81.069500 1176.000000
83.085300 696.000000
91.054300 884.000000
93.070400 2896.000000
95.049400 900.000000
95.085700 5980.000000
97.065000 1032.000000
105.070700 1892.000000
107.086700 7284.000000
109.064900 956.000000
109.102400 2904.000000
111.080500 896.000000
115.040100 12244.000000
116.042300 796.000000
119.085100 4888.000000
120.088100 692.000000
121.064500 7448.000000
121.101800 3744.000000
122.068400 792.000000
123.080300 5280.000000
125.094800 1060.000000
128.062500 832.000000
131.085400 3140.000000
132.055100 768.000000
133.064100 1808.000000
133.100700 8764.000000
134.102600 904.000000
135.079600 17800.000000
136.083000 1292.000000
137.095900 3340.000000
141.068800 892.000000
143.083900 1856.000000
145.064100 3188.000000
145.099300 2452.000000
147.079500 38768.000000
148.083300 3752.000000
149.094800 11380.000000
151.073900 1720.000000
151.110700 1608.000000
153.090200 20776.000000
154.093400 1676.000000
155.085000 728.000000
157.100100 1992.000000
158.071800 776.000000
159.079100 19568.000000
160.083800 1912.000000
161.058600 2268.000000
161.095100 12044.000000
162.098400 1288.000000
163.074300 1496.000000
163.111400 1016.000000
165.089600 2212.000000
167.105600 17720.000000
168.109100 1480.000000
169.064400 2496.000000
169.100700 1088.000000
171.079400 24872.000000
171.116500 1684.000000
172.083600 3248.000000
173.095100 18052.000000
174.097300 2108.000000
175.074300 684.000000
175.110500 1940.000000
177.090200 5252.000000
178.094700 768.000000
179.105600 1348.000000
183.079700 1912.000000
183.115700 768.000000
185.095300 32716.000000
186.098500 5168.000000
187.074500 16348.000000
187.110600 3780.000000
188.077100 2008.000000
189.090700 2572.000000
191.103400 848.000000
193.100200 984.000000
195.079800 1064.000000
195.101100 1368.000000
195.113000 768.000000
196.087400 820.000000
197.095400 7528.000000
198.099500 1748.000000
199.075400 2284.000000
199.110400 4240.000000
201.089700 1092.000000
201.127400 820.000000
203.106200 3452.000000
208.087300 816.000000
209.095800 4588.000000
209.117200 1880.000000
210.100600 1304.000000
211.075600 716.000000
211.110700 6640.000000
212.117000 1064.000000
213.090700 1852.000000
213.126500 7312.000000
214.130400 936.000000
215.106600 2236.000000
221.095200 7176.000000
221.117400 716.000000
221.130400 700.000000
222.100900 2496.000000
223.111200 10432.000000
223.131100 2204.000000
224.116000 2628.000000
225.090300 952.000000
225.125700 3552.000000
227.108500 1096.000000
227.141500 792.000000
229.083800 1176.000000
229.123100 1088.000000
230.107200 764.000000
231.115000 1240.000000
233.095900 1168.000000
233.114900 888.000000
234.103500 1340.000000
235.110800 9124.000000
235.144000 720.000000
236.117100 2060.000000
237.090700 760.000000
237.126600 7368.000000
237.163300 856.000000
238.131000 1548.000000
239.106100 5780.000000
239.142300 4108.000000
241.122400 1572.000000
241.158700 772.000000
243.101500 688.000000
245.097400 744.000000
245.132600 1176.000000
246.103600 920.000000
247.110300 1700.000000
248.119000 4268.000000
249.126500 11104.000000
249.161300 1344.000000
250.130700 2188.000000
251.105300 1152.000000
251.142300 4668.000000
252.147000 856.000000
253.086900 760.000000
253.121700 1836.000000
253.158600 4556.000000
255.135000 772.000000
257.131200 940.000000
258.140400 1564.000000
259.109900 2548.000000
259.147200 1528.000000
260.119000 2288.000000
261.127200 10920.000000
261.163000 1904.000000
262.133500 6924.000000
263.105600 2048.000000
263.142800 33280.000000
264.148000 6832.000000
265.157500 4424.000000
266.162900 1364.000000
267.136900 2176.000000
267.175100 3092.000000
271.110500 1332.000000
271.141500 768.000000
272.120000 2420.000000
273.125200 2156.000000
273.163200 2720.000000
274.136100 1948.000000
274.165500 720.000000
275.143500 16736.000000
276.149800 10652.000000
277.123200 3716.000000
277.159100 42452.000000
278.165100 25072.000000
279.174700 134680.000000
280.178300 25276.000000
281.152800 3244.000000
281.186300 3376.000000
282.159000 960.000000
283.147300 1404.000000
286.135600 6724.000000
287.138600 2344.000000
288.146800 740.000000
289.124100 924.000000
289.158900 10216.000000
290.131000 2336.000000
290.162000 2172.000000
291.174900 72668.000000
292.178300 17148.000000
293.154000 3472.000000
293.180100 1660.000000
294.157900 1344.000000
295.134500 1068.000000
295.169500 10508.000000
296.175200 4140.000000
297.184400 4012.000000
298.189500 844.000000
301.159100 50960.000000
302.162800 11572.000000
303.140400 1164.000000
303.163600 1384.000000
304.143700 2384.000000
305.152900 1272.000000
306.161900 3380.000000
307.169400 7084.000000
308.173700 1416.000000
309.185400 15708.000000
310.189100 5020.000000
311.162800 2912.000000
312.167700 964.000000
317.154400 788.000000
319.169900 83404.000000
320.173400 17160.000000
321.151700 1784.000000
321.173200 2324.000000
325.180200 3416.000000
326.184900 932.000000
327.195400 1816.000000
335.201000 960.000000
337.180600 66800.000000
338.183800 15932.000000
339.181900 2332.000000
340.176100 700.000000
351.194400 1132.000000
355.191300 43900.000000
356.194900 9436.000000
357.187600 2860.000000
358.186400 704.000000
365.209200 1608.000000
367.193100 856.000000
375.195500 4460.000000
376.197900 1204.000000
393.207600 18340.000000
394.210500 4956.000000
411.216300 8920.000000
412.221900 2424.000000

