>compound AU25774003
>parentmass 289.1215
>ionization [M+H]+
>formula C15H17ClN4
>rt 587.760000
>profile qtof
#smiles_iso CCCCC(CN1C=NC=N1)(C#N)C2=CC=C(C=C2)Cl
#smiles_can CCCCC(CN1C=NC=N1)(C#N)C2=CC=C(C=C2)Cl
#inchikey HZJKXKUJVSEEFU-UHFFFAOYSA-N
#pubchem_id 6336
#mb_accession AU256301,AU256302,AU256303,AU256304,AU256305,AU256306

>ms2
289.121400 685092.000000
290.124300 101472.000000
291.118200 148476.000000

>ms2
115.053100 416.000000
125.014200 35304.000000
126.017500 2392.000000
127.011300 8912.000000
128.014300 572.000000
139.031700 572.000000
149.012000 572.000000
150.008100 748.000000
151.029500 12032.000000
152.033300 1492.000000
153.027100 3284.000000
163.028400 492.000000
164.025000 4124.000000
165.031000 1548.000000
166.021300 980.000000
166.039900 3412.000000
167.044100 464.000000
167.085300 888.000000
168.038700 644.000000
168.091400 1480.000000
175.029600 812.000000
177.027200 336.000000
177.044400 440.000000
178.040300 4128.000000
179.043400 580.000000
180.037700 1064.000000
185.117600 1232.000000
192.055900 1484.000000
193.076500 5944.000000
194.048000 1144.000000
194.079400 704.000000
195.073900 2060.000000
203.060200 4200.000000
204.064800 1160.000000
205.058700 1152.000000
220.087600 17308.000000
221.092300 2568.000000
222.084200 4788.000000
223.087300 584.000000
289.121000 67036.000000
290.124000 12496.000000
291.117700 19136.000000

>ms2
115.053700 1980.000000
116.061800 1036.000000
125.014400 95364.000000
126.017400 7116.000000
127.011100 24780.000000
128.013600 1608.000000
128.049400 760.000000
130.064000 1748.000000
131.070200 720.000000
137.014200 1308.000000
138.992800 1160.000000
139.029700 1532.000000
142.074900 1160.000000
143.071300 1340.000000
143.082600 504.000000
149.014200 1348.000000
150.008600 3204.000000
151.029700 27900.000000
152.007000 772.000000
152.033300 3620.000000
153.027000 8656.000000
153.068800 1228.000000
158.108100 536.000000
163.028900 800.000000
164.025100 12320.000000
165.030700 3048.000000
165.044300 1216.000000
166.022000 3944.000000
166.040300 4332.000000
167.029400 708.000000
167.084200 1624.000000
168.038300 856.000000
168.091000 3156.000000
169.095000 612.000000
170.096500 924.000000
175.030200 1876.000000
177.026800 612.000000
178.040300 5968.000000
179.043800 840.000000
180.037800 1992.000000
184.110400 908.000000
185.120000 1216.000000
191.050600 860.000000
192.056500 1604.000000
193.077200 2456.000000
194.052800 636.000000
195.074600 1004.000000
203.060800 2592.000000
205.058400 1128.000000
220.087600 3452.000000
221.090900 496.000000
222.085100 768.000000
289.119800 1264.000000

>ms2
115.053800 3912.000000
116.060400 2224.000000
125.014400 74612.000000
126.017600 7652.000000
127.011200 22372.000000
128.014300 1048.000000
128.048300 3564.000000
128.060700 636.000000
129.050600 484.000000
129.068300 620.000000
130.064700 2896.000000
130.078200 476.000000
131.072500 1276.000000
137.013400 2172.000000
138.993700 552.000000
139.011600 944.000000
139.030800 400.000000
141.069100 612.000000
142.074500 656.000000
143.071400 1360.000000
149.015600 1800.000000
150.009200 3356.000000
151.029500 15020.000000
152.006700 1104.000000
152.032800 1836.000000
152.060700 532.000000
153.026700 4320.000000
153.068600 1500.000000
156.080300 640.000000
157.085400 428.000000
163.017700 512.000000
163.030100 544.000000
164.024400 9488.000000
165.028200 1316.000000
166.022400 2772.000000
166.039900 1060.000000
167.024800 420.000000
167.083900 1264.000000
168.092300 864.000000
170.095800 800.000000
175.029700 1236.000000
177.033900 512.000000
178.040800 2404.000000
179.043500 584.000000
180.038400 524.000000
184.110600 924.000000
192.054700 388.000000
203.062600 424.000000
225.044300 560.000000

>ms2
115.053400 6516.000000
116.061100 4448.000000
117.064200 444.000000
122.999200 980.000000
125.014200 66808.000000
126.017100 6788.000000
127.011000 19436.000000
128.014800 1200.000000
128.048600 4352.000000
128.060800 1592.000000
129.052300 520.000000
129.070000 1128.000000
130.064000 3208.000000
131.070500 780.000000
137.013900 2424.000000
138.018900 428.000000
138.994400 348.000000
139.011600 884.000000
139.027900 432.000000
141.068900 520.000000
142.074500 424.000000
143.070700 1860.000000
143.082900 712.000000
149.013900 1564.000000
150.009000 3740.000000
151.029800 5964.000000
152.006400 944.000000
152.033700 496.000000
152.059500 1072.000000
153.026300 1628.000000
153.067900 1580.000000
156.078400 692.000000
164.024600 4308.000000
165.028800 532.000000
165.067900 480.000000
166.023100 1044.000000
167.085100 904.000000
168.090300 356.000000
170.093100 956.000000
175.031100 500.000000
177.025700 412.000000
178.040200 920.000000
180.034500 336.000000
184.110200 608.000000

>ms2
70.039600 330728.000000
71.042600 5480.000000
125.014600 84588.000000
126.017400 5924.000000
127.011500 21000.000000
150.008900 2424.000000
151.030000 30124.000000
152.032500 2296.000000
153.027000 7780.000000
164.025200 8172.000000
165.030800 3672.000000
166.021900 2360.000000
166.040700 3912.000000
168.091900 2520.000000
178.040500 5244.000000
192.055800 2088.000000
193.076800 5396.000000
203.061500 3644.000000
220.088000 12728.000000
221.091300 1964.000000
222.085200 3180.000000
289.121600 34680.000000
290.124000 6048.000000
291.118900 9804.000000

