>compound AU25796952
>parentmass 315.0863
>ionization [M+H]+
>formula C17H14O6
>rt 388.416000
>profile qtof
#smiles_iso COC1=C2C3=C(C(=O)CC3)C(=O)OC2=C4C5CCOC5OC4=C1
#smiles_can COC1=C2C3=C(C(=O)CC3)C(=O)OC2=C4C5CCOC5OC4=C1
#inchikey WWSYXEZEXMQWHT-UHFFFAOYSA-N
#pubchem_id 23648
#mb_accession AU596300,AU596301,AU596302,AU596303,AU596304

>ms2
315.086400 1673092.000000

>ms2
259.059200 16672.000000
287.090200 27484.000000
315.085500 1784432.000000

>ms2
203.070300 8384.000000
213.091400 5776.000000
226.062500 6708.000000
227.070100 16384.000000
229.049100 4792.000000
231.065300 14804.000000
241.085800 17492.000000
243.065100 14348.000000
244.071600 5640.000000
245.044100 14564.000000
254.056900 10500.000000
255.064200 14084.000000
257.044200 5328.000000
259.060100 160428.000000
259.095800 9436.000000
260.063600 23376.000000
269.080400 26240.000000
270.083900 4796.000000
271.059900 27672.000000
271.095900 11012.000000
272.067300 20024.000000
273.038800 18348.000000
273.072700 5116.000000
282.052300 11420.000000
285.075300 9572.000000
286.082500 8180.000000
287.091300 225452.000000
297.075400 39312.000000
298.078500 7288.000000
300.062800 9536.000000
315.086400 943912.000000

>ms2
115.053900 1832.000000
128.061800 3224.000000
129.069000 2332.000000
131.049300 1360.000000
133.065000 1404.000000
141.069200 3008.000000
142.076700 1792.000000
143.048400 1344.000000
143.084900 1520.000000
144.057300 1620.000000
145.064200 3256.000000
147.043500 1804.000000
149.059800 1720.000000
152.061800 2224.000000
153.069500 5448.000000
154.077500 2612.000000
155.048400 1272.000000
155.085200 2336.000000
157.063600 3088.000000
159.080000 1696.000000
160.051500 3912.000000
161.059000 5788.000000
165.069300 2256.000000
169.064700 3608.000000
170.072100 3084.000000
171.043700 3544.000000
171.079900 4456.000000
172.051000 1728.000000
173.059300 5016.000000
174.067400 1724.000000
175.039100 1472.000000
175.074600 4924.000000
177.053700 2852.000000
179.069700 1240.000000
181.064600 5124.000000
182.071900 3316.000000
183.080100 2944.000000
185.059300 7432.000000
185.095600 4756.000000
186.064900 1916.000000
187.039400 3440.000000
187.075400 6788.000000
188.046500 10796.000000
188.082900 2788.000000
189.054000 12136.000000
190.061300 4004.000000
191.068300 1996.000000
193.086400 3724.000000
197.059600 4520.000000
198.066900 12616.000000
199.038800 4124.000000
199.074600 9624.000000
200.045700 3288.000000
200.080600 3616.000000
201.053900 10404.000000
201.090800 2148.000000
202.061200 2532.000000
203.033400 3160.000000
203.070000 44276.000000
204.073300 5640.000000
205.049200 3212.000000
209.059300 3624.000000
210.065300 2652.000000
211.074900 2144.000000
212.046700 2556.000000
213.054200 7260.000000
213.090400 12856.000000
214.060900 3548.000000
215.034000 3232.000000
215.070000 10424.000000
216.041200 15748.000000
216.077400 16252.000000
217.049200 22016.000000
217.083700 4700.000000
218.055100 5440.000000
219.064200 2168.000000
225.054300 2996.000000
226.026200 1692.000000
226.062200 33448.000000
227.033700 6488.000000
227.069400 29284.000000
228.039000 2680.000000
228.075500 7740.000000
229.049500 16392.000000
229.084100 2688.000000
230.054600 3728.000000
231.065000 36552.000000
231.100600 7168.000000
232.068700 5832.000000
237.055200 2708.000000
238.061500 2420.000000
239.033900 2300.000000
241.049100 9992.000000
241.085500 23360.000000
242.055900 4068.000000
242.089300 4940.000000
243.064900 71712.000000
244.036400 12632.000000
244.071600 22144.000000
245.043800 38372.000000
245.076300 3752.000000
246.048700 6192.000000
247.059900 5892.000000
248.031500 1944.000000
253.049000 13076.000000
254.020800 3304.000000
254.056900 26980.000000
255.026900 1344.000000
255.064100 23224.000000
256.036500 3048.000000
256.067400 3800.000000
257.044400 23648.000000
257.079900 2300.000000
258.048700 4868.000000
259.060100 245228.000000
260.063500 41524.000000
265.049000 2152.000000
269.045400 1444.000000
269.080500 21540.000000
270.052200 4424.000000
270.084000 4620.000000
271.059900 70560.000000
271.096500 7268.000000
272.066800 52412.000000
273.038900 11872.000000
273.072000 9572.000000
274.043800 2216.000000
282.052000 17112.000000
283.056000 3996.000000
284.066500 1300.000000
285.038600 2812.000000
285.075200 11956.000000
286.081100 5984.000000
287.091200 174096.000000
297.075600 18584.000000
298.079300 3868.000000
300.063000 8352.000000
301.065800 1696.000000
313.070100 1920.000000
315.086000 120844.000000

>ms2
115.054000 7104.000000
116.059400 1340.000000
117.069400 1916.000000
118.040900 852.000000
119.048700 716.000000
121.028700 1216.000000
127.053700 2552.000000
128.061500 11360.000000
129.069000 6772.000000
130.040200 844.000000
131.048600 7956.000000
131.084900 912.000000
132.056200 6408.000000
133.063500 4312.000000
134.036500 964.000000
135.043600 1076.000000
139.053100 1124.000000
141.069500 10308.000000
142.041100 2836.000000
142.076500 4328.000000
143.048500 5172.000000
143.083800 2644.000000
144.055600 4804.000000
145.027600 1364.000000
145.064300 11804.000000
146.035700 2624.000000
146.069900 1960.000000
147.043500 4516.000000
147.080300 3188.000000
148.051300 1960.000000
149.058800 3864.000000
151.039600 1048.000000
151.052300 880.000000
152.061500 7960.000000
153.069200 10572.000000
154.076000 4244.000000
155.048300 5404.000000
155.084800 2932.000000
156.055800 1924.000000
157.028400 1064.000000
157.064400 7724.000000
157.100300 976.000000
158.036100 708.000000
158.070700 2096.000000
159.043400 4740.000000
159.079800 5520.000000
160.051200 19228.000000
160.085300 980.000000
161.058700 14680.000000
162.064200 1944.000000
163.039000 2800.000000
163.075200 1184.000000
164.044900 940.000000
165.053900 964.000000
165.069200 3200.000000
166.075000 916.000000
167.084600 1092.000000
168.055900 1680.000000
169.064200 9920.000000
170.035700 3948.000000
170.071800 9568.000000
171.043500 8696.000000
171.079400 5844.000000
172.050900 4652.000000
172.085300 1304.000000
173.022900 2040.000000
173.059300 12420.000000
173.095100 832.000000
174.030400 2064.000000
174.066000 4880.000000
175.038900 5852.000000
175.074500 11332.000000
176.044700 1896.000000
177.054700 3652.000000
178.058800 840.000000
179.068600 720.000000
180.056700 724.000000
181.064000 8184.000000
182.071300 3704.000000
183.043400 2556.000000
183.079600 2752.000000
184.050700 4064.000000
185.059300 13812.000000
185.094900 3204.000000
186.031700 1376.000000
186.064600 3132.000000
187.038500 12564.000000
187.074800 13884.000000
188.046500 41324.000000
188.081600 6404.000000
189.053600 26232.000000
190.060500 6428.000000
191.033500 1360.000000
191.068300 2056.000000
193.048100 716.000000
193.085600 3600.000000
195.080100 984.000000
197.059400 12380.000000
198.029700 4400.000000
198.066700 15640.000000
199.038600 8988.000000
199.073900 11956.000000
200.045900 9760.000000
200.081100 3088.000000
201.017200 1440.000000
201.054200 20944.000000
201.089300 1616.000000
202.026200 2532.000000
202.059800 4840.000000
203.033500 8116.000000
203.070000 55748.000000
204.039600 2456.000000
205.051000 2056.000000
207.065000 752.000000
209.059100 4072.000000
210.065600 3404.000000
211.039100 2856.000000
211.075000 1624.000000
212.046100 4580.000000
212.080700 1060.000000
213.054300 14808.000000
213.090200 6748.000000
214.061200 6284.000000
214.095600 816.000000
215.033600 22596.000000
215.069800 17936.000000
216.040900 33776.000000
216.077600 19136.000000
217.048900 35668.000000
217.083100 5692.000000
218.053000 5608.000000
219.065100 1792.000000
224.047700 972.000000
225.053900 9464.000000
226.025800 2620.000000
226.062300 42900.000000
227.033600 13448.000000
227.068800 22292.000000
228.040200 5908.000000
228.074200 5004.000000
229.049300 25972.000000
230.054000 5560.000000
231.028500 1188.000000
231.064700 23748.000000
231.100900 3068.000000
232.035900 1344.000000
232.068900 3216.000000
236.045300 712.000000
237.054400 2920.000000
238.059800 1684.000000
239.033500 4628.000000
239.069300 924.000000
240.039000 1552.000000
241.049000 16256.000000
241.085800 8152.000000
242.054800 4752.000000
242.090400 1760.000000
243.064900 140608.000000
244.036100 12732.000000
244.069600 24804.000000
245.043600 32644.000000
246.047400 5668.000000
247.058800 2192.000000
248.030200 2936.000000
249.036500 796.000000
252.041800 752.000000
253.048900 25212.000000
254.019900 1796.000000
254.055700 17260.000000
255.027600 1152.000000
255.064000 12548.000000
256.036100 11244.000000
256.067900 2048.000000
257.043800 34168.000000
258.047400 5672.000000
259.059600 106856.000000
260.063300 14088.000000
264.042800 724.000000
265.050300 1628.000000
269.043900 2488.000000
269.079600 4472.000000
270.051000 4364.000000
270.082800 1392.000000
271.059700 63636.000000
272.066000 21896.000000
273.039000 2244.000000
273.071900 3992.000000
282.052000 3748.000000
283.057900 2464.000000
284.065900 848.000000
285.038300 2548.000000
285.074500 6772.000000
286.079500 1948.000000
287.090900 30492.000000
297.074400 2208.000000
298.079800 964.000000
300.062800 1000.000000
315.086000 6112.000000

