>compound AU26079009
>parentmass 384.1473
>ionization [M+H]+
>formula C21H22ClN3O2
>rt 746.508000
>profile qtof
#smiles_iso CCC1=NN(C(=C1Cl)C(=O)NCC2=CC=C(C=C2)OC3=CC=C(C=C3)C)C
#smiles_can CCC1=NN(C(=C1Cl)C(=O)NCC2=CC=C(C=C2)OC3=CC=C(C=C3)C)C
#inchikey WPALTCMYPARVNV-UHFFFAOYSA-N
#pubchem_id 10110536
#mb_accession AU387301,AU387302,AU387303,AU387304,AU387305

>ms2
197.096200 1672.000000
200.058100 544.000000
369.127400 3084.000000
370.129100 544.000000
384.150100 38944.000000
385.152700 10224.000000
386.146800 10416.000000

>ms2
145.052600 1692.000000
169.099500 448.000000
171.032000 2600.000000
173.029400 624.000000
197.096700 11728.000000
198.099700 1796.000000
200.058700 684.000000
277.098900 508.000000
327.078700 2260.000000
369.127200 2092.000000
384.149000 43460.000000
385.153000 10556.000000
386.146600 12192.000000

>ms2
117.021800 1136.000000
141.070600 464.000000
145.052900 7608.000000
147.049900 2044.000000
153.069600 320.000000
154.076800 1044.000000
169.101300 1648.000000
171.032500 5932.000000
172.035500 836.000000
173.029700 1412.000000
197.096900 28680.000000
198.100000 4620.000000
199.102500 424.000000
200.059700 1216.000000
277.100200 1324.000000
279.102000 420.000000
327.080200 5448.000000
328.085000 584.000000
341.146100 416.000000
384.149200 8200.000000
385.151400 2324.000000
386.148200 3112.000000

>ms2
117.021400 2684.000000
119.019200 564.000000
129.069300 380.000000
141.070300 1208.000000
145.053100 5676.000000
147.050500 1400.000000
152.061400 476.000000
153.069500 1432.000000
154.078100 5052.000000
155.083700 624.000000
167.087200 424.000000
169.101600 5844.000000
170.105100 944.000000
171.031800 2548.000000
172.036600 352.000000
173.030000 512.000000
182.071600 372.000000
197.096400 27144.000000
198.099900 4028.000000
200.059700 528.000000
233.037700 592.000000
251.046800 316.000000
327.079600 1936.000000
328.081700 544.000000
384.150800 696.000000

>ms2
117.021500 2064.000000
128.061600 732.000000
129.070500 952.000000
141.069600 2892.000000
142.075200 496.000000
145.052400 2308.000000
152.062100 1256.000000
153.069200 2908.000000
154.077400 9536.000000
155.081000 1504.000000
157.051900 320.000000
167.084400 680.000000
168.091000 432.000000
169.101200 7152.000000
170.104600 1404.000000
171.032600 1400.000000
173.030600 508.000000
179.082200 336.000000
182.073100 796.000000
197.096000 14280.000000
198.099900 3136.000000
215.024700 364.000000
233.036900 636.000000
251.045800 548.000000
327.080700 452.000000

