>compound AU26351606
>parentmass 361.201
>ionization [M+H]+
>formula C21H28O5
>rt 440.930000
>profile qtof
#smiles_iso C[C@]12CCC(=O)C=C1CC[C@@H]3[C@@H]2C(=O)C[C@]4([C@H]3CC[C@@]4(C(=O)CO)O)C
#smiles_can CC12CCC(=O)C=C1CCC3C2C(=O)CC4(C3CCC4(C(=O)CO)O)C
#inchikey MFYSYFVPBJMHGN-ZPOLXVRWSA-N
#pubchem_id 222786
#mb_accession AU239301,AU239302,AU239303,AU239304,AU239305,AU239306

>ms2peaks
163.109800 1856.000000
361.201000 238852.000000
362.204100 50568.000000
363.207200 7920.000000

>ms2peaks
121.064200 3520.000000
135.079600 1456.000000
135.115900 992.000000
139.073500 1708.000000
145.099500 1624.000000
147.079800 1992.000000
161.094600 1160.000000
163.110700 32816.000000
164.113800 4344.000000
171.115200 992.000000
173.094900 1048.000000
189.090300 1020.000000
191.106200 924.000000
199.109500 1120.000000
225.125700 1032.000000
239.140900 1660.000000
241.120900 952.000000
241.156300 1168.000000
255.173600 1100.000000
257.153000 1252.000000
261.147900 1032.000000
265.158800 3304.000000
267.138400 1336.000000
267.173700 4020.000000
268.177500 908.000000
279.173300 1712.000000
283.168900 4780.000000
284.174200 2060.000000
285.183200 3920.000000
295.168400 1844.000000
297.187500 1396.000000
299.164500 4360.000000
300.170100 900.000000
301.179300 6188.000000
302.183600 1652.000000
307.169400 2940.000000
313.179400 2828.000000
315.194400 1268.000000
325.179300 5316.000000
326.182900 1524.000000
343.189800 11816.000000
344.194600 2932.000000
361.201000 179232.000000
362.204000 37540.000000
363.207000 5964.000000

>ms2peaks
115.052700 648.000000
117.069400 384.000000
119.085400 2740.000000
120.089600 396.000000
121.063800 8004.000000
121.100600 1380.000000
122.065900 860.000000
123.079500 1800.000000
128.061000 576.000000
129.067500 752.000000
131.083900 1560.000000
133.064400 1080.000000
133.100400 1672.000000
135.079000 4240.000000
135.115100 3560.000000
136.083600 532.000000
136.117900 480.000000
137.058100 344.000000
137.093900 748.000000
139.074400 2796.000000
143.084500 2188.000000
144.087800 388.000000
145.064000 1244.000000
145.099500 8572.000000
146.103400 1444.000000
147.079500 4440.000000
147.115200 1044.000000
148.085700 1556.000000
149.094400 2012.000000
151.074200 812.000000
151.110900 452.000000
153.088600 920.000000
155.083300 1024.000000
157.099900 2340.000000
159.079500 2068.000000
159.115400 1404.000000
161.058100 428.000000
161.094900 4784.000000
161.131400 520.000000
162.099000 960.000000
163.110600 65836.000000
164.114400 8612.000000
165.089000 828.000000
167.083200 492.000000
169.099900 1608.000000
171.079700 1456.000000
171.115800 2344.000000
172.121000 456.000000
173.094900 3064.000000
173.131700 756.000000
174.100400 464.000000
175.074200 428.000000
175.110600 1960.000000
177.089100 1016.000000
177.125400 464.000000
179.089600 372.000000
179.105400 876.000000
181.084100 408.000000
181.098300 1524.000000
182.105000 456.000000
183.079100 724.000000
183.115800 2048.000000
184.119400 420.000000
185.094100 1476.000000
185.131700 1256.000000
186.099800 540.000000
187.073900 500.000000
187.110800 2368.000000
187.145600 456.000000
188.114600 472.000000
189.089600 2060.000000
189.126300 2176.000000
190.093000 364.000000
191.106500 1432.000000
193.101700 456.000000
194.105200 404.000000
195.115900 1920.000000
196.117300 360.000000
197.095700 980.000000
197.132000 1588.000000
198.100100 340.000000
199.110900 2324.000000
199.148100 580.000000
200.111400 380.000000
201.091300 580.000000
201.126000 1192.000000
203.105500 1176.000000
203.142000 804.000000
205.101500 648.000000
205.120100 732.000000
207.102000 728.000000
207.115300 1284.000000
209.097100 440.000000
209.132300 1256.000000
210.135700 408.000000
211.111200 1656.000000
211.146900 1056.000000
212.112400 436.000000
213.126700 1664.000000
213.163300 412.000000
214.129800 364.000000
215.105200 800.000000
215.141100 1356.000000
217.122900 836.000000
219.117200 356.000000
221.131200 1612.000000
223.110100 1248.000000
223.146300 1772.000000
224.154000 492.000000
225.126200 2516.000000
225.163700 1400.000000
226.131300 628.000000
226.166700 432.000000
227.104600 500.000000
227.142000 1880.000000
228.147600 524.000000
229.121100 744.000000
229.157700 432.000000
231.136100 636.000000
232.124700 460.000000
233.133800 416.000000
235.147300 936.000000
237.125700 1704.000000
237.162700 1436.000000
238.166600 624.000000
239.142100 4692.000000
239.178900 1004.000000
240.146300 812.000000
240.185600 336.000000
241.121100 1968.000000
241.157900 4300.000000
242.128500 340.000000
242.163900 1432.000000
243.137000 1620.000000
243.175700 2164.000000
244.142300 376.000000
244.173300 540.000000
245.153500 340.000000
247.148700 844.000000
249.128800 708.000000
249.162800 776.000000
250.133000 392.000000
251.141900 596.000000
251.177100 704.000000
252.149400 408.000000
253.158600 1696.000000
255.135600 1040.000000
255.174200 2348.000000
256.181000 1604.000000
257.152000 2112.000000
257.188200 1712.000000
258.160100 4420.000000
259.164800 652.000000
261.148900 816.000000
261.165300 692.000000
263.140800 892.000000
264.155400 452.000000
265.157900 4972.000000
266.162000 2152.000000
267.140100 1384.000000
267.172900 5644.000000
268.142100 572.000000
268.178200 940.000000
269.154400 1284.000000
269.191800 484.000000
271.169700 952.000000
277.158900 788.000000
279.173000 2572.000000
280.176100 672.000000
281.154300 1120.000000
282.160900 368.000000
283.168900 5336.000000
284.175100 4512.000000
285.149800 1168.000000
285.183200 3564.000000
286.187500 604.000000
289.157000 596.000000
295.169300 1688.000000
296.172500 704.000000
297.184200 2028.000000
298.190500 552.000000
299.162800 5412.000000
300.169800 2644.000000
301.179100 5724.000000
302.183500 1440.000000
303.159200 756.000000
307.170200 2284.000000
308.174200 652.000000
313.179200 2628.000000
314.181200 636.000000
315.194700 828.000000
316.197200 352.000000
317.175400 776.000000
325.179500 3480.000000
326.183100 636.000000
343.189500 4592.000000
344.193200 1404.000000
345.199800 352.000000
361.200400 17232.000000
362.203900 4956.000000

>ms2peaks
115.053000 748.000000
117.068600 1172.000000
119.084300 2524.000000
121.063300 9588.000000
121.099900 1744.000000
122.067600 756.000000
123.079200 1940.000000
128.060900 1272.000000
129.068600 1532.000000
130.076900 1096.000000
131.084500 3092.000000
132.056200 328.000000
132.088400 416.000000
133.063400 1580.000000
133.099900 2208.000000
134.073700 360.000000
135.078400 3868.000000
135.115400 3592.000000
136.119400 308.000000
137.094900 412.000000
139.072900 1032.000000
141.068200 1204.000000
142.076400 808.000000
143.084200 3736.000000
145.063000 1312.000000
145.099600 9748.000000
146.103500 1356.000000
147.078400 5152.000000
147.115400 784.000000
148.086300 3224.000000
149.058700 312.000000
149.093800 1704.000000
151.074100 420.000000
154.074800 308.000000
155.083900 1572.000000
156.090300 516.000000
157.063500 728.000000
157.100000 2840.000000
158.070900 424.000000
158.105300 424.000000
159.078500 3848.000000
159.115100 2484.000000
160.082200 404.000000
161.058900 408.000000
161.094400 4368.000000
161.131500 472.000000
162.099500 712.000000
163.110200 41576.000000
164.113800 4928.000000
165.068300 636.000000
165.089400 740.000000
165.114600 328.000000
166.073600 448.000000
167.083100 680.000000
168.091500 496.000000
169.063700 392.000000
169.098600 2532.000000
170.104100 584.000000
171.079200 2056.000000
171.115400 2376.000000
172.085300 392.000000
172.120200 388.000000
173.094700 2804.000000
173.131100 872.000000
174.101800 1056.000000
175.074200 372.000000
175.110100 1908.000000
177.089600 436.000000
179.085200 348.000000
179.106900 404.000000
180.090600 512.000000
181.099600 1996.000000
182.105600 932.000000
183.078500 692.000000
183.115300 3388.000000
184.120400 912.000000
185.094300 1896.000000
185.131100 1568.000000
187.073800 344.000000
187.112200 1504.000000
187.146300 436.000000
188.117000 472.000000
189.089700 1120.000000
189.126500 2400.000000
192.093200 632.000000
193.098600 960.000000
194.107700 560.000000
195.078900 552.000000
195.115000 2420.000000
196.085500 308.000000
196.121500 752.000000
197.094000 992.000000
197.131600 2308.000000
198.137500 552.000000
199.110500 2044.000000
199.146900 1092.000000
201.090300 532.000000
201.125500 1264.000000
202.131900 568.000000
203.105000 568.000000
203.141500 588.000000
205.100100 388.000000
205.118900 320.000000
206.105600 484.000000
207.113700 1388.000000
208.086000 376.000000
208.121900 540.000000
209.095800 548.000000
209.131000 1748.000000
210.103900 544.000000
210.138700 348.000000
211.111900 1064.000000
211.145900 1084.000000
213.126000 1100.000000
213.162400 500.000000
214.130400 308.000000
215.103900 384.000000
215.142500 632.000000
217.118900 340.000000
218.106200 352.000000
219.117900 540.000000
220.124800 364.000000
221.132700 1556.000000
222.136700 616.000000
223.111500 1364.000000
223.145800 1512.000000
224.117500 648.000000
224.151900 492.000000
225.126800 1948.000000
225.163000 1408.000000
226.132300 1108.000000
227.102000 424.000000
227.141300 1072.000000
229.121500 456.000000
232.124000 560.000000
235.146600 804.000000
236.120900 392.000000
237.126400 756.000000
237.163300 800.000000
238.129400 544.000000
238.167400 356.000000
239.140300 2404.000000
239.178800 444.000000
240.146600 852.000000
240.181800 308.000000
241.120900 776.000000
241.157400 3192.000000
242.163500 2152.000000
243.137700 1116.000000
243.171900 1004.000000
244.140900 420.000000
247.146600 960.000000
249.122600 580.000000
249.164600 444.000000
250.134500 316.000000
251.142000 876.000000
252.149000 708.000000
253.157300 1124.000000
255.136900 416.000000
255.171200 1324.000000
256.180800 1280.000000
257.150800 1044.000000
257.186700 496.000000
258.160300 4956.000000
259.162800 1472.000000
261.158500 432.000000
264.149000 452.000000
265.156300 1652.000000
266.162100 756.000000
267.137700 444.000000
267.173100 1720.000000
268.176400 428.000000
269.152700 2168.000000
270.156100 472.000000
271.166800 560.000000
279.173800 516.000000
281.154400 380.000000
283.166700 1184.000000
284.174300 3496.000000
285.147200 696.000000
285.181300 1152.000000
295.168500 364.000000
299.163600 1204.000000
300.169900 1196.000000
301.177200 844.000000
313.180800 508.000000
361.197800 468.000000

>ms2peaks
115.053100 1200.000000
117.069500 1424.000000
119.084500 2208.000000
120.088300 328.000000
121.064200 4900.000000
121.099700 740.000000
122.067000 372.000000
123.079300 880.000000
128.060900 1960.000000
129.069500 2168.000000
130.076400 1644.000000
131.084200 2140.000000
132.088400 300.000000
133.063700 1808.000000
133.099700 1764.000000
134.070000 308.000000
135.079200 1272.000000
135.115800 628.000000
141.068100 1192.000000
142.076500 1248.000000
143.084300 3784.000000
144.089700 664.000000
145.063600 1012.000000
145.099800 5328.000000
146.069800 620.000000
146.103900 712.000000
147.079200 3156.000000
147.115200 332.000000
148.087000 5264.000000
149.092500 1036.000000
152.062300 308.000000
153.069800 900.000000
154.075100 656.000000
155.083800 1700.000000
156.090500 840.000000
157.063600 520.000000
157.099500 1848.000000
158.069300 448.000000
158.106500 376.000000
159.078400 1540.000000
159.115600 1660.000000
160.086800 408.000000
161.094900 2088.000000
162.101200 520.000000
163.110500 14084.000000
164.113200 2028.000000
165.068200 692.000000
166.075400 508.000000
167.082400 992.000000
168.091500 724.000000
169.099500 2648.000000
170.105400 764.000000
171.078600 1128.000000
171.115200 1376.000000
173.095400 1376.000000
173.131700 468.000000
174.102700 1420.000000
175.073500 368.000000
175.110400 796.000000
178.074200 332.000000
179.084300 1116.000000
180.091900 1080.000000
181.100300 1648.000000
182.075400 372.000000
182.105500 736.000000
183.079700 760.000000
183.115200 1996.000000
184.089900 320.000000
185.093800 752.000000
185.131100 1256.000000
186.139900 396.000000
187.111400 736.000000
188.118300 356.000000
189.124800 568.000000
190.132700 404.000000
191.087800 460.000000
192.091000 488.000000
193.100800 888.000000
194.108800 520.000000
195.116000 1684.000000
196.088300 312.000000
196.122200 648.000000
197.093900 688.000000
197.132200 1308.000000
198.101500 444.000000
198.134100 332.000000
199.109700 776.000000
199.149000 944.000000
200.117400 452.000000
201.125100 548.000000
205.099300 364.000000
206.108800 616.000000
207.116500 780.000000
208.086200 416.000000
208.119900 496.000000
209.093800 668.000000
209.131500 560.000000
210.104400 304.000000
210.137500 424.000000
211.108400 516.000000
211.149300 588.000000
212.119400 484.000000
213.126100 816.000000
213.163600 348.000000
217.101300 336.000000
218.106700 348.000000
221.129400 512.000000
223.110200 772.000000
223.147800 576.000000
224.114800 416.000000
225.127200 1304.000000
225.163900 352.000000
226.133400 960.000000
227.144700 972.000000
233.129400 328.000000
235.145200 344.000000
237.127900 572.000000
239.142400 568.000000
239.177800 300.000000
240.149700 828.000000
241.158400 1476.000000
242.162400 1172.000000
243.137800 2004.000000
244.143500 336.000000
250.132300 320.000000
251.141200 728.000000
253.156000 396.000000
256.183400 528.000000
258.160400 3268.000000
259.163300 704.000000
269.153700 1528.000000
270.155100 388.000000
284.176200 896.000000

>ms2peaks
55.053900 396.000000
79.053400 328.000000
81.069600 524.000000
93.069300 572.000000
105.069100 468.000000
107.085700 420.000000
117.069800 328.000000
119.084200 1580.000000
121.064300 7076.000000
121.099500 1292.000000
122.066200 1012.000000
123.079800 1696.000000
129.069200 444.000000
131.084400 1248.000000
133.064500 640.000000
133.100100 1748.000000
135.078900 4408.000000
135.115500 2236.000000
136.084600 372.000000
137.059700 336.000000
137.093900 624.000000
139.075600 2212.000000
143.085100 2232.000000
144.089100 496.000000
145.064300 484.000000
145.100200 5944.000000
146.104100 792.000000
147.079000 3708.000000
147.115900 888.000000
148.085000 872.000000
149.095100 1648.000000
151.073400 672.000000
153.090000 676.000000
155.083800 1212.000000
157.100300 1868.000000
159.079100 1744.000000
159.117300 1056.000000
161.058200 420.000000
161.095100 2676.000000
162.100100 368.000000
163.110700 65432.000000
164.114300 6160.000000
165.089300 760.000000
165.118600 552.000000
169.099700 1172.000000
171.079800 1576.000000
171.115600 1640.000000
173.094700 2032.000000
173.131300 380.000000
174.099900 428.000000
175.110100 1800.000000
177.089000 660.000000
179.106600 552.000000
181.085300 520.000000
181.098100 928.000000
182.104500 408.000000
183.116000 1812.000000
184.119800 396.000000
185.094400 1460.000000
185.131400 1140.000000
187.110200 1720.000000
189.089100 1712.000000
189.126000 1768.000000
190.094700 392.000000
190.131500 380.000000
191.106400 984.000000
193.100700 668.000000
193.121900 356.000000
195.115900 1360.000000
197.094100 804.000000
197.131100 1116.000000
199.111500 1792.000000
199.146600 632.000000
201.089500 696.000000
201.128200 1056.000000
202.132300 548.000000
203.106000 608.000000
203.140600 668.000000
205.102600 392.000000
206.108400 348.000000
207.098600 372.000000
207.116000 1008.000000
209.113100 380.000000
209.130200 1192.000000
211.109700 996.000000
211.147000 768.000000
213.126600 1644.000000
213.163000 344.000000
215.104800 344.000000
215.141100 752.000000
217.120600 856.000000
219.115400 332.000000
221.132700 980.000000
222.135200 432.000000
223.110600 1156.000000
223.148300 1364.000000
224.153000 548.000000
225.126600 1912.000000
225.161900 1112.000000
226.132900 756.000000
226.167300 556.000000
227.106000 348.000000
227.141700 1064.000000
229.121200 780.000000
229.160400 360.000000
233.130300 364.000000
235.147000 856.000000
237.129700 932.000000
237.165700 908.000000
238.167200 436.000000
239.141600 3256.000000
239.177900 540.000000
240.146100 720.000000
241.121600 1564.000000
241.157500 3368.000000
242.163200 1488.000000
243.135400 828.000000
243.174000 1496.000000
244.145300 392.000000
244.177100 672.000000
247.149100 876.000000
249.127300 624.000000
249.161200 904.000000
251.140100 668.000000
252.145600 408.000000
253.158800 1240.000000
255.139200 944.000000
255.173100 2452.000000
256.180600 1112.000000
257.153300 1936.000000
257.187100 712.000000
258.160900 2388.000000
261.150200 608.000000
263.143500 484.000000
265.157900 4200.000000
266.167100 800.000000
267.137500 976.000000
267.173300 3916.000000
268.150400 376.000000
268.178500 820.000000
269.151300 1184.000000
269.191700 416.000000
271.169200 728.000000
273.148200 424.000000
277.158900 684.000000
279.174800 1564.000000
280.175100 436.000000
281.153800 940.000000
283.168400 3872.000000
284.175600 3536.000000
285.148200 916.000000
285.184000 3360.000000
286.185900 532.000000
289.162600 560.000000
295.167600 1488.000000
296.174900 396.000000
297.185300 2036.000000
299.163200 3984.000000
300.170600 1796.000000
301.179900 5724.000000
302.182700 1736.000000
303.160800 460.000000
303.190100 388.000000
307.171100 1992.000000
308.170600 512.000000
313.179500 2844.000000
314.181800 896.000000
315.196500 832.000000
317.176900 868.000000
325.179000 3312.000000
326.182600 756.000000
343.190000 5860.000000
344.193000 1468.000000
361.201100 63704.000000
362.203700 14128.000000
363.206400 2052.000000

