>compound AU26641928
>parentmass 256.1099
>ionization [M+H]+
>formula C13H18ClNO2
>rt 508.800000
>profile qtof
#smiles_iso CC1=C(C(=CC=C1)C)N(CCOC)C(=O)CCl
#smiles_can CC1=C(C(=CC=C1)C)N(CCOC)C(=O)CCl
#inchikey SCCDDNKJYDZXMM-UHFFFAOYSA-N
#pubchem_id 39722
#mb_accession AU339001,AU339002,AU339003,AU339004,AU339005

>ms2
148.111500 4132.000000
224.083700 773264.000000
225.086600 99216.000000
226.080700 190952.000000
227.083600 15140.000000
256.110000 526640.000000
257.113000 51936.000000
258.107200 104616.000000
259.110100 8880.000000

>ms2
148.110900 145628.000000
149.114200 12232.000000
224.083700 1048984.000000
225.086600 113184.000000
226.080700 287896.000000
227.083600 17660.000000

>ms2
121.063700 3544.000000
144.080100 3452.000000
148.111200 657888.000000
149.114200 42636.000000
174.090100 7348.000000
224.083700 327560.000000
225.086600 34528.000000
226.080700 85588.000000

>ms2
116.061200 1872.000000
117.056600 7468.000000
118.064300 17964.000000
119.068600 1924.000000
119.084900 4136.000000
120.079900 5424.000000
121.064200 2764.000000
122.095300 1460.000000
129.068900 2076.000000
130.064400 7164.000000
133.087400 36996.000000
144.080100 4620.000000
145.085900 1480.000000
148.111300 280712.000000
149.114300 20088.000000
198.068200 1480.000000
224.082500 24020.000000

>ms2
115.053600 2328.000000
116.060500 1520.000000
118.064300 17048.000000
119.068700 1912.000000
119.084700 2112.000000
120.079700 4280.000000
121.063400 1072.000000
121.084700 848.000000
121.100500 476.000000
122.095600 756.000000
123.079700 324.000000
128.059900 624.000000
129.068500 1472.000000
133.087100 20188.000000
135.098100 348.000000
142.064200 392.000000
143.071500 592.000000
144.079600 2908.000000
145.086000 652.000000
146.059600 696.000000
146.095200 11068.000000
147.066500 684.000000
148.111000 46768.000000
149.114500 4744.000000
153.045700 336.000000
158.094900 964.000000
160.073900 624.000000
174.090700 2540.000000
175.092900 420.000000
224.085000 1000.000000

