>compound AU26331864
>parentmass 430.1557
>ionization [M+NH4]+
>formula C21H26Cl2O4
>rt 681.945000
>profile qtof
#smiles_iso CC(C)(C1=CC=C(C=C1)OCC(CCl)O)C2=CC=C(C=C2)OCC(CCl)O
#smiles_can CC(C)(C1=CC=C(C=C1)OCC(CCl)O)C2=CC=C(C=C2)OCC(CCl)O
#inchikey PTCFDJRJOGPUFE-UHFFFAOYSA-N
#pubchem_id 3479589
#mb_accession AU581350,AU581351,AU581352,AU581353

>ms2
133.084100 1196.000000
135.079200 788.000000
177.109500 1004.000000
221.138200 412.000000
227.082800 23160.000000
228.086700 2856.000000
229.079500 5972.000000
230.080900 444.000000

>ms2
133.085800 768.000000
135.079600 5224.000000
177.109200 316.000000
227.082800 14236.000000
228.086000 2356.000000
229.079600 3520.000000

>ms2
135.079100 10672.000000
136.083200 968.000000
227.082800 6828.000000
228.088600 812.000000
229.080200 1992.000000

>ms2
135.079500 10044.000000
136.082900 1396.000000
227.083800 1628.000000

