>compound AU26777680
>parentmass 180.1747
>ionization [M+H]+
>formula C12H21N
>rt 403.360000
>profile qtof
#smiles_iso CC12CC3CC(C1)(CC(C3)(C2)N)C
#smiles_can CC12CC3CC(C1)(CC(C3)(C2)N)C
#inchikey BUGYDGFZZOZRHP-UHFFFAOYSA-N
#pubchem_id 4054
#mb_accession AU267901,AU267902,AU267903,AU267904,AU267905,AU267906

>ms2peaks
163.147000 902124.000000
164.150200 97628.000000
165.153300 7316.000000
180.173600 957724.000000
181.177000 94036.000000

>ms2peaks
121.100300 14252.000000
135.115900 13440.000000
163.147200 1022892.000000
164.150500 107128.000000
165.153600 7188.000000
180.173700 35196.000000

>ms2peaks
107.085000 1440.000000
119.084900 2356.000000
121.100500 22008.000000
122.103600 3436.000000
135.115800 17212.000000
136.118900 1928.000000
163.147200 245904.000000
164.150500 26404.000000
165.153600 1696.000000

>ms2peaks
107.086900 344.000000
117.070300 352.000000
119.085300 1744.000000
121.100300 8828.000000
122.103900 884.000000
133.099800 1036.000000
135.116100 4060.000000
161.128900 392.000000
163.147100 17676.000000
164.149900 2292.000000

>ms2peaks
119.085500 944.000000
121.100700 1344.000000
135.115600 456.000000
163.147200 1512.000000

>ms2peaks
69.069500 8836.000000
79.054200 5668.000000
81.069800 18320.000000
83.085400 3396.000000
91.054700 5116.000000
93.070400 27160.000000
95.085900 13540.000000
105.071600 3352.000000
107.087100 197224.000000
108.090400 13952.000000
121.101100 20128.000000
135.116700 10236.000000
163.147500 531304.000000
164.151000 75252.000000
165.154500 3796.000000
180.174700 62020.000000
181.177400 6064.000000

