>compound AU26414028
>parentmass 427.21400000000006
>ionization [M+H]+
>formula C23H27FN4O3
>rt 325.200000
>profile qtof
#smiles_iso CC1=C(C(=O)N2CCCC(C2=N1)O)CCN3CCC(CC3)C4=NOC5=C4C=CC(=C5)F
#smiles_can CC1=C(C(=O)N2CCCC(C2=N1)O)CCN3CCC(CC3)C4=NOC5=C4C=CC(=C5)F
#inchikey PMXMIIMHBWHSKN-UHFFFAOYSA-N
#pubchem_id 115237
#mb_accession AU156801,AU156802,AU156803,AU156804,AU156805

>ms2peaks
207.112500 9404.000000
427.215100 2113648.000000
428.217800 506876.000000
429.220300 49464.000000

>ms2peaks
207.112500 540628.000000
233.108000 4060.000000
427.215300 2434816.000000
428.217800 583624.000000
429.220300 53284.000000

>ms2peaks
165.064700 1880.000000
179.080500 4728.000000
207.112800 2426076.000000
208.115500 294720.000000
233.108200 8452.000000
427.215300 787136.000000
428.217800 140856.000000
429.220300 15740.000000

>ms2peaks
110.059800 3520.000000
137.070300 2940.000000
165.064700 14116.000000
179.080500 22184.000000
189.101000 10660.000000
207.112800 2491688.000000
208.115500 403996.000000
233.108200 5752.000000

>ms2peaks
110.059800 6920.000000
137.070300 7816.000000
165.064700 30968.000000
179.080500 50200.000000
189.101000 21396.000000
207.112800 1963708.000000
208.115500 213084.000000
233.108200 3436.000000

