>compound AU27992902
>parentmass 240.115
>ionization [M+H]+
>formula C13H18ClNO
>rt 334.680000
>profile qtof
#smiles_iso CC(C(=O)C1=CC(=CC=C1)Cl)NC(C)(C)C
#smiles_can CC(C(=O)C1=CC(=CC=C1)Cl)NC(C)(C)C
#inchikey SNPPWIUOZRMYNY-UHFFFAOYSA-N
#pubchem_id 444
#mb_accession AU270301,AU270302,AU270303,AU270304,AU270305,AU270306

>ms2
131.072000 19168.000000
166.040700 103500.000000
167.024500 45640.000000
168.037400 27600.000000
184.051600 2271244.000000
185.054600 179240.000000
186.048600 634984.000000
240.114700 1912180.000000
241.117800 230096.000000
242.111800 490780.000000

>ms2
130.064300 64848.000000
131.072100 516736.000000
132.075300 37116.000000
139.030000 134064.000000
140.032900 12536.000000
141.026900 37128.000000
166.040900 1386708.000000
167.024900 521236.000000
167.044400 63692.000000
168.037600 339548.000000
169.021900 132860.000000
169.040700 14660.000000
184.051600 1689124.000000
185.054700 126572.000000
186.048800 392296.000000
240.114100 17252.000000

>ms2
130.064300 424464.000000
131.072100 1975820.000000
132.056100 16172.000000
132.075500 126280.000000
139.030100 386544.000000
140.033000 31040.000000
141.027000 116928.000000
151.017000 24324.000000
166.040900 673044.000000
167.024900 229264.000000
167.044200 39440.000000
168.037600 166272.000000
169.021900 61836.000000
169.040900 10600.000000
184.051500 89116.000000
186.048300 25888.000000

>ms2
130.064200 1191908.000000
131.071900 1378020.000000
132.055600 15896.000000
132.075300 82268.000000
138.993100 22472.000000
139.029900 180784.000000
140.033200 16744.000000
140.990200 7068.000000
141.026800 53984.000000
151.017000 45836.000000
153.014200 13540.000000
166.040500 55940.000000
167.024400 19964.000000
168.037300 16656.000000

>ms2
128.048600 10460.000000
130.064400 1798708.000000
131.071400 428928.000000
132.074800 31564.000000
138.993500 11636.000000
139.029900 35636.000000
141.026800 11744.000000
151.017200 53864.000000
153.014400 15508.000000

>ms2
57.069500 194688.000000
58.072800 7504.000000
103.054900 16988.000000
130.064800 88280.000000
131.073000 626576.000000
132.056500 5016.000000
132.076100 47320.000000
139.030600 152136.000000
140.034000 11076.000000
141.027400 40928.000000
151.017300 5560.000000
166.041200 511484.000000
167.025300 195560.000000
167.044100 30228.000000
168.037900 135704.000000
169.022300 53420.000000
169.040900 5280.000000
184.051800 474084.000000
185.054900 43904.000000
186.049000 126200.000000
240.114500 11384.000000
242.112600 3632.000000

