>compound AU27431953
>parentmass 407.221
>ionization [M+H]+
>formula C18H34N2O6S
>rt 235.428000
>profile qtof
#smiles_iso CCC[C@@H]1C[C@H](N(C1)C)C(=O)N[C@@H]([C@@H]2[C@@H]([C@@H]([C@H]([C@H](O2)SC)O)O)O)[C@@H](C)O
#smiles_can CCCC1CC(N(C1)C)C(=O)NC(C2C(C(C(C(O2)SC)O)O)O)C(C)O
#inchikey OJMMVQQUTAEWLP-KIDUDLJLSA-N
#pubchem_id 3000540
#mb_accession AU118001,AU118002,AU118003,AU118004,AU118005

>ms2
126.126400 8052.000000
407.221000 843312.000000
408.224100 167144.000000
409.220100 37208.000000

>ms2
126.127000 280156.000000
127.130100 22960.000000
172.131900 4104.000000
299.197800 4344.000000
317.206800 12832.000000
318.209100 3840.000000
359.217300 86268.000000
360.220700 17396.000000
389.210100 20384.000000
390.214100 5292.000000
407.220800 736988.000000
408.223700 148032.000000
409.221100 31736.000000

>ms2
126.127000 773888.000000
127.130200 61004.000000
172.131900 4828.000000
317.204800 7640.000000
359.217000 38804.000000
360.219800 8968.000000
389.209700 5976.000000
407.220200 47324.000000
408.223400 11252.000000

>ms2
124.111200 4312.000000
126.126900 561664.000000
127.130100 53864.000000

>ms2
124.111100 5236.000000
126.126900 391308.000000
127.130000 36668.000000

