>compound AU27624857
>parentmass 389.1123
>ionization [M+H]+
>formula C17H17ClN6O3
>rt 305.520000
>profile qtof
#smiles_iso CN1CCN(CC1)C(=O)OC2C3=NC=CN=C3C(=O)N2C4=NC=C(C=C4)Cl
#smiles_can CN1CCN(CC1)C(=O)OC2C3=NC=CN=C3C(=O)N2C4=NC=C(C=C4)Cl
#inchikey GBBSUAFBMRNDJC-UHFFFAOYSA-N
#pubchem_id 5735
#mb_accession AU157906

>ms2peaks
98.084400 3824.000000
99.092000 5844.000000
130.005400 2144.000000
139.004800 8404.000000
143.080500 6340.000000
157.016000 6508.000000
217.027700 149536.000000
219.024500 39988.000000
220.027500 1936.000000
245.022200 278044.000000
246.024700 42100.000000
247.018700 85732.000000
248.021400 6496.000000
263.033400 142184.000000
265.031400 61264.000000
266.032600 6216.000000
345.124500 3884.000000
347.120800 1744.000000

