>compound AU27532755
>parentmass 271.1693
>ionization [M+H]+
>formula C18H22O2
>rt 570.600000
>profile qtof
#smiles_iso C[C@]12CC[C@H]3[C@H]([C@@H]1CCC2=O)CCC4=C3C=CC(=C4)O
#smiles_can CC12CCC3C(C1CCC2=O)CCC4=C3C=CC(=C4)O
#inchikey DNXHEGUUPJUMQT-CBZIJGRNSA-N
#pubchem_id 5870
#mb_accession AU239101

>ms2peaks
133.063500 584.000000
157.063900 652.000000
159.080200 556.000000
197.093700 356.000000
201.126300 492.000000
213.127300 324.000000
253.158400 4192.000000
254.164400 1040.000000
270.164200 332.000000
271.169300 8604.000000
272.171700 1928.000000

