>compound AU27382054
>parentmass 435.2177
>ionization [M+H]+
>formula C24H31FO6
>rt 539.710000
>profile qtof
#smiles_iso C[C@]12C[C@@H]([C@H]3[C@H]([C@@H]1C[C@@H]4[C@]2(OC(O4)(C)C)C(=O)CO)C[C@@H](C5=CC(=O)C=C[C@]35C)F)O
#smiles_can CC1(OC2CC3C4CC(C5=CC(=O)C=CC5(C4C(CC3(C2(O1)C(=O)CO)C)O)C)F)C
#inchikey XSFJVAJPIHIPKU-XWCQMRHXSA-N
#pubchem_id 82153
#mb_accession AU281201,AU281202,AU281203,AU281204,AU281205,AU281206

>ms2peaks
155.068700 4368.000000
171.079200 5864.000000
197.094800 6248.000000
211.110900 2996.000000
223.110600 9888.000000
224.115300 2980.000000
225.126200 10324.000000
235.110100 2872.000000
239.142900 3148.000000
249.127300 3012.000000
261.126700 6132.000000
263.142700 5072.000000
265.157100 2928.000000
275.142200 5196.000000
279.137600 7888.000000
281.152500 4768.000000
293.152500 11728.000000
294.156800 2560.000000
301.158300 2576.000000
303.137400 11052.000000
304.140900 2540.000000
309.147900 3248.000000
311.163200 8008.000000
321.147700 64108.000000
322.151900 13352.000000
331.170400 2900.000000
339.158500 85888.000000
340.161700 18664.000000
341.155300 8792.000000
359.165200 7584.000000
377.210800 4224.000000
379.189800 3056.000000
397.200600 67376.000000
398.204400 18216.000000
399.205600 3692.000000
415.211000 12136.000000
416.213300 3116.000000
417.206700 87344.000000
418.209800 23612.000000
419.212700 3204.000000
435.217700 484600.000000
436.220600 106308.000000
437.224300 14704.000000

>ms2peaks
115.039100 1112.000000
119.084800 916.000000
121.063900 12324.000000
122.067600 1300.000000
123.079500 1168.000000
127.073600 724.000000
131.084700 872.000000
133.063800 1064.000000
135.079200 5024.000000
137.058800 1748.000000
139.074800 1336.000000
141.053600 1192.000000
141.090100 852.000000
143.084600 880.000000
145.062900 3684.000000
145.099500 712.000000
147.079200 12328.000000
148.082100 1340.000000
149.059800 824.000000
149.093800 1124.000000
151.073900 2160.000000
155.069100 14352.000000
156.072900 1428.000000
157.100800 728.000000
159.064500 1356.000000
159.079000 7528.000000
160.083700 916.000000
161.058500 1592.000000
161.094800 4100.000000
163.074400 7132.000000
164.078400 832.000000
165.069800 2504.000000
165.089900 1528.000000
167.085800 952.000000
169.062500 1196.000000
171.079100 29108.000000
172.081800 2996.000000
173.094500 5076.000000
174.097700 900.000000
175.073800 1464.000000
177.089600 1284.000000
179.082600 800.000000
181.084900 6556.000000
182.088400 804.000000
183.078900 2544.000000
185.057300 852.000000
185.094600 5796.000000
186.098200 1024.000000
187.073600 1804.000000
187.110100 996.000000
189.090600 1712.000000
191.085200 2664.000000
191.105100 800.000000
193.084900 2024.000000
195.079600 1560.000000
195.100100 788.000000
195.116800 840.000000
197.095300 29612.000000
198.099000 3972.000000
199.110500 2204.000000
201.089200 1740.000000
203.106500 1104.000000
205.085200 1824.000000
207.117100 1356.000000
208.086500 764.000000
209.095600 5448.000000
210.100100 1424.000000
211.074900 728.000000
211.110900 13172.000000
212.115000 2564.000000
213.090500 3700.000000
213.126300 19156.000000
214.130500 3164.000000
215.140900 2564.000000
221.094900 3564.000000
221.132300 824.000000
222.100800 1624.000000
223.111000 54336.000000
224.116200 18016.000000
225.126400 53952.000000
226.129700 8260.000000
227.106300 1188.000000
227.141300 2860.000000
231.100300 808.000000
231.116700 856.000000
233.094300 1620.000000
233.132700 1244.000000
235.111100 20244.000000
236.114100 4044.000000
237.090000 2556.000000
237.126400 18620.000000
238.099100 768.000000
238.130100 3912.000000
239.106500 1428.000000
239.142000 16580.000000
240.144500 3684.000000
241.084200 1228.000000
241.120900 2136.000000
241.156300 976.000000
243.117600 1820.000000
243.136700 748.000000
244.123300 1940.000000
245.094600 988.000000
245.131100 2592.000000
246.101900 1240.000000
247.110600 5744.000000
247.149300 1396.000000
248.117100 2912.000000
249.126600 16856.000000
250.130800 4020.000000
251.105600 5628.000000
251.142600 11888.000000
252.109400 804.000000
252.145900 2848.000000
253.121000 3084.000000
253.157600 2776.000000
254.161700 744.000000
257.132000 2632.000000
259.111400 6024.000000
260.117300 3624.000000
261.126200 32304.000000
262.131300 11140.000000
263.105700 3488.000000
263.142500 41176.000000
264.113400 720.000000
264.145300 8872.000000
265.121300 5768.000000
265.157500 16436.000000
266.125900 1012.000000
266.161400 3380.000000
267.137300 4744.000000
268.139400 816.000000
269.116500 2800.000000
269.153200 1344.000000
273.125800 7736.000000
274.129300 1820.000000
275.142400 36540.000000
276.145700 7540.000000
277.121400 8472.000000
277.157100 2868.000000
278.128700 4928.000000
279.100800 1756.000000
279.136900 34292.000000
280.140900 7868.000000
281.152900 23544.000000
282.155400 5036.000000
283.147200 7792.000000
283.167500 5556.000000
284.152300 1964.000000
284.171600 1592.000000
285.126000 6872.000000
285.165600 788.000000
286.130000 1644.000000
288.114900 1140.000000
291.137900 13800.000000
292.141700 2664.000000
293.152900 43064.000000
294.155900 9292.000000
295.132300 3752.000000
295.151400 1684.000000
296.136700 944.000000
297.148800 2020.000000
299.143200 1572.000000
299.163100 1000.000000
301.158400 10092.000000
302.161500 2280.000000
303.137300 48112.000000
304.140900 10496.000000
305.143800 1040.000000
309.147300 8824.000000
310.152100 2112.000000
311.163600 22728.000000
312.167200 4960.000000
313.159500 3660.000000
319.132300 1164.000000
321.148400 142364.000000
322.151500 29968.000000
323.149300 5100.000000
325.144600 728.000000
329.173800 1756.000000
330.176000 876.000000
331.169700 7692.000000
332.173100 2176.000000
339.158700 116964.000000
340.162000 25820.000000
341.155000 14400.000000
342.157100 2984.000000
343.163300 1028.000000
357.171000 2348.000000
357.206500 1560.000000
359.164300 6920.000000
360.167900 1832.000000
361.178600 1500.000000
369.204400 928.000000
377.213200 1508.000000
379.189700 3120.000000
380.195300 772.000000
381.187800 712.000000
397.200600 37904.000000
398.204400 10200.000000
399.204000 2048.000000
415.211200 5648.000000
416.217100 1904.000000
417.206500 37908.000000
418.210700 9016.000000
419.215000 1332.000000
435.217200 15732.000000
436.221200 4148.000000

>ms2peaks
115.039400 1000.000000
115.053900 868.000000
117.068000 896.000000
119.085300 1868.000000
121.063900 27904.000000
122.067000 2616.000000
123.042300 724.000000
123.079700 1768.000000
125.058400 1312.000000
127.039100 648.000000
127.074900 476.000000
128.060600 1112.000000
129.067300 864.000000
131.049100 576.000000
131.084700 3792.000000
132.056100 616.000000
132.088700 412.000000
133.063500 4088.000000
133.100200 1204.000000
135.043800 676.000000
135.079500 11336.000000
136.082900 1008.000000
137.059100 4196.000000
137.074200 604.000000
138.061700 480.000000
139.037800 400.000000
139.054400 3020.000000
139.074200 2164.000000
141.053000 1848.000000
141.069900 656.000000
141.089300 400.000000
142.075400 512.000000
143.084200 2720.000000
144.055600 384.000000
145.063300 11352.000000
145.100300 1684.000000
146.067300 1884.000000
147.079400 28540.000000
148.082400 3836.000000
149.058300 2748.000000
149.094900 2612.000000
151.073900 3332.000000
152.077500 472.000000
153.053200 508.000000
153.068500 692.000000
153.090000 680.000000
155.068700 9156.000000
155.082600 1868.000000
156.073200 776.000000
157.064000 956.000000
157.101400 1664.000000
158.070700 1028.000000
159.079000 19864.000000
160.082400 2600.000000
161.058200 2236.000000
161.095200 7144.000000
162.098600 940.000000
163.074000 11272.000000
163.110600 676.000000
164.076600 1716.000000
165.069800 8216.000000
165.088800 1756.000000
166.074000 780.000000
167.070000 1012.000000
167.084300 2208.000000
167.104900 388.000000
168.089600 588.000000
169.064400 1808.000000
169.100700 944.000000
170.072700 592.000000
171.079300 61700.000000
172.082700 7540.000000
173.057600 924.000000
173.094600 12612.000000
174.097600 1744.000000
175.074800 2528.000000
175.110400 1596.000000
176.078500 404.000000
177.089300 2448.000000
178.078900 516.000000
179.068900 1856.000000
179.084200 2080.000000
180.092400 944.000000
181.063100 704.000000
181.084900 2728.000000
181.099500 1396.000000
182.070600 892.000000
182.105400 400.000000
183.079900 5272.000000
183.116200 496.000000
184.084200 1028.000000
185.058800 1460.000000
185.095100 12168.000000
186.099000 2312.000000
187.074300 4324.000000
187.110900 1944.000000
189.070500 1596.000000
189.089900 1724.000000
190.076200 652.000000
191.085300 5648.000000
191.106300 884.000000
192.089500 1832.000000
193.085200 3128.000000
193.096800 1948.000000
194.071600 600.000000
194.088700 512.000000
194.106300 636.000000
195.079300 4780.000000
195.115900 3988.000000
196.086900 3484.000000
196.119900 516.000000
197.095100 38424.000000
198.098500 6124.000000
199.073500 1564.000000
199.109700 5224.000000
200.079000 476.000000
200.113400 864.000000
201.091200 2280.000000
203.068400 676.000000
203.084400 1140.000000
203.104800 1140.000000
204.093800 472.000000
205.065100 480.000000
205.099400 3460.000000
206.105500 1280.000000
207.079600 1260.000000
207.115700 4248.000000
208.087400 4860.000000
208.120400 816.000000
209.094800 19976.000000
209.133100 1156.000000
210.101100 6044.000000
211.074400 1152.000000
211.110700 20376.000000
212.114900 3576.000000
213.089800 5904.000000
213.126800 26732.000000
214.096200 696.000000
214.129400 4728.000000
215.088900 580.000000
215.105500 672.000000
215.142100 2880.000000
216.093200 716.000000
217.100300 1944.000000
218.108400 644.000000
219.080700 1292.000000
219.116100 2104.000000
220.086400 1044.000000
220.122400 520.000000
221.095000 11644.000000
221.132100 1776.000000
222.101500 6136.000000
222.134500 404.000000
223.110900 74616.000000
224.117400 30956.000000
225.090500 3984.000000
225.126500 63976.000000
226.095600 704.000000
226.129500 12780.000000
227.068700 564.000000
227.089000 528.000000
227.105400 1772.000000
227.141400 3700.000000
228.092800 448.000000
228.145900 924.000000
229.099000 1692.000000
229.121300 396.000000
230.110100 912.000000
231.079800 1396.000000
231.102900 836.000000
231.116300 2456.000000
232.087700 1556.000000
232.121800 1040.000000
233.095600 4364.000000
233.132000 3416.000000
234.102700 4860.000000
234.134300 868.000000
235.111000 31064.000000
235.149100 2952.000000
236.078900 428.000000
236.115200 8168.000000
236.148900 484.000000
237.089700 5764.000000
237.126400 30704.000000
238.095600 1992.000000
238.130100 7236.000000
239.106600 3164.000000
239.142200 17284.000000
240.111300 692.000000
240.145600 3312.000000
241.090500 880.000000
241.121900 2496.000000
241.156700 1224.000000
242.108300 872.000000
243.115800 3092.000000
244.124600 4864.000000
245.095200 3712.000000
245.132200 5996.000000
246.103000 8928.000000
246.136800 1308.000000
247.110500 11960.000000
247.146500 2852.000000
248.082000 1000.000000
248.117900 8428.000000
248.154000 1460.000000
249.126100 28492.000000
250.098000 1128.000000
250.130900 9588.000000
251.105700 7572.000000
251.142200 15500.000000
252.109400 1848.000000
252.145900 3980.000000
253.082200 420.000000
253.092600 488.000000
253.121300 3716.000000
253.157300 4976.000000
254.127000 804.000000
254.162900 1088.000000
255.077300 388.000000
255.116700 1912.000000
255.134600 1488.000000
256.123700 472.000000
257.131800 5208.000000
258.103400 1912.000000
258.135700 1692.000000
259.111500 6552.000000
259.146000 464.000000
260.118600 12868.000000
261.091700 2104.000000
261.126700 37700.000000
262.099600 1600.000000
262.133200 17696.000000
263.106300 3840.000000
263.142700 63764.000000
264.111900 2020.000000
264.146500 14124.000000
265.086100 876.000000
265.121400 8732.000000
265.158200 16124.000000
266.125900 1888.000000
266.161800 4044.000000
267.105000 784.000000
267.119100 1508.000000
267.138100 4380.000000
267.164300 540.000000
268.142500 824.000000
269.113500 692.000000
269.134100 1168.000000
269.151800 1428.000000
270.101900 1392.000000
270.131600 420.000000
271.108400 832.000000
271.147100 620.000000
272.118700 916.000000
273.126600 9828.000000
274.097500 612.000000
274.131300 2120.000000
275.106300 3036.000000
275.142700 45048.000000
276.114000 1508.000000
276.145500 11172.000000
277.121400 8176.000000
277.154600 2776.000000
278.128300 7364.000000
278.161900 692.000000
279.100900 2176.000000
279.137500 24760.000000
279.175100 2272.000000
280.107900 688.000000
280.142800 9668.000000
280.176600 500.000000
281.152200 21220.000000
282.155200 4240.000000
283.148200 13368.000000
284.152800 2228.000000
284.172200 392.000000
285.127100 8844.000000
286.131300 2444.000000
287.139500 644.000000
288.113900 4924.000000
289.120300 1496.000000
290.128000 1044.000000
291.137300 11728.000000
292.107700 388.000000
292.142400 3204.000000
293.116500 1796.000000
293.153600 24236.000000
294.120800 480.000000
294.156800 5380.000000
295.133700 2704.000000
296.136400 772.000000
297.112600 808.000000
297.147000 1892.000000
298.149500 384.000000
299.145100 880.000000
299.159100 512.000000
300.150200 548.000000
301.121500 408.000000
301.159300 5572.000000
302.162700 1816.000000
303.137700 28924.000000
304.140300 6932.000000
305.141300 1308.000000
306.124700 1220.000000
307.127000 496.000000
308.116500 396.000000
309.148500 4116.000000
310.152600 1448.000000
311.127700 408.000000
311.163400 7788.000000
312.166700 2160.000000
313.158500 2180.000000
314.163700 616.000000
319.129500 440.000000
321.148200 39944.000000
322.151700 9144.000000
323.150800 2064.000000
324.147700 500.000000
327.157100 540.000000
329.172200 516.000000
331.170100 1524.000000
332.173100 560.000000
339.158000 21272.000000
340.161200 6132.000000
341.157200 3200.000000
342.160000 896.000000
357.172300 492.000000
359.166700 812.000000
379.191400 532.000000
397.200600 2260.000000
398.205300 544.000000
417.207100 2856.000000
418.210800 1160.000000

>ms2peaks
115.038900 1112.000000
115.053700 2356.000000
116.059200 412.000000
117.069200 2504.000000
119.084200 3344.000000
121.063800 36660.000000
122.067500 3516.000000
123.043000 580.000000
123.080200 1988.000000
125.058400 636.000000
127.038100 524.000000
127.051300 504.000000
128.061300 3508.000000
129.068700 3084.000000
130.075200 592.000000
131.047700 1060.000000
131.084300 5892.000000
132.056500 1816.000000
132.088000 792.000000
133.063900 5296.000000
133.100300 1184.000000
134.067900 576.000000
135.044000 776.000000
135.079200 11076.000000
136.083100 1040.000000
137.058200 3688.000000
137.074400 1208.000000
137.093900 420.000000
139.054100 4948.000000
139.073700 1880.000000
141.053300 1312.000000
141.068400 1896.000000
142.075600 1684.000000
143.084300 6596.000000
144.056700 1076.000000
144.089000 768.000000
145.063600 17332.000000
145.100100 2252.000000
146.067400 2684.000000
147.078900 32928.000000
148.082800 3616.000000
149.059600 1564.000000
149.075400 424.000000
149.093900 2244.000000
151.073900 2736.000000
152.059900 924.000000
153.054300 576.000000
153.068500 1872.000000
154.074000 988.000000
155.069400 2672.000000
155.084000 3740.000000
156.089500 796.000000
157.063400 2792.000000
157.099500 2940.000000
158.070800 3616.000000
158.101400 416.000000
159.078700 22108.000000
160.082700 2916.000000
161.058900 2964.000000
161.094800 7856.000000
162.063700 512.000000
162.098400 688.000000
163.052800 492.000000
163.073700 6296.000000
163.110400 676.000000
164.077500 1132.000000
165.069000 13228.000000
165.088600 880.000000
166.074700 1676.000000
167.083500 4872.000000
168.056300 400.000000
168.091800 828.000000
169.063300 2984.000000
169.099700 2152.000000
170.070200 1740.000000
171.079000 75952.000000
172.082700 11448.000000
173.058400 736.000000
173.094500 11592.000000
174.097500 1744.000000
175.073600 2704.000000
175.110100 1600.000000
176.064000 388.000000
177.069800 808.000000
177.089500 1744.000000
178.076500 1036.000000
179.083800 6884.000000
180.091500 2444.000000
181.063000 2984.000000
181.100000 4100.000000
182.070800 3420.000000
182.104000 972.000000
183.078700 8668.000000
183.116300 1348.000000
184.083900 2476.000000
185.057300 1300.000000
185.094700 14412.000000
186.098000 2788.000000
187.073400 2796.000000
187.111600 1608.000000
189.069100 3820.000000
189.088700 940.000000
190.076600 3560.000000
191.084800 9532.000000
191.104300 904.000000
192.090500 5408.000000
193.084400 3172.000000
193.099800 5480.000000
194.071900 2580.000000
194.106200 2124.000000
195.078800 12116.000000
195.114900 8484.000000
196.086200 7896.000000
196.119600 1728.000000
197.094500 37408.000000
197.129800 2516.000000
198.065100 520.000000
198.099300 6880.000000
198.135100 632.000000
199.074100 1424.000000
199.109500 5532.000000
200.079900 384.000000
200.114600 748.000000
201.089900 1980.000000
201.123800 388.000000
202.076900 824.000000
202.088100 576.000000
203.083900 2668.000000
203.104800 616.000000
204.091900 1576.000000
205.099900 10576.000000
206.073200 560.000000
206.105700 2568.000000
207.079600 2360.000000
207.115300 8964.000000
208.086800 19148.000000
208.118900 1556.000000
209.094300 33356.000000
209.130700 1744.000000
210.101300 15436.000000
211.074100 1412.000000
211.110000 18636.000000
212.081900 716.000000
212.115500 3728.000000
213.088700 3924.000000
213.126400 20592.000000
214.093200 720.000000
214.130300 3112.000000
215.084600 1952.000000
215.141300 1012.000000
216.091400 2064.000000
217.100400 4500.000000
218.071100 1216.000000
218.106900 3104.000000
219.079800 2744.000000
219.115200 4176.000000
220.087700 5120.000000
220.121700 2168.000000
221.094600 19564.000000
221.131000 3632.000000
222.101300 14076.000000
222.136500 1036.000000
223.110500 50684.000000
224.116900 27140.000000
225.090000 2712.000000
225.125700 42416.000000
226.093900 1548.000000
226.129600 7676.000000
227.085100 968.000000
227.102800 1176.000000
227.141200 2616.000000
228.092500 1760.000000
228.110400 460.000000
228.145000 480.000000
229.100300 4236.000000
230.107400 3012.000000
231.079300 5884.000000
231.115800 4128.000000
232.086700 3988.000000
232.122500 3228.000000
233.094000 8688.000000
233.131400 4532.000000
234.102100 14884.000000
234.135600 944.000000
235.110600 33792.000000
235.146300 4720.000000
236.079100 708.000000
236.115300 8944.000000
236.151200 996.000000
237.089500 6448.000000
237.126000 26540.000000
238.096100 2192.000000
238.129200 5188.000000
239.104800 2196.000000
239.141400 8724.000000
240.092400 684.000000
240.108500 892.000000
240.144900 1764.000000
241.083000 440.000000
241.101000 1680.000000
241.120000 1244.000000
241.157800 508.000000
242.107800 3428.000000
243.116000 5020.000000
244.087300 904.000000
244.123600 4680.000000
245.094500 10676.000000
245.131700 6444.000000
246.102700 16932.000000
246.136200 1848.000000
247.109800 17012.000000
247.147300 3944.000000
248.117400 18640.000000
248.149400 1064.000000
249.088700 1592.000000
249.125400 19996.000000
250.097500 1884.000000
250.131400 8080.000000
251.105500 4788.000000
251.141400 11500.000000
252.112200 2460.000000
252.147100 3140.000000
253.119700 2604.000000
253.156400 3292.000000
254.122600 620.000000
254.158300 864.000000
255.078600 700.000000
255.115600 2132.000000
255.135400 848.000000
256.082900 588.000000
256.125400 388.000000
256.134700 476.000000
257.098800 520.000000
257.132300 5204.000000
258.102900 4872.000000
258.135200 1112.000000
259.109600 7844.000000
260.118200 19572.000000
261.089700 3296.000000
261.125800 20856.000000
262.097000 2876.000000
262.132400 16380.000000
263.105900 3724.000000
263.141600 40884.000000
264.112800 3076.000000
264.145300 8840.000000
265.083700 588.000000
265.121100 6180.000000
265.157200 7488.000000
266.125300 1288.000000
266.161500 1604.000000
267.115300 1140.000000
267.136300 2052.000000
268.122500 624.000000
268.140000 700.000000
269.126600 884.000000
269.152600 380.000000
270.103100 3404.000000
271.108400 1752.000000
272.117100 956.000000
273.091000 968.000000
273.126600 5064.000000
274.096900 1328.000000
274.131300 2660.000000
275.105300 3212.000000
275.141900 21488.000000
276.112700 2304.000000
276.145900 4240.000000
277.120200 4120.000000
277.154300 1180.000000
278.128700 5736.000000
279.101200 1012.000000
279.136500 8040.000000
279.172900 1560.000000
280.110400 452.000000
280.143800 5864.000000
281.151100 7592.000000
282.153800 1232.000000
283.148800 6532.000000
284.151000 1672.000000
285.126000 5520.000000
286.129200 1684.000000
287.104900 572.000000
288.113300 5932.000000
289.117600 1652.000000
290.128900 1108.000000
291.100900 424.000000
291.136500 4800.000000
292.108700 464.000000
292.142200 1796.000000
293.115200 976.000000
293.153000 5592.000000
294.122100 412.000000
294.156900 1496.000000
295.134400 1060.000000
296.143900 572.000000
297.113100 504.000000
297.145400 404.000000
299.144200 512.000000
301.160400 1084.000000
302.160600 388.000000
303.135700 6976.000000
303.179400 432.000000
304.138900 1688.000000
306.123800 920.000000
309.150900 824.000000
311.138800 396.000000
311.162200 1800.000000
312.167000 404.000000
313.157000 540.000000
321.148400 5548.000000
321.182300 412.000000
322.150300 1304.000000
323.145000 768.000000
339.159400 1772.000000
340.161700 488.000000
341.154400 612.000000

>ms2peaks
115.038000 704.000000
115.053300 4632.000000
116.059800 1096.000000
117.069000 4012.000000
118.073100 636.000000
119.047400 384.000000
119.084900 3832.000000
120.088300 536.000000
121.063900 38716.000000
122.067500 3316.000000
123.044200 696.000000
123.079600 1540.000000
125.059400 532.000000
127.052900 1140.000000
128.061000 9172.000000
129.068500 5844.000000
130.075200 1304.000000
131.048700 1640.000000
131.084300 6388.000000
132.055600 2760.000000
132.088300 820.000000
133.063200 4784.000000
133.100000 1400.000000
134.067800 556.000000
135.043200 1164.000000
135.079400 7688.000000
137.058200 2468.000000
137.075400 1636.000000
137.095000 528.000000
139.054200 6180.000000
139.073900 1068.000000
140.057000 424.000000
141.052900 692.000000
141.068900 6168.000000
142.076300 3208.000000
143.084300 7872.000000
144.055500 3068.000000
144.087700 1372.000000
145.063400 23776.000000
145.100200 3632.000000
146.068700 3944.000000
146.103200 584.000000
147.079000 29016.000000
148.083000 3124.000000
149.058200 884.000000
149.074700 832.000000
149.095000 1276.000000
151.074600 1292.000000
152.060900 2292.000000
153.068600 4104.000000
154.075700 1492.000000
155.083900 6008.000000
156.056500 576.000000
156.089300 1200.000000
157.063900 3740.000000
157.099800 3096.000000
158.071300 7340.000000
158.103400 440.000000
159.078800 20980.000000
160.083500 2496.000000
161.058400 2284.000000
161.074200 512.000000
161.094300 5940.000000
162.063900 456.000000
162.098500 784.000000
163.052900 600.000000
163.073300 2616.000000
163.110400 440.000000
165.069000 18036.000000
166.075100 5100.000000
167.084300 7816.000000
168.055600 1296.000000
168.089900 2448.000000
169.063000 5396.000000
169.100300 3736.000000
170.070400 4428.000000
170.104400 828.000000
171.079400 72644.000000
172.083300 11004.000000
173.060600 612.000000
173.094800 9596.000000
174.099400 1360.000000
175.075000 1288.000000
175.094300 384.000000
175.110300 1236.000000
176.060400 1084.000000
177.068800 1156.000000
177.089500 840.000000
178.075800 4900.000000
179.084100 13412.000000
180.091400 7504.000000
181.063600 7268.000000
181.099800 8736.000000
182.071300 6992.000000
182.104800 1800.000000
183.078800 9080.000000
183.114800 2196.000000
184.086000 3152.000000
185.058700 844.000000
185.095100 12708.000000
186.098900 1800.000000
187.074500 1844.000000
187.108300 912.000000
189.069600 4824.000000
189.088800 792.000000
190.076200 8388.000000
191.084700 13476.000000
192.091500 10340.000000
193.099800 10464.000000
194.072000 6024.000000
194.106100 3272.000000
195.079600 18588.000000
195.116000 9404.000000
196.086900 16024.000000
196.120200 1740.000000
197.094700 25580.000000
197.130100 2508.000000
198.065700 428.000000
198.100200 6676.000000
198.136400 452.000000
199.073900 1108.000000
199.110100 4560.000000
200.114400 984.000000
201.089200 1236.000000
202.077300 2624.000000
203.084100 5520.000000
204.091300 4424.000000
205.065400 1196.000000
205.099900 15640.000000
206.071600 1936.000000
206.106600 4852.000000
207.079900 4540.000000
207.115400 9724.000000
208.087100 33732.000000
208.120600 2460.000000
209.094400 47728.000000
210.101300 22708.000000
211.073900 1508.000000
211.109700 14016.000000
212.080200 436.000000
212.115100 2428.000000
213.089400 1476.000000
213.126300 8532.000000
214.076500 440.000000
214.130300 1152.000000
215.084900 4628.000000
216.091700 4280.000000
217.100000 6824.000000
218.071200 1960.000000
218.107900 3748.000000
219.079600 5968.000000
219.115800 6200.000000
220.087200 8156.000000
220.122200 2996.000000
221.095000 23848.000000
221.130200 2712.000000
222.102000 20600.000000
223.110700 28852.000000
224.081000 1252.000000
224.117300 14864.000000
225.089700 2384.000000
225.125600 15800.000000
226.077300 748.000000
226.095000 1008.000000
226.129500 3464.000000
227.084200 2356.000000
227.143400 960.000000
228.091700 2832.000000
229.100700 6540.000000
230.108000 5664.000000
231.079800 8888.000000
231.115800 4424.000000
232.086300 8780.000000
232.122900 3244.000000
233.095100 14660.000000
233.131200 3380.000000
234.102700 18436.000000
234.136600 1108.000000
235.110500 28768.000000
235.147500 2756.000000
236.080200 1216.000000
236.116300 9564.000000
236.150100 608.000000
237.089900 5540.000000
237.126100 12896.000000
238.095800 2264.000000
238.131300 3832.000000
239.105600 1648.000000
239.142600 3228.000000
240.092600 984.000000
240.144600 412.000000
241.100900 2752.000000
242.108000 4132.000000
243.085300 552.000000
243.115100 5156.000000
244.087600 1676.000000
244.123700 3040.000000
245.095000 19748.000000
245.131700 4232.000000
246.102400 18884.000000
246.135600 1320.000000
247.073400 1644.000000
247.110300 17996.000000
247.147700 1444.000000
248.080400 1540.000000
248.118000 21520.000000
249.090500 1952.000000
249.125300 10788.000000
250.097300 2192.000000
250.133100 3632.000000
251.105300 3380.000000
251.141600 4112.000000
252.112800 1624.000000
252.148300 1224.000000
253.098500 952.000000
253.122600 848.000000
253.156000 1104.000000
254.107400 820.000000
254.126300 508.000000
255.080900 1368.000000
255.117700 1464.000000
256.085200 500.000000
256.125800 456.000000
257.093000 836.000000
257.105700 576.000000
257.131000 2596.000000
258.102000 5144.000000
258.136600 656.000000
259.111000 8996.000000
260.118500 16440.000000
261.090900 2812.000000
261.125400 11676.000000
262.097300 2808.000000
262.133300 8488.000000
263.105200 4264.000000
263.142100 12436.000000
264.113200 3128.000000
264.146000 2840.000000
265.080900 404.000000
265.122000 2640.000000
265.157700 1836.000000
266.095600 408.000000
266.161200 440.000000
267.117300 728.000000
267.136800 680.000000
268.123500 596.000000
269.095100 1256.000000
269.131100 548.000000
270.103000 3028.000000
271.109300 1568.000000
272.115000 704.000000
273.091000 1812.000000
273.126900 2228.000000
274.095900 1404.000000
274.131200 1152.000000
275.105700 2096.000000
275.142300 6688.000000
276.112800 1948.000000
276.145800 1324.000000
277.120500 1812.000000
278.126600 2416.000000
279.102100 496.000000
279.137600 2300.000000
280.113900 408.000000
280.144800 1644.000000
281.151900 1520.000000
282.140400 624.000000
282.154200 452.000000
283.149000 1892.000000
285.126800 1996.000000
286.130200 828.000000
287.107200 864.000000
288.114100 3336.000000
289.118600 668.000000
290.128800 664.000000
291.133700 852.000000
292.141400 428.000000
293.153400 1004.000000
303.135100 1292.000000
307.132400 424.000000
321.144400 476.000000

>ms2peaks
45.033100 316.000000
55.017400 1876.000000
55.053800 872.000000
57.033100 564.000000
59.048400 5976.000000
60.053100 328.000000
67.053700 832.000000
69.032700 2996.000000
69.068700 680.000000
71.011700 316.000000
71.048600 1032.000000
73.028100 364.000000
79.053800 1244.000000
81.032800 948.000000
81.069300 3488.000000
83.049100 1972.000000
85.027800 416.000000
85.065000 416.000000
87.044300 1888.000000
91.054200 1064.000000
93.070100 2588.000000
95.049800 1148.000000
95.085400 1160.000000
97.028700 1932.000000
97.065600 1104.000000
99.044000 1472.000000
101.023800 2340.000000
105.070700 2108.000000
107.049500 328.000000
107.086700 1104.000000
109.066300 1556.000000
111.044600 1092.000000
113.059700 604.000000
115.039400 5680.000000
116.046300 412.000000
117.069000 1408.000000
119.084300 1932.000000
121.064300 24944.000000
122.067300 2460.000000
123.044100 716.000000
123.080500 1492.000000
125.059100 696.000000
127.038000 384.000000
127.074500 444.000000
128.062300 796.000000
129.069200 988.000000
131.049100 328.000000
131.084500 2180.000000
132.056400 364.000000
133.064300 2600.000000
133.099600 812.000000
134.067500 416.000000
135.043000 872.000000
135.079400 7928.000000
136.082600 872.000000
137.058800 2588.000000
137.094000 436.000000
139.054400 1852.000000
139.074600 1852.000000
141.053400 1308.000000
141.067600 604.000000
143.083900 1956.000000
144.055400 532.000000
145.063800 8604.000000
145.099300 1064.000000
146.067600 1232.000000
147.079300 21836.000000
148.083900 2076.000000
149.058000 1636.000000
149.094800 1364.000000
151.074100 2028.000000
153.052400 388.000000
153.069100 628.000000
153.087900 564.000000
155.069300 7488.000000
156.071900 736.000000
157.063600 988.000000
157.099900 1404.000000
158.072200 864.000000
159.078800 15544.000000
160.082600 1340.000000
161.057500 1624.000000
161.094700 5196.000000
162.097200 756.000000
163.074500 6548.000000
163.108600 412.000000
164.077400 980.000000
165.069700 6880.000000
165.089500 608.000000
166.072600 744.000000
167.083900 2020.000000
167.104600 408.000000
168.089800 516.000000
169.063200 1492.000000
169.099600 764.000000
170.070300 772.000000
171.079300 46648.000000
172.082700 6068.000000
173.057800 620.000000
173.095000 8008.000000
174.099000 1196.000000
175.074700 1692.000000
175.109800 1008.000000
177.068200 432.000000
177.090400 1336.000000
178.076000 324.000000
179.068300 920.000000
179.084400 1588.000000
180.075300 332.000000
180.092500 528.000000
181.063300 664.000000
181.085100 2348.000000
181.097900 1788.000000
182.070400 800.000000
182.089000 444.000000
183.078800 3340.000000
183.117800 360.000000
184.084200 1140.000000
185.057700 688.000000
185.094700 10588.000000
186.097900 1404.000000
187.074500 2472.000000
187.110100 1128.000000
189.070300 1484.000000
189.090700 1200.000000
190.074100 620.000000
191.084700 4064.000000
191.105600 708.000000
192.090800 2080.000000
193.084900 2196.000000
193.099400 2288.000000
194.070600 436.000000
194.087500 368.000000
194.103900 504.000000
195.079400 3328.000000
195.100200 620.000000
195.115600 3296.000000
196.087500 2692.000000
196.116500 728.000000
197.095100 29444.000000
198.099100 4812.000000
199.074000 1208.000000
199.110100 3888.000000
200.113300 828.000000
201.089800 1236.000000
201.127600 500.000000
203.086000 680.000000
203.107000 656.000000
204.109500 320.000000
205.099900 3724.000000
206.105500 1604.000000
207.082500 976.000000
207.115300 3156.000000
208.087200 4796.000000
208.120100 644.000000
209.095000 18144.000000
210.101100 5340.000000
211.074700 780.000000
211.110700 15592.000000
212.078200 336.000000
212.115200 2664.000000
213.090000 5036.000000
213.126400 19336.000000
214.095700 500.000000
214.130800 2444.000000
215.084100 548.000000
215.104400 420.000000
215.141500 1760.000000
216.091400 500.000000
217.083800 484.000000
217.100100 2096.000000
218.071800 372.000000
218.108400 900.000000
219.080400 852.000000
219.115000 1632.000000
220.087100 1352.000000
220.122500 404.000000
221.095000 9516.000000
221.131100 1024.000000
222.102000 5220.000000
223.110800 62652.000000
224.117300 21800.000000
225.126600 55792.000000
226.095400 820.000000
226.129700 9188.000000
227.070900 376.000000
227.106400 1060.000000
227.140300 2504.000000
228.090700 336.000000
228.105600 324.000000
228.147600 552.000000
229.099800 1056.000000
229.154400 352.000000
230.110600 644.000000
231.079400 1124.000000
231.115400 1916.000000
232.088100 1440.000000
232.122400 896.000000
233.094500 3444.000000
233.132400 1916.000000
234.102300 4836.000000
234.134000 576.000000
235.110800 25500.000000
235.147200 2032.000000
236.081200 404.000000
236.115200 5148.000000
236.152600 452.000000
237.089300 3496.000000
237.127100 22864.000000
238.095900 1412.000000
238.129800 3812.000000
239.106100 2380.000000
239.142700 12688.000000
240.110300 552.000000
240.145300 3032.000000
241.085300 512.000000
241.102100 768.000000
241.120500 1572.000000
241.157000 860.000000
242.109700 836.000000
243.116400 2616.000000
244.085800 604.000000
244.123900 3112.000000
245.095800 4384.000000
245.131800 3764.000000
246.103500 6532.000000
246.136000 940.000000
247.111200 8940.000000
247.147200 2192.000000
248.118500 9132.000000
249.089900 1304.000000
249.126200 19624.000000
250.097900 896.000000
250.132100 5140.000000
251.105900 3748.000000
251.142600 12304.000000
252.109200 1604.000000
252.147000 3128.000000
253.120900 2948.000000
253.156500 3336.000000
254.127000 944.000000
254.162900 712.000000
255.115800 1392.000000
255.134800 588.000000
255.170300 344.000000
256.123700 588.000000
256.135200 396.000000
257.131900 2544.000000
258.105300 1420.000000
258.137500 900.000000
259.111200 6380.000000
259.149200 660.000000
260.118700 12648.000000
261.090200 1544.000000
261.126600 27052.000000
262.095100 1992.000000
262.132800 14280.000000
263.142500 48752.000000
264.112400 1736.000000
264.146300 9680.000000
265.121400 6116.000000
265.158600 11068.000000
266.088000 348.000000
266.124400 1672.000000
266.162100 2372.000000
267.115300 364.000000
267.136800 3380.000000
268.143800 628.000000
269.116300 820.000000
269.136600 720.000000
269.153600 588.000000
270.104200 2080.000000
271.108100 508.000000
271.137100 348.000000
271.149000 620.000000
272.119100 484.000000
273.126200 6064.000000
274.101100 464.000000
274.133300 1816.000000
275.142700 35804.000000
276.112700 1844.000000
276.146600 6976.000000
277.122300 5348.000000
277.155600 2252.000000
278.128300 6028.000000
278.164000 548.000000
279.101500 1036.000000
279.137100 19952.000000
279.174200 1164.000000
280.105000 632.000000
280.143300 6552.000000
281.152800 13868.000000
282.155100 3160.000000
283.148400 8424.000000
284.151000 2140.000000
284.172400 360.000000
285.127200 6200.000000
286.131600 1456.000000
288.113200 3824.000000
289.117300 1160.000000
290.128000 744.000000
291.137800 7860.000000
292.144200 1776.000000
293.118000 1716.000000
293.153100 22008.000000
294.123600 508.000000
294.156800 4220.000000
295.130800 2072.000000
295.149900 1672.000000
296.135900 1036.000000
297.110900 740.000000
297.146500 1180.000000
298.149300 464.000000
299.143500 532.000000
299.167900 624.000000
300.152600 456.000000
301.127000 344.000000
301.160500 4400.000000
302.164500 984.000000
303.137700 22852.000000
304.141300 5068.000000
305.145800 628.000000
306.124100 828.000000
307.134600 392.000000
309.147400 3512.000000
310.152600 744.000000
311.164200 8088.000000
312.168000 1580.000000
313.160100 1432.000000
314.164400 420.000000
319.133800 464.000000
319.169800 404.000000
321.148700 43448.000000
322.152000 10452.000000
323.148600 1956.000000
324.147100 628.000000
324.164100 368.000000
325.152400 452.000000
327.159700 488.000000
329.175200 332.000000
331.169700 2156.000000
339.159300 30700.000000
340.162700 6880.000000
341.156500 3908.000000
342.157000 1172.000000
343.164900 392.000000
357.170700 640.000000
357.205500 400.000000
359.164200 1128.000000
360.164900 524.000000
360.177500 344.000000
361.175900 464.000000
379.190600 472.000000
397.201200 4768.000000
398.204200 1820.000000
399.198100 320.000000
415.210400 548.000000
417.206800 5856.000000
418.209000 1716.000000
435.215800 1356.000000

