>compound AU27328029
>parentmass 394.1791
>ionization [M+NH4]+
>formula C21H25ClO4
>rt 667.104000
>profile qtof
#smiles_iso CC(C)(C1=CC=C(C=C1)OCC2CO2)C3=CC=C(C=C3)OCC(CCl)O
#smiles_can CC(C)(C1=CC=C(C=C1)OCC2CO2)C3=CC=C(C=C3)OCC(CCl)O
#inchikey HLLOKZYCSSQYEB-UHFFFAOYSA-N
#pubchem_id 4169196
#mb_accession AU581149,AU581150,AU581151,AU581152,AU581153

>ms2
161.094600 4460.000000
173.094500 1732.000000
191.105400 20416.000000
192.109400 2228.000000
227.082800 71632.000000
228.085800 8172.000000
229.080000 18652.000000
347.139900 2320.000000
349.138800 1456.000000
394.178800 254100.000000

>ms2
135.079100 9320.000000
136.083000 636.000000
149.023300 592.000000
150.024800 436.000000
161.095100 24796.000000
162.098600 2428.000000
173.095300 1552.000000
191.105800 50664.000000
192.109800 5588.000000
193.113500 496.000000
227.082900 81336.000000
228.086000 9628.000000
229.080200 20852.000000
230.082900 2296.000000
347.142900 1608.000000
349.142300 476.000000
359.137800 528.000000
394.178200 2212.000000

>ms2
133.063200 612.000000
135.079300 30260.000000
147.078200 348.000000
149.021600 752.000000
161.094500 17116.000000
162.098600 2976.000000
173.094900 804.000000
191.105900 40432.000000
192.109200 5412.000000
193.108800 404.000000
197.201500 300.000000
213.028300 616.000000
227.082500 35628.000000
228.084900 4832.000000
229.079800 10316.000000
230.081200 976.000000

>ms2
115.053700 460.000000
117.070400 324.000000
119.049100 332.000000
128.061900 356.000000
133.064100 1304.000000
133.100900 304.000000
135.079600 44456.000000
136.082700 4656.000000
147.078700 456.000000
149.023500 596.000000
161.095000 11080.000000
162.098600 1176.000000
173.095600 332.000000
191.105700 17620.000000
192.108900 2404.000000
227.082800 9312.000000
228.086600 1448.000000
229.080800 2456.000000
288.092300 344.000000
320.081100 360.000000

>ms2
115.053200 588.000000
117.069500 368.000000
133.064100 1740.000000
133.100700 404.000000
135.079400 35068.000000
136.083100 4304.000000
146.071700 468.000000
147.078000 380.000000
149.023300 380.000000
161.094700 5236.000000
191.106000 4784.000000
192.109500 1000.000000
196.088500 336.000000
227.082500 1456.000000
229.079900 684.000000
288.095400 348.000000

