>compound AU28367889
>parentmass 311.1543
>ionization [M+H]+
>formula C22H18N2
>rt 634.980000
>profile qtof
#smiles_iso C1=CC=C(C=C1)C2=CC=C(C=C2)C(C3=CC=CC=C3)N4C=CN=C4
#smiles_can C1=CC=C(C=C1)C2=CC=C(C=C2)C(C3=CC=CC=C3)N4C=CN=C4
#inchikey OCAPBUJLXMYKEJ-UHFFFAOYSA-N
#pubchem_id 2378
#mb_accession AU251001,AU251002,AU251003,AU251004,AU251005,AU251006

>ms2
243.117200 2497356.000000
244.119800 995968.000000
245.123200 59548.000000
311.154000 71196.000000
312.157100 18072.000000

>ms2
165.068300 31664.000000
228.092400 28616.000000
243.117100 2500492.000000
244.119700 994832.000000
245.122900 63544.000000

>ms2
115.053700 51952.000000
141.068800 24008.000000
165.068900 312664.000000
166.072700 42656.000000
202.076800 26832.000000
215.084700 100484.000000
216.088200 18116.000000
227.084700 14664.000000
228.093000 329592.000000
229.096100 52408.000000
241.100900 114076.000000
242.106800 50220.000000
243.117300 2502484.000000
244.120000 849544.000000
245.123100 54760.000000

>ms2
115.053700 142860.000000
116.056900 14348.000000
141.069000 112060.000000
142.072200 13240.000000
152.061000 8948.000000
164.060700 8792.000000
165.069000 934492.000000
166.073200 141904.000000
167.077300 8684.000000
178.076600 22516.000000
193.074900 12080.000000
202.076800 87744.000000
203.081700 19056.000000
215.085000 237516.000000
216.088800 44568.000000
226.077300 13844.000000
227.084600 73328.000000
228.092900 1096052.000000
229.096100 155172.000000
230.099300 12576.000000
239.084700 15656.000000
240.091900 14152.000000
241.100900 372348.000000
242.107300 184912.000000
243.116400 1354332.000000
244.119900 214980.000000
245.123200 15400.000000

>ms2
115.053800 150756.000000
116.056600 18392.000000
139.053000 11784.000000
141.068900 250664.000000
142.072100 23368.000000
152.060800 22060.000000
163.052600 13668.000000
164.060600 36040.000000
165.068800 1410548.000000
166.073500 215284.000000
167.078100 19004.000000
178.076600 26460.000000
202.076700 117636.000000
203.081700 29148.000000
204.090300 9152.000000
215.084800 226620.000000
216.089000 49300.000000
217.097000 7580.000000
226.076800 54896.000000
227.084500 161728.000000
228.092600 1089384.000000
229.095900 162516.000000
230.099000 11512.000000
239.084900 68572.000000
240.091700 54776.000000
241.100500 618584.000000
242.106700 254304.000000
243.114800 121712.000000
244.119200 21832.000000

>ms2
91.054200 115796.000000
92.057500 9060.000000
115.054500 77544.000000
116.057600 8124.000000
141.068700 14988.000000
165.069200 156916.000000
166.073000 21416.000000
202.076800 13632.000000
215.085000 49176.000000
216.089000 10280.000000
227.084800 8064.000000
228.093200 181548.000000
229.096500 29220.000000
241.101000 63396.000000
242.106700 29468.000000
243.117300 1253360.000000
244.120100 547660.000000
245.123900 35912.000000

