>compound AU28593327
>parentmass 264.1958
>ionization [M+H]+
>formula C16H25NO2
>rt 286.800000
>profile qtof
#smiles_iso CN(C)CC(C1=CC=C(C=C1)O)C2(CCCCC2)O
#smiles_can CN(C)CC(C1=CC=C(C=C1)O)C2(CCCCC2)O
#inchikey KYYIDSXMWOZKMP-UHFFFAOYSA-N
#pubchem_id 125017
#mb_accession AU202101,AU202102,AU202103,AU202104,AU202105

>ms2
133.064000 1852.000000
201.126800 9076.000000
246.185100 370564.000000
247.187900 52544.000000
248.190300 4288.000000
264.196000 1880400.000000
265.199200 237952.000000
266.201900 19868.000000

>ms2
121.063900 1848.000000
131.048000 1128.000000
133.063800 46624.000000
134.067300 4052.000000
145.063400 10828.000000
146.066800 1292.000000
147.079100 1000.000000
152.142700 1456.000000
159.079000 15492.000000
160.082700 2448.000000
163.098400 1484.000000
164.105600 3704.000000
173.094300 3080.000000
201.126600 80636.000000
202.129900 10080.000000
246.184800 194400.000000
247.187900 28784.000000
248.190300 2520.000000
264.195500 77600.000000
265.199200 11116.000000

>ms2
107.048700 480.000000
115.053900 1356.000000
117.069600 456.000000
119.048300 584.000000
121.064500 4252.000000
127.052200 628.000000
131.048100 3400.000000
131.084500 1800.000000
133.064000 74132.000000
134.067300 8084.000000
135.069800 560.000000
141.068100 1308.000000
144.055600 1784.000000
145.063700 20976.000000
146.066800 2512.000000
147.079500 2344.000000
149.082500 2872.000000
150.086700 616.000000
152.143100 1080.000000
155.058500 988.000000
155.084000 480.000000
157.063800 496.000000
159.079400 30856.000000
160.082700 4284.000000
163.098100 4372.000000
164.105700 5724.000000
165.108000 696.000000
169.074900 712.000000
173.095100 2148.000000
183.115500 1144.000000
201.126500 16804.000000
202.129900 2252.000000
246.184700 3600.000000
247.187900 644.000000
264.193900 472.000000

>ms2
107.048400 704.000000
115.054000 2952.000000
116.061500 700.000000
117.069200 836.000000
119.048700 512.000000
121.063900 3236.000000
127.053300 1024.000000
128.061900 332.000000
129.068700 1204.000000
131.048700 4040.000000
131.085000 3448.000000
132.053200 728.000000
132.086900 536.000000
133.064000 47752.000000
134.067100 4760.000000
135.074200 416.000000
141.068600 3792.000000
142.072400 460.000000
144.055700 6784.000000
145.063700 15536.000000
146.068200 1988.000000
147.078800 2432.000000
148.076700 468.000000
149.082300 4904.000000
150.086800 412.000000
152.142700 656.000000
155.059500 2252.000000
155.085300 936.000000
156.063900 308.000000
157.062700 996.000000
158.070100 692.000000
159.079500 17288.000000
160.083200 2184.000000
162.090900 364.000000
163.097900 3732.000000
164.105700 2344.000000
165.108000 460.000000
168.092300 324.000000
169.074800 1928.000000
170.078900 412.000000
172.086900 468.000000
173.095100 932.000000
183.115000 528.000000
201.125800 724.000000

>ms2
107.050200 360.000000
115.053900 5352.000000
116.060800 1344.000000
117.069400 936.000000
120.056100 508.000000
121.063800 2084.000000
127.053800 2700.000000
128.061400 736.000000
129.069100 1128.000000
131.048400 4068.000000
131.084400 1896.000000
132.055600 1612.000000
133.063900 17012.000000
134.067400 2148.000000
141.069200 3696.000000
142.072100 512.000000
144.056000 7656.000000
145.063500 7984.000000
146.067700 780.000000
147.079100 1056.000000
148.075900 636.000000
149.082200 3276.000000
150.087500 456.000000
153.069400 552.000000
155.059500 2620.000000
157.063000 1088.000000
158.071300 420.000000
159.079500 5148.000000
160.084300 804.000000
162.090800 424.000000
163.098200 624.000000
164.104800 488.000000
169.074200 1320.000000

