>compound AU28376917
>parentmass 301.07380000000006
>ionization [M+H]+
>formula C16H13ClN2O2
>rt 507.080000
>profile qtof
#smiles_iso CN1C2=C(C=C(C=C2)Cl)C(=NC(C1=O)O)C3=CC=CC=C3
#smiles_can CN1C2=C(C=C(C=C2)Cl)C(=NC(C1=O)O)C3=CC=CC=C3
#inchikey SEQDDYPDSLOBDC-UHFFFAOYSA-N
#pubchem_id 5391
#mb_accession AU155701,AU155702,AU155703,AU155704,AU155705,AU155706

>ms2peaks
255.067900 9280.000000
256.071300 1760.000000
257.065200 2280.000000
283.062800 31784.000000
284.066200 5236.000000
285.059900 8584.000000
286.064000 1128.000000
301.073800 209652.000000
302.076500 38180.000000
303.071400 53900.000000
304.073700 6276.000000

>ms2peaks
180.020800 6152.000000
193.088300 1624.000000
216.057200 3352.000000
228.057100 9612.000000
229.059700 1340.000000
230.054500 2600.000000
245.083900 2036.000000
255.068500 178348.000000
256.071300 28056.000000
257.065300 50100.000000
283.063200 60924.000000
284.066200 9892.000000
285.060200 16616.000000
286.064100 2292.000000
301.073800 29200.000000
302.076500 6052.000000
303.071400 8728.000000
304.073700 1392.000000

>ms2peaks
177.021000 2568.000000
180.020100 6736.000000
182.017100 1620.000000
193.087900 15968.000000
194.090600 2244.000000
216.056300 3544.000000
218.054300 1156.000000
228.057200 17656.000000
229.060200 2616.000000
230.054200 4392.000000
245.082800 1984.000000
255.067900 229280.000000
256.071000 34636.000000
257.065200 60180.000000
258.068000 5792.000000
283.062600 3060.000000
285.058900 1412.000000

>ms2peaks
117.056100 2364.000000
125.014100 5052.000000
127.012300 1668.000000
138.009100 1332.000000
150.009600 2540.000000
152.025000 2832.000000
154.022200 1284.000000
165.068400 1984.000000
166.075100 1024.000000
177.020200 20124.000000
178.023600 2184.000000
178.063900 872.000000
179.016800 5564.000000
180.020200 3776.000000
180.079300 1396.000000
181.086100 1952.000000
182.016900 1020.000000
192.079900 1588.000000
193.087500 39112.000000
194.091200 5088.000000
205.074900 3916.000000
214.041900 1312.000000
216.055900 1664.000000
219.090700 1696.000000
221.083100 1368.000000
227.048300 952.000000
228.056700 10152.000000
229.058700 1732.000000
230.053700 3072.000000
239.035800 6292.000000
240.040400 1312.000000
241.033600 2240.000000
243.067400 1744.000000
255.067900 160744.000000
256.071000 25124.000000
257.065000 46168.000000
258.068400 4492.000000
259.042300 968.000000

>ms2peaks
116.048900 516.000000
117.057200 3752.000000
122.998700 1376.000000
123.994900 348.000000
124.995800 560.000000
125.014400 8804.000000
126.019000 808.000000
127.013100 2716.000000
129.014000 428.000000
132.067400 596.000000
135.993600 1076.000000
138.009600 1296.000000
140.006700 432.000000
140.024900 496.000000
142.051200 3504.000000
150.009600 4204.000000
150.044100 416.000000
151.013900 724.000000
151.053900 1088.000000
152.006900 1540.000000
152.025400 4768.000000
152.061200 1764.000000
153.026400 444.000000
153.064600 364.000000
154.004200 952.000000
154.021600 1388.000000
163.003800 432.000000
164.000100 3848.000000
164.061300 596.000000
165.002100 572.000000
165.068600 7340.000000
165.996300 1744.000000
166.074800 2432.000000
167.072800 748.000000
168.020900 952.000000
169.063600 1628.000000
177.020500 41552.000000
178.023900 4204.000000
178.063600 2720.000000
178.999600 816.000000
179.017600 11236.000000
179.070200 2764.000000
180.020200 2220.000000
180.079200 5400.000000
181.086900 1920.000000
182.019700 632.000000
182.093600 380.000000
190.064700 416.000000
191.071700 1588.000000
192.079800 4516.000000
193.087600 36896.000000
194.090500 6392.000000
195.091400 804.000000
196.074300 408.000000
203.069200 348.000000
204.068400 576.000000
205.075400 13016.000000
206.060200 588.000000
206.078300 2004.000000
209.108500 636.000000
213.033200 552.000000
214.040700 2672.000000
215.045600 500.000000
216.038600 1024.000000
216.054900 604.000000
219.091100 3908.000000
220.096700 1368.000000
221.080300 968.000000
226.042200 368.000000
227.049000 1616.000000
228.055600 2704.000000
229.053100 1944.000000
230.053600 996.000000
231.049800 544.000000
239.036600 15616.000000
240.041300 2512.000000
241.033600 5324.000000
242.040000 624.000000
243.066500 2532.000000
244.070700 776.000000
245.064700 932.000000
253.053000 628.000000
254.062500 596.000000
255.068000 67684.000000
256.070600 10804.000000
257.047500 2684.000000
257.065000 18620.000000
258.051700 512.000000
258.069100 1956.000000
259.044600 980.000000
271.064100 596.000000

>ms2peaks
177.020000 4936.000000
180.020000 16504.000000
182.017200 4028.000000
193.088200 30908.000000
194.091400 3380.000000
216.057100 8864.000000
218.054200 2688.000000
228.057200 35580.000000
229.059700 5020.000000
230.054300 10468.000000
245.083700 4768.000000
255.068200 455960.000000
256.070900 88596.000000
257.065700 133024.000000
258.068500 12760.000000
283.063300 57380.000000
284.067100 10588.000000
285.060700 16988.000000
301.073800 24060.000000
302.077000 4840.000000
303.071200 8316.000000

