>compound AU28397916
>parentmass 646.1497
>ionization [M+H]+
>formula C25H27N9O8S2
>rt 258.024000
>profile qtof
#smiles_iso CCN1CCN(C(=O)C1=O)C(=O)N[C@@H](C2=CC=C(C=C2)O)C(=O)N[C@H]3[C@@H]4N(C3=O)C(=C(CS4)CSC5=NN=NN5C)C(=O)O
#smiles_can CCN1CCN(C(=O)C1=O)C(=O)NC(C2=CC=C(C=C2)O)C(=O)NC3C4N(C3=O)C(=C(CS4)CSC5=NN=NN5C)C(=O)O
#inchikey GCFBRXLSHGKWDP-WJONJSRFSA-N
#pubchem_id 7048632
#mb_accession AU105001,AU105002,AU105003,AU105004,AU105005

>ms2peaks
530.140000 2144.000000
646.155800 1028.000000

>ms2peaks
143.082900 2136.000000
186.089200 1104.000000
290.116900 1452.000000
318.114200 692.000000
345.054900 324.000000
360.070300 352.000000
375.134400 340.000000
530.142900 1960.000000
531.138500 604.000000

>ms2peaks
143.082700 4012.000000
144.088200 340.000000
148.039100 396.000000
156.012600 520.000000
158.027600 448.000000
186.089100 760.000000
290.116800 2612.000000
345.120800 300.000000
360.070200 548.000000

>ms2peaks
143.082900 5180.000000
148.040500 1524.000000
156.014100 444.000000
290.116100 936.000000
360.067400 524.000000

>ms2peaks
143.082500 5404.000000
144.084500 548.000000
148.041300 2344.000000
149.043200 324.000000

