>compound AU28001426
>parentmass 176.0706
>ionization [M+H]+
>formula C10H9NO2
>rt 344.820000
>profile qtof
#smiles_iso C1=CC=C2C(=C1)C(=CN2)CC(=O)O
#smiles_can C1=CC=C2C(=C1)C(=CN2)CC(=O)O
#inchikey SEOVTRFCIGRIMH-UHFFFAOYSA-N
#pubchem_id 802
#mb_accession AU279601,AU279603,AU279604,AU279605,AU279606

>ms2peaks
130.063900 36232.000000
131.067200 3884.000000
176.069300 20276.000000
177.072500 3064.000000

>ms2peaks
128.049100 1264.000000
130.064100 35872.000000
131.067500 3852.000000
146.059800 364.000000

>ms2peaks
117.057300 468.000000
128.048500 1384.000000
130.064000 15344.000000
131.067000 1340.000000

>ms2peaks
128.049300 496.000000
130.064400 4220.000000

>ms2peaks
130.064200 64956.000000
131.067100 4532.000000
176.069700 1212.000000

