>compound AU28168678
>parentmass 224.09169999999997
>ionization [M+H]+
>formula C11H13NO4
>rt 420.130000
>profile qtof
#smiles_iso CC1(OC2=C(O1)C(=CC=C2)OC(=O)NC)C
#smiles_can CC1(OC2=C(O1)C(=CC=C2)OC(=O)NC)C
#inchikey XEGGRYVFLWGFHI-UHFFFAOYSA-N
#pubchem_id 2314
#mb_accession AU260601,AU260602,AU260603,AU260604,AU260605,AU260606

>ms2
167.069300 1422140.000000
168.072600 86296.000000
169.074600 9368.000000
224.090900 47076.000000

>ms2
109.028000 6704.000000
121.064600 1784.000000
127.038200 4040.000000
139.073700 1832.000000
149.058100 2632.000000
167.069600 154708.000000
168.072400 14920.000000
169.073800 1508.000000

>ms2
109.005900 540.000000
109.028400 2624.000000
121.063700 2932.000000
125.059300 656.000000
127.015000 3236.000000
127.038400 9648.000000
133.087200 408.000000
139.038600 2364.000000
139.074100 2044.000000
140.078100 304.000000
149.059200 2868.000000
150.061500 356.000000
167.069300 12644.000000
168.072300 1204.000000

>ms2
109.028000 820.000000
121.063600 1028.000000
127.037900 5528.000000
128.041700 404.000000
133.089000 320.000000
139.036200 1144.000000
139.076100 620.000000
149.059000 984.000000
167.069700 456.000000

>ms2
127.037500 856.000000
139.038600 424.000000

>ms2
53.038100 2876.000000
58.028700 1092.000000
59.048600 92880.000000
60.052000 2644.000000
81.033200 95908.000000
82.036100 4680.000000
109.029800 187760.000000
110.032700 11996.000000
121.063900 1968.000000
127.015000 34312.000000
127.038700 24180.000000
128.041000 1120.000000
139.038000 1100.000000
139.075000 1192.000000
149.058200 3052.000000
167.069500 117568.000000
168.072800 11680.000000
169.073400 1288.000000

