>compound AU29934088
>parentmass 346.189
>ionization [M+Na]+
>formula C20H25N3O
>rt 564.120000
>profile qtof
#smiles_iso CCN(CC)C(=O)C1CN(C2CC3=CNC4=CC=CC(=C34)C2=C1)C
#smiles_can CCN(CC)C(=O)C1CN(C2CC3=CNC4=CC=CC(=C34)C2=C1)C
#inchikey VAYOSLLFUXYJDT-UHFFFAOYSA-N
#pubchem_id 3981
#mb_accession AU162530

>ms2peaks
133.088400 448.000000
174.992300 2852.000000
176.989000 912.000000
177.114500 328.000000
252.997900 4872.000000
254.996400 612.000000

