>compound AU29397471
>parentmass 324.1013
>ionization [M+H]+
>formula C14H17N3O4S
>rt 295.690000
>profile qtof
#smiles_iso CC1=C(C(=CC=C1)C)N(CN2C=CC=N2)C(=O)CS(=O)(=O)O
#smiles_can CC1=C(C(=CC=C1)C)N(CN2C=CC=N2)C(=O)CS(=O)(=O)O
#inchikey IPVCSECPEVHQOV-UHFFFAOYSA-N
#pubchem_id 86290102
#mb_accession AU206101,AU206102,AU206103,AU206104,AU206105,AU206106

>ms2
134.095700 936.000000
256.063500 7784.000000
257.067700 1020.000000
258.060000 644.000000
324.101400 4856.000000

>ms2
134.095200 11264.000000
135.098700 1208.000000
256.063500 5268.000000
257.067700 680.000000
258.060000 344.000000

>ms2
134.095200 15732.000000
135.098700 1164.000000
160.075800 400.000000
256.063800 324.000000

>ms2
134.095600 12772.000000
135.098700 752.000000

>ms2
132.078500 332.000000
134.095700 8068.000000
135.098700 700.000000
160.073800 424.000000

>ms2
69.044500 17512.000000
70.047800 704.000000
134.096600 93180.000000
135.099600 11448.000000
160.074700 1440.000000
176.105100 472.000000
256.063900 11220.000000
257.065900 1784.000000
258.059500 1016.000000

