>compound AU29451187
>parentmass 152.0165
>ionization [M+H]+
>formula C7H5NOS
>rt 386.700000
>profile qtof
#smiles_iso C1=CC=C2C(=C1)NC(=O)S2
#smiles_can C1=CC=C2C(=C1)NC(=O)S2
#inchikey YEDUAINPPJYDJZ-UHFFFAOYSA-N
#pubchem_id 13625
#mb_accession AU405901,AU405902,AU405903,AU405904,AU405906

>ms2
124.022600 560.000000
152.016900 27348.000000
153.019300 2396.000000
154.012500 1844.000000

>ms2
119.036400 1108.000000
124.021800 5060.000000
134.004900 336.000000
152.016800 15784.000000
153.020500 1884.000000

>ms2
119.037200 1632.000000
124.021700 3016.000000
126.015700 340.000000
134.005300 612.000000
152.016600 2636.000000

>ms2
119.036700 512.000000
124.021100 920.000000
132.996900 448.000000
134.007100 324.000000

>ms2
65.038200 352.000000
80.049500 392.000000
92.049300 632.000000
109.010900 556.000000
119.036200 2760.000000
124.020500 6432.000000
125.023900 612.000000
126.016200 336.000000
134.004800 840.000000
152.015300 64312.000000
153.018100 4552.000000
154.010700 1468.000000

