>compound AU29459645
>parentmass 388.2271
>ionization [M+H]+
>formula C26H29NO2
>rt 542.260000
>profile qtof
#smiles_iso CCC(=C(C1=CC=C(C=C1)O)C2=CC=C(C=C2)OCCN(C)C)C3=CC=CC=C3
#smiles_can CCC(=C(C1=CC=C(C=C1)O)C2=CC=C(C=C2)OCCN(C)C)C3=CC=CC=C3
#inchikey TXUZVZSFRXZGTL-UHFFFAOYSA-N
#pubchem_id 63062
#mb_accession AU271601,AU271602,AU271603,AU271604,AU271605,AU271606

>ms2peaks
388.228900 2506340.000000
389.230600 1081640.000000
390.233300 103924.000000

>ms2peaks
166.121600 21988.000000
223.110800 38172.000000
343.169100 15072.000000
388.228100 2462652.000000
389.230600 968112.000000
390.233400 82324.000000

>ms2peaks
121.064100 3524.000000
128.061300 5184.000000
129.069000 36380.000000
130.072200 3964.000000
133.063100 1368.000000
135.079700 1524.000000
145.063500 40580.000000
146.067100 3824.000000
165.068600 5744.000000
166.076600 9068.000000
166.121600 29040.000000
167.083000 2024.000000
167.124400 3928.000000
171.079300 3392.000000
179.083700 1176.000000
180.091300 1284.000000
183.079100 4744.000000
193.101500 1980.000000
194.071700 11008.000000
195.078900 6060.000000
195.116200 2692.000000
199.075200 2504.000000
205.100900 1104.000000
207.080600 3932.000000
208.086600 4748.000000
209.095200 6188.000000
210.067200 1240.000000
210.098300 1156.000000
211.073600 1252.000000
220.087600 2248.000000
221.094800 7480.000000
222.102900 10684.000000
223.111300 59292.000000
224.082100 2964.000000
224.114500 11008.000000
225.089700 6896.000000
226.093100 1228.000000
234.103900 3536.000000
235.109800 2064.000000
236.118700 1628.000000
237.089900 3316.000000
238.097100 4160.000000
247.111800 1636.000000
249.127000 12428.000000
250.129400 3096.000000
258.102400 1108.000000
259.112000 2452.000000
260.119700 1292.000000
270.103700 2556.000000
271.110500 1276.000000
273.127400 1456.000000
286.098900 1972.000000
287.104700 4144.000000
287.142800 1680.000000
296.120500 1164.000000
297.127200 1200.000000
299.108300 1868.000000
299.142500 3332.000000
301.122100 12212.000000
302.125900 3564.000000
314.129800 8304.000000
315.137000 7520.000000
316.145500 25028.000000
317.149100 5628.000000
318.148700 1144.000000
325.160100 1576.000000
331.130900 1136.000000
343.169300 12316.000000
344.173700 3124.000000
388.227500 219676.000000
389.230800 68260.000000
390.234200 8012.000000

>ms2peaks
115.053600 1760.000000
117.069300 1780.000000
118.072000 316.000000
119.048100 632.000000
121.026500 492.000000
121.063600 3944.000000
122.066800 424.000000
127.052800 2852.000000
128.060600 10896.000000
129.068700 42088.000000
130.071900 4188.000000
131.048100 2152.000000
132.054100 428.000000
133.063900 1368.000000
135.080100 336.000000
139.054600 360.000000
141.068800 580.000000
143.084100 872.000000
144.055800 956.000000
145.063500 37712.000000
146.067400 4172.000000
147.078900 876.000000
149.022400 328.000000
152.061600 772.000000
153.068400 1212.000000
154.075700 376.000000
155.084200 912.000000
157.063300 1048.000000
159.080300 440.000000
164.060400 412.000000
165.068500 18000.000000
166.076200 35928.000000
166.121200 7828.000000
167.081800 5608.000000
167.124000 1204.000000
169.062600 936.000000
169.100400 308.000000
170.070200 356.000000
171.079500 2788.000000
172.084800 852.000000
177.068700 772.000000
178.075600 3016.000000
179.083100 2560.000000
180.092000 1660.000000
181.063400 1952.000000
181.100300 1560.000000
182.071100 952.000000
183.078700 5268.000000
184.081600 756.000000
185.059400 396.000000
190.076000 740.000000
191.084800 1748.000000
192.091600 928.000000
193.099400 3680.000000
194.071400 19236.000000
195.077800 6420.000000
195.115900 1552.000000
196.081200 1224.000000
196.120200 624.000000
197.058800 1628.000000
197.094700 912.000000
198.066500 808.000000
199.074200 6064.000000
200.076800 788.000000
202.077500 964.000000
203.083100 1552.000000
204.092100 936.000000
205.100100 1988.000000
206.072300 460.000000
206.106900 1408.000000
207.079500 15332.000000
208.086400 10808.000000
209.094100 8672.000000
210.066400 3636.000000
210.099100 1872.000000
211.073500 2736.000000
212.077600 496.000000
213.089800 320.000000
215.084500 836.000000
216.091100 848.000000
217.099200 508.000000
219.079100 2248.000000
220.087100 4072.000000
221.094400 8508.000000
221.128700 628.000000
222.102600 14200.000000
223.074100 6364.000000
223.109700 10052.000000
224.081200 3528.000000
224.113300 1536.000000
225.089200 5400.000000
226.092900 956.000000
228.093400 392.000000
229.099500 980.000000
231.081100 1880.000000
231.115300 800.000000
232.085900 1356.000000
232.120200 400.000000
233.092400 932.000000
234.103800 3344.000000
235.108200 1392.000000
236.081500 336.000000
236.117800 452.000000
237.089900 3696.000000
237.124700 372.000000
238.097100 4216.000000
239.085100 540.000000
239.102800 916.000000
240.089400 400.000000
241.100700 824.000000
242.105500 368.000000
243.115300 460.000000
244.086500 956.000000
244.120300 376.000000
245.094400 1828.000000
246.099300 524.000000
247.109700 1040.000000
248.117100 472.000000
249.126800 1628.000000
250.096200 684.000000
250.130100 768.000000
251.083300 436.000000
251.104100 304.000000
252.092000 664.000000
252.115700 488.000000
253.099700 1664.000000
254.105100 856.000000
255.081500 508.000000
255.116600 492.000000
256.085400 352.000000
257.096300 1712.000000
258.102200 2568.000000
259.110000 2532.000000
260.116000 1420.000000
261.124500 356.000000
265.098900 300.000000
265.120300 448.000000
267.113400 384.000000
268.084500 732.000000
269.096100 4444.000000
269.130200 468.000000
270.102700 6916.000000
271.109000 3580.000000
272.116900 1564.000000
273.087700 1020.000000
273.126100 1400.000000
274.096300 492.000000
279.117700 344.000000
281.095300 1280.000000
282.106500 1016.000000
283.109700 1432.000000
284.118600 2256.000000
285.091200 1108.000000
285.123800 1192.000000
286.097800 4392.000000
286.133700 792.000000
287.104900 3704.000000
287.142800 1748.000000
288.112300 980.000000
289.113900 456.000000
295.109700 1104.000000
296.116500 1380.000000
297.127400 1304.000000
298.131500 380.000000
299.106700 4064.000000
299.141400 2460.000000
300.110000 2108.000000
300.146400 592.000000
301.121200 18024.000000
302.125100 4636.000000
303.129700 440.000000
310.134600 436.000000
313.119900 1120.000000
314.129600 4160.000000
315.136400 4432.000000
316.144200 4064.000000
317.148600 956.000000
325.159400 612.000000
328.145400 388.000000
331.130900 480.000000
343.168400 1172.000000
388.225900 2736.000000
389.232900 1216.000000

>ms2peaks
115.053700 3596.000000
116.057000 632.000000
117.069700 1740.000000
119.048300 980.000000
121.027000 624.000000
121.064200 2508.000000
126.045300 588.000000
127.053700 3628.000000
128.061000 17812.000000
129.068600 24828.000000
130.043200 432.000000
130.073000 3712.000000
131.047800 2364.000000
132.055300 524.000000
133.064000 808.000000
141.068500 2280.000000
143.084700 908.000000
144.055500 1824.000000
145.063800 20860.000000
146.067000 2784.000000
147.078300 400.000000
149.022300 592.000000
152.060300 2432.000000
153.068000 2420.000000
154.075400 772.000000
155.084200 1004.000000
157.062800 1080.000000
164.061600 668.000000
165.068600 51880.000000
166.076400 79540.000000
167.081200 9668.000000
168.055700 628.000000
168.086900 1124.000000
169.062400 1272.000000
171.079200 1204.000000
176.062600 516.000000
177.068100 1940.000000
178.075900 8340.000000
179.083100 5936.000000
180.055500 704.000000
180.090800 2276.000000
181.064500 3668.000000
181.098400 1280.000000
182.070900 1676.000000
183.079400 5020.000000
184.083400 1004.000000
189.067100 1800.000000
190.075400 2172.000000
191.084600 4156.000000
192.091900 1588.000000
193.099600 3244.000000
194.071500 19952.000000
195.077000 6000.000000
195.117300 612.000000
196.084700 1320.000000
197.058600 2732.000000
197.093900 544.000000
198.065600 664.000000
199.073900 7460.000000
200.077100 1152.000000
202.077200 3284.000000
203.084700 3304.000000
204.090700 1588.000000
205.064600 600.000000
205.099700 2264.000000
206.071700 676.000000
206.104200 896.000000
207.079200 33808.000000
208.086000 14268.000000
209.092900 5624.000000
210.066500 6776.000000
210.098900 724.000000
211.072700 2488.000000
215.085500 2036.000000
216.091600 1308.000000
217.099900 652.000000
218.071400 432.000000
219.080300 3332.000000
220.087100 2868.000000
221.095000 7460.000000
222.102300 6348.000000
223.074300 10856.000000
223.108600 1864.000000
224.079500 3860.000000
225.089500 1804.000000
226.074100 604.000000
226.091300 456.000000
227.083100 796.000000
228.093300 1020.000000
229.099700 1168.000000
230.104200 544.000000
231.079300 2476.000000
232.087000 1164.000000
233.094700 1264.000000
234.102400 2216.000000
235.107200 508.000000
237.090600 2652.000000
238.095100 1424.000000
239.086000 1092.000000
239.104700 608.000000
240.092000 916.000000
241.100700 2732.000000
242.104000 908.000000
244.086500 2440.000000
245.096300 2012.000000
246.101100 824.000000
250.076400 524.000000
251.084500 788.000000
252.092200 2104.000000
253.100000 2696.000000
254.108600 752.000000
255.081600 1136.000000
255.114500 964.000000
256.088100 1208.000000
257.096000 4304.000000
258.102200 3028.000000
259.109200 2116.000000
260.114500 764.000000
265.103300 592.000000
266.108600 624.000000
267.116100 596.000000
268.086500 1632.000000
269.095100 7344.000000
270.102200 7040.000000
271.075100 408.000000
271.109700 4180.000000
272.116200 1564.000000
273.090000 880.000000
273.124200 1044.000000
281.095100 1660.000000
282.103600 1044.000000
283.111700 3336.000000
284.119200 1444.000000
285.091800 1568.000000
285.122300 716.000000
286.097000 3544.000000
286.133200 516.000000
287.104200 1568.000000
295.111400 1284.000000
296.118800 492.000000
297.126500 500.000000
298.097700 456.000000
299.106700 3412.000000
300.112200 1416.000000
301.121300 5752.000000
302.125900 1448.000000
313.120600 576.000000
314.127000 604.000000
315.137100 1028.000000

>ms2peaks
56.049000 2412.000000
57.057100 2696.000000
58.064500 6036.000000
70.064700 10956.000000
72.080500 365820.000000
73.083800 15364.000000
91.054800 2272.000000
129.069300 9876.000000
145.063800 10696.000000
166.122100 6680.000000
194.072400 3444.000000
207.079300 1940.000000
208.087100 1940.000000
209.094200 2860.000000
221.094500 1896.000000
222.103400 4052.000000
223.111000 15216.000000
224.115100 3676.000000
225.090100 2176.000000
249.129100 2512.000000
270.104600 1832.000000
301.121900 6828.000000
302.124600 1976.000000
314.129500 2968.000000
315.137300 2500.000000
316.145600 9276.000000
317.147200 2540.000000
343.169600 4816.000000
388.227700 271376.000000
389.231200 107872.000000
390.233100 12188.000000

