>compound AU29541401
>parentmass 217.09719999999996
>ionization [M+H]+
>formula C12H12N2O2
>rt 239.520000
>profile qtof
#smiles_iso CC1=C(C(=O)N(N1C)C2=CC=CC=C2)C=O
#smiles_can CC1=C(C(=O)N(N1C)C2=CC=CC=C2)C=O
#inchikey QFYZFYDOEJZMDX-UHFFFAOYSA-N
#pubchem_id 70371
#mb_accession AU266701,AU266702,AU266703,AU266704,AU266705,AU266706

>ms2
217.097600 2515132.000000

>ms2
130.064000 19424.000000
131.071400 16456.000000
144.079700 18376.000000
147.090500 65472.000000
159.090300 33500.000000
174.077400 21244.000000
187.085200 14024.000000
189.101300 80524.000000
199.085000 14796.000000
200.056800 18948.000000
202.072200 16204.000000
215.080600 162144.000000
216.083400 20976.000000
217.097100 2501460.000000
218.099700 466624.000000
219.101800 32660.000000

>ms2
111.042700 2228.000000
115.053700 7752.000000
117.056600 6604.000000
117.069100 7040.000000
118.064500 11640.000000
119.059600 2660.000000
119.084000 1520.000000
120.043200 3180.000000
120.080100 6392.000000
121.075000 1628.000000
128.048500 2972.000000
129.056300 5696.000000
130.064100 52340.000000
131.059700 10224.000000
131.071300 27200.000000
132.043200 2424.000000
132.067600 21804.000000
133.051000 4964.000000
133.074100 5416.000000
134.046300 5016.000000
134.095000 1828.000000
135.054100 3584.000000
139.049200 4348.000000
140.050100 1864.000000
141.064800 3144.000000
142.063800 11272.000000
143.070900 6992.000000
144.042900 1932.000000
144.079600 28444.000000
145.074600 22176.000000
146.058800 4828.000000
146.082500 17220.000000
147.090500 82284.000000
148.073500 2668.000000
148.093800 8816.000000
149.069600 13232.000000
155.058800 1832.000000
156.066900 4036.000000
157.051300 7560.000000
158.058500 12748.000000
159.054500 9780.000000
159.090400 37072.000000
160.037700 1684.000000
160.073900 4768.000000
160.097000 11072.000000
161.034000 1540.000000
161.105200 6916.000000
162.053500 1876.000000
169.075100 2904.000000
170.059200 2104.000000
171.054100 6596.000000
171.090300 4248.000000
172.062100 16192.000000
173.070000 10588.000000
174.077500 26228.000000
175.081600 3396.000000
184.061000 1724.000000
185.069400 28224.000000
186.053800 7252.000000
186.073200 3856.000000
187.085600 17984.000000
188.092000 6976.000000
189.101000 26604.000000
190.104700 3652.000000
197.070000 1964.000000
199.085200 18736.000000
200.056900 59196.000000
200.090200 3104.000000
201.061500 10760.000000
202.072100 15140.000000
203.074500 2176.000000
213.064300 2236.000000
215.080700 81260.000000
216.084000 10724.000000
217.096500 291400.000000
218.099300 40256.000000

>ms2
115.053800 8076.000000
116.056600 1436.000000
117.056900 6956.000000
117.069100 5176.000000
118.064000 7880.000000
119.035600 424.000000
119.059700 3936.000000
119.085100 560.000000
120.043100 1464.000000
120.080300 2096.000000
121.077200 552.000000
123.055300 880.000000
124.038100 352.000000
127.053000 688.000000
128.048900 7048.000000
128.060200 2212.000000
129.056100 8924.000000
130.064400 41832.000000
131.060300 16040.000000
131.070900 9816.000000
132.044000 2596.000000
132.067300 15536.000000
133.051300 3052.000000
133.074300 3308.000000
134.046000 3944.000000
134.078500 448.000000
134.095200 780.000000
135.054500 1648.000000
139.049800 2184.000000
140.048400 2896.000000
141.064900 2912.000000
142.064000 4860.000000
143.060800 2840.000000
143.071000 6112.000000
144.043500 2032.000000
144.067400 3596.000000
144.079400 15820.000000
145.050400 1232.000000
145.075000 22336.000000
146.021100 368.000000
146.058900 3968.000000
146.081800 6700.000000
147.054900 1880.000000
147.090400 15136.000000
148.064400 588.000000
148.074400 496.000000
148.094600 2072.000000
149.070000 2912.000000
150.070800 564.000000
154.063600 564.000000
155.059500 3436.000000
156.044000 808.000000
156.066600 3452.000000
157.039500 1636.000000
157.051700 3468.000000
157.074600 1664.000000
158.058800 4944.000000
158.084000 488.000000
159.054400 5696.000000
159.090700 13636.000000
160.038600 812.000000
160.056100 808.000000
160.075100 2496.000000
161.034500 2720.000000
161.074500 364.000000
161.105700 772.000000
162.053900 588.000000
168.043500 340.000000
169.073600 1760.000000
170.060600 720.000000
170.081600 576.000000
171.054300 9416.000000
171.090000 1176.000000
172.061100 8900.000000
173.069700 8428.000000
174.077900 6784.000000
175.049000 392.000000
175.080900 752.000000
184.061500 1912.000000
185.032500 2484.000000
185.070000 24320.000000
186.053700 1348.000000
186.073500 3128.000000
187.051200 736.000000
187.085400 4508.000000
188.091100 1080.000000
189.100500 2640.000000
197.067800 384.000000
198.078100 436.000000
199.049600 996.000000
199.085400 7376.000000
200.057100 22056.000000
200.090600 1116.000000
201.063000 4052.000000
202.072500 1928.000000
213.066200 944.000000
214.070600 584.000000
215.080700 6384.000000
216.085600 836.000000
217.096300 8144.000000
218.100600 1252.000000

>ms2
115.053400 5820.000000
116.048700 2248.000000
117.056600 4724.000000
117.069200 2176.000000
118.064400 3636.000000
119.060300 1892.000000
123.054900 476.000000
126.044900 464.000000
127.054500 592.000000
128.048400 6288.000000
128.061700 1328.000000
129.056600 4464.000000
130.064000 21252.000000
131.059700 11144.000000
132.043000 1336.000000
132.066600 6472.000000
133.037200 616.000000
133.051000 1044.000000
133.074200 1592.000000
134.046000 1584.000000
134.094800 324.000000
135.053100 552.000000
139.049500 1384.000000
140.048800 1608.000000
141.054600 392.000000
141.065900 736.000000
142.052200 1400.000000
142.065400 2008.000000
143.059400 3388.000000
143.071700 3452.000000
144.043300 1144.000000
144.069000 2632.000000
144.079300 5880.000000
145.051000 1068.000000
145.075000 12088.000000
146.023400 340.000000
146.058200 2420.000000
146.080400 1880.000000
147.090800 2952.000000
148.063400 328.000000
149.069400 416.000000
152.060400 340.000000
154.063000 308.000000
155.059100 4088.000000
156.044500 1064.000000
156.065400 2376.000000
157.038400 1480.000000
157.074600 1416.000000
158.045400 1208.000000
158.059000 1136.000000
159.053600 1972.000000
159.090500 3984.000000
160.076200 324.000000
160.095100 584.000000
161.034100 1296.000000
169.076100 904.000000
171.053900 5340.000000
171.089900 408.000000
172.061100 2552.000000
173.069100 2700.000000
174.074500 800.000000
184.063600 496.000000
185.033700 884.000000
185.069700 7460.000000
186.072600 908.000000
187.086300 848.000000
199.052100 448.000000
199.085700 1156.000000
200.056100 2700.000000
201.061700 1012.000000
215.079000 300.000000
217.095900 400.000000

>ms2
55.053900 34400.000000
56.049200 82944.000000
58.064900 25228.000000
65.038300 8012.000000
67.017400 4924.000000
69.033200 6408.000000
70.064400 5016.000000
77.038400 9016.000000
79.054000 4876.000000
83.049000 68952.000000
84.056300 13184.000000
86.060000 19424.000000
91.054500 8848.000000
92.049800 12884.000000
95.049400 10052.000000
96.044700 5536.000000
96.068700 8072.000000
98.060500 44972.000000
104.050000 18660.000000
105.034200 6576.000000
105.044700 8504.000000
106.066100 155124.000000
107.062100 14168.000000
111.045400 191184.000000
112.048600 9404.000000
117.070100 6492.000000
118.065500 19720.000000
120.081000 6500.000000
129.055800 8824.000000
130.064700 24656.000000
131.072000 19924.000000
132.068100 11280.000000
132.079100 6256.000000
142.064700 4872.000000
144.080500 15860.000000
145.075500 7172.000000
146.083400 9924.000000
147.091200 56932.000000
148.094400 4820.000000
149.069800 7340.000000
158.059100 7364.000000
159.090600 22144.000000
160.098100 6900.000000
161.106000 5592.000000
172.062300 5476.000000
172.073800 4984.000000
174.077700 15172.000000
185.070000 9500.000000
186.053700 5100.000000
187.086000 11984.000000
188.092900 5432.000000
189.101800 41088.000000
199.085700 12188.000000
200.057300 26772.000000
202.073000 12072.000000
215.081100 84228.000000
216.084300 10576.000000
217.097400 916488.000000
218.100400 173312.000000

