>compound AU29877654
>parentmass 329.186
>ionization [M+H]+
>formula C19H24N2O3
>rt 336.620000
>profile qtof
#smiles_iso CC(CCC1=CC=CC=C1)NCC(C2=CC(=C(C=C2)O)C(=O)N)O
#smiles_can CC(CCC1=CC=CC=C1)NCC(C2=CC(=C(C=C2)O)C(=O)N)O
#inchikey SGUAFYQXFOLMHL-UHFFFAOYSA-N
#pubchem_id 3869
#mb_accession AU275701,AU275702,AU275703,AU275704,AU275705,AU275706

>ms2
162.053100 2516.000000
179.080600 3032.000000
207.112000 7140.000000
294.149600 4672.000000
311.175600 212684.000000
312.178300 42396.000000
313.180200 4768.000000
329.185800 395380.000000
330.189200 88476.000000
331.191700 11452.000000

>ms2
133.099900 2088.000000
162.053600 113580.000000
163.056600 9936.000000
164.068800 13972.000000
165.053200 2312.000000
179.080200 66476.000000
180.063700 1824.000000
180.083600 6824.000000
190.084600 13756.000000
207.111600 74768.000000
208.115000 8696.000000
294.148000 97276.000000
295.151400 20472.000000
296.153200 2424.000000
311.174800 347856.000000
312.177400 62780.000000
313.180800 6668.000000
329.184600 13152.000000
330.187600 3188.000000

>ms2
134.059300 10304.000000
135.043400 1836.000000
136.074500 1628.000000
144.043200 2444.000000
147.042500 7100.000000
162.053900 290572.000000
163.056800 23880.000000
164.069300 19896.000000
165.053200 13576.000000
165.073400 1716.000000
179.080400 21584.000000
180.064200 9816.000000
180.082800 2376.000000
190.085000 26744.000000
191.088300 3532.000000
207.111600 13936.000000
208.095200 2256.000000
208.114400 2092.000000
252.100800 1600.000000
294.148600 40196.000000
295.150500 10200.000000
311.175400 9624.000000
312.158900 12528.000000
313.161600 2368.000000

>ms2
116.048700 3160.000000
117.055300 1116.000000
119.047800 1308.000000
120.043000 2196.000000
133.051300 2736.000000
134.059000 28528.000000
135.043200 5160.000000
135.062400 2480.000000
136.074500 1496.000000
144.043100 8008.000000
145.026900 2224.000000
147.043100 10060.000000
162.053900 195668.000000
163.037800 1428.000000
163.056900 17800.000000
164.068300 6176.000000
165.053400 17600.000000
166.057100 1828.000000
179.080300 2044.000000
180.064200 9528.000000
181.067000 1288.000000
190.085300 5236.000000
258.013100 1012.000000
294.148300 1988.000000

>ms2
116.049100 6052.000000
117.031700 932.000000
117.055600 2536.000000
118.064400 548.000000
119.049100 1588.000000
120.044200 2480.000000
121.027100 364.000000
133.026600 412.000000
133.051400 5048.000000
134.058900 36268.000000
135.042800 7720.000000
135.062200 3708.000000
136.047200 992.000000
136.075400 428.000000
144.043200 8856.000000
145.026600 2500.000000
145.046700 880.000000
146.058500 484.000000
147.042600 5312.000000
148.046000 708.000000
160.038100 564.000000
161.045000 492.000000
162.053700 68020.000000
163.037200 948.000000
163.056900 9100.000000
164.060800 972.000000
164.066800 1220.000000
165.053600 10752.000000
166.057900 968.000000
172.074200 620.000000
180.065000 3500.000000
181.068400 600.000000
190.085500 372.000000

>ms2
91.054600 30228.000000
92.057700 2816.000000
133.100600 1900.000000
134.059100 6864.000000
135.043000 1708.000000
136.074100 1512.000000
144.043500 1924.000000
147.042600 3976.000000
162.054000 199000.000000
163.057000 19836.000000
164.069200 17104.000000
165.053400 9004.000000
165.072900 1760.000000
166.057800 1140.000000
179.080500 42592.000000
180.064400 25400.000000
180.083900 3044.000000
181.066500 1720.000000
190.085000 16340.000000
191.088000 2764.000000
194.080100 1300.000000
207.111800 42952.000000
208.096200 4144.000000
208.114700 4460.000000
258.013600 1112.000000
294.148200 50052.000000
295.151600 9596.000000
296.155100 1668.000000
311.175100 100280.000000
312.160000 42464.000000
312.174900 14808.000000
313.162600 6920.000000
329.185100 2716.000000

