>compound AU29228683
>parentmass 298.0315
>ionization [M+H]+
>formula C11H11N3O3S2
>rt 247.200000
>profile qtof
#smiles_iso CC(=O)NC1=CC=C(C=C1)S(=O)(=O)NC2=NC=CS2
#smiles_can CC(=O)NC1=CC=C(C=C1)S(=O)(=O)NC2=NC=CS2
#inchikey KXNXWINFSDKMHD-UHFFFAOYSA-N
#pubchem_id 67183
#mb_accession AU201001,AU201002,AU201003,AU201004,AU201005

>ms2peaks
134.059400 340.000000
150.052400 364.000000
198.021800 4880.000000
199.024200 524.000000
298.031900 56740.000000
299.034500 8624.000000
300.027100 5432.000000

>ms2peaks
133.084700 520.000000
134.059400 4624.000000
135.061300 312.000000
136.074400 324.000000
150.054100 1180.000000
156.009400 756.000000
162.064000 1128.000000
182.026600 628.000000
198.020900 17684.000000
199.024300 1348.000000
200.016400 632.000000
232.053200 352.000000
298.030700 6680.000000

>ms2peaks
134.059400 10192.000000
135.062300 1004.000000
136.073500 328.000000
140.016200 328.000000
150.054100 640.000000
156.009800 968.000000
162.063500 700.000000
182.028100 320.000000
198.021300 3056.000000
298.029900 364.000000

>ms2peaks
134.059400 2768.000000
135.061800 404.000000
140.016000 340.000000

>ms2peaks
134.059400 648.000000
140.015400 444.000000

