>compound AU29674065
>parentmass 163.039
>ionization [M+H]+
>formula C9H6O3
>rt 358.470000
>profile qtof
#smiles_iso C1=CC=C2C(=C1)C(=CC(=O)O2)O
#smiles_can C1=CC=C2C(=C1)C(=CC(=O)O2)O
#inchikey VXIXUWQIVKSKSA-UHFFFAOYSA-N
#pubchem_id 54682930
#mb_accession AU231201,AU231202,AU231203,AU231204,AU231205,AU231206

>ms2peaks
121.027800 2848.000000
163.037800 148956.000000
164.041000 11428.000000
165.043000 1124.000000

>ms2peaks
119.048100 1400.000000
121.027500 23704.000000
122.031500 1784.000000
145.027900 492.000000
163.037500 53672.000000
164.041400 5328.000000

>ms2peaks
121.027300 14724.000000
122.031000 1076.000000
163.037900 4960.000000
164.040400 464.000000

>ms2peaks
121.027700 2572.000000

>ms2peaks
121.028400 380.000000

>ms2peaks
65.038000 456.000000
68.996800 1860.000000
91.054500 1212.000000
95.049400 1076.000000
119.049400 1144.000000
121.028000 33740.000000
122.031400 2016.000000
139.038800 1092.000000
163.038200 84028.000000
164.041000 5732.000000
165.044600 544.000000

