>compound AU30785367
>parentmass 329.0245
>ionization [M+H]+
>formula C14H13ClO5S
>rt 314.136000
>profile qtof
#smiles_iso CS(=O)(=O)C1=CC(=C(C=C1)C(=O)C2C(=O)CCCC2=O)Cl
#smiles_can CS(=O)(=O)C1=CC(=C(C=C1)C(=O)C2C(=O)CCCC2=O)Cl
#inchikey PQTBTIFWAXVEPB-UHFFFAOYSA-N
#pubchem_id 91760
#mb_accession AU238601,AU238603,AU238604,AU238605,AU238606

>ms2peaks
139.036000 1204.000000
157.048500 1088.000000
329.024000 13980.000000
330.027100 2600.000000
331.021600 4732.000000

>ms2peaks
139.037400 3456.000000
157.047800 2892.000000
293.043800 1048.000000

>ms2peaks
139.037800 1184.000000
149.018800 384.000000
157.046700 896.000000
202.059600 300.000000
214.061300 652.000000
246.053000 432.000000
293.046300 308.000000

>ms2peaks
214.059300 348.000000
246.051400 372.000000

>ms2peaks
68.996100 376.000000
111.046400 376.000000
139.037200 2256.000000
157.048100 9728.000000
158.052300 672.000000
293.048700 1388.000000
294.049900 544.000000
329.024600 1216.000000
331.020700 384.000000

