>compound AU30800768
>parentmass 579.2863
>ionization [M+Na]+
>formula C31H44N2O5S
>rt 339.195000
>profile qtof
#smiles_iso CCCCC1=C(C2=C(O1)C=CC(=C2)NS(=O)(=O)C)C(=O)C3=CC=C(C=C3)OCCCN(CCCC)CCCC
#smiles_can CCCCC1=C(C2=C(O1)C=CC(=C2)NS(=O)(=O)C)C(=O)C3=CC=C(C=C3)OCCCN(CCCC)CCCC
#inchikey ZQTNQVWKHCQYLQ-UHFFFAOYSA-N
#pubchem_id 208898
#mb_accession AU218130,AU218131,AU218132,AU218133

>ms2
309.066000 19264.000000
310.068300 3692.000000

>ms2
293.089700 300.000000
309.065400 28016.000000
310.068600 5552.000000

>ms2
293.094400 300.000000
309.066200 19688.000000
310.069200 3308.000000
311.063700 1620.000000

>ms2
309.065300 8640.000000
310.067300 1576.000000
311.064900 1104.000000

