>compound AU30696035
>parentmass 239.139
>ionization [M+H]+
>formula C12H18N2O3
>rt 211.020000
>profile qtof
#smiles_iso CCCC(C)C1(C(=O)NC(=O)NC1=O)CC=C
#smiles_can CCCC(C)C1(C(=O)NC(=O)NC1=O)CC=C
#inchikey KQPKPCNLIDLUMF-UHFFFAOYSA-N
#pubchem_id 5193
#mb_accession AU230701,AU230702,AU230706

>ms2peaks
133.084500 4268.000000
134.088300 420.000000
177.110700 1208.000000
195.123500 592.000000

>ms2peaks
133.083600 504.000000

>ms2peaks
133.083400 336.000000

