>compound AU30146546
>parentmass 706.4008
>ionization [M+H]+
>formula C34H59NO14
>rt 623.808000
>profile qtof
#smiles_iso CCCCC(C)C(C(CC(C)CCCCCCC(CC(C(C)N)O)O)OC(=O)CC(CC(=O)O)C(=O)O)OC(=O)CC(CC(=O)O)C(=O)O
#smiles_can CCCCC(C)C(C(CC(C)CCCCCCC(CC(C(C)N)O)O)OC(=O)CC(CC(=O)O)C(=O)O)OC(=O)CC(CC(=O)O)C(=O)O
#inchikey UXDPXZQHTDAXOZ-UHFFFAOYSA-N
#pubchem_id 3432
#mb_accession AU596900,AU596901,AU596902,AU596903,AU596904

>ms2
706.401600 5508.000000

>ms2
706.398100 6632.000000

>ms2
336.326000 528.000000
354.334900 480.000000
512.355300 368.000000
530.368000 500.000000
688.388100 764.000000
689.380700 376.000000
706.403100 5340.000000

>ms2
141.019600 328.000000
159.027500 544.000000
203.180000 492.000000
318.315000 2320.000000
319.297300 396.000000
319.316200 680.000000
336.326200 4948.000000
337.328700 1220.000000
354.335500 2860.000000
355.336800 664.000000
372.347400 516.000000
512.354500 920.000000
513.366100 368.000000
530.367400 716.000000
531.364300 504.000000
670.382700 376.000000
688.395300 836.000000
689.400600 576.000000
706.410700 1460.000000

>ms2
141.017000 576.000000
147.117000 384.000000
159.029200 752.000000
205.198300 300.000000
238.217300 540.000000
256.226900 424.000000
318.315700 5084.000000
319.317000 1052.000000
336.325300 6160.000000
337.328300 2260.000000
338.332000 384.000000
354.336400 1928.000000
355.336600 672.000000
494.346500 376.000000
512.353000 336.000000
512.364400 644.000000

