>compound AU31553466
>parentmass 266.1751
>ionization [M+H]+
>formula C15H23NO3
>rt 329.640000
>profile qtof
#smiles_iso CC(C)NCC(COC1=CC=CC=C1OCC=C)O
#smiles_can CC(C)NCC(COC1=CC=CC=C1OCC=C)O
#inchikey CEMAWMOMDPGJMB-UHFFFAOYSA-N
#pubchem_id 4631
#mb_accession AU220906

>ms2peaks
58.064100 9384.000000
70.064000 23440.000000
72.080000 1004568.000000
73.083200 33428.000000
110.060200 18412.000000
115.054000 8328.000000
133.075500 5744.000000
144.080300 5396.000000
180.079600 10496.000000
182.095800 12328.000000
194.083300 27460.000000
195.091600 1061620.000000
196.094300 169012.000000
197.097200 8928.000000
207.090900 5692.000000
209.106800 208348.000000
210.109900 25856.000000
220.097900 5404.000000
223.122400 39276.000000
224.124800 5728.000000
235.122500 47948.000000
236.125300 7276.000000

