>compound AU31221217
>parentmass 322.0777
>ionization [M+H]+
>formula C12H19NO5S2
>rt 364.740000
>profile qtof
#smiles_iso CC1=CSC(=C1N(C(C)COC)C(=O)CS(=O)(=O)O)C
#smiles_can CC1=CSC(=C1N(C(C)COC)C(=O)CS(=O)(=O)O)C
#inchikey YMYKMSAZEZQEER-UHFFFAOYSA-N
#pubchem_id 6426850
#mb_accession AU204101,AU204102,AU204103,AU204104,AU204105,AU204106

>ms2peaks
210.092400 324.000000
290.050500 24872.000000
291.053700 3460.000000
292.047600 2540.000000
322.076800 20400.000000
323.079900 4132.000000
324.072500 1888.000000

>ms2peaks
152.051600 344.000000
166.067600 1284.000000
167.077200 496.000000
168.082700 1356.000000
209.087400 780.000000
210.093500 10872.000000
211.096600 1348.000000
290.051100 38668.000000
291.053800 5712.000000
292.048100 3488.000000
293.050100 348.000000
322.079300 784.000000

>ms2peaks
125.041600 452.000000
126.035300 452.000000
128.053100 572.000000
134.095000 836.000000
135.102100 444.000000
138.037400 352.000000
150.037600 340.000000
150.048200 932.000000
151.044700 344.000000
152.052000 2836.000000
153.059200 512.000000
154.051200 388.000000
166.067000 7028.000000
167.074300 3944.000000
168.045400 1036.000000
168.062100 312.000000
168.082800 5024.000000
169.054300 556.000000
169.084100 532.000000
170.060800 336.000000
170.078700 412.000000
176.105800 424.000000
194.061700 892.000000
209.085500 2156.000000
210.093600 15956.000000
211.097900 1772.000000
212.089600 876.000000
226.086400 572.000000
290.050100 9476.000000
291.054700 1224.000000
292.046000 944.000000

>ms2peaks
119.073000 316.000000
125.041100 852.000000
126.036200 2160.000000
127.042300 416.000000
128.051500 524.000000
133.087700 388.000000
134.095300 2396.000000
135.024900 736.000000
135.102200 596.000000
138.036100 1904.000000
149.041200 556.000000
150.037200 480.000000
150.048200 1328.000000
151.048900 456.000000
152.015000 812.000000
152.051700 6264.000000
153.056300 876.000000
166.030800 636.000000
166.067100 8700.000000
167.038100 420.000000
167.074900 3120.000000
168.046200 816.000000
168.059500 384.000000
168.082200 4312.000000
169.086400 476.000000
176.106800 780.000000
194.062500 1136.000000
209.084800 300.000000
210.092900 2644.000000
211.097700 596.000000
290.051500 524.000000

>ms2peaks
111.024500 608.000000
118.064900 428.000000
119.072500 476.000000
125.027500 448.000000
125.041300 1308.000000
126.035700 2480.000000
127.041200 688.000000
128.052900 548.000000
132.079700 456.000000
133.086700 716.000000
134.095600 1920.000000
135.025400 460.000000
135.100000 312.000000
137.027200 432.000000
138.036200 2044.000000
139.041500 472.000000
149.040500 660.000000
150.036200 852.000000
151.043200 1008.000000
152.014700 2312.000000
152.051400 6040.000000
153.055100 692.000000
166.031800 984.000000
166.066300 4012.000000
167.073500 704.000000
168.045800 572.000000
168.083700 732.000000
176.106600 444.000000
194.062600 612.000000
210.091800 516.000000

>ms2peaks
125.041300 580.000000
126.037100 576.000000
128.052800 312.000000
134.095600 1084.000000
138.037600 304.000000
150.047900 1420.000000
151.045200 328.000000
151.052100 316.000000
152.016300 380.000000
152.052400 2712.000000
166.068600 6408.000000
167.076900 2660.000000
168.048900 676.000000
168.063200 392.000000
168.083800 4252.000000
169.072900 300.000000
169.086600 624.000000
176.105700 620.000000
194.062400 420.000000
209.086500 1832.000000
210.095000 14516.000000
211.097400 1660.000000
212.045200 436.000000
212.092800 568.000000
226.089400 492.000000
290.051600 22024.000000
291.054600 3676.000000
292.048100 1868.000000

