>compound AU31398810
>parentmass 255.11279999999996
>ionization [M+H]+
>formula C15H14N2O2
>rt 363.410000
>profile qtof
#smiles_iso C1C(C2=CC=CC=C2N(C3=CC=CC=C31)C(=O)N)O
#smiles_can C1C(C2=CC=CC=C2N(C3=CC=CC=C31)C(=O)N)O
#inchikey BMPDWHIDQYTSHX-UHFFFAOYSA-N
#pubchem_id 114709
#mb_accession AU228201,AU228202,AU228203,AU228204,AU228205,AU228206

>ms2peaks
192.079100 1548.000000
194.095400 39000.000000
195.099200 6648.000000
220.075000 1644.000000
237.101800 290116.000000
238.104800 46916.000000
239.107600 4220.000000
255.111600 16184.000000
256.115900 2200.000000

>ms2peaks
192.079500 47056.000000
193.084900 10916.000000
194.095300 381800.000000
195.098400 47432.000000
196.101300 4012.000000
220.074200 7108.000000
237.101400 138724.000000
238.104800 21720.000000
239.106400 2300.000000

>ms2peaks
165.068100 4296.000000
167.084100 3836.000000
179.071500 10200.000000
191.071200 2616.000000
192.079900 72500.000000
193.086400 39072.000000
194.095600 448060.000000
195.098800 60720.000000
196.102200 3200.000000
237.101200 5084.000000

>ms2peaks
116.048600 1264.000000
152.060800 7840.000000
165.068700 17812.000000
166.072800 3808.000000
167.071900 7196.000000
167.083800 7008.000000
168.079500 1760.000000
169.063800 1320.000000
176.060500 2416.000000
177.067900 4052.000000
178.064500 4104.000000
178.075500 2832.000000
179.071800 44192.000000
180.075100 7220.000000
190.063900 4868.000000
191.071600 13528.000000
192.079900 59528.000000
193.087600 110016.000000
194.095600 238480.000000
195.098500 31744.000000
196.102200 2928.000000

>ms2peaks
116.048900 1044.000000
117.057100 1348.000000
128.061100 616.000000
139.053500 1504.000000
140.049900 848.000000
141.068100 604.000000
151.053400 1236.000000
152.061000 14304.000000
153.065100 2236.000000
163.053800 1408.000000
164.059900 1332.000000
165.068800 33448.000000
166.072900 5696.000000
167.072000 14276.000000
168.055600 576.000000
168.076800 2652.000000
169.063800 3300.000000
176.060700 3780.000000
177.056000 4216.000000
177.065900 2540.000000
178.064400 12904.000000
179.071900 53788.000000
180.075200 8456.000000
181.079300 644.000000
190.064000 8016.000000
191.072000 28384.000000
192.079800 50268.000000
193.087700 110764.000000
194.094900 55016.000000
195.098200 7516.000000
196.075000 824.000000
211.061500 920.000000

>ms2peaks
165.068100 4296.000000
167.084100 3836.000000
179.071500 10200.000000
191.071200 2616.000000
192.079900 72500.000000
193.086400 39072.000000
194.095600 448060.000000
195.098800 60720.000000
196.102200 3200.000000
237.101200 5084.000000

