>compound AU31416340
>parentmass 342.0771
>ionization [M+H]+
>formula C15H17Cl2N3O2
>rt 665.050000
>profile qtof
#smiles_iso CCCC1COC(O1)(CN2C=NC=N2)C3=C(C=C(C=C3)Cl)Cl
#smiles_can CCCC1COC(O1)(CN2C=NC=N2)C3=C(C=C(C=C3)Cl)Cl
#inchikey STJLVHWMYQXCPB-UHFFFAOYSA-N
#pubchem_id 43234
#mb_accession AU257601,AU257602,AU257603,AU257604,AU257605,AU257606

>ms2peaks
342.077400 658776.000000
343.080400 75432.000000
344.074300 343844.000000

>ms2peaks
158.975100 84172.000000
159.978000 6436.000000
160.971800 48876.000000
161.975200 2276.000000
172.954400 1360.000000
172.991200 1848.000000
174.988700 1660.000000
186.969800 13380.000000
187.974400 1280.000000
188.966900 7160.000000
190.964200 1580.000000
204.980600 19944.000000
205.984000 1584.000000
206.978200 11380.000000
215.037200 1160.000000
222.991600 2236.000000
224.988800 1380.000000
256.002700 2264.000000
258.000000 1664.000000
259.027500 6812.000000
260.030500 1180.000000
261.024800 4964.000000
273.044000 6968.000000
275.040900 3964.000000
328.081600 1832.000000
342.076900 211544.000000
343.079700 34032.000000
344.073800 114936.000000

>ms2peaks
122.998200 1724.000000
153.067600 1560.000000
158.975000 242008.000000
159.978000 15836.000000
160.971800 112860.000000
161.975100 5724.000000
172.953900 11756.000000
172.990700 1464.000000
174.951000 6036.000000
186.969700 20344.000000
187.972700 1764.000000
188.967200 13256.000000
190.964800 7820.000000
192.961600 6040.000000
204.980600 7576.000000
206.977300 4924.000000
220.026700 1456.000000
233.034900 2284.000000
256.002200 2404.000000
258.000500 1312.000000
259.027900 8752.000000
261.024700 5624.000000
342.076300 9948.000000
343.081700 1732.000000
344.073100 6084.000000

>ms2peaks
122.998200 4472.000000
124.007000 1324.000000
152.060400 1840.000000
153.067600 1740.000000
158.975200 235160.000000
159.978200 13804.000000
160.971900 108948.000000
161.975100 5936.000000
172.954000 21040.000000
173.958500 1696.000000
174.950900 12080.000000
186.969800 6880.000000
188.967300 3364.000000
190.964600 6660.000000
192.961800 5028.000000
233.034900 1872.000000
251.046500 1464.000000

>ms2peaks
122.998600 13324.000000
124.005900 4100.000000
124.995400 2980.000000
132.959900 2704.000000
152.002000 1240.000000
152.060900 3788.000000
153.067500 1484.000000
158.975300 233560.000000
159.978600 14948.000000
160.972100 107956.000000
161.975200 5336.000000
162.970200 1236.000000
168.056000 1464.000000
172.954300 20212.000000
174.951700 10856.000000
190.965300 2312.000000
233.037600 1384.000000

>ms2peaks
67.053200 1240.000000
69.069200 76516.000000
70.039100 6328.000000
70.072800 4140.000000
87.079900 1024.000000
122.997100 992.000000
153.068600 1400.000000
158.974900 163104.000000
159.978200 13116.000000
160.972100 100288.000000
161.974900 5316.000000
162.969300 1172.000000
172.954100 5792.000000
172.990300 1288.000000
174.951000 3636.000000
186.969700 16568.000000
187.973800 1140.000000
188.966800 10232.000000
189.971400 836.000000
190.964600 3676.000000
192.961800 2736.000000
204.980600 11100.000000
205.984100 888.000000
206.977300 7592.000000
220.025900 1284.000000
222.992300 1124.000000
224.988000 960.000000
233.033900 2016.000000
251.045600 1388.000000
256.002700 3008.000000
258.001100 1532.000000
259.027100 4376.000000
261.024400 2900.000000
273.042800 3180.000000
275.041000 1668.000000
328.081100 2328.000000
342.076400 79036.000000
343.078600 13392.000000
344.073600 53100.000000

