>compound AU31576253
>parentmass 298.126
>ionization [M+H]+
>formula C18H19NOS
>rt 472.520000
>profile qtof
#smiles_iso CNCCC(C1=CC=CS1)OC2=CC=CC3=CC=CC=C32
#smiles_can CNCCC(C1=CC=CS1)OC2=CC=CC3=CC=CC=C32
#inchikey ZEUITGRIYCTCEM-UHFFFAOYSA-N
#pubchem_id 122252
#mb_accession AU273501,AU273502,AU273503,AU273504,AU273505,AU273506

>ms2peaks
124.034600 320.000000
154.067100 43404.000000
155.071100 5440.000000
156.063300 1972.000000
157.068200 320.000000
183.079300 404.000000
188.105700 776.000000
267.081900 1360.000000
268.082800 344.000000
298.125700 43472.000000
299.128800 8812.000000
300.123200 2068.000000

>ms2peaks
123.025200 1688.000000
124.032900 2976.000000
125.036700 380.000000
154.067500 1044.000000
155.073900 3480.000000
156.079300 500.000000
157.063500 1568.000000
183.079100 2744.000000
184.083300 460.000000
239.049700 520.000000
267.082300 1748.000000
298.124500 1640.000000
299.126500 340.000000

>ms2peaks
123.025900 2888.000000
124.033300 4500.000000
125.037200 500.000000
129.067500 720.000000
153.067600 364.000000
154.067100 464.000000
155.075700 1932.000000
157.063600 2548.000000
158.066500 312.000000
165.068200 516.000000
183.079500 2056.000000
184.082200 600.000000
221.039300 452.000000
234.102700 308.000000
239.051500 1036.000000

>ms2peaks
123.025300 4380.000000
124.033100 5816.000000
125.036500 432.000000
127.053300 348.000000
128.060200 672.000000
129.068300 1420.000000
153.067700 444.000000
155.075900 1756.000000
155.083600 1368.000000
156.077800 320.000000
157.063600 1904.000000
165.068800 660.000000
178.075900 808.000000
179.078100 312.000000
183.078400 520.000000
206.069400 360.000000
211.055300 540.000000
221.041000 640.000000
239.052000 572.000000

>ms2peaks
115.053500 352.000000
123.025600 6244.000000
124.032900 3716.000000
125.020800 348.000000
125.037300 488.000000
127.053300 328.000000
128.061600 832.000000
129.068000 1120.000000
145.063000 600.000000
152.060800 812.000000
153.069400 760.000000
154.075300 300.000000
155.082700 820.000000
157.063800 328.000000
165.069500 960.000000
166.075400 332.000000
178.076500 1300.000000
179.081200 368.000000
194.070600 340.000000
215.086500 368.000000
221.042500 624.000000
239.055500 316.000000

>ms2peaks
123.025800 2008.000000
124.033700 5816.000000
125.036500 424.000000
128.060900 336.000000
129.068800 528.000000
145.063400 308.000000
154.069100 524.000000
155.075700 3416.000000
156.079800 468.000000
157.064400 2316.000000
165.068800 404.000000
183.079400 2572.000000
184.082400 520.000000
221.041600 336.000000
234.102100 348.000000
239.053300 1244.000000
267.082700 588.000000
298.125000 648.000000

