>compound AU31499329
>parentmass 212.0837
>ionization [M+H]+
>formula C11H14ClNO
>rt 490.500000
>profile qtof
#smiles_iso CC(C)N(C1=CC=CC=C1)C(=O)CCl
#smiles_can CC(C)N(C1=CC=CC=C1)C(=O)CCl
#inchikey MFOUDYKPLGXPGO-UHFFFAOYSA-N
#pubchem_id 4931
#mb_accession AU362201,AU362202,AU362203,AU362204

>ms2
152.024900 4884.000000
154.022600 1228.000000
170.035500 154560.000000
171.039000 14920.000000
172.033000 41932.000000
173.035800 2548.000000
212.083300 408624.000000
213.086700 40172.000000
214.080200 99508.000000
215.082900 8500.000000

>ms2
134.058900 6528.000000
152.024900 21728.000000
153.028300 2192.000000
154.022200 5788.000000
170.035500 295840.000000
171.039000 29968.000000
172.033000 91876.000000
173.035800 6380.000000
212.083300 14084.000000
213.086700 2056.000000
214.080200 4612.000000

>ms2
117.056200 728.000000
125.015000 1044.000000
127.012100 324.000000
134.058900 6028.000000
137.080500 304.000000
152.024900 16192.000000
153.028300 1984.000000
154.022200 5076.000000
155.026100 568.000000
164.092100 1248.000000
170.035500 55228.000000
171.039000 6884.000000
172.033000 20252.000000
173.035800 1072.000000

>ms2
117.056000 652.000000
125.015500 872.000000
127.012300 592.000000
134.059300 1192.000000
152.024900 4328.000000
153.028300 588.000000
154.022200 1624.000000
164.092100 936.000000
170.035500 3972.000000
171.039000 760.000000
172.033000 1820.000000

