>compound AU31374969
>parentmass 237.2213
>ionization [M+H]+
>formula C16H28O
>rt 832.920000
>profile qtof
#smiles_iso C1CCCCCC(=O)CCCC=CCCCC1
#smiles_can C1CCCCCC(=O)CCCC=CCCCC1
#inchikey ABRIMXGLNHCLIP-UHFFFAOYSA-N
#pubchem_id 162268
#mb_accession AU245701,AU245702,AU245706

>ms2
219.209200 460.000000
235.203400 668.000000
237.220900 7468.000000
238.224300 1880.000000

>ms2
123.114000 304.000000
237.219500 996.000000

>ms2
55.053700 344.000000
219.211500 388.000000
237.220200 576.000000

