>compound AU32946712
>parentmass 358.2377000000001
>ionization [M+H]+
>formula C22H31NO3
>rt 508.520000
>profile qtof
#smiles_iso CCN(CC)CC#CCOC(=O)C(C1CCCCC1)(C2=CC=CC=C2)O
#smiles_can CCN(CC)CC#CCOC(=O)C(C1CCCCC1)(C2=CC=CC=C2)O
#inchikey XIQVNETUBQGFHX-UHFFFAOYSA-N
#pubchem_id 4634
#mb_accession AU251601,AU251602,AU251603,AU251604,AU251605,AU251606

>ms2
358.238600 2504616.000000

>ms2
124.111000 148236.000000
142.121400 150636.000000
171.115300 18876.000000
189.125800 33008.000000
199.110500 13692.000000
258.147700 30684.000000
340.226400 155152.000000
341.229300 35000.000000
358.237800 2492776.000000
359.240500 835364.000000
360.242900 81624.000000

>ms2
117.069200 2148.000000
122.095300 16352.000000
124.111200 106528.000000
125.115400 11328.000000
128.061000 4520.000000
129.068600 30876.000000
130.072300 3240.000000
141.068500 3496.000000
142.121600 419924.000000
143.084300 6788.000000
143.124900 32376.000000
157.063300 6700.000000
171.115800 55076.000000
172.119100 7948.000000
173.058900 8124.000000
181.099500 5812.000000
185.058300 8412.000000
187.074000 8888.000000
189.126500 103044.000000
190.129900 14408.000000
199.110800 33924.000000
200.114200 5764.000000
203.069500 9960.000000
211.097900 3316.000000
212.106200 3052.000000
217.121500 3040.000000
229.108900 4888.000000
258.148400 11936.000000
259.152400 2688.000000
267.137600 7176.000000
340.226700 42336.000000
341.229800 9288.000000
358.237900 288084.000000
359.240700 60044.000000
360.243900 8344.000000

>ms2
115.054100 3160.000000
117.069200 3536.000000
121.064000 1724.000000
122.095500 5036.000000
124.111600 8540.000000
125.117500 1552.000000
127.053200 1476.000000
128.061100 11580.000000
129.069100 44148.000000
130.072700 4792.000000
133.064500 1408.000000
141.069100 4120.000000
142.121800 263732.000000
143.084800 12708.000000
143.125100 24800.000000
144.087700 1700.000000
145.063800 1512.000000
155.059200 3212.000000
155.083500 2588.000000
157.063600 8428.000000
165.068400 2148.000000
166.076500 2624.000000
167.083600 1520.000000
169.101000 1924.000000
171.116100 37076.000000
172.119500 5416.000000
173.059200 4796.000000
179.085700 1536.000000
181.099900 4152.000000
183.103400 2264.000000
184.110500 1968.000000
185.058900 2628.000000
187.075200 1704.000000
189.126600 47040.000000
190.129700 6956.000000
199.110600 16032.000000
200.113700 2228.000000
203.069100 1828.000000
358.238800 2908.000000

>ms2
115.053700 3768.000000
116.056300 596.000000
117.068700 3816.000000
118.073600 616.000000
121.064000 2100.000000
122.096000 1288.000000
124.111900 1008.000000
126.044600 668.000000
127.052500 2040.000000
128.060700 20568.000000
129.068700 51240.000000
130.072400 6268.000000
131.048200 732.000000
131.084100 1080.000000
133.027600 2248.000000
133.062900 656.000000
135.043000 572.000000
139.052100 812.000000
141.068600 5140.000000
142.121500 104812.000000
143.084200 11736.000000
143.124800 10444.000000
144.087000 1844.000000
145.063500 3520.000000
145.099300 668.000000
153.068200 1216.000000
154.075900 936.000000
155.058600 4752.000000
155.083600 1864.000000
156.061300 660.000000
156.092300 1004.000000
157.063700 7028.000000
158.067400 916.000000
165.068800 3176.000000
166.076000 4084.000000
167.081400 1020.000000
169.100300 944.000000
171.079000 764.000000
171.115700 13428.000000
172.118600 1732.000000
173.058300 2360.000000
178.075700 1072.000000
179.083600 1788.000000
181.099100 1740.000000
183.066100 864.000000
183.103500 848.000000
184.108900 1376.000000
185.058200 640.000000
189.126200 7860.000000
190.130900 1220.000000
191.085800 576.000000
199.110300 2612.000000

>ms2
47.012400 3936.000000
53.038100 3596.000000
54.033300 82388.000000
55.053600 26000.000000
56.048800 20968.000000
58.064600 59024.000000
67.053500 10928.000000
68.049000 64648.000000
69.032900 46504.000000
69.069400 14292.000000
70.064600 23608.000000
72.080300 255016.000000
73.087400 18400.000000
77.037800 3560.000000
79.053800 50820.000000
80.049000 15020.000000
81.057100 16456.000000
81.069600 30248.000000
82.064900 91372.000000
83.070100 5288.000000
83.085300 18248.000000
84.080300 12944.000000
86.096100 11328.000000
91.054600 32424.000000
94.065400 52024.000000
95.049400 5352.000000
95.073100 22500.000000
95.085300 4904.000000
96.081100 84672.000000
97.028800 175884.000000
98.032100 8576.000000
105.034400 146528.000000
106.037600 8008.000000
107.050300 36752.000000
107.086300 4900.000000
108.081800 15316.000000
109.089500 21908.000000
122.096300 19596.000000
124.112500 193816.000000
125.116300 17832.000000
129.069500 21700.000000
142.122200 239696.000000
143.084300 5148.000000
143.125100 20776.000000
157.063800 5144.000000
171.116200 32396.000000
172.119700 4204.000000
173.059000 4104.000000
185.058500 3840.000000
187.074800 4564.000000
189.126900 65004.000000
190.129900 8972.000000
199.111500 20472.000000
200.114300 3980.000000
203.069800 5992.000000
229.108800 3620.000000
258.148900 18516.000000
267.137300 7112.000000
340.228200 81640.000000
341.231700 19708.000000
358.238700 695008.000000
359.241800 218804.000000
360.244400 31948.000000

