>compound AU32103567
>parentmass 284.1412
>ionization [M+H]+
>formula C15H22ClNO2
>rt 613.990000
>profile qtof
#smiles_iso CCC1=CC=CC(=C1N(C(C)COC)C(=O)CCl)C
#smiles_can CCC1=CC=CC(=C1N(C(C)COC)C(=O)CCl)C
#inchikey WVQBLGZPHOPPFO-UHFFFAOYSA-N
#pubchem_id 4169
#mb_accession AU355601,AU355602,AU355603,AU355604,AU355605,AU355606

>ms2peaks
176.142600 5128.000000
212.082600 3416.000000
252.115100 794592.000000
253.118100 97892.000000
254.112200 175316.000000
284.141500 857092.000000
286.139200 146264.000000
287.141900 14144.000000

>ms2peaks
176.142700 121880.000000
177.145600 12572.000000
212.082600 15600.000000
252.115100 1495324.000000
253.118100 166220.000000
254.112200 313940.000000
255.114700 24276.000000

>ms2peaks
119.072400 3852.000000
119.085000 2880.000000
130.064300 2732.000000
132.079800 5808.000000
134.095400 41068.000000
135.098800 4136.000000
143.071900 3916.000000
160.110900 25560.000000
162.090100 5648.000000
176.142800 540920.000000
177.145800 54728.000000
184.051700 18408.000000
194.072100 12788.000000
212.082900 18656.000000
252.114800 458556.000000
253.117700 52424.000000
254.112000 101468.000000

>ms2peaks
115.053200 3504.000000
117.056200 2192.000000
117.068900 4744.000000
118.064400 6656.000000
119.071900 11148.000000
119.084400 5384.000000
120.080100 8748.000000
129.068500 1052.000000
130.064200 9604.000000
131.071400 10896.000000
131.084300 2796.000000
132.079700 19444.000000
133.087500 40696.000000
134.095400 78292.000000
135.079300 1932.000000
135.099100 6960.000000
136.110600 2184.000000
143.072000 10708.000000
144.079700 16884.000000
145.087200 15784.000000
146.058800 2580.000000
146.095400 39400.000000
147.066900 1992.000000
147.101600 8696.000000
148.074200 3184.000000
148.110700 10036.000000
149.113900 1072.000000
158.095400 21328.000000
159.102800 13340.000000
160.110900 34568.000000
161.116100 5388.000000
162.090100 7488.000000
166.040100 1912.000000
174.091100 1156.000000
174.126500 3876.000000
175.132600 1244.000000
176.142600 205444.000000
177.145700 19752.000000
178.148400 1476.000000
182.034600 1112.000000
184.051200 21380.000000
185.055100 1716.000000
186.048400 5612.000000
188.105500 2736.000000
194.072000 5120.000000
196.051300 1108.000000
196.069200 1320.000000
202.122100 2104.000000
212.083000 6004.000000
214.080300 1556.000000
252.114600 27668.000000
253.116800 4664.000000
254.111800 8688.000000
255.114500 1096.000000

>ms2peaks
115.053700 8312.000000
116.060500 1164.000000
117.056800 5088.000000
117.069000 6464.000000
118.064600 10924.000000
119.084500 3600.000000
120.079800 9580.000000
121.063500 328.000000
121.083900 1152.000000
128.048800 524.000000
128.061500 1208.000000
129.068800 1936.000000
134.095300 40808.000000
135.079200 888.000000
135.098700 3944.000000
136.111300 1324.000000
139.030000 356.000000
141.027000 372.000000
141.068300 744.000000
142.063800 1384.000000
142.075000 404.000000
146.059000 3520.000000
146.095300 32752.000000
147.066600 2764.000000
148.074400 1840.000000
149.113500 496.000000
155.060900 432.000000
156.079900 1108.000000
157.087100 1584.000000
160.074400 1404.000000
160.110700 20892.000000
161.082800 464.000000
162.090400 3120.000000
162.124600 772.000000
166.039700 1408.000000
168.038500 512.000000
170.095500 392.000000
172.111100 320.000000
174.090900 672.000000
174.127700 1544.000000
175.132800 316.000000
176.142400 23664.000000
177.146600 3672.000000
178.040600 716.000000
180.038000 456.000000
182.037500 380.000000
184.051800 6820.000000
184.110200 384.000000
185.054600 976.000000
188.106000 1036.000000
194.072200 1184.000000
196.049700 372.000000
202.121200 1424.000000
212.082600 828.000000
252.114800 1008.000000
253.117700 184.000000
254.112000 420.000000

>ms2peaks
73.064400 84460.000000
76.978500 15056.000000
91.053700 7300.000000
119.085800 12080.000000
120.081300 10356.000000
131.073100 5728.000000
132.080800 8884.000000
133.088900 21536.000000
134.096900 63956.000000
135.100800 5596.000000
143.072900 5496.000000
144.080600 8064.000000
145.088600 8644.000000
146.096900 36724.000000
147.102700 6528.000000
148.111900 11252.000000
158.096400 22108.000000
159.103700 9480.000000
160.112200 31852.000000
162.091500 6396.000000
174.127300 6784.000000
176.143700 559204.000000
177.147000 65172.000000
184.052500 26648.000000
186.049800 6700.000000
194.073300 15216.000000
212.084000 34576.000000
214.080400 9200.000000
252.115600 1028108.000000
253.118600 201736.000000
254.112600 349992.000000
255.115400 27008.000000
284.141300 7536.000000

