>compound AU32838332
>parentmass 399.2506
>ionization [M+H]+
>formula C18H39O7P
>rt 722.370000
>profile qtof
#smiles_iso CCCCOCCOP(=O)(OCCOCCCC)OCCOCCCC
#smiles_can CCCCOCCOP(=O)(OCCOCCCC)OCCOCCCC
#inchikey WTLBZVNBAKMVDP-UHFFFAOYSA-N
#pubchem_id 6540
#mb_accession AU246701,AU246702,AU246703,AU246704,AU246705,AU246706

>ms2
199.072300 29052.000000
299.161600 91192.000000
300.164900 16804.000000
399.250300 495240.000000
400.253600 93600.000000
401.255300 13480.000000

>ms2
124.998900 2308.000000
143.009500 10172.000000
169.025100 776.000000
199.072400 123740.000000
200.075700 10068.000000
201.076900 1696.000000
225.087000 3652.000000
243.098300 5304.000000
244.101600 840.000000
255.133900 1056.000000
299.161200 69408.000000
300.164900 12716.000000
301.165800 1360.000000
343.187200 744.000000
399.249200 16960.000000
400.251900 4348.000000

>ms2
124.999100 3884.000000
143.009600 7388.000000
144.012200 404.000000
169.023400 344.000000
199.072000 17288.000000
200.075200 1600.000000
225.087300 572.000000
243.100000 1180.000000
299.160200 1608.000000
300.165100 360.000000

>ms2
124.998600 2156.000000
143.009000 2276.000000
199.072300 648.000000

>ms2
124.998900 884.000000

>ms2
45.033700 8408.000000
55.053500 7588.000000
57.069200 20628.000000
58.072400 1424.000000
59.048400 1176.000000
83.085300 3340.000000
84.090100 332.000000
98.984300 768.000000
101.095900 2968.000000
124.998700 3440.000000
142.122100 596.000000
143.009300 10532.000000
144.012400 444.000000
145.122800 376.000000
187.036600 408.000000
199.072100 50724.000000
200.075300 4508.000000
201.076900 580.000000
225.087500 1080.000000
226.092800 344.000000
243.098700 1920.000000
255.133500 396.000000
299.160300 11944.000000
300.164600 2476.000000
301.166900 612.000000
399.249600 1764.000000
400.256000 324.000000

