>compound AU32479405
>parentmass 280.15430000000003
>ionization [M+H]+
>formula C15H21NO4
>rt 449.372727
>profile qtof
#smiles_iso CCC1=CC=CC(=C1N(C(C)COC)C(=O)C(=O)O)C
#smiles_can CCC1=CC=CC(=C1N(C(C)COC)C(=O)C(=O)O)C
#inchikey LNOOSYCKMKZOJB-UHFFFAOYSA-N
#pubchem_id 15842092
#mb_accession AU205801,AU205802,AU205803,AU205804,AU205805,AU254501,AU254502,AU254503,AU254504,AU254505,AU254506

>ms2
149.023300 1488.000000
205.087000 612.000000
208.098200 372.000000
234.147500 1008.000000
248.127900 43596.000000
249.131000 7628.000000
250.135700 748.000000
280.154100 19032.000000
281.158400 3704.000000

>ms2
118.063900 300.000000
131.071000 600.000000
134.094800 436.000000
144.079800 776.000000
146.095000 2956.000000
147.098500 388.000000
148.110600 1680.000000
149.022200 2392.000000
150.025700 328.000000
160.110500 676.000000
162.090200 1532.000000
174.127100 772.000000
176.141400 1880.000000
177.145800 308.000000
202.122900 760.000000
204.138100 456.000000
208.097100 456.000000
220.132900 872.000000
248.127900 56024.000000
249.131000 8272.000000
250.135700 712.000000
279.093600 688.000000

>ms2
118.063700 624.000000
119.072600 560.000000
119.084300 664.000000
120.079900 376.000000
130.064600 900.000000
131.071900 3096.000000
132.079200 1828.000000
133.088300 896.000000
134.059100 624.000000
134.095900 2920.000000
144.079400 2832.000000
145.086400 1220.000000
146.096000 6600.000000
147.101100 1164.000000
148.111500 5764.000000
149.021800 2296.000000
149.115000 664.000000
159.103600 412.000000
160.074400 888.000000
160.111100 1708.000000
162.090200 1976.000000
163.094200 464.000000
174.127200 996.000000
176.142300 3948.000000
177.146200 688.000000
202.122300 1140.000000
204.139600 508.000000
220.132600 1188.000000
248.127600 11360.000000
249.131000 1584.000000
250.135700 344.000000
279.094500 352.000000

>ms2
115.054000 512.000000
117.056900 568.000000
117.069000 708.000000
118.063900 1264.000000
119.072300 1064.000000
119.084400 680.000000
120.079700 408.000000
121.027000 544.000000
129.067100 444.000000
130.063900 2424.000000
131.071900 4816.000000
132.078400 3420.000000
133.087900 1680.000000
134.057500 452.000000
134.095900 2672.000000
144.079200 3988.000000
145.086400 1044.000000
146.059600 400.000000
146.094900 4000.000000
147.099300 608.000000
148.110700 2816.000000
149.022100 2484.000000
159.102500 516.000000
160.073900 320.000000
160.110400 1540.000000
161.115500 380.000000
162.089300 724.000000
174.127300 432.000000
176.142400 1300.000000
202.121700 368.000000
219.054900 388.000000
248.127000 556.000000

>ms2
115.053500 344.000000
117.056100 692.000000
117.069600 616.000000
118.064500 928.000000
119.072100 1084.000000
120.080800 396.000000
130.064000 4092.000000
131.071700 3044.000000
132.080100 1980.000000
133.087600 724.000000
134.095600 832.000000
143.070900 476.000000
144.080100 2780.000000
145.086600 664.000000
146.095300 1384.000000
148.110600 668.000000
149.022300 496.000000
158.094800 372.000000
160.112200 644.000000

>ms2
134.095800 376.000000
149.021500 796.000000
205.084100 316.000000
208.097600 672.000000
210.074600 324.000000
212.067100 452.000000
234.148300 1528.000000
235.155300 304.000000
236.162600 348.000000
248.128000 50988.000000
249.131400 8544.000000
280.154400 21448.000000
281.157200 3908.000000

>ms2
131.071100 340.000000
132.080300 356.000000
134.095300 1300.000000
144.080000 688.000000
146.095000 2692.000000
147.098200 404.000000
148.110900 1492.000000
149.022000 920.000000
160.074300 512.000000
160.110800 640.000000
162.089300 1784.000000
174.126600 996.000000
176.142500 2220.000000
177.147000 368.000000
202.122100 1528.000000
204.139500 496.000000
206.155800 436.000000
208.095600 464.000000
220.132900 852.000000
248.127500 58188.000000
249.130700 9264.000000
280.152000 320.000000

>ms2
117.054700 336.000000
117.070700 436.000000
118.064200 368.000000
119.071600 340.000000
119.085300 460.000000
120.077700 316.000000
129.069500 388.000000
130.063700 1184.000000
131.071900 3364.000000
132.079500 2396.000000
133.086700 1256.000000
134.060100 652.000000
134.095100 4412.000000
135.099200 488.000000
144.079700 3320.000000
145.085900 1020.000000
146.095200 8092.000000
147.099700 1308.000000
148.110900 6840.000000
149.021600 564.000000
149.114200 828.000000
159.102200 828.000000
160.072700 1132.000000
160.111300 1760.000000
161.116300 472.000000
162.089900 2632.000000
163.093800 332.000000
174.091000 380.000000
174.127400 1600.000000
176.142700 4072.000000
177.145100 584.000000
184.111000 364.000000
202.122300 1040.000000
204.136200 456.000000
219.057100 416.000000
220.131800 1440.000000
248.127400 14200.000000
249.130800 2392.000000
250.133100 316.000000

>ms2
115.053200 640.000000
117.056900 552.000000
117.069400 676.000000
118.063800 1280.000000
119.071000 752.000000
119.084000 484.000000
120.081900 456.000000
128.059700 460.000000
129.068300 332.000000
130.064100 2928.000000
131.071700 6108.000000
132.078800 2472.000000
133.086500 1776.000000
134.094200 3480.000000
142.064900 436.000000
144.078900 3812.000000
145.085200 1484.000000
146.094700 4696.000000
147.098600 836.000000
148.110500 3100.000000
149.021600 596.000000
149.113500 404.000000
155.059400 300.000000
158.096800 448.000000
159.100600 684.000000
160.074300 416.000000
160.111300 1936.000000
161.114800 312.000000
162.090700 1324.000000
174.089000 352.000000
174.125400 484.000000
176.141700 1256.000000
177.143500 336.000000
202.120900 520.000000
219.055500 332.000000
248.125700 740.000000

>ms2
115.053300 784.000000
117.056000 576.000000
117.068600 500.000000
118.064900 1224.000000
119.072000 940.000000
119.085200 328.000000
120.080300 480.000000
128.061500 456.000000
130.064000 4860.000000
131.071300 4408.000000
132.079700 2500.000000
133.086100 1152.000000
134.095200 1356.000000
135.100000 308.000000
142.064000 428.000000
143.070800 436.000000
144.078800 3420.000000
145.084800 896.000000
146.094600 1944.000000
147.098600 388.000000
148.111800 748.000000
158.092500 444.000000
160.112500 812.000000

>ms2
134.095500 1664.000000
144.080200 332.000000
146.095100 968.000000
148.110100 736.000000
149.023300 472.000000
162.092900 380.000000
174.125800 360.000000
176.142500 636.000000
202.125000 320.000000
248.128900 5744.000000
249.131100 656.000000

