>compound AU32424099
>parentmass 226.0874
>ionization [M+H]+
>formula C11H12FNO3
>rt 315.000000
>profile qtof
#smiles_iso CC(C)N(C1=CC=C(C=C1)F)C(=O)C(=O)O
#smiles_can CC(C)N(C1=CC=C(C=C1)F)C(=O)C(=O)O
#inchikey FFKNXXCOXIZLJD-UHFFFAOYSA-N
#pubchem_id 16212222
#mb_accession AU205501,AU205502

>ms2peaks
138.033900 1628.000000
165.055100 300.000000
180.080600 1864.000000
184.039700 2156.000000
226.085900 1452.000000

>ms2peaks
138.033800 3280.000000
165.053900 692.000000
184.038400 360.000000

