>compound AU32015941
>parentmass 307.1113
>ionization [M+H]+
>formula C13H12F2N6O
>rt 308.090000
>profile qtof
#smiles_iso C1=CC(=C(C=C1F)F)C(CN2C=NC=N2)(CN3C=NC=N3)O
#smiles_can C1=CC(=C(C=C1F)F)C(CN2C=NC=N2)(CN3C=NC=N3)O
#inchikey RFHAOTPXVQNOHP-UHFFFAOYSA-N
#pubchem_id 3365
#mb_accession AU235201,AU235202,AU235203,AU235204,AU235205,AU235206

>ms2peaks
220.067100 37832.000000
221.070700 5316.000000
238.078200 64104.000000
239.081200 7496.000000
289.099500 11052.000000
307.111400 591748.000000
308.113800 82208.000000
309.115700 5992.000000

>ms2peaks
127.034600 5360.000000
139.033700 4068.000000
141.050200 6408.000000
151.034300 4312.000000
169.045000 69232.000000
170.048600 7708.000000
187.055900 5100.000000
200.060600 2468.000000
220.067500 282564.000000
221.070400 34908.000000
222.074400 1936.000000
238.078600 329216.000000
239.081300 40264.000000
240.083400 2560.000000
289.099900 13996.000000
290.102700 2312.000000
307.111400 78600.000000
308.114100 12964.000000

>ms2peaks
121.044000 8408.000000
122.047400 868.000000
127.034600 29332.000000
128.037800 2848.000000
139.034300 27984.000000
140.037700 2260.000000
141.013600 6488.000000
141.049900 26044.000000
142.017100 772.000000
142.053800 2264.000000
147.034500 1096.000000
149.039300 1368.000000
151.034400 27992.000000
152.037800 3192.000000
164.042900 1088.000000
166.046000 3684.000000
167.048800 936.000000
169.045000 117692.000000
170.047900 12588.000000
170.070000 724.000000
171.051900 776.000000
173.050500 5688.000000
174.054200 832.000000
177.044900 2252.000000
178.044700 796.000000
187.055400 5132.000000
193.056200 4136.000000
200.061100 11512.000000
201.063700 1300.000000
208.066800 840.000000
220.067400 134668.000000
221.070900 18636.000000
222.072300 940.000000
238.078400 79108.000000
239.081100 11056.000000
240.083200 712.000000
307.111800 1004.000000

>ms2peaks
119.028600 1952.000000
121.043900 27916.000000
122.047300 2296.000000
125.018800 432.000000
127.034300 62520.000000
128.037700 5040.000000
137.038100 768.000000
139.034300 76248.000000
140.037300 8412.000000
141.013400 10528.000000
141.049800 35604.000000
142.017800 752.000000
142.053100 3056.000000
145.042500 644.000000
146.038600 1212.000000
147.034000 6184.000000
148.037800 616.000000
149.038700 2244.000000
150.041200 416.000000
151.034200 70044.000000
152.037300 6736.000000
153.039400 1564.000000
154.039700 428.000000
156.060800 572.000000
163.053800 768.000000
164.042200 1876.000000
165.050100 712.000000
166.044800 8808.000000
167.048300 2176.000000
168.059700 644.000000
169.044700 70820.000000
170.048300 7780.000000
170.069200 680.000000
171.049000 720.000000
172.055000 816.000000
173.049300 11440.000000
174.052600 1816.000000
176.030100 668.000000
177.045000 2972.000000
178.045100 1852.000000
187.055400 1196.000000
188.061400 644.000000
193.056100 4356.000000
194.057400 596.000000
200.060500 12576.000000
201.064400 1992.000000
208.067500 604.000000
219.060500 1640.000000
220.067400 36420.000000
221.071000 5344.000000
224.060700 384.000000
238.078100 9920.000000
239.080900 1488.000000

>ms2peaks
115.034600 556.000000
119.028800 4652.000000
120.033800 748.000000
121.044000 23180.000000
122.047500 3364.000000
125.018400 988.000000
125.037300 460.000000
126.032200 420.000000
127.034400 61096.000000
128.037700 4928.000000
131.028600 884.000000
136.054400 468.000000
137.038800 1392.000000
139.034300 64376.000000
140.037300 6920.000000
141.013300 10964.000000
141.049900 19828.000000
142.017300 1136.000000
142.053000 2340.000000
145.042900 708.000000
146.038900 2596.000000
147.034100 15444.000000
148.037400 2368.000000
149.037800 1608.000000
151.034100 71424.000000
152.036800 8696.000000
153.040800 1960.000000
154.019600 720.000000
154.039400 1208.000000
158.038300 516.000000
164.042300 2076.000000
165.047600 412.000000
166.044600 4884.000000
167.031100 572.000000
167.047900 732.000000
168.036700 724.000000
169.044600 13896.000000
170.047100 1232.000000
171.050700 532.000000
172.055800 428.000000
173.049500 7336.000000
174.051100 1032.000000
176.030400 1132.000000
177.041300 1236.000000
178.045100 660.000000
191.042400 396.000000
193.055800 1904.000000
200.060700 3652.000000
219.060900 624.000000
220.067200 3880.000000
221.073200 584.000000
238.080400 1028.000000

>ms2peaks
70.039800 21560.000000
121.044800 6780.000000
127.035200 20204.000000
128.038500 1856.000000
139.035000 21504.000000
140.038200 2240.000000
141.013800 3444.000000
141.050500 16656.000000
142.053500 1544.000000
151.035100 20760.000000
152.038300 1864.000000
164.041100 848.000000
166.045300 2912.000000
169.045400 91976.000000
170.048900 8764.000000
173.050200 3656.000000
177.044300 1728.000000
187.056500 7300.000000
188.060600 1028.000000
193.057900 2388.000000
200.061300 7780.000000
201.065900 1104.000000
220.068000 154152.000000
221.071200 23452.000000
222.074300 1288.000000
238.079000 143100.000000
239.082200 18996.000000
240.085500 1260.000000
289.102100 4404.000000
307.112500 15952.000000
308.113900 3008.000000

