>compound AU32308413
>parentmass 136.0757
>ionization [M+H]+
>formula C8H9NO
>rt 265.815000
>profile qtof
#smiles_iso CC(=O)C1=CC(=CC=C1)N
#smiles_can CC(=O)C1=CC(=CC=C1)N
#inchikey CKQHAYFOPRIUOM-UHFFFAOYSA-N
#pubchem_id 7417
#mb_accession AU243901,AU243902,AU243903,AU243906

>ms2peaks
136.074500 84908.000000
137.077800 7820.000000

>ms2peaks
119.047700 1180.000000
136.074600 10964.000000
137.078000 1088.000000

>ms2peaks
136.075800 596.000000

>ms2peaks
53.037700 376.000000
65.037700 904.000000
91.054300 2744.000000
94.064700 5048.000000
95.069300 384.000000
119.048000 1764.000000
136.074900 40444.000000
137.078200 3072.000000

