>compound AU32035026
>parentmass 314.0935
>ionization [M+H]+
>formula C16H12FN3O3
>rt 456.000000
>profile qtof
#smiles_iso CN1C(=O)CN=C(C2=C1C=CC(=C2)[N+](=O)[O-])C3=CC=CC=C3F
#smiles_can CN1C(=O)CN=C(C2=C1C=CC(=C2)[N+](=O)[O-])C3=CC=CC=C3F
#inchikey PPTYJKAXVCCBDU-UHFFFAOYSA-N
#pubchem_id 3380
#mb_accession AU159502,AU159503,AU159504,AU159505

>ms2peaks
268.099800 16228.000000
269.103100 2720.000000
286.098800 4560.000000
314.093600 479668.000000
315.096400 68076.000000
316.098700 5836.000000

>ms2peaks
119.073400 940.000000
123.022900 1016.000000
147.066300 1724.000000
165.064800 4632.000000
172.061400 968.000000
183.060000 1164.000000
190.061000 1004.000000
191.043900 1536.000000
193.059800 2576.000000
197.062100 2348.000000
198.070200 1504.000000
199.076900 1516.000000
205.075700 1392.000000
210.069800 3620.000000
212.084200 3536.000000
213.084200 1128.000000
214.064300 1088.000000
219.091400 1460.000000
221.106300 2036.000000
222.071000 768.000000
225.081900 1844.000000
227.074500 988.000000
227.096700 3044.000000
228.079900 2436.000000
228.104400 2372.000000
238.088100 736.000000
240.068100 4348.000000
240.104200 14604.000000
241.076100 980.000000
241.108600 1944.000000
243.067700 796.000000
256.099600 3440.000000
257.071100 4860.000000
258.076100 1084.000000
267.092400 4756.000000
268.100400 145280.000000
269.103200 21840.000000
270.067000 1248.000000
270.105700 2564.000000
271.084900 796.000000
272.094900 2828.000000
273.097600 748.000000
283.086300 2484.000000
284.085500 1092.000000
285.090800 756.000000
286.098200 13880.000000
287.099600 2712.000000
300.090300 63288.000000
301.093000 9904.000000
302.093700 1088.000000
314.093600 143960.000000
315.096500 23304.000000
316.098700 2360.000000

>ms2peaks
117.057900 524.000000
118.064000 2580.000000
119.072200 3768.000000
123.023300 996.000000
131.061100 508.000000
132.043800 460.000000
134.038900 928.000000
143.058900 1860.000000
144.066800 744.000000
145.051700 904.000000
145.073700 976.000000
147.066700 2984.000000
148.070400 492.000000
164.062400 712.000000
165.066200 2364.000000
166.076200 596.000000
170.051200 3652.000000
171.056100 840.000000
172.059700 640.000000
174.056600 576.000000
179.057100 740.000000
179.070000 432.000000
182.051600 588.000000
183.059300 8296.000000
184.065400 2012.000000
185.067900 832.000000
186.072300 420.000000
190.063400 992.000000
191.045700 532.000000
191.070700 828.000000
192.079700 1208.000000
193.086500 1136.000000
196.057400 508.000000
198.069800 8772.000000
199.055800 484.000000
199.076300 2172.000000
200.084900 880.000000
204.079400 628.000000
205.074700 6940.000000
206.079900 1176.000000
208.054200 616.000000
209.061600 760.000000
209.106700 464.000000
212.084900 16144.000000
214.065300 820.000000
214.086900 720.000000
219.090900 5364.000000
220.096300 2632.000000
221.106400 9328.000000
222.071000 5640.000000
223.073200 2224.000000
224.073900 3316.000000
225.081200 7872.000000
226.086200 1736.000000
227.073100 724.000000
227.097700 4932.000000
228.080500 1864.000000
228.103200 1520.000000
237.081000 1292.000000
238.066000 696.000000
238.087800 2264.000000
240.103300 27140.000000
241.078000 804.000000
241.107300 3472.000000
243.069200 972.000000
249.102500 724.000000
253.075900 512.000000
255.091900 1056.000000
256.065100 480.000000
256.098300 940.000000
257.071200 1292.000000
258.075800 596.000000
267.092900 4228.000000
268.100300 83156.000000
269.103000 14408.000000
270.068400 1304.000000
270.104900 1268.000000
271.086400 508.000000
272.094400 4676.000000
273.096200 820.000000
283.086000 880.000000
286.097800 2284.000000
300.090000 38640.000000
301.092900 6680.000000
302.096800 716.000000
314.092900 6400.000000

>ms2peaks
116.048200 720.000000
117.057500 1388.000000
118.064200 5228.000000
119.072000 3772.000000
120.075700 524.000000
122.040400 644.000000
123.023900 676.000000
129.043000 548.000000
132.043300 908.000000
134.040000 924.000000
135.045300 416.000000
143.059600 3084.000000
144.066000 1620.000000
145.051800 648.000000
145.073900 1068.000000
146.055500 416.000000
147.067400 1476.000000
148.054900 576.000000
151.053000 716.000000
152.060300 424.000000
159.059800 408.000000
163.052100 656.000000
164.061500 1396.000000
165.068500 7184.000000
166.073700 1792.000000
167.072800 624.000000
168.055600 484.000000
169.063000 616.000000
171.056600 3456.000000
172.055900 612.000000
173.064800 408.000000
174.058700 1512.000000
175.064300 436.000000
177.055500 728.000000
178.064100 1564.000000
179.057900 808.000000
179.072900 960.000000
180.078900 1448.000000
181.085100 508.000000
182.051400 1604.000000
183.059300 29312.000000
184.064800 5232.000000
185.063600 2024.000000
185.072500 1760.000000
186.070600 1096.000000
190.064100 3800.000000
191.070600 3004.000000
192.079700 5104.000000
193.086000 2228.000000
194.096000 924.000000
195.059700 924.000000
196.054900 1872.000000
196.065200 1384.000000
198.070100 24328.000000
199.054500 1044.000000
199.074900 3884.000000
200.084000 780.000000
202.063700 1528.000000
203.069500 540.000000
204.065100 500.000000
204.080000 1416.000000
205.075400 13376.000000
206.081400 2804.000000
207.085500 748.000000
208.055100 2976.000000
209.062000 1664.000000
209.107900 400.000000
212.085400 25108.000000
214.041600 420.000000
214.066900 772.000000
214.090200 824.000000
218.082500 1264.000000
220.074600 588.000000
220.096200 3164.000000
221.106800 10360.000000
225.081200 11024.000000
226.064300 492.000000
226.084800 1816.000000
227.096900 4752.000000
228.080700 636.000000
228.101800 1004.000000
237.081500 3880.000000
238.066300 704.000000
238.088700 4336.000000
239.097400 78604.000000
240.101600 16724.000000
241.106900 2080.000000
243.068200 632.000000
253.076600 612.000000
255.090300 588.000000
256.062600 1132.000000
267.092000 2236.000000
268.099700 12052.000000
269.103000 2260.000000
270.075300 612.000000
272.095200 1576.000000
300.090400 5640.000000
301.095200 988.000000

