>compound AU32876123
>parentmass 214.0896
>ionization [M+H]+
>formula C10H15NO2S
>rt 463.980000
>profile qtof
#smiles_iso CCCCNS(=O)(=O)C1=CC=CC=C1
#smiles_can CCCCNS(=O)(=O)C1=CC=CC=C1
#inchikey IPRJXAGUEGOFGG-UHFFFAOYSA-N
#pubchem_id 19241
#mb_accession AU229901,AU229902

>ms2
140.999600 25468.000000
142.003100 2304.000000
142.995000 944.000000
158.026200 54656.000000
159.029700 3852.000000
160.022200 1948.000000
214.089500 31240.000000
215.092100 3940.000000
216.086600 1576.000000

>ms2
140.999400 17948.000000
142.003300 1764.000000
142.994600 756.000000
158.026500 5880.000000
159.028700 476.000000
160.021900 424.000000
160.034300 324.000000

