>compound AU32052521
>parentmass 360.1718
>ionization [M+H]+
>formula C19H22FN3O3
>rt 271.980000
>profile qtof
#smiles_iso CCN1CCN(CC1)C2=C(C=C3C(=C2)N(C=C(C3=O)C(=O)O)C4CC4)F
#smiles_can CCN1CCN(CC1)C2=C(C=C3C(=C2)N(C=C(C3=O)C(=O)O)C4CC4)F
#inchikey SPFYMRJSYKOXGV-UHFFFAOYSA-N
#pubchem_id 71188
#mb_accession AU102901,AU102902,AU102903

>ms2peaks
316.181900 10340.000000
318.161600 5440.000000
360.172000 859628.000000
361.175000 160340.000000

>ms2peaks
245.107400 18468.000000
261.102200 14620.000000
314.165700 4504.000000
316.181600 295640.000000
317.184600 53372.000000
318.160600 117336.000000
319.163700 17572.000000
342.160600 72636.000000
343.163700 15604.000000
360.171500 819216.000000
361.174300 152452.000000

>ms2peaks
203.060800 9336.000000
204.068400 16284.000000
205.075500 4192.000000
217.075100 2764.000000
221.070800 2732.000000
229.077800 2148.000000
231.092600 13288.000000
233.071700 2944.000000
245.108500 161376.000000
246.111600 23376.000000
247.086400 3700.000000
257.108700 4832.000000
258.065900 2020.000000
261.103100 108184.000000
262.106000 9772.000000
273.138000 2120.000000
285.126300 3488.000000
286.098000 13176.000000
287.101900 2296.000000
288.150400 7156.000000
296.175600 2132.000000
301.122100 3228.000000
314.130400 2680.000000
314.166000 17676.000000
315.169700 4280.000000
316.182300 231956.000000
317.185100 42460.000000
318.161300 88824.000000
319.164500 11556.000000
342.161500 102348.000000
343.164000 20272.000000
344.139300 5476.000000
344.167100 2416.000000
360.172300 392448.000000
361.175500 74648.000000
362.175800 9240.000000

