>compound AU33612990
>parentmass 228.1277
>ionization [M+H]+
>formula C9H17N5S
>rt 548.592000
>profile qtof
#smiles_iso CCNC1=NC(=NC(=N1)SC)NC(C)C
#smiles_can CCNC1=NC(=NC(=N1)SC)NC(C)C
#inchikey RQVYBGPQFYCBGX-UHFFFAOYSA-N
#pubchem_id 13263
#mb_accession AU261301,AU261302,AU261303,AU261305,AU261306

>ms2peaks
186.080000 363516.000000
187.081800 19308.000000
228.128400 2517104.000000

>ms2peaks
116.027300 36912.000000
138.076800 116232.000000
138.102100 92132.000000
144.058500 109560.000000
158.048600 106180.000000
158.073900 19096.000000
180.123600 38748.000000
186.081200 2515232.000000
187.082600 332964.000000
188.076400 156700.000000
228.128600 2512736.000000
230.123900 165272.000000

>ms2peaks
116.027100 97612.000000
138.076600 320408.000000
138.101900 19056.000000
139.079000 15240.000000
144.058100 272828.000000
145.060100 15764.000000
158.048500 284340.000000
159.050200 14260.000000
180.123200 16684.000000
186.080200 2464792.000000
187.082200 163268.000000
188.075800 81180.000000
228.127300 212980.000000
229.129100 27004.000000

>ms2peaks
113.082200 408.000000
116.027100 12688.000000
117.029700 572.000000
125.067000 392.000000
127.005700 356.000000
128.013800 420.000000
128.026900 876.000000
130.044300 412.000000
131.038000 368.000000
132.081100 308.000000
138.076200 9316.000000
140.093000 480.000000
141.020800 364.000000
143.024700 980.000000
144.057500 8128.000000
145.060600 632.000000
146.054700 404.000000
153.024100 424.000000
155.036000 852.000000
156.032000 960.000000
158.048200 9504.000000
160.046200 324.000000
169.051800 320.000000
170.049000 808.000000
171.056100 604.000000
184.065000 552.000000
186.079200 5844.000000
187.082000 1056.000000
212.096500 308.000000

>ms2peaks
55.053700 7548.000000
67.053700 10264.000000
68.023700 3748.000000
69.069300 4292.000000
71.060100 4964.000000
81.069900 6644.000000
83.085300 5552.000000
85.065000 1100.000000
91.032800 2452.000000
95.086200 9680.000000
96.056100 4832.000000
97.101700 1340.000000
109.101800 2824.000000
113.081900 960.000000
116.027500 5276.000000
119.084900 1364.000000
123.116600 2036.000000
137.094500 1108.000000
138.076900 12832.000000
138.101700 5828.000000
144.058500 9260.000000
158.048700 9712.000000
158.072800 1276.000000
180.124500 1984.000000
186.080600 181088.000000
187.082900 12620.000000
188.076300 6024.000000
228.127900 136276.000000
229.130200 17648.000000
230.124200 5824.000000

