>compound AU33476162
>parentmass 271.0415
>ionization [M+H]+
>formula C10H11ClN4OS
>rt 279.600000
>profile qtof
#smiles_iso C1CSC(=NC(=O)N)N1CC2=CN=C(C=C2)Cl
#smiles_can C1CSC(=NC(=O)N)N1CC2=CN=C(C=C2)Cl
#inchikey LEZHOZPJYAQQNU-UHFFFAOYSA-N
#pubchem_id 86222983
#mb_accession AU208001,AU208002,AU208003,AU208004,AU208005

>ms2
126.009500 6396.000000
186.011800 1516.000000
192.059400 976.000000
228.034600 86352.000000
229.037800 7700.000000
230.031500 25132.000000
231.034700 1604.000000
254.014300 146824.000000
255.016300 16040.000000
256.011200 42640.000000
257.013400 2712.000000
271.041300 174388.000000
272.043600 19636.000000
273.038000 54096.000000
274.040600 3316.000000

>ms2
126.009800 173124.000000
127.013100 8184.000000
128.006800 35444.000000
129.010500 2748.000000
132.054700 1592.000000
144.020300 1412.000000
165.047200 1128.000000
168.030800 2820.000000
186.012800 18144.000000
187.016900 1272.000000
188.009400 4924.000000
192.057700 11588.000000
193.061100 1428.000000
211.008200 1204.000000
228.034600 199824.000000
229.037800 17068.000000
230.031500 51480.000000
231.034700 2952.000000
254.014300 68456.000000
255.016300 6664.000000
256.011200 17680.000000
257.013400 1652.000000
271.041300 6308.000000
272.043600 820.000000
273.038000 2056.000000

>ms2
126.009800 242940.000000
127.013100 14176.000000
128.006800 51940.000000
129.010500 3928.000000
132.054500 3656.000000
165.046800 2040.000000
168.030600 3684.000000
186.012800 5368.000000
187.016900 736.000000
188.009400 1940.000000
192.058300 5568.000000
228.034600 20664.000000
229.037800 2348.000000
230.031500 6192.000000
254.014700 2344.000000

>ms2
126.009800 156836.000000
127.013100 11580.000000
128.006800 42888.000000
129.010500 3472.000000
132.054400 2348.000000
144.020200 5640.000000
146.017400 1440.000000
165.046800 972.000000
168.031100 1396.000000
228.035500 944.000000

>ms2
126.009800 82280.000000
127.013100 6152.000000
128.006800 24540.000000
129.010500 1116.000000
132.055100 1264.000000
144.020200 3924.000000
146.017600 972.000000

