>compound AU33972787
>parentmass 158.094
>ionization [M+Na]+
>formula C9H13N
>rt 494.880000
>profile qtof
#smiles_iso CC(CC1=CC=CC=C1)N
#smiles_can CC(CC1=CC=CC=C1)N
#inchikey KWTSXDURSIMDCE-UHFFFAOYSA-N
#pubchem_id 3007
#mb_accession AU154030

>ms2
157.083700 396.000000
158.096200 368.000000

