>compound AU33196865
>parentmass 362.1511
>ionization [M+H]+
>formula C18H20FN3O4
>rt 251.376000
>profile qtof
#smiles_iso CC1COC2=C3N1C=C(C(=O)C3=CC(=C2N4CCN(CC4)C)F)C(=O)O
#smiles_can CC1COC2=C3N1C=C(C(=O)C3=CC(=C2N4CCN(CC4)C)F)C(=O)O
#inchikey GSDSWSVVBLHKDQ-UHFFFAOYSA-N
#pubchem_id 4583
#mb_accession AU103301,AU103302,AU103303,AU103304,AU103305

>ms2
318.160800 36240.000000
362.151100 1436296.000000
363.154300 251440.000000
364.156300 30604.000000

>ms2
261.102400 92116.000000
262.105600 12800.000000
316.144500 11452.000000
318.161100 883832.000000
319.164100 144140.000000
320.167000 14052.000000
344.140300 30460.000000
345.142800 5552.000000
362.150900 986228.000000
363.154100 164292.000000
364.155800 19400.000000

>ms2
205.040400 5316.000000
205.076200 6000.000000
219.056200 10828.000000
221.071400 16656.000000
233.071600 18496.000000
241.096800 7684.000000
247.086900 20588.000000
261.103200 910040.000000
262.106400 116936.000000
263.108600 9552.000000
270.123200 10212.000000
273.102300 8672.000000
298.154400 9696.000000
301.121900 6900.000000
316.109900 5496.000000
316.145200 48704.000000
317.148200 9876.000000
318.161400 721672.000000
319.164400 115264.000000
320.166700 11552.000000
344.140400 46476.000000
345.143400 9900.000000
362.151000 145332.000000
363.154300 30344.000000

>ms2
178.028600 8600.000000
179.036500 17000.000000
180.043500 5492.000000
192.045000 6440.000000
193.039900 11832.000000
194.024000 6044.000000
194.046900 5412.000000
194.058800 5128.000000
199.048800 10452.000000
202.065100 6408.000000
203.060400 4500.000000
204.044400 5088.000000
205.039700 30260.000000
205.076400 31280.000000
206.044900 4892.000000
217.039900 5380.000000
218.056100 4732.000000
219.055600 66696.000000
220.062000 16304.000000
221.071200 98944.000000
222.074400 11648.000000
233.071700 26876.000000
234.077700 5368.000000
241.096200 11628.000000
244.077200 4536.000000
245.071700 8872.000000
247.086500 31740.000000
248.090300 5592.000000
253.121300 4972.000000
261.103000 870960.000000
262.106200 111008.000000
263.108500 10216.000000
268.107600 7268.000000
268.143100 4464.000000
270.122700 7776.000000
273.102600 13396.000000
275.118700 5756.000000
298.153500 4540.000000
301.085800 9044.000000
301.121500 15124.000000
316.108500 8712.000000
316.145100 16624.000000
318.160900 54520.000000
319.163200 11628.000000
344.139400 15688.000000
362.151100 41052.000000
363.153500 9096.000000

>ms2
122.038900 9604.000000
132.042700 1632.000000
137.048700 1172.000000
143.060100 1516.000000
144.079600 1392.000000
146.058500 1248.000000
148.054500 2456.000000
149.049800 1716.000000
150.033600 15720.000000
151.040600 5920.000000
152.047600 2040.000000
155.059300 1276.000000
156.067600 1348.000000
157.037800 1828.000000
157.074100 1212.000000
158.022400 7316.000000
160.038100 1472.000000
160.053400 5888.000000
161.052300 1228.000000
162.057600 1492.000000
162.070500 1284.000000
163.040200 2280.000000
163.065100 1440.000000
164.049400 4288.000000
165.044200 5236.000000
166.028600 1160.000000
166.050400 1340.000000
169.075000 1164.000000
170.057100 1228.000000
171.053800 11056.000000
172.058100 2236.000000
172.072500 1496.000000
173.069700 1580.000000
174.056800 1844.000000
174.069400 1156.000000
175.065000 1672.000000
176.034400 1688.000000
176.048900 2560.000000
176.072400 1536.000000
177.046600 2048.000000
177.055600 2040.000000
178.028800 25292.000000
178.051800 1964.000000
179.036300 40016.000000
179.060100 3788.000000
180.043400 12980.000000
181.049400 1336.000000
184.062200 2336.000000
185.033700 1448.000000
185.069600 3060.000000
186.089200 1232.000000
188.049200 14372.000000
189.047200 3340.000000
190.052100 3224.000000
190.064600 2952.000000
191.036400 3380.000000
191.060500 6056.000000
192.044300 15424.000000
193.016300 2316.000000
193.039500 29316.000000
193.076000 1544.000000
194.023900 11968.000000
194.047900 16440.000000
195.027000 1176.000000
195.055000 6168.000000
198.076800 1364.000000
199.049300 18940.000000
199.085300 1680.000000
200.054900 7544.000000
201.064000 7216.000000
202.065000 6288.000000
203.036500 5008.000000
203.060100 11048.000000
204.043300 15520.000000
204.066700 4428.000000
205.040100 66584.000000
205.076400 36116.000000
206.044700 12276.000000
206.078500 4336.000000
207.055300 8148.000000
208.058000 1256.000000
211.084700 1384.000000
213.063400 1792.000000
213.101800 1304.000000
215.060700 3016.000000
216.045200 1960.000000
216.068000 1900.000000
217.039800 6508.000000
217.075000 3228.000000
218.048300 9380.000000
218.085200 1648.000000
219.055500 92984.000000
220.060900 19880.000000
221.071200 140628.000000
222.074400 16584.000000
223.080200 1392.000000
225.066500 1680.000000
225.090500 1696.000000
225.096400 1976.000000
226.069100 2032.000000
226.096200 1608.000000
227.068100 1812.000000
228.070800 1676.000000
229.075500 2056.000000
231.018900 1952.000000
231.055300 8436.000000
231.090800 2972.000000
232.064800 4068.000000
233.071100 12356.000000
233.104100 1244.000000
234.080800 7940.000000
235.085600 3080.000000
238.097500 1616.000000
240.076100 1744.000000
240.113200 1324.000000
241.096200 6728.000000
242.098900 1812.000000
243.092500 2300.000000
244.075800 2696.000000
245.071800 12912.000000
245.102400 1348.000000
246.078200 4396.000000
247.087100 22436.000000
248.089300 3164.000000
249.030300 1572.000000
253.084500 1356.000000
253.120400 8232.000000
254.092300 1612.000000
254.120400 1560.000000
255.100400 2884.000000
256.104600 1128.000000
258.066300 1596.000000
259.086300 1816.000000
261.102800 224468.000000
262.105900 31084.000000
263.108200 3024.000000
268.072800 1508.000000
268.107700 4312.000000
268.142600 2812.000000
269.111900 1220.000000
270.123200 1556.000000
272.044200 1424.000000
273.101900 3784.000000
275.117500 1792.000000
286.059900 3196.000000
286.098800 2232.000000
286.116200 3576.000000
287.070500 1432.000000
296.102000 1724.000000
296.139300 1656.000000
301.084900 7124.000000
301.121400 7800.000000
302.123700 2000.000000
314.112200 1212.000000
316.107900 2168.000000
316.145600 1220.000000
318.161200 2104.000000
344.142300 1700.000000
362.151900 5244.000000
363.154500 1692.000000

