>compound AU33304708
>parentmass 322.1438
>ionization [M+H]+
>formula C20H19NO3
>rt 756.948000
>profile qtof
#smiles_iso CC(COC1=CC=C(C=C1)OC2=CC=CC=C2)OC3=CC=CC=N3
#smiles_can CC(COC1=CC=C(C=C1)OC2=CC=CC=C2)OC3=CC=CC=N3
#inchikey NHDHVHZZCFYRSB-UHFFFAOYSA-N
#pubchem_id 91753
#mb_accession AU263301,AU263302,AU263303,AU263305,AU263306

>ms2peaks
134.071500 13612.000000
136.074900 23472.000000
185.059000 40916.000000
227.106700 686860.000000
228.109800 80740.000000
322.145500 2515356.000000

>ms2peaks
119.048600 39852.000000
129.068900 26284.000000
133.063900 82532.000000
134.071800 331472.000000
135.075000 27024.000000
136.074700 62292.000000
157.063500 10580.000000
170.071400 13804.000000
171.078800 12404.000000
181.063800 12460.000000
181.099700 7900.000000
185.058900 825752.000000
186.062600 108500.000000
187.066600 8048.000000
194.071100 8096.000000
198.066400 8968.000000
199.074400 95564.000000
199.111000 29560.000000
200.077500 13540.000000
209.095400 37588.000000
212.082100 7880.000000
227.106300 1506460.000000
228.109600 193348.000000
229.112200 14460.000000
322.143800 78852.000000
323.146600 19528.000000

>ms2peaks
115.053400 12096.000000
119.048700 159788.000000
120.051400 12956.000000
128.061100 35376.000000
129.069100 242300.000000
130.072400 22648.000000
133.063900 88324.000000
134.071800 416364.000000
135.074900 32828.000000
136.074600 27948.000000
141.068800 52720.000000
142.073400 7468.000000
143.084200 8112.000000
153.068800 11152.000000
157.063600 66616.000000
158.068000 9992.000000
166.076300 9428.000000
169.063400 8752.000000
170.071100 31580.000000
171.078600 27504.000000
181.063300 18756.000000
181.100100 7200.000000
185.058900 1395772.000000
186.062700 186208.000000
187.066700 13860.000000
194.071400 17248.000000
198.066500 12596.000000
199.074300 90728.000000
199.110600 16364.000000
200.077500 12664.000000
209.095100 19420.000000
212.081700 7856.000000
227.105900 121328.000000
228.109000 18840.000000

>ms2peaks
115.053800 86744.000000
116.057400 11048.000000
117.069300 3472.000000
119.048500 86824.000000
120.051400 8596.000000
126.045300 3212.000000
127.053300 18908.000000
128.061300 227824.000000
129.068900 282780.000000
130.072300 29184.000000
131.048200 5416.000000
131.076100 1716.000000
133.063700 42764.000000
134.071000 25604.000000
135.075500 2208.000000
136.074900 2956.000000
139.052900 6240.000000
140.059700 2492.000000
141.068800 142032.000000
142.073400 19620.000000
143.083700 4124.000000
145.063400 23200.000000
146.066900 2996.000000
152.060900 12128.000000
153.068200 14480.000000
154.072700 1572.000000
155.059300 43220.000000
156.061500 5188.000000
157.063500 51436.000000
158.068100 8568.000000
165.068200 15028.000000
166.075600 6152.000000
168.055800 11400.000000
169.063300 14580.000000
170.071000 11696.000000
171.078000 4940.000000
179.084600 1684.000000
181.063600 11056.000000
182.068900 1900.000000
183.079600 2236.000000
184.050100 5004.000000
185.058600 82288.000000
186.063600 17012.000000
189.068800 2296.000000
190.076000 1696.000000
194.071100 7292.000000
195.076000 1584.000000
197.058500 6956.000000
198.064500 2404.000000
199.073900 4804.000000

>ms2peaks
77.037800 12084.000000
78.033300 26572.000000
91.054400 21028.000000
95.049200 15396.000000
96.045600 1176624.000000
105.070500 56884.000000
106.075000 6272.000000
107.049400 10444.000000
115.054000 11196.000000
119.049300 198372.000000
120.052400 14680.000000
128.061300 19524.000000
129.069400 171864.000000
130.072700 16116.000000
133.064500 74960.000000
134.072400 328224.000000
135.075400 26996.000000
136.075500 34384.000000
141.069200 37692.000000
153.068400 6580.000000
157.063900 40948.000000
170.071500 18664.000000
171.078800 17068.000000
181.063600 12540.000000
185.059000 828952.000000
186.062800 122536.000000
187.068300 8260.000000
194.071600 10908.000000
198.066200 8088.000000
199.074300 72280.000000
199.111200 15812.000000
200.077500 9696.000000
209.095200 20604.000000
212.082000 5956.000000
227.106200 385136.000000
228.109500 71728.000000
322.143700 13428.000000

