>compound AU34074932
>parentmass 230.0246
>ionization [M+H]+
>formula C9H9Cl2N3
>rt 221.280000
>profile qtof
#smiles_iso C1CN=C(N1)NC2=C(C=CC=C2Cl)Cl
#smiles_can C1CN=C(N1)NC2=C(C=CC=C2Cl)Cl
#inchikey GJSURZIOUXUGAL-UHFFFAOYSA-N
#pubchem_id 2803
#mb_accession AU272001,AU272002,AU272003,AU272004,AU272005,AU272006

>ms2peaks
230.024600 2478600.000000
231.026700 316688.000000
232.021100 2165896.000000

>ms2peaks
212.997100 33012.000000
214.994200 16764.000000
230.025100 2513528.000000
231.027100 389480.000000
232.021700 2381772.000000

>ms2peaks
151.017300 11936.000000
153.019800 9720.000000
158.070800 6732.000000
159.077900 14460.000000
159.970500 24864.000000
160.085600 15924.000000
161.967300 13080.000000
161.986300 9052.000000
164.000000 7264.000000
171.970400 34736.000000
172.966000 8284.000000
173.967900 19712.000000
184.966000 9476.000000
185.986100 15664.000000
186.981600 54952.000000
187.983500 12716.000000
188.978300 32036.000000
194.047000 35504.000000
195.053700 11628.000000
196.044300 8856.000000
212.997700 166248.000000
214.001100 14592.000000
214.994700 83892.000000
230.024400 1334268.000000
231.027100 109488.000000
232.021500 840264.000000

>ms2peaks
108.982500 408.000000
114.032600 420.000000
115.028500 600.000000
116.037400 588.000000
116.049600 636.000000
117.044400 668.000000
117.056200 916.000000
118.051700 1656.000000
119.059400 1696.000000
120.959800 380.000000
122.998500 920.000000
123.994000 27384.000000
125.000400 4984.000000
125.991000 6884.000000
126.009600 2648.000000
126.997900 1472.000000
127.017200 2028.000000
128.003800 768.000000
129.015500 580.000000
129.043900 760.000000
130.038800 592.000000
130.051900 676.000000
131.059400 9724.000000
132.067100 8256.000000
132.959700 28120.000000
133.062400 3752.000000
133.962800 1260.000000
134.956600 14264.000000
135.960600 776.000000
135.994300 3200.000000
137.000600 1044.000000
137.992200 1088.000000
138.009300 6476.000000
139.004700 2716.000000
140.006800 1404.000000
140.025300 2556.000000
141.001900 868.000000
141.019900 1040.000000
141.044500 404.000000
142.004200 1988.000000
142.022400 824.000000
142.052300 912.000000
144.003100 588.000000
144.055000 672.000000
144.959100 6016.000000
145.966200 1556.000000
146.956000 3584.000000
147.963900 808.000000
149.996700 916.000000
150.009000 1924.000000
151.016800 21372.000000
152.012300 14076.000000
153.019000 15140.000000
154.007300 4880.000000
155.001800 856.000000
155.017300 3148.000000
157.062100 1056.000000
158.070000 15120.000000
158.974600 4400.000000
159.077500 16176.000000
159.970200 68392.000000
160.085400 20676.000000
160.975300 10424.000000
161.088600 1780.000000
161.967300 42692.000000
161.983900 2780.000000
162.972800 7192.000000
163.004500 384.000000
163.982300 1668.000000
163.999500 23928.000000
164.967500 1844.000000
165.002100 2216.000000
165.020700 3536.000000
165.996900 5416.000000
166.016000 4948.000000
166.025400 3388.000000
166.999600 520.000000
167.035400 2632.000000
168.013500 1124.000000
168.029900 1960.000000
169.019000 456.000000
169.033900 976.000000
170.028600 392.000000
170.961700 1876.000000
171.970100 40140.000000
172.965600 32912.000000
173.967500 24512.000000
173.985400 1384.000000
174.962900 18604.000000
175.984300 644.000000
177.021500 896.000000
178.027800 2200.000000
179.010800 576.000000
179.020900 460.000000
180.024200 432.000000
184.965600 17972.000000
185.986000 20248.000000
186.962800 9832.000000
186.981400 48468.000000
187.983600 17868.000000
188.978200 27912.000000
192.030700 524.000000
194.046800 32984.000000
195.052100 5232.000000
196.044300 8744.000000
200.996400 760.000000
202.995000 672.000000
210.981000 1076.000000
212.997100 65504.000000
213.999900 6044.000000
214.994300 35984.000000
228.008000 1204.000000
230.023800 67988.000000
231.026400 7692.000000
232.020600 45620.000000

>ms2peaks
108.983500 1668.000000
110.980100 764.000000
114.010300 468.000000
114.032300 424.000000
115.028500 956.000000
116.036400 900.000000
116.047800 1420.000000
117.044100 1996.000000
117.054800 1096.000000
118.051500 4064.000000
119.059500 3292.000000
122.999000 1592.000000
123.993900 73028.000000
125.001100 20428.000000
125.991100 16524.000000
126.008400 3116.000000
126.997500 4940.000000
127.016900 2180.000000
128.002100 1660.000000
129.015200 712.000000
129.043200 1540.000000
130.038000 884.000000
130.050400 1104.000000
131.059200 20424.000000
132.066500 9056.000000
132.959500 76296.000000
133.062800 6824.000000
133.963000 3976.000000
134.064800 736.000000
134.956300 42896.000000
135.959800 1380.000000
135.993500 5228.000000
137.000100 1280.000000
137.990500 1432.000000
138.009200 10128.000000
139.004900 4900.000000
140.007200 2892.000000
140.024900 2696.000000
141.002800 1116.000000
141.018200 740.000000
142.003700 4212.000000
142.023700 448.000000
142.050900 1012.000000
143.058800 852.000000
144.001600 936.000000
144.054600 1188.000000
144.959400 10592.000000
145.050900 760.000000
145.964900 1852.000000
146.956100 6340.000000
147.053300 388.000000
147.963600 1148.000000
149.995300 1716.000000
150.009400 1416.000000
151.016900 14136.000000
152.012400 20272.000000
153.018500 11268.000000
154.007700 6660.000000
155.002100 700.000000
155.017000 2304.000000
156.019700 572.000000
157.062300 1664.000000
158.069900 25604.000000
158.963100 764.000000
158.974700 3660.000000
159.077700 12964.000000
159.970400 69576.000000
160.085300 11600.000000
160.976700 15236.000000
161.088000 1344.000000
161.967200 42456.000000
162.973500 10084.000000
163.999700 22792.000000
165.002900 1876.000000
165.019800 6616.000000
165.996400 5904.000000
166.015700 2732.000000
166.025800 2456.000000
167.020800 3520.000000
167.034600 2332.000000
168.012300 924.000000
168.029300 1460.000000
169.019200 1124.000000
169.032100 608.000000
170.029100 436.000000
170.962400 4816.000000
171.970100 18856.000000
172.965500 40792.000000
173.967400 14216.000000
174.962700 24880.000000
177.019500 672.000000
178.026000 664.000000
179.016500 464.000000
184.965400 9136.000000
185.972100 3916.000000
185.985500 7128.000000
186.962600 6524.000000
186.980900 16664.000000
187.983200 4968.000000
188.978200 11176.000000
192.031300 876.000000
194.046600 18532.000000
195.051800 1576.000000
196.043300 4408.000000
200.997000 452.000000
210.979300 724.000000
212.996800 9060.000000
214.001200 1360.000000
214.994200 5808.000000
228.008200 1116.000000
230.022700 3580.000000
232.021100 2404.000000

>ms2peaks
59.060000 17500.000000
69.044400 20420.000000
171.970900 8116.000000
186.982000 17836.000000
188.979200 8904.000000
194.047200 10668.000000
212.997700 56580.000000
214.994900 30356.000000
230.024900 1181744.000000
231.027500 153912.000000
232.021800 955184.000000

