>compound AU34397255
>parentmass 242.0845
>ionization [M+H]+
>formula C11H15NO3S
>rt 282.000000
>profile qtof
#smiles_iso CC1=CC(=CC(=C1S(=O)C)C)OC(=O)NC
#smiles_can CC1=CC(=CC(=C1S(=O)C)C)OC(=O)NC
#inchikey FNCMBMZOZQAWJA-UHFFFAOYSA-N
#pubchem_id 17521
#mb_accession AU206301,AU206302,AU206303,AU206304,AU206305

>ms2peaks
122.071700 8184.000000
168.059600 7996.000000
170.038900 12612.000000
185.062200 1964828.000000
186.065400 156204.000000
187.059300 53492.000000
242.084200 844556.000000
243.087100 96216.000000
244.080900 29564.000000

>ms2peaks
122.072000 151540.000000
123.075800 13164.000000
153.035800 20300.000000
168.059600 282396.000000
169.062500 23532.000000
170.038900 431088.000000
185.062700 2409896.000000
186.065400 188008.000000
187.059300 69216.000000

>ms2peaks
121.064100 38400.000000
122.072000 437128.000000
123.075300 31412.000000
136.087500 6736.000000
153.035900 230260.000000
155.031700 6972.000000
168.059400 685004.000000
169.062400 48832.000000
170.038600 998880.000000
171.041800 64996.000000
185.062200 613516.000000
186.065300 42900.000000
187.059500 16700.000000

>ms2peaks
121.064100 68204.000000
122.072000 503436.000000
123.043300 4220.000000
123.075300 37572.000000
125.041000 4376.000000
137.058900 3700.000000
138.066200 8832.000000
151.019900 21480.000000
152.027800 63284.000000
153.035900 696044.000000
154.038900 40604.000000
155.031800 16604.000000
168.059300 265564.000000
169.062500 20812.000000
170.038700 360736.000000
171.041700 29232.000000
172.034600 11080.000000
185.062000 36936.000000
186.065300 4068.000000
187.059500 1724.000000

>ms2peaks
107.048700 3616.000000
109.064000 5408.000000
121.064100 63112.000000
122.071800 157768.000000
123.024700 2312.000000
123.042800 3924.000000
123.075300 14496.000000
125.041000 5768.000000
135.024600 2184.000000
135.078900 1804.000000
137.004400 3236.000000
137.057900 3188.000000
138.011900 2176.000000
138.066300 2308.000000
151.019800 42528.000000
152.027500 38664.000000
153.035700 332908.000000
154.038900 23968.000000
155.031800 9436.000000
168.059000 32032.000000
169.062500 3232.000000
170.038400 36400.000000
171.042000 3264.000000
172.034900 2128.000000
185.062200 1792.000000

