>compound AU34835571
>parentmass 365.1449
>ionization [M+H]+
>formula C19H25ClN2OS
>rt 805.740000
>profile qtof
#smiles_iso CC(C)(C)C1=CC=C(C=C1)CSC2=C(C(=O)N(N=C2)C(C)(C)C)Cl
#smiles_can CC(C)(C)C1=CC=C(C=C1)CSC2=C(C(=O)N(N=C2)C(C)(C)C)Cl
#inchikey DWFZBUWUXWZWKD-UHFFFAOYSA-N
#pubchem_id 91754
#mb_accession AU263201,AU263202,AU263203,AU263205,AU263206

>ms2peaks
147.116000 38396.000000
309.083000 2406172.000000
310.085800 363904.000000
311.079900 691204.000000
365.145700 905316.000000
366.148800 144732.000000
367.142800 268904.000000

>ms2peaks
119.084800 11364.000000
132.092700 20508.000000
147.116100 1213584.000000
148.119400 121876.000000
309.082800 2144712.000000
310.085600 292068.000000
311.079700 604396.000000

>ms2peaks
117.069200 33816.000000
119.084800 66572.000000
132.092600 110732.000000
147.116400 2363888.000000
148.119400 329856.000000
309.082400 150356.000000
310.085200 27452.000000
311.079000 49224.000000

>ms2peaks
115.053700 43308.000000
116.059700 6712.000000
117.069300 152736.000000
118.072600 16024.000000
119.084900 196948.000000
120.088000 15060.000000
131.084600 24980.000000
132.092500 560236.000000
133.095700 47224.000000
145.100100 16080.000000
147.115900 976076.000000
148.119100 84028.000000

>ms2peaks
105.070800 18456.000000
117.069100 13660.000000
119.085300 39004.000000
132.092500 49364.000000
147.116300 1050800.000000
148.119500 136812.000000
149.122500 5400.000000
309.082300 331564.000000
310.085400 72376.000000
311.079500 139504.000000

