>compound AU34341477
>parentmass 361.1394
>ionization [M+H]+
>formula C18H20N2O6
>rt 587.390000
>profile qtof
#smiles_iso CCOC(=O)C1=C(NC(=C(C1C2=CC(=CC=C2)[N+](=O)[O-])C(=O)OC)C)C
#smiles_can CCOC(=O)C1=C(NC(=C(C1C2=CC(=CC=C2)[N+](=O)[O-])C(=O)OC)C)C
#inchikey PVHUJELLJLJGLN-UHFFFAOYSA-N
#pubchem_id 4507
#mb_accession AU230901,AU230902,AU230903,AU230904,AU230905,AU230906

>ms2
315.097300 535912.000000
316.100400 76788.000000
317.102200 9036.000000
329.112900 316960.000000
330.116000 50348.000000
331.118300 7472.000000
359.123500 8288.000000
361.138900 57496.000000
362.141600 11756.000000

>ms2
254.080400 3900.000000
255.078400 4176.000000
269.103200 8532.000000
283.070700 15696.000000
284.076600 4116.000000
298.094000 6648.000000
301.080600 17568.000000
315.097100 684320.000000
316.100000 99196.000000
317.101700 12072.000000
329.112800 455260.000000
330.115900 66224.000000
331.091600 4808.000000
331.118300 8744.000000
359.122900 8572.000000
361.138800 7740.000000

>ms2
140.069000 3068.000000
150.016300 1232.000000
166.085000 3924.000000
168.079900 2940.000000
171.103100 1788.000000
176.033300 1812.000000
180.079400 1520.000000
181.087200 1928.000000
182.094900 3568.000000
183.102600 6136.000000
184.107500 1288.000000
186.053700 1872.000000
198.090000 2140.000000
199.097600 1696.000000
200.033200 3964.000000
208.075000 1832.000000
209.082000 8780.000000
210.090000 18604.000000
211.097600 11480.000000
212.069100 1668.000000
212.098400 2324.000000
214.049600 1552.000000
214.083300 1548.000000
215.093000 1368.000000
217.060000 3344.000000
225.078500 2012.000000
226.085000 41220.000000
227.085300 10344.000000
228.088300 2876.000000
229.105500 1796.000000
236.070200 2248.000000
237.076300 2960.000000
238.072300 4524.000000
238.106000 1544.000000
239.080100 6256.000000
240.067900 1320.000000
240.088400 3588.000000
241.068000 2760.000000
241.107700 2628.000000
242.045100 1480.000000
242.079300 3692.000000
243.087200 3440.000000
249.087400 1436.000000
253.072400 11392.000000
254.080300 36900.000000
255.085000 35456.000000
256.089400 8012.000000
257.092500 8768.000000
266.067200 1436.000000
267.087800 13296.000000
268.095500 24588.000000
269.103700 64820.000000
270.073100 2972.000000
270.105700 12492.000000
271.110600 1812.000000
273.085600 3412.000000
281.099800 2008.000000
282.111000 3196.000000
283.070600 56940.000000
283.119700 12700.000000
284.077100 24508.000000
284.122900 3080.000000
285.063600 6440.000000
285.080900 4392.000000
287.077700 5576.000000
287.101200 2480.000000
297.085800 3312.000000
298.093800 31908.000000
299.077100 7176.000000
299.092500 5360.000000
300.080200 2484.000000
301.082100 92056.000000
302.085100 16028.000000
303.089800 1892.000000
312.109100 8580.000000
313.084200 3236.000000
313.110200 1656.000000
315.097400 238396.000000
316.100300 37064.000000
317.102000 6048.000000
329.113000 126672.000000
330.115300 22940.000000
331.091600 5716.000000
331.116300 2828.000000
332.095200 1208.000000

>ms2
118.040000 532.000000
126.054500 668.000000
128.060400 836.000000
129.068100 600.000000
130.039400 496.000000
130.065100 432.000000
134.059600 1964.000000
135.065300 440.000000
139.053300 904.000000
140.068800 2248.000000
141.068000 1436.000000
142.043600 384.000000
142.064300 384.000000
142.075800 400.000000
143.071900 520.000000
145.089300 812.000000
146.034000 504.000000
147.041000 424.000000
148.039200 620.000000
150.017300 3000.000000
150.053900 1484.000000
151.059600 656.000000
152.061300 1516.000000
153.068200 956.000000
154.039900 1008.000000
154.063300 1320.000000
154.072200 400.000000
155.048900 884.000000
155.070300 460.000000
156.055100 520.000000
157.039300 472.000000
158.094800 548.000000
164.068600 688.000000
165.075100 1348.000000
166.049100 788.000000
166.065300 1328.000000
166.084100 4640.000000
167.048600 624.000000
167.071600 2568.000000
168.055700 3204.000000
168.079400 18308.000000
169.062300 916.000000
169.083600 2344.000000
170.059800 752.000000
170.096700 976.000000
171.065800 1040.000000
171.102600 4428.000000
172.051000 548.000000
172.072500 488.000000
172.106500 748.000000
173.083500 1384.000000
174.052900 1596.000000
174.087600 460.000000
175.059200 720.000000
176.032900 6468.000000
177.036100 920.000000
178.048600 1476.000000
179.072600 1164.000000
180.055600 876.000000
180.079500 6056.000000
181.062800 540.000000
181.086800 10056.000000
182.094600 13552.000000
183.067400 728.000000
183.102700 13836.000000
184.048500 676.000000
184.073800 2472.000000
184.106500 2332.000000
185.081100 764.000000
185.111300 488.000000
186.054100 2588.000000
186.089600 624.000000
187.060500 680.000000
187.096500 452.000000
188.068600 656.000000
189.065900 1508.000000
192.065100 920.000000
193.063700 716.000000
193.074800 884.000000
193.087500 1088.000000
194.058700 964.000000
194.074000 532.000000
194.095800 1552.000000
195.065300 864.000000
195.099800 940.000000
196.050800 740.000000
196.074700 6452.000000
196.094900 460.000000
196.112000 1088.000000
197.046600 688.000000
197.081200 4076.000000
197.118600 732.000000
198.052300 384.000000
198.090100 6068.000000
199.060100 472.000000
199.096600 2292.000000
200.033200 5948.000000
200.070000 1164.000000
201.033300 596.000000
201.076800 536.000000
202.084000 660.000000
203.091400 652.000000
206.060100 420.000000
207.066400 1944.000000
208.074900 12552.000000
209.082200 27820.000000
210.090000 53176.000000
211.096800 25516.000000
212.069800 5792.000000
212.099900 3376.000000
213.074000 2012.000000
213.102600 400.000000
214.049400 2068.000000
214.085200 3552.000000
215.055100 584.000000
215.092800 2028.000000
216.063200 396.000000
217.060600 7660.000000
218.062600 1248.000000
221.069700 1364.000000
222.055500 808.000000
222.079200 532.000000
223.060700 1044.000000
223.085900 1752.000000
224.069000 2468.000000
224.104400 684.000000
225.077700 5532.000000
225.114300 740.000000
226.085800 72788.000000
227.086100 19664.000000
228.065800 1260.000000
228.088900 4104.000000
229.068600 588.000000
229.106200 1728.000000
230.074200 516.000000
231.090000 720.000000
232.059400 780.000000
235.062700 1900.000000
236.069500 13608.000000
237.075300 8920.000000
238.049800 840.000000
238.074300 5216.000000
238.105900 1020.000000
239.054000 1124.000000
239.081600 6500.000000
240.064800 3640.000000
240.100100 7664.000000
241.071000 9288.000000
241.106100 3320.000000
242.043100 600.000000
242.079200 8232.000000
242.110700 512.000000
243.087600 9572.000000
244.091500 1900.000000
245.092800 476.000000
249.064500 1756.000000
249.087200 1540.000000
250.071800 376.000000
250.089100 420.000000
252.065600 1292.000000
253.072000 23580.000000
254.080400 74724.000000
255.086600 57928.000000
256.062600 780.000000
256.091500 13208.000000
257.066200 1776.000000
257.092900 5020.000000
258.068800 428.000000
258.097100 944.000000
259.082300 1176.000000
263.098500 392.000000
266.068700 2820.000000
267.052000 732.000000
267.088100 11144.000000
268.096100 37868.000000
269.066800 3868.000000
269.103500 52168.000000
270.074100 4944.000000
270.106500 10360.000000
271.080600 1728.000000
271.108700 1164.000000
272.051700 644.000000
272.078800 1448.000000
273.084500 2928.000000
274.092700 400.000000
281.091900 3600.000000
282.111200 2808.000000
283.071100 23828.000000
283.118800 3160.000000
284.077600 16976.000000
284.118400 1340.000000
285.062700 12796.000000
285.095300 2808.000000
286.065200 2456.000000
286.103900 696.000000
287.078200 17892.000000
288.082200 3072.000000
289.083000 464.000000
297.087400 1124.000000
298.094400 10576.000000
299.078000 7680.000000
300.081900 2088.000000
301.085400 31424.000000
302.093500 6304.000000
303.088400 712.000000
312.110700 1380.000000
313.084300 1624.000000
314.097200 516.000000
315.097300 16740.000000
316.100400 3696.000000
317.091000 1500.000000
318.089600 420.000000
329.112700 5908.000000
330.118700 1088.000000
331.092700 1880.000000

>ms2
115.054600 1300.000000
116.060000 408.000000
118.040000 800.000000
122.059500 448.000000
126.046300 724.000000
127.053000 876.000000
128.060300 3364.000000
129.032700 968.000000
129.067800 1504.000000
130.040800 812.000000
130.063400 432.000000
132.044100 528.000000
133.051500 464.000000
134.058600 3392.000000
135.064000 596.000000
139.052400 3900.000000
140.060100 4348.000000
141.068500 6292.000000
142.039300 800.000000
142.064300 1280.000000
142.072000 1176.000000
143.072200 1700.000000
144.079500 1104.000000
145.064200 872.000000
145.087900 1456.000000
146.035600 1040.000000
147.043100 660.000000
148.038700 944.000000
150.016900 2828.000000
150.053000 3176.000000
151.060200 1196.000000
152.061000 4968.000000
153.067700 4880.000000
154.040300 1640.000000
154.064300 2428.000000
155.048300 2052.000000
155.070900 1556.000000
155.082200 636.000000
156.058200 1144.000000
156.079300 1084.000000
157.037800 688.000000
157.051200 544.000000
157.064700 544.000000
157.085700 756.000000
158.068700 412.000000
158.095700 660.000000
159.067200 476.000000
160.037500 420.000000
163.053900 380.000000
164.062200 660.000000
165.070400 3120.000000
166.064000 3772.000000
166.084600 4136.000000
167.048700 1272.000000
167.071500 9060.000000
168.055500 3880.000000
168.079000 29152.000000
169.060900 2236.000000
169.083500 3488.000000
170.058500 972.000000
170.068600 760.000000
170.094500 2604.000000
171.042800 488.000000
171.067900 1668.000000
171.102800 4416.000000
172.043600 408.000000
172.052500 388.000000
172.073800 752.000000
172.104800 668.000000
173.080600 1072.000000
174.053200 1156.000000
175.060900 396.000000
176.032400 5664.000000
176.069100 464.000000
177.036700 800.000000
178.048200 1916.000000
178.063200 1692.000000
179.054300 480.000000
179.069900 2820.000000
179.094800 584.000000
180.079000 24872.000000
181.064100 1792.000000
181.086600 20244.000000
182.094600 27096.000000
183.045900 484.000000
183.066200 1720.000000
183.100900 9324.000000
184.054500 576.000000
184.074200 4596.000000
184.106600 1128.000000
185.056800 464.000000
185.078700 1028.000000
186.052100 2024.000000
186.088300 1204.000000
187.059900 548.000000
188.068000 888.000000
189.065600 2024.000000
190.066200 840.000000
191.071800 596.000000
192.064400 1072.000000
192.078500 1196.000000
193.053600 732.000000
193.065000 1100.000000
193.075000 1412.000000
193.085900 2064.000000
194.059600 4316.000000
194.094600 2172.000000
195.065400 2920.000000
195.097400 576.000000
196.052700 644.000000
196.074100 11200.000000
196.110700 1228.000000
197.046700 472.000000
197.080500 5096.000000
197.114900 416.000000
198.089900 10588.000000
199.063400 648.000000
199.094600 2688.000000
200.034100 3224.000000
200.067900 3208.000000
201.036100 756.000000
201.075700 668.000000
202.084700 852.000000
204.062700 432.000000
206.057300 1104.000000
207.065400 2828.000000
208.074300 41556.000000
209.081600 32068.000000
210.089800 68168.000000
211.095600 17288.000000
212.068800 7380.000000
212.099000 2720.000000
213.075200 3372.000000
213.106700 472.000000
214.048500 648.000000
214.084900 3412.000000
215.092600 1268.000000
217.059700 3084.000000
218.060200 444.000000
220.070600 448.000000
221.070100 2976.000000
222.053800 2736.000000
222.075900 820.000000
222.093300 384.000000
223.058100 788.000000
223.086600 2620.000000
224.069200 3200.000000
224.105100 744.000000
225.077200 6848.000000
226.085200 75856.000000
227.087100 15604.000000
228.064700 1296.000000
228.089500 3092.000000
229.066800 596.000000
229.074500 388.000000
229.100000 428.000000
235.062600 2252.000000
236.069100 20460.000000
237.075600 7680.000000
238.048200 712.000000
238.081700 2788.000000
239.056000 1240.000000
239.083000 2048.000000
240.064500 5124.000000
240.100600 10756.000000
241.071600 9824.000000
241.104700 2204.000000
242.078700 5180.000000
242.104500 452.000000
243.086800 4812.000000
244.092600 664.000000
249.065700 1312.000000
250.069000 428.000000
252.063600 1692.000000
252.102800 620.000000
253.071800 14556.000000
254.079600 54972.000000
255.086300 29424.000000
256.059100 448.000000
256.091400 5904.000000
257.067300 2028.000000
257.094000 1656.000000
258.072600 596.000000
259.078900 1176.000000
265.059600 496.000000
266.066300 736.000000
267.051300 800.000000
267.085600 5124.000000
268.095100 19424.000000
269.067600 2608.000000
269.102900 11892.000000
270.073900 2180.000000
270.104000 2240.000000
271.048000 664.000000
271.075500 668.000000
272.077500 468.000000
273.092900 484.000000
281.092100 1748.000000
282.092900 408.000000
282.106700 580.000000
283.071000 1964.000000
283.114600 440.000000
284.077200 2872.000000
285.062100 9236.000000
285.098000 736.000000
286.064400 1692.000000
287.077700 10080.000000
288.081100 2076.000000
298.093200 968.000000
299.076900 3476.000000
299.100700 464.000000
300.079200 904.000000
301.091300 6604.000000
302.094400 1232.000000
315.098600 476.000000
317.088400 680.000000

>ms2
67.017100 4552.000000
140.069900 1752.000000
166.084500 2636.000000
168.079300 3180.000000
171.102000 1340.000000
176.032500 1340.000000
181.087100 1740.000000
182.094500 2180.000000
183.102900 3960.000000
196.075700 1420.000000
198.091200 1652.000000
200.033500 2796.000000
208.074400 1568.000000
209.082100 5280.000000
210.090300 15028.000000
211.097000 8024.000000
212.068800 1604.000000
212.101100 1696.000000
214.049400 1328.000000
214.083800 1344.000000
217.060900 2676.000000
225.077100 1240.000000
226.085800 25972.000000
227.084700 7444.000000
228.086300 1672.000000
229.100000 1228.000000
236.070000 2332.000000
237.077000 1776.000000
238.072600 1768.000000
238.105600 1272.000000
239.080600 4736.000000
240.091800 2716.000000
241.071800 3416.000000
241.108000 1356.000000
242.078900 3992.000000
243.087000 5256.000000
253.072600 6032.000000
254.080700 26696.000000
255.085800 27876.000000
256.091100 4792.000000
257.092200 6388.000000
266.068100 1240.000000
267.088200 5252.000000
268.095600 16292.000000
269.104000 37804.000000
270.070400 1856.000000
270.105200 7568.000000
273.085800 2228.000000
281.098900 1720.000000
282.110400 1872.000000
283.071400 33884.000000
283.120400 6144.000000
284.077300 17160.000000
284.118600 1340.000000
285.062500 6520.000000
285.096100 1652.000000
287.078200 7768.000000
287.100500 1612.000000
288.083100 1316.000000
297.088100 1744.000000
298.094500 14232.000000
299.078900 8172.000000
299.097400 3152.000000
300.079900 1724.000000
301.083800 49340.000000
302.086400 7576.000000
312.109900 3952.000000
313.088400 1652.000000
315.097600 238864.000000
316.100700 49684.000000
317.102200 6228.000000
329.113300 171244.000000
330.116300 35948.000000
331.092200 4912.000000
331.117800 3436.000000
359.124200 3024.000000
361.139600 1588.000000

