>compound AU34101094
>parentmass 552.1911
>ionization [M+H]+
>formula C27H29N5O6S
>rt 597.710000
>profile qtof
#smiles_iso CC(C)(C)C1=CC=C(C=C1)S(=O)(=O)NC2=C(C(=NC(=N2)C3=NC=CC=N3)OCCO)OC4=CC=CC=C4OC
#smiles_can CC(C)(C)C1=CC=C(C=C1)S(=O)(=O)NC2=C(C(=NC(=N2)C3=NC=CC=N3)OCCO)OC4=CC=CC=C4OC
#inchikey GJPICJJJRGTNOD-UHFFFAOYSA-N
#pubchem_id 104865
#mb_accession AU273801,AU273802,AU273803,AU273804,AU273805,AU273806

>ms2
552.191100 314884.000000
553.194100 93112.000000
554.192500 22520.000000

>ms2
202.071000 4060.000000
280.083300 1660.000000
311.100500 3580.000000
508.164200 8996.000000
509.167800 2364.000000
552.191100 283776.000000
553.194300 82900.000000

>ms2
123.043000 2336.000000
123.065600 1192.000000
135.043300 1444.000000
149.043900 1356.000000
161.106000 1896.000000
189.063100 1160.000000
197.061900 3188.000000
202.071300 93896.000000
203.074900 11280.000000
204.051700 3408.000000
205.059500 1208.000000
241.088400 8684.000000
242.091100 1316.000000
246.096700 1232.000000
280.082100 14840.000000
281.085000 2728.000000
293.089800 1440.000000
294.098300 1784.000000
310.092500 2088.000000
311.100500 72260.000000
312.103900 14836.000000
313.107100 1348.000000
324.107900 2216.000000
338.124300 1856.000000
355.126600 2152.000000
400.143700 1656.000000
508.164700 64840.000000
509.167400 18784.000000
510.165000 5520.000000
552.191200 207732.000000
553.193900 57848.000000
554.192300 14788.000000

>ms2
121.064300 1608.000000
123.042900 4084.000000
123.065000 5584.000000
135.043000 5724.000000
149.045100 5604.000000
150.052300 3564.000000
150.063800 2068.000000
161.106300 8748.000000
175.060000 5500.000000
176.055000 2412.000000
177.040300 1948.000000
189.062600 3828.000000
190.070300 3584.000000
197.062400 7296.000000
202.071600 283316.000000
203.056300 8360.000000
203.075500 31740.000000
204.051300 5572.000000
204.079400 3388.000000
205.058100 4572.000000
237.101000 1796.000000
241.088500 7776.000000
255.110400 4544.000000
264.088100 2208.000000
265.094300 1936.000000
276.086900 3104.000000
279.074600 1776.000000
280.082600 76872.000000
281.085200 12148.000000
282.091700 1632.000000
283.105400 5636.000000
293.090800 4308.000000
294.097700 7304.000000
295.103100 1480.000000
310.094400 6328.000000
311.101200 81632.000000
312.104700 19412.000000
313.107300 2372.000000
324.108000 5904.000000
338.123900 2472.000000
400.142900 1856.000000
508.164500 18652.000000
509.169700 6488.000000
510.165400 1864.000000
552.191300 14568.000000
553.193300 4756.000000

>ms2
122.057500 4304.000000
123.043300 2280.000000
123.065600 12556.000000
124.049900 3916.000000
132.067000 2424.000000
133.051000 3632.000000
133.100600 1608.000000
134.058200 3132.000000
135.043100 7560.000000
135.065200 2212.000000
147.065200 7240.000000
149.044700 21688.000000
149.068900 2924.000000
150.052100 10724.000000
151.111100 1704.000000
161.106100 12864.000000
162.109700 1672.000000
175.060300 18372.000000
175.083800 1936.000000
176.057200 4068.000000
177.040300 6012.000000
189.063700 3824.000000
190.071500 4204.000000
197.062000 4536.000000
202.071700 267080.000000
203.055500 9248.000000
203.076200 40820.000000
204.051200 2948.000000
204.079100 2836.000000
205.058400 5144.000000
224.092900 2016.000000
237.100500 4536.000000
238.105700 1336.000000
241.089200 1452.000000
248.093200 1840.000000
252.085600 1376.000000
254.101900 1732.000000
255.110800 10872.000000
256.113900 1972.000000
264.087600 4484.000000
265.093300 2708.000000
268.092800 1416.000000
276.064200 1612.000000
276.088100 6740.000000
279.075000 3768.000000
280.082800 132208.000000
281.085500 23176.000000
282.093200 3336.000000
283.105600 9724.000000
292.081800 1740.000000
293.088800 2808.000000
294.098100 13720.000000
295.100400 2236.000000
296.078200 1500.000000
310.092000 5764.000000
311.101000 21580.000000
312.106100 7052.000000
324.109600 5348.000000

>ms2
121.064100 1452.000000
123.043300 2648.000000
123.066100 2968.000000
135.043600 3060.000000
149.045200 2160.000000
150.052400 2200.000000
150.065100 1280.000000
161.106400 5940.000000
175.060500 1896.000000
177.040300 1164.000000
189.064000 2136.000000
190.071400 2176.000000
197.062700 4144.000000
198.066200 912.000000
202.071800 173368.000000
203.056200 3604.000000
203.075600 18652.000000
204.050100 3744.000000
204.081200 1188.000000
205.058200 2524.000000
241.089500 6904.000000
242.092500 1496.000000
246.098600 896.000000
255.112200 2328.000000
264.086800 1716.000000
265.095300 1744.000000
276.087700 2236.000000
279.076400 1120.000000
280.083300 47324.000000
281.085300 6992.000000
282.095600 868.000000
283.106400 3036.000000
293.090000 2744.000000
294.098500 5120.000000
310.092300 4232.000000
311.101700 69908.000000
312.105200 15636.000000
313.108400 1296.000000
324.108700 4180.000000
325.112500 1204.000000
338.125300 1812.000000
355.126300 1564.000000
400.145000 1528.000000
508.165700 39032.000000
509.168900 10168.000000
510.165800 3592.000000
552.192100 147996.000000
553.195500 51484.000000

