>compound AU34747242
>parentmass 323.0196
>ionization [M+H]+
>formula C11H12Cl2N2O5
>rt 343.920000
>profile qtof
#smiles_iso C1=CC(=CC=C1C(C(CO)NC(=O)C(Cl)Cl)O)[N+](=O)[O-]
#smiles_can C1=CC(=CC=C1C(C(CO)NC(=O)C(Cl)Cl)O)[N+](=O)[O-]
#inchikey WIIZWVCIJKGZOK-UHFFFAOYSA-N
#pubchem_id 298
#mb_accession AU230601,AU230602,AU230603,AU230604,AU230605,AU230606

>ms2peaks
161.069100 344.000000
274.997900 2240.000000
276.003100 352.000000
276.995400 1372.000000
305.008300 3316.000000
306.012900 376.000000
307.004500 2260.000000
323.019800 340.000000

>ms2peaks
161.070800 400.000000
162.054100 468.000000
165.063600 1988.000000
241.004500 988.000000
243.003500 372.000000
257.993700 520.000000
274.997700 5488.000000
276.000500 596.000000
276.993500 3432.000000

>ms2peaks
162.055100 320.000000
165.064200 4504.000000
166.067400 488.000000
206.037700 664.000000
229.007800 372.000000
231.004600 360.000000
257.995700 1396.000000
259.995100 540.000000
274.997600 1164.000000
276.996100 592.000000

>ms2peaks
118.063100 364.000000
119.072300 532.000000
132.056500 380.000000
162.053100 464.000000
164.023500 544.000000
165.065000 2872.000000
257.994900 596.000000
259.992600 444.000000

>ms2peaks
118.063600 524.000000
119.071600 536.000000
130.064300 468.000000
131.048700 300.000000
164.024000 636.000000
165.064800 760.000000

>ms2peaks
161.069100 404.000000
162.053600 504.000000
165.063900 2228.000000
166.066800 448.000000
241.005100 472.000000
257.994600 1032.000000
259.991700 580.000000
274.997200 1792.000000
276.995700 1232.000000

