>compound AU34555843
>parentmass 267.1703
>ionization [M+H]+
>formula C14H22N2O3
>rt 184.500000
>profile qtof
#smiles_iso CC(C)NCC(COC1=CC=C(C=C1)CC(=O)N)O
#smiles_can CC(C)NCC(COC1=CC=C(C=C1)CC(=O)N)O
#inchikey METKIMKYRPQLGS-UHFFFAOYSA-N
#pubchem_id 2249
#mb_accession AU110602,AU110603,AU110604,AU110605

>ms2peaks
133.064000 6480.000000
145.063800 69816.000000
146.067000 7716.000000
190.085700 238320.000000
191.088900 20924.000000
208.096400 60508.000000
209.099000 6036.000000
225.123000 142400.000000
267.170300 1117072.000000
269.175300 10620.000000

>ms2peaks
115.053300 4012.000000
116.106400 7368.000000
117.069200 4128.000000
119.048200 6044.000000
122.059800 3764.000000
131.047900 2160.000000
136.073900 1628.000000
144.079100 1772.000000
145.063700 284452.000000
146.067000 23592.000000
147.042800 13852.000000
147.071100 1488.000000
147.079400 2700.000000
148.045700 1424.000000
152.069500 7564.000000
161.058200 2444.000000
162.065000 6336.000000
162.090100 20680.000000
163.073900 8184.000000
163.093300 2324.000000
164.069500 38028.000000
165.072800 3672.000000
173.058500 16400.000000
174.062300 1972.000000
178.085300 63056.000000
179.088300 5588.000000
182.080000 7304.000000
190.085300 96236.000000
191.088200 10356.000000
204.136800 1592.000000
208.096000 19948.000000
209.098300 2524.000000
225.122300 14676.000000
226.125900 1844.000000
267.169700 26344.000000

>ms2peaks
116.048600 2984.000000
116.056200 2192.000000
116.105900 1448.000000
117.032400 2028.000000
117.057300 1480.000000
117.069100 8052.000000
118.071900 1316.000000
119.048300 7388.000000
122.059700 2312.000000
127.053200 1504.000000
131.048100 2868.000000
134.059300 13212.000000
135.061500 1140.000000
136.075200 1044.000000
144.055800 2648.000000
144.078800 1324.000000
145.063800 172452.000000
146.067000 17000.000000
147.042800 8740.000000
147.078700 1528.000000
148.045500 1016.000000
152.069300 3548.000000
155.059000 1904.000000
161.058500 1380.000000
162.065400 7732.000000
162.090000 4460.000000
163.073600 2748.000000
164.069700 7184.000000
173.058900 2792.000000
178.084900 7684.000000
179.087800 1024.000000
182.079200 1244.000000
190.085600 5620.000000
191.088400 1064.000000
208.096500 1124.000000

>ms2peaks
107.048900 356.000000
116.049000 3504.000000
116.056200 2928.000000
117.032800 2300.000000
117.055900 1528.000000
117.068500 7844.000000
118.059600 324.000000
118.072200 820.000000
119.048600 3252.000000
119.084800 352.000000
120.051900 516.000000
121.063400 3284.000000
122.059600 884.000000
122.066600 668.000000
126.045600 328.000000
127.052700 2540.000000
128.058000 552.000000
131.048300 3228.000000
132.054000 664.000000
134.059900 6808.000000
135.064200 568.000000
136.074900 724.000000
143.072400 596.000000
144.055600 4928.000000
144.080100 460.000000
145.063600 54476.000000
146.066700 6636.000000
147.043100 2884.000000
147.069400 564.000000
148.045300 464.000000
152.069000 836.000000
155.058600 2876.000000
156.060300 316.000000
162.064800 2236.000000
162.089500 380.000000
163.072600 376.000000
164.069800 476.000000
173.056700 332.000000
178.085700 400.000000

