>compound AU35678108
>parentmass 395.1864
>ionization [M+H]+
>formula C21H27FO6
>rt 372.710000
>profile qtof
#smiles_iso C[C@]12C[C@@H]([C@]3([C@H]([C@@H]1C[C@H]([C@@]2(C(=O)CO)O)O)CCC4=CC(=O)C=C[C@@]43C)F)O
#smiles_can CC12CC(C3(C(C1CC(C2(C(=O)CO)O)O)CCC4=CC(=O)C=CC43C)F)O
#inchikey GFNANZIMVAIWHM-OBYCQNJPSA-N
#pubchem_id 31307
#mb_accession AU240001,AU240002,AU240003,AU240004,AU240005,AU240006

>ms2peaks
147.079800 504.000000
173.092900 316.000000
175.073800 320.000000
185.095300 556.000000
187.074000 412.000000
211.110500 408.000000
213.127700 480.000000
223.111500 1064.000000
224.117100 340.000000
225.125800 2608.000000
226.130400 856.000000
237.127900 1056.000000
238.129400 332.000000
253.122900 332.000000
253.158100 472.000000
255.139800 300.000000
261.127400 504.000000
263.140700 788.000000
275.140700 868.000000
279.137300 708.000000
281.152400 604.000000
293.152200 1232.000000
294.155300 408.000000
295.131200 408.000000
297.149600 396.000000
303.137300 888.000000
309.148000 792.000000
311.163000 1716.000000
312.167900 488.000000
321.147500 3244.000000
322.152400 812.000000
327.157000 724.000000
329.174700 528.000000
339.158900 5512.000000
340.163100 1496.000000
341.155600 756.000000
345.169200 488.000000
357.169200 13492.000000
358.172800 2912.000000
359.172700 800.000000
375.180000 28008.000000
376.182500 7916.000000
377.182600 992.000000
395.187000 24320.000000
396.188700 6820.000000

>ms2peaks
121.063800 592.000000
131.083300 364.000000
135.078200 816.000000
137.059100 816.000000
141.054100 500.000000
143.084400 432.000000
147.079200 3864.000000
148.084100 668.000000
151.073900 696.000000
153.089400 336.000000
155.067700 728.000000
159.079000 656.000000
161.060500 308.000000
161.094800 816.000000
163.074100 392.000000
171.078600 1792.000000
171.116200 352.000000
172.082400 304.000000
173.081000 508.000000
173.094200 688.000000
179.068400 552.000000
183.078900 372.000000
185.094600 2084.000000
186.100700 480.000000
187.073900 1700.000000
187.112200 320.000000
189.090200 384.000000
197.096300 1108.000000
197.131100 372.000000
199.110800 996.000000
201.089400 508.000000
203.103600 508.000000
209.094100 772.000000
210.099200 344.000000
211.110200 1128.000000
213.091200 516.000000
213.125800 2876.000000
214.130400 520.000000
215.143500 500.000000
221.091700 336.000000
221.132000 372.000000
223.111300 2764.000000
224.117600 1744.000000
225.125800 10164.000000
226.130600 2604.000000
227.108600 460.000000
227.141100 576.000000
235.110500 1752.000000
236.113400 432.000000
237.127000 5160.000000
238.129900 1136.000000
239.103600 500.000000
239.141000 2024.000000
240.147200 344.000000
241.121300 1192.000000
242.128400 388.000000
243.138200 436.000000
247.108100 380.000000
249.126500 1044.000000
250.129900 396.000000
251.105700 336.000000
251.141200 1284.000000
252.146200 412.000000
253.122000 1460.000000
253.157500 756.000000
255.136300 992.000000
260.115700 336.000000
261.124700 1716.000000
262.132800 1024.000000
263.142000 2780.000000
264.146700 452.000000
265.120300 564.000000
265.159100 996.000000
267.138600 608.000000
269.155300 304.000000
273.127300 380.000000
275.142800 2576.000000
276.143500 716.000000
277.122700 1104.000000
277.149200 308.000000
278.126900 356.000000
279.134400 1892.000000
280.142900 1172.000000
281.152000 2324.000000
282.156600 636.000000
283.131500 368.000000
283.164900 452.000000
291.136400 936.000000
292.138900 368.000000
293.152200 3776.000000
294.155100 1024.000000
295.133700 872.000000
296.139500 588.000000
297.148200 688.000000
298.149900 316.000000
303.137400 2164.000000
304.137900 544.000000
309.147800 1708.000000
310.152500 424.000000
311.162600 1996.000000
312.167000 752.000000
321.147800 5100.000000
322.151500 1440.000000
327.157700 780.000000
329.173500 540.000000
339.158300 6844.000000
340.163200 1840.000000
357.168100 15324.000000
358.172000 3952.000000
359.173500 720.000000
375.177900 3624.000000
376.185300 728.000000
395.185600 624.000000

>ms2peaks
121.064200 1080.000000
125.058400 500.000000
128.062700 336.000000
131.084000 508.000000
133.065500 500.000000
135.079000 1176.000000
137.059100 460.000000
139.074300 320.000000
141.053100 520.000000
143.085500 692.000000
145.062900 664.000000
147.079600 5272.000000
148.081400 804.000000
149.057500 420.000000
151.077600 392.000000
155.068900 668.000000
155.084700 400.000000
157.099600 636.000000
158.073400 328.000000
159.078900 1500.000000
161.058600 408.000000
161.094000 944.000000
163.073600 512.000000
165.070600 336.000000
167.069300 304.000000
167.081700 408.000000
169.065100 364.000000
171.079800 2056.000000
171.115100 616.000000
172.082300 464.000000
173.094900 1196.000000
179.070000 452.000000
179.083000 476.000000
181.099900 668.000000
183.078600 520.000000
185.095100 1504.000000
186.104300 392.000000
187.073700 1764.000000
187.111800 816.000000
189.090300 444.000000
195.080700 580.000000
195.116600 600.000000
196.085300 640.000000
197.094600 1756.000000
197.131200 936.000000
198.101500 440.000000
199.109600 1408.000000
200.112900 304.000000
205.099400 352.000000
206.108600 360.000000
207.115600 1160.000000
209.094200 1128.000000
209.133900 560.000000
210.102200 580.000000
211.111500 1824.000000
212.113700 312.000000
212.121100 368.000000
213.089900 496.000000
213.126000 3080.000000
214.130600 492.000000
215.106900 380.000000
219.115100 488.000000
221.095100 620.000000
221.132000 640.000000
222.105200 908.000000
223.109800 3224.000000
224.117100 2376.000000
225.126300 7036.000000
226.130300 1536.000000
227.107400 300.000000
227.141700 436.000000
233.091800 480.000000
235.110800 1244.000000
235.146200 476.000000
237.126600 4336.000000
238.132400 1012.000000
239.105900 352.000000
239.142200 3080.000000
240.147500 760.000000
241.122400 1132.000000
242.128200 428.000000
246.100100 572.000000
247.112000 480.000000
247.145600 544.000000
248.118500 484.000000
249.128000 1372.000000
250.132600 688.000000
251.144100 1612.000000
252.146200 512.000000
253.122600 988.000000
253.158800 916.000000
255.136600 800.000000
257.132000 504.000000
259.110400 364.000000
260.119300 524.000000
261.124000 1324.000000
262.134200 1344.000000
263.108300 332.000000
263.143000 3332.000000
264.146100 952.000000
265.121900 496.000000
265.157300 992.000000
267.135700 432.000000
268.142500 320.000000
275.141500 1912.000000
276.146900 716.000000
277.119900 768.000000
278.128000 552.000000
279.137200 1216.000000
280.146200 1196.000000
281.153200 1048.000000
282.156300 388.000000
285.126900 436.000000
288.112500 524.000000
291.138700 1028.000000
292.140700 400.000000
293.151300 1580.000000
294.155100 412.000000
297.151200 412.000000
303.134600 1132.000000
309.149800 496.000000
310.147700 300.000000
311.164200 680.000000
321.147300 1424.000000
339.156100 1060.000000
357.169600 1596.000000
358.171700 680.000000

>ms2peaks
119.083900 460.000000
121.063600 2252.000000
123.078800 404.000000
125.060000 448.000000
128.062200 768.000000
129.070900 332.000000
131.083500 1196.000000
133.063100 604.000000
135.079800 1564.000000
137.057700 608.000000
141.067800 564.000000
143.084100 1564.000000
145.063000 1516.000000
145.099100 444.000000
147.079300 6404.000000
148.083100 652.000000
155.084600 1684.000000
157.065500 440.000000
157.099100 1008.000000
158.071000 824.000000
159.079800 2520.000000
161.057500 332.000000
161.094900 1028.000000
165.066800 648.000000
166.075100 428.000000
167.084000 744.000000
169.063900 536.000000
169.101400 420.000000
171.079200 3212.000000
171.117400 524.000000
173.094300 2064.000000
179.084400 884.000000
180.089400 376.000000
181.062300 356.000000
181.101300 628.000000
182.072100 396.000000
182.107100 472.000000
183.079300 924.000000
183.114600 476.000000
184.087500 300.000000
185.093900 1740.000000
186.101900 424.000000
187.075700 972.000000
187.112100 352.000000
189.066900 332.000000
190.076600 360.000000
191.083600 528.000000
192.091900 796.000000
193.100200 764.000000
194.105500 412.000000
195.079600 920.000000
195.116800 924.000000
196.085500 924.000000
197.094200 2704.000000
197.132100 944.000000
198.102900 572.000000
199.109400 1136.000000
201.089000 336.000000
203.085700 608.000000
204.090700 540.000000
205.100700 752.000000
206.108200 968.000000
207.116200 1296.000000
208.086200 880.000000
209.094400 2944.000000
209.133000 528.000000
210.102100 1968.000000
211.109800 1932.000000
212.116800 472.000000
213.087900 304.000000
213.125900 2824.000000
214.130500 484.000000
217.101700 448.000000
218.104500 348.000000
219.115500 840.000000
220.086100 432.000000
221.094800 952.000000
221.130100 340.000000
222.102600 2168.000000
223.109100 3340.000000
224.117600 2288.000000
225.125800 3888.000000
226.129400 844.000000
227.105700 508.000000
227.145100 420.000000
230.104900 524.000000
232.127400 496.000000
233.095800 944.000000
233.130200 528.000000
234.100000 844.000000
235.109300 2184.000000
235.147800 452.000000
236.117900 832.000000
237.126500 2824.000000
238.096400 360.000000
238.129700 800.000000
239.142500 1300.000000
241.124400 452.000000
243.118100 424.000000
245.095600 544.000000
245.129300 488.000000
246.100500 892.000000
247.112800 608.000000
248.117800 1504.000000
249.125400 1024.000000
250.132500 444.000000
251.107900 448.000000
251.140700 1004.000000
252.115200 316.000000
252.147600 300.000000
253.119500 480.000000
259.110700 524.000000
260.118300 788.000000
261.126600 1076.000000
262.094000 332.000000
262.132500 732.000000
263.142800 1544.000000
264.147100 492.000000
265.122800 620.000000
265.158800 364.000000
266.124500 320.000000
275.142600 1072.000000
276.145300 304.000000
277.122600 400.000000
279.135700 520.000000
280.145600 764.000000
281.149400 456.000000
293.153400 308.000000
303.140400 372.000000
321.146500 400.000000

>ms2peaks
115.054700 496.000000
116.061200 304.000000
117.070000 472.000000
119.085900 464.000000
121.063800 2056.000000
128.060800 1504.000000
129.067700 872.000000
131.046900 380.000000
131.084500 1004.000000
132.055800 892.000000
135.079500 744.000000
141.068700 644.000000
142.076200 740.000000
143.085000 1720.000000
144.057200 388.000000
145.063100 1928.000000
145.100900 444.000000
147.079300 4644.000000
148.082400 808.000000
152.060200 556.000000
153.068600 460.000000
155.058600 508.000000
155.084800 1464.000000
156.091000 328.000000
157.101100 568.000000
158.071300 1208.000000
159.078600 2400.000000
160.083800 420.000000
161.094100 748.000000
165.069100 1052.000000
166.077400 492.000000
167.083400 648.000000
169.064000 420.000000
169.099700 600.000000
170.069900 580.000000
171.078100 3660.000000
171.115200 420.000000
172.086100 708.000000
173.094000 1156.000000
178.077100 1024.000000
179.084200 1704.000000
180.091800 688.000000
181.065700 896.000000
181.099300 1116.000000
182.071500 836.000000
182.106400 376.000000
183.078500 788.000000
183.113500 488.000000
184.085600 576.000000
185.095400 976.000000
187.074000 420.000000
189.068500 480.000000
190.076400 1044.000000
191.083300 808.000000
192.092300 1468.000000
193.099200 1104.000000
194.071700 700.000000
194.106400 536.000000
195.078100 2256.000000
195.114300 688.000000
196.087300 1532.000000
197.095100 2124.000000
197.131900 664.000000
198.099800 692.000000
199.111600 600.000000
202.076500 352.000000
203.086100 408.000000
204.091100 936.000000
205.100500 880.000000
206.107700 932.000000
207.078200 884.000000
207.089400 360.000000
207.115000 1248.000000
208.086700 2224.000000
208.120600 464.000000
209.095000 3156.000000
209.131800 404.000000
210.101700 1968.000000
211.110000 828.000000
213.128400 960.000000
215.084800 704.000000
216.090000 512.000000
217.100600 524.000000
218.106300 424.000000
219.081300 388.000000
219.118800 576.000000
220.085900 468.000000
220.121600 444.000000
221.092500 1392.000000
221.128500 520.000000
222.103500 2256.000000
223.109000 1724.000000
224.118300 1168.000000
225.127300 1160.000000
226.097800 312.000000
229.100700 420.000000
230.110100 412.000000
231.078900 380.000000
232.089400 648.000000
233.097500 876.000000
234.102700 944.000000
235.110300 1120.000000
236.115700 516.000000
237.127000 1440.000000
238.132900 332.000000
242.108500 576.000000
245.095300 704.000000
246.101200 764.000000
247.111000 1060.000000
248.119400 960.000000
249.125200 656.000000
250.133700 496.000000
257.094800 308.000000
259.111900 516.000000
260.116100 484.000000
261.093700 376.000000
261.126000 628.000000
262.134500 896.000000
263.140300 788.000000
265.122600 316.000000
275.139200 328.000000

>ms2peaks
87.042900 376.000000
121.064700 1068.000000
133.065400 464.000000
135.080300 728.000000
137.060200 572.000000
139.073600 396.000000
143.086000 664.000000
147.079500 5052.000000
148.081900 640.000000
151.074800 456.000000
155.068400 352.000000
157.100300 524.000000
159.078900 1448.000000
161.095600 748.000000
163.073900 376.000000
169.063300 308.000000
171.079600 2228.000000
171.118000 304.000000
172.083800 500.000000
173.094400 1060.000000
175.074800 344.000000
177.089700 300.000000
179.083000 372.000000
183.079600 340.000000
185.094600 1668.000000
187.073400 2220.000000
187.113600 424.000000
195.081300 436.000000
197.094800 1048.000000
197.130800 352.000000
198.100300 320.000000
199.109600 1148.000000
201.089800 428.000000
205.100500 404.000000
207.114100 408.000000
209.095700 1304.000000
210.106600 752.000000
211.112100 1508.000000
212.116200 400.000000
213.090900 344.000000
213.126400 1828.000000
214.129300 336.000000
215.107600 456.000000
221.095800 948.000000
221.131900 420.000000
222.102000 496.000000
223.111300 2768.000000
224.117800 932.000000
225.126500 5204.000000
226.130100 1308.000000
227.143900 488.000000
233.131000 336.000000
235.112100 1300.000000
235.146400 412.000000
237.126700 2076.000000
238.131800 400.000000
239.103200 516.000000
239.142000 1504.000000
240.147900 376.000000
241.122600 604.000000
242.121100 304.000000
243.115100 396.000000
245.140000 300.000000
246.102300 480.000000
247.111700 620.000000
249.126800 1248.000000
251.106000 360.000000
251.142100 1244.000000
252.147400 300.000000
253.123500 1072.000000
253.156900 528.000000
254.122100 356.000000
259.110200 396.000000
260.121500 744.000000
261.126500 1616.000000
262.134300 688.000000
263.142100 2588.000000
264.148400 516.000000
265.121700 472.000000
265.158500 972.000000
267.138000 444.000000
271.135500 424.000000
273.128800 636.000000
275.143500 2284.000000
276.113900 392.000000
276.146800 544.000000
277.123400 708.000000
278.125700 320.000000
279.137700 1336.000000
280.143500 732.000000
281.153200 1136.000000
283.170400 560.000000
285.123300 320.000000
291.135900 1972.000000
292.143900 368.000000
293.153400 2484.000000
294.155200 688.000000
295.134700 420.000000
297.147700 596.000000
303.138200 1016.000000
309.146200 1036.000000
310.155000 460.000000
311.164500 1232.000000
312.171200 612.000000
321.149200 1964.000000
322.149400 948.000000
327.157900 488.000000
339.158600 2212.000000
340.164600 584.000000
357.169200 3176.000000
358.174100 884.000000
375.180300 520.000000

