>compound AU35791825
>parentmass 363.3105
>ionization [M+H]+
>formula C20H42O5
>rt 809.000000
>profile qtof
#smiles_iso CCCCCCCCCCCCOCCOCCOCCOCCO
#smiles_can CCCCCCCCCCCCOCCOCCOCCOCCO
#inchikey WPMWEFXCIYCJSA-UHFFFAOYSA-N
#pubchem_id 78933
#mb_accession AU406501,AU406502,AU406503,AU406504,AU406505,AU406506

>ms2peaks
133.085100 8484.000000
151.096100 1216.000000
169.195600 1800.000000
177.111700 6576.000000
195.122300 27360.000000
196.125300 2800.000000
213.221800 1392.000000
257.247900 5496.000000
258.252800 984.000000
301.275100 1440.000000
347.315100 1148.000000
363.311600 183556.000000
365.316800 5240.000000

>ms2peaks
133.085300 43648.000000
135.101000 448.000000
149.023800 504.000000
151.095600 9028.000000
169.194400 6496.000000
177.111300 14108.000000
195.121900 47116.000000
196.125400 3728.000000
197.126800 352.000000
201.150700 308.000000
213.221100 2736.000000
214.226100 408.000000
257.247700 2568.000000
258.249700 540.000000
275.256100 464.000000
301.140700 812.000000
301.272000 408.000000
319.285800 1064.000000
320.288700 372.000000
363.310700 9796.000000
365.317500 472.000000

>ms2peaks
133.085600 5984.000000
149.022300 836.000000
151.095400 1684.000000
169.192900 388.000000
177.111300 848.000000
195.121500 896.000000

>ms2peaks
133.085000 604.000000
149.022500 480.000000

>ms2peaks
133.085400 320.000000

>ms2peaks
45.034000 9352.000000
55.054400 776.000000
57.069600 21560.000000
69.069900 1040.000000
71.085200 15668.000000
73.064500 1596.000000
83.084900 676.000000
85.101300 5556.000000
87.043800 752.000000
89.060000 15808.000000
97.101700 316.000000
99.117300 492.000000
107.070300 2016.000000
111.116200 344.000000
113.134900 392.000000
117.092900 344.000000
133.085800 20512.000000
149.022400 660.000000
151.095700 3684.000000
165.088800 324.000000
169.194700 1068.000000
177.112200 2924.000000
195.122500 8400.000000
196.125100 1044.000000
257.248500 352.000000
301.141400 732.000000
363.311900 612.000000

