>compound AU35076779
>parentmass 821.8876
>ionization [M+H]+
>formula C19H26I3N3O9
>rt 163.035000
>profile qtof
#smiles_iso CC(=O)N(CC(CO)O)C1=C(C(=C(C(=C1I)C(=O)NCC(CO)O)I)C(=O)NCC(CO)O)I
#smiles_can CC(=O)N(CC(CO)O)C1=C(C(=C(C(=C1I)C(=O)NCC(CO)O)I)C(=O)NCC(CO)O)I
#inchikey NTHXOOBQLCIOLC-UHFFFAOYSA-N
#pubchem_id 3730
#mb_accession AU276502,AU276504,AU276505,AU276506

>ms2
821.878000 376.000000
821.898900 340.000000

>ms2
803.878700 396.000000

>ms2
374.986500 584.000000
449.012900 436.000000
449.027400 356.000000
528.863000 344.000000

>ms2
374.983900 384.000000
449.023200 668.000000
803.867400 484.000000

