>compound AU35510479
>parentmass 274.11859999999996
>ionization [M+H]+
>formula C14H15N3O3
>rt 296.569091
>profile qtof
#smiles_iso CC1=C(C(=CC=C1)C)N(CN2C=CC=N2)C(=O)C(=O)O
#smiles_can CC1=C(C(=CC=C1)C)N(CN2C=CC=N2)C(=O)C(=O)O
#inchikey PHMHHVKFXZNTKU-UHFFFAOYSA-N
#pubchem_id 86290103
#mb_accession AU206201,AU206202,AU206203,AU206204,AU206205,AU264201,AU264202,AU264203,AU264204,AU264205,AU264206

>ms2
134.095500 16352.000000
135.098000 1628.000000
162.090100 15932.000000
163.094000 1544.000000
206.080300 18596.000000
207.083800 2412.000000
208.085700 464.000000
224.090600 1164.000000
230.127100 396.000000
274.118700 4340.000000
275.121500 684.000000

>ms2
118.063100 332.000000
119.071500 844.000000
134.095600 28248.000000
135.098800 2296.000000
162.089500 2236.000000
178.086200 644.000000
206.080500 16372.000000
207.083800 1956.000000
224.092100 1232.000000

>ms2
118.064200 700.000000
119.072100 1408.000000
132.079900 604.000000
134.095500 26496.000000
135.099400 3284.000000
160.076000 336.000000
206.079900 2804.000000
207.083800 408.000000
224.092100 412.000000

>ms2
117.057300 488.000000
118.064400 1600.000000
119.072600 1280.000000
132.078900 1104.000000
133.084000 344.000000
134.095800 15392.000000
135.099300 1012.000000

>ms2
117.055900 388.000000
118.063700 1292.000000
119.072700 596.000000
132.079700 1024.000000
134.095500 3724.000000

>ms2
134.095500 15696.000000
135.098800 1868.000000
162.089500 18616.000000
163.092500 2500.000000
206.079800 22904.000000
207.083700 3172.000000
224.090400 844.000000
230.126900 312.000000
274.117600 5292.000000
275.121200 656.000000

>ms2
118.063400 308.000000
119.072900 584.000000
132.080300 308.000000
134.095500 27096.000000
135.098700 2952.000000
148.073700 428.000000
160.075500 412.000000
162.089900 2136.000000
178.085300 716.000000
206.080000 17684.000000
207.083100 2212.000000
208.086200 452.000000
224.091700 668.000000

>ms2
118.063700 764.000000
119.071500 1844.000000
132.079700 1124.000000
134.094800 29824.000000
135.098400 3996.000000
160.072800 324.000000
178.087600 308.000000
206.079800 3604.000000
207.082100 328.000000

>ms2
117.055900 624.000000
118.064100 1060.000000
119.073100 1240.000000
120.074000 416.000000
132.079600 1240.000000
133.083700 340.000000
134.095000 14892.000000
135.098300 1536.000000

>ms2
117.056400 388.000000
118.063800 1332.000000
119.072300 712.000000
132.080000 1220.000000
134.095500 4928.000000

>ms2
69.044000 1868.000000
119.073300 580.000000
134.095700 17612.000000
135.098600 2328.000000
162.089900 480.000000
178.086100 356.000000
206.079500 5804.000000
207.082200 784.000000
224.089200 304.000000

