>compound AU35651309
>parentmass 268.1907
>ionization [M+H]+
>formula C15H25NO3
>rt 285.624000
>profile qtof
#smiles_iso CC(C)NCC(COC1=CC=C(C=C1)CCOC)O
#smiles_can CC(C)NCC(COC1=CC=C(C=C1)CCOC)O
#inchikey IUBSYMUCCVWXPE-UHFFFAOYSA-N
#pubchem_id 4171
#mb_accession AU110701,AU110702,AU110703,AU110704,AU110705

>ms2
268.191000 2456300.000000
269.193700 590072.000000
270.196100 46288.000000

>ms2
116.106500 42668.000000
121.063900 47652.000000
131.084100 8224.000000
133.063700 43468.000000
147.079500 8656.000000
148.074600 13040.000000
159.079300 95428.000000
160.082400 11348.000000
161.094000 7380.000000
165.089900 37872.000000
176.105800 50132.000000
177.089600 33252.000000
179.105200 9908.000000
191.105800 156032.000000
192.109100 18044.000000
194.116100 36436.000000
218.152900 39612.000000
226.142900 69556.000000
227.146500 8944.000000
250.179200 25648.000000
268.190300 1439136.000000
269.193700 206388.000000
270.195900 19340.000000

>ms2
115.053500 4728.000000
116.061700 2936.000000
116.106300 16812.000000
117.069000 2956.000000
117.109500 1560.000000
119.084700 3872.000000
120.056200 2404.000000
121.064100 84012.000000
122.067100 7552.000000
128.061300 1528.000000
129.068900 8352.000000
130.072200 1272.000000
131.047800 5900.000000
131.084600 29376.000000
132.087700 3476.000000
133.063900 184260.000000
134.067200 16368.000000
135.079300 13168.000000
141.068400 11032.000000
142.073900 1160.000000
144.055800 18788.000000
145.059700 2180.000000
147.079100 19228.000000
148.074600 42904.000000
149.058700 2448.000000
149.077500 4060.000000
149.095500 1672.000000
151.074100 8268.000000
152.078500 924.000000
157.063200 1092.000000
158.071400 1104.000000
158.095800 1316.000000
159.079300 127096.000000
160.082700 14856.000000
161.094400 4756.000000
163.110500 5848.000000
165.089700 44424.000000
166.093500 4864.000000
169.074500 4368.000000
175.109900 980.000000
176.106000 22608.000000
177.089800 23412.000000
177.108900 3332.000000
178.092800 2920.000000
179.104900 7564.000000
191.105600 62232.000000
192.108600 7564.000000
194.116100 6852.000000
195.121600 964.000000
201.127700 1264.000000
218.152900 5832.000000
219.156300 1340.000000
226.143000 9128.000000
227.145200 1276.000000
250.178700 1764.000000
268.189900 45932.000000
269.193300 6372.000000

>ms2
115.053600 9796.000000
116.061200 4384.000000
116.106800 3460.000000
117.068900 2620.000000
118.072900 484.000000
119.048400 1624.000000
119.085400 2204.000000
120.056400 2956.000000
120.079800 1328.000000
121.064100 43888.000000
122.067600 3656.000000
123.070600 444.000000
128.061200 3844.000000
129.068600 9728.000000
130.073800 1392.000000
131.048400 5692.000000
131.084700 13940.000000
132.053700 1244.000000
132.087400 1840.000000
133.063900 86608.000000
134.067500 7956.000000
135.079600 11912.000000
136.082800 1392.000000
141.068800 9124.000000
142.072500 1300.000000
143.073600 448.000000
144.055700 21472.000000
145.060800 2944.000000
146.070000 908.000000
147.079400 7296.000000
148.074600 23468.000000
149.057900 960.000000
149.077500 3152.000000
149.093700 632.000000
151.074100 3660.000000
153.090400 484.000000
155.058600 976.000000
157.065100 1272.000000
158.070400 836.000000
159.079100 25432.000000
160.083400 3244.000000
161.094700 1052.000000
163.110200 1348.000000
165.089800 5660.000000
166.093800 520.000000
169.075300 2400.000000
176.106400 1356.000000
177.088800 2316.000000
179.107000 876.000000
191.105400 2980.000000
268.189600 552.000000

>ms2
115.053600 12280.000000
116.061100 4416.000000
116.106500 332.000000
117.069200 1348.000000
118.040600 392.000000
119.047800 1736.000000
119.086000 396.000000
120.056200 2404.000000
120.081500 596.000000
121.064000 12784.000000
122.067700 1504.000000
127.053600 700.000000
128.061600 5140.000000
129.068600 3932.000000
130.064700 432.000000
130.075500 964.000000
131.048600 3840.000000
131.084500 2880.000000
132.056000 748.000000
132.087200 360.000000
133.063900 18048.000000
134.067800 2160.000000
135.079300 3344.000000
135.116400 348.000000
141.069700 3284.000000
144.055800 13484.000000
145.061600 2612.000000
146.060200 736.000000
147.079000 1496.000000
148.074500 6240.000000
149.059100 572.000000
149.077700 800.000000
151.073400 832.000000
155.059700 1160.000000
156.062200 316.000000
156.080200 460.000000
157.064400 1148.000000
158.070700 724.000000
159.079100 2708.000000
160.081800 360.000000
165.089100 308.000000
169.076200 508.000000

