>compound AU35228023
>parentmass 281.99859999999995
>ionization [M+H]+
>formula C8H12INO2
>rt 482.650000
>profile qtof
#smiles_iso CCCCNC(=O)OCC#CI
#smiles_can CCCCNC(=O)OCC#CI
#inchikey WYVVKGNFXHOCQV-UHFFFAOYSA-N
#pubchem_id 62097
#mb_accession AU286801,AU286802,AU286803,AU286804,AU286805,AU286806

>ms2
155.093400 1840.000000
164.918200 68540.000000
165.921300 2096.000000
181.945300 564.000000
182.928800 1224.000000
195.958200 560.000000
220.931100 368.000000
238.008700 1512.000000
281.997900 26940.000000
282.999600 2672.000000

>ms2
164.918900 129384.000000
165.921500 3872.000000
281.996600 728.000000

>ms2
126.902200 936.000000
164.918500 134528.000000
165.921400 4332.000000

>ms2
126.903500 3244.000000
164.918900 135552.000000
165.921400 4108.000000

>ms2
126.903100 7668.000000
164.919000 99492.000000
165.921000 3212.000000

>ms2
55.017400 1324.000000
57.069300 10728.000000
164.919000 154236.000000
165.921900 4904.000000

