>compound AU35182271
>parentmass 232.1444
>ionization [M+H]+
>formula C13H17N3O
>rt 294.040000
>profile qtof
#smiles_iso CC1=C(C(=O)N(N1C)C2=CC=CC=C2)N(C)C
#smiles_can CC1=C(C(=O)N(N1C)C2=CC=CC=C2)N(C)C
#inchikey RMMXTBMQSGEXHJ-UHFFFAOYSA-N
#pubchem_id 6009
#mb_accession AU277601,AU277602,AU277603,AU277604,AU277605,AU277606

>ms2
113.106500 23344.000000
139.085400 49652.000000
149.105800 26424.000000
159.090000 37896.000000
175.085000 13096.000000
177.100700 24212.000000
187.085200 84464.000000
188.091900 29764.000000
231.135600 29532.000000
232.144200 2434780.000000
233.146800 382488.000000
234.149300 25152.000000

>ms2
111.090700 7372.000000
113.106500 9640.000000
114.111200 704.000000
117.056700 380.000000
118.064200 11880.000000
119.067100 1160.000000
123.053900 1424.000000
125.072300 536.000000
127.086400 872.000000
128.048700 932.000000
129.102200 668.000000
130.062900 752.000000
132.043400 9064.000000
132.079200 1888.000000
133.047200 1108.000000
133.075100 4364.000000
134.058700 2760.000000
139.085000 8720.000000
140.089800 980.000000
142.066600 412.000000
144.079100 1036.000000
145.086100 436.000000
146.058500 7256.000000
147.062200 876.000000
147.090500 1840.000000
149.105900 20828.000000
150.108900 1820.000000
155.069200 612.000000
158.058600 2776.000000
159.090200 42724.000000
160.074500 448.000000
160.093600 5288.000000
161.069000 600.000000
161.105200 636.000000
162.078200 596.000000
163.120600 792.000000
169.076200 388.000000
170.058000 608.000000
172.061600 916.000000
173.106900 1544.000000
175.085000 8884.000000
176.088300 992.000000
177.101000 53068.000000
178.103800 5804.000000
179.109100 396.000000
185.068900 1188.000000
187.085100 22044.000000
188.092900 11480.000000
189.097600 1984.000000
189.124600 508.000000
199.086300 724.000000
200.092800 452.000000
201.101800 4204.000000
202.097100 4128.000000
203.100600 720.000000
204.148900 1532.000000
214.132800 3172.000000
215.134800 600.000000
216.112200 10888.000000
217.119600 16624.000000
218.122400 3232.000000
230.127700 8048.000000
231.133700 1860.000000
232.143800 73240.000000
233.146200 10352.000000
234.150600 908.000000

>ms2
111.090600 2736.000000
113.106100 1344.000000
115.051900 336.000000
117.058000 500.000000
118.064100 7984.000000
119.049600 308.000000
120.043000 320.000000
123.054000 3912.000000
124.058300 508.000000
125.069200 328.000000
128.048700 2716.000000
129.054600 640.000000
130.063600 2856.000000
132.043000 9904.000000
132.079200 3904.000000
133.047500 996.000000
133.075500 3588.000000
134.058600 3104.000000
137.069100 400.000000
139.085800 512.000000
142.066300 588.000000
144.066900 484.000000
144.078900 992.000000
145.074100 320.000000
145.086800 540.000000
146.058100 4308.000000
147.061000 592.000000
147.089600 1648.000000
149.105800 7572.000000
150.108700 1188.000000
155.069200 728.000000
157.051300 1056.000000
157.073600 420.000000
158.057600 580.000000
158.081200 680.000000
159.090200 15532.000000
160.073900 396.000000
160.093000 2064.000000
161.070200 1064.000000
171.054600 656.000000
171.092700 336.000000
172.060500 900.000000
173.068100 1744.000000
173.107100 576.000000
174.074800 356.000000
174.100900 364.000000
175.084900 1924.000000
177.100600 8916.000000
178.104600 944.000000
185.068900 4136.000000
186.074900 764.000000
187.085000 1368.000000
188.093700 1484.000000
188.117000 352.000000
198.100200 344.000000
199.085200 2648.000000
200.092300 636.000000
201.099000 1024.000000
202.096100 5052.000000
203.099300 904.000000
214.133300 300.000000
216.111400 8752.000000
217.118400 3104.000000
218.119600 304.000000
230.127900 2048.000000
231.131100 560.000000
232.143500 372.000000

>ms2
111.090000 816.000000
115.053100 340.000000
117.057000 1064.000000
118.064300 2988.000000
123.054200 3268.000000
128.049400 1608.000000
129.055100 648.000000
130.063600 2432.000000
131.060200 380.000000
131.070500 820.000000
132.043600 4888.000000
132.079200 3132.000000
133.076200 1540.000000
134.059300 580.000000
143.070100 300.000000
144.065400 576.000000
144.081000 612.000000
145.074200 356.000000
146.059400 1088.000000
147.055100 440.000000
147.090000 904.000000
149.107300 1180.000000
156.043700 336.000000
157.051900 456.000000
157.074200 504.000000
158.058200 320.000000
158.081100 664.000000
159.090500 3216.000000
171.055000 780.000000
172.061300 508.000000
173.072600 464.000000
175.084900 492.000000
185.069500 1860.000000
187.073600 468.000000
199.085600 2788.000000
202.096100 456.000000
216.113000 1904.000000
217.115800 300.000000

>ms2
111.091500 476.000000
115.053500 324.000000
117.056900 952.000000
118.051700 564.000000
118.063100 1476.000000
123.054000 2824.000000
128.049200 1220.000000
129.054200 712.000000
130.064100 1936.000000
131.070100 560.000000
132.042400 1392.000000
132.065500 384.000000
132.079500 1508.000000
133.077900 460.000000
134.060000 384.000000
142.068700 428.000000
143.057900 372.000000
144.044700 340.000000
144.079600 640.000000
145.076800 388.000000
146.059600 732.000000
147.088600 616.000000
155.059300 488.000000
156.067800 408.000000
157.074700 548.000000
158.080300 332.000000
159.090700 464.000000
161.068300 316.000000
171.052800 552.000000
171.091600 332.000000
185.069500 444.000000
187.072500 516.000000
199.084900 920.000000
200.086700 428.000000
216.112800 444.000000

>ms2
56.048900 243548.000000
57.052500 5256.000000
58.064600 258724.000000
59.067600 8348.000000
68.048800 5148.000000
70.064600 217868.000000
71.068600 6548.000000
72.080300 204752.000000
73.083700 7868.000000
80.049000 1612.000000
82.064800 30100.000000
83.060000 4928.000000
84.044100 5272.000000
84.067900 6656.000000
84.080500 41860.000000
85.085600 2384.000000
87.091500 11256.000000
96.068700 2676.000000
97.076600 208160.000000
98.084400 289648.000000
99.091700 52796.000000
100.095700 2584.000000
106.066200 23012.000000
107.069700 1612.000000
111.093400 157012.000000
112.096200 9980.000000
113.109300 280652.000000
114.111700 13180.000000
118.065000 16572.000000
119.068300 1692.000000
132.043700 9364.000000
132.079700 1780.000000
133.075300 4372.000000
134.059400 1612.000000
139.085800 4512.000000
146.059200 6020.000000
149.106300 15308.000000
150.110300 1756.000000
158.057900 1672.000000
159.090400 34560.000000
160.093700 3792.000000
175.085100 5112.000000
177.101200 32716.000000
178.104200 3728.000000
185.070500 1864.000000
187.085500 15284.000000
188.091900 8688.000000
189.098100 1476.000000
201.100800 2512.000000
202.096900 4004.000000
204.147900 1720.000000
214.132500 1784.000000
216.112700 9988.000000
217.119300 10280.000000
230.128100 4808.000000
231.133500 1744.000000
232.143800 75424.000000
233.146500 8796.000000

