>compound AU35308265
>parentmass 329.153
>ionization [M+H]+
>formula C15H24N2O4S
>rt 191.300000
>profile qtof
#smiles_iso CCN(CC)CCNC(=O)C1=C(C=CC(=C1)S(=O)(=O)C)OC
#smiles_can CCN(CC)CCNC(=O)C1=C(C=CC(=C1)S(=O)(=O)C)OC
#inchikey JTVPZMFULRWINT-UHFFFAOYSA-N
#pubchem_id 5467
#mb_accession AU227801,AU227802,AU227803,AU227804,AU227805,AU227806

>ms2
256.063100 106628.000000
329.153200 2421208.000000
330.156000 471728.000000
331.151100 108148.000000

>ms2
213.020300 24476.000000
256.063600 2329248.000000
257.066400 233780.000000
258.060600 64312.000000
329.152900 1151076.000000
330.155900 151840.000000
331.151000 39544.000000

>ms2
133.051100 14076.000000
177.077000 45172.000000
212.036900 189560.000000
213.021000 428320.000000
214.024400 36228.000000
215.017300 12812.000000
230.047200 30964.000000
241.039300 27848.000000
256.064100 2487152.000000
257.066500 382248.000000
258.060700 95704.000000
329.152900 23724.000000

>ms2
133.051100 92348.000000
134.035100 47100.000000
134.058300 27484.000000
162.053500 25020.000000
166.024800 8636.000000
177.077400 232580.000000
178.048800 20820.000000
178.080700 23524.000000
183.021300 12044.000000
185.025400 23880.000000
209.067300 51624.000000
212.036800 464320.000000
213.020900 1574016.000000
214.024600 97292.000000
215.017500 38724.000000
226.016100 27536.000000
230.047200 63400.000000
241.039500 81140.000000
256.063400 1229472.000000
257.066300 112232.000000
258.060100 34192.000000

>ms2
123.006800 6584.000000
132.043400 12024.000000
133.051400 228592.000000
134.035500 231140.000000
134.058200 35700.000000
135.039000 17152.000000
148.074100 7248.000000
154.978200 6496.000000
162.053900 98956.000000
163.057200 9236.000000
165.040900 11072.000000
166.024800 41096.000000
170.002100 7116.000000
173.025700 7012.000000
177.077800 407012.000000
178.048900 69428.000000
178.080800 32860.000000
181.989800 8504.000000
183.021200 38580.000000
185.025600 34396.000000
209.067500 92992.000000
210.070600 8432.000000
212.037100 205804.000000
213.021100 1291484.000000
214.024400 87284.000000
215.017500 34956.000000
226.016100 36328.000000
230.047300 31560.000000
241.039900 43320.000000
256.063600 111296.000000
257.066200 14628.000000

>ms2
133.051100 14076.000000
177.077000 45172.000000
212.036900 189560.000000
213.021000 428320.000000
214.024400 36228.000000
215.017300 12812.000000
230.047200 30964.000000
241.039300 27848.000000
256.064100 2487152.000000
257.066500 382248.000000
258.060700 95704.000000
329.152900 23724.000000

