>compound AU36947268
>parentmass 326.2353
>ionization [M+H]+
>formula C21H29N2O+
>rt 725.040000
>profile qtof
#smiles_iso CC[N+](CC)(CC1=CC=CC=C1)CC(=O)NC2=C(C=CC=C2C)C
#smiles_can CC[N+](CC)(CC1=CC=CC=C1)CC(=O)NC2=C(C=CC=C2C)C
#inchikey ZFQMTVNLDNXRNQ-UHFFFAOYSA-O
#pubchem_id 15488
#mb_accession AU287601,AU287602,AU287603,AU287604,AU287605,AU287606

>ms2
253.138100 304.000000
266.209200 328.000000
293.213300 344.000000
309.203400 616.000000
325.234300 332.000000

>ms2
221.118400 504.000000

>ms2
175.110400 932.000000
221.116100 1436.000000

>ms2
186.220100 1216.000000
225.041100 444.000000
283.031600 712.000000

>ms2
186.221200 396.000000
225.042300 452.000000
227.020200 420.000000

>ms2
186.221200 1152.000000
283.033600 352.000000

