>compound AU36062325
>parentmass 278.10550000000006
>ionization [M+H]+
>formula C14H16ClN3O
>rt 480.640000
>profile qtof
#smiles_iso CC1=C(C(=CC=C1)C)N(CN2C=CC=N2)C(=O)CCl
#smiles_can CC1=C(C(=CC=C1)C)N(CN2C=CC=N2)C(=O)CCl
#inchikey STEPQTYSZVCJPV-UHFFFAOYSA-N
#pubchem_id 49384
#mb_accession AU353901,AU353902,AU353903,AU353904,AU353905,AU353906

>ms2
134.095400 55408.000000
135.098900 5328.000000
210.067600 561540.000000
211.070500 53256.000000
212.064400 112852.000000
213.067500 7088.000000
278.105000 59580.000000
279.107600 8140.000000
280.102200 12460.000000
281.103500 1060.000000

>ms2
134.095600 426696.000000
135.098900 30500.000000
149.022100 2304.000000
210.067600 125832.000000
211.070500 15104.000000
212.064400 30672.000000
213.067500 2324.000000

>ms2
134.095700 547884.000000
135.099100 34708.000000
210.067600 12004.000000
211.070500 1020.000000
212.064400 2852.000000

>ms2
119.072100 2076.000000
132.080100 3920.000000
134.095900 377840.000000
135.099400 24424.000000

>ms2
117.056100 1412.000000
118.064400 1772.000000
119.072400 1576.000000
132.080200 5076.000000
134.095800 140160.000000
135.099200 12168.000000

>ms2
76.978300 2464.000000
134.096400 354748.000000
135.099700 41028.000000
210.068200 66220.000000
211.071200 7100.000000
212.065200 16944.000000

