>compound AU36777632
>parentmass 340.0485
>ionization [M+H]+
>formula C14H13NO7S
>rt 266.000000
>profile qtof
#smiles_iso CS(=O)(=O)C1=CC(=C(C=C1)C(=O)C2C(=O)CCCC2=O)[N+](=O)[O-]
#smiles_can CS(=O)(=O)C1=CC(=C(C=C1)C(=O)C2C(=O)CCCC2=O)[N+](=O)[O-]
#inchikey KPUREKXXPHOJQT-UHFFFAOYSA-N
#pubchem_id 175967
#mb_accession AU318001,AU318002,AU318003

>ms2peaks
227.994200 1112.000000
340.048100 3220.000000
341.051100 584.000000

>ms2peaks
227.995200 5296.000000
228.998900 564.000000
340.051200 368.000000

>ms2peaks
227.995200 3964.000000

