>compound AU36251325
>parentmass 271.0633
>ionization [M+H]+
>formula C15H11ClN2O
>rt 538.500000
>profile qtof
#smiles_iso C1C(=O)NC2=C(C=C(C=C2)Cl)C(=N1)C3=CC=CC=C3
#smiles_can C1C(=O)NC2=C(C=C(C=C2)Cl)C(=N1)C3=CC=CC=C3
#inchikey AKPLHCDWDRPJGD-UHFFFAOYSA-N
#pubchem_id 2997
#mb_accession AU161102,AU161103,AU161104,AU161105

>ms2peaks
140.025200 4932.000000
141.028900 536.000000
142.022500 1532.000000
165.020300 3308.000000
166.023300 564.000000
167.016200 1128.000000
168.019800 868.000000
208.098300 4000.000000
226.041000 1120.000000
228.037600 896.000000
243.067700 5524.000000
244.069600 1008.000000
245.064300 1552.000000
271.062800 166780.000000
272.065900 22228.000000
273.059900 38168.000000
274.062700 3564.000000

>ms2peaks
116.047800 880.000000
117.055900 504.000000
118.064100 336.000000
127.017700 636.000000
129.044900 368.000000
130.050000 660.000000
133.051200 748.000000
138.009600 932.000000
140.025200 33564.000000
141.028900 2788.000000
142.022500 7680.000000
143.024900 348.000000
144.043700 796.000000
150.008400 924.000000
152.003800 336.000000
158.046100 5404.000000
164.011600 360.000000
165.020100 25036.000000
166.004300 2248.000000
166.023300 1824.000000
167.016200 6188.000000
168.000900 856.000000
168.019800 1576.000000
170.016300 480.000000
180.078900 1192.000000
181.087300 784.000000
190.064100 884.000000
191.071600 2160.000000
192.075400 380.000000
193.014500 3172.000000
193.087300 2392.000000
195.012400 948.000000
199.030700 492.000000
206.083100 1048.000000
207.067700 752.000000
207.090900 2820.000000
208.098600 27300.000000
209.083000 708.000000
214.040300 3108.000000
215.045300 484.000000
216.038800 1208.000000
216.056900 1464.000000
217.076200 372.000000
218.054000 456.000000
218.081900 1608.000000
219.067000 1244.000000
226.040600 6556.000000
227.047000 1684.000000
228.038300 1956.000000
229.045300 444.000000
235.086900 960.000000
236.093000 640.000000
241.052400 1440.000000
242.034300 456.000000
242.059000 2880.000000
243.067700 13736.000000
244.069600 2088.000000
245.064300 3784.000000
246.066000 740.000000
253.053000 1196.000000
255.047500 452.000000
271.062800 62612.000000
272.065900 9688.000000
273.059900 16588.000000
274.062700 1508.000000

>ms2peaks
113.014700 308.000000
116.048900 2036.000000
117.056700 700.000000
118.061900 428.000000
123.001500 320.000000
127.017000 1684.000000
128.020400 344.000000
129.043700 1152.000000
130.051400 2376.000000
131.057300 412.000000
133.050000 1152.000000
138.009200 4092.000000
139.015300 392.000000
140.025200 33872.000000
141.028900 3048.000000
142.022500 10960.000000
144.044900 312.000000
150.009600 1912.000000
151.013900 448.000000
151.052800 360.000000
152.061400 676.000000
153.068500 404.000000
158.046400 5748.000000
163.003900 540.000000
164.011900 572.000000
164.062600 320.000000
165.020300 25548.000000
166.005000 2804.000000
166.023300 2260.000000
167.016200 5916.000000
168.000600 644.000000
168.019800 1008.000000
178.063900 788.000000
179.072200 960.000000
180.079500 5344.000000
181.086400 2132.000000
182.085400 344.000000
182.092900 324.000000
190.063400 3152.000000
191.071400 6876.000000
192.077000 1036.000000
193.015800 1232.000000
193.087600 3028.000000
194.089400 316.000000
199.030000 848.000000
200.031400 364.000000
201.032100 560.000000
206.060200 328.000000
206.082600 1872.000000
207.066400 2016.000000
207.090500 6544.000000
208.098500 29044.000000
209.080500 764.000000
214.040800 3488.000000
215.042300 876.000000
216.038600 880.000000
216.055400 1132.000000
217.080400 600.000000
218.051600 368.000000
218.082500 2624.000000
219.067200 900.000000
219.085800 428.000000
224.023000 316.000000
226.040600 4548.000000
227.047200 2872.000000
228.038100 1952.000000
229.044100 472.000000
235.086900 1364.000000
241.051200 3720.000000
242.035500 556.000000
242.058100 1588.000000
243.050000 1004.000000
243.069100 2236.000000
244.056600 576.000000
244.071600 480.000000
245.065200 744.000000
252.044900 312.000000
253.049700 416.000000
271.062000 5012.000000

>ms2peaks
116.049000 1096.000000
117.055800 700.000000
122.998600 768.000000
123.994200 472.000000
127.017100 1564.000000
129.014500 752.000000
129.043900 2532.000000
130.051200 2668.000000
131.059000 892.000000
137.003300 312.000000
138.009400 6580.000000
139.012700 712.000000
140.025000 16444.000000
141.028100 1444.000000
142.022200 5392.000000
143.026400 332.000000
150.010000 740.000000
151.053600 824.000000
152.060700 1692.000000
153.067800 776.000000
158.046500 1816.000000
163.005300 1000.000000
163.053800 868.000000
164.013100 352.000000
164.060600 1508.000000
165.020300 11856.000000
165.069000 2264.000000
166.004500 1240.000000
166.023000 1108.000000
166.072100 504.000000
167.072300 384.000000
168.000900 496.000000
169.063200 812.000000
177.990400 312.000000
178.065300 1400.000000
179.071800 2572.000000
180.079600 11072.000000
181.086000 2444.000000
182.080700 308.000000
190.064500 9476.000000
191.071500 6676.000000
192.077900 1720.000000
193.016900 388.000000
193.085600 1812.000000
194.081200 300.000000
194.089900 504.000000
199.028800 1792.000000
200.033800 356.000000
201.028400 656.000000
205.074900 860.000000
206.058600 460.000000
206.082500 3508.000000
207.067200 1280.000000
207.089800 10752.000000
208.098300 14704.000000
214.041300 3096.000000
215.046300 476.000000
216.037500 976.000000
216.058900 304.000000
217.074900 852.000000
218.082400 1272.000000
219.066200 672.000000
220.071900 372.000000
226.040000 1304.000000
227.047900 1080.000000
228.040100 492.000000
228.049100 364.000000
229.046400 456.000000
235.085100 556.000000
241.052200 3080.000000
242.056700 792.000000
243.049100 1064.000000
243.064300 472.000000

