>compound AU36258736
>parentmass 293.0703
>ionization [M+H]+
>formula C12H12N4O3S
>rt 234.000000
>profile qtof
#smiles_iso CC(=O)NC1=CC=C(C=C1)S(=O)(=O)NC2=NC=CC=N2
#smiles_can CC(=O)NC1=CC=C(C=C1)S(=O)(=O)NC2=NC=CC=N2
#inchikey NJIZUWGMNCUKGU-UHFFFAOYSA-N
#pubchem_id 64952
#mb_accession AU201301,AU201302,AU201303,AU201304,AU201305

>ms2peaks
136.073800 1128.000000
198.020300 1644.000000
227.093100 332.000000
293.069900 44624.000000
294.072700 6440.000000
295.066900 2400.000000

>ms2peaks
134.058900 6368.000000
135.063900 908.000000
136.074800 3824.000000
137.078000 480.000000
150.054200 1548.000000
152.068500 324.000000
156.011400 740.000000
158.000700 1416.000000
162.065000 1424.000000
176.011800 1212.000000
185.080800 552.000000
198.021200 15268.000000
199.024400 1692.000000
200.017600 812.000000
227.091900 3332.000000
228.095300 652.000000
293.070200 17232.000000

>ms2peaks
134.059100 14272.000000
136.075400 1592.000000
150.054600 1324.000000
156.011000 1560.000000
158.001000 796.000000
162.065500 1048.000000
176.010800 588.000000
185.081100 1808.000000
198.020700 4696.000000
199.024400 312.000000
227.091100 2144.000000
293.068900 740.000000

>ms2peaks
134.059100 5700.000000
135.060900 744.000000
156.011100 508.000000
168.054800 340.000000
184.073000 404.000000
185.080900 2196.000000
186.066200 376.000000
186.082800 380.000000
198.020000 332.000000
227.092600 536.000000

>ms2peaks
134.059400 1336.000000
158.069600 404.000000
168.054500 348.000000
185.081300 940.000000

