>compound AU36841054
>parentmass 312.06649999999996
>ionization [M+H]+
>formula C14H15Cl2N3O
>rt 628.400000
>profile qtof
#smiles_iso C1CC1(C(CC2=CC=CC=C2Cl)(CN3C=NC=N3)O)Cl
#smiles_can C1CC1(C(CC2=CC=CC=C2Cl)(CN3C=NC=N3)O)Cl
#inchikey HHUQPWODPBDTLI-UHFFFAOYSA-N
#pubchem_id 119361
#mb_accession AU258101,AU258102,AU258103,AU258104,AU258105,AU258106

>ms2
312.066000 556152.000000
313.069200 69544.000000
314.063200 277908.000000

>ms2
125.014300 52276.000000
126.017100 2920.000000
127.011300 10008.000000
139.029800 4032.000000
151.029500 4812.000000
153.068400 3064.000000
154.075800 4596.000000
177.044700 3096.000000
189.045300 14120.000000
191.043300 2812.000000
225.022000 3068.000000
312.066200 505708.000000
313.069100 67540.000000
314.063400 261912.000000

>ms2
115.053200 2068.000000
116.060200 960.000000
125.014300 97028.000000
126.017600 7516.000000
127.011000 21076.000000
128.014300 1068.000000
128.061400 1496.000000
129.069400 1776.000000
130.076000 956.000000
130.121700 1092.000000
137.014100 1288.000000
139.029400 7992.000000
140.033100 964.000000
141.026900 2692.000000
141.068600 2456.000000
142.076300 6076.000000
143.082900 2224.000000
144.091500 2884.000000
149.013800 2280.000000
151.010900 524.000000
151.029500 8004.000000
152.033100 956.000000
152.060900 1228.000000
153.026700 1752.000000
153.068600 8780.000000
154.076000 13496.000000
155.023700 1580.000000
155.057900 544.000000
155.080400 1428.000000
158.974200 2364.000000
160.972300 1280.000000
162.022500 1412.000000
163.029700 2744.000000
165.027100 688.000000
165.044600 1560.000000
165.068800 4444.000000
166.075600 1256.000000
169.073700 804.000000
171.043400 556.000000
176.037300 520.000000
177.045800 4256.000000
179.043200 1116.000000
179.059500 1900.000000
181.056500 552.000000
181.077200 948.000000
183.057300 548.000000
185.074500 1044.000000
187.057100 2720.000000
189.045100 9248.000000
190.050400 1828.000000
191.042700 1960.000000
225.022200 688.000000
312.066000 17436.000000
313.068900 2960.000000
314.062500 10840.000000

>ms2
115.053500 3900.000000
116.061000 2220.000000
125.014600 124128.000000
126.017400 8772.000000
127.011300 30684.000000
128.014600 1512.000000
128.060400 3900.000000
129.069000 4132.000000
130.075800 1908.000000
130.121100 856.000000
137.014000 1772.000000
139.029300 5316.000000
140.033300 736.000000
141.027800 1308.000000
141.069300 6396.000000
142.076400 7244.000000
143.082400 1852.000000
144.092000 1336.000000
149.014000 2848.000000
151.029300 5632.000000
152.060800 4604.000000
153.027000 1456.000000
153.068400 10672.000000
154.076200 14104.000000
155.025000 804.000000
155.058500 1136.000000
155.081500 2348.000000
158.975400 1756.000000
160.971700 884.000000
162.021600 2064.000000
163.029500 2584.000000
164.017200 640.000000
165.068900 736.000000
169.074400 1068.000000
172.025700 896.000000
175.030200 744.000000
176.037400 760.000000
177.045800 2136.000000
189.019900 656.000000
189.045000 3044.000000
190.050600 740.000000
191.040300 976.000000

>ms2
115.053000 5752.000000
116.060700 2424.000000
125.014400 113444.000000
126.017900 9252.000000
126.044500 856.000000
127.011400 28028.000000
127.052900 1560.000000
128.015000 1092.000000
128.061200 5812.000000
129.068100 4868.000000
130.077100 1460.000000
137.014700 1400.000000
139.010600 592.000000
139.030100 2424.000000
141.069000 8544.000000
142.076200 5804.000000
143.080600 1068.000000
145.064600 860.000000
149.013900 3612.000000
151.011400 848.000000
151.028700 1372.000000
152.060900 6464.000000
153.068200 13648.000000
154.075600 8888.000000
155.059200 1236.000000
155.082900 2396.000000
158.974900 900.000000
160.971700 624.000000
162.021800 2192.000000
163.029000 1004.000000
164.019400 644.000000
172.025400 792.000000
177.044700 644.000000

>ms2
65.038100 1100.000000
70.039700 173264.000000
71.036800 1864.000000
71.042600 3824.000000
115.053900 892.000000
125.014700 69456.000000
126.017700 4864.000000
127.011500 17156.000000
130.122200 1392.000000
139.029900 6360.000000
141.027000 1412.000000
142.076500 2684.000000
143.084700 1064.000000
144.091300 1176.000000
149.014200 912.000000
151.029900 5832.000000
152.061200 1304.000000
153.027100 1212.000000
153.068900 4100.000000
154.075900 7356.000000
155.025800 1096.000000
155.079700 912.000000
158.974600 1064.000000
163.029400 2432.000000
165.068700 10984.000000
166.076200 1716.000000
171.042000 1172.000000
177.045700 2580.000000
179.061200 1224.000000
185.074500 2432.000000
189.045600 6132.000000
190.049100 1240.000000
191.042000 1796.000000
205.068000 1244.000000
247.072800 1448.000000
312.066900 101572.000000
313.069300 18228.000000
314.063900 81020.000000

