>compound AU36506585
>parentmass 320.1524
>ionization [M+H]+
>formula C17H22ClN3O
>rt 675.590000
>profile qtof
#smiles_iso CC1(CCC(C1(CN2C=NC=N2)O)CC3=CC=C(C=C3)Cl)C
#smiles_can CC1(CCC(C1(CN2C=NC=N2)O)CC3=CC=C(C=C3)Cl)C
#inchikey XWPZUHJBOLQNMN-UHFFFAOYSA-N
#pubchem_id 86210
#mb_accession AU258301,AU258302,AU258303,AU258304,AU258305,AU258306

>ms2
320.152400 664596.000000
321.155200 106544.000000
322.149700 159876.000000

>ms2
125.014500 6280.000000
127.011600 1224.000000
177.045500 3300.000000
179.044200 1232.000000
233.108800 4776.000000
235.106400 1560.000000
320.152700 241376.000000
321.155700 44888.000000
322.149900 69400.000000

>ms2
125.014200 14024.000000
126.017700 1160.000000
127.011300 4520.000000
139.029300 1212.000000
141.026000 320.000000
142.076200 716.000000
151.029800 744.000000
153.045700 388.000000
163.029100 1392.000000
165.026000 476.000000
165.046400 368.000000
166.096700 924.000000
177.045900 3540.000000
178.047600 380.000000
179.041600 1384.000000
179.062600 388.000000
191.060000 1352.000000
193.061100 392.000000
208.142000 460.000000
209.146200 312.000000
210.158600 604.000000
233.108200 1408.000000
234.113400 352.000000
235.107200 584.000000
320.151900 6252.000000
321.153600 1448.000000
322.147900 2192.000000

>ms2
115.053900 380.000000
116.059600 416.000000
125.014700 30968.000000
126.017400 3012.000000
127.011400 9748.000000
128.013900 448.000000
128.062600 700.000000
129.068000 400.000000
139.029700 2168.000000
141.027400 844.000000
141.067600 1276.000000
142.076700 3264.000000
143.080400 564.000000
144.094000 396.000000
145.063500 312.000000
149.014300 432.000000
151.030300 2360.000000
153.027300 872.000000
155.024200 308.000000
155.059200 552.000000
156.090700 720.000000
163.030800 1748.000000
165.027100 476.000000
165.044300 548.000000
166.096700 732.000000
169.074400 352.000000
177.045300 2960.000000
178.052000 356.000000
179.041200 1052.000000
191.061600 1068.000000
193.057200 568.000000
210.160500 400.000000
211.164000 456.000000

>ms2
115.054300 1076.000000
116.060200 600.000000
125.014200 28028.000000
126.017500 3484.000000
127.011100 10152.000000
128.014600 556.000000
128.060900 1340.000000
129.069400 656.000000
130.075800 488.000000
139.028400 1040.000000
140.036700 308.000000
141.067900 2100.000000
142.076800 4304.000000
143.079000 596.000000
144.092700 400.000000
145.062700 432.000000
149.014200 488.000000
151.030200 1296.000000
153.026600 616.000000
155.059100 552.000000
155.082400 444.000000
156.091900 800.000000
162.022100 556.000000
163.029000 1368.000000
165.024100 384.000000
169.075900 532.000000
177.046100 920.000000
179.041200 536.000000

>ms2
70.039500 209932.000000
71.042200 4412.000000
125.014100 21828.000000
126.017400 2044.000000
127.011400 5352.000000
139.029500 2468.000000
151.030000 1168.000000
163.030300 1904.000000
177.046000 5924.000000
179.043000 1916.000000
191.060800 1572.000000
233.107400 4104.000000
235.105900 1776.000000
320.152100 97088.000000
321.155000 18524.000000
322.149200 26976.000000

