>compound AU37145942
>parentmass 266.16519999999997
>ionization [M+H]+
>formula C17H19N3
>rt 324.430000
>profile qtof
#smiles_iso CN1CCN2C(C1)C3=CC=CC=C3CC4=C2N=CC=C4
#smiles_can CN1CCN2C(C1)C3=CC=CC=C3CC4=C2N=CC=C4
#inchikey RONZAEMNMFQXRA-UHFFFAOYSA-N
#pubchem_id 4205
#mb_accession AU155101,AU155102,AU155103,AU155104,AU155105,AU155106

>ms2peaks
195.901000 17464.000000
209.106300 4444.000000
223.122900 1296.000000
235.122400 772.000000
266.165200 1183148.000000
267.168300 213344.000000
268.171100 16108.000000

>ms2peaks
194.082600 3644.000000
195.091200 420396.000000
209.106900 72440.000000
266.165100 680824.000000
267.168300 101636.000000
268.170800 6828.000000

>ms2peaks
195.090800 896968.000000
197.097100 5424.000000
209.106300 108200.000000
266.164300 32296.000000

>ms2peaks
115.053800 7992.000000
180.079800 24852.000000
181.085700 5760.000000
193.075700 5868.000000
195.091100 995920.000000
209.106900 57072.000000
220.097800 5408.000000
223.122200 5520.000000

>ms2peaks
115.053600 7628.000000
116.048700 3028.000000
117.044400 2828.000000
128.060400 2488.000000
131.059900 4228.000000
131.071800 5368.000000
139.053800 2960.000000
141.068300 6864.000000
144.079600 7540.000000
151.052900 5212.000000
152.060700 6536.000000
153.056900 2820.000000
153.068500 4120.000000
154.064300 4012.000000
165.068700 5608.000000
168.079200 36996.000000
169.063600 5896.000000
177.056400 4040.000000
180.079500 32276.000000
182.095300 5020.000000
191.071800 5216.000000
192.078800 6096.000000
195.090700 483244.000000
196.076600 3236.000000
197.096900 2824.000000
205.075900 5176.000000
206.082300 4436.000000
208.097500 4660.000000
218.083500 2940.000000
219.091100 16104.000000
220.096300 2952.000000
221.106500 2744.000000

>ms2peaks
58.064800 9692.000000
70.064500 18752.000000
72.080500 1016944.000000
73.083600 38912.000000
92.049400 7476.000000
107.061000 6208.000000
115.054600 9184.000000
144.080000 6680.000000
180.080100 12572.000000
182.095600 14292.000000
194.083300 34092.000000
195.091600 1135020.000000
196.094400 215700.000000
197.097900 9792.000000
209.107100 243032.000000
210.110000 32280.000000
220.098400 6012.000000
223.122600 46228.000000
224.126100 6700.000000
235.122800 56532.000000
236.126400 9284.000000
264.149600 26736.000000
266.165700 701580.000000
267.168600 136532.000000
268.171400 10328.000000

