>compound AU37803319
>parentmass 477.2647
>ionization [M+H]+
>formula C27H37FO6
>rt 662.800000
>profile qtof
#smiles_iso CCCCC(=O)OC1(C(CC2C1(CC(C3(C2CCC4=CC(=O)C=CC43C)F)O)C)C)C(=O)CO
#smiles_can CCCCC(=O)OC1(C(CC2C1(CC(C3(C2CCC4=CC(=O)C=CC43C)F)O)C)C)C(=O)CO
#inchikey SNHRLVCMMWUAJD-UHFFFAOYSA-N
#pubchem_id 578771
#mb_accession AU283301,AU283302,AU283303,AU283304,AU283305,AU283306

>ms2peaks
135.080000 1040.000000
147.079400 2424.000000
153.089500 4280.000000
161.094300 1112.000000
167.105100 2260.000000
171.079900 1828.000000
173.094800 1240.000000
177.090600 1372.000000
185.094300 4156.000000
187.074400 2620.000000
203.105800 1160.000000
263.142000 1876.000000
275.142300 1652.000000
277.157200 3628.000000
278.164500 1308.000000
279.173500 34688.000000
280.176800 7092.000000
281.183800 1296.000000
289.158600 1384.000000
291.173100 4032.000000
292.177700 1484.000000
295.168900 4788.000000
297.184500 6264.000000
298.187600 1396.000000
299.180300 1132.000000
301.158000 2388.000000
307.168900 3692.000000
309.183300 7888.000000
310.187300 1908.000000
319.168200 14952.000000
320.171700 3656.000000
325.177700 6268.000000
326.183700 1800.000000
327.194500 3404.000000
337.179200 51780.000000
338.182400 12380.000000
339.183000 2256.000000
355.190400 179052.000000
356.193300 40684.000000
357.190900 10764.000000
358.189700 1972.000000
373.199000 1400.000000
375.197100 1584.000000
439.247900 1636.000000
457.257800 101024.000000
458.261600 32784.000000
459.262300 5200.000000
477.264600 180344.000000
478.267300 49188.000000
479.270700 7752.000000

>ms2peaks
119.085500 1828.000000
121.063800 1872.000000
121.100400 1452.000000
123.079600 5284.000000
125.095900 1288.000000
133.100100 2556.000000
135.079100 7744.000000
137.095100 4172.000000
145.100100 1040.000000
147.079300 17460.000000
148.082500 2024.000000
149.094500 5560.000000
151.074800 1108.000000
151.110500 1996.000000
153.090100 15648.000000
154.093000 1884.000000
157.100300 704.000000
159.079300 4384.000000
161.059100 992.000000
161.094600 5820.000000
162.098600 804.000000
163.074700 1168.000000
163.110400 768.000000
165.089500 1648.000000
167.105300 12308.000000
168.109900 1256.000000
169.064200 1392.000000
171.079200 12332.000000
171.115000 720.000000
172.083100 1608.000000
173.094700 8380.000000
174.097500 836.000000
175.110100 1288.000000
177.089600 3336.000000
179.105500 1028.000000
183.079200 1016.000000
185.095200 16584.000000
186.098200 2068.000000
187.074200 13420.000000
187.110500 1808.000000
188.077900 2120.000000
189.088700 1256.000000
195.100900 1952.000000
197.095100 2940.000000
198.100200 756.000000
199.074200 1160.000000
199.110200 2444.000000
201.091500 936.000000
203.105800 3532.000000
209.094200 1932.000000
211.112000 2780.000000
213.090800 1180.000000
213.126200 3420.000000
214.128300 1008.000000
215.105800 1712.000000
221.094900 2116.000000
223.110500 3392.000000
224.115600 900.000000
225.126700 1588.000000
227.105800 1196.000000
227.143900 844.000000
235.109600 1352.000000
237.127000 2744.000000
239.106400 2648.000000
239.141900 2600.000000
241.121600 1576.000000
241.157700 2072.000000
243.101300 680.000000
249.127000 2624.000000
251.142600 1896.000000
253.124600 792.000000
253.158400 2940.000000
254.161900 688.000000
261.126800 3060.000000
261.163000 908.000000
262.131400 1348.000000
263.142200 10528.000000
264.146400 2592.000000
265.120300 696.000000
265.157600 2148.000000
267.137100 1444.000000
267.173200 2268.000000
275.142800 6832.000000
276.148200 2096.000000
277.122400 1504.000000
277.157900 17956.000000
278.164700 12272.000000
279.174200 131124.000000
280.177800 27116.000000
281.151800 1964.000000
281.185900 4736.000000
289.157900 9540.000000
290.129100 720.000000
290.160500 2116.000000
291.174100 24832.000000
292.176900 6452.000000
293.154100 1056.000000
293.182100 808.000000
295.132400 1296.000000
295.168800 10612.000000
296.173200 3392.000000
297.184000 8052.000000
298.186700 1836.000000
299.179600 1748.000000
300.184200 664.000000
301.158400 12452.000000
302.160700 3012.000000
304.148200 696.000000
306.159300 944.000000
307.169100 14440.000000
308.172700 3808.000000
309.184600 19536.000000
310.188100 5020.000000
311.163400 2624.000000
319.169300 46388.000000
320.171600 11284.000000
321.176000 1848.000000
325.179500 9924.000000
326.181700 1804.000000
327.194900 5864.000000
328.197500 1400.000000
337.179900 82024.000000
338.182800 20340.000000
339.181800 3352.000000
355.190600 92576.000000
356.193000 22872.000000
357.191000 5200.000000
358.191800 1352.000000
373.199900 2460.000000
375.195500 1096.000000
439.253600 736.000000
457.258500 5548.000000
458.262200 1896.000000
477.266100 1504.000000

>ms2peaks
119.084700 4104.000000
120.088600 624.000000
121.064100 4752.000000
121.100800 2600.000000
123.079500 6268.000000
124.082400 676.000000
125.059000 548.000000
125.095300 1496.000000
128.060900 624.000000
129.070000 680.000000
131.083800 1920.000000
133.064300 772.000000
133.100400 3092.000000
135.079100 14440.000000
136.082800 1636.000000
137.095000 4748.000000
138.098300 544.000000
139.112000 720.000000
143.084500 1648.000000
145.064200 2152.000000
145.100000 2388.000000
147.079200 29364.000000
148.083700 3480.000000
149.094800 7084.000000
150.099200 772.000000
151.074300 1176.000000
151.110200 1440.000000
153.089800 8180.000000
154.092700 768.000000
155.083400 516.000000
157.100600 1408.000000
158.070300 716.000000
159.079000 12300.000000
159.115000 744.000000
160.082700 1672.000000
161.058600 1092.000000
161.094500 7636.000000
162.098600 1352.000000
163.073400 1164.000000
163.110600 1136.000000
165.089700 2052.000000
167.105200 8156.000000
168.109300 1204.000000
169.063000 2404.000000
169.100600 508.000000
170.070200 592.000000
171.079300 20076.000000
171.115300 2148.000000
172.082200 3292.000000
173.094900 13992.000000
174.098300 2040.000000
175.073700 1016.000000
175.111300 1692.000000
177.090200 3124.000000
183.079700 1256.000000
183.116300 604.000000
185.095300 16040.000000
186.098700 3180.000000
187.073800 16364.000000
187.110400 3672.000000
188.078100 2476.000000
188.115100 716.000000
189.070700 528.000000
189.090600 1900.000000
189.123600 544.000000
191.086700 660.000000
191.106500 620.000000
193.100600 556.000000
195.079200 940.000000
195.101100 896.000000
195.115100 508.000000
197.094700 4576.000000
198.099900 1260.000000
199.074000 1480.000000
199.111000 3944.000000
200.115900 804.000000
201.090500 1008.000000
201.128100 992.000000
203.068600 928.000000
203.105500 2624.000000
204.108500 564.000000
205.100600 568.000000
208.085700 944.000000
209.095100 4132.000000
210.099700 1028.000000
211.075300 620.000000
211.110600 5188.000000
212.115800 1220.000000
213.090700 1248.000000
213.126300 6944.000000
214.131600 944.000000
215.105700 1420.000000
217.100900 768.000000
221.094700 5804.000000
222.100400 2056.000000
223.110900 10492.000000
224.115500 2140.000000
225.089600 1156.000000
225.126200 3220.000000
226.133800 780.000000
227.105200 1824.000000
227.140900 760.000000
229.121400 592.000000
231.115500 1012.000000
233.097200 568.000000
234.104300 984.000000
235.111000 3516.000000
236.116400 1528.000000
237.088400 512.000000
237.127100 5124.000000
237.162100 840.000000
238.130800 1108.000000
239.105900 4768.000000
239.141900 4116.000000
240.108900 592.000000
240.146400 900.000000
241.119400 1532.000000
241.157900 1396.000000
243.101900 608.000000
245.098200 640.000000
245.131300 844.000000
247.109700 1228.000000
247.147800 556.000000
248.118200 1884.000000
249.126900 6136.000000
249.161400 640.000000
250.131200 1632.000000
251.106300 836.000000
251.142200 3364.000000
252.147800 1140.000000
253.122500 1368.000000
253.157500 4232.000000
254.160100 828.000000
257.132800 612.000000
258.136900 656.000000
259.112200 1208.000000
259.147300 1204.000000
260.118000 1160.000000
261.126000 4900.000000
261.161700 1500.000000
262.134600 4128.000000
263.105200 1072.000000
263.142400 16544.000000
264.147000 5724.000000
265.121000 928.000000
265.156800 3240.000000
266.161100 1164.000000
267.136500 1492.000000
267.173700 2984.000000
271.147900 568.000000
272.119800 1108.000000
273.126800 1936.000000
273.163100 1332.000000
274.136500 1188.000000
275.142300 5880.000000
276.149000 3828.000000
277.119900 1752.000000
277.158300 19960.000000
278.165200 22500.000000
279.173900 101160.000000
280.176900 22232.000000
281.153200 1908.000000
281.187200 3500.000000
282.158300 572.000000
282.189400 700.000000
283.145800 680.000000
283.149900 556.000000
286.135100 2196.000000
287.139500 564.000000
289.122200 788.000000
289.157300 10640.000000
290.129800 1344.000000
290.162200 2788.000000
291.137500 2404.000000
291.173700 23996.000000
292.177700 5520.000000
293.152200 1580.000000
293.182300 816.000000
294.159000 616.000000
295.133600 1208.000000
295.168900 6112.000000
296.176100 3352.000000
297.183200 3552.000000
298.184600 928.000000
299.180400 804.000000
301.157400 9640.000000
302.162200 2348.000000
304.146200 1464.000000
306.160200 1680.000000
307.168100 8944.000000
308.173000 2108.000000
309.185200 8824.000000
310.188700 1984.000000
311.162900 1664.000000
319.168900 21828.000000
320.170800 4600.000000
321.174000 892.000000
325.179300 2672.000000
326.182000 956.000000
327.192100 1348.000000
337.179400 19500.000000
338.181200 4392.000000
339.182200 928.000000
345.185800 760.000000
355.189300 5072.000000
356.194500 1644.000000
357.185400 688.000000

>ms2peaks
115.053100 1444.000000
117.070300 904.000000
119.084800 6644.000000
120.088000 700.000000
121.063900 9172.000000
121.100300 4788.000000
122.068200 896.000000
123.079700 5420.000000
123.115100 508.000000
125.058700 1140.000000
125.095500 1432.000000
128.061000 2544.000000
129.067600 1560.000000
131.047300 480.000000
131.084100 4504.000000
132.055900 1364.000000
132.086500 528.000000
133.063900 1644.000000
133.099900 4720.000000
134.103900 520.000000
135.079500 19640.000000
136.082800 1944.000000
137.095300 4196.000000
138.097000 384.000000
139.109400 496.000000
141.068400 1552.000000
142.075200 1244.000000
143.084900 6192.000000
144.054800 1092.000000
144.088300 952.000000
145.064200 4296.000000
145.099900 4072.000000
146.104000 488.000000
147.079200 47824.000000
148.082200 4904.000000
149.094600 6968.000000
150.098400 840.000000
151.073300 1044.000000
151.110000 840.000000
153.068800 484.000000
153.089400 3860.000000
154.092800 388.000000
155.058600 448.000000
155.084100 1936.000000
156.057400 332.000000
156.092400 872.000000
157.064100 936.000000
157.100000 2600.000000
158.071800 2616.000000
158.103000 508.000000
159.079200 22104.000000
160.083000 3396.000000
161.059000 1352.000000
161.095000 11220.000000
162.098500 1620.000000
163.074000 1640.000000
163.095500 408.000000
163.110700 772.000000
165.068800 1104.000000
165.089200 1136.000000
167.084900 904.000000
167.105600 4080.000000
168.093800 388.000000
168.108800 508.000000
169.064500 1940.000000
169.100600 1156.000000
170.070100 664.000000
171.079200 31316.000000
171.116500 3040.000000
172.083000 4152.000000
173.094900 19828.000000
174.099400 2572.000000
175.074700 540.000000
175.110500 3120.000000
176.113000 600.000000
177.069900 324.000000
177.089900 2672.000000
177.104200 560.000000
178.075500 520.000000
178.096600 464.000000
179.083600 1460.000000
179.106300 312.000000
180.092800 540.000000
181.063500 408.000000
181.101000 1212.000000
182.070900 652.000000
182.106000 376.000000
183.079300 2452.000000
183.115700 1288.000000
184.086300 1128.000000
185.095000 18892.000000
186.099100 3536.000000
187.074400 16072.000000
187.110400 4156.000000
188.077600 2140.000000
188.116300 776.000000
189.069400 1164.000000
189.090600 2016.000000
189.127800 708.000000
190.093400 396.000000
191.084900 1060.000000
191.106100 364.000000
191.121300 316.000000
192.092500 396.000000
193.100800 1924.000000
194.072300 480.000000
194.105100 468.000000
195.079000 2252.000000
195.116900 1316.000000
196.087500 2084.000000
197.095300 7304.000000
198.100100 2048.000000
199.075300 1788.000000
199.110300 5120.000000
201.090200 1356.000000
201.125000 868.000000
202.074400 532.000000
203.069900 628.000000
203.105100 1500.000000
204.095300 356.000000
205.065100 308.000000
205.099100 1292.000000
206.105600 608.000000
207.080200 632.000000
207.116400 1400.000000
208.087000 2428.000000
209.095200 8224.000000
209.131100 812.000000
210.100800 3480.000000
211.075800 1012.000000
211.110500 8148.000000
212.084000 320.000000
212.117200 2744.000000
213.088000 1792.000000
213.126300 7152.000000
214.093300 372.000000
214.131200 1656.000000
215.086900 572.000000
215.105800 2016.000000
216.091600 756.000000
216.110000 520.000000
217.083300 336.000000
217.101500 768.000000
218.071600 356.000000
218.107400 540.000000
219.078600 728.000000
219.115200 1140.000000
220.086600 580.000000
220.120000 380.000000
221.095200 10024.000000
221.130900 880.000000
222.102100 4476.000000
222.134800 304.000000
223.110600 18972.000000
224.115400 4304.000000
225.090700 1036.000000
225.126100 4164.000000
226.096600 504.000000
226.132000 740.000000
227.107200 1628.000000
227.142500 856.000000
228.106000 504.000000
229.100600 1000.000000
229.122700 460.000000
230.107100 1244.000000
231.081600 312.000000
231.116300 1856.000000
232.086300 420.000000
232.121600 572.000000
233.094900 1488.000000
233.132400 968.000000
234.102100 2868.000000
234.139400 636.000000
235.111400 7360.000000
235.147700 1028.000000
236.117600 3604.000000
236.152800 440.000000
237.088800 572.000000
237.127000 7264.000000
237.163200 784.000000
238.096700 392.000000
238.131300 2520.000000
239.105400 3612.000000
239.141900 4780.000000
240.110300 1020.000000
240.149500 772.000000
241.099900 340.000000
241.119700 1208.000000
241.157500 636.000000
242.116400 468.000000
243.116600 992.000000
244.123200 1168.000000
245.095400 1224.000000
245.130300 1652.000000
246.102800 2060.000000
246.136700 1060.000000
247.110000 3128.000000
247.147800 992.000000
248.118900 6040.000000
249.090600 548.000000
249.126000 10756.000000
249.164100 1112.000000
250.100000 520.000000
250.132700 3140.000000
250.168700 364.000000
251.103100 1088.000000
251.141800 5212.000000
251.177700 924.000000
252.147600 1592.000000
253.096600 300.000000
253.119400 764.000000
253.157200 4460.000000
254.160900 1204.000000
254.176000 328.000000
255.117400 356.000000
256.124600 696.000000
257.097500 316.000000
257.131100 1488.000000
258.100900 680.000000
258.138100 1560.000000
259.110300 2540.000000
259.145500 1924.000000
260.119200 3540.000000
260.153100 564.000000
261.126300 7448.000000
261.161600 2988.000000
262.133400 10124.000000
262.169200 792.000000
263.142300 27484.000000
264.112400 872.000000
264.148500 11660.000000
265.122600 652.000000
265.155400 4024.000000
266.164200 1040.000000
267.099800 464.000000
267.135400 1024.000000
267.174400 1400.000000
268.142600 492.000000
268.175600 440.000000
269.130000 308.000000
271.110900 1000.000000
271.145500 928.000000
272.119200 2200.000000
272.149800 316.000000
273.127000 2052.000000
273.162700 1332.000000
274.134000 4120.000000
274.172900 396.000000
275.105800 820.000000
275.141700 4788.000000
276.114300 468.000000
276.150200 8760.000000
277.122600 1916.000000
277.158000 17192.000000
278.126600 1336.000000
278.165300 21788.000000
279.137900 2868.000000
279.173700 55564.000000
280.141700 1064.000000
280.176700 12376.000000
281.152600 3124.000000
281.183500 2456.000000
282.158600 684.000000
282.188100 404.000000
283.151000 700.000000
285.129300 492.000000
286.134600 4376.000000
287.140500 1160.000000
288.146800 616.000000
289.122500 1436.000000
289.157800 6624.000000
290.129100 2052.000000
290.162600 2448.000000
291.137200 1956.000000
291.174200 10228.000000
292.146200 596.000000
292.176500 3380.000000
293.152000 888.000000
293.181700 544.000000
294.161800 828.000000
295.133600 1348.000000
295.170000 2240.000000
296.176500 1940.000000
297.183300 1920.000000
298.186300 468.000000
301.158600 4948.000000
302.160100 1136.000000
303.165200 300.000000
304.145600 1728.000000
305.147900 792.000000
306.160700 1700.000000
307.169000 4516.000000
308.168800 1216.000000
309.185800 2500.000000
310.188100 768.000000
311.160900 560.000000
319.169500 5568.000000
320.171400 1572.000000
321.181500 376.000000
324.173500 352.000000
325.177400 632.000000
337.178500 2988.000000
338.185800 1044.000000
355.188700 472.000000

>ms2peaks
115.053900 2648.000000
116.062800 528.000000
117.069700 1136.000000
119.084900 8052.000000
120.088100 1264.000000
121.064100 11408.000000
121.100500 4364.000000
122.066900 616.000000
123.079400 3776.000000
124.083600 316.000000
125.059800 520.000000
125.094300 408.000000
128.061000 6040.000000
129.068000 3240.000000
130.076400 1064.000000
131.048500 1548.000000
131.084500 6316.000000
132.055900 2300.000000
132.088900 864.000000
133.063200 2024.000000
133.100300 3944.000000
134.104000 372.000000
135.079300 13424.000000
136.082800 1528.000000
137.094300 1628.000000
138.097900 312.000000
139.073100 408.000000
139.090600 456.000000
141.068800 3692.000000
142.076300 2080.000000
143.084300 7352.000000
144.055700 2860.000000
144.088000 1260.000000
145.063400 7080.000000
145.099600 4656.000000
146.069800 2192.000000
146.102600 688.000000
147.079300 42884.000000
148.082600 4976.000000
149.094700 4432.000000
151.074400 444.000000
152.061600 524.000000
153.069300 892.000000
153.089500 1336.000000
154.076200 496.000000
155.084700 3068.000000
156.056200 588.000000
156.090900 1604.000000
157.063100 1764.000000
157.100300 4000.000000
158.070900 5500.000000
158.105700 680.000000
159.079300 25712.000000
160.083600 3616.000000
161.058200 1892.000000
161.073400 628.000000
161.095100 10556.000000
162.098800 1588.000000
163.074900 1748.000000
163.109700 428.000000
165.069100 1648.000000
165.090400 592.000000
166.076600 904.000000
167.084900 1544.000000
167.105400 992.000000
168.055400 716.000000
168.090600 536.000000
169.063600 2092.000000
169.099500 1952.000000
170.071500 2048.000000
170.107000 428.000000
171.079600 30900.000000
171.114500 2176.000000
172.084200 5032.000000
173.094700 17812.000000
174.070500 364.000000
174.098300 2052.000000
175.073800 772.000000
175.110800 2492.000000
176.114500 464.000000
177.069100 308.000000
177.090600 1028.000000
177.104400 312.000000
178.076000 1204.000000
179.083900 3180.000000
180.092300 1944.000000
181.064100 860.000000
181.099500 1960.000000
182.070600 1748.000000
182.104700 316.000000
183.079600 3496.000000
183.116700 1040.000000
184.086800 1624.000000
184.118400 324.000000
185.095200 15732.000000
186.099700 3240.000000
187.074300 9888.000000
187.110100 3376.000000
188.078300 1424.000000
188.114600 596.000000
189.070000 1140.000000
189.088900 1784.000000
189.128100 436.000000
190.075900 1212.000000
191.084200 2532.000000
192.091500 1156.000000
193.100600 3616.000000
194.072900 1148.000000
194.105700 808.000000
195.079200 3368.000000
195.115700 2220.000000
196.086500 3860.000000
196.118700 324.000000
197.094400 7940.000000
198.101600 2460.000000
199.073600 1652.000000
199.110700 2752.000000
200.116100 580.000000
201.092000 676.000000
201.106400 344.000000
201.125600 548.000000
202.074200 804.000000
203.084400 1236.000000
203.104800 420.000000
203.120600 308.000000
204.091500 804.000000
205.066700 304.000000
205.099800 3176.000000
206.070800 612.000000
206.106700 1384.000000
207.080300 1368.000000
207.115200 1480.000000
208.087300 5060.000000
208.121300 592.000000
209.095000 9164.000000
209.131100 844.000000
210.101200 5924.000000
211.073400 824.000000
211.110500 6748.000000
212.081500 304.000000
212.117100 2312.000000
213.088600 552.000000
213.126300 5212.000000
214.129000 740.000000
215.085500 1596.000000
215.105900 1124.000000
216.092400 1400.000000
217.099700 1952.000000
218.071400 412.000000
218.107400 1704.000000
219.077700 1436.000000
219.115900 1976.000000
220.087800 1648.000000
220.123000 1340.000000
221.095200 10928.000000
221.131300 1204.000000
222.101800 6532.000000
222.139400 484.000000
223.110600 15748.000000
224.081600 620.000000
224.116600 4168.000000
225.090700 800.000000
225.125500 3344.000000
226.096200 636.000000
226.129800 844.000000
227.084300 576.000000
227.105700 752.000000
227.142300 580.000000
228.090900 620.000000
228.103300 368.000000
229.101200 2656.000000
230.106800 2400.000000
231.079100 580.000000
231.114800 2180.000000
232.086400 1200.000000
232.122900 1308.000000
233.095800 3360.000000
233.131700 1520.000000
234.102900 5336.000000
234.136900 836.000000
235.110700 9776.000000
235.147800 1896.000000
236.084700 332.000000
236.117200 4336.000000
236.154000 572.000000
237.091200 716.000000
237.126700 6540.000000
237.162500 620.000000
238.097500 512.000000
238.132000 2260.000000
239.105400 2168.000000
239.141300 2032.000000
240.115600 352.000000
240.145800 396.000000
241.101000 684.000000
241.118200 424.000000
242.108300 1152.000000
243.117100 2352.000000
244.086900 424.000000
244.122900 1728.000000
245.095900 2168.000000
245.131100 2284.000000
246.103900 2608.000000
246.139400 1180.000000
247.110900 5016.000000
247.147600 1052.000000
248.118700 9368.000000
249.089800 536.000000
249.126400 9740.000000
249.163200 952.000000
250.098200 368.000000
250.133100 4136.000000
250.170200 580.000000
251.106000 716.000000
251.141600 3036.000000
251.178800 552.000000
252.111800 324.000000
252.149100 1400.000000
252.182500 644.000000
253.102500 364.000000
253.121700 628.000000
253.156700 2292.000000
254.165800 552.000000
255.114400 336.000000
256.123600 904.000000
257.097700 380.000000
257.131200 1064.000000
258.103600 1076.000000
258.138400 1372.000000
259.110600 3356.000000
259.146300 1272.000000
260.117000 3532.000000
260.153000 452.000000
261.126900 8664.000000
261.163300 2668.000000
262.133500 11516.000000
262.167000 1056.000000
263.142500 26248.000000
264.111700 676.000000
264.148800 12236.000000
265.118200 496.000000
265.154200 3240.000000
266.162800 728.000000
267.136400 744.000000
267.177000 456.000000
268.123700 424.000000
268.137800 316.000000
269.131200 364.000000
271.112200 2268.000000
271.146700 632.000000
272.117300 2708.000000
273.125600 1852.000000
273.162400 548.000000
274.133100 4304.000000
274.160800 328.000000
275.104800 1264.000000
275.141200 3220.000000
276.111600 680.000000
276.149800 5624.000000
277.119900 1616.000000
277.157300 6804.000000
278.130300 724.000000
278.164700 8708.000000
279.137600 1096.000000
279.173900 14776.000000
280.140900 344.000000
280.177700 3520.000000
281.150700 2236.000000
281.181800 444.000000
282.156600 384.000000
283.147400 440.000000
285.128100 668.000000
286.133600 3936.000000
287.136700 1264.000000
288.149000 452.000000
289.122000 1912.000000
289.159100 3432.000000
290.126500 1192.000000
290.161800 852.000000
291.136900 1588.000000
291.175700 2484.000000
292.139600 592.000000
292.176400 440.000000
293.153800 592.000000
294.159000 300.000000
295.132800 356.000000
295.169100 428.000000
297.183500 436.000000
301.158600 1728.000000
302.165100 312.000000
304.145400 1208.000000
305.152800 424.000000
306.160000 1016.000000
307.168600 1020.000000
308.170600 308.000000
309.183800 424.000000
319.168400 1108.000000
337.177200 356.000000

>ms2peaks
57.069100 3264.000000
67.053500 800.000000
69.069700 992.000000
75.043400 476.000000
79.054100 516.000000
81.069000 592.000000
83.084800 892.000000
85.064800 2228.000000
93.070300 1000.000000
95.086400 1736.000000
97.065700 644.000000
103.075900 688.000000
105.069500 812.000000
107.086800 2020.000000
109.102300 1376.000000
117.068400 624.000000
119.084900 3960.000000
120.088100 520.000000
121.064400 7180.000000
121.100900 2864.000000
123.080300 6132.000000
123.117000 540.000000
124.082700 676.000000
125.059200 716.000000
125.095500 1748.000000
131.084600 1720.000000
133.064200 1020.000000
133.100500 3376.000000
135.079800 13484.000000
136.083500 1120.000000
137.095600 4472.000000
138.100300 644.000000
141.069200 484.000000
143.084800 1468.000000
145.064100 1896.000000
145.100500 2464.000000
147.079700 34780.000000
148.082800 3076.000000
149.094700 5616.000000
150.097500 704.000000
151.074600 1224.000000
151.110300 1180.000000
153.090400 9336.000000
154.093600 856.000000
155.084900 772.000000
157.100700 1216.000000
158.071800 860.000000
159.079700 13440.000000
160.082800 1176.000000
161.058900 860.000000
161.095300 8524.000000
162.098400 968.000000
163.075200 1400.000000
163.110700 836.000000
165.090000 2280.000000
167.106100 7900.000000
168.108900 744.000000
169.064000 1620.000000
171.079500 18652.000000
171.116700 1400.000000
172.083600 2140.000000
173.095200 11904.000000
174.099200 1660.000000
175.075500 920.000000
175.109800 1788.000000
177.090500 3036.000000
177.110000 792.000000
178.093000 480.000000
179.086200 576.000000
183.079500 2016.000000
185.095500 17148.000000
186.099600 1836.000000
187.074900 14752.000000
187.110900 2708.000000
188.078600 2044.000000
188.115000 524.000000
189.089500 1636.000000
191.085500 536.000000
191.103900 980.000000
193.101600 804.000000
195.079400 968.000000
195.102100 948.000000
196.083600 596.000000
197.095600 5008.000000
198.099300 940.000000
199.074900 1172.000000
199.110900 3568.000000
200.113800 616.000000
201.091200 908.000000
201.126300 768.000000
203.071300 568.000000
203.106600 2144.000000
205.102700 972.000000
208.087600 992.000000
209.095600 4072.000000
210.101000 1276.000000
211.076800 812.000000
211.111500 4736.000000
212.115600 1260.000000
213.088300 1284.000000
213.126700 5740.000000
215.106400 1824.000000
221.096100 4992.000000
222.101400 1748.000000
223.111200 11680.000000
224.115300 2532.000000
225.092400 512.000000
225.126700 3304.000000
226.132300 860.000000
227.105000 1748.000000
227.141400 720.000000
229.125300 556.000000
231.115700 1060.000000
233.096000 772.000000
233.131600 496.000000
234.103000 1052.000000
234.139800 488.000000
235.111600 3848.000000
235.147400 628.000000
236.116900 1548.000000
237.094800 584.000000
237.126700 4072.000000
237.164000 596.000000
238.132300 1020.000000
239.105900 3512.000000
239.142400 3792.000000
240.108800 940.000000
240.146700 664.000000
241.121000 1480.000000
241.158700 804.000000
243.101600 636.000000
244.124700 516.000000
245.134700 488.000000
246.103300 508.000000
247.112300 1280.000000
248.119400 2884.000000
249.127300 5160.000000
249.163100 764.000000
250.133300 1652.000000
251.105700 536.000000
251.142700 3188.000000
251.177600 568.000000
252.147100 696.000000
253.122800 764.000000
253.158500 3432.000000
254.161700 856.000000
257.133000 664.000000
258.137700 604.000000
259.113000 1224.000000
259.148500 916.000000
260.119300 1120.000000
261.126900 4324.000000
261.165000 1724.000000
262.134200 5280.000000
263.142900 18688.000000
264.148800 5704.000000
265.124200 588.000000
265.157100 2976.000000
266.161600 780.000000
267.137700 1080.000000
267.173800 1908.000000
268.178600 844.000000
272.118800 1532.000000
273.125600 1296.000000
273.163100 1184.000000
274.134400 2220.000000
275.142700 5596.000000
276.149100 4484.000000
277.122400 1632.000000
277.158700 19628.000000
278.166000 24520.000000
279.174800 95128.000000
280.177700 21296.000000
281.153500 2292.000000
281.187300 2916.000000
283.146500 672.000000
286.135100 1852.000000
287.141900 568.000000
289.118600 724.000000
289.158800 9084.000000
290.131000 928.000000
290.161400 1828.000000
291.136000 1664.000000
291.175100 18664.000000
292.143900 492.000000
292.177500 4600.000000
293.153900 1184.000000
293.181000 556.000000
295.133100 1016.000000
295.169400 7304.000000
296.174600 2640.000000
297.184600 4376.000000
298.173900 476.000000
298.189700 940.000000
301.159800 7972.000000
302.163700 1892.000000
304.147400 932.000000
306.161500 1412.000000
307.169200 8748.000000
308.172700 2144.000000
309.185500 7936.000000
310.189300 1836.000000
311.164500 928.000000
312.172000 608.000000
319.170100 22080.000000
320.173700 4952.000000
321.172100 532.000000
325.180600 3304.000000
326.181300 620.000000
327.196400 2240.000000
337.180700 26800.000000
338.183300 5572.000000
339.186600 952.000000
345.186500 684.000000
355.191400 10720.000000
356.194700 3108.000000
357.189200 956.000000
373.199800 548.000000

