>compound AU37316797
>parentmass 256.0151
>ionization [M+H]+
>formula C9H7Cl2N5
>rt 311.170000
>profile qtof
#smiles_iso C1=CC(=C(C(=C1)Cl)Cl)C2=C(N=C(N=N2)N)N
#smiles_can C1=CC(=C(C(=C1)Cl)Cl)C2=C(N=C(N=N2)N)N
#inchikey PYZRQGJRPPTADH-UHFFFAOYSA-N
#pubchem_id 3878
#mb_accession AU152801,AU152802,AU152803,AU152804,AU152805,AU152806

>ms2peaks
256.015300 2444128.000000
257.017200 282424.000000
258.011800 1860468.000000

>ms2peaks
166.027900 16492.000000
186.981100 12940.000000
210.981600 25568.000000
212.978600 15244.000000
220.037700 15128.000000
256.015300 2482764.000000
257.017200 295768.000000
258.011900 2118548.000000

>ms2peaks
122.998700 12276.000000
151.016900 39592.000000
152.012300 14480.000000
153.014100 10744.000000
156.959400 34428.000000
158.956300 19816.000000
158.975000 63288.000000
160.971900 38228.000000
165.020100 50544.000000
166.028100 95308.000000
167.017500 12772.000000
168.024700 19672.000000
171.970300 75212.000000
172.965800 18000.000000
173.967500 42624.000000
173.985900 25796.000000
174.963500 9288.000000
175.982900 14284.000000
178.014800 12420.000000
179.023100 12508.000000
183.970200 42400.000000
185.967500 27472.000000
185.985900 30776.000000
186.981400 86896.000000
187.983500 25044.000000
188.978600 47500.000000
193.038600 11916.000000
196.965200 9344.000000
210.981500 147456.000000
211.978400 32900.000000
212.978700 86296.000000
213.974300 17700.000000
213.990100 13464.000000
215.988800 7860.000000
220.037700 49988.000000
221.042900 11096.000000
222.034300 10564.000000
229.003000 33932.000000
231.000300 18016.000000
256.014700 1507696.000000
257.017000 109524.000000
258.011700 803124.000000

>ms2peaks
110.998700 708.000000
114.033600 1088.000000
115.028000 1480.000000
115.039300 884.000000
116.034700 608.000000
116.048800 1020.000000
120.959300 732.000000
122.998800 21264.000000
123.994300 13120.000000
124.997000 6360.000000
125.991300 3140.000000
126.994000 1784.000000
127.017300 976.000000
128.001800 1756.000000
129.043800 2076.000000
130.050400 680.000000
131.059400 16924.000000
132.062800 1312.000000
132.959700 8808.000000
133.965100 584.000000
134.956700 5680.000000
135.993400 1960.000000
137.001200 872.000000
138.009400 13432.000000
139.016400 2972.000000
140.006100 3076.000000
141.012600 1140.000000
141.043100 1056.000000
142.038600 588.000000
143.047300 2040.000000
144.053000 860.000000
144.959200 9952.000000
145.002800 752.000000
145.967100 1268.000000
146.956600 6244.000000
146.975400 2724.000000
147.965200 636.000000
147.993400 4784.000000
148.973100 1536.000000
149.001000 2304.000000
149.990900 804.000000
150.009300 6356.000000
151.005200 8200.000000
151.017100 57612.000000
152.012500 50456.000000
153.014600 16704.000000
154.009000 14192.000000
154.999900 1712.000000
156.959500 71348.000000
157.962400 5640.000000
158.058800 932.000000
158.068700 1272.000000
158.956500 38756.000000
158.975100 71888.000000
159.970800 29820.000000
160.972200 42388.000000
161.967500 16920.000000
162.970000 5920.000000
163.004800 1632.000000
163.999900 13600.000000
164.967200 3808.000000
165.020300 39048.000000
166.028000 83896.000000
167.017200 9948.000000
167.030500 6304.000000
168.024800 19012.000000
169.015600 1156.000000
169.028300 1160.000000
170.962200 21012.000000
171.970300 72304.000000
172.965300 79312.000000
173.967600 46904.000000
173.985600 13572.000000
174.962600 45328.000000
175.965600 2204.000000
175.983000 9624.000000
176.012700 4976.000000
177.007200 3128.000000
178.015300 16960.000000
179.022400 8528.000000
180.012700 3256.000000
180.029500 3368.000000
181.019600 2324.000000
182.025600 776.000000
183.970300 52476.000000
184.976600 9936.000000
185.070300 1008.000000
185.967400 27256.000000
185.985100 7456.000000
186.076000 2512.000000
186.981100 71908.000000
187.983800 9328.000000
189.981100 5560.000000
190.983800 644.000000
191.023600 652.000000
191.977900 1872.000000
192.029600 948.000000
193.039200 2916.000000
194.034800 3936.000000
194.962100 6608.000000
195.038300 1328.000000
195.966000 604.000000
196.032400 1312.000000
196.964200 8196.000000
197.969800 820.000000
198.963500 3320.000000
198.979100 1296.000000
199.990200 1204.000000
200.978100 992.000000
201.983300 1712.000000
203.010800 548.000000
203.977000 692.000000
204.018700 1308.000000
206.016900 532.000000
209.973700 864.000000
210.981700 98388.000000
211.977800 33100.000000
212.978900 61696.000000
213.974600 17992.000000
214.977100 1276.000000
214.998600 536.000000
220.037300 17128.000000
221.042000 3112.000000
222.034200 3916.000000
223.040100 852.000000
227.000200 1232.000000
229.003300 17672.000000
230.005200 1160.000000
231.000100 9464.000000
238.989200 868.000000
240.985000 812.000000
256.014600 100604.000000
257.017200 10428.000000
258.011300 56952.000000

>ms2peaks
108.984600 1356.000000
114.032500 2240.000000
115.028700 1876.000000
115.040000 1504.000000
116.035900 1024.000000
116.049200 2708.000000
117.044000 708.000000
120.960200 904.000000
121.991600 1084.000000
122.998700 21676.000000
123.994000 24992.000000
124.998400 8072.000000
125.990800 5396.000000
126.995900 2592.000000
127.017400 996.000000
128.001500 2788.000000
128.991800 520.000000
129.043800 2192.000000
129.997800 536.000000
130.052300 824.000000
131.059300 21912.000000
132.062500 1380.000000
132.959600 24348.000000
134.956400 13320.000000
135.961400 520.000000
135.993700 5636.000000
137.001100 1892.000000
137.990500 1568.000000
138.009100 18928.000000
138.999100 596.000000
139.015900 3236.000000
140.006500 4420.000000
140.036100 1540.000000
141.014000 832.000000
141.043000 808.000000
142.005300 568.000000
142.039600 584.000000
143.046400 2132.000000
144.054100 996.000000
144.959300 19340.000000
145.964800 1560.000000
146.956600 9804.000000
146.974500 964.000000
147.962200 880.000000
147.993500 7288.000000
148.971000 956.000000
149.000800 4560.000000
149.991700 2400.000000
150.009000 4612.000000
151.004900 6440.000000
151.016900 36204.000000
152.012400 48876.000000
153.014400 11492.000000
154.008700 12688.000000
154.999600 1412.000000
155.014000 584.000000
156.959400 59592.000000
157.963000 4460.000000
158.056100 1400.000000
158.956400 36892.000000
158.975100 34132.000000
159.970500 23448.000000
160.972300 24016.000000
161.967200 14920.000000
162.969900 7352.000000
163.004800 1988.000000
163.999600 19560.000000
164.967300 4396.000000
165.003000 1912.000000
165.020200 18124.000000
165.997100 4800.000000
166.028000 26220.000000
167.017600 5156.000000
167.029500 2024.000000
168.024900 6428.000000
169.016200 908.000000
170.962400 29216.000000
171.969900 24388.000000
172.965100 93288.000000
173.967200 19020.000000
173.985600 3160.000000
174.962700 50804.000000
175.966500 2172.000000
175.983200 2244.000000
176.011400 2192.000000
177.007700 2060.000000
178.014700 6700.000000
179.022900 2904.000000
180.013800 1228.000000
180.029900 920.000000
181.019200 912.000000
182.963400 528.000000
183.970200 24200.000000
184.977300 8420.000000
185.967600 15096.000000
186.075300 904.000000
186.980700 18316.000000
187.983600 1856.000000
187.999700 596.000000
188.978200 10556.000000
189.981100 2480.000000
191.979200 1116.000000
194.034800 1848.000000
194.962800 14076.000000
195.966700 1656.000000
196.031000 668.000000
196.960500 8644.000000
198.979700 776.000000
199.990800 524.000000
201.984100 596.000000
209.974200 616.000000
210.981600 19812.000000
211.977700 7296.000000
212.978400 13764.000000
213.974000 5308.000000
214.980100 596.000000
220.037900 2952.000000
221.039200 476.000000
222.035200 1152.000000
229.003900 1832.000000
231.001600 1052.000000
256.014800 3872.000000
257.016600 500.000000
258.010700 3016.000000

>ms2peaks
58.039200 18604.000000
151.017800 8272.000000
156.959800 6192.000000
158.975500 15412.000000
160.972800 9332.000000
165.020900 16416.000000
166.028700 26064.000000
168.025200 4988.000000
171.971000 16940.000000
173.968000 10976.000000
173.986600 5864.000000
183.971200 10300.000000
185.968200 5460.000000
185.986600 10952.000000
186.982400 21248.000000
187.983800 6924.000000
188.978800 13184.000000
210.982700 42700.000000
211.979800 7852.000000
212.979300 24960.000000
213.975500 5040.000000
220.038400 15268.000000
229.003900 10364.000000
256.015700 976648.000000
257.018200 91184.000000
258.012600 560940.000000

