>compound AU37745851
>parentmass 395.1213
>ionization [M+H]+
>formula C19H17F3N2O4
>rt 622.236000
>profile qtof
#smiles_iso C/C(=N\OCC1=CC=CC=C1/C(=N\OC)/C(=O)O)/C2=CC(=CC=C2)C(F)(F)F
#smiles_can CC(=NOCC1=CC=CC=C1C(=NOC)C(=O)O)C2=CC(=CC=C2)C(F)(F)F
#inchikey ISZQNKFXNXQTTF-NACSPRHISA-N
#pubchem_id 22899348
#mb_accession AU259601,AU259602,AU259603,AU259604,AU259605

>ms2
116.048800 1064.000000
117.055900 436.000000
134.057900 764.000000
145.024800 836.000000
148.074300 23216.000000
149.077500 2660.000000
186.051500 59028.000000
187.054800 6828.000000
192.064800 4120.000000
193.068800 696.000000
204.063000 800.000000
319.106300 1488.000000
320.109600 380.000000
334.048900 556.000000
336.047600 352.000000
351.130800 5868.000000
352.133100 1444.000000
395.120900 54752.000000
396.123700 12400.000000

>ms2
116.048900 6676.000000
117.055500 2056.000000
134.059400 2308.000000
145.024900 5716.000000
148.074500 38928.000000
149.078200 3648.000000
173.031900 1584.000000
186.051700 161652.000000
187.054600 18176.000000
188.058400 980.000000
192.064300 5424.000000
193.067600 996.000000
204.063400 3180.000000
395.117700 1212.000000

>ms2
116.048800 8284.000000
117.056100 2772.000000
118.063400 832.000000
132.041800 620.000000
134.058400 1920.000000
145.024500 18192.000000
146.027600 1624.000000
148.074300 18484.000000
149.078000 2284.000000
173.030600 7692.000000
186.051300 117604.000000
187.054500 12748.000000
192.063700 1704.000000
204.062100 3288.000000

>ms2
116.049100 11068.000000
117.056000 4012.000000
118.062000 984.000000
125.019800 952.000000
132.043100 800.000000
133.050600 968.000000
134.058900 1716.000000
143.029300 644.000000
145.024900 56028.000000
146.028200 5488.000000
148.074300 9116.000000
149.078800 776.000000
163.034400 1936.000000
173.031100 14868.000000
174.034500 1780.000000
186.051600 89536.000000
187.054500 11488.000000
192.064300 540.000000
204.061400 4304.000000
205.064500 520.000000

>ms2
116.048600 8988.000000
117.056400 5044.000000
118.062500 760.000000
119.011300 468.000000
125.018500 1564.000000
132.043300 720.000000
133.050200 628.000000
134.059300 944.000000
143.027800 472.000000
145.024900 92084.000000
146.028400 7888.000000
148.074500 4444.000000
149.078300 632.000000
159.039900 580.000000
163.035800 1688.000000
166.044800 500.000000
173.030800 15768.000000
174.033700 1852.000000
186.051600 43744.000000
187.054900 4940.000000
204.062500 1744.000000

