>compound AU37883919
>parentmass 308.1524
>ionization [M+H]+
>formula C16H22ClN3O
>rt 654.500000
>profile qtof
#smiles_iso CC(C)(C)C(CCC1=CC=C(C=C1)Cl)(CN2C=NC=N2)O
#smiles_can CC(C)(C)C(CCC1=CC=C(C=C1)Cl)(CN2C=NC=N2)O
#inchikey PXMNMQRDXWABCY-UHFFFAOYSA-N
#pubchem_id 86102
#mb_accession AU257801,AU257802,AU257803,AU257804,AU257805,AU257806

>ms2peaks
308.152500 2149368.000000
309.155400 418980.000000
310.149600 669296.000000

>ms2peaks
125.014400 19516.000000
127.011000 5144.000000
139.029800 6296.000000
151.029600 23128.000000
153.026300 5652.000000
165.045200 9548.000000
308.152300 941396.000000
309.155100 148784.000000
310.149600 254824.000000

>ms2peaks
115.053600 4584.000000
116.060500 3920.000000
117.063100 528.000000
125.014200 48056.000000
126.017500 5280.000000
127.010900 14792.000000
128.013600 776.000000
128.059800 328.000000
129.068700 1872.000000
130.076700 2280.000000
131.080800 300.000000
137.014100 508.000000
139.029100 8820.000000
140.032200 1164.000000
141.026200 2588.000000
143.083400 500.000000
144.092300 584.000000
151.029200 41036.000000
152.033000 4252.000000
153.025900 10336.000000
153.045000 580.000000
154.030700 596.000000
155.025000 1008.000000
155.040100 324.000000
165.044700 11152.000000
166.048500 1612.000000
167.041400 3140.000000
168.044300 348.000000
175.110000 384.000000
179.060300 3632.000000
180.061500 332.000000
181.057500 1032.000000
181.077500 492.000000
221.109400 316.000000
308.151200 16284.000000
309.153700 3052.000000
310.148300 5620.000000

>ms2peaks
115.053700 13128.000000
116.060800 8132.000000
117.064800 1376.000000
125.014300 81396.000000
126.017800 7404.000000
127.011200 25148.000000
128.015300 1020.000000
128.060700 1556.000000
129.069100 5228.000000
130.076500 6460.000000
131.079900 992.000000
137.013800 1360.000000
139.011300 460.000000
139.029500 7684.000000
140.034000 696.000000
141.027700 1808.000000
142.076900 440.000000
143.084100 1200.000000
144.091400 2492.000000
149.014300 628.000000
151.029400 28988.000000
152.033100 2960.000000
153.026600 9276.000000
154.029900 624.000000
165.044900 6880.000000
166.049000 612.000000
167.041900 2176.000000
179.061400 1888.000000
180.064800 432.000000
181.058300 708.000000

>ms2peaks
115.053600 18968.000000
116.061000 12320.000000
117.063600 1168.000000
125.014400 85272.000000
126.017700 7112.000000
127.011400 28200.000000
128.014700 1368.000000
128.061200 3168.000000
129.068500 6512.000000
130.076500 7000.000000
131.079700 1056.000000
137.013600 1500.000000
139.029800 3596.000000
140.032800 508.000000
141.027600 1096.000000
143.084600 720.000000
144.093300 1244.000000
149.013200 1184.000000
150.022700 656.000000
151.029700 9016.000000
152.033100 840.000000
153.026700 2912.000000
155.059900 672.000000
165.045500 2020.000000
167.043100 568.000000

>ms2peaks
57.069400 14212.000000
59.048600 11936.000000
70.039800 1006528.000000
71.042400 25176.000000
83.085000 6832.000000
125.014500 52200.000000
127.011600 12912.000000
139.029800 7368.000000
151.029900 41160.000000
153.026900 9440.000000
165.045700 11148.000000
308.152300 223456.000000
309.155600 58808.000000
310.149900 76296.000000

