>compound AU38775431
>parentmass 301.1183
>ionization [M+H]+
>formula C16H16N2O4
>rt 522.000000
>profile qtof
#smiles_iso CC1=CC(=CC=C1)NC(=O)OC2=CC=CC(=C2)NC(=O)OC
#smiles_can CC1=CC(=CC=C1)NC(=O)OC2=CC=CC(=C2)NC(=O)OC
#inchikey IDOWTHOLJBTAFI-UHFFFAOYSA-N
#pubchem_id 24744
#mb_accession AU377901,AU377902,AU377903,AU377904,AU377905

>ms2
136.038300 12428.000000
137.041900 1432.000000
168.064800 57424.000000
169.067700 5620.000000
170.070300 348.000000
177.110200 320.000000
301.116100 548.000000

>ms2
133.085400 644.000000
136.038700 38768.000000
137.041900 3152.000000
168.065000 16484.000000
169.068300 1696.000000
177.111700 348.000000

>ms2
136.038300 31280.000000
137.041600 3016.000000
138.042600 312.000000
168.064700 5184.000000
169.068100 472.000000

>ms2
136.038200 23128.000000
137.042000 2008.000000
138.045300 428.000000
168.064000 1676.000000

>ms2
136.038600 10536.000000
137.042700 704.000000

