>compound AU38298302
>parentmass 361.12010000000004
>ionization [M+H]+
>formula C20H21ClO4
>rt 745.500000
>profile qtof
#smiles_iso CC(C)OC(=O)C(C)(C)OC1=CC=C(C=C1)C(=O)C2=CC=C(C=C2)Cl
#smiles_can CC(C)OC(=O)C(C)(C)OC1=CC=C(C=C1)C(=O)C2=CC=C(C=C2)Cl
#inchikey YMTINGFKWWXKFG-UHFFFAOYSA-N
#pubchem_id 3339
#mb_accession AU271001,AU271002,AU271003,AU271004,AU271005,AU271006

>ms2peaks
233.036000 602708.000000
234.039200 59216.000000
235.033000 139636.000000
361.120700 2411940.000000
362.123700 481924.000000
363.117900 787712.000000

>ms2peaks
121.027800 62576.000000
138.993700 198824.000000
139.996800 14676.000000
140.990600 49988.000000
233.036400 2374096.000000
234.039400 304892.000000
235.033500 628388.000000
236.036300 45448.000000
361.120500 147004.000000
362.123300 27644.000000
363.117500 38904.000000

>ms2peaks
121.027700 440076.000000
122.030600 29252.000000
138.993500 1384268.000000
139.996800 80288.000000
140.990800 346864.000000
233.035900 1468884.000000
234.039300 155684.000000
235.033200 293148.000000
236.036300 24700.000000

>ms2peaks
110.999100 14760.000000
121.027800 626128.000000
122.031000 39648.000000
138.993700 2009340.000000
139.997100 112308.000000
140.991000 513080.000000
233.036100 202848.000000
234.039100 27292.000000
235.033200 47972.000000

>ms2peaks
110.999300 21304.000000
112.996100 10392.000000
121.027900 231072.000000
122.031200 17076.000000
138.993600 830132.000000
139.997000 52316.000000
140.991000 216088.000000
233.035500 8072.000000

>ms2peaks
59.048600 8208.000000
87.043900 13900.000000
121.028800 412072.000000
122.032000 24856.000000
138.994300 757648.000000
139.997600 47460.000000
140.991400 197196.000000
233.036500 862628.000000
234.039600 173672.000000
235.033400 289776.000000
236.036300 30928.000000
361.120700 17964.000000
362.124400 4888.000000
363.119500 5304.000000

