>compound AU38955303
>parentmass 358.2024
>ionization [M+NH4]+
>formula C21H24O4
>rt 649.644000
>profile qtof
#smiles_iso CC(C)(C1=CC=C(C=C1)OCC2CO2)C3=CC=C(C=C3)OCC4CO4
#smiles_can CC(C)(C1=CC=C(C=C1)OCC2CO2)C3=CC=C(C=C3)OCC4CO4
#inchikey LCFVJGUPQDGYKZ-UHFFFAOYSA-N
#pubchem_id 2286
#mb_accession AU581049,AU581050,AU581051,AU581052,AU581053

>ms2
161.094800 27360.000000
191.105900 325704.000000
358.201800 1213132.000000

>ms2
135.079000 26460.000000
161.094700 102152.000000
173.094700 5676.000000
191.105600 608372.000000
193.111400 5776.000000
281.152500 12884.000000
282.156200 3072.000000
358.200800 11512.000000

>ms2
133.063500 3080.000000
135.079800 81528.000000
147.043100 2136.000000
147.078900 2792.000000
161.095000 78384.000000
173.095200 2584.000000
191.106200 296148.000000
193.111300 2456.000000
281.154200 3600.000000

>ms2
115.054200 2124.000000
117.069000 1464.000000
118.076500 908.000000
119.048000 604.000000
119.085200 1100.000000
121.028300 472.000000
121.063500 844.000000
128.061200 896.000000
129.069000 572.000000
131.049000 496.000000
131.083300 760.000000
133.063600 5620.000000
133.099900 2016.000000
135.079600 91048.000000
137.086900 480.000000
143.084000 504.000000
145.063000 1640.000000
146.070200 796.000000
147.042000 1144.000000
147.078900 2632.000000
158.072000 456.000000
161.094900 39124.000000
173.093800 896.000000
177.052300 632.000000
191.105800 81768.000000
193.111600 908.000000
222.103400 2376.000000
223.111600 568.000000
226.099200 576.000000
239.105800 720.000000
252.113700 2568.000000
254.093500 1952.000000
284.103400 1236.000000
285.107000 528.000000

>ms2
107.048900 532.000000
115.054000 2496.000000
117.069500 1504.000000
118.076400 348.000000
119.048000 992.000000
119.085500 384.000000
121.062600 676.000000
128.063500 860.000000
131.046900 384.000000
133.064100 4524.000000
133.100600 844.000000
135.079600 39516.000000
137.085100 508.000000
143.086400 428.000000
145.064200 752.000000
146.071800 400.000000
147.079200 532.000000
161.094800 11024.000000
165.066600 308.000000
166.075500 308.000000
167.085000 432.000000
178.077700 368.000000
179.085400 840.000000
181.064200 600.000000
181.099900 316.000000
183.078200 316.000000
191.105700 9604.000000
195.079500 420.000000
196.086400 1040.000000
199.075200 352.000000
213.088600 372.000000
222.102900 1652.000000
223.104000 392.000000
228.077700 760.000000
239.107100 484.000000
252.113700 1312.000000
253.118300 300.000000
254.094800 1356.000000
255.095900 352.000000
284.106300 1224.000000
285.106500 392.000000

