>compound AU38119874
>parentmass 146.05999999999997
>ionization [M+H]+
>formula C9H7NO
>rt 256.600000
>profile qtof
#smiles_iso C1=CC=C2C(=C1)C=CC=[N+]2[O-]
#smiles_can C1=CC=C2C(=C1)C=CC=[N+]2[O-]
#inchikey GIIWGCBLYNDKBO-UHFFFAOYSA-N
#pubchem_id 15366
#mb_accession AU250901,AU250902,AU250903,AU250904,AU250905,AU250906

>ms2
128.048500 65492.000000
129.056200 136464.000000
130.059800 12912.000000
146.059300 2273164.000000
147.062100 199540.000000
148.064500 11716.000000

>ms2
117.056300 9680.000000
118.064300 11296.000000
128.048400 273872.000000
129.056200 1267016.000000
130.059300 98148.000000
146.058700 669320.000000
147.061800 64236.000000

>ms2
117.056400 6884.000000
128.048800 195112.000000
129.056500 966824.000000
130.059600 76680.000000
144.043200 9932.000000
146.058800 64216.000000
147.062000 6528.000000

>ms2
117.056100 2076.000000
127.040600 3768.000000
128.048600 149876.000000
129.056200 217588.000000
130.059500 19664.000000
131.063200 1332.000000
133.051700 1088.000000
144.043300 4268.000000
146.058600 22736.000000
147.061900 2808.000000

>ms2
117.057700 340.000000
126.034400 424.000000
127.040100 4172.000000
128.048400 63524.000000
129.055500 31648.000000
130.058600 3416.000000
144.043700 628.000000
146.058700 6620.000000
147.062700 752.000000

>ms2
77.037800 5304.000000
91.054400 44628.000000
95.049000 6576.000000
102.046900 8332.000000
103.054700 11324.000000
117.057100 12500.000000
118.065200 17312.000000
128.049100 191932.000000
129.057000 729676.000000
130.060200 67788.000000
146.059600 558784.000000
147.062700 63704.000000

