>compound AU38489125
>parentmass 434.1738
>ionization [M+Na]+
>formula C24H26FNO4
>rt 652.140000
>profile qtof
#smiles_iso CC(C)N1C2=CC=CC=C2C(=C1/C=C/[C@H](C[C@H](CC(=O)O)O)O)C3=CC=C(C=C3)F
#smiles_can CC(C)N1C2=CC=CC=C2C(=C1C=CC(CC(CC(=O)O)O)O)C3=CC=C(C=C3)F
#inchikey FJLGEFLZQAZZCD-MCBHFWOFSA-N
#pubchem_id 446155
#mb_accession AU210230,AU210231,AU210232,AU210233

>ms2
354.164300 776.000000
416.169900 588.000000
434.177700 1996.000000

>ms2
133.086400 3408.000000
177.112300 2728.000000
178.116100 372.000000
221.140000 472.000000
265.167100 492.000000
327.203100 536.000000
354.163400 548.000000

>ms2
133.086200 2300.000000
177.112700 704.000000

>ms2
133.086600 572.000000

