>compound AU38416520
>parentmass 160.1332
>ionization [M+H]+
>formula C8H17NO2
>rt 236.580000
>profile qtof
#smiles_iso CC(C)C[C@@H](CC(=O)O)CN
#smiles_can CC(C)CC(CC(=O)O)CN
#inchikey AYXYPKUFHZROOJ-ZETCQYMHSA-N
#pubchem_id 5486971
#mb_accession AU166801,AU166802,AU166803

>ms2peaks
124.112000 3400.000000
125.096400 3536.000000
142.122800 43476.000000
143.106700 9380.000000
143.125800 3780.000000
144.110000 1040.000000
160.133500 35284.000000
161.136400 2680.000000

>ms2peaks
124.112600 3228.000000
125.096500 1652.000000
142.122600 7152.000000
143.108400 548.000000
143.126900 572.000000
160.132700 576.000000

>ms2peaks
142.122600 300.000000

