>compound AU39261853
>parentmass 266.1387
>ionization [M+H]+
>formula C14H19NO4
>rt 396.000000
>profile qtof
#smiles_iso CCC1=C(C(=CC=C1)CC)N(COC)C(=O)C(=O)O
#smiles_can CCC1=C(C(=CC=C1)CC)N(COC)C(=O)C(=O)O
#inchikey MHCYOELBTPOBIU-UHFFFAOYSA-N
#pubchem_id 14924483
#mb_accession AU202801,AU202802,AU202803

>ms2peaks
188.106900 376.000000
223.036100 488.000000
234.113100 1128.000000

>ms2peaks
160.113100 488.000000
163.000500 336.000000
188.105200 632.000000
234.113100 244.000000

>ms2peaks
188.104300 452.000000

