>compound AU39740184
>parentmass 321.0192
>ionization [M+H]+
>formula C15H10Cl2N2O2
>rt 533.420000
>profile qtof
#smiles_iso C1=CC=C(C(=C1)C2=NC(C(=O)NC3=C2C=C(C=C3)Cl)O)Cl
#smiles_can C1=CC=C(C(=C1)C2=NC(C(=O)NC3=C2C=C(C=C3)Cl)O)Cl
#inchikey DIWRORZWFLOCLC-UHFFFAOYSA-N
#pubchem_id 3958
#mb_accession AU151201,AU151202,AU151203,AU151204,AU151205,AU151206

>ms2
275.013700 1956.000000
277.012300 1124.000000
303.006800 7336.000000
304.012500 1164.000000
305.004800 4848.000000
306.006000 708.000000
321.018300 71672.000000
322.021100 14552.000000
323.016100 47364.000000

>ms2
138.009400 620.000000
156.020700 360.000000
166.004100 728.000000
229.052100 4848.000000
230.054000 876.000000
231.048700 1360.000000
232.051600 384.000000
250.016500 444.000000
252.014700 500.000000
265.027900 4280.000000
266.030400 648.000000
267.024800 2620.000000
275.013300 37104.000000
276.016700 6604.000000
277.010300 22788.000000
277.992700 412.000000
278.012400 2300.000000
292.015200 508.000000
294.015900 324.000000
303.008100 29344.000000
304.011100 5416.000000
305.005500 19308.000000
306.008000 2208.000000
321.018000 19512.000000
322.021400 4052.000000
323.016300 13316.000000

>ms2
128.025200 1568.000000
130.022600 308.000000
138.009300 4252.000000
139.012700 604.000000
140.006300 688.000000
153.021700 1100.000000
155.018300 424.000000
156.020700 684.000000
163.004500 1876.000000
164.999800 552.000000
166.004900 1088.000000
181.014200 516.000000
194.082000 1280.000000
205.075800 324.000000
214.042100 444.000000
229.051900 35176.000000
230.055000 5800.000000
231.048300 8940.000000
232.052500 556.000000
239.035000 732.000000
240.037000 316.000000
241.027300 1032.000000
250.016200 388.000000
252.013100 376.000000
257.046400 1264.000000
263.013400 416.000000
265.006500 368.000000
265.028500 5928.000000
266.033100 976.000000
267.026700 3824.000000
275.013000 59720.000000
276.015900 10728.000000
277.010300 34092.000000
278.013100 3892.000000
279.005300 424.000000
291.008700 656.000000
292.016900 752.000000
293.006600 556.000000
294.011200 660.000000
295.016900 304.000000
303.007700 9288.000000
304.010500 1332.000000
305.004500 5932.000000
306.009700 696.000000
321.019700 624.000000
323.014800 496.000000

>ms2
118.053400 384.000000
128.025100 2432.000000
130.022900 436.000000
138.009700 9368.000000
139.012700 864.000000
140.006000 2488.000000
153.019800 1652.000000
155.018800 452.000000
156.020200 500.000000
163.004700 8012.000000
164.005000 1272.000000
165.001300 2364.000000
166.003800 1016.000000
167.071100 352.000000
168.002000 308.000000
177.055600 712.000000
181.015800 1836.000000
183.011400 424.000000
193.075000 616.000000
194.082600 9244.000000
195.086800 1700.000000
199.028800 300.000000
205.075100 1596.000000
206.057400 436.000000
206.075200 380.000000
213.034100 480.000000
214.040400 340.000000
221.070700 300.000000
229.052000 48640.000000
230.055000 6972.000000
231.049500 10832.000000
232.050600 1132.000000
239.036100 3996.000000
240.040100 616.000000
241.030900 2012.000000
248.003600 392.000000
249.998100 464.000000
257.048900 868.000000
259.040900 340.000000
263.013600 1036.000000
265.009900 816.000000
265.027500 752.000000
267.025900 504.000000
272.998000 404.000000
275.013300 34044.000000
276.016600 6164.000000
277.010200 22188.000000
278.012700 2684.000000
291.007800 808.000000
293.005600 644.000000
303.008000 1160.000000
305.003900 536.000000

>ms2
118.052200 1048.000000
126.009800 316.000000
127.016800 308.000000
128.024900 1060.000000
135.994400 652.000000
138.009900 9516.000000
139.013400 764.000000
140.006200 3040.000000
150.047600 328.000000
151.003200 380.000000
153.020000 1812.000000
154.004900 628.000000
155.018900 640.000000
163.004800 11272.000000
164.000200 3836.000000
165.002000 2128.000000
165.999600 924.000000
166.064200 1396.000000
167.072500 1208.000000
168.067500 668.000000
168.077700 308.000000
177.055900 3240.000000
178.061800 844.000000
178.999000 352.000000
179.071000 376.000000
181.014900 2764.000000
183.013400 516.000000
186.022400 696.000000
192.066500 460.000000
193.075500 3456.000000
194.083100 22884.000000
195.086000 3232.000000
199.026700 696.000000
204.054300 416.000000
204.067500 992.000000
205.075200 3372.000000
206.062700 616.000000
206.075800 520.000000
212.027800 360.000000
213.033500 996.000000
214.041700 484.000000
215.029600 356.000000
221.071700 732.000000
228.046400 804.000000
229.052300 28876.000000
230.055100 3796.000000
231.049600 7696.000000
232.054400 652.000000
239.036800 6876.000000
240.040000 1080.000000
241.033700 1708.000000
242.038500 364.000000
248.002000 412.000000
257.044900 556.000000
259.048300 312.000000
263.013300 2012.000000
265.010800 928.000000
273.000100 484.000000
275.013900 11224.000000
276.016100 2208.000000
277.010800 7252.000000
278.014400 864.000000
291.008900 704.000000
293.006700 536.000000

>ms2
55.017500 1144.000000
57.068700 1844.000000
89.058500 312.000000
99.042500 3380.000000

