>compound AU39565532
>parentmass 188.0697
>ionization [M+H]+
>formula C6H10ClN5
>rt 336.738000
>profile qtof
#smiles_iso CC(C)NC1=NC(=NC(=N1)N)Cl
#smiles_can CC(C)NC1=NC(=NC(=N1)N)Cl
#inchikey DFWFIQKMSFGDCQ-UHFFFAOYSA-N
#pubchem_id 22563
#mb_accession AU253701,AU253702,AU253703,AU253704,AU253705,AU253706,AU301601,AU301602,AU301603,AU301604

>ms2
146.021500 56224.000000
148.018800 17288.000000
188.069000 655944.000000
189.071300 34728.000000
190.065900 167868.000000

>ms2
146.021900 189368.000000
147.023400 7812.000000
148.018900 52480.000000
188.069100 85976.000000
189.071500 7960.000000
190.066100 26604.000000

>ms2
146.021900 75060.000000
147.023700 3800.000000
148.018800 22236.000000
188.068000 4436.000000
189.073500 504.000000
190.066100 1544.000000

>ms2
146.021400 6884.000000
148.018900 2128.000000

>ms2
146.021600 640.000000

>ms2
68.023800 13080.000000
79.005600 16224.000000
81.002800 3436.000000
104.001900 7584.000000
105.999000 1472.000000
110.047000 4796.000000
146.022900 196700.000000
147.024400 7772.000000
148.019900 48296.000000
188.070000 132728.000000
189.072100 6608.000000
190.066900 38720.000000

>ms2
146.021900 23360.000000
147.023700 1296.000000
148.018700 5952.000000
188.069100 227048.000000
189.071500 12980.000000
190.065900 57512.000000
191.069000 3136.000000

>ms2
146.021900 125412.000000
147.023700 4792.000000
148.018700 28188.000000
149.021900 728.000000
188.069100 50952.000000
189.071500 3932.000000
190.065900 17420.000000
191.069000 708.000000

>ms2
146.021900 40564.000000
147.023700 1820.000000
148.018700 10604.000000
149.021900 300.000000
188.069100 1588.000000
189.071500 184.000000
190.065900 648.000000

>ms2
146.021900 4056.000000
147.023700 256.000000
148.018700 1436.000000

