>compound AU39386370
>parentmass 311.1309999999999
>ionization [M+H]+
>formula C19H19ClN2
>rt 437.550000
>profile qtof
#smiles_iso C1CC2=C(C=CC(=C2)Cl)C(=C3CCNCC3)C4=C1C=CC=N4
#smiles_can C1CC2=C(C=CC(=C2)Cl)C(=C3CCNCC3)C4=C1C=CC=N4
#inchikey JAUOIFJMECXRGI-UHFFFAOYSA-N
#pubchem_id 124087
#mb_accession AU270401,AU270402,AU270403,AU270404,AU270405,AU270406

>ms2peaks
258.127300 15252.000000
259.135700 166752.000000
260.138900 31652.000000
282.104500 26228.000000
294.104900 61576.000000
296.102000 17672.000000
311.132600 2513516.000000
313.129000 1309864.000000

>ms2peaks
258.127300 152324.000000
259.135500 2382276.000000
260.138600 505860.000000
261.141700 26208.000000
267.080700 24860.000000
268.086900 16120.000000
279.080500 50772.000000
280.086500 23224.000000
281.080000 12568.000000
281.094700 24568.000000
282.104100 524740.000000
283.107100 86628.000000
284.101500 135124.000000
294.104300 1110396.000000
295.107500 190424.000000
296.101700 266284.000000
309.114900 12208.000000
311.131000 1876520.000000
312.134200 338632.000000
313.128400 485352.000000

>ms2peaks
228.056600 14504.000000
229.063800 13960.000000
231.103900 23576.000000
232.110100 11948.000000
243.103900 40356.000000
244.110900 35524.000000
245.116900 12328.000000
246.127100 17944.000000
247.134600 39708.000000
253.064700 39548.000000
257.118900 15196.000000
258.127700 362996.000000
259.135700 2379224.000000
260.138600 566144.000000
261.141700 30840.000000
266.072600 43656.000000
267.080600 197440.000000
268.084700 47644.000000
269.078200 52712.000000
278.072700 16868.000000
279.080900 255948.000000
280.087000 114340.000000
281.078900 58464.000000
281.094100 69556.000000
282.104200 615692.000000
283.107300 110456.000000
284.101700 163220.000000
292.088500 69664.000000
293.093100 21600.000000
294.104400 853836.000000
295.107700 145468.000000
296.101900 205964.000000
311.130900 47868.000000
313.128300 13568.000000

>ms2peaks
214.040400 26604.000000
217.087100 15308.000000
218.094900 25556.000000
219.102100 14396.000000
228.056500 21476.000000
229.063800 19584.000000
230.095300 40804.000000
231.103100 99528.000000
232.110300 64448.000000
233.116500 19088.000000
242.095300 21232.000000
243.103500 212232.000000
244.110700 202604.000000
245.116500 58956.000000
246.126300 49904.000000
247.134200 55820.000000
248.137300 10980.000000
252.056700 74596.000000
253.064100 112312.000000
254.065400 22980.000000
255.061700 33468.000000
256.111100 27000.000000
257.118300 42236.000000
258.127100 1317344.000000
259.134600 2183880.000000
260.138000 339344.000000
261.141300 17916.000000
264.056400 16444.000000
265.062900 15912.000000
266.072300 148344.000000
267.080000 416600.000000
268.081700 65960.000000
269.077300 104424.000000
277.064400 22980.000000
278.072300 109628.000000
279.080100 369956.000000
280.086600 206412.000000
281.078400 91144.000000
282.083700 43700.000000
282.103200 203400.000000
283.106000 39552.000000
284.100900 56544.000000
292.088200 123032.000000
293.092800 35796.000000
294.103300 143344.000000
295.106200 31948.000000
296.101100 42756.000000

>ms2peaks
130.064100 8536.000000
165.068500 10584.000000
192.080000 12608.000000
193.087300 25488.000000
204.079900 13452.000000
214.040700 46752.000000
215.044300 8688.000000
216.038500 14252.000000
216.079900 28848.000000
217.087700 78520.000000
218.095300 79080.000000
219.101900 26840.000000
228.056800 28836.000000
228.080000 23376.000000
229.063000 11912.000000
229.087600 28888.000000
230.095600 112248.000000
231.103400 164624.000000
232.110700 125396.000000
233.115400 23180.000000
238.040900 23900.000000
241.088200 29124.000000
242.095800 121136.000000
243.103800 763772.000000
244.110600 435684.000000
245.117700 142068.000000
246.126000 71548.000000
247.132700 24592.000000
251.049000 36104.000000
252.057100 224412.000000
253.063300 97476.000000
254.054600 53336.000000
255.061100 27464.000000
256.111500 119356.000000
257.118500 86780.000000
258.127400 1680756.000000
259.133300 689812.000000
260.137600 85272.000000
264.057000 38080.000000
265.063800 26812.000000
266.072600 287396.000000
267.079700 214568.000000
268.070900 66420.000000
269.077000 58464.000000
276.056700 9912.000000
277.064700 56312.000000
278.072700 186960.000000
279.079700 159300.000000
280.071000 41732.000000
280.086800 132200.000000
281.079000 41152.000000
282.084900 36856.000000
282.101400 26372.000000
292.088100 88972.000000
293.092900 22232.000000
294.086400 24736.000000

>ms2peaks
82.065000 11084.000000
228.057000 6456.000000
231.103700 10632.000000
232.110300 6464.000000
243.103900 20660.000000
244.111600 19580.000000
246.127500 8080.000000
247.135500 21336.000000
253.065300 18248.000000
257.118800 7672.000000
258.127900 205644.000000
259.136200 1192800.000000
260.139300 289596.000000
261.142200 17956.000000
266.073000 18912.000000
267.080900 106048.000000
268.085200 21416.000000
269.078400 24348.000000
278.073100 8152.000000
279.081200 116552.000000
280.087700 60340.000000
281.079700 27428.000000
281.094200 30852.000000
282.105000 342008.000000
283.107900 59548.000000
284.102100 95736.000000
292.089300 33120.000000
293.093600 11272.000000
294.105100 477992.000000
295.108300 100276.000000
296.102500 142636.000000
309.115500 6228.000000
311.132000 310256.000000
312.135100 63008.000000
313.129200 83236.000000

