>compound AU39484929
>parentmass 491.23230000000007
>ionization [M+H]+
>formula C24H34N4O5S
>rt 636.860000
>profile qtof
#smiles_iso CCC1=C(CN(C1=O)C(=O)NCCC2=CC=C(C=C2)S(=O)(=O)NC(=O)NC3CCC(CC3)C)C
#smiles_can CCC1=C(CN(C1=O)C(=O)NCCC2=CC=C(C=C2)S(=O)(=O)NC(=O)NC3CCC(CC3)C)C
#inchikey WIGIZIANZCJQQY-UHFFFAOYSA-N
#pubchem_id 3476
#mb_accession AU235501,AU235502,AU235503,AU235504,AU235505,AU235506

>ms2peaks
126.090200 3604.000000
352.132600 300668.000000
353.135300 43192.000000
354.131700 13600.000000
355.133900 1556.000000
369.067500 2908.000000
378.111700 5132.000000
491.232200 123420.000000
492.234900 38256.000000

>ms2peaks
124.075000 2104.000000
126.090500 61484.000000
127.093400 3896.000000
167.014900 3028.000000
181.095900 2268.000000
335.105500 12936.000000
336.108800 2084.000000
352.132600 337940.000000
353.135400 66592.000000
354.130800 16360.000000
355.133600 2296.000000
369.065400 4644.000000
378.111100 10864.000000
379.114700 2204.000000

>ms2peaks
124.074800 11476.000000
125.077800 1536.000000
126.090400 207116.000000
127.093500 17152.000000
151.020600 2568.000000
152.069200 3664.000000
167.014500 26692.000000
168.018700 2524.000000
169.004100 4008.000000
170.079800 6524.000000
174.065200 1932.000000
179.080200 4136.000000
181.095900 32364.000000
182.098300 3608.000000
184.041900 1732.000000
210.020300 3836.000000
229.063500 3128.000000
246.042500 1532.000000
271.143800 3448.000000
287.138500 3244.000000
292.098000 4696.000000
304.070300 1040.000000
335.105600 45736.000000
336.107700 9016.000000
337.104700 2268.000000
352.132400 99804.000000
353.134300 20240.000000
354.130400 5644.000000
369.064900 1496.000000
378.112000 4344.000000
379.113900 1208.000000
394.165400 3236.000000

>ms2peaks
118.064100 832.000000
124.074700 8068.000000
126.090600 159336.000000
127.093800 12008.000000
151.020800 1368.000000
151.085800 1816.000000
152.069800 11776.000000
153.072300 1264.000000
167.015000 24840.000000
168.018300 2828.000000
169.004600 5100.000000
170.079800 17424.000000
171.082100 1240.000000
174.064800 8376.000000
175.069500 808.000000
179.080500 2452.000000
181.096000 42388.000000
182.099100 5176.000000
184.041100 2460.000000
192.010400 1148.000000
210.021100 5880.000000
228.136800 840.000000
229.063100 2496.000000
243.149200 1312.000000
246.043000 3152.000000
271.143700 4592.000000
272.145300 864.000000
287.138400 3072.000000
288.141800 800.000000
292.101100 1896.000000
304.073800 904.000000
335.106200 11844.000000
336.109500 2204.000000
352.132500 4868.000000
353.134200 1260.000000
394.166100 3044.000000

>ms2peaks
118.063800 2336.000000
121.063700 1076.000000
124.074500 4736.000000
126.090500 118524.000000
127.093600 10176.000000
128.095300 672.000000
146.058200 956.000000
151.019900 688.000000
151.085100 3548.000000
152.069300 22760.000000
153.072600 2260.000000
160.073300 924.000000
167.014500 9900.000000
168.018700 912.000000
169.004100 5140.000000
169.095800 636.000000
170.079900 35756.000000
171.082400 3360.000000
174.065300 9892.000000
175.067900 1392.000000
181.095900 27868.000000
182.099000 3760.000000
184.041400 1492.000000
192.009700 1148.000000
210.020600 3272.000000
228.029800 620.000000
243.148300 928.000000
246.042700 1468.000000
271.142200 1556.000000
287.139700 1008.000000
335.103200 1400.000000
394.167500 1292.000000

>ms2peaks
55.053800 1360.000000
97.101700 984.000000
114.128600 892.000000
121.064200 916.000000
124.075100 11624.000000
125.077700 1060.000000
126.090800 160792.000000
127.093900 17224.000000
128.095500 864.000000
131.060200 2220.000000
151.020600 2084.000000
151.085900 1072.000000
152.069800 4948.000000
167.015200 23748.000000
168.018900 2352.000000
169.004800 5792.000000
170.080300 12016.000000
171.084000 1000.000000
174.065600 4512.000000
179.080600 3012.000000
181.096400 39360.000000
182.098700 3128.000000
184.041600 1504.000000
210.020600 3088.000000
229.063600 2452.000000
246.042200 3848.000000
271.144000 2756.000000
287.139100 2420.000000
292.101200 3100.000000
304.072400 1068.000000
335.106200 32548.000000
336.108900 5796.000000
337.105300 1520.000000
352.133000 143116.000000
353.136000 27564.000000
354.131600 8440.000000
355.132300 832.000000
369.066600 2532.000000
378.112200 6132.000000
379.112800 1020.000000
394.166800 2928.000000

