>compound AU40379323
>parentmass 557.3044
>ionization [M+H]+
>formula C31H44N2O5S
>rt 619.212000
>profile qtof
#smiles_iso CCCCC1=C(C2=C(O1)C=CC(=C2)NS(=O)(=O)C)C(=O)C3=CC=C(C=C3)OCCCN(CCCC)CCCC
#smiles_can CCCCC1=C(C2=C(O1)C=CC(=C2)NS(=O)(=O)C)C(=O)C3=CC=C(C=C3)OCCCN(CCCC)CCCC
#inchikey ZQTNQVWKHCQYLQ-UHFFFAOYSA-N
#pubchem_id 208898
#mb_accession AU218101,AU218102,AU218103,AU218104,AU218105

>ms2peaks
557.309400 2428504.000000
558.312200 1081644.000000
559.311400 221548.000000

>ms2peaks
557.306700 2505316.000000
557.311400 2473804.000000
558.311900 1416672.000000

>ms2peaks
142.159500 25764.000000
170.190900 31184.000000
435.266900 70792.000000
436.270400 17080.000000
557.311400 2493628.000000

>ms2peaks
128.143600 23420.000000
142.159600 342592.000000
170.191100 203112.000000
294.081300 81160.000000
379.203100 17768.000000
435.267600 697492.000000
436.270600 161104.000000
437.272600 19584.000000
501.245000 78824.000000
502.248300 22716.000000
557.309600 2442856.000000
558.311700 980372.000000
559.310900 194780.000000

>ms2peaks
114.127900 22468.000000
121.028400 8964.000000
126.127400 3312.000000
128.143600 60096.000000
129.146900 4832.000000
130.158600 6824.000000
142.159500 629068.000000
147.044200 3820.000000
161.059900 33272.000000
170.191000 188408.000000
214.087000 7692.000000
215.094700 33468.000000
216.101900 15876.000000
238.086500 3272.000000
252.034100 14716.000000
266.082200 4204.000000
278.082300 7956.000000
279.089200 7868.000000
280.097400 6584.000000
292.135000 3200.000000
294.081200 134260.000000
295.083800 21004.000000
305.106300 4016.000000
306.113000 4196.000000
308.128900 14624.000000
309.136700 21428.000000
310.143900 21500.000000
311.148300 4068.000000
320.130200 5844.000000
321.137300 8812.000000
321.173300 4616.000000
322.143600 4080.000000
324.160500 18892.000000
325.164200 4036.000000
336.161500 45488.000000
337.163100 12624.000000
348.162300 4616.000000
349.169400 3348.000000
350.176900 5880.000000
366.196400 6424.000000
379.203400 31228.000000
380.207700 7904.000000
388.123100 14684.000000
393.219300 15808.000000
394.223100 4252.000000
421.252400 6844.000000
422.256500 3212.000000
435.267400 337152.000000
436.270400 86276.000000
437.274500 10788.000000
449.285800 3152.000000
501.245000 34764.000000
502.249000 11652.000000
557.308600 289300.000000
558.311300 99668.000000
559.309900 23404.000000

