>compound AU40855846
>parentmass 415.1451
>ionization [M+H]+
>formula C17H20F6N2O3
>rt 378.460000
>profile qtof
#smiles_iso C1CCNC(C1)CNC(=O)C2=C(C=CC(=C2)OCC(F)(F)F)OCC(F)(F)F
#smiles_can C1CCNC(C1)CNC(=O)C2=C(C=CC(=C2)OCC(F)(F)F)OCC(F)(F)F
#inchikey DJBNUMBKLMJRSA-UHFFFAOYSA-N
#pubchem_id 3356
#mb_accession AU227601,AU227602,AU227603,AU227604,AU227605,AU227606

>ms2
398.118800 12664.000000
415.146400 2340164.000000
416.148700 525860.000000
417.151200 41684.000000

>ms2
301.028600 21204.000000
398.118200 528028.000000
399.120900 73616.000000
415.145400 2493420.000000
416.147800 724204.000000
417.150100 49596.000000

>ms2
232.096200 14324.000000
301.029000 443464.000000
302.032100 40708.000000
315.107100 19132.000000
318.055300 17248.000000
398.118800 2312160.000000
399.121900 358604.000000
400.123900 28252.000000
415.145100 994040.000000
416.148200 168412.000000
417.150500 17852.000000

>ms2
209.020700 20660.000000
232.096300 131328.000000
233.099400 17640.000000
236.028300 27380.000000
237.016300 34344.000000
253.027400 16448.000000
281.022500 15724.000000
287.049500 12996.000000
298.104700 16356.000000
301.029300 1822060.000000
302.032500 139288.000000
303.034400 11288.000000
315.107300 58944.000000
316.110700 10752.000000
318.055400 20156.000000
398.118900 1023104.000000
399.122000 152972.000000
400.123900 12712.000000
415.144900 33576.000000

>ms2
135.006700 20100.000000
153.017200 17764.000000
189.051200 11608.000000
190.022900 17360.000000
207.041900 8024.000000
209.021600 152908.000000
210.024400 12064.000000
218.018100 50328.000000
219.024900 21608.000000
225.032400 30060.000000
232.096800 251208.000000
233.099400 31952.000000
236.028800 158668.000000
237.016700 153968.000000
238.019700 12416.000000
246.036100 9412.000000
253.028100 75936.000000
254.033700 16224.000000
281.022900 54608.000000
287.049600 7632.000000
298.104800 20632.000000
301.029500 1492584.000000
302.032900 122600.000000
303.034800 11320.000000
314.099800 8196.000000
315.107000 23340.000000
398.118700 87432.000000
399.121600 17012.000000

>ms2
232.096200 14324.000000
301.029000 443464.000000
302.032100 40708.000000
315.107100 19132.000000
318.055300 17248.000000
398.118800 2312160.000000
399.121900 358604.000000
400.123900 28252.000000
415.145100 994040.000000
416.148200 168412.000000
417.150500 17852.000000

