>compound AU40856034
>parentmass 388.038
>ionization [M+H]+
>formula C12H13N5O6S2
>rt 378.000000
>profile qtof
#smiles_iso CC1=NC(=NC(=N1)OC)NC(=O)NS(=O)(=O)C2=C(SC=C2)C(=O)OC
#smiles_can CC1=NC(=NC(=N1)OC)NC(=O)NS(=O)(=O)C2=C(SC=C2)C(=O)OC
#inchikey AHTPATJNIAFOLR-UHFFFAOYSA-N
#pubchem_id 73674
#mb_accession AU368801,AU368802,AU368803,AU368804,AU368805

>ms2peaks
141.075900 3312.000000
149.023000 552.000000
167.055300 89304.000000
168.057200 7840.000000
169.059500 716.000000
204.960600 1760.000000
221.987400 796.000000
388.037800 107544.000000
389.040400 15920.000000
390.035000 8272.000000
391.038900 976.000000

>ms2peaks
141.076100 18980.000000
167.055300 199468.000000
168.057600 12556.000000
169.060000 1188.000000
204.961300 18924.000000
205.965500 1772.000000
206.957600 1728.000000
221.989100 1244.000000
222.972000 2308.000000
247.966700 1744.000000
388.037300 3380.000000

>ms2peaks
125.976100 1188.000000
140.999300 1020.000000
141.076000 19992.000000
149.021200 896.000000
167.055200 121460.000000
168.057900 7924.000000
169.060200 804.000000
174.951400 1616.000000
189.962000 1668.000000
204.961100 33128.000000
205.964000 3204.000000
206.957000 3432.000000
215.942900 1244.000000
222.971700 4872.000000

>ms2peaks
125.976200 5524.000000
126.979200 524.000000
127.971500 580.000000
140.999600 3672.000000
141.076400 12660.000000
142.003300 408.000000
143.986100 664.000000
149.023300 856.000000
167.055600 69712.000000
168.058400 4756.000000
174.951100 3228.000000
189.961600 1884.000000
192.962000 528.000000
204.961100 29088.000000
205.964000 2508.000000
206.957000 2712.000000
215.941900 1468.000000
222.972200 4560.000000
223.973100 488.000000
224.969500 504.000000

>ms2peaks
125.976400 9968.000000
126.981900 652.000000
127.971500 520.000000
140.999700 4552.000000
141.075800 4468.000000
142.002200 604.000000
142.079800 496.000000
143.986600 1180.000000
149.021600 796.000000
151.976900 344.000000
167.055200 22948.000000
168.058500 1900.000000
174.951000 2788.000000
175.954000 308.000000
176.945800 444.000000
189.962100 1300.000000
192.960300 412.000000
204.961400 11508.000000
205.965100 1028.000000
206.956900 1156.000000
215.941700 1056.000000
222.971600 2028.000000

