>compound AU40276513
>parentmass 613.2392
>ionization [M+H]+
>formula C31H36N2O11
>rt 667.524000
>profile qtof
#smiles_iso CC1=C(C=CC2=C1OC(=O)C(=C2O)NC(=O)C3=CC(=C(C=C3)O)CC=C(C)C)O[C@H]4[C@@H]([C@@H]([C@H](C(O4)(C)C)OC)OC(=O)N)O
#smiles_can CC1=C(C=CC2=C1OC(=O)C(=C2O)NC(=O)C3=CC(=C(C=C3)O)CC=C(C)C)OC4C(C(C(C(O4)(C)C)OC)OC(=O)N)O
#inchikey YJQPYGGHQPGBLI-KGSXXDOSSA-N
#pubchem_id 54675769
#mb_accession AU116701,AU116703,AU116704,AU116705,AU116706

>ms2
125.062000 364.000000
157.087200 428.000000
186.079000 500.000000
189.091600 1056.000000
218.104200 4804.000000
219.107300 772.000000
345.178300 360.000000
396.149000 1856.000000
406.188100 356.000000
613.246600 8164.000000
614.248100 2952.000000

>ms2
125.060300 2588.000000
133.029900 1812.000000
134.033600 324.000000
143.071500 1036.000000
157.087200 2944.000000
158.090600 340.000000
186.077500 2624.000000
189.092900 37904.000000
191.097800 484.000000
218.104500 1920.000000
219.106400 312.000000
378.138300 656.000000
396.147200 1864.000000
397.149100 504.000000

>ms2
125.060800 1672.000000
133.029800 3884.000000
134.033300 360.000000
143.070800 1416.000000
147.045200 372.000000
151.040800 380.000000
157.087700 752.000000
186.077700 844.000000
189.092800 38856.000000
191.098800 436.000000
218.107200 416.000000
378.134800 724.000000
378.149200 348.000000

>ms2
125.061400 1116.000000
133.029600 8640.000000
134.033300 960.000000
143.072400 1368.000000
147.045600 736.000000
151.039900 568.000000
157.088400 328.000000
171.083100 392.000000
186.080500 464.000000
189.093100 33684.000000
191.099300 308.000000
378.138100 692.000000

>ms2
125.060100 1992.000000
143.071900 780.000000
157.087000 2436.000000
158.088800 656.000000
186.078100 2820.000000
187.079800 744.000000
189.092500 16000.000000
191.096600 328.000000
200.094300 588.000000
218.105100 8628.000000
219.108600 1380.000000
345.172400 592.000000
396.148000 8560.000000
397.150800 2156.000000
613.251200 776.000000

