>compound AU40396554
>parentmass 365.2323
>ionization [M+H]+
>formula C21H32O5
>rt 543.510000
>profile qtof
#smiles_iso CC12CCC(CC1CCC3C2C(=O)CC4(C3CCC4(C(=O)CO)O)C)O
#smiles_can CC12CCC(CC1CCC3C2C(=O)CC4(C3CCC4(C(=O)CO)O)C)O
#inchikey SYGWGHVTLUBCEM-UHFFFAOYSA-N
#pubchem_id 618110
#mb_accession AU121401,AU121402,AU121403,AU121404

>ms2
149.024200 328.000000
329.214200 684.000000
347.225300 1448.000000
348.222300 360.000000
365.236400 744.000000

>ms2
149.023300 420.000000
329.213700 872.000000
347.225600 868.000000

>ms2
149.133800 332.000000
161.096600 308.000000
175.110900 308.000000
293.186700 316.000000
329.217500 588.000000

>ms2
149.026200 320.000000

