>compound AU40697176
>parentmass 330.1096
>ionization [M+H]+
>formula C13H16FN3O6
>rt 290.400000
>profile qtof
#smiles_iso CC1C(C(C(O1)N2C=C(C(=NC2=O)N)F)OC(=O)C)OC(=O)C
#smiles_can CC1C(C(C(O1)N2C=C(C(=NC2=O)N)F)OC(=O)C)OC(=O)C
#inchikey NWJBWNIUGNXJGO-UHFFFAOYSA-N
#pubchem_id 19002620
#mb_accession AU200201,AU200202,AU200203,AU200204,AU200205

>ms2peaks
130.040300 3192.000000
141.053700 7308.000000
201.075300 180208.000000
202.078100 15876.000000
203.079100 2712.000000

>ms2peaks
130.039900 1468.000000
141.053700 7580.000000
142.056400 980.000000
201.075300 49940.000000
202.078100 5320.000000
203.079100 644.000000

>ms2peaks
130.040000 1892.000000
141.053700 4196.000000
142.057300 328.000000
201.075300 27816.000000
202.078100 2360.000000
203.079100 576.000000

>ms2peaks
130.040500 1396.000000
141.054100 888.000000
201.074900 1728.000000

>ms2peaks
130.039700 1260.000000

