>compound AU40501707
>parentmass 743.302
>ionization [M+Na]+
>formula C37H48N6O5S2
>rt 660.516000
>profile qtof
#smiles_iso CC(C)C1=NC(=CS1)CN(C)C(=O)N[C@@H](C(C)C)C(=O)N[C@@H](CC2=CC=CC=C2)C[C@@H]([C@H](CC3=CC=CC=C3)NC(=O)OCC4=CN=CS4)O
#smiles_can CC(C)C1=NC(=CS1)CN(C)C(=O)NC(C(C)C)C(=O)NC(CC2=CC=CC=C2)CC(C(CC3=CC=CC=C3)NC(=O)OCC4=CN=CS4)O
#inchikey NCDNCNXCDXHOMX-XGKFQTDJSA-N
#pubchem_id 392622
#mb_accession AU219230,AU219231,AU219232,AU219233,AU219234

>ms2peaks
743.306600 11652.000000
744.310700 5416.000000

>ms2peaks
743.306200 16020.000000
744.312400 8908.000000

>ms2peaks
573.220900 1176.000000
574.216300 308.000000
743.305400 18492.000000
744.309600 8568.000000

>ms2peaks
529.226300 524.000000
573.217500 6400.000000
574.219700 2428.000000
575.226700 852.000000
628.302400 368.000000
743.306800 16368.000000
744.308500 7456.000000

>ms2peaks
193.079700 328.000000
458.205700 764.000000
529.229800 972.000000
530.229700 504.000000
573.218500 13972.000000
574.218000 4012.000000
575.219200 1440.000000
628.297200 388.000000
743.308600 5540.000000
744.309800 2920.000000

