>compound AU41890632
>parentmass 275.04849999999993
>ionization [M+H]+
>formula C13H10N2O3S
>rt 279.430000
>profile qtof
#smiles_iso C1=CC=C(C=C1)C2=NC3=C(N2)C=C(C=C3)S(=O)(=O)O
#smiles_can C1=CC=C(C=C1)C2=NC3=C(N2)C=C(C=C3)S(=O)(=O)O
#inchikey UVCJGUGAGLDPAA-UHFFFAOYSA-N
#pubchem_id 33919
#mb_accession AU285901,AU285902,AU285903,AU285904,AU285905,AU285906

>ms2
275.047600 42940.000000
276.050600 6188.000000
277.044600 1996.000000

>ms2
194.083500 608.000000
211.083700 356.000000
275.048000 35044.000000
276.051700 5164.000000
277.044900 1612.000000

>ms2
166.065000 372.000000
182.083400 572.000000
193.075000 1548.000000
194.081800 11512.000000
195.089200 4584.000000
196.093500 580.000000
210.075700 536.000000
211.086600 2336.000000
226.073400 4704.000000
275.047500 32244.000000
276.051500 4288.000000
277.043600 1660.000000

>ms2
166.064300 744.000000
167.071800 408.000000
168.071000 356.000000
182.082700 668.000000
183.087400 340.000000
193.074800 4860.000000
194.082700 16948.000000
195.089100 4216.000000
209.070000 1428.000000
210.076600 364.000000
211.085500 1364.000000
212.090500 320.000000
226.073200 7020.000000
227.076800 1268.000000
275.047500 4812.000000
276.049400 824.000000

>ms2
139.054900 692.000000
140.058300 444.000000
154.063600 608.000000
166.063800 2660.000000
167.071700 2124.000000
168.070400 552.000000
168.078700 568.000000
182.082900 496.000000
184.076400 308.000000
192.067000 1060.000000
193.074900 10360.000000
194.081900 13580.000000
195.087700 3628.000000
196.091400 380.000000
209.069800 1352.000000
210.076400 308.000000
211.084700 592.000000
226.072900 4152.000000
227.074000 888.000000
275.045900 364.000000

>ms2
193.076700 380.000000
194.082600 4016.000000
195.089500 1908.000000
210.078600 380.000000
211.086100 904.000000
226.073200 3372.000000
227.079000 436.000000
275.048300 30444.000000
276.051700 5048.000000
277.045000 1508.000000

