>compound AU41924781
>parentmass 152.0706
>ionization [M+H]+
>formula C8H9NO2
>rt 205.215000
>profile qtof
#smiles_iso CC(=O)NC1=CC=C(C=C1)O
#smiles_can CC(=O)NC1=CC=C(C=C1)O
#inchikey RZVAJINKPMORJF-UHFFFAOYSA-N
#pubchem_id 1983
#mb_accession AU276701,AU276702,AU276703,AU276706

>ms2
134.059000 3136.000000
152.069400 415608.000000
153.072400 33192.000000

>ms2
109.051200 356.000000
110.059300 4856.000000
134.058700 5744.000000
135.062600 512.000000
152.069100 41928.000000
153.072500 4712.000000

>ms2
110.059800 656.000000
134.059300 672.000000
152.069700 892.000000

>ms2
59.048700 3064.000000
65.037800 15324.000000
66.041200 808.000000
67.041200 572.000000
67.054100 828.000000
80.049400 468.000000
82.064700 3300.000000
92.049600 6044.000000
93.033500 2732.000000
93.055200 736.000000
109.051500 868.000000
110.061300 42448.000000
111.045000 9204.000000
112.047600 496.000000
134.058800 5968.000000
135.061800 764.000000
152.069300 91204.000000
153.072900 10652.000000

