>compound AU41943082
>parentmass 318.013
>ionization [M+H]+
>formula C10H12N3O3PS2
>rt 535.070000
>profile qtof
#smiles_iso COP(=S)(OC)SCN1C(=O)C2=CC=CC=C2N=N1
#smiles_can COP(=S)(OC)SCN1C(=O)C2=CC=CC=C2N=N1
#inchikey CJJOSEISRRTUQB-UHFFFAOYSA-N
#pubchem_id 2268
#mb_accession AU260101,AU260102,AU260103,AU260104,AU260105,AU260106

>ms2peaks
124.980900 22096.000000
132.043400 379048.000000
133.046400 26112.000000
142.991000 11580.000000
148.020800 2136.000000
150.053200 11196.000000
160.049300 365608.000000
161.052000 26880.000000
167.014800 10244.000000
170.968400 22080.000000
182.991300 2896.000000
260.979600 71920.000000
261.982500 8000.000000
262.975200 5720.000000
318.011500 3216.000000

>ms2peaks
124.981000 36648.000000
132.043700 410692.000000
133.046700 31340.000000
142.991400 22952.000000
150.053800 19852.000000
151.057300 2192.000000
160.049400 24748.000000
167.014900 11916.000000
170.968200 4832.000000
182.992300 2900.000000
260.979700 4696.000000

>ms2peaks
124.981200 30392.000000
125.983700 896.000000
126.976200 1812.000000
132.043400 170180.000000
133.046700 13628.000000
142.991200 18240.000000
144.986200 1292.000000
150.053900 7740.000000
151.058000 1144.000000
151.990900 936.000000
160.049200 11776.000000
161.052400 1160.000000
167.015300 4688.000000
170.968100 2856.000000
182.992100 1452.000000

>ms2peaks
124.981100 16532.000000
125.983500 816.000000
126.975900 768.000000
132.043200 83096.000000
133.046600 7592.000000
134.051200 444.000000
137.003500 864.000000
142.991000 12836.000000
144.985300 528.000000
150.053400 4092.000000
151.991800 1136.000000
160.048800 3884.000000
161.051500 420.000000
167.014100 1676.000000
167.967500 660.000000
170.968300 1820.000000

>ms2peaks
124.980900 14068.000000
125.982800 584.000000
126.976600 732.000000
132.043400 16528.000000
133.046500 1776.000000
137.004300 928.000000
142.991600 10252.000000
143.994100 480.000000
144.987500 620.000000
150.053600 772.000000
151.991300 1948.000000
153.987600 612.000000
167.015300 1136.000000
167.968300 804.000000

>ms2peaks
51.022400 1168.000000
53.038000 8972.000000
77.038000 6916.000000
78.994100 1780.000000
95.049300 18272.000000
96.052600 968.000000
104.050000 22020.000000
105.034600 17192.000000
105.044900 12424.000000
106.037400 1664.000000
106.046400 1400.000000
120.043700 10788.000000
124.981400 15300.000000
126.976300 992.000000
130.038900 4956.000000
132.043700 176040.000000
133.046900 18416.000000
134.048800 948.000000
142.991800 49912.000000
143.992700 1100.000000
144.987600 1952.000000
150.054100 59788.000000
151.057000 4976.000000
160.049300 17996.000000
161.052500 1352.000000
164.069600 1684.000000
167.014800 8864.000000
168.018500 948.000000
170.969000 3668.000000
182.993200 1680.000000
260.980000 1348.000000

