>compound AU41818570
>parentmass 429.2397
>ionization [M+H]+
>formula C25H28N6O
>rt 546.000000
>profile qtof
#smiles_iso CCCCC1=NC2(CCCC2)C(=O)N1CC3=CC=C(C=C3)C4=CC=CC=C4C5=NNN=N5
#smiles_can CCCCC1=NC2(CCCC2)C(=O)N1CC3=CC=C(C=C3)C4=CC=CC=C4C5=NNN=N5
#inchikey YOSHYTLCDANDAN-UHFFFAOYSA-N
#pubchem_id 3749
#mb_accession AU209402,AU209403,AU209404,AU209405

>ms2peaks
195.148500 91636.000000
196.152100 9508.000000
207.091100 509508.000000
208.094400 51752.000000
209.097100 2964.000000
386.222400 17104.000000
401.233900 32132.000000
429.240200 467596.000000
430.243400 106984.000000
431.244200 12412.000000

>ms2peaks
195.148400 178176.000000
196.151400 19284.000000
207.090900 1353876.000000
208.094000 152760.000000
386.222000 33376.000000

>ms2peaks
153.068900 6032.000000
180.079800 86308.000000
181.082800 10880.000000
192.079300 43192.000000
193.082500 6428.000000
195.148600 81316.000000
196.152100 8872.000000
207.091200 1083316.000000
208.094400 124092.000000

>ms2peaks
129.044400 4052.000000
140.048700 4520.000000
151.052900 4668.000000
163.052800 5716.000000
166.073700 5700.000000
169.063700 6252.000000
177.056200 4320.000000
180.079800 215316.000000
192.068100 45088.000000
192.078600 62980.000000
193.072800 6508.000000
193.081800 8816.000000
194.058600 4348.000000
195.148400 27296.000000
196.151000 3436.000000
207.091000 644240.000000
208.094200 73716.000000
209.097600 5040.000000

