>compound AU41301867
>parentmass 232.10809999999995
>ionization [M+H]+
>formula C12H13N3O2
>rt 238.560000
>profile qtof
#smiles_iso CC1=C(C(=O)N(N1C)C2=CC=CC=C2)NC=O
#smiles_can CC1=C(C(=O)N(N1C)C2=CC=CC=C2)NC=O
#inchikey WSJBSKRPKADYRQ-UHFFFAOYSA-N
#pubchem_id 72666
#mb_accession AU200601,AU200602,AU200603,AU200604,AU200605,AU270101,AU270102,AU270103,AU270104,AU270105,AU270106

>ms2peaks
159.090600 2920.000000
187.085500 3524.000000
204.112300 54936.000000
214.096400 66908.000000
215.099400 8584.000000
232.107600 486356.000000
233.111000 68156.000000

>ms2peaks
118.064900 940.000000
128.048300 856.000000
130.064500 1028.000000
132.043300 992.000000
145.075200 4008.000000
146.059000 7980.000000
147.057000 1124.000000
158.058900 2488.000000
159.090300 21516.000000
160.093600 2492.000000
169.076300 780.000000
171.053100 832.000000
171.089800 956.000000
172.061900 652.000000
172.086400 1292.000000
173.070100 6612.000000
174.073500 1064.000000
176.116500 824.000000
177.100200 616.000000
185.069100 1504.000000
186.100900 1764.000000
187.085500 20772.000000
188.088600 3160.000000
189.088200 6112.000000
190.091300 952.000000
199.073400 1780.000000
204.112500 78012.000000
205.115600 8084.000000
206.117800 848.000000
214.096700 120664.000000
215.099800 14756.000000
216.102400 1660.000000
232.107600 43004.000000

>ms2peaks
115.054400 304.000000
117.057300 512.000000
118.063900 1428.000000
119.058700 408.000000
128.048000 2888.000000
129.052400 312.000000
130.063800 3448.000000
131.059600 612.000000
131.069000 468.000000
132.043000 1276.000000
132.079900 1720.000000
133.073200 336.000000
139.048300 352.000000
142.064700 600.000000
144.067500 404.000000
144.080200 924.000000
145.037300 328.000000
145.075200 3888.000000
146.058900 8904.000000
146.079600 684.000000
147.088200 404.000000
155.059900 372.000000
157.075200 860.000000
158.058000 1484.000000
158.083100 452.000000
159.055400 916.000000
160.089500 1236.000000
161.093600 300.000000
169.075100 988.000000
170.069400 452.000000
171.053000 772.000000
171.073400 368.000000
171.090600 468.000000
172.062000 964.000000
172.085000 552.000000
172.093400 488.000000
173.069800 2116.000000
185.069400 1296.000000
186.074600 368.000000
186.101400 416.000000
187.085000 4100.000000
188.082100 928.000000
189.087700 3072.000000
190.090900 324.000000
199.072000 1812.000000
200.074000 348.000000
204.111800 3348.000000
214.097100 6208.000000
215.099800 700.000000
232.107000 532.000000

>ms2peaks
115.053200 688.000000
117.056600 848.000000
118.063900 1092.000000
119.059800 492.000000
128.048600 2500.000000
129.051700 556.000000
130.064100 2724.000000
131.062200 528.000000
132.044800 796.000000
132.079500 2020.000000
133.078000 300.000000
142.063700 328.000000
143.059500 484.000000
144.068000 832.000000
144.079500 484.000000
145.075400 1620.000000
146.058600 2512.000000
146.080400 364.000000
147.055000 356.000000
155.060300 480.000000
157.071500 316.000000
158.059400 312.000000
158.081400 476.000000
159.052000 424.000000
159.091000 2084.000000
160.086500 908.000000
169.075500 376.000000
170.068300 364.000000
171.054900 464.000000
171.079300 332.000000
172.061600 556.000000
173.070200 396.000000
185.071000 444.000000
187.085600 368.000000
188.080100 404.000000
189.088100 500.000000

>ms2peaks
115.052500 708.000000
117.056400 864.000000
118.062800 576.000000
119.060800 644.000000
128.049100 1496.000000
129.043700 564.000000
130.064200 2052.000000
131.059600 528.000000
131.067700 552.000000
132.044200 360.000000
132.079800 1076.000000
133.075500 492.000000
143.058700 572.000000
144.067900 448.000000
144.079000 340.000000
145.074700 456.000000
146.059600 632.000000
159.088200 408.000000
160.086900 840.000000
170.069400 560.000000
171.053300 688.000000

>ms2peaks
159.090400 16400.000000
187.085800 22772.000000
204.112600 387148.000000
205.115200 40772.000000
214.097100 512828.000000
215.099800 54736.000000
232.108200 2450484.000000
233.110700 388968.000000
234.112900 31716.000000

>ms2peaks
118.064300 3256.000000
130.064200 5152.000000
132.043500 3760.000000
145.075100 19820.000000
146.058700 33236.000000
147.058100 3804.000000
158.058700 9296.000000
159.090600 98492.000000
160.093900 10988.000000
171.090500 3816.000000
172.086000 5792.000000
173.069600 30344.000000
174.073600 3572.000000
176.117100 4228.000000
185.069400 4756.000000
186.101200 6240.000000
187.085600 100860.000000
188.088900 11744.000000
189.088300 25064.000000
190.092000 3580.000000
199.072600 9496.000000
204.112400 387716.000000
205.115200 38440.000000
206.118500 3208.000000
214.096800 612772.000000
215.099800 69160.000000
216.102400 5176.000000
232.107500 235208.000000
233.110100 31196.000000

>ms2peaks
115.052900 780.000000
116.048400 448.000000
117.057500 1204.000000
117.068400 324.000000
118.065000 3508.000000
119.059600 1788.000000
120.045500 612.000000
120.080200 360.000000
121.075800 440.000000
122.059700 804.000000
128.048700 7144.000000
129.051500 1072.000000
130.064100 8504.000000
131.061200 2368.000000
131.068300 2464.000000
132.043800 3196.000000
132.080200 5960.000000
133.045500 460.000000
133.075900 988.000000
134.048300 308.000000
134.059500 720.000000
134.083400 376.000000
135.055500 632.000000
135.089400 492.000000
139.049000 784.000000
140.048100 700.000000
142.064200 1772.000000
143.059300 460.000000
143.071100 764.000000
144.068000 1572.000000
144.079600 1956.000000
145.074800 15460.000000
146.058800 23988.000000
146.079400 1544.000000
147.061600 3264.000000
147.091100 764.000000
148.061300 536.000000
149.072000 344.000000
155.058100 1332.000000
156.042900 496.000000
157.060000 404.000000
157.075400 1996.000000
158.045700 2232.000000
158.058900 4604.000000
158.081300 1744.000000
159.055400 3056.000000
159.090500 37692.000000
160.061600 568.000000
160.074400 1456.000000
160.092600 4892.000000
161.070100 672.000000
161.079700 396.000000
161.093400 1056.000000
169.075000 2568.000000
170.063500 1264.000000
171.055400 3200.000000
171.089800 1632.000000
172.061200 3692.000000
172.085800 2068.000000
173.069600 5384.000000
174.070000 932.000000
175.084600 412.000000
176.116500 480.000000
177.102400 736.000000
184.083300 468.000000
185.069900 3988.000000
185.095600 392.000000
186.077000 1548.000000
186.101900 2180.000000
187.085400 13392.000000
188.082300 3292.000000
189.088200 10420.000000
190.091100 1208.000000
194.048900 316.000000
197.069000 736.000000
199.072700 4828.000000
200.076900 460.000000
204.112300 10020.000000
205.115500 1396.000000
214.096700 18272.000000
215.099300 3084.000000
232.107500 2264.000000
233.110600 392.000000

>ms2peaks
115.053600 1056.000000
116.047900 416.000000
117.056800 1988.000000
118.063800 2120.000000
119.060200 1424.000000
120.043800 320.000000
122.058600 392.000000
128.048200 6496.000000
129.051600 1036.000000
130.051400 568.000000
130.064100 6820.000000
131.060100 1256.000000
132.043200 1748.000000
132.065500 876.000000
132.079800 5840.000000
133.081600 676.000000
140.048600 484.000000
142.051700 344.000000
142.064000 684.000000
143.058400 1336.000000
143.070100 824.000000
144.066600 1700.000000
144.078100 1448.000000
145.074300 4332.000000
146.058700 6476.000000
147.055300 1288.000000
147.091200 368.000000
148.062000 496.000000
155.058300 920.000000
156.042000 388.000000
156.066800 360.000000
157.074600 840.000000
158.046200 840.000000
158.059500 652.000000
158.082000 936.000000
159.055400 872.000000
159.090100 6728.000000
160.085900 2436.000000
161.090700 308.000000
169.072800 1068.000000
170.072500 1028.000000
171.054100 2108.000000
172.062000 1564.000000
173.069400 644.000000
174.064800 384.000000
184.084400 440.000000
185.068800 1004.000000
187.086000 668.000000
188.080700 2284.000000
189.091100 872.000000
194.044600 452.000000
198.063600 468.000000
199.071300 504.000000
214.096300 432.000000

>ms2peaks
115.052800 880.000000
116.051500 340.000000
117.057000 2588.000000
118.064200 1448.000000
119.059200 1448.000000
123.994600 324.000000
128.048700 5088.000000
129.050300 700.000000
130.064200 4412.000000
131.062100 1152.000000
131.070700 1396.000000
132.043300 968.000000
132.065700 508.000000
132.080100 3144.000000
133.049700 412.000000
133.074300 524.000000
133.082400 556.000000
140.049200 684.000000
142.051000 356.000000
143.059100 1480.000000
143.068000 1064.000000
144.064800 1368.000000
144.079500 1168.000000
145.075300 1532.000000
146.059200 2040.000000
147.053500 924.000000
155.061800 516.000000
157.038800 412.000000
157.074400 1056.000000
158.045000 432.000000
158.080000 468.000000
159.090100 1408.000000
160.086200 1564.000000
168.065800 380.000000
169.075100 332.000000
170.071600 1004.000000
171.053000 2472.000000
172.059800 668.000000
173.066900 316.000000
184.085000 308.000000
185.068200 624.000000
188.081400 708.000000

>ms2peaks
53.038000 5532.000000
56.049100 424472.000000
57.052400 11824.000000
58.064800 11692.000000
68.048900 5108.000000
77.038400 12016.000000
83.060400 494756.000000
84.063600 16064.000000
85.076000 48384.000000
94.065700 66200.000000
95.049600 26268.000000
95.068800 3512.000000
104.050700 259304.000000
105.052000 16548.000000
111.057000 8660.000000
118.065300 4316.000000
128.048400 2888.000000
130.064300 4480.000000
132.043900 3020.000000
145.074800 12032.000000
146.059100 23924.000000
158.058700 5196.000000
159.090900 54060.000000
160.093900 5152.000000
173.070000 14156.000000
185.070900 3504.000000
186.101600 3640.000000
187.086100 51960.000000
188.089100 6164.000000
189.089000 15068.000000
199.073300 7232.000000
204.112700 172508.000000
205.115600 18868.000000
214.097200 250956.000000
215.100300 32132.000000
232.107700 135860.000000
233.111100 16416.000000

