>compound AU42242940
>parentmass 152.1434
>ionization [M+H]+
>formula C10H17N
>rt 282.180000
>profile qtof
#smiles_iso C1C2CC3CC1CC(C2)(C3)N
#smiles_can C1C2CC3CC1CC(C2)(C3)N
#inchikey DKNWSYNQZKUICI-UHFFFAOYSA-N
#pubchem_id 2130
#mb_accession AU267001,AU267002,AU267003,AU267004,AU267005,AU267006

>ms2peaks
135.116000 428736.000000
136.118800 47940.000000
152.142300 1020724.000000
153.145500 83620.000000
154.148300 5360.000000

>ms2peaks
135.116100 774684.000000
136.119300 83264.000000
137.122800 4912.000000
152.142400 71048.000000
153.145700 7940.000000

>ms2peaks
133.100400 2520.000000
135.116100 266796.000000
136.119200 31800.000000
137.122700 1588.000000
152.143100 1672.000000

>ms2peaks
133.100100 1520.000000
135.116000 39260.000000
136.119600 4832.000000

>ms2peaks
135.116400 4144.000000
136.119100 672.000000

>ms2peaks
67.053800 6048.000000
79.054200 13556.000000
81.069900 3032.000000
93.070500 12356.000000
107.086500 5336.000000
135.116400 372508.000000
136.119800 50000.000000
137.124000 1944.000000
152.143000 84980.000000
153.145700 9788.000000

