>compound AU42744783
>parentmass 256.029
>ionization [M+H]+
>formula C12H11Cl2NO
>rt 584.300000
>profile qtof
#smiles_iso CC(C)(C#C)NC(=O)C1=CC(=CC(=C1)Cl)Cl
#smiles_can CC(C)(C#C)NC(=O)C1=CC(=CC(=C1)Cl)Cl
#inchikey PHNUZKMIPFFYSO-UHFFFAOYSA-N
#pubchem_id 32154
#mb_accession AU232101,AU232102,AU232103,AU232104,AU232105,AU232106

>ms2peaks
172.954700 32832.000000
173.957600 2752.000000
174.951700 19836.000000
189.981800 391248.000000
190.984500 20760.000000
191.978500 197932.000000
256.028800 413508.000000
257.031900 40448.000000
258.026000 193132.000000

>ms2peaks
146.975000 8432.000000
148.972000 5204.000000
172.954500 112900.000000
173.958100 9652.000000
174.951800 71904.000000
189.981700 387780.000000
190.984200 23924.000000
191.978500 182424.000000
256.028000 11960.000000
258.026300 7200.000000

>ms2peaks
126.992800 1356.000000
128.002100 1472.000000
144.959400 4408.000000
146.956600 2552.000000
146.975000 14348.000000
147.978100 988.000000
148.971800 7792.000000
162.969700 6184.000000
164.967500 3372.000000
171.970900 1940.000000
172.954700 185448.000000
173.958000 16484.000000
174.951800 108496.000000
189.981500 113732.000000
190.983600 8020.000000
191.978400 57608.000000
227.020600 1300.000000

>ms2peaks
108.983800 564.000000
110.998500 552.000000
120.960000 1252.000000
122.956400 1272.000000
126.993700 3284.000000
128.001000 2612.000000
128.990400 836.000000
129.997600 880.000000
132.078800 1168.000000
133.086200 648.000000
144.958900 12412.000000
145.962200 996.000000
146.955800 8136.000000
146.974900 6124.000000
148.972200 3656.000000
162.969500 14100.000000
164.966600 8548.000000
171.970800 3116.000000
172.955300 89292.000000
172.963400 98480.000000
173.966700 9696.000000
174.952200 57456.000000
174.960600 56892.000000
189.980800 10132.000000
190.982400 1012.000000
190.998300 668.000000
191.977500 6808.000000
227.020700 3100.000000

>ms2peaks
108.983300 1232.000000
110.980700 552.000000
120.959900 680.000000
126.993800 3584.000000
128.001200 4236.000000
128.991800 672.000000
129.998300 648.000000
132.080000 796.000000
144.959200 17196.000000
145.962000 1376.000000
146.956500 10240.000000
146.972600 896.000000
162.969800 12604.000000
163.972900 956.000000
164.967200 6696.000000
171.969800 1816.000000
172.965200 102432.000000
173.968000 8380.000000
174.962000 55560.000000
175.964800 2624.000000
189.981700 940.000000
190.999300 696.000000
227.021200 3452.000000
228.024900 576.000000

>ms2peaks
65.038100 10144.000000
67.053900 46084.000000
68.057000 3120.000000
146.976400 11768.000000
148.973300 5604.000000
162.970900 2356.000000
172.956100 132640.000000
173.959400 9680.000000
174.953300 82468.000000
189.982500 225024.000000
190.985700 17092.000000
191.979900 123576.000000
256.029400 6056.000000
258.027200 4608.000000

