>compound AU42531864
>parentmass 309.0902
>ionization [M+H]+
>formula C17H13ClN4
>rt 503.760000
>profile qtof
#smiles_iso CC1=NN=C2N1C3=C(C=C(C=C3)Cl)C(=NC2)C4=CC=CC=C4
#smiles_can CC1=NN=C2N1C3=C(C=C(C=C3)Cl)C(=NC2)C4=CC=CC=C4
#inchikey VREFGVBLTWBCJP-UHFFFAOYSA-N
#pubchem_id 2118
#mb_accession AU157006

>ms2
131.059500 3128.000000
138.010000 6924.000000
165.020600 15952.000000
167.018500 4228.000000
171.078300 3396.000000
172.086200 5772.000000
204.080000 4960.000000
205.075900 25804.000000
206.047700 12824.000000
206.079600 4012.000000
208.044900 3092.000000
216.068200 3196.000000
224.026100 5816.000000
226.041900 5700.000000
227.049500 7632.000000
233.094200 3144.000000
240.051500 5076.000000
241.052600 28220.000000
243.049800 5968.000000
245.106900 6348.000000
251.037300 16184.000000
252.042500 3344.000000
253.034500 3828.000000
255.068000 10360.000000
257.064700 3256.000000
274.121800 70908.000000
275.125100 11684.000000
280.064500 9088.000000
281.072100 306252.000000
282.075500 61108.000000
283.069500 79680.000000
308.082700 4152.000000
309.091000 583060.000000
310.094000 108060.000000
311.088600 149980.000000

