>compound AU42123348
>parentmass 171.1856
>ionization [M+H]+
>formula C10H22N2
>rt 102.090000
>profile qtof
#smiles_iso CC1(CC(CC(C1)(C)CN)N)C
#smiles_can CC1(CC(CC(C1)(C)CN)N)C
#inchikey RNLHGQLZWXBQNY-UHFFFAOYSA-N
#pubchem_id 17857
#mb_accession AU276001,AU276002,AU276003,AU276006

>ms2peaks
137.131200 5128.000000
138.133900 540.000000
154.157500 29448.000000
155.160800 4044.000000
171.184100 43684.000000
172.187400 4112.000000

>ms2peaks
137.130500 9128.000000
138.133800 1164.000000
154.157500 17200.000000
155.160400 1988.000000
171.184200 2488.000000

>ms2peaks
137.130900 1500.000000
138.134800 300.000000
154.158800 1376.000000

>ms2peaks
81.068900 384.000000
137.131500 5280.000000
154.157500 9280.000000
155.162100 1472.000000
171.184400 2024.000000

