>compound AU42489742
>parentmass 355.1089
>ionization [M+H]+
>formula C19H15FN2O4
>rt 526.284000
>profile qtof
#smiles_iso C#CCN1C(=O)COC2=CC(=C(C=C21)N3C(=O)C4=C(C3=O)CCCC4)F
#smiles_can C#CCN1C(=O)COC2=CC(=C(C=C21)N3C(=O)C4=C(C3=O)CCCC4)F
#inchikey FOUWCSDKDDHKQP-UHFFFAOYSA-N
#pubchem_id 92425
#mb_accession AU263101,AU263102,AU263103,AU263105,AU263106

>ms2peaks
327.113600 892.000000
339.077100 392.000000
355.108400 9000.000000
356.113400 1944.000000

>ms2peaks
176.049300 372.000000
204.043300 712.000000
236.126900 964.000000
299.081200 448.000000
299.118800 300.000000
301.097500 348.000000
307.107000 472.000000
313.097500 400.000000
327.113900 3660.000000
328.115600 976.000000
355.109200 10024.000000
356.112500 2104.000000
357.119400 324.000000

>ms2peaks
129.069000 344.000000
148.055000 456.000000
149.038200 364.000000
176.049100 796.000000
178.085500 372.000000
190.053200 372.000000
190.119700 304.000000
204.046000 700.000000
236.127300 1516.000000
253.074700 396.000000
259.050700 368.000000
260.071000 372.000000
281.103000 488.000000
285.102800 508.000000
287.083000 980.000000
299.082100 2180.000000
300.086100 492.000000
301.095300 352.000000
307.106400 324.000000
313.097500 764.000000
316.084000 364.000000
327.076000 656.000000
327.113600 1972.000000
328.116900 584.000000
355.105800 2412.000000
356.109200 688.000000

>ms2peaks
138.035000 312.000000
148.054600 944.000000
150.053900 404.000000
152.067900 312.000000
164.069800 596.000000
176.047200 572.000000
232.038300 304.000000
236.128300 360.000000
259.050000 932.000000
271.084600 360.000000
299.080000 772.000000

>ms2peaks
121.064500 308.000000
164.070300 336.000000
176.050500 736.000000
204.043600 728.000000
236.127400 1240.000000
253.074400 304.000000
260.069400 316.000000
281.110200 372.000000
285.103400 688.000000
286.081300 420.000000
287.083200 856.000000
299.082600 2072.000000
300.084100 544.000000
307.107200 400.000000
313.096700 520.000000
327.078600 456.000000
327.113300 2284.000000
328.116800 464.000000
355.108900 4072.000000
356.114400 1188.000000

