>compound AU42178924
>parentmass 375.2166000000001
>ionization [M+H]+
>formula C22H30O5
>rt 518.934545
>profile qtof
#smiles_iso C[C@H]1C[C@H]2[C@@H]3CC[C@@]([C@]3(C[C@@H]([C@@H]2[C@@]4(C1=CC(=O)C=C4)C)O)C)(C(=O)CO)O
#smiles_can CC1CC2C3CCC(C3(CC(C2C4(C1=CC(=O)C=C4)C)O)C)(C(=O)CO)O
#inchikey VHRSUDSXCMQTMA-PJHHCJLFSA-N
#pubchem_id 6741
#mb_accession AU107601,AU107602,AU107603,AU107604,AU107605,AU281001,AU281002,AU281003,AU281004,AU281005,AU281006

>ms2
135.080600 5124.000000
147.080800 1120.000000
161.096800 9460.000000
162.101200 1104.000000
165.091300 1404.000000
175.112500 1424.000000
183.101700 1464.000000
185.096800 3608.000000
187.111900 4116.000000
211.113200 1100.000000
213.129900 2076.000000
225.128300 1140.000000
231.138100 1264.000000
237.126600 1700.000000
239.145600 1320.000000
251.143800 3752.000000
252.149000 904.000000
253.160200 7640.000000
254.162000 1976.000000
255.175000 2016.000000
263.144000 936.000000
267.139300 1388.000000
277.159200 2816.000000
279.138900 1608.000000
279.175500 8152.000000
280.179200 2368.000000
281.190300 3944.000000
282.195500 936.000000
291.177600 1728.000000
293.154500 6124.000000
293.191200 5440.000000
294.159000 1552.000000
294.194100 992.000000
295.171000 1656.000000
297.149500 1524.000000
297.187100 2644.000000
303.176500 6948.000000
304.177100 1424.000000
309.186200 2876.000000
310.192600 908.000000
311.200800 2152.000000
315.162000 1260.000000
321.186600 29244.000000
322.190500 6436.000000
327.196700 2108.000000
329.212600 1024.000000
339.197500 73292.000000
340.200900 15164.000000
341.204900 2196.000000
357.208400 180668.000000
358.211500 37340.000000
359.213500 5272.000000
375.219300 122336.000000
376.222100 23500.000000
377.225800 3016.000000

>ms2
119.085800 1168.000000
121.064900 4576.000000
121.101700 908.000000
123.082000 792.000000
125.060500 920.000000
127.074900 452.000000
129.071000 444.000000
131.085500 1392.000000
133.066000 636.000000
133.101300 1944.000000
135.080800 33080.000000
136.084000 2748.000000
137.058400 976.000000
137.097000 1064.000000
139.076000 1324.000000
143.085700 1164.000000
145.064800 1848.000000
145.101200 3548.000000
146.071700 540.000000
147.080300 6656.000000
147.116600 1348.000000
148.084100 532.000000
149.096300 5468.000000
150.099000 536.000000
151.075000 1396.000000
151.111500 396.000000
153.090400 792.000000
155.072000 680.000000
157.087600 480.000000
157.101300 664.000000
158.072800 520.000000
159.081200 6200.000000
159.117700 772.000000
160.084400 724.000000
161.096500 57816.000000
162.099600 7020.000000
163.075600 396.000000
163.111900 1656.000000
165.091600 5144.000000
166.094900 644.000000
167.105500 940.000000
169.103200 848.000000
171.080700 980.000000
171.117300 1536.000000
172.088900 428.000000
173.096900 6240.000000
173.132200 1148.000000
174.100300 988.000000
175.075600 376.000000
175.112000 4560.000000
176.115500 816.000000
177.091800 3344.000000
177.126900 556.000000
178.095700 412.000000
179.106500 1308.000000
183.102600 2572.000000
184.108000 520.000000
185.096500 27940.000000
186.100100 4880.000000
187.112300 26316.000000
188.115700 3652.000000
189.091400 4784.000000
189.127300 1368.000000
190.096400 736.000000
191.107400 1288.000000
191.143400 640.000000
193.124100 640.000000
195.117000 736.000000
196.124100 540.000000
197.096300 1816.000000
198.103300 432.000000
199.112300 5008.000000
200.116800 704.000000
201.092200 708.000000
201.127800 3948.000000
202.130900 732.000000
203.108300 428.000000
203.142900 836.000000
205.123300 1520.000000
209.096300 1164.000000
210.100000 428.000000
211.112600 12596.000000
212.115800 1864.000000
213.093100 432.000000
213.128100 8276.000000
214.132600 1672.000000
215.106000 616.000000
215.143500 1112.000000
219.138300 636.000000
221.094100 524.000000
221.135400 376.000000
222.104600 440.000000
223.113200 2928.000000
223.136100 368.000000
224.120500 936.000000
225.128300 5876.000000
226.132400 956.000000
227.107000 1316.000000
227.142800 3600.000000
228.111700 452.000000
228.145600 940.000000
229.125100 876.000000
231.139100 6768.000000
232.141400 1288.000000
235.112100 2452.000000
235.149800 640.000000
236.116000 936.000000
237.128500 12628.000000
238.132700 2728.000000
239.104800 520.000000
239.144400 5512.000000
240.148600 1840.000000
241.124100 700.000000
241.159300 3548.000000
242.163000 704.000000
243.102600 376.000000
243.137000 356.000000
243.172900 404.000000
247.112700 408.000000
248.121900 532.000000
249.127900 3840.000000
249.164900 556.000000
250.131800 1196.000000
251.143500 16012.000000
252.147700 3296.000000
253.159600 46516.000000
254.163300 10724.000000
255.137300 528.000000
255.175300 6748.000000
256.179400 1652.000000
257.153400 508.000000
260.120600 428.000000
261.129600 2728.000000
261.165800 364.000000
262.134000 1008.000000
263.144200 5580.000000
263.180100 904.000000
264.147700 1768.000000
265.123700 1108.000000
265.159800 4376.000000
266.164800 764.000000
267.139400 4100.000000
268.143600 1216.000000
269.154500 2156.000000
270.158000 420.000000
274.136700 1164.000000
275.143300 1820.000000
275.179800 536.000000
276.150500 536.000000
277.159500 9108.000000
278.165000 2868.000000
279.139500 8920.000000
279.175700 25064.000000
280.143400 1640.000000
280.182300 17504.000000
281.190300 16268.000000
282.193900 2988.000000
283.169400 452.000000
283.208100 460.000000
285.152700 1236.000000
288.151600 1136.000000
289.156100 572.000000
290.171600 628.000000
291.175100 6820.000000
292.180700 1724.000000
293.153200 3660.000000
293.191200 14652.000000
294.159300 1008.000000
294.193600 3316.000000
295.171300 3196.000000
295.200400 584.000000
296.175300 652.000000
297.150100 7296.000000
297.185500 4228.000000
298.153700 1560.000000
298.189200 824.000000
299.201200 2184.000000
303.175600 20908.000000
304.178200 4504.000000
305.182700 532.000000
306.160500 904.000000
308.182800 524.000000
309.187300 7940.000000
310.190200 2256.000000
311.166200 1096.000000
311.201800 3364.000000
312.203900 688.000000
315.161600 4160.000000
316.164500 1152.000000
321.186100 37832.000000
322.188800 8316.000000
323.192400 1116.000000
327.197200 1912.000000
328.196400 500.000000
328.207500 492.000000
329.211600 908.000000
339.196900 43548.000000
340.200500 9160.000000
341.204000 1232.000000
357.208200 70404.000000
358.211000 16320.000000
359.213100 2248.000000
375.217700 1408.000000

>ms2
115.054500 1452.000000
116.060300 556.000000
117.070600 952.000000
119.086100 2724.000000
121.065500 12692.000000
121.101200 812.000000
122.069300 1464.000000
123.080900 1172.000000
125.060500 1260.000000
128.062700 936.000000
129.070700 1748.000000
131.048500 512.000000
131.086500 3976.000000
133.065700 996.000000
133.101600 5444.000000
134.106400 1048.000000
135.081100 39552.000000
136.084200 3508.000000
137.060500 1716.000000
137.096900 1432.000000
139.074900 1564.000000
141.070500 800.000000
142.079500 672.000000
143.086000 2648.000000
144.058700 388.000000
144.091100 492.000000
145.065600 4432.000000
145.102100 4880.000000
146.073600 1932.000000
146.105300 672.000000
147.081300 9204.000000
147.117800 2208.000000
148.084300 948.000000
149.096500 5628.000000
149.132400 564.000000
150.100300 548.000000
151.075900 1204.000000
151.113100 648.000000
153.071600 384.000000
153.092100 464.000000
155.071000 676.000000
155.086200 992.000000
157.065700 540.000000
157.101700 2168.000000
158.072700 2140.000000
159.081300 14324.000000
159.117000 1868.000000
160.086800 2928.000000
161.096900 72428.000000
162.100000 8536.000000
163.075500 460.000000
163.112300 1400.000000
165.070300 380.000000
165.091900 4220.000000
165.127700 396.000000
166.094800 512.000000
167.085800 788.000000
167.106200 508.000000
169.102100 1396.000000
170.074600 428.000000
170.110100 528.000000
171.081000 3300.000000
171.117700 2988.000000
172.089000 1912.000000
172.122900 364.000000
173.096700 14896.000000
173.133800 2032.000000
174.100500 1832.000000
175.078700 692.000000
175.112400 5992.000000
176.113300 888.000000
177.091800 3364.000000
177.129000 592.000000
178.077800 736.000000
178.097500 548.000000
179.086400 416.000000
179.107700 1180.000000
180.093900 416.000000
181.101000 1056.000000
183.080500 1020.000000
183.102800 648.000000
183.117500 924.000000
184.087100 660.000000
185.097200 48052.000000
186.100800 6836.000000
187.112900 33732.000000
188.116600 4420.000000
189.092200 6016.000000
189.128400 1408.000000
190.095100 1136.000000
191.107100 1148.000000
191.144200 860.000000
193.101100 1340.000000
194.110300 432.000000
195.082200 1880.000000
195.118000 1732.000000
196.089700 1384.000000
196.125500 608.000000
197.097500 4004.000000
197.130400 408.000000
198.102600 1080.000000
199.113300 9564.000000
200.116700 1520.000000
201.092400 516.000000
201.129000 3340.000000
202.133900 468.000000
203.107400 632.000000
203.144700 960.000000
205.101700 452.000000
205.123000 852.000000
207.117800 976.000000
208.090300 940.000000
208.126200 436.000000
209.097200 5564.000000
209.133200 940.000000
210.104200 2892.000000
211.112800 31100.000000
212.116400 6032.000000
213.092300 596.000000
213.129200 11920.000000
214.132600 1948.000000
215.142000 1464.000000
217.101200 584.000000
218.109700 492.000000
219.118000 984.000000
219.140300 588.000000
220.125400 828.000000
221.131500 1172.000000
222.106700 2112.000000
223.112600 6908.000000
223.149600 580.000000
224.120500 3956.000000
225.128500 8624.000000
226.133300 2008.000000
227.107800 1176.000000
227.143900 4416.000000
228.112000 536.000000
228.150400 844.000000
229.120700 480.000000
229.161300 468.000000
231.139900 4984.000000
232.124800 552.000000
232.143000 912.000000
233.098500 596.000000
233.134300 1088.000000
234.106800 660.000000
234.136900 400.000000
235.112700 4824.000000
235.150900 1168.000000
236.120300 3088.000000
236.154900 408.000000
237.129200 16860.000000
238.135600 7828.000000
239.107500 808.000000
239.143900 10540.000000
240.150400 2756.000000
241.125700 528.000000
241.159200 2776.000000
242.163800 492.000000
245.098300 576.000000
245.120200 384.000000
246.105100 1060.000000
247.112900 1544.000000
247.149600 512.000000
248.121700 1536.000000
249.128600 6560.000000
250.135100 1908.000000
251.144300 17280.000000
252.113300 540.000000
252.148700 3624.000000
253.160500 40104.000000
254.163800 7136.000000
255.142700 1048.000000
255.175200 4164.000000
256.141100 456.000000
256.178300 940.000000
259.113300 1076.000000
259.149300 476.000000
260.120000 792.000000
261.129100 3956.000000
261.167200 384.000000
262.135500 2604.000000
263.144500 5776.000000
263.181700 1804.000000
264.117100 1144.000000
264.150600 2492.000000
264.185500 548.000000
265.123200 1468.000000
265.160600 10020.000000
266.128200 564.000000
266.164200 2136.000000
267.140000 3868.000000
267.174900 1004.000000
268.147100 956.000000
269.155900 1600.000000
273.128300 1128.000000
274.137000 2132.000000
275.144300 2544.000000
275.182700 588.000000
276.149400 932.000000
277.160800 5944.000000
278.132800 380.000000
278.166800 3256.000000
279.140100 6144.000000
279.176000 14820.000000
280.144100 1252.000000
280.183600 24184.000000
281.152500 688.000000
281.189400 9412.000000
282.193400 1908.000000
285.148800 692.000000
286.164900 436.000000
287.163900 416.000000
288.152800 2940.000000
289.156700 896.000000
290.168000 1156.000000
291.175800 4164.000000
292.147800 528.000000
292.181100 1664.000000
293.154800 1552.000000
293.192500 6764.000000
294.196100 1616.000000
295.170400 1252.000000
296.176600 504.000000
297.151200 5052.000000
297.188300 536.000000
298.154900 1348.000000
299.205000 552.000000
303.175900 8484.000000
304.181100 2620.000000
305.181600 520.000000
306.165400 1012.000000
308.179100 1164.000000
309.186900 4348.000000
310.189300 1244.000000
311.165600 968.000000
311.200100 892.000000
312.203600 380.000000
315.162700 684.000000
321.187100 6948.000000
322.190400 1992.000000
339.197700 4884.000000
340.202100 1168.000000
357.208500 3324.000000
358.212200 1112.000000

>ms2
115.055200 4092.000000
116.060900 548.000000
117.070300 3132.000000
119.086500 3808.000000
120.090400 464.000000
121.065600 17820.000000
121.101800 1044.000000
122.068500 1468.000000
123.081500 1276.000000
125.060700 844.000000
127.054500 324.000000
128.062500 4092.000000
129.070400 3492.000000
130.077700 1096.000000
131.049600 1324.000000
131.086100 7064.000000
132.057200 748.000000
132.089700 744.000000
133.065300 1856.000000
133.102000 7372.000000
134.070000 420.000000
134.105300 780.000000
135.081300 42080.000000
136.084500 3728.000000
137.060700 2316.000000
137.097200 972.000000
138.064900 324.000000
139.076600 884.000000
141.070800 3064.000000
142.078300 3192.000000
143.086200 6016.000000
144.057300 2300.000000
144.091600 1276.000000
145.065300 9808.000000
145.102100 6556.000000
146.073300 6204.000000
146.105800 772.000000
147.080900 8336.000000
147.116900 1772.000000
148.085500 1228.000000
148.122600 340.000000
149.096800 3384.000000
150.100200 476.000000
151.076500 504.000000
151.112700 428.000000
152.063600 816.000000
153.071200 1088.000000
154.078200 940.000000
155.085900 2420.000000
156.093300 1192.000000
157.065400 1284.000000
157.102300 4688.000000
158.073400 6452.000000
158.106300 708.000000
159.081100 19260.000000
159.118300 2648.000000
160.086900 4344.000000
160.121800 556.000000
161.097200 60608.000000
162.100400 7084.000000
163.075900 368.000000
163.106200 560.000000
163.113200 600.000000
165.071300 900.000000
165.092300 1452.000000
166.079200 1396.000000
167.086400 1952.000000
168.059300 336.000000
168.092800 668.000000
169.065800 1116.000000
169.101900 2680.000000
170.073400 1336.000000
170.109200 992.000000
171.081300 6208.000000
171.117900 2132.000000
172.088800 6388.000000
172.120400 620.000000
173.096800 13720.000000
173.132900 1520.000000
174.101700 1804.000000
175.076300 404.000000
175.112600 4100.000000
176.116100 624.000000
177.092300 2316.000000
177.127800 328.000000
178.078800 1516.000000
178.094500 460.000000
179.086000 1716.000000
179.108200 384.000000
180.093700 856.000000
181.066300 1396.000000
181.101600 1812.000000
182.073300 1012.000000
182.107800 524.000000
183.081600 2816.000000
183.117800 1940.000000
184.089600 1776.000000
184.122000 556.000000
185.097600 44164.000000
186.101000 6572.000000
187.112700 25944.000000
188.116500 3336.000000
189.092400 5476.000000
189.129400 868.000000
190.079000 428.000000
190.096200 776.000000
191.086000 876.000000
191.144600 392.000000
192.094700 792.000000
193.102300 4548.000000
194.073500 624.000000
194.108500 1452.000000
195.082000 4864.000000
195.118500 1780.000000
196.089200 6932.000000
197.096700 7736.000000
197.133400 652.000000
198.103100 2760.000000
199.113100 8596.000000
200.117900 1480.000000
201.093900 600.000000
201.128500 2456.000000
202.079100 616.000000
202.131700 460.000000
203.087000 720.000000
203.143200 492.000000
204.093100 920.000000
205.103600 1368.000000
206.109000 1608.000000
207.083400 692.000000
207.116900 2096.000000
208.089400 3396.000000
208.127200 704.000000
209.097300 12444.000000
209.134500 1392.000000
210.103900 7532.000000
211.113400 38472.000000
212.118000 6452.000000
213.092400 480.000000
213.129100 7916.000000
214.134400 1304.000000
215.085800 412.000000
215.109000 348.000000
216.093400 584.000000
217.101400 664.000000
218.109800 1316.000000
219.082200 580.000000
219.118200 1776.000000
220.089500 1344.000000
220.125500 2708.000000
221.098900 2784.000000
221.132600 1840.000000
222.104900 7928.000000
222.137900 476.000000
223.112500 14428.000000
223.149100 804.000000
224.120400 6760.000000
225.129000 8360.000000
225.166400 456.000000
226.133500 2668.000000
227.110500 784.000000
227.144800 2640.000000
228.149100 916.000000
229.102600 340.000000
229.125000 376.000000
230.109400 516.000000
231.083600 500.000000
231.118600 1376.000000
231.139000 1356.000000
232.090100 556.000000
232.125200 672.000000
233.097500 1476.000000
233.133000 1452.000000
234.105200 2048.000000
234.140600 816.000000
235.113600 6036.000000
235.148000 2036.000000
236.120300 6292.000000
236.153300 492.000000
237.128700 11628.000000
238.136300 10728.000000
239.106200 560.000000
239.144000 6040.000000
240.150900 2072.000000
241.124600 364.000000
241.159600 824.000000
242.164100 348.000000
243.117900 548.000000
245.097600 1356.000000
245.134600 404.000000
246.105200 2292.000000
246.140100 384.000000
247.115700 1524.000000
247.152300 368.000000
248.121700 3144.000000
249.128900 4960.000000
250.137500 3056.000000
251.108600 724.000000
251.145300 11392.000000
252.112600 712.000000
252.149300 2520.000000
253.126200 692.000000
253.160600 12176.000000
254.163700 2876.000000
255.112500 324.000000
255.140200 436.000000
255.175000 1208.000000
259.114300 2396.000000
259.150200 312.000000
260.122200 1708.000000
261.129000 3512.000000
261.166300 464.000000
262.136700 2624.000000
263.111500 460.000000
263.144800 3336.000000
263.182900 3080.000000
264.115100 1208.000000
264.150600 2136.000000
265.122400 824.000000
265.160900 16416.000000
266.131000 832.000000
266.164300 3128.000000
267.140300 2044.000000
267.169800 448.000000
268.147100 676.000000
269.151000 468.000000
273.130800 2036.000000
274.136300 1944.000000
275.147100 1668.000000
276.153600 948.000000
277.127400 540.000000
277.162100 1824.000000
278.167000 1912.000000
279.140300 2652.000000
279.177400 4804.000000
280.147700 508.000000
280.183800 9336.000000
281.188800 2844.000000
282.191900 428.000000
287.143800 568.000000
288.152500 1816.000000
289.158300 684.000000
290.166200 476.000000
291.138100 492.000000
291.176700 1588.000000
292.179800 440.000000
293.154600 904.000000
293.191500 1360.000000
294.164000 352.000000
294.194900 400.000000
295.169100 520.000000
297.153500 728.000000
303.176000 1228.000000
304.183900 544.000000
306.164100 524.000000
308.180200 1220.000000
309.186200 1172.000000
311.167800 460.000000
321.187400 540.000000
322.194000 364.000000
339.198100 372.000000

>ms2
115.055500 7828.000000
116.062200 1888.000000
117.071000 4516.000000
119.049800 332.000000
119.086000 4296.000000
121.065700 19068.000000
122.069100 2196.000000
123.081800 984.000000
127.055800 760.000000
128.062600 6740.000000
129.070400 7368.000000
130.078500 2580.000000
131.050000 2896.000000
131.086200 6704.000000
132.057100 1516.000000
132.090300 1140.000000
133.065400 2212.000000
133.102000 6772.000000
134.069500 388.000000
134.106100 616.000000
135.081500 29216.000000
136.084800 2652.000000
137.060300 1624.000000
137.096300 600.000000
139.076400 516.000000
141.071200 6840.000000
142.079000 6592.000000
143.086200 6512.000000
144.057700 3156.000000
144.093700 1820.000000
145.065600 12884.000000
145.102200 4536.000000
146.073200 10352.000000
146.107000 716.000000
147.080800 6144.000000
147.117300 1064.000000
148.086200 952.000000
149.097400 1596.000000
152.064000 1988.000000
153.070700 2388.000000
154.077900 1484.000000
155.086600 4196.000000
156.094600 1420.000000
157.066400 3468.000000
157.102000 5180.000000
158.073600 12212.000000
158.106600 872.000000
159.081300 18608.000000
159.117600 1852.000000
160.087800 3900.000000
160.122400 376.000000
161.097300 35892.000000
162.100700 3532.000000
163.114200 360.000000
165.071400 4488.000000
165.094000 528.000000
166.078000 4040.000000
167.086900 3040.000000
168.057000 444.000000
168.093800 1948.000000
169.065700 2000.000000
169.102900 2408.000000
170.073900 3348.000000
170.109200 564.000000
171.081800 9472.000000
171.118100 1528.000000
172.088900 10444.000000
173.096900 10924.000000
174.101100 1544.000000
175.113500 2372.000000
176.117500 588.000000
177.071700 640.000000
177.094200 944.000000
178.078600 4324.000000
179.086200 3892.000000
180.094900 2604.000000
181.066700 4256.000000
181.102600 3232.000000
182.073000 2792.000000
182.108200 1028.000000
183.082600 3564.000000
183.118400 1816.000000
184.090000 2624.000000
185.097600 27816.000000
186.102100 5484.000000
187.113300 10808.000000
188.116900 1520.000000
189.071900 864.000000
189.092000 2416.000000
189.131400 704.000000
190.079900 720.000000
191.087300 1868.000000
192.095000 2488.000000
193.102700 5836.000000
194.074400 1516.000000
194.108000 2308.000000
195.081900 8828.000000
195.118400 2064.000000
196.089400 11828.000000
196.123200 640.000000
197.097400 7372.000000
197.132700 564.000000
198.104300 2392.000000
199.112900 3260.000000
200.116700 588.000000
201.095700 328.000000
201.124600 328.000000
202.079300 860.000000
203.087300 1732.000000
204.095100 1880.000000
205.066400 548.000000
205.101900 3328.000000
206.075200 596.000000
206.109600 3104.000000
207.082100 2080.000000
207.117500 2556.000000
208.089700 5912.000000
208.124300 800.000000
209.097400 16944.000000
209.135800 868.000000
210.104000 10524.000000
211.113200 18400.000000
212.084200 352.000000
212.118100 4732.000000
213.128200 2472.000000
214.133100 560.000000
215.089000 820.000000
216.095000 1184.000000
217.103800 1664.000000
218.074500 460.000000
218.109400 1620.000000
219.081900 1636.000000
219.119000 1952.000000
220.088400 1504.000000
220.126700 3092.000000
221.098500 5100.000000
221.133000 1556.000000
222.105200 9160.000000
223.113700 13784.000000
224.121000 6012.000000
225.089400 456.000000
225.129200 5516.000000
226.133300 1104.000000
227.143600 624.000000
229.103900 700.000000
230.109000 852.000000
231.081600 1128.000000
231.117800 1172.000000
232.088400 1600.000000
232.125500 372.000000
233.098400 2932.000000
233.134600 1236.000000
234.104800 2404.000000
234.139400 440.000000
235.113600 5308.000000
235.149300 940.000000
236.120300 6092.000000
237.129100 7440.000000
238.102000 448.000000
238.136600 5688.000000
239.143600 2312.000000
240.150300 1036.000000
243.117400 464.000000
244.088700 356.000000
244.128200 300.000000
245.098000 1660.000000
245.136700 584.000000
246.104900 1428.000000
247.114600 2760.000000
247.152600 448.000000
248.120800 2296.000000
248.152000 304.000000
249.093700 552.000000
249.129200 3596.000000
250.101100 348.000000
250.136500 2700.000000
251.110000 660.000000
251.145300 5312.000000
252.114900 424.000000
252.149900 988.000000
253.161700 2972.000000
254.162700 548.000000
255.120800 516.000000
258.104900 792.000000
259.113800 2272.000000
260.123200 1036.000000
261.127900 2036.000000
262.135600 1280.000000
263.144800 1984.000000
263.181300 2732.000000
264.114800 640.000000
264.153500 1152.000000
264.183500 572.000000
265.161900 12308.000000
266.164400 2752.000000
267.138300 504.000000
267.165900 300.000000
273.130500 2048.000000
274.136600 756.000000
275.144000 800.000000
276.148200 316.000000
277.124800 432.000000
277.160900 520.000000
278.172000 560.000000
279.141700 480.000000
279.178700 1688.000000
280.144500 340.000000
280.183200 1732.000000
287.145900 492.000000
288.154600 628.000000
291.138800 312.000000
293.154600 560.000000
294.159000 320.000000

>ms2
135.079300 3088.000000
147.079200 608.000000
149.094700 808.000000
161.094700 5520.000000
162.096900 612.000000
163.111000 504.000000
165.090100 1452.000000
173.094500 716.000000
175.111400 1032.000000
177.090200 976.000000
183.100400 876.000000
185.095000 3100.000000
187.110600 2944.000000
199.110600 448.000000
211.109400 748.000000
213.126400 1808.000000
225.127600 596.000000
231.137700 952.000000
237.126300 872.000000
239.142600 728.000000
249.127700 656.000000
251.142800 2600.000000
253.158500 5028.000000
254.163000 1360.000000
255.172300 1124.000000
265.158900 620.000000
267.138000 780.000000
277.158900 1540.000000
278.161900 444.000000
279.136800 752.000000
279.173900 3764.000000
280.178000 1488.000000
281.188500 1656.000000
282.190300 452.000000
291.176200 952.000000
293.152000 3848.000000
293.189300 2552.000000
294.157300 768.000000
294.192800 832.000000
295.167000 624.000000
296.173700 420.000000
297.149000 1064.000000
297.184600 1852.000000
303.174300 4068.000000
304.175500 872.000000
309.186100 1524.000000
310.189000 472.000000
311.202100 1180.000000
315.157300 684.000000
321.184600 15696.000000
322.187900 3504.000000
323.193500 576.000000
327.193300 1272.000000
329.211300 772.000000
339.195000 39276.000000
340.198100 9124.000000
341.200800 1152.000000
357.206100 83128.000000
358.209500 19540.000000
359.211900 2288.000000
375.216100 59964.000000
376.219100 13160.000000

>ms2
119.085700 424.000000
121.063900 2336.000000
121.103000 312.000000
123.078700 324.000000
125.060000 568.000000
129.071200 340.000000
131.083200 1216.000000
133.063600 396.000000
133.100600 864.000000
135.079500 13456.000000
136.083100 1816.000000
137.058700 392.000000
137.096200 476.000000
139.074200 612.000000
143.085600 472.000000
145.063700 648.000000
145.101000 1020.000000
147.079400 3652.000000
147.115200 864.000000
149.095300 3480.000000
150.097600 312.000000
151.073700 512.000000
153.089500 428.000000
155.070700 700.000000
157.084100 392.000000
157.101500 404.000000
159.079200 3804.000000
159.113900 528.000000
160.082300 332.000000
161.095000 32716.000000
162.098800 3276.000000
163.111000 812.000000
165.090100 3664.000000
166.093300 416.000000
167.106100 668.000000
169.098900 740.000000
171.080100 636.000000
171.116200 840.000000
173.095400 3536.000000
173.132300 728.000000
174.098000 572.000000
175.075500 436.000000
175.110300 2848.000000
176.114700 388.000000
177.090000 2296.000000
177.125200 304.000000
179.105800 672.000000
183.100200 1388.000000
185.094900 15652.000000
186.099200 2420.000000
187.110900 13060.000000
188.113600 2252.000000
189.089200 2432.000000
189.126900 612.000000
190.094800 508.000000
191.106400 856.000000
191.144800 336.000000
193.119600 468.000000
195.117000 312.000000
197.096300 1144.000000
199.111400 2344.000000
200.116900 324.000000
201.090300 536.000000
201.126700 1904.000000
202.132800 368.000000
203.104300 396.000000
203.141200 504.000000
205.120700 544.000000
209.095500 588.000000
210.100400 308.000000
211.111000 6840.000000
212.115100 904.000000
213.092100 312.000000
213.126900 4008.000000
214.129800 916.000000
215.104100 492.000000
215.143700 796.000000
219.138400 360.000000
223.110800 1388.000000
223.133700 396.000000
224.114400 488.000000
225.125900 3420.000000
226.130200 852.000000
227.105700 584.000000
227.141300 1736.000000
228.147300 492.000000
229.121500 620.000000
231.137800 4136.000000
232.139600 640.000000
235.111100 1668.000000
235.147300 320.000000
236.117000 472.000000
237.126600 5596.000000
238.128800 1432.000000
239.106800 340.000000
239.141300 3648.000000
240.147800 916.000000
241.120100 316.000000
241.157100 1300.000000
242.164000 304.000000
243.136100 404.000000
248.114700 304.000000
249.127200 2336.000000
250.130500 596.000000
251.141800 8668.000000
252.145900 2152.000000
253.158200 24392.000000
254.162300 4672.000000
255.134400 496.000000
255.173500 2920.000000
256.176300 608.000000
257.180800 312.000000
261.126700 1908.000000
262.132000 1032.000000
263.141300 2876.000000
263.179700 444.000000
264.149200 808.000000
265.126800 476.000000
265.157400 2896.000000
266.163100 608.000000
267.137100 3104.000000
267.173600 324.000000
268.144900 524.000000
269.153500 1288.000000
270.158000 328.000000
274.133500 784.000000
275.143000 1028.000000
275.178400 416.000000
277.159100 4952.000000
278.164500 1776.000000
279.137600 4220.000000
279.173700 12244.000000
280.143700 764.000000
280.180500 9164.000000
281.153300 532.000000
281.187900 7388.000000
282.192000 1808.000000
285.149100 560.000000
288.150600 976.000000
289.156300 396.000000
290.167700 372.000000
291.172800 3232.000000
292.176800 940.000000
293.152600 2052.000000
293.190300 7792.000000
294.157100 484.000000
294.193000 1784.000000
295.169400 1404.000000
296.176700 356.000000
297.148000 4416.000000
297.182900 2368.000000
298.155000 928.000000
298.186100 548.000000
299.201100 1128.000000
303.173600 11244.000000
304.176900 2560.000000
305.180000 332.000000
306.163500 364.000000
308.175700 392.000000
309.184200 4380.000000
310.186300 1180.000000
311.164100 596.000000
311.201600 1848.000000
312.203000 420.000000
313.174000 336.000000
315.161300 1944.000000
316.161700 696.000000
321.185000 17872.000000
322.187800 4724.000000
323.191900 628.000000
327.196200 1324.000000
339.195800 19008.000000
340.198300 4456.000000
341.202600 752.000000
357.206400 33152.000000
358.209900 8340.000000
359.212600 1240.000000
375.217800 784.000000

>ms2
115.052400 716.000000
117.069500 664.000000
119.085400 1296.000000
121.064200 5436.000000
121.100100 308.000000
122.067300 364.000000
123.079400 900.000000
125.058600 492.000000
128.060900 576.000000
129.068700 1008.000000
131.084900 2068.000000
133.063100 860.000000
133.099800 2488.000000
134.103800 408.000000
135.079600 19040.000000
136.083100 2384.000000
137.059000 1040.000000
137.094500 784.000000
139.073600 400.000000
141.068900 468.000000
142.078000 336.000000
143.084700 1688.000000
144.055300 388.000000
145.063900 2420.000000
145.100800 1948.000000
146.070900 1052.000000
147.079300 5708.000000
147.115400 1016.000000
148.082200 468.000000
149.095000 2980.000000
150.098300 460.000000
151.074700 636.000000
151.110900 324.000000
153.090400 440.000000
155.069700 300.000000
155.083600 428.000000
157.064300 360.000000
157.099500 1284.000000
158.071800 1216.000000
159.079300 7040.000000
159.115500 1292.000000
160.084500 1460.000000
161.095100 36336.000000
162.098600 3800.000000
163.075400 400.000000
163.111200 864.000000
165.090200 1660.000000
166.076200 304.000000
169.099900 544.000000
171.078800 1824.000000
171.115300 1268.000000
172.086700 892.000000
172.119400 328.000000
173.094400 8232.000000
173.131300 1244.000000
174.099000 1064.000000
175.075500 436.000000
175.110100 2632.000000
175.148000 320.000000
176.114600 396.000000
177.090500 1868.000000
179.107000 444.000000
181.101600 584.000000
183.080600 504.000000
183.115100 528.000000
184.084100 536.000000
185.094900 22828.000000
186.098500 3796.000000
187.110800 17008.000000
188.114400 3104.000000
189.089800 4748.000000
189.125000 820.000000
190.093800 380.000000
191.105100 360.000000
191.141300 368.000000
192.114500 304.000000
193.101600 620.000000
195.077600 820.000000
195.115700 692.000000
196.086600 1100.000000
197.095900 1880.000000
198.099800 308.000000
199.110300 5504.000000
200.115400 1236.000000
201.090300 380.000000
201.127800 1908.000000
202.129000 468.000000
203.106100 368.000000
203.140900 480.000000
205.102300 388.000000
205.119900 664.000000
206.109400 428.000000
207.115100 496.000000
208.088400 820.000000
209.094800 2944.000000
209.131600 536.000000
210.102100 1544.000000
211.111000 16428.000000
212.116300 3324.000000
213.126400 5964.000000
214.130800 1136.000000
215.142300 368.000000
219.115000 696.000000
219.138300 448.000000
220.127900 372.000000
221.096400 604.000000
221.131600 584.000000
222.102800 1160.000000
223.110900 4180.000000
223.145100 412.000000
224.117600 2168.000000
225.126500 4940.000000
226.133500 1356.000000
227.107900 628.000000
227.142200 2320.000000
228.145500 808.000000
229.123800 340.000000
231.137300 2368.000000
232.139500 440.000000
233.095300 344.000000
233.132200 516.000000
234.102900 412.000000
235.110700 2520.000000
235.147800 1068.000000
236.116500 1924.000000
236.154000 428.000000
237.126900 10564.000000
238.133000 4460.000000
239.107000 400.000000
239.142100 5532.000000
240.147200 2000.000000
241.123300 396.000000
241.158100 1648.000000
242.160100 412.000000
245.097900 316.000000
246.102600 472.000000
247.110800 860.000000
247.147100 320.000000
248.118900 872.000000
249.127200 3140.000000
250.133500 1312.000000
251.105800 804.000000
251.142400 9136.000000
252.146600 2320.000000
253.158200 20176.000000
254.161900 4416.000000
255.135800 612.000000
255.172900 2528.000000
256.182000 412.000000
259.112500 528.000000
260.116300 464.000000
261.126500 2128.000000
261.163700 408.000000
262.134400 1876.000000
263.142300 2892.000000
263.179400 1036.000000
264.111500 628.000000
264.146000 1104.000000
265.121300 508.000000
265.157500 5280.000000
266.129300 348.000000
266.163200 1092.000000
267.137900 1812.000000
267.170200 620.000000
268.142800 460.000000
269.153700 876.000000
273.128100 664.000000
274.135500 1104.000000
275.144400 900.000000
275.176100 308.000000
276.150900 376.000000
277.159500 3824.000000
278.165000 2180.000000
279.137800 3364.000000
279.173300 8644.000000
280.142400 848.000000
280.182200 12244.000000
281.152200 336.000000
281.188800 4372.000000
282.191400 776.000000
285.159300 520.000000
288.152500 1200.000000
290.166500 456.000000
291.173400 2752.000000
292.144900 388.000000
292.177600 464.000000
293.151700 456.000000
293.188900 3888.000000
294.151600 324.000000
294.192200 944.000000
295.167700 644.000000
297.148400 2228.000000
297.183400 832.000000
298.155000 484.000000
299.199800 404.000000
303.173500 4764.000000
304.175900 1008.000000
306.164400 564.000000
308.177800 772.000000
309.185300 2808.000000
310.188500 416.000000
311.161900 592.000000
311.201600 436.000000
315.157100 432.000000
321.185200 4100.000000
322.190500 964.000000
327.200300 320.000000
339.196800 3248.000000
340.200200 632.000000
357.205800 1852.000000
358.209100 320.000000

>ms2
115.053300 1820.000000
116.057400 300.000000
117.069100 1000.000000
119.084500 1444.000000
121.064000 6884.000000
121.100300 812.000000
122.066800 908.000000
123.081100 476.000000
125.060600 428.000000
128.061300 1164.000000
129.068600 1208.000000
130.075100 968.000000
131.047800 780.000000
131.084200 2720.000000
132.055400 328.000000
132.087800 508.000000
133.064100 936.000000
133.100000 3540.000000
135.079000 20668.000000
136.082500 2420.000000
137.058900 1192.000000
137.094000 568.000000
141.068000 1952.000000
142.076200 1652.000000
143.084000 2672.000000
144.055400 1180.000000
144.090500 800.000000
145.063400 4356.000000
145.099600 2972.000000
146.071300 2592.000000
147.079000 4300.000000
147.116100 1036.000000
148.082700 576.000000
149.094600 1920.000000
151.073000 360.000000
153.066200 488.000000
155.083300 1316.000000
156.090200 520.000000
157.063600 720.000000
157.100300 2032.000000
158.071000 2760.000000
158.102900 404.000000
159.079400 10524.000000
159.115500 1456.000000
160.085400 1516.000000
161.094700 27284.000000
162.097900 3388.000000
163.110200 472.000000
165.068800 764.000000
165.088100 944.000000
166.076500 428.000000
167.084300 616.000000
168.092200 504.000000
169.061700 396.000000
169.099700 1068.000000
170.072500 688.000000
171.079100 3360.000000
171.114000 1040.000000
172.087400 3168.000000
172.122000 340.000000
173.094600 7060.000000
173.131300 772.000000
174.097100 1424.000000
175.109800 2564.000000
176.117300 340.000000
177.088600 996.000000
177.126400 512.000000
178.074100 988.000000
179.083200 812.000000
180.091100 664.000000
181.063200 892.000000
181.099200 1020.000000
182.069400 428.000000
182.106300 412.000000
183.079500 1180.000000
183.115500 1052.000000
184.088400 916.000000
185.094700 20444.000000
186.098700 3512.000000
187.110000 10288.000000
188.114500 1720.000000
189.089600 2644.000000
189.123200 588.000000
190.078600 424.000000
190.095400 684.000000
190.132100 396.000000
191.083700 908.000000
192.092900 784.000000
193.099900 2464.000000
194.108800 768.000000
195.079100 2320.000000
195.115600 928.000000
196.087400 3252.000000
197.093900 3772.000000
197.130600 500.000000
198.100800 1452.000000
199.110300 3604.000000
200.115300 764.000000
201.089700 432.000000
201.126700 1076.000000
203.083000 404.000000
205.101800 976.000000
206.107400 548.000000
207.114800 1656.000000
208.088200 1640.000000
208.121900 392.000000
209.095100 5676.000000
209.130800 1204.000000
210.101400 4000.000000
211.110300 15876.000000
212.114300 3108.000000
213.090100 300.000000
213.125300 3536.000000
214.131500 840.000000
217.098800 516.000000
218.106900 520.000000
219.114000 724.000000
220.088100 560.000000
220.122200 1424.000000
221.096800 1256.000000
221.131600 768.000000
222.102900 3212.000000
223.110300 6376.000000
223.147900 336.000000
224.116700 4820.000000
225.090700 308.000000
225.125800 3872.000000
225.163300 312.000000
226.130900 984.000000
227.142100 1336.000000
231.113300 368.000000
231.136700 588.000000
233.095000 1052.000000
233.132700 700.000000
234.102800 1104.000000
234.135400 324.000000
235.109900 2992.000000
235.144500 1104.000000
236.118600 2660.000000
237.125500 7608.000000
238.093500 308.000000
238.132700 4204.000000
239.140200 3832.000000
240.147000 1012.000000
241.157200 656.000000
243.119400 456.000000
245.094400 724.000000
246.102700 868.000000
247.110300 1004.000000
247.146400 500.000000
248.118800 1324.000000
249.126400 2800.000000
250.132700 1708.000000
251.104800 392.000000
251.141700 6228.000000
252.147100 1128.000000
253.121900 436.000000
253.157600 6448.000000
254.161400 1688.000000
255.135900 348.000000
255.171500 604.000000
259.112200 980.000000
260.117100 664.000000
261.126500 2000.000000
262.135400 1144.000000
263.142300 1912.000000
263.177200 1216.000000
264.115000 676.000000
264.148500 1252.000000
264.185400 316.000000
265.122700 396.000000
265.157300 7860.000000
266.132500 396.000000
266.159000 1668.000000
267.135300 832.000000
267.165600 320.000000
269.152600 676.000000
273.125700 1388.000000
274.132200 1132.000000
275.138500 1232.000000
276.147100 356.000000
277.156500 1080.000000
278.129500 380.000000
278.163900 784.000000
279.135300 1028.000000
279.173100 2668.000000
280.180900 4916.000000
281.185800 1224.000000
288.151100 796.000000
291.170200 688.000000
292.175900 336.000000
293.156700 428.000000
293.191700 764.000000
295.166300 420.000000
297.149400 348.000000
303.174800 1084.000000
304.179200 324.000000
306.162100 468.000000
308.178300 528.000000
309.183600 316.000000
311.163900 316.000000
321.182500 668.000000

>ms2
115.053200 2632.000000
116.059900 500.000000
117.069100 1624.000000
119.084600 1768.000000
121.064200 7708.000000
122.068700 884.000000
123.079800 452.000000
127.051700 312.000000
128.061200 3236.000000
129.069100 3148.000000
130.076900 1308.000000
131.047800 1476.000000
131.084700 3236.000000
132.056800 804.000000
132.089700 400.000000
133.064800 1272.000000
133.100400 2972.000000
135.079600 12340.000000
136.083100 1428.000000
137.058000 740.000000
141.069000 3636.000000
142.076600 3084.000000
143.084000 2876.000000
144.055400 2704.000000
144.091500 792.000000
145.063600 5528.000000
145.099800 2480.000000
146.071300 4824.000000
146.102000 332.000000
147.078900 2424.000000
147.114700 392.000000
148.082200 504.000000
149.094700 820.000000
152.060500 916.000000
153.068200 1148.000000
154.076400 772.000000
155.084600 2484.000000
156.092000 924.000000
157.063900 1756.000000
157.099900 2412.000000
158.071400 5624.000000
159.079200 8104.000000
159.116400 1016.000000
160.086200 1868.000000
160.122500 336.000000
161.094800 15196.000000
162.098000 1964.000000
163.073700 364.000000
165.068800 1884.000000
166.076800 1380.000000
167.084000 1900.000000
168.090900 1200.000000
169.065400 784.000000
169.098800 1396.000000
170.071000 2048.000000
171.079400 4232.000000
171.115300 644.000000
172.087000 5116.000000
173.094400 4464.000000
173.132900 332.000000
174.099500 548.000000
175.111500 1056.000000
176.117400 308.000000
177.070300 400.000000
177.090500 592.000000
178.077600 2708.000000
179.084000 1820.000000
180.092000 1044.000000
181.063700 2684.000000
181.099800 1484.000000
182.070400 1164.000000
182.106300 428.000000
183.079000 2076.000000
183.115900 1444.000000
184.085300 1516.000000
185.094900 15444.000000
186.099300 2472.000000
187.110200 5436.000000
188.114900 712.000000
189.071200 396.000000
189.089200 1360.000000
190.076200 860.000000
191.085000 760.000000
192.094200 1356.000000
193.100900 2668.000000
194.072700 1020.000000
194.105200 1044.000000
195.079000 4788.000000
195.115000 1352.000000
196.086700 5728.000000
196.121800 536.000000
197.094200 3432.000000
197.131400 320.000000
198.101800 1216.000000
199.110100 1832.000000
200.114400 360.000000
201.124500 392.000000
202.077000 572.000000
203.083700 1076.000000
204.092600 1140.000000
205.100100 1468.000000
206.107100 1872.000000
207.080400 1348.000000
207.115700 1644.000000
208.087300 3224.000000
208.121100 388.000000
209.095500 7708.000000
209.133000 616.000000
210.101600 4432.000000
211.110400 8368.000000
212.116000 1916.000000
213.126200 1304.000000
215.085600 356.000000
216.090800 404.000000
217.100300 772.000000
218.110100 772.000000
219.080800 608.000000
219.114600 1216.000000
220.085400 692.000000
220.123300 1716.000000
221.095600 2208.000000
221.131200 700.000000
222.102700 4608.000000
223.110700 6628.000000
224.116500 3336.000000
225.125400 2084.000000
226.131200 764.000000
227.145400 324.000000
229.099500 456.000000
230.106200 348.000000
231.079400 848.000000
231.114500 592.000000
233.097100 1292.000000
233.132800 572.000000
234.102400 996.000000
235.110000 2840.000000
235.145400 544.000000
236.117900 3608.000000
237.090100 328.000000
237.125200 3440.000000
238.132800 2388.000000
239.140100 1340.000000
240.146600 320.000000
244.120800 312.000000
245.094400 708.000000
246.102900 1184.000000
247.109000 1572.000000
248.118000 888.000000
249.126000 1632.000000
250.134500 1432.000000
251.104600 504.000000
251.142200 2592.000000
252.147300 564.000000
253.156400 1288.000000
257.131700 320.000000
258.101400 488.000000
258.105900 400.000000
259.111800 1472.000000
260.118200 512.000000
261.125800 944.000000
262.135000 644.000000
263.141300 980.000000
263.179000 708.000000
264.114400 412.000000
264.152300 696.000000
264.183400 340.000000
265.158400 5548.000000
266.130900 412.000000
266.163000 1664.000000
267.138200 512.000000
273.126400 1136.000000
274.130100 320.000000
275.143000 560.000000
278.166200 328.000000
279.173200 1028.000000
280.180300 636.000000
287.144000 404.000000
288.152100 328.000000

>ms2
67.054400 328.000000
69.033300 316.000000
71.049200 488.000000
81.070500 308.000000
93.070100 316.000000
105.068700 416.000000
107.086100 436.000000
109.102700 308.000000
115.052500 528.000000
117.068500 480.000000
119.085700 1012.000000
121.063800 6164.000000
121.100200 416.000000
122.065800 316.000000
123.079600 716.000000
125.058700 832.000000
128.062300 508.000000
129.067800 624.000000
130.075700 316.000000
131.084100 1832.000000
133.099700 1484.000000
135.079200 22192.000000
136.082500 2028.000000
137.057300 1080.000000
137.094700 1356.000000
139.074200 576.000000
142.076000 372.000000
143.084600 1180.000000
144.092000 476.000000
145.063100 1820.000000
145.099800 1940.000000
146.070000 776.000000
146.103200 300.000000
147.079600 3788.000000
147.114500 1012.000000
148.083300 384.000000
149.094500 3164.000000
150.100700 384.000000
151.072000 824.000000
153.089700 360.000000
155.068900 484.000000
157.099900 888.000000
158.071800 696.000000
159.079200 5456.000000
159.115800 576.000000
161.094900 37860.000000
162.098000 3560.000000
163.076000 360.000000
163.109700 408.000000
165.089200 2972.000000
166.093000 340.000000
169.101200 624.000000
171.078300 1800.000000
171.117000 1340.000000
172.086500 860.000000
172.118500 328.000000
173.093900 5068.000000
173.131200 980.000000
174.098500 752.000000
175.072000 336.000000
175.110300 2868.000000
176.114000 444.000000
177.089600 1552.000000
179.108300 456.000000
183.078000 364.000000
183.100600 796.000000
183.116700 448.000000
185.094900 22564.000000
186.098600 3544.000000
187.110200 14276.000000
188.113900 2268.000000
189.089900 2968.000000
189.124500 688.000000
190.093500 444.000000
191.106400 452.000000
191.141000 416.000000
192.114600 312.000000
193.099100 536.000000
193.120400 436.000000
195.080500 676.000000
195.114700 444.000000
196.090500 528.000000
197.095500 1524.000000
198.101100 316.000000
199.110200 3540.000000
200.116900 564.000000
201.089900 456.000000
201.126100 1880.000000
202.128400 324.000000
203.138100 340.000000
205.121300 572.000000
208.086600 452.000000
209.094800 2244.000000
209.131500 428.000000
210.101100 1376.000000
211.110300 12340.000000
212.115600 2052.000000
213.126100 4620.000000
214.129900 544.000000
215.105500 368.000000
215.140900 856.000000
219.136000 404.000000
220.122400 336.000000
221.098600 504.000000
222.102100 888.000000
223.109400 3220.000000
224.117700 1492.000000
225.126500 3764.000000
226.131300 1024.000000
227.106300 604.000000
227.141900 2076.000000
228.145900 332.000000
229.124700 528.000000
231.137100 2000.000000
232.140600 628.000000
233.095600 360.000000
233.130700 520.000000
235.110900 2928.000000
235.146800 560.000000
236.117300 1596.000000
237.126400 9140.000000
238.132700 3200.000000
239.141400 4260.000000
240.146200 1548.000000
241.157800 972.000000
245.129500 416.000000
246.102200 444.000000
247.109900 604.000000
248.117500 920.000000
249.125800 2196.000000
250.129800 1236.000000
251.104300 552.000000
251.142400 8424.000000
252.146300 1960.000000
253.158100 22192.000000
254.161200 3972.000000
255.135100 528.000000
255.172600 2712.000000
256.178500 504.000000
259.110000 580.000000
260.119100 380.000000
261.127000 1796.000000
262.131200 768.000000
263.141500 2620.000000
263.176400 696.000000
264.152600 888.000000
265.120800 428.000000
265.157800 4320.000000
266.124600 324.000000
266.162700 964.000000
267.137500 1452.000000
267.172300 356.000000
268.140700 396.000000
269.153300 800.000000
273.127000 560.000000
274.133300 688.000000
275.142300 1452.000000
275.178000 332.000000
276.148800 340.000000
277.158100 2860.000000
278.163700 1584.000000
279.137400 2852.000000
279.173500 8632.000000
280.142400 716.000000
280.180300 11444.000000
281.187400 4632.000000
282.191700 936.000000
283.130300 332.000000
285.148500 372.000000
288.151300 1364.000000
289.153400 304.000000
290.169300 512.000000
291.173600 2076.000000
292.176400 940.000000
293.150900 1140.000000
293.189800 3564.000000
294.192100 836.000000
295.166500 804.000000
295.191800 316.000000
297.147400 2368.000000
297.184200 616.000000
298.151800 484.000000
299.198200 668.000000
303.173800 5144.000000
304.177100 1008.000000
306.161300 552.000000
308.175400 372.000000
309.183800 2364.000000
310.186100 632.000000
311.163300 560.000000
311.202100 860.000000
315.158600 1000.000000
321.184200 6372.000000
322.187900 1936.000000
329.209800 312.000000
339.194900 7008.000000
340.200500 1960.000000
357.204800 8560.000000
358.208500 2332.000000

