>compound AU43650169
>parentmass 349.1329
>ionization [M+H]+
>formula C16H20N4O3S
>rt 399.840000
>profile qtof
#smiles_iso CC1=CC(=CC=C1)NC2=C(C=NC=C2)S(=O)(=O)NC(=O)NC(C)C
#smiles_can CC1=CC(=CC=C1)NC2=C(C=NC=C2)S(=O)(=O)NC(=O)NC(C)C
#inchikey NGBFQHCMQULJNZ-UHFFFAOYSA-N
#pubchem_id 41781
#mb_accession AU236501,AU236502,AU236503,AU236504,AU236505,AU236506

>ms2
264.080400 250704.000000
265.083000 32824.000000
266.077300 11264.000000
290.060000 58884.000000
291.062300 8160.000000
292.057000 2968.000000
349.133900 217864.000000
350.136200 44072.000000
351.132000 12224.000000

>ms2
183.090200 2464.000000
264.080000 413564.000000
265.082600 51892.000000
266.076600 15740.000000
290.059200 62336.000000
291.061900 9208.000000
292.056600 3092.000000
349.133600 2804.000000

>ms2
125.016000 5968.000000
168.067000 7004.000000
182.082800 2348.000000
183.090500 39116.000000
184.094200 5144.000000
198.077300 5140.000000
199.085200 4864.000000
201.047500 3356.000000
219.058100 12084.000000
229.042500 1672.000000
230.050100 7424.000000
247.052800 14624.000000
248.056200 1672.000000
264.079800 309084.000000
265.082300 39856.000000
266.076700 12012.000000
290.058900 40276.000000
291.061800 5740.000000
292.058200 1792.000000

>ms2
122.059300 3500.000000
125.015900 16984.000000
126.020700 1572.000000
129.068800 1388.000000
137.016000 2680.000000
141.056300 1032.000000
153.010500 1868.000000
156.079700 3072.000000
167.059100 1120.000000
168.067100 56016.000000
169.070700 8224.000000
181.074300 5788.000000
182.082400 19840.000000
183.090800 189336.000000
184.094000 21076.000000
185.069800 2664.000000
185.097300 1508.000000
186.075000 1088.000000
191.062200 7976.000000
192.064800 1104.000000
198.077800 13836.000000
199.085200 14012.000000
200.088800 1740.000000
201.047300 9724.000000
202.052600 1744.000000
203.061300 1028.000000
214.073200 1872.000000
219.057700 25280.000000
220.059700 2448.000000
221.053900 1168.000000
229.042600 4100.000000
230.050000 20104.000000
231.052600 3080.000000
247.053100 20016.000000
248.055800 2504.000000
249.047900 1032.000000
264.079900 108076.000000
265.082400 15364.000000
266.077100 4428.000000
290.058900 12132.000000
291.060500 1904.000000

>ms2
125.016000 14512.000000
126.021100 1588.000000
128.061100 2592.000000
129.068700 6816.000000
137.016600 4576.000000
140.048200 4896.000000
141.056000 5864.000000
153.011000 1300.000000
154.063400 3060.000000
155.059200 1636.000000
156.079500 6492.000000
167.059400 3816.000000
168.067300 212324.000000
169.070900 24052.000000
170.074700 1832.000000
171.090600 1756.000000
176.039200 2100.000000
181.074600 23388.000000
182.082700 61040.000000
183.090900 247968.000000
184.062100 2156.000000
184.093900 26968.000000
185.069700 3888.000000
185.096800 1508.000000
186.076100 1480.000000
191.062700 6108.000000
197.069600 1388.000000
198.077600 15304.000000
199.085300 15548.000000
200.088300 1700.000000
201.047200 9324.000000
202.052300 2708.000000
219.057600 7940.000000
220.060100 1416.000000
229.041900 2988.000000
230.049800 13016.000000
231.052800 1564.000000
247.052500 8688.000000
264.079800 15088.000000
265.082000 2288.000000
290.059400 1680.000000

>ms2
125.015700 8272.000000
168.067300 8864.000000
182.082400 2708.000000
183.090800 54836.000000
184.093200 7100.000000
191.062600 2516.000000
198.077700 6048.000000
199.085500 7364.000000
201.047800 4648.000000
219.057900 14524.000000
220.061600 1792.000000
229.043200 1660.000000
230.050000 10948.000000
247.053000 14664.000000
248.056000 1816.000000
264.080100 310840.000000
265.082800 68420.000000
266.076300 15772.000000
267.079600 1824.000000
290.059400 64416.000000
291.061600 7992.000000
292.056700 2644.000000

