>compound AU43266542
>parentmass 182.0093
>ionization [M+H]+
>formula C8H7NS2
>rt 588.720000
>profile qtof
#smiles_iso CSC1=NC2=CC=CC=C2S1
#smiles_can CSC1=NC2=CC=CC=C2S1
#inchikey UTBVIMLZIRIFFR-UHFFFAOYSA-N
#pubchem_id 11989
#mb_accession AU405806

>ms2
135.011900 404.000000
149.028500 332.000000
166.984600 14028.000000
167.986700 936.000000
168.980600 1016.000000
182.008700 20176.000000
183.010900 1464.000000
184.003600 1224.000000

