>compound AU44981009
>parentmass 435.3598
>ionization [M+H]+
>formula C24H51O4P
>rt 928.570000
>profile qtof
#smiles_iso CCCCC(CC)COP(=O)(OCC(CC)CCCC)OCC(CC)CCCC
#smiles_can CCCCC(CC)COP(=O)(OCC(CC)CCCC)OCC(CC)CCCC
#inchikey GTVWRXDRKAHEAD-UHFFFAOYSA-N
#pubchem_id 6537
#mb_accession AU247501,AU247502,AU247503,AU247504,AU247505,AU247506

>ms2peaks
149.022800 2380.000000
211.108700 20920.000000
212.112900 1988.000000
229.121500 600.000000
237.079200 5532.000000
238.079400 1436.000000
275.163100 5416.000000
276.166100 968.000000
293.174700 1312.000000
294.177900 376.000000
323.234300 21432.000000
324.237000 5036.000000
325.237100 588.000000
376.297000 644.000000
386.116200 612.000000
387.119800 392.000000
433.335100 952.000000
435.358500 14968.000000
436.363300 4340.000000
437.365100 788.000000

>ms2peaks
149.022300 14564.000000
150.027200 836.000000
167.033000 732.000000
211.109200 1428.000000
237.078300 9692.000000
238.080200 2300.000000
239.146400 536.000000
275.165000 1968.000000
276.167200 352.000000
293.176200 744.000000
319.282800 416.000000

>ms2peaks
149.022300 13796.000000
150.026000 1352.000000
167.035400 396.000000
182.069900 300.000000
237.078200 9172.000000
238.078300 1980.000000
299.061700 468.000000

>ms2peaks
121.026500 408.000000
149.022400 11320.000000
150.026000 1008.000000
167.052700 368.000000
223.062200 1416.000000
224.065400 312.000000
237.078800 7488.000000
238.078700 1944.000000

>ms2peaks
121.028800 748.000000
149.022500 13532.000000
150.026500 1148.000000
181.068800 468.000000
207.069100 388.000000
224.062900 616.000000
225.078400 652.000000
237.078100 3836.000000
238.079000 928.000000
239.075700 624.000000

>ms2peaks
57.069500 10084.000000
58.073500 480.000000
71.085000 11640.000000
72.088000 700.000000
85.100300 1084.000000
98.984200 9252.000000
113.130600 392.000000
131.010100 492.000000
140.009800 1336.000000
149.022200 16756.000000
150.026000 1908.000000
167.033200 752.000000
181.069200 1216.000000
223.061900 484.000000
237.078400 7924.000000
238.079400 2552.000000
239.076100 900.000000
299.063200 668.000000

