>compound AU44924270
>parentmass 294.1965
>ionization [M+H]+
>formula C19H23N3
>rt 810.000000
>profile qtof
#smiles_iso CC1=CC(=C(C=C1)N=CN(C)C=NC2=C(C=C(C=C2)C)C)C
#smiles_can CC1=CC(=C(C=C1)N=CN(C)C=NC2=C(C=C(C=C2)C)C)C
#inchikey QXAITBQSYVNQDR-UHFFFAOYSA-N
#pubchem_id 36324
#mb_accession AU302301,AU302302,AU302303,AU302304,AU302305

>ms2
163.122300 12068.000000
221.118800 532.000000
253.169900 1232.000000
254.172000 328.000000
293.185700 308.000000
294.194700 5652.000000
295.197400 1072.000000

>ms2
122.095300 1080.000000
132.079700 444.000000
157.048300 600.000000
163.122200 25972.000000
221.116300 576.000000
253.170400 1436.000000

>ms2
117.055700 328.000000
122.095600 2548.000000
132.080000 1692.000000
163.122100 13040.000000
253.168400 588.000000

>ms2
117.056900 1136.000000
120.080500 540.000000
122.095900 3644.000000
132.079800 2980.000000
161.096300 332.000000
163.122100 8372.000000

>ms2
117.056400 1260.000000
120.080000 492.000000
122.095900 1544.000000
132.079400 1704.000000
163.121300 1212.000000

