>compound AU44952885
>parentmass 130.1339
>ionization [M+H]+
>formula C6H15N3
>rt 75.680000
>profile qtof
#smiles_iso C1CN(CCN1)CCN
#smiles_can C1CN(CCN1)CCN
#inchikey IMUDHTPIFIBORV-UHFFFAOYSA-N
#pubchem_id 8795
#mb_accession AU252001,AU252002,AU252006

>ms2peaks
113.105900 2796.000000
130.132800 15948.000000
131.136300 964.000000

>ms2peaks
113.106000 952.000000
130.133500 352.000000

>ms2peaks
56.048800 1416.000000
58.064500 856.000000
70.064500 688.000000
84.068800 300.000000
84.080200 968.000000
87.091900 304.000000
113.106900 8984.000000
114.109900 608.000000
130.133000 4352.000000

