>compound AU44054306
>parentmass 199.0978
>ionization [M+H]+
>formula C11H10N4
>rt 228.980000
>profile qtof
#smiles_iso CN1C2=C(C3=C(C=C2)N=CC=C3)N=C1N
#smiles_can CN1C2=C(C3=C(C=C2)N=CC=C3)N=C1N
#inchikey ARZWATDYIYAUTA-UHFFFAOYSA-N
#pubchem_id 53462
#mb_accession AU243701,AU243702,AU243703,AU243704,AU243705,AU243706

>ms2
184.073200 8932.000000
199.097500 1513124.000000
200.100100 170996.000000
201.102300 8064.000000

>ms2
157.074300 10648.000000
158.069600 15616.000000
184.073300 163392.000000
185.076000 18292.000000
199.097000 1651648.000000
200.100000 165584.000000
201.103000 8800.000000

>ms2
128.048300 6196.000000
130.051400 9412.000000
130.063600 13044.000000
131.059200 33500.000000
142.051000 6920.000000
155.058700 5748.000000
156.054100 21504.000000
157.062200 59992.000000
157.073500 39344.000000
158.069500 40940.000000
182.069900 20940.000000
183.066900 9748.000000
184.073300 1099952.000000
185.076000 82508.000000
199.096800 628564.000000
200.099600 64016.000000

>ms2
128.048300 19652.000000
129.043400 16968.000000
129.055400 13196.000000
130.051300 44208.000000
130.062900 17108.000000
131.059000 38072.000000
142.051200 26604.000000
143.057900 7580.000000
145.074100 5008.000000
155.059400 8584.000000
156.054600 97848.000000
157.062200 257680.000000
158.067100 31212.000000
170.069700 5360.000000
182.069900 11828.000000
183.065500 39908.000000
184.073500 908592.000000
185.076400 70220.000000
197.080700 6900.000000
199.096800 55996.000000
200.099300 7204.000000

>ms2
114.032800 2824.000000
115.040800 3596.000000
116.049000 2976.000000
117.055900 3152.000000
118.051200 2784.000000
128.047900 15376.000000
129.043500 47928.000000
130.051300 90208.000000
131.058200 33016.000000
132.064000 4252.000000
133.062800 1292.000000
140.034800 1296.000000
141.043500 2728.000000
142.051100 36500.000000
143.057500 9340.000000
144.055600 2876.000000
144.065300 4888.000000
145.074400 2164.000000
146.057900 1768.000000
153.043500 1172.000000
155.058800 5272.000000
156.054300 184488.000000
157.061900 215692.000000
158.065900 23340.000000
159.069600 1360.000000
167.046000 2952.000000
168.053500 2172.000000
170.070600 5112.000000
182.069400 5336.000000
183.065200 42836.000000
184.073000 187660.000000
185.075800 20004.000000
186.078600 1460.000000
197.081600 3636.000000
198.086100 1084.000000
199.096700 3356.000000

>ms2
131.059500 9104.000000
157.061900 6584.000000
157.074600 15448.000000
158.070100 21000.000000
182.070400 8688.000000
184.073500 275260.000000
185.076300 26356.000000
199.097000 822120.000000
200.100100 91176.000000
201.103400 4356.000000

