>compound AU44464426
>parentmass 201.0692
>ionization [M+H]+
>formula C8H12N2O2S
>rt 261.660000
>profile qtof
#smiles_iso CN(C)S(=O)(=O)C1=CC=C(C=C1)N
#smiles_can CN(C)S(=O)(=O)C1=CC=C(C=C1)N
#inchikey BABGMPQXLCJMSK-UHFFFAOYSA-N
#pubchem_id 74369
#mb_accession AU246201,AU246202,AU246203,AU246206

>ms2peaks
156.010700 417480.000000
157.013400 30584.000000
158.006600 14100.000000
201.068800 114608.000000
202.071300 10928.000000
203.064700 4956.000000

>ms2peaks
108.045000 1364.000000
156.010700 125572.000000
157.013600 9764.000000
158.007100 4832.000000
201.067400 720.000000

>ms2peaks
156.010700 1016.000000

>ms2peaks
65.037700 416.000000
68.048400 388.000000
92.050300 692.000000
108.043700 1328.000000
120.056200 380.000000
156.010400 15464.000000
157.011600 580.000000
158.007300 532.000000

