>compound AU44636543
>parentmass 280.1907
>ionization [M+H]+
>formula C16H25NO3
>rt 306.000000
>profile qtof
#smiles_iso C[N+](C)(CC1CCCCC1(C2=CC(=CC=C2)OC)O)[O-]
#smiles_can C[N+](C)(CC1CCCCC1(C2=CC(=CC=C2)OC)O)[O-]
#inchikey HBXKSXMNNGHBEA-UHFFFAOYSA-N
#pubchem_id 22016064
#mb_accession AU208501,AU208502,AU208503,AU208504,AU208505

>ms2
135.043000 10324.000000
201.126800 12064.000000
262.179700 189240.000000
263.183200 29840.000000
280.191000 1799660.000000
281.194100 286468.000000
282.196200 22940.000000

>ms2
135.043300 243776.000000
136.046700 18344.000000
147.079800 4624.000000
159.079300 18936.000000
160.083500 3556.000000
173.095300 6244.000000
201.126900 125724.000000
202.129900 19016.000000
262.180000 700980.000000
263.183600 87840.000000
264.186000 7576.000000
280.190600 327188.000000
281.194100 52308.000000
282.196200 4464.000000

>ms2
121.064100 50420.000000
122.067700 5264.000000
129.068900 1880.000000
131.048600 1876.000000
133.063400 1632.000000
135.043200 326324.000000
136.046600 26656.000000
137.048600 1804.000000
137.058600 3000.000000
146.070700 3016.000000
147.079500 18952.000000
148.081900 2088.000000
149.022200 2928.000000
151.074100 1892.000000
158.071300 6332.000000
159.079300 69632.000000
161.093800 4296.000000
163.074100 2228.000000
172.086700 2816.000000
173.094900 17608.000000
174.098900 3064.000000
175.111300 1748.000000
186.102700 2392.000000
189.126000 3028.000000
191.105400 6380.000000
199.110000 1776.000000
201.126800 74248.000000
202.129700 12884.000000
219.136500 2468.000000
262.179700 55096.000000
263.182700 9356.000000
280.190900 5140.000000

>ms2
115.053800 4228.000000
116.060300 1180.000000
117.069200 1180.000000
121.064100 54908.000000
122.067700 4976.000000
127.053300 1460.000000
128.061300 5924.000000
129.068800 7040.000000
130.074600 1224.000000
131.048100 3928.000000
132.056100 1968.000000
133.063500 2136.000000
135.043300 163936.000000
135.079400 9316.000000
136.046600 13460.000000
136.083000 1060.000000
137.048100 920.000000
137.059000 1052.000000
141.068900 3152.000000
142.075600 1604.000000
143.084900 924.000000
146.070300 6136.000000
147.079700 16920.000000
148.082700 2168.000000
149.022800 2524.000000
155.059200 1800.000000
157.063800 1960.000000
161.093400 4008.000000
163.074400 1092.000000
169.074600 896.000000
169.100500 916.000000
171.079800 3556.000000
172.087000 5696.000000
173.095100 12584.000000
174.098900 1296.000000
175.109700 1328.000000
184.087300 1064.000000
186.102700 3324.000000
199.111000 1088.000000
201.126700 11268.000000
202.129700 1956.000000
262.179800 1448.000000

>ms2
107.049300 404.000000
115.053600 9092.000000
116.060600 3036.000000
117.069400 2664.000000
118.039000 392.000000
119.048100 356.000000
119.084300 488.000000
120.055500 484.000000
121.063900 34388.000000
122.067700 4108.000000
126.045500 528.000000
127.053200 2844.000000
130.040800 1408.000000
130.074100 1936.000000
131.047900 4716.000000
131.084400 672.000000
132.055100 2852.000000
133.063100 1352.000000
134.070200 348.000000
135.042900 43224.000000
135.079500 4520.000000
136.046400 3904.000000
136.082500 560.000000
141.068400 4188.000000
142.075700 1608.000000
143.047900 1508.000000
143.084300 1636.000000
146.070100 4260.000000
147.078900 6400.000000
148.083800 792.000000
149.021900 752.000000
152.060700 916.000000
153.068500 888.000000
154.075600 440.000000
155.058900 4124.000000
155.083100 1296.000000
157.063400 3344.000000
160.085700 10512.000000
161.091000 1772.000000
165.069800 344.000000
167.083600 412.000000
169.063500 328.000000
169.076300 408.000000
169.098700 548.000000
170.106700 316.000000
171.079200 4588.000000
172.086600 3916.000000
173.094800 5188.000000
175.108500 356.000000
184.086800 880.000000
185.094000 532.000000
186.101900 1856.000000
187.107800 308.000000
201.126300 868.000000
202.129700 304.000000

