>compound AU44902454
>parentmass 586.2177
>ionization [M+H]+
>formula C35H36ClNO3S
>rt 797.430000
>profile qtof
#smiles_iso CC(C)(C1=CC=CC=C1CCC(C2=CC=CC(=C2)C=CC3=NC4=C(C=CC(=C4)Cl)C=C3)SCC5(CC5)CC(=O)O)O
#smiles_can CC(C)(C1=CC=CC=C1CCC(C2=CC=CC(=C2)C=CC3=NC4=C(C=CC(=C4)Cl)C=C3)SCC5(CC5)CC(=O)O)O
#inchikey UCHDWCPVSPXUMX-UHFFFAOYSA-N
#pubchem_id 4248
#mb_accession AU274501,AU274502,AU274503,AU274504,AU274505,AU274506

>ms2
422.166200 6392.000000
440.176000 3468.000000
568.207600 45972.000000
569.212300 14460.000000
570.206500 14336.000000
586.218700 659620.000000
587.222000 230276.000000
588.216900 213364.000000

>ms2
143.084300 3312.000000
157.100400 4876.000000
278.072600 39820.000000
279.076400 6976.000000
280.070100 8592.000000
292.088300 15140.000000
293.092200 2744.000000
294.086200 3520.000000
380.122000 3256.000000
422.167400 193224.000000
423.170500 50660.000000
424.165300 45936.000000
425.168000 9208.000000
440.177900 71312.000000
441.180900 21388.000000
442.175500 19860.000000
443.177800 3764.000000
456.154200 7924.000000
458.153100 2704.000000
524.215900 9528.000000
525.220400 3632.000000
526.214500 3520.000000
568.207600 490736.000000
569.210900 170084.000000
570.205900 157528.000000
571.208100 36224.000000
572.205100 3920.000000
586.218300 245592.000000
587.221500 95388.000000
588.216700 85768.000000

>ms2
131.084600 32188.000000
143.084200 23844.000000
157.099900 40384.000000
158.103900 5584.000000
245.131400 6972.000000
266.071700 6888.000000
276.056900 4300.000000
278.072800 323084.000000
279.076000 55892.000000
280.069800 82256.000000
281.073100 10316.000000
282.083900 4244.000000
292.088300 92068.000000
293.091000 17548.000000
294.085200 23872.000000
306.103600 7752.000000
318.103600 10460.000000
320.102500 4252.000000
380.119400 18468.000000
381.122900 4688.000000
382.133300 12576.000000
398.129800 9792.000000
422.166800 815628.000000
423.170200 221560.000000
424.165000 188432.000000
425.166800 34084.000000
440.177200 152412.000000
441.180100 43644.000000
442.174500 43112.000000
443.178300 7708.000000
456.153700 13296.000000
457.157200 4352.000000
458.153100 4248.000000
524.216900 15296.000000
525.219600 5480.000000
526.214900 6664.000000
568.206600 102300.000000
569.210300 41628.000000
570.205100 39248.000000
571.207100 9820.000000
586.215900 4764.000000

>ms2
115.053500 3960.000000
117.068900 4180.000000
128.061000 8196.000000
129.068900 15396.000000
131.084800 111628.000000
132.088000 10208.000000
133.100100 11660.000000
142.076400 6508.000000
143.084600 34456.000000
144.087700 4188.000000
157.100100 70976.000000
158.103800 8600.000000
243.103100 6608.000000
245.132000 9020.000000
266.072400 11100.000000
276.057500 41016.000000
277.063300 21768.000000
278.073200 688612.000000
279.076900 117564.000000
280.070600 149956.000000
281.074100 21264.000000
282.084700 5716.000000
292.088800 144284.000000
293.092000 29264.000000
294.085700 33400.000000
295.089100 5280.000000
306.103800 11436.000000
307.107800 3548.000000
318.103900 17152.000000
319.106700 4116.000000
320.102000 4956.000000
380.120100 28832.000000
381.123100 9748.000000
382.134400 23016.000000
383.136600 4784.000000
384.133700 5872.000000
398.130900 15292.000000
399.133400 4672.000000
400.127500 4580.000000
422.167700 543984.000000
423.170900 152788.000000
424.165200 127120.000000
425.167400 24220.000000
440.177900 103524.000000
441.180500 32728.000000
442.175900 28136.000000
443.178500 6280.000000
456.154100 13200.000000
457.158100 4888.000000
458.152500 3976.000000
524.217000 3660.000000

>ms2
115.053600 7740.000000
116.060600 3212.000000
117.069300 5824.000000
128.061200 14828.000000
129.068900 30392.000000
130.072600 2948.000000
131.084900 154296.000000
132.087900 15472.000000
133.100300 11804.000000
141.068900 4540.000000
142.076800 14980.000000
143.084400 31300.000000
144.087700 3664.000000
157.100200 60012.000000
158.103600 6200.000000
164.024900 4880.000000
177.033100 9372.000000
230.109300 3796.000000
242.095600 17432.000000
243.103900 30848.000000
244.107200 5424.000000
245.132000 6888.000000
251.048800 2888.000000
262.041300 6496.000000
263.048400 5292.000000
264.055900 4676.000000
266.072600 10252.000000
275.049300 3168.000000
276.057300 122184.000000
277.063800 67336.000000
278.073000 568660.000000
279.077000 102312.000000
280.070500 125320.000000
281.075000 17728.000000
282.085300 6604.000000
292.088600 108224.000000
293.091800 23700.000000
294.086000 26680.000000
295.088800 3956.000000
304.088900 6364.000000
305.095500 11912.000000
306.102400 10644.000000
307.096100 3860.000000
307.105900 3252.000000
316.089100 3440.000000
318.104200 11496.000000
319.106000 2900.000000
320.102300 3476.000000
380.119400 21792.000000
381.123500 7464.000000
382.133900 15536.000000
383.138000 4672.000000
384.132600 4196.000000
398.130900 11220.000000
399.134300 2916.000000
400.129300 3300.000000
422.167400 168012.000000
423.170500 51360.000000
424.165100 47408.000000
425.167800 8900.000000
440.177500 27148.000000
441.180800 9780.000000
442.175200 9088.000000
456.155600 7164.000000

>ms2
131.084800 14668.000000
132.088700 1700.000000
157.099800 2216.000000
243.103000 2272.000000
245.131900 2048.000000
276.057300 30284.000000
277.060400 7308.000000
278.072700 66416.000000
279.077000 14552.000000
280.070200 15056.000000
281.074600 2916.000000
292.088300 8824.000000
293.093000 2568.000000
294.086100 2828.000000
318.104900 2168.000000
380.119000 2948.000000
382.134300 3784.000000
422.167300 291940.000000
423.170600 95584.000000
424.165200 95984.000000
425.168200 24456.000000
426.167800 1816.000000
440.177900 35936.000000
441.181300 11296.000000
442.176100 10472.000000
443.178800 2100.000000
456.153200 2208.000000
568.207000 33096.000000
569.211000 12496.000000
570.205500 11728.000000
571.205600 3352.000000
586.216800 2232.000000

