>compound AU44313466
>parentmass 377.2071
>ionization [M+H]+
>formula C20H28N2O5
>rt 410.450000
>profile qtof
#smiles_iso CCOC(=O)[C@H](CCC1=CC=CC=C1)N[C@@H](C)C(=O)N2CCC[C@H]2C(=O)O
#smiles_can CCOC(=O)C(CCC1=CC=CC=C1)NC(C)C(=O)N2CCCC2C(=O)O
#inchikey GBXSMTUPTTWBMN-XIRDDKMYSA-N
#pubchem_id 5388962
#mb_accession AU271801,AU271802,AU271803,AU271804,AU271805,AU271806

>ms2peaks
234.147700 14584.000000
235.151900 2224.000000
303.169600 5032.000000
377.207100 265012.000000
378.210000 60520.000000
379.211100 8348.000000

>ms2peaks
117.070000 1216.000000
130.085700 5104.000000
134.096200 2748.000000
160.110700 7376.000000
234.148800 227008.000000
235.151500 34428.000000
236.154000 3304.000000
303.170300 62624.000000
304.173400 9672.000000
305.175200 1676.000000
377.207600 80472.000000
378.210700 20800.000000
379.214100 2928.000000

>ms2peaks
115.054400 1776.000000
117.069100 10744.000000
118.072900 1304.000000
130.085300 28544.000000
131.088100 2232.000000
134.095400 15972.000000
135.098900 2452.000000
160.110900 51908.000000
161.114900 7352.000000
162.125400 1332.000000
188.105800 1140.000000
206.116400 3996.000000
232.133000 1844.000000
234.148200 159660.000000
235.151300 27188.000000
236.154700 2304.000000
303.169600 30504.000000
304.173800 5952.000000
377.207000 1368.000000

>ms2peaks
115.053200 5224.000000
116.057300 776.000000
116.068600 456.000000
117.069100 25544.000000
118.072300 3548.000000
119.075100 336.000000
128.062000 384.000000
130.085100 22384.000000
131.088300 1408.000000
134.095100 13720.000000
135.097700 1552.000000
143.084500 700.000000
144.078700 848.000000
160.110600 48556.000000
161.114100 6568.000000
162.124600 732.000000
188.105300 564.000000
206.116400 2272.000000
232.133400 1184.000000
234.147500 23680.000000
235.151500 4780.000000
236.151600 448.000000
303.169400 3120.000000
304.171500 656.000000

>ms2peaks
115.053500 6852.000000
116.059800 772.000000
117.069000 19312.000000
118.072100 2348.000000
128.060500 648.000000
130.085400 6592.000000
131.087700 688.000000
134.095400 4900.000000
135.098600 340.000000
142.085400 352.000000
143.085100 824.000000
144.080300 364.000000
160.110600 14836.000000
161.114000 2220.000000
206.114800 1036.000000
232.133300 404.000000
234.147600 2048.000000
235.149600 320.000000

>ms2peaks
56.049100 1148.000000
115.053700 1616.000000
117.070200 12748.000000
118.072600 944.000000
130.085900 23644.000000
131.088400 1300.000000
134.095800 9928.000000
135.099400 1356.000000
160.111600 47592.000000
161.114400 5524.000000
162.126200 764.000000
206.117300 2576.000000
232.134200 1184.000000
234.149100 151124.000000
235.152500 30036.000000
236.155700 1932.000000
303.170900 29760.000000
304.173100 5928.000000
377.208300 11720.000000
378.213000 3540.000000

