>compound AU44612665
>parentmass 272.1645
>ionization [M+H]+
>formula C17H21NO2
>rt 606.000000
>profile qtof
#smiles_iso CCN(CC)C(=O)C(C)OC1=CC=CC2=CC=CC=C21
#smiles_can CCN(CC)C(=O)C(C)OC1=CC=CC2=CC=CC=C21
#inchikey WXZVAROIGSFCFJ-UHFFFAOYSA-N
#pubchem_id 27189
#mb_accession AU357301,AU357302,AU357303,AU357304,AU357305

>ms2
129.114000 69240.000000
130.116800 4624.000000
171.079100 37508.000000
172.082300 5164.000000
199.074600 145988.000000
200.077900 17932.000000
272.164300 919916.000000
273.167500 131732.000000
274.169700 12916.000000

>ms2
128.061600 4156.000000
129.114000 170276.000000
130.116900 12668.000000
143.084300 6936.000000
144.055400 1544.000000
145.062600 1300.000000
152.061500 984.000000
153.068400 4124.000000
171.079700 184548.000000
172.082900 28712.000000
173.085000 1748.000000
199.074600 80736.000000
200.077800 9124.000000
201.080300 1128.000000
272.164300 18708.000000

>ms2
114.090800 880.000000
115.053300 1512.000000
127.053900 1296.000000
128.106300 6224.000000
129.067700 3448.000000
129.113900 30772.000000
130.116700 2484.000000
141.068800 716.000000
143.084400 25096.000000
144.055700 2668.000000
144.088000 2996.000000
145.063600 3028.000000
152.060700 4012.000000
153.068400 13764.000000
154.071600 1832.000000
155.058900 2368.000000
156.063700 720.000000
169.063700 804.000000
170.071300 564.000000
171.079600 94784.000000
172.082700 15380.000000
173.084700 1108.000000
181.075400 3148.000000
182.078300 556.000000
199.074500 2824.000000

>ms2
114.090300 440.000000
115.054000 2380.000000
116.059200 592.000000
126.046600 504.000000
127.053100 2776.000000
128.105700 2300.000000
129.066400 6344.000000
129.114000 7712.000000
130.117900 948.000000
141.069100 2240.000000
142.076500 912.000000
143.084700 20632.000000
144.056400 3452.000000
144.088100 1864.000000
145.063800 3720.000000
146.066300 792.000000
151.053200 776.000000
153.068600 15152.000000
154.072400 1836.000000
155.059900 5584.000000
169.064500 1492.000000
170.070900 1008.000000
171.079700 23648.000000
172.083200 3316.000000
173.085200 360.000000
179.059200 736.000000
181.075500 3100.000000
182.078700 588.000000

>ms2
115.053700 3208.000000
116.060200 904.000000
117.068000 368.000000
126.044700 1216.000000
127.053300 5576.000000
128.061100 25972.000000
129.065300 3784.000000
129.115700 528.000000
131.047500 564.000000
141.068400 2316.000000
142.076800 884.000000
143.049700 500.000000
143.084500 5120.000000
144.055900 2652.000000
144.088100 868.000000
145.064000 3440.000000
146.067800 752.000000
150.045500 440.000000
151.053600 1104.000000
153.068100 9360.000000
154.072500 1896.000000
155.059400 4660.000000
156.062300 868.000000
169.063200 2080.000000
170.069700 844.000000
171.079600 3228.000000
172.083400 636.000000
179.059200 1080.000000
181.074900 1460.000000

