>compound AU45478359
>parentmass 146.01160000000002
>ionization [M+H]+
>formula C4H4ClN3O
>rt 136.302857
>profile qtof
#smiles_iso C1=NNC(=O)C(=C1N)Cl
#smiles_can C1=NNC(=O)C(=C1N)Cl
#inchikey FEWPCPCEGBPTAL-UHFFFAOYSA-N
#pubchem_id 95827
#mb_accession AU203602,AU203603,AU277401,AU277402,AU277403,AU277404,AU277406

>ms2peaks
116.997000 760.000000
146.010600 7632.000000
147.012300 708.000000
148.007400 2788.000000

>ms2peaks
116.997500 292.000000
118.992100 404.000000
146.010600 9076.000000
147.012300 708.000000
148.007400 2788.000000

>ms2peaks
146.010200 69824.000000
147.012800 4328.000000
148.006900 22952.000000

>ms2peaks
116.997100 2680.000000
118.993200 844.000000
146.010300 36056.000000
147.013100 1828.000000
148.007600 13968.000000

>ms2peaks
116.996400 1888.000000
118.993500 952.000000
146.010000 5540.000000
148.007900 1560.000000

>ms2peaks
116.999100 332.000000
146.011500 492.000000

>ms2peaks
54.032900 1568.000000
116.997100 3656.000000
118.994100 588.000000
146.010300 61836.000000
147.013400 1980.000000
148.007400 11572.000000

