>compound AU45612337
>parentmass 281.2012
>ionization [M+H]+
>formula C19H24N2
>rt 490.800000
>profile qtof
#smiles_iso CN(C)CCCN1C2=CC=CC=C2CCC3=CC=CC=C31
#smiles_can CN(C)CCCN1C2=CC=CC=C2CCC3=CC=CC=C31
#inchikey BCGWQEUPMDMJNV-UHFFFAOYSA-N
#pubchem_id 3696
#mb_accession AU150806

>ms2
58.064500 876256.000000
59.067700 25440.000000
86.096600 1146996.000000
87.099300 81272.000000
193.088200 37096.000000
208.112200 159776.000000
209.115100 28412.000000
236.143000 59184.000000
237.146600 7480.000000
281.201200 89984.000000
282.205100 17836.000000

