>compound AU45993696
>parentmass 300.14730000000003
>ionization [M+H]+
>formula C14H22ClN3O2
>rt 255.530000
>profile qtof
#smiles_iso CCN(CC)CCNC(=O)C1=CC(=C(C=C1OC)N)Cl
#smiles_can CCN(CC)CCNC(=O)C1=CC(=C(C=C1OC)N)Cl
#inchikey TTWJBBZEZQICBI-UHFFFAOYSA-N
#pubchem_id 4168
#mb_accession AU228901,AU228902,AU228903,AU228904,AU228905,AU228906

>ms2peaks
184.015000 15316.000000
227.057400 286864.000000
228.060500 23204.000000
229.054400 70928.000000
300.147400 2143540.000000
301.150200 306828.000000
302.144600 631724.000000

>ms2peaks
183.030500 16124.000000
184.014900 348144.000000
185.018400 26796.000000
186.011900 84636.000000
212.033900 13344.000000
227.057800 2503476.000000
228.060600 260540.000000
229.054600 783236.000000
230.057300 32628.000000
300.147000 414428.000000
301.150000 52108.000000
302.144600 94592.000000

>ms2peaks
140.996500 13680.000000
156.019700 13180.000000
168.007300 12888.000000
183.031000 179652.000000
184.015000 1051720.000000
185.019700 58020.000000
186.012100 255364.000000
212.033900 140676.000000
213.037000 14120.000000
214.030900 37376.000000
227.057800 2256000.000000
228.060800 175620.000000
229.054800 558456.000000
230.057300 23808.000000

>ms2peaks
126.009600 18052.000000
128.025300 12976.000000
140.996700 81144.000000
142.993500 22652.000000
148.062000 33312.000000
154.004300 17168.000000
156.020000 63468.000000
158.017000 15328.000000
168.007600 81720.000000
168.991500 32348.000000
170.002100 34332.000000
170.988600 10036.000000
182.023000 10616.000000
183.031300 336140.000000
184.015200 1682488.000000
185.021800 87240.000000
186.012500 403484.000000
187.002200 27340.000000
211.026100 9928.000000
212.034300 384204.000000
213.037300 31816.000000
214.031300 99852.000000
227.058000 562864.000000
228.060800 46988.000000
229.055000 139756.000000

>ms2peaks
113.002300 8264.000000
120.043600 11216.000000
126.009600 40808.000000
128.006600 11232.000000
128.025100 24072.000000
129.009200 13088.000000
130.022400 8008.000000
140.012400 8392.000000
140.996700 243992.000000
141.999800 16600.000000
142.993500 60060.000000
144.019800 13436.000000
146.016900 5156.000000
147.054600 6576.000000
148.062000 48028.000000
154.004000 35348.000000
155.009700 5848.000000
156.001300 10248.000000
156.020000 82336.000000
157.023400 6384.000000
158.016900 20164.000000
168.007500 253408.000000
168.991400 76436.000000
169.010500 16688.000000
170.002700 86872.000000
170.988300 18360.000000
171.996300 9952.000000
181.015000 8628.000000
182.022800 22468.000000
183.030900 128464.000000
184.015100 962696.000000
185.019400 60540.000000
186.012100 247988.000000
187.002000 57836.000000
188.004900 6296.000000
188.998900 18200.000000
211.026100 17292.000000
212.033900 203172.000000
213.036600 17468.000000
214.031000 54964.000000
227.057300 43864.000000
228.060600 5392.000000
229.054200 14548.000000

>ms2peaks
140.996500 13680.000000
156.019700 13180.000000
168.007300 12888.000000
183.031000 179652.000000
184.015000 1051720.000000
185.019700 58020.000000
186.012100 255364.000000
212.033900 140676.000000
213.037000 14120.000000
214.030900 37376.000000
227.057800 2256000.000000
228.060800 175620.000000
229.054800 558456.000000
230.057300 23808.000000

