>compound AU45537391
>parentmass 316.1076
>ionization [M+H]+
>formula C16H15F2N3Si
>rt 660.530000
>profile qtof
#smiles_iso C[Si](CN1C=NC=N1)(C2=CC=C(C=C2)F)C3=CC=C(C=C3)F
#smiles_can C[Si](CN1C=NC=N1)(C2=CC=C(C=C2)F)C3=CC=C(C=C3)F
#inchikey FQKUGOMFVDPBIZ-UHFFFAOYSA-N
#pubchem_id 73675
#mb_accession AU256401,AU256402,AU256403,AU256404,AU256405,AU256406

>ms2
187.057500 26148.000000
316.107400 1583904.000000
317.109500 321576.000000
318.106800 48084.000000

>ms2
166.096000 708.000000
186.052400 308.000000
187.059900 508.000000
272.104600 404.000000
316.106000 360.000000

>ms2
165.069700 476.000000
166.096200 980.000000
167.107300 428.000000

>ms2
115.053700 6300.000000
122.070100 8924.000000
123.005200 5828.000000
125.018500 13936.000000
127.011700 16664.000000
128.060900 4576.000000
136.086200 3792.000000
137.093400 3776.000000
138.065100 23364.000000
138.101900 7312.000000
139.052800 6464.000000
139.072900 23656.000000
139.121900 3384.000000
141.015200 6276.000000
141.068800 11444.000000
141.109600 8328.000000
143.010800 3212.000000
148.085000 4408.000000
149.020200 5464.000000
150.101700 61796.000000
151.036200 20056.000000
151.106600 7344.000000
152.061000 36324.000000
152.080500 13048.000000
153.068300 32944.000000
154.073600 5652.000000
155.084500 5040.000000
157.026900 23448.000000
159.026100 33384.000000
159.059100 5340.000000
160.027500 4144.000000
163.053300 4892.000000
164.061000 19740.000000
164.080300 9148.000000
165.069100 641856.000000
166.073500 87320.000000
166.096600 262936.000000
167.031300 8768.000000
167.078500 6912.000000
167.102300 38408.000000
168.055800 4464.000000
169.046900 17836.000000
169.061900 3568.000000
170.051000 12828.000000
171.042400 20192.000000
175.021200 8304.000000
178.076800 17412.000000
179.083900 14288.000000
181.075100 5248.000000
183.059400 50796.000000
184.065500 14224.000000
185.042100 6792.000000
185.075100 86364.000000
186.078000 11752.000000
187.057500 56876.000000
188.059800 7000.000000
195.131100 4408.000000
199.037200 9540.000000
217.046900 7600.000000
219.042900 32100.000000
220.044800 4568.000000
227.067500 11072.000000
231.042700 4404.000000
232.049800 3720.000000
235.037600 5244.000000
235.057700 7872.000000
237.053700 42032.000000
238.056000 7468.000000
245.078800 5640.000000
253.048000 5596.000000
255.064500 6608.000000
262.085000 6920.000000
263.088900 3516.000000
272.105800 4520.000000

>ms2
115.053900 8732.000000
122.070600 6248.000000
123.005300 12120.000000
125.017200 14424.000000
127.011200 19820.000000
127.053000 3116.000000
128.061100 5532.000000
129.067700 3072.000000
133.043800 2620.000000
136.086100 5644.000000
137.093900 2720.000000
138.065000 19148.000000
138.101400 3220.000000
139.053300 13436.000000
139.073000 10492.000000
141.015400 3728.000000
141.068800 7272.000000
141.109000 3312.000000
149.020600 5960.000000
150.045500 4804.000000
150.101400 19244.000000
151.035900 6708.000000
151.052900 9920.000000
151.107300 4144.000000
152.060900 70720.000000
152.080200 7588.000000
153.067600 26152.000000
154.073800 5052.000000
155.058500 3780.000000
157.026600 15144.000000
159.025900 20572.000000
159.059400 8212.000000
160.027800 3160.000000
163.052900 15256.000000
164.060600 35756.000000
164.081000 8872.000000
165.069000 449160.000000
166.072500 54076.000000
166.096500 55880.000000
167.030700 11308.000000
167.075500 3120.000000
167.102200 10116.000000
168.056000 9352.000000
169.046200 5896.000000
169.063500 10884.000000
170.051700 25828.000000
171.042800 4236.000000
171.055200 3288.000000
175.021700 7192.000000
177.068400 2316.000000
178.076700 19960.000000
179.059300 5748.000000
179.082900 9044.000000
180.112100 5212.000000
181.074800 3520.000000
183.059500 75280.000000
184.065700 18748.000000
185.022200 2808.000000
185.041800 7412.000000
185.074700 31532.000000
186.078600 4312.000000
187.057500 21720.000000
196.050700 3832.000000
197.074500 2984.000000
199.037100 6852.000000
217.026900 2724.000000
217.046700 5084.000000
219.042700 16656.000000
220.045000 2320.000000
227.067900 2468.000000
231.043200 2564.000000
235.038300 5624.000000
235.057700 5988.000000
237.053500 21908.000000
238.056800 3900.000000
253.048900 7768.000000
253.066100 2264.000000
255.064600 3748.000000
271.058500 4228.000000

>ms2
46.064900 2212.000000
53.037900 2980.000000
67.053700 1464.000000
70.039600 170696.000000
71.042700 5316.000000
77.038200 7888.000000
79.000600 2776.000000
79.053900 5616.000000
80.999800 19340.000000
91.054400 11876.000000
95.016100 15276.000000
95.049300 15156.000000
97.044100 1544.000000
103.055200 2320.000000
105.045200 11600.000000
105.070900 5892.000000
108.012500 15272.000000
109.044900 2008.000000
115.054200 1668.000000
125.015400 12192.000000
126.018400 1532.000000
127.011800 18072.000000
128.015700 1496.000000
128.060800 1836.000000
138.065500 1564.000000
139.073700 1576.000000
141.015800 1352.000000
141.068900 6456.000000
142.074100 1424.000000
150.101300 16672.000000
151.036100 7540.000000
151.104700 1352.000000
152.060800 9684.000000
153.068500 11152.000000
154.075800 2400.000000
155.084400 2852.000000
157.027000 4364.000000
159.025600 8580.000000
160.026700 1288.000000
164.061000 2112.000000
165.068900 234660.000000
166.075000 59348.000000
166.096600 50928.000000
167.080200 6468.000000
167.102700 7636.000000
169.047200 42040.000000
170.049300 5656.000000
171.042700 17016.000000
172.044000 2092.000000
175.020700 2404.000000
178.076400 4344.000000
179.083800 6152.000000
180.090500 1452.000000
181.074600 3000.000000
181.099900 3212.000000
183.059300 11672.000000
184.064000 2368.000000
185.041000 2316.000000
185.075200 44196.000000
186.078300 6052.000000
187.057900 256084.000000
188.059600 35184.000000
189.055300 7808.000000
191.041600 2040.000000
193.075800 1740.000000
199.036000 2436.000000
201.073100 10020.000000
205.068100 14024.000000
206.069900 2044.000000
210.073600 5828.000000
217.046900 2700.000000
219.042800 7588.000000
220.070000 3684.000000
227.067600 7584.000000
228.071500 1728.000000
231.043200 1288.000000
232.051300 3560.000000
235.058400 4500.000000
237.053300 12456.000000
238.056300 1976.000000
245.059400 1716.000000
245.078000 5760.000000
247.074600 34008.000000
248.077000 6776.000000
249.072600 1348.000000
255.062900 1908.000000
262.085600 1548.000000
263.089100 2676.000000
265.084700 10368.000000
266.086700 2604.000000
272.105800 22896.000000
273.109200 2336.000000
316.107900 134696.000000
317.109700 34528.000000
318.106600 5188.000000

