>compound AU45674607
>parentmass 282.2791
>ionization [M+H]+
>formula C18H35NO
>rt 527.530000
>profile qtof
#smiles_iso CC1CN(CC(O1)C)C2CCCCCCCCCCC2
#smiles_can CC1CN(CC(O1)C)C2CCCCCCCCCCC2
#inchikey JMXKCYUTURMERF-UHFFFAOYSA-N
#pubchem_id 61899
#mb_accession AU258701,AU258702,AU258703,AU258704,AU258705,AU258706

>ms2peaks
282.278900 2081656.000000
283.282100 371148.000000
284.284700 34404.000000

>ms2peaks
116.106400 74884.000000
117.109600 7540.000000
192.137000 13364.000000
282.279000 1205756.000000
283.282300 205116.000000
284.285500 20012.000000

>ms2peaks
116.106300 53228.000000
123.116100 656.000000
132.078500 604.000000
133.087400 544.000000
134.095300 1084.000000
144.082000 400.000000
145.087100 952.000000
146.094200 792.000000
148.109900 1628.000000
160.110300 6400.000000
162.125800 1696.000000
163.132800 388.000000
165.162300 460.000000
192.137100 3920.000000
221.135300 392.000000
282.278500 64096.000000
283.281600 16068.000000
284.284800 1224.000000

>ms2peaks
116.106300 7256.000000
130.063900 508.000000
132.079000 1008.000000
133.086500 856.000000
134.095000 868.000000
144.077600 412.000000
145.086900 1232.000000
146.094800 628.000000
148.111200 1092.000000
150.009500 452.000000
160.110100 2812.000000
162.126700 592.000000
164.106100 372.000000
192.135800 572.000000
282.277500 496.000000

>ms2peaks
116.105900 2108.000000
117.055100 300.000000
130.064200 724.000000
132.079600 1152.000000
134.095000 1012.000000
144.079100 532.000000
145.087400 668.000000
146.093400 348.000000
148.110500 692.000000
150.011100 304.000000
160.109800 504.000000
162.126000 420.000000

>ms2peaks
55.053800 45724.000000
56.048700 3964.000000
57.069400 8724.000000
69.069400 75616.000000
70.064900 5376.000000
70.072400 3856.000000
71.085000 5360.000000
81.069400 6352.000000
83.085500 55188.000000
84.088700 2448.000000
85.100800 5220.000000
97.101600 38680.000000
98.097200 174680.000000
99.100500 8872.000000
111.118200 7376.000000
116.108200 264908.000000
117.110200 17100.000000
160.111000 5464.000000
192.137500 6264.000000
282.278900 456460.000000
283.282300 98500.000000
284.285500 9436.000000

