>compound AU46353783
>parentmass 242.1176
>ionization [M+H]+
>formula C15H15NO2
>rt 702.180000
>profile qtof
#smiles_iso CC1=C(C(=CC=C1)NC2=CC=CC=C2C(=O)O)C
#smiles_can CC1=C(C(=CC=C1)NC2=CC=CC=C2C(=O)O)C
#inchikey HYYBABOKPJLUIN-UHFFFAOYSA-N
#pubchem_id 4044
#mb_accession AU115106

>ms2
180.079600 12504.000000
181.086400 4972.000000
194.095500 6072.000000
208.075000 35688.000000
209.082900 125792.000000
210.086100 18284.000000
222.090900 25952.000000
223.098700 83816.000000
224.106800 448544.000000
225.110100 85548.000000
226.112700 6860.000000
241.109600 7768.000000
242.115900 5836.000000

