>compound AU46023035
>parentmass 362.21149999999994
>ionization [M+H]+
>formula C24H27NO2
>rt 794.650000
>profile qtof
#smiles_iso CCCCC(CC)COC(=O)C(=C(C1=CC=CC=C1)C2=CC=CC=C2)C#N
#smiles_can CCCCC(CC)COC(=O)C(=C(C1=CC=CC=C1)C2=CC=CC=C2)C#N
#inchikey FMJSMJQBSVNSBF-UHFFFAOYSA-N
#pubchem_id 22571
#mb_accession AU250101,AU250102,AU250103,AU250104,AU250105,AU250106

>ms2
163.074100 388.000000
213.074400 444.000000
232.074600 2448.000000
233.077200 376.000000
237.077900 376.000000
250.085300 35496.000000
251.088700 6500.000000
252.090400 1052.000000
269.135900 520.000000
301.141000 504.000000
303.167900 392.000000
311.098200 748.000000
312.098500 484.000000
362.211700 1720.000000
363.209800 652.000000

>ms2
149.022500 404.000000
182.095700 356.000000
204.077600 600.000000
232.074700 16792.000000
233.077800 3164.000000
237.079300 1656.000000
238.081500 364.000000
239.075900 552.000000
250.085200 16896.000000
251.089100 2880.000000
252.092800 456.000000
301.141600 508.000000
303.169500 724.000000
311.098100 1352.000000
312.095700 508.000000

>ms2
139.003400 504.000000
147.041500 400.000000
157.013300 380.000000
157.026700 620.000000
179.086100 424.000000
182.094400 520.000000
183.080100 332.000000
203.074700 544.000000
204.079000 3720.000000
205.083300 744.000000
206.094700 564.000000
207.079400 404.000000
222.090600 760.000000
232.074400 20272.000000
233.078300 3988.000000
234.080100 404.000000
237.077500 1464.000000
238.078300 724.000000
239.075800 588.000000
250.086000 7700.000000
251.087500 1460.000000
303.170200 440.000000
311.096100 480.000000

>ms2
147.044900 416.000000
149.022900 524.000000
157.026600 320.000000
176.062200 432.000000
177.069500 1728.000000
178.074100 1008.000000
179.085100 512.000000
182.094900 324.000000
203.073400 1040.000000
204.080200 8380.000000
205.081600 1872.000000
206.092200 724.000000
222.089500 1008.000000
223.063600 764.000000
224.065900 356.000000
226.044000 332.000000
232.074900 11436.000000
233.078600 2056.000000
237.080400 1384.000000
238.080300 460.000000
239.077400 304.000000
250.085300 1980.000000
251.088200 316.000000

>ms2
129.031700 516.000000
147.043600 396.000000
165.067700 300.000000
169.063700 436.000000
176.060500 2576.000000
177.068200 4844.000000
178.076100 2020.000000
179.083700 780.000000
182.094900 304.000000
195.080600 316.000000
202.063900 404.000000
203.071300 5776.000000
204.079400 9056.000000
205.080300 2088.000000
206.093200 548.000000
222.090500 300.000000
232.074300 4048.000000
233.076800 1004.000000
250.085200 308.000000

>ms2
57.069800 860.000000
71.085000 516.000000
147.042700 460.000000
149.023100 544.000000
157.012700 700.000000
157.026500 428.000000
177.071200 352.000000
179.085500 360.000000
182.095400 488.000000
203.073200 396.000000
204.079400 3388.000000
205.083600 672.000000
206.096700 316.000000
207.077800 380.000000
222.090400 1180.000000
223.093900 304.000000
232.075100 24920.000000
233.079000 4432.000000
237.077500 964.000000
250.085700 11272.000000
251.088400 2564.000000
311.093900 320.000000

