>compound AU46645214
>parentmass 134.0713
>ionization [M+H]+
>formula C7H7N3
>rt 237.228000
>profile qtof
#smiles_iso CN1C2=CC=CC=C2N=N1
#smiles_can CN1C2=CC=CC=C2N=N1
#inchikey HXQHRUJXQJEGER-UHFFFAOYSA-N
#pubchem_id 25902
#mb_accession AU224001,AU224002,AU224003,AU224004,AU224005

>ms2
134.071600 1420992.000000
135.074500 96384.000000

>ms2
117.044500 4108.000000
133.063300 10800.000000
134.071600 810652.000000
135.074600 54432.000000

>ms2
117.044400 3476.000000
118.051200 1444.000000
133.063200 16032.000000
134.071400 163660.000000
135.074400 10144.000000

>ms2
117.044700 888.000000
118.051700 680.000000
132.055100 476.000000
133.063000 6160.000000
134.071400 14040.000000

>ms2
133.063000 1216.000000
134.071000 1184.000000

