>compound AU46201014
>parentmass 319.1669
>ionization [M+Na]+
>formula C20H24O2
>rt 554.130000
>profile qtof
#smiles_iso C[C@]12CC[C@H]3[C@H]([C@@H]1CCC2=O)CC(=C)C4=CC(=O)C=C[C@]34C
#smiles_can CC12CCC3C(C1CCC2=O)CC(=C)C4=CC(=O)C=CC34C
#inchikey BFYIZQONLCFLEV-DAELLWKTSA-N
#pubchem_id 60198
#mb_accession AU224230,AU224231

>ms2
319.168600 37992.000000
320.171400 7980.000000
321.171500 1180.000000

>ms2
319.168400 4764.000000
320.173500 1240.000000

