>compound AU46692210
>parentmass 200.07399999999998
>ionization [M+H]+
>formula C9H13NO2S
>rt 397.660000
>profile qtof
#smiles_iso CCNS(=O)(=O)C1=CC=CC=C1C
#smiles_can CCNS(=O)(=O)C1=CC=CC=C1C
#inchikey NATWUQFQFMZVMT-UHFFFAOYSA-N
#pubchem_id 14110
#mb_accession AU247301,AU247302,AU247306

>ms2
155.015200 75148.000000
156.018100 6724.000000
157.011200 3224.000000
200.073300 23860.000000
201.076500 3120.000000
202.071800 1048.000000

>ms2
155.015200 11560.000000
156.017800 1192.000000
157.012300 652.000000
163.059300 376.000000

>ms2
155.015000 612.000000

