>compound AU47739048
>parentmass 734.4685
>ionization [M+H]+
>formula C37H67NO13
>rt 547.200000
>profile qtof
#smiles_iso CCC1C(C(C(C(=O)C(CC(C(C(C(C(C(=O)O1)C)OC2CC(C(C(O2)C)O)(C)OC)C)OC3C(C(CC(O3)C)NC)O)(C)OC)C)C)O)(C)O
#smiles_can CCC1C(C(C(C(=O)C(CC(C(C(C(C(C(=O)O1)C)OC2CC(C(C(O2)C)O)(C)OC)C)OC3C(C(CC(O3)C)NC)O)(C)OC)C)C)O)(C)O
#inchikey CIJTVUQEURKBDL-UHFFFAOYSA-N
#pubchem_id 13923912
#mb_accession AU202001,AU202002,AU202003,AU202004,AU202005

>ms2
144.100700 4772.000000
302.196300 1264.000000
576.374700 5100.000000
577.381500 1672.000000
732.454800 1404.000000
734.470200 158672.000000
735.474100 60384.000000
736.478200 12792.000000
737.480700 1896.000000

>ms2
127.074500 5988.000000
144.101000 126320.000000
145.103900 9924.000000
146.105700 720.000000
159.099600 1364.000000
270.169300 3336.000000
271.172100 648.000000
302.195700 22836.000000
307.190800 720.000000
339.218100 3244.000000
340.222200 636.000000
365.232100 4760.000000
366.233800 912.000000
383.243300 4332.000000
384.248300 1264.000000
397.257800 6216.000000
398.261500 1980.000000
401.253100 1424.000000
415.267800 2176.000000
433.280700 3840.000000
526.341600 944.000000
544.347500 5876.000000
545.351500 1948.000000
574.353900 688.000000
576.374700 49808.000000
577.377800 14620.000000
578.380600 3296.000000
579.386100 768.000000
702.446800 1992.000000
703.445500 1176.000000
732.461500 1100.000000
733.461600 836.000000
734.470600 89764.000000
735.473700 36348.000000
736.479500 7492.000000

>ms2
144.101000 450508.000000
145.104100 31808.000000
159.100100 4436.000000
170.115700 3208.000000
270.168700 4252.000000
302.195300 24136.000000
325.200400 2656.000000
365.231400 19032.000000
383.242400 9800.000000
384.245800 2900.000000
526.335800 2408.000000
544.348000 8280.000000
545.349700 2488.000000
576.373500 25520.000000
734.469500 10224.000000

>ms2
123.079400 4144.000000
144.101100 368752.000000
145.103900 24728.000000
146.105800 2272.000000
159.100500 2800.000000
170.116400 6752.000000
251.163200 1888.000000
270.169700 2056.000000
289.179300 5588.000000
302.197100 4468.000000
307.189900 10000.000000
308.193200 2248.000000
325.202400 2284.000000
365.232100 10460.000000
366.234100 3056.000000
383.242600 2880.000000
576.375000 1960.000000
602.389600 2236.000000

>ms2
123.079400 7216.000000
126.091000 1212.000000
127.074600 7512.000000
137.094600 1920.000000
144.101100 230812.000000
170.116800 6672.000000
183.100400 2244.000000
193.121300 2620.000000
195.137700 1376.000000
251.164000 2324.000000
289.179300 6408.000000
307.190100 5356.000000
308.191600 1208.000000
365.231300 2764.000000
383.243800 1280.000000

