>compound AU47394408
>parentmass 249.01919999999998
>ionization [M+H]+
>formula C9H10Cl2N2O2
>rt 559.650000
>profile qtof
#smiles_iso CN(C(=O)NC1=CC(=C(C=C1)Cl)Cl)OC
#smiles_can CN(C(=O)NC1=CC(=C(C=C1)Cl)Cl)OC
#inchikey XKJMBINCVNINCA-UHFFFAOYSA-N
#pubchem_id 9502
#mb_accession AU232301,AU232302,AU232303,AU232304,AU232305,AU232306

>ms2
159.970200 124608.000000
160.975700 11356.000000
161.967300 70216.000000
162.972900 6444.000000
182.023100 165356.000000
183.026300 11216.000000
184.020200 35232.000000
216.992200 5996.000000
217.999500 13248.000000
219.996500 7924.000000
249.018800 1165684.000000
250.021700 85088.000000
251.016000 647664.000000

>ms2
123.993800 5396.000000
125.001700 14780.000000
132.959600 37992.000000
134.956300 21832.000000
153.020300 15848.000000
155.017300 3784.000000
159.970400 628652.000000
160.977600 152916.000000
161.967500 360240.000000
162.974700 87152.000000
163.978800 3396.000000
181.014900 13676.000000
182.023100 581516.000000
183.026100 38488.000000
184.020400 115504.000000
185.023100 6128.000000
187.965000 4792.000000
216.992000 39816.000000
217.999200 16232.000000
218.989000 23304.000000
219.996100 8688.000000
249.018600 53712.000000
250.021200 5264.000000
251.015500 32468.000000

>ms2
123.993700 15848.000000
125.001500 74760.000000
125.990600 4008.000000
126.006200 5884.000000
126.998600 16496.000000
127.016500 2668.000000
132.959400 164564.000000
133.962700 8612.000000
134.956500 98836.000000
135.961400 3272.000000
140.024400 2076.000000
142.004100 2148.000000
147.054000 2704.000000
153.020200 76204.000000
154.025300 8416.000000
155.016900 18268.000000
159.970300 351004.000000
160.977900 214312.000000
161.967200 208144.000000
162.974900 122816.000000
163.978500 4932.000000
165.019600 8564.000000
166.999100 3604.000000
167.017500 2444.000000
173.985100 2408.000000
174.992800 2764.000000
181.015000 52948.000000
182.023000 212136.000000
183.012800 12992.000000
183.025300 18232.000000
184.019900 49772.000000
185.022300 2944.000000
216.992100 27124.000000
217.995600 3160.000000
218.989100 16876.000000

>ms2
117.043600 1924.000000
118.051700 3940.000000
119.059000 2020.000000
123.993700 25500.000000
125.001800 142164.000000
125.990700 6084.000000
126.007900 17320.000000
126.998700 35348.000000
127.016000 3788.000000
128.005000 4004.000000
132.959700 325692.000000
133.964500 19312.000000
134.956700 182580.000000
135.962100 9020.000000
139.004200 1796.000000
139.988500 3512.000000
140.025400 1728.000000
142.004000 2640.000000
147.054300 2440.000000
153.020300 160896.000000
154.024100 10516.000000
155.017300 36012.000000
156.021100 1844.000000
159.970400 133748.000000
160.978100 244132.000000
161.967300 76228.000000
162.975100 128308.000000
163.978800 4796.000000
165.019700 10464.000000
166.999400 6920.000000
167.016600 1992.000000
168.996000 1840.000000
173.985800 4536.000000
174.980900 2712.000000
175.983500 3132.000000
176.976700 2256.000000
181.015300 62816.000000
182.022700 60260.000000
183.012000 15268.000000
184.020000 13380.000000
201.968300 1844.000000
216.992200 13904.000000
218.988900 9664.000000

>ms2
117.044200 5052.000000
118.051700 8676.000000
119.059000 1888.000000
123.993900 14240.000000
125.001800 137980.000000
125.991000 4008.000000
126.008700 27168.000000
126.998500 30540.000000
127.015400 4064.000000
128.005700 6116.000000
132.959700 271816.000000
133.965300 20604.000000
134.956600 140776.000000
138.009100 2288.000000
139.004300 4480.000000
139.988700 6704.000000
141.985300 1600.000000
142.004000 1384.000000
145.049600 3680.000000
147.969600 2208.000000
153.020300 125124.000000
154.023200 10308.000000
155.016900 27784.000000
156.020300 2044.000000
159.970200 26808.000000
160.978100 123500.000000
161.966800 14224.000000
161.979900 7552.000000
162.975100 64340.000000
163.004400 6012.000000
163.979300 2716.000000
163.999000 1944.000000
165.000300 1764.000000
165.019700 5376.000000
166.999200 5092.000000
172.964300 1484.000000
173.985900 3292.000000
174.981000 2364.000000
175.982900 2564.000000
181.015100 26144.000000
182.022100 12020.000000
183.011900 6200.000000
184.019500 2644.000000
201.969100 1664.000000
203.964400 1484.000000
216.992200 3168.000000
218.989300 1704.000000

>ms2
59.048700 580.000000
60.043800 9160.000000
62.059500 8304.000000
88.038500 1112.000000
106.050600 728.000000
123.994100 1768.000000
125.002000 7296.000000
125.991400 900.000000
126.006900 852.000000
132.960000 18380.000000
133.964200 1104.000000
134.957000 10376.000000
142.005800 740.000000
147.052900 528.000000
153.020000 8888.000000
154.026400 1404.000000
155.017000 2200.000000
159.970800 100392.000000
160.978300 49180.000000
161.967900 62252.000000
162.975200 21088.000000
163.979200 752.000000
165.019500 836.000000
174.993500 744.000000
176.975500 572.000000
181.015200 6408.000000
182.023600 91372.000000
183.013400 1672.000000
183.025500 6572.000000
184.020600 17340.000000
185.024800 960.000000
187.965600 836.000000
191.994700 532.000000
216.992300 7608.000000
217.999000 2416.000000
218.988800 4368.000000
219.995700 868.000000
249.019500 7712.000000
250.021200 1064.000000
251.015800 4580.000000

