>compound AU47840429
>parentmass 242.1434
>ionization [M+H]+
>formula C10H19N5S
>rt 615.650000
>profile qtof
#smiles_iso CCNC1=NC(=NC(=N1)SC)NC(C)(C)C
#smiles_can CCNC1=NC(=NC(=N1)SC)NC(C)(C)C
#inchikey IROINLKCQGIITA-UHFFFAOYSA-N
#pubchem_id 13450
#mb_accession AU286301,AU286302,AU286303,AU286304,AU286305,AU286306

>ms2
186.080200 540876.000000
187.082200 37476.000000
188.075700 18876.000000
242.143500 2417904.000000

>ms2
138.076700 39624.000000
144.058200 29232.000000
158.048500 55024.000000
186.081500 2514576.000000
187.082500 398256.000000
242.143500 1674416.000000
243.145900 128764.000000
244.139500 45248.000000

>ms2
116.026900 31892.000000
138.076400 200080.000000
144.057700 150996.000000
158.048400 188304.000000
186.080100 2459540.000000
187.081900 159752.000000
188.075600 86464.000000
242.142500 17640.000000

>ms2
113.081900 1224.000000
116.026900 19844.000000
118.022500 1048.000000
138.076200 66292.000000
139.078700 3304.000000
140.090900 1600.000000
143.024800 2096.000000
144.057800 48380.000000
145.060100 3460.000000
146.054100 1804.000000
158.048100 53068.000000
159.050300 3152.000000
160.043900 2708.000000
169.053800 1644.000000
170.048300 1192.000000
171.055900 2484.000000
184.064700 1976.000000
186.079700 192276.000000
187.081300 13304.000000
188.075300 7216.000000

>ms2
110.046100 324.000000
113.081500 460.000000
116.027200 13068.000000
117.029900 1184.000000
125.068500 528.000000
127.006200 356.000000
128.013600 368.000000
131.035600 464.000000
138.076500 18296.000000
139.078800 1144.000000
140.092800 676.000000
143.024800 1720.000000
144.057800 12376.000000
145.062100 1144.000000
146.054000 852.000000
156.032800 988.000000
158.048300 16576.000000
159.050400 1220.000000
159.067800 416.000000
170.049600 1464.000000
171.055700 1240.000000
184.064800 672.000000
186.080000 14492.000000
187.082700 1640.000000

>ms2
57.069400 13328.000000
68.023800 37664.000000
71.059800 170796.000000
74.005300 20216.000000
85.050500 24964.000000
91.032500 297576.000000
92.034600 6524.000000
93.028500 10032.000000
96.055800 181304.000000
102.037200 12848.000000
110.047000 9852.000000
113.083200 31820.000000
116.028500 63856.000000
138.077200 92208.000000
144.058500 61004.000000
158.048800 80856.000000
186.080800 1229376.000000
187.082800 152996.000000
188.076300 83424.000000
242.144100 513880.000000
243.146500 55156.000000
244.140300 18108.000000

