>compound AU47505904
>parentmass 291.2319
>ionization [M+H]+
>formula C19H30O2
>rt 631.680000
>profile qtof
#smiles_iso C[C@]12CC[C@@H](C[C@@H]1CC[C@@H]3[C@@H]2CC[C@]4([C@H]3CCC4=O)C)O
#smiles_can CC12CCC(CC1CCC3C2CCC4(C3CCC4=O)C)O
#inchikey QGXBDMJGAMFCBF-LUJOEAJASA-N
#pubchem_id 441302
#mb_accession AU281801,AU281802,AU281803,AU281804,AU281805,AU281806

>ms2
255.211200 1396.000000
273.221100 4260.000000
274.223400 1224.000000
291.232400 1088.000000

>ms2
135.116900 420.000000
147.115200 468.000000
161.133200 572.000000
173.131700 312.000000
199.148300 376.000000
255.210900 1720.000000
256.214600 588.000000
273.222900 700.000000

>ms2
133.100700 668.000000
135.116200 648.000000
145.100400 612.000000
147.115200 1276.000000
159.116100 524.000000
161.132500 852.000000
173.131900 772.000000
185.131400 432.000000
187.146100 304.000000
199.147200 620.000000
213.162000 400.000000
215.180800 404.000000
255.210100 880.000000

>ms2
147.115600 344.000000
161.130600 444.000000
185.129400 304.000000

>ms2
117.068900 304.000000

>ms2
119.086700 316.000000
121.100100 376.000000
131.084100 512.000000
133.099800 520.000000
135.115900 1168.000000
145.099600 364.000000
147.115500 1184.000000
159.116600 816.000000
161.131700 1036.000000
173.131400 568.000000
187.146600 304.000000
199.147700 920.000000
213.160400 464.000000
215.180100 692.000000
255.209400 2188.000000
256.213300 428.000000
273.218700 340.000000

