>compound AU48625907
>parentmass 218.08450000000002
>ionization [M+H]+
>formula C9H15NO3S
>rt 271.700000
>profile qtof
#smiles_iso C[C@H](CS)C(=O)N1CCC[C@H]1C(=O)O
#smiles_can CC(CS)C(=O)N1CCCC1C(=O)O
#inchikey FAKRSMQSSFJEIM-RQJHMYQMSA-N
#pubchem_id 44093
#mb_accession AU272101,AU272102,AU272106

>ms2
116.070300 848.000000
172.078000 2940.000000
173.079500 428.000000
200.073000 660.000000
218.083500 11324.000000
219.087100 1344.000000
220.082100 740.000000

>ms2
116.069700 632.000000
172.078800 664.000000
218.085200 600.000000

>ms2
70.064500 1080.000000
75.026700 372.000000
116.071400 804.000000
172.079600 616.000000
176.070300 332.000000
218.080200 372.000000

