>compound AU48877015
>parentmass 372.1586
>ionization [M+H]+
>formula C19H22ClN5O
>rt 360.390000
>profile qtof
#smiles_iso C1CN(CCN1CCCN2C(=O)N3C=CC=CC3=N2)C4=CC(=CC=C4)Cl
#smiles_can C1CN(CCN1CCCN2C(=O)N3C=CC=CC3=N2)C4=CC(=CC=C4)Cl
#inchikey PHLBKPHSAVXXEF-UHFFFAOYSA-N
#pubchem_id 5533
#mb_accession AU227101,AU227102,AU227103,AU227104,AU227105,AU227106

>ms2
176.080300 16624.000000
372.159000 2411500.000000
373.161400 562176.000000
374.155900 788168.000000

>ms2
148.049200 66760.000000
176.080800 982372.000000
177.083700 65496.000000
372.159100 2450016.000000
373.161500 616944.000000
374.156000 961728.000000

>ms2
133.074900 30412.000000
148.049400 938128.000000
148.086000 159384.000000
149.052300 50980.000000
176.081300 2473712.000000
177.083800 276528.000000
209.083000 14136.000000
237.114500 34512.000000
372.158800 635868.000000
373.161300 112644.000000
374.156000 164824.000000

>ms2
119.059600 12128.000000
120.054800 11396.000000
121.075000 20764.000000
133.075100 97408.000000
135.041800 19660.000000
136.048900 13280.000000
148.049600 1714356.000000
148.086200 411448.000000
149.052600 98616.000000
149.089000 25116.000000
154.040600 10032.000000
166.040500 13240.000000
176.081000 1924556.000000
177.083900 137580.000000
194.059600 10144.000000
209.083000 33684.000000
237.114400 20276.000000
372.158800 12476.000000

>ms2
118.064700 9956.000000
119.059700 27896.000000
120.031100 12116.000000
120.055100 21116.000000
121.038800 12888.000000
121.075400 36424.000000
131.059300 13000.000000
132.067100 10228.000000
133.075200 88776.000000
135.042100 33052.000000
136.049400 23252.000000
138.009300 8608.000000
148.049800 1429988.000000
148.086400 311708.000000
149.052800 87268.000000
149.089200 20112.000000
154.040900 13820.000000
166.040800 24628.000000
168.037700 7356.000000
176.081200 445784.000000
177.084100 35824.000000
194.059600 15336.000000
209.083300 15936.000000

>ms2
133.074900 30412.000000
148.049400 938128.000000
148.086000 159384.000000
149.052300 50980.000000
176.081300 2473712.000000
177.083800 276528.000000
209.083000 14136.000000
237.114500 34512.000000
372.158800 635868.000000
373.161300 112644.000000
374.156000 164824.000000

