>compound AU48771603
>parentmass 489.2278999999999
>ionization [M+H]+
>formula C23H32N6O4S
>rt 464.480000
>profile qtof
#smiles_iso CCCC1=NC(=C2N1N=C(NC2=O)C3=C(C=CC(=C3)S(=O)(=O)N4CCN(CC4)CC)OCC)C
#smiles_can CCCC1=NC(=C2N1N=C(NC2=O)C3=C(C=CC(=C3)S(=O)(=O)N4CCN(CC4)CC)OCC)C
#inchikey SECKRCOLJRRGGV-UHFFFAOYSA-N
#pubchem_id 135400189
#mb_accession AU235901,AU235902,AU235903,AU235904,AU235905,AU235906

>ms2peaks
489.228100 622400.000000
490.230900 173684.000000
491.228400 43888.000000

>ms2peaks
489.227900 867972.000000
490.230800 238720.000000
491.228400 56004.000000

>ms2peaks
151.085700 12136.000000
169.095900 21452.000000
299.113200 7176.000000
312.156600 8808.000000
344.147500 4792.000000
376.107200 6308.000000
377.125200 4896.000000
489.228400 839388.000000
490.231000 227804.000000
491.228400 52056.000000

>ms2peaks
151.085400 104076.000000
152.088500 8528.000000
169.096000 184552.000000
170.099100 14752.000000
283.118400 10392.000000
284.125300 14188.000000
285.132700 6116.000000
297.132900 6528.000000
298.140700 2416.000000
299.113400 57820.000000
300.116700 9288.000000
301.128100 4000.000000
311.150100 3620.000000
312.157500 72216.000000
313.162100 21384.000000
314.167000 3012.000000
316.115100 3224.000000
329.159100 10148.000000
339.147100 8504.000000
344.147100 42816.000000
345.150500 8388.000000
376.107000 38004.000000
377.126100 21656.000000
378.127400 5380.000000
489.227800 429868.000000
490.230000 110788.000000
491.228000 25956.000000

>ms2peaks
123.090700 4040.000000
149.069400 3516.000000
151.085700 150212.000000
152.088700 12620.000000
167.079700 4960.000000
169.096100 371408.000000
170.099400 27552.000000
171.100800 2180.000000
256.095300 4600.000000
283.118100 8484.000000
284.125600 33240.000000
285.131600 9560.000000
286.138700 1920.000000
294.088600 2024.000000
296.126400 2756.000000
297.134000 14944.000000
298.139500 3464.000000
299.113500 85148.000000
300.116700 13716.000000
301.128800 7400.000000
311.149700 2844.000000
312.158000 136720.000000
313.161400 29700.000000
314.163800 3604.000000
316.117000 12916.000000
317.117800 2632.000000
328.116100 2644.000000
329.160200 5196.000000
331.086200 2272.000000
339.149300 2912.000000
344.148000 95408.000000
345.150700 18208.000000
346.153300 3028.000000
349.095500 3488.000000
376.106600 25880.000000
377.126500 18200.000000
378.129500 4080.000000
489.227400 41228.000000
490.230000 12032.000000

>ms2peaks
58.064500 3720.000000
72.079900 6252.000000
151.085700 20008.000000
169.096000 65200.000000
170.099500 4096.000000
283.118800 3112.000000
284.125100 4180.000000
299.112900 17432.000000
300.115700 2628.000000
312.157900 16732.000000
313.162900 5056.000000
329.159800 3640.000000
339.147600 2880.000000
344.147200 17428.000000
345.150300 2772.000000
376.106800 13124.000000
377.126900 8364.000000
489.228300 445940.000000
490.230700 149904.000000

