>compound AU48966048
>parentmass 292.0266
>ionization [M+H]+
>formula C8H10ClN5O3S
>rt 253.716000
>profile qtof
#smiles_iso CN\1COCN(/C1=N/[N+](=O)[O-])CC2=CN=C(S2)Cl
#smiles_can CN1COCN(C1=N[N+](=O)[O-])CC2=CN=C(S2)Cl
#inchikey NWWZPOKUUAIXIW-DHZHZOJOSA-N
#pubchem_id 5821911
#mb_accession AU259501,AU259502,AU259503,AU259504,AU259505

>ms2peaks
131.965800 37468.000000
133.962300 11948.000000
180.045100 11016.000000
181.052900 17800.000000
210.056000 192720.000000
211.063900 810020.000000
212.066100 60396.000000
213.059800 19064.000000
245.025400 5504.000000
246.032400 40116.000000
247.033800 4080.000000
248.027600 15972.000000
292.026300 128856.000000
293.028200 14544.000000
294.023000 39680.000000

>ms2peaks
122.070300 17684.000000
131.965800 123536.000000
132.968700 6488.000000
133.962600 38960.000000
151.018300 8840.000000
152.026200 19456.000000
174.971800 9796.000000
180.045200 87828.000000
181.053100 308208.000000
182.055300 22536.000000
183.048900 7640.000000
199.063700 9312.000000
210.056000 86880.000000
211.064000 892536.000000
212.066300 67740.000000
213.059800 18420.000000
215.014700 4628.000000
246.032000 4952.000000

>ms2peaks
122.070100 48060.000000
123.076200 5080.000000
125.015700 14380.000000
131.965800 130188.000000
132.968700 6984.000000
133.962400 39760.000000
138.010700 8088.000000
139.030500 4076.000000
147.065200 4720.000000
151.018200 29448.000000
152.026300 129068.000000
153.028300 8152.000000
154.021400 3652.000000
154.041700 4552.000000
165.021200 3488.000000
174.971100 7484.000000
176.968400 2804.000000
179.037000 4156.000000
180.045100 53120.000000
181.053000 554956.000000
182.055200 34776.000000
183.048500 12404.000000
199.063500 17012.000000
210.055800 11472.000000
211.063600 224704.000000
212.065800 19300.000000
213.060000 8280.000000
215.013800 6240.000000

>ms2peaks
108.055200 1048.000000
122.070300 37872.000000
123.077200 8884.000000
124.007300 4608.000000
125.015600 25660.000000
126.019500 1984.000000
127.011800 1420.000000
131.965800 92548.000000
132.969500 4796.000000
133.962500 34020.000000
134.966100 1444.000000
137.081700 1164.000000
138.010800 12092.000000
139.016400 1700.000000
139.031400 2708.000000
140.026800 1580.000000
145.968500 1660.000000
146.974100 1080.000000
147.065100 4780.000000
148.072900 2320.000000
151.018500 31548.000000
152.026500 202052.000000
153.029100 14172.000000
154.022600 5472.000000
154.041600 5340.000000
160.992200 1312.000000
165.021500 8024.000000
165.075500 4020.000000
166.028800 3420.000000
171.972300 1072.000000
172.979100 1584.000000
172.990200 1272.000000
174.972100 4424.000000
176.967800 1192.000000
179.037400 4012.000000
180.045400 9816.000000
181.053000 159128.000000
182.055300 12256.000000
183.048500 4684.000000
199.063700 6596.000000
211.063900 14084.000000
212.066400 1484.000000
215.014400 3460.000000
217.011000 1416.000000

>ms2peaks
108.055000 1176.000000
113.015300 448.000000
118.957400 768.000000
120.056400 492.000000
122.070200 15888.000000
122.998400 1416.000000
123.077800 5024.000000
124.007500 6980.000000
124.082100 444.000000
125.015600 15044.000000
126.005400 576.000000
126.018300 1208.000000
127.011200 780.000000
131.965600 40224.000000
132.970100 3068.000000
133.962300 15228.000000
134.968000 1008.000000
135.066500 568.000000
137.081700 548.000000
138.010700 9652.000000
139.017300 1464.000000
139.031400 960.000000
140.007800 524.000000
140.025900 1012.000000
144.962300 452.000000
145.966600 388.000000
146.974900 712.000000
147.064900 1828.000000
147.964500 396.000000
148.073400 600.000000
149.080300 412.000000
150.009600 488.000000
151.018100 12636.000000
152.026200 77292.000000
153.028100 6384.000000
154.023100 3092.000000
154.041800 2288.000000
155.045200 640.000000
165.021600 5952.000000
165.075500 1512.000000
166.028400 2928.000000
171.971200 716.000000
172.991400 460.000000
174.971100 1300.000000
179.036800 1292.000000
180.044900 1296.000000
181.052600 13832.000000
182.054500 1048.000000
183.049500 504.000000
185.986300 524.000000
199.062500 524.000000
211.061800 576.000000
215.015600 820.000000
217.012400 520.000000

