>compound AU49979873
>parentmass 242.2842
>ionization [M+H]+
>formula C16H35N
>rt 707.868000
>profile qtof
#smiles_iso CCCCCCCCCCCCCCN(C)C
#smiles_can CCCCCCCCCCCCCCN(C)C
#inchikey SFBHPFQSSDCYSL-UHFFFAOYSA-N
#pubchem_id 8211
#mb_accession AU285501,AU285502,AU285503,AU285504,AU285506

>ms2peaks
242.283800 1144140.000000
243.287100 154232.000000
244.290400 11608.000000

>ms2peaks
242.283500 1036000.000000
243.286900 145604.000000
244.290000 11552.000000

>ms2peaks
242.284000 107144.000000
243.286700 20572.000000
244.290200 1696.000000

>ms2peaks
242.283300 1980.000000
243.286100 348.000000

>ms2peaks
46.064900 7340.000000
57.069300 16972.000000
71.085100 7368.000000
85.101000 2484.000000
242.284300 338204.000000
243.287600 67516.000000
244.290500 5052.000000

