>compound AU49945959
>parentmass 383.1521
>ionization [M+H]+
>formula C22H23ClN2O2
>rt 703.600000
>profile qtof
#smiles_iso CCOC(=O)N1CCC(=C2C3=C(CCC4=C2N=CC=C4)C=C(C=C3)Cl)CC1
#smiles_can CCOC(=O)N1CCC(=C2C3=C(CCC4=C2N=CC=C4)C=C(C=C3)Cl)CC1
#inchikey JCCNYMKQOSZNPW-UHFFFAOYSA-N
#pubchem_id 3957
#mb_accession AU226801,AU226802,AU226803,AU226804,AU226805,AU226806

>ms2peaks
337.109600 14796.000000
383.153700 2512472.000000
385.149600 1285576.000000

>ms2peaks
259.135200 15604.000000
282.103500 13504.000000
294.104100 19416.000000
337.110300 696192.000000
338.113400 113424.000000
339.107500 161856.000000
340.110400 18020.000000
383.153200 2513024.000000

>ms2peaks
228.056100 14228.000000
229.063900 14464.000000
258.127000 38800.000000
259.134800 238480.000000
260.137900 42320.000000
266.072100 25328.000000
267.080300 266740.000000
268.083800 46760.000000
269.077300 60924.000000
279.080300 29132.000000
280.087300 35380.000000
281.095700 129044.000000
282.103000 134912.000000
283.062500 12460.000000
283.094300 30760.000000
284.100600 35924.000000
292.087700 14108.000000
294.103900 246016.000000
295.106700 43080.000000
296.101000 57660.000000
302.140600 27100.000000
311.129700 21720.000000
322.085300 22372.000000
337.110000 2428956.000000
338.113200 502688.000000
339.107300 708996.000000
340.109800 65700.000000
341.159400 13692.000000
355.120000 28356.000000
383.151700 1261768.000000
384.155000 252420.000000
385.149200 299068.000000

>ms2peaks
126.053600 6308.000000
154.084600 7288.000000
214.040800 26416.000000
216.037500 7512.000000
228.056500 47624.000000
229.063900 56564.000000
230.054100 13080.000000
230.066000 9312.000000
231.061000 13348.000000
231.103000 24696.000000
232.110200 21212.000000
233.118100 13324.000000
243.102800 24316.000000
244.110900 30788.000000
245.118000 28716.000000
246.126400 50128.000000
247.133700 27004.000000
248.093200 21832.000000
252.056800 26492.000000
253.064200 67812.000000
254.068200 16596.000000
255.061600 16988.000000
257.118900 15532.000000
258.127100 198388.000000
259.134700 749804.000000
260.138400 119512.000000
261.141500 8804.000000
265.063700 5832.000000
266.072600 205632.000000
267.080300 1158164.000000
268.083200 159236.000000
269.077700 223656.000000
270.054400 22032.000000
270.081500 24472.000000
272.051700 6516.000000
278.072200 15280.000000
279.080400 168180.000000
280.087700 242164.000000
281.075400 30264.000000
281.095500 501260.000000
282.085400 36792.000000
282.102400 245280.000000
283.062400 25328.000000
283.094100 96192.000000
284.100500 56668.000000
285.059300 6764.000000
292.088100 63156.000000
293.092700 15964.000000
294.104000 376968.000000
295.107000 69068.000000
296.101200 87472.000000
297.103900 9204.000000
301.133500 6172.000000
302.140600 56296.000000
303.144000 11192.000000
311.130400 16612.000000
322.086000 50740.000000
323.088900 10508.000000
324.083500 13704.000000
335.094600 7044.000000
337.109900 864532.000000
338.113200 159204.000000
339.107400 222228.000000
339.162300 33676.000000
340.110100 22796.000000
340.165800 9728.000000
341.158900 12604.000000
355.120400 10928.000000
383.151700 44388.000000
384.155100 12220.000000
385.149200 13660.000000

>ms2peaks
130.064200 5656.000000
192.080100 7416.000000
193.087500 19932.000000
194.092700 4756.000000
214.041200 70444.000000
215.044300 10752.000000
216.038200 19772.000000
216.079800 6712.000000
217.087900 14836.000000
218.095400 19272.000000
219.102400 10772.000000
220.100600 6880.000000
226.041500 7248.000000
227.047800 7388.000000
228.056700 55404.000000
229.064200 50588.000000
230.054200 14640.000000
230.096000 24740.000000
231.061400 13932.000000
231.103900 115556.000000
232.110500 59680.000000
233.117500 22008.000000
238.041300 8164.000000
242.073200 5000.000000
242.095700 9524.000000
243.103900 86044.000000
244.111300 107980.000000
245.118700 80604.000000
246.126800 94368.000000
247.133400 40152.000000
248.093800 11544.000000
248.138200 6252.000000
251.048900 13040.000000
252.057200 126696.000000
253.064600 119816.000000
254.055900 31828.000000
255.061900 27704.000000
256.067800 5148.000000
256.111600 16212.000000
257.119000 23356.000000
258.127700 428084.000000
259.134900 560428.000000
260.138800 87324.000000
261.142700 6120.000000
264.057000 13196.000000
265.064600 16268.000000
266.073000 489088.000000
267.080600 947660.000000
268.081300 119304.000000
269.077900 187316.000000
270.055300 10088.000000
270.081500 19296.000000
277.065100 13948.000000
278.072500 63516.000000
279.080700 230700.000000
280.088300 433320.000000
281.078400 39012.000000
281.095100 270348.000000
282.086700 80996.000000
282.101400 113612.000000
283.063200 12568.000000
283.093300 61288.000000
284.100400 33100.000000
292.088700 69312.000000
293.093300 21080.000000
294.104100 97320.000000
295.107100 23772.000000
296.101800 28496.000000
302.140800 14560.000000
322.086600 20988.000000
323.089400 5192.000000
324.084300 6036.000000
335.095000 4824.000000
337.109900 45488.000000
338.113300 10332.000000
339.107400 14704.000000
339.162700 6060.000000

>ms2peaks
228.056100 14228.000000
229.063900 14464.000000
258.127000 38800.000000
259.134800 238480.000000
260.137900 42320.000000
266.072100 25328.000000
267.080300 266740.000000
268.083800 46760.000000
269.077300 60924.000000
279.080300 29132.000000
280.087300 35380.000000
281.095700 129044.000000
282.103000 134912.000000
283.062500 12460.000000
283.094300 30760.000000
284.100600 35924.000000
292.087700 14108.000000
294.103900 246016.000000
295.106700 43080.000000
296.101000 57660.000000
302.140600 27100.000000
311.129700 21720.000000
322.085300 22372.000000
337.110000 2428956.000000
338.113200 502688.000000
339.107300 708996.000000
340.109800 65700.000000
341.159400 13692.000000
355.120000 28356.000000
383.151700 1261768.000000
384.155000 252420.000000
385.149200 299068.000000

