>compound AU49540056
>parentmass 369.125
>ionization [M+H]+
>formula C21H21O4P
>rt 763.990000
>profile qtof
#smiles_iso CC1=CC=C(C=C1)OP(=O)(OC2=CC=C(C=C2)C)OC3=CC=C(C=C3)C
#smiles_can CC1=CC=C(C=C1)OP(=O)(OC2=CC=C(C=C2)C)OC3=CC=C(C=C3)C
#inchikey BOSMZFBHAYFUBJ-UHFFFAOYSA-N
#pubchem_id 6529
#mb_accession AU247601,AU247602,AU247603,AU247604,AU247605,AU247606

>ms2
369.125300 195620.000000
370.128100 46392.000000
371.131200 5916.000000

>ms2
166.075800 2416.000000
181.100900 1200.000000
256.122400 884.000000
261.066600 3332.000000
279.076900 992.000000
369.125000 171848.000000
370.127700 41456.000000
371.130500 5516.000000

>ms2
141.068800 836.000000
153.009300 1112.000000
153.069400 2328.000000
154.014700 708.000000
165.068800 19268.000000
166.076500 39624.000000
167.079600 5808.000000
179.084400 4548.000000
180.089200 1472.000000
181.100000 9976.000000
182.104400 1744.000000
189.030100 3492.000000
196.087200 1384.000000
197.094200 1144.000000
199.109900 3844.000000
200.113800 876.000000
215.058900 804.000000
233.071200 700.000000
241.099500 2152.000000
242.107000 824.000000
243.055700 7780.000000
244.061000 1420.000000
255.114000 1444.000000
256.124500 10712.000000
257.127700 2476.000000
261.066700 40352.000000
262.070800 6608.000000
263.074100 780.000000
271.146500 1092.000000
277.063100 900.000000
279.077400 13400.000000
280.081500 2132.000000
333.105100 652.000000
351.113600 1516.000000
369.124000 104416.000000
370.127300 24560.000000
371.130100 3972.000000

>ms2
115.053400 332.000000
139.053600 408.000000
141.069100 1860.000000
142.077300 336.000000
152.060800 1084.000000
153.009600 1648.000000
153.068700 2968.000000
154.016500 2076.000000
154.073100 568.000000
155.023000 776.000000
155.082000 524.000000
164.062900 304.000000
165.069000 47356.000000
166.076600 59504.000000
167.080400 7856.000000
168.082800 608.000000
169.098900 424.000000
170.106900 312.000000
171.019800 400.000000
178.076800 2044.000000
179.084800 5916.000000
180.092000 2532.000000
181.100100 6316.000000
182.105700 1112.000000
183.081600 468.000000
184.087100 536.000000
187.012900 524.000000
189.030700 1664.000000
193.076100 656.000000
195.079200 880.000000
196.087500 8664.000000
197.092500 1560.000000
198.100200 652.000000
199.109700 1620.000000
200.112200 312.000000
215.063000 1876.000000
215.080400 344.000000
216.066400 304.000000
229.100800 444.000000
233.072000 760.000000
240.091700 684.000000
241.099900 5204.000000
242.103100 972.000000
243.056100 10632.000000
244.060000 1912.000000
255.116800 2852.000000
256.123100 6880.000000
257.126600 1364.000000
261.066700 28364.000000
262.070800 4212.000000
263.073600 512.000000
271.145100 384.000000
278.072000 404.000000
279.077500 17428.000000
280.082400 3800.000000
281.085200 312.000000
333.098400 332.000000
351.116200 500.000000
369.123700 7564.000000
370.127700 1932.000000
371.125500 304.000000

>ms2
115.055000 580.000000
128.060300 356.000000
129.070000 440.000000
139.053300 304.000000
141.069000 2224.000000
142.072700 304.000000
152.062500 1284.000000
153.009200 820.000000
153.068900 2280.000000
154.015900 1320.000000
154.072700 756.000000
163.052700 664.000000
164.061000 836.000000
165.068800 57284.000000
166.076200 36432.000000
167.080300 5308.000000
168.056700 440.000000
169.098700 312.000000
171.020500 352.000000
177.067200 328.000000
178.076000 3104.000000
179.083700 4008.000000
180.091200 1844.000000
181.062600 852.000000
181.100500 1828.000000
182.103900 512.000000
183.077400 496.000000
184.086200 324.000000
189.031100 968.000000
195.080000 3204.000000
196.086700 10088.000000
197.091700 1636.000000
198.101300 408.000000
200.036700 756.000000
215.060500 1676.000000
226.076600 396.000000
229.099400 460.000000
233.072300 372.000000
239.085900 812.000000
240.092500 1364.000000
241.099200 3636.000000
242.106100 828.000000
243.055200 6360.000000
244.059800 768.000000
255.116600 2212.000000
256.125200 1592.000000
257.124600 396.000000
261.066800 7240.000000
262.067900 920.000000
279.077300 3348.000000
280.081800 484.000000

>ms2
91.053900 812.000000
107.050500 1256.000000
153.068500 1004.000000
154.018100 632.000000
165.069700 12664.000000
166.077100 26876.000000
167.081100 3960.000000
179.085500 2308.000000
180.091800 908.000000
181.100800 5060.000000
182.105300 1420.000000
189.030200 1480.000000
196.087600 1548.000000
197.094100 748.000000
199.110200 1844.000000
241.101600 1560.000000
243.056200 5276.000000
244.062000 1120.000000
255.114900 672.000000
256.124100 5204.000000
257.126300 1276.000000
261.067100 23328.000000
262.071500 3248.000000
271.145100 824.000000
279.077300 9940.000000
280.082200 2068.000000
351.114300 756.000000
369.125900 117356.000000
370.128800 27932.000000
371.130200 3128.000000

