>compound AU49837579
>parentmass 377.0908
>ionization [M+H]+
>formula C19H12F4N2O2
>rt 739.280000
>profile qtof
#smiles_iso C1=CC(=CC(=C1)OC2=CC=CC(=N2)C(=O)NC3=CC=C(C=C3)F)C(F)(F)F
#smiles_can C1=CC(=CC(=C1)OC2=CC=CC(=N2)C(=O)NC3=CC=C(C=C3)F)C(F)(F)F
#inchikey CWKFPEBMTGKLKX-UHFFFAOYSA-N
#pubchem_id 3294375
#mb_accession AU231901,AU231902,AU231903,AU231904,AU231905,AU231906

>ms2
256.057400 12236.000000
284.052800 21828.000000
359.080300 19860.000000
377.091700 1551020.000000
378.094800 241420.000000
379.096700 27656.000000

>ms2
236.051000 13160.000000
238.047400 65040.000000
239.050800 8940.000000
256.058200 546884.000000
257.061000 61404.000000
258.063700 5192.000000
266.042000 28104.000000
267.046300 4060.000000
284.053300 336584.000000
285.056100 43472.000000
286.058300 4884.000000
309.083500 3432.000000
337.078600 28496.000000
338.082000 6152.000000
357.083900 41420.000000
358.087600 8840.000000
359.080800 333236.000000
360.084100 57916.000000
361.086500 5524.000000
377.091600 551112.000000
378.094400 103776.000000
379.097000 10164.000000

>ms2
236.051100 26064.000000
238.047000 298868.000000
239.050100 41416.000000
256.057700 1265264.000000
257.060900 123380.000000
258.062800 8900.000000
284.052400 43336.000000
285.055200 6564.000000
309.082800 7108.000000
337.078000 11932.000000
359.080100 327556.000000
360.083300 61020.000000
377.089700 9360.000000

>ms2
145.024600 31944.000000
173.030700 16656.000000
183.040200 9296.000000
190.044900 15428.000000
210.051100 26328.000000
218.040000 6292.000000
236.051200 10008.000000
238.046700 696056.000000
239.049900 73140.000000
240.052200 5076.000000
256.057500 320672.000000
257.060500 40524.000000
258.062300 3592.000000
289.075400 3800.000000
359.079900 117960.000000
360.082400 24280.000000

>ms2
141.056600 4780.000000
145.025000 145744.000000
146.028000 9504.000000
163.034700 5360.000000
173.030800 35044.000000
174.033800 3972.000000
183.040600 25364.000000
188.049700 5464.000000
190.045300 42572.000000
191.047000 6088.000000
210.051700 59176.000000
211.054300 7316.000000
218.040000 7236.000000
238.047000 543260.000000
239.050000 56356.000000
240.053300 4412.000000
256.057400 37308.000000
257.060300 6504.000000
359.080200 17436.000000
360.083100 5012.000000

>ms2
145.026200 4060.000000
173.032200 3212.000000
210.052100 4576.000000
236.051200 17020.000000
238.047600 257020.000000
239.051100 32452.000000
256.058100 602908.000000
257.061100 87832.000000
258.063700 5600.000000
266.042000 5636.000000
284.053000 117276.000000
285.057000 17620.000000
309.083300 5136.000000
329.088900 3312.000000
337.078300 12024.000000
357.084900 8592.000000
359.080600 213116.000000
360.083400 52792.000000
361.085300 3744.000000
377.091000 76364.000000
378.094100 18820.000000

