>compound AU49944578
>parentmass 350.1169
>ionization [M+H]+
>formula C16H19N3O4S
>rt 295.180000
>profile qtof
#smiles_iso CC1=C(C(=CC=C1)C)N(CN2C=CC=N2)C(=O)CS(=O)CC(=O)O
#smiles_can CC1=C(C(=CC=C1)C)N(CN2C=CC=N2)C(=O)CS(=O)CC(=O)O
#inchikey DYCHUHSHQIYFAI-UHFFFAOYSA-N
#pubchem_id 139291839
#mb_accession AU264901,AU264902,AU264903,AU264904,AU264905,AU264906

>ms2
134.095400 47108.000000
135.098500 4728.000000
238.089000 840.000000
264.067200 3416.000000
282.079300 133324.000000
283.082300 20476.000000
284.076400 6736.000000
285.081400 724.000000
300.088500 984.000000
332.105900 1352.000000
350.116700 49904.000000
351.119500 10268.000000
352.116000 2832.000000

>ms2
133.087900 1528.000000
134.095700 228448.000000
135.098800 26588.000000
148.989000 11632.000000
175.098800 3076.000000
264.066700 1260.000000
282.078400 20916.000000
283.083000 3680.000000

>ms2
130.978300 2820.000000
132.079700 1720.000000
133.087100 2360.000000
134.095200 228388.000000
135.098500 22912.000000
148.988500 10764.000000
160.073800 1288.000000
175.097500 4760.000000

>ms2
130.978200 2228.000000
132.079000 3228.000000
133.086900 2068.000000
134.095300 150316.000000
135.098200 16188.000000
136.101000 776.000000
148.989000 3340.000000
156.079900 756.000000
160.075200 1108.000000
175.096800 3272.000000

>ms2
117.055900 748.000000
118.064200 700.000000
119.072900 996.000000
130.978500 612.000000
132.079300 5120.000000
133.086100 1728.000000
134.095100 114340.000000
135.098400 14256.000000
136.102700 644.000000
148.989200 648.000000
156.079000 1624.000000
160.073900 1032.000000
175.098400 888.000000

>ms2
88.969700 780.000000
130.977900 2236.000000
133.087500 1668.000000
134.095300 145880.000000
135.098300 23060.000000
136.101500 1244.000000
148.988600 11124.000000
149.993500 812.000000
160.074100 972.000000
175.097100 3068.000000
282.076900 3396.000000

