>compound AU50991269
>parentmass 160.0272
>ionization [M+H]+
>formula C5H6ClN3O
>rt 194.460000
>profile qtof
#smiles_iso CN1C(=O)C(=C(C=N1)N)Cl
#smiles_can CN1C(=O)C(=C(C=N1)N)Cl
#inchikey XNSGCNYTNLWRKM-UHFFFAOYSA-N
#pubchem_id 594330
#mb_accession AU203701,AU203702,AU203703,AU203704,AU203705,AU233606

>ms2peaks
160.027900 2093696.000000
161.030500 72856.000000
162.024900 554828.000000

>ms2peaks
116.996800 25588.000000
124.049800 7912.000000
130.004400 31720.000000
160.026300 1420700.000000
161.029000 51824.000000
162.028300 316364.000000

>ms2peaks
115.988500 1620.000000
116.996900 32076.000000
124.049400 8164.000000
125.053600 1416.000000
130.004600 59004.000000
131.001300 4372.000000
131.009700 12264.000000
132.002100 18100.000000
145.002600 27416.000000
146.008200 1344.000000
146.999800 6444.000000
158.010300 2220.000000
160.026300 235120.000000
161.029000 10208.000000
162.028300 60172.000000

>ms2peaks
115.990700 536.000000
116.997000 10292.000000
117.999500 632.000000
119.001200 3328.000000
124.048800 1576.000000
125.057100 528.000000
128.984100 740.000000
130.004300 19548.000000
131.009600 2316.000000
132.001700 7308.000000
145.002400 6892.000000
146.006200 1020.000000
147.000200 2044.000000
158.010900 468.000000
160.026000 16424.000000
161.029000 784.000000
162.028300 4684.000000

>ms2peaks
116.997000 1600.000000
117.999500 176.000000
119.001200 696.000000
130.004300 4684.000000
131.009600 376.000000
132.001700 1696.000000
145.001800 636.000000
160.025800 1256.000000

>ms2peaks
55.028400 6208.000000
68.048900 13564.000000
69.044100 17364.000000
75.994500 17616.000000
86.999300 6880.000000
87.994700 67404.000000
89.991900 13452.000000
103.990300 6320.000000
115.990400 5896.000000
116.997800 50940.000000
118.994600 11428.000000
124.050000 9024.000000
130.004900 43140.000000
131.000500 7960.000000
131.012300 17940.000000
132.003200 9460.000000
133.011800 4644.000000
145.002900 21512.000000
146.999800 4740.000000
160.026600 913148.000000
161.029400 55696.000000
162.023600 247660.000000

