>compound AU50187626
>parentmass 280.1543
>ionization [M+H]+
>formula C15H21NO4
>rt 495.920000
>profile qtof
#smiles_iso CC1=C(C(=CC=C1)C)N(C(C)C(=O)OC)C(=O)COC
#smiles_can CC1=C(C(=CC=C1)C)N(C(C)C(=O)OC)C(=O)COC
#inchikey ZQEIXNIJLIKNTD-UHFFFAOYSA-N
#pubchem_id 42586
#mb_accession AU256701,AU256702,AU256703,AU256704,AU256705,AU256706

>ms2
148.110700 11484.000000
160.110500 24884.000000
192.137300 165188.000000
193.140400 19768.000000
220.132400 1681792.000000
221.135800 176496.000000
222.137800 12452.000000
248.127700 1617684.000000
249.130700 170428.000000
250.133500 14720.000000
280.154200 2033828.000000
281.157200 305780.000000
282.159500 25384.000000

>ms2
133.087400 20048.000000
134.095400 34988.000000
145.087600 13908.000000
146.095000 33488.000000
148.111000 206976.000000
149.114000 21372.000000
160.111100 752276.000000
161.114300 78544.000000
162.126500 93004.000000
165.113800 65484.000000
188.105600 16720.000000
192.137700 2225656.000000
193.140900 293224.000000
194.143200 14228.000000
208.132200 15088.000000
220.132700 2223464.000000
221.135800 240836.000000
222.138000 17932.000000
248.127600 108932.000000
249.130800 15480.000000
280.153500 23224.000000

>ms2
121.087500 7108.000000
130.064000 16708.000000
131.071700 10776.000000
132.079600 47704.000000
133.087300 66680.000000
134.095300 136400.000000
135.099300 12100.000000
144.079600 16296.000000
145.087400 79212.000000
146.095000 78120.000000
147.099500 10584.000000
148.111000 191540.000000
149.113800 19808.000000
150.090400 14132.000000
160.111100 1290068.000000
161.114300 121648.000000
162.126400 197992.000000
163.129600 21332.000000
164.105500 8708.000000
165.113500 28664.000000
188.105700 7540.000000
192.137600 618568.000000
193.140600 77308.000000
220.132400 132344.000000
221.135100 17260.000000

>ms2
115.053700 4244.000000
117.056200 15260.000000
118.064000 15372.000000
119.071100 4212.000000
119.084700 9316.000000
120.080200 7236.000000
121.087400 7196.000000
128.060700 4708.000000
130.064000 56368.000000
131.071200 22784.000000
132.079800 171756.000000
133.087100 79596.000000
134.095300 194408.000000
135.066500 3736.000000
135.099100 19352.000000
144.079400 51172.000000
145.087500 175652.000000
146.094400 54532.000000
147.101400 11108.000000
148.110900 150956.000000
149.113800 15740.000000
150.090100 17844.000000
158.095100 7204.000000
160.111000 610296.000000
161.114500 64608.000000
162.126500 113528.000000
163.130000 13440.000000
164.105500 14620.000000
165.112100 4684.000000
192.137000 37840.000000
193.140100 5404.000000
220.132300 9416.000000

>ms2
115.053900 6928.000000
117.056300 35280.000000
118.063800 20160.000000
119.071500 5488.000000
119.084600 5396.000000
120.079600 9632.000000
121.086500 4364.000000
122.095300 1112.000000
128.060800 5792.000000
129.067700 1408.000000
130.064000 104552.000000
131.070600 26012.000000
132.079700 199656.000000
133.086400 47096.000000
134.095300 144652.000000
135.066500 6584.000000
135.098800 15844.000000
142.064400 1240.000000
143.071500 4688.000000
144.079600 101760.000000
145.087100 124812.000000
146.093800 28368.000000
147.100800 6364.000000
148.074000 5856.000000
148.110500 71700.000000
149.081900 6000.000000
149.114000 7516.000000
150.089900 11488.000000
151.093400 1388.000000
155.058000 1168.000000
158.094900 4876.000000
159.100600 2316.000000
160.110700 126652.000000
161.114200 15536.000000
162.126200 24448.000000
163.129600 3268.000000
164.105400 8128.000000
165.109700 1072.000000
192.137400 2504.000000

>ms2
45.033900 28416.000000
105.070500 3924.000000
121.088700 4940.000000
130.064400 4724.000000
131.072500 4144.000000
132.079900 18764.000000
133.088100 35320.000000
134.095700 56516.000000
135.100400 6176.000000
144.079500 5340.000000
145.087500 31452.000000
146.095000 39224.000000
147.099400 4268.000000
148.111300 111564.000000
149.114700 12116.000000
150.090000 4980.000000
160.111200 522820.000000
161.114400 52048.000000
162.126400 86652.000000
163.130000 10656.000000
165.113700 26100.000000
188.105600 6996.000000
192.137600 775056.000000
193.140900 89332.000000
194.143000 6180.000000
220.132800 514716.000000
221.136100 65452.000000
222.138200 4792.000000
248.127500 27304.000000
280.153000 4944.000000

