>compound AU50201366
>parentmass 189.1598
>ionization [M+H]+
>formula C9H20N2O2
>rt 198.450000
>profile qtof
#smiles_iso CCCOC(=O)NCCCN(C)C
#smiles_can CCCOC(=O)NCCCN(C)C
#inchikey WZZLDXDUQPOXNW-UHFFFAOYSA-N
#pubchem_id 32490
#mb_accession AU277901,AU277902,AU277903,AU277906

>ms2
144.100700 197584.000000
145.103700 18008.000000
189.158900 1787636.000000
190.161700 142580.000000

>ms2
129.101300 7420.000000
130.104400 488.000000
144.100800 81880.000000
145.103600 7004.000000
147.111400 8308.000000
189.158600 90736.000000
190.161700 8992.000000

>ms2
129.100700 2328.000000
144.100600 1240.000000
147.111700 380.000000
189.159300 820.000000

>ms2
58.064500 51052.000000
74.023200 213296.000000
75.026100 4736.000000
86.096300 20284.000000
102.056100 649500.000000
103.059000 20336.000000
129.101600 8228.000000
144.101000 99528.000000
145.104300 6176.000000
147.111500 8428.000000
189.159000 147180.000000
190.162400 10608.000000

