>compound AU50110368
>parentmass 548.2425
>ionization [M+H]+
>formula C27H37N3O7S
>rt 489.480000
>profile qtof
#smiles_iso CC(C)CN(C[C@H]([C@H](CC1=CC=CC=C1)NC(=O)O[C@H]2CO[C@@H]3[C@H]2CCO3)O)S(=O)(=O)C4=CC=C(C=C4)N
#smiles_can CC(C)CN(CC(C(CC1=CC=CC=C1)NC(=O)OC2COC3C2CCO3)O)S(=O)(=O)C4=CC=C(C=C4)N
#inchikey CJBJHOAVZSMMDJ-HEXNFIEUSA-N
#pubchem_id 213039
#mb_accession AU217901,AU217902,AU217903,AU217904,AU217905

>ms2peaks
392.204100 24608.000000
393.207600 6192.000000
394.203600 1776.000000
418.180800 700.000000
418.198400 384.000000
436.195000 21048.000000
437.198500 4944.000000
438.198600 1264.000000
439.200900 388.000000
504.258500 1692.000000
548.248000 17164.000000
549.251900 6476.000000

>ms2peaks
146.094400 324.000000
156.012200 1896.000000
208.098700 300.000000
241.102100 2252.000000
242.105100 324.000000
245.166300 1524.000000
246.171700 380.000000
261.165600 336.000000
357.166200 328.000000
374.196200 312.000000
375.181400 396.000000
392.204600 44128.000000
393.207700 11964.000000
394.204100 3260.000000
418.182000 880.000000
436.194800 1760.000000
437.201500 560.000000
504.266400 640.000000
548.246500 836.000000

>ms2peaks
120.082000 432.000000
129.069200 488.000000
146.096900 572.000000
156.012300 8220.000000
157.016500 564.000000
158.008600 404.000000
164.108600 840.000000
165.109900 328.000000
200.145300 848.000000
201.154000 472.000000
202.160600 1424.000000
217.173900 360.000000
218.156900 460.000000
219.188000 404.000000
220.172300 584.000000
237.197300 560.000000
241.102500 8668.000000
243.099000 368.000000
245.166500 1612.000000
246.167100 364.000000
263.176400 404.000000
271.113000 308.000000
357.165300 600.000000
374.194100 868.000000
375.174200 444.000000
375.189100 328.000000
376.191200 344.000000
392.203700 15284.000000
393.207400 3684.000000
394.203000 1236.000000
418.182900 380.000000

>ms2peaks
120.080600 880.000000
129.069900 952.000000
146.097900 932.000000
156.012400 17720.000000
157.017200 876.000000
158.007900 828.000000
158.097900 340.000000
164.109200 780.000000
200.145200 952.000000
201.151900 616.000000
202.160200 2296.000000
203.167100 428.000000
218.154900 468.000000
218.176900 324.000000
220.169300 420.000000
237.198300 948.000000
241.102400 4248.000000
242.106800 564.000000
243.102100 372.000000
245.166700 328.000000
392.201700 2352.000000
393.205200 472.000000

>ms2peaks
120.081400 1012.000000
127.123100 400.000000
128.062400 320.000000
129.070800 1592.000000
131.085900 552.000000
146.098100 728.000000
156.012200 14076.000000
157.015300 1328.000000
158.007200 724.000000
164.107500 304.000000
200.142600 308.000000
202.161000 1328.000000
203.161800 328.000000
220.169500 376.000000
237.197600 576.000000
241.103800 476.000000

