>compound AU50751310
>parentmass 304.2635
>ionization [M+H]+
>formula C20H33NO
>rt 611.850000
>profile qtof
#smiles_iso C[C@@H]1CN(C[C@@H](O1)C)CC(C)CC2=CC=C(C=C2)C(C)(C)C
#smiles_can CC1CN(CC(O1)C)CC(C)CC2=CC=C(C=C2)C(C)(C)C
#inchikey RYAUSSKQMZRMAI-ALOPSCKCSA-N
#pubchem_id 93365
#mb_accession AU257301,AU257302,AU257303,AU257304,AU257305,AU257306

>ms2
304.264900 2510436.000000
306.269800 62592.000000

>ms2
130.121700 29748.000000
147.115800 61032.000000
189.162700 12956.000000
304.264800 2485436.000000
306.270000 59400.000000

>ms2
116.106200 30184.000000
117.069000 13992.000000
119.084500 28532.000000
130.121700 235012.000000
131.124800 16464.000000
132.092400 42576.000000
147.115800 806420.000000
148.119200 82732.000000
161.131100 18704.000000
189.162600 54992.000000
190.165200 8400.000000
248.199500 13892.000000
304.263600 1541212.000000
305.266900 335688.000000
306.270200 28868.000000

>ms2
115.053500 17728.000000
116.106200 8212.000000
117.069300 48016.000000
118.072600 6204.000000
119.084700 100212.000000
120.088100 9132.000000
130.121700 77188.000000
131.084500 13760.000000
131.125200 5628.000000
132.092300 193084.000000
133.095800 19344.000000
145.099800 9656.000000
146.106600 5448.000000
147.115800 768564.000000
148.119100 88524.000000
161.131100 22396.000000
189.162500 9860.000000
304.263000 64648.000000
305.266300 14472.000000

>ms2
115.053700 39928.000000
116.059300 6608.000000
116.106000 1712.000000
117.069500 116256.000000
118.072800 15868.000000
119.084800 104616.000000
120.088100 11000.000000
129.069100 2348.000000
130.076400 2000.000000
130.121600 8988.000000
131.084500 30176.000000
132.092600 293020.000000
133.096000 31528.000000
134.100000 1932.000000
145.099900 10664.000000
146.107400 8140.000000
147.116000 231972.000000
148.119100 29296.000000
149.123600 1876.000000
159.115900 6584.000000
161.131200 6820.000000

>ms2
57.069300 65832.000000
70.064200 7204.000000
72.080000 12612.000000
88.074900 5448.000000
91.054000 12768.000000
98.096400 144812.000000
99.099500 9784.000000
102.091100 6168.000000
105.070200 20228.000000
116.107500 97712.000000
117.069600 7280.000000
117.110800 6996.000000
119.085100 27276.000000
130.122400 126508.000000
131.126000 9824.000000
132.092500 26876.000000
147.116300 379708.000000
148.119300 34928.000000
161.131400 8984.000000
189.162600 20684.000000
248.199700 6088.000000
304.263700 1022448.000000
306.269900 32940.000000

