>compound AU50828376
>parentmass 322.1414
>ionization [M+Na]+
>formula C18H21NO3
>rt 208.480000
>profile qtof
#smiles_iso CN1CC[C@]23[C@@H]4[C@H]1CC5=C2C(=C(C=C5)OC)O[C@H]3[C@H](C=C4)O
#smiles_can CN1CCC23C4C1CC5=C2C(=C(C=C5)OC)OC3C(C=C4)O
#inchikey OROGSEYTTFOCAN-DNJOTXNNSA-N
#pubchem_id 5284371
#mb_accession AU162330,AU162331,AU162332

>ms2peaks
321.133500 576.000000
322.143100 15964.000000
323.145900 4020.000000

>ms2peaks
322.143500 14792.000000
323.147000 3584.000000

>ms2peaks
322.143900 2224.000000

