>compound AU50187170
>parentmass 262.0874
>ionization [M+H]+
>formula C14H12FNO3
>rt 443.280000
>profile qtof
#smiles_iso CC1CCC2=C3N1C=C(C(=O)C3=CC(=C2)F)C(=O)O
#smiles_can CC1CCC2=C3N1C=C(C(=O)C3=CC(=C2)F)C(=O)O
#inchikey DPSPPJIUMHPXMA-UHFFFAOYSA-N
#pubchem_id 3374
#mb_accession AU103001,AU103002,AU103003

>ms2peaks
244.076400 233988.000000
245.079200 31600.000000
262.087400 2335924.000000
263.090300 347744.000000
264.092300 25580.000000

>ms2peaks
202.028600 19304.000000
220.038600 16292.000000
244.076300 1383752.000000
245.079400 163240.000000
246.081700 14428.000000
262.087000 2094912.000000
263.090100 264172.000000
264.092500 25048.000000

>ms2peaks
174.034100 28780.000000
176.085800 10724.000000
202.029300 379536.000000
203.032500 39560.000000
220.040100 279568.000000
221.043400 31828.000000
238.050500 133380.000000
239.053600 15944.000000
244.076600 1257176.000000
245.079800 158348.000000
246.082100 11424.000000
262.087200 1503744.000000
263.090500 183436.000000
264.093000 17336.000000

