>compound AU50347518
>parentmass 129.1022
>ionization [M+H]+
>formula C6H12N2O
>rt 84.240000
>profile qtof
#smiles_iso C1CNCCC1C(=O)N
#smiles_can C1CNCCC1C(=O)N
#inchikey DPBWFNDFMCCGGJ-UHFFFAOYSA-N
#pubchem_id 3772
#mb_accession AU223001,AU223002,AU223003

>ms2
112.075900 8924.000000
129.102600 145988.000000
130.105600 9764.000000

>ms2
112.075600 3484.000000
129.102400 5224.000000

>ms2
112.078100 376.000000

