>compound AU50274700
>parentmass 302.1387
>ionization [M+H]+
>formula C17H19NO4
>rt 637.440000
>profile qtof
#smiles_iso CCOC(=O)NCCOC1=CC=C(C=C1)OC2=CC=CC=C2
#smiles_can CCOC(=O)NCCOC1=CC=C(C=C1)OC2=CC=CC=C2
#inchikey HJUFTIJOISQSKQ-UHFFFAOYSA-N
#pubchem_id 51605
#mb_accession AU258801,AU258802,AU258803,AU258804,AU258805,AU258806

>ms2peaks
116.069800 33660.000000
117.072300 3144.000000
230.116900 3672.000000
256.096500 179468.000000
257.099400 26700.000000
258.102200 2896.000000
302.139200 576684.000000
303.141800 91704.000000
304.143900 8972.000000

>ms2peaks
116.069900 10160.000000
120.055300 1064.000000
163.061300 9320.000000
164.064700 1252.000000
183.079400 4108.000000
185.058300 4020.000000
185.094800 2684.000000
186.065800 4400.000000
187.073500 4864.000000
188.077600 944.000000
195.079900 3408.000000
211.074600 14252.000000
212.078300 2836.000000
213.053300 10492.000000
213.089900 9096.000000
214.056400 1696.000000
214.093200 1328.000000
230.116600 2124.000000
238.085400 2844.000000
256.096600 186668.000000
257.099500 33400.000000
258.101800 3100.000000
302.138200 2004.000000

>ms2peaks
115.053000 580.000000
116.069900 1640.000000
116.105700 448.000000
118.040800 1564.000000
118.064200 484.000000
119.047700 1116.000000
120.056600 3484.000000
128.060900 988.000000
129.069100 2980.000000
130.121900 3052.000000
132.094100 396.000000
133.028600 640.000000
134.034800 2368.000000
135.041300 420.000000
135.067300 548.000000
141.069100 3332.000000
144.055500 464.000000
145.062300 652.000000
146.059500 788.000000
147.061900 360.000000
147.115500 5836.000000
148.119200 364.000000
152.061900 940.000000
153.067900 436.000000
155.060600 460.000000
155.084100 632.000000
157.063000 1524.000000
157.099300 756.000000
158.070000 664.000000
159.079100 588.000000
161.131400 336.000000
162.053300 508.000000
163.061600 13808.000000
164.064300 1552.000000
165.069100 2636.000000
166.074000 716.000000
167.084400 3108.000000
168.053900 304.000000
168.086400 580.000000
169.063400 4652.000000
170.070400 1064.000000
171.078100 424.000000
177.068200 1344.000000
178.048900 596.000000
178.073300 340.000000
181.064200 476.000000
182.068500 408.000000
183.080100 6264.000000
184.081100 1092.000000
185.058800 9688.000000
185.094900 2256.000000
186.066300 13940.000000
187.072800 6376.000000
188.075700 792.000000
193.070100 1240.000000
194.074500 560.000000
195.080200 4028.000000
196.082200 552.000000
197.069100 816.000000
198.066900 1740.000000
199.071700 620.000000
211.074400 7212.000000
213.053800 19944.000000
213.089900 4544.000000
214.058200 2688.000000
214.092600 980.000000
215.061100 412.000000
221.070700 752.000000
223.086700 468.000000
238.086700 2372.000000
239.089100 676.000000
256.096000 17344.000000
257.099800 3812.000000

>ms2peaks
115.053200 2208.000000
116.069600 404.000000
117.069300 776.000000
118.040200 1476.000000
118.063600 380.000000
119.048200 1260.000000
119.083900 828.000000
120.056400 2104.000000
121.026200 660.000000
127.052700 360.000000
128.060800 3080.000000
129.068600 7524.000000
130.072400 1080.000000
130.123300 1212.000000
131.048700 712.000000
132.092000 1464.000000
133.028000 372.000000
134.034400 1940.000000
135.040700 424.000000
139.052900 532.000000
141.068400 9268.000000
142.074000 1720.000000
144.054600 472.000000
145.050800 376.000000
145.061500 756.000000
146.060000 316.000000
147.115700 6900.000000
148.119000 612.000000
152.060600 2824.000000
153.067900 460.000000
155.058800 840.000000
155.083600 768.000000
157.063200 4212.000000
158.070500 2116.000000
161.130300 352.000000
162.054400 548.000000
163.061700 2628.000000
164.068000 416.000000
165.068100 4424.000000
166.074700 1208.000000
167.082900 1628.000000
168.056000 924.000000
169.063100 3524.000000
170.070400 1696.000000
176.059100 720.000000
177.070100 1292.000000
178.075400 376.000000
181.063000 928.000000
183.079500 2688.000000
184.083800 456.000000
185.058000 6372.000000
185.094300 544.000000
186.066200 14768.000000
193.069600 528.000000
193.073900 388.000000
194.070800 636.000000
195.078900 1300.000000
197.058000 764.000000
198.066700 1056.000000
199.071300 496.000000
203.068800 664.000000
211.074500 752.000000
213.053700 9856.000000
214.057100 1084.000000
238.083800 988.000000
256.095400 520.000000

>ms2peaks
115.053900 4532.000000
117.068700 1484.000000
118.041400 864.000000
119.048600 752.000000
119.086000 1008.000000
120.056600 796.000000
127.051600 392.000000
128.061400 5604.000000
129.068500 4984.000000
131.049300 644.000000
132.092600 2164.000000
134.034100 1028.000000
139.054000 932.000000
141.068300 6916.000000
144.054700 460.000000
145.063600 1144.000000
147.116100 2776.000000
152.061100 2532.000000
153.067900 920.000000
154.076400 344.000000
155.058900 1144.000000
155.082200 564.000000
157.063400 4280.000000
158.071000 2300.000000
159.079400 308.000000
165.068500 3676.000000
166.073900 1280.000000
167.082300 444.000000
168.056300 1400.000000
169.063300 1788.000000
170.071500 708.000000
176.061500 992.000000
177.068700 508.000000
181.065700 968.000000
183.079100 572.000000
185.058900 2044.000000
186.066300 6432.000000
187.069300 1252.000000
194.068900 304.000000
195.080400 468.000000
197.061500 752.000000
198.064000 476.000000
213.053700 2132.000000
214.057100 428.000000

>ms2peaks
70.028300 16056.000000
88.039300 511420.000000
89.042600 14568.000000
94.041900 2772.000000
116.071100 31856.000000
120.056300 3004.000000
147.116400 4552.000000
163.062200 9776.000000
183.079800 5044.000000
185.059500 7820.000000
186.066600 10600.000000
187.074300 4604.000000
195.080000 2716.000000
211.074600 10596.000000
213.054200 14820.000000
213.090300 5360.000000
214.057700 3244.000000
256.097000 80712.000000
257.100100 14172.000000

