>compound AU50394966
>parentmass 459.08660000000003
>ionization [M+H]+
>formula C21H16ClFN4O5
>rt 599.810000
>profile qtof
#smiles_iso CO/N=C(\C1=CC=CC=C1OC2=C(C(=NC=N2)OC3=CC=CC=C3Cl)F)/C4=NOCCO4
#smiles_can CON=C(C1=CC=CC=C1OC2=C(C(=NC=N2)OC3=CC=CC=C3Cl)F)C4=NOCCO4
#inchikey UFEODZBUAFNAEU-NLRVBDNBSA-N
#pubchem_id 11048796
#mb_accession AU259001,AU259002,AU259003,AU259004,AU259005,AU259006

>ms2
427.060400 169428.000000
428.062900 30616.000000
429.057800 43208.000000
459.087100 2258128.000000
460.089700 495016.000000
461.084300 683996.000000

>ms2
188.036500 18316.000000
367.038400 19516.000000
383.033400 32000.000000
427.060600 2085248.000000
428.063300 402508.000000
429.058000 579116.000000
430.059900 60092.000000
459.086700 454428.000000
460.089300 95828.000000
461.084000 117616.000000

>ms2
120.043500 23648.000000
130.028100 6912.000000
132.043300 11036.000000
134.059100 7940.000000
136.038400 6040.000000
138.009300 39692.000000
140.006100 9192.000000
144.030400 7332.000000
145.038200 58580.000000
146.022200 11848.000000
146.041800 6392.000000
150.033600 9300.000000
161.032900 11216.000000
162.035100 6232.000000
164.032900 22196.000000
170.033300 16168.000000
175.028800 9388.000000
176.036700 18940.000000
178.028500 18768.000000
178.999500 25064.000000
180.996300 7036.000000
183.011000 6648.000000
183.994600 11784.000000
188.037000 252764.000000
189.040200 24124.000000
190.048100 18676.000000
191.024100 5932.000000
202.040200 6556.000000
204.075500 9840.000000
205.039700 23212.000000
205.059600 22252.000000
211.989800 9328.000000
214.005400 8812.000000
214.060700 13392.000000
218.035000 9208.000000
223.005500 7544.000000
228.043400 5972.000000
230.035200 39476.000000
231.019000 30032.000000
232.050400 7736.000000
240.043200 7576.000000
241.050700 8844.000000
242.058000 14404.000000
244.050600 5712.000000
246.030100 57312.000000
247.033700 7088.000000
255.030300 9544.000000
257.046100 13512.000000
266.011600 21892.000000
267.031400 8644.000000
268.009000 5964.000000
270.054800 5832.000000
274.061300 17036.000000
290.056600 8492.000000
299.056800 5424.000000
300.064300 8616.000000
306.066700 88208.000000
307.069700 14792.000000
308.022700 6300.000000
315.033000 48624.000000
316.036300 8008.000000
317.029800 14004.000000
331.061200 6152.000000
340.027700 28668.000000
341.032800 11976.000000
342.043200 37680.000000
343.043400 10520.000000
344.040100 10996.000000
355.037500 6468.000000
358.039300 6092.000000
367.039100 96636.000000
368.041500 20104.000000
369.036600 29272.000000
383.033900 97172.000000
384.037400 18324.000000
385.035300 28004.000000
387.047400 6116.000000
397.048500 9140.000000
427.060500 1074208.000000
428.063300 188784.000000
429.058000 254912.000000
430.060100 34564.000000
459.086100 5676.000000

>ms2
119.035500 4464.000000
120.043400 17228.000000
122.038900 3896.000000
129.008500 5920.000000
129.043400 8004.000000
130.027800 20256.000000
130.050700 3024.000000
132.043200 8820.000000
133.032200 3916.000000
134.039300 7168.000000
134.058600 5048.000000
136.038400 4048.000000
138.009400 99452.000000
138.993800 5536.000000
139.011700 6740.000000
140.006200 23240.000000
140.989100 4012.000000
144.030500 11132.000000
144.054100 6184.000000
145.038400 73808.000000
146.022000 18932.000000
146.042100 6452.000000
147.031800 3688.000000
150.033400 55460.000000
151.004200 4128.000000
151.037200 4100.000000
154.038900 4476.000000
157.038400 5448.000000
159.033900 5136.000000
160.025300 8088.000000
160.045300 6720.000000
161.032700 24792.000000
162.036200 13440.000000
163.004400 11008.000000
163.046800 8352.000000
164.032600 37476.000000
165.002100 3236.000000
165.037600 3428.000000
166.003700 3856.000000
167.999800 20384.000000
169.996100 5180.000000
170.033300 20748.000000
173.033800 3068.000000
174.044300 4196.000000
175.028600 24864.000000
176.036100 16148.000000
177.043900 4664.000000
178.028700 62560.000000
178.999500 30000.000000
179.031900 6692.000000
180.996600 6940.000000
183.010200 4816.000000
183.994800 10940.000000
185.991500 3368.000000
186.044000 4140.000000
187.029000 3200.000000
187.051400 3300.000000
188.037000 570076.000000
189.040200 54132.000000
190.044500 14632.000000
191.023500 12264.000000
195.010600 3036.000000
198.028400 4388.000000
200.042500 3116.000000
202.039900 9660.000000
203.024200 6988.000000
204.031400 4940.000000
204.052900 8636.000000
204.074500 4708.000000
205.039600 34156.000000
205.059300 32748.000000
206.041600 3284.000000
206.062700 3312.000000
211.989700 3548.000000
212.045800 3336.000000
214.005500 19032.000000
214.039700 8004.000000
214.060200 8980.000000
215.047200 5740.000000
216.002200 4328.000000
216.054700 5680.000000
218.034900 12624.000000
220.027300 4508.000000
220.050600 3560.000000
221.034100 3100.000000
223.005800 9020.000000
223.025900 2968.000000
223.989800 8200.000000
225.002200 3452.000000
225.057100 4284.000000
228.043900 10580.000000
229.026600 8884.000000
229.049500 3632.000000
230.034900 60932.000000
231.018800 13444.000000
231.038000 7412.000000
232.051000 6768.000000
235.050500 3620.000000
240.043100 13344.000000
241.017100 6084.000000
241.050500 9636.000000
242.056900 11284.000000
244.049900 9216.000000
246.029900 38816.000000
247.032300 4972.000000
250.016100 3452.000000
252.068200 6468.000000
255.031000 10600.000000
256.035400 4360.000000
257.046100 9544.000000
262.053000 4460.000000
266.012000 22336.000000
267.030400 7452.000000
268.009100 6092.000000
270.053800 3212.000000
272.032200 3376.000000
273.040700 3640.000000
274.061200 14564.000000
277.064000 6420.000000
278.070800 10872.000000
279.056500 5108.000000
280.062700 11040.000000
281.067000 4288.000000
290.056400 2964.000000
293.059200 3148.000000
299.055300 4436.000000
300.062700 3260.000000
301.072000 3244.000000
304.050600 6928.000000
304.072300 3384.000000
305.057600 3784.000000
306.067000 233416.000000
307.070000 34964.000000
308.022300 2868.000000
308.071100 3944.000000
313.039800 6060.000000
315.032500 45000.000000
316.035400 7784.000000
317.029600 12904.000000
318.066400 13712.000000
319.070100 3736.000000
320.021900 3204.000000
320.070800 3536.000000
321.075800 3260.000000
327.044700 3360.000000
331.061500 18996.000000
332.065600 5260.000000
333.075700 5080.000000
339.042800 4776.000000
340.027200 31964.000000
341.032800 10216.000000
342.041800 18492.000000
343.040100 6332.000000
344.040800 6692.000000
353.034200 2972.000000
355.038300 4412.000000
358.037900 4932.000000
367.038100 43596.000000
368.040600 10732.000000
369.036000 15280.000000
383.033000 27664.000000
384.036900 6948.000000
385.035400 9080.000000
391.082000 3500.000000
397.048300 4008.000000
427.059700 57336.000000
428.062800 12656.000000
429.055600 17620.000000

>ms2
110.998900 4600.000000
119.035700 5832.000000
120.043200 13028.000000
122.039300 12176.000000
128.001300 4092.000000
129.008200 7708.000000
129.043800 29776.000000
130.027800 23848.000000
130.048800 3900.000000
132.023100 4604.000000
132.043300 4800.000000
133.031400 11000.000000
134.039000 10840.000000
138.009500 107260.000000
138.993300 13168.000000
139.011800 7292.000000
140.006300 28040.000000
140.989700 7692.000000
142.039300 3828.000000
144.030600 11636.000000
144.054200 4812.000000
145.038500 56852.000000
146.022300 15792.000000
146.041800 4560.000000
147.033700 7016.000000
148.040700 4332.000000
149.026300 4496.000000
149.049200 4028.000000
150.033900 132380.000000
151.004400 6208.000000
151.037700 10712.000000
154.038800 9372.000000
154.988300 3776.000000
157.039000 5124.000000
159.034400 11428.000000
160.025400 10616.000000
160.041600 12140.000000
161.032600 25144.000000
162.037400 15560.000000
163.004300 11900.000000
163.047600 8508.000000
164.033000 30592.000000
165.001800 4052.000000
165.042100 4420.000000
167.999800 35388.000000
169.037800 3636.000000
169.996400 10060.000000
170.033700 15436.000000
174.044300 6580.000000
175.029000 27920.000000
176.036000 9344.000000
177.044400 4652.000000
178.028800 100168.000000
178.999500 16736.000000
179.032800 8740.000000
180.996600 4156.000000
182.033800 4364.000000
183.994700 5348.000000
186.044700 4040.000000
187.029400 3812.000000
187.051400 3944.000000
188.037300 699392.000000
189.040700 60908.000000
190.041000 12696.000000
191.023900 12180.000000
196.050500 3640.000000
198.028700 5280.000000
200.040600 4412.000000
202.040100 9048.000000
203.024700 5780.000000
204.030600 3688.000000
204.053700 5604.000000
205.039900 21476.000000
205.059700 14224.000000
212.047000 3848.000000
213.032800 4468.000000
214.005300 11896.000000
214.040000 7712.000000
215.046000 3924.000000
216.055600 5364.000000
218.036200 5400.000000
220.026600 7524.000000
223.006600 4884.000000
223.990600 6240.000000
225.057600 11140.000000
228.043400 7360.000000
229.028000 9468.000000
230.035100 46440.000000
231.019200 4816.000000
231.038800 6448.000000
232.053600 4112.000000
240.043100 9508.000000
241.050600 8640.000000
242.057400 4392.000000
244.050400 4408.000000
246.030300 11468.000000
251.060300 9248.000000
252.067400 9516.000000
255.030400 6496.000000
257.046600 4744.000000
263.062500 4460.000000
266.011900 9084.000000
274.062400 5424.000000
277.063100 7408.000000
278.071400 14036.000000
279.055300 11392.000000
280.063300 19008.000000
281.067100 4360.000000
304.051600 7680.000000
306.067300 227760.000000
307.070100 35784.000000
313.040900 3508.000000
315.033100 15372.000000
317.030900 4152.000000
318.067200 16936.000000
319.067700 3904.000000
331.062200 22996.000000
332.066400 4316.000000
340.027700 16784.000000
341.032500 4364.000000
342.035600 5364.000000
367.039100 8472.000000
383.034000 3536.000000

>ms2
65.038000 5712.000000
73.027900 3372.000000
90.033800 17096.000000
91.054000 5896.000000
93.033500 5436.000000
95.049100 4200.000000
104.049900 11628.000000
105.045000 4192.000000
106.029100 7796.000000
111.044400 4168.000000
119.036700 5808.000000
120.044600 31512.000000
129.009500 4252.000000
130.028600 8356.000000
132.044300 9844.000000
134.059900 7248.000000
138.010300 40376.000000
139.011700 4516.000000
140.007000 11252.000000
144.031800 4836.000000
145.039200 40808.000000
146.022800 8092.000000
146.042600 3876.000000
150.034500 16680.000000
161.033400 9532.000000
162.035200 5360.000000
163.049100 3560.000000
164.033400 16884.000000
168.000100 5008.000000
170.034100 8228.000000
175.029300 7420.000000
176.037000 10072.000000
178.029000 19824.000000
178.999600 13444.000000
180.997200 3668.000000
183.995400 5500.000000
188.037500 216368.000000
189.040800 21820.000000
190.047600 8164.000000
191.024300 3820.000000
202.040600 4088.000000
204.053000 3376.000000
204.076200 5380.000000
205.039900 14908.000000
205.060100 15216.000000
211.989700 4120.000000
214.005900 8076.000000
214.040500 3416.000000
214.060600 7568.000000
218.036000 4536.000000
223.005600 4412.000000
223.990100 3696.000000
228.043400 4488.000000
230.035700 27504.000000
231.020200 13124.000000
232.051400 4060.000000
240.043900 5720.000000
241.051600 5592.000000
242.057300 7672.000000
244.051400 3644.000000
246.031000 28944.000000
247.034100 3716.000000
255.031200 6704.000000
257.046300 6732.000000
266.012700 15352.000000
267.032100 4336.000000
268.007800 3848.000000
274.062200 10508.000000
278.071500 3808.000000
280.064300 4604.000000
290.057200 4756.000000
300.064800 4428.000000
304.051300 3584.000000
306.067600 92744.000000
307.070700 13092.000000
313.041000 4208.000000
315.033700 30768.000000
316.036800 5144.000000
317.030500 6748.000000
318.067300 4444.000000
331.062500 6652.000000
333.078000 3352.000000
340.028300 20868.000000
341.034900 6440.000000
342.042700 19548.000000
343.044200 5404.000000
344.041100 6476.000000
355.038100 3636.000000
367.039700 56580.000000
368.042200 9696.000000
369.037800 14168.000000
383.034600 53236.000000
384.037100 10744.000000
385.036500 14604.000000
385.042400 13448.000000
387.047200 3960.000000
397.049000 5168.000000
427.061200 668244.000000
428.064000 182216.000000
429.059100 225968.000000
430.060400 34196.000000
459.087100 25592.000000
460.089600 7236.000000
461.085100 9108.000000

