>compound AU50188620
>parentmass 251.1754
>ionization [M+H]+
>formula C14H22N2O2
>rt 313.200000
>profile qtof
#smiles_iso CC[N+](CC)(CC(=O)NC1=C(C=CC=C1C)C)[O-]
#smiles_can CC[N+](CC)(CC(=O)NC1=C(C=CC=C1C)C)[O-]
#inchikey YDVXPJXUHRROBA-UHFFFAOYSA-N
#pubchem_id 3036923
#mb_accession AU211401,AU211402,AU211403,AU211404,AU211405

>ms2peaks
130.085100 22368.000000
148.074500 1848.000000
164.106300 2240.000000
251.175400 1008824.000000
252.178200 117740.000000

>ms2peaks
120.079900 15088.000000
121.086300 1260.000000
122.095400 5648.000000
130.085100 25088.000000
132.080800 800.000000
134.094600 1640.000000
148.074700 25472.000000
149.077700 2320.000000
150.090900 740.000000
162.090200 1572.000000
163.061900 1084.000000
163.097700 4736.000000
164.105700 25664.000000
165.108500 3212.000000
178.084800 2416.000000
180.101100 752.000000
205.132300 1204.000000
223.142800 3536.000000
233.163500 4424.000000
234.167300 1288.000000
251.174900 131260.000000
252.178200 20064.000000
253.179400 1992.000000

>ms2peaks
118.063000 416.000000
119.085500 408.000000
120.079900 39328.000000
121.065100 436.000000
121.084600 3276.000000
122.095400 12364.000000
123.079600 564.000000
123.099300 1276.000000
130.085900 1180.000000
132.079800 908.000000
134.095000 3972.000000
135.099200 448.000000
144.080200 564.000000
146.096300 1112.000000
147.066800 1392.000000
148.074300 15636.000000
149.077900 1476.000000
150.089400 1024.000000
160.074900 336.000000
160.111200 388.000000
162.090700 1032.000000
163.061500 1284.000000
163.097800 1388.000000
164.105800 9900.000000
165.109000 1096.000000
178.084600 360.000000
205.133600 896.000000
223.144500 384.000000
233.164600 1340.000000
234.170700 372.000000
251.174400 2088.000000

>ms2peaks
115.053900 332.000000
117.057200 468.000000
118.064700 1432.000000
119.072400 548.000000
119.084600 320.000000
120.080000 37848.000000
121.064200 312.000000
121.084600 3772.000000
122.095500 6644.000000
123.099300 760.000000
130.065300 300.000000
131.071500 708.000000
132.079300 544.000000
133.052100 924.000000
134.058300 464.000000
134.095600 5028.000000
135.098500 468.000000
144.078700 480.000000
146.094900 1392.000000
147.066700 1380.000000
148.074700 6960.000000
148.110500 508.000000
149.077900 844.000000
150.090700 448.000000
163.062100 656.000000
164.105900 1128.000000

>ms2peaks
115.053400 604.000000
117.056000 448.000000
118.064200 2020.000000
119.071300 1032.000000
120.080200 25312.000000
121.084600 2724.000000
122.095700 2220.000000
130.064600 936.000000
131.072600 856.000000
132.080400 588.000000
133.051500 2300.000000
134.058400 592.000000
134.095300 2084.000000
144.080300 648.000000
146.059000 592.000000
146.095900 420.000000
147.066300 560.000000
148.074400 3160.000000
149.077900 556.000000

