>compound AU51224923
>parentmass 351.0475
>ionization [M+Na]+
>formula C17H12O7
>rt 364.908000
>profile qtof
#smiles_iso COC1=C2C3=C(C(=O)OCC3)C(=O)OC2=C4C5C=COC5OC4=C1
#smiles_can COC1=C2C3=C(C(=O)OCC3)C(=O)OC2=C4C5C=COC5OC4=C1
#inchikey XWIYFDMXXLINPU-UHFFFAOYSA-N
#pubchem_id 14421
#mb_accession AU596432,AU596433,AU596434,AU596435,AU596436

>ms2
122.067600 312.000000
351.046900 42764.000000

>ms2
122.068000 596.000000
322.045500 584.000000
351.046700 40728.000000

>ms2
122.067700 416.000000
307.020900 804.000000
322.042600 668.000000
323.053000 368.000000
336.022600 404.000000
351.046800 5852.000000

>ms2
263.029800 300.000000
307.021900 444.000000
351.045900 348.000000

>ms2
122.068000 376.000000

