>compound AU51520101
>parentmass 315.2319
>ionization [M+H]+
>formula C21H30O2
>rt 663.684000
>profile qtof
#smiles_iso CC(=O)[C@H]1CC[C@@H]2[C@@]1(CC[C@H]3[C@H]2CCC4=CC(=O)CC[C@]34C)C
#smiles_can CC(=O)C1CCC2C1(CCC3C2CCC4=CC(=O)CCC34C)C
#inchikey RJKFOVLPORLFTN-LEKSSAKUSA-N
#pubchem_id 5994
#mb_accession AU107702,AU107703,AU107704,AU107705,AU107706

>ms2peaks
109.065300 1560.000000
121.101200 1668.000000
123.080900 7024.000000
133.100800 2772.000000
135.116700 1596.000000
137.096400 2752.000000
145.101300 3184.000000
147.117600 3908.000000
159.117400 3912.000000
161.133400 2644.000000
163.112700 3304.000000
171.117100 2884.000000
173.133300 4532.000000
175.112700 1412.000000
175.148900 1888.000000
177.128000 4848.000000
185.133700 1392.000000
187.148200 2504.000000
189.127600 3308.000000
189.164200 1848.000000
191.144100 2372.000000
201.165000 4896.000000
203.143100 1416.000000
213.164700 2684.000000
215.143700 2364.000000
215.180000 5220.000000
219.175300 2600.000000
223.149100 2180.000000
227.180200 2984.000000
229.160200 2848.000000
233.192500 3612.000000
239.180200 5968.000000
241.160000 2048.000000
245.190900 3556.000000
253.195300 3220.000000
255.211200 7832.000000
256.092100 9752.000000
256.214800 1644.000000
257.094100 2680.000000
257.190800 1952.000000
271.207300 1440.000000
273.222800 6620.000000
274.226300 1392.000000
279.213100 10104.000000
280.215900 2956.000000
297.222800 37340.000000
298.225200 8228.000000
315.234200 272864.000000
316.237100 55648.000000
317.240000 6236.000000

>ms2peaks
109.065200 1780.000000
110.070900 300.000000
117.071000 784.000000
119.086400 3628.000000
120.090600 420.000000
121.065500 1360.000000
121.101700 3616.000000
122.107400 440.000000
123.081100 10704.000000
123.117700 952.000000
124.084400 1444.000000
128.061700 300.000000
129.070700 800.000000
131.086200 4640.000000
133.101800 6384.000000
134.106100 1208.000000
135.080300 780.000000
135.117300 3052.000000
136.121500 352.000000
137.096200 2668.000000
137.133200 764.000000
138.101200 388.000000
143.086700 1764.000000
144.092100 320.000000
145.101400 7380.000000
146.106300 860.000000
147.080700 472.000000
147.117700 6820.000000
148.120300 1016.000000
149.097100 1628.000000
149.133100 2468.000000
150.138400 384.000000
151.112500 1348.000000
155.085100 876.000000
156.092200 400.000000
157.101900 2820.000000
158.107300 664.000000
159.117900 7616.000000
160.121000 1252.000000
161.096800 688.000000
161.133100 4240.000000
162.137000 344.000000
163.112600 4764.000000
163.148400 1564.000000
164.117300 560.000000
165.127400 576.000000
167.085100 460.000000
169.102200 1152.000000
171.117800 5192.000000
172.121200 660.000000
173.097600 512.000000
173.133800 6924.000000
174.137100 1252.000000
175.112800 1404.000000
175.149800 3268.000000
177.128400 5400.000000
177.165200 484.000000
178.132000 760.000000
179.144900 740.000000
181.103200 448.000000
183.118000 2172.000000
184.123300 532.000000
185.133700 2940.000000
186.138800 768.000000
187.113700 988.000000
187.149800 3228.000000
188.153100 628.000000
189.128100 2964.000000
189.165200 2248.000000
190.134500 408.000000
190.167500 352.000000
191.144000 2520.000000
195.116600 388.000000
197.133100 2472.000000
198.140500 476.000000
199.149300 2808.000000
200.154400 508.000000
201.129700 596.000000
201.164200 3348.000000
202.170100 644.000000
203.143500 768.000000
203.181500 468.000000
205.159400 376.000000
207.175200 392.000000
209.133400 1196.000000
210.141700 388.000000
211.151200 1392.000000
212.157900 368.000000
213.130500 328.000000
213.165300 3520.000000
214.169500 712.000000
215.053300 300.000000
215.146100 948.000000
215.180700 3368.000000
216.183800 992.000000
217.162400 508.000000
219.175700 468.000000
222.107100 360.000000
223.112600 404.000000
223.149700 1924.000000
224.153900 632.000000
225.166600 600.000000
227.145000 588.000000
227.182700 2100.000000
228.183800 696.000000
229.159800 948.000000
231.175200 936.000000
233.192000 824.000000
237.166500 1032.000000
238.169300 348.000000
239.181000 4008.000000
240.184800 852.000000
241.160100 1688.000000
245.191400 1400.000000
246.192800 316.000000
251.181500 652.000000
253.198300 1640.000000
254.201900 576.000000
255.176400 1132.000000
255.211900 5104.000000
256.092100 17308.000000
256.218300 1228.000000
257.095200 5900.000000
257.192400 1052.000000
264.188100 464.000000
269.191800 364.000000
271.209400 1256.000000
273.222300 2060.000000
274.222600 396.000000
279.212500 4744.000000
280.216100 852.000000
282.109400 3212.000000
283.112900 1084.000000
297.223200 8832.000000
298.225500 2244.000000
315.234200 9388.000000
316.238400 2356.000000

>ms2peaks
109.066200 896.000000
115.054900 704.000000
117.070800 876.000000
119.086500 3204.000000
121.065600 1220.000000
121.101200 1560.000000
123.080900 7984.000000
124.083700 768.000000
128.063400 664.000000
129.070200 1636.000000
130.078000 748.000000
131.086500 4852.000000
133.101500 4092.000000
135.081300 636.000000
135.117800 2080.000000
137.096700 1520.000000
137.132700 316.000000
141.070800 600.000000
142.077700 664.000000
143.087000 2300.000000
144.093300 1168.000000
145.102000 5740.000000
147.081300 664.000000
147.117600 3756.000000
148.089800 392.000000
148.122500 480.000000
149.097400 1996.000000
149.132900 1324.000000
151.113200 584.000000
155.085600 1052.000000
156.093700 660.000000
157.101800 4044.000000
158.107900 1000.000000
159.117600 5248.000000
160.121800 952.000000
161.096700 492.000000
161.132900 1800.000000
163.112100 2476.000000
163.148700 704.000000
168.096000 508.000000
169.101500 1212.000000
171.118000 2588.000000
172.123500 756.000000
173.133200 3452.000000
174.136800 540.000000
175.114300 436.000000
175.149600 912.000000
177.128700 1744.000000
178.132700 364.000000
181.103600 464.000000
182.110000 432.000000
183.118200 1468.000000
184.123100 432.000000
185.132900 2004.000000
186.137500 460.000000
187.113100 328.000000
187.148400 2136.000000
188.153300 300.000000
189.129500 632.000000
189.164600 480.000000
191.143400 532.000000
194.107200 312.000000
195.080300 688.000000
195.118100 700.000000
196.084500 308.000000
196.124100 308.000000
197.134500 912.000000
198.139100 736.000000
199.148900 1156.000000
200.023200 480.000000
200.153100 676.000000
201.163400 864.000000
209.133800 336.000000
210.139300 376.000000
211.150500 676.000000
213.166200 1624.000000
215.045300 580.000000
215.183400 396.000000
222.102900 876.000000
223.112700 636.000000
223.150600 464.000000
224.116800 544.000000
224.154900 356.000000
227.181800 552.000000
228.060400 312.000000
237.163900 508.000000
239.180600 1148.000000
240.062100 368.000000
241.065300 596.000000
241.161900 300.000000
242.078000 332.000000
253.198500 308.000000
255.213900 568.000000
256.092000 9520.000000
257.095500 2624.000000
279.214000 408.000000
282.107700 2104.000000
283.112900 1024.000000
297.222900 608.000000
315.233700 372.000000

>ms2peaks
109.065400 556.000000
115.055300 1284.000000
117.071000 1288.000000
119.086500 3492.000000
121.065500 916.000000
121.101400 968.000000
123.081000 5984.000000
128.063100 1324.000000
129.071100 2120.000000
130.078200 992.000000
131.086200 4600.000000
133.102400 2408.000000
134.106400 308.000000
135.082100 472.000000
135.117500 608.000000
137.095400 404.000000
141.070700 1196.000000
142.078300 1264.000000
143.086600 3088.000000
144.093800 1224.000000
145.065000 384.000000
145.102300 3604.000000
146.106900 560.000000
147.081900 736.000000
147.117200 1848.000000
148.086600 448.000000
149.098000 628.000000
149.133600 576.000000
153.071900 508.000000
154.079700 520.000000
155.087500 852.000000
156.093400 796.000000
157.102600 2092.000000
158.111200 664.000000
159.117100 2424.000000
160.122300 532.000000
161.097800 436.000000
161.132800 852.000000
163.111000 656.000000
167.088000 716.000000
168.093900 328.000000
169.101300 832.000000
170.111200 364.000000
171.118100 932.000000
172.124100 328.000000
173.134200 1344.000000
175.112200 332.000000
177.129400 460.000000
179.087500 328.000000
181.102900 448.000000
182.111900 468.000000
183.120700 800.000000
184.128600 300.000000
185.135500 608.000000
187.147700 324.000000
193.100900 300.000000
195.083700 780.000000
195.117500 392.000000
196.088000 480.000000
197.134300 344.000000
199.149700 444.000000
200.022200 556.000000
208.128400 336.000000
209.135000 356.000000
213.168100 304.000000
222.103300 1412.000000
223.111100 1028.000000
224.119600 352.000000
241.066900 388.000000
254.074800 568.000000
256.092700 1932.000000
257.095400 576.000000
282.108400 556.000000
283.114800 420.000000

>ms2peaks
297.222900 5256.000000
315.233900 614828.000000
316.237200 124648.000000
317.240000 12544.000000

