>compound AU51055769
>parentmass 581.1419999999999
>ionization [M+H]+
>formula C29H26ClFN4O4S
>rt 664.930000
>profile qtof
#smiles_iso CS(=O)(=O)CCNCC1=CC=C(O1)C2=CC3=C(C=C2)N=CN=C3NC4=CC(=C(C=C4)OCC5=CC(=CC=C5)F)Cl
#smiles_can CS(=O)(=O)CCNCC1=CC=C(O1)C2=CC3=C(C=C2)N=CN=C3NC4=CC(=C(C=C4)OCC5=CC(=CC=C5)F)Cl
#inchikey BCFGMOOMADDAQU-UHFFFAOYSA-N
#pubchem_id 208908
#mb_accession AU252501,AU252502,AU252503,AU252504,AU252505,AU252506

>ms2
458.107200 1104.000000
581.142200 139248.000000
582.145500 43184.000000
583.140300 48940.000000

>ms2
365.077900 1228.000000
458.104800 1300.000000
581.142000 141280.000000
582.144700 47244.000000
583.139700 51004.000000

>ms2
349.059400 1720.000000
350.068500 5716.000000
351.072600 948.000000
352.067900 1196.000000
365.079200 20812.000000
366.081900 4092.000000
367.076500 5252.000000
368.079000 1124.000000
379.094700 3376.000000
380.098200 1196.000000
381.092300 888.000000
393.110700 4980.000000
394.115300 1252.000000
395.107800 1940.000000
458.107600 4692.000000
459.108400 1276.000000
460.105400 1408.000000
472.094300 2580.000000
473.100700 800.000000
474.094200 900.000000
581.142100 124540.000000
582.144900 42028.000000
583.140000 43800.000000

>ms2
239.091800 844.000000
335.081400 732.000000
349.061000 11096.000000
350.068500 30240.000000
351.070500 8968.000000
352.066200 9332.000000
353.070000 1488.000000
364.081800 940.000000
365.080400 113224.000000
366.083400 26100.000000
367.077800 31512.000000
368.080500 5496.000000
379.095400 29932.000000
380.099600 6896.000000
381.094200 7588.000000
382.098100 1224.000000
393.111300 13728.000000
394.115200 4268.000000
395.108200 4932.000000
396.111700 836.000000
422.128500 1164.000000
458.107000 9116.000000
459.110900 3804.000000
460.107700 2528.000000
461.110700 1008.000000
471.085900 892.000000
472.097200 2332.000000
473.105500 976.000000
474.095700 1184.000000
475.133700 1004.000000
476.134600 588.000000
487.136800 596.000000
581.142700 42868.000000
582.145400 16196.000000
583.141100 16416.000000

>ms2
239.093600 840.000000
322.072700 1528.000000
323.056900 1188.000000
334.075900 932.000000
335.081000 1608.000000
349.060600 17428.000000
350.068200 50464.000000
351.074400 31456.000000
352.067200 14596.000000
353.072200 8316.000000
354.076600 956.000000
364.083400 2064.000000
365.079800 165132.000000
366.082600 36384.000000
367.077100 47108.000000
368.079900 7564.000000
379.095600 52036.000000
380.097700 11908.000000
381.092600 13764.000000
382.094900 2564.000000
393.111200 6872.000000
394.113100 2092.000000
395.105700 2288.000000
422.127500 1520.000000
458.106000 3136.000000
459.111300 2020.000000
460.105600 1176.000000
471.086100 1808.000000
581.140700 3272.000000
582.142700 1476.000000
583.141400 1252.000000

>ms2
349.061400 7812.000000
350.069500 20124.000000
351.072600 4964.000000
352.067000 4468.000000
353.072200 1060.000000
365.080600 86232.000000
366.083900 16208.000000
367.077600 20184.000000
368.080800 3304.000000
379.095800 20564.000000
380.097200 4160.000000
381.093200 4668.000000
382.100000 1040.000000
393.110900 9256.000000
394.117300 1956.000000
395.108400 2280.000000
396.113300 548.000000
422.129900 824.000000
458.105900 6268.000000
459.110300 2264.000000
460.103600 2344.000000
461.110800 568.000000
471.091100 784.000000
472.098600 2196.000000
473.099800 572.000000
474.099500 928.000000
475.132900 648.000000
501.152200 592.000000
581.143100 107196.000000
582.145900 33100.000000
583.140800 35756.000000

