>compound AU51167648
>parentmass 332.1405
>ionization [M+H]+
>formula C17H18FN3O3
>rt 262.824000
>profile qtof
#smiles_iso C1CC1N2C=C(C(=O)C3=CC(=C(C=C32)N4CCNCC4)F)C(=O)O
#smiles_can C1CC1N2C=C(C(=O)C3=CC(=C(C=C32)N4CCNCC4)F)C(=O)O
#inchikey MYSWGUAQZAJSOK-UHFFFAOYSA-N
#pubchem_id 2764
#mb_accession AU102601,AU102602,AU102603,AU102604,AU102605

>ms2
149.058400 592.000000
288.149700 444.000000
332.139900 48968.000000
333.144500 9292.000000

>ms2
149.058900 916.000000
215.128600 1152.000000
231.055800 332.000000
245.108600 1152.000000
288.150100 4644.000000
289.155600 852.000000
314.128600 5620.000000
315.131600 1132.000000
332.140000 49104.000000
333.143100 11612.000000

>ms2
149.056900 344.000000
203.061400 492.000000
204.067800 1056.000000
205.075500 384.000000
215.126900 1460.000000
225.053000 300.000000
231.055700 6944.000000
231.090500 524.000000
232.059400 736.000000
245.107400 3564.000000
246.110200 576.000000
249.066400 892.000000
268.146700 440.000000
273.089300 400.000000
286.132200 336.000000
288.150800 2620.000000
289.152900 348.000000
294.122600 308.000000
312.134400 1224.000000
314.129200 7200.000000
315.131000 1480.000000
332.140700 35644.000000
333.143400 8024.000000

>ms2
149.059500 588.000000
189.042800 556.000000
191.059700 456.000000
202.060600 336.000000
203.060700 1204.000000
204.066900 1276.000000
205.075300 1272.000000
215.097400 304.000000
216.105400 456.000000
217.038800 424.000000
217.077300 316.000000
218.046100 696.000000
218.082800 400.000000
225.052300 360.000000
229.076800 584.000000
231.055700 36080.000000
232.058900 5168.000000
233.062700 428.000000
245.106700 1724.000000
246.110200 412.000000
249.065800 6312.000000
250.068800 776.000000
272.083100 628.000000
272.119600 488.000000
273.090600 532.000000
286.134900 344.000000
294.124400 516.000000
312.135000 1816.000000
313.137400 524.000000
314.127900 3160.000000
315.134300 752.000000
332.140100 15520.000000
333.142700 3420.000000

>ms2
136.055400 396.000000
148.054800 1040.000000
155.057700 388.000000
173.062100 408.000000
174.058300 308.000000
174.067500 452.000000
175.065000 848.000000
176.075200 312.000000
187.066600 628.000000
188.036900 772.000000
188.073200 400.000000
189.043900 1160.000000
189.090700 352.000000
191.060400 408.000000
201.079600 748.000000
202.030900 316.000000
203.061400 2900.000000
204.068200 748.000000
205.077300 508.000000
215.025800 612.000000
215.095800 460.000000
216.104600 304.000000
217.039600 368.000000
218.047100 460.000000
225.047000 304.000000
229.076900 592.000000
231.055700 39924.000000
232.058000 7352.000000
233.059900 688.000000
243.056700 312.000000
249.066200 7704.000000
250.069500 992.000000
272.116500 360.000000
312.130000 432.000000
332.139400 1472.000000

