>compound AU51633126
>parentmass 342.0804
>ionization [M+H]+
>formula C18H13ClFN3O
>rt 513.940000
>profile qtof
#smiles_iso C1C2=CN=C(N2C3=C(C=C(C=C3)Cl)C(=N1)C4=CC=CC=C4F)CO
#smiles_can C1C2=CN=C(N2C3=C(C=C(C=C3)Cl)C(=N1)C4=CC=CC=C4F)CO
#inchikey QHSMEGADRFZVNE-UHFFFAOYSA-N
#pubchem_id 107917
#mb_accession AU227701,AU227702,AU227703,AU227704,AU227705,AU227706

>ms2peaks
324.068700 7328.000000
342.080200 983600.000000
343.083100 164984.000000
344.077600 255480.000000

>ms2peaks
203.035700 30268.000000
205.032700 8308.000000
297.058100 7596.000000
324.069500 299700.000000
325.072500 43796.000000
326.066700 73784.000000
327.069500 8448.000000
342.080200 825172.000000
343.083300 146000.000000
344.077600 217260.000000

>ms2peaks
168.066700 46932.000000
169.070000 5408.000000
176.024800 38460.000000
177.028400 4248.000000
178.022100 10324.000000
203.036100 237844.000000
204.039000 24796.000000
205.033000 58632.000000
206.035600 4156.000000
228.031200 3904.000000
249.081900 4112.000000
262.089200 13876.000000
270.047400 8024.000000
277.051800 5040.000000
283.042500 6824.000000
284.049000 3728.000000
288.092500 5116.000000
289.100300 35112.000000
290.102700 5816.000000
296.050800 31468.000000
297.057600 57504.000000
298.057400 11312.000000
299.055300 16340.000000
304.062900 14248.000000
306.059300 3612.000000
307.110100 3904.000000
324.069600 597852.000000
325.072700 93736.000000
326.066700 141748.000000
327.069300 15916.000000
342.079800 105100.000000
343.083200 19044.000000
344.077100 29904.000000

>ms2peaks
121.043900 1128.000000
122.038900 1948.000000
125.014400 3928.000000
127.011300 1644.000000
133.043100 1732.000000
134.038400 1460.000000
136.006500 2292.000000
140.048400 14616.000000
141.056000 25104.000000
142.059300 2784.000000
149.014100 12144.000000
150.010800 2060.000000
151.011300 3292.000000
160.054600 1992.000000
162.009300 6512.000000
163.014600 1768.000000
164.006200 1932.000000
167.059100 2232.000000
168.067100 207016.000000
169.069900 18924.000000
174.008700 1224.000000
176.025000 106044.000000
177.027900 12028.000000
178.021900 25848.000000
179.023800 1800.000000
180.019600 2868.000000
187.004100 1868.000000
187.065700 1944.000000
191.036800 1528.000000
193.061700 5320.000000
194.035000 1456.000000
194.069000 1712.000000
202.028300 2276.000000
203.036200 217944.000000
204.039000 22576.000000
205.033100 54676.000000
206.035000 4272.000000
209.062400 5916.000000
221.062500 2768.000000
222.068700 2032.000000
228.031700 6768.000000
229.037000 1400.000000
230.028800 2344.000000
234.070900 2216.000000
235.078000 16788.000000
236.077200 4728.000000
242.082600 7892.000000
243.089500 3988.000000
244.031700 2808.000000
245.038800 1984.000000
247.066700 1144.000000
248.073400 1728.000000
249.081600 15468.000000
250.084800 3120.000000
256.031400 5284.000000
257.030800 2636.000000
258.029700 2196.000000
258.046500 1248.000000
259.043400 1136.000000
260.073400 1684.000000
261.081600 13308.000000
262.089300 36100.000000
263.036400 1128.000000
263.093200 6344.000000
264.043500 1168.000000
265.052100 2408.000000
268.087000 1544.000000
269.039500 1824.000000
269.093900 5352.000000
270.047300 15072.000000
270.100600 1620.000000
271.047800 3920.000000
272.044300 5508.000000
275.038100 1396.000000
276.044200 1260.000000
277.052100 19132.000000
277.100300 2272.000000
278.054700 3320.000000
279.049600 5404.000000
280.051500 1148.000000
283.042500 26468.000000
284.047800 7340.000000
285.039400 7704.000000
286.045900 2260.000000
288.092400 23072.000000
289.100300 69780.000000
290.103900 11200.000000
291.105900 1132.000000
295.042800 2928.000000
296.050600 52496.000000
297.058100 86684.000000
298.053700 18204.000000
299.055800 24932.000000
300.058600 2772.000000
303.053700 1544.000000
304.063200 29516.000000
305.067200 5848.000000
306.060100 7616.000000
307.042200 1860.000000
307.059800 1128.000000
308.037900 4192.000000
309.043100 2736.000000
310.040800 1276.000000
312.070400 1584.000000
322.053700 5816.000000
323.060000 4952.000000
324.069600 142116.000000
325.072600 25336.000000
326.066800 36636.000000
327.069300 4852.000000
342.079700 3160.000000
344.079400 1196.000000

>ms2peaks
114.046000 2548.000000
117.056500 2252.000000
121.044700 1788.000000
122.039300 1472.000000
125.014400 12908.000000
127.011400 2872.000000
127.040700 2172.000000
128.048000 2720.000000
133.044000 3832.000000
134.039900 2100.000000
136.006300 7280.000000
138.003800 1960.000000
140.048500 40092.000000
141.056200 56388.000000
142.058200 4772.000000
149.014300 25088.000000
150.010200 5688.000000
151.011300 7556.000000
152.007000 2576.000000
160.055000 2116.000000
162.009400 12216.000000
163.006100 2472.000000
163.015200 2844.000000
164.005800 3896.000000
166.051800 1832.000000
167.059100 5788.000000
168.067200 283808.000000
169.070500 24976.000000
174.009600 3664.000000
176.024800 54368.000000
177.026900 7072.000000
178.022100 16544.000000
180.019600 4304.000000
183.059900 2464.000000
187.005500 3300.000000
187.065400 1532.000000
193.061900 7556.000000
194.069500 2444.000000
201.020100 1852.000000
201.056400 1964.000000
202.028100 3756.000000
203.036300 56076.000000
204.038900 5776.000000
205.033000 14684.000000
208.055000 4160.000000
209.062100 10020.000000
210.067500 2028.000000
214.063000 2636.000000
215.071200 1640.000000
221.062700 10704.000000
222.070100 6848.000000
223.067500 1888.000000
228.031300 2512.000000
228.067300 1680.000000
229.074600 1496.000000
230.029000 1548.000000
234.070800 7256.000000
235.078400 27824.000000
236.025600 1556.000000
236.074500 16768.000000
237.078300 2396.000000
241.074900 3288.000000
242.083000 23320.000000
243.089800 9476.000000
244.094200 1640.000000
245.038800 2260.000000
247.067000 4556.000000
248.072400 3560.000000
249.081700 23096.000000
250.039700 2708.000000
250.085000 4464.000000
256.031400 9420.000000
257.028300 7648.000000
258.031300 4028.000000
259.024700 2260.000000
259.040400 1496.000000
260.073800 5664.000000
261.081700 31008.000000
262.088900 39672.000000
263.038600 1640.000000
263.093500 6172.000000
265.051500 2084.000000
268.085900 4272.000000
269.039500 3196.000000
269.093600 6920.000000
270.047000 8160.000000
270.099900 2008.000000
271.043800 2888.000000
272.044500 2792.000000
274.077400 1876.000000
276.044100 3616.000000
277.052100 22584.000000
277.100700 1540.000000
278.054000 4576.000000
279.050000 6392.000000
283.042700 27664.000000
284.047600 7164.000000
285.039800 9416.000000
286.044600 1748.000000
287.083900 1484.000000
288.092600 25536.000000
289.099800 27604.000000
290.103000 4624.000000
295.042700 9032.000000
296.050300 32676.000000
297.057600 35552.000000
298.051500 11200.000000
299.055000 10100.000000
300.055000 1640.000000
303.054400 2500.000000
304.062700 16796.000000
305.067400 3720.000000
306.059900 4828.000000
307.041000 2212.000000
308.037500 6284.000000
309.043700 2460.000000
310.034800 1772.000000
322.053300 7340.000000
323.059800 3356.000000
324.068600 11144.000000
325.071500 2172.000000
326.067000 3604.000000

>ms2peaks
168.066700 46932.000000
169.070000 5408.000000
176.024800 38460.000000
177.028400 4248.000000
178.022100 10324.000000
203.036100 237844.000000
204.039000 24796.000000
205.033000 58632.000000
206.035600 4156.000000
228.031200 3904.000000
249.081900 4112.000000
262.089200 13876.000000
270.047400 8024.000000
277.051800 5040.000000
283.042500 6824.000000
284.049000 3728.000000
288.092500 5116.000000
289.100300 35112.000000
290.102700 5816.000000
296.050800 31468.000000
297.057600 57504.000000
298.057400 11312.000000
299.055300 16340.000000
304.062900 14248.000000
306.059300 3612.000000
307.110100 3904.000000
324.069600 597852.000000
325.072700 93736.000000
326.066700 141748.000000
327.069300 15916.000000
342.079800 105100.000000
343.083200 19044.000000
344.077100 29904.000000

