>compound AU51230981
>parentmass 338.1751
>ionization [M+H]+
>formula C21H23NO3
>rt 419.844000
>profile qtof
#smiles_iso CN(C)CC/C=C\1/C2=CC=CC=C2COC3=C1C=C(C=C3)CC(=O)O
#smiles_can CN(C)CCC=C1C2=CC=CC=C2COC3=C1C=C(C=C3)CC(=O)O
#inchikey JBIMVDZLSHOPLA-LSCVHKIXSA-N
#pubchem_id 5281071
#mb_accession AU221001,AU221002,AU221003,AU221004,AU221005

>ms2peaks
338.179000 2161492.000000
339.181700 450516.000000
340.184100 46000.000000

>ms2peaks
141.070000 18372.000000
165.055400 131576.000000
166.058700 13084.000000
247.113500 179872.000000
248.116600 30916.000000
293.119600 117492.000000
294.122200 21732.000000
338.178300 2241996.000000
339.181200 492964.000000
340.183500 50072.000000

>ms2peaks
115.055000 28376.000000
117.070300 33216.000000
118.073900 3476.000000
119.049900 4020.000000
123.044500 20972.000000
128.062400 6452.000000
129.070300 32336.000000
130.073900 3384.000000
131.049600 8352.000000
137.060400 44084.000000
138.063600 3452.000000
141.070600 80168.000000
142.075700 12648.000000
143.085800 7632.000000
149.060300 4856.000000
161.060300 6612.000000
165.055700 509800.000000
166.058800 40340.000000
167.060600 3460.000000
173.120700 11196.000000
178.078700 3980.000000
179.086100 22204.000000
186.128600 8072.000000
189.055700 11548.000000
191.086300 7720.000000
193.102200 8812.000000
203.086300 5992.000000
204.094000 8944.000000
205.065500 3512.000000
205.102300 17596.000000
206.105900 4032.000000
207.081600 13100.000000
208.092400 4232.000000
209.097600 3460.000000
215.086300 7664.000000
217.102100 5892.000000
219.081900 26120.000000
219.118600 40540.000000
220.085600 5352.000000
220.121900 6344.000000
221.097800 67332.000000
222.100300 9620.000000
229.102700 47592.000000
230.106700 9516.000000
231.082200 8620.000000
232.089800 62648.000000
233.096500 30324.000000
234.105400 61288.000000
235.108700 10932.000000
245.098200 3712.000000
247.114000 671864.000000
248.117200 99504.000000
249.093500 4104.000000
249.125800 15720.000000
252.079700 15820.000000
253.087600 48556.000000
254.090300 8040.000000
257.099400 3828.000000
265.088100 8124.000000
265.123600 4844.000000
275.109000 3856.000000
293.119800 73968.000000
294.122900 14084.000000
338.178200 481380.000000
339.181400 87608.000000
340.184300 10524.000000

>ms2peaks
115.054700 46332.000000
116.058500 4224.000000
117.070400 33452.000000
118.073800 2804.000000
119.049600 14348.000000
120.054100 1840.000000
121.065100 5856.000000
123.044500 61444.000000
124.047900 4112.000000
128.062400 18660.000000
129.070100 36720.000000
130.073500 3668.000000
131.049600 16680.000000
131.085300 1596.000000
132.053700 1752.000000
137.060200 68768.000000
138.063300 4772.000000
141.070400 91400.000000
142.075900 17380.000000
143.085100 6452.000000
145.065100 4300.000000
147.044300 2748.000000
149.060100 4832.000000
153.070100 2920.000000
155.060600 1920.000000
157.065300 1960.000000
158.096600 2884.000000
161.060400 7364.000000
165.055500 312420.000000
166.058900 23580.000000
166.078200 4412.000000
167.060400 2592.000000
167.086000 3188.000000
169.065500 5960.000000
171.105000 1672.000000
172.112200 3088.000000
173.119900 7808.000000
178.078300 27544.000000
179.086300 79540.000000
180.089800 9628.000000
181.100800 2736.000000
186.128000 3164.000000
187.075800 2576.000000
189.055500 12308.000000
189.069800 4300.000000
190.059900 1952.000000
190.078400 8072.000000
191.086500 30972.000000
192.091100 6052.000000
193.101900 20648.000000
194.073800 2432.000000
194.106100 2740.000000
195.081300 2580.000000
202.078500 9512.000000
203.086300 27912.000000
204.094500 56228.000000
205.066100 10644.000000
205.101500 32992.000000
206.073500 10904.000000
206.106400 6264.000000
207.081500 35580.000000
208.087500 8656.000000
209.096700 2560.000000
214.080200 2284.000000
215.086500 24648.000000
216.092500 8760.000000
217.102200 13976.000000
218.073400 13268.000000
218.107900 4400.000000
219.081500 68716.000000
219.118100 56612.000000
220.086500 11500.000000
220.121500 9276.000000
221.097200 65768.000000
222.100500 10304.000000
223.077000 4976.000000
223.110700 1644.000000
225.092400 2716.000000
227.086900 2908.000000
228.094100 15876.000000
229.102700 128944.000000
230.106300 24672.000000
231.081800 38600.000000
231.115900 2276.000000
232.089800 178832.000000
233.095800 57584.000000
234.104600 42420.000000
235.108600 7652.000000
239.072200 1576.000000
245.097300 6632.000000
246.103900 6980.000000
247.113600 278708.000000
248.116700 46012.000000
249.092600 1592.000000
249.122100 4276.000000
252.079400 29728.000000
253.086900 26012.000000
254.089500 4188.000000
257.100700 2500.000000
265.087100 3948.000000
275.109100 1616.000000
278.095600 2880.000000
293.119000 10240.000000
294.122600 2176.000000
338.177000 12728.000000
339.178600 3112.000000

>ms2peaks
115.054600 53064.000000
116.059000 6552.000000
117.070300 22140.000000
118.073900 2548.000000
119.049500 14372.000000
120.056700 3448.000000
121.064800 6040.000000
123.044400 58792.000000
124.047800 3608.000000
127.054300 3144.000000
128.062200 31780.000000
129.070000 30624.000000
130.073600 2872.000000
131.049700 19204.000000
131.085700 1200.000000
132.053300 1444.000000
133.065100 1232.000000
137.060200 42400.000000
138.063500 3520.000000
141.070300 84436.000000
142.075900 15372.000000
143.083900 2516.000000
144.056900 4976.000000
144.081200 1144.000000
145.065200 7364.000000
147.045000 3204.000000
149.060300 2904.000000
152.062800 4228.000000
153.069700 4400.000000
154.077500 1936.000000
155.060700 4116.000000
155.085400 1228.000000
156.079500 868.000000
157.065500 1948.000000
158.097000 2108.000000
159.080300 1420.000000
161.060000 3336.000000
165.055300 79580.000000
165.070100 17504.000000
166.058200 8032.000000
166.077300 10000.000000
167.084900 4880.000000
168.091500 1044.000000
169.065900 4608.000000
170.097400 1908.000000
171.105600 1160.000000
172.112100 2356.000000
173.120300 2412.000000
176.062100 1172.000000
177.070500 3556.000000
178.078600 79020.000000
179.086200 113704.000000
180.089800 15712.000000
181.065000 2672.000000
181.099800 2712.000000
183.081500 928.000000
189.055300 9384.000000
189.070400 21172.000000
190.078100 28988.000000
191.086300 64268.000000
192.091400 13180.000000
193.065300 1560.000000
193.102100 15700.000000
194.073500 4704.000000
194.105300 2548.000000
195.080400 3372.000000
201.071000 1736.000000
202.078800 35880.000000
203.086500 85364.000000
204.094300 99540.000000
205.065500 19848.000000
205.100900 37560.000000
206.072900 15232.000000
206.107000 5736.000000
207.081600 59620.000000
208.086200 11880.000000
209.093900 1988.000000
213.072300 1160.000000
214.078700 6160.000000
215.086700 56024.000000
216.091900 14044.000000
217.066700 1040.000000
217.101900 17264.000000
218.074100 22352.000000
218.107100 5076.000000
219.081600 75524.000000
219.118200 21520.000000
220.086600 17888.000000
220.120800 4148.000000
221.097000 22876.000000
222.100400 3832.000000
223.076900 1900.000000
224.083800 876.000000
226.078800 2540.000000
227.086400 12496.000000
228.094500 47124.000000
229.102500 116796.000000
230.105900 19432.000000
231.082000 108236.000000
232.089300 167128.000000
233.095500 49080.000000
234.103300 18604.000000
235.108500 2736.000000
236.085000 1052.000000
239.072600 1532.000000
245.097400 7680.000000
246.105500 6916.000000
247.113200 42708.000000
248.116700 8236.000000
252.079400 20760.000000
253.084500 5776.000000
257.103100 896.000000
263.071600 1040.000000
265.088800 1040.000000
277.086500 1912.000000
278.092700 912.000000
293.118100 844.000000

