>compound AU52528974
>parentmass 399.0969
>ionization [M+H]+
>formula C15H18N4O7S
>rt 344.750000
>profile qtof
#smiles_iso CCCOC1=NN(C(=O)N1C)C(=O)NS(=O)(=O)C2=CC=CC=C2C(=O)OC
#smiles_can CCCOC1=NN(C(=O)N1C)C(=O)NS(=O)(=O)C2=CC=CC=C2C(=O)OC
#inchikey JTHMVYBOQLDDIY-UHFFFAOYSA-N
#pubchem_id 177355
#mb_accession AU252801,AU252802,AU252803,AU252804,AU252805,AU252806

>ms2peaks
116.046400 300.000000
158.091300 4748.000000
159.095500 416.000000
199.004700 4192.000000
200.009000 556.000000
212.146000 376.000000
215.112400 416.000000
325.019800 372.000000
367.070300 4644.000000
368.073600 824.000000
399.094400 1660.000000
400.107400 324.000000

>ms2peaks
116.045800 752.000000
135.043300 448.000000
158.091000 3336.000000
159.093000 304.000000
168.995800 304.000000
199.005100 5032.000000
200.007100 792.000000
209.984600 2412.000000
210.988600 372.000000
282.014400 348.000000
325.024900 356.000000
367.077900 360.000000

>ms2peaks
116.044600 1496.000000
133.085700 416.000000
135.043400 1420.000000
158.091000 1120.000000
168.994800 488.000000
199.005600 3816.000000
200.007800 524.000000
209.983600 2192.000000
210.987800 504.000000
224.999200 348.000000

>ms2peaks
116.045800 1780.000000
135.042800 2156.000000
136.047200 344.000000
146.021700 612.000000
158.094100 352.000000
168.993600 344.000000
199.005000 3496.000000
200.009100 344.000000
209.983800 876.000000

>ms2peaks
116.044500 1220.000000
135.042500 1420.000000
136.046600 316.000000
146.021900 624.000000
199.003400 896.000000

>ms2peaks
116.045500 2020.000000
117.050500 432.000000
133.085100 428.000000
135.044200 1560.000000
146.022900 324.000000
158.092600 2568.000000
168.995400 488.000000
199.006500 4396.000000
200.008900 680.000000
201.007000 324.000000
209.985200 2424.000000
210.987200 500.000000
227.996000 408.000000
282.018800 964.000000
325.018800 308.000000

