>compound AU52369529
>parentmass 238.0993
>ionization [M+H]+
>formula C13H16ClNO
>rt 273.770000
>profile qtof
#smiles_iso CNC1(CCCCC1=O)C2=CC=CC=C2Cl
#smiles_can CNC1(CCCCC1=O)C2=CC=CC=C2Cl
#inchikey YQEZLKZALYSWHR-UHFFFAOYSA-N
#pubchem_id 3821
#mb_accession AU158601,AU158602,AU158603,AU158604,AU158605,AU158606

>ms2
125.014500 54164.000000
127.011300 15332.000000
179.061300 105832.000000
181.058300 26612.000000
207.056700 319056.000000
208.059800 31540.000000
209.053500 82324.000000
220.088200 166964.000000
221.091200 20892.000000
222.085100 42784.000000
238.099600 2511456.000000
239.102300 405984.000000
240.096300 1073256.000000

>ms2
125.014500 634504.000000
126.017800 37152.000000
127.011500 152532.000000
128.014500 6660.000000
128.061000 7500.000000
129.068800 3972.000000
138.993400 6024.000000
141.008800 16360.000000
143.006100 4280.000000
143.084800 6156.000000
144.092100 9092.000000
149.013800 5376.000000
151.029700 25564.000000
152.024900 42712.000000
153.027200 10488.000000
153.068500 13188.000000
154.022100 11980.000000
154.076200 16604.000000
156.091800 3764.000000
157.087200 3228.000000
163.029800 109368.000000
164.032900 9364.000000
165.008700 32036.000000
165.026800 29696.000000
165.045300 16772.000000
167.006200 9236.000000
167.042500 4392.000000
172.087400 3408.000000
177.045200 3388.000000
179.061300 591316.000000
180.064700 53920.000000
181.058300 127336.000000
182.060900 9372.000000
185.118700 7676.000000
189.045400 67896.000000
190.048600 9500.000000
191.042400 22264.000000
191.060300 6504.000000
192.055500 4356.000000
207.056400 412084.000000
208.059600 42944.000000
209.053500 102748.000000
220.088100 374584.000000
221.091200 41728.000000
222.085100 90520.000000
223.088700 8868.000000
238.098700 189700.000000
239.101500 24852.000000
240.095700 54056.000000

>ms2
115.053600 21612.000000
116.060800 12172.000000
125.014600 1779480.000000
126.017900 99868.000000
127.011600 447508.000000
128.014700 17748.000000
128.061100 71648.000000
129.068700 46340.000000
130.076300 33040.000000
138.993300 13188.000000
141.009000 43472.000000
142.075900 9316.000000
143.005900 13876.000000
143.084500 20428.000000
144.092300 48220.000000
145.063400 11336.000000
149.014300 24388.000000
151.029800 101096.000000
152.025200 64984.000000
152.061100 10720.000000
153.026900 31756.000000
153.068700 59428.000000
154.022200 18916.000000
154.076600 92648.000000
155.059000 20212.000000
155.081400 12876.000000
156.092200 19912.000000
157.087600 16500.000000
163.029900 194876.000000
164.033500 21432.000000
165.009200 82040.000000
165.026900 49756.000000
165.045400 35512.000000
167.006000 23576.000000
167.042400 13016.000000
172.087000 9412.000000
179.061300 155152.000000
180.064200 18144.000000
181.058300 44600.000000
189.045500 41032.000000
191.042600 12276.000000
207.056300 36384.000000
209.053700 9644.000000
220.088000 66360.000000
221.091200 9948.000000
222.085200 20764.000000

>ms2
115.053600 58364.000000
116.060700 33412.000000
125.014400 1318856.000000
126.017700 71844.000000
127.011400 321668.000000
128.014500 13240.000000
128.061100 140360.000000
129.068500 105284.000000
130.075900 49776.000000
138.993300 6848.000000
141.008800 26924.000000
141.068700 16608.000000
142.075900 12068.000000
143.005600 8932.000000
143.083700 12732.000000
144.056300 9756.000000
144.091900 21284.000000
145.063300 15980.000000
149.014000 18448.000000
151.029600 51324.000000
152.025000 35844.000000
152.060800 28928.000000
153.026600 16384.000000
153.068400 64700.000000
154.021900 10796.000000
154.076200 56396.000000
155.058700 28328.000000
155.081200 10652.000000
156.091500 9392.000000
157.087400 12228.000000
163.029700 61376.000000
164.033800 7116.000000
165.008900 67092.000000
165.026800 16640.000000
165.045000 11076.000000
166.012700 6640.000000
167.005800 19576.000000
179.061100 9800.000000

>ms2
115.053700 95596.000000
116.061100 37976.000000
117.064100 4460.000000
125.014400 811844.000000
126.017600 46580.000000
126.045500 6272.000000
127.011500 211948.000000
127.053000 19468.000000
128.061200 195676.000000
129.068500 104576.000000
130.075300 26748.000000
138.994300 4660.000000
141.008900 12288.000000
141.068800 21252.000000
142.075300 7544.000000
143.084200 4972.000000
144.055800 11272.000000
145.063300 16744.000000
149.014100 17172.000000
151.011300 4500.000000
151.029600 9680.000000
152.024800 11240.000000
152.060700 38584.000000
153.068400 58452.000000
154.075500 22528.000000
155.059100 31396.000000
155.082500 5128.000000
157.087300 5544.000000
162.021600 4844.000000
163.029500 13308.000000
165.008800 36524.000000
167.005800 11036.000000

>ms2
67.053500 83804.000000
68.056500 5404.000000
86.095900 69276.000000
95.048600 6664.000000
115.053900 9572.000000
116.061800 6120.000000
125.015500 945696.000000
126.018600 53128.000000
127.012500 242960.000000
128.015300 7444.000000
128.061700 19328.000000
129.069300 12844.000000
130.077300 9512.000000
138.993900 6196.000000
141.009900 18424.000000
143.007100 5424.000000
143.085300 8864.000000
144.092800 18532.000000
149.014700 9492.000000
151.030500 44848.000000
152.026000 37320.000000
153.028300 12832.000000
153.069200 19356.000000
154.022700 9104.000000
154.077100 31960.000000
156.092400 7976.000000
157.088500 5424.000000
163.030800 104552.000000
164.034200 8948.000000
165.009900 32928.000000
165.027600 24688.000000
165.046400 16024.000000
167.006500 9976.000000
167.043300 5132.000000
179.062200 263524.000000
180.065200 25852.000000
181.059200 64700.000000
189.046400 43380.000000
190.049700 5080.000000
191.043600 11348.000000
191.061600 5320.000000
207.057600 205440.000000
208.060500 18848.000000
209.054400 48520.000000
220.089300 197824.000000
221.092500 22752.000000
222.086000 51960.000000
238.099900 128928.000000
239.103700 13548.000000
240.096900 35408.000000

