>compound AU52165489
>parentmass 217.0794
>ionization [M+H]+
>formula C12H12N2S
>rt 372.770000
>profile qtof
#smiles_iso C1=CC(=CC=C1N)SC2=CC=C(C=C2)N
#smiles_can C1=CC(=CC=C1N)SC2=CC=C(C=C2)N
#inchikey ICNFHJVPAJKPHW-UHFFFAOYSA-N
#pubchem_id 8765
#mb_accession AU242901,AU242902,AU242903,AU242904,AU242905,AU242906

>ms2peaks
124.020400 15980.000000
200.051200 2844.000000
216.070500 52260.000000
217.078800 400632.000000
218.081600 46460.000000
219.074800 14404.000000

>ms2peaks
123.012200 1728.000000
124.020300 118148.000000
125.023300 8656.000000
126.015900 4792.000000
139.052800 3488.000000
156.078600 1888.000000
167.071400 9980.000000
168.075400 1172.000000
171.025000 1764.000000
173.040200 1844.000000
183.024700 9952.000000
183.089900 5192.000000
184.032000 8320.000000
184.097600 22900.000000
185.035600 1468.000000
185.101000 3404.000000
199.043700 22528.000000
200.051200 55452.000000
201.054500 8008.000000
202.047000 3032.000000
211.031100 7168.000000
212.033700 988.000000
215.061800 10204.000000
216.070200 50580.000000
217.078100 195528.000000
218.081100 27248.000000
219.074800 8096.000000

>ms2peaks
123.012300 2572.000000
124.020600 90408.000000
125.023500 6900.000000
126.016000 4084.000000
128.061200 744.000000
129.069000 2076.000000
130.065900 760.000000
134.016700 1020.000000
139.052700 18080.000000
140.056700 1996.000000
143.071100 460.000000
154.062700 920.000000
156.079100 8260.000000
157.083000 1108.000000
159.025200 576.000000
166.063300 2392.000000
167.071600 21296.000000
168.074900 3128.000000
171.024500 3956.000000
171.090400 776.000000
172.031700 2612.000000
173.038900 1396.000000
181.074600 472.000000
182.082900 2136.000000
183.024600 18748.000000
183.089900 7292.000000
184.032300 21472.000000
184.097900 31372.000000
185.035200 3072.000000
185.101200 4340.000000
186.028800 1076.000000
188.051200 568.000000
198.036300 3144.000000
199.043800 54064.000000
200.050500 21424.000000
202.044300 1036.000000
211.031300 7804.000000
212.034400 1572.000000
213.031500 500.000000
214.054500 1284.000000
215.062400 9612.000000
216.070300 12348.000000
217.077300 8520.000000
218.080100 1412.000000
219.076900 484.000000

>ms2peaks
115.053800 1088.000000
117.056400 724.000000
122.005400 492.000000
123.012900 4620.000000
124.020600 66700.000000
125.023700 4844.000000
126.016900 2940.000000
127.054200 456.000000
128.061300 3056.000000
129.068800 1676.000000
130.065100 2456.000000
134.017000 1028.000000
138.046800 368.000000
139.053200 35860.000000
140.056800 6764.000000
141.057600 844.000000
143.071700 1128.000000
146.018000 400.000000
147.025100 1600.000000
150.045500 380.000000
152.060100 2736.000000
154.064400 3064.000000
155.060900 752.000000
156.079600 11168.000000
157.084800 1960.000000
158.017000 596.000000
158.084900 744.000000
159.022500 436.000000
165.056600 516.000000
166.063600 7852.000000
167.071700 18748.000000
168.075900 3032.000000
169.075800 784.000000
171.025200 9432.000000
171.090400 756.000000
172.032400 7604.000000
173.037200 1360.000000
175.041800 480.000000
181.075800 512.000000
182.018300 1968.000000
182.082400 2200.000000
183.025600 8636.000000
183.090700 6412.000000
184.032700 18036.000000
184.098500 22168.000000
185.035700 2500.000000
185.102000 3152.000000
186.029100 992.000000
198.035700 8308.000000
199.044100 40464.000000
200.048100 7300.000000
201.039700 2564.000000
211.031400 2160.000000
214.056200 2572.000000
215.062900 3384.000000
216.069600 2124.000000
217.074700 512.000000

>ms2peaks
115.052800 900.000000
117.056300 800.000000
122.005300 444.000000
123.013000 5340.000000
124.020400 33276.000000
125.024100 2940.000000
126.016100 1480.000000
126.045100 372.000000
127.053200 1164.000000
128.061000 5084.000000
129.067900 1784.000000
130.064100 3960.000000
131.067100 476.000000
134.016900 700.000000
136.019800 360.000000
137.038100 400.000000
138.044300 968.000000
139.052900 36500.000000
140.056100 6960.000000
141.058400 680.000000
142.062900 520.000000
143.072000 1212.000000
144.080800 320.000000
146.016600 700.000000
147.024400 1788.000000
149.028700 976.000000
150.044600 912.000000
151.052500 496.000000
152.060700 4692.000000
153.057500 588.000000
153.065600 832.000000
154.063200 4356.000000
155.059000 1640.000000
156.078900 7860.000000
157.083900 1332.000000
158.015800 808.000000
158.083600 524.000000
162.036100 320.000000
164.051900 336.000000
165.055900 876.000000
166.063700 7700.000000
167.071100 10156.000000
168.075000 1480.000000
170.016500 336.000000
171.024600 19304.000000
172.031700 6864.000000
173.020100 836.000000
173.034800 1192.000000
174.033600 352.000000
179.061200 348.000000
181.075100 1396.000000
182.017300 3508.000000
182.081000 2116.000000
183.024600 2956.000000
183.090200 3340.000000
184.032500 8188.000000
184.097900 9380.000000
185.019700 320.000000
185.036000 1348.000000
185.101000 1260.000000
187.041400 324.000000
196.020300 508.000000
197.027700 868.000000
198.035700 7280.000000
199.043300 12536.000000
200.046100 2352.000000
201.039700 720.000000
213.047600 328.000000
214.053700 1784.000000

>ms2peaks
80.049300 2156.000000
93.057200 1156.000000
123.013700 1032.000000
124.021200 109860.000000
125.024200 7352.000000
126.017100 3816.000000
129.069200 992.000000
139.053700 5508.000000
156.079900 3520.000000
166.066400 1284.000000
167.072000 14012.000000
168.075900 1304.000000
171.025600 1776.000000
173.042100 1396.000000
182.083400 1176.000000
183.025500 11392.000000
183.090800 6168.000000
184.033300 12496.000000
184.098900 25536.000000
185.036400 1636.000000
185.101800 3452.000000
198.037300 1016.000000
199.044500 43388.000000
200.051400 25572.000000
201.039200 3080.000000
201.053100 3312.000000
202.045700 928.000000
211.031900 7468.000000
212.035100 960.000000
215.063500 12276.000000
216.071300 48124.000000
217.079200 150012.000000
218.082300 16196.000000
219.076500 4504.000000

