>compound AU53803665
>parentmass 293.1051
>ionization [M+H]+
>formula C15H17ClN2O2
>rt 587.690000
>profile qtof
#smiles_iso CC(C)(C)C(=O)C(N1C=CN=C1)OC2=CC=C(C=C2)Cl
#smiles_can CC(C)(C)C(=O)C(N1C=CN=C1)OC2=CC=C(C=C2)Cl
#inchikey OWEGWHBOCFMBLP-UHFFFAOYSA-N
#pubchem_id 37907
#mb_accession AU236401,AU236402,AU236403,AU236404,AU236405,AU236406

>ms2peaks
137.106200 14960.000000
166.108800 30908.000000
197.072000 218040.000000
198.075000 22952.000000
199.068900 55360.000000
225.067100 58324.000000
227.064100 14600.000000
293.105900 2511240.000000
294.108400 691928.000000
295.102500 1260304.000000

>ms2peaks
115.074700 15012.000000
126.993500 13908.000000
129.009200 93428.000000
131.006300 24484.000000
137.106200 41240.000000
141.009000 154012.000000
142.012700 11640.000000
143.006000 39936.000000
155.024500 78284.000000
157.021200 18560.000000
161.094800 13900.000000
166.108900 89376.000000
197.071900 1833680.000000
198.075300 200552.000000
199.069000 438480.000000
200.072100 27960.000000
225.066900 91996.000000
226.070300 12664.000000
227.064100 25268.000000
293.104700 475104.000000
294.107900 82900.000000
295.101800 128048.000000

>ms2peaks
113.014400 2160.000000
120.055800 1464.000000
121.063600 1724.000000
125.014100 1656.000000
126.993600 92192.000000
127.996900 5716.000000
128.990500 24360.000000
129.009400 116920.000000
129.994200 1180.000000
130.012700 7312.000000
131.006200 33084.000000
132.009400 1232.000000
133.100600 1288.000000
137.106500 10196.000000
141.009200 233620.000000
142.012500 16980.000000
143.006200 56772.000000
144.009700 2552.000000
144.092900 1476.000000
146.070900 1320.000000
147.079300 4292.000000
153.045800 1720.000000
155.024700 108676.000000
156.027800 9324.000000
157.021400 25452.000000
161.094900 13304.000000
162.101200 5148.000000
166.109100 5504.000000
175.074800 2480.000000
179.061500 1984.000000
181.057100 1208.000000
190.097600 7144.000000
191.102000 1200.000000
197.071900 220788.000000
198.074800 25276.000000
199.068900 56836.000000
200.072000 4208.000000
225.067600 1860.000000
293.104300 2600.000000

>ms2peaks
110.999300 3776.000000
113.015400 2348.000000
119.048500 2120.000000
119.085400 752.000000
120.056600 3468.000000
121.061800 1060.000000
125.014400 2156.000000
126.993800 85812.000000
127.030200 5600.000000
127.996800 6244.000000
128.060900 864.000000
128.990700 25952.000000
129.009200 45732.000000
129.994200 1344.000000
130.012600 3808.000000
131.006200 16032.000000
132.056000 716.000000
133.064000 1412.000000
133.100700 1152.000000
137.013800 1580.000000
137.106900 2144.000000
139.005200 1876.000000
139.031700 556.000000
141.009300 109072.000000
142.012600 8540.000000
143.006300 26676.000000
144.009400 1468.000000
144.091700 1532.000000
145.063600 708.000000
146.071500 2816.000000
147.079200 7660.000000
148.083600 904.000000
151.086500 636.000000
155.024500 46312.000000
156.028100 3992.000000
157.021700 12656.000000
161.094900 3712.000000
162.103200 2512.000000
170.095400 1364.000000
175.074400 6032.000000
176.076200 652.000000
179.059400 676.000000
184.111800 568.000000
190.097300 2928.000000
197.072000 7612.000000
198.075300 1316.000000
199.068200 2108.000000

>ms2peaks
110.999000 4808.000000
112.002700 576.000000
112.996200 2540.000000
113.014100 1352.000000
115.010100 512.000000
115.054200 832.000000
117.071200 372.000000
119.047900 1720.000000
119.084700 1300.000000
120.056300 3468.000000
121.027800 444.000000
121.074600 440.000000
122.082100 320.000000
125.013800 2288.000000
126.017700 512.000000
126.993400 36540.000000
127.029600 3084.000000
127.997800 3264.000000
128.060600 1192.000000
128.990700 10972.000000
129.009000 12928.000000
129.068300 1868.000000
129.995200 616.000000
130.012200 1208.000000
130.071700 360.000000
131.006200 4860.000000
131.048600 1004.000000
132.009900 332.000000
132.054100 584.000000
133.063700 748.000000
133.100000 720.000000
137.014500 1564.000000
137.105500 364.000000
139.005100 1924.000000
140.010000 452.000000
141.008700 32336.000000
142.012600 2476.000000
143.006500 10220.000000
144.009400 668.000000
144.092800 376.000000
145.062700 1100.000000
146.071200 1180.000000
147.041300 324.000000
147.079200 3796.000000
155.024700 9260.000000
156.028100 1124.000000
157.021500 2924.000000
161.094300 896.000000
167.073400 300.000000
170.095000 696.000000
175.074400 5552.000000
176.076700 824.000000
184.112200 600.000000
190.098600 324.000000

>ms2peaks
55.053900 9364.000000
57.069500 365976.000000
58.072800 13148.000000
67.053800 10660.000000
69.069700 1170944.000000
70.075400 66644.000000
81.044300 6760.000000
82.052200 67468.000000
85.064600 7092.000000
99.000100 9172.000000
103.031400 8012.000000
109.040700 47436.000000
113.016300 9444.000000
115.076900 55996.000000
126.994400 58808.000000
128.991000 16280.000000
129.010000 98276.000000
131.006900 26276.000000
137.106900 17388.000000
141.009700 143024.000000
142.012800 9620.000000
143.006400 34788.000000
155.025000 63468.000000
156.028600 6004.000000
157.021900 19248.000000
161.095300 11548.000000
166.109100 26160.000000
197.072200 573268.000000
198.075800 73524.000000
199.069500 162352.000000
200.072700 10976.000000
225.067300 26556.000000
293.105300 122440.000000
294.108400 22012.000000
295.102900 40016.000000

