>compound AU53357149
>parentmass 431.2428
>ionization [M+H]+
>formula C25H34O6
>rt 619.120000
>profile qtof
#smiles_iso CCC[C@@H]1O[C@@H]2C[C@H]3[C@@H]4CCC5=CC(=O)C=C[C@@]5([C@H]4[C@H](C[C@@]3([C@@]2(O1)C(=O)CO)C)O)C
#smiles_can CCCC1OC2CC3C4CCC5=CC(=O)C=CC5(C4C(CC3(C2(O1)C(=O)CO)C)O)C
#inchikey VOVIALXJUBGFJZ-VXKMTNQYSA-N
#pubchem_id 40000
#mb_accession AU282201,AU282202,AU282203,AU282204,AU282205,AU282206

>ms2peaks
119.084500 12776.000000
135.079500 4328.000000
147.079200 12732.000000
171.079300 4992.000000
173.094500 11944.000000
223.110800 2836.000000
225.126300 8244.000000
226.132300 2956.000000
227.141500 10876.000000
239.142700 3272.000000
241.158200 3372.000000
263.142000 13192.000000
264.144500 3292.000000
265.157100 5988.000000
267.174000 5024.000000
277.157600 7644.000000
278.160900 2684.000000
279.172500 3684.000000
281.137900 15632.000000
282.141400 2428.000000
283.168100 4500.000000
289.158100 5408.000000
293.152400 3524.000000
295.115500 2768.000000
295.168000 17044.000000
296.172300 3764.000000
305.152800 20712.000000
306.156400 5032.000000
307.168200 17536.000000
308.172100 4340.000000
313.178800 5704.000000
323.163200 84476.000000
324.166600 18988.000000
325.178900 31072.000000
326.182100 8500.000000
327.192200 3400.000000
339.157900 7548.000000
341.174300 64912.000000
342.177400 15000.000000
343.188700 9984.000000
344.193600 2564.000000
377.209900 3500.000000
395.220800 18492.000000
396.224900 6388.000000
413.232000 476612.000000
414.234900 101512.000000
415.211100 160320.000000
416.214500 35004.000000
417.216700 4000.000000
431.242600 353772.000000
432.245100 89836.000000
433.247000 14440.000000

>ms2peaks
119.085400 2196.000000
121.063900 11684.000000
123.079300 1960.000000
131.084800 1992.000000
133.064100 1856.000000
135.079400 11572.000000
137.058900 4136.000000
139.074500 3320.000000
143.084700 1592.000000
145.063700 2696.000000
145.099900 1852.000000
147.079400 97856.000000
148.082600 8924.000000
149.058100 2160.000000
149.094000 1800.000000
151.074900 2984.000000
155.068900 8416.000000
157.099200 1852.000000
159.079700 8316.000000
161.095200 9708.000000
162.098100 1744.000000
163.074300 10732.000000
164.077600 1784.000000
165.089600 5136.000000
169.084500 1752.000000
171.079200 37544.000000
172.082500 4396.000000
173.094900 92180.000000
174.097900 10896.000000
175.109700 2764.000000
177.089700 3288.000000
179.104400 1996.000000
181.084300 3672.000000
185.094900 8736.000000
186.098200 1700.000000
187.074100 2780.000000
187.110400 10508.000000
188.114400 1784.000000
189.090400 1980.000000
197.095400 8556.000000
199.110600 9300.000000
201.089600 3560.000000
201.125500 1712.000000
203.106000 1756.000000
209.095200 5264.000000
211.111400 10396.000000
212.115300 1596.000000
213.090600 2748.000000
213.126400 7044.000000
215.104900 2108.000000
221.095000 4552.000000
223.111000 16932.000000
224.116100 3740.000000
225.126500 58336.000000
226.133300 30876.000000
227.105900 3464.000000
227.141800 42924.000000
228.146100 6888.000000
235.110500 6768.000000
237.126600 22312.000000
238.129900 4432.000000
239.105900 1924.000000
239.142000 20832.000000
240.144800 4132.000000
241.157900 12932.000000
242.160500 2604.000000
243.137700 3852.000000
247.110100 2856.000000
248.118000 1752.000000
249.126600 10620.000000
250.130300 2516.000000
251.142100 11804.000000
252.146400 2488.000000
253.121200 2724.000000
253.158200 7556.000000
255.137500 4960.000000
261.126700 9892.000000
262.131900 3532.000000
263.106500 2212.000000
263.142700 39912.000000
264.147100 10068.000000
265.121800 2792.000000
265.157700 44608.000000
266.161300 10028.000000
267.137700 5928.000000
267.173800 14608.000000
268.176900 3156.000000
269.153100 3244.000000
275.142300 9212.000000
276.145700 1940.000000
277.122300 2880.000000
277.158200 50220.000000
278.161400 10364.000000
279.137000 10736.000000
279.173200 7820.000000
280.142100 3156.000000
280.179200 2176.000000
281.152900 17348.000000
281.188500 3340.000000
282.156200 4760.000000
283.168300 20592.000000
284.172000 3420.000000
287.142200 17000.000000
288.146000 3648.000000
289.158300 11152.000000
290.160300 2756.000000
293.152800 15080.000000
293.189200 1904.000000
294.156600 3708.000000
295.168900 51400.000000
296.172200 11064.000000
297.147700 3496.000000
297.181100 2184.000000
303.138300 1776.000000
305.153100 65248.000000
306.156300 16340.000000
307.168800 20728.000000
308.172400 5584.000000
309.185400 1616.000000
311.163900 6160.000000
312.167300 1652.000000
313.179200 8992.000000
314.182000 2092.000000
321.148300 3032.000000
323.164100 164172.000000
324.167500 35828.000000
325.178700 28116.000000
326.182100 6936.000000
327.191200 2332.000000
339.158600 3380.000000
341.174600 51348.000000
342.177600 12064.000000
343.189400 8000.000000
344.193200 1932.000000
377.211300 3764.000000
395.221000 11284.000000
396.224200 2816.000000
413.232500 315384.000000
414.235500 79940.000000
415.238700 11632.000000
431.241800 4356.000000

>ms2peaks
115.054200 1100.000000
117.069500 1924.000000
119.084900 7940.000000
120.088000 1260.000000
121.064100 28968.000000
122.067500 2172.000000
123.080300 2172.000000
125.059500 1608.000000
128.062100 1604.000000
129.068600 2356.000000
131.048000 1148.000000
131.084500 4684.000000
132.055800 3220.000000
133.063400 4976.000000
133.100500 2996.000000
135.079300 26160.000000
136.083100 2496.000000
137.058500 9548.000000
137.094500 896.000000
139.074500 6060.000000
141.053600 976.000000
143.084600 4876.000000
144.088400 960.000000
145.063900 7880.000000
145.100200 4968.000000
147.079500 177356.000000
148.082700 16216.000000
149.058700 4224.000000
149.094800 3820.000000
151.074100 4552.000000
153.090000 1348.000000
155.069100 8852.000000
155.084000 2420.000000
157.063800 1464.000000
157.100100 5156.000000
158.071600 5704.000000
159.079200 26932.000000
159.115600 1784.000000
160.083700 3652.000000
161.094900 21412.000000
162.098900 2308.000000
163.074500 14752.000000
164.077000 1688.000000
165.090400 2904.000000
167.068500 2024.000000
167.083000 988.000000
169.085800 1240.000000
169.100200 1900.000000
171.079500 80656.000000
172.082800 10524.000000
173.095200 148684.000000
174.098100 16900.000000
175.074000 1652.000000
175.110300 4732.000000
177.089800 3376.000000
179.084300 1216.000000
179.106500 1304.000000
181.085400 4048.000000
181.098000 1436.000000
183.079300 3796.000000
184.086700 1048.000000
185.095100 23244.000000
186.099100 3764.000000
187.074500 3872.000000
187.111000 13740.000000
188.113300 2088.000000
189.089700 3368.000000
191.105200 1328.000000
193.100200 1788.000000
195.079300 3632.000000
195.116600 1268.000000
196.085300 1772.000000
197.095200 16604.000000
197.131700 1032.000000
198.100400 4840.000000
199.074000 1524.000000
199.110800 16984.000000
200.114900 2504.000000
201.090300 4728.000000
201.126000 1716.000000
203.105800 2036.000000
205.100000 1164.000000
205.121300 1108.000000
207.116400 3868.000000
208.087500 2252.000000
208.120100 1136.000000
209.095300 12080.000000
209.131800 1660.000000
210.102100 6272.000000
211.073400 1432.000000
211.110800 19416.000000
212.115800 4316.000000
213.091200 4000.000000
213.126900 13108.000000
214.094800 936.000000
214.130500 2368.000000
215.105900 3360.000000
215.142400 1568.000000
219.101600 1212.000000
219.114700 1448.000000
221.095300 10200.000000
221.130700 1828.000000
222.101800 5608.000000
223.110700 25088.000000
224.116900 7712.000000
225.126800 88796.000000
226.133900 64420.000000
227.106800 3576.000000
227.141700 55788.000000
228.145100 9000.000000
229.083900 1116.000000
229.120600 908.000000
229.152700 1004.000000
231.116300 896.000000
233.094900 1740.000000
233.131100 1172.000000
234.103300 2304.000000
235.110900 15748.000000
235.146700 1636.000000
236.116600 4728.000000
237.126700 37468.000000
238.130400 7520.000000
239.105100 3896.000000
239.142200 33032.000000
240.145700 6800.000000
241.120400 1560.000000
241.157800 13360.000000
242.161300 2528.000000
243.137500 2296.000000
244.122600 1044.000000
245.096000 1496.000000
245.129700 1260.000000
246.103200 1980.000000
247.110600 5140.000000
247.147100 1716.000000
248.117900 7004.000000
249.092800 1100.000000
249.126600 18972.000000
249.162500 1488.000000
250.131900 5020.000000
251.106400 1924.000000
251.142000 19284.000000
252.146000 4976.000000
253.119900 3736.000000
253.157700 8788.000000
254.124600 960.000000
254.162000 2136.000000
255.136700 4728.000000
255.173200 1192.000000
256.141400 1016.000000
258.100400 1348.000000
259.110800 2160.000000
259.148200 2948.000000
260.118100 2552.000000
261.126400 11404.000000
262.133700 10292.000000
263.105900 3872.000000
263.142200 42592.000000
264.111000 1712.000000
264.148600 16320.000000
265.121000 3816.000000
265.158600 58940.000000
266.162100 13648.000000
267.099600 1456.000000
267.137300 6396.000000
267.172900 8260.000000
268.140800 1324.000000
268.176600 1768.000000
269.150100 2080.000000
272.119500 4100.000000
273.124200 1300.000000
274.132300 2424.000000
275.142200 10572.000000
276.113600 1360.000000
276.146800 2676.000000
277.121300 4168.000000
277.158100 47900.000000
278.124400 1576.000000
278.161300 12752.000000
279.136800 9596.000000
279.171700 4136.000000
280.143300 3720.000000
280.180000 1124.000000
281.117200 904.000000
281.152600 16196.000000
281.190800 1356.000000
282.157000 4164.000000
283.168000 15320.000000
284.171000 3300.000000
287.142400 16044.000000
288.145300 3924.000000
289.157100 4616.000000
290.129700 2428.000000
290.161400 1544.000000
291.135700 1088.000000
292.142800 2016.000000
293.153100 10104.000000
293.188900 1752.000000
294.156300 3416.000000
295.133600 1484.000000
295.168600 24676.000000
296.171900 6584.000000
297.148400 1976.000000
297.179900 936.000000
299.162700 1244.000000
303.138400 1064.000000
305.153100 36080.000000
306.157300 7332.000000
307.168100 5952.000000
308.172300 1284.000000
311.165500 1952.000000
313.179300 3216.000000
314.181400 1296.000000
321.146800 892.000000
323.163900 46172.000000
324.166900 10760.000000
325.177900 4536.000000
326.183800 920.000000
341.173800 8444.000000
342.177600 2252.000000
377.216100 932.000000
413.231900 36968.000000
414.235000 11988.000000
415.238200 1572.000000

>ms2peaks
115.053500 3644.000000
117.069300 3252.000000
119.084800 20240.000000
120.087600 2524.000000
121.063900 40104.000000
122.067700 2956.000000
123.079300 2464.000000
128.061000 3788.000000
129.068900 5308.000000
130.075700 1776.000000
131.048200 2568.000000
131.084400 7972.000000
132.055700 5012.000000
132.087600 900.000000
133.063500 5844.000000
133.100400 3108.000000
134.066900 880.000000
135.079600 38536.000000
136.082500 3576.000000
137.058500 6788.000000
139.074300 3828.000000
141.053900 1028.000000
141.069400 2824.000000
142.075800 2484.000000
143.085000 7892.000000
144.055800 1556.000000
144.088300 1116.000000
145.063800 15580.000000
145.100200 10372.000000
146.069800 2716.000000
146.104400 1580.000000
147.079500 168636.000000
148.082700 17712.000000
149.058900 3224.000000
149.094100 3224.000000
151.073900 3368.000000
153.068400 1932.000000
154.076100 1032.000000
155.069300 3088.000000
155.084200 6948.000000
156.090800 1036.000000
157.063700 3068.000000
157.099900 6112.000000
158.071200 15680.000000
158.104600 932.000000
159.079300 32768.000000
159.115700 2208.000000
160.084200 3756.000000
161.094900 19808.000000
162.098200 3144.000000
163.074400 10612.000000
164.077400 1424.000000
165.069200 1252.000000
165.090400 904.000000
166.075700 1272.000000
167.069000 940.000000
167.084200 1844.000000
169.064100 1768.000000
169.099700 3004.000000
170.071500 1936.000000
171.079400 83140.000000
172.083500 11528.000000
173.095200 130848.000000
174.098500 15248.000000
175.074000 1380.000000
175.109900 3980.000000
177.089000 1520.000000
178.077900 1096.000000
179.083700 3916.000000
180.093100 1176.000000
181.065400 1648.000000
181.099900 3348.000000
182.071100 2248.000000
183.079200 5292.000000
183.116100 1168.000000
184.086400 2760.000000
185.094900 23900.000000
186.099300 4428.000000
187.074200 2872.000000
187.110500 10968.000000
188.114000 1856.000000
189.090800 2204.000000
191.084400 1976.000000
192.092600 3612.000000
193.099500 4688.000000
194.073000 1180.000000
194.106000 1416.000000
195.079600 8172.000000
195.115900 2264.000000
196.086800 6848.000000
197.095000 21640.000000
197.132100 2252.000000
198.100900 5880.000000
199.073700 1000.000000
199.110200 16472.000000
200.114500 2208.000000
201.090000 2460.000000
201.126500 1436.000000
203.106300 1148.000000
204.091800 908.000000
205.099200 2692.000000
206.107500 1684.000000
207.080200 1248.000000
207.116100 11416.000000
208.087100 6564.000000
208.119000 2852.000000
209.095200 20992.000000
209.131700 2400.000000
210.102600 14544.000000
211.110800 35308.000000
212.115800 8840.000000
213.089200 2796.000000
213.126100 11532.000000
214.128900 1840.000000
215.106200 2252.000000
217.100600 1432.000000
218.105600 1244.000000
219.080000 1656.000000
219.116800 2368.000000
220.087100 2632.000000
221.095200 12988.000000
221.130600 2640.000000
222.102900 13012.000000
223.110800 25476.000000
224.117100 9832.000000
225.126700 63684.000000
226.133800 56624.000000
227.104500 1820.000000
227.141200 29168.000000
228.145300 4232.000000
229.098900 1372.000000
230.107900 1496.000000
231.115600 1904.000000
232.086300 996.000000
232.122600 920.000000
233.094900 4004.000000
233.132000 2056.000000
234.103000 7280.000000
235.111000 20468.000000
235.146400 1696.000000
236.116800 6740.000000
237.089800 1572.000000
237.126500 30344.000000
238.130300 6980.000000
239.105900 2896.000000
239.141900 19768.000000
240.111400 876.000000
240.146000 4180.000000
241.157700 6084.000000
242.163200 1300.000000
243.116600 1452.000000
243.138400 908.000000
244.123900 1692.000000
245.095100 2860.000000
245.131600 2008.000000
246.103800 4396.000000
246.135900 1028.000000
247.110400 7588.000000
247.147800 2088.000000
248.118200 13104.000000
249.089700 1024.000000
249.126400 17996.000000
249.162700 1660.000000
250.132300 7112.000000
251.105600 2020.000000
251.142300 12284.000000
252.114800 988.000000
252.147200 3236.000000
253.121000 2524.000000
253.158000 4744.000000
254.159900 1140.000000
255.139800 1476.000000
257.095000 1456.000000
258.101100 1516.000000
259.110500 1924.000000
259.147000 2432.000000
260.118000 3404.000000
261.126600 7256.000000
262.097100 940.000000
262.135000 11680.000000
263.106700 2980.000000
263.141600 19996.000000
264.113100 1764.000000
264.149800 14348.000000
265.122000 1828.000000
265.157700 28844.000000
266.125800 876.000000
266.162000 6656.000000
267.138200 2968.000000
267.173100 2108.000000
272.119400 5520.000000
273.124200 1692.000000
274.134500 1972.000000
275.104600 900.000000
275.141800 4644.000000
276.112400 976.000000
276.149200 1764.000000
277.121700 2996.000000
277.158200 17748.000000
278.128400 1116.000000
278.161700 3432.000000
279.137200 3716.000000
279.172600 1524.000000
280.141800 2276.000000
281.152300 5484.000000
282.158100 2056.000000
283.168900 3752.000000
284.172000 916.000000
287.142700 6488.000000
288.145300 1796.000000
289.155800 1288.000000
290.128800 2724.000000
291.134100 1296.000000
292.145000 1412.000000
293.153000 2380.000000
294.159300 1672.000000
295.133100 888.000000
295.168100 5580.000000
296.170600 1380.000000
305.153700 7612.000000
306.157100 1808.000000
323.163800 7416.000000
324.167500 1828.000000
413.232500 1232.000000

>ms2peaks
115.053900 6580.000000
116.059200 1552.000000
117.069000 5148.000000
118.072900 760.000000
119.084900 26344.000000
120.088100 2200.000000
121.064000 38328.000000
122.067600 3316.000000
123.079600 1524.000000
125.058600 812.000000
127.052900 896.000000
128.060900 11392.000000
129.068400 9540.000000
130.075800 3776.000000
131.048000 4316.000000
131.084600 9428.000000
132.055900 12180.000000
132.088300 812.000000
133.063500 5092.000000
133.100100 3428.000000
134.069000 808.000000
135.079400 27564.000000
136.083400 2308.000000
137.058300 4468.000000
139.074300 2520.000000
141.068900 5932.000000
142.075800 3688.000000
143.084000 9704.000000
144.055800 3348.000000
144.088900 1548.000000
145.063300 20452.000000
145.099800 13400.000000
146.070300 5740.000000
146.103500 1700.000000
147.079400 136312.000000
148.082800 14184.000000
149.058400 1800.000000
149.093400 1548.000000
151.073900 1064.000000
152.061300 1944.000000
153.068900 3652.000000
154.075800 1976.000000
155.058400 2228.000000
155.084000 10504.000000
156.091100 1376.000000
157.063400 3244.000000
157.099600 4800.000000
158.071200 28692.000000
159.078800 30216.000000
160.083500 4132.000000
161.059300 1400.000000
161.095100 14284.000000
162.097500 2076.000000
163.074000 4116.000000
165.068300 4096.000000
166.075500 2656.000000
167.083800 4688.000000
168.089700 1848.000000
169.062800 4356.000000
169.099800 3952.000000
170.070400 4600.000000
170.103300 836.000000
171.079300 72056.000000
172.083800 10844.000000
173.095000 78104.000000
174.097900 10036.000000
175.110300 2280.000000
177.089500 1004.000000
178.076100 4032.000000
179.084200 8212.000000
180.090600 2704.000000
181.063400 4068.000000
181.099000 4236.000000
182.070800 4840.000000
182.106300 1148.000000
183.079100 6492.000000
183.114600 2472.000000
184.086700 5608.000000
185.094600 16684.000000
186.099900 3760.000000
187.074300 1824.000000
187.110300 5340.000000
188.114200 948.000000
189.068900 1020.000000
189.089600 992.000000
190.076600 2012.000000
191.084000 5248.000000
192.092200 10288.000000
193.099400 9188.000000
194.071700 2304.000000
194.105500 2748.000000
195.079100 14260.000000
195.116000 2572.000000
196.086700 13312.000000
197.094600 21192.000000
197.132100 2188.000000
198.101700 7892.000000
199.073800 796.000000
199.110100 9672.000000
200.114600 1588.000000
201.090300 1528.000000
202.077100 1164.000000
202.097200 924.000000
203.084600 2208.000000
204.092400 2400.000000
205.099900 4728.000000
206.070000 1044.000000
206.106100 2604.000000
207.079700 3240.000000
207.115400 12644.000000
208.086600 12784.000000
208.120900 3476.000000
209.094500 18852.000000
209.131000 2952.000000
210.102100 22808.000000
211.110500 44440.000000
212.114900 8828.000000
213.089600 1044.000000
213.126000 6532.000000
214.128900 1200.000000
215.083800 1912.000000
215.105700 804.000000
216.091700 1888.000000
217.100900 2988.000000
218.070800 876.000000
218.106500 2320.000000
219.079300 2708.000000
219.115800 3304.000000
220.086300 3992.000000
220.120500 1656.000000
221.095100 16444.000000
221.131100 2964.000000
222.102600 17788.000000
223.110200 18388.000000
224.116600 9816.000000
225.090200 1576.000000
225.126000 23644.000000
226.133300 25300.000000
227.104100 1184.000000
227.140600 9704.000000
228.092400 836.000000
228.144300 1236.000000
229.099500 2176.000000
230.106200 2712.000000
231.079600 2024.000000
231.115600 2812.000000
232.086300 2424.000000
232.124300 1168.000000
233.094600 7440.000000
233.129700 1936.000000
234.102500 9752.000000
234.137800 820.000000
235.110600 17124.000000
235.146400 1236.000000
236.116900 6504.000000
237.089500 1124.000000
237.125800 16016.000000
238.096000 1172.000000
238.131700 4684.000000
239.104300 1928.000000
239.141900 6396.000000
240.113400 696.000000
240.147700 2024.000000
241.157000 1796.000000
243.115200 1536.000000
244.123300 2016.000000
245.095800 3348.000000
245.129800 1888.000000
246.102900 4060.000000
246.135000 788.000000
247.110600 11624.000000
247.147500 1344.000000
248.117700 11900.000000
248.152200 688.000000
249.087700 1304.000000
249.125700 12192.000000
250.096800 768.000000
250.132700 5560.000000
251.105000 968.000000
251.142000 4388.000000
252.146800 1532.000000
253.121200 980.000000
253.157100 1452.000000
257.095800 2088.000000
258.102800 1488.000000
259.109900 3020.000000
259.148700 908.000000
260.118200 2980.000000
261.126300 5628.000000
262.098200 1004.000000
262.133600 7836.000000
263.106000 1576.000000
263.141300 7644.000000
264.115800 1320.000000
264.148800 6092.000000
265.119200 1544.000000
265.157600 7320.000000
266.162200 1656.000000
267.138900 1408.000000
271.111200 1392.000000
272.118300 3804.000000
273.125300 1624.000000
274.134200 1228.000000
275.105000 1528.000000
275.140800 2228.000000
276.147300 892.000000
277.121900 2016.000000
277.157700 3504.000000
278.126600 852.000000
278.162700 1076.000000
279.136100 1416.000000
280.144100 984.000000
281.153700 1324.000000
282.155700 712.000000
287.142100 1748.000000
289.125100 792.000000
290.129300 1676.000000
295.169300 1120.000000
305.153800 1556.000000
323.164600 856.000000

>ms2peaks
55.017200 1864.000000
55.053500 2016.000000
57.068700 868.000000
67.053200 2080.000000
69.032700 3056.000000
69.069300 1872.000000
71.048500 9680.000000
73.027600 660.000000
79.053400 2876.000000
81.032800 1180.000000
81.069300 7212.000000
83.048700 1820.000000
85.064300 1620.000000
87.044000 2636.000000
91.054900 2588.000000
93.069900 5696.000000
95.049200 2800.000000
95.085700 4652.000000
97.028400 1908.000000
97.065100 2184.000000
99.044800 1956.000000
101.023600 4736.000000
101.060300 684.000000
105.071200 4060.000000
107.050300 1324.000000
107.086300 5516.000000
109.066000 3684.000000
109.102200 1196.000000
111.044500 1724.000000
111.083000 996.000000
115.038200 672.000000
115.053800 1004.000000
117.069700 2008.000000
119.085100 6652.000000
120.088700 708.000000
121.064500 28932.000000
122.067900 2752.000000
123.043700 620.000000
123.080400 3172.000000
125.058700 1572.000000
127.075000 628.000000
128.061100 1384.000000
129.069000 1636.000000
131.084500 4780.000000
132.056100 1464.000000
133.063700 3892.000000
133.100100 2060.000000
135.079700 16748.000000
136.083800 2216.000000
137.058300 6456.000000
137.094600 876.000000
138.061700 956.000000
139.074400 4016.000000
141.053100 840.000000
141.067400 840.000000
143.084500 2512.000000
144.054600 728.000000
145.063700 6820.000000
145.100200 3924.000000
146.068300 832.000000
147.079300 123624.000000
148.082500 14148.000000
149.058100 2124.000000
149.094000 1932.000000
151.074200 3044.000000
153.089800 964.000000
155.069000 6144.000000
155.084700 1484.000000
156.071500 684.000000
157.063300 848.000000
157.099800 2996.000000
158.071000 4344.000000
159.078800 15324.000000
159.115200 1140.000000
160.083500 2348.000000
161.094500 14464.000000
162.098400 1596.000000
163.074000 10716.000000
163.111500 672.000000
164.076800 920.000000
165.088500 2292.000000
167.069400 960.000000
167.083000 652.000000
169.083300 740.000000
169.100200 1728.000000
171.079100 53572.000000
172.083300 6496.000000
173.095000 90584.000000
174.098600 12084.000000
175.073800 1384.000000
175.109300 3124.000000
177.090500 2960.000000
179.084000 1188.000000
179.104200 808.000000
181.084900 2536.000000
181.099500 952.000000
183.078600 2720.000000
183.113600 780.000000
184.086700 1164.000000
185.094700 15744.000000
186.099000 2932.000000
187.074100 2688.000000
187.110800 11176.000000
188.113800 1324.000000
189.090300 2060.000000
191.085200 680.000000
191.108500 840.000000
192.092800 788.000000
193.098500 1004.000000
195.079400 2864.000000
195.116500 860.000000
196.087100 2976.000000
197.095000 14996.000000
197.129800 980.000000
198.100400 2540.000000
199.074700 776.000000
199.111000 11484.000000
200.113300 1652.000000
201.089800 2520.000000
201.125400 1380.000000
202.095500 944.000000
203.105800 1500.000000
205.098400 1068.000000
205.120400 740.000000
207.114500 4076.000000
208.088000 2220.000000
208.121500 1228.000000
209.094800 9964.000000
209.132300 1004.000000
210.101500 4788.000000
211.110900 20752.000000
212.115000 3432.000000
213.088700 2764.000000
213.126200 9276.000000
214.131000 1772.000000
215.105500 2320.000000
215.144300 860.000000
219.115200 1456.000000
220.087800 900.000000
221.095200 7400.000000
221.131800 1472.000000
222.101300 4808.000000
223.111000 17192.000000
224.117000 7236.000000
225.126800 75208.000000
226.133800 48836.000000
227.106400 2380.000000
227.141500 36584.000000
228.146100 6280.000000
229.085100 936.000000
229.157700 916.000000
233.096100 1164.000000
233.131700 1072.000000
234.102100 2224.000000
234.138500 708.000000
235.111400 13736.000000
235.147700 920.000000
236.116500 3260.000000
237.126300 29036.000000
238.130900 5436.000000
239.105900 2060.000000
239.142600 22880.000000
240.109800 640.000000
240.146700 4196.000000
241.121700 1132.000000
241.157800 10992.000000
242.160200 2152.000000
243.138700 1900.000000
245.095800 1468.000000
245.131000 1048.000000
246.102300 1532.000000
247.110700 3296.000000
247.148100 936.000000
248.119300 5452.000000
249.126800 15832.000000
250.096900 776.000000
250.131500 4496.000000
251.105900 1552.000000
251.142300 12424.000000
252.147100 4036.000000
253.122100 2824.000000
253.158200 7792.000000
254.125000 704.000000
254.160400 1220.000000
255.138700 2580.000000
256.141200 712.000000
257.133600 628.000000
259.111200 1416.000000
259.148200 1780.000000
260.117300 1952.000000
261.126400 8240.000000
262.134400 8060.000000
263.106600 2276.000000
263.142500 31140.000000
264.112300 1100.000000
264.147900 13168.000000
265.157900 45120.000000
266.161800 11092.000000
267.137300 4136.000000
267.173000 6496.000000
268.139700 1116.000000
268.177900 1912.000000
269.151400 1372.000000
272.119000 3416.000000
273.124200 1124.000000
274.134000 1536.000000
275.142900 7936.000000
276.110600 680.000000
276.146200 2252.000000
277.121700 2568.000000
277.158200 40220.000000
278.125600 1308.000000
278.161800 8436.000000
279.137800 7368.000000
279.173200 3208.000000
280.143600 3320.000000
280.179900 1672.000000
281.116600 928.000000
281.152700 13872.000000
281.191600 1188.000000
282.157000 4080.000000
283.168300 10884.000000
284.172500 2120.000000
287.142700 11752.000000
288.146700 2744.000000
289.158200 4900.000000
290.130300 1732.000000
290.160800 960.000000
291.134700 1140.000000
292.148100 972.000000
293.153600 8148.000000
293.189000 768.000000
294.159300 2076.000000
295.169000 25848.000000
296.171500 5292.000000
297.148100 1868.000000
297.179800 924.000000
299.161800 1160.000000
303.138500 764.000000
305.153400 33304.000000
306.155700 7388.000000
307.167300 5984.000000
308.171500 1672.000000
311.165400 1708.000000
313.179100 3824.000000
314.183100 840.000000
321.148100 880.000000
323.163500 53628.000000
324.167300 13676.000000
325.178400 6296.000000
326.181300 1888.000000
341.174300 12588.000000
342.177000 2812.000000
343.189600 1388.000000
377.210400 1292.000000
395.220500 1756.000000
413.232100 70456.000000
414.235400 19580.000000
415.237700 2912.000000

