>compound AU53227098
>parentmass 204.99299999999997
>ionization [M+H]+
>formula C7H6Cl2N2O
>rt 474.621818
>profile qtof
#smiles_iso C1=CC(=C(C=C1NC(=O)N)Cl)Cl
#smiles_can C1=CC(=C(C=C1NC(=O)N)Cl)Cl
#inchikey CYESCLHCWJKRKM-UHFFFAOYSA-N
#pubchem_id 16854
#mb_accession AU241801,AU241802,AU241803,AU241804,AU241805,AU241806,AU400301,AU400302,AU400303,AU400304,AU400305

>ms2
127.017000 2116.000000
129.013900 428.000000
159.971000 644.000000
161.965500 376.000000
161.985800 6448.000000
162.987800 640.000000
163.983100 3636.000000
187.965400 908.000000
189.961600 536.000000
204.991900 43848.000000
205.994400 3428.000000
206.988400 23476.000000

>ms2
127.017400 20212.000000
128.021100 1552.000000
129.014100 5016.000000
159.970200 3644.000000
161.966500 2304.000000
161.986000 12192.000000
162.990300 1180.000000
163.982900 7488.000000
164.985400 312.000000
187.966300 1684.000000
189.962300 1008.000000
204.992200 4104.000000
205.995900 332.000000
206.989600 2756.000000

>ms2
125.001600 708.000000
126.010000 364.000000
127.017200 29420.000000
128.020100 2552.000000
129.014300 8768.000000
130.016700 428.000000
132.959300 1356.000000
134.954100 836.000000
159.970000 3944.000000
160.974200 468.000000
161.967600 2128.000000
161.985600 3116.000000
162.968900 344.000000
163.981100 2060.000000
172.967500 856.000000

>ms2
125.002000 1064.000000
127.017400 21760.000000
128.020800 2356.000000
129.014200 7780.000000
130.015900 356.000000
132.959500 1864.000000
134.957400 812.000000
144.959800 316.000000
159.970700 1168.000000
161.967200 816.000000
172.965000 436.000000
174.963800 420.000000

>ms2
125.002600 464.000000
126.008800 492.000000
127.017400 9832.000000
128.020100 720.000000
129.013800 3372.000000
132.959200 984.000000
134.956300 604.000000

>ms2
127.018100 31640.000000
128.021100 2304.000000
129.014800 5432.000000
130.018900 392.000000
132.959300 472.000000
159.970500 4864.000000
160.973000 304.000000
161.967700 1652.000000
161.986800 14516.000000
162.989900 1060.000000
163.983800 6640.000000
187.964400 1576.000000
189.962300 688.000000
204.992800 5692.000000
205.997500 412.000000
206.990200 3148.000000

>ms2
127.017100 2408.000000
144.991100 384.000000
159.971000 388.000000
161.986000 8248.000000
162.988700 680.000000
163.982900 5084.000000
187.965400 1240.000000
189.961900 1260.000000
204.992600 60736.000000
205.995100 5544.000000
206.989300 36224.000000
207.992600 1640.000000

>ms2
127.017300 27920.000000
128.020100 1728.000000
129.013900 7108.000000
130.018600 304.000000
132.958700 352.000000
159.970000 4312.000000
160.973500 544.000000
161.985700 18140.000000
162.988900 1700.000000
163.982800 10328.000000
187.964900 2524.000000
188.969600 324.000000
189.961600 1460.000000
204.992600 6508.000000
205.995100 832.000000
206.989300 3600.000000
207.992600 312.000000

>ms2
125.002300 608.000000
126.008700 340.000000
127.017300 40164.000000
128.020100 3552.000000
129.013900 10288.000000
130.018600 372.000000
132.959900 1572.000000
159.970200 4684.000000
160.975000 460.000000
161.968500 2764.000000
161.986000 2908.000000
162.968600 332.000000
162.987500 344.000000
163.982900 2576.000000
172.966600 532.000000
187.965000 364.000000

>ms2
123.995300 424.000000
125.001900 1560.000000
126.007200 376.000000
127.017300 34436.000000
128.020100 2100.000000
129.013900 9948.000000
130.018600 460.000000
132.960000 3080.000000
144.960000 332.000000
159.970100 1320.000000
161.967300 1072.000000
172.965100 840.000000
174.961800 408.000000

>ms2
125.002000 876.000000
127.017500 15008.000000
128.020600 1100.000000
129.014600 4416.000000
132.959900 1524.000000
134.956700 1152.000000

