>compound AU53360004
>parentmass 721.32
>ionization [M+H]+
>formula C37H48N6O5S2
>rt 659.304000
>profile qtof
#smiles_iso CC(C)C1=NC(=CS1)CN(C)C(=O)N[C@@H](C(C)C)C(=O)N[C@@H](CC2=CC=CC=C2)C[C@@H]([C@H](CC3=CC=CC=C3)NC(=O)OCC4=CN=CS4)O
#smiles_can CC(C)C1=NC(=CS1)CN(C)C(=O)NC(C(C)C)C(=O)NC(CC2=CC=CC=C2)CC(C(CC3=CC=CC=C3)NC(=O)OCC4=CN=CS4)O
#inchikey NCDNCNXCDXHOMX-XGKFQTDJSA-N
#pubchem_id 392622
#mb_accession AU219201,AU219202,AU219203,AU219204,AU219205

>ms2peaks
171.095300 8112.000000
197.076100 2228.000000
268.148600 7864.000000
296.144600 85088.000000
297.147100 12572.000000
426.187100 23744.000000
427.190700 6820.000000
721.325600 439340.000000
722.328400 175508.000000
723.326900 58368.000000

>ms2peaks
140.053100 12304.000000
171.095700 123664.000000
197.074800 13664.000000
268.149500 114724.000000
269.152400 15164.000000
296.144700 1177808.000000
297.147500 141888.000000
426.187500 196632.000000
427.190100 46892.000000
428.188800 11548.000000
551.237200 7760.000000
721.325300 141200.000000
722.327600 65156.000000
723.326000 21020.000000

>ms2peaks
140.052800 58504.000000
171.095300 298720.000000
172.098300 21336.000000
197.075000 113540.000000
250.158800 6144.000000
268.148900 834084.000000
269.152100 95876.000000
296.144100 1050348.000000
297.147000 138532.000000
311.175800 5736.000000
382.196300 7848.000000
426.186500 161564.000000
427.189200 47012.000000
428.187800 8936.000000
507.244400 20864.000000
508.247500 6436.000000
533.222900 6040.000000

>ms2peaks
140.053000 194440.000000
141.055700 12296.000000
169.079300 9504.000000
171.095500 421092.000000
173.091300 9984.000000
197.075200 543532.000000
250.159700 29032.000000
251.162800 6120.000000
268.149100 1108660.000000
269.151900 141836.000000
296.144200 217644.000000
297.146800 33536.000000
311.176000 11852.000000
347.158400 14188.000000
365.169500 15744.000000
382.196500 13868.000000
408.176000 8844.000000
426.186600 53096.000000
427.190000 14088.000000
489.233200 5548.000000
507.244300 9156.000000

>ms2peaks
140.053100 484380.000000
141.056000 29900.000000
169.079500 8984.000000
171.095500 398252.000000
173.090900 11308.000000
197.075200 967260.000000
211.126700 5952.000000
250.160000 45776.000000
251.163000 8572.000000
266.154700 5468.000000
268.149200 434836.000000
269.151900 54268.000000
296.144000 19680.000000
311.176200 5244.000000
347.159600 19404.000000
365.169300 12192.000000
382.195700 5792.000000
426.187200 7140.000000

