>compound AU53764691
>parentmass 226.16620000000003
>ionization [M+H]+
>formula C10H19N5O
>rt 522.000000
>profile qtof
#smiles_iso CC(C)NC1=NC(=NC(=N1)OC)NC(C)C
#smiles_can CC(C)NC1=NC(=NC(=N1)OC)NC(C)C
#inchikey ISEUFVQQFVOBCY-UHFFFAOYSA-N
#pubchem_id 4928
#mb_accession AU361901,AU361902,AU361903,AU361904,AU361905

>ms2peaks
142.071000 5980.000000
184.117900 23488.000000
226.166000 1052748.000000
227.168700 121252.000000
228.170500 9372.000000

>ms2peaks
142.071400 237472.000000
152.116900 6916.000000
184.118200 432508.000000
226.166000 587724.000000
227.168700 60288.000000
228.170500 4460.000000

>ms2peaks
142.071400 411612.000000
184.118200 129244.000000
226.165800 25016.000000

>ms2peaks
125.045700 828.000000
142.071700 92448.000000
143.073700 4308.000000
184.118500 7332.000000

>ms2peaks
125.045400 396.000000
142.071400 11372.000000
143.074500 680.000000
184.117800 356.000000

