>compound AU53339194
>parentmass 130.0411
>ionization [M+H]+
>formula C4H4FN3O
>rt 94.140000
>profile qtof
#smiles_iso C1=NC(=O)NC(=C1F)N
#smiles_can C1=NC(=O)NC(=C1F)N
#inchikey XRECTZIEBJDKEO-UHFFFAOYSA-N
#pubchem_id 3366
#mb_accession AU223901,AU223902,AU223903

>ms2
113.013600 300.000000
130.040700 23624.000000
131.044400 1572.000000

>ms2
112.031300 312.000000
113.015000 952.000000
130.040500 6592.000000

>ms2
113.015300 536.000000
130.041600 440.000000

