>compound AU53793348
>parentmass 255.1743
>ionization [M+H]+
>formula C18H22O
>rt 760.550000
>profile qtof
#smiles_iso CC1=CC=C(C=C1)C=C2C3CCC(C2=O)(C3(C)C)C
#smiles_can CC1=CC=C(C=C1)C=C2C3CCC(C2=O)(C3(C)C)C
#inchikey HEOCBCNFKCOKBX-UHFFFAOYSA-N
#pubchem_id 37563
#mb_accession AU245201,AU245202,AU245203,AU245204,AU245205,AU245206

>ms2peaks
157.100000 23120.000000
171.115500 16492.000000
183.115600 11508.000000
185.094600 11872.000000
197.130900 11236.000000
199.110700 15948.000000
212.118100 14764.000000
213.126000 25460.000000
237.162900 56312.000000
255.174200 2058864.000000
256.177300 276312.000000
257.180100 22528.000000

>ms2peaks
111.079700 1744.000000
117.068700 1808.000000
119.048400 8100.000000
119.084500 15252.000000
120.088100 1424.000000
121.064500 1652.000000
121.100100 3420.000000
123.079300 4376.000000
128.060200 1544.000000
129.068300 2568.000000
130.075700 1424.000000
131.084700 16120.000000
132.088100 1720.000000
133.099700 4800.000000
135.079900 2508.000000
135.116100 5260.000000
137.094800 5780.000000
141.069100 2252.000000
142.076200 4184.000000
143.084000 19372.000000
144.088400 2164.000000
145.099800 31768.000000
146.103300 3024.000000
147.079000 2252.000000
147.115700 7264.000000
149.094600 2156.000000
150.100700 1356.000000
155.084500 6880.000000
156.091100 4376.000000
157.099900 77560.000000
158.103200 10292.000000
159.079300 4004.000000
159.115600 18720.000000
160.119100 2988.000000
161.093700 2028.000000
163.110200 21812.000000
164.113400 2392.000000
165.069100 2216.000000
166.076100 2240.000000
167.083600 2140.000000
169.099400 15792.000000
170.103400 2404.000000
171.079200 20480.000000
171.115700 80676.000000
172.083500 3012.000000
172.119500 9628.000000
173.095200 10148.000000
173.130300 1940.000000
174.097900 1308.000000
179.083600 1316.000000
180.092000 4600.000000
181.100200 10676.000000
182.107100 3936.000000
183.115700 40340.000000
184.119300 6188.000000
185.094900 34152.000000
185.131700 9012.000000
186.099200 6020.000000
187.110100 5064.000000
193.100600 4132.000000
194.107000 3580.000000
195.115700 64740.000000
196.119400 10056.000000
197.094300 2624.000000
197.131500 37264.000000
198.102100 1200.000000
198.135200 5268.000000
199.110700 58220.000000
200.114300 9320.000000
207.115600 3368.000000
208.123600 8092.000000
209.131000 14108.000000
210.134000 2540.000000
211.110400 10976.000000
211.147100 15360.000000
212.118700 111912.000000
213.126000 92300.000000
213.163000 9700.000000
214.129100 13752.000000
214.165500 1688.000000
222.139600 10148.000000
223.143400 1812.000000
226.134500 2772.000000
227.142100 19896.000000
227.178100 7840.000000
228.145300 3384.000000
228.179900 1320.000000
235.150300 1288.000000
237.163200 77360.000000
238.166000 11860.000000
240.149500 3076.000000
255.173900 239612.000000
256.176700 37440.000000
257.181400 2916.000000

>ms2peaks
111.079400 352.000000
115.053100 2676.000000
117.069000 3580.000000
119.047900 6176.000000
119.084300 16308.000000
120.053000 764.000000
120.088200 2116.000000
121.063800 2256.000000
121.099700 2028.000000
122.070600 704.000000
123.079700 2764.000000
123.115000 620.000000
127.053400 364.000000
128.060800 7956.000000
129.068200 9328.000000
130.075600 6552.000000
131.084100 14320.000000
132.087600 1612.000000
133.064300 408.000000
133.099800 3024.000000
134.105000 368.000000
135.078900 3388.000000
135.115600 3776.000000
136.119800 448.000000
137.094900 3124.000000
139.110100 760.000000
141.068600 6628.000000
142.076200 17424.000000
143.083800 33304.000000
144.088400 5264.000000
145.099800 30208.000000
146.103200 3480.000000
147.078700 2136.000000
147.114800 2088.000000
148.085800 400.000000
149.095000 848.000000
150.102000 964.000000
152.060800 808.000000
153.068200 4172.000000
154.075700 2708.000000
155.084000 15416.000000
156.091500 21640.000000
157.099600 45884.000000
158.071500 1236.000000
158.103200 5848.000000
159.078000 2408.000000
159.115000 11208.000000
160.082600 416.000000
160.119000 1516.000000
161.095300 1096.000000
163.110400 6588.000000
164.113200 876.000000
165.068300 14256.000000
166.075500 9416.000000
167.083700 7080.000000
168.091100 3696.000000
169.099500 18256.000000
170.071500 712.000000
170.105000 4056.000000
171.078700 17412.000000
171.115500 49040.000000
172.083800 2604.000000
172.118900 6772.000000
173.094200 2544.000000
173.129000 996.000000
174.098400 400.000000
178.077300 1564.000000
179.084000 9296.000000
180.092000 20592.000000
181.063600 792.000000
181.098800 14896.000000
182.071400 952.000000
182.106900 7868.000000
183.077800 1144.000000
183.115300 21440.000000
184.087000 2484.000000
184.120100 4196.000000
185.094800 21248.000000
185.130900 4600.000000
186.099900 5128.000000
186.134600 592.000000
187.110200 2624.000000
188.115800 420.000000
192.091400 1220.000000
193.099900 11236.000000
194.106800 12324.000000
195.115400 39928.000000
196.087400 3492.000000
196.120300 6948.000000
197.094800 20188.000000
197.130800 11232.000000
198.100800 4756.000000
198.134700 1712.000000
199.110400 25108.000000
200.114600 4612.000000
201.128300 576.000000
206.106800 532.000000
207.115400 11628.000000
208.123100 8780.000000
209.131300 9476.000000
210.134500 1172.000000
211.110600 10080.000000
211.146900 3388.000000
212.118700 65708.000000
213.124400 23984.000000
213.163600 1384.000000
214.128600 3472.000000
220.123800 808.000000
221.131800 492.000000
222.138700 8268.000000
223.142100 1844.000000
225.126500 3160.000000
226.042500 348.000000
226.134400 2484.000000
227.142000 7960.000000
228.145500 1064.000000
235.148700 592.000000
237.162800 8424.000000
238.166000 1152.000000
240.149600 3036.000000
241.155600 588.000000
255.173300 5456.000000
256.177200 964.000000

>ms2peaks
111.078400 300.000000
115.053100 9012.000000
116.060100 2136.000000
117.068900 4916.000000
118.073600 544.000000
119.048400 3608.000000
119.084500 10820.000000
120.055100 572.000000
120.088400 1664.000000
121.064200 2080.000000
121.100500 1024.000000
122.071700 856.000000
123.079100 1808.000000
124.085200 344.000000
126.046200 516.000000
127.052800 1608.000000
128.061000 26152.000000
129.068400 19488.000000
130.076100 10988.000000
131.084100 10068.000000
132.055200 380.000000
132.087900 1120.000000
133.062800 676.000000
133.099600 1288.000000
135.079900 2736.000000
135.116400 956.000000
136.081900 332.000000
137.094700 1360.000000
139.111100 688.000000
141.068500 30588.000000
142.076100 40648.000000
143.083700 28348.000000
144.090000 4388.000000
145.064000 2728.000000
145.099800 16496.000000
146.067300 340.000000
146.103100 2340.000000
147.079700 1276.000000
147.113200 404.000000
149.095200 312.000000
150.101100 424.000000
152.061100 4944.000000
153.068500 9608.000000
154.075700 9144.000000
155.084400 21332.000000
156.091800 36872.000000
157.099300 21560.000000
158.072100 1520.000000
158.102700 2364.000000
159.078900 1064.000000
159.114800 2952.000000
160.119500 304.000000
163.110100 960.000000
165.068700 36776.000000
166.075800 16876.000000
167.083800 14524.000000
168.091200 7724.000000
169.063600 2392.000000
169.099700 21236.000000
170.070700 1268.000000
170.105500 5532.000000
171.079100 8684.000000
171.115500 13612.000000
172.084200 1968.000000
172.119200 2060.000000
173.096600 496.000000
177.069400 440.000000
178.076200 8368.000000
179.084100 28376.000000
180.091700 28144.000000
181.063400 4488.000000
181.099200 10616.000000
182.071000 8840.000000
182.106900 6620.000000
183.078700 3556.000000
183.115500 8860.000000
184.087100 3264.000000
184.120400 2596.000000
185.094800 8972.000000
185.129900 1028.000000
186.099800 1884.000000
187.107800 476.000000
190.073600 312.000000
191.084400 1680.000000
192.091500 8736.000000
193.100000 18520.000000
194.107100 11144.000000
195.080900 944.000000
195.115300 12528.000000
196.087500 7592.000000
196.120700 2896.000000
197.095100 30672.000000
197.130700 2632.000000
198.100100 6356.000000
198.135200 632.000000
199.110500 4064.000000
200.114400 664.000000
205.099400 500.000000
206.107000 1024.000000
207.115600 14340.000000
208.122300 5132.000000
209.096100 320.000000
209.131900 1588.000000
210.103100 688.000000
211.110800 13364.000000
211.149300 740.000000
212.118100 17484.000000
213.123000 3760.000000
220.123500 640.000000
221.131800 980.000000
222.140100 2180.000000
223.141800 572.000000
225.125900 2828.000000
226.044500 328.000000
226.135200 972.000000
227.142800 1284.000000
237.162000 316.000000
239.143200 420.000000
240.152100 836.000000

>ms2peaks
115.053700 15288.000000
116.059600 3332.000000
117.068800 4488.000000
118.073900 612.000000
119.047900 1428.000000
119.085000 6080.000000
120.087500 708.000000
121.064000 1232.000000
122.070300 380.000000
123.078600 796.000000
126.045400 792.000000
127.053400 3764.000000
128.061000 43340.000000
129.068400 27764.000000
130.075700 9356.000000
131.048300 360.000000
131.083900 4980.000000
132.057300 596.000000
132.088300 600.000000
133.062800 548.000000
135.079000 1372.000000
139.053600 712.000000
140.060700 468.000000
141.068700 66928.000000
142.076000 38760.000000
143.083200 15464.000000
144.056700 388.000000
144.089900 3448.000000
145.063500 3888.000000
145.099600 4476.000000
146.066900 644.000000
150.044200 352.000000
151.051700 572.000000
152.060700 14556.000000
153.068400 22436.000000
154.076100 16736.000000
155.084100 31768.000000
156.091500 21968.000000
157.063400 1160.000000
157.097800 5984.000000
158.070700 1208.000000
158.101600 704.000000
159.079700 600.000000
159.118000 528.000000
163.052200 528.000000
164.060400 1012.000000
165.068600 68872.000000
166.074600 18108.000000
167.084100 17756.000000
168.056000 792.000000
168.090900 7608.000000
169.063300 3256.000000
169.099400 12012.000000
170.071400 1276.000000
170.105100 3024.000000
171.079100 3736.000000
171.115100 2616.000000
172.084400 1220.000000
172.119500 400.000000
176.061200 1296.000000
177.067800 1608.000000
178.076400 28840.000000
179.083800 44640.000000
180.090800 19044.000000
181.063100 15796.000000
181.099400 6788.000000
182.071000 15672.000000
182.108100 2440.000000
183.077500 5576.000000
183.115500 3492.000000
184.086400 1668.000000
184.120800 668.000000
185.094500 3324.000000
186.100800 644.000000
189.067600 932.000000
190.075600 1000.000000
191.084900 6732.000000
192.092000 17632.000000
193.099800 15800.000000
194.105400 5132.000000
195.079400 3380.000000
195.114100 3164.000000
196.086800 11488.000000
196.120000 692.000000
197.094700 13996.000000
198.098900 3060.000000
199.108100 992.000000
205.100900 1328.000000
206.106100 1736.000000
207.115600 8124.000000
208.121900 1324.000000
209.095600 576.000000
210.102800 788.000000
211.110900 6636.000000
212.117500 2952.000000
213.121900 620.000000
221.132600 472.000000
222.138000 484.000000
225.123900 756.000000

>ms2peaks
55.017100 1772.000000
55.053900 4268.000000
57.032800 1056.000000
57.069300 1740.000000
59.048900 1004.000000
67.053700 3584.000000
69.032500 6208.000000
69.069500 9484.000000
71.048300 2388.000000
79.053400 5004.000000
81.069600 4384.000000
83.048700 2884.000000
83.085300 4560.000000
85.064600 4964.000000
91.054300 2636.000000
93.069800 7280.000000
95.049900 688.000000
95.086100 5560.000000
97.065400 53464.000000
98.068200 3456.000000
99.081600 1808.000000
105.071000 43056.000000
106.074700 2792.000000
107.086500 3544.000000
109.066000 1088.000000
109.102300 4184.000000
111.081800 20220.000000
112.086200 1688.000000
115.053500 1156.000000
117.069400 2100.000000
119.048900 11428.000000
119.085200 24864.000000
120.052000 980.000000
120.088600 1604.000000
121.064200 2580.000000
121.101200 4204.000000
123.080600 4604.000000
123.116600 1088.000000
125.096000 684.000000
128.061000 2808.000000
129.069400 3984.000000
130.077100 2444.000000
131.084700 16404.000000
132.087400 1248.000000
133.100100 3712.000000
135.079000 1948.000000
135.116300 4312.000000
137.095200 4472.000000
139.112000 700.000000
141.069100 2532.000000
142.076600 7372.000000
143.084300 20812.000000
144.088500 2640.000000
145.100200 32392.000000
146.103700 2808.000000
147.079400 1652.000000
147.115900 4908.000000
148.119800 636.000000
149.094400 1580.000000
150.102200 1196.000000
153.067900 1336.000000
154.075200 844.000000
155.084600 10204.000000
156.091800 9988.000000
157.100300 56692.000000
158.103300 6760.000000
159.078800 3504.000000
159.115800 14072.000000
160.119200 1504.000000
161.095800 764.000000
163.110800 14588.000000
164.113600 1212.000000
165.068800 4320.000000
166.076300 3956.000000
167.084000 3160.000000
168.091800 2696.000000
169.100100 15156.000000
170.103900 2732.000000
171.079300 17588.000000
171.115800 61436.000000
172.082200 1804.000000
172.119100 6600.000000
173.095100 4760.000000
173.128800 932.000000
174.097800 820.000000
175.110100 588.000000
178.075000 620.000000
179.084800 4072.000000
180.092200 9628.000000
181.099400 11236.000000
182.107200 4680.000000
183.116000 27364.000000
184.088300 684.000000
184.119600 3180.000000
185.095100 23176.000000
185.131700 5008.000000
186.100900 4372.000000
186.135700 920.000000
187.110000 3744.000000
193.100400 6660.000000
194.108000 7136.000000
195.116100 55444.000000
196.087600 1376.000000
196.120500 7552.000000
197.095100 10328.000000
197.131500 21144.000000
198.101500 2508.000000
198.135000 2176.000000
199.111200 40816.000000
200.114500 5144.000000
207.115900 7024.000000
208.123800 6808.000000
209.131900 11644.000000
210.136000 1576.000000
211.110700 11892.000000
211.147100 9132.000000
212.119100 76836.000000
213.125600 53500.000000
213.164700 3424.000000
214.129000 5880.000000
214.164900 768.000000
222.139000 7920.000000
223.142200 1412.000000
225.127700 1500.000000
226.134800 2368.000000
227.142100 13392.000000
227.179200 3464.000000
228.145200 1600.000000
228.181400 620.000000
235.147700 816.000000
237.163300 40720.000000
238.167000 5708.000000
240.149700 3576.000000
255.174500 111800.000000
256.177300 19232.000000
257.181900 2020.000000

