>compound AU53395036
>parentmass 273.1849
>ionization [M+H]+
>formula C18H24O2
>rt 722.400000
>profile qtof
#smiles_iso CC1COC(=O)C2=CC3=C(C=C12)C(C(C3(C)C)C)(C)C
#smiles_can CC1COC(=O)C2=CC3=C(C=C12)C(C(C3(C)C)C)(C)C
#inchikey PGMHPYRIXBRRQD-UHFFFAOYSA-N
#pubchem_id 69131857
#mb_accession AU205301,AU205302,AU205303,AU205304,AU205305

>ms2
185.116100 644.000000
255.173600 408.000000
259.189800 928.000000
271.189300 688.000000
273.184200 8640.000000

>ms2
129.055400 404.000000
185.116200 300.000000
227.178100 312.000000
240.148500 312.000000
255.173000 4812.000000
256.177300 1536.000000
271.189500 452.000000
273.183900 5504.000000

>ms2
143.081900 312.000000
157.099200 720.000000
175.111600 320.000000
185.095100 672.000000
197.130300 380.000000
212.156000 876.000000
225.126600 820.000000
226.133300 636.000000
227.177300 460.000000
240.149700 1524.000000
255.173200 4456.000000
256.176900 964.000000
273.183700 496.000000

>ms2
129.069500 628.000000
142.076600 324.000000
157.100400 808.000000
169.100900 316.000000
183.115900 352.000000
185.093600 388.000000
197.131200 1076.000000
198.137000 352.000000
211.110000 636.000000
212.155500 1112.000000
213.158500 300.000000
225.126200 2728.000000
226.132100 820.000000
240.150400 940.000000
255.175100 552.000000

>ms2
128.060900 376.000000
129.069400 884.000000
141.068600 392.000000
142.076900 636.000000
153.068100 320.000000
155.084100 668.000000
157.099200 344.000000
168.091100 396.000000
169.099000 424.000000
182.109600 476.000000
183.114800 464.000000
197.130800 2028.000000
198.135200 408.000000
210.104600 436.000000
211.110700 456.000000
225.127900 1384.000000
226.131200 484.000000

