>compound AU54012917
>parentmass 136.0215
>ionization [M+H]+
>formula C7H5NS
>rt 418.320000
>profile qtof
#smiles_iso C1=CC=C2C(=C1)N=CS2
#smiles_can C1=CC=C2C(=C1)N=CS2
#inchikey IOJUPLGTWVMSFF-UHFFFAOYSA-N
#pubchem_id 7222
#mb_accession AU405606

>ms2peaks
109.008200 380.000000
136.020800 13796.000000
137.023900 1120.000000
138.015000 492.000000

