>compound AU54623952
>parentmass 564.3085
>ionization [M+H]+
>formula C30H46NO7P
>rt 738.360000
>profile qtof
#smiles_iso CCC(=O)OC(C(C)C)OP(=O)(CCCCC1=CC=CC=C1)CC(=O)N2C[C@@H](C[C@H]2C(=O)O)C3CCCCC3
#smiles_can CCC(=O)OC(C(C)C)OP(=O)(CCCCC1=CC=CC=C1)CC(=O)N2CC(CC2C(=O)O)C3CCCCC3
#inchikey BIDNLKIUORFRQP-FKDWWROVSA-N
#pubchem_id 55891
#mb_accession AU224701,AU224702,AU224703,AU224704,AU224705

>ms2
390.222800 1268.000000
418.217800 23480.000000
419.220700 5900.000000
420.222500 1104.000000
436.228800 65580.000000
437.232200 16068.000000
438.233100 2072.000000
490.278700 400.000000
492.255800 77788.000000
493.258900 24024.000000
494.260400 3300.000000
495.268600 424.000000
564.312600 4104.000000
565.313100 1196.000000

>ms2
152.143100 1684.000000
390.222000 18136.000000
391.224600 4468.000000
418.217300 83316.000000
419.220200 20276.000000
420.222000 3084.000000
436.228700 219408.000000
437.231500 43720.000000
438.234800 5400.000000
492.257300 2112.000000

>ms2
133.086000 2684.000000
152.143800 27152.000000
153.147000 2664.000000
177.112100 1456.000000
194.154400 772.000000
197.072000 744.000000
198.150000 916.000000
221.073100 1648.000000
372.211600 7516.000000
373.214600 1968.000000
390.222400 122860.000000
391.225400 27196.000000
392.228000 3476.000000
418.216900 84880.000000
419.220300 20952.000000
420.222500 2512.000000
436.227800 140252.000000
437.231700 29080.000000
438.235800 4268.000000

>ms2
152.144300 224052.000000
153.147400 21696.000000
176.143300 1144.000000
194.154800 2688.000000
197.073600 4052.000000
198.150000 4964.000000
221.073700 9608.000000
222.076300 1240.000000
239.084300 2048.000000
348.211300 4340.000000
349.218100 1160.000000
372.211400 19476.000000
373.214400 4100.000000
390.222600 171228.000000
391.225400 39876.000000
392.228400 4528.000000
418.217500 27732.000000
419.221800 8076.000000
420.224000 1176.000000
436.227900 17340.000000
437.231800 4952.000000

>ms2
152.144200 518204.000000
153.147300 45548.000000
176.143400 4304.000000
179.062700 4860.000000
194.154200 4080.000000
197.073400 13364.000000
198.149500 9948.000000
221.073800 13320.000000
239.084700 5100.000000
348.209700 7648.000000
372.210200 7376.000000
390.221700 42556.000000
391.225300 11432.000000
418.218900 2636.000000

