>compound AU54215110
>parentmass 221.0743
>ionization [M+H]+
>formula C11H12N2OS
>rt 509.760000
>profile qtof
#smiles_iso C1COCCN1C2=NC3=CC=CC=C3S2
#smiles_can C1COCCN1C2=NC3=CC=CC=C3S2
#inchikey VVUVJGRVEYHIHC-UHFFFAOYSA-N
#pubchem_id 77901
#mb_accession AU287701,AU287702,AU287703,AU287704,AU287705,AU287706

>ms2peaks
177.052300 43084.000000
221.074300 2353096.000000
222.076600 319084.000000
223.069800 100220.000000

>ms2peaks
136.020600 44932.000000
149.022400 53760.000000
150.036200 82296.000000
177.047400 506816.000000
178.050000 38304.000000
179.042800 14344.000000
221.074600 2294820.000000
222.076900 301372.000000
223.070500 92704.000000

>ms2peaks
117.056200 25520.000000
124.020300 20620.000000
134.004100 6668.000000
135.012100 7820.000000
136.020200 220800.000000
137.022800 14340.000000
138.015500 7668.000000
144.066800 9292.000000
148.020000 6060.000000
149.022300 51572.000000
150.035800 412440.000000
151.037600 27248.000000
152.031700 13176.000000
160.019900 7488.000000
163.030900 11096.000000
175.030900 42324.000000
176.037600 11732.000000
177.046800 1077200.000000
178.049600 76880.000000
179.042600 28768.000000
189.046100 10264.000000
190.054100 8972.000000
203.062100 20808.000000
219.056800 11900.000000
221.073300 655876.000000
222.076200 69532.000000
223.069400 24344.000000

>ms2peaks
109.010300 9692.000000
116.049000 4020.000000
117.056500 42208.000000
118.060700 4388.000000
123.012200 4688.000000
124.020600 36968.000000
125.023000 2252.000000
134.004700 18132.000000
135.012300 33104.000000
136.020600 278852.000000
137.023400 18008.000000
138.016400 8204.000000
144.066800 14788.000000
145.073400 2104.000000
148.020300 14032.000000
149.026400 31012.000000
150.022400 31584.000000
150.036100 416744.000000
151.034600 31840.000000
152.015400 5924.000000
152.031800 13632.000000
160.020100 9228.000000
161.015700 5608.000000
162.022800 2128.000000
162.035500 6260.000000
163.031200 25232.000000
164.035300 2148.000000
175.031300 64472.000000
176.036200 9432.000000
177.047100 388816.000000
178.049800 33080.000000
179.026600 2332.000000
179.041900 12540.000000
187.031300 4556.000000
188.038300 4892.000000
189.046800 15000.000000
190.053000 4236.000000
191.026400 4224.000000
203.062400 8640.000000
219.058400 3288.000000
221.073400 52844.000000
222.076800 8240.000000
223.068400 2516.000000

>ms2peaks
108.002900 756.000000
109.010300 8884.000000
110.013600 1384.000000
116.049000 3604.000000
117.056600 28288.000000
118.060100 3284.000000
121.009500 2056.000000
122.005300 4152.000000
123.012700 10928.000000
123.025000 1388.000000
124.020700 26124.000000
125.024700 1624.000000
126.016200 1988.000000
128.048600 964.000000
131.058300 1076.000000
132.997700 1164.000000
133.010200 1312.000000
134.004800 19916.000000
135.012600 45448.000000
136.020700 142508.000000
137.009000 1804.000000
137.023600 9088.000000
138.016500 4612.000000
143.059400 1288.000000
144.067200 6040.000000
145.072900 1264.000000
148.020300 14888.000000
149.027900 26588.000000
150.023500 33708.000000
150.036100 108188.000000
151.031600 31032.000000
152.016400 5840.000000
152.032900 6584.000000
153.026800 1344.000000
160.020500 3952.000000
161.016000 3248.000000
162.035700 5812.000000
163.031600 17772.000000
164.033400 2160.000000
165.027000 824.000000
169.076300 1188.000000
175.031500 51180.000000
176.035600 5004.000000
177.047100 45824.000000
178.050300 5184.000000
179.026200 1356.000000
179.043000 2040.000000
187.031300 3756.000000
188.037200 1392.000000
189.047300 8348.000000
190.050400 1264.000000
191.027300 948.000000
203.063200 1364.000000
221.074200 2712.000000

>ms2peaks
109.011600 24528.000000
117.057300 12468.000000
124.021600 10520.000000
136.021200 90264.000000
137.024200 5672.000000
149.022700 28448.000000
150.036700 150276.000000
151.038500 8968.000000
175.031300 13524.000000
177.047400 541704.000000
178.050500 37144.000000
179.043000 15012.000000
203.062800 11632.000000
219.057700 7208.000000
221.074300 986292.000000
222.077000 140400.000000
223.070900 45332.000000

