>compound AU54960245
>parentmass 163.123
>ionization [M+H]+
>formula C10H14N2
>rt 267.000000
>profile qtof
#smiles_iso CC1=CC(=C(C=C1)N(C)C=N)C
#smiles_can CC1=CC(=C(C=C1)N(C)C=N)C
#inchikey UBLNTZNUSGCINZ-UHFFFAOYSA-N
#pubchem_id 20470070
#mb_accession AU201902,AU201903,AU201904,AU201905

>ms2peaks
117.056700 59792.000000
121.086800 2848.000000
122.095900 189640.000000
130.064000 3280.000000
131.072100 3740.000000
132.080100 175668.000000
136.111600 3052.000000
163.122100 373044.000000
164.125300 25940.000000

>ms2peaks
106.064600 1624.000000
107.073000 1248.000000
115.053600 1124.000000
116.048800 732.000000
117.056600 66828.000000
120.079900 6312.000000
121.087700 2760.000000
122.095700 33568.000000
130.064200 4988.000000
131.071600 4632.000000
132.079800 33204.000000
134.058100 348.000000
134.094400 420.000000
136.111300 380.000000
147.091100 1840.000000
148.097400 676.000000
163.121900 10396.000000

>ms2peaks
106.065100 1228.000000
107.071900 576.000000
115.053900 532.000000
116.048900 620.000000
117.056700 28856.000000
120.079900 3492.000000
121.087100 868.000000
122.095600 2540.000000
130.064100 6136.000000
131.070900 2364.000000
132.079300 3120.000000
133.075300 960.000000
147.090300 1328.000000

>ms2peaks
106.066300 468.000000
116.048600 704.000000
117.056800 7928.000000
119.072600 364.000000
120.079900 1956.000000
130.064000 3740.000000
131.059200 772.000000
132.066900 704.000000
133.074600 464.000000
147.091100 316.000000

