>compound AU54998913
>parentmass 409.137
>ionization [M+H]+
>formula C20H19F3N2O4
>rt 698.460000
>profile qtof
#smiles_iso C/C(=N\OCC1=CC=CC=C1/C(=N\OC)/C(=O)OC)/C2=CC(=CC=C2)C(F)(F)F
#smiles_can CC(=NOCC1=CC=CC=C1C(=NOC)C(=O)OC)C2=CC(=CC=C2)C(F)(F)F
#inchikey ONCZDRURRATYFI-TVJDWZFNSA-N
#pubchem_id 11664966
#mb_accession AU371406

>ms2peaks
89.038400 9288.000000
91.054100 27852.000000
105.070500 54116.000000
116.050200 471164.000000
117.055300 60184.000000
118.065000 57548.000000
119.049000 19304.000000
119.072100 12184.000000
130.064500 34152.000000
131.073100 417316.000000
132.080600 234660.000000
133.083800 23448.000000
134.061100 62560.000000
145.025200 280784.000000
146.028500 17288.000000
146.059600 83088.000000
147.066100 17928.000000
148.074600 12904.000000
162.090600 35060.000000
163.035300 8416.000000
173.031100 102064.000000
174.033800 7236.000000
175.061700 8092.000000
186.052500 1264784.000000
187.055200 237888.000000
188.058400 7124.000000
206.080800 229196.000000
207.084000 33760.000000
251.002200 12080.000000
252.005600 20940.000000
252.999300 111060.000000
254.002800 13736.000000
254.996600 17580.000000
339.036500 9828.000000

