>compound AU54964128
>parentmass 426.1691
>ionization [M+H]+
>formula C22H24ClN5O2
>rt 347.650000
>profile qtof
#smiles_iso C1CN(CCC1N2C3=C(C=C(C=C3)Cl)NC2=O)CCCN4C5=CC=CC=C5NC4=O
#smiles_can C1CN(CCC1N2C3=C(C=C(C=C3)Cl)NC2=O)CCCN4C5=CC=CC=C5NC4=O
#inchikey FGXWKSZFVQUSTL-UHFFFAOYSA-N
#pubchem_id 3151
#mb_accession AU273901,AU273902,AU273903,AU273904,AU273905,AU273906

>ms2peaks
426.168900 290352.000000
427.171400 65916.000000
428.166500 78356.000000

>ms2peaks
147.054000 3776.000000
175.085200 45940.000000
176.088500 4592.000000
426.168800 296112.000000
427.171500 71960.000000
428.166400 83204.000000

>ms2peaks
119.059300 5544.000000
147.053900 56296.000000
148.056500 4460.000000
175.085700 344152.000000
176.088400 34464.000000
235.062300 3548.000000
252.088800 4672.000000
258.159700 4328.000000
426.169100 109984.000000
427.171700 32256.000000
428.166600 34532.000000

>ms2peaks
119.059300 23044.000000
120.062300 1912.000000
147.054100 185880.000000
148.057000 16572.000000
175.085300 327284.000000
176.088400 34084.000000
207.030300 2352.000000
235.061900 3664.000000
252.088200 3180.000000
258.162000 2128.000000
426.168600 6240.000000
427.173000 2016.000000
428.166600 2492.000000

>ms2peaks
119.060000 58220.000000
120.063100 4964.000000
134.046300 3860.000000
147.054500 290036.000000
148.057300 26116.000000
149.059500 1576.000000
175.085800 174140.000000
176.088800 18312.000000
207.031300 4076.000000
209.030400 1580.000000
235.061600 2096.000000

>ms2peaks
119.059600 5296.000000
147.054400 68536.000000
148.057300 5676.000000
175.085600 216716.000000
176.088300 30092.000000
177.091500 1988.000000
235.062600 2856.000000
252.089400 3692.000000
258.158700 2356.000000
426.169200 137592.000000
427.172200 39760.000000
428.166600 47788.000000

