>compound AU55663858
>parentmass 395.0813
>ionization [M+H]+
>formula C19H11F5N2O2
>rt 704.650000
>profile qtof
#smiles_iso C1=CC(=CC(=C1)OC2=C(C=CC=N2)C(=O)NC3=C(C=C(C=C3)F)F)C(F)(F)F
#smiles_can C1=CC(=CC(=C1)OC2=C(C=CC=N2)C(=O)NC3=C(C=C(C=C3)F)F)C(F)(F)F
#inchikey WYEHFWKAOXOVJD-UHFFFAOYSA-N
#pubchem_id 91735
#mb_accession AU231501,AU231502,AU231503,AU231504,AU231505,AU231506

>ms2peaks
266.042700 4488.000000
395.082100 187428.000000
396.084900 39228.000000
397.088100 4480.000000

>ms2peaks
233.050700 2128.000000
246.035600 2680.000000
247.038200 492.000000
266.042000 64492.000000
267.045300 9224.000000
268.048600 1056.000000
284.053200 2388.000000
375.075400 4616.000000
376.077700 1444.000000
377.076100 600.000000
395.080900 91364.000000
396.084700 19772.000000
397.088300 2344.000000

>ms2peaks
233.051700 9024.000000
234.054300 1416.000000
238.047400 3328.000000
246.035500 13796.000000
247.040800 2424.000000
265.054000 2224.000000
266.042200 215184.000000
267.045100 28216.000000
268.047500 2448.000000
284.052900 11044.000000
285.054800 1736.000000
335.061500 1428.000000
355.066000 1496.000000
375.074800 5168.000000
376.079200 1296.000000
377.069600 2460.000000
395.081100 11600.000000
396.085000 3796.000000

>ms2peaks
169.050500 2868.000000
183.040400 4728.000000
185.049400 1388.000000
190.045500 3548.000000
191.052100 1180.000000
210.052700 3848.000000
214.045700 872.000000
218.039900 5660.000000
219.047600 5340.000000
220.051400 1236.000000
233.051300 13000.000000
234.054800 1004.000000
238.046500 23892.000000
239.050600 3668.000000
246.035300 26532.000000
247.040100 5032.000000
265.054400 2580.000000
266.042000 167140.000000
267.044800 23592.000000
268.047600 1776.000000
284.051500 15236.000000
285.055300 2964.000000
335.061000 856.000000
377.069700 3256.000000
378.072900 876.000000

>ms2peaks
122.021600 396.000000
128.030900 316.000000
133.041900 1108.000000
140.030600 580.000000
140.048500 1428.000000
141.055200 2808.000000
142.061700 352.000000
145.024800 2828.000000
151.033500 436.000000
153.055600 332.000000
158.039000 1876.000000
159.042700 312.000000
163.034600 792.000000
164.042000 780.000000
165.040600 556.000000
166.045600 400.000000
168.043100 1040.000000
169.050700 9308.000000
170.038300 672.000000
170.054500 1168.000000
171.047500 488.000000
172.036400 1136.000000
172.054300 1044.000000
173.028400 484.000000
178.024600 500.000000
178.044500 416.000000
181.048400 384.000000
182.033800 628.000000
183.040200 18144.000000
184.043300 2444.000000
185.049600 3748.000000
186.033200 396.000000
186.052300 1056.000000
188.048600 1600.000000
189.040300 460.000000
189.053100 420.000000
190.045300 14980.000000
191.048200 3184.000000
192.058200 388.000000
193.039700 364.000000
196.035700 1264.000000
197.044700 656.000000
198.014600 392.000000
198.036000 788.000000
198.048500 700.000000
200.048200 580.000000
201.042600 316.000000
202.044600 624.000000
203.061100 740.000000
204.049300 1068.000000
205.057800 1328.000000
206.041900 556.000000
208.054000 588.000000
210.051700 8896.000000
211.054600 1392.000000
213.045500 1160.000000
214.048000 1932.000000
215.041400 508.000000
216.044300 1492.000000
217.046500 468.000000
218.040200 21328.000000
219.046000 4800.000000
220.051500 1232.000000
222.050600 596.000000
232.044300 576.000000
233.050900 6876.000000
234.054000 1400.000000
236.051500 976.000000
238.046400 39292.000000
239.050200 6400.000000
246.035600 33984.000000
247.038700 4896.000000
248.040900 464.000000
265.053500 704.000000
266.041900 62236.000000
267.045100 9596.000000
268.047400 984.000000
284.052400 9300.000000
285.055300 1492.000000
307.069000 336.000000
309.063800 316.000000
335.062600 468.000000
337.054700 440.000000
357.062000 776.000000
358.067300 324.000000
377.068200 1192.000000
378.070300 508.000000

>ms2peaks
219.049200 924.000000
233.052600 7328.000000
234.055200 1008.000000
238.047300 4376.000000
246.036500 9964.000000
247.040600 2292.000000
265.054600 1428.000000
266.043100 154084.000000
267.046200 28324.000000
268.050100 2468.000000
284.053300 9496.000000
285.055900 1588.000000
297.043900 1100.000000
335.064500 1060.000000
375.075300 4588.000000
376.077800 1264.000000
377.072100 1880.000000
395.083100 35772.000000
396.085700 10424.000000
397.087300 776.000000

