>compound AU55103133
>parentmass 250.06449999999998
>ionization [M+H]+
>formula C11H11N3O2S
>rt 222.950000
>profile qtof
#smiles_iso C1=CC=NC(=C1)NS(=O)(=O)C2=CC=C(C=C2)N
#smiles_can C1=CC=NC(=C1)NS(=O)(=O)C2=CC=C(C=C2)N
#inchikey GECHUMIMRBOMGK-UHFFFAOYSA-N
#pubchem_id 5336
#mb_accession AU234401,AU234402,AU234403,AU234404,AU234405,AU234406

>ms2peaks
156.009700 39928.000000
172.074300 19788.000000
184.085300 14816.000000
250.063600 828000.000000
251.066000 78540.000000
252.060400 24324.000000

>ms2peaks
118.064400 5548.000000
130.063900 3132.000000
132.043000 2756.000000
134.058800 30392.000000
135.061800 3108.000000
144.079600 27448.000000
145.082700 3228.000000
146.058800 59276.000000
147.061600 5304.000000
154.064500 1456.000000
156.010400 243984.000000
157.007800 19864.000000
158.006400 9564.000000
160.074200 4324.000000
172.074600 128144.000000
173.078000 17456.000000
174.080700 1520.000000
184.085900 112896.000000
185.088900 13668.000000
186.100700 3628.000000
250.063800 116904.000000
251.066900 12728.000000
252.061100 4492.000000

>ms2peaks
108.044600 1240.000000
134.058700 1364.000000
144.080100 1756.000000
146.059500 800.000000
156.010300 57872.000000
157.007700 9060.000000
157.074100 804.000000
158.006400 3612.000000
167.059300 6188.000000
168.066500 2704.000000
169.075000 1928.000000
172.072500 1168.000000
183.077800 3212.000000
184.086000 84336.000000
185.089000 11492.000000
186.099900 1624.000000
250.063100 1868.000000

>ms2peaks
108.045200 944.000000
117.055100 664.000000
117.068700 344.000000
118.065400 320.000000
130.063000 380.000000
133.050500 308.000000
134.058500 2056.000000
140.016500 612.000000
140.048100 1416.000000
142.063900 336.000000
143.071000 856.000000
144.080100 2964.000000
145.063000 384.000000
145.081400 388.000000
146.058600 844.000000
156.010200 5872.000000
156.066800 680.000000
157.006500 1608.000000
157.074300 2460.000000
158.005600 500.000000
158.076300 328.000000
166.050800 716.000000
167.058900 16200.000000
168.065800 7524.000000
169.073200 1512.000000
172.073700 416.000000
182.068500 492.000000
183.078100 7744.000000
184.085500 36568.000000
185.070600 496.000000
185.089500 4824.000000

>ms2peaks
108.042200 396.000000
115.053300 1188.000000
116.048700 1368.000000
117.056500 1980.000000
117.068700 656.000000
118.063200 1204.000000
127.054400 648.000000
130.064000 1224.000000
133.050400 1200.000000
134.058700 3156.000000
140.048400 3668.000000
141.053200 596.000000
142.064000 788.000000
143.071700 2824.000000
144.052300 600.000000
144.079600 2688.000000
145.063400 740.000000
145.085000 452.000000
146.059400 700.000000
154.063700 488.000000
155.059000 1420.000000
156.065900 1720.000000
157.051700 564.000000
157.074700 2352.000000
159.054200 380.000000
166.051100 1884.000000
167.058900 14592.000000
168.066000 7392.000000
169.070600 1036.000000
182.069300 1464.000000
183.078500 7612.000000
184.085600 7128.000000
185.072500 308.000000
185.088600 988.000000

>ms2peaks
53.037900 688.000000
55.017200 752.000000
56.049100 18520.000000
57.052100 952.000000
58.064600 11264.000000
60.079700 1104.000000
65.038200 6064.000000
67.041400 1216.000000
68.049000 16260.000000
69.033000 1052.000000
72.080400 38776.000000
73.083500 1388.000000
74.059800 35476.000000
75.063800 1328.000000
78.033700 1432.000000
79.017800 2576.000000
82.029000 712.000000
86.096000 2488.000000
92.050000 25324.000000
93.044800 2068.000000
93.057300 5616.000000
94.053000 5920.000000
94.065200 844.000000
95.061000 43248.000000
96.044800 2244.000000
96.064200 1704.000000
98.097100 10736.000000
99.101400 724.000000
108.045800 28504.000000
109.049100 2500.000000
110.061000 4676.000000
117.056700 1088.000000
117.069100 1556.000000
118.065200 5164.000000
120.056200 2636.000000
130.064100 3044.000000
132.044300 2976.000000
132.079300 1124.000000
133.051100 1528.000000
134.059300 27496.000000
135.062000 2880.000000
143.072400 1256.000000
144.080100 28616.000000
145.064300 756.000000
145.083500 3000.000000
146.059200 36532.000000
147.062500 3520.000000
154.064800 880.000000
155.059500 956.000000
156.010600 134696.000000
157.009500 11428.000000
158.007000 7508.000000
159.002100 752.000000
160.075600 3908.000000
167.059800 1824.000000
168.067900 920.000000
169.074100 984.000000
171.066600 688.000000
172.075100 64852.000000
173.078400 7996.000000
183.079100 932.000000
184.086400 98964.000000
185.089400 10040.000000
186.102400 1992.000000
250.064800 73740.000000
251.067800 8744.000000
252.061800 2212.000000

