>compound AU55331640
>parentmass 346.0443
>ionization [M+H]+
>formula C12H16N3O3PS2
>rt 615.110000
>profile qtof
#smiles_iso CCOP(=S)(OCC)SCN1C(=O)C2=CC=CC=C2N=N1
#smiles_can CCOP(=S)(OCC)SCN1C(=O)C2=CC=CC=C2N=N1
#inchikey RQVGAIADHNPSME-UHFFFAOYSA-N
#pubchem_id 17531
#mb_accession AU260801,AU260802,AU260803,AU260804,AU260805,AU260806

>ms2
124.981100 3076.000000
132.043600 276248.000000
133.046500 18248.000000
137.004400 3460.000000
142.937500 12396.000000
148.020300 4428.000000
149.059000 1904.000000
150.053600 9800.000000
153.012300 18316.000000
160.049600 344944.000000
161.052700 23748.000000
166.030900 7816.000000
170.968600 27552.000000
171.022900 10184.000000
172.964400 2288.000000
182.039200 3304.000000
199.000500 22244.000000
200.995400 1752.000000
232.948900 25704.000000
233.951200 2036.000000
234.944900 2192.000000
260.980200 59684.000000
261.979500 10832.000000
262.977000 5528.000000
289.011500 48944.000000
290.011700 8600.000000
291.007100 3916.000000
346.045900 5560.000000

>ms2
124.981100 4236.000000
132.043600 305488.000000
133.046600 22400.000000
137.004400 17200.000000
138.008400 1644.000000
142.937300 17168.000000
148.020300 2612.000000
150.053900 13324.000000
153.011900 5844.000000
160.049500 31144.000000
161.053600 1880.000000
166.030000 2392.000000
170.968700 7468.000000
171.022600 3388.000000
216.970900 1872.000000
232.948500 36036.000000
233.951300 3208.000000
234.945400 3340.000000
247.012900 1600.000000
260.979600 9184.000000
261.978900 1592.000000
263.007200 2592.000000
288.028000 5828.000000

>ms2
124.980700 2212.000000
132.043600 147108.000000
133.046800 11868.000000
134.048300 828.000000
136.021700 924.000000
137.004300 30072.000000
138.007700 2460.000000
139.000000 1184.000000
142.937100 15616.000000
144.933500 1756.000000
148.019900 1580.000000
150.053800 7292.000000
151.056900 776.000000
152.981300 908.000000
152.999100 2408.000000
153.011600 1104.000000
160.049300 10040.000000
161.053500 916.000000
166.032100 1156.000000
168.977300 868.000000
170.968700 2328.000000
171.022500 1316.000000
172.980100 924.000000
198.012900 1960.000000
199.000300 784.000000
214.938200 2136.000000
216.970100 1872.000000
232.948600 8320.000000
234.943100 1108.000000
240.061400 1732.000000
245.981600 1468.000000
247.013700 792.000000
259.014100 952.000000
288.027800 1572.000000

>ms2
124.980300 1780.000000
132.043400 146560.000000
133.046300 11564.000000
134.048300 784.000000
136.021600 940.000000
137.004200 28136.000000
138.007200 2800.000000
139.001100 1280.000000
142.936800 14468.000000
144.933200 1140.000000
148.020100 1296.000000
150.053900 6040.000000
151.055800 876.000000
152.981100 1288.000000
152.998900 2944.000000
153.011400 1864.000000
154.970500 1128.000000
160.049000 16812.000000
161.051900 1452.000000
170.947500 992.000000
170.970000 1864.000000
171.022200 1328.000000
172.980300 1260.000000
198.012200 1640.000000
214.936800 1544.000000
232.949500 1036.000000

>ms2
109.010400 372.000000
120.043600 524.000000
124.981800 464.000000
126.942600 464.000000
132.043500 40348.000000
133.046600 4548.000000
135.997500 1368.000000
136.019500 304.000000
137.004300 15160.000000
138.007800 1552.000000
139.000800 864.000000
142.937500 6820.000000
144.934000 480.000000
148.018800 532.000000
150.053300 1500.000000
152.980800 1044.000000
152.998700 2368.000000
154.970400 644.000000
167.968900 544.000000
168.975800 428.000000
170.947200 1220.000000
170.972300 312.000000
172.981700 952.000000
214.934900 416.000000

>ms2
53.037900 5076.000000
77.037800 3732.000000
95.049300 7632.000000
104.049800 14288.000000
105.034200 11572.000000
105.044400 8668.000000
106.036500 896.000000
106.047900 832.000000
114.960500 18452.000000
116.955900 864.000000
120.043200 8632.000000
124.981300 1680.000000
130.038200 2864.000000
132.043500 151516.000000
133.046300 15432.000000
134.048800 1064.000000
137.003800 30384.000000
138.006900 2300.000000
138.999600 960.000000
142.936700 16640.000000
144.933000 1220.000000
148.019600 2376.000000
150.053200 59888.000000
151.055700 7212.000000
152.999400 2028.000000
153.013300 1304.000000
160.048700 19176.000000
161.051300 1512.000000
164.068100 1296.000000
166.031100 1216.000000
170.968300 3668.000000
171.021900 5100.000000
198.012800 1568.000000
199.001600 792.000000
214.937700 1096.000000
216.968600 1516.000000
232.947100 18076.000000
233.948900 1968.000000
234.943400 1772.000000
240.061400 916.000000
245.979800 1460.000000
247.011400 992.000000
259.012700 880.000000
260.978900 2272.000000
263.006700 868.000000
288.025600 2660.000000
299.058900 964.000000

