>compound AU55796986
>parentmass 353.0221000000001
>ionization [M+H]+
>formula C13H15Cl3N2O3
>rt 667.470000
>profile qtof
#smiles_iso CCCN(CCOC1=C(C=C(C=C1Cl)Cl)Cl)C(=O)NC=O
#smiles_can CCCN(CCOC1=C(C=C(C=C1Cl)Cl)Cl)C(=O)NC=O
#inchikey RHDVQZWCBQXOJW-UHFFFAOYSA-N
#pubchem_id 57472173
#mb_accession AU264301,AU264302,AU264303,AU264304,AU264305,AU264306

>ms2peaks
157.096600 728.000000
239.974400 624.000000
241.971400 756.000000
265.954100 2448.000000
267.950200 3192.000000
308.000200 75468.000000
309.003400 10388.000000
309.997100 72120.000000
310.999400 6724.000000
311.994100 1440.000000
353.021300 118140.000000
354.024100 15664.000000
355.018900 104324.000000

>ms2peaks
157.096200 1496.000000
174.969500 1572.000000
194.916400 1256.000000
196.912000 960.000000
201.980600 2496.000000
203.979100 1476.000000
222.947100 4696.000000
224.944100 4048.000000
237.957200 1656.000000
239.955900 1360.000000
239.973800 8276.000000
240.977600 1132.000000
241.970700 7676.000000
244.027200 4904.000000
245.034500 1984.000000
246.025100 2288.000000
247.031200 896.000000
265.953000 45092.000000
266.955300 4660.000000
267.949800 37288.000000
268.953800 2340.000000
269.947200 936.000000
280.004000 9332.000000
281.007100 1548.000000
282.002200 8040.000000
283.007300 964.000000
283.964800 2832.000000
284.017100 952.000000
285.960500 2724.000000
308.000300 176080.000000
309.003100 23472.000000
309.997300 144476.000000
310.999800 11268.000000
311.994000 2924.000000
353.020600 3056.000000
355.018800 3412.000000

>ms2peaks
129.100000 876.000000
157.098000 344.000000
158.974100 584.000000
159.982100 312.000000
160.971900 508.000000
166.004300 776.000000
166.920400 392.000000
167.012000 1276.000000
168.000200 316.000000
168.919800 312.000000
173.984900 1356.000000
174.969800 3924.000000
175.977700 512.000000
175.984900 432.000000
176.966300 2012.000000
179.927700 436.000000
186.970800 328.000000
187.976700 524.000000
194.914900 5496.000000
194.952700 536.000000
195.918000 520.000000
196.912600 5800.000000
196.930900 1280.000000
198.928200 1132.000000
201.981000 5524.000000
202.986500 1020.000000
203.978600 3168.000000
204.984900 356.000000
206.934200 300.000000
208.051600 588.000000
209.058500 1404.000000
219.991600 848.000000
222.946100 11104.000000
223.949100 1116.000000
224.943800 9148.000000
225.950800 620.000000
237.957400 2212.000000
238.961800 324.000000
239.955500 1928.000000
239.971700 1144.000000
241.970200 1244.000000
244.027500 4332.000000
245.035400 3012.000000
246.025400 1968.000000
247.031700 1088.000000
265.952600 6100.000000
266.957300 980.000000
267.949500 7108.000000
268.950000 504.000000
280.005100 4048.000000
281.009200 476.000000
282.002000 3620.000000
283.006300 364.000000
283.962200 344.000000
285.960500 648.000000
308.000000 13720.000000
309.003500 2124.000000
309.996800 11544.000000
310.997900 1424.000000

>ms2peaks
129.101900 316.000000
132.958500 544.000000
158.974700 2288.000000
159.981400 1388.000000
160.952900 888.000000
160.972400 884.000000
161.962400 1424.000000
161.979300 452.000000
163.958100 1024.000000
166.004000 796.000000
166.920500 2016.000000
167.012300 964.000000
168.916900 1552.000000
173.985200 1272.000000
174.969500 1848.000000
175.982400 712.000000
176.967100 1144.000000
179.927600 1568.000000
180.018700 332.000000
181.031400 312.000000
181.924400 1112.000000
186.969400 812.000000
187.977600 1412.000000
188.965200 416.000000
189.972800 668.000000
194.915400 8408.000000
194.952100 1060.000000
195.918700 732.000000
196.912400 6544.000000
196.930700 4032.000000
196.946900 940.000000
198.927600 3048.000000
201.980600 1300.000000
202.986300 480.000000
203.978900 668.000000
204.935900 540.000000
206.931500 428.000000
215.995900 588.000000
217.991300 316.000000
222.946400 4604.000000
223.949000 372.000000
224.944500 2712.000000
237.959000 400.000000
245.035000 548.000000
247.031900 384.000000
281.999400 312.000000
308.001300 472.000000

>ms2peaks
122.999200 344.000000
125.014900 864.000000
132.959000 1616.000000
134.957500 936.000000
138.012500 300.000000
152.001600 480.000000
158.974300 2044.000000
159.981600 824.000000
160.954900 1332.000000
160.971900 972.000000
161.961400 3544.000000
161.976100 472.000000
162.951900 696.000000
163.959700 1524.000000
166.919900 5108.000000
167.010900 500.000000
167.923900 340.000000
168.917500 3856.000000
169.920300 312.000000
173.986300 540.000000
174.970500 824.000000
175.982300 364.000000
176.966300 372.000000
179.928800 1412.000000
180.017000 304.000000
181.924900 856.000000
187.977600 744.000000
188.969300 468.000000
189.975600 588.000000
194.914500 5160.000000
195.918100 368.000000
195.926100 468.000000
196.912600 4008.000000
196.931000 1924.000000
196.947300 348.000000
198.928000 1908.000000
206.925300 428.000000
215.993000 304.000000
222.947300 776.000000
224.948300 688.000000

>ms2peaks
56.048700 1820.000000
57.057100 780.000000
60.043900 2452.000000
70.028000 21352.000000
70.064400 6508.000000
71.031800 800.000000
85.088400 2912.000000
88.039200 584.000000
113.083100 384.000000
129.100600 1140.000000
138.009000 308.000000
157.096800 624.000000
158.973300 740.000000
159.979700 416.000000
166.004600 476.000000
166.919800 356.000000
167.011800 752.000000
168.000300 376.000000
173.987800 596.000000
174.970000 1804.000000
175.974900 372.000000
175.985100 496.000000
176.965700 876.000000
179.927600 308.000000
187.977800 564.000000
189.974300 628.000000
194.914700 4056.000000
194.949200 612.000000
195.918800 348.000000
196.912200 3632.000000
196.930200 1020.000000
196.946800 396.000000
198.911900 308.000000
198.928100 980.000000
201.980200 3876.000000
202.986800 560.000000
203.977900 1584.000000
208.050200 352.000000
209.059700 576.000000
211.054800 336.000000
215.995100 376.000000
219.991100 432.000000
221.987300 420.000000
222.946600 7136.000000
223.950000 840.000000
224.943400 7176.000000
225.948300 428.000000
237.957400 1244.000000
238.960100 324.000000
239.954400 1444.000000
239.973000 9268.000000
240.977000 704.000000
241.970100 11424.000000
242.976000 568.000000
243.966000 408.000000
244.028100 4328.000000
245.035300 2044.000000
246.025000 1660.000000
247.032700 924.000000
265.952500 11400.000000
266.954500 1064.000000
267.949300 10672.000000
268.952900 792.000000
269.947900 672.000000
280.003800 4892.000000
281.008300 596.000000
282.002700 4428.000000
283.008300 524.000000
283.962600 3572.000000
283.998400 348.000000
284.016800 664.000000
285.959900 2548.000000
307.999500 51924.000000
309.003000 8728.000000
309.996600 44208.000000
310.998800 4812.000000
311.992900 3016.000000
353.022800 456.000000
355.019100 352.000000

