>compound AU56454994
>parentmass 189.98209999999997
>ionization [M+H]+
>formula C7H5Cl2NO
>rt 262.070000
>profile qtof
#smiles_iso C1=CC(=C(C(=C1)Cl)C(=O)N)Cl
#smiles_can C1=CC(=C(C(=C1)Cl)C(=O)N)Cl
#inchikey JHSPCUHPSIUQRB-UHFFFAOYSA-N
#pubchem_id 16183
#mb_accession AU337401,AU337402,AU337403,AU337404,AU337405,AU337406

>ms2
171.969900 700.000000
172.954100 17668.000000
173.957500 1616.000000
174.951600 9772.000000
189.981400 129008.000000
190.984600 8160.000000
191.978300 64532.000000
192.981300 3492.000000

>ms2
144.959200 800.000000
146.975300 724.000000
162.970500 616.000000
163.999700 1048.000000
172.954100 101756.000000
173.957500 7312.000000
174.951600 53252.000000
175.954400 2844.000000
189.981400 23960.000000
190.984600 2396.000000
191.978300 12252.000000
192.981300 1008.000000

>ms2
108.984500 360.000000
126.994500 1036.000000
128.001300 832.000000
135.994300 764.000000
144.960200 3644.000000
146.957000 2420.000000
154.004400 856.000000
155.000200 568.000000
162.970400 2876.000000
164.000000 3372.000000
165.997000 732.000000
172.954100 44808.000000
173.957500 5204.000000
174.951600 28520.000000
175.954800 1368.000000
189.981400 1280.000000

>ms2
108.983500 736.000000
126.993200 772.000000
128.002000 672.000000
135.994000 796.000000
144.959900 5200.000000
145.963200 540.000000
146.956900 3396.000000
154.005200 416.000000
154.998500 432.000000
162.969800 2900.000000
163.999700 2220.000000
165.996500 504.000000
171.971100 576.000000
172.954100 18836.000000
173.957500 1912.000000
174.951600 10300.000000
175.954800 632.000000

>ms2
108.983000 708.000000
110.981000 792.000000
144.959700 1584.000000
146.957900 1240.000000
162.970500 504.000000
164.001800 568.000000
172.965700 4592.000000
174.962300 1980.000000

>ms2
144.959000 4368.000000
146.956400 2016.000000
146.974500 2304.000000
162.969500 3032.000000
164.967500 1648.000000
171.970600 16364.000000
172.954800 286868.000000
173.958900 23736.000000
174.951800 132900.000000
189.981200 94312.000000
190.984500 6252.000000
191.978100 47708.000000

