>compound AU56055262
>parentmass 223.07449999999997
>ionization [M+H]+
>formula C10H11ClN4
>rt 307.900000
>profile qtof
#smiles_iso CC(=NC#N)N(C)CC1=CN=C(C=C1)Cl
#smiles_can CC(=NC#N)N(C)CC1=CN=C(C=C1)Cl
#inchikey WCXDHFDTOYPNIE-UHFFFAOYSA-N
#pubchem_id 213021
#mb_accession AU232701,AU232702,AU232703,AU232704,AU232705,AU232706

>ms2
126.009600 165452.000000
128.006500 47484.000000
181.051700 12308.000000
187.096600 21820.000000
223.074400 2315364.000000
224.076900 271116.000000
225.071100 777124.000000

>ms2
126.009600 1202940.000000
127.012700 65720.000000
128.006700 378872.000000
129.009700 12960.000000
144.019700 16684.000000
181.051300 15216.000000
187.096700 25376.000000
206.047200 7672.000000
223.073800 224400.000000
224.076500 25696.000000
225.070800 61604.000000

>ms2
126.009400 637236.000000
127.012400 49788.000000
128.006300 240868.000000
129.009300 9640.000000
144.019400 25164.000000
146.016700 7272.000000
181.051400 3256.000000
187.096800 3192.000000

>ms2
126.009700 310928.000000
127.012700 25592.000000
128.006400 110792.000000
129.009400 5208.000000
144.019800 20800.000000
146.017000 6556.000000

>ms2
126.009700 102072.000000
127.012700 10572.000000
128.006500 38228.000000
129.009600 2092.000000
129.045400 676.000000
144.019700 10428.000000
145.074900 768.000000
146.017000 3240.000000
156.054000 528.000000
165.020100 688.000000

>ms2
56.048900 415416.000000
57.052100 11736.000000
81.032600 7548.000000
90.033800 47348.000000
91.041000 8288.000000
98.999900 16656.000000
126.010400 805800.000000
127.013100 58560.000000
128.007100 234280.000000
129.010200 8184.000000
144.019600 17052.000000
146.016700 4388.000000
181.051500 10308.000000
187.096800 16628.000000
196.062500 4844.000000
206.046400 5560.000000
223.073700 170548.000000
224.076700 18724.000000
225.070600 48980.000000

