>compound AU56994320
>parentmass 252.12300000000002
>ionization [M+H]+
>formula C13H17NO4
>rt 315.638182
>profile qtof
#smiles_iso CC1=C(C(=CC=C1)C)N(CCOC)C(=O)C(=O)O
#smiles_can CC1=C(C(=CC=C1)C)N(CCOC)C(=O)C(=O)O
#inchikey MHGMSAFPNAKIRZ-UHFFFAOYSA-N
#pubchem_id 86290105
#mb_accession AU204401,AU204402,AU204403,AU204404,AU204405,AU255301,AU255302,AU255303,AU255304,AU255305,AU255306

>ms2
176.107200 344.000000
178.121700 476.000000
206.116500 2860.000000
207.122200 708.000000
220.096000 33944.000000
221.098900 4096.000000
222.101600 616.000000
252.122300 6192.000000

>ms2
117.055600 328.000000
131.072000 832.000000
132.080200 3396.000000
133.087300 504.000000
146.095800 1984.000000
148.075100 508.000000
148.110800 4392.000000
149.114300 428.000000
176.105200 1312.000000
178.121200 1768.000000
206.118100 684.000000
220.095800 28584.000000
221.098900 3308.000000
222.101600 536.000000

>ms2
117.056000 964.000000
118.063800 856.000000
120.080000 384.000000
130.064800 900.000000
131.072000 2456.000000
132.079700 5796.000000
133.087500 2176.000000
134.091000 348.000000
146.094800 1800.000000
148.076700 784.000000
148.111200 5544.000000
149.114300 652.000000
158.095400 344.000000
176.106700 836.000000
178.125200 368.000000
220.098900 5380.000000
221.101600 728.000000

>ms2
117.056900 1300.000000
118.064200 1808.000000
119.083300 348.000000
120.079300 344.000000
130.064800 2088.000000
131.072100 2620.000000
132.080100 3636.000000
133.087700 812.000000
146.095800 504.000000
148.111000 1672.000000
220.097600 436.000000

>ms2
117.057100 1708.000000
118.063900 1712.000000
120.079000 436.000000
130.064300 2984.000000
131.071200 1744.000000
132.079600 2872.000000
133.086500 648.000000
148.109700 648.000000

>ms2
148.110900 320.000000
176.105200 376.000000
178.120900 608.000000
206.116600 2544.000000
207.120800 496.000000
220.096200 34236.000000
221.098200 4528.000000
222.101000 372.000000
252.122000 7104.000000
253.127300 1596.000000

>ms2
130.063300 304.000000
131.071100 1200.000000
132.080000 3528.000000
133.085800 980.000000
146.095900 3080.000000
147.100000 456.000000
148.074900 804.000000
148.111000 3916.000000
149.113200 392.000000
176.105800 1972.000000
177.109700 348.000000
178.121600 1996.000000
192.102200 304.000000
206.115800 716.000000
220.095700 34868.000000
221.099500 4752.000000
224.038800 332.000000

>ms2
117.055700 1380.000000
118.063200 756.000000
120.080900 496.000000
130.064100 1064.000000
131.071800 3772.000000
132.079900 5608.000000
133.087200 2452.000000
143.074400 324.000000
146.095000 2544.000000
148.073400 808.000000
148.110700 5896.000000
149.113800 1064.000000
176.107300 1132.000000
178.121000 324.000000
220.096600 5768.000000
221.098700 584.000000

>ms2
117.056000 1588.000000
118.063600 1776.000000
120.081000 364.000000
130.064500 1628.000000
131.071400 2556.000000
132.079300 3304.000000
133.048400 336.000000
133.085700 1532.000000
146.095900 684.000000
148.110600 1592.000000
220.095300 376.000000

>ms2
117.056500 1328.000000
118.064900 896.000000
130.064500 2168.000000
131.072100 1460.000000
132.079900 1408.000000
133.084700 460.000000
148.109200 344.000000

>ms2
117.056500 416.000000
118.066600 488.000000
120.081300 416.000000
130.065700 300.000000
131.072300 1804.000000
132.080100 5024.000000
133.087400 1128.000000
146.096600 1968.000000
147.100400 584.000000
148.075000 792.000000
148.111700 7000.000000
149.116300 908.000000
176.106200 1996.000000
177.110100 308.000000
178.123500 1380.000000
192.103100 472.000000
206.117600 792.000000
220.096400 24820.000000
221.100000 3220.000000

