>compound AU56442677
>parentmass 363.1472
>ionization [M+H]+
>formula C16H26O7S
>rt 786.405000
>profile qtof
#smiles_iso C1CCC(CC1)OC(=O)CC(C(=O)OC2CCCCC2)S(=O)(=O)O
#smiles_can C1CCC(CC1)OC(=O)CC(C(=O)OC2CCCCC2)S(=O)(=O)O
#inchikey QPSVFNQMURAADJ-UHFFFAOYSA-N
#pubchem_id 90918
#mb_accession AU249701,AU249704,AU249705,AU249706

>ms2
198.991800 392.000000

>ms2
121.026000 376.000000
149.021900 3476.000000
150.026300 488.000000
239.077300 496.000000

>ms2
149.022000 2444.000000

>ms2
57.069600 736.000000
149.022000 4072.000000
150.024600 356.000000
151.096700 412.000000
237.076800 396.000000
238.081000 384.000000

