>compound AU56596902
>parentmass 207.1743
>ionization [M+H]+
>formula C14H22O
>rt 646.380000
>profile qtof
#smiles_iso CC1C(C2=C(C1(C)C)C(=O)CCC2)(C)C
#smiles_can CC1C(C2=C(C1(C)C)C(=O)CCC2)(C)C
#inchikey MIZGSAALSYARKU-UHFFFAOYSA-N
#pubchem_id 92292
#mb_accession AU244801,AU244806

>ms2peaks
189.163700 540.000000
207.173500 1620.000000

>ms2peaks
137.129900 328.000000
149.134300 344.000000

