>compound AU56143600
>parentmass 320.1405
>ionization [M+H]+
>formula C16H18FN3O3
>rt 257.940000
>profile qtof
#smiles_iso CCN1C=C(C(=O)C2=CC(=C(C=C21)N3CCNCC3)F)C(=O)O
#smiles_can CCN1C=C(C(=O)C2=CC(=C(C=C21)N3CCNCC3)F)C(=O)O
#inchikey OGJPXUAPXNRGGI-UHFFFAOYSA-N
#pubchem_id 4539
#mb_accession AU103201,AU103202,AU103203

>ms2peaks
276.148600 2344.000000
302.129100 2940.000000
320.140000 234088.000000
321.143100 39808.000000
322.144900 4536.000000

>ms2peaks
233.107300 5248.000000
256.142700 1716.000000
276.150000 20876.000000
277.154200 4116.000000
302.129100 29980.000000
303.132400 5448.000000
320.140300 213024.000000
321.142800 35652.000000
322.145400 4132.000000

>ms2peaks
203.060400 1228.000000
204.067500 1152.000000
205.076900 2384.000000
207.091900 1332.000000
219.092000 2692.000000
231.056400 4964.000000
233.107800 14740.000000
234.111600 2636.000000
256.145200 3044.000000
272.101000 1300.000000
274.100700 1072.000000
274.133300 964.000000
276.150400 6712.000000
277.155100 1496.000000
282.123500 3176.000000
292.108200 1072.000000
300.134400 10156.000000
301.137100 1832.000000
302.130200 40640.000000
303.132500 7192.000000
320.140600 189592.000000
321.143700 32408.000000
322.144700 3656.000000

