>compound AU56627355
>parentmass 282.1448
>ionization [M+H]+
>formula C13H19N3O4
>rt 769.900000
>profile qtof
#smiles_iso CCC(CC)NC1=C(C=C(C(=C1[N+](=O)[O-])C)C)[N+](=O)[O-]
#smiles_can CCC(CC)NC1=C(C=C(C(=C1[N+](=O)[O-])C)C)[N+](=O)[O-]
#inchikey CHIFOSRWCNZCFN-UHFFFAOYSA-N
#pubchem_id 38479
#mb_accession AU254901,AU254902,AU254903,AU254904,AU254905,AU254906

>ms2
149.022100 996.000000
194.054400 1604.000000
206.090400 432.000000
212.066200 83424.000000
213.068700 7292.000000
214.071500 912.000000
252.115700 2492.000000
253.116600 484.000000
282.145000 6276.000000
283.147600 912.000000

>ms2
118.052300 1012.000000
119.059000 680.000000
147.054000 1016.000000
148.062200 2204.000000
149.022300 1088.000000
149.058000 1332.000000
150.026500 1248.000000
177.052700 1316.000000
178.059400 1168.000000
194.055000 18672.000000
195.061700 5652.000000
212.065900 59028.000000
213.068900 7268.000000
252.114700 4892.000000

>ms2
117.041400 372.000000
118.051700 1616.000000
119.058600 1688.000000
120.044500 488.000000
126.054100 380.000000
129.045000 480.000000
130.051900 1240.000000
131.021800 312.000000
131.046400 340.000000
131.058600 1080.000000
132.054100 344.000000
133.038100 316.000000
134.095600 700.000000
135.054500 856.000000
136.060800 436.000000
145.037900 320.000000
147.053700 3008.000000
148.049400 452.000000
148.062100 4212.000000
149.021900 1124.000000
149.057700 2436.000000
150.026600 940.000000
150.065300 400.000000
160.049300 780.000000
163.048600 1072.000000
164.057300 720.000000
165.064600 1016.000000
166.060600 328.000000
166.072700 364.000000
176.045600 848.000000
176.142400 2096.000000
177.052200 3680.000000
178.060000 3508.000000
179.044100 604.000000
194.054900 9772.000000
195.061500 4904.000000
196.065100 836.000000
212.065200 9496.000000
213.069500 980.000000
252.114200 1928.000000
253.117000 344.000000

>ms2
117.043900 344.000000
118.052600 332.000000
119.059100 1384.000000
119.072000 320.000000
120.067400 388.000000
129.042700 504.000000
130.050400 396.000000
131.058400 1068.000000
132.054200 612.000000
133.037500 344.000000
134.095100 820.000000
135.054200 520.000000
136.037700 312.000000
146.094900 384.000000
147.053400 1484.000000
148.062500 3344.000000
149.023000 848.000000
149.060000 668.000000
151.051000 304.000000
160.047100 436.000000
163.048300 1424.000000
164.055500 428.000000
165.065400 324.000000
166.067300 360.000000
176.044900 428.000000
176.140800 788.000000
177.051800 1540.000000
178.060000 1840.000000
179.042700 332.000000
194.054600 1344.000000
195.061800 844.000000
225.040000 360.000000

>ms2
118.050900 396.000000
119.058800 1188.000000
120.067300 372.000000
129.044300 536.000000
131.059300 456.000000
132.055500 300.000000
134.094600 304.000000
136.037900 344.000000
144.077800 332.000000
147.054000 928.000000
148.061400 1984.000000
149.021100 516.000000
163.048400 496.000000
176.143000 300.000000
178.059500 660.000000

>ms2
57.069200 880.000000
60.080300 3008.000000
71.085800 1292.000000
118.052600 1888.000000
119.059400 1192.000000
126.053900 816.000000
130.051600 1136.000000
131.058900 688.000000
133.038800 844.000000
134.096600 928.000000
135.055000 736.000000
147.054700 1932.000000
148.062500 3520.000000
149.022900 784.000000
149.059300 2044.000000
150.027400 884.000000
160.050600 696.000000
163.050800 1608.000000
165.065500 608.000000
166.065100 644.000000
176.143300 1788.000000
177.053100 3564.000000
178.060600 3156.000000
179.044300 524.000000
194.055600 17604.000000
195.063200 7652.000000
196.064800 724.000000
212.066200 44424.000000
213.069000 3492.000000
214.071000 608.000000
252.115400 3052.000000

