>compound AU56247629
>parentmass 253.1659
>ionization [M+H]+
>formula C12H20N4O2
>rt 426.140000
>profile qtof
#smiles_iso CN1C(=NC(=O)N(C1=O)C2CCCCC2)N(C)C
#smiles_can CN1C(=NC(=O)N(C1=O)C2CCCCC2)N(C)C
#inchikey CAWXEEYDBZRFPE-UHFFFAOYSA-N
#pubchem_id 39965
#mb_accession AU260201,AU260202,AU260203,AU260204,AU260205,AU260206

>ms2peaks
171.086700 2076500.000000
172.089400 91052.000000
253.166500 2514740.000000
254.168600 531976.000000

>ms2peaks
171.087600 2512588.000000
172.089500 308596.000000
173.090700 20420.000000
253.165700 235480.000000
254.168500 25140.000000

>ms2peaks
114.065800 10012.000000
128.081000 13848.000000
171.087100 1971540.000000
172.089500 133340.000000
173.090600 10500.000000

>ms2peaks
114.065600 5884.000000
128.080400 8172.000000
139.059600 3236.000000
140.045100 1860.000000
171.086500 356248.000000
172.089000 25696.000000
173.090900 2504.000000

>ms2peaks
114.065900 2056.000000
128.081200 1452.000000
139.060000 2228.000000
140.045100 512.000000
171.086400 28464.000000
172.089900 1776.000000

>ms2peaks
55.053800 17276.000000
71.060000 465540.000000
72.043800 17480.000000
72.063200 12120.000000
83.023800 24620.000000
83.085400 37244.000000
85.075900 457552.000000
86.079100 13012.000000
101.035100 33856.000000
114.067300 22068.000000
128.081900 7072.000000
171.087500 1210004.000000
172.089700 129028.000000
173.091100 8272.000000
253.166200 100464.000000
254.168900 10980.000000

