>compound AU56723099
>parentmass 250.016
>ionization [M+H]+
>formula C6H8ClN5O2S
>rt 292.340000
>profile qtof
#smiles_iso CN=C(NCC1=CN=C(S1)Cl)N[N+](=O)[O-]
#smiles_can CN=C(NCC1=CN=C(S1)Cl)N[N+](=O)[O-]
#inchikey PGOOBECODWQEAB-UHFFFAOYSA-N
#pubchem_id 213027
#mb_accession AU232801,AU232802,AU232803,AU232804,AU232805,AU232806

>ms2peaks
131.965700 125424.000000
132.968600 5556.000000
133.962400 36364.000000
134.965300 1652.000000
146.976300 1608.000000
168.045100 72612.000000
169.052900 278128.000000
170.055500 16592.000000
171.048700 8476.000000
172.979500 3400.000000
174.972000 3656.000000
186.994400 1508.000000
203.013900 1724.000000
204.021800 16660.000000
205.023800 1784.000000
206.014700 28412.000000
207.017200 1784.000000
208.009800 6904.000000
220.016300 4084.000000
250.015000 147820.000000
251.016500 11848.000000
252.011900 46092.000000

>ms2peaks
113.016100 5168.000000
131.965800 140272.000000
132.968500 6932.000000
133.962300 42124.000000
134.966500 1464.000000
142.042300 2516.000000
143.049000 2908.000000
146.976400 5096.000000
147.983600 6080.000000
148.973200 1520.000000
148.990500 1192.000000
149.980900 2192.000000
153.021600 2644.000000
167.037300 2924.000000
168.045000 42048.000000
169.052900 227244.000000
170.055300 12260.000000
171.048400 7596.000000
172.979300 3584.000000
174.971000 8760.000000
176.968800 2552.000000
204.021500 4456.000000
206.014200 4508.000000

>ms2peaks
110.070200 1920.000000
111.078700 940.000000
113.016200 8008.000000
114.018700 756.000000
115.011100 616.000000
118.957200 472.000000
119.965600 1328.000000
125.080900 1328.000000
126.011700 976.000000
127.019100 1692.000000
131.965900 92848.000000
132.970700 6464.000000
133.962500 28540.000000
134.967600 1872.000000
135.065100 660.000000
138.010500 912.000000
141.035100 552.000000
142.042300 4436.000000
143.050000 1144.000000
145.968900 584.000000
146.976100 8240.000000
147.961600 848.000000
147.984100 5988.000000
148.974300 2572.000000
149.980600 2660.000000
152.026300 548.000000
153.021700 6160.000000
154.026300 1076.000000
167.037200 4540.000000
168.044700 11020.000000
169.053000 78896.000000
170.055300 6152.000000
171.048100 2936.000000
171.970800 1080.000000
172.979500 3432.000000
173.984400 628.000000
174.972200 6772.000000
175.974200 532.000000
176.968400 1756.000000
204.020300 636.000000
206.019400 528.000000

>ms2peaks
110.070800 1276.000000
111.078200 1348.000000
113.015900 6352.000000
114.020500 648.000000
115.011700 824.000000
118.958700 1116.000000
119.965400 2968.000000
120.956100 460.000000
121.963800 1160.000000
125.081600 1296.000000
126.010800 2280.000000
127.018300 1840.000000
128.026600 352.000000
131.965800 60764.000000
132.972400 7480.000000
133.962600 21524.000000
134.969300 2404.000000
135.065400 504.000000
138.010900 1632.000000
140.027300 472.000000
141.035200 696.000000
142.042100 4620.000000
143.048200 436.000000
146.976900 7408.000000
147.984400 3528.000000
148.972900 2376.000000
149.980400 1332.000000
152.014600 776.000000
152.024200 548.000000
153.021600 5448.000000
154.028000 1600.000000
167.037300 3924.000000
168.045400 2088.000000
169.052800 16648.000000
170.056500 1588.000000
171.049200 748.000000
171.971200 1676.000000
172.980600 716.000000
173.969100 636.000000
173.983300 436.000000
174.971600 4344.000000
176.967900 1548.000000

>ms2peaks
110.070600 476.000000
111.077900 372.000000
113.015700 1904.000000
118.960300 640.000000
119.966400 1352.000000
121.961800 968.000000
125.004400 412.000000
126.011700 1552.000000
131.966000 15516.000000
132.973100 4020.000000
133.962600 6144.000000
134.969800 1036.000000
138.010500 756.000000
142.041300 668.000000
144.961800 436.000000
146.954300 312.000000
146.976200 2172.000000
147.983900 424.000000
148.974500 560.000000
152.013800 676.000000
153.021200 1404.000000
154.026500 392.000000
167.036700 904.000000
168.045500 320.000000
169.052400 1152.000000
171.972600 780.000000
174.969700 652.000000

>ms2peaks
57.044200 2680.000000
70.994600 1544.000000
86.005800 1140.000000
110.072300 5992.000000
111.078700 1932.000000
113.017400 14668.000000
114.020200 1000.000000
119.965300 1148.000000
127.017800 1276.000000
131.966000 96836.000000
132.969700 5816.000000
133.963300 34136.000000
134.966300 1008.000000
142.042100 2836.000000
143.050000 1924.000000
146.976000 6384.000000
147.984600 6816.000000
148.973800 1912.000000
148.988800 852.000000
149.980900 1640.000000
153.022000 2864.000000
159.970800 728.000000
167.037500 3528.000000
168.045200 30496.000000
169.053100 137040.000000
170.055300 8228.000000
171.049300 3736.000000
172.979800 3488.000000
174.971700 8004.000000
176.967900 2012.000000
204.022500 2644.000000
206.015800 3312.000000

