>compound AU57405352
>parentmass 347.2217
>ionization [M+H]+
>formula C21H30O4
>rt 518.592000
>profile qtof
#smiles_iso C[C@]12CCC(=O)C=C1CC[C@@H]3[C@@H]2[C@H](C[C@]4([C@H]3CC[C@@H]4C(=O)CO)C)O
#smiles_can CC12CCC(=O)C=C1CCC3C2C(CC4(C3CCC4C(=O)CO)C)O
#inchikey OMFXVFTZEKFJBZ-HJTSIMOOSA-N
#pubchem_id 5753
#mb_accession AU218301,AU218302,AU218303,AU218304,AU218305

>ms2peaks
293.191500 2388.000000
311.203200 2400.000000
329.213300 10128.000000
330.217100 2164.000000
347.224800 246220.000000
348.227700 47128.000000
349.229600 5984.000000

>ms2peaks
119.085500 1512.000000
121.065200 13000.000000
121.101200 700.000000
123.081000 4472.000000
129.070100 680.000000
131.085800 1436.000000
133.101000 2232.000000
135.081000 3848.000000
135.117400 1224.000000
136.085100 556.000000
137.096300 1440.000000
143.084400 1324.000000
145.101300 2644.000000
147.080800 2572.000000
147.117700 1784.000000
149.096300 1428.000000
149.134000 1024.000000
151.111400 476.000000
153.091000 876.000000
155.085600 612.000000
157.101300 2632.000000
159.080800 1052.000000
159.116700 2456.000000
161.096400 3280.000000
161.133200 832.000000
162.100200 472.000000
163.112200 5104.000000
164.115700 536.000000
169.101400 1636.000000
171.082300 600.000000
171.117300 3668.000000
173.097000 1780.000000
173.132700 1392.000000
174.101000 476.000000
175.112000 4600.000000
176.115300 456.000000
177.128300 1784.000000
179.109000 640.000000
181.101200 524.000000
183.117500 1360.000000
185.098300 764.000000
185.133400 2148.000000
186.136000 672.000000
187.112000 3768.000000
187.149100 1072.000000
188.116200 748.000000
189.128100 3380.000000
191.144600 520.000000
193.122900 4344.000000
194.126700 716.000000
195.118400 1144.000000
195.138900 1140.000000
197.097100 580.000000
197.133900 2028.000000
199.113100 1072.000000
199.147400 508.000000
201.127900 2032.000000
201.167100 496.000000
203.107000 528.000000
203.143900 1160.000000
205.123200 584.000000
207.138300 1560.000000
209.133400 1472.000000
210.136300 440.000000
211.113200 688.000000
211.149000 2804.000000
213.129400 816.000000
213.164600 464.000000
215.144500 1892.000000
219.139800 896.000000
223.148400 1668.000000
225.130500 888.000000
225.164700 668.000000
227.144000 1520.000000
229.124100 968.000000
229.159000 3920.000000
230.162100 724.000000
233.134900 472.000000
233.154600 1992.000000
234.158000 624.000000
235.148200 1432.000000
237.129700 996.000000
237.163700 516.000000
239.144100 1560.000000
239.240800 716.000000
241.159900 3232.000000
242.164700 680.000000
243.175300 1764.000000
245.154300 1440.000000
247.169400 1700.000000
249.164600 1032.000000
251.148000 1112.000000
251.180400 1808.000000
252.184100 716.000000
253.159500 4124.000000
253.196300 868.000000
254.164400 800.000000
254.206100 624.000000
255.175500 1332.000000
256.179500 556.000000
259.172800 636.000000
263.179500 960.000000
265.160700 1288.000000
265.196600 2980.000000
266.200600 596.000000
267.176600 2296.000000
269.155500 700.000000
269.192500 7760.000000
270.194400 1428.000000
271.170200 1928.000000
271.208400 2844.000000
272.173300 584.000000
272.210800 728.000000
275.179800 2544.000000
276.188300 864.000000
281.190900 3984.000000
282.192400 664.000000
283.171200 1816.000000
283.206700 1832.000000
284.208200 604.000000
285.185900 728.000000
287.204600 680.000000
293.191500 14632.000000
294.194800 3492.000000
295.197400 564.000000
299.202000 1932.000000
300.207100 488.000000
301.186100 584.000000
303.198600 540.000000
311.202800 20024.000000
312.205900 5368.000000
313.209600 644.000000
329.213400 49900.000000
330.216900 9616.000000
331.220800 1336.000000
347.224200 87652.000000
348.227300 20252.000000
349.229600 2992.000000

>ms2peaks
115.054900 512.000000
117.070800 1132.000000
119.086500 3372.000000
121.065100 16172.000000
121.101800 1060.000000
122.068700 1408.000000
123.080700 7296.000000
128.063100 492.000000
129.070800 1700.000000
130.076600 380.000000
131.085700 5020.000000
133.065600 852.000000
133.102000 5580.000000
135.080700 6720.000000
135.118000 1880.000000
136.121300 372.000000
137.096800 1708.000000
139.076100 340.000000
141.070300 680.000000
142.079200 516.000000
143.086300 3808.000000
144.092700 564.000000
145.102300 7248.000000
146.105900 1152.000000
147.081100 4232.000000
147.117300 4192.000000
148.085300 564.000000
148.121500 728.000000
149.096100 2764.000000
149.133500 1068.000000
150.102000 328.000000
151.074700 328.000000
151.114100 444.000000
153.091000 1404.000000
155.086200 1968.000000
156.093400 1196.000000
157.102000 6412.000000
159.080900 1860.000000
159.117200 6020.000000
160.121000 712.000000
161.096400 4452.000000
161.133600 1488.000000
162.100900 620.000000
163.112600 6924.000000
165.092800 404.000000
167.085400 768.000000
168.094300 300.000000
169.101600 3400.000000
170.106200 460.000000
171.081800 1132.000000
171.117600 9004.000000
172.120000 1584.000000
173.096900 3964.000000
173.133400 3404.000000
174.101200 452.000000
175.112400 6640.000000
175.148300 520.000000
176.115500 760.000000
177.128900 2124.000000
178.131000 304.000000
179.107700 608.000000
181.102300 1600.000000
182.107900 712.000000
183.078900 308.000000
183.117800 2768.000000
184.122000 696.000000
185.098100 1232.000000
185.133600 3468.000000
186.138200 568.000000
187.112400 2732.000000
187.149600 1820.000000
188.114900 756.000000
188.153000 404.000000
189.127900 4320.000000
190.131700 628.000000
191.109500 360.000000
191.143400 456.000000
193.103000 584.000000
193.123400 2240.000000
194.110500 360.000000
195.117500 2344.000000
196.125300 592.000000
197.097400 736.000000
197.133800 3412.000000
198.137500 1044.000000
199.112000 1200.000000
199.149100 852.000000
201.127800 2544.000000
201.163800 708.000000
202.133500 416.000000
203.108800 560.000000
203.143600 964.000000
205.122900 592.000000
207.118700 960.000000
207.138200 740.000000
208.127000 548.000000
209.133000 2368.000000
210.140400 980.000000
211.112800 956.000000
211.150100 2956.000000
212.118800 492.000000
212.151800 540.000000
213.129300 1128.000000
213.164100 1244.000000
214.133600 320.000000
215.106500 312.000000
215.144300 2388.000000
216.146100 304.000000
219.118000 372.000000
219.138900 1044.000000
221.131900 728.000000
223.114700 428.000000
223.150800 2728.000000
224.157400 520.000000
225.130400 852.000000
225.164500 1732.000000
226.136000 388.000000
227.144200 2148.000000
227.179600 436.000000
229.124400 348.000000
229.160600 3396.000000
230.164300 484.000000
233.134200 488.000000
233.154800 1056.000000
235.150100 1484.000000
236.154200 496.000000
237.128700 1048.000000
237.165100 908.000000
238.136000 320.000000
238.174200 328.000000
239.144300 1308.000000
239.180500 520.000000
240.151300 436.000000
241.159500 2528.000000
242.164400 784.000000
243.138300 544.000000
243.174800 1568.000000
244.178900 316.000000
245.154900 1176.000000
247.148800 340.000000
247.168700 576.000000
249.165000 1028.000000
250.171600 420.000000
251.143900 1032.000000
251.180200 2240.000000
252.147300 336.000000
252.185300 536.000000
253.160800 2368.000000
253.197900 1416.000000
254.169600 548.000000
254.200400 376.000000
255.141800 424.000000
255.174600 1112.000000
256.177000 348.000000
259.171900 424.000000
263.180500 732.000000
265.160300 1428.000000
265.198000 1492.000000
266.168300 340.000000
266.200600 396.000000
267.176100 2644.000000
268.179900 920.000000
269.190900 4480.000000
270.195100 952.000000
271.171200 1948.000000
271.206100 1324.000000
272.213700 328.000000
275.182900 2004.000000
278.169200 364.000000
281.191900 1996.000000
282.201100 348.000000
283.168300 668.000000
283.208000 1328.000000
285.185800 968.000000
286.192000 336.000000
287.202800 508.000000
293.191000 5244.000000
294.193200 1272.000000
299.202800 552.000000
301.176200 364.000000
303.199000 384.000000
311.202200 5768.000000
312.205300 1356.000000
314.190200 440.000000
329.213200 10536.000000
330.217600 2348.000000
347.223700 3944.000000

>ms2peaks
115.054600 1188.000000
117.069800 1768.000000
118.074900 412.000000
119.085700 4412.000000
121.065100 13172.000000
121.102200 1380.000000
123.080700 6740.000000
124.085500 712.000000
127.054700 352.000000
128.062900 1596.000000
129.070400 3300.000000
130.076500 988.000000
131.085700 7384.000000
133.065000 1244.000000
133.101300 6332.000000
134.105800 644.000000
135.081400 3628.000000
135.117100 1700.000000
137.096600 1200.000000
141.069300 1628.000000
142.078900 1940.000000
143.085700 6896.000000
144.090800 1500.000000
145.064400 772.000000
145.101800 12740.000000
146.072100 448.000000
146.104800 1128.000000
147.080400 3668.000000
147.116900 5416.000000
148.086800 1312.000000
149.096000 1996.000000
149.132800 744.000000
151.113000 496.000000
153.071500 432.000000
153.091000 468.000000
154.078100 952.000000
155.085900 2504.000000
156.093400 3916.000000
157.101700 5932.000000
158.072900 452.000000
158.106300 1188.000000
159.080900 2300.000000
159.117100 6848.000000
160.086100 544.000000
160.120700 1168.000000
161.096300 4304.000000
161.132800 2236.000000
162.100700 676.000000
162.136500 384.000000
163.112300 8740.000000
165.069400 372.000000
165.090600 368.000000
166.077800 360.000000
167.084700 1136.000000
168.092000 976.000000
169.101700 4280.000000
170.108000 980.000000
171.081200 616.000000
171.117400 6544.000000
172.121700 1412.000000
173.097000 2056.000000
173.133100 2332.000000
174.104000 672.000000
174.136700 452.000000
175.113200 3468.000000
175.149900 620.000000
176.117400 704.000000
177.128700 820.000000
179.085500 880.000000
180.094300 404.000000
181.101600 2488.000000
182.108100 1568.000000
183.117400 3976.000000
184.122500 796.000000
185.096000 1044.000000
185.132800 3464.000000
186.140200 440.000000
187.112900 1860.000000
187.147800 1548.000000
188.116000 460.000000
189.127800 2920.000000
190.133700 360.000000
191.086900 352.000000
193.102000 1164.000000
194.109200 668.000000
195.117600 2944.000000
196.124400 1384.000000
197.097700 560.000000
197.133700 2372.000000
198.138200 508.000000
199.113200 808.000000
199.151000 1128.000000
200.122000 336.000000
201.128500 1352.000000
202.133100 440.000000
203.142700 716.000000
205.101600 480.000000
206.110900 520.000000
207.118900 1172.000000
208.124600 740.000000
209.097800 356.000000
209.134100 2032.000000
210.105400 336.000000
210.142200 852.000000
211.114000 932.000000
211.148000 1896.000000
212.117300 576.000000
212.154700 524.000000
213.129300 632.000000
213.164900 656.000000
214.135300 336.000000
215.142400 1000.000000
216.149900 348.000000
219.118500 548.000000
220.123800 316.000000
221.134200 572.000000
222.142500 372.000000
223.113100 464.000000
223.148700 1492.000000
224.118600 340.000000
224.152500 424.000000
225.128800 624.000000
225.165600 1404.000000
226.170000 472.000000
227.145200 1388.000000
227.179600 500.000000
228.151000 764.000000
229.159200 1740.000000
232.121900 364.000000
233.134300 620.000000
235.150500 1620.000000
236.156500 356.000000
237.128700 544.000000
237.162300 652.000000
238.136000 304.000000
239.144900 1096.000000
240.152000 308.000000
241.159500 1036.000000
243.174000 612.000000
245.152000 524.000000
247.149100 516.000000
251.145400 396.000000
251.180000 880.000000
253.160500 1396.000000
253.195100 392.000000
254.165700 408.000000
255.173300 528.000000
260.158400 344.000000
263.182100 352.000000
265.162100 544.000000
265.195800 424.000000
267.172400 836.000000
268.181200 460.000000
269.190200 632.000000
271.169100 448.000000
272.175000 308.000000
275.179600 500.000000
278.169600 364.000000
281.191600 376.000000
283.172000 408.000000
293.190800 460.000000
299.166400 396.000000
311.204000 420.000000
312.203800 312.000000
314.188600 528.000000
329.212000 872.000000

>ms2peaks
115.055400 2496.000000
116.059800 856.000000
117.069900 2420.000000
119.085700 3820.000000
121.065200 8872.000000
121.100500 1184.000000
123.080600 4232.000000
128.062400 4676.000000
129.070200 5156.000000
130.077600 1824.000000
131.050700 364.000000
131.085900 5788.000000
132.057700 300.000000
133.063800 1084.000000
133.101800 3956.000000
134.072000 384.000000
135.081200 1820.000000
135.117700 460.000000
137.097200 316.000000
141.070000 3188.000000
142.078000 3504.000000
143.085600 5724.000000
144.092200 1236.000000
145.064900 1280.000000
145.101300 6248.000000
146.072700 760.000000
147.081000 2824.000000
147.116400 2408.000000
148.089200 1288.000000
148.122500 316.000000
149.097100 1424.000000
153.069400 1120.000000
154.076800 956.000000
155.086100 3800.000000
156.094000 3032.000000
157.100900 3884.000000
158.074200 424.000000
158.106400 1156.000000
159.081200 1772.000000
159.116600 3272.000000
160.090000 500.000000
160.122600 536.000000
161.096100 1792.000000
161.133900 544.000000
163.112300 5128.000000
164.116200 432.000000
165.070200 1092.000000
166.077500 724.000000
167.085400 1676.000000
168.093000 1392.000000
169.101300 2828.000000
170.107400 1184.000000
171.081400 756.000000
171.117400 3656.000000
172.087600 432.000000
172.122900 300.000000
173.096500 1624.000000
173.132900 1264.000000
174.104600 696.000000
175.113200 1480.000000
178.080000 460.000000
179.085100 1420.000000
180.094000 768.000000
181.102500 1936.000000
182.108100 1096.000000
183.117600 1700.000000
184.122000 396.000000
185.095400 556.000000
185.134700 1092.000000
186.139700 560.000000
187.112400 728.000000
187.148800 536.000000
188.119400 444.000000
189.128100 1232.000000
191.085000 316.000000
192.092200 424.000000
193.100700 1024.000000
194.109600 740.000000
195.117400 1488.000000
196.125700 800.000000
197.100300 496.000000
197.134300 1576.000000
199.112800 524.000000
199.146800 532.000000
201.128800 444.000000
205.100300 496.000000
206.109600 388.000000
207.118700 756.000000
208.122400 396.000000
209.133200 824.000000
210.141600 396.000000
211.113600 440.000000
211.148600 748.000000
212.121100 380.000000
213.127300 572.000000
214.136200 532.000000
219.118600 372.000000
221.132400 592.000000
222.142000 356.000000
223.147000 840.000000
224.120100 316.000000
227.143600 476.000000
228.151200 480.000000
240.151400 304.000000
283.171200 352.000000
299.164700 456.000000

