>compound AU57629770
>parentmass 146.05999999999997
>ionization [M+H]+
>formula C9H7NO
>rt 245.080000
>profile qtof
#smiles_iso C1=CC=C2C(=C1)C=CC(=O)N2
#smiles_can C1=CC=C2C(=C1)C=CC(=O)N2
#inchikey LISFMEBWQUVKPJ-UHFFFAOYSA-N
#pubchem_id 6038
#mb_accession AU249101,AU249102,AU249103,AU249104,AU249105,AU249106

>ms2peaks
146.059500 850320.000000
147.062400 89552.000000
148.065200 5932.000000

>ms2peaks
117.056600 7944.000000
118.064700 13644.000000
128.049000 11744.000000
146.059900 697400.000000
147.062700 81764.000000

>ms2peaks
117.056600 3760.000000
118.064400 2820.000000
128.048400 3576.000000
129.051100 500.000000
146.059000 34348.000000
147.062800 5128.000000

>ms2peaks
117.057200 2788.000000
118.063600 744.000000
128.048800 864.000000
146.059600 4400.000000
147.062900 528.000000

>ms2peaks
117.057700 860.000000
146.059200 416.000000

>ms2peaks
91.055900 532.000000
117.056600 940.000000
118.064300 2640.000000
128.048800 2256.000000
146.059700 105492.000000
147.062700 13372.000000

