>compound AU57516809
>parentmass 166.0499
>ionization [M+H]+
>formula C8H7NO3
>rt 171.220000
>profile qtof
#smiles_iso C1=CC=C(C(=C1)C(=O)N)C(=O)O
#smiles_can C1=CC=C(C(=C1)C(=O)N)C(=O)O
#inchikey CYMRPDYINXWJFU-UHFFFAOYSA-N
#pubchem_id 6957
#mb_accession AU279101,AU279103,AU279106

>ms2peaks
148.040100 680.000000
149.021600 3412.000000
150.026100 300.000000

>ms2peaks
130.029500 352.000000
149.022700 836.000000

>ms2peaks
130.027000 320.000000
148.037400 484.000000
149.022000 2864.000000
150.027900 372.000000

