>compound AU57888767
>parentmass 337.2274
>ionization [M+H]+
>formula C22H28N2O
>rt 366.000000
>profile qtof
#smiles_iso CCC(=O)N(C1CCN(CC1)CCC2=CC=CC=C2)C3=CC=CC=C3
#smiles_can CCC(=O)N(C1CCN(CC1)CCC2=CC=CC=C2)C3=CC=CC=C3
#inchikey PJMPHNIQZUBGLI-UHFFFAOYSA-N
#pubchem_id 3345
#mb_accession AU154501,AU154502,AU154503,AU154504,AU154505

>ms2
188.142700 10848.000000
337.228300 1967212.000000
338.231200 395224.000000
339.233800 36056.000000

>ms2
188.142700 761132.000000
189.145800 69536.000000
337.228300 2209084.000000
338.231200 352692.000000
339.233800 36272.000000

>ms2
188.142800 1837628.000000
189.145900 156376.000000
216.137800 152808.000000
217.141500 18756.000000
337.228300 264176.000000
338.231200 48412.000000

>ms2
117.056600 4868.000000
117.069100 4356.000000
120.079900 4316.000000
130.063900 3488.000000
132.080000 119504.000000
133.083100 11988.000000
134.095600 68684.000000
135.098800 6388.000000
146.095400 31568.000000
147.099200 3420.000000
150.090300 9368.000000
160.111200 6572.000000
188.142800 573892.000000
189.145700 63956.000000
190.148900 3300.000000
216.137400 41476.000000
217.141300 5560.000000

>ms2
115.053400 4060.000000
116.058000 740.000000
117.056700 9368.000000
117.068600 3548.000000
118.063100 2316.000000
119.072500 1112.000000
119.085600 828.000000
120.080700 3228.000000
121.082700 448.000000
128.060900 724.000000
129.068900 1640.000000
130.064300 6116.000000
131.071800 3596.000000
132.080100 81324.000000
133.083200 8188.000000
134.095500 18016.000000
135.099000 2076.000000
144.079800 964.000000
145.086000 724.000000
146.095400 14652.000000
147.100100 1760.000000
150.090200 2924.000000
158.097200 648.000000
160.111200 2416.000000
184.110600 900.000000
186.127200 5016.000000
187.132400 876.000000
188.142900 75728.000000
189.145900 10628.000000
190.148900 732.000000
216.137200 3284.000000
217.140300 736.000000

