>compound AU57293487
>parentmass 326.0855
>ionization [M+H]+
>formula C18H13ClFN3
>rt 516.192000
>profile qtof
#smiles_iso CC1=NC=C2N1C3=C(C=C(C=C3)Cl)C(=NC2)C4=CC=CC=C4F
#smiles_can CC1=NC=C2N1C3=C(C=C(C=C3)Cl)C(=NC2)C4=CC=CC=C4F
#inchikey DDLIGBOFAVUZHB-UHFFFAOYSA-N
#pubchem_id 4192
#mb_accession AU155901,AU155902,AU155903,AU155904,AU155905

>ms2
326.089100 2493488.000000
327.090800 647096.000000
328.085000 1071660.000000

>ms2
244.033700 31104.000000
285.061100 19304.000000
290.110800 33148.000000
291.118800 154508.000000
292.121600 21908.000000
326.089400 2509768.000000
327.091200 800544.000000

>ms2
189.083400 11988.000000
205.054000 16832.000000
208.056800 16780.000000
209.065100 78464.000000
223.080300 24852.000000
230.049400 24472.000000
244.034500 322244.000000
246.031500 79756.000000
249.084300 109948.000000
250.091600 75472.000000
258.050000 48012.000000
260.047300 13944.000000
265.054000 14776.000000
270.104100 12524.000000
284.053200 12064.000000
285.061300 168324.000000
286.064300 25456.000000
287.058500 51452.000000
290.111500 254760.000000
291.119200 1831604.000000
292.122300 202840.000000
293.124700 13356.000000
299.076600 16520.000000
306.081200 16452.000000
309.061600 55176.000000
311.061000 21216.000000
325.080000 18992.000000
326.088800 2188084.000000
327.091700 328324.000000
328.085800 527476.000000

>ms2
128.050300 13744.000000
129.058100 46216.000000
148.056400 11884.000000
152.026900 12804.000000
162.011400 9608.000000
164.027000 24264.000000
169.076900 13568.000000
170.084700 34616.000000
182.053500 9504.000000
183.061500 37488.000000
184.069000 30916.000000
189.023000 65268.000000
189.083400 16392.000000
191.020100 14936.000000
196.069400 38184.000000
205.054000 20772.000000
208.057600 67148.000000
209.065300 461424.000000
210.068800 46772.000000
214.078800 13232.000000
215.086800 19460.000000
217.023400 17028.000000
222.073100 76356.000000
223.081100 259652.000000
224.085100 31268.000000
229.077900 16816.000000
230.050000 25352.000000
230.084400 12164.000000
231.056700 19968.000000
243.093300 17540.000000
244.034600 228980.000000
245.039600 45252.000000
246.031900 57508.000000
247.036900 9292.000000
249.084500 415060.000000
250.091500 258048.000000
251.095500 32912.000000
255.071200 21916.000000
257.038100 15760.000000
258.050200 105268.000000
260.047000 28180.000000
263.099800 23060.000000
264.105900 10016.000000
265.054700 40468.000000
267.051800 12840.000000
268.034200 12416.000000
270.104800 31488.000000
271.111100 19960.000000
274.092100 10036.000000
276.095400 17188.000000
284.053300 43372.000000
285.061200 157216.000000
286.062900 26644.000000
287.058200 41232.000000
289.055300 38844.000000
290.111500 136192.000000
291.119500 1853328.000000
292.122400 245252.000000
293.125500 14492.000000
297.060900 12836.000000
299.075700 15144.000000
306.080900 16108.000000
309.061400 84216.000000
310.064700 19208.000000
311.061800 40420.000000
325.080300 40028.000000
326.088500 172576.000000
327.089800 32100.000000
328.085300 48156.000000

>ms2
115.054800 3580.000000
120.037000 3348.000000
121.045400 9340.000000
122.040900 4696.000000
127.042000 8568.000000
128.050100 42600.000000
129.058200 81908.000000
133.050900 3348.000000
137.015900 19924.000000
138.011500 3604.000000
140.050100 3352.000000
142.066000 4364.000000
143.073600 4264.000000
146.040600 12684.000000
146.060800 4232.000000
147.048700 24848.000000
148.056100 14976.000000
152.027000 16704.000000
153.045200 8680.000000
153.057200 3180.000000
154.024100 3856.000000
154.041600 4468.000000
154.052600 4612.000000
155.061200 15908.000000
162.011500 27484.000000
162.072400 4508.000000
163.007000 20168.000000
163.018100 21128.000000
163.055300 3412.000000
164.006500 11752.000000
164.026900 21052.000000
164.062700 8120.000000
165.004700 5836.000000
165.015300 6372.000000
165.069700 3160.000000
166.024300 6920.000000
168.068800 4788.000000
169.076800 14068.000000
170.084900 30100.000000
171.057200 2972.000000
171.088800 3516.000000
173.052200 11976.000000
174.059700 6664.000000
175.056800 3876.000000
176.062900 4008.000000
177.022400 9888.000000
177.058500 17384.000000
178.043100 6748.000000
178.063000 2980.000000
180.022000 6788.000000
180.057400 4628.000000
181.018700 3244.000000
181.046300 6544.000000
182.054000 54580.000000
183.061700 129260.000000
184.068200 34844.000000
185.072300 4580.000000
186.049100 9604.000000
187.067000 4420.000000
189.023000 93368.000000
189.083300 6796.000000
190.026800 10364.000000
190.066200 3800.000000
191.019600 24772.000000
195.061200 6292.000000
195.080000 4248.000000
196.069900 65832.000000
196.088300 7916.000000
197.072500 9692.000000
198.072600 3760.000000
200.065200 4184.000000
201.058900 9800.000000
202.066500 24236.000000
203.038600 6300.000000
203.074200 39036.000000
204.047100 3120.000000
204.080400 13372.000000
205.053900 7652.000000
207.052500 3584.000000
208.057500 103208.000000
209.065400 437364.000000
210.069400 51324.000000
211.077500 7644.000000
214.078200 5684.000000
215.086900 16752.000000
216.087100 3424.000000
217.023000 34588.000000
218.027100 4752.000000
219.020300 8784.000000
220.077000 10688.000000
221.065000 11700.000000
222.073400 278024.000000
223.081000 468172.000000
224.027700 10152.000000
224.085200 56616.000000
225.090000 4784.000000
226.024900 3200.000000
226.068000 7828.000000
227.075100 8916.000000
228.070700 4944.000000
229.077900 42776.000000
230.049500 8348.000000
230.084000 18060.000000
231.039600 3672.000000
231.057200 13200.000000
231.092600 9288.000000
232.035100 3980.000000
232.056800 8760.000000
233.064900 15920.000000
234.071800 6384.000000
235.080200 6940.000000
236.084200 9240.000000
237.096200 16404.000000
238.043300 10488.000000
238.068600 5592.000000
240.040400 3536.000000
240.082000 3012.000000
241.023500 6316.000000
242.019600 6824.000000
242.085200 6572.000000
243.024300 6756.000000
243.093300 25124.000000
244.034100 38528.000000
244.097800 5004.000000
245.040800 22200.000000
246.031100 11284.000000
247.038900 4832.000000
247.069400 5016.000000
248.076200 5596.000000
249.084700 586260.000000
250.090700 176084.000000
251.096400 24520.000000
253.078000 7560.000000
254.082900 3328.000000
255.071100 48656.000000
256.034500 6720.000000
256.075400 7676.000000
257.038300 26808.000000
258.050000 92588.000000
259.051200 15560.000000
260.047500 23932.000000
261.048900 3060.000000
261.084000 4872.000000
262.091300 4708.000000
263.100000 19936.000000
264.105800 7312.000000
265.054900 28076.000000
266.058800 5260.000000
267.051600 7492.000000
268.034700 8144.000000
269.040800 4324.000000
270.035600 3884.000000
270.104500 24992.000000
271.043900 5052.000000
271.111100 11416.000000
272.053200 4432.000000
272.118200 3004.000000
273.060500 6060.000000
273.084300 15984.000000
274.091300 9276.000000
275.091600 3908.000000
276.095100 23876.000000
277.098300 3720.000000
283.045800 23944.000000
284.053200 38052.000000
285.060800 39540.000000
286.052100 10352.000000
287.058000 11520.000000
288.095000 6768.000000
289.033700 3576.000000
289.055100 71172.000000
289.103600 5392.000000
290.057600 15132.000000
290.110900 42956.000000
291.052600 20008.000000
291.119400 300224.000000
292.061600 3736.000000
297.061000 6312.000000
299.075800 4344.000000
306.082800 3464.000000
307.045500 23916.000000
308.051600 6444.000000
309.061000 31312.000000
310.062300 8488.000000
311.061500 15700.000000
312.064100 3404.000000
325.079800 15820.000000
326.087200 7860.000000

