>compound AU57955107
>parentmass 266.0958
>ionization [M+H]+
>formula C12H15N3O2S
>rt 562.680000
>profile qtof
#smiles_iso CCCSC1=CC2=C(C=C1)N=C(N2)NC(=O)OC
#smiles_can CCCSC1=CC2=C(C=C1)N=C(N2)NC(=O)OC
#inchikey HXHWSAZORRCQMX-UHFFFAOYSA-N
#pubchem_id 2082
#mb_accession AU105801,AU105802,AU105803

>ms2peaks
234.068900 113056.000000
235.071100 13552.000000
266.095700 2176560.000000
267.098100 309572.000000
268.092100 74140.000000

>ms2peaks
191.013900 37364.000000
192.021300 37296.000000
234.069300 2100988.000000
235.071800 210320.000000
236.065700 65692.000000
266.095600 799292.000000
267.098500 96144.000000
268.092100 24584.000000

>ms2peaks
159.041600 101512.000000
160.046200 10324.000000
191.013900 503640.000000
192.021300 397908.000000
193.011000 16208.000000
193.023500 31156.000000
194.017300 12924.000000
223.039600 11676.000000
234.069100 1742692.000000
235.071800 186700.000000
236.065600 49292.000000
266.095000 18556.000000

