>compound AU57031074
>parentmass 327.1371
>ionization [M+H]+
>formula C18H19ClN4
>rt 417.060000
>profile qtof
#smiles_iso CN1CCN(CC1)C2=NC3=C(C=CC(=C3)Cl)NC4=CC=CC=C42
#smiles_can CN1CCN(CC1)C2=NC3=C(C=CC(=C3)Cl)NC4=CC=CC=C42
#inchikey QZUDBNBUXVUHMW-UHFFFAOYSA-N
#pubchem_id 135398737
#mb_accession AU160006

>ms2
58.064700 11728.000000
84.080500 347636.000000
85.075700 19104.000000
85.083300 20644.000000
99.091800 7148.000000
192.067600 117976.000000
193.070900 11408.000000
227.036800 147116.000000
228.040000 20140.000000
229.034000 35060.000000
229.049700 8208.000000
253.051800 7064.000000
255.053800 6368.000000
270.079600 1223300.000000
271.082500 285460.000000
272.076500 495816.000000
296.095100 173248.000000
297.097900 31844.000000
298.092000 48796.000000
327.137600 610296.000000
328.140500 135308.000000
329.135200 203184.000000

