>compound AU58466903
>parentmass 201.0692
>ionization [M+H]+
>formula C8H12N2O2S
>rt 366.000000
>profile qtof
#smiles_iso CN(C)S(=O)(=O)NC1=CC=CC=C1
#smiles_can CN(C)S(=O)(=O)NC1=CC=CC=C1
#inchikey QCDQDISRALTLNQ-UHFFFAOYSA-N
#pubchem_id 78441
#mb_accession AU204201,AU204202,AU204203

>ms2peaks
120.079800 512.000000
121.087500 844.000000
122.082400 3016.000000
135.090500 912.000000
136.098700 736.000000
137.106300 79040.000000
138.109700 6068.000000
151.111200 560.000000
156.010200 696.000000
167.106000 508.000000
201.068500 95452.000000
202.071000 8304.000000
203.065900 3800.000000

>ms2peaks
120.080400 788.000000
121.073800 364.000000
121.088000 1064.000000
122.082700 3320.000000
123.086600 388.000000
135.090600 636.000000
136.099800 880.000000
137.106600 6996.000000
201.068400 840.000000

>ms2peaks
120.079300 808.000000
121.074900 664.000000
121.087400 368.000000
122.083200 1324.000000
135.090400 388.000000
137.106000 512.000000

