>compound AU58365412
>parentmass 151.0324
>ionization [M+H]+
>formula C7H6N2S
>rt 361.080000
>profile qtof
#smiles_iso C1=CC=C2C(=C1)N=C(S2)N
#smiles_can C1=CC=C2C(=C1)N=C(S2)N
#inchikey UHGULLIUJBCTEF-UHFFFAOYSA-N
#pubchem_id 8706
#mb_accession AU405706

>ms2peaks
65.037600 12136.000000
80.048500 14164.000000
92.048900 64848.000000
93.055100 6076.000000
109.011600 117348.000000
110.014600 6504.000000
118.051700 14252.000000
124.020900 117976.000000
125.023800 7736.000000
151.032000 979140.000000
152.034200 80456.000000
153.027400 38280.000000

