>compound AU58432755
>parentmass 470.3054
>ionization [M+H]+
>formula C32H39NO2
>rt 644.520000
>profile qtof
#smiles_iso CC(C)(C)C1=CC=C(C=C1)C(=O)CCCN2CCC(CC2)OC(C3=CC=CC=C3)C4=CC=CC=C4
#smiles_can CC(C)(C)C1=CC=C(C=C1)C(=O)CCCN2CCC(CC2)OC(C3=CC=CC=C3)C4=CC=CC=C4
#inchikey MJJALKDDGIKVBE-UHFFFAOYSA-N
#pubchem_id 3191
#mb_accession AU251201,AU251202,AU251203,AU251204,AU251205,AU251206

>ms2peaks
167.084100 23748.000000
470.306200 2430072.000000
471.308700 930432.000000
472.312000 122984.000000

>ms2peaks
167.084300 665092.000000
168.087600 71716.000000
203.142100 162064.000000
204.145200 18272.000000
302.210500 39024.000000
470.305900 2496428.000000
471.308300 1107280.000000
472.311600 131328.000000

>ms2peaks
152.060800 29024.000000
161.094900 60712.000000
165.068600 33176.000000
166.075400 11392.000000
167.084500 2136800.000000
168.087900 240592.000000
169.090900 10800.000000
203.142500 1774660.000000
204.145800 199208.000000
205.148400 12316.000000
302.210900 25984.000000
470.306000 1299888.000000
471.309000 371484.000000
472.312200 51480.000000

>ms2peaks
152.061100 88248.000000
161.095300 445100.000000
162.098500 52112.000000
165.069000 101200.000000
166.075400 37352.000000
167.084800 2331004.000000
168.088100 294188.000000
169.091200 12568.000000
188.118600 20484.000000
203.142800 2426684.000000
204.145900 299524.000000
205.148700 17732.000000
470.306500 53280.000000
471.309300 21296.000000

>ms2peaks
146.071300 38600.000000
152.060900 217456.000000
153.064200 22504.000000
161.095000 1241252.000000
162.098300 135660.000000
165.068800 237492.000000
166.075400 80268.000000
167.084500 1716948.000000
168.087800 224492.000000
188.118400 58884.000000
203.142300 1820852.000000
204.145600 182004.000000
205.148600 11376.000000

>ms2peaks
152.060800 21228.000000
161.095300 89124.000000
162.098500 7772.000000
165.068900 25876.000000
166.075800 8820.000000
167.084700 923844.000000
168.087700 122212.000000
169.090600 6724.000000
203.142500 881928.000000
204.145900 111784.000000
205.148800 6516.000000
302.210900 16656.000000
470.305900 626012.000000
471.309000 263344.000000
472.311700 40996.000000

