>compound AU58341711
>parentmass 194.1176
>ionization [M+H]+
>formula C11H15NO2
>rt 611.295000
>profile qtof
#smiles_iso CCOC(=O)C1=CC=C(C=C1)N(C)C
#smiles_can CCOC(=O)C1=CC=C(C=C1)N(C)C
#inchikey FZUGPQWGEGAKET-UHFFFAOYSA-N
#pubchem_id 25127
#mb_accession AU246601,AU246602,AU246603,AU246605

>ms2
148.075200 1724.000000
151.061800 2804.000000
166.085000 21124.000000
167.087200 1872.000000
179.093000 10136.000000
180.096800 1236.000000
194.117000 204192.000000
195.120100 24552.000000

>ms2
120.080300 1064.000000
121.087500 1300.000000
122.095500 2544.000000
134.058900 15524.000000
134.095700 820.000000
135.063800 1888.000000
148.074200 6224.000000
149.077000 728.000000
150.053800 4336.000000
151.062000 47556.000000
152.065100 4652.000000
164.069000 2984.000000
165.077300 964.000000
166.084800 57956.000000
167.088000 5904.000000
178.085700 1364.000000
179.093400 57828.000000
180.096700 6800.000000
194.116800 40104.000000
195.120100 5356.000000
196.122000 432.000000

>ms2
134.059300 1648.000000
148.074300 360.000000
150.055000 968.000000
151.061800 2060.000000

>ms2
134.059000 700.000000
150.054800 756.000000

