>compound AU58825661
>parentmass 212.11819999999997
>ionization [M+H]+
>formula C13H13N3
>rt 266.150000
>profile qtof
#smiles_iso C1=CC=C(C=C1)NC(=NC2=CC=CC=C2)N
#smiles_can C1=CC=C(C=C1)NC(=NC2=CC=CC=C2)N
#inchikey OWRCNXZUPFZXOS-UHFFFAOYSA-N
#pubchem_id 7594
#mb_accession AU248701,AU248702,AU248703,AU248704,AU248705,AU248706

>ms2peaks
119.059400 7328.000000
195.090900 10040.000000
212.118300 994864.000000
213.121400 114764.000000
214.123600 10044.000000

>ms2peaks
119.059900 97728.000000
120.062900 7756.000000
195.091300 88192.000000
196.094500 13456.000000
212.118200 281900.000000
213.121000 37580.000000
214.123900 3108.000000

>ms2peaks
117.044000 448.000000
119.059700 39396.000000
120.062800 4140.000000
167.073300 304.000000
168.079700 1632.000000
195.091100 27944.000000
196.094100 4624.000000
197.097500 432.000000
212.117400 8492.000000
213.119100 892.000000

>ms2peaks
117.044400 312.000000
119.059600 12304.000000
120.063300 1220.000000
167.073200 1204.000000
168.078300 708.000000
195.090300 3840.000000
196.091800 524.000000

>ms2peaks
119.059500 2248.000000
167.073700 824.000000
195.089200 332.000000

>ms2peaks
53.037900 728.000000
92.049900 968.000000
94.065600 7600.000000
95.049300 968.000000
95.068600 772.000000
119.059900 68976.000000
120.063000 5588.000000
168.080300 796.000000
195.090900 50312.000000
196.094000 5252.000000
212.117600 139904.000000
213.120600 14700.000000
214.122100 1044.000000

