>compound AU58152060
>parentmass 291.1955
>ionization [M+H]+
>formula C18H26O3
>rt 830.780000
>profile qtof
#smiles_iso CCCCC(CC)COC(=O)/C=C/C1=CC=C(C=C1)OC
#smiles_can CCCCC(CC)COC(=O)C=CC1=CC=C(C=C1)OC
#inchikey YBGZDTIWKVFICR-JLHYYAGUSA-N
#pubchem_id 5355130
#mb_accession AU250201,AU250202,AU250203,AU250204,AU250205,AU250206

>ms2
133.063700 3180.000000
161.058700 139356.000000
162.061800 14092.000000
179.069600 497968.000000
180.072600 50124.000000
181.074400 4224.000000
291.195400 4536.000000

>ms2
133.063400 15404.000000
134.066900 1864.000000
161.058400 282832.000000
162.061400 29224.000000
163.063500 2236.000000
179.068800 53972.000000
180.072000 6688.000000

>ms2
118.040200 4120.000000
133.063500 58800.000000
134.067000 6464.000000
137.058900 1852.000000
161.058400 283332.000000
162.061400 31720.000000
163.064800 2324.000000
179.068700 23072.000000
180.072400 2896.000000

>ms2
118.040600 11632.000000
119.044900 1248.000000
133.064100 114620.000000
134.067200 12836.000000
137.058400 1976.000000
161.058600 154548.000000
162.061900 21428.000000
179.069100 2292.000000

>ms2
115.054200 728.000000
118.040500 19512.000000
119.044100 2168.000000
131.048000 912.000000
132.057000 840.000000
133.063900 93904.000000
134.067300 10820.000000
135.070600 472.000000
137.059100 1292.000000
146.035300 980.000000
161.058200 36512.000000
162.061900 4696.000000

>ms2
57.069300 14332.000000
71.084900 13108.000000
118.040100 2380.000000
133.063800 51212.000000
134.067000 4336.000000
137.058600 1404.000000
161.058600 258176.000000
162.061900 43256.000000
179.069400 61844.000000
180.072500 6536.000000

