>compound AU58256132
>parentmass 287.0582
>ionization [M+H]+
>formula C15H11ClN2O2
>rt 501.970000
>profile qtof
#smiles_iso C1=CC=C(C=C1)C2=NC(C(=O)NC3=C2C=C(C=C3)Cl)O
#smiles_can C1=CC=C(C=C1)C2=NC(C(=O)NC3=C2C=C(C=C3)Cl)O
#inchikey ADIMAYPTOBDMTL-UHFFFAOYSA-N
#pubchem_id 4616
#mb_accession AU268001,AU268002,AU268003,AU268004,AU268005,AU268006

>ms2
231.066900 660.000000
241.051200 1668.000000
243.048200 656.000000
269.046400 8260.000000
270.048700 1752.000000
271.043200 2544.000000
287.057100 78432.000000
288.059900 13596.000000
289.054400 22344.000000

>ms2
128.025300 852.000000
153.020800 412.000000
155.084800 448.000000
156.019100 928.000000
163.002900 400.000000
166.004600 1444.000000
168.002600 576.000000
216.053400 380.000000
231.067500 11076.000000
232.071100 2256.000000
233.064500 3048.000000
241.052100 39792.000000
242.055200 6960.000000
243.048900 11340.000000
244.032100 312.000000
244.052400 1128.000000
257.047900 312.000000
258.055900 496.000000
259.062700 368.000000
269.047200 48476.000000
270.049700 8768.000000
271.044000 14440.000000
272.047900 1460.000000
287.057700 31756.000000
288.060600 5164.000000
289.055400 7704.000000

>ms2
128.024900 3748.000000
129.029000 324.000000
130.022600 884.000000
138.009300 444.000000
143.083400 392.000000
153.020200 2580.000000
154.024900 340.000000
155.016500 1016.000000
155.084300 1140.000000
156.020700 460.000000
163.003000 2344.000000
164.001800 444.000000
165.002400 704.000000
166.003500 2004.000000
167.009900 308.000000
167.082700 300.000000
168.001100 472.000000
181.013600 544.000000
195.091900 852.000000
205.076100 300.000000
207.066600 1000.000000
208.076100 340.000000
214.040600 612.000000
229.050300 1032.000000
231.066700 15968.000000
232.070200 2804.000000
233.064000 4504.000000
234.073100 332.000000
241.051600 48780.000000
242.054800 8444.000000
243.049000 14424.000000
244.035700 336.000000
244.050800 1344.000000
257.045900 872.000000
258.055300 616.000000
259.042400 540.000000
260.053200 308.000000
269.046200 7880.000000
270.048800 1616.000000
271.044800 1872.000000
272.048100 412.000000
287.057800 772.000000

>ms2
118.051800 1200.000000
126.009200 480.000000
128.025200 2448.000000
129.045900 388.000000
129.072100 316.000000
130.023200 900.000000
138.009300 1440.000000
141.071800 348.000000
152.060000 472.000000
153.020500 5636.000000
154.025500 524.000000
155.018200 1132.000000
155.086800 904.000000
163.005000 6108.000000
164.005200 1288.000000
165.002100 1716.000000
165.068400 420.000000
166.003100 1332.000000
167.083700 340.000000
168.001600 344.000000
168.093300 440.000000
178.065900 688.000000
179.073700 492.000000
180.079800 308.000000
181.015900 1652.000000
182.018100 308.000000
183.012600 692.000000
195.092000 1600.000000
199.028900 444.000000
205.076300 872.000000
206.083300 584.000000
207.066800 776.000000
214.041800 1084.000000
216.040600 468.000000
229.052300 1924.000000
230.056300 364.000000
231.067900 3600.000000
232.073600 816.000000
233.064800 900.000000
239.036800 344.000000
241.052300 27180.000000
242.056300 5232.000000
243.049400 8284.000000
244.053500 820.000000
257.048000 1680.000000
258.053100 364.000000
259.047100 528.000000
269.050300 560.000000

>ms2
118.051900 2004.000000
126.008900 1004.000000
128.025200 1192.000000
128.060400 624.000000
129.043200 472.000000
130.021900 504.000000
135.994200 500.000000
138.009300 1348.000000
140.006800 568.000000
151.005600 564.000000
151.054000 400.000000
152.012500 632.000000
152.061100 1180.000000
153.019900 3440.000000
153.067900 368.000000
154.006300 472.000000
155.016900 712.000000
155.084100 676.000000
163.004300 6408.000000
163.999400 2772.000000
165.001400 1528.000000
165.070700 496.000000
166.000400 1028.000000
167.084600 348.000000
168.091300 368.000000
169.062600 712.000000
177.057900 760.000000
178.064200 1228.000000
178.999900 372.000000
179.073200 1016.000000
180.079600 596.000000
181.016200 1828.000000
183.012700 908.000000
193.073200 304.000000
194.083800 984.000000
195.090600 3804.000000
196.092300 632.000000
205.075000 2392.000000
206.082200 736.000000
207.066800 600.000000
214.040400 1100.000000
215.041600 328.000000
216.037500 444.000000
229.051800 3440.000000
230.055700 516.000000
231.048300 1052.000000
231.067800 508.000000
239.036900 544.000000
241.051700 10636.000000
242.055700 1732.000000
243.048500 3264.000000
244.055000 336.000000
257.047900 1196.000000
258.049500 376.000000

>ms2
104.049700 520.000000
128.024600 3116.000000
130.023700 692.000000
153.019900 2372.000000
155.016500 592.000000
155.083900 940.000000
156.020500 1092.000000
163.004400 1204.000000
164.999500 304.000000
166.004100 1772.000000
181.014500 408.000000
195.090900 792.000000
205.073000 436.000000
207.065800 728.000000
214.042000 312.000000
216.055000 384.000000
229.052300 556.000000
231.067600 15144.000000
232.069200 2836.000000
233.065100 4560.000000
241.052100 50840.000000
242.054400 7416.000000
243.049000 16172.000000
244.032900 380.000000
244.051800 1420.000000
257.048600 880.000000
258.053300 476.000000
259.039600 308.000000
269.047300 24004.000000
270.050600 4108.000000
271.043900 8188.000000
272.049800 924.000000
287.058100 12500.000000
288.059500 2300.000000
289.055000 3548.000000

