>compound AU58529292
>parentmass 436.23429999999996
>ionization [M+H]+
>formula C24H29N5O3
>rt 536.400000
>profile qtof
#smiles_iso CCCCC(=O)N(CC1=CC=C(C=C1)C2=CC=CC=C2C3=NNN=N3)[C@@H](C(C)C)C(=O)O
#smiles_can CCCCC(=O)N(CC1=CC=C(C=C1)C2=CC=CC=C2C3=NNN=N3)C(C(C)C)C(=O)O
#inchikey ACWBQPMHZXGDFX-QFIPXVFZSA-N
#pubchem_id 60846
#mb_accession AU111201,AU111203,AU111204,AU111205,AU111206

>ms2
207.092400 1000.000000
235.097500 8336.000000
236.100600 1848.000000
291.149300 5884.000000
292.153300 1200.000000
306.171200 7308.000000
307.173200 1804.000000
352.177900 4348.000000
353.180200 848.000000
362.222100 5160.000000
363.224400 1060.000000
364.224400 356.000000
408.228000 11424.000000
409.232500 3212.000000
410.234000 540.000000
418.224300 11788.000000
419.227100 3568.000000
420.227600 456.000000
436.234600 24740.000000
437.238000 7700.000000
438.240700 1032.000000

>ms2
152.059700 384.000000
153.068300 692.000000
167.072700 436.000000
178.076100 1488.000000
179.083300 832.000000
180.079800 5760.000000
181.082500 836.000000
190.063700 5524.000000
191.068600 1232.000000
192.067500 916.000000
192.076700 904.000000
194.095800 2888.000000
195.097400 576.000000
205.075400 784.000000
206.083100 2732.000000
207.090900 48008.000000
208.074700 1096.000000
208.093800 7048.000000
209.105500 1260.000000
210.090300 3152.000000
211.094500 504.000000
235.096700 35500.000000
236.100200 5504.000000
237.105400 628.000000
291.148500 22752.000000
292.151800 5268.000000
306.169800 5432.000000
352.175200 664.000000
362.222800 560.000000

>ms2
140.048200 752.000000
152.061000 664.000000
153.068700 3084.000000
154.071800 504.000000
163.053600 860.000000
165.067000 616.000000
166.063100 344.000000
166.073400 368.000000
167.072300 656.000000
178.076400 4344.000000
179.080800 1912.000000
180.079600 15736.000000
181.063700 368.000000
181.082800 2084.000000
190.064100 11972.000000
191.069600 2764.000000
192.067800 3876.000000
193.072100 392.000000
193.086700 732.000000
194.094200 2836.000000
195.077100 524.000000
195.098600 684.000000
196.073400 716.000000
205.074900 2012.000000
207.090700 48736.000000
208.074600 5636.000000
208.093700 7384.000000
209.078900 600.000000
209.106300 2340.000000
210.090400 3916.000000
211.093200 448.000000
235.095900 9824.000000
291.148500 5796.000000
292.151300 1512.000000
306.171200 328.000000

>ms2
129.044900 400.000000
140.049000 1252.000000
141.068700 324.000000
151.053800 352.000000
152.061800 2660.000000
153.068700 7228.000000
154.072300 1188.000000
163.052500 1484.000000
165.068500 2308.000000
166.068600 836.000000
167.070300 1136.000000
167.083700 720.000000
168.070900 384.000000
169.063600 692.000000
176.060100 356.000000
177.070100 432.000000
178.076600 8416.000000
179.078000 2136.000000
180.079800 24388.000000
181.064900 700.000000
181.083100 3300.000000
182.081800 304.000000
191.070100 4236.000000
192.067700 6560.000000
193.071900 836.000000
193.087700 1404.000000
194.057100 468.000000
194.096400 2016.000000
195.080500 524.000000
195.100800 388.000000
196.075200 1120.000000
197.077600 332.000000
205.075700 4540.000000
207.090900 27532.000000
208.075500 6580.000000
208.094200 4732.000000
209.079200 932.000000
209.107300 1700.000000
210.090500 2872.000000
211.095700 372.000000
221.105200 344.000000
235.094800 1568.000000
247.084100 416.000000
291.150400 1292.000000
292.154400 440.000000

>ms2
178.077700 348.000000
180.080400 1488.000000
190.063400 868.000000
191.070100 304.000000
194.095400 440.000000
206.083500 456.000000
207.090400 15768.000000
208.092800 2336.000000
210.089700 576.000000
235.096600 37372.000000
236.099100 6188.000000
237.105700 504.000000
291.149200 34040.000000
292.152200 8060.000000
293.158400 1152.000000
306.170300 16876.000000
307.172300 3336.000000
352.176200 9040.000000
353.179500 2464.000000
354.178900 352.000000
362.222400 6092.000000
363.224700 1648.000000
390.228500 360.000000
408.227600 912.000000
409.232500 380.000000
418.222900 2756.000000
419.227900 796.000000

