>compound AU58698349
>parentmass 727.379
>ionization [M+Na]+
>formula C38H52N6O7
>rt 647.940000
>profile qtof
#smiles_iso CC(C)(C)[C@@H](C(=O)N[C@@H](CC1=CC=CC=C1)[C@H](CN(CC2=CC=C(C=C2)C3=CC=CC=N3)NC(=O)[C@H](C(C)(C)C)NC(=O)OC)O)NC(=O)OC
#smiles_can CC(C)(C)C(C(=O)NC(CC1=CC=CC=C1)C(CN(CC2=CC=C(C=C2)C3=CC=CC=N3)NC(=O)C(C(C)(C)C)NC(=O)OC)O)NC(=O)OC
#inchikey AXRYRYVKAWYZBR-GASGPIRDSA-N
#pubchem_id 148192
#mb_accession AU214831,AU214832,AU214833,AU214834

>ms2peaks
727.384400 12240.000000
728.387800 6044.000000

>ms2peaks
343.163200 528.000000
541.289200 684.000000
727.383600 12676.000000
728.388100 6460.000000
729.391000 1648.000000

>ms2peaks
211.105600 1228.000000
238.116100 1432.000000
253.116100 2200.000000
254.118800 460.000000
343.165400 7848.000000
344.169000 2200.000000
345.170100 376.000000
372.192600 896.000000
541.279500 4032.000000
542.287900 1608.000000
559.302200 576.000000
695.357100 348.000000
695.378800 328.000000
727.384500 11988.000000
728.385000 5608.000000
729.386200 1232.000000

>ms2peaks
152.070500 304.000000
167.092400 340.000000
211.106400 3864.000000
212.110700 372.000000
237.122700 376.000000
238.117800 4828.000000
239.123400 464.000000
253.117300 10176.000000
254.120200 1148.000000
268.128800 980.000000
313.155100 304.000000
314.161100 892.000000
329.151000 472.000000
343.165400 16536.000000
344.167500 4304.000000
345.173800 660.000000
357.180900 608.000000
358.182800 344.000000
372.190600 1768.000000
415.202100 344.000000
509.261700 1124.000000
510.256400 672.000000
523.271000 488.000000
541.283200 9004.000000
542.287400 3224.000000
543.298600 444.000000
695.369400 436.000000
727.384400 3500.000000
728.384700 1664.000000

