>compound AU58398143
>parentmass 313.2162
>ionization [M+H]+
>formula C21H28O2
>rt 608.970000
>profile qtof
#smiles_iso CC[C@]12CC[C@H]3[C@H]([C@@H]1CCC2(C#C)O)CCC4=CC(=O)CC[C@H]34
#smiles_can CCC12CCC3C(C1CCC2(C#C)O)CCC4=CC(=O)CCC34
#inchikey WWYNJERNGUHSAO-CULCCENASA-N
#pubchem_id 16051930
#mb_accession AU280601,AU280602,AU280603,AU280604,AU280605,AU280606

>ms2peaks
245.189300 19984.000000
295.204800 19332.000000
313.216400 2121540.000000
314.219700 438696.000000
315.222300 39644.000000

>ms2peaks
117.069200 6776.000000
119.084600 9228.000000
121.100800 5316.000000
123.079500 11932.000000
123.116300 4828.000000
125.095300 6748.000000
129.068700 9652.000000
131.084700 25668.000000
133.063500 4468.000000
133.100300 31576.000000
134.103700 3960.000000
135.079400 20392.000000
135.115800 9060.000000
137.095300 4088.000000
143.084300 15412.000000
145.100400 26164.000000
147.079400 8228.000000
147.115600 14516.000000
149.095000 24804.000000
149.131400 6008.000000
151.110800 4428.000000
155.084200 7080.000000
157.100200 21856.000000
159.079100 9204.000000
159.115700 34036.000000
160.119300 4464.000000
161.094800 15784.000000
161.131400 7952.000000
163.110500 15696.000000
167.083800 4004.000000
169.099600 10636.000000
171.115700 22964.000000
173.095000 5792.000000
173.131300 15636.000000
175.110900 16232.000000
175.147100 9028.000000
177.126500 5528.000000
181.100000 8312.000000
183.115900 22420.000000
185.094800 8196.000000
185.131600 38512.000000
186.135300 6392.000000
187.110500 9584.000000
187.147300 23432.000000
189.126500 12460.000000
193.100500 4236.000000
195.115600 10724.000000
197.131500 16184.000000
199.110900 5500.000000
199.147600 19964.000000
200.152000 4276.000000
201.126400 11044.000000
203.142600 8652.000000
207.115600 7816.000000
209.131500 7840.000000
211.111300 4708.000000
211.147400 7704.000000
213.126700 6048.000000
213.162600 8448.000000
215.142000 4564.000000
221.131100 10232.000000
223.146900 6800.000000
225.127200 7876.000000
225.163100 16156.000000
227.142100 4568.000000
227.178700 31800.000000
228.182200 6136.000000
235.147000 12688.000000
236.152400 3920.000000
237.163000 22544.000000
238.166800 5524.000000
239.142900 7208.000000
239.178000 4592.000000
241.157400 7608.000000
243.173900 8228.000000
245.189900 200876.000000
246.192900 35504.000000
248.155900 4944.000000
249.162700 10788.000000
251.178900 7188.000000
253.158400 5396.000000
253.194900 5848.000000
255.173900 5456.000000
266.165800 4992.000000
267.173500 10884.000000
267.210400 4784.000000
269.188100 4040.000000
277.194300 28284.000000
278.199100 7540.000000
295.205500 84872.000000
296.208700 21516.000000
313.216500 781496.000000
314.219700 147736.000000
315.222500 15300.000000

>ms2peaks
109.065000 692.000000
115.053800 6972.000000
116.061300 2396.000000
117.069100 13652.000000
118.071700 1932.000000
119.084700 15900.000000
120.088100 1780.000000
121.063800 5268.000000
121.100500 6336.000000
122.067600 772.000000
122.105500 636.000000
123.079400 11856.000000
123.115600 8700.000000
124.119400 1036.000000
125.095100 3040.000000
127.052700 720.000000
128.061100 10304.000000
129.068600 26432.000000
130.074900 6212.000000
131.084600 45900.000000
132.057800 424.000000
132.088200 5136.000000
133.063600 8508.000000
133.100400 39712.000000
134.069100 1008.000000
134.103700 4580.000000
135.079500 38988.000000
135.115800 16412.000000
136.082700 4152.000000
136.118700 1932.000000
137.095000 3632.000000
137.131100 4924.000000
138.099800 596.000000
138.134000 636.000000
141.068800 11044.000000
142.076400 7392.000000
143.084400 31568.000000
144.054900 480.000000
144.090600 6556.000000
145.063600 3164.000000
145.100100 46544.000000
146.103800 6160.000000
147.079600 11368.000000
147.115500 14844.000000
148.085200 2500.000000
148.118900 1896.000000
149.094800 28928.000000
149.130700 6236.000000
150.098400 3396.000000
150.133500 1044.000000
151.111600 2172.000000
152.060900 448.000000
153.068300 2148.000000
154.075800 2108.000000
155.084300 13608.000000
156.090100 5840.000000
157.063400 2064.000000
157.100000 35656.000000
158.070900 560.000000
158.104600 6372.000000
159.079000 10608.000000
159.115700 33752.000000
160.084400 1824.000000
160.119300 5940.000000
161.094800 25552.000000
161.131000 6760.000000
162.099400 4108.000000
162.134800 1476.000000
163.110600 17952.000000
163.147900 2224.000000
164.113400 2560.000000
164.151200 484.000000
165.068500 2900.000000
165.126600 692.000000
166.076000 1844.000000
167.084100 7864.000000
168.091400 3624.000000
169.099700 18532.000000
170.106100 5032.000000
171.115400 30412.000000
172.084000 468.000000
172.119500 5716.000000
173.094500 4824.000000
173.131400 14184.000000
174.100800 1156.000000
174.134900 2764.000000
175.110600 16996.000000
175.146700 15312.000000
176.114300 2988.000000
176.149700 2696.000000
177.126300 2688.000000
178.076600 1160.000000
179.084200 4848.000000
180.090400 3176.000000
181.100100 10532.000000
182.105700 3500.000000
183.080000 1364.000000
183.115900 20916.000000
184.088600 632.000000
184.120100 5760.000000
185.094700 5848.000000
185.131400 35872.000000
186.100300 1200.000000
186.135300 7956.000000
187.110400 6732.000000
187.146900 21536.000000
188.118200 3684.000000
188.150400 3352.000000
189.126200 10300.000000
189.162400 576.000000
190.129400 1716.000000
191.084800 1084.000000
191.142500 1488.000000
192.091100 1524.000000
192.146800 448.000000
193.099700 5656.000000
194.107600 2236.000000
195.116200 11268.000000
196.121800 3616.000000
197.095100 2944.000000
197.131500 13392.000000
198.100400 884.000000
198.136600 3496.000000
199.110400 4172.000000
199.146600 16340.000000
200.116100 1108.000000
200.152700 3952.000000
201.126000 8468.000000
201.162000 5136.000000
202.132100 2052.000000
202.167500 860.000000
203.142300 5980.000000
203.177600 1912.000000
204.146700 980.000000
204.181000 444.000000
205.100800 1828.000000
205.156000 520.000000
206.107400 2396.000000
207.115500 7460.000000
208.122500 4348.000000
209.131100 7804.000000
210.136900 2548.000000
211.110700 3408.000000
211.147300 5672.000000
212.115100 1296.000000
212.153000 1692.000000
213.126200 4068.000000
213.161700 3268.000000
214.131300 1240.000000
214.166900 648.000000
215.142100 3628.000000
215.177200 2036.000000
216.147300 1484.000000
217.157600 1384.000000
217.195200 792.000000
219.115100 1732.000000
220.124100 3500.000000
221.131800 7172.000000
222.138400 2408.000000
223.113200 444.000000
223.147600 5564.000000
224.120100 512.000000
224.151600 1876.000000
225.126200 3640.000000
225.162800 11032.000000
226.134000 1336.000000
226.166400 2048.000000
227.141300 2312.000000
227.178500 30096.000000
228.148900 920.000000
228.182400 5536.000000
229.158200 1828.000000
229.184000 480.000000
230.164800 500.000000
231.172200 560.000000
233.132000 2328.000000
233.189500 544.000000
234.138200 1580.000000
235.146600 7020.000000
236.153300 2688.000000
237.128400 828.000000
237.162700 10804.000000
238.136300 1060.000000
238.166800 2944.000000
239.142700 3352.000000
239.179000 2008.000000
240.145500 888.000000
240.185200 648.000000
241.158000 3232.000000
242.163900 692.000000
243.173900 2592.000000
244.177100 740.000000
245.189400 81424.000000
246.192900 15324.000000
247.147600 1432.000000
247.195100 1928.000000
248.155200 4432.000000
249.162300 6288.000000
250.166900 1208.000000
251.142300 844.000000
251.179500 3528.000000
252.149400 816.000000
252.184100 1152.000000
253.157600 2304.000000
253.194100 2632.000000
254.163000 928.000000
254.196400 708.000000
255.172300 1444.000000
256.178900 564.000000
257.190800 492.000000
262.172400 768.000000
265.157500 1004.000000
266.165900 4164.000000
267.172100 4728.000000
267.210300 1480.000000
268.175300 1052.000000
269.189100 956.000000
277.193700 6748.000000
278.198300 2164.000000
280.180000 672.000000
284.177300 1116.000000
285.182300 716.000000
295.204500 11704.000000
296.207900 3836.000000
313.216200 23512.000000
314.219300 5780.000000
315.222200 616.000000

>ms2peaks
109.064400 536.000000
115.053700 13792.000000
116.060300 3764.000000
117.069200 15548.000000
118.072100 2220.000000
119.084500 13044.000000
120.087600 1548.000000
121.063500 4176.000000
121.100100 3540.000000
122.069700 424.000000
122.104100 436.000000
123.079600 5868.000000
123.116300 4716.000000
124.118800 376.000000
125.095200 1148.000000
127.053000 1636.000000
128.060900 24660.000000
129.068600 36108.000000
130.074800 9476.000000
131.084500 37672.000000
132.055900 912.000000
132.088700 4012.000000
133.063600 6976.000000
133.100100 22616.000000
134.069400 1244.000000
134.103600 2552.000000
135.079400 30408.000000
135.116000 7824.000000
136.082900 3648.000000
136.118700 976.000000
137.094400 1656.000000
137.131600 1104.000000
141.068900 15712.000000
142.076000 15056.000000
143.084100 36316.000000
144.055800 1132.000000
144.090500 7216.000000
145.063500 3848.000000
145.100000 30828.000000
146.069800 1772.000000
146.104600 3684.000000
147.079500 8104.000000
147.115500 6892.000000
148.085500 2528.000000
148.119000 1264.000000
149.094600 12548.000000
149.130800 2484.000000
150.098500 1604.000000
151.111000 688.000000
152.061800 1748.000000
153.068500 5116.000000
154.076000 5236.000000
155.084400 16072.000000
156.091400 8880.000000
157.063200 1320.000000
157.099900 23036.000000
158.071400 460.000000
158.105500 4176.000000
159.078800 5860.000000
159.115400 15000.000000
160.120300 1768.000000
161.094700 15720.000000
161.131100 3276.000000
162.135300 348.000000
163.110200 6776.000000
163.147400 860.000000
164.112700 880.000000
165.068600 5724.000000
166.075000 3960.000000
167.084500 8320.000000
168.091100 5140.000000
169.099500 12368.000000
170.072200 332.000000
170.106000 4924.000000
171.078100 972.000000
171.115300 16940.000000
172.085900 568.000000
172.119500 3572.000000
173.094600 3172.000000
173.131300 5968.000000
174.101400 764.000000
174.135800 1036.000000
175.110900 7912.000000
175.147000 7288.000000
176.114600 1332.000000
176.150200 1196.000000
177.123600 884.000000
178.076900 2728.000000
179.084200 5400.000000
180.091100 3364.000000
181.060600 436.000000
181.099700 8044.000000
182.106100 4060.000000
183.078900 932.000000
183.115600 10712.000000
184.086300 916.000000
184.120200 2992.000000
185.095900 1692.000000
185.131300 13640.000000
186.101000 964.000000
186.135600 2660.000000
187.109800 3088.000000
187.146300 6172.000000
188.118000 3632.000000
188.150200 900.000000
189.125400 5408.000000
189.162500 372.000000
191.084800 2508.000000
191.139700 440.000000
192.091100 2504.000000
193.100000 5164.000000
194.106700 3188.000000
195.115300 5948.000000
196.088400 360.000000
196.122400 2580.000000
197.094300 1760.000000
197.131200 6636.000000
198.104500 488.000000
198.137500 1580.000000
199.110300 1404.000000
199.146300 4532.000000
200.117000 620.000000
201.126000 3580.000000
201.162900 2332.000000
202.133200 876.000000
202.164900 560.000000
203.086200 304.000000
203.140600 1332.000000
203.177300 628.000000
204.093100 508.000000
204.147100 408.000000
205.100500 2612.000000
206.107600 2796.000000
207.115000 4576.000000
208.121100 2184.000000
209.130600 4000.000000
210.136600 1276.000000
211.111900 1872.000000
211.147600 1896.000000
212.117100 680.000000
212.153600 756.000000
213.125400 1624.000000
213.161500 500.000000
214.133300 464.000000
215.139300 608.000000
215.176700 324.000000
216.147200 988.000000
217.156100 672.000000
218.107400 624.000000
219.115300 1848.000000
220.123400 1548.000000
221.131700 2452.000000
222.139300 1460.000000
223.110800 300.000000
223.146900 2040.000000
224.116000 456.000000
224.151200 648.000000
225.127000 1032.000000
225.161800 3064.000000
226.132800 984.000000
226.167700 616.000000
227.140800 984.000000
227.178400 6132.000000
228.150000 540.000000
228.180200 1212.000000
229.157500 568.000000
230.164900 328.000000
233.132200 2032.000000
234.140100 784.000000
235.146000 888.000000
236.156100 800.000000
237.124300 952.000000
237.162000 1776.000000
238.134100 996.000000
239.140000 732.000000
239.176400 416.000000
241.159700 436.000000
242.165200 360.000000
243.172900 604.000000
245.188800 7976.000000
246.192400 1488.000000
247.146300 840.000000
248.153400 816.000000
249.162300 928.000000
251.143600 692.000000
251.178500 1020.000000
252.149700 368.000000
253.157500 344.000000
253.194800 340.000000
254.161000 328.000000
262.169400 368.000000
265.158600 644.000000
266.166900 864.000000
267.171500 652.000000
277.194800 488.000000
295.202500 692.000000
313.214700 660.000000

>ms2peaks
115.053500 19416.000000
116.059900 5456.000000
117.069000 14804.000000
119.084500 8072.000000
120.088200 1092.000000
121.064200 1944.000000
121.100300 1140.000000
123.079200 3008.000000
123.116000 1580.000000
127.053500 2592.000000
128.061000 38972.000000
129.068500 36924.000000
130.075200 9580.000000
131.047800 1216.000000
131.084200 23088.000000
132.055800 1624.000000
132.088600 2640.000000
133.063600 5128.000000
133.099800 8376.000000
134.069400 1172.000000
134.103100 1136.000000
135.079100 15712.000000
135.115700 1940.000000
136.083000 1400.000000
137.095600 596.000000
139.052700 444.000000
141.068700 21828.000000
142.076100 19268.000000
143.083800 21680.000000
144.055500 2000.000000
144.090500 4748.000000
145.063600 4496.000000
145.099900 13716.000000
146.070700 1616.000000
146.103600 1976.000000
147.078600 6864.000000
147.115300 3704.000000
148.085400 2108.000000
148.117900 456.000000
149.094500 4300.000000
149.131300 432.000000
150.098000 532.000000
152.060900 3240.000000
153.068700 9548.000000
154.075900 7528.000000
155.084100 15676.000000
156.090700 8128.000000
157.064600 1204.000000
157.099500 11948.000000
158.070000 748.000000
158.106200 2636.000000
159.078800 3400.000000
159.115400 5052.000000
160.086400 1356.000000
160.121000 988.000000
161.094800 8260.000000
161.130900 716.000000
162.100400 2364.000000
163.109400 1808.000000
165.068600 9152.000000
166.075500 4208.000000
167.084000 9492.000000
168.090900 5056.000000
169.065000 648.000000
169.099700 9112.000000
170.105600 2796.000000
171.078100 1012.000000
171.115800 6636.000000
172.088600 460.000000
172.121100 1576.000000
173.094500 956.000000
173.131300 1620.000000
174.101300 1548.000000
175.109000 2964.000000
175.147900 2116.000000
176.115200 768.000000
176.150400 364.000000
177.126200 392.000000
178.076100 3936.000000
179.083900 5376.000000
180.090900 3168.000000
181.063000 312.000000
181.099200 5572.000000
182.106200 2324.000000
183.079200 596.000000
183.115400 3336.000000
184.086900 404.000000
184.122300 1368.000000
185.095000 744.000000
185.131300 4292.000000
186.101100 300.000000
186.135900 892.000000
187.110400 1748.000000
187.146000 1404.000000
188.117600 2412.000000
189.068300 488.000000
189.126300 1608.000000
190.076000 740.000000
190.129900 332.000000
191.083700 2812.000000
192.091300 2300.000000
193.100000 4192.000000
194.106800 1740.000000
195.079700 300.000000
195.116000 2660.000000
196.084600 384.000000
196.122600 752.000000
197.095200 664.000000
197.130900 1860.000000
198.138400 884.000000
199.111700 572.000000
199.147000 1652.000000
200.116100 340.000000
201.126500 1652.000000
201.161000 588.000000
202.131900 832.000000
203.084900 728.000000
203.143900 540.000000
204.092400 1056.000000
205.099600 2156.000000
206.107900 1352.000000
207.115800 2404.000000
208.123600 1084.000000
209.095000 440.000000
209.131100 1660.000000
210.104100 312.000000
210.135900 656.000000
211.109600 416.000000
211.145500 400.000000
213.126400 572.000000
215.143200 336.000000
216.148300 300.000000
217.098400 632.000000
217.158000 456.000000
218.108300 376.000000
219.115000 1572.000000
220.121600 684.000000
221.131400 844.000000
222.135500 512.000000
223.110400 496.000000
223.147400 764.000000
225.125900 612.000000
225.162700 444.000000
227.178300 760.000000
233.127900 560.000000
234.134800 456.000000
237.126600 480.000000
237.161200 388.000000
245.187800 760.000000
247.147800 380.000000
248.154300 348.000000
249.161000 312.000000
251.140600 384.000000
265.159000 344.000000

>ms2peaks
53.038300 1000.000000
55.017100 2060.000000
55.053500 6920.000000
57.032700 3224.000000
57.068900 908.000000
65.038400 972.000000
67.053600 18652.000000
68.057200 1612.000000
69.069200 5148.000000
71.048600 996.000000
79.053700 29548.000000
80.057100 1848.000000
81.033000 3288.000000
81.069400 29984.000000
82.072700 2308.000000
83.048700 51388.000000
84.052300 2632.000000
91.054400 29448.000000
92.057900 2148.000000
93.070100 28104.000000
94.073500 2228.000000
95.049200 3912.000000
95.085700 18624.000000
96.089300 1412.000000
97.064500 4536.000000
97.101300 852.000000
103.054500 1068.000000
105.070600 18756.000000
106.073500 1788.000000
107.050200 14224.000000
107.086200 13484.000000
108.053600 980.000000
108.089200 1220.000000
109.065900 56092.000000
109.102300 6968.000000
110.068500 4912.000000
110.105600 856.000000
111.081600 1424.000000
115.053800 4212.000000
116.060600 1676.000000
117.069600 14548.000000
118.073400 1876.000000
119.085300 16704.000000
120.088500 2080.000000
121.064300 5648.000000
121.101100 8276.000000
122.104300 1196.000000
123.080200 10932.000000
123.116800 6812.000000
124.084300 1308.000000
125.095400 4128.000000
128.061100 4244.000000
129.068900 15088.000000
130.074800 3376.000000
131.084700 27244.000000
132.088600 3448.000000
133.064100 4536.000000
133.100500 25956.000000
134.103900 4092.000000
135.079600 21828.000000
135.115900 9988.000000
136.082700 2628.000000
136.118300 1448.000000
137.095400 3640.000000
137.132100 3188.000000
141.068700 4504.000000
142.076000 3640.000000
143.084400 19104.000000
144.090100 3320.000000
145.062900 2212.000000
145.100000 31196.000000
146.103800 3300.000000
147.079300 7048.000000
147.115500 12224.000000
148.083600 924.000000
148.118800 1200.000000
149.094800 21984.000000
149.130900 5356.000000
150.097700 2240.000000
151.110300 2636.000000
153.069100 1364.000000
154.075100 1236.000000
155.083900 7252.000000
156.090300 3524.000000
157.063400 2716.000000
157.099800 23024.000000
158.104500 3428.000000
159.079200 6800.000000
159.115400 25004.000000
160.084100 1292.000000
160.119000 3892.000000
161.094800 15100.000000
161.130900 6100.000000
162.100100 3468.000000
163.110400 12704.000000
163.147700 1672.000000
164.114300 1712.000000
165.067400 1348.000000
166.077000 912.000000
167.084100 3664.000000
168.091900 2132.000000
169.099500 11072.000000
170.105800 3900.000000
171.115400 21172.000000
172.119600 3492.000000
173.095300 3468.000000
173.131000 11696.000000
174.100400 940.000000
174.134900 1772.000000
175.110100 12728.000000
175.147000 9792.000000
176.114400 1900.000000
176.150700 1452.000000
177.126900 3040.000000
179.083800 2328.000000
180.091000 1264.000000
181.099900 7084.000000
182.105800 1988.000000
183.115800 16344.000000
184.120800 2684.000000
185.094700 4656.000000
185.131400 31448.000000
186.100100 1228.000000
186.134800 6312.000000
187.110300 6820.000000
187.147200 17544.000000
188.117000 3180.000000
188.151400 2224.000000
189.126000 9624.000000
190.129700 1544.000000
191.141700 1940.000000
192.092200 864.000000
193.101000 3652.000000
194.107200 1268.000000
195.115300 7596.000000
196.122100 2452.000000
197.094100 2284.000000
197.131300 8840.000000
198.136000 1964.000000
199.110000 3728.000000
199.147400 14084.000000
200.115900 924.000000
200.152200 2644.000000
201.126700 6844.000000
201.161400 3580.000000
202.131900 1468.000000
203.142000 4656.000000
203.178300 892.000000
204.146500 916.000000
205.100900 968.000000
206.105300 1564.000000
207.116400 6180.000000
208.122100 2624.000000
209.131300 6428.000000
210.136900 1876.000000
211.111000 3332.000000
211.147600 5132.000000
212.150100 948.000000
213.126100 3844.000000
213.162700 3796.000000
214.132700 1188.000000
214.166500 976.000000
215.142900 3664.000000
215.178400 1548.000000
216.146100 904.000000
217.155700 1536.000000
219.114500 976.000000
220.125200 1144.000000
221.131700 6884.000000
222.136900 2828.000000
223.147400 5488.000000
224.152900 1448.000000
225.126800 4368.000000
225.163300 10644.000000
226.132400 1344.000000
226.167000 2256.000000
227.140700 2400.000000
227.178800 25040.000000
228.181600 3760.000000
229.158900 1784.000000
230.163900 1000.000000
231.172300 1044.000000
233.132300 1428.000000
234.138100 1204.000000
235.147000 5892.000000
236.151700 1952.000000
237.162700 12424.000000
238.167800 3132.000000
239.141400 4512.000000
239.177400 2472.000000
240.147300 1332.000000
241.158300 2928.000000
243.173300 4636.000000
245.189700 100820.000000
246.193000 22584.000000
247.196700 1636.000000
248.154900 4072.000000
249.161800 5604.000000
250.167100 1088.000000
251.142400 860.000000
251.179100 3188.000000
253.158700 2392.000000
253.195400 3088.000000
255.174200 2396.000000
257.187300 856.000000
266.166400 4004.000000
267.172300 5908.000000
267.209200 1692.000000
268.178800 1096.000000
269.190400 1124.000000
277.194700 13160.000000
278.198200 2928.000000
284.177200 1864.000000
295.205100 36944.000000
296.208700 9032.000000
313.216400 169524.000000
314.219400 49664.000000
315.222100 4468.000000

