>compound AU58283583
>parentmass 282.0481
>ionization [M+H]+
>formula C11H17Cl2NOS
>rt 747.630000
>profile qtof
#smiles_iso CCCCCCCCN1C(=O)C(=C(S1)Cl)Cl
#smiles_can CCCCCCCCN1C(=O)C(=C(S1)Cl)Cl
#inchikey PORQOHRXAJJKGK-UHFFFAOYSA-N
#pubchem_id 91688
#mb_accession AU287501,AU287502,AU287503,AU287504,AU287505,AU287506

>ms2
169.921900 219360.000000
170.923900 8136.000000
171.918800 129292.000000
282.048000 1296636.000000
283.051100 107864.000000
284.045200 611680.000000

>ms2
134.953100 2040.000000
169.922000 397240.000000
170.924000 13468.000000
171.919200 215388.000000
282.048000 32024.000000
283.050500 4560.000000
284.044700 19708.000000

>ms2
126.915700 2692.000000
128.912600 1644.000000
134.952700 7460.000000
136.949600 1680.000000
149.021700 1696.000000
150.026000 1524.000000
151.910800 2108.000000
153.907700 1452.000000
169.921700 196420.000000
170.923800 7432.000000
171.918700 114100.000000

>ms2
126.915700 6476.000000
128.912900 4592.000000
134.953000 24036.000000
135.954700 1244.000000
136.949900 6484.000000
149.021500 1080.000000
150.025300 1244.000000
151.911000 7036.000000
153.907300 3260.000000
169.921700 150964.000000
170.923900 6580.000000
171.918700 85396.000000

>ms2
116.944100 388.000000
122.938400 1248.000000
124.937900 420.000000
126.915800 7128.000000
128.913600 4216.000000
134.952900 33400.000000
135.955600 1344.000000
136.949800 8472.000000
142.910700 316.000000
149.022600 488.000000
150.027200 548.000000
151.910900 6292.000000
153.907600 3884.000000
169.921800 52024.000000
170.924500 2256.000000
171.918800 33928.000000

>ms2
55.053600 2456.000000
57.069300 116060.000000
58.072500 4972.000000
69.069400 1404.000000
71.085200 92836.000000
72.088400 5520.000000
126.916300 1700.000000
128.913100 1252.000000
134.952400 3408.000000
149.023000 1364.000000
150.026100 1336.000000
151.911100 1284.000000
169.922000 225808.000000
170.924800 11972.000000
171.919100 154724.000000
282.048000 14964.000000
283.050800 2116.000000
284.045300 7868.000000

