>compound AU58235219
>parentmass 749.5158
>ionization [M+H]+
>formula C38H72N2O12
>rt 379.500000
>profile qtof
#smiles_iso CC[C@@H]1[C@@]([C@@H]([C@H](N(C[C@@H](C[C@@]([C@@H](C([C@@H]([C@H](C(=O)O1)C)O[C@H]2C[C@@]([C@H]([C@@H](O2)C)O)(C)OC)C)O[C@H]3[C@@H]([C@H](C[C@H](O3)C)N(C)C)O)(C)O)C)C)C)O)(C)O
#smiles_can CCC1C(C(C(N(CC(CC(C(C(C(C(C(=O)O1)C)OC2CC(C(C(O2)C)O)(C)OC)C)OC3C(C(CC(O3)C)N(C)C)O)(C)O)C)C)C)O)(C)O
#inchikey MQTOSJVFKKJCRP-OHJWJPDZSA-N
#pubchem_id 55185
#mb_accession AU105203,AU105204,AU105205,AU105206

>ms2
116.105500 488.000000
158.116400 2976.000000
573.406700 1200.000000
574.411100 552.000000
591.422000 10908.000000
592.423800 4256.000000
593.424300 960.000000
749.517100 19456.000000
750.519300 9268.000000
751.521000 2500.000000
752.523600 492.000000

>ms2
116.069600 512.000000
116.106100 2376.000000
127.075500 728.000000
158.116600 20204.000000
159.100300 316.000000
159.119700 2012.000000
398.291000 984.000000
399.300100 312.000000
416.303600 636.000000
434.311500 1728.000000
435.317500 524.000000
573.411300 4964.000000
574.412800 1244.000000
591.422000 25452.000000
592.423900 9348.000000
593.424900 2364.000000
749.515600 5388.000000
750.523900 2844.000000
751.530300 748.000000

>ms2
116.070300 960.000000
116.106500 2840.000000
127.073400 912.000000
156.137100 396.000000
158.116400 30128.000000
159.119700 3268.000000
160.119000 368.000000
174.148700 488.000000
186.147800 2504.000000
187.152000 396.000000
204.159900 328.000000
398.289700 2592.000000
399.291100 384.000000
416.300600 1472.000000
417.302400 372.000000
434.312600 2088.000000
435.308000 636.000000
435.320000 548.000000
457.326800 692.000000
573.409200 4864.000000
574.412300 1948.000000
575.414500 536.000000
591.420300 8832.000000
592.422400 3896.000000
593.426500 840.000000
749.518300 416.000000

>ms2
591.419800 1152.000000
592.423100 440.000000
749.517300 25692.000000
750.521100 12164.000000
751.525100 3616.000000
752.527300 300.000000

