>compound AU59072985
>parentmass 204.1019
>ionization [M+H]+
>formula C12H13NO2
>rt 461.850000
>profile qtof
#smiles_iso CCNC1=CC2=C(C=C1)C(=CC(=O)O2)C
#smiles_can CCNC1=CC2=C(C=C1)C(=CC(=O)O2)C
#inchikey OTNIKUTWXUODJZ-UHFFFAOYSA-N
#pubchem_id 120061
#mb_accession AU249301,AU249302,AU249303,AU249304,AU249305,AU249306

>ms2
204.101900 942324.000000
205.105100 106404.000000
206.107000 8964.000000

>ms2
118.064200 5216.000000
130.064400 17992.000000
131.071800 10948.000000
132.080200 10148.000000
144.080200 10924.000000
145.087200 6648.000000
146.058800 6940.000000
147.067000 6292.000000
148.111300 59872.000000
149.114400 6488.000000
158.096100 4832.000000
160.111400 28552.000000
161.082900 9028.000000
175.062100 5184.000000
176.106100 25116.000000
189.078200 5212.000000
204.101700 954276.000000
205.104900 93004.000000
206.107200 7428.000000

>ms2
115.053800 348.000000
118.064800 828.000000
119.072300 428.000000
120.081800 924.000000
130.064900 2480.000000
131.073000 652.000000
132.080300 1392.000000
133.086800 548.000000
134.096500 340.000000
143.075700 304.000000
144.078900 1932.000000
145.086300 404.000000
146.058900 2192.000000
146.095200 360.000000
147.067000 924.000000
148.051400 484.000000
148.073900 500.000000
148.111200 5352.000000
149.113600 940.000000
158.095900 636.000000
160.050900 612.000000
160.075100 464.000000
160.111400 800.000000
161.082000 948.000000
162.088500 300.000000
164.070200 452.000000
175.061900 1460.000000
176.068900 320.000000
176.106300 1060.000000
189.076300 1124.000000
204.101300 5388.000000
205.103200 876.000000

>ms2
115.053700 352.000000
117.056900 432.000000
118.063600 1184.000000
119.071100 988.000000
120.079500 640.000000
130.064200 1044.000000
131.069800 392.000000
132.078800 1512.000000
133.085800 548.000000
144.081300 880.000000
146.058800 3612.000000
146.095700 524.000000
147.063000 536.000000
148.051900 1084.000000
148.110900 1252.000000
160.050800 764.000000
160.076100 468.000000
161.083400 372.000000
175.062800 532.000000
188.068300 380.000000

>ms2
115.054000 432.000000
117.054800 376.000000
118.039600 552.000000
118.063800 748.000000
119.070800 588.000000
130.065400 704.000000
131.047800 636.000000
132.080600 788.000000
144.080200 492.000000
146.059200 1776.000000
148.051300 592.000000
148.109700 332.000000
160.074200 564.000000

>ms2
118.063000 404.000000
120.080900 492.000000
130.064100 1080.000000
131.071800 676.000000
132.079900 540.000000
144.079300 672.000000
145.087100 356.000000
146.059400 788.000000
147.067400 396.000000
148.111900 3912.000000
149.113800 472.000000
160.111600 1000.000000
161.081500 416.000000
162.090300 300.000000
175.060700 532.000000
176.107200 1320.000000
189.076800 388.000000
204.101100 28936.000000
205.104000 3344.000000

