>compound AU59989170
>parentmass 183.07809999999998
>ionization [M+H]+
>formula C6H15O4P
>rt 363.270000
>profile qtof
#smiles_iso CCOP(=O)(OCC)OCC
#smiles_can CCOP(=O)(OCC)OCC
#inchikey DQWPFSLDHJDLRL-UHFFFAOYSA-N
#pubchem_id 6535
#mb_accession AU226501,AU226502,AU226503,AU247401,AU247402,AU247406

>ms2peaks
127.016400 849068.000000
128.019600 10444.000000
155.048000 1280904.000000
156.051200 29520.000000
183.079800 615144.000000
184.082900 20736.000000

>ms2peaks
127.016200 55460.000000
128.020600 1272.000000
129.019700 624.000000
155.048000 13796.000000
156.051600 512.000000
183.079300 1120.000000

>ms2peaks
127.016500 2716.000000

>ms2peaks
127.014700 27400.000000
128.019200 976.000000
129.018200 568.000000
155.046100 46436.000000
156.049500 1888.000000
157.049800 444.000000
168.055600 312.000000
183.077200 25940.000000
184.080500 1532.000000

>ms2peaks
127.015100 4380.000000
155.047100 1320.000000

>ms2peaks
98.983700 568.000000
127.015400 572.000000
155.045400 360.000000

