>compound AU59656272
>parentmass 253.03090000000003
>ionization [M+H]+
>formula C10H9ClN4S
>rt 330.000000
>profile qtof
#smiles_iso C1CSC(=NC#N)N1CC2=CN=C(C=C2)Cl
#smiles_can C1CSC(=NC#N)N1CC2=CN=C(C=C2)Cl
#inchikey HOKKPVIRMVDYPB-UHFFFAOYSA-N
#pubchem_id 115224
#mb_accession AU302401,AU302402,AU302403,AU302404,AU302405

>ms2
126.009900 52052.000000
127.013300 3504.000000
128.006800 12852.000000
186.013200 18824.000000
187.016900 2152.000000
188.009800 7180.000000
253.030900 1485020.000000
254.033300 119572.000000
255.027800 376016.000000
256.029900 22040.000000

>ms2
126.009900 841764.000000
127.013300 36664.000000
128.006800 182260.000000
144.019700 6028.000000
145.022500 500.000000
146.017100 1336.000000
186.013200 48340.000000
187.016900 4496.000000
188.009800 14196.000000
253.030900 268068.000000
254.033300 23868.000000
255.027800 70028.000000
256.029900 4712.000000

>ms2
126.009900 607816.000000
127.013300 39636.000000
128.006800 161288.000000
144.020200 14372.000000
145.023000 1424.000000
146.017200 3228.000000
151.005000 3776.000000

>ms2
126.009000 362408.000000
127.013300 21708.000000
128.006800 101188.000000
144.020200 15648.000000
145.023000 1380.000000
146.017200 4976.000000

>ms2
126.009900 150072.000000
127.013300 10360.000000
128.006800 43908.000000
129.010000 1688.000000
144.020200 8980.000000
145.023000 632.000000
146.017200 2444.000000
151.004700 828.000000

