>compound AU59658684
>parentmass 372.2322
>ionization [M+H]+
>formula C26H29NO
>rt 643.120000
>profile qtof
#smiles_iso CC/C(=C(\C1=CC=CC=C1)/C2=CC=C(C=C2)OCCN(C)C)/C3=CC=CC=C3
#smiles_can CCC(=C(C1=CC=CC=C1)C2=CC=C(C=C2)OCCN(C)C)C3=CC=CC=C3
#inchikey NKANXQFJJICGDU-QPLCGJKRSA-N
#pubchem_id 2733526
#mb_accession AU271501,AU271502,AU271503,AU271504,AU271505,AU271506

>ms2peaks
372.232700 2463628.000000
373.235300 732780.000000
374.238400 79708.000000

>ms2peaks
129.069400 10156.000000
207.116500 11736.000000
327.174400 16956.000000
372.232800 1827768.000000
373.235900 492812.000000
374.238800 55156.000000

>ms2peaks
121.063700 792.000000
128.061100 5656.000000
129.068900 47744.000000
130.072100 6008.000000
143.083800 976.000000
145.063300 1120.000000
147.079100 1476.000000
155.084600 896.000000
165.068800 984.000000
167.084400 6256.000000
168.087100 936.000000
171.079000 1840.000000
174.089700 988.000000
178.076100 8196.000000
179.083700 6192.000000
180.088400 1056.000000
181.100000 1112.000000
183.079000 2336.000000
191.084500 1912.000000
192.091700 2144.000000
193.100000 6712.000000
194.071700 1176.000000
194.102400 928.000000
195.080900 1452.000000
203.083200 832.000000
205.100000 3504.000000
206.107400 5584.000000
207.079300 2924.000000
207.115600 17364.000000
208.085500 2288.000000
208.118700 2888.000000
209.094700 13228.000000
210.098200 2040.000000
215.084300 988.000000
216.092700 1144.000000
219.114300 1568.000000
220.086700 1796.000000
221.095400 8728.000000
222.101700 3820.000000
223.108600 1500.000000
229.100900 1304.000000
231.116500 2796.000000
233.132600 1068.000000
234.102500 2208.000000
235.111200 1504.000000
236.118600 2868.000000
240.091800 884.000000
241.100800 1000.000000
242.108600 1148.000000
243.116500 3904.000000
244.119900 1024.000000
249.126600 8616.000000
250.130200 1644.000000
253.098900 1640.000000
254.109200 3776.000000
255.115500 2812.000000
256.123600 1428.000000
257.097500 1092.000000
257.131800 1924.000000
266.106600 988.000000
270.103800 2404.000000
270.138600 1180.000000
271.110700 4152.000000
271.146600 1984.000000
272.117100 1072.000000
280.126600 976.000000
281.132000 1500.000000
283.112500 2180.000000
283.147200 1480.000000
284.116600 1512.000000
285.126300 7740.000000
286.131400 1888.000000
297.125700 1384.000000
298.134700 8940.000000
299.141700 5656.000000
300.149600 11120.000000
301.154700 1916.000000
309.163800 1308.000000
317.221800 972.000000
327.174500 13664.000000
328.176100 3720.000000
372.232200 154008.000000
373.235500 42780.000000
374.238300 5396.000000

>ms2peaks
115.053000 1524.000000
117.068900 384.000000
121.065400 440.000000
127.053100 1164.000000
128.060900 11976.000000
129.068500 41016.000000
130.072200 4632.000000
131.047600 824.000000
133.062500 560.000000
141.067700 1376.000000
142.076800 364.000000
143.084500 960.000000
145.063700 1436.000000
147.079700 784.000000
149.095300 328.000000
152.061000 980.000000
153.067700 968.000000
154.077900 524.000000
155.084000 1172.000000
157.062100 420.000000
165.068200 3528.000000
166.075400 1640.000000
167.083900 5828.000000
168.086400 600.000000
169.098300 428.000000
171.079500 1228.000000
174.090700 856.000000
177.068000 668.000000
178.076200 18676.000000
179.082600 8084.000000
181.062500 708.000000
181.098300 1204.000000
183.079300 3144.000000
189.068600 708.000000
190.075500 844.000000
191.084100 6656.000000
192.091400 4828.000000
193.099600 12092.000000
194.071400 3128.000000
194.103100 2092.000000
195.078600 2188.000000
195.114500 484.000000
196.083900 420.000000
202.078600 1212.000000
203.083200 2936.000000
204.091600 2520.000000
205.099500 5144.000000
206.107500 5752.000000
207.079000 8624.000000
207.114100 3024.000000
208.085200 2980.000000
208.119000 464.000000
209.094400 5992.000000
210.097200 1088.000000
215.084200 2456.000000
216.091400 2524.000000
217.099600 1212.000000
218.108900 624.000000
219.077900 752.000000
219.115800 612.000000
220.086300 2116.000000
221.094700 7388.000000
221.131900 408.000000
222.101800 3860.000000
222.138100 304.000000
223.108000 1392.000000
228.092000 2368.000000
229.098200 2240.000000
230.106300 680.000000
231.112100 880.000000
232.126900 364.000000
234.102100 2904.000000
235.107900 912.000000
236.118300 800.000000
239.084700 1288.000000
240.091600 2092.000000
241.100400 2388.000000
242.106900 2700.000000
243.115600 4564.000000
244.120800 1088.000000
245.128600 572.000000
246.132400 312.000000
249.125100 1108.000000
250.127600 300.000000
252.093200 864.000000
253.100000 5648.000000
254.107100 9380.000000
255.113900 5780.000000
256.123400 1824.000000
257.096600 1388.000000
257.129900 1500.000000
258.099100 472.000000
265.100500 1320.000000
266.107400 1240.000000
267.115300 1804.000000
268.123400 1152.000000
269.093100 912.000000
269.132100 1064.000000
270.102300 2632.000000
270.138300 972.000000
271.108900 2700.000000
271.146500 1192.000000
272.112900 864.000000
278.105300 376.000000
279.116100 1336.000000
280.121100 1080.000000
281.130500 1284.000000
282.134400 408.000000
283.109600 4140.000000
283.144900 464.000000
284.115500 1536.000000
284.148200 380.000000
285.125900 7276.000000
286.130200 1516.000000
294.138700 524.000000
297.125300 1060.000000
298.133500 3260.000000
299.140600 2144.000000
300.148500 2416.000000
309.166700 696.000000
317.221700 592.000000
327.170800 784.000000
328.182800 352.000000
372.232400 1912.000000
373.235400 716.000000

>ms2peaks
115.054400 1304.000000
121.063800 332.000000
127.052900 1804.000000
128.061200 15128.000000
129.068900 17096.000000
130.072700 1988.000000
131.048700 1156.000000
131.072000 324.000000
131.082500 320.000000
133.064700 500.000000
141.069300 1036.000000
143.087300 392.000000
145.063600 2148.000000
146.067600 336.000000
152.061400 1888.000000
153.069400 1060.000000
154.073900 428.000000
155.084700 808.000000
157.063300 372.000000
165.069200 5328.000000
166.075100 2012.000000
167.083900 3148.000000
168.056500 324.000000
168.088500 616.000000
169.063200 496.000000
174.091200 440.000000
176.059800 540.000000
177.068900 828.000000
178.076400 21708.000000
179.082100 7704.000000
180.088400 1044.000000
181.063200 644.000000
181.099100 824.000000
182.072300 308.000000
183.079000 2388.000000
184.082500 400.000000
189.068500 1096.000000
190.075100 1832.000000
191.084200 12084.000000
192.091200 5004.000000
193.098900 4384.000000
194.072200 4000.000000
195.076600 1108.000000
202.077300 2860.000000
203.084900 2864.000000
204.091200 1936.000000
205.064900 404.000000
205.100000 3664.000000
206.069300 428.000000
206.075900 488.000000
206.107800 2748.000000
207.079400 9544.000000
207.111800 536.000000
208.084800 2372.000000
208.115600 308.000000
209.093800 1456.000000
215.084700 3292.000000
216.090100 2140.000000
217.098600 1052.000000
218.106100 520.000000
219.080100 1104.000000
220.086900 1320.000000
221.095200 2416.000000
222.101300 968.000000
223.108900 384.000000
227.083100 548.000000
228.092800 4080.000000
229.099100 2300.000000
230.106100 640.000000
233.095200 424.000000
234.101700 664.000000
239.084600 2936.000000
240.092300 2840.000000
241.100200 4968.000000
242.108000 2792.000000
243.116300 1676.000000
244.118300 384.000000
252.091600 3648.000000
253.100500 9344.000000
254.107000 7276.000000
255.083000 300.000000
255.115600 3568.000000
256.089000 364.000000
256.119900 1068.000000
257.094100 600.000000
257.130600 752.000000
258.100400 348.000000
265.100200 2596.000000
266.107800 1648.000000
267.116300 2012.000000
268.087600 596.000000
268.123300 820.000000
269.095300 1308.000000
269.129500 1040.000000
270.100800 2080.000000
271.110800 912.000000
278.108100 476.000000
279.118300 1236.000000
280.124700 732.000000
281.129000 728.000000
283.112400 2932.000000
284.119800 1060.000000
285.126100 1124.000000
286.125200 380.000000
293.131800 332.000000
297.124300 456.000000
298.134800 416.000000
299.143600 516.000000

>ms2peaks
56.049100 5756.000000
57.057000 7380.000000
58.064600 17644.000000
70.064900 29344.000000
72.080800 863148.000000
73.084000 42252.000000
91.054700 13180.000000
129.069300 32872.000000
178.076800 5748.000000
193.100000 4388.000000
207.116300 12640.000000
209.095600 8776.000000
221.095200 4452.000000
249.127100 4460.000000
285.128200 4452.000000
298.134500 4652.000000
300.150300 5200.000000
327.175000 9892.000000
372.232600 408760.000000
373.235900 149492.000000
374.238900 22364.000000

