>compound AU59200101
>parentmass 123.09169999999999
>ionization [M+H]+
>formula C7H10N2
>rt 142.320000
>profile qtof
#smiles_iso CN(C)C1=CC=NC=C1
#smiles_can CN(C)C1=CC=NC=C1
#inchikey VHYFNPMBLIVWCW-UHFFFAOYSA-N
#pubchem_id 14284
#mb_accession AU248101,AU248102,AU248103,AU248104,AU248106

>ms2
123.090800 26732.000000
124.094300 2784.000000

>ms2
123.091200 11692.000000
124.094800 1372.000000

>ms2
107.060000 720.000000
123.090700 9456.000000
124.094400 1072.000000

>ms2
123.090900 1124.000000

>ms2
79.041800 932.000000
80.049300 1796.000000
107.060700 3220.000000
108.068400 1820.000000
123.091200 82836.000000
124.094600 7960.000000

