>compound AU59469806
>parentmass 207.11279999999996
>ionization [M+H]+
>formula C11H14N2O2
>rt 254.120000
>profile qtof
#smiles_iso CCC(C1=CC=CC=C1)(C(=O)N)C(=O)N
#smiles_can CCC(C1=CC=CC=C1)(C(=O)N)C(=O)N
#inchikey JFZHPFOXAAIUMB-UHFFFAOYSA-N
#pubchem_id 23611
#mb_accession AU249901,AU249902,AU249903,AU249904,AU249905,AU249906

>ms2peaks
119.084400 2788.000000
134.096300 1472.000000
162.090700 128324.000000
163.093900 16604.000000
164.097000 1332.000000
190.085400 3128.000000
207.112300 78760.000000
208.114800 9356.000000

>ms2peaks
115.053600 2280.000000
116.057500 464.000000
117.069400 5964.000000
118.072900 1336.000000
119.085100 4116.000000
120.088400 680.000000
134.096100 6288.000000
135.098700 780.000000
145.064100 3932.000000
162.090700 47588.000000
163.094400 6892.000000
164.097400 528.000000
207.114000 620.000000

>ms2peaks
115.053400 624.000000
117.069000 956.000000
134.095500 1072.000000
162.090200 984.000000

>ms2peaks
115.053100 592.000000

>ms2peaks
115.053000 592.000000

>ms2peaks
91.053000 440.000000
117.069000 588.000000
119.085300 860.000000
134.095400 616.000000
145.063200 480.000000
162.090100 5076.000000
163.094000 584.000000

