>compound AU59385844
>parentmass 253.02939999999998
>ionization [M+H]+
>formula C12H10Cl2N2
>rt 533.628000
>profile qtof
#smiles_iso C1=CC(=C(C=C1C2=CC(=C(C=C2)N)Cl)Cl)N
#smiles_can C1=CC(=C(C=C1C2=CC(=C(C=C2)N)Cl)Cl)N
#inchikey HUWXDEQWWKGHRV-UHFFFAOYSA-N
#pubchem_id 7070
#mb_accession AU242401,AU242403,AU242404,AU242405,AU242406

>ms2peaks
217.048900 468.000000
251.013600 13848.000000
252.020800 56376.000000
253.027500 43344.000000
254.017900 33472.000000
255.025200 27564.000000

>ms2peaks
127.016000 564.000000
127.056300 344.000000
131.070800 384.000000
153.054700 368.000000
154.063200 4832.000000
155.070400 1204.000000
164.024200 416.000000
179.061400 332.000000
180.068400 360.000000
181.074500 10148.000000
182.082500 16676.000000
183.086100 2020.000000
188.023700 764.000000
189.034100 656.000000
190.040300 5436.000000
191.044200 580.000000
192.038500 1556.000000
200.023700 524.000000
201.031900 716.000000
215.035400 2808.000000
216.043500 3608.000000
217.032600 884.000000
217.051600 13728.000000
218.058900 5716.000000
219.048300 3284.000000
220.055400 1300.000000
224.001200 5844.000000
225.004800 648.000000
225.999100 5464.000000
234.990800 308.000000
251.013500 5436.000000
252.020500 31652.000000
253.023200 6424.000000
254.017800 19084.000000

>ms2peaks
126.044900 656.000000
127.018200 1052.000000
127.054400 812.000000
128.049100 416.000000
128.061900 452.000000
129.013700 516.000000
130.064100 2320.000000
131.071800 884.000000
140.049300 388.000000
141.055100 344.000000
151.016200 628.000000
152.047400 424.000000
153.017900 356.000000
153.056400 1440.000000
154.064100 23932.000000
155.070400 4900.000000
156.074500 596.000000
162.022700 348.000000
164.025500 1832.000000
164.047300 976.000000
165.027200 496.000000
165.056800 1508.000000
166.022800 808.000000
166.063800 608.000000
170.060100 644.000000
173.014500 564.000000
179.060300 1572.000000
180.066200 1032.000000
181.074900 21220.000000
182.082500 31864.000000
183.085900 4744.000000
188.025400 1520.000000
189.031900 1676.000000
190.022500 780.000000
190.040600 12812.000000
191.044100 1940.000000
192.037600 3832.000000
197.986800 556.000000
199.982900 380.000000
200.025500 496.000000
201.033100 2356.000000
202.024200 448.000000
203.031100 900.000000
215.036100 9336.000000
216.043700 7924.000000
217.034100 2896.000000
217.051600 6068.000000
218.041000 2744.000000
218.060300 5140.000000
219.049400 1424.000000
220.056300 1260.000000
224.002100 5504.000000
225.006100 716.000000
234.995100 760.000000
236.991900 796.000000
251.013200 2016.000000
252.021100 14780.000000
253.023500 2480.000000
254.018600 10384.000000

>ms2peaks
115.053600 380.000000
125.037800 512.000000
126.045600 1680.000000
127.017100 1264.000000
127.052900 3596.000000
128.048100 1280.000000
128.060600 1052.000000
129.014900 360.000000
129.056400 692.000000
130.063800 3656.000000
131.070300 692.000000
137.036900 324.000000
138.045500 452.000000
139.052800 664.000000
140.047400 916.000000
141.055700 720.000000
143.069400 320.000000
146.059200 416.000000
151.016300 1228.000000
152.046800 940.000000
153.015100 476.000000
153.056100 3344.000000
154.063800 36732.000000
156.078800 1212.000000
157.077900 316.000000
162.020800 432.000000
164.024800 4440.000000
164.048300 1984.000000
165.028500 396.000000
165.055700 2368.000000
166.020900 1964.000000
166.063000 1544.000000
168.068400 328.000000
170.060100 788.000000
172.006700 308.000000
173.012700 1260.000000
179.058500 2856.000000
180.065900 2268.000000
181.074500 20336.000000
182.081900 18140.000000
183.084100 2108.000000
188.025200 2540.000000
189.029900 1756.000000
190.021900 1032.000000
190.040300 6312.000000
191.027100 668.000000
191.043100 1148.000000
192.037100 2388.000000
197.987400 692.000000
199.983000 544.000000
200.025700 760.000000
201.032200 1948.000000
202.035900 428.000000
203.031400 416.000000
215.036200 7436.000000
216.042900 4968.000000
217.034100 2188.000000
217.049900 2072.000000
218.041100 1144.000000
218.058400 1052.000000
219.050700 372.000000
220.056500 508.000000
224.001900 2952.000000
225.004800 416.000000
225.998800 1940.000000
251.012400 360.000000
252.022400 2868.000000
253.023600 592.000000
254.018400 1748.000000

>ms2peaks
127.016800 428.000000
154.063400 2000.000000
155.070000 580.000000
181.074900 5724.000000
182.082900 13380.000000
183.085500 1688.000000
188.023300 424.000000
189.031100 456.000000
190.040500 3296.000000
191.045000 476.000000
192.038400 924.000000
201.032300 620.000000
215.034900 1332.000000
216.044400 3084.000000
217.051700 18268.000000
218.059700 7084.000000
219.049000 3556.000000
220.053600 1288.000000
224.002100 4420.000000
225.005100 580.000000
225.999000 3428.000000
251.012900 9640.000000
252.021000 62712.000000
253.010700 8712.000000
253.026400 21240.000000
254.018100 33404.000000
255.024000 10476.000000

