>compound AU59824992
>parentmass 264.1958
>ionization [M+H]+
>formula C16H25NO2
>rt 290.170000
>profile qtof
#smiles_iso CN(C)C[C@H]1CCCC[C@@]1(C2=CC(=CC=C2)OC)O
#smiles_can CN(C)CC1CCCCC1(C2=CC(=CC=C2)OC)O
#inchikey TVYLLZQTGLZFBW-ZBFHGGJFSA-N
#pubchem_id 33741
#mb_accession AU111701,AU111702,AU111703,AU111704,AU111705,AU111706

>ms2peaks
246.183900 15524.000000
264.195700 1271884.000000

>ms2peaks
121.063300 332.000000
144.989200 324.000000
159.079500 596.000000
163.002000 468.000000
201.126800 1260.000000
246.183900 5740.000000
247.188800 1092.000000
264.195400 31120.000000

>ms2peaks
121.063500 804.000000
147.078700 328.000000
159.079400 1168.000000
160.084800 308.000000
173.093900 732.000000
201.126200 700.000000
246.182000 456.000000

>ms2peaks
121.064400 1496.000000
133.063200 332.000000
135.078600 300.000000
144.056100 720.000000
145.063800 648.000000
147.080100 328.000000
158.071600 580.000000
159.079500 1040.000000
160.086300 484.000000
172.086400 576.000000
173.095500 436.000000

>ms2peaks
115.053300 432.000000
121.064800 1092.000000
128.061100 904.000000
129.068800 584.000000
144.056900 1048.000000
145.063200 460.000000
157.063600 500.000000
158.070600 500.000000
159.078600 816.000000
160.085900 320.000000

>ms2peaks
58.065200 1027804.000000
59.068300 31788.000000
264.196100 33196.000000
265.199900 5420.000000

