>compound AU59192779
>parentmass 328.1543
>ionization [M+H]+
>formula C19H21NO4
>rt 235.680000
>profile qtof
#smiles_iso CC(=O)OC1C=CC2C3CC4=C5C2(C1OC5=C(C=C4)O)CCN3C
#smiles_can CC(=O)OC1C=CC2C3CC4=C5C2(C1OC5=C(C=C4)O)CCN3C
#inchikey JJGYGPZNTOPXGV-UHFFFAOYSA-N
#pubchem_id 520352
#mb_accession AU157406

>ms2
58.064500 30480.000000
91.053600 6024.000000
165.069600 38136.000000
166.073200 4468.000000
181.064800 9888.000000
183.080200 23364.000000
185.059200 5096.000000
191.085400 23564.000000
193.064900 50048.000000
194.068600 6968.000000
201.090700 13012.000000
209.059800 27700.000000
209.095700 6160.000000
210.064300 4112.000000
211.075500 104892.000000
212.078900 13392.000000
219.080500 15836.000000
221.095800 6512.000000
227.069900 6388.000000
229.085700 15800.000000
237.091300 13268.000000
239.106700 5764.000000
255.102200 4628.000000
268.133900 43780.000000
269.137400 7256.000000
286.144500 10784.000000
328.155900 771316.000000
329.159200 164260.000000
330.161600 22184.000000

