>compound AU59855301
>parentmass 297.1849
>ionization [M+H]+
>formula C20H24O2
>rt 553.332000
>profile qtof
#smiles_iso C[C@]12CC[C@H]3[C@H]([C@@H]1CCC2=O)CC(=C)C4=CC(=O)C=C[C@]34C
#smiles_can CC12CCC3C(C1CCC2=O)CC(=C)C4=CC(=O)C=CC34C
#inchikey BFYIZQONLCFLEV-DAELLWKTSA-N
#pubchem_id 60198
#mb_accession AU224201,AU224202,AU224203,AU224204,AU224205

>ms2
121.065000 3084.000000
121.101200 5932.000000
135.080400 5896.000000
145.101500 5640.000000
149.096300 31956.000000
150.100000 3184.000000
163.112500 4060.000000
171.117000 3084.000000
185.096200 3504.000000
189.128100 4180.000000
239.144500 2944.000000
253.160300 2484.000000
279.175700 48064.000000
280.178400 9940.000000
297.186900 415124.000000
298.190100 72424.000000
299.193200 6952.000000

>ms2
115.054300 824.000000
117.070700 568.000000
119.085900 2480.000000
121.065000 16892.000000
121.101300 24780.000000
122.068400 1592.000000
122.105500 2104.000000
123.080900 1456.000000
123.116800 732.000000
128.060900 824.000000
129.070300 1904.000000
130.076400 524.000000
131.086000 9292.000000
132.055300 332.000000
133.065500 2920.000000
133.101700 4308.000000
135.044500 956.000000
135.080600 15876.000000
135.117200 3064.000000
136.084100 1440.000000
137.060200 500.000000
137.095800 1448.000000
142.076900 452.000000
143.085500 2340.000000
145.065300 4144.000000
145.101400 18780.000000
146.070600 428.000000
146.104400 2396.000000
147.080900 13448.000000
147.116800 4996.000000
148.084500 1308.000000
149.096500 63220.000000
150.099800 6332.000000
151.111000 896.000000
157.099800 912.000000
158.073400 396.000000
159.080500 5352.000000
159.116300 1104.000000
160.085500 628.000000
161.059000 564.000000
161.096800 7004.000000
161.132000 1632.000000
163.075600 1100.000000
163.111900 9292.000000
164.116100 1276.000000
169.100900 644.000000
171.080400 2304.000000
171.117500 9940.000000
172.087100 380.000000
172.120900 2300.000000
173.096500 8112.000000
174.100200 976.000000
175.074900 2708.000000
175.112400 2112.000000
176.118100 356.000000
177.128600 1256.000000
183.082000 488.000000
185.096500 13636.000000
186.099400 1804.000000
187.112500 5524.000000
188.116100 724.000000
189.089800 452.000000
189.127600 6532.000000
190.131500 972.000000
195.081700 400.000000
195.117600 512.000000
197.097500 2436.000000
198.101100 560.000000
199.113200 3952.000000
200.115500 752.000000
201.093200 984.000000
201.128300 3420.000000
202.131400 516.000000
203.108800 508.000000
207.117200 364.000000
209.098100 2264.000000
210.102700 392.000000
211.112700 2348.000000
212.117000 872.000000
213.128200 1768.000000
214.133000 388.000000
215.107000 1708.000000
215.144600 488.000000
216.111400 320.000000
221.133600 408.000000
223.112200 3944.000000
224.118800 1316.000000
225.128700 1316.000000
227.107600 324.000000
227.142500 1256.000000
228.148600 344.000000
229.124600 384.000000
237.128500 5344.000000
237.162900 352.000000
238.135100 1280.000000
239.143800 8220.000000
240.148100 1364.000000
241.121900 712.000000
241.159200 912.000000
246.140300 328.000000
249.129100 360.000000
250.134900 768.000000
251.144500 3444.000000
251.181500 600.000000
252.147300 808.000000
253.159900 7228.000000
254.164900 1436.000000
255.141400 536.000000
255.174800 2472.000000
256.178000 660.000000
261.166200 792.000000
264.152300 1192.000000
265.157200 436.000000
269.154700 508.000000
269.191300 852.000000
279.176000 45732.000000
280.179000 11192.000000
281.182900 1192.000000
283.176100 384.000000
297.186300 38768.000000
298.189800 10048.000000

>ms2
115.054000 1652.000000
116.060100 700.000000
117.069700 1836.000000
119.085500 4272.000000
121.064600 20580.000000
121.101200 14072.000000
122.067500 2652.000000
122.104800 1676.000000
123.080600 756.000000
123.117600 324.000000
125.094600 300.000000
127.053400 308.000000
128.062100 1676.000000
129.069700 5280.000000
130.076900 1744.000000
131.085100 8948.000000
132.057500 1824.000000
133.064500 4084.000000
133.101200 4048.000000
134.069900 532.000000
135.080200 13912.000000
135.116700 1652.000000
136.083600 1252.000000
137.096000 1000.000000
141.070100 628.000000
142.077500 956.000000
143.084900 3812.000000
144.060300 320.000000
145.064800 6200.000000
145.100800 12140.000000
146.069800 1324.000000
146.104500 1224.000000
147.080200 16196.000000
147.116600 3364.000000
148.083900 1768.000000
149.095700 25568.000000
150.099500 2740.000000
151.110200 528.000000
155.085100 976.000000
156.093300 868.000000
157.065200 812.000000
157.100100 1660.000000
158.072800 1696.000000
158.106000 368.000000
159.080600 8580.000000
159.116500 1460.000000
160.085200 1292.000000
161.060200 444.000000
161.095800 7832.000000
163.076500 464.000000
163.111500 3704.000000
164.116000 496.000000
165.069500 452.000000
166.075700 324.000000
167.084900 756.000000
169.068200 328.000000
169.101400 1168.000000
170.073500 344.000000
171.080200 4052.000000
171.116900 5248.000000
172.086600 1080.000000
172.120400 720.000000
173.096300 6244.000000
174.100700 864.000000
175.076100 1400.000000
175.111600 1544.000000
176.121900 380.000000
177.126700 808.000000
179.085400 608.000000
181.066100 336.000000
181.101600 436.000000
182.072800 432.000000
183.081000 704.000000
183.117500 300.000000
184.087900 580.000000
185.095800 11524.000000
186.099800 2028.000000
187.111600 2988.000000
189.090600 368.000000
189.127500 1512.000000
193.100900 884.000000
195.080500 1664.000000
195.118400 508.000000
196.085600 996.000000
197.096900 3240.000000
197.130800 316.000000
198.102200 1172.000000
199.112100 3536.000000
200.117300 544.000000
201.092900 548.000000
201.127400 788.000000
203.085500 348.000000
204.094600 428.000000
205.101900 540.000000
207.117200 472.000000
208.088400 996.000000
209.097300 2384.000000
209.132100 764.000000
210.101100 1164.000000
210.136600 308.000000
211.111400 2728.000000
212.115800 824.000000
213.128400 1416.000000
215.109500 352.000000
218.108000 488.000000
219.117600 344.000000
220.123000 344.000000
221.097600 368.000000
221.134700 352.000000
222.102900 1656.000000
223.112500 3732.000000
224.118600 1988.000000
225.127800 1220.000000
226.134500 428.000000
227.144200 912.000000
231.119100 344.000000
235.114500 672.000000
236.120400 728.000000
237.127700 2992.000000
238.135000 1524.000000
239.142700 2540.000000
240.148300 888.000000
241.157400 364.000000
246.137600 536.000000
249.128400 1132.000000
250.134000 848.000000
251.142800 1696.000000
251.178500 308.000000
253.160100 2368.000000
254.162300 564.000000
255.176500 512.000000
264.150400 1672.000000
269.154000 316.000000
279.175200 4432.000000
280.178700 1380.000000
297.185400 944.000000

>ms2
115.054300 3756.000000
116.060900 1092.000000
117.070200 2044.000000
119.085300 4468.000000
121.064700 16488.000000
121.100900 4920.000000
122.068600 1604.000000
123.079100 416.000000
127.053400 768.000000
128.062200 5312.000000
129.069700 4864.000000
130.077200 2536.000000
131.048900 1744.000000
131.084700 5788.000000
132.057000 3792.000000
132.090500 756.000000
133.064100 2716.000000
133.100800 1948.000000
135.080100 6684.000000
135.117500 404.000000
137.095600 428.000000
141.071000 1888.000000
142.077100 2752.000000
143.085100 3908.000000
144.057900 1212.000000
144.091400 788.000000
145.064800 5444.000000
145.101300 6708.000000
146.071300 2512.000000
147.080400 9148.000000
147.116600 1584.000000
148.121200 300.000000
149.096000 9620.000000
152.062000 860.000000
153.068900 616.000000
154.077200 716.000000
155.085500 1116.000000
156.094000 1436.000000
157.064400 904.000000
157.101000 1596.000000
158.072900 3164.000000
158.106000 472.000000
159.080400 4944.000000
159.117300 516.000000
160.085300 1296.000000
161.096100 3108.000000
162.101200 424.000000
163.111700 1312.000000
165.070700 1944.000000
166.078100 1032.000000
167.086000 1312.000000
168.090700 552.000000
169.063800 844.000000
169.100800 644.000000
170.072500 1440.000000
171.079700 4260.000000
171.117100 1164.000000
172.087200 1656.000000
172.122000 384.000000
173.096000 3936.000000
174.100200 660.000000
175.074100 360.000000
175.112000 632.000000
178.077900 400.000000
179.085500 1168.000000
180.092300 432.000000
181.064500 984.000000
181.101400 988.000000
182.072200 548.000000
182.105500 340.000000
183.080900 1316.000000
183.116400 308.000000
184.088100 952.000000
185.095800 5464.000000
186.100400 988.000000
187.110400 768.000000
191.086100 500.000000
192.092700 544.000000
193.099800 712.000000
194.072700 852.000000
194.108500 344.000000
195.081100 2416.000000
195.116900 396.000000
196.088300 1484.000000
197.095300 2448.000000
198.103600 1160.000000
199.111700 1252.000000
200.117800 408.000000
203.086700 584.000000
204.090700 336.000000
205.100500 624.000000
206.110300 348.000000
207.082700 372.000000
207.115000 408.000000
208.088600 1604.000000
209.095800 2480.000000
210.104400 1236.000000
211.111700 1236.000000
212.119000 372.000000
213.128500 448.000000
217.102800 432.000000
218.110000 312.000000
221.096100 1016.000000
222.103700 1544.000000
223.112400 1936.000000
224.118000 900.000000
225.126300 788.000000
235.111700 712.000000
236.118300 608.000000
237.126600 1312.000000
238.132900 436.000000
239.140000 620.000000
249.128800 948.000000
250.132800 332.000000
251.142300 476.000000
264.148900 540.000000

>ms2
115.054200 5568.000000
116.059600 1320.000000
117.069700 3008.000000
119.085800 3176.000000
121.064900 10456.000000
121.100800 2192.000000
127.053900 1276.000000
128.062000 5828.000000
129.069400 4924.000000
130.077300 2164.000000
131.048900 3640.000000
131.085100 3128.000000
132.057000 4180.000000
133.063600 1340.000000
133.100800 1028.000000
134.069300 452.000000
135.042300 300.000000
135.080600 2088.000000
139.053800 424.000000
141.069400 3828.000000
142.077500 3196.000000
143.085700 1828.000000
144.058200 1524.000000
144.093100 776.000000
145.064700 4928.000000
145.102000 2780.000000
146.071900 1848.000000
147.080400 3708.000000
147.116900 556.000000
149.096300 1888.000000
152.062100 1948.000000
153.068900 1624.000000
154.076900 860.000000
155.084700 1316.000000
156.093900 596.000000
157.064700 1840.000000
157.101500 1052.000000
158.072400 4020.000000
159.080200 2704.000000
160.084700 568.000000
161.096600 1148.000000
163.112900 476.000000
165.069600 2548.000000
166.076400 964.000000
167.085200 1180.000000
168.057400 372.000000
168.092100 340.000000
169.065600 1272.000000
169.100500 440.000000
170.073300 1260.000000
171.080300 1704.000000
172.087300 1368.000000
173.094500 1420.000000
178.077800 1472.000000
179.086200 1456.000000
180.091600 620.000000
181.064800 1696.000000
181.101600 480.000000
182.071700 1052.000000
183.079900 1028.000000
183.114300 372.000000
184.088700 792.000000
185.096900 2304.000000
186.102400 312.000000
189.070200 420.000000
190.077500 668.000000
191.086400 660.000000
192.094000 416.000000
193.101700 1008.000000
194.072300 928.000000
194.107400 328.000000
195.080700 1684.000000
196.087200 1064.000000
197.095600 920.000000
198.106700 432.000000
199.113900 324.000000
202.078500 304.000000
203.085200 896.000000
204.093500 656.000000
205.103400 684.000000
206.108900 356.000000
207.080700 1152.000000
208.089500 1296.000000
209.096000 1232.000000
210.101400 452.000000
211.113000 628.000000
220.088400 460.000000
221.095500 1120.000000
222.104400 884.000000
223.112200 576.000000
235.113700 600.000000
249.127100 364.000000

