>compound AU60072528
>parentmass 255.08379999999997
>ionization [M+H]+
>formula C16H14OS
>rt 778.040000
>profile qtof
#smiles_iso CC(C)C1=CC2=C(C=C1)SC3=CC=CC=C3C2=O
#smiles_can CC(C)C1=CC2=C(C=C1)SC3=CC=CC=C3C2=O
#inchikey KTALPKYXQZGAEG-UHFFFAOYSA-N
#pubchem_id 79633
#mb_accession AU246501,AU246502,AU246503,AU246504,AU246505,AU246506

>ms2
213.036200 8680.000000
255.084000 446480.000000
256.087000 75976.000000
257.081200 16700.000000

>ms2
184.032100 1888.000000
213.036500 297640.000000
214.039400 45360.000000
215.032200 12904.000000
255.083800 361740.000000
256.086700 59356.000000
257.081200 13352.000000

>ms2
184.033300 17480.000000
185.039400 5240.000000
213.036300 347500.000000
214.039200 53236.000000
215.032600 13800.000000
239.051900 4096.000000
240.059200 4384.000000
255.083200 22812.000000
256.085800 3564.000000

>ms2
139.053800 1248.000000
141.068900 1460.000000
152.061100 4624.000000
183.026500 1248.000000
184.033400 90180.000000
185.038800 21948.000000
186.029300 3784.000000
186.043300 2572.000000
197.040800 2804.000000
212.029000 2932.000000
213.036400 160796.000000
214.039000 26272.000000
215.032700 6568.000000
225.036900 2408.000000
239.051600 13452.000000
240.057500 3572.000000

>ms2
139.053600 4712.000000
141.069800 3868.000000
152.061500 13384.000000
153.065700 1756.000000
165.068600 1192.000000
178.077800 2144.000000
183.026100 4044.000000
184.033700 184492.000000
185.037200 29752.000000
186.029000 7632.000000
193.063800 928.000000
196.032400 1480.000000
197.041200 6804.000000
211.057200 1060.000000
212.028300 2780.000000
213.036300 40692.000000
214.039000 6788.000000
215.034700 2100.000000
221.042600 1204.000000
224.028300 3488.000000
225.035900 2760.000000
239.051600 12632.000000
240.055100 1868.000000

>ms2
184.032600 6508.000000
185.040400 2472.000000
213.036400 271404.000000
214.039300 54080.000000
215.032600 12296.000000
239.052700 2148.000000
240.058600 2052.000000
255.083100 166312.000000
256.086500 34964.000000
257.080400 7056.000000

