>compound AU60381924
>parentmass 296.024
>ionization [M+H]+
>formula C14H11Cl2NO2
>rt 630.480000
>profile qtof
#smiles_iso C1=CC=C(C(=C1)CC(=O)O)NC2=C(C=CC=C2Cl)Cl
#smiles_can C1=CC=C(C(=C1)CC(=O)O)NC2=C(C=CC=C2Cl)Cl
#inchikey DCOPUUMXTXDBNB-UHFFFAOYSA-N
#pubchem_id 3033
#mb_accession AU114706

>ms2peaks
180.079500 1372.000000
214.041400 50272.000000
215.048900 73728.000000
216.039600 10404.000000
216.050200 9460.000000
217.046100 15648.000000
218.049400 1900.000000
242.037600 784.000000
250.018100 8440.000000
251.020400 1660.000000
252.014900 5684.000000
253.015900 416.000000
278.015800 492.000000

