>compound AU60117244
>parentmass 722.3957
>ionization [M+H]+
>formula C34H59NO15
>rt 520.260000
>profile qtof
#smiles_iso CCCCC(C)C(C(CC(C)CC(CCCCC(CC(C(C)N)O)O)O)OC(=O)CC(CC(=O)O)C(=O)O)OC(=O)CC(CC(=O)O)C(=O)O
#smiles_can CCCCC(C)C(C(CC(C)CC(CCCCC(CC(C(C)N)O)O)O)OC(=O)CC(CC(=O)O)C(=O)O)OC(=O)CC(CC(=O)O)C(=O)O
#inchikey UVBUBMSSQKOIBE-UHFFFAOYSA-N
#pubchem_id 3431
#mb_accession AU596800,AU596801,AU596802,AU596803,AU596804

>ms2
722.394700 16384.000000

>ms2
722.392900 15452.000000

>ms2
334.308500 396.000000
352.320900 948.000000
370.333500 752.000000
546.363800 608.000000
686.372800 372.000000
704.381900 1228.000000
705.392300 540.000000
722.394900 14000.000000

>ms2
133.098500 348.000000
135.115300 724.000000
149.134200 336.000000
151.148000 384.000000
159.028300 460.000000
165.162800 460.000000
186.148300 1212.000000
201.163100 436.000000
204.158100 356.000000
210.187400 356.000000
236.203000 308.000000
245.225000 356.000000
254.213000 520.000000
263.236500 372.000000
272.221300 492.000000
279.269700 344.000000
316.299400 1324.000000
317.282400 676.000000
334.309500 5356.000000
335.312800 1264.000000
352.320900 6832.000000
353.322600 2120.000000
370.331000 3292.000000
371.337000 792.000000
388.343500 432.000000
492.332900 352.000000
510.340800 1396.000000
511.352500 640.000000
528.352300 1952.000000
529.353300 820.000000
546.364300 1260.000000
547.364600 400.000000
668.361400 304.000000
668.384700 328.000000
686.373600 1524.000000
687.375000 520.000000
688.373500 372.000000
704.381500 2704.000000
705.388700 1840.000000
706.394500 408.000000
722.392200 4152.000000

>ms2
121.101200 492.000000
123.115300 604.000000
133.101900 712.000000
135.115900 1020.000000
137.131200 500.000000
141.017800 1240.000000
145.102000 496.000000
147.116500 1292.000000
149.131000 808.000000
151.112600 308.000000
151.147900 1016.000000
159.028500 1500.000000
159.118100 320.000000
161.132200 1284.000000
163.147500 856.000000
165.162900 704.000000
168.137700 836.000000
173.133100 332.000000
175.148700 772.000000
177.163200 492.000000
186.149100 2220.000000
187.151700 612.000000
189.161300 792.000000
192.174300 440.000000
201.164100 1260.000000
203.179200 392.000000
204.159400 380.000000
210.187600 780.000000
222.187400 336.000000
236.199500 1080.000000
240.193900 344.000000
243.213000 400.000000
245.225900 720.000000
254.209000 596.000000
259.240300 420.000000
299.271200 460.000000
300.276000 300.000000
316.299600 3984.000000
317.285500 644.000000
317.305100 1112.000000
334.310300 13128.000000
335.314700 3368.000000
336.317500 320.000000
352.320600 9656.000000
353.326000 2712.000000
354.326400 676.000000
370.330700 2240.000000
371.333800 376.000000
492.329600 456.000000
510.342600 1228.000000
511.346100 528.000000
528.352900 1000.000000
529.356300 340.000000
546.355500 420.000000
686.369200 472.000000
687.378200 300.000000
704.384900 700.000000
705.393900 360.000000

