>compound AU60444681
>parentmass 250.1802
>ionization [M+H]+
>formula C15H23NO2
>rt 288.000000
>profile qtof
#smiles_iso CNCC(C1=CC=C(C=C1)O)C2(CCCCC2)O
#smiles_can CNCC(C1=CC=C(C=C1)O)C2(CCCCC2)O
#inchikey MMSWXJSQCAEDLK-UHFFFAOYSA-N
#pubchem_id 3451347
#mb_accession AU201701,AU201702,AU201703,AU201704,AU201705

>ms2peaks
201.126400 7912.000000
202.130900 1220.000000
232.169300 120820.000000
233.172200 14388.000000
234.177400 1284.000000
250.180100 236028.000000
251.182400 28972.000000
252.185900 2612.000000

>ms2peaks
119.047300 360.000000
121.064300 628.000000
131.047800 524.000000
133.063700 21152.000000
134.067800 1628.000000
135.067500 464.000000
138.127200 624.000000
145.063600 5816.000000
146.067100 712.000000
147.077100 452.000000
150.089600 2336.000000
159.078900 7264.000000
160.083700 948.000000
173.095800 1572.000000
183.115500 300.000000
201.126400 32256.000000
202.130100 4784.000000
203.132100 324.000000
232.168700 18024.000000
233.172200 3244.000000
234.178200 332.000000
250.179400 4760.000000

>ms2peaks
115.054300 736.000000
117.068800 304.000000
119.048500 508.000000
121.063300 2024.000000
122.066700 360.000000
131.047900 1596.000000
131.084600 940.000000
133.063900 30460.000000
134.067300 2708.000000
135.067000 1596.000000
136.069900 404.000000
138.127100 480.000000
141.068100 1000.000000
144.056200 920.000000
145.063600 9424.000000
146.068000 1500.000000
147.078400 1320.000000
148.074700 300.000000
149.081600 764.000000
150.090100 2348.000000
155.058800 404.000000
159.079000 11584.000000
160.082800 1604.000000
169.075300 500.000000
173.094500 948.000000
201.126100 3988.000000
202.130100 572.000000
232.168000 688.000000

>ms2peaks
115.054100 1752.000000
116.058700 488.000000
117.068900 408.000000
121.063900 1304.000000
127.054200 572.000000
128.060000 316.000000
129.069300 436.000000
131.047900 2080.000000
131.084600 2340.000000
132.053200 408.000000
133.063900 19884.000000
134.066800 1812.000000
135.067100 2924.000000
136.070800 460.000000
141.069200 2288.000000
142.073100 328.000000
144.055600 3768.000000
145.063300 6060.000000
146.066500 552.000000
147.078200 1252.000000
148.073900 332.000000
149.082500 1468.000000
150.090000 1164.000000
155.058800 1080.000000
158.071000 468.000000
159.078800 6364.000000
160.083300 948.000000
169.074400 1156.000000

>ms2peaks
115.053400 3564.000000
116.060600 548.000000
117.068300 600.000000
120.042800 352.000000
121.063800 856.000000
127.053300 1252.000000
128.060300 988.000000
129.067900 568.000000
131.048500 2276.000000
131.084300 964.000000
132.055700 1060.000000
133.064000 7512.000000
134.059800 1140.000000
135.066400 2216.000000
141.069200 2260.000000
144.055900 3892.000000
145.063600 3072.000000
146.067600 400.000000
147.078700 432.000000
148.074900 332.000000
149.081400 484.000000
153.069500 344.000000
155.060100 1132.000000
157.063700 616.000000
158.073000 520.000000
159.079400 1356.000000
169.075200 584.000000

