>compound AU60240200
>parentmass 154.1226
>ionization [M+H]+
>formula C9H15NO
>rt 399.600000
>profile qtof
#smiles_iso C1CCC2(CC1)CC(=O)NC2
#smiles_can C1CCC2(CC1)CC(=O)NC2
#inchikey JAWPQJDOQPSNIQ-UHFFFAOYSA-N
#pubchem_id 47457
#mb_accession AU268701,AU268702,AU268703,AU268704,AU268705,AU268706

>ms2
154.121900 2219164.000000
155.124900 225268.000000
156.127300 11640.000000

>ms2
154.121600 1485176.000000
155.124700 131556.000000
156.127000 8656.000000

>ms2
119.084300 2780.000000
137.096100 1860.000000
154.121800 206104.000000
155.124900 23704.000000
156.127200 1388.000000

>ms2
115.053800 344.000000
137.094800 392.000000
154.121800 10440.000000
155.125500 1292.000000

>ms2
154.121400 472.000000

>ms2
55.053900 8904.000000
60.043900 27232.000000
67.053800 78256.000000
69.069400 24236.000000
72.043900 31540.000000
81.069700 5604.000000
91.054500 11192.000000
93.070100 25200.000000
95.085900 318932.000000
96.089300 17884.000000
109.102400 13892.000000
112.113100 8356.000000
119.085600 7540.000000
154.122100 809644.000000
155.125500 99456.000000
156.128100 5220.000000

