>compound AU61954508
>parentmass 313.1481
>ionization [M+H]+
>formula C17H20N4S
>rt 397.548000
>profile qtof
#smiles_iso CC1=CC2=C(S1)NC3=CC=CC=C3N=C2N4CCN(CC4)C
#smiles_can CC1=CC2=C(S1)NC3=CC=CC=C3N=C2N4CCN(CC4)C
#inchikey KVWDHTXUZHCGIO-UHFFFAOYSA-N
#pubchem_id 135398745
#mb_accession AU151701,AU151702,AU151703,AU151704,AU151705

>ms2
256.092700 1608.000000
311.133700 564.000000
313.150000 96536.000000
314.152600 19272.000000
315.148700 4244.000000

>ms2
213.050100 1364.000000
230.075500 1960.000000
256.091600 38920.000000
257.094500 6260.000000
258.088400 2048.000000
282.107100 3820.000000
283.109200 724.000000
311.137700 560.000000
313.150000 93300.000000
314.152300 17400.000000
315.147700 4088.000000

>ms2
169.076700 1676.000000
173.017600 504.000000
179.062200 468.000000
180.069200 1796.000000
181.072700 476.000000
186.038500 616.000000
198.025700 4584.000000
212.041500 976.000000
213.049300 15180.000000
214.052800 2680.000000
215.045900 1160.000000
215.063700 1104.000000
222.103600 908.000000
223.111300 1252.000000
227.064600 648.000000
229.081900 504.000000
230.076000 2316.000000
239.066300 1380.000000
241.069000 516.000000
242.076800 1192.000000
256.091900 86872.000000
257.094800 13104.000000
258.089200 3948.000000
282.107400 13800.000000
283.109000 2520.000000
284.112600 676.000000
313.149500 13160.000000
314.151900 2412.000000
315.146400 716.000000

>ms2
133.076200 408.000000
142.065000 484.000000
154.066400 324.000000
155.060600 728.000000
168.068800 488.000000
169.076800 8964.000000
170.080400 1376.000000
173.017400 888.000000
173.028900 564.000000
179.062100 1812.000000
180.069000 8668.000000
181.073400 1108.000000
186.038300 4400.000000
187.042800 884.000000
195.080300 1304.000000
196.088200 916.000000
198.025800 22564.000000
199.029000 2380.000000
200.021100 1084.000000
200.052700 612.000000
201.049300 456.000000
208.087300 636.000000
209.095400 308.000000
211.033400 692.000000
212.041800 4732.000000
213.049500 22184.000000
214.054100 4476.000000
215.046600 904.000000
215.063300 1308.000000
220.088100 308.000000
221.094800 344.000000
222.104200 4024.000000
223.112500 3076.000000
224.118400 1592.000000
225.050900 512.000000
226.042400 372.000000
226.056300 656.000000
227.065000 2268.000000
228.060400 1240.000000
229.069100 576.000000
230.075700 504.000000
239.064200 1440.000000
240.062600 1264.000000
241.067900 1948.000000
242.075100 1208.000000
248.120700 556.000000
250.136800 504.000000
253.070200 312.000000
254.075900 732.000000
255.081800 768.000000
256.092400 42976.000000
257.094400 7852.000000
258.087900 1968.000000
270.108200 352.000000
282.108200 8388.000000
283.111500 1636.000000
284.105200 436.000000
313.152500 604.000000

>ms2
115.055600 1348.000000
128.049600 332.000000
132.069400 304.000000
133.077400 352.000000
140.049900 748.000000
142.065700 1856.000000
143.067000 460.000000
146.007900 340.000000
146.019800 908.000000
153.045400 300.000000
153.056500 636.000000
154.065700 996.000000
155.061500 1236.000000
160.079400 312.000000
167.061400 676.000000
168.068500 1236.000000
169.077300 17760.000000
170.060800 548.000000
170.080800 2144.000000
171.014100 612.000000
173.017300 1460.000000
174.023000 432.000000
179.062100 6664.000000
180.069100 11084.000000
181.074200 1956.000000
182.082800 804.000000
183.081900 424.000000
183.090800 308.000000
184.088600 312.000000
185.030300 500.000000
186.037700 8432.000000
188.035600 504.000000
193.078700 328.000000
194.072400 716.000000
194.084700 348.000000
195.080000 3048.000000
196.086600 1240.000000
196.100000 700.000000
197.015600 604.000000
198.026200 33116.000000
199.029100 4052.000000
200.022800 1452.000000
200.040900 536.000000
200.052600 772.000000
201.050300 940.000000
206.081300 368.000000
207.079100 576.000000
208.087500 652.000000
209.095300 520.000000
211.034600 1628.000000
212.042100 7232.000000
213.049400 11536.000000
214.053000 1940.000000
215.042900 360.000000
215.065700 708.000000
220.088400 936.000000
221.096100 520.000000
222.103900 5640.000000
223.109200 2128.000000
224.039200 400.000000
224.120100 1416.000000
225.049200 728.000000
225.122500 412.000000
226.056900 952.000000
227.065200 1664.000000
228.061200 1248.000000
229.075200 456.000000
239.064900 1244.000000
240.062400 1512.000000
241.068700 1348.000000
242.071000 344.000000
248.121100 804.000000
250.133600 448.000000
252.057600 336.000000
254.075800 988.000000
255.084900 360.000000
256.092300 9292.000000
257.096300 1892.000000
258.089100 480.000000
266.079600 368.000000
282.108300 2464.000000
283.110900 452.000000

