>compound AU61117237
>parentmass 244.0638
>ionization [M+H]+
>formula C10H13NO4S
>rt 462.910000
>profile qtof
#smiles_iso CC1=C(C(=CC=C1)C)NC(=O)CS(=O)(=O)O
#smiles_can CC1=C(C(=CC=C1)C)NC(=O)CS(=O)(=O)O
#inchikey ZNKNVJGSYJFDHT-UHFFFAOYSA-N
#pubchem_id 139292176
#mb_accession AU255901,AU255902,AU255903,AU255904,AU255905,AU255906

>ms2
149.094600 548.000000
168.084600 332.000000

>ms2
126.035900 320.000000
127.011300 3624.000000
149.095400 608.000000
167.075000 384.000000
168.083300 5384.000000
169.086500 976.000000
170.078700 476.000000
186.014100 516.000000

>ms2
121.064200 460.000000
126.035600 1128.000000
127.011800 3000.000000
135.102900 508.000000
137.028400 468.000000
138.035900 532.000000
150.035200 512.000000
152.051700 1012.000000
153.022800 364.000000
167.075600 568.000000
168.083100 4272.000000
169.084000 416.000000
203.016900 456.000000
227.038300 300.000000

>ms2
125.040500 388.000000
126.035900 1780.000000
127.010800 2816.000000
128.013900 364.000000
135.103000 408.000000
137.028800 508.000000
138.035700 1276.000000
150.036500 788.000000
151.043200 448.000000
152.014800 1112.000000
152.051300 1276.000000
153.022300 740.000000
153.058300 468.000000
154.031000 320.000000
168.083200 1328.000000
186.015800 456.000000

>ms2
118.065600 572.000000
120.080500 792.000000
144.079000 420.000000

>ms2
120.080400 696.000000
121.088200 932.000000
122.096300 7216.000000
123.099900 820.000000
134.096300 2692.000000
144.080200 1192.000000
145.087900 424.000000
147.068300 964.000000
148.075200 1052.000000
162.090700 1388.000000
163.098400 832.000000
226.052400 1388.000000
244.062600 1140.000000

