>compound AU61110361
>parentmass 184.11930000000004
>ionization [M+H]+
>formula C7H13N5O
>rt 227.540000
>profile qtof
#smiles_iso CC(C)(C)NC1=NC(=O)NC(=N1)N
#smiles_can CC(C)(C)NC1=NC(=O)NC(=N1)N
#inchikey NUISVCFZNCYUIM-UHFFFAOYSA-N
#pubchem_id 135612794
#mb_accession AU208301,AU208302,AU208303,AU208304,AU264405,AU264406

>ms2
128.056100 73904.000000
129.057800 2960.000000
183.099000 776.000000
184.118200 107708.000000
185.121200 8504.000000

>ms2
128.056100 90688.000000
129.057800 3260.000000
184.117900 2116.000000

>ms2
128.056300 21420.000000

>ms2
128.055800 2792.000000

>ms2
128.055700 1492.000000

>ms2
57.069200 21064.000000
69.008000 3756.000000
85.050900 4200.000000
86.035000 55956.000000
128.056000 225844.000000
129.058600 10696.000000
184.118700 21460.000000
185.120700 1216.000000

