>compound AU61580875
>parentmass 221.1536
>ionization [M+H]+
>formula C14H20O2
>rt 670.620000
>profile qtof
#smiles_iso CC(C)(C)C1=CC(=O)C=C(C1=O)C(C)(C)C
#smiles_can CC(C)(C)C1=CC(=O)C=C(C1=O)C(C)(C)C
#inchikey RDQSIADLBQFVMY-UHFFFAOYSA-N
#pubchem_id 12867
#mb_accession AU246001,AU246002,AU246003,AU246004,AU246006

>ms2
161.094900 2352.000000
203.104000 312.000000

>ms2
161.094600 1944.000000

>ms2
146.070100 512.000000
161.094700 1288.000000
169.032300 704.000000

>ms2
121.027000 468.000000
133.010600 488.000000
169.032400 1924.000000

>ms2
161.095400 1796.000000
169.030400 308.000000

