>compound AU61937624
>parentmass 277.12820000000005
>ionization [M+H]+
>formula C12H20O7
>rt 417.920000
>profile qtof
#smiles_iso CCOC(=O)CC(CC(=O)OCC)(C(=O)OCC)O
#smiles_can CCOC(=O)CC(CC(=O)OCC)(C(=O)OCC)O
#inchikey DOOTYTYQINUNNV-UHFFFAOYSA-N
#pubchem_id 6506
#mb_accession AU285701,AU285702,AU285703,AU285704,AU285705,AU285706

>ms2
129.017900 1012.000000
157.048300 159900.000000
158.051300 13844.000000
159.052700 1628.000000
185.043100 2736.000000
189.074100 884.000000
203.090400 97156.000000
204.093900 10444.000000
205.095000 1412.000000
213.074600 5608.000000
231.085500 4180.000000
277.127300 6336.000000

>ms2
129.016800 4644.000000
139.001800 6600.000000
149.021900 648.000000
157.048800 116244.000000
158.051900 8588.000000
159.053900 852.000000
167.032500 1388.000000
185.043700 3536.000000
203.091800 1688.000000
213.075500 1176.000000

>ms2
115.037700 788.000000
129.017400 5220.000000
130.021600 504.000000
133.050600 468.000000
139.001100 15520.000000
140.004900 1268.000000
152.142800 300.000000
157.011300 2344.000000
157.048200 37868.000000
158.051800 3320.000000
159.052400 452.000000
167.031600 1004.000000
185.042400 688.000000

>ms2
129.016600 1108.000000
139.000800 6648.000000
140.003200 672.000000
149.021700 444.000000
157.012900 536.000000
157.047600 4880.000000
158.051600 672.000000

>ms2
139.001700 1072.000000

>ms2
68.996300 572.000000
105.018200 692.000000
115.039000 736.000000
129.017700 10404.000000
133.049100 26584.000000
134.052500 1388.000000
139.001900 10208.000000
140.004200 640.000000
157.012900 6236.000000
157.048600 112976.000000
158.051800 9372.000000
159.052900 1164.000000
167.033000 1240.000000
185.043200 3436.000000
189.074800 948.000000
203.088500 1304.000000
213.075200 1048.000000

