>compound AU61352015
>parentmass 208.029
>ionization [M+H]+
>formula C8H11Cl2NO
>rt 423.900000
>profile qtof
#smiles_iso C=CCN(CC=C)C(=O)C(Cl)Cl
#smiles_can C=CCN(CC=C)C(=O)C(Cl)Cl
#inchikey YRMLFORXOOIJDR-UHFFFAOYSA-N
#pubchem_id 37829
#mb_accession AU383301,AU383302

>ms2peaks
127.965500 368.000000
132.021600 348.000000
137.988500 324.000000
139.966800 5088.000000
141.964000 2784.000000
149.985400 344.000000
153.982100 612.000000
165.983300 564.000000
208.030300 43916.000000
209.033500 4260.000000
210.027100 27340.000000

>ms2peaks
127.966500 324.000000
139.966400 2132.000000
141.962400 1540.000000
165.981800 452.000000
208.029600 1744.000000
210.025800 1296.000000

