>compound AU61853537
>parentmass 153.0229
>ionization [M+H]+
>formula C5H4N4S
>rt 157.260000
>profile qtof
#smiles_iso C1=NC2=C(N1)C(=S)N=CN2
#smiles_can C1=NC2=C(N1)C(=S)N=CN2
#inchikey GLVAUDGFNGKCSF-UHFFFAOYSA-N
#pubchem_id 667490
#mb_accession AU278601,AU278602,AU278604,AU278606

>ms2peaks
153.020900 13268.000000
154.023600 740.000000
155.017600 652.000000

>ms2peaks
119.034500 2776.000000
126.010400 824.000000
153.021800 6540.000000

>ms2peaks
119.033900 412.000000

>ms2peaks
119.034500 3816.000000
126.012400 1124.000000
153.022200 18668.000000
154.023100 884.000000
155.018100 320.000000

