>compound AU61482378
>parentmass 170.1036
>ionization [M+H]+
>formula C6H11N5O
>rt 170.000000
>profile qtof
#smiles_iso CC(C)NC1=NC(=O)NC(=N1)N
#smiles_can CC(C)NC1=NC(=O)NC(=N1)N
#inchikey GCKLGRUZDXSATG-UHFFFAOYSA-N
#pubchem_id 135510207
#mb_accession AU202302,AU202303,AU202304

>ms2
128.056100 120872.000000
129.058400 5892.000000
170.103200 45456.000000
171.104900 3328.000000

>ms2
128.056000 22060.000000
129.058700 1372.000000
170.103000 1240.000000

>ms2
128.056400 1804.000000

