>compound AU62810216
>parentmass 405.2272
>ionization [M+H]+
>formula C23H32O6
>rt 526.780000
>profile qtof
#smiles_iso CC(=O)OCC(=O)[C@]1(CC[C@@H]2[C@@]1(C[C@@H]([C@H]3[C@H]2CCC4=CC(=O)CC[C@]34C)O)C)O
#smiles_can CC(=O)OCC(=O)C1(CCC2C1(CC(C3C2CCC4=CC(=O)CCC34C)O)C)O
#inchikey ALEXXDVDDISNDU-JZYPGELDSA-N
#pubchem_id 5744
#mb_accession AU282801,AU282802,AU282803,AU282804,AU282805,AU282806

>ms2
241.159000 584.000000
291.178300 472.000000
309.184300 1968.000000
310.187500 440.000000
327.194900 3320.000000
328.197200 588.000000
345.209400 536.000000
369.209600 720.000000
387.217600 784.000000
405.227300 85024.000000
406.229800 24652.000000
407.233600 3456.000000

>ms2
119.085300 500.000000
121.064500 1464.000000
123.080300 376.000000
135.078200 496.000000
143.086600 412.000000
145.100500 344.000000
147.079000 832.000000
147.115600 368.000000
149.093400 372.000000
157.100300 544.000000
159.080600 576.000000
159.114600 568.000000
161.095000 616.000000
163.109900 816.000000
169.100600 732.000000
171.115600 360.000000
173.095800 484.000000
175.111200 464.000000
183.116000 432.000000
185.095300 312.000000
185.129100 664.000000
187.111100 1560.000000
195.117300 352.000000
199.108600 512.000000
201.125500 768.000000
207.114700 376.000000
209.131500 356.000000
213.127400 772.000000
215.141500 692.000000
219.137100 316.000000
221.132100 312.000000
223.147600 516.000000
225.127400 940.000000
227.142800 592.000000
229.158900 660.000000
231.135600 824.000000
239.142300 1696.000000
241.157600 3740.000000
242.161600 776.000000
243.137500 316.000000
249.165500 540.000000
251.141400 800.000000
263.140700 376.000000
263.178000 388.000000
265.160000 468.000000
267.174000 2540.000000
268.176200 828.000000
269.190400 1180.000000
273.145700 484.000000
281.153000 1504.000000
281.188500 1724.000000
282.153500 404.000000
282.195100 652.000000
285.185600 700.000000
287.200000 760.000000
291.172900 3000.000000
292.178200 880.000000
297.186800 948.000000
299.200400 1240.000000
300.205000 536.000000
309.184500 12788.000000
310.187400 3544.000000
327.196000 12980.000000
328.197400 3676.000000
329.193700 308.000000
329.204100 548.000000
345.205400 3076.000000
346.209500 712.000000
369.205300 2192.000000
370.212200 644.000000
387.215600 2052.000000
388.215900 640.000000
405.227200 22396.000000
406.230600 7316.000000
407.234000 1052.000000

>ms2
119.084700 1484.000000
121.063800 4264.000000
121.100500 368.000000
122.066500 560.000000
123.079500 1672.000000
129.069000 352.000000
131.085000 1032.000000
133.064000 304.000000
133.100300 736.000000
135.079600 1396.000000
137.096300 540.000000
141.069800 420.000000
143.085000 1288.000000
145.100800 2060.000000
147.079300 1180.000000
147.115200 1076.000000
149.095400 668.000000
151.076000 516.000000
155.084000 656.000000
157.100500 1928.000000
159.078500 784.000000
159.116400 2288.000000
160.120100 320.000000
161.095300 1288.000000
161.136000 372.000000
163.110000 2164.000000
165.090000 404.000000
167.083500 420.000000
169.098700 2076.000000
171.080000 964.000000
171.115000 1588.000000
172.120400 320.000000
173.094300 1668.000000
173.130100 732.000000
175.110400 1732.000000
176.115700 324.000000
177.125100 484.000000
179.103100 340.000000
181.099500 784.000000
183.116600 1460.000000
184.120300 428.000000
185.095800 1228.000000
185.131100 1704.000000
187.110400 2812.000000
187.147100 352.000000
188.116100 440.000000
189.127500 768.000000
191.105400 656.000000
194.106400 320.000000
195.114200 836.000000
197.093500 480.000000
197.130400 700.000000
198.136400 372.000000
199.110100 1724.000000
199.147700 528.000000
200.116600 420.000000
201.126700 1400.000000
203.107800 420.000000
205.124200 368.000000
207.116100 916.000000
209.096400 420.000000
209.130900 1152.000000
211.111400 1088.000000
211.147700 496.000000
212.117300 340.000000
213.126900 2132.000000
215.145500 552.000000
217.120200 452.000000
221.132500 544.000000
223.111900 464.000000
223.146800 1888.000000
225.126100 2132.000000
225.164100 352.000000
226.132200 720.000000
227.142700 1272.000000
228.151800 332.000000
229.157200 816.000000
231.137200 948.000000
233.131100 352.000000
237.122600 504.000000
239.142200 2772.000000
240.146800 676.000000
241.158000 8080.000000
242.161700 1656.000000
243.134200 420.000000
243.173100 560.000000
247.147000 484.000000
249.128000 580.000000
249.162900 1596.000000
250.168600 484.000000
251.142000 2272.000000
251.177300 704.000000
252.147600 412.000000
253.120700 360.000000
253.158900 836.000000
254.162000 444.000000
263.143500 772.000000
263.177800 704.000000
265.159300 620.000000
266.166300 588.000000
267.135100 432.000000
267.173900 4272.000000
268.178200 1680.000000
269.152400 688.000000
269.190100 1880.000000
270.195100 444.000000
273.165400 496.000000
279.170200 796.000000
281.153900 1344.000000
281.188800 3028.000000
282.156800 448.000000
282.193900 832.000000
285.148000 300.000000
285.184100 764.000000
286.190400 460.000000
287.197500 748.000000
291.174000 2788.000000
292.179500 1192.000000
297.184800 1504.000000
299.201500 984.000000
300.202300 352.000000
301.176300 380.000000
309.184000 7396.000000
310.187200 2120.000000
327.195400 7748.000000
328.196300 2660.000000
345.206900 1704.000000
346.212000 552.000000
369.207800 732.000000
387.218000 316.000000
405.227300 1524.000000

>ms2
115.053100 348.000000
119.084800 1620.000000
121.064100 3492.000000
123.079200 1328.000000
125.059500 432.000000
128.061200 668.000000
129.069500 776.000000
131.084900 1688.000000
133.064900 444.000000
133.101000 1092.000000
135.079100 1320.000000
137.094300 304.000000
141.068700 668.000000
142.075400 492.000000
143.085100 2012.000000
145.064600 360.000000
145.100000 2660.000000
146.103200 308.000000
147.079000 1060.000000
147.114900 1156.000000
149.093700 464.000000
151.074600 324.000000
154.075200 308.000000
155.083500 1024.000000
156.090600 556.000000
157.099900 2776.000000
158.103100 472.000000
159.078800 1232.000000
159.115000 1876.000000
160.119000 312.000000
161.094400 1200.000000
161.132300 352.000000
163.074600 476.000000
163.109400 2252.000000
164.112900 408.000000
167.082700 848.000000
168.089900 396.000000
169.099900 2180.000000
170.103400 460.000000
171.080500 556.000000
171.115600 1972.000000
172.120400 440.000000
173.094300 1596.000000
173.132100 720.000000
174.100100 420.000000
175.109300 1148.000000
177.126400 332.000000
179.082500 312.000000
180.089500 312.000000
181.099100 960.000000
182.104500 336.000000
183.116400 1592.000000
185.095400 1236.000000
185.130900 1440.000000
186.100500 356.000000
187.110400 1376.000000
189.125800 700.000000
192.090900 300.000000
193.099900 528.000000
194.108300 316.000000
195.115000 872.000000
196.121800 384.000000
197.095500 512.000000
197.132400 1020.000000
199.111600 716.000000
199.146000 848.000000
200.152200 344.000000
201.126300 668.000000
203.103300 432.000000
205.121400 576.000000
207.114000 816.000000
208.125900 412.000000
209.130400 1120.000000
211.111500 880.000000
211.146000 576.000000
212.117700 608.000000
213.126700 1524.000000
213.163000 408.000000
214.128300 304.000000
215.143500 340.000000
221.133300 700.000000
223.109400 452.000000
223.148100 1052.000000
224.150900 304.000000
225.126300 1300.000000
225.160400 596.000000
226.133600 772.000000
227.142000 728.000000
231.138700 356.000000
233.128500 628.000000
235.148100 432.000000
237.125200 396.000000
239.142200 1384.000000
240.146200 352.000000
241.156900 4904.000000
242.161500 612.000000
243.136800 336.000000
243.172000 508.000000
247.148100 344.000000
249.163600 508.000000
250.169600 356.000000
251.141700 896.000000
251.177300 464.000000
253.155300 660.000000
263.141900 428.000000
265.158200 340.000000
267.173300 1276.000000
268.178800 824.000000
269.153800 396.000000
269.189900 636.000000
279.175000 384.000000
281.155100 588.000000
281.189700 708.000000
286.190600 332.000000
291.172400 716.000000
292.176900 376.000000
309.183300 1356.000000
310.186800 392.000000
312.171800 364.000000
327.194600 1088.000000
345.207000 352.000000

>ms2
115.053100 560.000000
117.071000 396.000000
119.085100 1412.000000
121.063500 2420.000000
123.079700 1116.000000
128.061400 1292.000000
129.068500 808.000000
130.079600 436.000000
131.084300 1632.000000
133.062100 312.000000
133.100800 860.000000
135.079800 908.000000
135.115400 300.000000
137.094500 320.000000
141.067800 1280.000000
142.077200 1284.000000
143.083800 2004.000000
145.063400 640.000000
145.099900 2076.000000
146.106400 380.000000
147.079900 1096.000000
147.116100 892.000000
153.068500 340.000000
154.074600 812.000000
155.084400 1344.000000
156.091400 416.000000
157.100200 2156.000000
158.106300 356.000000
159.079800 928.000000
159.115800 1352.000000
160.118000 336.000000
161.095400 708.000000
163.111000 1784.000000
166.073700 304.000000
167.084000 1028.000000
168.090400 760.000000
169.099800 1588.000000
171.079300 712.000000
171.115300 1392.000000
172.120400 376.000000
173.095100 1056.000000
173.129600 360.000000
174.100800 504.000000
175.111400 708.000000
179.085400 540.000000
181.099100 1004.000000
182.104600 324.000000
183.080600 344.000000
183.116000 1960.000000
184.088800 452.000000
184.120600 552.000000
185.094000 688.000000
185.131000 1072.000000
186.136800 316.000000
187.108100 692.000000
189.125000 520.000000
192.090300 320.000000
193.099800 640.000000
194.109100 572.000000
195.114900 788.000000
197.093800 472.000000
197.131200 856.000000
198.100300 316.000000
199.110900 448.000000
199.145000 536.000000
205.098500 328.000000
206.106900 444.000000
207.114300 560.000000
208.123300 420.000000
209.130500 856.000000
210.139900 416.000000
211.110800 1020.000000
211.147000 624.000000
212.119400 324.000000
213.127300 1168.000000
221.132400 420.000000
223.147000 628.000000
224.120100 332.000000
225.127500 760.000000
225.164500 380.000000
226.135300 860.000000
227.138400 488.000000
228.149300 380.000000
234.137100 368.000000
239.139100 364.000000
239.148100 328.000000
241.159100 1184.000000
242.162800 376.000000
243.172300 340.000000
249.162200 440.000000
251.146800 480.000000
253.157700 672.000000
255.169600 340.000000
267.172900 656.000000
268.181300 368.000000
281.186200 408.000000
286.189500 312.000000
312.175000 352.000000

>ms2
119.084000 1048.000000
121.063700 3664.000000
123.080200 1012.000000
129.068800 368.000000
131.083500 744.000000
133.099800 856.000000
135.079200 1336.000000
135.116100 336.000000
137.095300 336.000000
141.068000 300.000000
143.083800 1024.000000
145.100700 996.000000
147.079600 956.000000
147.115300 796.000000
149.094900 764.000000
155.082800 608.000000
157.100400 1268.000000
159.079100 668.000000
159.116000 1580.000000
161.094200 1060.000000
161.132300 428.000000
163.111200 2272.000000
169.101500 1144.000000
171.078200 624.000000
171.115400 1012.000000
173.095000 1088.000000
173.130500 364.000000
174.099800 304.000000
175.110500 912.000000
181.101700 488.000000
183.115800 832.000000
185.095700 760.000000
185.131800 1284.000000
187.110600 1852.000000
189.126500 676.000000
191.106400 356.000000
195.114300 820.000000
197.093700 324.000000
197.130000 744.000000
199.110500 556.000000
199.148100 612.000000
201.127800 1056.000000
205.123900 608.000000
207.116600 424.000000
209.131900 1024.000000
211.111200 756.000000
211.150500 440.000000
213.126500 1008.000000
213.159900 372.000000
214.130000 304.000000
221.131000 444.000000
223.147200 1060.000000
225.125700 1592.000000
226.131500 324.000000
227.142900 668.000000
229.156400 516.000000
231.137100 440.000000
239.142300 2360.000000
240.145900 404.000000
241.157500 4792.000000
242.160500 1048.000000
243.137800 460.000000
243.172400 596.000000
249.130300 416.000000
249.162400 1100.000000
251.142800 1024.000000
252.149000 364.000000
253.155700 692.000000
263.142400 536.000000
263.178000 516.000000
265.160800 736.000000
266.164400 324.000000
267.173900 2880.000000
268.183200 796.000000
269.155000 352.000000
269.190700 1428.000000
270.192400 452.000000
273.163600 384.000000
279.170600 480.000000
281.153400 720.000000
281.190400 1468.000000
282.191700 432.000000
285.182800 684.000000
287.202700 488.000000
291.174100 2356.000000
292.181400 544.000000
297.185500 740.000000
298.194200 356.000000
299.200200 944.000000
300.202700 380.000000
309.185200 6012.000000
310.189000 1972.000000
311.200200 396.000000
327.195900 7860.000000
328.199700 1720.000000
345.206800 1496.000000
346.210900 460.000000
369.204000 1012.000000
387.213700 392.000000
405.228700 4100.000000

