>compound AU62491924
>parentmass 414.26390000000004
>ionization [M+H]+
>formula C25H35NO4
>rt 376.788000
>profile qtof
#smiles_iso C[C@]([C@H]1C[C@@]23CC[C@@]1([C@H]4[C@@]25CCN[C@@H]3CC6=C5C(=C(C=C6)O)O4)OC)(C(C)(C)C)O
#smiles_can CC(C)(C)C(C)(C1CC23CCC1(C4C25CCNC3CC6=C5C(=C(C=C6)O)O4)OC)O
#inchikey YOYLLRBMGQRFTN-IOMBULRVSA-N
#pubchem_id 114976
#mb_accession AU166401,AU166402,AU166403,AU166404,AU166405

>ms2peaks
414.266500 29352.000000
415.269900 9700.000000

>ms2peaks
414.265400 34660.000000
415.269200 11520.000000
416.273600 1376.000000

>ms2peaks
211.075200 316.000000
271.133100 324.000000
326.177000 336.000000
340.189500 680.000000
364.225100 512.000000
396.251100 372.000000
414.266200 24484.000000
415.269200 7996.000000
416.274000 1168.000000

>ms2peaks
137.095600 372.000000
161.059800 320.000000
187.076900 928.000000
188.080100 328.000000
190.086900 360.000000
199.075500 376.000000
209.094500 300.000000
211.078300 608.000000
213.089600 388.000000
214.087600 324.000000
217.086700 312.000000
223.075700 472.000000
225.091700 612.000000
237.093300 624.000000
239.105600 480.000000
241.088200 412.000000
243.104400 496.000000
251.106600 460.000000
265.122700 684.000000
267.104100 468.000000
269.120300 364.000000
283.133100 548.000000
295.136500 356.000000
297.152100 540.000000
311.169600 308.000000
312.164500 680.000000
326.179700 668.000000
340.192000 896.000000
341.195300 360.000000
342.168800 376.000000
364.228000 496.000000
382.235600 408.000000
396.253300 796.000000
397.260900 412.000000
414.266400 12364.000000
415.270100 3288.000000

>ms2peaks
137.095900 444.000000
161.061300 744.000000
173.061000 624.000000
184.051000 384.000000
185.057800 400.000000
187.075000 1220.000000
193.065800 376.000000
195.081600 440.000000
197.093900 432.000000
199.076500 592.000000
211.075700 1392.000000
213.089400 332.000000
219.081100 400.000000
221.094300 480.000000
223.075400 788.000000
225.091400 1060.000000
237.092300 624.000000
239.106700 668.000000
241.085500 312.000000
243.101800 748.000000
244.107000 324.000000
245.095600 320.000000
247.108700 364.000000
251.103700 388.000000
253.121500 444.000000
257.117300 384.000000
263.108000 528.000000
265.123500 544.000000
268.107400 320.000000
269.114700 316.000000
279.141200 400.000000
281.156400 308.000000
291.140600 304.000000
311.165000 380.000000
312.163600 452.000000
340.190700 316.000000
414.266400 1460.000000

