>compound AU62675556
>parentmass 227.1543
>ionization [M+H]+
>formula C15H18N2
>rt 394.840000
>profile qtof
#smiles_iso CC(C)NC1=CC=C(C=C1)NC2=CC=CC=C2
#smiles_can CC(C)NC1=CC=C(C=C1)NC2=CC=CC=C2
#inchikey OUBMGJOQLXMSNT-UHFFFAOYSA-N
#pubchem_id 7573
#mb_accession AU242501,AU242502,AU242503,AU242504,AU242505,AU242506

>ms2
120.079800 11488.000000
226.144900 10596.000000
227.154100 1882120.000000
228.157000 266484.000000
229.159600 18988.000000

>ms2
120.079800 278212.000000
121.082900 22244.000000
129.068600 8452.000000
178.076200 33760.000000
180.079400 12720.000000
193.099900 50900.000000
194.099600 11304.000000
195.103000 49148.000000
210.126400 37756.000000
211.124600 10308.000000
225.136900 13600.000000
227.153700 1604588.000000
228.156700 196540.000000
229.160000 12356.000000

>ms2
118.064200 4816.000000
119.072200 5528.000000
120.080000 667460.000000
121.083200 51404.000000
128.061400 6984.000000
129.068800 13456.000000
142.076700 4444.000000
143.084200 3948.000000
152.060800 3468.000000
153.068300 4224.000000
154.076100 3520.000000
155.084100 9824.000000
165.068600 5004.000000
166.075400 3548.000000
168.091100 4508.000000
169.099400 5152.000000
178.076600 106000.000000
179.080600 18132.000000
180.079800 98356.000000
181.084500 18104.000000
182.094000 7720.000000
183.115900 3368.000000
192.091900 5392.000000
193.100000 53400.000000
194.095900 56196.000000
195.103100 115236.000000
196.106100 16824.000000
208.111300 7872.000000
209.116600 4780.000000
210.126600 22204.000000
211.122900 8484.000000
225.137400 10728.000000
227.153700 114448.000000
228.156700 21380.000000

>ms2
117.057100 2364.000000
118.064200 6916.000000
119.072300 7748.000000
120.080100 456564.000000
121.083100 40064.000000
128.061100 9596.000000
129.068400 6360.000000
130.064000 4172.000000
141.068700 4240.000000
142.076600 2880.000000
144.079400 2944.000000
152.061000 14872.000000
153.068400 12620.000000
154.074900 3996.000000
155.059100 2800.000000
155.084500 5668.000000
156.080000 2992.000000
165.068600 10096.000000
167.072000 5096.000000
167.083700 5016.000000
168.079500 3048.000000
168.090900 3308.000000
170.094700 3092.000000
176.060500 4260.000000
177.068600 9924.000000
178.076600 91352.000000
179.081300 18688.000000
180.079800 155560.000000
181.083500 24312.000000
182.092800 2772.000000
191.084300 4440.000000
192.091800 6148.000000
193.087800 14756.000000
194.095700 81524.000000
195.101800 33664.000000
196.103700 6348.000000
208.111000 5768.000000
210.115600 2764.000000
210.124600 2372.000000
211.121700 4324.000000
225.138000 3668.000000
227.153700 2884.000000

>ms2
115.053500 1436.000000
117.056500 3196.000000
118.063900 10156.000000
119.071800 9568.000000
120.080000 241072.000000
121.083200 22964.000000
127.052800 2568.000000
128.061000 12008.000000
129.067400 3104.000000
130.064200 4756.000000
139.053100 2036.000000
140.048600 1284.000000
141.068400 4892.000000
142.075000 1740.000000
143.071300 1628.000000
144.079000 3424.000000
150.044600 1692.000000
151.053100 3088.000000
152.060700 39948.000000
153.067900 29368.000000
154.071500 4916.000000
155.059500 3856.000000
155.083500 1640.000000
156.079700 2904.000000
163.052800 5892.000000
164.058700 1360.000000
165.068100 16328.000000
166.074600 5140.000000
167.072000 5464.000000
167.083100 8224.000000
168.079000 3388.000000
169.086500 1224.000000
170.095400 1352.000000
176.060700 13012.000000
177.068000 23040.000000
178.076400 51276.000000
179.080900 12620.000000
180.079600 120832.000000
181.082900 17284.000000
182.094400 1756.000000
189.068800 2424.000000
190.075300 1748.000000
191.083500 5128.000000
192.081000 4020.000000
193.087500 31920.000000
194.095100 49032.000000
195.097200 11920.000000
196.098700 3096.000000
208.110800 2184.000000
209.106800 2424.000000

>ms2
103.055100 4344.000000
120.080800 354652.000000
121.084000 28612.000000
129.069400 9132.000000
155.084300 3852.000000
178.076900 46980.000000
179.080900 6456.000000
180.079800 34712.000000
181.085600 6148.000000
193.100500 49252.000000
194.097300 17544.000000
195.103700 64576.000000
196.106600 8328.000000
208.111900 4056.000000
210.127000 27792.000000
211.125700 8028.000000
225.138300 7536.000000
227.154200 666072.000000
228.157400 97260.000000
229.161400 7304.000000

