>compound AU62249541
>parentmass 559.2603
>ionization [M+H]+
>formula C33H35FN2O5
>rt 604.068000
>profile qtof
#smiles_iso CC(C)C1=C(C(=C(N1CC[C@H](C[C@H](CC(=O)O)O)O)C2=CC=C(C=C2)F)C3=CC=CC=C3)C(=O)NC4=CC=CC=C4
#smiles_can CC(C)C1=C(C(=C(N1CCC(CC(CC(=O)O)O)O)C2=CC=C(C=C2)F)C3=CC=CC=C3)C(=O)NC4=CC=CC=C4
#inchikey XUKUURHRXDUEBC-KAYWLYCHSA-N
#pubchem_id 60823
#mb_accession AU112902,AU112903,AU112904,AU112905,AU112906

>ms2
292.146800 792.000000
380.165500 488.000000
404.207700 528.000000
422.215600 3428.000000
423.217900 920.000000
430.183600 432.000000
440.226800 73496.000000
441.229600 21028.000000
442.233100 3308.000000
448.195400 2104.000000
449.198700 680.000000
466.207000 13568.000000
467.207400 3196.000000
468.211400 680.000000
517.212600 516.000000
541.252300 800.000000
559.264600 84064.000000
560.267400 28760.000000
561.272000 5792.000000

>ms2
250.104000 5836.000000
276.120200 1700.000000
292.151900 14572.000000
293.155800 2716.000000
294.167000 2352.000000
318.168000 1120.000000
336.143400 1500.000000
362.157000 2684.000000
380.167100 7068.000000
380.202200 1004.000000
381.171600 2112.000000
398.178000 3116.000000
399.184100 1108.000000
404.204600 2840.000000
406.146700 1204.000000
422.215900 16144.000000
423.218600 5544.000000
424.161800 1936.000000
430.185100 1804.000000
440.227300 183516.000000
441.230100 53688.000000
442.232600 7188.000000
443.236300 1104.000000
448.194500 3216.000000
449.197100 1100.000000
466.205700 14624.000000
467.208900 5188.000000
468.208900 948.000000
517.219700 1148.000000
559.264100 8552.000000
560.268300 3324.000000

>ms2
120.044800 668.000000
237.098300 424.000000
238.104700 2752.000000
239.108700 456.000000
248.090100 476.000000
249.097000 1640.000000
250.104300 46768.000000
251.107800 7452.000000
262.105500 1468.000000
263.113100 500.000000
264.115200 548.000000
276.085300 1272.000000
276.120600 15076.000000
277.085900 608.000000
277.124400 3364.000000
278.128000 676.000000
279.145000 1720.000000
280.151400 3776.000000
281.151700 780.000000
290.135800 908.000000
292.151900 49116.000000
293.154600 11108.000000
294.093300 784.000000
294.132500 904.000000
294.166800 7528.000000
295.171500 1288.000000
302.099900 792.000000
302.136600 1752.000000
303.139600 444.000000
304.152300 1012.000000
306.130000 1784.000000
307.131900 600.000000
316.152800 784.000000
318.131900 1652.000000
318.168700 5032.000000
319.134300 452.000000
319.172600 1340.000000
320.147400 2732.000000
334.197000 660.000000
336.143400 696.000000
336.177900 2116.000000
344.149700 1664.000000
344.183800 528.000000
345.151700 396.000000
346.126700 436.000000
360.138900 1332.000000
360.214200 484.000000
361.149100 852.000000
362.158100 11664.000000
363.161200 3036.000000
363.196900 552.000000
369.141600 800.000000
378.225200 1356.000000
379.160300 3120.000000
379.233000 456.000000
380.168900 25740.000000
380.203300 2700.000000
381.172100 6240.000000
381.204800 904.000000
382.172000 700.000000
388.140300 864.000000
398.178700 6852.000000
399.184100 2008.000000
402.190500 628.000000
404.204800 5740.000000
405.206800 1832.000000
406.148500 1232.000000
406.186800 824.000000
411.190200 612.000000
412.175500 544.000000
422.216000 19152.000000
423.218400 5552.000000
424.160100 2144.000000
424.220600 844.000000
425.164600 492.000000
430.181100 1140.000000
440.226600 75592.000000
441.229400 23072.000000
442.231700 3104.000000
448.196100 832.000000
466.206800 14612.000000
467.209400 5240.000000
468.209900 872.000000

>ms2
120.044700 1088.000000
223.094600 752.000000
233.078100 1520.000000
235.083000 1048.000000
237.097000 1552.000000
238.104700 10768.000000
239.107100 1708.000000
248.089300 2512.000000
249.097100 10208.000000
250.105100 149016.000000
251.108700 25792.000000
252.118600 5496.000000
253.123200 764.000000
262.104500 6456.000000
263.108700 1824.000000
264.084100 1972.000000
264.120500 2848.000000
275.114300 992.000000
276.085200 5396.000000
276.120900 47932.000000
277.094100 1260.000000
277.125100 10804.000000
278.098900 936.000000
278.133000 2084.000000
279.143800 2808.000000
280.152200 4600.000000
281.157000 848.000000
288.121800 1116.000000
289.133200 1084.000000
290.135700 2364.000000
291.142400 1064.000000
292.152400 44520.000000
293.155500 9132.000000
294.133300 1620.000000
294.167300 5268.000000
295.171200 1336.000000
300.121300 788.000000
302.100700 1916.000000
302.136800 6184.000000
303.104400 820.000000
304.152200 1032.000000
306.131500 6308.000000
307.132800 1304.000000
316.151800 2628.000000
317.156100 836.000000
318.131400 3944.000000
318.168100 7028.000000
319.170900 1476.000000
320.110700 848.000000
320.147600 7444.000000
321.152400 2028.000000
334.128000 1008.000000
336.178300 2692.000000
342.135300 924.000000
344.146500 3788.000000
345.153700 988.000000
346.127800 932.000000
360.142200 952.000000
361.152400 1104.000000
362.158500 16756.000000
362.193500 1676.000000
363.161900 5000.000000
379.162400 1936.000000
380.168600 17120.000000
380.205100 2360.000000
381.171100 4368.000000
398.182200 2284.000000
404.207000 2412.000000
405.211000 896.000000
406.186200 3364.000000
407.192200 792.000000
422.215200 4704.000000
423.221400 1576.000000
424.159400 1128.000000
440.227300 8092.000000
441.228100 2496.000000
466.207300 11712.000000
467.208400 3780.000000
468.218500 768.000000

>ms2
440.226000 3324.000000
441.230700 932.000000
466.209100 2736.000000
467.212100 552.000000
559.264600 99732.000000
560.267400 36392.000000
561.269400 7204.000000

