>compound AU62502682
>parentmass 304.0091
>ionization [M+H]+
>formula C10H16Cl3NOS
>rt 768.420000
>profile qtof
#smiles_iso CC(C)N(C(C)C)C(=O)SCC(=C(Cl)Cl)Cl
#smiles_can CC(C)N(C(C)C)C(=O)SCC(=C(Cl)Cl)Cl
#inchikey MWBPRDONLNQCFV-UHFFFAOYSA-N
#pubchem_id 5543
#mb_accession AU262701,AU262702,AU262703,AU262704,AU262705,AU262706

>ms2peaks
128.105400 2272.000000
140.932200 476.000000
142.922200 504.000000
144.916400 468.000000
149.023300 552.000000
218.955400 364.000000
261.004500 388.000000
261.961800 4760.000000
262.963500 876.000000
263.959400 4448.000000
304.009300 71220.000000
305.011500 9016.000000
306.006200 59976.000000

>ms2peaks
128.105800 3300.000000
140.931700 6876.000000
141.935400 488.000000
142.920400 20644.000000
143.922700 656.000000
144.917800 15416.000000
145.920000 448.000000
149.021400 836.000000
160.078000 312.000000
176.907900 1552.000000
178.904800 816.000000
201.904100 688.000000
203.898500 676.000000
219.914600 764.000000
220.950400 300.000000
221.912300 656.000000
261.001600 316.000000
261.961300 11964.000000
262.967800 872.000000
263.958100 7916.000000
304.008700 15840.000000
305.011200 1928.000000
306.005900 12932.000000

>ms2peaks
140.931500 5068.000000
142.920300 33456.000000
143.924400 1368.000000
144.917400 28524.000000
145.921200 604.000000
149.022500 1076.000000
160.077900 704.000000
176.907000 408.000000
178.903100 456.000000
219.915000 480.000000
221.905900 324.000000
261.960800 604.000000
263.957300 532.000000

>ms2peaks
142.920300 4984.000000
144.917500 3980.000000
149.022800 816.000000

>ms2peaks
118.033200 316.000000
140.931700 648.000000
142.920400 15852.000000
143.924600 728.000000
144.917200 15096.000000
149.022200 596.000000

>ms2peaks
69.068500 420.000000
86.060400 2124.000000
128.105100 972.000000
140.931500 2100.000000
142.920800 14060.000000
143.922900 688.000000
144.918100 10156.000000
145.920100 400.000000
149.022400 1916.000000
176.907100 472.000000
178.903200 324.000000
218.982100 300.000000
221.910900 312.000000
261.960700 1596.000000
263.957500 1432.000000
304.008400 1764.000000
306.004400 1620.000000

