>compound AU62622628
>parentmass 330.15
>ionization [M+H]+
>formula C19H20FNO3
>rt 453.912000
>profile qtof
#smiles_iso C1CNCC(C1C2=CC=C(C=C2)F)COC3=CC4=C(C=C3)OCO4
#smiles_can C1CNCC(C1C2=CC=C(C=C2)F)COC3=CC4=C(C=C3)OCO4
#inchikey AHOUBRCZNHFOSL-UHFFFAOYSA-N
#pubchem_id 4691
#mb_accession AU152601,AU152602,AU152603,AU152604,AU152605

>ms2
330.149500 1612828.000000
331.152900 335224.000000
332.155600 28868.000000

>ms2
123.059500 6856.000000
151.037400 20200.000000
163.090400 11624.000000
178.101300 7516.000000
192.117400 197960.000000
193.122200 31752.000000
313.123100 8240.000000
330.149900 1321180.000000
331.153200 239536.000000
332.155300 25672.000000

>ms2
123.042700 5900.000000
123.059700 20176.000000
124.062700 1888.000000
133.044100 1764.000000
135.044700 1908.000000
135.059000 18852.000000
136.066100 7804.000000
137.074300 3640.000000
138.070500 3244.000000
139.037800 3980.000000
147.044100 1528.000000
147.059000 5812.000000
148.066300 4592.000000
149.074300 4660.000000
150.069800 7036.000000
151.037700 43448.000000
152.041300 3772.000000
161.058400 1708.000000
161.074900 13696.000000
162.078000 1688.000000
163.090400 37828.000000
164.090000 7224.000000
175.090000 2920.000000
176.098100 7840.000000
177.053500 1028.000000
178.101400 20460.000000
179.104800 2688.000000
190.101400 3632.000000
192.117500 205188.000000
193.121800 30620.000000
194.126900 2376.000000
208.112300 1964.000000
313.121700 2052.000000
330.149500 103376.000000
331.152600 25472.000000
332.155800 2792.000000

>ms2
109.045000 676.000000
115.053800 2056.000000
116.059900 448.000000
121.027900 668.000000
121.044100 1008.000000
122.051300 440.000000
123.042800 2172.000000
123.059700 15772.000000
124.063800 1832.000000
128.060700 864.000000
129.068400 408.000000
130.065400 736.000000
133.028500 512.000000
133.044100 4860.000000
134.050700 1380.000000
135.059600 38728.000000
136.066200 12616.000000
137.022300 460.000000
137.072700 888.000000
138.029000 624.000000
138.070900 1320.000000
139.037700 1992.000000
141.068500 596.000000
143.084900 1628.000000
145.062900 488.000000
146.051700 3200.000000
147.059100 9168.000000
148.066500 7292.000000
149.074500 5056.000000
150.070400 6876.000000
151.038000 23496.000000
152.041700 2568.000000
153.041200 424.000000
155.059300 584.000000
160.067500 892.000000
161.074600 14608.000000
162.077700 1760.000000
163.090600 26528.000000
164.088300 5100.000000
165.090800 668.000000
173.050500 324.000000
175.038200 688.000000
175.091500 1812.000000
176.046200 396.000000
176.098200 1652.000000
177.053600 428.000000
177.093200 324.000000
177.101800 324.000000
178.101300 9156.000000
179.105000 1328.000000
187.075600 324.000000
189.051900 352.000000
190.102300 1572.000000
192.117600 40684.000000
193.121600 7032.000000
194.124100 416.000000
330.149800 2436.000000
331.155000 692.000000

>ms2
109.044000 1004.000000
115.053500 4016.000000
119.049700 332.000000
121.026900 648.000000
121.044200 2132.000000
123.043000 1268.000000
123.059300 11772.000000
124.062500 1212.000000
127.051700 360.000000
128.060600 2372.000000
129.069000 480.000000
130.065400 440.000000
133.043800 9688.000000
134.050400 3476.000000
135.059400 44424.000000
137.021400 832.000000
138.030200 484.000000
139.037600 548.000000
141.070400 532.000000
143.084800 1376.000000
145.063100 492.000000
146.051300 7988.000000
147.059100 8872.000000
148.066600 8116.000000
149.074100 3296.000000
150.069900 3844.000000
151.037900 10232.000000
151.075400 580.000000
152.041700 852.000000
155.059200 984.000000
159.058900 668.000000
160.066700 736.000000
161.074400 8628.000000
162.077500 888.000000
163.090400 9640.000000
164.088300 2436.000000
173.050900 384.000000
175.039500 1024.000000
175.091500 424.000000
178.101400 1996.000000
179.103300 308.000000
190.102700 328.000000
192.117400 8080.000000
193.121500 1164.000000
231.146900 700.000000

