>compound AU62139585
>parentmass 167.104
>ionization [M+H]+
>formula C6H10N6
>rt 163.344000
>profile qtof
#smiles_iso C1CC1NC2=NC(=NC(=N2)N)N
#smiles_can C1CC1NC2=NC(=NC(=N2)N)N
#inchikey LVQDKIWDGQRHTE-UHFFFAOYSA-N
#pubchem_id 47866
#mb_accession AU262501,AU262502,AU262503,AU262505,AU262506,AU302101,AU302102,AU302103,AU302104,AU302105

>ms2
125.081300 17660.000000
167.103300 2081872.000000
168.105300 127748.000000

>ms2
125.081300 90808.000000
126.084300 5108.000000
127.072000 6308.000000
139.071700 23564.000000
140.091500 6168.000000
150.076000 7720.000000
167.102900 680132.000000
168.105400 35956.000000

>ms2
123.067300 372.000000
125.081000 21224.000000
126.063600 988.000000
126.083700 1588.000000
127.071500 3064.000000
139.071400 5920.000000
140.076100 472.000000
140.091800 1028.000000
150.075800 1532.000000
151.071600 4900.000000
152.079400 320.000000
165.086800 340.000000
167.102700 22952.000000
168.104600 1996.000000

>ms2
151.070700 344.000000

>ms2
56.048900 15348.000000
58.064600 20288.000000
60.055100 98624.000000
68.024000 26684.000000
70.039600 3108.000000
81.044200 4024.000000
83.060400 53268.000000
84.063100 2208.000000
85.050900 126972.000000
86.053900 2832.000000
100.087400 2272.000000
108.056900 14452.000000
110.047300 3388.000000
125.081900 56124.000000
126.084800 2476.000000
127.071300 3336.000000
139.072000 15152.000000
140.092000 3308.000000
150.076400 4184.000000
151.071800 2032.000000
167.103200 346708.000000
168.105800 30932.000000

>ms2
125.082200 20776.000000
167.105300 2311348.000000
168.106700 153592.000000

>ms2
125.082500 132044.000000
126.084600 5540.000000
127.072600 7720.000000
139.072700 31628.000000
140.092800 7496.000000
150.077600 10664.000000
167.104500 976004.000000
168.106800 46268.000000

>ms2
108.054600 388.000000
125.082000 26096.000000
126.065200 1024.000000
126.084700 1440.000000
127.072500 3372.000000
139.072600 8360.000000
140.092100 716.000000
150.077800 1704.000000
151.072500 6532.000000
165.089100 388.000000
167.104400 27528.000000
168.105600 1924.000000

>ms2
125.082700 1660.000000
126.065800 412.000000
127.072400 980.000000
134.044900 420.000000
139.074000 864.000000
151.072700 2948.000000
152.077500 384.000000
167.104500 520.000000

>ms2
151.071500 552.000000

