>compound AU62658444
>parentmass 284.1194
>ionization [M+H]+
>formula C16H14FN3O
>rt 313.500000
>profile qtof
#smiles_iso CN1C(=O)CN=C(C2=C1C=CC(=C2)N)C3=CC=CC=C3F
#smiles_can CN1C(=O)CN=C(C2=C1C=CC(=C2)N)C3=CC=CC=C3F
#inchikey LTCDLGUFORGHGY-UHFFFAOYSA-N
#pubchem_id 92294
#mb_accession AU159602,AU159603,AU159604,AU159605

>ms2
123.023200 7832.000000
135.090800 69660.000000
163.085400 36000.000000
227.096800 54752.000000
236.117300 17876.000000
256.124000 86356.000000
257.126800 14352.000000
264.112300 35524.000000
284.119800 2493296.000000
285.122500 493196.000000
286.125200 27960.000000

>ms2
120.067100 4848.000000
121.075100 4604.000000
122.038900 4612.000000
132.066800 4708.000000
133.074900 8388.000000
135.090800 428452.000000
136.093800 29040.000000
146.069800 7192.000000
147.077500 6956.000000
148.062100 72148.000000
149.065700 6112.000000
160.085400 7672.000000
161.093400 6152.000000
163.085400 55328.000000
164.087800 4852.000000
180.079600 6456.000000
183.059700 4468.000000
198.070100 5392.000000
200.086300 5700.000000
206.082300 5980.000000
227.097000 311680.000000
228.100200 36060.000000
236.117600 83080.000000
241.099700 41680.000000
256.123900 178416.000000
257.126800 25656.000000
264.112500 47332.000000
284.119800 873672.000000
285.122500 109952.000000
286.125200 7400.000000

>ms2
116.048900 3632.000000
117.056200 5076.000000
118.064300 4284.000000
119.059700 10752.000000
121.074700 6184.000000
122.039000 8056.000000
132.043000 5184.000000
134.039000 8164.000000
134.081700 4048.000000
135.090900 410196.000000
136.054900 3704.000000
136.094100 25636.000000
143.059500 2060.000000
144.054000 3772.000000
145.074500 2244.000000
146.060500 6680.000000
147.077500 8584.000000
148.062200 54440.000000
149.067400 5928.000000
152.060500 2384.000000
153.068400 4396.000000
158.070200 7664.000000
161.092600 6552.000000
162.073900 4800.000000
165.068500 2272.000000
166.063900 3908.000000
167.071200 4588.000000
168.078600 4440.000000
171.059700 2164.000000
174.070000 4720.000000
178.064500 5440.000000
179.072200 2964.000000
181.087000 12840.000000
182.092000 2296.000000
183.059400 30200.000000
184.063300 3776.000000
185.062600 4632.000000
187.077900 4480.000000
188.085200 4644.000000
191.070100 3168.000000
192.067800 2384.000000
192.078600 3292.000000
193.074800 4180.000000
194.082200 5652.000000
195.090600 27688.000000
196.095200 3580.000000
198.070300 23276.000000
199.075200 5248.000000
200.086000 16808.000000
201.088500 2688.000000
208.054400 2296.000000
211.078500 62968.000000
214.088200 2572.000000
215.097400 29992.000000
216.100700 4888.000000
221.093900 14600.000000
222.072000 2180.000000
222.099700 3476.000000
223.066600 4884.000000
227.096800 196504.000000
228.100000 23008.000000
229.112400 12928.000000
230.115800 2296.000000
235.107800 2820.000000
236.117700 37820.000000
237.081300 2184.000000
241.099300 60992.000000
249.088000 4020.000000
250.095000 2136.000000
254.083700 2820.000000
255.092200 5636.000000
256.123800 34004.000000
257.127700 5024.000000
268.087500 5584.000000
269.094700 3256.000000
284.119800 34768.000000
285.125200 6748.000000

>ms2
115.053800 1144.000000
116.048600 5560.000000
117.044100 1948.000000
117.056300 5136.000000
118.051800 2528.000000
118.063500 5120.000000
121.074500 4684.000000
122.039100 8612.000000
123.023400 2564.000000
129.043200 1100.000000
132.042500 2724.000000
133.044300 4188.000000
134.038800 7244.000000
134.057200 1292.000000
134.081800 4024.000000
135.090800 137160.000000
136.054600 4268.000000
136.093600 9000.000000
139.053600 2584.000000
140.048000 1892.000000
141.068200 1008.000000
143.059100 3120.000000
144.054200 20300.000000
145.074400 2244.000000
146.069900 25792.000000
147.056300 2000.000000
147.063600 1828.000000
149.067100 2608.000000
151.052500 2932.000000
152.060700 8752.000000
153.067900 9908.000000
154.065000 1352.000000
158.069800 7708.000000
159.059800 2240.000000
160.085900 5996.000000
161.092700 4228.000000
162.072100 2408.000000
163.053000 2416.000000
163.085300 1760.000000
164.050400 1296.000000
164.058500 1436.000000
165.068000 5916.000000
168.078700 6424.000000
169.063500 3684.000000
170.051600 4792.000000
171.058700 5736.000000
172.055200 2356.000000
173.062000 1600.000000
174.070100 9272.000000
175.074400 1700.000000
177.055600 2756.000000
181.045700 1304.000000
181.086700 23492.000000
182.051400 2632.000000
182.090500 3328.000000
183.059300 58548.000000
186.068400 3528.000000
187.077100 4380.000000
188.084900 3648.000000
191.069900 5812.000000
192.068100 6488.000000
194.057200 1544.000000
195.090200 20532.000000
196.054300 2048.000000
196.074300 1756.000000
196.094100 3140.000000
197.061700 3352.000000
198.070200 49208.000000
200.085300 11740.000000
201.088200 1732.000000
203.058800 1528.000000
204.064200 1704.000000
208.054500 4620.000000
211.078400 61932.000000
213.081200 16908.000000
214.066000 1448.000000
214.087200 3736.000000
215.096500 8312.000000
216.100200 1316.000000
218.082300 2892.000000
221.071100 1812.000000
221.091900 13920.000000
222.071300 3308.000000
222.100700 2800.000000
226.089200 163848.000000
227.094800 41100.000000
228.082100 3304.000000
228.099000 4840.000000
229.112500 2272.000000
234.101900 4252.000000
235.108700 1984.000000
236.116700 3916.000000
237.080900 2716.000000
238.076800 23268.000000
239.062300 1436.000000
239.082200 5088.000000
240.092600 188912.000000
241.097200 37128.000000
242.100900 3600.000000
248.080600 1360.000000
249.089800 1632.000000
250.096800 1388.000000
255.093300 1096.000000
255.114700 4336.000000
256.122000 2328.000000
268.087400 3252.000000

