>compound AU62284066
>parentmass 218.01340000000002
>ionization [M+H]+
>formula C9H9Cl2NO
>rt 564.660000
>profile qtof
#smiles_iso CCC(=O)NC1=CC(=C(C=C1)Cl)Cl
#smiles_can CCC(=O)NC1=CC(=C(C=C1)Cl)Cl
#inchikey LFULEKSKNZEWOE-UHFFFAOYSA-N
#pubchem_id 4933
#mb_accession AU233101,AU233102,AU233103,AU233104,AU233105,AU233106

>ms2peaks
127.017200 6732.000000
161.986100 72864.000000
162.988600 5648.000000
163.982900 37084.000000
218.013000 451128.000000
219.015900 32644.000000
220.009900 227448.000000

>ms2peaks
127.018000 70816.000000
128.020800 4500.000000
129.014400 18536.000000
130.017700 1184.000000
161.986500 210056.000000
162.989500 12212.000000
163.983600 120620.000000
164.986600 3864.000000
218.013100 42756.000000
219.016400 4788.000000
220.010100 28512.000000

>ms2peaks
126.009900 820.000000
127.017500 139348.000000
128.020400 9264.000000
129.014200 39556.000000
130.018300 1224.000000
161.985900 37460.000000
162.989000 3056.000000
163.982700 24128.000000
164.986700 992.000000
218.013100 1304.000000

>ms2peaks
126.008600 888.000000
127.017200 121620.000000
128.020200 8700.000000
129.014100 33484.000000
130.017200 1356.000000
161.985600 2976.000000
163.983000 2448.000000

>ms2peaks
126.010100 400.000000
127.017500 57724.000000
128.020800 4692.000000
129.014300 17828.000000
130.018100 764.000000

>ms2peaks
57.032800 13568.000000
127.017700 84244.000000
128.021400 6096.000000
129.014500 23064.000000
130.017800 972.000000
161.986200 137968.000000
162.989600 9064.000000
163.983400 87852.000000
164.986100 2648.000000
218.012900 57928.000000
219.015200 3180.000000
220.009900 23684.000000

