>compound AU62601912
>parentmass 219.00860000000003
>ionization [M+H]+
>formula C8H8Cl2N2O
>rt 504.000000
>profile qtof
#smiles_iso CNC(=O)NC1=CC(=C(C=C1)Cl)Cl
#smiles_can CNC(=O)NC1=CC(=C(C=C1)Cl)Cl
#inchikey IDQHRQQSSQDLTR-UHFFFAOYSA-N
#pubchem_id 19113
#mb_accession AU400101,AU400102,AU400103,AU400104,AU400105

>ms2peaks
161.986200 171820.000000
162.989300 10860.000000
163.983200 99536.000000
164.986300 3840.000000
219.008000 893684.000000
220.011200 73344.000000
221.005100 669276.000000
222.008000 24144.000000

>ms2peaks
127.017400 350732.000000
128.020500 20420.000000
129.014400 80968.000000
161.986200 450776.000000
162.989300 29048.000000
163.983200 272488.000000
164.986300 9068.000000
187.965300 7992.000000
188.968000 992.000000
189.961800 4884.000000
219.008000 64384.000000
220.011200 5532.000000
221.005100 41556.000000
222.008000 2648.000000

>ms2peaks
127.017400 653652.000000
128.020500 40864.000000
129.014400 145588.000000
132.959800 4076.000000
144.959800 704.000000
152.996600 656.000000
159.970400 19604.000000
161.986200 86144.000000
162.989300 6176.000000
163.983200 52840.000000
164.986300 2316.000000
187.965200 1744.000000

>ms2peaks
127.017400 568264.000000
128.020500 35052.000000
129.014400 136292.000000
132.960000 13320.000000
159.970700 9184.000000
161.986200 9340.000000
162.989300 1316.000000
163.983200 5632.000000
172.966300 6164.000000
174.963100 3408.000000

>ms2peaks
126.009400 2744.000000
127.017400 298876.000000
128.020500 21604.000000
129.014400 70460.000000
132.959900 11000.000000
172.965900 2904.000000

