>compound AU62959622
>parentmass 270.12550000000005
>ionization [M+H]+
>formula C14H20ClNO2
>rt 609.070000
>profile qtof
#smiles_iso CCC1=CC=CC(=C1N(COCC)C(=O)CCl)C
#smiles_can CCC1=CC=CC(=C1N(COCC)C(=O)CCl)C
#inchikey VTNQPKFIQCLBDU-UHFFFAOYSA-N
#pubchem_id 1988
#mb_accession AU322101,AU322102,AU322103,AU322104,AU322105,AU322106

>ms2peaks
132.079100 380.000000
133.085900 640.000000
148.111200 9796.000000
149.114200 820.000000
194.073800 548.000000
210.067300 392.000000
224.082800 58676.000000
225.085600 6912.000000
226.080100 15408.000000
227.084300 1272.000000
270.125000 10988.000000
271.128400 1588.000000
272.122300 3256.000000
273.127200 560.000000

>ms2peaks
120.079400 340.000000
131.084400 576.000000
132.080600 1288.000000
133.087700 4208.000000
134.090200 344.000000
146.094900 944.000000
147.102600 824.000000
148.111100 47104.000000
149.095000 828.000000
161.130000 704.000000
188.107700 516.000000
206.073600 560.000000
210.069000 384.000000
224.082800 24864.000000
225.085600 3412.000000
226.080100 9380.000000
227.084300 552.000000

>ms2peaks
117.056400 516.000000
118.063600 396.000000
120.079600 500.000000
131.071100 352.000000
132.079900 3996.000000
133.087800 22588.000000
134.091000 2100.000000
144.079600 372.000000
145.088800 560.000000
146.095500 412.000000
147.103600 1164.000000
148.111200 47984.000000
149.094100 724.000000
158.096700 312.000000
159.116100 324.000000
160.109600 448.000000
171.102100 652.000000
173.083200 528.000000
188.106800 528.000000
206.073100 608.000000
224.082800 2588.000000
225.085600 620.000000
226.080100 836.000000

>ms2peaks
115.053700 340.000000
117.056000 1276.000000
118.064300 960.000000
120.081500 456.000000
130.064700 436.000000
131.071100 572.000000
133.087800 44296.000000
134.090900 3608.000000
144.079600 596.000000
145.088200 384.000000
146.095900 656.000000
147.102100 456.000000
148.111100 24156.000000
149.114500 2268.000000
171.103200 324.000000
173.080800 340.000000

>ms2peaks
115.052700 968.000000
117.055500 2388.000000
118.064400 1964.000000
119.067500 304.000000
130.064000 1324.000000
131.072900 844.000000
133.087600 34796.000000
134.091000 3376.000000
144.078700 600.000000
145.087400 484.000000
146.094500 608.000000
148.111500 3084.000000
149.113300 592.000000

>ms2peaks
59.048600 9872.000000
76.978700 2412.000000
90.010900 3768.000000
120.080200 2156.000000
131.072400 1168.000000
131.083900 2044.000000
132.079400 10512.000000
133.087700 54996.000000
134.091000 4600.000000
146.094800 3328.000000
147.103400 3656.000000
148.111500 231260.000000
149.094800 3772.000000
149.114400 34232.000000
150.118100 1292.000000
160.110400 1492.000000
173.081300 1628.000000
188.106700 3128.000000
206.072000 2388.000000
224.083500 82936.000000
225.086500 9424.000000
226.079900 27052.000000
227.083200 2120.000000

