>compound AU63661013
>parentmass 501.1917
>ionization [M+H]+
>formula C25H31F3O5S
>rt 640.190000
>profile qtof
#smiles_iso CCC(=O)O[C@@]1([C@@H](C[C@@H]2[C@@]1(C[C@@H]([C@]3([C@H]2C[C@@H](C4=CC(=O)C=C[C@@]43C)F)F)O)C)C)C(=O)SCF
#smiles_can CCC(=O)OC1(C(CC2C1(CC(C3(C2CC(C4=CC(=O)C=CC43C)F)F)O)C)C)C(=O)SCF
#inchikey WMWTYOKRWGGJOA-CENSZEJFSA-N
#pubchem_id 444036
#mb_accession AU283101,AU283102,AU283103,AU283104,AU283105,AU283106

>ms2peaks
155.085900 1952.000000
179.085300 1416.000000
185.058800 2320.000000
201.072800 3968.000000
205.064400 7204.000000
206.068000 1396.000000
251.142100 2264.000000
265.157700 6464.000000
266.162600 1264.000000
275.143100 6340.000000
276.147900 1696.000000
285.163700 1256.000000
293.153200 49100.000000
294.156400 10620.000000
295.148900 6484.000000
296.152700 1320.000000
303.138300 2232.000000
311.162300 1264.000000
313.159300 77056.000000
314.162700 14464.000000
315.159300 3364.000000
321.148400 3412.000000
323.145300 1756.000000
331.153900 6164.000000
332.156300 1760.000000
333.165500 13972.000000
334.167800 3336.000000
339.139700 3064.000000
341.152400 3340.000000
359.147900 11808.000000
360.150900 2924.000000
361.142900 6048.000000
369.131500 5864.000000
370.135500 1500.000000
379.155000 4160.000000
380.154200 1184.000000
381.149400 4016.000000
387.142600 9568.000000
388.145800 2460.000000
389.136700 9940.000000
390.139900 2060.000000
405.155100 1668.000000
407.148600 15968.000000
408.152100 4292.000000
409.142500 2852.000000
425.159300 1552.000000
435.197500 4376.000000
461.179200 2004.000000
463.175000 6628.000000
464.177300 2264.000000
481.185300 46336.000000
482.187700 13464.000000
483.187900 4596.000000
485.171600 1572.000000
501.191700 230180.000000
502.194400 60412.000000
503.193100 15448.000000

>ms2peaks
121.064000 10328.000000
133.063800 3680.000000
135.079300 5920.000000
139.053900 1420.000000
145.062800 2308.000000
147.079500 1744.000000
155.085400 11388.000000
159.062100 4308.000000
159.079300 2852.000000
161.095700 1664.000000
163.074300 1180.000000
169.063500 2296.000000
171.079000 12148.000000
172.082800 1892.000000
173.058900 1184.000000
173.078600 4652.000000
173.095000 1344.000000
179.085400 15268.000000
180.088800 2176.000000
185.042800 2480.000000
185.058600 12384.000000
186.062200 1888.000000
187.073500 2204.000000
189.069000 1252.000000
191.084200 1320.000000
195.078600 1356.000000
197.096700 1752.000000
199.093700 1000.000000
201.073500 9404.000000
202.076500 1232.000000
203.086400 1140.000000
205.065100 57424.000000
206.068400 7732.000000
207.079200 1164.000000
209.093600 1124.000000
213.107500 4292.000000
221.094900 3560.000000
222.102000 2204.000000
223.109800 1552.000000
225.074100 1428.000000
235.111300 2568.000000
237.125700 2236.000000
245.080100 3868.000000
247.147500 2216.000000
249.126000 2136.000000
251.142400 13152.000000
252.146600 2392.000000
253.121500 1584.000000
260.118500 1252.000000
261.127600 1028.000000
263.142700 1308.000000
265.158400 57024.000000
266.161600 10824.000000
267.165400 1464.000000
275.142700 48480.000000
276.147300 12812.000000
277.156800 3312.000000
278.160700 1060.000000
279.136600 1112.000000
285.127200 1068.000000
285.164500 7520.000000
286.168000 2100.000000
287.142600 1024.000000
291.137700 1572.000000
293.153700 199852.000000
294.157100 45040.000000
295.149500 46312.000000
296.152800 12456.000000
297.160300 2392.000000
303.136900 8096.000000
304.140900 2164.000000
305.152300 1264.000000
311.163200 6776.000000
312.166700 1844.000000
313.160100 168580.000000
314.162700 37956.000000
315.157400 11100.000000
316.160100 2916.000000
321.148000 10356.000000
322.151100 2748.000000
323.143700 7264.000000
324.149500 2436.000000
325.155800 1148.000000
331.152500 11836.000000
332.154500 3452.000000
333.165600 32512.000000
334.168500 7296.000000
335.178000 1132.000000
338.114100 1368.000000
339.141400 3980.000000
340.142400 1000.000000
341.138600 10588.000000
342.139700 3100.000000
343.149400 2984.000000
345.163700 1064.000000
349.181000 1200.000000
351.174100 1952.000000
359.146900 18408.000000
360.152200 5556.000000
361.143600 23084.000000
362.145100 4840.000000
363.146900 1252.000000
367.190500 1760.000000
369.131500 17340.000000
370.134800 4500.000000
371.130100 2696.000000
373.158800 1884.000000
379.155000 7344.000000
380.157500 1692.000000
381.149100 7244.000000
382.150900 1908.000000
387.142500 10544.000000
387.194900 1008.000000
388.147000 2808.000000
389.138100 20760.000000
390.140800 5208.000000
391.137600 1300.000000
405.153900 5752.000000
406.153200 1856.000000
407.148400 8824.000000
408.153000 2568.000000
409.145200 1664.000000
425.158800 2572.000000
435.197300 2552.000000
461.180500 1268.000000
463.174100 3380.000000
464.177600 1168.000000
481.184400 6280.000000
482.186500 2040.000000
483.183600 1444.000000
501.191300 8112.000000
502.197400 2436.000000

>ms2peaks
119.084400 1728.000000
121.063900 27272.000000
122.067600 2676.000000
125.076900 608.000000
127.089600 892.000000
128.061300 796.000000
129.068600 764.000000
131.085400 1564.000000
133.063600 4776.000000
133.099100 1096.000000
135.079400 12048.000000
136.082900 1404.000000
137.075400 616.000000
139.054800 5092.000000
141.071000 716.000000
143.085700 1060.000000
145.064200 5672.000000
147.079700 4180.000000
148.084700 932.000000
149.095300 972.000000
151.056200 624.000000
151.090900 5432.000000
153.071800 1644.000000
155.085900 6220.000000
156.089800 604.000000
157.063800 2632.000000
157.100700 1352.000000
158.069500 892.000000
159.062500 5228.000000
159.079000 10080.000000
160.084000 1380.000000
161.060200 1832.000000
161.075600 652.000000
161.094800 2584.000000
163.074600 752.000000
163.091300 1272.000000
165.070300 2536.000000
167.085900 820.000000
169.064100 3736.000000
169.102000 1368.000000
171.079300 25320.000000
172.082900 3772.000000
173.058800 3032.000000
173.078900 5952.000000
173.094400 4268.000000
174.082400 996.000000
175.073200 952.000000
175.091000 628.000000
177.070500 2488.000000
177.089800 800.000000
177.106300 892.000000
178.073800 680.000000
179.085700 35996.000000
180.089300 3976.000000
181.064500 608.000000
181.081200 720.000000
181.100800 1100.000000
183.079900 1860.000000
185.041800 3000.000000
185.058800 14204.000000
185.095100 3928.000000
186.061800 1460.000000
186.100800 696.000000
187.054300 824.000000
187.074200 4608.000000
187.091100 1688.000000
187.109700 1356.000000
188.080600 608.000000
189.071100 3072.000000
191.085300 2564.000000
193.100500 1148.000000
195.079500 3024.000000
195.096800 688.000000
196.086100 1004.000000
197.079600 1408.000000
197.095200 3588.000000
198.098400 728.000000
199.074800 1556.000000
199.090700 2396.000000
199.109600 864.000000
201.073200 1728.000000
201.088700 920.000000
203.070200 960.000000
203.086000 2232.000000
205.065200 60232.000000
205.101500 6948.000000
206.068600 7772.000000
206.106900 968.000000
207.079600 1964.000000
207.098200 948.000000
209.094900 4480.000000
210.102800 1016.000000
211.073500 612.000000
211.092200 728.000000
211.110400 1116.000000
213.091300 788.000000
213.107000 4044.000000
215.085600 740.000000
217.099400 620.000000
219.081500 1336.000000
221.095200 4296.000000
222.102000 2856.000000
223.110400 5292.000000
224.113500 1292.000000
225.073600 1968.000000
225.089300 1660.000000
225.110300 808.000000
225.126900 1208.000000
227.085500 632.000000
229.101700 708.000000
232.121900 828.000000
233.096300 1540.000000
233.130300 1116.000000
234.101300 764.000000
235.110500 5304.000000
236.117400 1796.000000
237.090600 2120.000000
237.126700 5304.000000
238.129100 712.000000
239.086200 788.000000
239.105800 1332.000000
239.142300 912.000000
242.108200 840.000000
243.115600 1120.000000
245.080100 7384.000000
246.082100 1272.000000
246.101700 1512.000000
247.109500 1196.000000
247.147600 7964.000000
248.150300 1644.000000
249.126600 7820.000000
250.133400 3272.000000
251.106900 1452.000000
251.142300 20612.000000
252.145300 4028.000000
253.101800 1248.000000
253.122900 2740.000000
253.147100 652.000000
254.122700 720.000000
255.115500 996.000000
257.132900 3316.000000
258.136900 780.000000
259.111600 688.000000
259.147300 880.000000
260.118800 7852.000000
261.126900 3924.000000
262.132200 1816.000000
263.141200 2196.000000
264.143900 968.000000
265.158400 68760.000000
266.161800 14924.000000
267.136400 1612.000000
267.168100 1632.000000
269.131100 1092.000000
271.109100 904.000000
271.147400 744.000000
273.126700 644.000000
274.136700 828.000000
275.142800 93592.000000
276.147800 30088.000000
277.124800 948.000000
277.155300 7416.000000
278.129000 1452.000000
278.161300 1540.000000
279.134200 2068.000000
280.125400 684.000000
280.134600 656.000000
281.132400 1176.000000
283.169700 848.000000
285.128600 924.000000
285.164300 6712.000000
286.130000 900.000000
286.167300 1288.000000
287.145100 1024.000000
288.115100 1700.000000
288.150200 664.000000
291.136400 1088.000000
293.153500 119384.000000
294.157400 28408.000000
295.149400 49948.000000
296.154700 18592.000000
297.160200 3908.000000
303.137600 10004.000000
304.141800 2408.000000
305.152800 1340.000000
306.142900 964.000000
311.164000 4308.000000
312.166300 924.000000
313.159600 58828.000000
314.163600 15248.000000
315.122500 768.000000
315.157000 6652.000000
316.158800 2388.000000
319.097600 760.000000
321.147200 5072.000000
322.153500 1584.000000
323.143500 4700.000000
324.152700 3556.000000
325.156200 1020.000000
331.151600 3828.000000
332.169000 664.000000
333.165500 8572.000000
334.168500 1968.000000
335.172300 604.000000
338.112500 1540.000000
339.140800 1452.000000
341.139100 9604.000000
342.142500 1984.000000
343.148500 2080.000000
355.147500 864.000000
359.147400 6404.000000
360.151200 1544.000000
361.143600 15848.000000
362.147500 3736.000000
363.140400 1148.000000
367.138300 656.000000
369.131600 6268.000000
370.132400 1576.000000
371.132100 696.000000
379.169400 2172.000000
381.148600 1080.000000
387.142300 1128.000000
389.138400 4184.000000
390.142600 956.000000
405.151200 1428.000000
407.150100 728.000000

>ms2peaks
115.053900 1184.000000
117.068600 1332.000000
119.084800 2604.000000
121.064000 32680.000000
122.067600 2588.000000
123.059500 612.000000
123.078300 472.000000
125.039400 708.000000
125.058100 476.000000
125.074900 1020.000000
127.089400 544.000000
128.061800 1352.000000
129.069400 1400.000000
130.075300 436.000000
131.048900 568.000000
131.084600 3936.000000
132.089700 632.000000
133.046700 612.000000
133.063900 4668.000000
133.099700 1848.000000
134.067100 460.000000
135.057800 1060.000000
135.079300 11840.000000
136.082800 1408.000000
137.075500 1612.000000
137.094200 524.000000
139.054500 7200.000000
139.090700 740.000000
140.056800 692.000000
141.069200 1360.000000
142.076000 524.000000
143.084300 2344.000000
144.055300 712.000000
144.089300 500.000000
145.063700 8764.000000
145.100400 1516.000000
146.068700 1104.000000
147.078700 6100.000000
148.082400 768.000000
149.074400 936.000000
149.094300 596.000000
150.047100 540.000000
151.056200 1576.000000
151.090300 9300.000000
152.061100 532.000000
152.094100 1140.000000
153.071200 1208.000000
155.084700 1540.000000
157.063900 2732.000000
157.099800 2064.000000
158.070700 2064.000000
159.062100 2856.000000
159.079400 15296.000000
160.066300 704.000000
160.084100 1972.000000
161.058600 1716.000000
161.074900 1068.000000
161.095200 3976.000000
162.099100 452.000000
163.055100 1064.000000
163.074200 864.000000
163.091300 2100.000000
164.062100 804.000000
164.096500 904.000000
165.069800 2996.000000
166.073300 576.000000
167.051200 404.000000
167.084700 1096.000000
168.057300 416.000000
169.063800 3400.000000
169.100500 948.000000
171.079400 29912.000000
172.083000 4252.000000
173.058900 2264.000000
173.079200 2160.000000
173.094900 7856.000000
174.062700 528.000000
174.082200 392.000000
174.098300 960.000000
175.054200 836.000000
175.074800 848.000000
175.091800 1512.000000
175.109100 412.000000
176.062400 708.000000
177.070300 4980.000000
177.090100 936.000000
177.107200 1920.000000
178.075100 920.000000
179.049800 2704.000000
179.085500 35160.000000
180.089700 5848.000000
181.062900 592.000000
181.080300 1212.000000
181.099900 1928.000000
182.071600 840.000000
183.060600 800.000000
183.079800 2932.000000
183.099000 476.000000
184.087700 780.000000
185.042800 2460.000000
185.059000 12604.000000
185.094200 5488.000000
186.046000 376.000000
186.062400 1716.000000
186.100100 1116.000000
187.055500 544.000000
187.074000 4260.000000
187.089600 1744.000000
187.108900 820.000000
188.080300 728.000000
188.095400 844.000000
189.070100 4028.000000
189.104300 692.000000
190.076400 716.000000
191.085700 3424.000000
192.089300 740.000000
193.063800 384.000000
193.100300 956.000000
194.070500 488.000000
194.104800 532.000000
195.079200 3032.000000
195.096600 1380.000000
195.114300 1008.000000
196.087600 2152.000000
197.059500 472.000000
197.078300 1208.000000
197.094900 2988.000000
198.098600 392.000000
199.074100 1432.000000
199.093100 1852.000000
199.111100 884.000000
201.071200 708.000000
201.089700 672.000000
201.106500 492.000000
202.073700 372.000000
203.072400 944.000000
203.085900 2464.000000
204.089300 400.000000
205.064900 37028.000000
205.101600 6368.000000
206.068000 5244.000000
206.105500 1676.000000
207.080800 1108.000000
207.095800 1028.000000
207.115000 732.000000
208.085900 1032.000000
209.095200 8620.000000
209.131700 580.000000
210.101400 2500.000000
211.075500 412.000000
211.091900 668.000000
211.111700 1904.000000
212.081100 540.000000
212.116000 492.000000
213.087900 500.000000
213.107700 1652.000000
213.127400 440.000000
215.084700 1196.000000
216.093900 424.000000
217.100000 1584.000000
218.077600 404.000000
218.107100 1040.000000
219.079500 1668.000000
219.114600 1404.000000
220.084800 916.000000
220.124100 452.000000
221.095600 5056.000000
221.132800 600.000000
222.103000 5180.000000
223.073900 908.000000
223.110500 10536.000000
224.082600 540.000000
224.114600 1992.000000
225.072300 732.000000
225.090800 1376.000000
225.109200 1024.000000
225.127000 1364.000000
226.078000 404.000000
227.070800 604.000000
227.086600 1056.000000
229.102300 1160.000000
230.107300 564.000000
231.079900 1008.000000
231.114900 1280.000000
232.088200 540.000000
232.123100 3468.000000
233.095500 3764.000000
233.129300 1940.000000
234.101700 2640.000000
234.133600 392.000000
235.111000 5220.000000
236.119500 3820.000000
237.089400 2524.000000
237.126200 6536.000000
237.162600 588.000000
238.095300 792.000000
238.130900 1380.000000
239.089500 1712.000000
239.105000 1304.000000
239.141700 1188.000000
240.092800 584.000000
240.116000 804.000000
241.101200 868.000000
242.107300 2076.000000
243.116300 1468.000000
244.122500 656.000000
245.094300 6584.000000
245.132100 424.000000
246.082100 528.000000
246.101800 4924.000000
247.109500 3348.000000
247.147600 10112.000000
248.117700 1456.000000
248.152000 2188.000000
249.093800 396.000000
249.127000 7000.000000
249.158200 628.000000
250.134400 5604.000000
251.106000 2116.000000
251.142400 18160.000000
252.109700 584.000000
252.147200 4000.000000
253.101200 1788.000000
253.121200 2520.000000
253.150600 540.000000
254.108400 708.000000
254.125400 680.000000
255.115200 1196.000000
256.122000 384.000000
257.095000 596.000000
257.131700 6980.000000
258.106200 552.000000
258.137500 1944.000000
259.110400 1348.000000
259.146400 1332.000000
260.118900 22604.000000
261.125600 12596.000000
262.091100 416.000000
262.131000 3812.000000
263.109500 604.000000
263.142800 2684.000000
264.115800 1360.000000
264.149800 584.000000
265.158300 37352.000000
266.113600 628.000000
266.161600 10656.000000
267.122200 532.000000
267.154400 1356.000000
268.159500 828.000000
269.131500 936.000000
270.104100 540.000000
270.137100 468.000000
271.109900 600.000000
271.147700 580.000000
272.119600 432.000000
273.125800 944.000000
274.134300 1124.000000
275.143000 73200.000000
276.147600 27500.000000
277.125800 692.000000
277.154800 5636.000000
278.128000 3748.000000
278.161200 1272.000000
279.136800 2308.000000
280.125900 2204.000000
281.133300 3736.000000
282.136900 760.000000
285.127300 972.000000
285.163100 2436.000000
286.134700 864.000000
286.167700 752.000000
287.142500 1124.000000
288.115100 2792.000000
288.151400 748.000000
289.119900 836.000000
291.116900 436.000000
291.136300 628.000000
292.144000 452.000000
293.153400 41568.000000
294.157500 9876.000000
295.149100 21748.000000
296.154600 13940.000000
297.159000 2492.000000
298.163700 448.000000
299.142600 896.000000
303.137700 4228.000000
304.142600 1492.000000
305.149500 588.000000
306.133100 732.000000
306.151500 688.000000
307.144600 496.000000
308.123800 440.000000
311.164800 1212.000000
313.159400 13064.000000
314.163200 2720.000000
315.155700 2224.000000
316.158700 604.000000
321.130300 728.000000
321.146000 1232.000000
323.145000 1584.000000
324.153300 2252.000000
325.154100 596.000000
333.161300 1236.000000
338.113400 1208.000000
341.136700 2244.000000
342.140400 1056.000000
342.158500 436.000000
359.147900 664.000000
361.143100 5192.000000
362.145000 1364.000000
363.143100 372.000000
369.133800 504.000000
379.172100 960.000000

>ms2peaks
115.053800 2280.000000
116.059800 520.000000
117.068500 1672.000000
119.084800 2328.000000
121.064000 32452.000000
122.067600 2672.000000
123.060100 1660.000000
125.038500 1356.000000
125.075400 676.000000
127.054100 492.000000
127.089800 364.000000
128.061000 3300.000000
129.068900 3892.000000
130.073100 656.000000
131.048200 784.000000
131.084600 6080.000000
132.055000 580.000000
133.044800 720.000000
133.063400 3672.000000
133.099700 1572.000000
134.069700 456.000000
134.103900 316.000000
135.043400 624.000000
135.058800 912.000000
135.079500 9736.000000
136.082500 1124.000000
137.040200 484.000000
137.074900 2124.000000
137.094600 372.000000
138.082500 840.000000
139.054500 9608.000000
139.090600 872.000000
140.057200 1100.000000
141.068600 2748.000000
142.076600 1720.000000
143.084400 4084.000000
144.055600 1240.000000
144.090000 1192.000000
145.063700 8420.000000
145.101100 1756.000000
146.051800 964.000000
147.058500 908.000000
147.079200 5048.000000
147.113900 396.000000
148.083500 596.000000
149.038500 420.000000
149.073600 2044.000000
149.094200 580.000000
150.045400 560.000000
151.054500 2248.000000
151.090900 8540.000000
152.060200 520.000000
152.095600 960.000000
153.048800 300.000000
153.070600 1780.000000
154.074800 472.000000
155.084000 1928.000000
156.090700 484.000000
157.047300 356.000000
157.063700 3624.000000
157.100300 3940.000000
158.071000 2980.000000
159.062300 1996.000000
159.079400 15024.000000
160.065200 688.000000
160.083800 2848.000000
161.058400 2184.000000
161.075100 2000.000000
161.094900 3028.000000
162.046300 960.000000
162.061500 452.000000
162.081900 448.000000
162.098600 404.000000
163.055400 1860.000000
163.074400 516.000000
163.090800 1568.000000
164.062900 1976.000000
164.098300 724.000000
165.035000 316.000000
165.069900 3396.000000
166.075800 620.000000
167.084100 2208.000000
168.056900 440.000000
168.089000 380.000000
169.062800 4920.000000
169.099900 996.000000
170.070600 1188.000000
171.079400 26276.000000
172.067200 784.000000
172.083400 4532.000000
173.059200 1740.000000
173.078700 1112.000000
173.094700 8196.000000
174.064000 680.000000
174.081700 372.000000
174.098900 1316.000000
175.053800 668.000000
175.072400 444.000000
175.091000 1768.000000
175.109200 432.000000
176.062300 708.000000
177.070300 6868.000000
177.090000 752.000000
177.106200 1468.000000
178.075900 1700.000000
178.093700 324.000000
178.110500 332.000000
179.049100 2352.000000
179.085400 31676.000000
180.089800 4380.000000
181.063800 784.000000
181.081900 1096.000000
181.099700 2056.000000
182.070400 1232.000000
182.086300 332.000000
182.106300 452.000000
183.060000 444.000000
183.079100 2508.000000
183.100800 384.000000
183.113700 340.000000
184.069500 380.000000
184.081500 620.000000
184.087200 712.000000
185.042200 1460.000000
185.059000 11772.000000
185.094900 5084.000000
186.061400 1728.000000
187.056400 968.000000
187.073900 2544.000000
187.088600 1492.000000
187.108200 444.000000
188.078700 368.000000
189.070500 2656.000000
189.090400 440.000000
189.106400 404.000000
190.076200 1040.000000
191.085200 3304.000000
192.091800 1248.000000
193.063200 316.000000
193.082600 412.000000
193.099200 2020.000000
194.070200 1016.000000
194.107300 972.000000
195.079400 4120.000000
195.096900 1488.000000
195.115800 1596.000000
196.087200 3008.000000
196.120400 428.000000
197.094200 3300.000000
198.088900 324.000000
198.100600 980.000000
199.074700 1444.000000
199.090400 1056.000000
199.110000 796.000000
201.070100 528.000000
201.090500 568.000000
201.098800 324.000000
202.077200 1084.000000
203.052300 388.000000
203.085400 2432.000000
204.088600 828.000000
205.064900 17984.000000
205.100900 5156.000000
206.068400 3648.000000
206.106800 1408.000000
207.063900 460.000000
207.079200 1328.000000
207.095800 808.000000
207.116300 1112.000000
208.087600 3008.000000
208.120400 520.000000
209.094400 10620.000000
209.131000 560.000000
210.073600 308.000000
210.101200 3504.000000
211.076900 524.000000
211.092300 664.000000
211.109500 2068.000000
212.115600 728.000000
213.069900 420.000000
213.109300 732.000000
213.123600 372.000000
215.084700 1212.000000
216.091500 1324.000000
217.101000 3684.000000
218.071900 640.000000
218.106500 2288.000000
219.078900 2568.000000
219.115800 2184.000000
220.086500 1400.000000
220.115300 556.000000
220.122200 472.000000
221.095500 4656.000000
221.131200 680.000000
222.102400 6492.000000
222.142400 328.000000
223.073700 600.000000
223.110800 9580.000000
223.147000 652.000000
224.081300 468.000000
224.115100 2092.000000
225.071500 408.000000
225.089600 1012.000000
225.104400 608.000000
225.124400 1328.000000
226.078900 352.000000
226.109100 432.000000
226.128900 484.000000
227.085700 1168.000000
228.093700 688.000000
229.099400 1724.000000
230.107900 856.000000
231.079700 1408.000000
231.116500 1516.000000
232.085700 1084.000000
232.123900 5752.000000
233.095600 4732.000000
233.130400 3540.000000
234.102100 3576.000000
234.134000 788.000000
235.110600 7768.000000
236.118200 6504.000000
237.088800 2476.000000
237.126300 5444.000000
237.163700 604.000000
238.095600 972.000000
238.130100 1168.000000
239.086200 1612.000000
239.105800 1188.000000
239.140200 596.000000
240.090700 1016.000000
241.101000 1516.000000
242.108000 3888.000000
243.115800 3048.000000
244.084900 476.000000
244.119600 1532.000000
245.095300 13068.000000
246.102100 7540.000000
247.109500 4312.000000
247.146900 9404.000000
248.116700 1940.000000
248.151700 2868.000000
249.090000 860.000000
249.125400 6612.000000
249.162000 648.000000
250.098100 476.000000
250.134700 6636.000000
251.086000 504.000000
251.105300 2120.000000
251.141700 8284.000000
252.091900 304.000000
252.110100 608.000000
252.146900 2232.000000
253.102500 1380.000000
253.123300 1156.000000
253.138500 808.000000
253.151900 328.000000
254.108900 1352.000000
255.116600 936.000000
256.121700 408.000000
257.098800 548.000000
257.131400 7864.000000
258.101000 384.000000
258.136500 2148.000000
259.110600 2524.000000
259.146800 1816.000000
260.118800 28048.000000
261.125800 22136.000000
262.130500 4960.000000
263.105400 2664.000000
263.141000 1784.000000
264.113500 1960.000000
264.146000 644.000000
265.106500 924.000000
265.120400 868.000000
265.157700 15532.000000
266.107900 676.000000
266.162600 3360.000000
267.081900 440.000000
267.115700 700.000000
267.155400 648.000000
267.160000 648.000000
268.145200 348.000000
268.159600 724.000000
269.130700 464.000000
270.098300 548.000000
270.108000 616.000000
270.142300 380.000000
271.111900 764.000000
272.117200 440.000000
273.126500 1420.000000
274.134800 956.000000
275.142400 30484.000000
276.148600 14416.000000
277.126600 536.000000
277.153200 3824.000000
278.129600 4180.000000
278.159500 488.000000
279.137000 1588.000000
279.170300 312.000000
280.125800 3276.000000
281.095600 440.000000
281.133700 5268.000000
282.137200 1048.000000
285.125400 852.000000
285.162300 604.000000
286.132900 740.000000
287.142200 440.000000
288.115000 1764.000000
288.146300 424.000000
289.117200 984.000000
291.115400 400.000000
291.136900 444.000000
293.152500 8880.000000
294.157600 2684.000000
295.148300 6372.000000
296.155200 5320.000000
297.161800 1396.000000
299.144200 468.000000
303.138500 952.000000
304.142700 664.000000
305.138400 488.000000
306.127100 300.000000
306.144200 580.000000
307.128400 348.000000
309.125600 540.000000
313.159300 1604.000000
314.164200 572.000000
316.164300 352.000000
323.144100 672.000000
324.146300 412.000000
333.144900 424.000000
338.114700 408.000000
341.139000 520.000000
361.144800 624.000000
362.149000 320.000000

>ms2peaks
57.032800 6036.000000
67.053300 792.000000
69.032800 620.000000
69.068900 1576.000000
75.043700 800.000000
79.054100 1172.000000
91.054600 772.000000
93.070000 2080.000000
95.085600 2208.000000
105.070700 836.000000
107.086700 10560.000000
108.090300 812.000000
109.102500 5688.000000
113.076400 688.000000
115.053800 620.000000
119.084900 2812.000000
121.064500 33832.000000
122.067300 2864.000000
127.089600 688.000000
129.068500 964.000000
131.085200 2284.000000
133.063700 5668.000000
133.099600 1136.000000
134.065800 712.000000
135.079500 13228.000000
136.083000 1392.000000
137.074700 628.000000
139.054700 6000.000000
141.069100 972.000000
143.084700 1388.000000
145.064000 5244.000000
145.099300 684.000000
146.068100 744.000000
147.078900 4704.000000
148.081200 632.000000
149.075200 904.000000
149.095900 820.000000
151.090500 5696.000000
152.095400 996.000000
153.071700 1184.000000
155.085300 5228.000000
156.087600 596.000000
157.063600 3016.000000
157.099700 1336.000000
158.071900 1036.000000
159.062300 4216.000000
159.079300 9036.000000
160.084000 1700.000000
161.058200 1480.000000
161.075700 912.000000
161.094400 2560.000000
163.054200 1124.000000
163.073100 780.000000
163.090000 1208.000000
164.095700 724.000000
165.069600 3360.000000
167.084800 916.000000
169.063600 2856.000000
169.101500 1040.000000
171.079300 26380.000000
172.082800 3164.000000
173.058400 2300.000000
173.078800 3880.000000
173.094100 5684.000000
174.099300 636.000000
175.074100 640.000000
175.091500 704.000000
177.070600 2516.000000
177.089000 1080.000000
177.106900 1268.000000
179.048800 1928.000000
179.085700 37496.000000
180.088800 4128.000000
181.100900 1076.000000
182.070900 660.000000
183.079800 1728.000000
185.041000 3052.000000
185.058600 12772.000000
185.095000 3700.000000
186.062200 1484.000000
186.100800 1080.000000
187.053300 684.000000
187.074800 4440.000000
187.090800 1272.000000
187.108300 660.000000
188.079100 720.000000
189.069800 3372.000000
190.074200 864.000000
191.085900 2688.000000
193.102400 1032.000000
195.080000 2624.000000
195.096100 804.000000
195.119200 664.000000
196.085400 1212.000000
197.078300 964.000000
197.094700 3072.000000
199.071900 1376.000000
199.091500 1444.000000
199.109500 876.000000
201.073400 1860.000000
201.089700 868.000000
203.069000 1192.000000
203.086000 1804.000000
205.065200 60540.000000
205.101700 5132.000000
206.068300 7552.000000
206.107600 988.000000
207.079500 1600.000000
207.095800 1032.000000
208.086700 752.000000
209.095000 6300.000000
210.101900 1252.000000
211.111200 2236.000000
213.107600 3256.000000
214.110800 696.000000
215.085600 1024.000000
217.099500 620.000000
219.079900 1304.000000
219.115100 628.000000
221.095100 4556.000000
222.101800 3744.000000
223.111300 6256.000000
224.116500 1124.000000
225.073000 1692.000000
225.091200 1020.000000
225.107100 732.000000
225.126700 1056.000000
226.076400 604.000000
232.123800 1212.000000
233.095100 1896.000000
233.129000 1236.000000
234.101400 692.000000
235.111000 4816.000000
236.118600 2036.000000
237.089700 1880.000000
237.126700 5276.000000
238.097800 976.000000
238.129700 1192.000000
239.086900 1544.000000
239.106100 1160.000000
239.141600 1416.000000
241.102100 792.000000
242.107600 1048.000000
243.116300 728.000000
245.079300 6164.000000
245.093500 2624.000000
246.083500 1000.000000
246.102500 2196.000000
247.110600 1428.000000
247.147800 8812.000000
248.150500 2152.000000
249.127000 8316.000000
250.132300 3492.000000
251.105800 2104.000000
251.142300 23160.000000
252.146800 4188.000000
253.102300 1368.000000
253.121900 2332.000000
253.153400 628.000000
254.124400 708.000000
255.119500 1020.000000
257.132000 3664.000000
258.137200 1400.000000
259.112800 704.000000
259.146000 856.000000
260.118900 12040.000000
261.126500 7292.000000
262.133400 1872.000000
263.107600 628.000000
263.141600 2640.000000
264.113900 676.000000
264.146100 800.000000
265.158600 62224.000000
266.162200 13992.000000
267.138500 1276.000000
267.157900 1216.000000
269.131200 1112.000000
271.148400 640.000000
273.126200 984.000000
274.133800 912.000000
275.142800 91820.000000
276.148200 28792.000000
277.124200 680.000000
277.155100 6296.000000
278.130300 2732.000000
278.162800 1304.000000
279.134800 1928.000000
280.125500 972.000000
281.132900 3072.000000
282.135100 768.000000
283.170800 656.000000
285.125800 684.000000
285.164500 4900.000000
286.130800 936.000000
286.166600 1108.000000
287.143400 1260.000000
288.112400 1288.000000
289.115500 620.000000
291.140000 976.000000
293.153800 118460.000000
294.157000 28508.000000
295.149300 50796.000000
296.155300 16572.000000
297.160900 3008.000000
299.144700 760.000000
303.137500 8044.000000
304.142100 2528.000000
305.152000 1192.000000
306.141600 624.000000
307.146800 752.000000
311.164600 4040.000000
312.164000 836.000000
313.160000 70336.000000
314.162900 13768.000000
315.156700 5524.000000
316.161200 968.000000
321.148000 4712.000000
322.153200 1044.000000
323.144300 4968.000000
324.149100 2596.000000
325.157100 884.000000
331.153200 3052.000000
332.152700 940.000000
333.165500 10984.000000
334.171400 1788.000000
335.176300 848.000000
338.112800 1836.000000
339.145500 888.000000
341.136800 7024.000000
342.140200 1664.000000
343.147800 1500.000000
345.164800 644.000000
359.146900 5752.000000
360.151900 1412.000000
361.144400 17100.000000
362.149100 3868.000000
363.145800 844.000000
369.133400 6712.000000
370.135100 1716.000000
379.153800 1880.000000
379.166800 2452.000000
380.175300 628.000000
381.148000 2068.000000
387.142100 1768.000000
389.138500 4564.000000
390.143800 1112.000000
405.154100 1316.000000
407.146700 1008.000000

