>compound AU63387908
>parentmass 249.1598
>ionization [M+H]+
>formula C14H20N2O2
>rt 227.480000
>profile qtof
#smiles_iso CC(C)NCC(COC1=CC=CC2=C1C=CN2)O
#smiles_can CC(C)NCC(COC1=CC=CC2=C1C=CN2)O
#inchikey JZQKKSLKJUAGIC-UHFFFAOYSA-N
#pubchem_id 4828
#mb_accession AU266301,AU266302,AU266303,AU266304,AU266305,AU266306

>ms2peaks
116.106300 29632.000000
146.058900 15952.000000
172.074300 42840.000000
249.161000 2512684.000000

>ms2peaks
116.106600 230632.000000
117.109600 16552.000000
118.064400 13676.000000
130.064200 9228.000000
132.043400 7052.000000
134.059100 85552.000000
135.062100 7320.000000
144.080000 79764.000000
145.083900 7156.000000
146.059200 194532.000000
147.062100 16348.000000
156.010400 58136.000000
157.007600 5912.000000
160.074500 15280.000000
172.074900 453336.000000
173.078000 48744.000000
184.085900 28088.000000
207.112000 31992.000000
249.159600 1127864.000000
250.162500 131184.000000
251.165100 11844.000000

>ms2peaks
115.053300 5696.000000
116.049000 8228.000000
116.106300 57868.000000
117.056700 8612.000000
117.069100 11384.000000
117.109700 4032.000000
118.064300 29936.000000
119.067800 2156.000000
127.052800 1908.000000
128.061700 1424.000000
129.068600 3224.000000
130.064000 15824.000000
131.067800 1792.000000
132.043400 15780.000000
132.079300 8928.000000
133.050500 9224.000000
134.059000 152392.000000
135.062200 14308.000000
142.064500 2304.000000
143.071400 13672.000000
144.079900 213496.000000
145.063600 7632.000000
145.082800 23024.000000
146.058800 127536.000000
147.062000 11400.000000
154.063700 7628.000000
155.059100 5764.000000
156.009700 7560.000000
157.050400 4056.000000
160.074100 17828.000000
161.077200 1888.000000
167.059000 1076.000000
170.059000 4052.000000
171.066500 3020.000000
172.074600 177028.000000
173.077600 19048.000000
174.084800 1272.000000
176.106100 1512.000000
184.085200 9252.000000
185.087700 1820.000000
207.111500 1860.000000
249.158700 14204.000000
250.161900 2752.000000

>ms2peaks
115.053700 13116.000000
116.049200 17600.000000
116.106500 8532.000000
117.056700 20652.000000
117.069200 15636.000000
118.064500 31304.000000
119.067500 3608.000000
127.053300 4388.000000
128.049500 1776.000000
128.060800 2228.000000
129.056200 2712.000000
129.066900 1392.000000
130.063900 11132.000000
131.047600 744.000000
131.069500 1220.000000
132.043500 10896.000000
132.079700 7928.000000
133.050900 12424.000000
133.082700 760.000000
134.059200 100012.000000
135.062300 8716.000000
136.065200 984.000000
141.056700 612.000000
142.064400 4644.000000
143.071900 29688.000000
144.079900 120028.000000
145.063700 8928.000000
145.083300 14684.000000
146.059100 38384.000000
147.062300 3728.000000
154.063800 6700.000000
155.059500 10296.000000
156.063600 1832.000000
157.050800 4776.000000
158.058100 1008.000000
159.065500 688.000000
160.074300 5640.000000
161.077700 804.000000
167.060100 1736.000000
170.058700 4444.000000
171.066600 3336.000000
172.074700 20628.000000
173.078200 3412.000000
183.078600 728.000000
184.085900 3036.000000

>ms2peaks
115.053500 14768.000000
116.049000 18628.000000
117.056500 26168.000000
117.068500 8800.000000
118.064100 16980.000000
119.066800 1576.000000
126.045200 996.000000
127.053300 5060.000000
128.049000 2320.000000
128.060100 2088.000000
129.056000 2644.000000
130.064100 6540.000000
131.035600 724.000000
131.047600 428.000000
131.069200 816.000000
132.043500 4504.000000
132.079700 2404.000000
133.051000 13332.000000
134.058800 38984.000000
135.061500 4128.000000
140.048600 568.000000
141.056800 1108.000000
142.064000 6636.000000
143.071700 32712.000000
144.055100 5032.000000
144.079400 34852.000000
145.063600 6304.000000
145.082800 4348.000000
146.059000 7432.000000
147.061800 800.000000
153.055800 420.000000
154.063700 5296.000000
155.059300 7096.000000
156.064100 1140.000000
157.051200 3012.000000
157.072400 428.000000
158.054000 492.000000
159.066600 532.000000
160.074800 1412.000000
161.047200 464.000000
167.059100 832.000000
168.067100 552.000000
170.057900 3812.000000
171.065400 1456.000000
172.074500 2516.000000
173.076900 396.000000
183.078600 560.000000
184.086000 544.000000

>ms2peaks
56.049100 94552.000000
57.052500 3516.000000
58.064800 60604.000000
60.080400 4452.000000
65.038000 3124.000000
68.049000 3072.000000
72.080600 278576.000000
73.083900 9464.000000
74.059800 239580.000000
75.063600 6496.000000
84.080500 2728.000000
86.096200 19532.000000
92.050100 16780.000000
93.057400 2836.000000
94.053500 2944.000000
95.060800 19344.000000
98.097200 109340.000000
99.100400 6920.000000
100.112700 14080.000000
108.045600 18432.000000
116.108400 519676.000000
117.057100 3064.000000
117.070100 5432.000000
117.111000 28832.000000
118.065400 26028.000000
130.064800 8544.000000
132.044000 8664.000000
132.080400 3264.000000
133.050800 3932.000000
134.059600 93856.000000
135.062500 7336.000000
143.072500 3940.000000
144.080200 99296.000000
145.063600 2724.000000
145.083400 9812.000000
146.059500 113416.000000
147.063000 9476.000000
154.064200 3864.000000
156.010600 34052.000000
157.008600 3564.000000
160.075100 12796.000000
172.075100 209572.000000
173.078700 25672.000000
176.106500 2864.000000
184.086000 22544.000000
185.089300 2836.000000
207.112600 17204.000000
249.160000 433396.000000
250.162900 69260.000000
251.166300 4508.000000

