>compound AU63194043
>parentmass 327.0781
>ionization [M+H]+
>formula C18H15O4P
>rt 663.320000
>profile qtof
#smiles_iso C1=CC=C(C=C1)OP(=O)(OC2=CC=CC=C2)OC3=CC=CC=C3
#smiles_can C1=CC=C(C=C1)OP(=O)(OC2=CC=CC=C2)OC3=CC=CC=C3
#inchikey XZZNDPSIHUTMOC-UHFFFAOYSA-N
#pubchem_id 8289
#mb_accession AU246401,AU246402,AU246403,AU246404,AU246405,AU246406

>ms2
327.078300 265788.000000
328.081700 50320.000000
329.083400 5388.000000

>ms2
152.061100 2420.000000
153.069100 5636.000000
171.079300 1860.000000
215.023800 1900.000000
228.092800 1828.000000
229.100600 3468.000000
233.035900 12260.000000
234.038400 1888.000000
251.046000 5548.000000
327.077800 265308.000000
328.080600 50776.000000
329.083700 5984.000000

>ms2
138.993300 584.000000
151.052600 904.000000
152.061000 22384.000000
153.068500 30660.000000
154.072400 3824.000000
155.073500 472.000000
157.002400 308.000000
161.095700 456.000000
165.053400 368.000000
168.055800 3788.000000
169.063000 2184.000000
170.069200 488.000000
171.079500 4516.000000
172.082000 400.000000
175.015300 2372.000000
179.059100 1124.000000
181.075600 576.000000
187.030300 780.000000
202.077100 960.000000
203.081800 552.000000
205.039600 456.000000
215.025100 10384.000000
216.030400 2196.000000
227.084600 1960.000000
228.092600 8956.000000
229.099500 9584.000000
230.103900 2008.000000
233.035600 44096.000000
234.039100 6040.000000
235.040900 412.000000
251.045900 30180.000000
252.049300 4448.000000
253.049000 432.000000
291.055700 736.000000
292.058100 408.000000
309.067700 1964.000000
310.076400 344.000000
327.077000 50104.000000
328.079900 11372.000000
329.082700 1212.000000

>ms2
138.994000 1352.000000
139.052300 384.000000
141.068400 656.000000
145.064300 328.000000
150.045800 472.000000
151.053300 1708.000000
152.061200 42696.000000
153.068200 20684.000000
154.071600 2720.000000
155.059700 736.000000
157.002700 588.000000
168.056000 12456.000000
169.063100 6004.000000
170.068600 808.000000
171.078900 880.000000
175.014500 3192.000000
179.060100 2048.000000
180.065900 348.000000
181.076500 356.000000
187.029900 2712.000000
188.037600 364.000000
189.043800 352.000000
193.026600 304.000000
202.076700 1180.000000
203.084500 396.000000
215.024900 9860.000000
216.029400 1524.000000
226.076200 648.000000
227.085000 2584.000000
228.092700 9544.000000
229.098200 3040.000000
233.035300 22108.000000
234.039900 2916.000000
244.091000 428.000000
251.045900 17660.000000
252.049500 2304.000000
291.060300 452.000000
327.078000 1916.000000
328.080100 540.000000

>ms2
115.053400 388.000000
126.045400 420.000000
127.053900 688.000000
133.020000 612.000000
138.993300 1580.000000
139.053300 676.000000
141.068500 1396.000000
142.074500 392.000000
145.063800 680.000000
150.046000 1548.000000
151.052800 2528.000000
152.061300 57060.000000
153.067300 14424.000000
154.071900 1136.000000
155.060000 1496.000000
157.004300 556.000000
159.035700 536.000000
168.056200 21276.000000
169.062700 7556.000000
170.068600 1356.000000
175.014800 3736.000000
176.015200 308.000000
179.058900 3148.000000
187.030000 2844.000000
188.034100 584.000000
202.076400 1536.000000
203.082400 444.000000
215.025200 5784.000000
216.027300 1040.000000
226.077200 2020.000000
227.084700 3604.000000
228.092100 6196.000000
229.095900 1384.000000
233.035800 8516.000000
234.038000 1136.000000
244.088300 452.000000
245.091800 312.000000
251.046100 3364.000000
252.052000 580.000000

>ms2
53.037500 756.000000
95.049400 824.000000
105.046900 984.000000
152.061800 18260.000000
153.069500 28276.000000
154.072600 3216.000000
168.056400 3100.000000
169.063600 2340.000000
171.079900 3528.000000
175.014500 2104.000000
179.060300 976.000000
181.075900 720.000000
202.077900 780.000000
215.025700 6080.000000
216.029900 1160.000000
227.085400 1148.000000
228.093000 7664.000000
229.099900 6048.000000
230.104100 1572.000000
233.036400 38908.000000
234.039300 4832.000000
235.041500 804.000000
251.047200 23560.000000
252.050900 2788.000000
309.068000 1488.000000
327.078300 135536.000000
328.082100 28620.000000
329.083400 3296.000000

