>compound AU63308524
>parentmass 311.03929999999997
>ionization [M+H]+
>formula C14H9ClF2N2O2
>rt 635.080000
>profile qtof
#smiles_iso C1=CC(=C(C(=C1)F)C(=O)NC(=O)NC2=CC=C(C=C2)Cl)F
#smiles_can C1=CC(=C(C(=C1)F)C(=O)NC(=O)NC2=CC=C(C=C2)Cl)F
#inchikey QQQYTWIFVNKMRW-UHFFFAOYSA-N
#pubchem_id 37123
#mb_accession AU338801,AU338802,AU338803,AU338804,AU338805,AU338806

>ms2peaks
158.039800 4732.000000
159.044500 516.000000
311.039300 2436.000000
312.041900 548.000000
313.036000 644.000000

>ms2peaks
141.013300 1632.000000
158.039500 6648.000000
159.043700 440.000000

>ms2peaks
141.014200 3492.000000
142.016200 344.000000
158.040200 3532.000000

>ms2peaks
140.030700 360.000000
141.014300 4900.000000
158.040000 2252.000000

>ms2peaks
141.013800 4184.000000
158.040000 540.000000

>ms2peaks
128.024900 1228.000000
140.029300 2908.000000
141.013800 122548.000000
142.016900 5956.000000
158.040200 188624.000000
159.043500 17616.000000

