>compound AU63890088
>parentmass 195.1016
>ionization [M+H]+
>formula C11H14O3
>rt 567.180000
>profile qtof
#smiles_iso CCCCOC(=O)C1=CC=C(C=C1)O
#smiles_can CCCCOC(=O)C1=CC=C(C=C1)O
#inchikey QFOHBWFCKVYLES-UHFFFAOYSA-N
#pubchem_id 7184
#mb_accession AU236801,AU236802,AU236803,AU236804,AU236806

>ms2
121.026700 1460.000000
139.037500 22536.000000
140.040900 1984.000000
195.101200 560.000000

>ms2
121.027000 4232.000000
139.037500 8780.000000
140.040300 972.000000

>ms2
121.027800 3164.000000
139.038100 1584.000000

>ms2
121.027400 1032.000000

>ms2
57.069500 1068.000000
95.049200 900.000000
121.027800 5168.000000
139.037800 15060.000000
140.041100 840.000000

