>compound AU63472471
>parentmass 154.0167
>ionization [M+H]+
>formula C6H4ClN3
>rt 385.545000
>profile qtof
#smiles_iso C1=CC=C2C(=C1)N=NN2Cl
#smiles_can C1=CC=C2C(=C1)N=NN2Cl
#inchikey INOGLHRUEYDAHX-UHFFFAOYSA-N
#pubchem_id 88761
#mb_accession AU405501,AU405502,AU405503,AU405504

>ms2peaks
126.009400 304.000000
154.016900 47200.000000
155.019100 3156.000000
156.013800 13672.000000

>ms2peaks
126.010000 2088.000000
128.006600 792.000000
154.016800 23076.000000
155.019900 1428.000000
156.013500 6572.000000

>ms2peaks
119.049400 348.000000
126.009900 564.000000
154.016600 3084.000000
156.014600 1336.000000

>ms2peaks
119.046300 328.000000
154.017500 332.000000

