>compound AU63396763
>parentmass 344.3033
>ionization [M+H]+
>formula C19H39N2O3+
>rt 770.270000
>profile qtof
#smiles_iso CCCCCCCCCCCC(=O)NCCC[N+](C)(C)CC(=O)O
#smiles_can CCCCCCCCCCCC(=O)NCCC[N+](C)(C)CC(=O)O
#inchikey MRUAUOIMASANKQ-UHFFFAOYSA-O
#pubchem_id 20281
#mb_accession AU284901,AU284902,AU284903,AU284904,AU284905,AU284906

>ms2peaks
156.136800 1304.000000
223.061500 316.000000
237.077600 420.000000
240.230900 1356.000000
241.233200 356.000000
250.998900 424.000000
285.243900 344.000000
285.276200 416.000000
299.058600 1652.000000
343.296000 940.000000
344.295600 452.000000

>ms2peaks
133.084600 600.000000
156.135800 548.000000
158.013800 320.000000
223.063600 1036.000000
224.061700 372.000000
237.076900 736.000000
240.231000 3388.000000
241.234900 608.000000
250.999000 432.000000
281.050500 792.000000
283.263300 520.000000
285.276500 428.000000
299.060100 9648.000000
300.061100 1988.000000

>ms2peaks
223.061900 796.000000
225.042500 1256.000000
226.042300 348.000000
237.076900 608.000000
240.231700 2108.000000
241.237800 452.000000
281.048900 864.000000
283.031000 1128.000000
283.266500 308.000000
299.061000 10880.000000
300.062400 2696.000000

>ms2peaks
207.032800 324.000000
223.061000 520.000000
225.041900 2260.000000
226.041300 628.000000
227.022100 496.000000
237.080800 324.000000
240.232500 516.000000
251.049200 372.000000
265.021800 340.000000
267.001100 1132.000000
268.000500 316.000000
281.051000 912.000000
283.030700 3512.000000
284.031600 808.000000
299.060900 4416.000000
300.061200 720.000000

>ms2peaks
152.061700 300.000000
191.000200 384.000000
207.031800 508.000000
209.010900 1072.000000
223.028600 448.000000
223.062200 1076.000000
225.042200 8992.000000
226.043300 808.000000
227.021300 2488.000000
228.020300 432.000000
229.000500 676.000000
237.078200 304.000000
247.010900 320.000000
265.020500 1048.000000
266.999000 9092.000000
267.997600 1832.000000
283.030200 6152.000000
284.029300 1504.000000
299.061600 1720.000000
300.059500 324.000000

>ms2peaks
133.085300 408.000000
223.062800 2180.000000
224.063700 340.000000
225.042100 1964.000000
226.041300 476.000000
227.020800 304.000000
237.077800 1776.000000
238.081200 408.000000
240.232000 3228.000000
241.235000 600.000000
265.024000 316.000000
267.001000 312.000000
281.049200 1316.000000
282.054400 440.000000
283.029600 2508.000000
284.030800 832.000000
285.032100 436.000000
299.061600 30948.000000
300.063200 5588.000000
300.289600 856.000000
301.061300 1316.000000

