>compound AU63511845
>parentmass 370.0486
>ionization [M+H]+
>formula C9H15N5O7S2
>rt 418.510000
>profile qtof
#smiles_iso CN(S(=O)(=O)C)S(=O)(=O)NC(=O)NC1=NC(=CC(=N1)OC)OC
#smiles_can CN(S(=O)(=O)C)S(=O)(=O)NC(=O)NC1=NC(=CC(=N1)OC)OC
#inchikey CTTHWASMBLQOFR-UHFFFAOYSA-N
#pubchem_id 91777
#mb_accession AU255601,AU255602,AU255603,AU255604,AU255605,AU255606

>ms2
182.055200 688.000000
199.081700 3784.000000
200.083800 416.000000
236.035100 900.000000
261.028700 5056.000000
262.034400 576.000000
279.039400 40452.000000
280.040900 4140.000000
281.037500 1588.000000
370.048200 26132.000000
372.046100 2392.000000

>ms2
139.035900 376.000000
154.058700 1092.000000
182.055200 1020.000000
199.081600 3248.000000
200.083300 480.000000
218.021800 5244.000000
219.021200 348.000000
236.033200 9724.000000
237.036300 1080.000000
238.030600 560.000000
261.028300 22644.000000
262.029500 2484.000000
263.026500 896.000000
279.038700 22548.000000
280.041600 2564.000000
281.040500 1104.000000
370.048200 328.000000

>ms2
124.050000 1940.000000
126.065400 456.000000
127.049000 1812.000000
139.036100 5808.000000
142.060400 1280.000000
154.060000 7852.000000
155.063200 716.000000
156.074800 388.000000
157.059500 392.000000
181.070300 1048.000000
182.055100 4032.000000
183.058000 472.000000
199.082500 308.000000
218.021900 12824.000000
219.022800 1776.000000
220.017900 828.000000
236.032600 38140.000000
237.034800 3120.000000
238.029800 1588.000000
261.028000 15632.000000
262.030700 1540.000000
263.024400 720.000000
279.039000 4272.000000
281.035500 320.000000

>ms2
124.049900 2616.000000
126.064700 572.000000
127.049500 3780.000000
139.036300 18496.000000
140.040000 1148.000000
142.058600 764.000000
154.059600 8928.000000
155.064700 1092.000000
156.076700 416.000000
157.059300 1292.000000
181.070300 1940.000000
182.055100 5560.000000
183.058200 592.000000
218.022100 4624.000000
219.022600 648.000000
236.032400 18872.000000
237.034800 2292.000000
238.032900 912.000000
261.027000 1240.000000

>ms2
124.050500 884.000000
126.065300 408.000000
127.049200 1932.000000
128.052300 312.000000
139.036300 18340.000000
139.048300 2704.000000
140.040000 1480.000000
154.059400 4608.000000
155.062700 388.000000
157.059700 2704.000000
181.071600 1484.000000
182.054500 3888.000000
183.056200 364.000000
218.021500 884.000000
236.032500 4020.000000

>ms2
124.050500 1624.000000
126.065300 492.000000
127.049500 1860.000000
139.037300 6548.000000
142.061300 1380.000000
154.061000 9844.000000
155.064200 552.000000
156.077000 884.000000
181.072900 1464.000000
182.054800 3748.000000
183.062800 308.000000
199.081500 1588.000000
200.086600 564.000000
218.022300 8348.000000
219.024800 596.000000
220.019100 420.000000
236.033600 37832.000000
237.035800 2976.000000
238.030300 1512.000000
261.028700 23384.000000
262.031000 2352.000000
263.024400 1128.000000
279.039300 11972.000000
280.041400 1224.000000
281.033100 820.000000

