>compound AU63682830
>parentmass 313.2122
>ionization [M+H]+
>formula C16H28N2O4
>rt 409.200000
>profile qtof
#smiles_iso CCC(CC)O[C@@H]1C=C(C[C@@H]([C@H]1NC(=O)C)N)C(=O)OCC
#smiles_can CCC(CC)OC1C=C(CC(C1NC(=O)C)N)C(=O)OCC
#inchikey VSZGPKBBMSAYNT-RRFJBIMHSA-N
#pubchem_id 65028
#mb_accession AU206801,AU206802,AU206803,AU206804,AU206805

>ms2
120.043500 2564.000000
136.074800 2260.000000
137.071300 1628.000000
140.070100 1380.000000
162.053600 1716.000000
166.085600 53672.000000
167.088700 6000.000000
179.080700 5268.000000
180.064900 1516.000000
208.096700 98508.000000
209.099200 13360.000000
210.102000 1256.000000
225.123400 211376.000000
226.107600 5308.000000
226.126400 25296.000000
227.128800 2324.000000
243.133800 33644.000000
244.137700 4496.000000
296.186200 16476.000000
297.189300 2984.000000
313.212500 143588.000000
314.215300 26592.000000
315.218400 2848.000000

>ms2
120.043700 11820.000000
121.047300 1040.000000
122.095500 1092.000000
136.074700 7416.000000
137.070400 9220.000000
138.054000 3596.000000
138.073400 812.000000
139.038200 688.000000
139.073700 1524.000000
140.069800 1936.000000
151.086900 908.000000
161.069800 1744.000000
162.054200 4964.000000
163.058000 580.000000
166.085400 103368.000000
167.069200 3084.000000
167.088500 9248.000000
168.090900 1004.000000
179.080400 5896.000000
180.064800 4284.000000
180.082600 600.000000
183.112300 1956.000000
184.096100 808.000000
207.112700 780.000000
208.096100 37780.000000
209.099400 5116.000000
225.123100 13652.000000
226.106800 6676.000000
226.124000 1612.000000
227.109200 764.000000
243.133200 2060.000000
296.186000 1304.000000

>ms2
119.060100 964.000000
120.043700 22304.000000
121.028100 416.000000
121.046500 1980.000000
122.095900 1460.000000
123.079400 732.000000
133.075800 632.000000
134.058500 388.000000
136.074800 5420.000000
137.069900 15396.000000
138.053800 9216.000000
138.073100 1056.000000
138.090500 932.000000
139.036700 1532.000000
139.055900 816.000000
139.074300 1544.000000
140.070200 1360.000000
151.085500 1276.000000
152.069300 396.000000
154.085100 640.000000
155.081000 416.000000
161.070200 1616.000000
162.053600 4848.000000
163.057700 644.000000
164.107600 372.000000
166.085300 66664.000000
167.069100 940.000000
167.088900 6772.000000
168.090600 668.000000
179.080400 2196.000000
180.064800 2096.000000
183.112200 1728.000000
184.095700 520.000000
207.114100 344.000000
208.095600 4076.000000
209.101000 508.000000
225.121800 900.000000
226.106800 1564.000000
227.109200 500.000000

>ms2
119.058900 1180.000000
120.043500 22568.000000
121.027700 356.000000
121.046900 1472.000000
122.059000 356.000000
122.095500 420.000000
123.079000 508.000000
126.053500 412.000000
133.074800 568.000000
134.059100 648.000000
136.074400 1588.000000
137.046500 1736.000000
137.069500 10888.000000
138.053600 11696.000000
138.073700 1084.000000
138.090200 900.000000
139.038500 556.000000
139.057300 796.000000
139.074600 380.000000
151.084500 308.000000
152.070300 340.000000
154.085000 324.000000
155.078300 456.000000
161.070200 888.000000
162.053800 2184.000000
163.057900 300.000000
166.085100 23144.000000
167.088900 2272.000000
179.082000 480.000000
180.065100 660.000000
183.112300 388.000000

>ms2
119.059700 1264.000000
120.043500 12724.000000
121.047200 1296.000000
133.075300 392.000000
134.059100 488.000000
137.045900 2064.000000
137.069800 3880.000000
138.054100 7684.000000
138.074000 576.000000
138.090100 736.000000
139.057700 804.000000
152.069600 328.000000
162.052700 536.000000
166.084800 3880.000000
167.088800 504.000000

