>compound AU63969175
>parentmass 214.2529
>ionization [M+H]+
>formula C14H31N
>rt 624.168000
>profile qtof
#smiles_iso CCCCCCCCCCCCN(C)C
#smiles_can CCCCCCCCCCCCN(C)C
#inchikey YWFWDNVOPHGWMX-UHFFFAOYSA-N
#pubchem_id 8168
#mb_accession AU285301,AU285302,AU285303,AU285304,AU285306

>ms2peaks
214.252100 460268.000000
215.255700 59416.000000
216.258500 4172.000000

>ms2peaks
214.252100 309120.000000
215.255600 45488.000000
216.258700 3392.000000

>ms2peaks
214.251800 16236.000000
215.255300 2984.000000

>ms2peaks
214.253300 364.000000

>ms2peaks
46.064800 2812.000000
57.069200 5868.000000
71.085100 2484.000000
214.252800 196608.000000
215.256300 27528.000000
216.258700 1864.000000

