>compound AU63586494
>parentmass 321.1333
>ionization [M+H]+
>formula C17H20O6
>rt 527.700000
>profile qtof
#smiles_iso CC1=C2COC(=O)C2=C(C(=C1OC)C/C=C(\C)/CCC(=O)O)O
#smiles_can CC1=C2COC(=O)C2=C(C(=C1OC)CC=C(C)CCC(=O)O)O
#inchikey HPNSFSBZBAHARI-RUDMXATFSA-N
#pubchem_id 446541
#mb_accession AU269801,AU269802,AU269803,AU269804,AU269805,AU269806

>ms2peaks
195.065100 704.000000
207.064600 10784.000000
208.067200 1444.000000
275.127300 7232.000000
276.131800 1272.000000
285.111700 824.000000
303.122300 15648.000000
304.125000 3300.000000
321.133200 42792.000000
322.135900 9324.000000

>ms2peaks
159.043500 1436.000000
177.054500 1612.000000
195.064500 3820.000000
196.068700 544.000000
207.064500 80212.000000
208.067900 10632.000000
219.065400 684.000000
223.057200 624.000000
259.097300 680.000000
261.112700 620.000000
275.127700 9580.000000
276.130200 2284.000000
285.110800 2904.000000
286.115200 780.000000
303.122100 5320.000000
304.125200 1504.000000
321.134200 6100.000000
322.136100 1416.000000

>ms2peaks
131.047000 592.000000
135.080200 360.000000
159.042400 8408.000000
160.045100 580.000000
175.076800 560.000000
177.053600 7168.000000
178.055900 1204.000000
179.068800 640.000000
195.064300 2696.000000
196.067500 372.000000
207.064300 48672.000000
208.067600 7292.000000
215.103400 440.000000
216.117600 332.000000
219.062100 560.000000
233.105500 328.000000
259.098900 332.000000
261.110700 360.000000
270.088100 508.000000
275.127300 792.000000
285.112800 1148.000000
286.114700 444.000000
321.140700 884.000000

>ms2peaks
131.048600 1380.000000
135.079600 808.000000
149.059000 688.000000
159.042200 21828.000000
160.045800 2820.000000
175.074500 552.000000
177.052800 21408.000000
178.056900 2460.000000
179.068700 2104.000000
193.047900 408.000000
195.062900 1396.000000
207.063900 21484.000000
208.068100 2568.000000
215.105100 528.000000
270.090300 300.000000

>ms2peaks
131.048000 2752.000000
132.051000 432.000000
135.079600 688.000000
145.063300 756.000000
149.058900 616.000000
159.042700 24088.000000
160.046300 2964.000000
161.056700 336.000000
177.053400 13052.000000
178.057100 1516.000000
179.069000 2404.000000
195.067000 324.000000
207.064400 4096.000000
208.066700 592.000000

>ms2peaks
135.078600 828.000000
159.042900 8664.000000
160.046500 1000.000000
175.075400 504.000000
177.053500 11732.000000
178.055800 1428.000000
179.070700 1048.000000
195.064600 3876.000000
207.064600 96840.000000
208.068000 11400.000000
209.069900 1280.000000
215.107800 608.000000
221.080000 540.000000
223.060200 748.000000
261.110500 580.000000
275.127600 4404.000000
276.131400 980.000000
285.110700 2240.000000
303.123800 1412.000000
321.134700 3096.000000
322.133900 572.000000

