>compound AU63047154
>parentmass 316.1543
>ionization [M+H]+
>formula C18H21NO4
>rt 223.908000
>profile qtof
#smiles_iso CN1CC[C@]23[C@@H]4C(=O)CC[C@]2([C@H]1CC5=C3C(=C(C=C5)OC)O4)O
#smiles_can CN1CCC23C4C(=O)CCC2(C1CC5=C3C(=C(C=C5)OC)O4)O
#inchikey BRUQQQPBMZOVGD-XFKAJCMBSA-N
#pubchem_id 5284603
#mb_accession AU160201,AU160202,AU160203,AU160204,AU160205

>ms2peaks
298.145300 65548.000000
299.148400 11860.000000
316.156300 1695412.000000
317.159500 254880.000000
318.161800 23492.000000

>ms2peaks
187.076200 13168.000000
241.087300 6448.000000
241.111000 47124.000000
242.114600 8912.000000
256.134700 44280.000000
257.137400 7084.000000
298.146100 1118480.000000
299.149200 165404.000000
300.151700 16068.000000
316.156800 695644.000000
317.159800 109744.000000
318.162500 12972.000000

>ms2peaks
161.084500 7372.000000
175.076300 26480.000000
181.065700 15252.000000
187.076400 59812.000000
188.079600 6564.000000
189.091600 7332.000000
195.080900 5936.000000
197.060800 7968.000000
199.076200 16196.000000
201.091800 4900.000000
202.088100 12848.000000
203.093800 5424.000000
212.108500 7140.000000
213.092200 27952.000000
213.115100 4908.000000
214.095700 4372.000000
215.107900 5372.000000
224.108000 20004.000000
225.092400 11360.000000
225.112900 4964.000000
226.089000 6124.000000
227.107200 7340.000000
228.103800 5924.000000
228.139200 7392.000000
229.087600 6784.000000
239.107800 7348.000000
240.103500 9376.000000
241.087300 30252.000000
241.111600 231888.000000
242.091900 6264.000000
242.115200 38564.000000
243.122700 5292.000000
252.103500 8180.000000
254.119000 5336.000000
255.102900 9904.000000
255.125900 5204.000000
256.135200 232652.000000
257.138100 33788.000000
266.119400 7732.000000
267.104000 4600.000000
269.106400 4924.000000
270.114100 10172.000000
270.150300 11504.000000
280.134700 12192.000000
283.122200 10652.000000
298.146200 747044.000000
299.149400 102304.000000
300.152600 10996.000000
316.156700 45944.000000
317.159500 8504.000000

>ms2peaks
115.054800 2752.000000
128.062500 2280.000000
129.070400 3584.000000
131.049500 5356.000000
131.085500 2332.000000
132.057400 3080.000000
132.080900 5472.000000
133.065600 2092.000000
133.088100 2552.000000
137.060600 2728.000000
141.070100 5256.000000
143.049500 2500.000000
144.057900 3328.000000
145.065200 2552.000000
148.075400 2212.000000
151.076100 1644.000000
152.062500 3464.000000
153.070100 13272.000000
154.075800 1884.000000
155.086100 3408.000000
157.065400 3996.000000
158.073000 2244.000000
159.044800 4876.000000
159.080800 10912.000000
160.051700 5336.000000
160.077300 4148.000000
161.060000 8004.000000
161.084100 7480.000000
165.070700 4756.000000
166.077400 1764.000000
167.085400 5404.000000
168.057400 1952.000000
169.065500 6684.000000
170.071200 3780.000000
171.081000 6192.000000
172.052500 4860.000000
172.085500 2960.000000
173.084500 2468.000000
174.068300 3676.000000
174.092000 6088.000000
175.076100 60252.000000
176.079100 7796.000000
178.078000 1724.000000
179.086000 4488.000000
181.065600 34704.000000
181.089200 4396.000000
182.070900 6508.000000
182.096800 3304.000000
183.080200 6268.000000
184.052500 3120.000000
184.086600 2000.000000
184.112400 2552.000000
185.060100 3632.000000
185.096800 3180.000000
186.068500 3044.000000
187.076100 47784.000000
188.078300 5784.000000
189.091800 5668.000000
193.066100 2764.000000
194.072100 1824.000000
194.097300 1640.000000
195.081500 9724.000000
196.086800 5080.000000
196.113000 6180.000000
197.060700 7636.000000
197.093400 3368.000000
197.118200 1744.000000
198.068400 6968.000000
198.092200 9504.000000
199.076200 39924.000000
200.081100 7104.000000
201.091300 5568.000000
202.087300 19100.000000
203.094200 7084.000000
207.080700 4264.000000
208.087800 2804.000000
209.060300 2248.000000
209.085800 2748.000000
210.068400 5196.000000
210.092100 7892.000000
211.075600 5372.000000
211.098400 4312.000000
212.082800 4548.000000
212.108400 64092.000000
213.091800 32972.000000
213.115200 38208.000000
214.094700 6012.000000
214.119300 4500.000000
215.107700 10480.000000
216.107500 1992.000000
217.086200 2368.000000
220.114500 1956.000000
221.085600 5092.000000
222.092100 3176.000000
223.076800 2696.000000
223.099200 4380.000000
224.082800 4548.000000
224.108000 21384.000000
225.091700 22152.000000
225.114600 8808.000000
226.062600 1940.000000
226.087800 34492.000000
226.122000 3040.000000
227.094600 10924.000000
227.105100 10700.000000
227.129600 2844.000000
228.103300 13536.000000
228.139800 10944.000000
229.086800 3424.000000
229.105700 2624.000000
229.141300 2360.000000
230.118100 1632.000000
235.076600 2012.000000
237.093200 1676.000000
238.088800 1592.000000
238.123800 5232.000000
239.072200 2392.000000
239.106000 8368.000000
239.126600 1940.000000
240.103500 32248.000000
241.086400 18292.000000
241.111100 316904.000000
242.115600 45508.000000
243.122300 6744.000000
248.107700 3516.000000
249.114800 5028.000000
250.086100 1716.000000
251.097000 1604.000000
252.079400 1816.000000
252.103100 6528.000000
254.083200 3304.000000
254.119400 15244.000000
255.101200 6660.000000
255.125900 9252.000000
256.134700 138432.000000
257.137600 21200.000000
258.139200 2052.000000
264.103000 2500.000000
265.111200 6068.000000
266.118600 13120.000000
267.103000 2688.000000
267.122300 4132.000000
268.098900 6680.000000
269.105200 5648.000000
270.113800 11272.000000
270.150000 7208.000000
271.116500 2232.000000
280.135500 5440.000000
281.136800 1816.000000
282.113900 7784.000000
283.121400 8968.000000
298.145400 85988.000000
299.148700 15224.000000
316.156500 1952.000000

>ms2peaks
115.055200 6860.000000
116.061200 808.000000
117.058700 888.000000
118.066500 1048.000000
120.081200 908.000000
127.055600 1276.000000
128.063000 7456.000000
129.069900 5952.000000
130.042100 732.000000
130.076100 856.000000
131.049700 10828.000000
131.074200 968.000000
131.086300 2148.000000
132.057400 7880.000000
132.081100 7784.000000
133.064400 2704.000000
133.088600 2064.000000
136.077600 900.000000
137.060800 1608.000000
139.055700 984.000000
141.070400 11076.000000
142.076400 2712.000000
143.049800 2092.000000
143.085600 1192.000000
144.057600 7976.000000
144.081800 1744.000000
145.065200 4528.000000
145.087500 748.000000
146.037400 3148.000000
146.071900 1036.000000
147.044200 1404.000000
148.051900 1028.000000
148.075900 1572.000000
151.075800 1172.000000
152.063400 9364.000000
153.070800 21424.000000
154.075100 4760.000000
155.050600 3804.000000
155.086400 6216.000000
156.057300 2096.000000
156.080900 1544.000000
156.090100 1260.000000
157.065900 4992.000000
157.089500 880.000000
158.073500 4544.000000
158.096000 1424.000000
159.045200 6988.000000
159.081200 11216.000000
160.052400 11196.000000
160.076700 7316.000000
161.060000 5884.000000
161.083900 2844.000000
162.064500 1696.000000
165.070800 11220.000000
166.077300 3740.000000
167.049600 700.000000
167.086200 6848.000000
168.058200 4164.000000
168.082500 6316.000000
169.065800 8856.000000
169.088900 7020.000000
170.036900 816.000000
170.072900 6576.000000
170.097600 8688.000000
171.044600 2304.000000
171.081300 8732.000000
171.102100 1328.000000
172.052700 8236.000000
172.086800 3176.000000
173.059100 1976.000000
173.084700 3468.000000
174.068900 3008.000000
174.092400 4576.000000
175.076600 53928.000000
176.080000 6416.000000
177.071200 1940.000000
178.078700 3264.000000
179.061000 784.000000
179.086000 6392.000000
180.057000 1420.000000
180.081900 3052.000000
181.066100 23108.000000
181.090100 18280.000000
182.072400 9248.000000
182.096500 9024.000000
183.044800 3264.000000
183.080100 6796.000000
183.104100 3244.000000
184.052800 7988.000000
184.079700 3008.000000
184.113000 7784.000000
185.060300 6548.000000
185.085100 2204.000000
185.095600 3112.000000
185.119900 2032.000000
186.068400 3820.000000
186.093100 1032.000000
187.076400 13620.000000
187.112800 1724.000000
188.073900 3936.000000
189.074600 1300.000000
189.091300 1680.000000
190.079400 956.000000
191.089500 792.000000
193.066100 2920.000000
194.073000 3364.000000
194.098200 5056.000000
195.081900 8784.000000
195.104500 3484.000000
196.053800 1680.000000
196.113500 6772.000000
197.061300 5916.000000
197.085000 13880.000000
197.120000 1740.000000
198.068200 11188.000000
198.092600 26388.000000
199.076600 32532.000000
199.096400 5560.000000
200.081300 6700.000000
201.091300 3020.000000
202.088200 7708.000000
203.095000 2520.000000
205.066500 1120.000000
205.090300 1268.000000
206.073400 1380.000000
206.096900 796.000000
207.081500 3320.000000
208.052400 804.000000
208.078900 3112.000000
208.112600 1524.000000
209.061500 2604.000000
209.085200 4212.000000
209.119700 904.000000
210.068500 7800.000000
210.092600 12672.000000
210.127600 940.000000
211.076200 8156.000000
211.099900 8064.000000
212.073400 7180.000000
212.108900 138544.000000
213.091100 13724.000000
213.114600 42048.000000
214.064600 1152.000000
214.089200 4880.000000
214.119000 5512.000000
215.097600 3376.000000
215.106300 3472.000000
216.104700 992.000000
218.099200 932.000000
220.113100 2884.000000
221.084600 5276.000000
222.092900 5444.000000
223.076700 2460.000000
223.100000 4676.000000
224.048900 756.000000
224.083600 5148.000000
224.108300 12600.000000
225.055500 1100.000000
225.089900 10724.000000
225.114700 6480.000000
226.088100 76176.000000
227.071000 1260.000000
227.093300 15508.000000
227.129400 1876.000000
228.103000 10016.000000
228.139800 4216.000000
229.091900 864.000000
229.108300 1788.000000
230.119200 2100.000000
233.086000 724.000000
234.069600 696.000000
234.093400 2168.000000
235.076400 1116.000000
236.078600 984.000000
236.109300 2480.000000
237.081700 812.000000
237.115200 2140.000000
238.087700 4200.000000
238.125000 5452.000000
239.071100 1912.000000
239.096200 8028.000000
239.124500 1124.000000
240.104000 47252.000000
241.111800 108324.000000
242.094800 1092.000000
242.116000 20848.000000
243.092300 732.000000
243.122400 2128.000000
247.101100 836.000000
248.109600 2588.000000
249.116300 1280.000000
250.088400 2524.000000
251.096200 1176.000000
252.080300 1044.000000
252.104600 2468.000000
253.076400 728.000000
254.082700 4180.000000
254.119900 13728.000000
255.092200 3380.000000
255.125800 4092.000000
256.135600 18560.000000
257.138500 2948.000000
264.104300 4336.000000
265.111900 3528.000000
266.119700 7272.000000
267.098500 796.000000
267.123400 1892.000000
268.098500 6316.000000
269.104800 3036.000000
270.114900 3736.000000
270.150700 1708.000000
271.117100 856.000000
280.136500 964.000000
282.114600 5664.000000
283.121200 3404.000000
298.146500 3688.000000
299.146400 796.000000

