>compound AU64733134
>parentmass 335.1301
>ionization [M+Na]+
>formula C17H20N4S
>rt 312.380000
>profile qtof
#smiles_iso CC1=CC2=C(S1)NC3=CC=CC=C3N=C2N4CCN(CC4)C
#smiles_can CC1=CC2=C(S1)NC3=CC=CC=C3N=C2N4CCN(CC4)C
#inchikey KVWDHTXUZHCGIO-UHFFFAOYSA-N
#pubchem_id 135398745
#mb_accession AU151730,AU151731,AU151732

>ms2
133.086900 380.000000
177.111900 364.000000
221.137600 316.000000

>ms2
133.085500 1848.000000
177.113400 1172.000000
215.128800 324.000000

>ms2
133.086600 448.000000
215.126200 392.000000

