>compound AU64475503
>parentmass 202.0854
>ionization [M+H]+
>formula C7H12ClN5
>rt 428.052000
>profile qtof
#smiles_iso CCNC1=NC(=NC(=N1)Cl)NCC
#smiles_can CCNC1=NC(=NC(=N1)Cl)NCC
#inchikey ODCWYMIRDDJXKW-UHFFFAOYSA-N
#pubchem_id 5216
#mb_accession AU314101,AU314102,AU314103,AU314105,AU314106

>ms2peaks
131.048000 888.000000
144.055200 8640.000000
145.063500 112604.000000
146.066400 12300.000000
147.070500 868.000000

>ms2peaks
124.085900 5176.000000
132.031500 6952.000000
138.077300 516.000000
166.108000 2220.000000
167.107500 320.000000
174.053400 2996.000000
202.084800 21276.000000
203.086600 2308.000000
204.082000 4768.000000
205.083700 404.000000

>ms2peaks
124.086500 1812.000000
132.031200 2484.000000
138.077400 576.000000
146.020300 496.000000
166.106600 936.000000
174.053200 996.000000
175.053200 180.000000
176.049700 504.000000
202.083800 1628.000000

>ms2peaks
131.046600 364.000000
143.049000 304.000000
144.055600 5708.000000
145.063700 31180.000000
146.066600 3272.000000

>ms2peaks
61.978600 4940.000000
67.053400 2340.000000
68.024100 53308.000000
71.060000 90100.000000
72.063200 2668.000000
79.005300 6200.000000
81.002500 2056.000000
81.069400 3220.000000
90.010500 5028.000000
95.086100 2640.000000
96.056300 66488.000000
97.059000 2860.000000
104.002100 36856.000000
105.999300 8880.000000
124.086800 90744.000000
125.089500 4788.000000
132.031800 108360.000000
133.034700 5096.000000
134.028900 27144.000000
138.076500 6996.000000
146.022400 4860.000000
166.108100 35280.000000
167.109800 2072.000000
174.053400 45936.000000
175.055500 1924.000000
176.050600 9740.000000
202.085000 340828.000000
203.087900 26480.000000
204.082100 89336.000000

