>compound AU64424185
>parentmass 224.03760000000003
>ionization [M+H]+
>formula C10H9NO3S
>rt 170.720000
>profile qtof
#smiles_iso C1=CC2=C(C=CC(=C2)S(=O)(=O)O)C(=C1)N
#smiles_can C1=CC2=C(C=CC(=C2)S(=O)(=O)O)C(=C1)N
#inchikey UWPJYQYRSWYIGZ-UHFFFAOYSA-N
#pubchem_id 8408
#mb_accession AU239001,AU239002,AU239003,AU239004,AU239005,AU239006

>ms2peaks
143.071600 1172.000000
224.035900 4536.000000
225.040400 776.000000

>ms2peaks
165.053600 468.000000

>ms2peaks
115.053700 408.000000
142.063000 316.000000
143.071800 4272.000000
144.075500 660.000000

>ms2peaks
115.052900 608.000000
143.071400 2840.000000
144.075200 344.000000

>ms2peaks
115.054700 692.000000
116.061100 312.000000
143.072000 832.000000

>ms2peaks
143.071700 5024.000000
144.075900 744.000000
165.051000 480.000000
224.038200 1108.000000

