>compound AU64133951
>parentmass 361.2248
>ionization [M+H]+
>formula C21H30NO4+
>rt 330.360000
>profile qtof
#smiles_iso CCCC[N+]1([C@H]2CC(C[C@H]1[C@H]3[C@@H]2O3)OC(=O)C(CO)C4=CC=CC=C4)C
#smiles_can CCCC[N+]1(C2CC(CC1C3C2O3)OC(=O)C(CO)C4=CC=CC=C4)C
#inchikey YBCNXCRZPWQOBR-FAQYLHNASA-N
#pubchem_id 9004
#mb_accession AU251501,AU251502,AU251503,AU251504,AU251505,AU251506

>ms2peaks
360.219300 2544.000000
361.220900 672.000000

>ms2peaks
156.100500 420.000000
194.151700 436.000000
360.214600 2444.000000
361.221200 1216.000000

>ms2peaks
120.079100 796.000000
121.063800 4868.000000
122.065800 356.000000
122.095900 2008.000000
138.090000 18080.000000
139.093100 1968.000000
140.105800 1448.000000
154.084300 356.000000
154.120100 1644.000000
156.100300 13048.000000
157.104100 1204.000000
194.152700 24616.000000
195.155800 2908.000000
212.162900 5132.000000
213.165900 464.000000
288.158700 1100.000000
304.154600 2296.000000
305.157100 460.000000
360.216500 27936.000000
361.219400 6504.000000

>ms2peaks
138.088400 428.000000

>ms2peaks
120.079900 1512.000000
121.063700 2836.000000
122.095500 1072.000000
123.067400 328.000000
136.073800 412.000000
136.109900 344.000000
138.089800 11304.000000
139.094100 1788.000000
140.105600 680.000000
154.084100 332.000000
154.119300 424.000000
156.100100 3520.000000
157.102500 556.000000
194.151900 3632.000000
195.155100 580.000000

>ms2peaks
138.089700 520.000000
194.151300 592.000000
360.217000 1348.000000
361.221600 356.000000

