>compound AU64826625
>parentmass 277.0795
>ionization [M+H]+
>formula C11H11F3N2O3
>rt 670.230000
>profile qtof
#smiles_iso CC(C)C(=O)NC1=CC(=C(C=C1)[N+](=O)[O-])C(F)(F)F
#smiles_can CC(C)C(=O)NC1=CC(=C(C=C1)[N+](=O)[O-])C(F)(F)F
#inchikey MKXKFYHWDHIYRV-UHFFFAOYSA-N
#pubchem_id 3397
#mb_accession AU235001,AU235002,AU235003,AU235004,AU235005,AU235006

>ms2
165.068900 110832.000000
277.078500 2510944.000000

>ms2
125.014400 18624.000000
165.069000 1738292.000000
166.072400 182392.000000
167.075300 9236.000000
199.030200 178732.000000
200.033700 22068.000000
201.027100 45332.000000
249.046200 14884.000000
262.054100 11544.000000
277.077700 1114988.000000
278.081100 216272.000000

>ms2
125.014300 29920.000000
164.060600 23296.000000
165.069000 2502252.000000
166.072200 322140.000000
167.075500 13040.000000
199.030100 434980.000000
200.033200 57388.000000
201.027200 108020.000000
215.084400 39968.000000
226.077000 41432.000000
227.083300 17392.000000
239.085000 84752.000000
249.045800 18724.000000
262.053700 26948.000000
277.077100 38372.000000

>ms2
125.014500 19136.000000
139.053000 23624.000000
163.052900 41684.000000
164.060800 100628.000000
165.069200 2430684.000000
166.072300 283252.000000
168.055800 15552.000000
199.030100 486608.000000
200.033500 57252.000000
201.027400 112732.000000
215.084900 93868.000000
216.088100 15552.000000
226.077000 127828.000000
227.082800 39492.000000
239.085200 415984.000000
249.045900 13624.000000
262.053500 24124.000000

>ms2
115.053900 16540.000000
125.014500 8424.000000
139.053200 48780.000000
163.053100 119036.000000
164.060800 241084.000000
165.068900 1682536.000000
166.072300 162324.000000
168.055900 33356.000000
196.050800 17684.000000
199.030200 236348.000000
200.033400 31288.000000
201.027400 66324.000000
202.076800 23480.000000
213.069100 11744.000000
215.084800 101004.000000
216.088000 17972.000000
226.077300 169524.000000
227.081900 36220.000000
239.085200 778052.000000

>ms2
125.015500 24504.000000
164.061200 6664.000000
165.069600 1236892.000000
166.072600 150388.000000
199.030600 208820.000000
200.033900 25532.000000
201.027700 49208.000000
215.085000 18596.000000
226.077200 16464.000000
227.084500 6720.000000
239.085000 35420.000000
249.046600 13520.000000
262.053900 14624.000000
277.078400 370572.000000

