>compound AU64040352
>parentmass 216.10100000000003
>ionization [M+H]+
>formula C8H14ClN5
>rt 481.650000
>profile qtof
#smiles_iso CCNC1=NC(=NC(=N1)Cl)NC(C)C
#smiles_can CCNC1=NC(=NC(=N1)Cl)NC(C)C
#inchikey MXWJVTOOROXGIU-UHFFFAOYSA-N
#pubchem_id 2256
#mb_accession AU310901,AU310902,AU310903,AU310904,AU310905,AU310906

>ms2
174.053100 42352.000000
175.055700 2688.000000
176.050100 11284.000000
177.053600 616.000000
216.100600 1023928.000000
217.103300 70148.000000
218.097600 236196.000000
219.100300 10568.000000

>ms2
132.031600 32972.000000
133.033100 1540.000000
134.028500 9864.000000
138.076600 12040.000000
138.101700 9256.000000
146.022000 26356.000000
147.025300 1164.000000
148.018800 7120.000000
174.053100 580184.000000
175.055700 26316.000000
176.050100 144476.000000
177.053600 3624.000000
180.123300 3816.000000
216.100500 364436.000000
217.103300 29780.000000
218.097600 92204.000000
219.100300 4436.000000

>ms2
132.031600 55888.000000
133.033100 2032.000000
134.028500 12740.000000
138.076300 21844.000000
138.101800 1184.000000
146.022000 42920.000000
147.025300 1856.000000
148.018800 14164.000000
172.037300 1020.000000
174.053100 184844.000000
175.055700 9048.000000
176.050100 53960.000000
177.053600 1484.000000
180.123800 1136.000000
216.100600 12732.000000
217.103300 1404.000000
218.097400 3956.000000

>ms2
110.047600 368.000000
132.031900 11784.000000
133.034600 528.000000
134.027900 3380.000000
138.076200 6188.000000
139.078800 400.000000
146.022000 13244.000000
147.025300 768.000000
148.018800 3892.000000
159.030400 320.000000
172.037000 576.000000
174.053200 11580.000000
175.055900 848.000000
176.050100 4276.000000

>ms2
132.031900 1032.000000
138.076000 752.000000
146.021700 1844.000000
174.053700 508.000000

>ms2
46.065200 2852.000000
61.978400 3092.000000
68.024000 71524.000000
71.060000 43008.000000
72.044100 44492.000000
79.005700 94476.000000
81.002600 21472.000000
85.076000 3696.000000
90.010300 3752.000000
96.056100 158636.000000
97.059400 3732.000000
104.002300 81744.000000
105.999500 17916.000000
110.047500 6144.000000
132.032700 61972.000000
134.029600 15872.000000
138.077400 27732.000000
138.102800 9840.000000
146.022800 59940.000000
146.048600 6060.000000
148.019700 13608.000000
174.054100 526576.000000
175.056500 27352.000000
176.051300 139168.000000
180.124800 4064.000000
188.068900 3356.000000
216.101400 444744.000000
217.103900 38484.000000
218.098700 112600.000000

