>compound AU64552781
>parentmass 233.1648
>ionization [M+H]+
>formula C14H20N2O
>rt 280.800000
>profile qtof
#smiles_iso CCC(=O)N(C1CCNCC1)C2=CC=CC=C2
#smiles_can CCC(=O)N(C1CCNCC1)C2=CC=CC=C2
#inchikey PMCBDBWCQQBSRJ-UHFFFAOYSA-N
#pubchem_id 259381
#mb_accession AU155201,AU155202,AU155203,AU155204,AU155205

>ms2
150.090200 9436.000000
177.137600 17428.000000
233.164800 1698988.000000
235.170400 15728.000000

>ms2
132.079500 2816.000000
150.090200 58164.000000
155.069100 1544.000000
173.080000 1876.000000
177.137600 55808.000000
178.140500 6724.000000
216.137500 8780.000000
217.106400 1240.000000
217.140100 1704.000000
233.164300 239612.000000

>ms2
117.056600 464.000000
120.079700 1108.000000
132.079700 4900.000000
133.083200 588.000000
146.095700 556.000000
150.090100 22268.000000
152.096300 352.000000
155.070100 976.000000
160.109900 360.000000
173.079200 852.000000
177.137600 5008.000000
178.140700 740.000000
216.137500 1484.000000
233.164100 3816.000000

>ms2
117.057100 404.000000
120.080800 844.000000
132.079600 2580.000000
150.090400 3684.000000

>ms2
130.065300 404.000000
132.080100 396.000000
150.089700 544.000000

