>compound AU65810074
>parentmass 139.1117
>ionization [M+H]+
>formula C9H14O
>rt 429.450000
>profile qtof
#smiles_iso CC1=CC(=O)CC(C1)(C)C
#smiles_can CC1=CC(=O)CC(C1)(C)C
#inchikey HJOVHMDZYOCNQW-UHFFFAOYSA-N
#pubchem_id 6544
#mb_accession AU250701,AU250706

>ms2
139.110800 7632.000000
140.113600 752.000000

>ms2
69.032900 948.000000
139.110500 1616.000000

