>compound AU65098790
>parentmass 387.253
>ionization [M+H]+
>formula C24H34O4
>rt 657.140000
>profile qtof
#smiles_iso C[C@H]1C[C@@H]2[C@H](CC[C@]3([C@H]2CC[C@@]3(C(=O)C)OC(=O)C)C)[C@@]4(C1=CC(=O)CC4)C
#smiles_can CC1CC2C(CCC3(C2CCC3(C(=O)C)OC(=O)C)C)C4(C1=CC(=O)CC4)C
#inchikey PSGAAPLEWMOORI-PEINSRQWSA-N
#pubchem_id 6279
#mb_accession AU281301,AU281302,AU281303,AU281304,AU281305,AU281306

>ms2peaks
267.173200 15472.000000
285.220800 43260.000000
325.215500 61980.000000
326.219400 19776.000000
327.231700 334208.000000
328.234900 67492.000000
385.237600 359364.000000
386.240800 118136.000000
387.253300 2264968.000000
388.256400 539304.000000
389.259100 59740.000000

>ms2peaks
123.079800 116248.000000
124.083200 11384.000000
133.099900 6968.000000
135.079000 4964.000000
137.095400 25368.000000
145.100100 15372.000000
147.115900 12496.000000
151.110800 5608.000000
157.100100 5904.000000
159.115800 8420.000000
161.094300 5960.000000
161.131400 7188.000000
163.110900 7448.000000
169.099900 7272.000000
171.115700 18516.000000
173.131500 25200.000000
175.110700 18668.000000
175.147200 31612.000000
177.126000 11608.000000
183.116000 6692.000000
185.131700 7972.000000
187.111000 16504.000000
187.147600 15064.000000
189.126300 12440.000000
191.142200 8984.000000
197.131900 10032.000000
199.147300 13376.000000
201.162500 4560.000000
203.142500 12292.000000
205.158000 54608.000000
206.161200 8896.000000
209.131200 4836.000000
211.146800 9516.000000
213.126300 4972.000000
213.162800 8372.000000
214.134300 10468.000000
215.142100 19596.000000
217.157900 17284.000000
223.147800 11308.000000
224.155200 31964.000000
225.162300 32796.000000
226.166700 5648.000000
227.142400 5256.000000
227.178800 11636.000000
229.158300 4988.000000
231.173900 7512.000000
239.142900 7828.000000
241.158000 12480.000000
243.174000 9504.000000
245.189400 14064.000000
249.162700 9744.000000
251.178200 7096.000000
253.158600 5044.000000
255.174000 21148.000000
256.177900 5708.000000
257.153600 44048.000000
258.156600 9088.000000
263.179300 5100.000000
265.194800 40300.000000
266.200600 19704.000000
267.174400 128016.000000
267.210500 72292.000000
268.177300 34708.000000
268.213600 15612.000000
269.188400 13940.000000
281.189300 15848.000000
282.197100 35456.000000
283.205200 81360.000000
284.211200 30492.000000
285.221500 424280.000000
286.224700 76408.000000
287.227400 7812.000000
291.210600 13924.000000
303.232000 6420.000000
307.205600 18992.000000
308.208900 6160.000000
309.221400 104600.000000
310.224300 26200.000000
325.216400 154296.000000
326.219700 45780.000000
327.232500 905544.000000
328.235700 174672.000000
329.238000 18892.000000
345.242300 12692.000000
385.237900 63416.000000
386.240300 25928.000000
387.253700 547916.000000
388.256800 125440.000000
389.259600 14632.000000

>ms2peaks
117.069500 2112.000000
119.084700 11008.000000
121.064000 5020.000000
121.100500 8336.000000
123.079800 280028.000000
124.083200 22768.000000
128.061200 1424.000000
129.069600 2292.000000
131.084500 11704.000000
133.100300 28052.000000
134.104100 3540.000000
135.079800 9148.000000
135.115900 10676.000000
137.095300 63388.000000
138.098200 6000.000000
139.110300 1496.000000
141.068400 1452.000000
142.076600 1988.000000
143.084400 10372.000000
145.100200 48152.000000
146.103900 5092.000000
147.079600 4228.000000
147.115800 37112.000000
148.118800 3852.000000
149.095000 7584.000000
149.131200 5724.000000
151.110600 8100.000000
155.084200 5384.000000
156.091100 1664.000000
157.099800 21348.000000
158.104100 3964.000000
159.079300 2208.000000
159.115700 34572.000000
160.119500 4604.000000
161.094800 15224.000000
161.131400 28996.000000
162.135400 3788.000000
163.110700 14556.000000
163.147200 8744.000000
164.114600 1968.000000
164.150200 1408.000000
165.127200 2276.000000
167.083300 1408.000000
169.100200 18308.000000
170.104100 4176.000000
171.115600 42628.000000
172.119200 7048.000000
173.094600 7604.000000
173.131500 65996.000000
174.135700 10560.000000
175.110600 41944.000000
175.147100 89472.000000
176.114700 7116.000000
176.150800 12808.000000
177.126400 20904.000000
177.162300 2532.000000
178.129100 2704.000000
181.100200 3788.000000
182.108400 1520.000000
183.115900 24464.000000
184.120400 4908.000000
185.094800 3796.000000
185.131400 21984.000000
186.135600 3908.000000
187.110700 32508.000000
187.147300 29832.000000
188.114500 5568.000000
188.151200 4764.000000
189.126800 28676.000000
189.162500 8872.000000
190.129900 4060.000000
190.165600 1916.000000
191.141800 15596.000000
192.144900 2988.000000
193.100800 1604.000000
194.108400 1864.000000
195.116500 6584.000000
196.121300 2832.000000
197.131700 26152.000000
198.138100 11720.000000
199.110600 2224.000000
199.147200 35708.000000
200.152300 8600.000000
201.126700 7360.000000
201.162500 12860.000000
202.167200 2912.000000
203.142000 24888.000000
203.178300 7412.000000
204.145800 2688.000000
204.180900 1560.000000
205.158200 30468.000000
206.161700 4312.000000
207.114900 2912.000000
208.123300 1912.000000
209.131400 22056.000000
210.136500 6116.000000
211.147200 36392.000000
212.152500 7940.000000
213.126700 8332.000000
213.162800 15132.000000
214.134600 66952.000000
215.141800 45240.000000
215.178800 2816.000000
216.146300 7828.000000
217.157900 19384.000000
218.162100 3860.000000
221.131800 5664.000000
222.138200 1900.000000
223.147200 25660.000000
224.155500 118380.000000
225.161800 69448.000000
226.166400 14636.000000
227.142600 7112.000000
227.178700 27860.000000
228.147000 1600.000000
228.181200 4408.000000
229.158800 5752.000000
230.161800 1584.000000
231.173900 4812.000000
233.152300 2536.000000
234.139300 3168.000000
235.146400 6280.000000
236.154000 2464.000000
237.163000 10728.000000
238.167900 4596.000000
239.142700 9396.000000
239.178400 7792.000000
240.147300 2528.000000
240.183200 1968.000000
241.157600 16440.000000
241.194400 3232.000000
242.162200 4508.000000
243.173300 11608.000000
244.176900 2840.000000
245.188700 6952.000000
246.193400 1868.000000
247.147500 2084.000000
249.163400 16944.000000
250.166600 5964.000000
251.143100 2196.000000
251.179200 14056.000000
252.147600 1556.000000
252.184200 3612.000000
253.157200 7880.000000
254.162700 1668.000000
255.173700 13508.000000
256.177400 4076.000000
257.153400 38780.000000
257.189500 2520.000000
258.157400 7408.000000
263.178900 4900.000000
264.185900 6624.000000
265.158600 3608.000000
265.194800 32192.000000
266.164900 3200.000000
266.202000 29836.000000
267.174100 90448.000000
267.210400 110196.000000
268.177300 23120.000000
268.213600 21732.000000
269.189000 16952.000000
269.215000 1820.000000
270.193100 4220.000000
281.189300 17944.000000
281.225600 1872.000000
282.197300 67460.000000
283.204700 76188.000000
284.212100 48560.000000
285.221400 252012.000000
286.224400 47068.000000
287.228100 5152.000000
289.195000 2600.000000
291.210500 12324.000000
292.180500 1440.000000
292.213200 3080.000000
301.216200 1792.000000
303.231800 13212.000000
304.234400 3236.000000
307.205600 10712.000000
308.207900 3564.000000
309.221200 52476.000000
310.224400 14288.000000
311.227700 1448.000000
325.216100 27532.000000
326.219800 10632.000000
327.232200 92992.000000
328.234900 22880.000000
329.237300 3208.000000
345.242500 4176.000000
387.253100 12584.000000
388.255700 4144.000000

>ms2peaks
115.053400 2716.000000
117.068800 5712.000000
119.084600 19380.000000
120.087900 2640.000000
121.064000 4660.000000
121.100000 8720.000000
123.079600 251048.000000
124.082800 22000.000000
128.060900 3860.000000
129.068000 6976.000000
130.076200 3148.000000
131.084200 24500.000000
132.088000 2992.000000
133.063200 1744.000000
133.100000 34844.000000
134.103900 5640.000000
135.079200 9884.000000
135.115600 9996.000000
137.094700 57992.000000
138.098100 4876.000000
141.068200 3480.000000
142.076100 5912.000000
143.084000 20880.000000
144.090000 5304.000000
145.099800 61948.000000
146.103400 8268.000000
147.078800 5476.000000
147.115300 55348.000000
148.118700 5860.000000
149.094100 7780.000000
149.130400 5172.000000
151.110200 4204.000000
153.068400 1440.000000
154.075200 1480.000000
155.083800 9696.000000
156.091600 7760.000000
157.099400 32772.000000
158.104300 5496.000000
159.078300 4796.000000
159.115300 41168.000000
160.085800 2192.000000
160.119500 6740.000000
161.094400 16476.000000
161.131000 40116.000000
162.098900 3108.000000
162.134800 4596.000000
163.109800 9528.000000
163.146400 6460.000000
165.068300 1296.000000
167.083400 3576.000000
168.090600 3360.000000
169.099400 24136.000000
170.105300 6140.000000
171.115300 43780.000000
172.085800 2116.000000
172.119400 8432.000000
173.094000 9836.000000
173.130900 58072.000000
174.100900 2044.000000
174.135500 10636.000000
175.110200 35364.000000
175.146800 81676.000000
176.113600 5576.000000
176.149800 11392.000000
177.125600 13988.000000
177.160600 1420.000000
178.128800 1880.000000
179.084000 3712.000000
180.090300 2076.000000
181.099300 7940.000000
182.106700 4496.000000
183.115400 34144.000000
184.120300 8464.000000
185.094300 4764.000000
185.130800 27092.000000
186.102600 1404.000000
186.135400 4964.000000
187.110200 23940.000000
187.146800 20040.000000
188.149900 3216.000000
189.125800 17652.000000
189.162400 4308.000000
190.129200 2772.000000
191.141500 10724.000000
192.144800 1368.000000
193.100200 3760.000000
194.106600 5232.000000
195.115000 12704.000000
196.122000 7200.000000
197.130900 33152.000000
198.137900 18684.000000
199.109800 3392.000000
199.146400 34032.000000
200.116300 1480.000000
200.151800 7452.000000
201.126100 4888.000000
201.161900 10136.000000
202.165600 2144.000000
203.141400 7808.000000
203.178000 3288.000000
204.144900 1460.000000
205.157100 5568.000000
206.106500 1344.000000
207.115000 5328.000000
208.122900 5612.000000
209.131100 58948.000000
210.136000 19368.000000
211.109900 2636.000000
211.146400 49580.000000
212.151600 11908.000000
213.125700 7444.000000
213.162100 13000.000000
214.133800 83532.000000
215.140200 36052.000000
215.177400 2904.000000
216.144700 5036.000000
217.156400 5676.000000
219.115500 1828.000000
220.123000 2264.000000
221.130700 6792.000000
222.139000 7880.000000
223.146700 29764.000000
224.154400 111228.000000
225.126100 3096.000000
225.161000 59776.000000
226.131000 1628.000000
226.166000 12060.000000
227.141000 3732.000000
227.178200 19124.000000
228.147800 1448.000000
228.181700 4172.000000
229.157300 3880.000000
233.129900 1564.000000
233.151800 1688.000000
234.139100 6580.000000
235.145400 7028.000000
236.153300 4272.000000
237.125900 1848.000000
237.161900 9728.000000
238.132200 1340.000000
238.167800 5224.000000
239.141100 6632.000000
239.177800 6304.000000
240.147700 1964.000000
240.181800 2040.000000
241.156900 8220.000000
241.193200 2984.000000
242.161600 2156.000000
243.172800 3388.000000
245.189500 1308.000000
247.146000 2164.000000
248.153800 1768.000000
249.162600 18012.000000
250.168100 6520.000000
251.141500 3412.000000
251.177400 13804.000000
252.148300 2788.000000
252.183600 4772.000000
253.156500 4640.000000
254.163700 1796.000000
255.173000 3268.000000
256.178900 1444.000000
257.152200 5088.000000
258.157100 1368.000000
263.177300 2272.000000
264.184600 3040.000000
265.157000 2728.000000
265.193700 13960.000000
266.166000 3184.000000
266.201100 19372.000000
267.173000 62808.000000
267.209400 33668.000000
268.176800 17088.000000
268.212000 8484.000000
269.188900 14528.000000
270.192100 3356.000000
281.189000 10304.000000
282.196400 37628.000000
283.202500 18960.000000
284.211100 16100.000000
285.219900 30952.000000
286.222800 6208.000000
291.209900 2244.000000
294.196300 1332.000000
295.166600 1616.000000
303.230800 3520.000000
307.203500 1992.000000
309.219900 7132.000000
310.191700 2824.000000
310.223300 1716.000000
325.215300 2892.000000
327.232200 2740.000000

>ms2peaks
115.053600 6524.000000
116.060100 1496.000000
117.069000 8352.000000
118.073400 1284.000000
119.084800 26452.000000
120.088200 2344.000000
121.064100 4804.000000
121.100300 6408.000000
123.079700 163784.000000
124.082900 14224.000000
127.054800 920.000000
128.061100 10708.000000
129.068800 16744.000000
130.076000 7264.000000
131.084600 35712.000000
132.089200 5416.000000
133.063400 3112.000000
133.100200 34396.000000
134.104100 4880.000000
135.079200 7804.000000
135.115700 4932.000000
136.083400 984.000000
137.095300 38868.000000
138.098300 4032.000000
141.068500 9924.000000
142.076400 14528.000000
143.084300 27640.000000
144.090900 8776.000000
145.063800 3156.000000
145.100300 56140.000000
146.070400 1700.000000
146.103600 9024.000000
147.079300 5676.000000
147.115800 48848.000000
148.084700 940.000000
148.119200 6388.000000
149.094600 3848.000000
149.131600 2940.000000
151.110800 1864.000000
152.061200 1316.000000
153.068400 4132.000000
154.076400 4612.000000
155.084300 16828.000000
156.091600 13944.000000
157.099800 33528.000000
158.071100 1488.000000
158.105900 6880.000000
159.079200 5976.000000
159.115500 31644.000000
160.086300 4028.000000
160.121200 7876.000000
161.094600 11492.000000
161.131300 26792.000000
162.100600 2796.000000
162.134700 4148.000000
163.110800 4376.000000
163.147200 1952.000000
164.112600 832.000000
165.069000 3512.000000
166.075500 2312.000000
167.084100 10256.000000
168.091200 6808.000000
169.099900 30636.000000
170.105700 9404.000000
171.078800 3852.000000
171.115400 31772.000000
172.086600 4668.000000
172.120300 6180.000000
173.094900 9900.000000
173.131300 30328.000000
174.100200 2936.000000
174.136800 7504.000000
175.110700 19768.000000
175.147200 33916.000000
176.113600 3760.000000
176.150500 5520.000000
177.126900 5420.000000
178.076900 1908.000000
179.084200 10052.000000
180.091400 5616.000000
181.100000 12336.000000
182.106800 7848.000000
183.115700 39684.000000
184.120800 9836.000000
185.094600 3452.000000
185.131200 19956.000000
186.100900 1580.000000
186.135200 4452.000000
187.110700 14008.000000
187.146900 7988.000000
188.151900 1572.000000
189.126400 7180.000000
189.162200 1532.000000
190.132800 1244.000000
191.141900 3664.000000
192.092300 2524.000000
193.100000 9668.000000
194.108000 14288.000000
195.115300 19636.000000
196.121900 10664.000000
197.131600 28404.000000
198.102400 1152.000000
198.137300 11972.000000
199.110300 5188.000000
199.146600 19600.000000
200.116900 2968.000000
200.151300 4380.000000
201.126300 2512.000000
201.161900 3988.000000
202.166500 928.000000
203.142100 1816.000000
205.099900 1900.000000
205.157900 1084.000000
206.107300 3156.000000
207.116100 8232.000000
208.123100 8928.000000
209.131700 91576.000000
210.136400 26532.000000
211.111200 5264.000000
211.147200 37432.000000
212.116300 2072.000000
212.151600 8192.000000
213.126400 7056.000000
213.162500 5728.000000
214.134500 74572.000000
215.139500 18248.000000
215.179000 992.000000
216.147500 2304.000000
217.158800 1136.000000
219.116600 3876.000000
220.122700 3248.000000
221.131100 7036.000000
222.139000 5112.000000
223.147300 27808.000000
224.154700 42548.000000
225.125900 3644.000000
225.161400 25280.000000
226.134900 2180.000000
226.167100 5884.000000
227.142200 1840.000000
227.178900 9944.000000
228.148200 1108.000000
228.181900 2172.000000
229.157500 1024.000000
232.122200 948.000000
233.131600 2636.000000
233.152500 908.000000
234.139200 5944.000000
235.146300 6232.000000
236.153700 3084.000000
237.125200 2036.000000
237.163100 7528.000000
238.133000 1804.000000
238.169300 4280.000000
239.142600 5024.000000
239.178400 3756.000000
240.148500 2348.000000
240.182300 1024.000000
241.157000 2452.000000
241.192600 1368.000000
242.161500 976.000000
243.173500 1472.000000
247.147100 1080.000000
248.154000 1412.000000
249.163100 13116.000000
250.167800 5632.000000
251.143200 6188.000000
251.178600 16216.000000
252.148900 2992.000000
252.183600 4452.000000
253.157900 4192.000000
253.189700 1212.000000
254.165600 1500.000000
255.172800 960.000000
259.147000 988.000000
261.160500 820.000000
263.179300 1544.000000
264.185900 1196.000000
265.157000 2764.000000
265.194000 4992.000000
266.165300 1740.000000
266.201500 8780.000000
267.174000 50232.000000
267.209100 8032.000000
268.177200 13504.000000
268.213300 1368.000000
269.189000 8600.000000
270.194500 2020.000000
277.159700 1112.000000
279.174500 1012.000000
281.189600 3236.000000
282.196800 7688.000000
283.202100 3644.000000
284.210900 2512.000000
285.220500 2276.000000
295.170600 1088.000000

>ms2peaks
55.053700 1700.000000
67.053400 4704.000000
69.069000 3576.000000
79.053600 5616.000000
81.069300 10996.000000
83.048700 32316.000000
83.085400 3044.000000
85.064100 4000.000000
91.054400 3200.000000
93.069500 14036.000000
95.048900 2532.000000
95.085500 21116.000000
96.088600 2016.000000
97.065100 229616.000000
98.068500 14580.000000
99.080400 6804.000000
105.070500 8060.000000
107.086100 13024.000000
109.065600 7116.000000
109.101800 9664.000000
111.081400 13352.000000
117.070100 2260.000000
119.085700 14752.000000
121.064400 5552.000000
121.100900 9908.000000
123.080600 303104.000000
124.083600 22568.000000
129.069500 1932.000000
131.084900 8392.000000
133.100800 15308.000000
134.104400 1756.000000
135.080000 6200.000000
135.116600 6692.000000
137.095500 36300.000000
138.098500 3764.000000
143.084700 6504.000000
145.100500 24668.000000
146.103000 3040.000000
147.079500 2048.000000
147.115800 20568.000000
148.119400 2488.000000
149.095000 3824.000000
149.131300 3536.000000
151.111000 4372.000000
155.084100 3140.000000
157.099700 11028.000000
158.104400 1640.000000
159.115600 18636.000000
160.120400 2964.000000
161.094800 9196.000000
161.131300 15436.000000
162.134100 1764.000000
163.110800 7252.000000
163.147100 3848.000000
169.099800 11552.000000
170.104200 2112.000000
171.115500 23568.000000
172.119200 3636.000000
173.094300 4708.000000
173.131300 36120.000000
174.135600 5056.000000
175.110700 20728.000000
175.147100 51020.000000
176.114000 3300.000000
176.150300 6636.000000
177.126300 11860.000000
178.130700 1580.000000
181.100100 2548.000000
183.115500 12036.000000
184.120500 2748.000000
185.094600 1896.000000
185.130900 11840.000000
186.136000 2568.000000
187.110700 18756.000000
187.146800 18044.000000
188.114300 3408.000000
188.150300 2380.000000
189.126200 15628.000000
189.163200 3248.000000
190.129900 2736.000000
191.142000 7304.000000
192.146000 1692.000000
195.115100 4216.000000
197.131100 16548.000000
198.138000 5464.000000
199.110200 1648.000000
199.147000 18232.000000
200.151200 4740.000000
201.126900 3712.000000
201.162900 8692.000000
203.141800 12148.000000
203.177800 3824.000000
204.145900 1816.000000
205.157600 29912.000000
206.161300 4168.000000
207.115300 1916.000000
209.131400 14596.000000
210.137000 4104.000000
211.111100 1572.000000
211.147200 19248.000000
212.151800 4568.000000
213.125800 5072.000000
213.162700 8904.000000
214.134500 38276.000000
215.141300 26300.000000
215.178300 2016.000000
216.146200 4476.000000
217.157800 12936.000000
218.162400 1940.000000
221.131100 2320.000000
222.137700 1564.000000
223.147300 14780.000000
224.155300 59468.000000
225.161900 41140.000000
226.165700 7512.000000
227.141500 4524.000000
227.178300 15816.000000
228.182000 2532.000000
229.157100 3708.000000
231.173600 4976.000000
234.138800 1760.000000
235.147200 4000.000000
236.153000 1552.000000
237.163400 6588.000000
238.167600 2536.000000
239.142800 6008.000000
239.178200 4140.000000
241.158000 9348.000000
241.192700 2172.000000
242.161900 2492.000000
243.173700 7712.000000
245.189200 6452.000000
246.193100 1712.000000
249.162800 9980.000000
250.166600 3364.000000
251.178600 8812.000000
252.183100 1944.000000
253.157800 4200.000000
255.173600 10344.000000
256.177000 2312.000000
257.153200 26820.000000
257.189800 1608.000000
258.156300 6324.000000
263.179100 3772.000000
264.184600 2328.000000
265.159300 2504.000000
265.194300 25756.000000
266.201500 18288.000000
267.174100 69276.000000
267.210500 68620.000000
268.177000 17356.000000
268.213500 11524.000000
269.188700 12824.000000
270.192500 2296.000000
281.189600 14708.000000
282.197100 41524.000000
283.204400 51128.000000
284.211400 28348.000000
285.221300 178344.000000
286.224500 41896.000000
287.226700 3296.000000
289.196200 1616.000000
291.210700 6268.000000
292.215200 3176.000000
303.232300 8716.000000
304.235600 1684.000000
307.205300 8320.000000
308.207800 2124.000000
309.221000 49000.000000
310.224900 12580.000000
325.216300 47036.000000
326.219300 12184.000000
327.232500 176364.000000
328.235800 51308.000000
329.237100 4312.000000
345.242300 3796.000000
385.237600 11148.000000
386.239400 2932.000000
387.253400 73704.000000
388.256100 20104.000000
389.260600 2488.000000

