>compound AU65530063
>parentmass 296.07000000000005
>ionization [M+H]+
>formula C12H13N3O4S
>rt 309.970909
>profile qtof
#smiles_iso CC1=CC(=NO1)NS(=O)(=O)C2=CC=C(C=C2)NC(=O)C
#smiles_can CC1=CC(=NO1)NS(=O)(=O)C2=CC=C(C=C2)NC(=O)C
#inchikey GXPIUNZCALHVBA-UHFFFAOYSA-N
#pubchem_id 65280
#mb_accession AU201401,AU201402,AU201403,AU201404,AU201405,AU267201,AU267202,AU267203,AU267204,AU267205,AU267206

>ms2peaks
136.073900 1352.000000
188.080900 1028.000000
190.098200 572.000000
194.036500 496.000000
198.021300 1820.000000
230.091800 388.000000
232.109100 400.000000
236.048900 724.000000
296.070700 66320.000000
297.072000 9880.000000
298.066400 3240.000000

>ms2peaks
134.059100 9784.000000
135.064000 1204.000000
136.074700 6108.000000
137.077000 664.000000
146.070000 1844.000000
147.077800 1208.000000
148.085700 648.000000
150.053500 1692.000000
152.069500 552.000000
156.010400 1496.000000
160.085600 3000.000000
160.998300 764.000000
162.065200 2120.000000
174.019500 692.000000
188.080700 9200.000000
190.095900 3472.000000
191.100100 556.000000
194.037000 4284.000000
195.040100 372.000000
198.020900 20776.000000
199.024100 2104.000000
200.016500 1388.000000
202.097600 592.000000
214.095600 720.000000
218.036500 336.000000
230.093200 972.000000
232.106700 672.000000
236.047200 2484.000000
237.051500 500.000000
254.059300 468.000000
278.061100 320.000000
296.069600 20556.000000
297.071400 2900.000000
298.066000 828.000000

>ms2peaks
132.067400 472.000000
134.059100 20144.000000
140.014800 344.000000
146.070600 2360.000000
147.078400 2556.000000
148.084200 696.000000
150.053500 1216.000000
150.078500 316.000000
156.010300 2888.000000
160.086000 5000.000000
161.000600 424.000000
161.087900 700.000000
162.065200 1788.000000
163.067500 372.000000
176.025800 1140.000000
188.080400 2732.000000
189.086000 1020.000000
190.096200 888.000000
194.036900 1380.000000
195.039300 336.000000
198.020700 6436.000000
199.023900 552.000000
200.018200 372.000000
201.065100 552.000000
296.071700 504.000000

>ms2peaks
119.059800 332.000000
131.058300 520.000000
132.066500 600.000000
134.059100 8720.000000
135.062500 664.000000
136.074900 404.000000
146.070500 2628.000000
147.077700 1880.000000
148.083700 568.000000
156.010400 832.000000
160.086300 2188.000000
176.027200 780.000000
201.063000 436.000000

>ms2peaks
131.060100 660.000000
134.059100 2176.000000
135.061900 316.000000
146.070500 1476.000000
147.077500 1036.000000
160.085100 1064.000000

>ms2peaks
136.074300 3476.000000
188.079300 2904.000000
190.096200 1312.000000
194.036400 1208.000000
198.020600 4672.000000
230.092300 1104.000000
232.106800 1152.000000
236.047000 2032.000000
296.069300 175632.000000
297.071600 27496.000000
298.067200 8812.000000

>ms2peaks
132.068900 300.000000
134.059100 18556.000000
135.065200 2960.000000
136.074300 14276.000000
137.078200 1420.000000
145.074600 364.000000
146.069900 4096.000000
147.077700 2232.000000
148.085400 1604.000000
149.069500 520.000000
150.053900 4084.000000
150.078200 336.000000
151.029900 412.000000
151.056200 344.000000
152.069700 2024.000000
156.009600 3664.000000
158.008000 300.000000
160.085400 5296.000000
161.000700 1428.000000
161.088900 400.000000
162.065000 4556.000000
172.085300 372.000000
174.022700 1092.000000
176.026500 1212.000000
177.009600 360.000000
188.080200 18992.000000
189.086700 4684.000000
190.095500 7784.000000
191.078200 440.000000
191.099100 1232.000000
193.042000 304.000000
194.037300 8824.000000
195.019400 384.000000
195.040400 1012.000000
196.031600 544.000000
198.020500 42744.000000
199.023400 5040.000000
200.017600 1860.000000
201.062800 484.000000
202.097300 1040.000000
203.076900 352.000000
214.095700 1308.000000
215.095400 328.000000
216.031000 660.000000
216.087600 860.000000
218.037400 840.000000
230.091200 2900.000000
231.095800 528.000000
232.108700 1720.000000
236.046600 5416.000000
237.048200 396.000000
237.053500 404.000000
238.044400 344.000000
254.059200 1044.000000
278.058200 616.000000
296.069400 46112.000000
297.072500 6196.000000
298.070400 2192.000000

>ms2peaks
131.060000 556.000000
132.067300 940.000000
133.064600 344.000000
134.058900 42164.000000
135.062500 4724.000000
136.074300 4296.000000
137.078400 464.000000
140.015000 300.000000
146.070000 7568.000000
147.077200 5668.000000
148.061300 312.000000
148.084800 1272.000000
149.069800 416.000000
150.054400 2856.000000
150.077800 308.000000
151.030400 344.000000
151.057400 448.000000
152.069800 884.000000
156.009700 5068.000000
156.995600 404.000000
157.013400 680.000000
158.007200 432.000000
160.085500 12320.000000
161.000300 1364.000000
161.070800 544.000000
161.088300 1312.000000
162.064900 3776.000000
163.086400 332.000000
167.026000 344.000000
172.085300 440.000000
173.057800 376.000000
174.077800 344.000000
176.026300 2004.000000
177.011100 528.000000
188.080200 4732.000000
189.088600 1348.000000
190.094800 1812.000000
194.036900 2908.000000
195.021800 360.000000
195.041500 336.000000
198.020600 14708.000000
199.023900 1504.000000
200.018500 592.000000
201.064400 1408.000000
218.038400 460.000000
236.047800 532.000000
296.071100 1104.000000

>ms2peaks
119.059100 432.000000
120.066500 308.000000
131.058400 1004.000000
132.065900 1088.000000
134.058800 18260.000000
135.062100 2804.000000
136.075900 632.000000
140.015800 324.000000
143.057600 416.000000
146.070200 5172.000000
147.077500 3580.000000
148.084700 972.000000
150.054200 352.000000
156.009700 1832.000000
159.056100 376.000000
159.076200 316.000000
160.085300 6532.000000
161.000600 320.000000
161.089000 592.000000
162.065800 896.000000
173.057700 592.000000
176.025500 1240.000000
188.080500 448.000000
198.020800 816.000000
201.064300 828.000000

>ms2peaks
119.060700 416.000000
131.059600 1120.000000
132.067200 636.000000
133.067700 360.000000
134.059100 5056.000000
135.061900 352.000000
140.017200 528.000000
143.057400 332.000000
145.066900 364.000000
146.070300 3088.000000
147.077700 1912.000000
148.085300 312.000000
159.079300 300.000000
160.085000 1652.000000
161.001000 300.000000

>ms2peaks
59.049000 468.000000
65.038200 3092.000000
66.041900 364.000000
93.034100 700.000000
93.057100 1256.000000
99.054800 708.000000
108.044900 2244.000000
131.060500 300.000000
132.066900 416.000000
134.059400 50532.000000
135.064100 4872.000000
136.074800 11428.000000
137.078100 1228.000000
146.070100 5980.000000
147.055000 472.000000
147.078500 4800.000000
148.085600 1660.000000
149.069900 476.000000
150.054300 4092.000000
150.078000 432.000000
151.031000 304.000000
151.057700 520.000000
152.069700 1872.000000
156.010300 5244.000000
157.011800 352.000000
160.085900 9128.000000
161.000600 1076.000000
161.071800 340.000000
161.089500 1148.000000
162.065000 8296.000000
163.068700 616.000000
172.086200 584.000000
174.022200 1148.000000
176.026500 1776.000000
188.081200 12864.000000
189.087700 3508.000000
190.096900 4896.000000
191.078800 308.000000
191.099900 696.000000
194.037700 6628.000000
195.041000 860.000000
196.034600 592.000000
198.021400 40308.000000
199.023800 3640.000000
200.018300 1840.000000
201.063400 1084.000000
202.095400 852.000000
214.096000 680.000000
216.033900 868.000000
216.087900 512.000000
218.036400 684.000000
230.092900 1084.000000
232.108500 1096.000000
236.048700 3036.000000
237.055300 512.000000
254.056500 456.000000
278.057900 532.000000
296.070500 19648.000000
297.072100 3800.000000
298.068500 1048.000000

