>compound AU65274265
>parentmass 503.2440000000001
>ionization [M+H]+
>formula C28H35FO7
>rt 669.800000
>profile qtof
#smiles_iso CC(=O)OCC(=O)[C@@]12[C@@H](C[C@@H]3[C@@]1(C[C@@H]([C@]4([C@H]3CCC5=CC(=O)C=C[C@@]54C)F)O)C)OC6(O2)CCCC6
#smiles_can CC(=O)OCC(=O)C12C(CC3C1(CC(C4(C3CCC5=CC(=O)C=CC54C)F)O)C)OC6(O2)CCCC6
#inchikey ILKJAFIWWBXGDU-MOGDOJJUSA-N
#pubchem_id 443958
#mb_accession AU282501,AU282502,AU282503,AU282504,AU282505,AU282506

>ms2
135.081400 368.000000
147.079000 456.000000
151.072500 348.000000
187.076100 520.000000
211.107300 388.000000
213.127900 604.000000
223.111400 776.000000
225.126900 384.000000
237.125400 412.000000
239.090100 372.000000
251.144000 324.000000
253.157500 644.000000
261.127500 504.000000
263.140900 516.000000
265.158100 472.000000
275.141800 760.000000
277.118800 436.000000
279.137200 944.000000
281.155500 664.000000
283.168200 612.000000
293.152500 3048.000000
294.159100 456.000000
297.147700 420.000000
303.136800 1648.000000
304.142400 356.000000
311.163900 3384.000000
312.167600 560.000000
313.162400 884.000000
314.168300 468.000000
321.147800 5408.000000
322.151100 1080.000000
323.152700 512.000000
339.158900 16360.000000
340.161900 3804.000000
341.159700 940.000000
353.172200 1400.000000
357.170800 1856.000000
358.171200 416.000000
359.164800 648.000000
360.166500 404.000000
363.157800 968.000000
371.185700 672.000000
381.168400 5748.000000
382.177300 1316.000000
383.174900 396.000000
399.180100 21192.000000
400.183600 6232.000000
401.182200 1648.000000
402.180800 364.000000
405.201800 428.000000
407.146400 344.000000
419.186400 1160.000000
420.187500 320.000000
423.217500 2332.000000
424.220100 732.000000
441.228900 588.000000
449.153700 352.000000
465.228100 5620.000000
466.229300 2008.000000
467.158900 1056.000000
467.236200 624.000000
469.156700 336.000000
483.237700 43284.000000
484.240900 16988.000000
485.242400 2844.000000
487.125700 532.000000
503.243800 63268.000000
504.247600 21428.000000
505.248400 4680.000000

>ms2
121.063700 724.000000
123.080200 316.000000
133.064500 388.000000
135.079900 1236.000000
137.058300 492.000000
145.064100 384.000000
147.079000 4364.000000
148.081600 384.000000
151.074000 1808.000000
153.089800 1288.000000
155.068800 596.000000
157.047900 400.000000
159.077900 1452.000000
161.058600 1212.000000
161.094900 1316.000000
163.073000 524.000000
167.070000 416.000000
169.061700 332.000000
170.984300 548.000000
171.078600 2488.000000
172.083700 504.000000
173.094900 1608.000000
174.099200 300.000000
177.091800 332.000000
179.069100 844.000000
181.085300 360.000000
183.079200 408.000000
185.058100 348.000000
185.095200 1868.000000
187.073700 3864.000000
187.111200 484.000000
188.077900 764.000000
189.089700 740.000000
193.084400 412.000000
195.101800 780.000000
197.078700 452.000000
197.095200 1056.000000
197.132200 444.000000
199.073800 364.000000
199.110300 656.000000
201.091700 480.000000
203.105200 364.000000
205.064300 500.000000
207.118200 300.000000
209.096800 940.000000
211.016100 1032.000000
211.112500 1612.000000
212.018000 300.000000
212.115200 384.000000
213.091700 588.000000
213.126200 6248.000000
214.130200 1164.000000
215.107000 556.000000
215.139200 396.000000
221.081600 408.000000
221.095300 848.000000
223.110700 5748.000000
224.114500 1564.000000
225.028900 896.000000
225.126600 5116.000000
226.131300 1036.000000
227.107500 528.000000
227.143300 1220.000000
235.111000 1468.000000
236.115100 516.000000
237.126300 2912.000000
238.129700 800.000000
239.093100 836.000000
239.105200 892.000000
239.142000 1700.000000
240.150100 496.000000
241.122100 1836.000000
242.124900 452.000000
243.137500 716.000000
249.127600 1456.000000
250.132600 408.000000
251.105700 484.000000
251.142200 2332.000000
252.148100 624.000000
253.121500 1832.000000
253.158400 4068.000000
254.125400 392.000000
254.161000 804.000000
255.136200 1484.000000
259.113200 484.000000
261.126800 2744.000000
262.135700 848.000000
263.142800 4404.000000
264.145500 916.000000
265.120100 544.000000
265.158000 4372.000000
266.161900 1052.000000
267.136800 1916.000000
268.140000 432.000000
269.117900 688.000000
269.152600 968.000000
275.142300 6128.000000
276.145400 1632.000000
277.122400 1612.000000
277.158600 744.000000
278.126600 1032.000000
279.136900 5796.000000
280.139400 1076.000000
281.152700 6404.000000
282.156500 1340.000000
283.136400 712.000000
283.168400 3752.000000
284.172400 900.000000
285.127700 780.000000
288.147600 316.000000
291.139500 796.000000
293.153300 16636.000000
294.157200 3924.000000
295.134600 2124.000000
295.153600 928.000000
296.135600 404.000000
297.147700 1872.000000
298.151700 380.000000
299.162000 448.000000
301.154000 312.000000
301.169300 360.000000
303.137700 7280.000000
304.140600 1792.000000
305.152000 736.000000
309.148300 1056.000000
311.164200 16412.000000
312.166800 4188.000000
313.158600 1672.000000
314.164200 708.000000
319.139100 364.000000
321.148200 30624.000000
322.151300 7888.000000
323.152700 1444.000000
324.147800 448.000000
325.181300 360.000000
327.162700 372.000000
329.171900 584.000000
331.168400 488.000000
335.164700 488.000000
337.141800 416.000000
339.159200 50796.000000
340.162200 12804.000000
341.160300 2680.000000
342.162200 904.000000
343.152500 552.000000
343.195200 360.000000
353.175100 5396.000000
354.178100 1536.000000
357.169200 11016.000000
358.173000 2672.000000
359.163100 1848.000000
359.201300 492.000000
360.170800 472.000000
361.179000 412.000000
363.158500 4108.000000
364.164600 952.000000
369.129400 368.000000
371.185700 1472.000000
377.175800 356.000000
377.213500 636.000000
378.214300 340.000000
381.169500 15852.000000
382.171700 4920.000000
383.169300 1244.000000
384.177900 328.000000
387.200200 488.000000
395.218300 672.000000
399.179900 23860.000000
400.183300 6916.000000
401.179800 2336.000000
402.180700 396.000000
405.205800 1196.000000
406.209000 324.000000
419.184300 900.000000
420.189600 412.000000
423.216600 2768.000000
424.217000 964.000000
425.215800 320.000000
431.151100 300.000000
441.228800 1612.000000
442.230800 520.000000
443.224800 556.000000
449.150500 2240.000000
450.154100 788.000000
451.152800 596.000000
465.227400 14524.000000
466.230300 4012.000000
467.236500 1132.000000
469.164000 304.000000
483.237700 8760.000000
484.239400 3364.000000
485.242800 768.000000
487.122700 1656.000000
488.131300 312.000000
503.244900 1800.000000
504.247100 584.000000

>ms2
121.064000 1876.000000
122.069300 324.000000
123.044200 436.000000
123.079100 764.000000
125.057800 348.000000
129.053500 340.000000
131.084600 348.000000
133.063900 1564.000000
135.079700 3128.000000
137.058300 1644.000000
139.075100 716.000000
143.084600 588.000000
145.064700 788.000000
145.101100 352.000000
147.079100 10188.000000
148.081900 1040.000000
149.058000 512.000000
151.074200 3680.000000
152.079300 380.000000
153.053100 492.000000
153.089800 1068.000000
155.068800 792.000000
155.084400 300.000000
157.049300 480.000000
157.061600 444.000000
159.079600 4480.000000
160.084700 768.000000
161.058100 2784.000000
161.095100 3336.000000
162.064400 392.000000
162.098500 600.000000
163.072900 956.000000
165.070300 324.000000
167.068900 1276.000000
167.084600 344.000000
169.048100 372.000000
169.063400 844.000000
169.086200 328.000000
170.069100 392.000000
171.078800 6956.000000
172.082200 1164.000000
173.094900 3888.000000
175.074900 1020.000000
175.108600 456.000000
177.091100 328.000000
179.069300 1400.000000
179.085500 584.000000
183.079100 1196.000000
184.084600 328.000000
185.057500 788.000000
185.095100 4972.000000
186.099500 752.000000
187.074300 6484.000000
187.110500 2420.000000
188.076100 1004.000000
188.116900 336.000000
189.089300 1196.000000
193.084300 692.000000
195.078700 396.000000
195.113700 324.000000
196.085700 320.000000
197.094600 2196.000000
197.131900 1396.000000
198.099100 388.000000
199.076700 612.000000
199.110700 1636.000000
201.087800 600.000000
201.126900 668.000000
203.105700 412.000000
205.064800 532.000000
207.080300 340.000000
207.116500 620.000000
208.088000 476.000000
209.094700 2632.000000
209.133600 360.000000
210.103000 748.000000
211.014800 1684.000000
211.110400 3700.000000
212.017400 344.000000
212.116800 964.000000
213.090900 1444.000000
213.126400 15748.000000
214.092200 300.000000
214.129700 2864.000000
215.106000 928.000000
215.138800 652.000000
221.093600 1216.000000
221.133900 668.000000
222.104300 596.000000
223.110700 8480.000000
224.115600 2892.000000
225.030500 736.000000
225.089700 640.000000
225.127100 10232.000000
226.130700 1872.000000
227.107400 1028.000000
227.140700 1552.000000
228.144900 436.000000
233.093000 480.000000
233.129600 492.000000
234.103100 364.000000
235.110800 4220.000000
235.145700 708.000000
236.115600 1220.000000
237.091400 680.000000
237.126700 6292.000000
238.128500 1464.000000
239.105400 1352.000000
239.142400 3380.000000
240.147700 832.000000
241.120900 3032.000000
241.157700 672.000000
242.124600 668.000000
243.116200 452.000000
243.137500 560.000000
245.129600 380.000000
246.103200 556.000000
247.111200 1032.000000
247.149000 972.000000
248.117100 476.000000
249.127500 3332.000000
250.133300 1348.000000
251.104100 1252.000000
251.141900 5460.000000
252.108300 404.000000
252.149000 1024.000000
253.121900 3028.000000
253.157900 5264.000000
254.125600 844.000000
254.162600 1164.000000
255.137100 1368.000000
257.129000 836.000000
258.134500 328.000000
259.111000 700.000000
259.151200 440.000000
260.118400 1148.000000
261.127100 5876.000000
262.131600 1880.000000
263.109500 644.000000
263.142000 10776.000000
264.112500 332.000000
264.146100 2520.000000
265.119900 1648.000000
265.158400 8832.000000
266.126700 420.000000
266.161300 1552.000000
267.137200 3792.000000
267.159000 304.000000
268.142700 996.000000
269.117200 828.000000
269.153300 1576.000000
270.155500 356.000000
271.170000 308.000000
273.126900 764.000000
275.142500 13764.000000
276.145600 3912.000000
277.123100 2848.000000
277.155500 1188.000000
278.129600 1728.000000
279.137800 9304.000000
279.171800 468.000000
280.142000 2148.000000
281.152800 6408.000000
282.156200 1416.000000
283.148300 728.000000
283.168700 2416.000000
284.172600 740.000000
285.126800 1452.000000
286.131600 680.000000
288.114000 628.000000
289.121000 424.000000
291.136200 1752.000000
292.141900 660.000000
293.153200 20192.000000
294.155400 5236.000000
295.132500 1944.000000
295.152700 1356.000000
296.148400 436.000000
297.147900 1820.000000
298.153700 684.000000
299.144700 488.000000
299.166600 760.000000
301.156900 344.000000
303.137900 11016.000000
304.140800 2652.000000
305.144200 736.000000
309.147500 1096.000000
311.162900 11424.000000
312.166300 2824.000000
313.162100 1288.000000
314.168400 372.000000
319.133600 456.000000
321.147800 30336.000000
322.150600 7196.000000
323.147500 1136.000000
329.176800 320.000000
330.175000 404.000000
335.160900 844.000000
337.144900 460.000000
339.158400 21460.000000
340.162800 4432.000000
341.159500 1868.000000
342.157900 440.000000
345.145300 792.000000
345.186200 356.000000
353.173600 1784.000000
354.182800 392.000000
357.168400 4800.000000
358.172200 1360.000000
359.164300 1236.000000
359.207400 368.000000
360.167500 392.000000
363.156800 2836.000000
364.165100 404.000000
371.184400 308.000000
377.174400 336.000000
381.168500 5868.000000
382.170600 1348.000000
383.176100 352.000000
387.196300 436.000000
399.181300 2480.000000
400.180000 712.000000
405.205300 436.000000
423.217200 856.000000
424.222700 352.000000
442.231200 332.000000
449.156100 440.000000
465.228500 3876.000000
466.231700 1496.000000
467.237700 348.000000
483.237500 300.000000

>ms2
117.069700 396.000000
119.084600 436.000000
121.063700 3848.000000
122.067600 344.000000
123.043900 600.000000
123.080300 1228.000000
125.058400 664.000000
128.061400 612.000000
129.066900 316.000000
131.084600 868.000000
133.063700 2352.000000
133.099700 360.000000
135.079400 3880.000000
136.083600 524.000000
137.058500 1336.000000
139.075200 400.000000
141.069200 536.000000
143.083700 1436.000000
144.054000 616.000000
144.088500 320.000000
145.064100 2220.000000
145.099600 564.000000
146.070500 476.000000
147.079500 11504.000000
148.082300 1492.000000
149.058600 880.000000
149.095100 344.000000
151.074200 3240.000000
153.052700 656.000000
153.068400 320.000000
153.089600 1076.000000
155.068000 448.000000
155.084000 1264.000000
157.064000 632.000000
157.100100 680.000000
158.072500 712.000000
159.079000 7364.000000
160.082800 1188.000000
161.058800 2860.000000
161.094800 4616.000000
162.062700 408.000000
162.099200 592.000000
163.074000 1232.000000
165.068600 628.000000
167.068200 1148.000000
169.064900 1464.000000
169.098000 608.000000
171.079200 12088.000000
172.083000 1744.000000
173.094800 6796.000000
174.098500 748.000000
175.072300 576.000000
175.090900 316.000000
175.111100 456.000000
177.089600 456.000000
179.069300 1132.000000
179.084500 1072.000000
180.090400 368.000000
181.099400 644.000000
182.072100 312.000000
183.078700 1692.000000
184.083800 348.000000
185.095200 4904.000000
186.100700 908.000000
187.074500 5724.000000
187.110600 1704.000000
188.077900 528.000000
188.115000 572.000000
189.074000 404.000000
191.085700 412.000000
192.092700 544.000000
193.098300 636.000000
194.105700 364.000000
195.079200 1148.000000
195.114300 1016.000000
196.086900 956.000000
197.079000 312.000000
197.095000 3484.000000
197.130400 2164.000000
198.101500 872.000000
198.136000 352.000000
199.074300 648.000000
199.110300 2460.000000
200.080300 364.000000
200.117800 360.000000
201.091100 564.000000
203.103300 432.000000
205.065500 536.000000
205.099000 1052.000000
206.107900 464.000000
207.115700 1604.000000
208.086200 1012.000000
208.121000 304.000000
209.095300 3784.000000
209.130100 528.000000
210.101800 1936.000000
211.014200 1156.000000
211.110300 4312.000000
212.117800 1116.000000
213.090600 1496.000000
213.126500 14628.000000
214.129800 3208.000000
215.140800 944.000000
217.099800 452.000000
218.109900 552.000000
219.079100 480.000000
219.116900 640.000000
220.087700 400.000000
220.121000 408.000000
221.095100 2180.000000
221.130700 800.000000
222.104400 1196.000000
223.110500 9800.000000
224.115900 3424.000000
225.090800 808.000000
225.125900 11508.000000
226.094800 336.000000
226.130700 1988.000000
227.105700 1016.000000
227.141900 1924.000000
228.145100 384.000000
229.097000 372.000000
229.108300 300.000000
230.106700 500.000000
231.108300 436.000000
232.121700 632.000000
233.096400 1200.000000
233.131100 1020.000000
234.101600 820.000000
234.137800 360.000000
235.110500 4820.000000
235.145400 1292.000000
236.114500 1652.000000
237.089300 1088.000000
237.126900 6232.000000
238.096900 400.000000
238.130900 1548.000000
239.105700 872.000000
239.142800 4248.000000
240.111300 348.000000
240.147900 628.000000
241.120600 2416.000000
241.158000 624.000000
242.104400 532.000000
242.127300 464.000000
243.116500 736.000000
243.133200 340.000000
244.121700 336.000000
245.095200 896.000000
245.131400 924.000000
246.103100 1324.000000
247.109400 1464.000000
247.147400 1380.000000
248.119200 1732.000000
248.150100 332.000000
249.093700 300.000000
249.125800 3228.000000
250.098100 372.000000
250.132900 2056.000000
251.106400 1460.000000
251.141900 5632.000000
252.109800 468.000000
252.146000 1216.000000
253.121400 3672.000000
253.156700 3112.000000
254.123600 952.000000
254.160200 1036.000000
255.137000 616.000000
257.130300 1472.000000
258.134900 640.000000
259.110300 1244.000000
260.119300 2940.000000
261.088900 352.000000
261.126900 5520.000000
262.100100 432.000000
262.131800 2060.000000
263.105300 656.000000
263.142000 9000.000000
264.114400 948.000000
264.146400 1640.000000
265.119000 1288.000000
265.157700 6412.000000
266.127600 500.000000
266.162300 1688.000000
267.138300 2440.000000
268.140600 680.000000
269.115500 460.000000
269.151800 904.000000
270.103400 468.000000
270.155700 476.000000
273.126100 532.000000
274.133100 464.000000
275.142500 9648.000000
276.146500 2740.000000
277.121300 2476.000000
277.151900 752.000000
278.127600 2056.000000
279.101200 368.000000
279.137400 5784.000000
280.140000 1604.000000
281.153700 3548.000000
282.157600 692.000000
283.154700 460.000000
283.167200 556.000000
284.153500 332.000000
285.125900 1400.000000
286.130300 308.000000
287.133700 344.000000
288.112900 864.000000
289.116300 320.000000
291.138000 1540.000000
292.140800 564.000000
293.152500 11176.000000
294.155700 2908.000000
295.133800 1156.000000
295.156900 844.000000
296.137000 444.000000
296.152400 376.000000
297.150700 1088.000000
303.138000 5500.000000
304.140100 1480.000000
305.147300 396.000000
309.147200 972.000000
311.165800 3760.000000
312.165300 712.000000
313.158400 436.000000
313.169000 312.000000
317.161200 408.000000
319.132200 352.000000
321.148400 7932.000000
322.151600 2000.000000
323.149500 536.000000
329.170200 324.000000
335.162300 328.000000
337.139500 304.000000
339.159200 3764.000000
340.162300 1116.000000
341.158000 568.000000
353.173100 336.000000
357.168600 540.000000
363.153000 552.000000
381.169100 1116.000000
465.236600 308.000000

>ms2
115.054400 708.000000
117.068700 404.000000
119.085700 816.000000
121.063900 4892.000000
123.041900 412.000000
123.080800 1016.000000
125.058200 424.000000
128.060600 1836.000000
129.069000 892.000000
131.047300 588.000000
131.084600 1844.000000
132.056200 440.000000
133.063500 2224.000000
133.100200 368.000000
135.079300 3276.000000
136.082000 432.000000
137.058900 1024.000000
139.053000 364.000000
139.074900 332.000000
141.069700 916.000000
142.075800 548.000000
143.084000 3144.000000
144.056400 444.000000
144.089300 464.000000
145.064000 3604.000000
145.101600 644.000000
147.079400 12240.000000
148.082700 1116.000000
149.058500 836.000000
151.074600 1636.000000
153.054900 412.000000
153.066400 500.000000
153.090800 368.000000
155.085200 1568.000000
157.063900 776.000000
157.099700 760.000000
158.070500 2092.000000
159.079000 8268.000000
160.083300 1184.000000
161.057800 2588.000000
161.094800 3672.000000
162.061300 400.000000
162.098700 664.000000
163.074600 700.000000
165.069500 640.000000
167.069800 556.000000
167.083300 572.000000
169.063900 1332.000000
169.084000 372.000000
169.099100 612.000000
170.070700 504.000000
171.079000 10736.000000
172.082600 2120.000000
173.094400 6932.000000
174.097800 672.000000
175.075400 392.000000
175.113000 492.000000
177.090700 340.000000
178.076500 404.000000
179.068300 652.000000
179.083200 1860.000000
180.090600 980.000000
181.063100 584.000000
181.100100 896.000000
182.071500 560.000000
183.078800 1528.000000
183.115400 516.000000
184.084900 508.000000
185.059400 776.000000
185.094400 4012.000000
186.099800 872.000000
187.073900 3360.000000
187.108900 1304.000000
188.078100 460.000000
189.069800 420.000000
189.089700 600.000000
190.078500 716.000000
191.084300 944.000000
192.092200 1176.000000
193.101000 1252.000000
194.072600 412.000000
194.108400 484.000000
195.080000 1852.000000
195.115300 1764.000000
196.086400 1376.000000
196.119900 340.000000
197.094900 3680.000000
197.131000 1596.000000
198.100900 1428.000000
198.135800 384.000000
199.075500 484.000000
199.110600 2384.000000
200.114800 384.000000
201.087500 432.000000
201.125600 332.000000
203.085600 588.000000
204.091300 560.000000
205.067000 572.000000
205.099900 1492.000000
206.104800 572.000000
207.079200 660.000000
207.114800 2408.000000
208.088600 1896.000000
208.118800 420.000000
209.095000 4788.000000
209.132000 612.000000
210.101800 3024.000000
211.015700 1420.000000
211.109600 3340.000000
211.145700 356.000000
212.015300 468.000000
212.117100 1516.000000
213.090000 1164.000000
213.126100 12236.000000
214.129800 1908.000000
215.083400 392.000000
215.142500 392.000000
216.091500 604.000000
217.100300 700.000000
218.107300 836.000000
219.078900 904.000000
219.115200 1248.000000
220.087400 632.000000
220.122600 460.000000
221.095500 2668.000000
221.132200 904.000000
222.102700 2284.000000
223.109900 7856.000000
224.117200 3612.000000
225.090800 688.000000
225.126000 8116.000000
226.098400 344.000000
226.130500 1788.000000
227.085200 356.000000
227.106600 916.000000
227.140700 996.000000
228.092800 324.000000
228.147700 420.000000
229.098700 500.000000
230.109200 580.000000
231.082000 464.000000
231.114700 976.000000
232.088600 588.000000
232.122800 704.000000
233.092300 1124.000000
233.131500 1360.000000
234.102100 1544.000000
234.137600 520.000000
235.111100 4600.000000
235.146100 1264.000000
236.083000 324.000000
236.115000 1896.000000
237.090400 636.000000
237.126900 4808.000000
238.098500 680.000000
238.132100 1696.000000
239.103900 804.000000
239.142600 2040.000000
240.111900 344.000000
240.146800 504.000000
241.089000 460.000000
241.121300 1052.000000
242.107900 840.000000
242.127400 300.000000
243.115600 648.000000
245.096700 1440.000000
245.130900 1000.000000
246.102800 1936.000000
247.109500 1932.000000
247.147700 1328.000000
248.118200 2968.000000
248.152500 328.000000
249.088400 420.000000
249.126200 2804.000000
250.099700 484.000000
250.132900 1912.000000
251.105000 1120.000000
251.141800 4112.000000
252.147600 984.000000
253.120900 2152.000000
253.158000 828.000000
254.124600 524.000000
255.134800 520.000000
257.130600 1000.000000
258.100900 508.000000
258.137200 560.000000
259.109500 1244.000000
260.118800 4128.000000
261.125600 3336.000000
262.098600 492.000000
262.132100 2564.000000
263.108600 612.000000
263.141800 5760.000000
264.113300 1184.000000
264.145300 1284.000000
265.120700 1356.000000
265.158500 3408.000000
266.127000 364.000000
266.161200 560.000000
267.136400 1060.000000
268.144700 348.000000
269.154700 400.000000
270.100900 484.000000
271.106700 364.000000
273.125900 504.000000
274.097800 408.000000
274.133100 564.000000
275.104600 304.000000
275.141500 5864.000000
276.114200 344.000000
276.145500 1472.000000
277.123900 1672.000000
277.152300 316.000000
278.129100 1544.000000
279.136000 2300.000000
280.142100 1308.000000
281.151700 1272.000000
282.157700 324.000000
285.128000 892.000000
286.135500 312.000000
287.106500 316.000000
288.113500 1368.000000
289.117200 392.000000
290.124400 316.000000
291.136000 840.000000
292.143000 400.000000
293.153700 2976.000000
294.156300 688.000000
295.133000 604.000000
297.147000 384.000000
303.137000 1868.000000
304.141400 728.000000
306.124000 424.000000
311.165100 916.000000
312.165000 484.000000
321.146500 2012.000000
322.151600 472.000000
339.156800 768.000000

>ms2
85.064200 380.000000
95.086300 304.000000
101.023100 520.000000
109.062800 368.000000
119.084900 444.000000
121.063800 2876.000000
123.080300 696.000000
125.059300 448.000000
131.084000 380.000000
133.063500 1676.000000
135.079500 2928.000000
136.083800 376.000000
137.057600 1536.000000
139.074300 720.000000
141.053000 368.000000
143.084300 1244.000000
144.054600 332.000000
145.063200 1308.000000
145.100700 388.000000
147.079600 10328.000000
148.082100 1068.000000
149.060400 456.000000
151.073700 3036.000000
152.079600 316.000000
153.055100 476.000000
153.089600 1140.000000
155.070500 884.000000
155.084600 548.000000
157.047600 312.000000
157.064300 320.000000
157.101300 336.000000
158.071400 436.000000
159.079100 4236.000000
160.083000 352.000000
161.057600 2776.000000
161.095000 3488.000000
162.096700 432.000000
163.073300 924.000000
165.068000 384.000000
167.070400 1132.000000
167.082200 316.000000
169.062900 816.000000
171.079400 7684.000000
172.082300 956.000000
173.094600 5496.000000
174.097700 636.000000
175.075200 560.000000
175.112700 340.000000
177.087800 336.000000
179.068100 744.000000
179.085900 556.000000
181.082300 484.000000
183.079000 900.000000
185.057500 436.000000
185.094200 4420.000000
186.098600 708.000000
187.074200 6300.000000
187.110200 1608.000000
188.077800 888.000000
189.071900 316.000000
189.090300 932.000000
191.087000 304.000000
193.085100 440.000000
195.081200 688.000000
195.117700 744.000000
196.085100 328.000000
197.079800 612.000000
197.095400 2180.000000
197.131800 1456.000000
198.101000 776.000000
199.074000 472.000000
199.110000 2124.000000
200.080800 328.000000
201.090300 708.000000
201.126000 356.000000
203.106600 436.000000
205.067200 1244.000000
205.099700 612.000000
207.081400 364.000000
207.116700 744.000000
208.087500 528.000000
209.095700 2276.000000
210.101900 1228.000000
211.014100 3188.000000
211.073100 532.000000
211.111100 3900.000000
212.015000 456.000000
212.116400 964.000000
213.014200 904.000000
213.088900 1108.000000
213.126900 14500.000000
214.094900 324.000000
214.129500 2104.000000
215.106100 384.000000
215.142400 536.000000
217.100300 312.000000
219.115300 420.000000
220.084800 304.000000
221.097100 1340.000000
221.133500 404.000000
222.100600 804.000000
223.111000 8652.000000
224.117000 2164.000000
225.030700 952.000000
225.087900 596.000000
225.126400 10104.000000
226.129300 1600.000000
227.027600 396.000000
227.104200 648.000000
227.142800 1416.000000
228.147600 304.000000
229.100000 320.000000
232.123000 424.000000
233.095400 800.000000
233.131500 736.000000
234.103700 524.000000
235.111000 4200.000000
235.147000 600.000000
236.116800 1144.000000
237.089400 592.000000
237.126000 6296.000000
238.131100 1052.000000
239.106300 664.000000
239.142200 2712.000000
240.144300 512.000000
241.121200 2264.000000
241.154900 620.000000
242.126700 500.000000
243.117900 580.000000
243.137400 612.000000
244.123600 340.000000
245.096800 368.000000
245.132000 652.000000
246.103500 552.000000
247.108600 988.000000
247.144200 600.000000
248.116700 808.000000
249.092800 304.000000
249.126300 3812.000000
250.132300 924.000000
251.105400 1340.000000
251.142300 4472.000000
252.146900 1016.000000
253.121700 2448.000000
253.158300 4116.000000
254.124200 892.000000
254.162500 636.000000
255.101600 312.000000
255.136900 1164.000000
257.130400 688.000000
259.111600 744.000000
260.119200 1828.000000
261.126700 4856.000000
262.130800 1504.000000
263.106300 676.000000
263.141700 9232.000000
264.112300 472.000000
264.147400 1864.000000
265.119500 712.000000
265.158900 6580.000000
266.159700 1420.000000
267.136800 2408.000000
267.169200 344.000000
268.140400 720.000000
269.118100 480.000000
269.153700 1812.000000
270.156500 528.000000
273.129700 488.000000
275.141800 11776.000000
276.146400 2648.000000
277.122700 2704.000000
277.155400 1224.000000
278.127800 1220.000000
278.162700 316.000000
279.097800 508.000000
279.137100 6600.000000
279.174200 392.000000
280.142600 1472.000000
281.153200 5820.000000
282.154900 1072.000000
283.166700 1748.000000
284.178000 352.000000
285.125900 1312.000000
286.133600 512.000000
288.115800 920.000000
291.139100 944.000000
292.138600 396.000000
293.153900 15144.000000
294.156400 4156.000000
295.133300 1776.000000
295.147000 1132.000000
295.160500 952.000000
296.136200 388.000000
296.158000 388.000000
297.148100 1460.000000
298.149400 320.000000
299.141600 392.000000
299.163200 300.000000
301.158100 300.000000
303.138100 7116.000000
304.142000 2428.000000
305.150000 496.000000
309.148300 972.000000
311.164500 8164.000000
312.167200 1736.000000
313.160700 1500.000000
319.132700 512.000000
321.148600 21616.000000
322.152300 4124.000000
323.154600 892.000000
335.166800 500.000000
337.143700 488.000000
339.158600 18024.000000
340.162400 4496.000000
341.155900 1028.000000
345.152700 372.000000
353.174500 2088.000000
354.176800 472.000000
357.170400 3608.000000
358.173200 956.000000
359.162200 792.000000
360.165600 412.000000
363.161100 1612.000000
364.163300 584.000000
377.176100 572.000000
381.169000 5584.000000
382.172800 1040.000000
383.172300 428.000000
387.197500 312.000000
399.180100 3372.000000
400.183900 1124.000000
423.216900 508.000000
449.149700 628.000000
465.228900 3992.000000
466.229600 1004.000000
483.232900 352.000000

