>compound AU65195897
>parentmass 266.1387
>ionization [M+H]+
>formula C14H19NO4
>rt 396.000000
>profile qtof
#smiles_iso CCC1=CC=CC(=C1N(COCC)C(=O)C(=O)O)C
#smiles_can CCC1=CC=CC(=C1N(COCC)C(=O)C(=O)O)C
#inchikey OTKTUNJJKYTOFF-UHFFFAOYSA-N
#pubchem_id 15842091
#mb_accession AU202901,AU202902,AU202903,AU202904,AU202905

>ms2
174.093700 316.000000
205.022600 412.000000
220.096100 1144.000000

>ms2
146.096000 384.000000
148.110600 316.000000
174.089300 1036.000000

>ms2
146.095200 692.000000
174.090500 640.000000

>ms2
133.086100 308.000000

>ms2
131.071000 308.000000

