>compound AU65477564
>parentmass 357.1267
>ionization [M+H]+
>formula C19H20N2O3S
>rt 548.210000
>profile qtof
#smiles_iso CCC1=CN=C(C=C1)CCOC2=CC=C(C=C2)CC3C(=O)NC(=O)S3
#smiles_can CCC1=CN=C(C=C1)CCOC2=CC=C(C=C2)CC3C(=O)NC(=O)S3
#inchikey HYAFETHFCAUJAY-UHFFFAOYSA-N
#pubchem_id 4829
#mb_accession AU220301,AU220302,AU220303,AU220304,AU220305,AU220306

>ms2
357.128100 2510656.000000
358.129800 850868.000000

>ms2
119.072000 17220.000000
134.095600 390804.000000
135.101700 63708.000000
357.127900 2509556.000000

>ms2
118.064300 29192.000000
119.072300 231796.000000
120.078400 33604.000000
134.095800 2421188.000000
135.102300 631112.000000
136.106100 39072.000000
240.137400 24428.000000
241.144900 42124.000000
286.125500 23808.000000
357.126900 1828912.000000
358.130000 296708.000000
359.126200 64260.000000

>ms2
117.056800 13828.000000
118.064500 67500.000000
119.072500 520848.000000
120.078300 60784.000000
121.087300 16912.000000
134.095900 2315576.000000
135.102200 418692.000000
136.106100 29188.000000
240.137600 12552.000000
357.126700 39748.000000

>ms2
117.056600 23768.000000
118.064400 143424.000000
119.072400 953428.000000
120.077800 89968.000000
121.086700 15656.000000
134.095700 2161300.000000
135.101000 239204.000000
136.105000 14852.000000

>ms2
118.065400 2792.000000
119.072600 23372.000000
120.078500 4820.000000
121.087100 2216.000000
134.096900 160404.000000
135.102900 57300.000000
136.106600 4492.000000
167.093400 3556.000000
240.136400 2452.000000
240.145000 1496.000000
241.145900 4128.000000
286.127000 1572.000000
357.133800 196368.000000
358.134100 49424.000000

