>compound AU65885773
>parentmass 382.1680999999999
>ionization [M+H]+
>formula C22H24ClN3O
>rt 448.500000
>profile qtof
#smiles_iso CN1CCCC(CC1)N2C(=O)C3=CC=CC=C3C(=N2)CC4=CC=C(C=C4)Cl
#smiles_can CN1CCCC(CC1)N2C(=O)C3=CC=CC=C3C(=N2)CC4=CC=C(C=C4)Cl
#inchikey MBUVEWMHONZEQD-UHFFFAOYSA-N
#pubchem_id 2267
#mb_accession AU273401,AU273402,AU273403,AU273404,AU273405,AU273406

>ms2peaks
382.168000 2180916.000000
383.170400 515768.000000
384.164900 614160.000000

>ms2peaks
112.111500 50268.000000
266.090500 42064.000000
351.125200 15496.000000
382.168200 2216084.000000
383.171000 506968.000000
384.165700 605016.000000

>ms2peaks
112.111700 86056.000000
113.115100 8876.000000
152.021600 2352.000000
159.053800 4496.000000
266.090500 18288.000000
267.094200 2140.000000
271.062600 61920.000000
272.066100 10908.000000
273.059800 19964.000000
274.061600 2180.000000
283.061600 3432.000000
309.079100 7204.000000
310.082300 1872.000000
311.076600 2076.000000
351.125500 41552.000000
352.128200 10060.000000
353.123700 11668.000000
382.168300 258532.000000
383.171000 57444.000000
384.165900 74316.000000

>ms2peaks
112.111500 35460.000000
125.014400 6136.000000
126.017700 680.000000
127.011400 1760.000000
131.047700 1696.000000
131.060200 456.000000
152.023200 904.000000
159.053800 31100.000000
160.057200 3864.000000
183.054400 616.000000
184.061900 620.000000
185.070900 660.000000
197.069500 1692.000000
198.072600 460.000000
219.069200 1136.000000
232.075300 520.000000
241.041100 424.000000
255.067100 752.000000
256.050000 1008.000000
257.061000 432.000000
266.090400 2496.000000
267.088900 400.000000
271.062700 75912.000000
272.065300 12688.000000
273.059800 20596.000000
274.061500 2624.000000
283.062600 4552.000000
284.067800 968.000000
285.061000 1428.000000
297.079600 804.000000
309.078000 10744.000000
310.082300 2284.000000
311.075900 3772.000000
323.095100 1408.000000
323.131500 692.000000
324.095400 612.000000
325.092400 488.000000
351.125100 9640.000000
352.127400 3028.000000
353.122400 2884.000000
382.166700 6132.000000
383.170700 1916.000000
384.165900 1516.000000

>ms2peaks
112.111500 12380.000000
125.014000 17516.000000
126.017800 1700.000000
127.011000 6312.000000
128.015400 332.000000
131.047600 3808.000000
131.058900 2408.000000
132.051800 416.000000
159.054000 43712.000000
160.057400 5048.000000
161.062200 400.000000
177.064100 328.000000
178.078600 568.000000
183.054500 1144.000000
184.062900 836.000000
185.070300 744.000000
191.077700 304.000000
197.069200 2028.000000
203.070000 308.000000
206.070400 308.000000
211.085200 332.000000
213.045000 628.000000
219.067900 2428.000000
220.073000 468.000000
232.076100 724.000000
238.042500 344.000000
240.040100 412.000000
241.041900 812.000000
254.034800 536.000000
255.066600 408.000000
256.053500 624.000000
271.063000 29296.000000
272.065400 5388.000000
273.060000 9440.000000
274.064100 872.000000
283.062100 1180.000000
284.068400 456.000000
285.058900 504.000000
297.083100 304.000000
308.072800 300.000000
309.077900 4120.000000
310.081600 960.000000
311.073600 1248.000000
323.098000 632.000000
325.095300 484.000000
351.124100 436.000000

>ms2peaks
58.064700 106428.000000
69.069200 4876.000000
70.064700 10272.000000
79.053900 9596.000000
81.069800 59464.000000
84.080600 60508.000000
112.114200 897236.000000
113.116800 68144.000000
159.054100 5704.000000
266.090500 15460.000000
271.062800 44044.000000
272.066100 7016.000000
273.060200 13468.000000
309.079700 6044.000000
351.126100 22320.000000
352.129100 6020.000000
353.124600 7192.000000
382.168500 446448.000000
383.171500 156036.000000
384.166100 182732.000000

