>compound AU66616209
>parentmass 150.1277
>ionization [M+H]+
>formula C10H15N
>rt 260.760000
>profile qtof
#smiles_iso CC(CC1=CC=CC=C1)NC
#smiles_can CC(CC1=CC=CC=C1)NC
#inchikey MYWUZJCMWCOHBA-UHFFFAOYSA-N
#pubchem_id 1206
#mb_accession AU156006

>ms2
58.064400 8308.000000
65.037800 7332.000000
91.055000 1142648.000000
92.057700 135404.000000
119.086300 92756.000000
120.089500 8612.000000
150.127600 46828.000000

