>compound AU66853351
>parentmass 748.4842
>ionization [M+H]+
>formula C38H69NO13
>rt 546.000000
>profile qtof
#smiles_iso CC[C@@H]1[C@@]([C@@H]([C@H](C(=O)[C@@H](C[C@@]([C@@H]([C@H]([C@@H]([C@H](C(=O)O1)C)O[C@H]2C[C@@]([C@H]([C@@H](O2)C)O)(C)OC)C)O[C@H]3[C@@H]([C@H](C[C@H](O3)C)N(C)C)O)(C)OC)C)C)O)(C)O
#smiles_can CCC1C(C(C(C(=O)C(CC(C(C(C(C(C(=O)O1)C)OC2CC(C(C(O2)C)O)(C)OC)C)OC3C(C(CC(O3)C)N(C)C)O)(C)OC)C)C)O)(C)O
#inchikey AGOYDEPGAOXOCK-KCBOHYOISA-N
#pubchem_id 84029
#mb_accession AU105302,AU105303,AU105304,AU105305,AU105306

>ms2
116.106100 4756.000000
127.074300 4208.000000
158.116400 221596.000000
284.185800 2204.000000
316.210800 20908.000000
397.257100 1820.000000
558.362600 27996.000000
559.365000 8188.000000
560.369100 1952.000000
590.389600 265820.000000
591.392200 71348.000000
748.485200 359116.000000
749.488300 152604.000000
750.491200 28984.000000
751.491100 4016.000000

>ms2
116.069900 8108.000000
158.116400 1129620.000000
159.100300 6900.000000
159.119500 74392.000000
160.122000 6128.000000
558.362900 63652.000000
590.389400 196160.000000
591.392400 61472.000000
748.484000 26736.000000
749.487600 11800.000000

>ms2
116.070000 15200.000000
158.116800 1445156.000000

>ms2
116.106200 13976.000000
123.079800 5240.000000
127.074600 12488.000000
158.116600 926548.000000
159.120000 68240.000000

>ms2
590.389800 17852.000000
748.487500 518228.000000
749.490600 219104.000000
750.493400 42004.000000
751.496500 4788.000000

