>compound AU66544295
>parentmass 154.0167
>ionization [M+H]+
>formula C6H4ClN3
>rt 389.590000
>profile qtof
#smiles_iso C1=CC2=NNN=C2C=C1Cl
#smiles_can C1=CC2=NNN=C2C=C1Cl
#inchikey PZBQVZFITSVHAW-UHFFFAOYSA-N
#pubchem_id 66760
#mb_accession AU230801,AU230802,AU230803,AU230804,AU230805,AU230806

>ms2
126.009800 1572.000000
154.015400 171516.000000
155.017800 9964.000000
156.012500 49756.000000

>ms2
126.009000 7344.000000
127.012700 496.000000
128.006000 2376.000000
154.015400 81416.000000
155.018100 6600.000000
156.012100 28024.000000

>ms2
125.001400 544.000000
126.009300 2328.000000
128.005900 860.000000
154.015300 13168.000000
155.017200 744.000000
156.012100 5048.000000

>ms2
119.049300 660.000000
125.002200 412.000000
126.010300 388.000000
154.016100 944.000000
156.013500 324.000000

>ms2
119.048500 304.000000

>ms2
63.022000 1068.000000
72.983400 844.000000
90.033900 1060.000000
91.040800 460.000000
99.000400 3692.000000
100.996800 528.000000
126.009800 5332.000000
128.007200 2108.000000
154.016100 91808.000000
155.018800 5344.000000
156.012900 18680.000000

