>compound AU66242273
>parentmass 214.11210000000003
>ionization [M+H]+
>formula C8H15N5S
>rt 503.700000
>profile qtof
#smiles_iso CCNC1=NC(=NC(=N1)SC)NCC
#smiles_can CCNC1=NC(=NC(=N1)SC)NCC
#inchikey MGLWZSOBALDPEK-UHFFFAOYSA-N
#pubchem_id 13905
#mb_accession AU260501,AU260502,AU260503,AU260504,AU260505,AU260506

>ms2
124.086000 35056.000000
144.058000 22556.000000
166.107300 18500.000000
186.079700 12976.000000
214.113900 2517040.000000

>ms2
116.027100 13016.000000
124.086400 298344.000000
125.089500 15908.000000
144.058200 235204.000000
145.060500 14256.000000
166.108000 156192.000000
167.110600 11580.000000
186.080000 88944.000000
214.112000 2201656.000000
215.114100 201124.000000
216.107900 71224.000000

>ms2
116.027000 54348.000000
117.028700 2888.000000
124.086200 228080.000000
125.088900 17800.000000
138.076400 29816.000000
139.079500 1764.000000
141.112300 6424.000000
144.057900 282452.000000
145.060500 18424.000000
146.053400 11272.000000
158.047900 9532.000000
166.107500 115620.000000
167.110400 10952.000000
168.122700 2612.000000
170.049300 1868.000000
171.056200 2884.000000
184.064400 2488.000000
186.079700 69632.000000
187.082100 6244.000000
188.074700 2932.000000
198.079500 2440.000000
199.087000 2244.000000
212.096000 3772.000000
214.111500 239772.000000
215.113700 25692.000000
216.107800 10396.000000

>ms2
113.081300 352.000000
116.026400 12404.000000
117.029500 932.000000
124.085700 11972.000000
125.088800 1040.000000
128.026600 572.000000
138.075700 5592.000000
141.020900 868.000000
141.111100 640.000000
143.023500 516.000000
144.057300 16944.000000
145.060000 1012.000000
146.052600 944.000000
153.099400 332.000000
155.037700 776.000000
156.032800 432.000000
156.043300 380.000000
158.047900 1928.000000
166.107200 4772.000000
167.110400 568.000000
170.047400 1048.000000
171.055700 524.000000
184.062600 936.000000
186.079900 3228.000000
198.078800 920.000000
212.092900 328.000000
214.111100 3372.000000
215.113100 492.000000

>ms2
116.027700 2632.000000
124.086500 1068.000000
128.026400 604.000000
138.076600 928.000000
141.023700 532.000000
144.057500 1896.000000
155.037900 616.000000
156.033000 404.000000
166.107100 504.000000
170.048000 444.000000
186.078000 380.000000
214.108700 316.000000

>ms2
124.086300 1072.000000
126.009600 12700.000000
127.012400 628.000000
128.025300 696.000000
129.010100 492.000000
139.004400 1172.000000
144.058100 892.000000
166.109400 524.000000
174.012100 7024.000000
175.013900 360.000000
186.079700 324.000000
214.111600 4764.000000
215.114500 628.000000

