>compound AU66972976
>parentmass 360.157
>ionization [M+Na]+
>formula C21H23NO3
>rt 921.420000
>profile qtof
#smiles_iso CN(C)CC/C=C\1/C2=CC=CC=C2COC3=C1C=C(C=C3)CC(=O)O
#smiles_can CN(C)CCC=C1C2=CC=CC=C2COC3=C1C=C(C=C3)CC(=O)O
#inchikey JBIMVDZLSHOPLA-LSCVHKIXSA-N
#pubchem_id 5281071
#mb_accession AU221031

>ms2peaks
149.023800 2736.000000
163.076400 304.000000
301.149200 388.000000

