>compound AU66292567
>parentmass 213.0789
>ionization [M+H]+
>formula C10H13ClN2O
>rt 481.090000
>profile qtof
#smiles_iso CC1=C(C=C(C=C1)NC(=O)N(C)C)Cl
#smiles_can CC1=C(C=C(C=C1)NC(=O)N(C)C)Cl
#inchikey JXCGFZXSOMJFOA-UHFFFAOYSA-N
#pubchem_id 27375
#mb_accession AU231401,AU231402,AU231403,AU231404,AU231405,AU231406

>ms2peaks
213.078800 2207812.000000
214.081700 228476.000000
215.075700 690796.000000

>ms2peaks
125.015500 1544.000000
133.051500 1812.000000
140.025100 48252.000000
141.028400 3436.000000
142.022000 11892.000000
143.025400 908.000000
153.021800 944.000000
168.019900 45820.000000
169.023800 3992.000000
170.017000 12856.000000
213.078300 169324.000000
214.081200 21244.000000
215.074900 50076.000000

>ms2peaks
113.015600 868.000000
125.014600 10376.000000
126.018200 920.000000
127.011000 3136.000000
132.043400 2164.000000
133.051000 4452.000000
140.025200 78956.000000
141.028300 6880.000000
142.021800 21076.000000
143.025000 1852.000000
152.997800 516.000000
153.020500 1916.000000
168.020300 12688.000000
169.022800 1524.000000
170.016700 4216.000000
213.078100 1940.000000
215.077000 776.000000

>ms2peaks
113.014400 1012.000000
115.012600 468.000000
120.079100 384.000000
121.085700 328.000000
125.014400 12408.000000
126.017100 988.000000
127.011400 4792.000000
128.015500 364.000000
132.043300 2048.000000
133.050300 2824.000000
134.095400 488.000000
140.024700 27816.000000
141.028300 2428.000000
142.021800 8828.000000
143.025200 820.000000
152.994500 664.000000
153.020600 1044.000000
166.006200 564.000000
168.020100 1072.000000
170.016200 476.000000

>ms2peaks
113.013400 496.000000
120.079100 700.000000
125.002200 332.000000
125.014100 6032.000000
126.017700 400.000000
127.011000 2124.000000
132.042900 1856.000000
133.050200 472.000000
140.024500 6352.000000
141.028800 308.000000
142.021600 1940.000000
145.074900 304.000000

>ms2peaks
46.065200 83660.000000
56.012600 5300.000000
72.044600 1028808.000000
73.047400 35044.000000
140.026400 66888.000000
141.029300 6020.000000
142.023200 16604.000000
168.021100 40268.000000
170.017600 7932.000000
213.079200 180740.000000
214.082200 21444.000000
215.076000 56432.000000

