>compound AU66327397
>parentmass 172.1332
>ionization [M+H]+
>formula C9H17NO2
>rt 222.195000
>profile qtof
#smiles_iso C1CCC(CC1)(CC(=O)O)CN
#smiles_can C1CCC(CC1)(CC(=O)O)CN
#inchikey UGJMXCAKCUNAIE-UHFFFAOYSA-N
#pubchem_id 3446
#mb_accession AU167801,AU167802,AU167803,AU167806

>ms2peaks
119.085400 924.000000
137.095500 13444.000000
138.097600 960.000000
154.121900 57296.000000
155.105900 3016.000000
155.125000 4652.000000
172.132700 143928.000000
173.135100 10140.000000
174.137100 1248.000000

>ms2peaks
119.085000 4480.000000
120.087500 444.000000
126.126300 888.000000
136.111000 2340.000000
137.095600 26584.000000
138.099300 1920.000000
154.121600 33224.000000
155.105500 1284.000000
155.124900 2880.000000
156.125600 308.000000
172.132300 6112.000000

>ms2peaks
119.084400 1108.000000
136.110400 1144.000000
137.095500 2572.000000
154.121500 1964.000000

>ms2peaks
55.017500 16520.000000
67.053800 7148.000000
69.069900 784.000000
81.070200 504.000000
91.053900 1060.000000
93.069600 1584.000000
95.086000 4144.000000
109.101000 2200.000000
119.084900 11584.000000
120.088300 1176.000000
126.127000 1404.000000
136.111600 4384.000000
137.095600 60652.000000
138.098500 5124.000000
154.122100 94100.000000
155.105300 3760.000000
155.124700 7964.000000
156.128400 644.000000
172.132600 32960.000000
173.135800 2616.000000

