>compound AU67994162
>parentmass 417.2272
>ionization [M+H]+
>formula C24H32O6
>rt 542.340000
>profile qtof
#smiles_iso C[C@]12C[C@@H]([C@H]3[C@H]([C@@H]1C[C@@H]4[C@]2(OC(O4)(C)C)C(=O)CO)CCC5=CC(=O)C=C[C@]35C)O
#smiles_can CC1(OC2CC3C4CCC5=CC(=O)C=CC5(C4C(CC3(C2(O1)C(=O)CO)C)O)C)C
#inchikey WBGKWQHBNHJJPZ-LECWWXJVSA-N
#pubchem_id 5311066
#mb_accession AU283001,AU283002,AU283003,AU283004,AU283005,AU283006

>ms2peaks
147.078900 10148.000000
171.078900 3376.000000
173.094900 11400.000000
223.110800 4392.000000
225.126600 12644.000000
226.133000 8776.000000
227.141500 7516.000000
237.126800 3480.000000
239.143100 3828.000000
241.158700 4476.000000
263.143000 8280.000000
265.158000 11508.000000
277.158000 11992.000000
278.161100 3152.000000
281.153400 6200.000000
283.168500 5916.000000
287.142100 3944.000000
293.152700 6312.000000
295.169300 37124.000000
296.172000 7372.000000
305.153100 37272.000000
306.156400 8620.000000
311.164300 4560.000000
313.179300 12628.000000
314.182200 3736.000000
323.164500 154344.000000
324.167800 34260.000000
325.169600 3760.000000
341.174900 143720.000000
342.178000 36204.000000
343.180900 4516.000000
363.194800 3972.000000
381.206100 17564.000000
382.209400 6920.000000
399.217100 593528.000000
400.220100 140152.000000
401.223000 17232.000000
417.227600 556600.000000
418.231100 151080.000000
419.234000 19840.000000

>ms2peaks
121.063900 9568.000000
135.079300 13452.000000
137.058400 7072.000000
139.073900 3384.000000
141.053700 2176.000000
147.079700 83976.000000
148.083000 10184.000000
149.095000 2884.000000
151.073900 2672.000000
155.069200 11360.000000
159.079100 6932.000000
161.094900 13928.000000
163.074100 11536.000000
171.079300 27364.000000
172.082900 4816.000000
173.095100 77796.000000
174.098700 8576.000000
175.110300 2896.000000
177.089700 3396.000000
181.085400 8568.000000
185.095500 9900.000000
187.075100 2608.000000
187.110900 9248.000000
189.090100 2460.000000
197.095300 7208.000000
199.110600 8352.000000
201.090800 2884.000000
209.095700 4196.000000
211.110800 10156.000000
213.127200 8480.000000
215.105900 3160.000000
221.095600 3624.000000
223.110600 15336.000000
224.115900 3516.000000
225.126800 93608.000000
226.133800 62340.000000
227.141800 37848.000000
228.146000 7516.000000
235.110900 8028.000000
237.126500 25752.000000
238.130600 5180.000000
239.105600 2400.000000
239.142300 19804.000000
240.145500 3996.000000
241.158600 19184.000000
242.161100 4568.000000
247.110200 2220.000000
249.126800 9324.000000
250.131400 2412.000000
251.142900 11528.000000
252.146700 2284.000000
253.121200 4228.000000
253.158600 8840.000000
254.160900 2152.000000
255.137500 4840.000000
261.126700 7800.000000
262.133300 3924.000000
263.142700 32768.000000
264.147400 10272.000000
265.158500 83948.000000
266.161500 16468.000000
267.137100 6424.000000
267.174200 9100.000000
269.153400 2236.000000
275.142800 8024.000000
276.148000 2112.000000
277.122200 3480.000000
277.158800 59716.000000
278.161600 13984.000000
279.137500 9316.000000
279.169200 2148.000000
280.142100 2564.000000
281.153200 19816.000000
282.157100 4768.000000
283.168900 19380.000000
284.171800 4180.000000
287.142600 17076.000000
288.145400 4724.000000
293.153400 16040.000000
294.157500 4484.000000
295.169500 86988.000000
296.172400 18604.000000
297.147700 3444.000000
305.153500 84848.000000
306.156700 20644.000000
307.160900 2372.000000
311.163900 7424.000000
313.179700 18276.000000
314.183100 4448.000000
323.164500 208356.000000
324.168000 50348.000000
325.170300 4552.000000
341.175000 106088.000000
342.178100 27968.000000
343.181900 2752.000000
363.193900 2928.000000
381.206400 7224.000000
399.217200 418704.000000
400.220100 102368.000000
401.223000 12412.000000
417.227400 7768.000000
418.229000 2608.000000

>ms2peaks
115.054100 1404.000000
117.069400 1692.000000
119.084900 6080.000000
121.064000 25032.000000
122.067500 3032.000000
123.043800 1016.000000
123.079700 1808.000000
125.058700 1192.000000
128.061800 1604.000000
129.069200 1928.000000
131.047200 1208.000000
131.084500 4376.000000
132.056600 2016.000000
133.063600 5060.000000
133.100400 1800.000000
134.066900 844.000000
135.079300 26056.000000
136.083000 2996.000000
137.058700 10020.000000
137.095000 1024.000000
138.061800 992.000000
139.074500 5204.000000
141.054200 2984.000000
141.068300 932.000000
143.084300 3332.000000
145.063900 7412.000000
145.099900 3896.000000
147.079500 164432.000000
148.082700 14648.000000
149.058400 3284.000000
149.094900 3776.000000
151.073800 4120.000000
153.089800 1516.000000
155.068900 8704.000000
155.084400 3100.000000
156.072800 1148.000000
157.099900 5740.000000
158.071100 3720.000000
159.079700 21176.000000
160.083600 3268.000000
161.094900 22372.000000
162.098900 2436.000000
163.074200 14532.000000
164.077900 1632.000000
165.088600 1208.000000
167.068700 2072.000000
167.083800 860.000000
169.100200 2552.000000
171.079300 60492.000000
172.083200 9304.000000
173.095000 119240.000000
174.098200 15636.000000
175.074200 1352.000000
175.110700 4368.000000
177.090300 2952.000000
179.085300 1040.000000
179.104400 1304.000000
181.084400 4892.000000
183.079700 3436.000000
183.115800 908.000000
184.085500 1068.000000
185.095000 20296.000000
186.099500 3416.000000
187.074000 3220.000000
187.110800 13432.000000
188.114600 1944.000000
189.089800 3556.000000
192.092200 1344.000000
193.099900 1664.000000
195.079100 4072.000000
195.099000 988.000000
195.115300 1072.000000
196.087200 2204.000000
197.095100 17328.000000
197.130900 1940.000000
198.100000 3560.000000
199.073700 1172.000000
199.110700 13712.000000
200.114200 2152.000000
201.090000 4140.000000
201.126600 1836.000000
202.094500 832.000000
203.104900 1308.000000
205.100000 1004.000000
207.115900 5608.000000
208.087400 1864.000000
208.120000 1420.000000
209.094700 13700.000000
209.131400 2008.000000
210.101100 7712.000000
211.110500 30756.000000
212.115500 5260.000000
213.090400 3168.000000
213.126400 13036.000000
214.129800 2812.000000
215.106000 4240.000000
215.143200 1048.000000
219.114500 1308.000000
221.095100 9788.000000
221.131500 1844.000000
222.102000 5988.000000
223.110700 21256.000000
224.116400 6484.000000
225.126800 121340.000000
226.133700 83604.000000
227.105400 2656.000000
227.141200 47576.000000
228.145100 9128.000000
229.086500 1060.000000
229.153700 932.000000
231.115300 924.000000
233.094500 1056.000000
233.131900 1416.000000
234.102900 2456.000000
235.110500 16076.000000
235.147400 1652.000000
236.115800 4328.000000
237.126900 40108.000000
238.130300 8608.000000
239.106100 3316.000000
239.142300 26568.000000
240.145900 6216.000000
241.120400 1976.000000
241.157800 20732.000000
242.161400 3812.000000
243.114400 908.000000
243.135500 1024.000000
245.093000 956.000000
245.131300 960.000000
246.101900 2392.000000
247.110800 3124.000000
247.147900 1992.000000
248.118800 6328.000000
249.089700 1020.000000
249.126400 17112.000000
250.131800 5032.000000
251.106200 1752.000000
251.142400 15148.000000
252.147400 4400.000000
253.120400 4860.000000
253.158100 10176.000000
254.123000 976.000000
254.162400 2460.000000
255.137100 3336.000000
255.170200 920.000000
258.102700 860.000000
259.110800 1120.000000
259.147200 2872.000000
260.117400 1772.000000
261.126500 9932.000000
262.133100 8864.000000
263.106200 3336.000000
263.142200 37352.000000
264.112600 1496.000000
264.148000 19092.000000
265.158100 101844.000000
266.161100 23952.000000
267.100500 1064.000000
267.137600 6624.000000
267.171900 6388.000000
268.140900 1844.000000
269.152600 1948.000000
271.130600 824.000000
272.118900 4856.000000
273.123400 1392.000000
275.141900 8112.000000
276.111500 1036.000000
276.145700 2808.000000
277.122000 3564.000000
277.158100 50336.000000
278.125700 1568.000000
278.161600 12572.000000
279.136500 6448.000000
279.166600 1708.000000
280.143000 2840.000000
281.117600 1196.000000
281.152700 12708.000000
282.158100 5128.000000
283.168900 10872.000000
284.172000 2524.000000
287.142500 17772.000000
288.145300 4028.000000
290.129600 2900.000000
291.134600 1080.000000
292.145100 1176.000000
293.152900 9976.000000
294.157900 2528.000000
295.132100 1808.000000
295.168500 28096.000000
296.171500 7008.000000
297.146500 1848.000000
297.173400 868.000000
305.153000 35772.000000
306.155600 8712.000000
307.155900 852.000000
311.164900 2616.000000
313.179500 5264.000000
314.182100 1656.000000
323.163700 50068.000000
324.166800 11544.000000
325.170000 1272.000000
341.174400 15400.000000
342.177400 4028.000000
399.216400 41148.000000
400.219500 13316.000000
401.223200 1896.000000

>ms2peaks
115.053800 4636.000000
117.068900 4412.000000
119.084700 11120.000000
120.087700 1364.000000
121.063900 38628.000000
122.067300 4528.000000
123.043000 1312.000000
123.080100 2696.000000
125.059200 1288.000000
128.061100 5540.000000
129.068700 5180.000000
130.075300 1616.000000
131.047900 3100.000000
131.084500 7384.000000
132.056200 5584.000000
133.063500 5744.000000
133.100400 3072.000000
135.079600 28732.000000
136.083200 3092.000000
137.058500 8628.000000
139.074200 4720.000000
141.053400 2748.000000
141.068700 3368.000000
142.076500 2704.000000
143.084500 8996.000000
144.055800 1804.000000
145.063600 17168.000000
145.099800 9788.000000
146.069600 4100.000000
147.079500 196912.000000
148.082500 20952.000000
149.058100 3412.000000
149.094700 3420.000000
151.074200 2408.000000
153.068800 1712.000000
154.076800 1344.000000
155.068600 3032.000000
155.084100 7324.000000
156.088600 1576.000000
157.063500 2384.000000
157.100200 8392.000000
158.071300 17308.000000
158.104400 1408.000000
159.079000 34960.000000
160.083600 5856.000000
161.094900 24824.000000
162.098300 3328.000000
163.074600 11192.000000
163.111300 996.000000
164.076600 1540.000000
165.068700 1808.000000
165.090000 1076.000000
166.075300 1156.000000
167.084100 3400.000000
169.063500 2380.000000
169.099700 4500.000000
170.071100 2628.000000
171.079300 89456.000000
172.083300 12668.000000
173.095300 123644.000000
174.098300 15996.000000
175.074300 1724.000000
175.110100 4100.000000
177.089400 2448.000000
178.076900 2416.000000
179.083800 4372.000000
180.092400 1688.000000
181.064000 2452.000000
181.085600 1928.000000
181.100600 4264.000000
182.071000 2464.000000
182.106200 1344.000000
183.079100 6828.000000
183.116300 1344.000000
184.087000 3880.000000
185.095200 27576.000000
186.099100 6264.000000
187.074500 3500.000000
187.110500 10652.000000
188.113700 1984.000000
189.090200 2412.000000
191.083800 3120.000000
192.092100 7244.000000
193.099500 6740.000000
194.071600 1564.000000
194.105000 1892.000000
195.079200 9540.000000
195.116500 2968.000000
196.086900 10516.000000
197.095000 29220.000000
197.131400 3580.000000
198.101100 8976.000000
199.073800 1380.000000
199.110700 18600.000000
200.114400 3540.000000
201.090500 3340.000000
201.125700 1144.000000
202.096100 1328.000000
203.105400 1024.000000
204.091600 1708.000000
205.100000 4388.000000
206.107800 2040.000000
207.079300 1720.000000
207.116400 19076.000000
208.087200 8244.000000
208.120700 3944.000000
209.095000 23312.000000
209.130700 3620.000000
210.102400 24864.000000
211.110900 65640.000000
212.115000 13556.000000
213.090000 2640.000000
213.125700 13064.000000
214.130300 1960.000000
215.106400 2480.000000
217.101100 1556.000000
218.107800 1176.000000
219.080300 1112.000000
219.116000 4000.000000
220.086400 2304.000000
220.120600 1492.000000
221.095600 15000.000000
221.131700 3100.000000
222.102400 15572.000000
223.110700 29984.000000
224.117000 11080.000000
225.126600 95584.000000
226.133800 77020.000000
227.105400 2300.000000
227.140600 28160.000000
228.144800 4592.000000
229.099300 1548.000000
230.106700 1908.000000
231.115200 2312.000000
232.086800 1496.000000
232.122800 1364.000000
233.095000 4024.000000
233.129700 2532.000000
234.102900 8392.000000
235.110900 22356.000000
235.147500 1820.000000
236.117500 9880.000000
237.126500 35760.000000
238.130800 8348.000000
239.106100 2460.000000
239.142300 18800.000000
240.145800 4140.000000
241.157500 10240.000000
242.161400 1828.000000
243.114900 1856.000000
244.124400 1756.000000
245.094900 2632.000000
245.130600 2932.000000
246.101700 4028.000000
247.110700 7888.000000
247.147100 2436.000000
248.119000 14336.000000
249.090100 1600.000000
249.126200 18672.000000
249.162400 1212.000000
250.098200 1188.000000
250.133200 9976.000000
251.106200 2076.000000
251.141600 11096.000000
252.146400 3940.000000
253.121900 2944.000000
253.158700 4448.000000
254.127400 1416.000000
254.162800 1300.000000
255.136900 1560.000000
257.094900 1456.000000
258.100100 1364.000000
259.111500 2352.000000
259.147500 2604.000000
260.117600 3976.000000
261.089200 1120.000000
261.126300 8356.000000
262.133800 14428.000000
263.105800 2336.000000
263.141800 23288.000000
264.112400 1732.000000
264.149500 15764.000000
265.158000 59832.000000
266.128400 1304.000000
266.161700 13708.000000
267.137900 4124.000000
267.173000 2440.000000
268.139700 1060.000000
271.110200 1208.000000
272.118400 6440.000000
273.122400 2744.000000
274.137600 1072.000000
275.107300 1136.000000
275.143100 5600.000000
276.114000 1088.000000
276.147100 2352.000000
277.121400 2804.000000
277.158100 20072.000000
278.126300 1520.000000
278.161700 4992.000000
279.138300 3660.000000
280.144800 2172.000000
281.152700 5236.000000
282.160800 3348.000000
283.167600 3812.000000
287.141900 6492.000000
288.145600 1744.000000
290.130500 3132.000000
292.142900 1268.000000
293.152300 3708.000000
294.159000 1580.000000
295.169000 6704.000000
296.171700 1508.000000
305.153400 7376.000000
306.155800 2200.000000
313.179300 1204.000000
323.163600 6900.000000
324.167900 2072.000000
399.215900 1616.000000

>ms2peaks
115.053600 8256.000000
116.060200 2008.000000
117.069200 5304.000000
119.084800 16112.000000
120.087900 1916.000000
121.064100 47572.000000
122.067300 4424.000000
123.078900 1912.000000
125.059100 1028.000000
127.052800 1396.000000
128.061200 14364.000000
129.068600 12008.000000
130.075600 4600.000000
131.048300 5904.000000
131.084500 9184.000000
132.055900 14416.000000
133.062800 5352.000000
133.100700 3660.000000
135.079400 23168.000000
136.082700 2132.000000
137.058400 5424.000000
139.074200 2976.000000
141.068900 7940.000000
142.076200 5168.000000
143.084200 12988.000000
144.056000 5216.000000
144.089500 2092.000000
145.063600 25640.000000
145.100100 12932.000000
146.070700 7644.000000
146.103300 1672.000000
147.079500 181304.000000
148.082600 19720.000000
149.058700 2260.000000
149.094500 2720.000000
151.073300 1728.000000
152.061200 2584.000000
153.068800 4872.000000
154.075400 2904.000000
155.084100 12976.000000
156.089600 3332.000000
157.063800 5108.000000
157.100000 6804.000000
158.071600 35016.000000
159.079100 40164.000000
160.083300 6528.000000
161.095000 20724.000000
162.098900 3000.000000
163.074300 4860.000000
165.069100 6540.000000
166.075400 4044.000000
167.084100 6504.000000
168.089200 2116.000000
169.063500 4536.000000
169.099700 5440.000000
170.071100 5256.000000
170.105000 1056.000000
171.079400 87248.000000
172.083400 12740.000000
173.095000 80620.000000
174.098700 10508.000000
175.074500 1136.000000
175.110000 2396.000000
177.091100 1108.000000
178.076500 7688.000000
179.084200 11504.000000
180.090900 4444.000000
181.063600 7844.000000
181.099300 6584.000000
182.071200 5620.000000
182.105900 2512.000000
183.078900 9852.000000
183.114800 3328.000000
184.086500 6336.000000
185.094800 21568.000000
186.100200 4148.000000
187.074400 1976.000000
187.110100 5892.000000
189.068500 1948.000000
190.076100 2492.000000
191.084400 8644.000000
192.092200 20976.000000
193.099300 15776.000000
194.071100 5384.000000
194.106000 3748.000000
195.079400 21132.000000
195.115100 4996.000000
196.086300 20260.000000
197.094500 30980.000000
197.131600 3936.000000
198.101000 11944.000000
199.073700 1244.000000
199.110200 11736.000000
200.113500 2036.000000
201.089400 1416.000000
202.077500 1860.000000
202.096900 1420.000000
203.084800 3804.000000
204.092400 3148.000000
205.099700 6536.000000
206.071600 1380.000000
206.106800 3752.000000
207.080300 3532.000000
207.115800 23848.000000
208.087100 15252.000000
208.119700 5048.000000
209.094700 30032.000000
209.131800 3904.000000
210.102500 37536.000000
211.110800 84484.000000
212.114700 17404.000000
213.091400 1244.000000
213.126300 5672.000000
214.129600 1116.000000
215.085100 2428.000000
215.105500 1868.000000
216.092800 2740.000000
217.100400 3312.000000
218.071300 1244.000000
218.108600 1936.000000
219.079200 4648.000000
219.116200 5072.000000
220.087100 5360.000000
220.122400 1756.000000
221.095100 17168.000000
221.131600 2332.000000
222.102300 21552.000000
223.110100 25356.000000
224.083200 976.000000
224.117500 10344.000000
225.126200 42992.000000
226.133600 30392.000000
227.139800 10012.000000
228.145300 1904.000000
229.099700 3164.000000
230.106900 2832.000000
231.079700 2436.000000
231.116000 3332.000000
232.086900 3780.000000
232.121400 1552.000000
233.095600 9184.000000
233.130600 2096.000000
234.102900 10636.000000
234.136300 1188.000000
235.110600 20224.000000
235.147100 1232.000000
236.117400 11452.000000
237.091600 1220.000000
237.126200 20248.000000
238.131700 5488.000000
239.105600 1912.000000
239.142400 7872.000000
240.145600 1980.000000
241.157300 2384.000000
242.107300 956.000000
243.115300 2208.000000
244.123200 1880.000000
245.095600 3752.000000
245.129600 2712.000000
246.102300 5484.000000
247.110100 10328.000000
247.147900 1680.000000
248.118400 13744.000000
249.089000 1716.000000
249.125900 16572.000000
250.096300 1412.000000
250.133000 8604.000000
251.105800 1304.000000
251.140500 5552.000000
252.148500 1540.000000
253.122100 1760.000000
253.158500 1464.000000
257.094500 2668.000000
258.102200 1756.000000
259.110700 2680.000000
259.146500 1136.000000
260.117500 3016.000000
261.090500 1052.000000
261.125700 5836.000000
262.097900 1160.000000
262.134700 10512.000000
263.106700 2264.000000
263.141700 8080.000000
264.115100 1312.000000
264.149800 7456.000000
265.122700 1368.000000
265.157400 14504.000000
266.161600 2988.000000
267.137700 2408.000000
271.111900 1308.000000
272.118600 4064.000000
273.125300 1572.000000
274.134900 1068.000000
275.107200 1504.000000
275.142200 1876.000000
276.110500 960.000000
277.121500 2092.000000
277.157600 4260.000000
278.129800 1288.000000
278.160600 1116.000000
279.137300 1508.000000
280.143200 1016.000000
281.152400 1280.000000
282.159700 956.000000
287.143500 2004.000000
289.117500 936.000000
290.127200 1648.000000
295.169000 1200.000000
305.153500 1264.000000

>ms2peaks
55.017400 1348.000000
55.053700 948.000000
59.048600 6032.000000
67.053700 1080.000000
69.032800 1248.000000
69.069000 956.000000
71.048700 1488.000000
73.028100 636.000000
79.053600 2092.000000
81.032800 1240.000000
81.069700 7032.000000
83.012400 920.000000
83.049400 2128.000000
85.028700 716.000000
85.064900 864.000000
87.043800 1984.000000
91.054400 2468.000000
93.070400 5400.000000
95.049600 2060.000000
95.086000 4868.000000
97.028800 1160.000000
97.065400 2672.000000
99.044100 2360.000000
101.023900 6668.000000
101.059000 608.000000
105.070900 3556.000000
107.049100 928.000000
107.086800 3592.000000
109.065800 3424.000000
109.100700 584.000000
111.044900 884.000000
111.081700 664.000000
113.060100 1016.000000
115.039800 844.000000
115.053800 1400.000000
117.070200 1952.000000
119.086000 5152.000000
121.064600 26608.000000
122.068100 2364.000000
123.044700 948.000000
123.080700 1884.000000
125.059500 924.000000
128.062200 1164.000000
129.070300 1464.000000
131.047900 664.000000
131.084700 3184.000000
132.055600 1748.000000
133.064200 3548.000000
133.100100 1384.000000
135.079700 18452.000000
136.083600 2324.000000
137.059100 8400.000000
137.094300 596.000000
138.063000 1068.000000
139.074900 4284.000000
141.053800 1712.000000
141.069200 596.000000
142.076700 608.000000
143.084500 2748.000000
145.063600 5456.000000
145.100400 2780.000000
146.069900 860.000000
147.079700 105660.000000
148.082700 11520.000000
149.058400 2180.000000
149.095400 2508.000000
151.074500 2456.000000
153.069900 608.000000
153.089600 764.000000
155.068800 5724.000000
155.083300 2296.000000
157.064300 708.000000
157.100600 3520.000000
158.071300 3868.000000
159.064900 776.000000
159.079100 14916.000000
160.083400 2420.000000
161.095300 17384.000000
162.097100 1964.000000
163.074200 11824.000000
164.077600 1160.000000
165.089600 1300.000000
167.069300 1696.000000
167.086300 708.000000
169.063200 664.000000
169.099700 1780.000000
170.071500 588.000000
171.079700 42352.000000
172.083500 5504.000000
173.095300 82320.000000
174.098400 11472.000000
175.072700 1084.000000
175.109900 2808.000000
177.089600 2336.000000
179.084100 1448.000000
179.105900 720.000000
181.085200 4132.000000
181.097100 1248.000000
182.072100 800.000000
182.090900 628.000000
183.079800 2464.000000
184.085100 924.000000
185.095400 16304.000000
186.099200 2924.000000
187.074800 2312.000000
187.110400 10168.000000
188.114900 1564.000000
189.090700 2876.000000
190.092300 608.000000
191.084400 568.000000
192.091700 1580.000000
193.099400 1480.000000
195.080300 2236.000000
195.100100 720.000000
195.117000 780.000000
196.087200 1888.000000
197.095100 13272.000000
197.130900 1252.000000
198.100900 3408.000000
199.074500 652.000000
199.110700 11688.000000
200.114700 1904.000000
201.089800 2412.000000
201.128500 720.000000
202.094000 688.000000
203.105700 1196.000000
205.099200 996.000000
207.116800 4748.000000
208.088200 1672.000000
208.120000 960.000000
209.095400 11184.000000
209.131600 1160.000000
210.103200 6608.000000
211.111200 21488.000000
212.115900 3588.000000
213.090300 2748.000000
213.126300 8868.000000
214.131000 1520.000000
215.106400 3020.000000
215.141300 912.000000
216.108700 600.000000
219.116700 1304.000000
221.094800 7288.000000
221.132600 1040.000000
222.102300 5460.000000
223.111100 17548.000000
224.116500 6152.000000
225.127300 90428.000000
226.134100 73804.000000
227.105700 1960.000000
227.141600 38804.000000
228.145200 6240.000000
229.088100 1180.000000
229.157600 708.000000
230.109900 556.000000
231.117500 704.000000
233.094300 1112.000000
233.133800 636.000000
234.103100 2332.000000
235.111500 11640.000000
235.148400 1192.000000
236.117000 4052.000000
237.127200 34456.000000
238.130700 6232.000000
239.106200 2024.000000
239.142700 21316.000000
240.111700 920.000000
240.146400 4696.000000
241.121300 780.000000
241.158500 15236.000000
242.163200 2600.000000
243.119200 748.000000
243.139000 668.000000
244.124800 568.000000
245.096000 664.000000
245.133200 1288.000000
246.104000 1448.000000
247.110500 3244.000000
247.147000 1300.000000
248.118000 5372.000000
249.089400 800.000000
249.126600 12796.000000
249.164300 688.000000
250.132300 4364.000000
251.106900 1108.000000
251.143100 10924.000000
252.146300 2488.000000
253.121700 3228.000000
253.157400 6892.000000
254.125600 740.000000
254.160800 1508.000000
255.137200 2684.000000
255.174700 596.000000
257.096100 564.000000
259.109700 1244.000000
259.147400 1872.000000
260.117600 1276.000000
260.149900 808.000000
261.127700 7700.000000
262.134100 9588.000000
263.108100 1752.000000
263.142800 32216.000000
264.112900 932.000000
264.149300 14944.000000
265.158800 76664.000000
266.162000 16900.000000
267.137300 4360.000000
267.173000 4124.000000
268.140200 1100.000000
268.176400 1036.000000
269.132400 544.000000
269.153200 1292.000000
272.121300 3368.000000
273.124900 760.000000
274.131600 800.000000
275.143000 5224.000000
276.113600 612.000000
276.148100 2168.000000
277.122200 3120.000000
277.159200 38100.000000
278.127300 972.000000
278.161900 8932.000000
279.137700 5516.000000
279.167500 1056.000000
280.142300 2880.000000
281.119000 588.000000
281.153500 9800.000000
282.158900 3808.000000
283.131800 680.000000
283.169200 8916.000000
284.171800 2108.000000
285.147400 544.000000
287.143300 12980.000000
288.147100 3132.000000
290.130200 1892.000000
291.134500 564.000000
292.143300 1124.000000
293.153200 8016.000000
294.158200 2776.000000
295.169100 34560.000000
296.172700 6220.000000
297.148000 1612.000000
297.176100 812.000000
299.162200 664.000000
305.153700 35708.000000
306.157200 8856.000000
307.162900 900.000000
311.164600 1956.000000
312.166800 740.000000
313.180100 7588.000000
314.183800 1568.000000
321.149800 644.000000
323.164600 59632.000000
324.168000 14276.000000
325.171400 1612.000000
341.175200 24176.000000
342.178300 7224.000000
343.176000 536.000000
363.196200 860.000000
381.207300 836.000000
399.218000 93368.000000
400.221100 23616.000000
401.223600 3192.000000

