>compound AU67516712
>parentmass 388.1059
>ionization [M+H]+
>formula C19H18ClN3O4
>rt 673.580000
>profile qtof
#smiles_iso COC(=O)N(C1=CC=CC=C1COC2=NN(C=C2)C3=CC=C(C=C3)Cl)OC
#smiles_can COC(=O)N(C1=CC=CC=C1COC2=NN(C=C2)C3=CC=C(C=C3)Cl)OC
#inchikey HZRSNVGNWUDEFX-UHFFFAOYSA-N
#pubchem_id 6422843
#mb_accession AU259301,AU259302,AU259303,AU259304,AU259305,AU259306

>ms2
149.045800 18704.000000
162.053600 51644.000000
163.061300 149108.000000
164.069300 285152.000000
165.072400 21176.000000
194.080400 2449664.000000
195.083400 169420.000000
296.058300 233152.000000
297.061400 38052.000000
298.055600 59248.000000
324.053100 39512.000000
356.079700 232896.000000
357.083800 60984.000000
358.077200 60748.000000
388.106000 1290100.000000
389.108800 237304.000000
390.103300 328104.000000

>ms2
118.064400 22872.000000
119.035800 17268.000000
120.043300 12140.000000
132.043400 72960.000000
133.051000 64552.000000
134.059000 118520.000000
149.046200 247952.000000
150.049300 16396.000000
162.054000 315220.000000
163.061800 2257572.000000
164.069300 1753076.000000
165.072500 107720.000000
166.085000 37744.000000
174.053500 13300.000000
179.056400 22800.000000
191.080400 13292.000000
194.080500 2022096.000000
195.083700 126504.000000
216.064700 20236.000000
261.089000 19600.000000
296.058500 466316.000000
297.061500 75924.000000
298.055600 116724.000000
299.058700 13656.000000
324.053500 58460.000000
326.051000 14160.000000
356.079500 17416.000000

>ms2
118.064000 18736.000000
119.035900 47104.000000
120.043300 33216.000000
128.048400 16176.000000
132.043500 147268.000000
133.051200 275516.000000
134.058600 138604.000000
135.064300 12532.000000
146.059100 22904.000000
149.046100 618444.000000
150.049200 35552.000000
162.053800 285892.000000
163.061800 2496304.000000
164.068700 657532.000000
165.072000 42964.000000
166.084600 23964.000000
179.056600 27612.000000
194.080100 142800.000000
195.083300 16020.000000
253.051700 17300.000000
261.089100 32548.000000
296.058400 164908.000000
297.061300 28928.000000
298.055900 45536.000000
324.053400 19688.000000

>ms2
117.056300 12244.000000
118.064200 26972.000000
119.035800 96400.000000
120.043600 107640.000000
121.063700 29540.000000
128.048400 22740.000000
130.027900 25948.000000
132.043600 309820.000000
133.051200 733764.000000
134.022700 23528.000000
134.058000 113380.000000
135.064500 12460.000000
146.058900 22900.000000
148.038000 34772.000000
149.046100 861432.000000
150.049300 45868.000000
151.061500 10868.000000
162.053900 298704.000000
163.061700 1987116.000000
164.067900 334200.000000
165.071400 21452.000000
166.085100 11144.000000
179.056500 23184.000000
194.080200 63928.000000
218.082700 22484.000000
219.089800 11656.000000
232.076000 11952.000000
243.078100 15904.000000
253.051500 35000.000000
261.088800 29952.000000
296.058000 43364.000000
298.055100 13528.000000

>ms2
116.048800 8244.000000
117.056500 12664.000000
118.064300 28300.000000
119.036000 113480.000000
120.043800 205200.000000
121.047400 16596.000000
121.064100 52816.000000
122.066900 4868.000000
128.048600 23320.000000
129.055800 9100.000000
130.027900 37100.000000
130.063800 4408.000000
132.043700 410028.000000
133.051300 665216.000000
134.022700 53560.000000
134.057700 85712.000000
135.064500 10736.000000
138.009500 7396.000000
146.058600 13096.000000
147.030100 5140.000000
148.038300 75320.000000
149.046200 618684.000000
150.049400 36828.000000
151.061800 8808.000000
162.054200 308776.000000
163.061800 845396.000000
164.066600 81828.000000
165.069900 6288.000000
179.056600 6512.000000
204.080000 13484.000000
218.083400 29448.000000
219.089200 13036.000000
232.076100 12104.000000
233.093800 8364.000000
243.078500 22676.000000
244.083000 5732.000000
253.052200 30272.000000
254.056000 6644.000000
255.049500 8540.000000
261.089600 9284.000000
267.055900 5452.000000
296.058500 4544.000000

>ms2
75.043500 12744.000000
91.054300 11484.000000
104.049800 16492.000000
105.057900 22292.000000
106.065600 12160.000000
107.073300 6184.000000
109.065900 6184.000000
117.057200 6356.000000
118.065300 28780.000000
119.036500 43004.000000
120.044000 24128.000000
121.064500 8516.000000
128.048700 7296.000000
130.028200 7832.000000
132.044000 97452.000000
133.051800 162232.000000
134.059400 78916.000000
135.064400 7740.000000
146.059100 12140.000000
148.038100 5956.000000
149.046400 286356.000000
150.049600 22224.000000
151.061500 6076.000000
162.054100 168780.000000
163.061900 1073388.000000
164.069000 445852.000000
165.072500 33316.000000
166.084900 11380.000000
179.056900 13744.000000
194.080600 223592.000000
195.083600 23716.000000
216.064900 7248.000000
253.052100 11612.000000
261.089400 20252.000000
296.058800 128924.000000
297.061900 26732.000000
298.056000 40948.000000
324.052800 17252.000000
326.050400 5796.000000

