>compound AU67635114
>parentmass 453.20830000000007
>ionization [M+H]+
>formula C24H30F2O6
>rt 524.280000
>profile qtof
#smiles_iso C[C@]12C[C@@H]([C@]3([C@H]([C@@H]1C[C@@H]4[C@]2(OC(O4)(C)C)C(=O)CO)C[C@@H](C5=CC(=O)C=C[C@@]53C)F)F)O
#smiles_can CC1(OC2CC3C4CC(C5=CC(=O)C=CC5(C4(C(CC3(C2(O1)C(=O)CO)C)O)F)C)F)C
#inchikey FEBLZLNTKCEFIT-VSXGLTOVSA-N
#pubchem_id 6215
#mb_accession AU240201,AU240202,AU240203,AU240204,AU240205,AU240206

>ms2
121.063400 2716.000000
223.110700 3652.000000
253.121500 3500.000000
277.122500 3156.000000
279.136700 2888.000000
291.137300 3612.000000
309.147400 4744.000000
319.132600 8192.000000
329.153600 2504.000000
337.142200 22932.000000
338.148000 4848.000000
339.138200 4844.000000
355.152800 10484.000000
356.157700 2748.000000
357.149200 11228.000000
358.152800 2520.000000
359.147100 2296.000000
375.159800 11640.000000
376.161300 3188.000000
377.156400 4572.000000
393.206500 27368.000000
394.209500 7656.000000
413.196000 44092.000000
414.197800 10604.000000
415.192400 12244.000000
416.197400 2692.000000
433.201600 92484.000000
434.205100 25028.000000
435.204600 5748.000000
453.208200 428680.000000
454.211500 96284.000000
455.213600 13216.000000

>ms2
121.063800 25720.000000
122.067100 3104.000000
123.080100 492.000000
125.059600 1016.000000
127.075000 516.000000
131.084600 332.000000
133.064000 2264.000000
135.043400 616.000000
135.078900 5052.000000
137.057900 1916.000000
137.074900 568.000000
139.054000 916.000000
139.074700 1124.000000
141.053700 960.000000
145.063500 1916.000000
147.079800 4296.000000
148.082000 548.000000
149.057700 696.000000
151.037300 668.000000
151.073900 3212.000000
152.077300 428.000000
153.053500 1452.000000
153.068000 612.000000
153.090800 1060.000000
155.069300 3848.000000
156.073800 332.000000
157.064000 336.000000
159.063500 456.000000
159.078900 5196.000000
160.082500 788.000000
161.059100 2228.000000
161.094300 1084.000000
163.056000 356.000000
163.074700 1584.000000
165.070000 1904.000000
165.092500 352.000000
167.069500 608.000000
167.085500 648.000000
169.049100 556.000000
169.063700 1080.000000
171.078900 5648.000000
172.083900 700.000000
173.059400 456.000000
173.095000 1376.000000
175.075200 1884.000000
177.053600 568.000000
177.072200 596.000000
177.087700 380.000000
179.052600 400.000000
179.068600 2064.000000
179.085600 2256.000000
179.105400 324.000000
181.064100 848.000000
181.083400 632.000000
181.096700 344.000000
183.079900 2412.000000
184.083600 428.000000
185.059300 3232.000000
185.074200 476.000000
185.095100 2504.000000
186.064200 384.000000
187.074300 2440.000000
187.109800 776.000000
188.077400 492.000000
189.069300 1592.000000
189.090700 636.000000
191.069900 392.000000
191.086400 1360.000000
193.064200 488.000000
193.083700 456.000000
193.099500 620.000000
195.080000 2092.000000
195.102300 488.000000
195.116800 360.000000
196.085300 640.000000
197.059400 324.000000
197.081000 820.000000
197.095200 4552.000000
198.099400 404.000000
199.073900 776.000000
199.093100 436.000000
199.110600 1424.000000
201.090400 1132.000000
203.071700 908.000000
203.084600 564.000000
205.064700 3356.000000
205.084600 380.000000
205.103400 408.000000
206.067800 604.000000
207.078800 720.000000
208.085300 396.000000
209.078400 380.000000
209.095300 3856.000000
210.100300 956.000000
211.073900 956.000000
211.110500 7476.000000
212.116300 2092.000000
213.073300 540.000000
213.090700 2304.000000
213.125300 2984.000000
214.092500 324.000000
214.134900 460.000000
215.086000 668.000000
215.104200 572.000000
217.086300 328.000000
217.098600 432.000000
219.099600 376.000000
219.114700 492.000000
221.094900 2780.000000
222.101600 2036.000000
223.074900 4312.000000
223.110800 18024.000000
224.079400 612.000000
224.114000 3220.000000
225.090200 1564.000000
225.126400 2800.000000
226.130500 776.000000
227.068500 512.000000
227.084100 324.000000
227.107100 1348.000000
227.143200 612.000000
229.083500 744.000000
229.102700 656.000000
231.081800 576.000000
231.118000 2124.000000
232.118300 392.000000
233.095700 1160.000000
233.128800 688.000000
234.100800 516.000000
235.110300 7528.000000
236.115900 1648.000000
237.090600 1284.000000
237.126800 9204.000000
238.096300 628.000000
238.129600 1564.000000
239.106000 10916.000000
239.130900 776.000000
239.142600 1540.000000
240.109800 2292.000000
241.087000 5096.000000
241.121500 10908.000000
242.091700 916.000000
242.123800 2056.000000
243.080200 416.000000
243.117500 2036.000000
244.121400 496.000000
245.095900 600.000000
245.131300 948.000000
246.101200 328.000000
246.135600 344.000000
247.110800 4444.000000
248.115300 1496.000000
249.090900 1580.000000
249.126800 7112.000000
250.092900 360.000000
250.131300 1100.000000
251.105000 8636.000000
251.141600 6512.000000
252.109000 1856.000000
252.146700 1708.000000
253.121400 27660.000000
254.124800 5392.000000
255.116200 1736.000000
255.136300 1972.000000
256.122900 504.000000
256.138900 612.000000
257.095700 496.000000
257.133100 1680.000000
258.101800 604.000000
258.138300 356.000000
259.111400 3488.000000
260.116200 1644.000000
261.126400 14588.000000
262.094500 440.000000
262.130400 3364.000000
263.105300 4004.000000
263.142100 7028.000000
264.110700 1052.000000
264.145700 1568.000000
265.121600 4312.000000
266.124300 1288.000000
267.102700 1424.000000
267.136600 3784.000000
268.142900 540.000000
269.097400 484.000000
269.114600 1056.000000
269.129300 1260.000000
269.153000 1068.000000
270.121000 360.000000
271.111600 1088.000000
271.149100 1140.000000
272.112700 408.000000
273.127200 10236.000000
274.129900 2184.000000
275.106100 2068.000000
275.142900 1516.000000
276.112800 1700.000000
276.148900 520.000000
277.121200 13748.000000
277.157500 1292.000000
278.126600 3856.000000
278.162100 400.000000
279.136600 21848.000000
279.171800 2000.000000
280.139900 4276.000000
281.133600 5524.000000
281.151100 5576.000000
282.132400 1416.000000
282.155700 1124.000000
283.111000 704.000000
283.147600 1296.000000
285.129100 840.000000
287.106500 632.000000
287.142700 836.000000
288.112900 352.000000
289.121600 4544.000000
289.157100 560.000000
290.127400 976.000000
291.137400 22624.000000
291.174500 1264.000000
292.141200 5164.000000
293.118200 4400.000000
294.123500 1616.000000
295.132700 10452.000000
296.136300 2344.000000
296.171900 428.000000
297.131000 2788.000000
297.146300 4468.000000
297.184600 720.000000
298.132400 1124.000000
298.150700 1028.000000
299.143200 7748.000000
300.145800 1392.000000
301.122700 7844.000000
301.153100 1220.000000
302.125900 1548.000000
303.118900 496.000000
303.136400 368.000000
304.112200 916.000000
305.124300 596.000000
307.132000 6664.000000
307.168800 544.000000
308.135400 1748.000000
309.147500 18208.000000
310.150600 4368.000000
310.190200 348.000000
311.143400 5620.000000
312.146900 1012.000000
313.120500 944.000000
313.141100 1260.000000
314.149000 360.000000
315.138000 1916.000000
316.141000 352.000000
317.137100 1600.000000
319.132500 29448.000000
320.136400 6600.000000
321.128700 3212.000000
321.159200 480.000000
322.133600 724.000000
323.136700 392.000000
325.144100 1836.000000
325.180200 488.000000
326.150800 476.000000
327.141400 1920.000000
327.156200 4108.000000
327.197200 556.000000
328.161100 1412.000000
329.155000 6372.000000
330.156800 1164.000000
331.151200 3280.000000
332.155300 680.000000
333.129100 548.000000
335.141800 700.000000
337.143100 64204.000000
337.177900 3404.000000
338.147400 14808.000000
338.180500 1152.000000
339.139600 12496.000000
340.142300 3240.000000
341.137900 1516.000000
342.140900 432.000000
345.150300 1440.000000
346.152900 456.000000
347.164000 2688.000000
348.170300 732.000000
349.161100 2964.000000
350.164100 652.000000
351.172900 336.000000
353.139000 452.000000
355.154100 37388.000000
355.188600 5276.000000
356.156400 9256.000000
356.191400 1212.000000
357.149900 20556.000000
358.153500 5700.000000
359.146700 5360.000000
360.148900 1112.000000
361.144300 1264.000000
365.155700 2624.000000
366.156100 564.000000
367.175000 908.000000
373.201000 660.000000
374.204200 432.000000
375.159300 17212.000000
375.195300 4140.000000
376.165000 4064.000000
376.193500 908.000000
377.155600 8348.000000
378.160600 2008.000000
379.156500 356.000000
381.150700 668.000000
387.197900 532.000000
393.207400 9252.000000
394.211300 2836.000000
395.170600 3276.000000
396.178100 856.000000
397.188200 448.000000
413.195400 49052.000000
414.199000 13856.000000
415.191600 16384.000000
416.194800 4540.000000
417.197700 632.000000
433.201400 24976.000000
434.204400 7044.000000
435.203600 2116.000000
436.199800 852.000000
453.207800 21672.000000
454.211900 6692.000000

>ms2
115.038900 308.000000
115.051900 728.000000
117.070700 464.000000
119.049300 364.000000
119.085000 464.000000
121.064000 36024.000000
122.067500 3148.000000
123.043200 480.000000
123.058100 304.000000
123.079600 728.000000
125.059500 1208.000000
127.037200 624.000000
128.060500 424.000000
129.052100 328.000000
129.069200 640.000000
131.084300 960.000000
133.064000 4232.000000
133.101100 364.000000
134.067400 452.000000
135.041700 940.000000
135.079400 8916.000000
136.083000 1244.000000
137.058700 2128.000000
137.075200 2336.000000
138.077500 320.000000
139.038800 380.000000
139.054100 3040.000000
139.074100 1896.000000
140.058600 352.000000
141.053600 880.000000
141.068500 1196.000000
143.084000 1128.000000
145.064300 5764.000000
145.099200 1360.000000
146.067500 908.000000
147.079600 9408.000000
148.083500 876.000000
149.059900 1460.000000
149.074800 764.000000
149.095000 400.000000
151.036800 688.000000
151.074400 3424.000000
152.077900 488.000000
153.054500 1520.000000
153.069800 1376.000000
155.069200 2708.000000
155.084000 692.000000
157.063500 1036.000000
157.099300 476.000000
158.070800 1168.000000
159.079200 10320.000000
160.082800 1344.000000
161.059000 3344.000000
161.076100 724.000000
161.094400 2016.000000
162.064500 312.000000
163.052800 572.000000
163.074500 2664.000000
163.090400 436.000000
165.069600 3412.000000
165.088100 408.000000
166.072400 436.000000
167.068000 1056.000000
167.084600 1084.000000
169.063800 2872.000000
169.083200 512.000000
170.069200 616.000000
171.079600 12384.000000
172.082200 1736.000000
173.058700 764.000000
173.074600 520.000000
173.095200 2908.000000
174.098600 608.000000
175.074600 2320.000000
175.111700 360.000000
177.053600 896.000000
177.070700 1956.000000
177.089500 628.000000
179.050500 448.000000
179.069100 1752.000000
179.085700 2972.000000
179.106300 312.000000
180.091300 532.000000
181.064600 3492.000000
181.084400 576.000000
181.100200 632.000000
182.068800 1016.000000
182.107500 328.000000
183.061900 340.000000
183.079900 5036.000000
183.115700 336.000000
184.086800 860.000000
185.058500 3404.000000
185.076600 552.000000
185.094800 4636.000000
186.099400 920.000000
187.056900 528.000000
187.074100 5860.000000
187.110600 896.000000
188.077100 720.000000
189.070000 3464.000000
189.090200 1112.000000
190.074200 848.000000
191.085300 2988.000000
191.105400 352.000000
192.089200 680.000000
193.063800 572.000000
193.085700 828.000000
193.099700 1044.000000
194.106100 560.000000
195.079200 3504.000000
195.114800 1928.000000
196.086500 1212.000000
197.059300 696.000000
197.095300 7708.000000
198.099200 1572.000000
199.074300 1604.000000
199.111400 1660.000000
200.114800 348.000000
201.069600 336.000000
201.089500 1724.000000
201.124700 368.000000
203.070500 1180.000000
203.084900 848.000000
205.065000 7644.000000
205.100300 1672.000000
206.069800 1480.000000
206.104100 300.000000
207.081800 656.000000
207.113200 856.000000
208.087100 2040.000000
209.094100 6304.000000
209.131700 660.000000
210.099900 1596.000000
211.075000 2176.000000
211.110900 13700.000000
212.117400 6936.000000
213.072800 448.000000
213.090300 2692.000000
213.126400 6308.000000
214.098900 596.000000
214.128700 1068.000000
215.069400 408.000000
215.086400 1248.000000
215.105600 1180.000000
215.122700 568.000000
216.092800 764.000000
217.065400 300.000000
217.083600 432.000000
217.098400 852.000000
218.108600 516.000000
219.081400 796.000000
219.116800 824.000000
220.085300 424.000000
220.120400 384.000000
221.095000 5056.000000
221.119800 468.000000
221.132000 460.000000
222.102500 4568.000000
223.076000 4048.000000
223.110800 21444.000000
224.081500 1224.000000
224.114700 4712.000000
225.090700 2248.000000
225.126300 5320.000000
226.094900 992.000000
226.130800 1040.000000
227.069500 404.000000
227.087100 800.000000
227.105600 1384.000000
227.141100 876.000000
228.090500 396.000000
228.108800 424.000000
229.088600 632.000000
229.099800 992.000000
230.107200 844.000000
231.080600 876.000000
231.117200 2876.000000
232.087000 832.000000
232.122200 912.000000
233.095500 1952.000000
233.130700 2344.000000
234.103200 1920.000000
234.138600 524.000000
235.110600 10268.000000
235.148000 592.000000
236.114900 2756.000000
237.090800 2132.000000
237.126400 13924.000000
238.097000 1112.000000
238.130600 2536.000000
239.105800 9140.000000
239.142500 2996.000000
240.090600 508.000000
240.111100 3648.000000
240.145200 1164.000000
241.086500 2936.000000
241.101400 2320.000000
241.121100 12528.000000
242.091300 756.000000
242.125700 2976.000000
243.095000 416.000000
243.116900 3240.000000
244.121200 688.000000
245.096400 628.000000
245.131100 1964.000000
246.102500 1608.000000
246.134700 956.000000
247.110800 6248.000000
248.086300 308.000000
248.117700 2848.000000
249.091400 2100.000000
249.126300 11148.000000
250.099100 940.000000
250.130300 3868.000000
251.105900 10716.000000
251.142400 11076.000000
252.108600 1780.000000
252.145500 2384.000000
253.121700 17820.000000
253.155200 980.000000
254.125500 3376.000000
255.117300 2988.000000
255.134700 2444.000000
256.123000 820.000000
256.138600 544.000000
257.093700 748.000000
257.106500 412.000000
257.132800 1796.000000
258.104600 2200.000000
258.136100 508.000000
259.111100 7252.000000
260.117500 3000.000000
261.126600 20264.000000
262.099100 1616.000000
262.130900 5012.000000
263.106300 3888.000000
263.142000 10548.000000
264.112900 2072.000000
264.146200 2408.000000
265.091500 460.000000
265.121900 5188.000000
265.155400 380.000000
266.123600 1120.000000
267.099900 952.000000
267.114400 1080.000000
267.136900 3952.000000
267.170300 312.000000
268.109100 380.000000
268.140300 1276.000000
269.097200 924.000000
269.133400 2136.000000
269.154700 852.000000
270.139800 592.000000
270.156100 304.000000
271.112100 1688.000000
271.148100 1720.000000
272.118400 600.000000
272.149900 380.000000
273.126900 15204.000000
274.096900 712.000000
274.130800 3084.000000
275.104900 2440.000000
275.141500 1884.000000
276.112100 3308.000000
277.121700 15044.000000
277.158000 1144.000000
278.092000 500.000000
278.126900 5016.000000
278.164700 808.000000
279.137900 24056.000000
279.175800 1624.000000
280.141100 4956.000000
280.176300 536.000000
281.133900 6556.000000
281.151500 4336.000000
282.136800 1636.000000
282.154000 868.000000
283.112800 948.000000
283.127100 1052.000000
283.147500 1420.000000
284.116600 404.000000
284.149000 440.000000
285.128400 604.000000
286.097200 1244.000000
286.132700 516.000000
287.105900 520.000000
287.145200 668.000000
288.112600 400.000000
289.122000 5552.000000
289.157500 472.000000
290.124800 1320.000000
291.137400 18700.000000
291.173200 1016.000000
292.112500 444.000000
292.141300 4948.000000
292.181700 340.000000
293.120400 3260.000000
294.123100 1604.000000
295.132400 6104.000000
295.168800 324.000000
296.137900 1992.000000
297.127200 3008.000000
297.146100 3156.000000
297.186300 496.000000
298.133900 1300.000000
299.144200 6064.000000
300.146900 1216.000000
301.122600 7464.000000
301.157400 1680.000000
302.124800 1768.000000
302.162200 388.000000
303.124300 664.000000
304.108200 1824.000000
305.112900 496.000000
305.134200 528.000000
307.132000 6276.000000
307.165000 656.000000
308.134600 1268.000000
309.147400 9764.000000
310.151300 2248.000000
310.189200 340.000000
311.143400 4076.000000
312.147200 832.000000
313.130500 668.000000
313.141600 1356.000000
315.139700 1340.000000
317.133800 1048.000000
317.151700 1004.000000
319.132900 14364.000000
320.135100 3444.000000
320.169600 532.000000
321.127300 2032.000000
322.131700 636.000000
325.142500 1044.000000
325.174400 380.000000
327.137400 1016.000000
327.157900 2984.000000
327.193500 612.000000
328.142600 356.000000
328.164800 648.000000
329.154200 2916.000000
330.158100 652.000000
331.151400 1480.000000
335.150200 332.000000
337.143000 14752.000000
337.178600 1932.000000
338.146400 3956.000000
338.183800 464.000000
339.139500 4032.000000
340.146000 872.000000
341.135700 1024.000000
345.147800 464.000000
347.163300 2696.000000
348.171200 640.000000
349.160700 740.000000
355.153400 8348.000000
355.187500 1124.000000
356.156900 2208.000000
356.195700 320.000000
357.150100 4028.000000
358.153200 876.000000
359.146400 1720.000000
360.150600 608.000000
365.158000 552.000000
375.160000 1456.000000
375.197200 732.000000
376.164400 436.000000
376.209400 300.000000
377.154300 1736.000000
378.156200 484.000000
395.173900 560.000000
413.194200 2136.000000
414.200600 716.000000
415.191300 2972.000000
416.192900 1008.000000
433.198500 704.000000
453.213300 360.000000

>ms2
115.053800 1664.000000
117.070100 1732.000000
119.048800 440.000000
119.085200 1256.000000
121.064000 52620.000000
122.066700 4732.000000
123.043600 876.000000
123.060800 1320.000000
123.079600 712.000000
125.059600 940.000000
125.074400 372.000000
127.055100 920.000000
128.060700 1424.000000
129.068300 2672.000000
131.047700 1120.000000
131.084600 2424.000000
132.055800 524.000000
132.088300 388.000000
133.063900 6228.000000
133.099600 620.000000
134.067300 788.000000
135.042300 1600.000000
135.059600 812.000000
135.079400 11476.000000
136.082800 1484.000000
137.058700 2688.000000
137.075300 5300.000000
138.078100 612.000000
139.054300 5792.000000
139.074900 2192.000000
140.059100 520.000000
141.052900 796.000000
141.069600 2152.000000
142.075700 824.000000
143.049500 328.000000
143.084300 3564.000000
144.056100 984.000000
144.086600 428.000000
145.063900 12008.000000
145.099500 984.000000
146.052700 580.000000
146.067500 2148.000000
147.079300 13336.000000
148.082700 1808.000000
149.058700 1944.000000
149.074500 2268.000000
149.094100 448.000000
150.081600 300.000000
151.037700 820.000000
151.055400 468.000000
151.074600 2572.000000
151.090400 352.000000
152.060700 356.000000
153.053900 1024.000000
153.069500 3008.000000
153.088200 508.000000
155.055400 592.000000
155.068800 1716.000000
155.083900 1356.000000
156.089900 380.000000
157.063200 3084.000000
157.100800 740.000000
158.070600 3192.000000
159.079000 17484.000000
160.064500 460.000000
160.083300 2288.000000
161.058600 3444.000000
161.074000 1072.000000
161.095000 3064.000000
162.049600 304.000000
162.063800 904.000000
163.053400 2140.000000
163.073700 2608.000000
163.089300 1136.000000
163.109400 680.000000
164.058400 372.000000
165.069800 6184.000000
165.090300 496.000000
166.074100 932.000000
167.068200 768.000000
167.084900 1596.000000
168.056100 612.000000
169.063700 4492.000000
169.100800 904.000000
170.070100 784.000000
171.079200 21420.000000
172.083500 2868.000000
173.058900 1332.000000
173.074400 700.000000
173.095100 4176.000000
174.064800 532.000000
174.097600 620.000000
175.054100 552.000000
175.073500 3016.000000
175.088800 544.000000
175.108100 376.000000
176.078900 520.000000
177.053300 676.000000
177.069900 5016.000000
177.089200 668.000000
178.076100 1168.000000
179.049900 720.000000
179.069200 1556.000000
179.084900 3564.000000
180.091600 1884.000000
181.064300 5588.000000
181.100500 1572.000000
182.069600 2128.000000
183.060100 496.000000
183.079100 5208.000000
183.116000 1372.000000
184.086300 1620.000000
185.058300 7060.000000
185.074800 1320.000000
185.094600 6808.000000
186.063600 1256.000000
186.101600 1536.000000
187.055700 608.000000
187.074100 6208.000000
187.110800 1236.000000
188.079600 976.000000
189.069800 3876.000000
189.086800 1340.000000
190.078400 1108.000000
191.068600 496.000000
191.085000 4164.000000
192.089700 1256.000000
193.064200 660.000000
193.083100 592.000000
193.099400 4080.000000
194.071700 1096.000000
194.106500 1188.000000
195.079300 6528.000000
195.115600 4372.000000
196.087000 3900.000000
197.058500 740.000000
197.076100 708.000000
197.095000 10684.000000
198.101000 2072.000000
199.074200 2564.000000
199.110800 3236.000000
200.079000 372.000000
200.113700 760.000000
201.069500 580.000000
201.091000 1300.000000
201.124900 412.000000
202.076100 660.000000
203.071600 1192.000000
203.083600 2680.000000
204.091700 824.000000
205.065400 10200.000000
205.100300 4300.000000
206.068700 1568.000000
206.105400 1120.000000
207.080100 1484.000000
207.115900 2208.000000
208.087300 5928.000000
208.119900 436.000000
209.094700 12700.000000
209.132700 1196.000000
210.100500 3744.000000
211.073200 1988.000000
211.110700 15900.000000
212.080700 892.000000
212.117500 10412.000000
213.070800 820.000000
213.091200 2084.000000
213.125800 6444.000000
214.093600 608.000000
214.128900 1380.000000
215.085500 2156.000000
215.104200 820.000000
215.124000 404.000000
216.092200 1604.000000
217.099200 1708.000000
218.071100 472.000000
218.107400 1664.000000
219.080300 1560.000000
219.115300 2748.000000
220.087800 1604.000000
220.122400 1048.000000
221.095800 8260.000000
221.131100 1968.000000
222.102700 9200.000000
223.075200 1920.000000
223.110500 26428.000000
224.081500 1408.000000
224.114300 6228.000000
225.089400 3172.000000
225.126600 7084.000000
226.079700 452.000000
226.096400 1532.000000
226.130300 1176.000000
227.086300 960.000000
227.103800 2312.000000
227.142900 1392.000000
228.093700 1176.000000
229.101000 2508.000000
230.108700 2344.000000
231.078900 2260.000000
231.116200 4692.000000
232.087900 2524.000000
232.122400 1312.000000
233.095100 4568.000000
233.130900 4892.000000
234.102200 4368.000000
234.135900 1016.000000
235.111000 17700.000000
235.147400 900.000000
236.081000 768.000000
236.094300 492.000000
236.115800 5744.000000
237.090600 2572.000000
237.125900 15524.000000
238.098700 2612.000000
238.130600 3780.000000
239.087200 984.000000
239.105800 6412.000000
239.142000 3376.000000
240.094500 1040.000000
240.112000 2736.000000
240.145500 364.000000
241.100100 2172.000000
241.121100 7900.000000
242.105600 1108.000000
242.124400 1732.000000
243.082300 792.000000
243.117100 5124.000000
244.087600 928.000000
244.123100 1348.000000
245.095800 2072.000000
245.132300 3180.000000
246.102700 7320.000000
246.135400 1200.000000
247.076700 536.000000
247.110200 6836.000000
248.080300 856.000000
248.118700 7120.000000
249.090900 2028.000000
249.126100 13404.000000
250.099200 1664.000000
250.131900 4488.000000
251.105400 7844.000000
251.142500 10516.000000
252.109800 1708.000000
252.144900 2380.000000
253.103400 2488.000000
253.121600 10660.000000
253.153000 664.000000
254.124900 2172.000000
255.081800 464.000000
255.116500 3484.000000
255.134700 1428.000000
256.088000 424.000000
256.122200 984.000000
257.096100 1504.000000
257.132000 1728.000000
258.103400 4852.000000
258.138300 304.000000
259.110300 7720.000000
260.083000 480.000000
260.117800 4700.000000
261.091300 1724.000000
261.126600 21400.000000
262.097600 3848.000000
262.130600 5088.000000
263.104600 4300.000000
263.141900 8988.000000
264.111600 2876.000000
264.145800 2864.000000
265.087200 512.000000
265.121200 4192.000000
265.148600 512.000000
266.113000 776.000000
266.124700 816.000000
267.117400 1336.000000
267.135800 3768.000000
268.113500 476.000000
268.141500 924.000000
269.095900 552.000000
269.133500 1500.000000
269.160600 388.000000
270.136700 364.000000
271.112300 1588.000000
271.148100 1196.000000
272.116400 876.000000
273.126200 11356.000000
274.097500 2104.000000
274.130700 2912.000000
275.105400 2984.000000
275.125700 712.000000
275.143500 1044.000000
276.113800 4592.000000
276.148000 512.000000
277.121600 9896.000000
277.157200 1236.000000
278.092800 456.000000
278.126800 5784.000000
278.164400 616.000000
279.137300 14180.000000
279.172100 1500.000000
280.111400 1012.000000
280.140600 2460.000000
280.171000 352.000000
281.097600 308.000000
281.132500 4636.000000
281.153800 1464.000000
282.112100 372.000000
282.135500 936.000000
283.113700 1288.000000
283.142000 492.000000
284.116900 660.000000
285.114700 308.000000
285.129700 568.000000
286.098900 1820.000000
286.136200 428.000000
287.102400 600.000000
288.112000 344.000000
289.084600 444.000000
289.096900 556.000000
289.122100 3376.000000
289.152900 356.000000
290.092000 316.000000
290.125700 1184.000000
291.105700 688.000000
291.137500 8932.000000
291.173500 1012.000000
292.108500 828.000000
292.139400 1776.000000
293.119600 2000.000000
294.126600 956.000000
295.129600 2720.000000
296.137700 1052.000000
297.126500 1048.000000
297.144800 1108.000000
298.139300 680.000000
299.142500 2032.000000
300.146800 404.000000
301.121800 3592.000000
302.126300 844.000000
303.125500 356.000000
304.111700 1624.000000
305.112300 356.000000
306.120100 316.000000
307.132900 2404.000000
307.175600 428.000000
308.136500 584.000000
309.147000 2584.000000
310.152600 744.000000
311.143500 1144.000000
312.155600 304.000000
313.132200 324.000000
313.142700 544.000000
317.136300 504.000000
319.132800 3348.000000
320.134600 984.000000
321.130800 576.000000
327.160100 424.000000
329.154300 1816.000000
331.150200 416.000000
332.152800 456.000000
337.144300 2308.000000
338.146800 780.000000
339.137400 1096.000000
340.141600 520.000000
347.162500 1048.000000
348.159200 300.000000
355.153400 904.000000
357.149400 728.000000
358.150900 348.000000
359.144000 528.000000
415.191100 408.000000

>ms2
115.053600 4032.000000
116.059600 700.000000
117.068600 1640.000000
119.049200 500.000000
119.085400 1592.000000
121.064000 46456.000000
122.067000 4320.000000
123.043200 748.000000
123.059300 1024.000000
123.067200 544.000000
123.079100 576.000000
125.039200 376.000000
125.059500 636.000000
125.076200 396.000000
127.054300 900.000000
128.061600 4048.000000
129.068400 4356.000000
131.048000 1200.000000
131.084100 3960.000000
132.055400 1204.000000
132.088800 356.000000
133.044200 684.000000
133.063700 5892.000000
133.099000 784.000000
134.068400 756.000000
135.042400 1036.000000
135.058800 1628.000000
135.079800 7656.000000
136.081900 700.000000
137.058200 1456.000000
137.075200 6060.000000
138.064800 420.000000
138.080200 680.000000
139.054000 6824.000000
139.073800 1468.000000
140.057100 520.000000
141.052400 472.000000
141.068900 4156.000000
142.076200 1356.000000
143.047400 396.000000
143.063100 364.000000
143.084300 4408.000000
144.055000 2768.000000
144.089700 696.000000
145.063600 12428.000000
145.099700 1312.000000
146.050700 1124.000000
147.059500 1864.000000
147.079400 11740.000000
148.082600 1760.000000
149.057700 1560.000000
149.074600 3640.000000
149.093800 404.000000
151.036900 512.000000
151.054800 548.000000
151.073800 916.000000
151.091000 320.000000
152.060000 1252.000000
153.051700 604.000000
153.068600 3800.000000
154.074200 828.000000
155.058700 1244.000000
155.083600 3312.000000
156.055600 388.000000
156.090900 712.000000
157.063400 3612.000000
157.099900 1040.000000
158.071400 4920.000000
159.079000 15176.000000
160.067000 456.000000
160.083500 2276.000000
161.058500 2832.000000
161.075000 952.000000
161.094700 2708.000000
162.048500 624.000000
162.063300 428.000000
163.053600 2364.000000
163.075500 1624.000000
163.090600 1016.000000
163.110600 328.000000
164.060300 372.000000
165.069000 7412.000000
166.075300 1960.000000
167.067700 744.000000
167.084700 3900.000000
168.055900 848.000000
168.090200 1200.000000
169.063700 4968.000000
169.099900 1280.000000
170.069800 1796.000000
171.079300 20220.000000
172.083600 3604.000000
173.058600 1384.000000
173.073800 784.000000
173.095100 3236.000000
174.064700 368.000000
174.100000 408.000000
175.053100 400.000000
175.074100 1848.000000
175.090500 792.000000
175.109400 304.000000
176.061200 440.000000
177.069700 5524.000000
178.075900 3060.000000
179.050700 584.000000
179.084400 6028.000000
180.090700 2988.000000
181.064100 4892.000000
181.099400 2144.000000
182.070500 3644.000000
183.060400 512.000000
183.078900 4624.000000
183.115700 1804.000000
184.085500 1756.000000
185.059000 5284.000000
185.094700 5084.000000
186.062700 1008.000000
186.100700 1556.000000
187.054600 696.000000
187.074800 3272.000000
187.109000 900.000000
188.078500 624.000000
189.069800 4444.000000
190.076500 4248.000000
191.084500 4668.000000
192.090600 2700.000000
193.068600 712.000000
193.100400 7144.000000
194.071500 2196.000000
194.105200 2080.000000
195.078600 8916.000000
195.115400 5476.000000
196.087000 8576.000000
196.119400 976.000000
197.094800 11116.000000
198.067800 448.000000
198.099800 2812.000000
199.074800 1220.000000
199.109800 2168.000000
200.060900 300.000000
200.111600 384.000000
201.068400 656.000000
201.090900 612.000000
202.076900 1976.000000
203.084300 4660.000000
204.091900 2712.000000
205.064700 4368.000000
205.100400 6444.000000
206.070400 2156.000000
206.105800 2136.000000
207.078700 3280.000000
207.115900 2488.000000
208.086900 12252.000000
209.094800 11212.000000
209.131400 940.000000
210.101500 5652.000000
211.074700 1452.000000
211.110500 11344.000000
212.083300 584.000000
212.117600 6508.000000
213.068800 1184.000000
213.092200 760.000000
213.125000 3976.000000
214.077300 592.000000
214.129800 948.000000
215.084900 3616.000000
215.128200 380.000000
216.091600 3624.000000
217.099900 2732.000000
218.070500 872.000000
218.108300 2864.000000
219.079600 3080.000000
219.115600 2976.000000
220.087000 3288.000000
220.121000 908.000000
221.094700 8284.000000
221.132400 1284.000000
222.102400 12300.000000
223.074500 856.000000
223.110600 13988.000000
224.082400 1180.000000
224.115000 3868.000000
225.090200 2664.000000
225.125600 3864.000000
226.078500 1304.000000
226.098100 1772.000000
226.130600 940.000000
227.085000 2112.000000
227.102400 1220.000000
227.143400 708.000000
228.093000 2096.000000
229.100400 3652.000000
230.106800 3464.000000
231.078900 4236.000000
231.116400 4304.000000
232.086400 4352.000000
232.121100 940.000000
233.095600 6932.000000
233.131100 3472.000000
234.102500 6164.000000
234.135400 728.000000
235.074300 856.000000
235.110500 13744.000000
236.082500 772.000000
236.117000 5160.000000
237.070700 404.000000
237.090300 2440.000000
237.125500 6920.000000
238.076200 420.000000
238.098100 2972.000000
238.131100 1640.000000
239.088000 1408.000000
239.105800 2576.000000
239.142400 1320.000000
240.092800 1864.000000
240.111800 1412.000000
241.101400 2016.000000
241.120400 2848.000000
242.110100 1048.000000
243.079700 928.000000
243.116400 4932.000000
244.086000 1300.000000
244.121100 912.000000
245.095900 4716.000000
245.131600 2048.000000
246.102600 9148.000000
247.074200 1172.000000
247.109600 6296.000000
248.084500 932.000000
248.118200 6056.000000
249.090400 1864.000000
249.125600 7076.000000
250.076800 440.000000
250.098400 1820.000000
250.133400 2556.000000
251.105900 4156.000000
251.142100 4396.000000
252.092200 444.000000
252.111700 1260.000000
252.146900 1008.000000
253.101200 1944.000000
253.121000 3388.000000
254.108900 640.000000
254.123500 764.000000
255.116000 1784.000000
256.086700 468.000000
256.120400 672.000000
257.094800 1944.000000
257.130200 572.000000
258.103200 5580.000000
259.086700 308.000000
259.110100 5804.000000
260.085200 628.000000
260.117800 3472.000000
261.090500 3396.000000
261.126700 10632.000000
262.097700 3304.000000
262.131000 2692.000000
263.105300 2988.000000
263.142400 3184.000000
264.113100 3776.000000
264.145300 1012.000000
265.102400 704.000000
265.120300 1892.000000
266.107900 1044.000000
266.123600 760.000000
267.117500 864.000000
267.140200 592.000000
268.125200 428.000000
269.104900 356.000000
269.133500 328.000000
270.101100 344.000000
271.109100 1272.000000
271.145600 404.000000
272.117500 724.000000
273.091800 388.000000
273.126400 4632.000000
274.098800 2188.000000
274.132200 1212.000000
275.105200 2576.000000
275.137500 464.000000
276.114300 3100.000000
277.096700 648.000000
277.122200 4228.000000
278.091500 320.000000
278.108300 800.000000
278.125900 2032.000000
279.102500 464.000000
279.136800 3176.000000
279.171900 308.000000
280.108600 384.000000
280.136200 820.000000
281.131500 1364.000000
282.106000 352.000000
282.134500 332.000000
283.111000 1012.000000
284.112600 336.000000
285.089900 444.000000
285.124500 300.000000
286.099700 1288.000000
286.130100 300.000000
287.100700 512.000000
288.113800 688.000000
289.121000 1540.000000
290.090800 316.000000
290.127900 372.000000
291.111600 432.000000
291.136300 2580.000000
292.107300 876.000000
292.140600 632.000000
293.113000 500.000000
293.134900 464.000000
294.126600 588.000000
295.134200 484.000000
296.135300 460.000000
297.127600 420.000000
298.133500 452.000000
299.143800 456.000000
301.121900 900.000000
301.150800 320.000000
302.128600 536.000000
304.110900 592.000000
307.128400 428.000000
309.130200 356.000000
309.149200 312.000000
319.132200 584.000000
320.138300 320.000000
329.155000 580.000000
337.148100 320.000000

>ms2
55.017000 1912.000000
59.048600 9360.000000
67.053400 560.000000
69.033300 1504.000000
69.069000 392.000000
71.012400 492.000000
71.049100 392.000000
79.053700 888.000000
81.033000 688.000000
81.069800 884.000000
83.049500 480.000000
85.029100 300.000000
87.043000 804.000000
91.054100 500.000000
93.070800 1376.000000
95.050100 684.000000
95.086000 920.000000
97.029100 560.000000
99.044100 320.000000
105.072000 1160.000000
107.085900 472.000000
109.064800 832.000000
111.043900 448.000000
115.039500 500.000000
115.052200 372.000000
117.069200 536.000000
119.084000 564.000000
121.064400 41988.000000
122.067300 4076.000000
123.060300 392.000000
123.079300 744.000000
125.058800 1004.000000
127.038000 444.000000
129.069200 604.000000
131.084900 752.000000
133.064200 3420.000000
133.098700 464.000000
135.042000 1080.000000
135.059000 488.000000
135.079500 8332.000000
136.083100 708.000000
137.058700 2112.000000
137.075200 2432.000000
139.037100 440.000000
139.054300 2268.000000
139.075000 1408.000000
141.054400 900.000000
141.069100 860.000000
142.077100 356.000000
143.083800 1196.000000
145.063600 6148.000000
145.100300 656.000000
146.067300 804.000000
147.079300 7304.000000
148.082300 724.000000
149.058200 1196.000000
149.074100 800.000000
149.095000 400.000000
151.039300 972.000000
151.054300 420.000000
151.074200 2680.000000
152.077700 332.000000
153.053100 820.000000
153.070200 1136.000000
153.092200 360.000000
155.069400 2464.000000
155.083300 1088.000000
156.074500 304.000000
157.064100 1164.000000
157.098900 648.000000
158.071900 1080.000000
159.079100 8852.000000
160.083500 1260.000000
161.058600 4244.000000
161.074400 724.000000
161.095200 1456.000000
162.062400 352.000000
163.054100 848.000000
163.074500 2168.000000
164.076600 316.000000
165.070500 3260.000000
165.088900 324.000000
166.075200 332.000000
167.068500 704.000000
167.084900 824.000000
168.054900 332.000000
169.046700 400.000000
169.064000 2288.000000
169.082700 424.000000
169.101100 400.000000
170.070800 364.000000
171.079400 11568.000000
172.083700 1584.000000
173.057800 748.000000
173.075300 364.000000
173.094800 2792.000000
174.096700 532.000000
175.074900 1940.000000
175.091600 344.000000
175.109900 608.000000
177.053200 760.000000
177.069900 2188.000000
177.088700 380.000000
178.056600 336.000000
178.076000 520.000000
179.049100 588.000000
179.069100 1684.000000
179.085800 1652.000000
180.072000 360.000000
180.090300 596.000000
181.064600 2824.000000
181.085400 424.000000
181.099500 648.000000
182.069900 756.000000
183.061500 492.000000
183.079400 3824.000000
183.114000 332.000000
184.084900 792.000000
185.058800 3032.000000
185.075900 664.000000
185.094800 4584.000000
186.061900 596.000000
186.100300 1012.000000
187.074300 4816.000000
187.109800 968.000000
188.077900 468.000000
189.069400 2056.000000
189.089400 912.000000
190.078000 428.000000
191.066900 332.000000
191.085100 2444.000000
192.093100 572.000000
193.065400 496.000000
193.086300 584.000000
193.101000 1440.000000
194.071000 316.000000
195.064200 416.000000
195.079800 3468.000000
195.098300 312.000000
195.115400 1388.000000
196.086200 1296.000000
197.058400 476.000000
197.076800 1008.000000
197.095300 6392.000000
198.099400 1400.000000
199.075300 972.000000
199.091300 440.000000
199.109200 1544.000000
201.089700 1004.000000
203.068200 940.000000
203.084400 1256.000000
205.064800 6612.000000
205.100200 1544.000000
206.067500 1040.000000
206.108100 420.000000
207.080100 1052.000000
207.114900 380.000000
208.086300 1708.000000
209.094700 5232.000000
209.131200 796.000000
210.100800 1436.000000
211.074700 1692.000000
211.110900 12600.000000
212.078500 496.000000
212.118000 5384.000000
213.069300 376.000000
213.089800 1780.000000
213.125800 4912.000000
214.093900 516.000000
214.128600 572.000000
215.073100 332.000000
215.085200 1100.000000
215.105500 784.000000
215.125300 444.000000
216.090800 896.000000
217.100200 820.000000
219.078500 816.000000
219.116700 1276.000000
220.087500 784.000000
220.123100 400.000000
221.077900 868.000000
221.095300 3888.000000
221.131900 572.000000
222.102900 4644.000000
223.076000 3664.000000
223.111000 22816.000000
224.078600 840.000000
224.114700 4696.000000
225.089700 2356.000000
225.127100 4372.000000
226.097600 632.000000
226.130600 1188.000000
227.085600 708.000000
227.105600 1588.000000
227.143100 684.000000
228.093100 404.000000
229.100700 1068.000000
230.108900 680.000000
231.081600 1076.000000
231.116700 2808.000000
232.088300 476.000000
232.121900 668.000000
233.094700 2172.000000
233.132800 2196.000000
234.102600 2164.000000
234.133300 452.000000
235.073400 556.000000
235.111300 11048.000000
236.082300 320.000000
236.115700 3192.000000
237.090500 1564.000000
237.126700 12460.000000
238.097600 1204.000000
238.129900 2284.000000
239.106000 7068.000000
239.141700 2020.000000
240.111200 3100.000000
240.145700 660.000000
241.086000 2912.000000
241.097700 1708.000000
241.122200 11028.000000
242.090100 484.000000
242.107500 784.000000
242.125000 2444.000000
243.082100 428.000000
243.117100 3364.000000
244.119800 656.000000
245.096400 932.000000
245.132100 1764.000000
246.103700 2952.000000
246.137600 312.000000
247.110800 6088.000000
248.084000 384.000000
248.117200 3100.000000
249.090000 1548.000000
249.126700 9588.000000
250.096000 1132.000000
250.131900 2900.000000
251.105800 8024.000000
251.142600 9900.000000
252.109600 1580.000000
252.144800 2488.000000
253.121500 15980.000000
254.125100 2908.000000
255.116200 2156.000000
255.135000 1644.000000
256.124800 636.000000
256.144800 344.000000
257.094500 852.000000
257.133300 1676.000000
258.103600 2200.000000
258.135500 544.000000
259.111100 4704.000000
260.119600 2536.000000
261.127300 18440.000000
262.099700 1464.000000
262.130800 3812.000000
263.105000 3332.000000
263.142300 9652.000000
264.114200 1552.000000
264.145800 1628.000000
265.096700 428.000000
265.121100 5052.000000
265.153000 392.000000
266.126800 1248.000000
267.100700 912.000000
267.136700 2800.000000
268.141400 828.000000
269.096900 596.000000
269.134100 1272.000000
269.148500 692.000000
271.111700 1272.000000
271.149000 1396.000000
272.119700 500.000000
272.151400 396.000000
273.127800 12028.000000
274.101100 424.000000
274.130500 2160.000000
275.106300 2880.000000
275.141400 1616.000000
276.113400 2696.000000
276.143200 364.000000
277.122000 11496.000000
277.158900 1200.000000
278.127300 4324.000000
278.166000 528.000000
279.137800 20792.000000
279.174600 1460.000000
280.143400 3484.000000
281.133800 6504.000000
281.147000 2952.000000
282.136700 1628.000000
282.152800 592.000000
283.111000 1012.000000
283.148800 1268.000000
284.117300 396.000000
285.108800 336.000000
285.129800 572.000000
286.097500 1128.000000
287.106900 612.000000
287.146700 500.000000
288.105000 340.000000
288.115500 612.000000
289.122300 4340.000000
289.159400 488.000000
290.125600 976.000000
291.137900 17844.000000
291.171700 1040.000000
292.105400 504.000000
292.116000 464.000000
292.140700 4368.000000
292.182500 372.000000
293.117600 3616.000000
293.132700 2032.000000
294.124700 1816.000000
295.133000 6892.000000
296.137500 1688.000000
296.173100 364.000000
297.146400 2680.000000
297.187500 396.000000
298.140200 744.000000
299.108000 324.000000
299.144000 5080.000000
300.145400 1436.000000
301.122600 6024.000000
301.153200 1304.000000
302.126400 1860.000000
302.158600 304.000000
303.127300 596.000000
304.109400 1792.000000
305.113900 424.000000
305.133900 440.000000
307.133500 4148.000000
307.167400 476.000000
308.137100 1536.000000
309.148400 8608.000000
309.186800 604.000000
310.150900 2068.000000
311.144100 2832.000000
312.148700 684.000000
313.127900 612.000000
313.138600 1276.000000
314.138900 372.000000
315.139100 1264.000000
316.141500 324.000000
317.135600 872.000000
317.156100 712.000000
319.133300 13820.000000
319.164900 1340.000000
320.136100 4200.000000
320.160100 452.000000
321.127500 1292.000000
322.131100 512.000000
325.143300 1160.000000
327.157500 2560.000000
328.159400 640.000000
329.153900 3156.000000
330.158600 1080.000000
331.149200 1372.000000
335.147800 432.000000
337.143400 22988.000000
337.182700 1348.000000
338.146600 5800.000000
338.182600 692.000000
339.139000 5112.000000
339.172900 432.000000
340.142000 1140.000000
341.138800 588.000000
345.148100 540.000000
346.161200 316.000000
347.142700 620.000000
347.166600 2412.000000
348.170800 400.000000
349.161100 832.000000
350.164000 452.000000
355.154300 10964.000000
355.188400 1444.000000
356.156400 2460.000000
356.194400 436.000000
357.150400 5632.000000
357.187400 360.000000
358.154200 2036.000000
359.144500 2208.000000
360.147600 500.000000
361.143700 380.000000
365.154300 940.000000
375.159800 2856.000000
375.194800 1188.000000
376.165000 904.000000
376.210100 308.000000
377.157500 2204.000000
378.159000 488.000000
393.206700 852.000000
394.212900 372.000000
395.174900 784.000000
413.196100 6476.000000
414.199100 1684.000000
415.192200 4800.000000
416.195400 1092.000000
417.202700 320.000000
433.201900 2324.000000
434.206100 648.000000
435.191800 656.000000
435.205300 396.000000
453.209600 1072.000000

