>compound AU67558015
>parentmass 411.2191000000001
>ionization [M+H]+
>formula C23H27FN4O2
>rt 367.092000
>profile qtof
#smiles_iso CC1=C(C(=O)N2CCCCC2=N1)CCN3CCC(CC3)C4=NOC5=C4C=CC(=C5)F
#smiles_can CC1=C(C(=O)N2CCCCC2=N1)CCN3CCC(CC3)C4=NOC5=C4C=CC(=C5)F
#inchikey RAPZEAPATHNIPO-UHFFFAOYSA-N
#pubchem_id 5073
#mb_accession AU150501,AU150502,AU150503,AU150504,AU150505

>ms2peaks
191.119800 61752.000000
411.226000 2512900.000000

>ms2peaks
191.119900 2268828.000000
192.123100 191984.000000
411.224100 2511320.000000

>ms2peaks
191.121400 2514372.000000
192.123300 1389792.000000
193.126100 54812.000000
411.224600 2090168.000000
412.227200 522624.000000
413.229900 40492.000000

>ms2peaks
148.113500 26876.000000
150.080100 17604.000000
163.088400 28536.000000
163.124700 35260.000000
191.120800 2514372.000000
192.123700 1959476.000000
411.224500 57260.000000
412.226400 16332.000000

>ms2peaks
125.072200 17256.000000
148.113700 72812.000000
150.080300 67704.000000
163.088400 98612.000000
163.125000 112052.000000
191.122100 2512196.000000
192.123600 1927592.000000

