>compound AU67542179
>parentmass 120.0556
>ionization [M+H]+
>formula C6H5N3
>rt 279.780000
>profile qtof
#smiles_iso C1=CC2=NNN=C2C=C1
#smiles_can C1=CC2=NNN=C2C=C1
#inchikey QRUDEWIWKLJBPS-UHFFFAOYSA-N
#pubchem_id 7220
#mb_accession AU241404,AU241406,AU405002,AU405003

>ms2peaks
120.053800 340.000000

>ms2peaks
65.038200 55800.000000
66.041200 2580.000000
92.049700 10248.000000
93.053700 564.000000
120.055500 90428.000000
121.057800 8028.000000

>ms2peaks
65.038400 2000.000000
92.049400 1652.000000
120.054500 38664.000000
121.058200 2388.000000

>ms2peaks
65.038400 690.000000
92.049400 652.000000
120.054900 3916.000000
121.058200 400.000000

