>compound AU67319299
>parentmass 219.11279999999996
>ionization [M+H]+
>formula C12H14N2O2
>rt 318.200000
>profile qtof
#smiles_iso CCC1(C(=O)NCNC1=O)C2=CC=CC=C2
#smiles_can CCC1(C(=O)NCNC1=O)C2=CC=CC=C2
#inchikey DQMZLTXERSFNPB-UHFFFAOYSA-N
#pubchem_id 4909
#mb_accession AU151601,AU151602,AU151603,AU151604,AU151605,AU151606

>ms2
162.089800 7852.000000
163.091900 1324.000000
174.091100 564.000000
190.085200 388.000000
219.111600 6220.000000
220.113800 884.000000

>ms2
117.068400 612.000000
119.084400 504.000000
134.094200 488.000000
145.064900 312.000000
162.089700 5416.000000
163.092900 800.000000
176.108300 320.000000

>ms2
115.055000 332.000000
117.069700 1292.000000
134.095800 452.000000
162.089800 1088.000000

>ms2
115.053800 464.000000
117.069800 356.000000
134.094800 460.000000

>ms2
115.055100 404.000000
146.056700 312.000000

>ms2
59.048100 788.000000
91.054000 3496.000000
92.056500 464.000000
106.064900 680.000000
115.053700 736.000000
117.069500 3336.000000
119.084800 4892.000000
120.088700 584.000000
131.084800 468.000000
133.052300 408.000000
134.059100 352.000000
134.095700 2292.000000
135.101300 300.000000
145.063600 1624.000000
153.088700 336.000000
155.070100 472.000000
162.090800 24076.000000
163.092900 1912.000000
174.090700 532.000000
176.105700 332.000000
219.113600 732.000000

