>compound AU67970935
>parentmass 324.207
>ionization [M+H]+
>formula C20H25N3O
>rt 341.556000
>profile qtof
#smiles_iso CCN(CC)C(=O)C1CN(C2CC3=CNC4=CC=CC(=C34)C2=C1)C
#smiles_can CCN(CC)C(=O)C1CN(C2CC3=CNC4=CC=CC(=C34)C2=C1)C
#inchikey VAYOSLLFUXYJDT-UHFFFAOYSA-N
#pubchem_id 3981
#mb_accession AU162501,AU162502,AU162503,AU162504,AU162505

>ms2peaks
281.166600 12092.000000
324.209900 2253168.000000
325.212900 472952.000000
326.216000 37284.000000

>ms2peaks
128.107000 13364.000000
192.081300 13756.000000
197.108000 93588.000000
198.110600 11688.000000
208.076300 51788.000000
208.099800 12016.000000
223.124200 640720.000000
224.127200 87840.000000
251.118900 55180.000000
281.166500 216468.000000
282.169300 38716.000000
309.184900 19008.000000
324.209400 2319216.000000
325.212200 481560.000000
326.214700 38152.000000

>ms2peaks
128.107600 40320.000000
168.081500 12936.000000
180.082100 104468.000000
181.086600 18508.000000
182.096800 35520.000000
192.082000 67592.000000
193.085100 16012.000000
194.097200 28996.000000
196.112900 12556.000000
197.108900 223288.000000
198.111600 26720.000000
207.093300 50768.000000
208.077300 290704.000000
208.101100 226676.000000
209.080000 33512.000000
209.104600 33844.000000
210.092200 11452.000000
221.108700 41228.000000
222.115500 17784.000000
223.125000 2208792.000000
224.128000 316440.000000
225.130900 18152.000000
251.119600 64736.000000
252.122800 11136.000000
281.167100 183368.000000
282.170100 30368.000000
309.186000 30644.000000
324.209800 301468.000000
325.212900 53660.000000

>ms2peaks
128.107500 25552.000000
152.062500 5964.000000
153.070200 15536.000000
154.066000 23636.000000
156.081700 12376.000000
165.070400 11808.000000
167.073700 50636.000000
168.081100 31348.000000
180.082200 242120.000000
181.066800 7340.000000
181.088000 63072.000000
182.096600 101172.000000
183.099600 14084.000000
190.066300 9664.000000
191.074300 41500.000000
192.082100 148284.000000
194.097400 64132.000000
195.104300 34364.000000
196.112600 36752.000000
197.109000 151876.000000
198.111800 18976.000000
206.096000 9412.000000
207.069200 48136.000000
207.093400 387828.000000
208.077300 297932.000000
208.100900 657116.000000
209.080400 36400.000000
209.104700 80140.000000
210.091200 7672.000000
220.100700 13412.000000
221.109000 100832.000000
222.115400 46184.000000
223.124800 1173344.000000
224.128000 149412.000000
225.131700 8768.000000
236.096500 5972.000000
251.119300 12556.000000
281.166800 20748.000000
324.209400 6528.000000

>ms2peaks
128.107900 9256.000000
129.070700 10848.000000
139.055800 5644.000000
141.070500 5232.000000
152.063000 24696.000000
153.070800 70332.000000
154.066500 60848.000000
155.070800 9544.000000
155.086500 5332.000000
156.081600 13636.000000
164.062900 5892.000000
165.071100 32500.000000
166.067700 8796.000000
167.074200 134148.000000
168.081000 44412.000000
169.083900 5924.000000
178.066200 7076.000000
179.074000 14996.000000
180.082300 337548.000000
181.067500 15292.000000
181.088800 120136.000000
182.086300 95352.000000
182.093000 76876.000000
183.089900 13032.000000
190.066100 18420.000000
191.074500 102300.000000
192.082300 163336.000000
193.079200 91584.000000
194.083100 18932.000000
194.097700 75932.000000
195.105000 44024.000000
196.112300 29188.000000
197.109000 79932.000000
198.112500 9792.000000
205.077800 15588.000000
206.085900 20564.000000
207.069700 116164.000000
207.093600 1037212.000000
208.077200 128860.000000
208.100600 431120.000000
209.080300 17668.000000
209.105000 52476.000000
220.101300 21120.000000
221.109400 121648.000000
222.115500 44744.000000
223.125200 224836.000000
224.128200 33404.000000

