>compound AU67597955
>parentmass 212.1506
>ionization [M+H]+
>formula C9H17N5O
>rt 343.200000
>profile qtof
#smiles_iso CC(C)NC1=NC(=NC(=O)N1)NC(C)C
#smiles_can CC(C)NC1=NC(=NC(=O)N1)NC(C)C
#inchikey RUOTUMSRCIMLJK-UHFFFAOYSA-N
#pubchem_id 135461611
#mb_accession AU207401,AU207402,AU207403,AU207404,AU207405

>ms2
128.056300 3764.000000
170.102700 11620.000000
195.122800 1392.000000
212.150200 718172.000000
213.152900 60148.000000
214.155000 4312.000000

>ms2
128.081100 10608.000000
129.057600 4068.000000
170.103000 153896.000000
171.105200 11824.000000
212.150200 288088.000000
213.152900 28268.000000
214.155000 1372.000000

>ms2
127.096400 1028.000000
128.056100 143684.000000
129.058300 6548.000000
170.102900 36156.000000
212.149300 12472.000000

>ms2
128.056100 29672.000000
129.058800 2008.000000
170.102500 1552.000000

>ms2
128.055700 3824.000000
129.058600 384.000000

