>compound AU67056209
>parentmass 358.0841
>ionization [M+H]+
>formula C19H16ClNO4
>rt 640.110000
>profile qtof
#smiles_iso CC1=C(C2=C(N1C(=O)C3=CC=C(C=C3)Cl)C=CC(=C2)OC)CC(=O)O
#smiles_can CC1=C(C2=C(N1C(=O)C3=CC=C(C=C3)Cl)C=CC(=C2)OC)CC(=O)O
#inchikey CGIGDMFJXJATDK-UHFFFAOYSA-N
#pubchem_id 3715
#mb_accession AU271401,AU271402,AU271403,AU271404,AU271405,AU271406

>ms2
138.993200 10828.000000
139.997000 872.000000
140.990200 2684.000000
174.090200 3552.000000
175.094800 472.000000
358.083000 22380.000000
359.085700 4324.000000
360.080300 6560.000000

>ms2
138.993300 24352.000000
139.997100 2128.000000
140.990200 7588.000000
141.994300 648.000000
163.075100 512.000000
174.090100 3052.000000
175.092300 408.000000
358.081800 908.000000

>ms2
110.999400 492.000000
138.993500 23084.000000
139.997400 1688.000000
140.990800 7240.000000
174.090900 1352.000000
245.109100 888.000000

>ms2
110.997700 416.000000
131.070700 320.000000
138.993100 19580.000000
139.996200 1388.000000
140.990200 5292.000000
141.993000 344.000000
159.067400 312.000000
174.089200 580.000000
204.069700 388.000000
245.107900 1100.000000
286.100400 1088.000000

>ms2
110.999500 460.000000
131.071000 400.000000
138.993200 10120.000000
139.996800 872.000000
140.991100 2604.000000
174.088200 344.000000
243.056000 404.000000
245.106900 440.000000
286.096000 892.000000

>ms2
138.993600 42872.000000
139.997200 3392.000000
140.990800 11836.000000
141.994800 748.000000
163.074500 420.000000
174.090500 1736.000000
245.108400 1516.000000
261.103000 356.000000

