>compound AU68459318
>parentmass 331.1435
>ionization [M+H]+
>formula C13H22N4O4S
>rt 198.000000
>profile qtof
#smiles_iso CN/C(=C\[N+](=O)[O-])/NCCSCC1=CC=C(O1)C[N+](C)(C)[O-]
#smiles_can CNC(=C[N+](=O)[O-])NCCSCC1=CC=C(O1)C[N+](C)(C)[O-]
#inchikey DFJVUWAHTQPQCV-MDWZMJQESA-N
#pubchem_id 3033888
#mb_accession AU219401,AU219402,AU219403,AU219404,AU219405

>ms2peaks
124.075000 62632.000000
144.075800 39224.000000
170.062500 7132.000000
176.048100 209068.000000
225.103500 10772.000000
270.090800 1350120.000000
271.094300 113964.000000
272.088100 34048.000000
331.144000 1419884.000000
332.146800 163412.000000
333.141700 40760.000000

>ms2peaks
124.074700 112292.000000
125.004500 102204.000000
130.055300 128564.000000
131.061200 14852.000000
144.075400 134284.000000
147.021000 8552.000000
147.057300 11164.000000
153.035400 44832.000000
164.093000 14528.000000
167.062300 10260.000000
176.047600 1420704.000000
177.050200 53672.000000
177.100500 7716.000000
178.108000 9268.000000
191.116700 57368.000000
224.096800 346288.000000
225.100400 34108.000000
270.090100 233036.000000
271.092300 25484.000000
272.085900 7440.000000

>ms2peaks
117.047300 3368.000000
118.031500 4848.000000
121.075100 7352.000000
125.004800 321256.000000
127.000900 9640.000000
129.047500 10284.000000
130.055300 358600.000000
131.059100 18416.000000
133.051400 3160.000000
135.025500 2436.000000
135.090700 16688.000000
136.074200 2124.000000
144.075700 13728.000000
145.041800 5936.000000
146.049400 3528.000000
147.021700 1944.000000
147.058200 8548.000000
149.070600 6960.000000
151.020000 2016.000000
152.027800 3304.000000
153.035900 19408.000000
154.039000 1992.000000
154.055100 4556.000000
163.085700 12996.000000
165.101400 94312.000000
167.062600 23908.000000
168.064900 2128.000000
170.062400 23836.000000
171.064800 2344.000000
176.048100 373144.000000
178.032700 6016.000000
178.108700 17572.000000
181.078600 43672.000000
182.081600 5048.000000
191.117100 132928.000000
194.060200 6756.000000
195.070400 5440.000000
207.093600 2404.000000
209.073100 4056.000000
223.089700 6408.000000
224.097100 68964.000000
270.090700 2296.000000

>ms2peaks
115.032100 1440.000000
117.048100 3464.000000
118.031500 3216.000000
118.064200 2980.000000
120.080500 2212.000000
122.059100 1440.000000
122.081700 3672.000000
123.026100 1592.000000
124.075000 11612.000000
125.004900 266696.000000
127.000500 9480.000000
129.047300 12392.000000
130.055200 180532.000000
131.059400 10432.000000
133.074700 1744.000000
134.058400 4784.000000
134.082600 1400.000000
135.025400 5344.000000
135.090800 50412.000000
136.074400 2684.000000
137.081600 1380.000000
137.106500 4032.000000
138.012900 1820.000000
139.030900 1720.000000
140.052100 1672.000000
145.041500 2972.000000
146.058800 1664.000000
146.082800 2148.000000
147.066700 10644.000000
147.090900 5080.000000
148.074700 73024.000000
149.070500 22188.000000
149.106200 3580.000000
150.036100 3032.000000
150.074000 1740.000000
150.091200 1908.000000
151.020300 7596.000000
152.027600 2992.000000
152.052200 1500.000000
153.035700 5360.000000
154.054000 2744.000000
159.044900 2536.000000
159.091100 2428.000000
160.075000 3928.000000
160.097500 1856.000000
161.106600 1576.000000
163.122400 3308.000000
165.101200 66464.000000
167.062800 13880.000000
168.065900 1624.000000
170.062900 3416.000000
177.101400 61008.000000
178.031300 15900.000000
179.036200 1636.000000
179.115500 1876.000000
181.078500 25644.000000
182.082000 2388.000000
191.117200 60584.000000
193.054000 7220.000000
194.062000 5972.000000
195.094800 1588.000000
207.093400 1656.000000
209.073600 3872.000000
223.088900 6524.000000
224.097100 3876.000000

>ms2peaks
114.037600 732.000000
115.031900 1196.000000
117.048000 4004.000000
117.055900 1720.000000
118.030900 1488.000000
118.064100 7472.000000
119.048900 1116.000000
119.059000 1908.000000
119.070600 932.000000
120.044200 852.000000
120.066800 2268.000000
120.080200 5584.000000
122.059700 3688.000000
122.082100 3664.000000
123.025700 3356.000000
123.066900 796.000000
123.090400 1136.000000
124.032800 1224.000000
124.075000 4724.000000
125.004900 117848.000000
126.008600 7528.000000
126.035400 876.000000
127.019700 668.000000
129.047300 10260.000000
130.055000 52188.000000
131.060100 4248.000000
132.079600 1916.000000
133.075200 5240.000000
134.018000 616.000000
134.058800 8424.000000
134.082400 3256.000000
135.025600 4380.000000
135.090900 51296.000000
136.020700 836.000000
136.074800 3888.000000
137.005100 2716.000000
137.081200 1152.000000
137.106600 5848.000000
138.012200 1344.000000
138.036000 1576.000000
139.018000 612.000000
139.031400 2532.000000
140.051900 1356.000000
143.061600 884.000000
144.066400 684.000000
145.043200 1308.000000
145.075700 1856.000000
146.059200 3068.000000
146.082500 1296.000000
147.055100 2060.000000
147.067000 7840.000000
147.090400 6632.000000
148.074700 67120.000000
148.098300 3880.000000
149.070500 18108.000000
149.106000 3484.000000
150.036200 4396.000000
150.073800 1664.000000
150.090300 1448.000000
151.020200 9900.000000
151.042000 1164.000000
152.051100 2040.000000
153.036300 1200.000000
153.047300 1708.000000
154.052800 920.000000
159.044500 2580.000000
159.090300 2188.000000
160.074500 3848.000000
160.097300 600.000000
161.015300 592.000000
161.070800 752.000000
161.106600 1264.000000
162.077100 952.000000
162.090100 856.000000
163.122100 2072.000000
164.015700 828.000000
164.052200 1124.000000
164.092100 5576.000000
165.101000 22448.000000
167.063000 8072.000000
170.061700 716.000000
175.084800 728.000000
176.047800 3064.000000
176.092000 1408.000000
177.101500 34324.000000
178.031200 14868.000000
179.034800 1640.000000
179.118000 1024.000000
180.046700 640.000000
181.078300 5724.000000
182.082300 860.000000
189.102000 984.000000
191.117100 9156.000000
192.046700 8824.000000
194.062400 2736.000000
195.094000 688.000000
209.073300 1572.000000
223.090300 2004.000000

