>compound AU68499388
>parentmass 349.1771
>ionization [M+H]+
>formula C19H20N6O
>rt 381.456000
>profile qtof
#smiles_iso C1CN=C(N1)C2=CC(=CC=C2)NC(=O)NC3=CC=CC(=C3)C4=NCCN4
#smiles_can C1CN=C(N1)C2=CC(=CC=C2)NC(=O)NC3=CC=CC(=C3)C4=NCCN4
#inchikey SCEVFJUWLLRELN-UHFFFAOYSA-N
#pubchem_id 21389
#mb_accession AU117001,AU117002,AU117004,AU117005,AU117006

>ms2
349.180800 12816.000000
350.183900 2724.000000

>ms2
162.104200 2828.000000
163.107900 664.000000
188.084400 3508.000000
189.086200 612.000000
317.055900 384.000000
349.181500 15996.000000
350.185000 3396.000000

>ms2
145.039500 612.000000
162.103700 6720.000000
163.107600 732.000000
188.083600 19648.000000
189.086500 2520.000000
306.132400 516.000000

>ms2
119.062000 416.000000
145.040700 2144.000000
159.056300 468.000000
162.104700 3824.000000
163.107800 580.000000
188.083400 16952.000000
189.086900 1808.000000

>ms2
162.103800 9124.000000
163.107400 932.000000
188.083600 14116.000000
189.087000 1812.000000
306.137900 1308.000000
349.179700 2416.000000

