>compound AU68135852
>parentmass 177.1022
>ionization [M+H]+
>formula C10H12N2O
>rt 216.400000
>profile qtof
#smiles_iso CN1[C@@H](CCC1=O)C2=CN=CC=C2
#smiles_can CN1C(CCC1=O)C2=CN=CC=C2
#inchikey UIKROCXWUNQSPJ-VIFPVBQESA-N
#pubchem_id 854019
#mb_accession AU228301,AU228302,AU228303,AU228304,AU228305,AU228306

>ms2
146.058700 12880.000000
177.101900 2522700.000000
178.104500 327372.000000
179.106800 16888.000000

>ms2
118.064000 18668.000000
120.079700 11308.000000
146.058800 70184.000000
149.069800 15564.000000
159.090400 9068.000000
177.101300 1663948.000000
178.104500 128828.000000

>ms2
117.056300 8364.000000
118.064300 21692.000000
119.068400 2164.000000
120.080000 12604.000000
121.082600 1396.000000
122.081900 716.000000
128.048700 1524.000000
130.064300 1552.000000
131.059000 728.000000
132.079400 988.000000
133.074400 900.000000
134.045500 528.000000
134.058500 2380.000000
135.090800 1084.000000
143.058300 532.000000
144.066800 3412.000000
145.051600 904.000000
145.073800 808.000000
146.058700 36492.000000
147.062500 3708.000000
148.074100 1964.000000
149.069500 7524.000000
149.106600 876.000000
150.072600 1104.000000
159.090500 3564.000000
160.073900 536.000000
162.076600 676.000000
177.101100 101308.000000
178.103800 10104.000000

>ms2
116.048800 364.000000
117.056400 7632.000000
118.064000 8932.000000
119.058300 332.000000
119.069200 704.000000
120.079700 4796.000000
128.048600 1112.000000
130.063600 1232.000000
131.061900 388.000000
132.079600 556.000000
133.074400 784.000000
134.058900 1396.000000
143.059400 644.000000
144.067100 1688.000000
145.073300 680.000000
146.059000 5480.000000
149.069100 1292.000000
157.075300 316.000000
159.092000 648.000000
177.101300 2944.000000

>ms2
117.056600 3360.000000
118.063900 3228.000000
120.079800 740.000000
130.063500 500.000000
143.057900 456.000000
146.059300 652.000000

>ms2
117.056300 8364.000000
118.064300 21692.000000
119.068400 2164.000000
120.080000 12604.000000
121.082600 1396.000000
122.081900 716.000000
128.048700 1524.000000
130.064300 1552.000000
131.059000 728.000000
132.079400 988.000000
133.074400 900.000000
134.045500 528.000000
134.058500 2380.000000
135.090800 1084.000000
143.058300 532.000000
144.066800 3412.000000
145.051600 904.000000
145.073800 808.000000
146.058700 36492.000000
147.062500 3708.000000
148.074100 1964.000000
149.069500 7524.000000
149.106600 876.000000
150.072600 1104.000000
159.090500 3564.000000
160.073900 536.000000
162.076600 676.000000
177.101100 101308.000000
178.103800 10104.000000

