>compound AU68762676
>parentmass 391.23
>ionization [M+H]+
>formula C15H30N6O6
>rt 457.840000
>profile qtof
#smiles_iso COCN(COC)C1=NC(=NC(=N1)N(COC)COC)N(COC)COC
#smiles_can COCN(COC)C1=NC(=NC(=N1)N(COC)COC)N(COC)COC
#inchikey BNCADMBVWNPPIZ-UHFFFAOYSA-N
#pubchem_id 62479
#mb_accession AU247101,AU247102,AU247103,AU247104,AU247105,AU247106

>ms2
177.087700 5904.000000
207.098300 31748.000000
208.100100 2612.000000
283.151400 210684.000000
284.153900 24616.000000
285.155100 2932.000000
301.161700 20412.000000
302.164100 2952.000000
315.177900 2168.000000
329.192400 4212.000000
345.186600 2968.000000
359.204100 347284.000000
360.206500 50308.000000
361.208100 6120.000000
377.214200 92308.000000
378.217100 17484.000000
391.229400 9456.000000
392.233100 1816.000000

>ms2
177.087500 104768.000000
178.090200 10004.000000
207.098200 551364.000000
208.100800 44364.000000
253.140300 14148.000000
283.150900 352036.000000
284.152900 47572.000000
285.154400 5040.000000
301.161000 14376.000000
329.192100 9176.000000
359.203100 8512.000000
377.213600 3056.000000

>ms2
177.087800 201148.000000
178.090000 20300.000000
207.098300 113176.000000
208.101100 12920.000000
253.140600 8768.000000
283.150400 7752.000000
284.149800 1288.000000
329.192400 2256.000000

>ms2
177.087700 196100.000000
178.089600 23552.000000
193.118700 1492.000000
207.097800 13648.000000
208.099900 1764.000000
209.113600 1180.000000
253.141200 3688.000000

>ms2
123.066200 556.000000
136.060300 660.000000
148.060900 1664.000000
149.070600 556.000000
150.076300 1928.000000
177.087700 109688.000000
178.089900 11376.000000
193.118500 1540.000000
207.098700 788.000000
209.111900 1216.000000
253.138700 892.000000

>ms2
177.087900 166228.000000
178.090300 17628.000000
193.118900 1136.000000
207.098400 142928.000000
208.100700 19116.000000
209.102600 1144.000000
209.112200 1352.000000
225.108300 2972.000000
239.122800 1104.000000
253.140700 7524.000000
254.144300 864.000000
283.150700 40012.000000
284.153700 5612.000000
285.157900 940.000000
301.160900 3260.000000
329.191500 2232.000000

