>compound AU68085129
>parentmass 204.1383
>ionization [M+H]+
>formula C13H17NO
>rt 555.300000
>profile qtof
#smiles_iso CCN(C1=CC=CC=C1C)C(=O)/C=C/C
#smiles_can CCN(C1=CC=CC=C1C)C(=O)C=CC
#inchikey DNTGGZPQPQTDQF-XBXARRHUSA-N
#pubchem_id 688020
#mb_accession AU269901,AU269902,AU269903,AU269904,AU269905,AU269906

>ms2peaks
134.059200 25832.000000
136.111100 39800.000000
162.090100 17208.000000
204.138600 2508088.000000
206.144000 30132.000000

>ms2peaks
121.087900 12380.000000
134.059300 231784.000000
134.095500 41512.000000
135.062200 20284.000000
136.111200 350680.000000
137.114400 30860.000000
158.095400 50508.000000
159.098500 7080.000000
162.090300 52004.000000
176.106000 24796.000000
176.142200 7408.000000
186.126800 10008.000000
204.137700 1262324.000000
205.140800 148872.000000
206.144100 8340.000000

>ms2peaks
106.065300 704.000000
115.053900 1512.000000
116.048100 3620.000000
117.056100 4032.000000
117.067800 1824.000000
118.063800 5572.000000
119.036000 812.000000
119.071700 2368.000000
119.084200 1208.000000
120.079900 3476.000000
121.087500 27388.000000
122.091500 2404.000000
128.048300 772.000000
129.068200 1376.000000
130.064200 6552.000000
131.069700 1148.000000
131.084000 1064.000000
132.043200 6516.000000
132.079200 4372.000000
133.050400 1128.000000
133.086400 1328.000000
134.059100 71164.000000
134.095300 35760.000000
135.062000 6872.000000
135.098800 4404.000000
136.111300 117732.000000
137.114300 13072.000000
138.117500 828.000000
142.063700 648.000000
143.072000 9940.000000
144.077800 2568.000000
146.059000 3376.000000
146.095300 3768.000000
147.065000 852.000000
148.110900 1728.000000
156.078800 2432.000000
157.086100 1612.000000
158.095200 32812.000000
159.098400 4164.000000
160.074100 5000.000000
161.081500 3760.000000
162.089700 5216.000000
162.125700 800.000000
170.094400 856.000000
171.103600 1532.000000
174.090300 4224.000000
175.096700 1340.000000
176.106100 3320.000000
176.142400 1840.000000
177.109300 632.000000
186.126100 2484.000000
204.137400 29484.000000
205.141100 4192.000000

>ms2peaks
106.064800 804.000000
115.053400 2300.000000
116.049500 2548.000000
117.056500 3632.000000
117.070100 900.000000
118.063700 5528.000000
119.035900 1676.000000
119.071800 3120.000000
120.079600 2968.000000
121.087400 9228.000000
128.049200 1592.000000
128.061100 548.000000
129.068400 1036.000000
130.063900 5780.000000
131.070800 1448.000000
131.082600 432.000000
132.043300 4324.000000
132.079400 2816.000000
133.050300 772.000000
133.086000 1096.000000
134.058900 8728.000000
134.095400 15768.000000
135.062100 1008.000000
135.099500 2176.000000
136.110900 15708.000000
137.114300 1540.000000
142.063600 2284.000000
143.071600 7612.000000
146.058500 3820.000000
146.094700 1956.000000
147.063000 456.000000
147.101200 304.000000
148.109400 464.000000
155.071000 472.000000
156.079600 2088.000000
157.086600 1144.000000
158.095100 5252.000000
159.067300 452.000000
159.098600 996.000000
160.074900 2656.000000
160.111600 328.000000
161.081200 1808.000000
170.095300 880.000000
171.102400 436.000000
174.089900 1944.000000
176.103900 328.000000
204.134700 324.000000

>ms2peaks
106.064600 324.000000
115.054100 1608.000000
116.050200 520.000000
117.057100 2164.000000
118.064400 2892.000000
119.036000 728.000000
119.070400 1040.000000
120.080000 2076.000000
121.087300 1936.000000
128.049200 1588.000000
128.061300 900.000000
129.069400 680.000000
130.064700 3096.000000
131.071800 760.000000
132.043000 1516.000000
132.080200 1044.000000
134.059900 656.000000
134.095300 2980.000000
135.102000 396.000000
136.111500 1140.000000
140.048600 536.000000
142.064100 1688.000000
143.072000 2160.000000
144.077900 1020.000000
146.058900 1644.000000
146.095300 328.000000
154.065600 404.000000
156.079400 920.000000
158.094000 380.000000
160.074200 524.000000
170.096800 464.000000
174.090500 604.000000

>ms2peaks
68.049100 130008.000000
69.033200 949524.000000
70.036500 31888.000000
91.054600 26024.000000
96.081300 80216.000000
97.064600 6604.000000
97.084300 5356.000000
106.066000 26788.000000
107.073700 16968.000000
108.082200 51372.000000
109.066100 5248.000000
121.088800 21836.000000
134.059800 149100.000000
134.096000 32780.000000
135.062600 10220.000000
136.111700 237940.000000
137.115000 17196.000000
158.095500 42076.000000
162.090400 35692.000000
176.105800 16976.000000
186.126500 6796.000000
204.138000 675904.000000
205.141400 93120.000000
206.143400 5732.000000

