>compound AU68606614
>parentmass 308.1325
>ionization [M+H]+
>formula C20H20OP+
>rt 566.850000
>profile qtof
#smiles_iso COC[P+](C1=CC=CC=C1)(C2=CC=CC=C2)C3=CC=CC=C3
#smiles_can COC[P+](C1=CC=CC=C1)(C2=CC=CC=C2)C3=CC=CC=C3
#inchikey SDMCZCALYDCRBH-UHFFFAOYSA-N
#pubchem_id 2723799
#mb_accession AU248503,AU248506

>ms2
183.035400 308.000000
185.051000 1036.000000
262.088200 420.000000
277.111700 576.000000
307.124300 1388.000000

>ms2
57.069000 300.000000

