>compound AU68877352
>parentmass 316.008
>ionization [M+H]+
>formula C14H10BrN3O
>rt 440.520000
>profile qtof
#smiles_iso C1C(=O)NC2=C(C=C(C=C2)Br)C(=N1)C3=CC=CC=N3
#smiles_can C1C(=O)NC2=C(C=C(C=C2)Br)C(=N1)C3=CC=CC=N3
#inchikey VMIYHDSEFNYJSL-UHFFFAOYSA-N
#pubchem_id 2441
#mb_accession AU151506

>ms2
60.054900 984.000000
80.048800 1208.000000
133.051800 720.000000
159.055600 308.000000
181.075400 1224.000000
182.083800 31968.000000
183.086700 3144.000000
183.975200 5612.000000
185.972700 4092.000000
192.066700 432.000000
193.072600 376.000000
208.086700 5560.000000
209.094600 32780.000000
210.079600 1004.000000
210.098600 3424.000000
210.967900 1596.000000
211.968900 824.000000
213.966400 544.000000
236.081500 604.000000
237.087600 816.000000
258.989100 1548.000000
259.994200 4636.000000
261.001800 10212.000000
261.993100 3332.000000
263.000800 9564.000000
264.006200 436.000000
286.982200 528.000000
288.013600 16272.000000
289.015900 2092.000000
290.011200 12464.000000
291.011500 920.000000
316.008900 60908.000000
317.011600 8868.000000
318.006900 53028.000000

