>compound AU68859315
>parentmass 342.2064
>ionization [M+H]+
>formula C21H27NO3
>rt 462.760000
>profile qtof
#smiles_iso CCCNCC(COC1=CC=CC=C1C(=O)CCC2=CC=CC=C2)O
#smiles_can CCCNCC(COC1=CC=CC=C1C(=O)CCC2=CC=CC=C2)O
#inchikey JWHAUXFOSRPERK-UHFFFAOYSA-N
#pubchem_id 4932
#mb_accession AU228501,AU228502,AU228503,AU228504,AU228505,AU228506

>ms2peaks
324.195400 17564.000000
342.208100 2508800.000000
344.212200 96788.000000

>ms2peaks
116.106400 186596.000000
117.109500 13368.000000
265.121800 79744.000000
266.125000 15644.000000
324.195800 248232.000000
325.198800 54924.000000
342.207300 2484016.000000
343.209800 889404.000000
344.212300 74616.000000

>ms2peaks
115.053200 3500.000000
116.106200 259580.000000
117.068600 2744.000000
117.109200 19748.000000
121.027900 1568.000000
129.068500 7496.000000
131.048200 5116.000000
133.063600 7420.000000
135.042900 3188.000000
143.083800 1832.000000
145.063300 2572.000000
151.038600 1364.000000
161.058000 20508.000000
162.061800 1892.000000
173.057600 1408.000000
176.142700 2444.000000
181.099700 1324.000000
190.120800 2504.000000
192.136900 2548.000000
209.094800 17452.000000
210.098400 2988.000000
210.147800 5488.000000
220.132000 1624.000000
221.095100 2932.000000
223.109900 2180.000000
227.105000 5008.000000
239.106700 1544.000000
247.109700 6108.000000
265.121200 59144.000000
266.125600 13044.000000
267.128900 1740.000000
324.195200 41180.000000
325.198600 8988.000000
326.201400 1372.000000
342.206200 212504.000000
343.209400 46032.000000
344.211900 5968.000000

>ms2peaks
114.090700 392.000000
115.053700 3208.000000
116.106400 67604.000000
117.069000 2104.000000
119.048900 424.000000
121.028100 1328.000000
128.060900 1112.000000
129.068700 3176.000000
131.048000 4776.000000
131.084400 384.000000
133.026900 1328.000000
133.063500 5000.000000
135.042500 760.000000
143.084700 536.000000
145.064500 1812.000000
147.043000 372.000000
149.058400 656.000000
151.037500 1580.000000
157.063300 360.000000
161.058800 5612.000000
162.062600 376.000000
165.069600 608.000000
166.076500 896.000000
173.059400 912.000000
176.141500 504.000000
178.076400 1320.000000
179.083400 784.000000
181.100300 1592.000000
187.073400 448.000000
191.084500 1056.000000
192.137300 604.000000
193.101200 980.000000
194.071000 952.000000
195.077300 448.000000
202.076500 448.000000
203.085100 424.000000
204.093200 508.000000
209.095500 4520.000000
210.097000 588.000000
210.147500 460.000000
221.095400 1008.000000
222.099600 424.000000
223.110700 436.000000
227.105900 804.000000
232.086900 712.000000
247.110400 1260.000000
265.122000 3052.000000
266.125500 660.000000
324.197100 956.000000
342.204900 2176.000000

>ms2peaks
115.053800 3060.000000
116.106400 15324.000000
117.068900 308.000000
117.109900 1364.000000
121.028200 920.000000
123.042700 304.000000
128.062100 1340.000000
129.068900 1224.000000
131.047600 2844.000000
133.027800 896.000000
133.062900 1172.000000
141.068500 372.000000
145.063500 560.000000
151.037600 596.000000
161.058300 1212.000000
162.063900 304.000000
165.069400 1008.000000
166.077300 1112.000000
167.084300 332.000000
172.073400 440.000000
173.058900 412.000000
178.077100 1908.000000
179.084300 460.000000
181.099900 636.000000
190.075700 464.000000
191.083600 620.000000
193.102100 348.000000
194.073100 764.000000
202.076800 512.000000
203.086200 612.000000
204.091900 416.000000
207.080400 344.000000
209.095800 596.000000
210.102200 320.000000
218.074400 304.000000
231.081400 512.000000
232.086500 340.000000

>ms2peaks
115.053200 3500.000000
116.106200 259580.000000
117.068600 2744.000000
117.109200 19748.000000
121.027900 1568.000000
129.068500 7496.000000
131.048200 5116.000000
133.063600 7420.000000
135.042900 3188.000000
143.083800 1832.000000
145.063300 2572.000000
151.038600 1364.000000
161.058000 20508.000000
162.061800 1892.000000
173.057600 1408.000000
176.142700 2444.000000
181.099700 1324.000000
190.120800 2504.000000
192.136900 2548.000000
209.094800 17452.000000
210.098400 2988.000000
210.147800 5488.000000
220.132000 1624.000000
221.095100 2932.000000
223.109900 2180.000000
227.105000 5008.000000
239.106700 1544.000000
247.109700 6108.000000
265.121200 59144.000000
266.125600 13044.000000
267.128900 1740.000000
324.195200 41180.000000
325.198600 8988.000000
326.201400 1372.000000
342.206200 212504.000000
343.209400 46032.000000
344.211900 5968.000000

