>compound AU68459834
>parentmass 86.06
>ionization [M+H]+
>formula C4H7NO
>rt 168.360000
>profile qtof
#smiles_iso CC(=C)C(=O)N
#smiles_can CC(=C)C(=O)N
#inchikey FQPSGWSUVKBHSU-UHFFFAOYSA-N
#pubchem_id 6595
#mb_accession AU279406

>ms2peaks
58.064500 3316.000000
69.033300 568.000000

