>compound AU68918205
>parentmass 245.19000000000003
>ionization [M+H]+
>formula C17H24O
>rt 786.140000
>profile qtof
#smiles_iso CC(=O)C1=C2CCC(C2=CC(=C1)C(C)(C)C)(C)C
#smiles_can CC(=O)C1=C2CCC(C2=CC(=C1)C(C)(C)C)(C)C
#inchikey IKTHMQYJOWTSJO-UHFFFAOYSA-N
#pubchem_id 61585
#mb_accession AU244701,AU244702,AU244703,AU244704,AU244705,AU244706

>ms2
133.099700 320.000000
175.109800 1540.000000
189.126000 7880.000000
190.130000 1384.000000
191.177200 356.000000
209.189300 388.000000
243.175200 312.000000
245.190100 33528.000000
246.192200 6600.000000
247.197400 808.000000

>ms2
133.099700 1412.000000
147.078000 588.000000
153.126700 400.000000
175.110400 17208.000000
176.114600 1712.000000
189.125500 2756.000000
190.131200 532.000000
201.160600 632.000000
243.173000 308.000000
245.190000 6644.000000
246.193700 1624.000000

>ms2
119.084400 448.000000
131.082700 400.000000
133.100500 944.000000
147.079200 996.000000
175.110300 6168.000000
176.113500 972.000000
189.125500 720.000000

>ms2
119.084500 656.000000
147.081700 760.000000
175.111600 1076.000000

>ms2
128.059600 316.000000

>ms2
57.068700 556.000000
131.084000 796.000000
133.099800 656.000000
147.078300 372.000000
175.110100 5140.000000
176.115200 700.000000
189.125500 4252.000000
190.132600 524.000000
245.189500 1752.000000

