>compound AU68056359
>parentmass 330.137
>ionization [M+H]+
>formula C15H23NO5S
>rt 429.960000
>profile qtof
#smiles_iso CCC1=CC=CC(=C1N(C(C)COC)C(=O)CS(=O)(=O)O)C
#smiles_can CCC1=CC=CC(=C1N(C(C)COC)C(=O)CS(=O)(=O)O)C
#inchikey CIGKZVUEZXGYSV-UHFFFAOYSA-N
#pubchem_id 6426849
#mb_accession AU206001,AU206002,AU206003,AU206004,AU206005,AU206006

>ms2peaks
298.110000 26668.000000
299.114100 5288.000000
300.108500 1568.000000
301.112100 300.000000
330.136700 31248.000000
331.140000 5232.000000

>ms2peaks
136.113200 356.000000
160.113200 612.000000
174.126500 540.000000
175.135700 880.000000
176.141500 1380.000000
202.122300 2032.000000
203.125300 560.000000
217.145700 644.000000
258.078400 1120.000000
298.110800 65956.000000
300.109800 2772.000000
301.109000 396.000000
330.136300 1156.000000

>ms2peaks
132.078900 444.000000
134.095400 524.000000
136.110700 1020.000000
143.084700 344.000000
144.080000 504.000000
145.085700 308.000000
146.095400 1424.000000
158.095500 736.000000
158.107700 672.000000
159.103500 456.000000
160.111000 8936.000000
161.113900 1212.000000
174.126200 5392.000000
175.133300 3408.000000
176.103800 348.000000
176.141800 6068.000000
177.144500 716.000000
188.106200 640.000000
188.146500 312.000000
202.121300 18140.000000
203.125400 2808.000000
204.128600 332.000000
216.136400 352.000000
217.146400 1044.000000
234.148500 708.000000
258.079700 320.000000
298.110200 25128.000000
299.113500 3836.000000
300.106300 1500.000000

>ms2peaks
120.080000 552.000000
130.063900 404.000000
131.072400 460.000000
132.080000 2088.000000
133.087500 1020.000000
134.094900 1808.000000
135.100600 316.000000
136.110400 832.000000
143.085300 1104.000000
144.079800 1808.000000
145.087100 2244.000000
146.095000 2864.000000
148.074900 372.000000
148.110600 900.000000
158.094600 1080.000000
158.107800 416.000000
159.103200 1464.000000
160.111000 14184.000000
161.113900 2212.000000
175.130700 2072.000000
176.106000 332.000000
176.142100 3836.000000
177.147300 524.000000
188.105500 1232.000000
202.121500 19232.000000
203.124900 3412.000000
216.139700 512.000000
234.149000 580.000000
298.109600 1844.000000
299.115100 376.000000

>ms2peaks
115.051900 336.000000
117.056700 488.000000
117.068600 440.000000
118.064100 468.000000
119.072100 412.000000
119.085600 420.000000
120.078500 792.000000
128.060000 492.000000
129.068100 372.000000
130.063700 1292.000000
131.072600 1288.000000
132.079600 3400.000000
133.087300 1236.000000
134.095200 2044.000000
135.101500 580.000000
136.111900 404.000000
143.074600 552.000000
143.082700 732.000000
144.079500 3952.000000
145.087400 6060.000000
146.094900 4888.000000
147.099400 620.000000
148.111600 432.000000
158.095100 2200.000000
159.102800 3420.000000
160.075000 908.000000
160.110600 11060.000000
161.079700 308.000000
162.089900 476.000000
174.126700 9628.000000
175.129800 1372.000000
176.141700 1316.000000
188.105000 620.000000
202.121700 8368.000000
203.124300 1212.000000

>ms2peaks
73.063500 368.000000
132.079500 308.000000
134.095600 408.000000
136.112800 484.000000
143.086200 324.000000
146.095500 664.000000
149.058900 640.000000
158.096200 496.000000
158.108400 408.000000
159.104400 484.000000
160.111900 4960.000000
161.115300 728.000000
162.127300 380.000000
174.127100 3020.000000
175.134200 1980.000000
176.143100 4124.000000
177.145900 492.000000
188.104900 524.000000
202.122300 10836.000000
203.125000 1448.000000
204.128200 328.000000
217.145200 484.000000
234.146700 436.000000
258.079400 564.000000
271.130800 408.000000
298.110500 28304.000000
299.113700 5508.000000
300.109900 1676.000000

