>compound AU69025634
>parentmass 292.1211
>ionization [M+H]+
>formula C15H18ClN3O
>rt 590.270000
>profile qtof
#smiles_iso CC(C1CC1)C(CN2C=NC=N2)(C3=CC=C(C=C3)Cl)O
#smiles_can CC(C1CC1)C(CN2C=NC=N2)(C3=CC=C(C=C3)Cl)O
#inchikey UFNOUKDBUJZYDE-UHFFFAOYSA-N
#pubchem_id 86132
#mb_accession AU256801,AU256802,AU256803,AU256804,AU256805,AU256806

>ms2
125.013700 1648.000000
291.117800 82960.000000
292.120900 272660.000000
293.123600 47432.000000
294.117600 71892.000000

>ms2
125.014300 25780.000000
126.017800 2012.000000
127.011000 7420.000000
128.015300 448.000000
138.993100 2676.000000
139.029400 572.000000
139.998700 324.000000
140.991300 856.000000
155.024000 400.000000
163.031200 332.000000
165.046500 908.000000
167.041400 488.000000
171.136200 528.000000
177.043600 384.000000
291.116700 620.000000
292.120900 45104.000000
293.123900 8552.000000
294.118000 12160.000000

>ms2
125.014200 41972.000000
126.017700 5664.000000
128.013900 1304.000000
128.061800 348.000000
129.069700 352.000000
130.077400 392.000000
138.992900 3840.000000
139.029300 876.000000
139.997100 308.000000
140.990600 1080.000000
141.067600 372.000000
142.076800 436.000000
151.009200 348.000000
151.028800 624.000000
152.009900 340.000000
163.029100 424.000000
165.028600 576.000000
165.045300 480.000000
166.021100 976.000000
168.090500 324.000000
179.043400 312.000000
180.037600 684.000000
222.085300 400.000000
292.121000 668.000000

>ms2
125.014300 30092.000000
126.018200 2924.000000
127.011000 8904.000000
128.015600 696.000000
130.074100 404.000000
138.993900 1712.000000
139.028600 468.000000
140.991500 732.000000
142.079300 340.000000

>ms2
125.014200 24984.000000
126.017400 2812.000000
127.011100 9320.000000
128.014600 480.000000
128.058800 436.000000
129.068500 456.000000
138.993800 1124.000000
139.029000 312.000000
140.990500 600.000000
141.069300 324.000000

>ms2
69.069300 1572.000000
70.039600 103660.000000
71.042500 3076.000000
125.014500 47360.000000
126.017800 6016.000000
127.011400 23456.000000
128.014100 1472.000000
138.993300 3856.000000
139.029200 880.000000
140.989900 984.000000
151.029200 552.000000
165.028300 576.000000
165.043800 520.000000
166.021900 1232.000000
167.028100 768.000000
205.057000 680.000000
221.088900 752.000000
222.083900 1272.000000
291.118100 3544.000000
292.120800 17656.000000
293.122800 3224.000000
294.117900 4920.000000

