>compound AU69644377
>parentmass 337.2122
>ionization [M+H]+
>formula C18H28N2O4
>rt 279.610000
>profile qtof
#smiles_iso CCCC(=O)NC1=CC(=C(C=C1)OCC(CNC(C)C)O)C(=O)C
#smiles_can CCCC(=O)NC1=CC(=C(C=C1)OCC(CNC(C)C)O)C(=O)C
#inchikey GOEMGAFJFRBGGG-UHFFFAOYSA-N
#pubchem_id 1978
#mb_accession AU228101,AU228102,AU228103,AU228104,AU228105,AU228106

>ms2peaks
319.201000 42308.000000
337.213300 2512956.000000

>ms2peaks
116.106300 187632.000000
117.109500 14320.000000
218.116200 32484.000000
222.111600 21432.000000
260.127400 136872.000000
261.130200 21320.000000
277.153700 21148.000000
295.164400 19868.000000
319.201300 441008.000000
320.204200 71764.000000
337.212600 2495636.000000
338.215100 785752.000000
339.217500 72000.000000

>ms2peaks
114.090400 2144.000000
116.106300 290496.000000
117.109400 20652.000000
120.080000 6908.000000
122.058600 2400.000000
130.064200 3812.000000
134.059000 3392.000000
134.095100 6808.000000
136.074300 3668.000000
144.079200 4640.000000
148.074300 72136.000000
149.077800 6844.000000
150.053200 6108.000000
150.090200 6396.000000
151.060100 2088.000000
152.069100 7308.000000
160.074000 17956.000000
162.089900 7984.000000
164.069100 7488.000000
172.074300 6076.000000
174.089800 2552.000000
180.100500 59872.000000
181.104000 5552.000000
190.085100 22028.000000
191.087600 2640.000000
192.100500 7076.000000
204.100900 7524.000000
206.116200 8984.000000
216.101000 5612.000000
218.116900 258140.000000
219.120100 30904.000000
220.131800 11804.000000
221.135200 2324.000000
222.111500 118988.000000
223.114400 16228.000000
230.116600 23880.000000
231.119300 3788.000000
232.131500 4388.000000
233.127300 4036.000000
234.111600 17120.000000
235.114400 2612.000000
235.142900 3840.000000
236.126400 2072.000000
242.116500 8152.000000
244.132400 4988.000000
248.127300 45828.000000
249.130600 6836.000000
253.153800 5524.000000
259.144000 2224.000000
260.127600 199544.000000
261.130500 30916.000000
262.133500 3220.000000
275.174900 3880.000000
277.153400 16196.000000
277.190000 4924.000000
278.137700 11196.000000
295.164400 11520.000000
295.200900 7696.000000
296.168000 1964.000000
319.201200 88928.000000
320.204400 17388.000000
321.206800 2044.000000
337.212100 388396.000000
338.215100 59772.000000
339.217100 7180.000000

>ms2peaks
110.059100 1692.000000
115.054200 1100.000000
116.106400 59232.000000
117.057400 752.000000
117.109500 5600.000000
118.064200 2180.000000
119.072500 1424.000000
120.079900 27252.000000
121.083000 3588.000000
122.059300 8516.000000
122.095600 2176.000000
130.063800 9680.000000
131.048400 2844.000000
131.069500 1080.000000
132.079300 3920.000000
133.051400 1904.000000
133.063300 904.000000
134.059200 8924.000000
134.095200 8704.000000
135.064400 1152.000000
135.098000 1248.000000
136.038000 1184.000000
136.074700 9052.000000
137.079300 964.000000
144.079400 7508.000000
145.063900 1360.000000
145.084200 904.000000
146.059000 4412.000000
146.094000 932.000000
147.066700 1940.000000
148.074600 144232.000000
149.057900 1096.000000
149.077700 13644.000000
150.053900 5052.000000
150.090200 20100.000000
151.061300 6176.000000
151.093600 1756.000000
152.069600 13176.000000
153.073800 1072.000000
160.074400 37532.000000
161.058700 1468.000000
161.077800 4200.000000
162.090000 10688.000000
163.094100 1132.000000
164.069000 10532.000000
165.073300 1256.000000
172.074500 6192.000000
173.058800 876.000000
173.078500 788.000000
174.090100 1116.000000
178.085300 1856.000000
180.101000 100784.000000
181.103800 11188.000000
182.106800 732.000000
190.085200 8728.000000
190.123400 764.000000
191.088400 1364.000000
192.100500 6804.000000
193.105900 756.000000
200.106300 1824.000000
202.121400 1568.000000
204.101300 4356.000000
205.106200 772.000000
206.116800 9356.000000
207.120700 1416.000000
208.095800 892.000000
216.101300 5212.000000
218.116800 93204.000000
219.119800 14200.000000
220.132300 10028.000000
221.136500 1412.000000
222.111600 44340.000000
223.114500 5720.000000
230.116500 15488.000000
231.120000 2312.000000
232.133200 984.000000
234.111200 10028.000000
235.114600 1036.000000
242.116800 2896.000000
248.127600 7388.000000
249.130900 1564.000000
253.155000 1208.000000
260.127100 15072.000000
261.130400 2460.000000
278.138400 872.000000
319.199100 1772.000000
337.211900 2532.000000

>ms2peaks
110.058900 2420.000000
111.062800 424.000000
115.053300 2948.000000
116.106400 12064.000000
117.056500 1616.000000
117.067600 928.000000
117.110300 988.000000
118.064400 3984.000000
119.048100 476.000000
119.072200 3584.000000
120.079900 30508.000000
121.063200 324.000000
121.083300 3512.000000
122.058800 10076.000000
122.095800 3668.000000
123.062300 928.000000
123.100700 388.000000
127.053300 652.000000
130.064000 9756.000000
131.048700 2244.000000
131.070100 1708.000000
132.044800 700.000000
132.053900 324.000000
132.079300 5044.000000
133.051200 6176.000000
133.063000 1236.000000
133.084100 768.000000
134.058800 7336.000000
134.095400 4216.000000
135.065300 1308.000000
136.038300 2440.000000
136.074300 7580.000000
137.079100 528.000000
142.063700 1212.000000
143.048100 760.000000
143.071000 2044.000000
144.055100 344.000000
144.079800 5944.000000
145.063500 1464.000000
145.082400 732.000000
146.059100 6072.000000
146.096100 452.000000
147.042200 744.000000
147.066200 2764.000000
147.090400 376.000000
148.074400 61932.000000
149.060100 596.000000
149.077900 6808.000000
150.053500 2272.000000
150.090000 9928.000000
151.061100 7452.000000
151.092800 1244.000000
152.068900 4736.000000
153.074700 420.000000
155.045900 412.000000
155.059600 1040.000000
158.058600 444.000000
159.066400 912.000000
160.074400 25428.000000
161.058300 1124.000000
161.077300 2880.000000
162.055000 500.000000
162.089500 4376.000000
163.094100 640.000000
164.069100 4580.000000
165.073400 796.000000
172.075200 3092.000000
173.056600 496.000000
173.078300 504.000000
174.087700 392.000000
175.063600 388.000000
176.104200 372.000000
178.086700 960.000000
179.091600 328.000000
180.100800 37432.000000
181.103900 4844.000000
188.068500 360.000000
190.085600 1680.000000
192.099900 1528.000000
200.106600 536.000000
202.121000 904.000000
204.101300 956.000000
206.079400 336.000000
206.117300 2312.000000
207.118300 544.000000
216.100700 1444.000000
218.116700 8804.000000
219.119100 1272.000000
220.130600 1500.000000
222.111300 4552.000000
223.114400 788.000000
230.117200 4628.000000
231.120900 788.000000
234.111700 2036.000000
248.127100 456.000000
260.129500 484.000000

>ms2peaks
114.090400 2144.000000
116.106300 290496.000000
117.109400 20652.000000
120.080000 6908.000000
122.058600 2400.000000
130.064200 3812.000000
134.059000 3392.000000
134.095100 6808.000000
136.074300 3668.000000
144.079200 4640.000000
148.074300 72136.000000
149.077800 6844.000000
150.053200 6108.000000
150.090200 6396.000000
151.060100 2088.000000
152.069100 7308.000000
160.074000 17956.000000
162.089900 7984.000000
164.069100 7488.000000
172.074300 6076.000000
174.089800 2552.000000
180.100500 59872.000000
181.104000 5552.000000
190.085100 22028.000000
191.087600 2640.000000
192.100500 7076.000000
204.100900 7524.000000
206.116200 8984.000000
216.101000 5612.000000
218.116900 258140.000000
219.120100 30904.000000
220.131800 11804.000000
221.135200 2324.000000
222.111500 118988.000000
223.114400 16228.000000
230.116600 23880.000000
231.119300 3788.000000
232.131500 4388.000000
233.127300 4036.000000
234.111600 17120.000000
235.114400 2612.000000
235.142900 3840.000000
236.126400 2072.000000
242.116500 8152.000000
244.132400 4988.000000
248.127300 45828.000000
249.130600 6836.000000
253.153800 5524.000000
259.144000 2224.000000
260.127600 199544.000000
261.130500 30916.000000
262.133500 3220.000000
275.174900 3880.000000
277.153400 16196.000000
277.190000 4924.000000
278.137700 11196.000000
295.164400 11520.000000
295.200900 7696.000000
296.168000 1964.000000
319.201200 88928.000000
320.204400 17388.000000
321.206800 2044.000000
337.212100 388396.000000
338.215100 59772.000000
339.217100 7180.000000

