>compound AU69605893
>parentmass 455.0373000000001
>ionization [M+H]+
>formula C14H14N8O4S3
>rt 243.096000
>profile qtof
#smiles_iso CC1=NN=C(S1)SCC2=C(N3[C@@H]([C@@H](C3=O)NC(=O)CN4C=NN=N4)SC2)C(=O)O
#smiles_can CC1=NN=C(S1)SCC2=C(N3C(C(C3=O)NC(=O)CN4C=NN=N4)SC2)C(=O)O
#inchikey MLYYVTUWGNIJIB-BXKDBHETSA-N
#pubchem_id 33255
#mb_accession AU104501,AU104502,AU104503,AU104504,AU104505

>ms2peaks
132.988700 820.000000
156.012500 2700.000000
157.017900 308.000000
158.007700 312.000000
178.045300 336.000000
295.062700 1744.000000
323.058700 23452.000000
324.060500 3888.000000
455.041000 11876.000000
456.044500 2552.000000
457.036900 1872.000000

>ms2peaks
124.022300 460.000000
124.051400 332.000000
126.039100 308.000000
128.029600 456.000000
132.989200 1812.000000
139.033000 592.000000
140.045200 348.000000
141.048900 340.000000
151.033600 456.000000
152.017000 948.000000
153.050100 3028.000000
154.052000 320.000000
156.012400 9792.000000
157.017900 780.000000
162.069200 416.000000
162.089200 408.000000
163.033200 384.000000
166.044700 1700.000000
167.029700 320.000000
168.012800 448.000000
168.053700 328.000000
178.044700 1480.000000
179.026800 420.000000
180.059500 516.000000
184.018300 344.000000
190.087100 344.000000
195.024200 424.000000
195.071500 448.000000
206.039900 1340.000000
208.057300 328.000000
221.046700 304.000000
223.066700 1056.000000
239.060100 336.000000
252.046700 2220.000000
295.063200 8132.000000
296.065400 1072.000000
323.058800 8784.000000
325.056700 536.000000

>ms2peaks
119.061400 764.000000
120.069200 608.000000
124.022900 1892.000000
124.051000 856.000000
125.026700 340.000000
126.001500 608.000000
126.038200 408.000000
128.028400 692.000000
132.056600 340.000000
132.989900 2368.000000
136.022100 316.000000
139.034200 2224.000000
140.017100 508.000000
141.049700 1240.000000
144.011000 356.000000
147.079500 300.000000
151.033500 1572.000000
152.018700 764.000000
153.049200 5388.000000
154.051900 580.000000
155.045700 336.000000
156.012700 8564.000000
157.019100 1068.000000
157.030400 916.000000
158.029200 428.000000
161.084000 660.000000
162.067900 888.000000
162.090500 368.000000
163.033600 432.000000
166.044700 4216.000000
167.029800 868.000000
167.044800 452.000000
168.012400 548.000000
168.038700 304.000000
178.045000 2164.000000
179.028200 1088.000000
179.046100 328.000000
180.060000 956.000000
181.045900 388.000000
189.080300 616.000000
190.086000 448.000000
192.025100 344.000000
193.055300 488.000000
194.040700 396.000000
195.024300 744.000000
195.072400 668.000000
196.056100 320.000000
197.038700 448.000000
206.038900 968.000000
207.024900 484.000000
208.054500 572.000000
210.034400 780.000000
221.051300 576.000000
223.068200 868.000000
225.040200 312.000000
252.045200 2640.000000
253.045800 336.000000
267.056400 492.000000
295.061600 1880.000000
296.069700 372.000000
323.059200 492.000000

>ms2peaks
119.061900 1088.000000
120.069700 1000.000000
124.022300 2312.000000
127.022400 380.000000
128.028900 880.000000
132.989700 2440.000000
134.073100 332.000000
139.033700 2632.000000
140.038500 404.000000
141.049100 632.000000
151.033500 1896.000000
152.018700 492.000000
152.033800 372.000000
153.049500 2932.000000
154.053900 320.000000
156.012500 5188.000000
157.020800 672.000000
157.032200 576.000000
158.028300 540.000000
161.083700 748.000000
162.092400 520.000000
163.032000 364.000000
166.045100 2540.000000
167.031900 312.000000
168.012200 392.000000
178.044700 1324.000000
179.029000 456.000000
180.060200 720.000000
182.040800 380.000000
193.055600 356.000000
195.025100 532.000000
197.041600 336.000000
208.057700 484.000000
210.035400 324.000000
252.044700 596.000000

>ms2peaks
119.061900 1108.000000
120.069500 964.000000
122.006700 500.000000
124.022400 1672.000000
125.026300 344.000000
126.037800 336.000000
127.021100 696.000000
128.028700 868.000000
132.057000 368.000000
132.989800 3548.000000
133.065100 332.000000
134.074100 448.000000
134.986400 628.000000
139.033800 2480.000000
140.037800 348.000000
141.048300 600.000000
151.034200 1560.000000
152.018000 412.000000
153.049900 1232.000000
156.013100 3432.000000
157.022900 312.000000
161.083400 540.000000
162.089100 468.000000
166.045200 952.000000
168.014900 364.000000
178.045800 936.000000
180.059500 340.000000

