>compound AU69421066
>parentmass 303.1955
>ionization [M+H]+
>formula C19H26O3
>rt 742.490000
>profile qtof
#smiles_iso CC1=C(C(=O)CC1OC(=O)C2C(C2(C)C)C=C(C)C)CC=C
#smiles_can CC1=C(C(=O)CC1OC(=O)C2C(C2(C)C)C=C(C)C)CC=C
#inchikey ZCVAOQKBXKSDMS-UHFFFAOYSA-N
#pubchem_id 11442
#mb_accession AU245901,AU245902,AU245903,AU245904,AU245905,AU245906

>ms2
115.053100 1044.000000
117.068700 1640.000000
121.099600 1820.000000
123.115800 33492.000000
124.120000 2748.000000
135.079500 148988.000000
136.082500 14480.000000
137.095300 2776.000000
149.094900 2356.000000
151.110600 60696.000000
152.113800 7060.000000
159.115300 780.000000
163.109600 1028.000000
167.105300 5096.000000
169.121000 50448.000000
170.124300 6268.000000
185.132500 964.000000
199.147200 1276.000000
201.126900 832.000000
203.142100 1384.000000
215.180100 992.000000
239.178200 908.000000
241.193900 2456.000000
243.137800 976.000000
257.189700 8196.000000
258.192900 1364.000000
285.184100 5324.000000
286.188900 1344.000000
303.195300 30608.000000
304.199100 7804.000000

>ms2
115.053400 4832.000000
116.059300 692.000000
117.068800 4168.000000
121.099900 2552.000000
123.115800 40088.000000
124.119100 5160.000000
133.099600 748.000000
135.079500 108952.000000
136.082900 10724.000000
137.094400 1148.000000
139.111200 716.000000
147.116000 548.000000
149.095500 2632.000000
151.110400 18168.000000
152.113800 1948.000000
167.104700 824.000000
169.120900 6668.000000
170.124800 872.000000
173.129700 572.000000
201.125600 824.000000
215.141200 680.000000
257.187500 956.000000

>ms2
115.053300 5784.000000
117.069000 4020.000000
119.084200 324.000000
120.057400 472.000000
121.062700 412.000000
121.099900 1500.000000
123.115700 17736.000000
124.119200 2176.000000
133.064900 520.000000
133.099900 532.000000
135.079100 33852.000000
136.082300 4244.000000
137.095100 328.000000
145.100700 392.000000
149.022700 808.000000
149.095200 708.000000
151.110400 3812.000000
169.122400 1144.000000
201.128200 312.000000

>ms2
115.053200 7316.000000
117.069000 2536.000000
119.085200 444.000000
120.055700 912.000000
121.065000 608.000000
121.099700 1116.000000
123.115900 9172.000000
124.119200 1252.000000
133.063500 612.000000
133.101000 536.000000
135.079200 22684.000000
136.083500 2652.000000
137.093800 380.000000
149.097000 388.000000
151.109900 3240.000000
152.114400 588.000000
159.115700 340.000000
161.093600 396.000000

>ms2
115.053300 5012.000000
117.068300 792.000000
120.056100 416.000000
123.116600 1308.000000
133.064400 340.000000
135.078900 3392.000000
149.021800 488.000000
151.113300 332.000000

>ms2
79.053000 332.000000
93.070100 528.000000
107.085300 1332.000000
115.055100 1232.000000
117.068900 1144.000000
121.100700 840.000000
123.115900 6676.000000
124.119700 908.000000
131.084500 308.000000
135.079700 15324.000000
136.082700 1488.000000
149.096100 420.000000
151.110200 1880.000000
152.114900 328.000000
169.123400 576.000000

