>compound AU70194114
>parentmass 301.0738
>ionization [M+H]+
>formula C16H13ClN2O2
>rt 488.700000
>profile qtof
#smiles_iso CN1C(=O)CC(=O)N(C2=C1C=CC(=C2)Cl)C3=CC=CC=C3
#smiles_can CN1C(=O)CC(=O)N(C2=C1C=CC(=C2)Cl)C3=CC=CC=C3
#inchikey CXOXHMZGEKVPMT-UHFFFAOYSA-N
#pubchem_id 2789
#mb_accession AU159806

>ms2peaks
153.020700 3184.000000
181.015900 3508.000000
216.045000 3008.000000
223.085500 1920.000000
224.094300 42184.000000
225.097200 4736.000000
233.084300 1652.000000
244.039200 2628.000000
259.063700 304352.000000
260.066700 56348.000000
261.060900 86256.000000
262.063300 8108.000000
301.074500 35816.000000
302.077600 8308.000000
303.071900 10308.000000

