>compound AU70986312
>parentmass 207.1743
>ionization [M+H]+
>formula C14H22O
>rt 646.380000
>profile qtof
#smiles_iso CC(C)(C)C1=C(C(=CC=C1)C(C)(C)C)O
#smiles_can CC(C)(C)C1=C(C(=CC=C1)C(C)(C)C)O
#inchikey DKCPKDPYUFEZCP-UHFFFAOYSA-N
#pubchem_id 31405
#mb_accession AU229701,AU229706

>ms2
189.163700 540.000000
207.173500 1620.000000

>ms2
137.129900 328.000000
149.134300 344.000000

