>compound AU70119307
>parentmass 327.1703
>ionization [M+H]+
>formula C19H22N2O3
>rt 642.708000
>profile qtof
#smiles_iso CC1=CC(=C(C=C1)C)OCC2=CC=CC=C2/C(=N\OC)/C(=O)NC
#smiles_can CC1=CC(=C(C=C1)C)OCC2=CC=CC=C2C(=NOC)C(=O)NC
#inchikey WXUZAHCNPWONDH-DYTRJAOYSA-N
#pubchem_id 10936292
#mb_accession AU259701,AU259702,AU259703,AU259704,AU259705

>ms2peaks
116.048900 130148.000000
205.097900 2517392.000000
206.099800 666376.000000
207.103000 35892.000000
210.127000 16532.000000
238.122300 446188.000000
239.125500 67452.000000
280.133100 83276.000000
281.136000 17280.000000
327.170700 472900.000000
328.173600 88352.000000

>ms2peaks
116.049100 879276.000000
117.052400 82292.000000
148.074400 20056.000000
193.098900 12232.000000
205.096800 2364764.000000
206.099900 251248.000000
207.102800 16388.000000
210.126800 37940.000000
223.098600 54888.000000
238.122300 183400.000000
239.125200 28764.000000
280.132600 13608.000000

>ms2peaks
116.049100 725360.000000
117.053000 73472.000000
118.063400 8652.000000
121.064800 5108.000000
134.059000 4748.000000
135.079400 4596.000000
145.074700 9320.000000
146.058900 4128.000000
146.082600 6800.000000
148.074400 29380.000000
174.077600 7172.000000
180.080400 4020.000000
193.100100 11708.000000
195.103300 17732.000000
196.110100 6960.000000
205.096700 536092.000000
206.099800 52564.000000
207.102400 3996.000000
210.126800 13348.000000
221.095300 7456.000000
222.102100 7520.000000
223.098900 61736.000000
224.102100 9464.000000
238.122300 26612.000000
239.125800 5724.000000
252.137500 3668.000000

>ms2peaks
116.049200 814168.000000
117.053900 81308.000000
118.063400 9768.000000
133.050900 4156.000000
145.074900 18744.000000
146.082300 7036.000000
148.074500 19560.000000
161.046600 4624.000000
174.077600 5124.000000
178.076900 8648.000000
179.082900 4772.000000
180.080000 17016.000000
181.086000 5028.000000
193.099900 9888.000000
194.095500 8600.000000
195.103500 19476.000000
196.107600 4240.000000
205.096500 63260.000000
206.099200 8148.000000
221.095500 6140.000000
222.101900 6420.000000
223.098800 49140.000000
224.101700 7628.000000

>ms2peaks
116.049000 487912.000000
117.054400 58684.000000
118.062400 9016.000000
121.063800 2468.000000
128.048600 3468.000000
132.043300 3468.000000
133.050900 2760.000000
144.043100 3588.000000
145.074800 17744.000000
146.058200 3124.000000
146.080500 3328.000000
148.074100 4796.000000
161.045600 4900.000000
165.068900 4088.000000
178.076500 12756.000000
179.083000 5792.000000
180.079700 28456.000000
181.084400 5720.000000
193.087800 4188.000000
193.099100 4044.000000
194.095500 14604.000000
195.102300 9468.000000
204.079900 2540.000000
208.075300 3200.000000
221.094900 2540.000000
222.091800 4836.000000
223.098400 17504.000000
224.101000 2948.000000

