>compound AU70928462
>parentmass 328.1696
>ionization [M+H]+
>formula C23H21NO
>rt 729.300000
>profile qtof
#smiles_iso CCCCN1C=C(C2=CC=CC=C21)C(=O)C3=CC=CC4=CC=CC=C43
#smiles_can CCCCN1C=C(C2=CC=CC=C21)C(=O)C3=CC=CC4=CC=CC=C43
#inchikey VCHHHSMPMLNVGS-UHFFFAOYSA-N
#pubchem_id 10471670
#mb_accession AU170401,AU170402,AU170403,AU170404,AU170405

>ms2peaks
155.049000 8848.000000
328.171300 1191912.000000
329.174800 227404.000000
330.177100 22236.000000

>ms2peaks
145.065300 8628.000000
155.049800 440828.000000
156.053100 39380.000000
200.108100 75892.000000
201.111700 10044.000000
328.172100 909148.000000
329.175500 181452.000000
330.178000 18448.000000

>ms2peaks
127.054800 34224.000000
144.045200 30556.000000
145.065600 66676.000000
146.068400 7204.000000
155.050300 933736.000000
156.053500 84116.000000
157.056200 4980.000000
200.108700 173020.000000
201.111500 23224.000000
328.172000 64308.000000
329.175100 13956.000000

>ms2peaks
116.050300 3616.000000
117.070300 2840.000000
126.046800 10640.000000
127.055100 114392.000000
128.057900 11268.000000
144.045300 91972.000000
145.065800 215416.000000
146.068900 17960.000000
155.050500 455520.000000
156.053600 47316.000000
157.056100 2876.000000
158.060500 2816.000000
200.108500 69924.000000
201.111700 9116.000000

>ms2peaks
116.050300 8780.000000
117.070900 4384.000000
126.047400 20444.000000
127.055200 180036.000000
128.058600 18132.000000
130.065300 2328.000000
144.045400 83028.000000
145.065900 260552.000000
146.069200 23052.000000
155.050100 106700.000000
200.108500 12692.000000
201.112800 2032.000000

