>compound AU70460721
>parentmass 227.1543
>ionization [M+H]+
>formula C15H18N2
>rt 306.000000
>profile qtof
#smiles_iso CNCCC(C1=CC=CC=C1)C2=CC=CC=N2
#smiles_can CNCCC(C1=CC=CC=C1)C2=CC=CC=N2
#inchikey GDCVFNAQLOMGMS-UHFFFAOYSA-N
#pubchem_id 161283
#mb_accession AU212201,AU212202,AU212203,AU212204,AU212205

>ms2peaks
167.071200 2004.000000
168.078800 2320.000000
169.084200 1000.000000
196.111700 1312196.000000
197.114900 210956.000000
198.118000 11140.000000
227.153800 464248.000000
228.156800 58424.000000
229.160300 4672.000000

>ms2peaks
167.071200 32972.000000
168.078800 48932.000000
169.084200 7756.000000
196.112000 1834988.000000
197.114900 303212.000000
198.118000 16128.000000

>ms2peaks
117.056500 10096.000000
118.064500 22012.000000
119.069300 3272.000000
167.072100 328668.000000
168.079700 583936.000000
169.084200 61852.000000
196.111700 1757096.000000
197.114900 197460.000000
198.118000 12528.000000

>ms2peaks
117.056500 29740.000000
118.064500 61820.000000
119.069300 9164.000000
167.072100 1095668.000000
168.079600 926044.000000
180.079700 22764.000000
181.086600 11156.000000
194.095600 43180.000000
195.101400 14684.000000
196.111600 359076.000000
197.114900 44156.000000

>ms2peaks
117.056500 44996.000000
118.064500 84936.000000
119.069300 8052.000000
139.053000 25920.000000
140.059900 12088.000000
141.068700 7012.000000
166.064200 79492.000000
167.072100 1561248.000000
168.078700 406340.000000
180.079700 31380.000000
181.086600 7800.000000
194.095200 41304.000000
195.101400 8024.000000
196.111600 27132.000000
197.114900 4292.000000

