>compound AU70906426
>parentmass 134.0713
>ionization [M+H]+
>formula C7H7N3
>rt 355.560000
>profile qtof
#smiles_iso CC1=CC=CC2=NNN=C12
#smiles_can CC1=CC=CC2=NNN=C12
#inchikey CMGDVUCDZOBDNL-UHFFFAOYSA-N
#pubchem_id 122499
#mb_accession AU405206

>ms2
51.022000 2556.000000
53.037500 11140.000000
65.037400 1692.000000
66.045400 3496.000000
67.040500 3720.000000
77.037600 13508.000000
78.033000 2120.000000
79.053400 190096.000000
80.048500 6584.000000
80.056500 8156.000000
81.032100 1228.000000
89.038000 3372.000000
91.040800 2844.000000
95.048800 46744.000000
96.051400 2896.000000
105.045000 23416.000000
106.065700 34708.000000
107.068000 1464.000000
134.070500 225492.000000
135.073600 26624.000000

