>compound AU71369517
>parentmass 734.4685
>ionization [M+H]+
>formula C37H67NO13
>rt 455.010000
>profile qtof
#smiles_iso CC[C@@H]1[C@@]([C@@H]([C@H](C(=O)[C@@H](C[C@@]([C@@H]([C@H]([C@@H]([C@H](C(=O)O1)C)O[C@H]2C[C@@]([C@H]([C@@H](O2)C)O)(C)OC)C)O[C@H]3[C@@H]([C@H](C[C@H](O3)C)N(C)C)O)(C)O)C)C)O)(C)O
#smiles_can CCC1C(C(C(C(=O)C(CC(C(C(C(C(C(=O)O1)C)OC2CC(C(C(O2)C)O)(C)OC)C)OC3C(C(CC(O3)C)N(C)C)O)(C)O)C)C)O)(C)O
#inchikey ULGZDMOVFRHVEP-RWJQBGPGSA-N
#pubchem_id 12560
#mb_accession AU105401,AU105406

>ms2peaks
158.116500 4804.000000
522.343400 1760.000000
558.362600 4268.000000
576.374000 16864.000000
577.376100 4536.000000
716.459800 3376.000000
717.459300 1648.000000
734.470000 261124.000000
735.472900 116632.000000
736.476500 27484.000000

>ms2peaks
83.048900 1640.000000
116.068800 1424.000000
116.106700 4128.000000
123.078700 840.000000
127.073700 1692.000000
158.116700 91068.000000
159.120100 8424.000000
160.122900 712.000000
176.126400 808.000000
233.153800 1140.000000
316.210100 1400.000000
365.230800 480.000000
408.270700 480.000000
522.341900 1356.000000
523.346300 564.000000
540.354200 1680.000000
541.356000 804.000000
558.363900 3432.000000
559.365900 1052.000000
576.373300 6932.000000
577.377200 2340.000000
578.379700 768.000000
734.474700 828.000000

