>compound AU71777316
>parentmass 436.3329
>ionization [M+H]+
>formula C22H47N2O4S+
>rt 900.840000
>profile qtof
#smiles_iso CCCCCCCCCCCCCC(=O)NCCC[N+](C)(C)CCCS(=O)(=O)O
#smiles_can CCCCCCCCCCCCCC(=O)NCCC[N+](C)(C)CCCS(=O)(=O)O
#inchikey UTSXERRKRAEDOV-UHFFFAOYSA-O
#pubchem_id 4046966
#mb_accession AU284801

>ms2
181.069400 420.000000
237.078300 13488.000000
238.078700 4924.000000
239.077200 2688.000000
239.147400 300.000000
240.075900 452.000000
385.115300 2888.000000
399.329400 360.000000
436.333200 448.000000

