>compound AU71658333
>parentmass 314.1387
>ionization [M+H]+
>formula C18H19NO4
>rt 648.400000
>profile qtof
#smiles_iso CC1=CC=CC=C1OCC2=CC=CC=C2/C(=N/OC)/C(=O)OC
#smiles_can CC1=CC=CC=C1OCC2=CC=CC=C2C(=NOC)C(=O)OC
#inchikey ZOTBXTZVPHCKPN-ZPHPHTNESA-N
#pubchem_id 5483874
#mb_accession AU263901,AU263902,AU263903,AU263904,AU263905,AU263906

>ms2
116.048600 58392.000000
117.052100 6132.000000
118.063700 2496.000000
119.048600 1300.000000
121.063800 2104.000000
130.064200 2408.000000
131.071800 50092.000000
132.079600 65536.000000
133.082600 6732.000000
135.043400 1228.000000
146.058600 11092.000000
147.065500 3108.000000
162.090000 71740.000000
163.093000 8224.000000
164.097100 940.000000
179.084400 1580.000000
182.094800 1200.000000
193.100300 4232.000000
194.079300 1336.000000
194.096400 1492.000000
195.103600 2372.000000
196.110200 2672.000000
206.080300 182440.000000
207.082300 22800.000000
208.085600 5116.000000
209.095400 2336.000000
210.126800 13632.000000
211.129500 1912.000000
220.112800 1564.000000
221.095000 2548.000000
222.090300 120540.000000
223.096800 48756.000000
224.102200 8288.000000
225.091400 1548.000000
225.105100 1032.000000
235.074300 36940.000000
236.078000 6284.000000
238.121800 95764.000000
239.125200 16824.000000
240.128200 1288.000000
250.085100 18244.000000
251.089000 3360.000000
254.116600 23116.000000
255.119200 3728.000000
267.100900 144024.000000
268.104000 25792.000000
269.105600 2916.000000
282.111800 84392.000000
283.114500 16752.000000
284.118200 1776.000000
314.138600 7032.000000
315.141400 1708.000000

>ms2
115.052800 840.000000
116.048900 60696.000000
117.054700 9596.000000
118.064200 14092.000000
119.047800 2260.000000
119.067900 1580.000000
121.063700 2876.000000
130.064300 10292.000000
131.071900 130464.000000
132.079300 93088.000000
133.082500 8760.000000
135.043100 5524.000000
146.058800 35900.000000
147.064500 5972.000000
148.072400 996.000000
160.074800 976.000000
162.090000 37540.000000
163.093300 3996.000000
166.076900 864.000000
167.084600 1116.000000
168.078900 1704.000000
178.076100 2976.000000
179.084400 7580.000000
180.080100 3792.000000
181.098900 2432.000000
182.094400 1388.000000
191.084800 1892.000000
193.099600 6320.000000
194.071000 3268.000000
194.095200 15352.000000
195.078900 2756.000000
195.102600 9744.000000
196.109100 2688.000000
204.079900 2864.000000
205.085100 1512.000000
206.080700 12616.000000
207.079400 8268.000000
207.103300 4368.000000
208.087200 22272.000000
208.105500 1684.000000
209.092200 7868.000000
210.126000 5896.000000
211.130200 972.000000
220.109300 1272.000000
221.093200 1772.000000
221.118200 1228.000000
222.090800 150864.000000
223.097400 97604.000000
224.102000 15800.000000
225.090400 3028.000000
225.102300 1544.000000
232.079700 1032.000000
235.074400 72552.000000
236.078400 15292.000000
237.081500 1728.000000
237.114300 2444.000000
238.121700 35648.000000
239.125300 6884.000000
250.085100 12336.000000
251.089300 3884.000000
254.116600 26100.000000
255.119800 4908.000000
267.100300 9976.000000
268.100700 2856.000000
282.111700 13744.000000
283.114700 2624.000000

>ms2
116.048400 49640.000000
117.055200 15952.000000
118.064100 19936.000000
119.047700 2764.000000
119.067500 2576.000000
121.063200 2744.000000
128.048700 892.000000
130.063600 25280.000000
131.071600 151476.000000
132.078600 69508.000000
133.082400 6816.000000
135.041900 4568.000000
141.069100 896.000000
146.058300 35904.000000
147.063000 5688.000000
148.072200 892.000000
152.060000 1024.000000
153.067000 1572.000000
162.089600 15292.000000
163.092900 1688.000000
165.068700 3188.000000
166.064500 1756.000000
166.075300 2300.000000
167.083600 4800.000000
168.079100 2760.000000
169.062100 808.000000
177.068700 2628.000000
178.075900 11084.000000
179.083200 13760.000000
180.079200 14884.000000
181.063700 1164.000000
181.084700 3208.000000
181.098200 2416.000000
182.093700 1360.000000
183.077700 964.000000
191.084000 3028.000000
192.080800 1476.000000
193.086800 5708.000000
193.096800 3884.000000
194.071100 5216.000000
194.094900 37432.000000
195.077900 6632.000000
195.100000 12392.000000
196.081800 1008.000000
196.107500 2088.000000
203.071800 2140.000000
204.079300 10364.000000
205.084700 2760.000000
206.058300 2208.000000
206.081000 4040.000000
206.094400 3168.000000
207.068200 15072.000000
207.075300 15388.000000
207.101900 4660.000000
208.086000 27916.000000
209.090100 5856.000000
210.089700 784.000000
210.124900 1188.000000
211.073900 2360.000000
220.073700 2040.000000
221.082600 2096.000000
221.118000 1804.000000
222.090200 84084.000000
223.097400 82148.000000
224.101800 15532.000000
225.089400 1832.000000
225.104900 1640.000000
232.076300 1608.000000
232.084800 1624.000000
234.089600 1448.000000
235.073800 32824.000000
236.077000 7688.000000
237.079300 928.000000
237.112700 2264.000000
238.120700 6052.000000
239.124500 1152.000000
250.085100 2092.000000
251.090500 996.000000
254.116000 4000.000000
255.121800 968.000000

>ms2
115.053600 1448.000000
116.048700 39824.000000
117.055700 20436.000000
118.063900 26056.000000
119.048200 2640.000000
119.067400 2504.000000
121.063400 1516.000000
128.049100 1448.000000
128.059900 836.000000
130.064000 48172.000000
131.071700 132020.000000
132.042700 2640.000000
132.078600 40868.000000
133.049000 720.000000
133.082200 4144.000000
135.042800 3424.000000
140.048300 920.000000
141.069400 1056.000000
146.058500 29020.000000
147.063300 2984.000000
152.060400 5652.000000
153.067700 3428.000000
154.064100 1148.000000
156.079700 708.000000
162.090500 3404.000000
165.068100 12308.000000
167.083300 8572.000000
168.080600 2360.000000
169.063300 1160.000000
176.061200 3188.000000
177.068100 6144.000000
178.075800 21420.000000
179.083500 16996.000000
180.079500 31976.000000
181.063200 2780.000000
181.083600 5912.000000
182.094400 752.000000
183.079900 688.000000
189.069000 1132.000000
190.064600 2152.000000
191.083500 2476.000000
192.080400 2292.000000
193.087400 12052.000000
194.071100 4540.000000
194.095000 42260.000000
195.078200 8020.000000
195.099600 10308.000000
196.082400 1792.000000
196.106300 1200.000000
203.071400 6316.000000
204.079300 11444.000000
205.084000 3016.000000
206.058600 9236.000000
206.095000 5104.000000
207.067600 22316.000000
207.076700 18640.000000
207.100500 2512.000000
208.085900 19548.000000
209.088200 4248.000000
210.066200 1124.000000
210.090500 1060.000000
211.074900 2872.000000
220.074700 2552.000000
221.081100 3272.000000
222.090300 30760.000000
223.097600 36312.000000
224.102600 8076.000000
225.107400 1012.000000
232.075400 764.000000
232.086000 684.000000
235.073900 8176.000000
236.076400 2524.000000
236.105500 952.000000
237.113900 1568.000000
238.086200 872.000000
238.123100 680.000000

>ms2
115.054500 1444.000000
116.048500 35856.000000
117.055600 20332.000000
118.064100 24992.000000
119.048100 2380.000000
119.067400 2372.000000
121.062900 1012.000000
127.052300 792.000000
128.048200 2060.000000
128.059200 716.000000
129.067800 476.000000
130.063900 69172.000000
131.071500 86936.000000
132.042900 2892.000000
132.077500 17020.000000
133.082800 1516.000000
135.043000 1660.000000
139.053100 956.000000
140.047600 1916.000000
141.067900 952.000000
145.064500 796.000000
146.058400 17924.000000
147.062400 2032.000000
150.045700 988.000000
151.053100 1872.000000
152.060700 13960.000000
153.067300 4564.000000
154.064100 2000.000000
155.058500 604.000000
155.069400 612.000000
156.079700 496.000000
163.054100 660.000000
164.060800 884.000000
165.068200 22516.000000
167.071800 5320.000000
167.082500 4896.000000
168.055100 648.000000
168.078400 3740.000000
169.063000 3328.000000
169.080100 512.000000
169.092000 472.000000
176.060400 7152.000000
177.067700 7976.000000
178.075900 37104.000000
179.082500 19148.000000
180.079300 37368.000000
181.062800 5104.000000
181.082700 5172.000000
182.068100 1296.000000
182.095800 820.000000
188.051100 512.000000
189.068600 3552.000000
190.064100 5288.000000
191.070800 2280.000000
191.084100 2072.000000
192.056000 1052.000000
192.079600 4304.000000
193.086600 14216.000000
194.071400 3808.000000
194.094900 30620.000000
195.079200 5224.000000
195.098600 5428.000000
196.080000 1916.000000
202.067500 664.000000
203.071600 9108.000000
204.078700 6928.000000
205.063800 736.000000
205.084800 1960.000000
206.058400 19672.000000
206.095400 3968.000000
207.066700 14248.000000
207.076700 11320.000000
207.098900 1420.000000
208.084400 7772.000000
208.110100 792.000000
209.080600 2356.000000
210.066200 752.000000
210.090700 896.000000
211.072100 1072.000000
218.094700 504.000000
220.075300 2792.000000
221.046400 464.000000
221.081400 1992.000000
222.089800 10860.000000
223.096900 7184.000000
224.103200 1820.000000
235.073000 2072.000000
236.071000 936.000000
236.106700 1120.000000

>ms2
59.012300 840.000000
79.053500 1904.000000
89.038200 2576.000000
91.054400 8280.000000
103.055300 864.000000
105.070900 7060.000000
106.074200 668.000000
115.054100 1068.000000
116.049300 49228.000000
117.056100 11156.000000
118.064600 19544.000000
119.048700 3036.000000
119.069400 2444.000000
121.063700 2376.000000
128.050700 816.000000
130.064300 14108.000000
131.072300 126196.000000
132.079700 78908.000000
133.082900 8404.000000
134.059700 44604.000000
135.043100 3712.000000
135.062700 4232.000000
146.059100 38544.000000
147.064600 5160.000000
148.073300 1068.000000
152.061700 652.000000
153.068700 868.000000
162.090500 19120.000000
163.093900 2380.000000
165.068500 2328.000000
166.065500 1264.000000
166.074500 1900.000000
167.084100 3144.000000
168.078700 2072.000000
177.069600 2116.000000
178.076300 6916.000000
179.084200 10024.000000
180.079700 10492.000000
181.061600 752.000000
181.087300 2320.000000
181.100400 1744.000000
182.095300 952.000000
191.085100 1968.000000
192.081900 660.000000
193.089000 3220.000000
193.099500 4328.000000
194.072200 5828.000000
194.095400 29540.000000
195.079000 4688.000000
195.102000 8256.000000
196.080000 1008.000000
196.108500 1892.000000
203.072800 1340.000000
204.079800 7140.000000
205.084200 2472.000000
206.059800 1104.000000
206.079900 6052.000000
207.067900 8932.000000
207.077200 9080.000000
207.102400 3292.000000
208.086600 23696.000000
209.091600 6252.000000
210.094700 1220.000000
210.126500 1752.000000
211.073800 2116.000000
220.074700 1088.000000
220.110700 864.000000
221.083600 1336.000000
221.115600 1040.000000
222.090700 104884.000000
223.097900 84544.000000
224.102900 14352.000000
225.090400 2088.000000
225.102000 1244.000000
232.079400 1292.000000
234.091300 660.000000
235.074500 43948.000000
236.078800 8308.000000
237.080700 876.000000
237.113800 2684.000000
238.122400 15632.000000
239.125000 2664.000000
250.085400 5568.000000
251.090200 1340.000000
254.117000 11032.000000
255.119200 2280.000000
267.100300 2956.000000
268.103000 1032.000000
282.112300 5224.000000
283.115300 904.000000

