>compound AU71276540
>parentmass 265.1911
>ionization [M+H]+
>formula C15H24N2O2
>rt 376.330000
>profile qtof
#smiles_iso CCCCNC1=CC=C(C=C1)C(=O)OCCN(C)C
#smiles_can CCCCNC1=CC=C(C=C1)C(=O)OCCN(C)C
#inchikey GKCBAIGFKIBETG-UHFFFAOYSA-N
#pubchem_id 5411
#mb_accession AU272201,AU272202,AU272203,AU272204,AU272205,AU272206

>ms2peaks
176.106400 2333928.000000
177.109400 290148.000000
178.111900 14364.000000
220.132700 132700.000000
221.135800 19664.000000
265.191400 2449064.000000
266.194100 448656.000000
267.196500 33800.000000

>ms2peaks
176.107000 2510596.000000
178.111800 28336.000000
220.132700 389868.000000
221.135600 54388.000000
265.190300 24588.000000

>ms2peaks
120.043700 74176.000000
148.111000 30676.000000
176.107000 2512036.000000
178.111900 27808.000000
220.132800 286424.000000
221.136100 42832.000000

>ms2peaks
118.064200 21728.000000
120.043700 201772.000000
121.046700 14276.000000
133.087300 15812.000000
148.110900 49540.000000
176.106200 2297864.000000
177.109200 278260.000000
178.112000 14988.000000
220.132100 43584.000000

>ms2peaks
117.056300 4268.000000
118.064300 32232.000000
119.071100 7352.000000
120.043600 135760.000000
121.047000 9428.000000
131.084600 2716.000000
132.079700 13684.000000
133.087200 11340.000000
148.110800 17800.000000
176.106000 524360.000000
177.109100 54508.000000
178.111300 3380.000000
194.082200 2716.000000
195.089600 4008.000000

>ms2peaks
70.064600 14564.000000
72.080500 904368.000000
73.083600 30024.000000
92.049700 19280.000000
120.044300 26856.000000
148.111600 8652.000000
176.107200 1284120.000000
178.112400 15192.000000
220.133300 187904.000000
221.136200 25648.000000
265.191300 8264.000000

