>compound AU71882825
>parentmass 313.1911
>ionization [M+H]+
>formula C19H24N2O2
>rt 550.584000
>profile qtof
#smiles_iso C1CCC(CC1)C(=O)N2CC3C4=CC=CC=C4CCN3C(=O)C2
#smiles_can C1CCC(CC1)C(=O)N2CC3C4=CC=CC=C4CCN3C(=O)C2
#inchikey FSVJFNAIGNNGKK-UHFFFAOYSA-N
#pubchem_id 4891
#mb_accession AU220201,AU220202,AU220203,AU220204,AU220205

>ms2peaks
203.119300 97284.000000
204.121900 12948.000000
313.193800 794508.000000
314.196600 113012.000000
315.198900 12316.000000

>ms2peaks
132.081100 8984.000000
146.096800 16984.000000
158.097600 3352.000000
174.091900 18116.000000
175.123700 16888.000000
203.119200 542140.000000
204.122000 62712.000000
205.125300 4732.000000
256.171100 4916.000000
285.197500 9904.000000
313.193100 117560.000000
314.195900 21676.000000

>ms2peaks
128.062100 1592.000000
129.069900 7604.000000
130.066100 2544.000000
131.072800 2116.000000
132.081200 53180.000000
133.084600 4696.000000
144.080800 4440.000000
146.096700 29972.000000
147.099900 3248.000000
158.097000 8364.000000
173.106900 1924.000000
174.092200 84060.000000
175.094800 10744.000000
175.123300 22256.000000
176.126800 2456.000000
203.119100 247952.000000
204.122100 26372.000000
205.124500 2256.000000
256.170700 8988.000000
257.172500 2084.000000
285.197400 6296.000000
286.199900 1412.000000
313.193800 2124.000000

>ms2peaks
115.054400 1904.000000
117.057800 1952.000000
117.069800 2516.000000
118.072100 520.000000
119.085700 476.000000
128.062200 5032.000000
129.069900 14968.000000
130.066100 4876.000000
131.072400 4292.000000
132.081100 72972.000000
133.084400 7136.000000
143.073700 956.000000
144.080900 7400.000000
145.064900 684.000000
145.087700 2760.000000
146.096600 25900.000000
147.100100 3820.000000
155.061100 936.000000
158.097100 8264.000000
159.100400 972.000000
173.109000 1192.000000
174.092100 82652.000000
175.095300 11424.000000
175.123400 5600.000000
176.098100 792.000000
176.127100 680.000000
185.108600 1280.000000
186.093700 764.000000
201.105100 448.000000
203.118800 35828.000000
204.121900 4872.000000
256.170300 4128.000000
257.171900 912.000000
285.198700 896.000000

>ms2peaks
115.054400 3700.000000
116.059100 608.000000
117.057500 3360.000000
117.069800 4060.000000
118.063700 740.000000
118.073100 612.000000
119.084800 604.000000
127.053700 1212.000000
128.062300 8528.000000
129.069900 17944.000000
130.065500 8280.000000
131.072700 5808.000000
132.081100 65268.000000
133.084200 6672.000000
143.073500 600.000000
144.080900 7292.000000
145.065100 1180.000000
145.088400 5544.000000
146.096700 21160.000000
147.100100 2596.000000
155.060300 1328.000000
156.080700 580.000000
158.096600 5040.000000
159.100400 704.000000
160.076500 456.000000
171.092700 396.000000
173.108400 896.000000
174.092100 42104.000000
175.095400 5776.000000
175.124700 472.000000
176.098700 432.000000
185.107700 1272.000000
203.118100 3556.000000
204.122000 440.000000
256.173600 832.000000

