>compound AU71507108
>parentmass 321.1016
>ionization [M+H]+
>formula C14H16N4O3S
>rt 265.200000
>profile qtof
#smiles_iso CC1=CC(=NC(=N1)NS(=O)(=O)C2=CC=C(C=C2)NC(=O)C)C
#smiles_can CC1=CC(=NC(=N1)NS(=O)(=O)C2=CC=C(C=C2)NC(=O)C)C
#inchikey LJKAKWDUZRJNPJ-UHFFFAOYSA-N
#pubchem_id 66855
#mb_accession AU201201,AU201202,AU201203,AU201204,AU201205

>ms2peaks
204.043400 784.000000
321.101600 58272.000000
322.103700 9848.000000
323.101300 3504.000000

>ms2peaks
118.063700 1164.000000
122.070900 324.000000
123.078400 684.000000
124.086000 6092.000000
125.089300 556.000000
134.059400 3420.000000
136.074900 1560.000000
150.054100 868.000000
156.011000 436.000000
162.065300 908.000000
186.031400 3472.000000
198.020500 9464.000000
200.017800 500.000000
204.042900 15584.000000
205.045000 1296.000000
206.041500 764.000000
255.123200 5292.000000
256.126400 660.000000
321.101400 64160.000000
322.103700 9864.000000
323.101300 3244.000000

>ms2peaks
118.064600 512.000000
122.070300 1220.000000
123.078200 4508.000000
124.085900 14324.000000
125.069900 304.000000
125.089200 960.000000
134.059000 22920.000000
135.062100 1672.000000
136.075600 1936.000000
150.053600 2060.000000
152.069500 356.000000
156.010600 2248.000000
162.065600 2372.000000
186.031800 5480.000000
187.036500 496.000000
198.021200 9416.000000
199.023300 1212.000000
200.019900 344.000000
204.043000 18492.000000
205.045900 1624.000000
206.039500 568.000000
212.106600 448.000000
213.112700 1916.000000
214.097500 900.000000
214.116900 468.000000
215.124300 556.000000
237.113400 364.000000
255.122900 10072.000000
256.126900 1936.000000
321.101700 7668.000000

>ms2peaks
122.070300 1792.000000
123.077900 3756.000000
124.085900 12108.000000
125.088700 992.000000
134.058900 18552.000000
135.062200 1356.000000
136.075400 484.000000
150.053200 496.000000
156.009700 1624.000000
162.064800 704.000000
186.032200 1208.000000
196.084600 624.000000
197.093700 360.000000
198.020400 1188.000000
204.043000 5452.000000
205.045700 348.000000
212.104200 2760.000000
213.112100 5352.000000
214.096600 1268.000000
214.117200 636.000000
255.121800 5176.000000
256.127200 760.000000

>ms2peaks
122.070100 920.000000
123.078300 2312.000000
124.085800 7648.000000
134.059000 5976.000000
135.062100 592.000000
186.033300 336.000000
186.099400 336.000000
196.086200 1364.000000
197.093500 480.000000
198.089100 728.000000
204.041400 880.000000
211.095200 388.000000
212.104200 2336.000000
213.111800 4216.000000
214.096800 720.000000
214.115000 536.000000
255.124300 1064.000000

