>compound AU72545787
>parentmass 412.1919
>ionization [M+H]+
>formula C24H26FNO4
>rt 652.920000
>profile qtof
#smiles_iso CC(C)N1C2=CC=CC=C2C(=C1/C=C/[C@H](C[C@H](CC(=O)O)O)O)C3=CC=C(C=C3)F
#smiles_can CC(C)N1C2=CC=CC=C2C(=C1C=CC(CC(CC(=O)O)O)O)C3=CC=C(C=C3)F
#inchikey FJLGEFLZQAZZCD-MCBHFWOFSA-N
#pubchem_id 446155
#mb_accession AU210201,AU210202,AU210203,AU210204,AU210205

>ms2peaks
224.088700 504.000000
266.135000 3792.000000
267.138400 616.000000
370.145400 464.000000
394.185100 2048.000000
395.190000 736.000000
411.186900 1288.000000
412.194300 33944.000000
413.197800 10712.000000

>ms2peaks
123.043600 560.000000
141.054500 1140.000000
212.090600 428.000000
223.080700 380.000000
224.088000 13700.000000
225.091700 1848.000000
238.104400 320.000000
254.136800 1220.000000
255.140700 412.000000
264.119800 384.000000
266.135300 32624.000000
267.138700 6664.000000
280.151000 2872.000000
281.158800 600.000000
290.135000 432.000000
306.166800 492.000000
352.134600 980.000000
353.142000 368.000000
370.148300 1984.000000
371.148000 800.000000
376.177600 780.000000
377.175500 472.000000
394.182300 4940.000000
395.187300 1308.000000
411.182900 460.000000
412.193500 9604.000000
413.196200 2852.000000

>ms2peaks
123.045000 816.000000
141.055100 560.000000
197.076900 812.000000
211.080500 324.000000
212.087100 840.000000
213.088500 380.000000
223.079700 1620.000000
224.087800 31660.000000
225.091500 5944.000000
226.094500 516.000000
238.103700 1536.000000
239.106800 308.000000
253.125600 340.000000
254.133300 624.000000
264.120100 680.000000
265.122600 352.000000
266.135200 23384.000000
267.139500 4956.000000
268.144100 504.000000
274.107500 304.000000
280.152000 1348.000000
281.155900 596.000000
290.134300 420.000000
306.169200 756.000000
352.137100 328.000000
369.137800 656.000000
376.172000 548.000000
394.185800 488.000000

>ms2peaks
123.043800 400.000000
135.117800 336.000000
177.070600 536.000000
196.068600 1264.000000
197.076100 6352.000000
198.081700 732.000000
204.082500 852.000000
211.079300 768.000000
212.088000 1124.000000
222.074100 1004.000000
223.079700 4276.000000
224.088100 48960.000000
225.091200 11000.000000
226.095100 576.000000
236.087800 540.000000
238.103700 3408.000000
239.110700 660.000000
248.092100 352.000000
264.119600 1104.000000
265.123200 364.000000
266.135500 6496.000000
267.137800 1456.000000
274.105300 436.000000
280.152700 508.000000
288.122500 352.000000
290.135100 320.000000

>ms2peaks
177.069700 1512.000000
178.074900 304.000000
196.069000 4544.000000
197.076200 13608.000000
198.080500 2152.000000
204.082200 2804.000000
205.085900 832.000000
209.063900 432.000000
211.080300 928.000000
212.087400 932.000000
222.072000 3196.000000
223.078900 6732.000000
224.088000 34716.000000
225.091100 6372.000000
226.094500 960.000000
235.079300 536.000000
236.086700 1040.000000
238.104300 2640.000000
239.109100 472.000000
248.090100 816.000000
249.092300 420.000000
250.102700 536.000000
251.110300 412.000000
262.102400 640.000000
264.086800 412.000000
264.120400 556.000000
266.135300 964.000000
267.137100 344.000000
274.103600 480.000000
275.111400 344.000000

