>compound AU72766942
>parentmass 837.5318
>ionization [M+H]+
>formula C41H76N2O15
>rt 563.136000
>profile qtof
#smiles_iso CC[C@@H]1[C@@]([C@@H]([C@H](/C(=N/OCOCCOC)/[C@@H](C[C@@]([C@@H]([C@H]([C@@H]([C@H](C(=O)O1)C)O[C@H]2C[C@@]([C@H]([C@@H](O2)C)O)(C)OC)C)O[C@H]3[C@@H]([C@H](C[C@H](O3)C)N(C)C)O)(C)O)C)C)O)(C)O
#smiles_can CCC1C(C(C(C(=NOCOCCOC)C(CC(C(C(C(C(C(=O)O1)C)OC2CC(C(C(O2)C)O)(C)OC)C)OC3C(C(CC(O3)C)N(C)C)O)(C)O)C)C)O)(C)O
#inchikey RXZBMPWDPOLZGW-XMRMVWPWSA-N
#pubchem_id 6915744
#mb_accession AU218501,AU218502,AU218503,AU218504,AU218505

>ms2peaks
158.118400 1340.000000
558.373400 732.000000
679.444000 7012.000000
680.449400 1864.000000
837.540700 135632.000000
838.544400 66696.000000
839.544600 17224.000000

>ms2peaks
116.106700 1688.000000
158.117900 26512.000000
159.121500 2204.000000
316.213400 4280.000000
317.215100 1016.000000
522.338400 3184.000000
540.359000 1736.000000
558.366300 9772.000000
559.371100 2844.000000
603.393600 1060.000000
661.438500 1324.000000
679.443000 131240.000000
680.445900 46032.000000
681.449200 9972.000000
682.447000 1980.000000
716.468500 3188.000000
837.540200 164300.000000
838.542600 91704.000000
839.546300 17444.000000

>ms2peaks
116.071500 2652.000000
116.107500 9736.000000
127.076000 4464.000000
158.118400 309444.000000
159.102800 2044.000000
159.121600 24464.000000
160.122700 1688.000000
316.213900 11720.000000
317.217000 1848.000000
383.247700 1892.000000
398.254900 3452.000000
416.268700 2324.000000
446.277500 1836.000000
522.334100 20452.000000
523.337500 6120.000000
540.357100 6916.000000
541.360800 2644.000000
555.368800 3848.000000
558.367200 19724.000000
559.371800 8468.000000
560.370400 1764.000000
573.380400 5056.000000
574.381800 1592.000000
603.390400 7088.000000
604.395400 2488.000000
661.432200 6740.000000
662.435700 3132.000000
679.444200 300088.000000
680.446700 115832.000000
681.448600 20672.000000
682.449100 3312.000000
716.468100 1600.000000
837.539800 25264.000000
838.543400 15456.000000

>ms2peaks
116.071000 9808.000000
116.107500 24360.000000
127.075600 9828.000000
158.118400 895448.000000
159.121500 69236.000000
160.123300 4804.000000
380.246300 4920.000000
398.256500 11708.000000
416.266900 4524.000000
446.278500 4588.000000
522.334600 16536.000000
523.338300 6000.000000
540.355400 5800.000000
555.368300 6464.000000
558.368700 10628.000000
573.377300 4752.000000
603.390200 7508.000000
661.432700 7968.000000
679.443100 76208.000000
680.445800 33968.000000
681.450800 6664.000000

>ms2peaks
116.071200 15660.000000
116.107400 28164.000000
127.075900 8616.000000
142.123100 4516.000000
158.118400 855092.000000
159.121800 68248.000000
380.246900 6148.000000
398.256800 8996.000000
679.444300 10596.000000
680.443600 5176.000000

