>compound AU72938421
>parentmass 171.1128
>ionization [M+H]+
>formula C8H14N2O2
>rt 218.484000
>profile qtof
#smiles_iso CC[C@H](C(=O)N)N1CCCC1=O
#smiles_can CCC(C(=O)N)N1CCCC1=O
#inchikey HPHUVLMMVZITSG-ZCFIWIBFSA-N
#pubchem_id 441341
#mb_accession AU160501,AU160502,AU160503,AU160504,AU160505

>ms2
126.091700 326664.000000
127.094600 20244.000000
154.086700 188056.000000
155.089300 14376.000000
156.090800 1660.000000
171.113100 20192.000000
172.115800 2012.000000

>ms2
126.091900 337932.000000
127.095000 18840.000000
154.086100 3776.000000

>ms2
126.092200 95612.000000
127.095200 5508.000000

>ms2
126.091500 10536.000000
127.095000 1148.000000

>ms2
126.091800 836.000000

