>compound AU72690100
>parentmass 258.0795
>ionization [M+H]+
>formula C11H15NO4S
>rt 310.000000
>profile qtof
#smiles_iso CC(C)N(C1=CC=CC=C1)C(=O)CS(=O)(=O)O
#smiles_can CC(C)N(C1=CC=CC=C1)C(=O)CS(=O)(=O)O
#inchikey BFSZJLBDHMMCAH-UHFFFAOYSA-N
#pubchem_id 16212221
#mb_accession AU207201,AU207202,AU207203

>ms2
216.031800 3160.000000
217.034500 356.000000
258.079100 4692.000000

>ms2
133.085600 372.000000
134.058600 372.000000
136.074400 512.000000
198.021000 1352.000000
216.031600 3484.000000
258.079200 336.000000

>ms2
117.057900 356.000000
198.021700 816.000000
256.110200 1136.000000

