>compound AU73033690
>parentmass 332.1639
>ionization [M+H]+
>formula C14H25N3O4S
>rt 373.140000
>profile qtof
#smiles_iso C[C@H](C(=O)NC1C(SC1(C)C)(C)C)NC(=O)[C@H](CC(=O)O)N
#smiles_can CC(C(=O)NC1C(SC1(C)C)(C)C)NC(=O)C(CC(=O)O)N
#inchikey IVBOUFAWPCPFTQ-SFYZADRCSA-N
#pubchem_id 64763
#mb_accession AU580806

>ms2peaks
58.064300 348.000000
58.994400 700.000000
60.054500 528.000000
129.072000 9336.000000
130.076100 636.000000
131.069100 752.000000
141.065200 464.000000
159.075300 5132.000000
160.078400 412.000000
187.071800 1964.000000
204.098000 472.000000
215.127500 340.000000
217.139200 300.000000
332.162500 644.000000

