>compound AU73569331
>parentmass 171.0587
>ionization [M+H]+
>formula C7H10N2OS
>rt 267.945000
>profile qtof
#smiles_iso CCCC1=CC(=O)NC(=S)N1
#smiles_can CCCC1=CC(=O)NC(=S)N1
#inchikey KNAHARQHSZJURB-UHFFFAOYSA-N
#pubchem_id 657298
#mb_accession AU122401,AU122402,AU122403,AU122406

>ms2peaks
154.033000 1564.000000
171.060300 34268.000000
172.063100 2416.000000
173.055500 1508.000000

>ms2peaks
112.075800 468.000000
129.039200 476.000000
154.033400 7292.000000
155.036800 436.000000
171.060200 9752.000000
172.064200 816.000000

>ms2peaks
142.018700 308.000000
154.034300 1880.000000
171.061500 608.000000

>ms2peaks
59.989200 356.000000
67.053100 300.000000
112.075400 2524.000000
126.038100 376.000000
129.036200 396.000000
153.045400 320.000000
154.031300 13656.000000
155.032800 656.000000
156.027400 352.000000
171.057600 23960.000000
172.060700 1688.000000
173.054100 548.000000

