>compound AU73469682
>parentmass 330.0804
>ionization [M+H]+
>formula C17H13ClFN3O
>rt 619.880000
>profile qtof
#smiles_iso C1=CC=C(C(=C1)C2C(O2)(CN3C=NC=N3)C4=CC=C(C=C4)F)Cl
#smiles_can C1=CC=C(C(=C1)C2C(O2)(CN3C=NC=N3)C4=CC=C(C=C4)F)Cl
#inchikey ZMYFCFLJBGAQRS-UHFFFAOYSA-N
#pubchem_id 3317081
#mb_accession AU257401,AU257402,AU257403,AU257404,AU257405,AU257406

>ms2
121.043800 52880.000000
123.023100 27860.000000
141.008700 13880.000000
330.080300 1227032.000000
331.083500 198844.000000
332.077800 307096.000000

>ms2
121.044100 582484.000000
122.047300 47988.000000
123.023400 158292.000000
124.026600 10864.000000
138.993500 11040.000000
141.008900 97480.000000
142.012000 7316.000000
143.006000 24596.000000
149.058500 3096.000000
165.053200 4988.000000
190.076000 4100.000000
261.047000 4428.000000
330.080300 175564.000000
331.083300 28868.000000
332.077300 48328.000000

>ms2
121.044100 409968.000000
122.047200 37796.000000
123.023100 108540.000000
124.026600 9012.000000
138.993500 10280.000000
140.990300 2852.000000
141.009100 46044.000000
142.012500 3828.000000
143.006000 12052.000000
149.058700 2088.000000
165.053600 2940.000000
198.082000 3412.000000
231.036200 2896.000000

>ms2
120.036300 1788.000000
121.044100 249572.000000
122.047200 21824.000000
123.023200 64468.000000
124.026400 4852.000000
137.014000 1284.000000
138.993200 7076.000000
140.990700 2108.000000
141.009200 14648.000000
142.012100 1268.000000
143.006300 5332.000000
149.058400 1320.000000
165.053400 2764.000000
183.059100 1644.000000
196.066500 5652.000000
197.073900 2956.000000
198.081300 2440.000000

>ms2
120.035800 2004.000000
121.044100 109380.000000
122.047100 11172.000000
123.023100 26516.000000
124.026300 3140.000000
138.993200 3156.000000
140.991400 1356.000000
141.008500 3636.000000
142.013000 704.000000
143.006700 1096.000000
150.030200 1152.000000
176.059900 892.000000
177.068100 904.000000
178.076800 912.000000
183.058500 1884.000000
184.065100 596.000000
196.067700 5972.000000
197.074200 2744.000000
198.079900 720.000000

>ms2
70.039500 92528.000000
71.042600 2508.000000
91.054500 2136.000000
121.044700 377460.000000
122.047800 46316.000000
123.023700 106280.000000
124.026900 11276.000000
129.044700 6216.000000
138.993300 8488.000000
141.009200 55932.000000
142.012600 4548.000000
143.006100 15988.000000
165.053600 3216.000000
190.076000 2092.000000
198.081500 2036.000000
231.035500 2220.000000
330.080400 39904.000000
331.083400 5696.000000
332.077300 11796.000000

