>compound AU73764054
>parentmass 304.09279999999995
>ionization [M+H]+
>formula C14H13N3O5
>rt 264.720000
>profile qtof
#smiles_iso CC1=C(C(=CC=C1)C(=O)O)N(CN2C=CC=N2)C(=O)C(=O)O
#smiles_can CC1=C(C(=CC=C1)C(=O)O)N(CN2C=CC=N2)C(=O)C(=O)O
#inchikey DFJUHFNLKWOTIZ-UHFFFAOYSA-N
#pubchem_id 139291822
#mb_accession AU256001,AU256002,AU256003,AU256004,AU256005,AU256006

>ms2peaks
146.058600 596.000000
164.069600 2416.000000
165.072500 460.000000
206.043800 3196.000000
207.049900 568.000000
218.044600 708.000000
236.054400 2264.000000
244.062300 972.000000
287.091500 536.000000
304.092400 2164.000000
305.099300 368.000000

>ms2peaks
146.058300 3412.000000
147.062700 656.000000
160.037500 2708.000000
162.053900 1848.000000
164.070200 1228.000000
206.043800 8240.000000
207.045200 1212.000000
218.044500 1228.000000
244.063300 448.000000

>ms2peaks
118.064500 312.000000
122.096600 368.000000
134.057900 1564.000000
144.042400 604.000000
146.058800 4904.000000
147.062700 1204.000000
160.038000 7732.000000
161.040000 612.000000
162.053300 4528.000000
163.057300 368.000000
164.070100 408.000000
206.043000 3760.000000
207.045500 532.000000
218.045600 576.000000

>ms2peaks
118.063600 364.000000
134.059500 1316.000000
144.042400 404.000000
146.058400 4340.000000
147.061900 504.000000
160.037500 5400.000000
161.040300 800.000000
162.053900 1648.000000

>ms2peaks
117.057000 328.000000
118.063900 344.000000
132.044700 468.000000
134.059800 640.000000
146.059300 1900.000000
147.062900 312.000000
160.037700 2764.000000
161.040500 524.000000
162.054000 360.000000

>ms2peaks
69.044300 1472.000000
134.060400 484.000000
144.046200 352.000000
146.060800 2088.000000
160.039400 3024.000000
161.043000 500.000000
162.054600 2188.000000
164.070200 532.000000
206.045300 3764.000000
207.046400 396.000000

