>compound AU74944563
>parentmass 271.1077
>ionization [M+H]+
>formula C15H14N2O3
>rt 343.890000
>profile qtof
#smiles_iso C1=CC=C2C(=C1)C(C(C3=CC=CC=C3N2C(=O)N)O)O
#smiles_can C1=CC=C2C(=C1)C(C(C3=CC=CC=C3N2C(=O)N)O)O
#inchikey PRGQOPPDPVELEG-UHFFFAOYSA-N
#pubchem_id 83852
#mb_accession AU266801,AU266802,AU266803,AU266804,AU266805,AU266806

>ms2peaks
180.080100 3776.000000
181.078500 476.000000
182.094200 872.000000
208.074600 652.000000
210.090000 23828.000000
211.093900 3216.000000
236.069400 6192.000000
237.071700 1272.000000
253.096000 51868.000000
254.080100 35280.000000
255.083400 6348.000000
256.088600 848.000000
271.106800 5168.000000
272.111500 920.000000

>ms2peaks
167.073000 420.000000
180.080000 54612.000000
181.084000 8064.000000
182.095500 9464.000000
183.098200 1404.000000
192.082900 416.000000
208.075000 4576.000000
209.078100 840.000000
210.090900 41576.000000
211.094000 6724.000000
212.096400 476.000000
236.071000 4648.000000
237.075300 932.000000
253.095300 1308.000000
254.080700 20424.000000
255.083500 3848.000000

>ms2peaks
165.069800 1024.000000
167.071500 2792.000000
168.074500 488.000000
179.072200 1068.000000
180.079700 97516.000000
181.083900 18472.000000
182.095200 32324.000000
183.099200 4880.000000
192.079100 696.000000
193.087200 912.000000
208.074600 1284.000000
210.090400 23912.000000
211.094300 4184.000000
254.079100 788.000000

>ms2peaks
152.060400 1624.000000
165.068500 1928.000000
167.071600 10312.000000
168.076200 1612.000000
178.064700 860.000000
179.071900 2420.000000
180.079800 118000.000000
181.083600 18916.000000
182.095400 18004.000000
183.098500 2716.000000
192.079400 1044.000000
193.086800 1356.000000
208.072900 780.000000
210.090400 3652.000000

>ms2peaks
151.052300 452.000000
152.060700 4356.000000
153.067700 1384.000000
154.064900 508.000000
154.072900 416.000000
165.068500 1552.000000
166.064600 1036.000000
166.076700 484.000000
167.071400 9192.000000
168.075300 1520.000000
169.063300 732.000000
178.063700 2084.000000
179.071600 5596.000000
180.079500 71316.000000
181.083200 10748.000000
182.094800 4332.000000
183.099900 672.000000
191.072900 584.000000
192.078100 648.000000
193.087700 1200.000000

>ms2peaks
165.067900 552.000000
167.071200 1276.000000
180.079700 103556.000000
181.084300 14240.000000
182.095200 24780.000000
183.098100 2752.000000
193.085600 632.000000
208.074300 3228.000000
209.080000 560.000000
210.090800 45416.000000
211.093700 6092.000000
212.096600 760.000000
236.070100 1192.000000
253.094300 680.000000
254.080100 13076.000000
255.084500 2028.000000

