>compound AU74146406
>parentmass 200.2373
>ionization [M+H]+
>formula C13H29N
>rt 629.865000
>profile qtof
#smiles_iso CCCCCCCCCCCCNC
#smiles_can CCCCCCCCCCCCNC
#inchikey OMEMQVZNTDHENJ-UHFFFAOYSA-N
#pubchem_id 81746
#mb_accession AU285001,AU285002,AU285003,AU285006

>ms2
200.236600 1522292.000000
201.239700 207612.000000
202.243000 12584.000000

>ms2
200.236400 366700.000000
201.239300 48092.000000
202.242400 3288.000000

>ms2
200.236100 5328.000000
201.240300 948.000000

>ms2
55.054100 1872.000000
57.069400 57240.000000
58.072600 2276.000000
71.085200 27016.000000
72.088800 1360.000000
85.101100 8008.000000
200.237000 241396.000000
201.240100 38568.000000
202.243700 1908.000000

