>compound AU74083112
>parentmass 267.172
>ionization [M+H]+
>formula C12H27O4P
>rt 692.955000
>profile qtof
#smiles_iso CC(C)COP(=O)(OCC(C)C)OCC(C)C
#smiles_can CC(C)COP(=O)(OCC(C)C)OCC(C)C
#inchikey HRKAMJBPFPHCSD-UHFFFAOYSA-N
#pubchem_id 31355
#mb_accession AU246801,AU246802,AU246803,AU246806

>ms2peaks
155.046000 56980.000000
156.049400 3112.000000
157.050300 632.000000
173.055900 720.000000
173.151300 548.000000
211.109400 42532.000000
212.112400 4824.000000
213.114600 688.000000
251.179300 360.000000
267.171600 12028.000000
268.174000 2016.000000

>ms2peaks
155.045400 3084.000000
156.049400 336.000000
211.109200 792.000000

>ms2peaks
155.046400 304.000000

>ms2peaks
57.069400 4584.000000
59.048700 400.000000
98.984800 12172.000000
116.995200 3084.000000
140.010000 1740.000000
155.045300 2084.000000
157.025100 388.000000
159.043900 324.000000
211.106500 404.000000

