>compound AU74044042
>parentmass 311.20060000000007
>ionization [M+H]+
>formula C21H26O2
>rt 566.810000
>profile qtof
#smiles_iso CC[C@]12CC[C@H]3[C@H]([C@@H]1C=C[C@]2(C#C)O)CCC4=CC(=O)CC[C@H]34
#smiles_can CCC12CCC3C(C1C=CC2(C#C)O)CCC4=CC(=O)CCC34
#inchikey SIGSPDASOTUPFS-XUDSTZEESA-N
#pubchem_id 3033968
#mb_accession AU280701,AU280702,AU280703,AU280704,AU280705,AU280706

>ms2peaks
293.189500 16320.000000
311.200800 1887180.000000
312.204000 398380.000000
313.206700 33608.000000

>ms2peaks
115.053900 2584.000000
117.068900 5160.000000
119.084900 9904.000000
121.064000 6452.000000
121.100300 5328.000000
123.079700 4292.000000
129.069100 12444.000000
131.084800 18448.000000
132.088500 2560.000000
133.063900 17024.000000
133.100300 15420.000000
135.079600 22972.000000
135.116000 3756.000000
137.095100 4464.000000
141.068600 7100.000000
142.075700 3396.000000
143.084800 16440.000000
144.089300 2528.000000
145.063400 6500.000000
145.100100 28448.000000
146.103400 2832.000000
147.079300 20124.000000
147.115800 11544.000000
148.083700 3092.000000
149.094800 26764.000000
149.130800 3144.000000
150.098100 3056.000000
155.084600 13228.000000
157.063500 4272.000000
157.100200 20200.000000
158.104000 2668.000000
159.079200 19416.000000
159.116000 14468.000000
160.083700 2656.000000
160.119900 2620.000000
161.095200 21500.000000
161.131200 11776.000000
162.098700 3172.000000
163.110800 19048.000000
164.114300 2484.000000
167.084200 6700.000000
168.090700 3508.000000
169.100300 13384.000000
170.104800 2504.000000
171.078800 4732.000000
171.115900 22812.000000
172.119900 3124.000000
173.094900 14252.000000
173.131300 13884.000000
174.101100 2652.000000
174.134700 2612.000000
175.110600 25740.000000
175.147000 6864.000000
176.114300 3388.000000
177.125700 3552.000000
179.084200 4052.000000
181.100300 14764.000000
182.105400 3324.000000
183.079100 3900.000000
183.116100 26692.000000
184.119300 5308.000000
185.095300 8148.000000
185.131600 19216.000000
186.135100 3368.000000
187.110900 10656.000000
187.146300 4472.000000
189.126400 11724.000000
193.099900 6496.000000
195.115900 13652.000000
196.119900 2936.000000
197.095100 6288.000000
197.131500 14652.000000
198.136500 2692.000000
199.110600 9488.000000
199.147100 7800.000000
201.126800 32172.000000
201.163200 12360.000000
202.130100 6132.000000
202.167100 2860.000000
203.142000 10132.000000
204.146100 2636.000000
205.100500 5056.000000
207.116000 6200.000000
208.122200 2532.000000
209.095500 3968.000000
209.131600 10652.000000
210.137100 2460.000000
211.111000 5996.000000
211.147600 7388.000000
213.126500 7724.000000
213.163000 20576.000000
214.165900 3980.000000
215.142500 8144.000000
217.158000 5536.000000
219.115700 6500.000000
219.173900 11380.000000
220.121700 2596.000000
220.176700 2544.000000
221.131400 4888.000000
223.110900 7104.000000
223.147000 11876.000000
224.117400 2628.000000
224.152700 2736.000000
225.126300 4984.000000
225.162900 12536.000000
226.166100 2736.000000
227.142000 6656.000000
228.148500 2472.000000
229.157700 8200.000000
230.164800 9176.000000
231.173600 29784.000000
232.177400 5428.000000
233.132100 6340.000000
234.135900 2544.000000
235.147500 12440.000000
236.152500 4804.000000
237.125600 7452.000000
237.162300 5340.000000
239.143100 5412.000000
239.178700 3416.000000
241.158400 10588.000000
242.162200 2436.000000
243.174100 22660.000000
244.176700 3856.000000
246.140600 3448.000000
247.147100 4724.000000
249.164200 5360.000000
251.142600 6100.000000
251.178700 9700.000000
253.158400 8584.000000
255.172800 3384.000000
264.150400 3560.000000
265.158100 9564.000000
265.194000 7648.000000
266.162200 2476.000000
269.189200 3172.000000
275.178100 11036.000000
276.183000 3020.000000
283.168700 2912.000000
283.204900 3704.000000
293.190100 48356.000000
294.193700 9856.000000
311.201000 484052.000000
312.204200 96944.000000
313.207000 11148.000000

>ms2peaks
109.065400 408.000000
115.053800 6940.000000
116.060900 1668.000000
117.069100 11224.000000
118.071900 1056.000000
119.048600 1104.000000
119.084600 12468.000000
120.087800 1672.000000
121.064200 4388.000000
121.100900 4884.000000
122.103200 724.000000
123.080000 4808.000000
123.116400 1388.000000
124.084300 556.000000
127.053700 832.000000
128.061000 11952.000000
129.068800 23256.000000
130.075000 5000.000000
131.048500 2968.000000
131.084600 28360.000000
132.055600 1304.000000
132.088600 3204.000000
133.063800 19976.000000
133.100200 16176.000000
134.068300 2848.000000
134.103100 2100.000000
135.079400 21652.000000
135.116000 4308.000000
136.082800 2156.000000
136.119000 324.000000
137.058700 344.000000
137.095400 2332.000000
141.068800 15244.000000
142.075900 7960.000000
143.084200 24384.000000
144.055800 1364.000000
144.089600 4532.000000
145.063700 7812.000000
145.100100 26204.000000
146.069600 2860.000000
146.104000 3776.000000
147.079300 21220.000000
147.115900 9484.000000
148.085200 3580.000000
148.118900 1648.000000
149.095000 19112.000000
149.131700 2820.000000
150.098500 2276.000000
151.051400 320.000000
151.073700 508.000000
151.110600 724.000000
152.061500 1636.000000
153.068900 7280.000000
154.075800 6336.000000
155.084200 21500.000000
156.090100 5744.000000
157.063700 5564.000000
157.099800 20284.000000
158.071000 2388.000000
158.105100 4068.000000
159.079200 20348.000000
159.115500 13764.000000
160.084500 4436.000000
160.120300 2424.000000
161.094800 15508.000000
161.131000 10664.000000
162.099600 3056.000000
162.133500 1844.000000
163.110700 9572.000000
164.114500 1620.000000
165.069000 5028.000000
166.075700 4120.000000
167.084100 10220.000000
168.091900 8236.000000
169.063700 1072.000000
169.099800 16192.000000
170.073100 844.000000
170.105300 3880.000000
171.079200 5488.000000
171.115600 19948.000000
172.086900 3244.000000
172.119300 3620.000000
173.094800 11024.000000
173.131600 14148.000000
174.101200 3168.000000
174.134800 1580.000000
175.074100 800.000000
175.110400 13680.000000
175.147300 3124.000000
176.114600 1844.000000
176.152400 876.000000
177.089600 332.000000
177.126200 1800.000000
177.162800 356.000000
178.077200 2624.000000
179.084200 6388.000000
180.091900 3816.000000
181.063600 1268.000000
181.099800 14144.000000
182.071300 880.000000
182.106400 5352.000000
183.078900 3036.000000
183.115700 20840.000000
184.084900 1840.000000
184.120300 4388.000000
185.094600 6332.000000
185.131400 12284.000000
186.102300 2428.000000
186.135400 2444.000000
187.074500 692.000000
187.110500 7376.000000
187.147300 3492.000000
188.116500 2512.000000
188.151900 520.000000
189.092200 372.000000
189.126100 4328.000000
189.162800 2900.000000
190.079100 872.000000
190.166400 452.000000
191.083800 3508.000000
191.102800 532.000000
191.142700 408.000000
192.091300 2680.000000
193.099900 5868.000000
194.072500 748.000000
194.106800 3544.000000
195.078600 1528.000000
195.116000 10216.000000
196.088400 1800.000000
196.120400 3144.000000
197.095100 3824.000000
197.131300 8484.000000
198.100500 1584.000000
198.135100 1840.000000
199.073100 384.000000
199.110700 6660.000000
199.147300 5012.000000
200.117200 1428.000000
200.151900 1236.000000
201.126200 27740.000000
201.163400 7276.000000
202.075800 400.000000
202.130300 4856.000000
202.167600 1452.000000
203.082900 1512.000000
203.142600 3156.000000
203.180800 748.000000
204.091100 2516.000000
204.142100 628.000000
205.100100 5992.000000
206.107400 3212.000000
207.082000 524.000000
207.115000 5304.000000
208.088300 924.000000
208.122500 2360.000000
209.095100 3436.000000
209.131600 7244.000000
210.101300 1676.000000
210.136900 2108.000000
211.110500 2148.000000
211.146500 3252.000000
212.118000 1320.000000
212.150900 1448.000000
213.127100 3712.000000
213.162600 10296.000000
214.132900 1580.000000
214.167400 2496.000000
215.104800 352.000000
215.141000 4588.000000
215.177400 644.000000
216.091400 304.000000
216.144300 1140.000000
217.100600 1544.000000
217.159100 1940.000000
218.106700 2368.000000
219.116000 3924.000000
219.174100 2732.000000
220.122700 2612.000000
220.176900 524.000000
221.097800 548.000000
221.131400 3480.000000
222.102900 1260.000000
222.137000 1684.000000
223.110300 4160.000000
223.146700 6148.000000
224.116400 2096.000000
224.152000 1300.000000
225.126200 2472.000000
225.162500 6956.000000
226.098200 340.000000
226.131800 1232.000000
226.166100 1924.000000
227.106600 532.000000
227.142600 2652.000000
227.180600 356.000000
228.112800 460.000000
228.150200 1436.000000
229.124300 348.000000
229.158400 2256.000000
230.165100 4360.000000
231.114800 1628.000000
231.173200 9052.000000
232.122700 1284.000000
232.177800 1336.000000
233.130900 2408.000000
234.135600 1488.000000
235.114100 1020.000000
235.146800 4412.000000
236.119000 1616.000000
236.152600 1616.000000
237.126500 3048.000000
237.162300 1904.000000
238.133600 988.000000
238.169100 1212.000000
239.142400 2196.000000
239.179500 1696.000000
240.147700 556.000000
240.185100 324.000000
241.122200 1088.000000
241.157100 3568.000000
241.192800 488.000000
242.130300 392.000000
242.162800 884.000000
243.174300 7904.000000
244.177200 1500.000000
245.131900 992.000000
246.138300 1516.000000
247.147200 2012.000000
248.152500 496.000000
249.125100 980.000000
249.162900 2144.000000
250.135400 820.000000
250.167700 764.000000
251.141500 1768.000000
251.177900 2284.000000
252.149400 980.000000
252.180500 584.000000
253.157500 2360.000000
254.163300 848.000000
255.137700 352.000000
255.142700 432.000000
255.173800 760.000000
256.182300 644.000000
257.189900 372.000000
260.156000 696.000000
263.139600 748.000000
264.151400 2144.000000
265.157300 2544.000000
265.195400 996.000000
266.163700 572.000000
267.173700 1132.000000
268.179700 444.000000
269.153300 364.000000
269.188000 672.000000
275.178800 1880.000000
276.184400 576.000000
278.165800 524.000000
282.161100 916.000000
283.165700 944.000000
283.207800 500.000000
293.189100 4400.000000
294.192200 988.000000
311.199900 11752.000000
312.205100 2676.000000
313.200900 380.000000
313.212100 332.000000

>ms2peaks
109.063500 492.000000
115.053500 12304.000000
116.059800 2940.000000
117.069200 12268.000000
118.073100 1680.000000
119.048400 1812.000000
119.084500 9780.000000
120.087600 1140.000000
121.063200 3280.000000
121.099300 2296.000000
123.079500 2144.000000
123.115900 680.000000
127.053100 1684.000000
128.060700 24460.000000
129.068500 27276.000000
130.075200 6508.000000
131.048200 3676.000000
131.084200 23796.000000
132.054700 1592.000000
132.087900 2896.000000
133.063500 12040.000000
133.099700 8976.000000
134.069100 1620.000000
134.103400 1076.000000
135.079200 12196.000000
135.115200 1668.000000
136.083400 1312.000000
137.094200 1424.000000
139.052300 488.000000
141.068600 23416.000000
142.075300 12012.000000
143.083900 23232.000000
144.055600 3320.000000
144.089000 3904.000000
145.063300 10244.000000
145.099900 14924.000000
146.070000 3600.000000
146.104200 2276.000000
147.079200 11396.000000
147.115900 5248.000000
148.118500 624.000000
149.094400 8068.000000
149.130800 1092.000000
150.097900 1504.000000
152.060200 4416.000000
153.068300 14820.000000
154.075500 8492.000000
155.083700 18296.000000
156.090100 5712.000000
157.063200 4816.000000
157.099600 11604.000000
158.070500 3360.000000
158.104700 2180.000000
159.078500 10736.000000
159.115400 6944.000000
161.059200 480.000000
161.094600 7364.000000
161.130600 4716.000000
162.101300 1832.000000
162.133100 564.000000
163.110200 3140.000000
165.068100 10136.000000
166.075800 6240.000000
167.083800 12168.000000
168.090700 9456.000000
169.061700 1260.000000
169.099500 10696.000000
170.071500 1400.000000
170.105500 2660.000000
171.078200 5920.000000
171.115000 8336.000000
172.086100 3656.000000
172.120700 1084.000000
173.094500 5748.000000
173.130600 4772.000000
174.100700 2096.000000
175.073200 496.000000
175.109400 3576.000000
175.147400 1028.000000
176.115100 692.000000
178.076400 4212.000000
179.083400 6892.000000
180.090600 4296.000000
181.063000 1560.000000
181.099300 8496.000000
182.072700 1192.000000
182.106200 3140.000000
183.078900 2300.000000
183.114700 9104.000000
184.085300 1544.000000
184.120400 2176.000000
185.094000 3264.000000
185.130700 2996.000000
186.100900 1764.000000
186.135300 700.000000
187.110500 3380.000000
187.147000 868.000000
188.116700 1840.000000
189.068900 996.000000
189.087700 456.000000
189.126400 732.000000
189.162800 372.000000
190.076400 1356.000000
191.083300 3644.000000
192.090400 2852.000000
193.099200 4892.000000
194.070400 1056.000000
194.105900 2864.000000
195.079100 1728.000000
195.115200 4184.000000
196.086000 1056.000000
196.121300 1912.000000
197.094100 2148.000000
197.130900 3012.000000
198.100800 920.000000
198.137700 644.000000
199.110800 2908.000000
199.146700 2400.000000
200.116100 988.000000
200.150700 512.000000
201.126000 14348.000000
201.160600 1280.000000
202.075500 1084.000000
202.129700 2236.000000
203.083900 2900.000000
203.141100 464.000000
204.091300 1876.000000
205.098800 4240.000000
206.105800 2172.000000
207.080400 624.000000
207.115000 3608.000000
208.085400 740.000000
208.121800 1352.000000
209.094800 2256.000000
209.130900 2756.000000
210.100600 688.000000
210.134600 696.000000
211.111600 1468.000000
211.146000 1036.000000
212.116200 720.000000
212.151600 320.000000
213.125700 1644.000000
213.162600 1592.000000
214.132700 1432.000000
214.166300 452.000000
215.085500 400.000000
215.141000 1564.000000
216.091200 736.000000
216.149600 408.000000
217.099700 1796.000000
217.157400 488.000000
218.107900 1224.000000
219.115700 2008.000000
219.176700 328.000000
220.122200 968.000000
221.093700 964.000000
221.130200 1836.000000
222.102700 956.000000
222.136300 492.000000
223.108600 1332.000000
223.146300 1972.000000
224.116800 1072.000000
224.150500 460.000000
225.126800 724.000000
225.163900 1536.000000
226.132200 444.000000
226.168000 352.000000
227.143100 432.000000
228.151400 508.000000
229.156900 516.000000
230.164600 732.000000
231.115200 1524.000000
231.172900 812.000000
232.121800 720.000000
233.130800 828.000000
234.104200 460.000000
234.137000 356.000000
235.109900 780.000000
235.146400 640.000000
236.116400 1136.000000
236.154000 440.000000
237.126200 500.000000
239.142500 680.000000
241.158100 376.000000
243.173400 1320.000000
245.131800 680.000000
247.142500 420.000000
249.124200 616.000000
249.163900 500.000000
250.131000 488.000000
253.157000 560.000000
263.141700 448.000000
264.147900 588.000000
311.196500 352.000000

>ms2peaks
107.049700 388.000000
115.053500 18424.000000
116.059300 4180.000000
117.068900 8972.000000
118.040800 468.000000
118.073000 1348.000000
119.047900 880.000000
119.084500 5604.000000
120.054700 436.000000
120.088400 796.000000
121.063300 1824.000000
121.100300 960.000000
122.068000 308.000000
123.079700 1624.000000
126.046200 836.000000
127.052800 3616.000000
128.060900 37480.000000
129.068300 29448.000000
130.075000 6636.000000
131.048000 4768.000000
131.084100 14672.000000
132.055000 2036.000000
132.087900 2280.000000
133.063400 6432.000000
133.099800 4600.000000
134.104100 736.000000
135.079200 5320.000000
136.082500 564.000000
137.095400 364.000000
139.052800 884.000000
141.068500 26272.000000
142.075700 13508.000000
143.084000 13080.000000
144.055200 3880.000000
144.090200 2920.000000
145.063500 9092.000000
145.099600 7116.000000
146.069600 2452.000000
147.079300 4520.000000
147.115500 1220.000000
148.084600 1016.000000
148.121200 324.000000
149.094800 3056.000000
149.130700 344.000000
151.051300 500.000000
152.060600 8312.000000
153.068500 18624.000000
154.075600 9948.000000
155.083600 13736.000000
156.090600 4476.000000
157.063800 4484.000000
157.099800 5156.000000
158.071000 3104.000000
158.105400 1068.000000
159.078800 6052.000000
159.115400 3280.000000
160.085600 1208.000000
160.122900 524.000000
161.094600 2712.000000
161.131800 904.000000
162.100800 700.000000
163.111700 576.000000
164.060200 412.000000
165.068200 15112.000000
166.074600 7488.000000
167.083700 12544.000000
168.055500 572.000000
168.090900 5644.000000
169.063400 1812.000000
169.099400 5924.000000
170.070800 920.000000
170.106700 1468.000000
171.079000 3836.000000
171.115600 3056.000000
172.086000 1536.000000
173.094700 2400.000000
173.131200 1832.000000
174.135800 300.000000
175.110900 676.000000
176.061900 416.000000
177.068400 836.000000
178.076200 6624.000000
179.083700 8672.000000
180.090600 3128.000000
181.064900 1380.000000
181.099500 4468.000000
182.072700 580.000000
182.105000 1960.000000
183.078600 1436.000000
183.115200 2980.000000
184.084200 696.000000
184.121000 936.000000
185.095500 1120.000000
185.131600 700.000000
186.101500 824.000000
187.110900 1672.000000
188.115300 748.000000
189.068000 2044.000000
190.075700 1708.000000
191.084600 4432.000000
192.091700 2496.000000
193.099500 3260.000000
194.072300 1172.000000
194.105300 1340.000000
195.079100 1624.000000
195.115100 1836.000000
196.084800 392.000000
196.120900 580.000000
197.095400 788.000000
197.130800 960.000000
198.102400 412.000000
199.109800 1460.000000
200.118900 380.000000
201.126300 6528.000000
202.076000 2200.000000
202.129900 1392.000000
203.085400 2916.000000
204.089900 1324.000000
205.099500 2600.000000
206.107100 1192.000000
207.078100 844.000000
207.114900 1624.000000
208.085200 812.000000
208.121000 548.000000
209.094800 948.000000
209.130500 632.000000
210.102700 440.000000
211.110300 580.000000
211.146700 388.000000
213.127200 484.000000
214.131600 412.000000
215.084100 796.000000
215.141600 456.000000
216.092700 628.000000
217.101200 1656.000000
218.106400 932.000000
219.114400 724.000000
220.086500 340.000000
220.120500 500.000000
221.096700 824.000000
221.131100 412.000000
223.109900 328.000000
227.142500 420.000000
229.098400 472.000000
230.106000 396.000000
231.116000 612.000000
232.124000 344.000000
233.129900 372.000000
235.110000 608.000000
249.127700 312.000000
263.138100 444.000000

>ms2peaks
51.022100 740.000000
53.001800 3444.000000
53.038000 1960.000000
55.017100 6372.000000
55.053600 5712.000000
57.033100 3440.000000
57.068900 588.000000
65.038000 1004.000000
67.053600 15728.000000
68.056800 1176.000000
69.033300 1960.000000
69.069300 4212.000000
71.048400 1740.000000
77.038500 820.000000
79.053900 22840.000000
80.057300 1760.000000
81.033200 45488.000000
81.069600 23684.000000
82.036300 3180.000000
82.073100 1680.000000
83.048900 44536.000000
84.052200 2612.000000
91.054600 20992.000000
92.057700 956.000000
93.070200 18996.000000
94.072700 1824.000000
95.049100 6192.000000
95.085600 13320.000000
96.088900 1068.000000
97.065000 3228.000000
97.101100 1056.000000
103.055200 1232.000000
105.034300 4988.000000
105.070700 13144.000000
106.036600 588.000000
106.074800 1224.000000
107.050400 15216.000000
107.086400 8596.000000
108.053900 1892.000000
108.090300 908.000000
109.066100 56388.000000
109.102000 3916.000000
110.068800 3948.000000
111.081200 1052.000000
115.054400 4620.000000
116.061800 1276.000000
117.070000 11924.000000
118.073400 980.000000
119.049600 1640.000000
119.085400 18992.000000
120.089500 2220.000000
121.064300 7600.000000
121.101000 7012.000000
122.069300 644.000000
122.104400 972.000000
123.080400 6692.000000
123.116100 1804.000000
124.083200 640.000000
128.061200 5652.000000
129.069300 17936.000000
130.075300 3300.000000
131.048700 1952.000000
131.084800 21224.000000
132.087800 1920.000000
133.064300 16420.000000
133.100400 12476.000000
134.069400 2092.000000
134.102400 1520.000000
135.079500 19368.000000
135.116000 2848.000000
136.083300 1680.000000
137.095300 3080.000000
141.068800 9104.000000
142.076500 4656.000000
143.084400 18660.000000
144.055700 936.000000
144.089600 3152.000000
145.063500 6416.000000
145.100300 22524.000000
146.069900 2472.000000
146.103700 3136.000000
147.079300 19440.000000
147.116000 8564.000000
148.084200 2644.000000
148.119000 736.000000
149.095000 18496.000000
149.130600 2452.000000
150.098600 1996.000000
151.111200 972.000000
152.060700 1156.000000
153.068700 3644.000000
154.076000 3268.000000
155.084400 13984.000000
156.091200 3128.000000
157.063000 3816.000000
157.100300 18060.000000
158.069900 1324.000000
158.104900 2600.000000
159.079600 18200.000000
159.115700 10540.000000
160.084000 2876.000000
160.121200 1464.000000
161.094800 15040.000000
161.131300 9672.000000
162.098700 2288.000000
162.135100 1652.000000
163.110700 12324.000000
164.114000 1624.000000
165.069200 3824.000000
166.076300 2792.000000
167.084600 8392.000000
168.091500 5372.000000
169.065000 684.000000
169.100100 12816.000000
170.104700 2480.000000
171.078600 3036.000000
171.116000 17992.000000
172.086600 3252.000000
172.120400 2260.000000
173.094900 10184.000000
173.131900 12032.000000
174.100200 2440.000000
174.134700 2612.000000
175.111100 15864.000000
175.146800 5176.000000
176.115000 2180.000000
176.150700 628.000000
177.127000 1604.000000
178.076600 1240.000000
179.084400 4420.000000
180.091100 2136.000000
181.100400 13988.000000
182.073500 724.000000
182.105500 3600.000000
183.079000 3532.000000
183.116100 18992.000000
184.086900 1244.000000
184.119800 4536.000000
185.095200 6076.000000
185.131400 12196.000000
186.102100 2024.000000
186.135400 1592.000000
187.111000 5868.000000
187.146800 3532.000000
188.117800 1448.000000
188.151900 720.000000
189.090200 768.000000
189.126500 6352.000000
189.163100 1804.000000
190.077700 616.000000
190.129900 1072.000000
191.085000 1976.000000
191.108900 584.000000
191.142200 656.000000
192.091800 1644.000000
193.100400 4880.000000
194.107000 3112.000000
195.079400 1980.000000
195.116600 10980.000000
196.086800 764.000000
196.120900 2352.000000
197.095200 3388.000000
197.132000 8836.000000
198.099700 1040.000000
198.136900 1436.000000
199.110700 6472.000000
199.147000 4768.000000
200.117100 1728.000000
200.150200 940.000000
201.126700 28516.000000
201.162800 6340.000000
202.131400 4508.000000
202.167300 1236.000000
203.086200 940.000000
203.142500 4852.000000
204.093300 1396.000000
204.145900 864.000000
205.100300 3896.000000
206.106400 2468.000000
207.115200 4408.000000
208.087900 656.000000
208.122400 2184.000000
209.095100 2980.000000
209.131100 6548.000000
210.101300 820.000000
210.135900 1448.000000
211.110900 3332.000000
211.147700 3996.000000
212.117200 1144.000000
212.152400 1604.000000
213.126800 4064.000000
213.163200 13176.000000
214.132800 1480.000000
214.166600 1976.000000
215.105000 652.000000
215.142500 5848.000000
215.177100 752.000000
216.147500 840.000000
217.098600 908.000000
217.157800 3300.000000
218.108600 1228.000000
218.163500 580.000000
219.115500 4264.000000
219.173500 5636.000000
220.122800 1752.000000
220.177100 1144.000000
221.131400 4144.000000
222.139000 1500.000000
223.110400 4712.000000
223.147700 7836.000000
224.116700 1676.000000
224.152900 1524.000000
225.127000 2796.000000
225.163000 7556.000000
226.132900 1108.000000
226.167600 1644.000000
227.109900 852.000000
227.143100 3136.000000
228.147800 1620.000000
229.157500 3672.000000
230.165800 6804.000000
231.116300 1148.000000
231.173500 15640.000000
232.120100 924.000000
232.177500 2400.000000
233.131700 3588.000000
234.139700 1612.000000
235.110500 612.000000
235.147200 6640.000000
236.118300 1416.000000
236.153400 2052.000000
237.126600 4016.000000
237.163600 2412.000000
238.132300 1856.000000
238.171400 876.000000
239.142600 2096.000000
239.178800 1992.000000
240.149100 1020.000000
240.185100 940.000000
241.122000 1680.000000
241.158100 4056.000000
242.128200 584.000000
242.161700 1000.000000
243.174100 14492.000000
244.177400 2328.000000
245.133300 912.000000
246.140300 2184.000000
247.146700 2668.000000
249.127000 1048.000000
249.163900 3584.000000
250.133800 996.000000
250.169100 1100.000000
251.142900 2996.000000
251.179700 3844.000000
252.148500 968.000000
252.182700 712.000000
253.157600 4760.000000
254.162400 1040.000000
255.137200 1028.000000
255.171600 1108.000000
256.179500 592.000000
257.190900 680.000000
264.150000 2328.000000
265.159100 4492.000000
265.194800 2672.000000
266.159800 932.000000
266.197000 860.000000
267.174000 1088.000000
268.177800 700.000000
269.153900 660.000000
269.189400 1124.000000
275.179200 4316.000000
276.183000 984.000000
278.168700 704.000000
282.161500 828.000000
283.167600 1168.000000
283.204000 1200.000000
293.189800 16612.000000
294.193200 3588.000000
311.201000 115244.000000
312.204500 27280.000000
313.205600 2908.000000

