>compound AU74509021
>parentmass 285.0789
>ionization [M+H]+
>formula C16H13ClN2O
>rt 561.920000
>profile qtof
#smiles_iso CN1C(=O)CN=C(C2=C1C=CC(=C2)Cl)C3=CC=CC=C3
#smiles_can CN1C(=O)CN=C(C2=C1C=CC(=C2)Cl)C3=CC=CC=C3
#inchikey AAOVKJBEBIDNHE-UHFFFAOYSA-N
#pubchem_id 3016
#mb_accession AU160801,AU160802,AU160803,AU160804,AU160805,AU160806

>ms2
285.079400 2479088.000000
287.076200 1330056.000000

>ms2
154.040700 54672.000000
156.037700 15900.000000
182.035800 22232.000000
193.087700 26692.000000
222.114500 42788.000000
228.056900 38476.000000
257.083800 107812.000000
258.087000 15132.000000
259.080600 27248.000000
285.079300 2522668.000000
286.081900 410492.000000
287.076300 647056.000000
288.079200 49072.000000

>ms2
117.056600 7556.000000
118.064400 5648.000000
125.014400 5900.000000
140.024800 4220.000000
141.032700 6448.000000
143.059500 5580.000000
147.067000 13128.000000
150.009500 5236.000000
152.024600 5540.000000
154.040800 333924.000000
155.043900 20004.000000
156.037700 72668.000000
167.012100 21508.000000
169.009000 5400.000000
172.062000 39796.000000
179.036200 28916.000000
180.019900 26840.000000
181.032400 9556.000000
182.016800 6440.000000
182.035800 46216.000000
183.039000 4080.000000
184.032500 10980.000000
192.079900 6464.000000
193.087900 315500.000000
194.091700 36164.000000
204.080100 8356.000000
205.087200 7548.000000
206.083300 6620.000000
207.030800 5604.000000
207.090400 7244.000000
216.056700 14908.000000
220.098900 4528.000000
221.083000 4316.000000
221.106000 25328.000000
222.114600 258712.000000
226.040400 6940.000000
227.048600 18392.000000
228.056900 180412.000000
229.059700 24616.000000
230.053700 41156.000000
240.056900 6796.000000
241.052300 41484.000000
242.058800 17264.000000
243.048800 10184.000000
243.065700 5876.000000
255.067700 30268.000000
256.073500 7840.000000
257.083700 231628.000000
258.086400 30208.000000
259.080300 47624.000000
260.084200 4304.000000
285.079300 788900.000000
286.081900 113612.000000
287.076300 161448.000000
288.079200 14700.000000

>ms2
116.049200 10408.000000
117.056800 25204.000000
118.064400 20396.000000
119.072300 10612.000000
125.014500 29160.000000
126.020200 4960.000000
127.011900 7000.000000
131.060200 4492.000000
138.010000 9536.000000
139.017200 8436.000000
140.025200 8028.000000
141.032700 7488.000000
143.059600 29720.000000
144.067200 14476.000000
145.074600 4700.000000
147.067200 15664.000000
150.009700 13648.000000
151.016300 4848.000000
152.006900 3568.000000
152.024800 10452.000000
154.041300 303908.000000
155.044300 18428.000000
156.038000 60812.000000
157.040500 4272.000000
163.005100 3652.000000
165.020600 6276.000000
165.069100 20060.000000
166.075600 7684.000000
167.012800 21160.000000
169.009100 4872.000000
172.062400 45080.000000
177.020400 9472.000000
179.036500 40452.000000
180.020400 20488.000000
180.040700 4576.000000
180.080000 14936.000000
181.033000 8376.000000
181.086900 6780.000000
182.017300 4684.000000
182.036400 9604.000000
191.072100 15092.000000
192.080100 22288.000000
193.088400 630612.000000
194.092700 73328.000000
195.099100 6804.000000
199.030400 3824.000000
204.080200 24028.000000
205.086100 12368.000000
206.083700 38812.000000
207.091100 42284.000000
208.096600 8348.000000
214.041600 4088.000000
216.057100 19332.000000
217.060400 3764.000000
218.054400 4224.000000
220.098900 6032.000000
221.083300 10804.000000
221.107300 44960.000000
222.115000 253788.000000
226.041700 7468.000000
227.049100 36360.000000
228.057100 89096.000000
229.047400 9768.000000
229.058200 12384.000000
230.053900 21208.000000
230.072100 8828.000000
239.036800 3168.000000
240.056400 7244.000000
241.052700 106212.000000
242.057800 27460.000000
243.049700 25300.000000
244.055900 5368.000000
255.068200 37380.000000
256.072800 7512.000000
257.065300 9076.000000
257.083800 39060.000000
258.086700 5972.000000
259.080900 9072.000000
269.047600 6180.000000

>ms2
116.048800 11796.000000
117.056800 33460.000000
118.064400 33040.000000
119.071900 15984.000000
122.998600 5672.000000
124.006100 2384.000000
125.014600 47340.000000
126.020300 6420.000000
127.011800 12468.000000
131.059600 4136.000000
137.001600 2832.000000
138.009700 19148.000000
139.017100 10356.000000
140.024800 10964.000000
141.014300 3080.000000
141.032900 3772.000000
142.022100 2548.000000
142.051600 2792.000000
143.059500 68040.000000
144.066500 20232.000000
145.074100 5556.000000
146.058900 2636.000000
147.066900 9164.000000
150.009300 18008.000000
151.016400 6676.000000
151.053500 2320.000000
152.006700 5100.000000
152.024900 7540.000000
152.060800 9068.000000
153.014800 2308.000000
153.032700 5636.000000
153.068600 4712.000000
154.040900 120076.000000
155.044000 9180.000000
156.037800 27712.000000
157.039700 4720.000000
162.009700 3136.000000
163.004800 20256.000000
163.053200 2700.000000
164.002200 4700.000000
164.060600 6564.000000
165.020400 7764.000000
165.068900 80868.000000
166.075000 18636.000000
167.013200 7620.000000
167.074900 4252.000000
168.019800 3344.000000
169.063600 2300.000000
172.062200 14112.000000
177.020600 17116.000000
177.057200 2940.000000
177.068400 4296.000000
178.024500 2208.000000
178.065000 5500.000000
178.075400 5012.000000
179.017100 4048.000000
179.036400 21844.000000
179.071600 10972.000000
180.020100 6656.000000
180.041800 2480.000000
180.079800 42900.000000
181.016100 3064.000000
181.085200 8492.000000
182.017400 2196.000000
190.063800 10432.000000
191.072000 20300.000000
192.079900 67740.000000
193.088100 429416.000000
194.093000 71816.000000
195.098300 7028.000000
199.030100 6720.000000
201.029700 2696.000000
203.072100 2156.000000
204.080000 45920.000000
205.076900 18532.000000
206.083600 109068.000000
207.090600 67360.000000
208.095200 9816.000000
213.033100 3500.000000
214.040400 9032.000000
216.039200 2324.000000
216.056500 6196.000000
218.054200 2420.000000
219.091500 5008.000000
220.098900 6584.000000
221.082900 7728.000000
221.106800 40340.000000
222.114700 68620.000000
226.041300 5356.000000
227.049000 26004.000000
228.055600 19060.000000
229.045700 6612.000000
230.053700 4800.000000
234.078200 3628.000000
239.036700 8604.000000
240.043800 9656.000000
241.052500 119516.000000
242.056500 22620.000000
243.049100 28708.000000
244.054300 4256.000000
255.067600 12600.000000
256.072900 2976.000000
257.065400 3884.000000
257.080600 2692.000000
269.047200 4332.000000

>ms2
58.028400 6424.000000
91.054500 71180.000000
104.049500 7112.000000
105.034000 55436.000000
116.049300 12912.000000
117.057200 16116.000000
118.064900 11088.000000
119.072600 5540.000000
125.015200 8344.000000
141.034200 7960.000000
143.060000 6656.000000
144.067400 5600.000000
147.067700 14884.000000
150.010000 6464.000000
152.025300 5900.000000
154.041800 303312.000000
155.044800 23188.000000
156.038800 71496.000000
167.012800 19536.000000
169.009600 5780.000000
172.062800 34700.000000
179.036800 25984.000000
180.020700 23676.000000
181.033000 6828.000000
182.018000 6808.000000
182.036500 37900.000000
184.033200 10600.000000
192.079600 5868.000000
193.088300 283248.000000
194.092400 35312.000000
204.080900 7600.000000
205.088000 6196.000000
206.083700 5976.000000
207.091500 6744.000000
216.057000 14500.000000
221.107200 22900.000000
222.115200 254996.000000
223.118500 29220.000000
226.041900 5276.000000
227.049600 17284.000000
228.057500 157244.000000
229.060200 20884.000000
230.054800 38380.000000
240.056900 6648.000000
241.052900 39248.000000
242.058600 15252.000000
243.049900 10452.000000
255.068500 29824.000000
256.074100 7964.000000
257.084400 248772.000000
258.087200 37704.000000
259.081500 59744.000000
285.079700 1036528.000000
287.076800 452796.000000

