>compound AU74700709
>parentmass 291.2319
>ionization [M+H]+
>formula C19H30O2
>rt 645.110000
>profile qtof
#smiles_iso C[C@]12CCC(=O)C[C@@H]1CC[C@@H]3[C@@H]2CC[C@]4([C@H]3CC[C@@H]4O)C
#smiles_can CC12CCC(=O)CC1CCC3C2CCC4(C3CCC4O)C
#inchikey NVKAWKQGWWIWPM-ABEVXSGRSA-N
#pubchem_id 10635
#mb_accession AU280501,AU280502,AU280503,AU280504,AU280505,AU280506

>ms2
159.117000 452.000000
203.105100 1160.000000
215.179400 304.000000
255.211000 3044.000000
256.213200 812.000000
273.220700 1700.000000
275.110400 492.000000
289.217500 2064.000000
290.219300 416.000000
291.231600 19424.000000
292.234200 5044.000000
293.237900 544.000000

>ms2
131.085100 388.000000
133.099200 752.000000
135.115600 536.000000
145.099700 820.000000
147.116300 892.000000
159.116100 1608.000000
161.095000 1896.000000
161.132000 996.000000
173.130300 1052.000000
175.110500 796.000000
175.146900 444.000000
177.126700 444.000000
179.106900 668.000000
185.132200 484.000000
187.149500 496.000000
189.164800 384.000000
191.140700 328.000000
199.148500 1136.000000
200.152200 336.000000
201.163300 1464.000000
203.106400 2640.000000
203.176700 428.000000
213.161500 700.000000
215.178600 1972.000000
216.183300 544.000000
229.194200 360.000000
255.210400 8856.000000
256.213600 2116.000000
273.221100 2688.000000
274.223000 540.000000
289.218600 644.000000
291.232200 4760.000000
292.236900 1264.000000

>ms2
119.085300 664.000000
121.102500 488.000000
129.068500 412.000000
131.084500 976.000000
133.100300 1420.000000
135.116200 612.000000
143.085700 580.000000
145.100200 1336.000000
147.115500 1180.000000
157.098600 500.000000
159.115700 2480.000000
160.118900 376.000000
161.094700 2968.000000
161.131300 1416.000000
171.115200 504.000000
173.131300 1584.000000
174.134600 336.000000
175.110900 800.000000
175.145500 512.000000
177.126200 300.000000
179.105400 1648.000000
185.131600 580.000000
186.141800 408.000000
187.149700 424.000000
189.163800 508.000000
199.146800 1348.000000
200.155000 364.000000
201.162900 648.000000
203.104700 932.000000
213.162800 728.000000
215.178800 1996.000000
216.181300 476.000000
255.209500 2420.000000

>ms2
117.067300 432.000000
119.086100 644.000000
121.100600 380.000000
131.084400 796.000000
133.100000 1328.000000
135.115000 456.000000
137.059300 484.000000
143.084400 820.000000
145.099500 1336.000000
147.115200 888.000000
157.099500 696.000000
159.115300 1300.000000
161.094900 2448.000000
161.130100 600.000000
171.114400 640.000000
173.130500 984.000000
175.110200 420.000000
175.147500 312.000000
179.105000 1084.000000
185.129300 440.000000
187.149400 308.000000
200.153300 304.000000
201.163000 304.000000
213.166200 304.000000
215.177700 360.000000

>ms2
117.069700 492.000000
119.085300 784.000000
128.060700 596.000000
129.069200 508.000000
131.084800 752.000000
133.099400 808.000000
137.059500 348.000000
141.067300 444.000000
142.076300 412.000000
143.085100 896.000000
145.099500 952.000000
146.071900 412.000000
159.115500 364.000000
161.093900 960.000000
171.116800 332.000000
173.132400 308.000000

>ms2
57.069300 516.000000
119.085300 528.000000
121.100200 332.000000
131.084600 508.000000
133.100100 648.000000
135.116100 612.000000
143.084100 380.000000
145.099200 1268.000000
147.115900 1316.000000
159.114800 2332.000000
161.094500 3556.000000
161.130300 1080.000000
171.115700 384.000000
173.131800 944.000000
175.110000 616.000000
175.146000 344.000000
177.124500 412.000000
179.107500 880.000000
185.129800 1024.000000
189.161600 348.000000
199.145900 1180.000000
200.152200 308.000000
201.163700 980.000000
203.105900 2180.000000
203.180200 348.000000
213.163600 560.000000
215.177900 1628.000000
229.191100 392.000000
255.209700 3600.000000
256.211600 840.000000
271.168300 340.000000
273.222100 1092.000000
291.231700 1204.000000
292.233000 332.000000

