>compound AU74926327
>parentmass 222.0316
>ionization [M+H]+
>formula C11H8ClNO2
>rt 293.320000
>profile qtof
#smiles_iso CC1=CC2=C(C(=C(C=C2)Cl)C(=O)O)N=C1
#smiles_can CC1=CC2=C(C(=C(C=C2)Cl)C(=O)O)N=C1
#inchikey ALZOLUNSQWINIR-UHFFFAOYSA-N
#pubchem_id 91749
#mb_accession AU255201,AU255202,AU255203,AU255204,AU255205,AU255206

>ms2
204.020400 465908.000000
205.023300 49912.000000
206.017300 105732.000000
207.020600 7680.000000
222.031200 402996.000000
223.034200 43292.000000
224.028200 127172.000000

>ms2
140.048500 5712.000000
141.056100 10348.000000
149.014200 5116.000000
176.025700 10980.000000
194.035900 6448.000000
204.020700 794000.000000
205.023700 75672.000000
206.017700 170504.000000
207.020600 11760.000000
222.031300 90188.000000
223.034800 11568.000000
224.028100 27696.000000

>ms2
140.048300 77324.000000
141.056100 118272.000000
142.059300 13092.000000
149.013900 75664.000000
150.017100 7172.000000
151.010900 19228.000000
176.025000 118816.000000
177.027800 11508.000000
178.021700 31404.000000
194.035700 44288.000000
195.038800 5456.000000
196.033000 12676.000000
204.020300 515292.000000
205.023100 54404.000000
206.017200 125272.000000
207.021100 9308.000000
222.030700 64116.000000
223.033200 6900.000000
224.027800 18352.000000

>ms2
113.037700 4364.000000
114.045700 8224.000000
140.048500 195792.000000
141.056100 258644.000000
142.059300 25824.000000
149.014100 170516.000000
150.017100 15084.000000
151.011000 46860.000000
152.014300 2728.000000
174.009700 1552.000000
175.016400 3176.000000
176.025000 62504.000000
177.027400 5976.000000
178.021700 17476.000000
194.035700 16808.000000
195.039200 2052.000000
196.032200 5880.000000
204.020300 57364.000000
205.023000 7448.000000
206.016800 18632.000000
207.019900 1596.000000
222.030700 9560.000000
224.028100 3476.000000

>ms2
113.037900 11244.000000
114.045600 22616.000000
115.049700 3004.000000
122.998400 3788.000000
140.048400 262056.000000
141.055900 168268.000000
142.059400 19536.000000
149.014100 133576.000000
150.016300 12496.000000
151.011000 40220.000000
152.013400 2252.000000
161.001100 2512.000000
174.009900 1944.000000
175.016500 3404.000000
176.024800 8972.000000
177.028100 1436.000000
178.021600 3472.000000
194.036000 1804.000000
204.020100 4200.000000
206.016400 2276.000000

>ms2
140.049200 13512.000000
141.056900 26948.000000
142.059500 2764.000000
149.015100 13240.000000
151.011700 4080.000000
176.026100 29768.000000
177.029400 2956.000000
178.023400 7380.000000
194.036500 20332.000000
196.034200 6688.000000
204.021200 362852.000000
205.024400 39344.000000
206.018400 102364.000000
207.021100 6284.000000
222.031700 154696.000000
223.034900 27460.000000
224.029100 64384.000000

