>compound AU75576038
>parentmass 388.1586
>ionization [M+H]+
>formula C21H23ClFN3O
>rt 412.056000
>profile qtof
#smiles_iso CCN(CC)CCN1C(=O)CN=C(C2=C1C=CC(=C2)Cl)C3=CC=CC=C3F
#smiles_can CCN(CC)CCN1C(=O)CN=C(C2=C1C=CC(=C2)Cl)C3=CC=CC=C3F
#inchikey SAADBVWGJQAEFS-UHFFFAOYSA-N
#pubchem_id 3393
#mb_accession AU163101,AU163102,AU163103,AU163104,AU163105

>ms2
315.070400 18164.000000
317.085000 6596.000000
388.161200 1163104.000000
389.164000 214452.000000
390.158400 268084.000000

>ms2
143.118300 6460.000000
288.060400 18164.000000
289.064700 3664.000000
290.057200 4336.000000
315.071700 549792.000000
316.074400 79156.000000
317.070000 97064.000000
317.084600 128528.000000
318.089100 26340.000000
319.084100 36048.000000
320.088200 3032.000000
388.161500 491200.000000
389.164400 106692.000000
390.158800 120016.000000

>ms2
143.117900 5684.000000
260.065300 11972.000000
272.028800 7272.000000
287.052500 10092.000000
287.075700 6892.000000
288.060600 90164.000000
290.057500 23372.000000
315.072000 1100292.000000
316.074900 162020.000000
317.069900 218832.000000
318.072900 20404.000000
318.087500 17036.000000
319.084400 22880.000000
388.161300 17532.000000
390.158400 5664.000000

>ms2
130.065400 6924.000000
131.073300 10952.000000
134.040700 10168.000000
166.042300 10924.000000
191.038300 6880.000000
209.064600 4516.000000
224.087800 6088.000000
225.096000 34168.000000
226.099600 6156.000000
236.076300 10280.000000
244.033800 32444.000000
245.040500 13260.000000
246.031000 7972.000000
253.091200 20592.000000
258.049300 11420.000000
259.055800 13212.000000
260.064900 46168.000000
262.062900 10700.000000
271.045100 32084.000000
272.029000 33960.000000
273.039100 11192.000000
273.058300 5616.000000
274.026600 9148.000000
280.102400 4980.000000
285.061000 12204.000000
287.052500 64168.000000
287.075800 21960.000000
288.059900 60640.000000
289.055400 26648.000000
290.058100 17092.000000
291.055900 5232.000000
295.064800 5304.000000
315.072000 789372.000000
316.075100 110588.000000
317.069400 165640.000000
318.071600 14680.000000

>ms2
109.046200 1996.000000
117.059100 992.000000
122.040700 1856.000000
123.000300 748.000000
123.024600 3372.000000
125.015900 10752.000000
127.013700 2756.000000
130.066000 24872.000000
131.073600 26520.000000
132.077000 2408.000000
133.045600 1396.000000
134.040800 52480.000000
135.045900 5952.000000
138.011400 2952.000000
140.008100 784.000000
143.118000 960.000000
144.045700 2244.000000
149.022800 1012.000000
150.011300 11912.000000
150.034900 736.000000
150.072500 896.000000
151.018400 3500.000000
152.008800 3396.000000
152.026900 2700.000000
153.019500 1556.000000
155.061300 784.000000
156.068100 792.000000
159.069600 1492.000000
162.035700 13376.000000
163.006600 1772.000000
163.038100 1412.000000
164.027000 8600.000000
166.005800 2124.000000
166.024100 2484.000000
166.043100 12476.000000
168.022400 1476.000000
168.040100 3452.000000
177.023600 1184.000000
177.059300 828.000000
178.007700 760.000000
178.029400 804.000000
179.037800 1308.000000
180.023100 1132.000000
181.018900 876.000000
182.053200 892.000000
183.062200 11128.000000
184.069100 15388.000000
185.072000 2308.000000
189.023100 5164.000000
191.019300 1436.000000
191.038200 6116.000000
193.033200 2812.000000
194.037900 2156.000000
196.034000 724.000000
196.067700 1012.000000
199.032200 828.000000
204.082500 1460.000000
205.090200 804.000000
206.096900 804.000000
208.057300 2048.000000
209.065300 21224.000000
210.069900 3516.000000
211.080600 9096.000000
212.083800 1360.000000
214.043400 1212.000000
216.070300 6420.000000
217.022900 12064.000000
217.073300 768.000000
217.088800 1668.000000
219.020200 2828.000000
222.073300 5156.000000
223.080300 9312.000000
224.052500 1636.000000
224.088600 28604.000000
225.096300 74064.000000
226.100000 10016.000000
231.026700 1468.000000
232.032400 1304.000000
232.101100 1368.000000
235.069100 5560.000000
236.076200 34644.000000
237.080700 6404.000000
238.070100 852.000000
238.099000 1184.000000
239.038600 1312.000000
240.059800 1980.000000
244.034200 47804.000000
245.040900 25572.000000
246.031800 14368.000000
247.038400 5948.000000
248.043500 1232.000000
251.038900 3404.000000
251.100700 6092.000000
252.044400 2016.000000
252.083500 11924.000000
252.106500 3324.000000
253.036700 1100.000000
253.055000 1356.000000
253.091100 21776.000000
254.094100 3420.000000
257.032800 1936.000000
258.050100 31040.000000
259.056300 42740.000000
260.064600 31272.000000
260.096700 2444.000000
261.019300 784.000000
261.054200 9268.000000
261.101900 1304.000000
262.062600 7840.000000
263.066200 720.000000
265.078100 1012.000000
267.035200 1572.000000
267.070200 3872.000000
269.067900 1452.000000
270.038100 5016.000000
271.045400 43304.000000
272.029600 25528.000000
273.041400 13128.000000
273.056200 8908.000000
274.026400 7696.000000
274.047000 2784.000000
274.061000 3164.000000
275.031000 1084.000000
279.095200 2364.000000
280.103100 3804.000000
281.105700 752.000000
285.060600 20988.000000
286.064500 4476.000000
287.053300 54908.000000
287.076000 13052.000000
288.058100 17496.000000
289.053400 22772.000000
290.058000 4840.000000
291.053100 2840.000000
295.065600 4512.000000
296.069100 1408.000000
315.072300 140660.000000
316.075500 28104.000000
317.069500 40028.000000
318.073100 4184.000000

