>compound AU75826125
>parentmass 416.08949999999993
>ionization [M+H]+
>formula C21H18ClNO6
>rt 592.644000
>profile qtof
#smiles_iso CC1=C(C2=C(N1C(=O)C3=CC=C(C=C3)Cl)C=CC(=C2)OC)CC(=O)OCC(=O)O
#smiles_can CC1=C(C2=C(N1C(=O)C3=CC=C(C=C3)Cl)C=CC(=C2)OC)CC(=O)OCC(=O)O
#inchikey FSQKKOOTNAMONP-UHFFFAOYSA-N
#pubchem_id 1981
#mb_accession AU215101,AU215102,AU215103,AU215104,AU215105

>ms2
138.995000 1748.000000
140.992800 420.000000
174.092200 436.000000
260.093600 1468.000000
312.081000 544.000000
314.080000 328.000000
416.093000 6712.000000
417.095600 2324.000000
418.089400 2592.000000

>ms2
138.994800 12224.000000
139.998000 1252.000000
140.992500 3928.000000
158.118700 368.000000
174.091700 1940.000000
175.096500 304.000000
260.093800 612.000000
312.080100 1132.000000
314.077000 336.000000
416.092200 764.000000

>ms2
138.994600 12708.000000
139.998100 1032.000000
140.992800 3136.000000
141.995200 520.000000
174.092700 1164.000000

>ms2
138.995200 10800.000000
139.999200 896.000000
140.992100 3300.000000
174.091800 848.000000

>ms2
111.000100 496.000000
138.994900 7504.000000
139.998600 760.000000
140.992700 3392.000000
174.094100 452.000000

