>compound AU75344216
>parentmass 264.1758
>ionization [M+H]+
>formula C16H22FNO
>rt 306.280000
>profile qtof
#smiles_iso CC1CCN(CC1)CCCC(=O)C2=CC=C(C=C2)F
#smiles_can CC1CCN(CC1)CCCC(=O)C2=CC=C(C=C2)F
#inchikey DKMFBWQBDIGMHM-UHFFFAOYSA-N
#pubchem_id 15387
#mb_accession AU251301,AU251302,AU251303,AU251304,AU251305,AU251306

>ms2peaks
123.023100 18344.000000
165.070000 405044.000000
166.073300 31728.000000
264.176800 2516816.000000

>ms2peaks
123.023100 629784.000000
124.026200 33980.000000
165.070600 2514928.000000
166.073000 473668.000000
167.075500 22852.000000
264.175600 2407648.000000
265.178400 473240.000000
266.181100 29032.000000

>ms2peaks
123.023900 2507692.000000
124.026600 232412.000000
165.070700 2501664.000000
166.073300 398312.000000
167.076000 19716.000000
246.164600 17572.000000
264.175400 71056.000000

>ms2peaks
123.024200 2466852.000000
124.026800 210724.000000
165.070200 825280.000000
166.073500 63244.000000

>ms2peaks
123.023700 2347848.000000
124.026600 148976.000000
165.069700 81036.000000

>ms2peaks
100.112400 93608.000000
123.024500 1579200.000000
124.027500 140804.000000
165.072100 1675272.000000
166.073700 262756.000000
167.076500 14480.000000
246.164700 11020.000000
264.176400 737408.000000
265.179200 154628.000000
266.181800 10536.000000

