>compound AU75624557
>parentmass 343.0399
>ionization [M+H]+
>formula C18H12Cl2N2O
>rt 567.190000
>profile qtof
#smiles_iso C1=CC=C(C(=C1)C2=CC=C(C=C2)Cl)NC(=O)C3=C(N=CC=C3)Cl
#smiles_can C1=CC=C(C(=C1)C2=CC=C(C=C2)Cl)NC(=O)C3=C(N=CC=C3)Cl
#inchikey WYEMLYFITZORAB-UHFFFAOYSA-N
#pubchem_id 213013
#mb_accession AU232601,AU232602,AU232603,AU232604,AU232605,AU232606

>ms2peaks
139.988700 15264.000000
141.985500 2696.000000
250.998300 4156.000000
307.062700 18380.000000
308.066300 3108.000000
309.058900 4388.000000
327.007300 12304.000000
329.004100 6824.000000
343.040000 429684.000000
344.043200 66920.000000
345.036700 217680.000000

>ms2peaks
139.988600 91588.000000
140.991800 7716.000000
141.985500 21040.000000
174.990900 10260.000000
250.999800 4868.000000
252.995300 1916.000000
271.086300 4320.000000
272.093200 5176.000000
307.063200 291880.000000
308.066100 42548.000000
309.060300 58900.000000
343.040000 159504.000000
344.042300 29112.000000
345.036400 94480.000000

>ms2peaks
139.988500 73828.000000
140.991300 4180.000000
141.985400 14732.000000
174.991200 2648.000000
243.091400 1992.000000
254.082200 1600.000000
271.086200 50176.000000
272.093200 58764.000000
273.096600 9624.000000
289.052300 9008.000000
290.054800 2200.000000
291.049000 2548.000000
307.063500 277392.000000
308.066300 46396.000000
309.060500 60984.000000
343.039800 7276.000000
344.043000 1784.000000
345.037100 5872.000000

>ms2peaks
111.994200 3336.000000
130.003900 1352.000000
139.988400 51640.000000
140.991500 2492.000000
141.985600 9832.000000
152.060700 2560.000000
167.058300 1580.000000
177.055400 1400.000000
195.053700 1764.000000
196.062100 1208.000000
202.076100 992.000000
214.041600 888.000000
216.079300 1396.000000
217.087900 1724.000000
227.071900 1712.000000
228.078700 2736.000000
229.086800 2544.000000
230.035100 2088.000000
238.042400 1312.000000
242.082700 4000.000000
243.090100 18056.000000
244.075200 1024.000000
244.097500 9508.000000
245.079400 1020.000000
245.100000 1304.000000
253.074500 7564.000000
254.082400 16480.000000
255.087300 2700.000000
262.042000 884.000000
264.055500 2184.000000
266.051600 1060.000000
270.078200 4316.000000
271.085900 133480.000000
272.093100 171424.000000
273.096500 25140.000000
274.098000 1672.000000
279.066400 2120.000000
280.053300 864.000000
289.052100 24380.000000
290.054100 5148.000000
291.048100 6628.000000
292.048800 1416.000000
305.048100 1640.000000
306.053800 1652.000000
307.062800 93860.000000
308.065800 16952.000000
309.060500 22808.000000

>ms2peaks
111.994900 2892.000000
113.991700 1420.000000
114.008300 1128.000000
130.004700 1384.000000
132.000600 784.000000
139.988700 21180.000000
140.049000 1716.000000
140.991600 1204.000000
141.985900 3836.000000
152.060700 7432.000000
153.064100 756.000000
166.052900 792.000000
167.060100 2416.000000
168.065000 944.000000
177.055800 4168.000000
178.059500 724.000000
189.067600 1480.000000
190.064300 840.000000
195.053300 1360.000000
196.062500 2228.000000
202.075900 2840.000000
203.072500 1648.000000
204.079700 2372.000000
214.066100 668.000000
215.072400 1616.000000
216.079800 5104.000000
217.087100 5728.000000
218.086700 1576.000000
226.064600 2516.000000
227.072000 8340.000000
228.079200 8440.000000
229.086700 5820.000000
230.036000 1680.000000
230.091000 1116.000000
238.039900 2128.000000
240.055000 952.000000
241.074800 952.000000
242.082500 14300.000000
243.090800 34748.000000
244.073900 2400.000000
244.097500 19100.000000
245.081000 2532.000000
245.102000 2900.000000
246.078600 1148.000000
252.065800 2364.000000
253.075700 19572.000000
254.082300 22364.000000
255.086600 4220.000000
257.070300 700.000000
262.040700 2284.000000
263.039000 748.000000
264.056400 2368.000000
265.057900 692.000000
266.052700 772.000000
269.070300 1548.000000
270.078200 8592.000000
271.086200 132552.000000
272.093300 112012.000000
273.096700 16544.000000
274.097200 1288.000000
278.062900 1028.000000
279.066000 1376.000000
289.052300 14108.000000
290.055000 2780.000000
291.049100 3740.000000
292.051200 796.000000
305.046700 2104.000000
306.055700 2072.000000
307.062800 13268.000000
308.065600 2708.000000
309.059500 3388.000000

>ms2peaks
96.044700 2468.000000
98.984700 3984.000000
112.041200 1812.000000
114.010800 1876.000000
139.989100 89508.000000
140.992500 4980.000000
141.986100 24644.000000
174.991800 3752.000000
243.091700 2868.000000
244.098100 1608.000000
254.082800 2508.000000
271.086800 66796.000000
272.093700 72896.000000
273.097200 12400.000000
289.052900 8280.000000
290.055600 2220.000000
291.049600 2116.000000
307.063500 291660.000000
308.067000 57392.000000
309.060800 78944.000000
343.040400 53392.000000
344.042400 14168.000000
345.037200 38296.000000

