>compound AU75928032
>parentmass 137.0709
>ionization [M+H]+
>formula C7H8N2O
>rt 144.036000
>profile qtof
#smiles_iso C1=CC(=CC=C1C(=O)N)N
#smiles_can C1=CC(=CC=C1C(=O)N)N
#inchikey QIKYZXDTTPVVAC-UHFFFAOYSA-N
#pubchem_id 76079
#mb_accession AU276201,AU276202,AU276203,AU276204,AU276206

>ms2
120.043600 118604.000000
121.046600 11176.000000
122.048300 704.000000
137.069700 128580.000000
138.072900 11284.000000

>ms2
120.043600 72028.000000
121.046600 6600.000000
122.050000 512.000000
137.069300 4344.000000
138.073100 472.000000

>ms2
120.043400 11176.000000
121.045700 1160.000000

>ms2
120.043300 840.000000

>ms2
53.038200 644.000000
65.038100 6248.000000
68.048700 1952.000000
92.049600 5752.000000
93.054700 624.000000
94.065600 13232.000000
95.049800 552.000000
95.067800 728.000000
105.045200 1004.000000
110.061000 2736.000000
119.060400 748.000000
120.044000 94332.000000
121.047600 10264.000000
137.070400 18364.000000
138.073600 1848.000000

