>compound AU76798647
>parentmass 331.1904
>ionization [M+H]+
>formula C20H26O4
>rt 784.100000
>profile qtof
#smiles_iso C1CCC(CC1)OC(=O)C2=CC=CC=C2C(=O)OC3CCCCC3
#smiles_can C1CCC(CC1)OC(=O)C2=CC=CC=C2C(=O)OC3CCCCC3
#inchikey VOWAEIGWURALJQ-UHFFFAOYSA-N
#pubchem_id 6777
#mb_accession AU250601,AU250602,AU250603,AU250604,AU250605,AU250606

>ms2
149.022200 868328.000000
150.025300 53700.000000
167.032800 1301372.000000
168.036100 92428.000000
169.037700 9608.000000
231.101000 212740.000000
232.104000 31916.000000
249.111800 1300400.000000
250.115000 136348.000000
251.117300 14308.000000
331.190500 400492.000000
332.193400 83200.000000
333.196500 9380.000000

>ms2
149.022600 2502740.000000
150.025400 311372.000000
151.027000 24728.000000
167.032700 1469428.000000
168.035800 124240.000000
249.111000 54500.000000

>ms2
121.027800 41660.000000
149.023200 2508128.000000
167.032900 197920.000000
168.035900 18840.000000

>ms2
121.027800 128676.000000
149.023300 2504528.000000
167.032800 63444.000000

>ms2
121.027700 206600.000000
122.031000 15752.000000
149.022600 2269380.000000
150.025600 224956.000000
151.027000 19224.000000
167.032200 13732.000000

>ms2
55.053700 10920.000000
83.085000 38840.000000
121.027600 16988.000000
149.023200 1428172.000000
150.025800 207480.000000
167.033100 260732.000000
168.036300 24316.000000
181.049200 7364.000000
249.111900 7632.000000

