>compound AU76832537
>parentmass 292.0654
>ionization [M+H]+
>formula C16H15Cl2N
>rt 561.600000
>profile qtof
#smiles_iso C1C[C@@H](C2=CC=CC=C2[C@@H]1C3=CC(=C(C=C3)Cl)Cl)N
#smiles_can C1CC(C2=CC=CC=C2C1C3=CC(=C(C=C3)Cl)Cl)N
#inchikey SRPXSILJHWNFMK-ZBEGNZNMSA-N
#pubchem_id 114743
#mb_accession AU156601,AU156602,AU156603,AU156604,AU156605

>ms2peaks
129.069100 1184.000000
158.975500 1016.000000
275.038100 24540.000000
276.041700 3644.000000
277.034900 12176.000000
278.038500 1128.000000

>ms2peaks
128.061000 596.000000
129.069200 4772.000000
130.073200 636.000000
158.975300 21044.000000
159.978600 1256.000000
160.972400 11152.000000
161.976400 464.000000
196.992800 340.000000
275.038100 12048.000000
276.041700 1656.000000
277.034900 5720.000000
278.038500 748.000000

>ms2peaks
122.999000 560.000000
124.005100 316.000000
128.061300 1320.000000
129.068700 5628.000000
130.073000 472.000000
158.975300 27792.000000
159.978600 1984.000000
160.972400 15884.000000
161.976400 776.000000
196.990100 488.000000
240.069800 692.000000
275.038100 564.000000
276.041700 84.000000
277.034900 288.000000

>ms2peaks
122.999200 1616.000000
124.004600 648.000000
127.054200 352.000000
128.060800 2556.000000
129.068600 3908.000000
130.074500 420.000000
132.959300 416.000000
155.059400 604.000000
158.975300 26396.000000
159.978600 2052.000000
160.972400 14496.000000
161.976400 612.000000
205.100700 960.000000
225.046600 500.000000
240.069200 352.000000

>ms2peaks
122.998900 3392.000000
124.005000 1096.000000
125.012700 356.000000
127.053800 420.000000
128.060900 3156.000000
129.068600 2328.000000
132.959700 732.000000
145.063400 624.000000
155.059100 516.000000
158.975300 19500.000000
159.978600 1628.000000
160.972400 10348.000000
161.976400 848.000000
162.023200 508.000000
189.067200 324.000000
190.077200 304.000000
205.099300 524.000000
225.044500 620.000000
227.042000 356.000000

