>compound AU76218327
>parentmass 136.0505
>ionization [M+H]+
>formula C6H5N3O
>rt 216.000000
>profile qtof
#smiles_iso C1=CC=C2C(=C1)N=NN2O
#smiles_can C1=CC=C2C(=C1)N=NN2O
#inchikey ASOKPJOREAFHNY-UHFFFAOYSA-N
#pubchem_id 75771
#mb_accession AU223201,AU223202,AU223203

>ms2
119.047000 1320.000000
121.039600 576.000000
136.049700 84716.000000
137.052900 5208.000000
138.044900 624.000000

>ms2
119.047100 3160.000000
121.039300 596.000000
136.049600 15600.000000
137.052900 1652.000000

>ms2
119.046500 996.000000
136.050200 1028.000000

