>compound AU76775996
>parentmass 333.339
>ionization [M+H]+
>formula C23H42N+
>rt 732.480000
>profile qtof
#smiles_iso CCCCCCCCCCCCCC[N+](C)(C)CC1=CC=CC=C1
#smiles_can CCCCCCCCCCCCCC[N+](C)(C)CC1=CC=CC=C1
#inchikey WNBGYVXHFTYOBY-UHFFFAOYSA-N
#pubchem_id 8756
#mb_accession AU285101,AU285102,AU285103,AU285104,AU285105

>ms2
332.331600 750884.000000
333.335000 174264.000000
334.337900 20000.000000

>ms2
240.267500 88860.000000
241.271300 16172.000000
332.330800 820916.000000
333.333900 181784.000000
334.337100 23312.000000

>ms2
240.268000 198420.000000
241.271200 37212.000000
242.274300 3504.000000
332.331000 105352.000000
333.333500 28720.000000
334.337600 3912.000000

>ms2
149.022600 308.000000
240.268100 25184.000000
241.271300 4724.000000
242.276700 408.000000
332.332200 728.000000

>ms2
240.268000 7856.000000
241.271200 1544.000000

