>compound AU77976092
>parentmass 294.1601
>ionization [M+H]+
>formula C18H19N3O
>rt 294.460000
>profile qtof
#smiles_iso CC1=NC=CN1CC2CCC3=C(C2=O)C4=CC=CC=C4N3C
#smiles_can CC1=NC=CN1CC2CCC3=C(C2=O)C4=CC=CC=C4N3C
#inchikey FELGMEQIXOGIFQ-UHFFFAOYSA-N
#pubchem_id 4595
#mb_accession AU274601,AU274602,AU274603,AU274604,AU274605,AU274606

>ms2
170.094900 19528.000000
184.110700 12848.000000
212.105600 29100.000000
294.160900 2474076.000000
296.166000 55704.000000

>ms2
170.095500 681976.000000
171.098600 73320.000000
184.111300 420036.000000
185.114400 50592.000000
212.106300 848484.000000
213.109600 106392.000000
294.160300 2285980.000000
295.163200 632984.000000
296.166300 40644.000000

>ms2
143.071700 15196.000000
167.071200 25300.000000
168.079000 29028.000000
169.087100 66028.000000
170.095400 2074992.000000
171.066500 30280.000000
171.098600 262128.000000
182.095000 78664.000000
183.099700 12596.000000
184.111000 1484412.000000
185.114300 190432.000000
212.106100 407908.000000
213.109100 58000.000000
294.159200 220032.000000
295.162500 48668.000000

>ms2
115.053600 10344.000000
128.048700 10368.000000
128.061100 28552.000000
129.068600 18804.000000
142.063700 25640.000000
143.071800 133728.000000
144.078300 25780.000000
154.064000 40780.000000
155.071500 44904.000000
156.078700 15500.000000
167.071900 136900.000000
168.079500 178800.000000
169.087400 282564.000000
170.095400 2011196.000000
171.066800 146792.000000
171.098800 226160.000000
172.070000 18216.000000
182.095400 208552.000000
183.100300 40724.000000
184.111200 1167044.000000
185.114500 163088.000000
212.106100 28140.000000

>ms2
115.053800 42624.000000
116.060500 14816.000000
117.056800 9648.000000
127.053100 9128.000000
128.048600 39256.000000
128.061000 81436.000000
129.052700 5144.000000
129.068600 49508.000000
130.065200 14352.000000
131.071300 6880.000000
141.068500 9148.000000
142.064200 104412.000000
143.072000 392700.000000
144.077700 59112.000000
145.063500 7176.000000
146.059200 9500.000000
152.061000 5328.000000
153.068500 9392.000000
154.064100 111280.000000
155.071500 101988.000000
156.043500 9188.000000
156.077800 25896.000000
157.086100 8540.000000
166.064100 6556.000000
167.072000 293880.000000
168.079700 460908.000000
169.087200 376768.000000
170.095400 915016.000000
171.066900 126872.000000
171.098900 101548.000000
172.069800 15756.000000
172.101900 5844.000000
180.079700 5664.000000
181.087300 10784.000000
182.095500 161628.000000
183.100800 39244.000000
184.111300 359196.000000
185.114300 58096.000000

>ms2
83.059800 18980.000000
143.071700 6964.000000
167.071300 12740.000000
168.079200 15844.000000
169.087400 29256.000000
170.095600 777296.000000
171.066700 15076.000000
171.098700 104812.000000
172.101800 4692.000000
182.095200 34516.000000
183.099600 5248.000000
184.111100 656516.000000
185.114500 79264.000000
186.117300 4452.000000
212.106300 363848.000000
213.109100 50840.000000
294.160100 665820.000000
295.163300 179236.000000
296.165900 15516.000000

