>compound AU77888974
>parentmass 278.1903
>ionization [M+H]+
>formula C20H23N
>rt 485.790000
>profile qtof
#smiles_iso CN(C)CCC=C1C2=CC=CC=C2CCC3=CC=CC=C31
#smiles_can CN(C)CCC=C1C2=CC=CC=C2CCC3=CC=CC=C31
#inchikey KRMDCWKBEZIMAB-UHFFFAOYSA-N
#pubchem_id 2160
#mb_accession AU150401,AU150402,AU150403,AU150404,AU150405,AU150406

>ms2peaks
233.131600 118632.000000
234.134700 24428.000000
278.191000 2451324.000000
279.193100 862668.000000
280.196000 67048.000000

>ms2peaks
115.053600 21752.000000
117.069300 123088.000000
118.072500 14108.000000
129.068900 27208.000000
141.068700 13708.000000
155.084400 96780.000000
156.087400 12004.000000
178.076300 34432.000000
179.084000 53384.000000
191.084700 203792.000000
192.088800 34936.000000
193.099700 21512.000000
203.084500 8308.000000
204.092500 22712.000000
205.100200 77428.000000
206.103500 12776.000000
207.115300 20672.000000
218.108200 84964.000000
219.111300 13900.000000
231.115900 8804.000000
233.131800 1157384.000000
234.135300 180940.000000
235.138600 12776.000000
278.190200 1615660.000000
279.193300 331132.000000
280.196400 24616.000000

>ms2peaks
115.053600 53432.000000
116.057700 5316.000000
117.069300 149536.000000
118.072400 13788.000000
128.060800 13936.000000
129.068900 68580.000000
130.072300 8008.000000
141.068800 32224.000000
142.074200 5676.000000
153.068600 13420.000000
154.075600 6656.000000
155.084300 158392.000000
156.087500 18972.000000
165.068800 7592.000000
167.084000 4180.000000
178.076600 117196.000000
179.084000 143984.000000
180.087400 19772.000000
189.068900 5728.000000
190.076500 14724.000000
191.084600 439896.000000
192.089900 92548.000000
193.099700 59752.000000
194.102900 9160.000000
202.076800 7724.000000
203.084400 86596.000000
204.092000 116172.000000
205.100000 246112.000000
206.103400 37116.000000
207.115500 17196.000000
208.118100 3480.000000
215.084000 3392.000000
216.091900 8204.000000
217.100000 26776.000000
218.108200 334284.000000
219.111400 48864.000000
220.114200 4016.000000
231.115900 19584.000000
232.120900 5156.000000
233.131800 336212.000000
234.135100 56936.000000
235.138300 5032.000000
278.189400 64280.000000
279.193400 13284.000000

>ms2peaks
115.053800 69344.000000
116.058400 7884.000000
117.069500 74988.000000
118.072900 8760.000000
127.053300 6244.000000
128.061200 46412.000000
129.068900 76764.000000
130.072600 7528.000000
131.084700 2224.000000
141.068900 39376.000000
142.074700 8972.000000
152.061000 6480.000000
153.068800 34260.000000
154.076000 16272.000000
155.084500 89628.000000
156.087700 12192.000000
165.069000 26028.000000
166.073400 4472.000000
167.084600 3644.000000
177.068800 3096.000000
178.077000 191416.000000
179.084100 142456.000000
180.087900 18240.000000
189.069200 27236.000000
190.076600 63196.000000
191.084900 418924.000000
192.090600 109388.000000
193.099100 37544.000000
194.103300 5224.000000
202.076800 41732.000000
203.084900 288436.000000
204.092100 173952.000000
205.100000 145856.000000
206.103700 23188.000000
207.116200 2624.000000
215.084500 18172.000000
216.092100 17772.000000
217.100500 120832.000000
218.108300 221632.000000
219.111500 32268.000000
220.115000 2984.000000
231.116400 9364.000000
232.122300 4176.000000
233.131700 20464.000000
234.135700 4484.000000

>ms2peaks
115.053600 74732.000000
116.057400 10336.000000
117.069200 36412.000000
118.072600 3876.000000
126.045300 4124.000000
127.053100 15548.000000
128.061000 76700.000000
129.068700 51372.000000
130.072300 4752.000000
141.068800 37408.000000
142.073400 6708.000000
152.060900 20400.000000
153.068700 36696.000000
154.075600 17944.000000
155.084000 28644.000000
156.088300 3232.000000
165.068600 63864.000000
166.072900 10904.000000
167.083500 2852.000000
176.061300 7548.000000
177.068000 9260.000000
178.076900 292888.000000
179.083000 80680.000000
180.087300 10776.000000
189.069000 97380.000000
190.076400 117516.000000
191.084500 314148.000000
192.090000 73200.000000
193.097200 14300.000000
201.069200 2072.000000
202.076900 159820.000000
203.084500 410112.000000
204.091100 139512.000000
205.098800 45596.000000
206.103200 7540.000000
215.084800 47156.000000
216.091100 29040.000000
217.100500 163420.000000
218.106700 74576.000000
219.110600 10452.000000
231.116200 2996.000000

>ms2peaks
58.064300 46536.000000
70.064000 7664.000000
72.079800 4536.000000
79.053800 7192.000000
84.080100 149040.000000
85.086900 12404.000000
91.053800 617572.000000
92.057200 36040.000000
103.054500 7516.000000
105.070600 367476.000000
106.073800 25192.000000
115.054000 26480.000000
116.057500 3848.000000
117.070200 273144.000000
118.073200 21116.000000
128.061500 6420.000000
129.069700 45760.000000
130.072400 3908.000000
141.069600 14588.000000
153.069000 5336.000000
155.085300 82548.000000
156.088400 10204.000000
178.077500 51900.000000
179.085100 64224.000000
180.088500 7100.000000
190.077700 5704.000000
191.085500 202144.000000
192.090500 45328.000000
193.100700 27736.000000
194.104000 3500.000000
203.085500 37560.000000
204.093600 51816.000000
205.101200 108924.000000
206.104600 16292.000000
207.116500 12956.000000
216.093100 3984.000000
217.101400 9196.000000
218.109400 145932.000000
219.112800 22376.000000
231.117400 8400.000000
233.132800 390492.000000
234.136300 72712.000000
235.139200 5428.000000
278.190900 447812.000000
279.194400 85504.000000
280.196800 6636.000000

