>compound AU77280501
>parentmass 174.05410000000003
>ionization [M+H]+
>formula C5H8ClN5
>rt 279.140000
>profile qtof
#smiles_iso CCNC1=NC(=NC(=N1)N)Cl
#smiles_can CCNC1=NC(=NC(=N1)N)Cl
#inchikey IVENSCMCQBJAKW-UHFFFAOYSA-N
#pubchem_id 13878
#mb_accession AU253901,AU253902,AU253903,AU253904,AU253906,AU372601,AU372602,AU372603,AU372604

>ms2peaks
132.031300 8360.000000
146.022000 5884.000000
174.053200 677968.000000
175.055400 33532.000000
176.050200 154212.000000

>ms2peaks
132.031200 32424.000000
133.034300 1436.000000
134.028500 8452.000000
138.076400 9988.000000
139.081500 760.000000
146.021600 17964.000000
148.019200 5688.000000
174.053300 118792.000000
175.056000 6296.000000
176.050100 33448.000000

>ms2peaks
132.030900 5928.000000
134.027900 1456.000000
138.076400 1948.000000
146.021600 4580.000000
148.018300 1436.000000
174.053200 4780.000000
176.050100 1552.000000

>ms2peaks
132.031700 672.000000
138.076200 400.000000
146.022100 700.000000
174.053700 368.000000

>ms2peaks
61.978600 1496.000000
68.024000 16340.000000
71.059900 8900.000000
79.005400 12996.000000
81.002500 3448.000000
96.055900 8936.000000
104.001800 5496.000000
105.998100 1364.000000
110.045900 724.000000
132.032300 40132.000000
133.035100 1552.000000
134.029400 7392.000000
138.077100 8788.000000
146.022700 19432.000000
148.019800 4396.000000
174.054400 136028.000000
175.056500 8836.000000
176.050900 38576.000000

>ms2peaks
132.031400 5768.000000
133.033800 296.000000
134.027900 1332.000000
146.021900 2920.000000
147.026000 448.000000
148.018100 1188.000000
174.053400 433192.000000
175.055900 17928.000000
176.050300 96680.000000
177.053500 3300.000000

>ms2peaks
132.031400 26080.000000
133.033800 1140.000000
134.027900 6480.000000
138.076200 7212.000000
146.021500 13324.000000
147.024700 528.000000
148.018900 3016.000000
172.036900 516.000000
174.053400 94996.000000
176.049900 24116.000000
177.054200 716.000000

>ms2peaks
132.031400 5276.000000
133.033800 196.000000
134.027900 1484.000000
138.076300 1736.000000
146.021500 3404.000000
147.024700 184.000000
148.018900 1052.000000
174.053200 4784.000000

>ms2peaks
132.031700 328.000000
146.021100 408.000000
174.053200 244.000000

