>compound AU77330774
>parentmass 409.137
>ionization [M+H]+
>formula C20H19F3N2O4
>rt 696.000000
>profile qtof
#smiles_iso C/C(=N\OCC1=CC=CC=C1/C(=N/OC)/C(=O)OC)/C2=CC(=CC=C2)C(F)(F)F
#smiles_can CC(=NOCC1=CC=CC=C1C(=NOC)C(=O)OC)C2=CC(=CC=C2)C(F)(F)F
#inchikey ONCZDRURRATYFI-QTCHDTBASA-N
#pubchem_id 9578570
#mb_accession AU371401,AU371402,AU371403,AU371404,AU371405

>ms2peaks
116.048900 6912.000000
131.071800 5292.000000
132.079700 6892.000000
162.090200 6564.000000
186.051900 192360.000000
206.080600 95416.000000
207.083900 10612.000000
409.137500 472312.000000
410.140700 83456.000000
411.142800 9668.000000

>ms2peaks
116.049000 30616.000000
117.053200 4332.000000
130.064100 3352.000000
132.079600 44576.000000
145.024900 14984.000000
146.058600 11160.000000
173.031400 3728.000000
186.051900 627276.000000
206.080600 150964.000000

>ms2peaks
117.055700 5880.000000
118.064400 9340.000000
130.064300 9024.000000
132.079700 40924.000000
145.025200 56808.000000
146.028200 4552.000000
147.065800 5136.000000
148.074700 3276.000000
162.090900 7800.000000
163.035600 3136.000000
186.052200 619100.000000
206.081000 41964.000000
207.084900 4064.000000

>ms2peaks
117.056100 8900.000000
125.019400 2684.000000
130.064300 15856.000000
132.043300 4520.000000
132.079400 28876.000000
145.025300 154272.000000
146.028300 12472.000000
147.065500 5152.000000
148.074700 2508.000000
161.046100 3216.000000
162.090600 2672.000000
163.035700 5944.000000
173.031300 47204.000000
174.034400 3668.000000
186.052000 433444.000000

>ms2peaks
116.048700 22856.000000
117.056000 11100.000000
118.063900 15104.000000
119.048600 1940.000000
125.018700 6252.000000
130.064100 25384.000000
132.043700 4784.000000
132.078800 16764.000000
143.032300 2372.000000
145.025000 286700.000000
147.065400 3384.000000
148.074100 1492.000000
159.040900 1552.000000
161.045400 3064.000000
163.035700 7132.000000
173.031000 51540.000000
174.034600 4404.000000
186.051700 199116.000000

