>compound AU77118458
>parentmass 304.1543
>ionization [M+H]+
>formula C17H21NO4
>rt 298.800000
>profile qtof
#smiles_iso CN1[C@H]2CC[C@@H]1[C@H]([C@H](C2)OC(=O)C3=CC=CC=C3)C(=O)OC
#smiles_can CN1C2CCC1C(C(C2)OC(=O)C3=CC=CC=C3)C(=O)OC
#inchikey ZPUCINDJVBIVPJ-LJISPDSOSA-N
#pubchem_id 446220
#mb_accession AU161901,AU161902,AU161903,AU161904,AU161905

>ms2
182.117000 166664.000000
304.155900 2512408.000000
305.158200 887824.000000
306.160600 51800.000000

>ms2
182.117100 2420048.000000
183.120300 288608.000000
272.127400 34252.000000
304.155900 2293944.000000
305.158200 315820.000000
306.160600 28704.000000

>ms2
119.048300 59216.000000
122.095800 56312.000000
150.090400 279268.000000
154.085100 35584.000000
182.117100 2359164.000000
183.120300 249768.000000
304.154000 122180.000000

>ms2
117.056800 4996.000000
118.040500 10724.000000
119.048200 70332.000000
120.051700 5204.000000
122.059100 4316.000000
122.095500 63892.000000
123.079800 3156.000000
123.098800 5340.000000
125.058400 11448.000000
150.090100 131708.000000
151.073800 9468.000000
151.093500 9540.000000
154.084900 37528.000000
155.088400 2800.000000
164.105600 2876.000000
182.116600 513364.000000
183.119900 46064.000000
184.121900 4880.000000

>ms2
115.055500 412.000000
117.056600 4760.000000
118.040600 7040.000000
118.064100 1896.000000
119.048200 29316.000000
120.051300 2620.000000
120.079900 2316.000000
121.064300 1200.000000
121.087700 1308.000000
122.059200 4764.000000
122.095300 24928.000000
123.062900 472.000000
123.079200 1952.000000
123.099200 2952.000000
124.075800 496.000000
125.058500 4400.000000
126.062600 472.000000
128.071600 300.000000
130.064000 1284.000000
131.070700 880.000000
132.079800 5256.000000
133.065400 476.000000
133.086100 928.000000
134.059000 3356.000000
135.066600 14664.000000
136.070600 1352.000000
138.054100 1260.000000
139.063400 372.000000
148.075700 1108.000000
149.083100 904.000000
150.090100 26464.000000
151.073600 1848.000000
151.093600 2920.000000
152.069400 2872.000000
154.085000 16284.000000
155.088600 1456.000000
164.106000 808.000000
167.091100 508.000000
180.101700 680.000000
182.116400 42944.000000
183.119900 4912.000000

