>compound AU77062163
>parentmass 430.2588
>ionization [M+H]+
>formula C25H35NO5
>rt 400.850000
>profile qtof
#smiles_iso CCN(CCCCOC(=O)C1=CC(=C(C=C1)OC)OC)C(C)CC2=CC=C(C=C2)OC
#smiles_can CCN(CCCCOC(=O)C1=CC(=C(C=C1)OC)OC)C(C)CC2=CC=C(C=C2)OC
#inchikey VYVKHNNGDFVQGA-UHFFFAOYSA-N
#pubchem_id 4031
#mb_accession AU274401,AU274402,AU274403,AU274404,AU274405,AU274406

>ms2peaks
149.094800 31536.000000
430.260500 2483908.000000
431.262600 1103352.000000
432.265500 121432.000000

>ms2peaks
121.064100 125884.000000
149.095100 1855324.000000
150.098400 144356.000000
165.053400 14644.000000
248.200000 22056.000000
282.169500 14264.000000
430.259400 2510308.000000
431.262100 999228.000000
432.264700 109052.000000

>ms2peaks
121.064100 959324.000000
122.067400 76496.000000
149.095600 2493444.000000
150.098400 406384.000000
151.101100 17504.000000
165.053400 82656.000000
430.258700 236368.000000
431.261400 60968.000000

>ms2peaks
121.064200 1588948.000000
122.067600 134816.000000
134.071400 23508.000000
149.095200 2024416.000000
150.098500 189516.000000
165.053500 101712.000000

>ms2peaks
115.053500 10456.000000
117.069200 8260.000000
121.064200 1524340.000000
122.067600 132664.000000
134.071400 39284.000000
149.095200 494692.000000
150.098500 51052.000000
165.053600 80136.000000

>ms2peaks
91.054400 24396.000000
93.070000 12708.000000
100.112400 63068.000000
109.065700 11012.000000
121.065100 1053648.000000
122.068300 72920.000000
149.096000 1435964.000000
150.099000 206520.000000
151.101800 8776.000000
165.053700 46008.000000
248.201300 9648.000000
282.170100 7368.000000
430.259100 512484.000000
431.262600 184844.000000
432.265500 25072.000000

