>compound AU78064446
>parentmass 230.1167
>ionization [M+H]+
>formula C9H16ClN5
>rt 560.280000
>profile qtof
#smiles_iso CCNC1=NC(=NC(=N1)Cl)NC(C)(C)C
#smiles_can CCNC1=NC(=NC(=N1)Cl)NC(C)(C)C
#inchikey FZXISNSWEXTPMF-UHFFFAOYSA-N
#pubchem_id 22206
#mb_accession AU367601,AU367602,AU367603,AU367604,AU367605,AU367606

>ms2
174.053100 71248.000000
175.055100 4816.000000
176.049900 22088.000000
177.052600 824.000000
230.116200 371252.000000
231.119300 34048.000000
232.113500 99588.000000
233.115600 6000.000000

>ms2
132.031500 8204.000000
133.035200 556.000000
134.028000 2480.000000
138.076800 3816.000000
146.021700 8600.000000
147.026300 432.000000
148.018700 2532.000000
174.053100 372124.000000
175.055100 21992.000000
176.049900 100196.000000
177.052600 3896.000000
230.116200 28892.000000
231.119300 2756.000000
232.113500 10244.000000

>ms2
132.031500 23732.000000
133.033400 1472.000000
134.028200 5972.000000
138.076400 10552.000000
146.021900 19776.000000
147.023200 1092.000000
148.018500 5856.000000
174.053100 135520.000000
175.055100 8984.000000
176.049900 38752.000000
177.052600 1140.000000

>ms2
132.031500 8800.000000
133.033400 592.000000
134.028200 2592.000000
138.076200 4992.000000
146.021900 8276.000000
147.023200 412.000000
148.018500 3460.000000
174.053100 15404.000000
175.055100 932.000000
176.049900 3992.000000
177.052600 300.000000

>ms2
132.030600 5968.000000
134.028200 2656.000000
138.076500 3160.000000
146.021400 8392.000000
148.018700 2412.000000
174.052600 4592.000000
176.049600 1560.000000

>ms2
57.069300 18656.000000
68.023800 39804.000000
71.059900 29408.000000
79.005500 100688.000000
81.002500 22620.000000
96.055800 112108.000000
104.001900 29512.000000
105.999100 8276.000000
110.047200 6280.000000
132.032600 66092.000000
134.029400 19916.000000
138.077700 29044.000000
146.022900 63912.000000
148.019800 14828.000000
174.054300 888980.000000
175.056800 65360.000000
176.051400 301468.000000
230.117600 112884.000000
231.119800 13056.000000
232.114700 33360.000000

