>compound AU78996608
>parentmass 232.0524
>ionization [M+H]+
>formula C13H10ClNO
>rt 683.270000
>profile qtof
#smiles_iso C1=CC=C(C(=C1)C=O)NC2=CC=CC=C2Cl
#smiles_can C1=CC=C(C(=C1)C=O)NC2=CC=CC=C2Cl
#inchikey DAAHPDZFLSFYPJ-UHFFFAOYSA-N
#pubchem_id 53423421
#mb_accession AU269501,AU269502,AU269503,AU269504,AU269505,AU269506

>ms2peaks
180.080100 992.000000
197.082800 984.000000
214.041300 62932.000000
215.044100 9232.000000
216.038400 18052.000000
217.040900 2548.000000
232.051900 24248.000000
233.055000 3536.000000
234.048900 7804.000000

>ms2peaks
169.088500 484.000000
178.064700 1000.000000
179.070000 1056.000000
180.079600 9680.000000
181.083600 1596.000000
196.075700 1612.000000
197.082900 684.000000
214.041300 91108.000000
215.044300 16184.000000
216.039100 29504.000000
217.041000 3020.000000
232.051000 656.000000

>ms2peaks
151.053200 1328.000000
152.060100 504.000000
167.070900 1068.000000
168.079000 1984.000000
169.063700 2656.000000
169.086900 660.000000
177.056400 2268.000000
178.064000 12560.000000
179.070800 10512.000000
180.079300 18740.000000
181.083000 2540.000000
196.074600 4576.000000
197.081100 816.000000
214.041000 93152.000000
215.044400 17476.000000
216.038200 28368.000000
217.040500 3692.000000

>ms2peaks
150.044900 1860.000000
151.053200 8384.000000
152.059000 2036.000000
154.063800 636.000000
167.070900 2852.000000
168.078800 4256.000000
169.064100 12984.000000
169.084800 1032.000000
170.065800 1680.000000
177.056000 12928.000000
178.064000 27776.000000
179.071000 28988.000000
180.079200 27932.000000
181.083000 3560.000000
182.084900 344.000000
194.058100 580.000000
195.067100 480.000000
196.075200 5768.000000
197.078800 776.000000
204.053600 720.000000
213.033300 584.000000
214.040800 36544.000000
215.043500 6608.000000
216.037800 12128.000000
217.041200 1316.000000

>ms2peaks
125.037700 708.000000
127.018100 376.000000
127.052900 484.000000
128.049500 432.000000
139.053700 412.000000
140.046800 388.000000
145.064500 568.000000
149.038300 480.000000
150.045200 5280.000000
151.052700 8228.000000
152.059900 4836.000000
153.057000 820.000000
153.064000 864.000000
154.064100 824.000000
166.063100 892.000000
167.047800 400.000000
167.071300 5448.000000
168.079000 3140.000000
169.063300 17224.000000
170.064600 2124.000000
176.048200 328.000000
177.056300 25276.000000
178.063500 17572.000000
179.070800 21976.000000
180.079200 17624.000000
181.082700 2756.000000
194.058100 1104.000000
195.064400 564.000000
196.074400 2620.000000
197.078600 324.000000
204.054200 1216.000000
214.040900 5476.000000
215.045100 800.000000
216.037100 2160.000000
217.042000 468.000000

>ms2peaks
58.065100 888.000000
168.078700 616.000000
178.064200 2972.000000
179.070800 2272.000000
180.079500 10400.000000
181.083300 1412.000000
196.074800 2052.000000
197.082000 1188.000000
214.041200 95848.000000
215.044400 14628.000000
216.038600 30804.000000
217.040800 2680.000000
232.051500 604.000000

