>compound AU78582807
>parentmass 269.1648
>ionization [M+H]+
>formula C17H20N2O
>rt 632.200000
>profile qtof
#smiles_iso CN(C)C1=CC=C(C=C1)C(=O)C2=CC=C(C=C2)N(C)C
#smiles_can CN(C)C1=CC=C(C=C1)C(=O)C2=CC=C(C=C2)N(C)C
#inchikey VVBLNCFGVYUYGU-UHFFFAOYSA-N
#pubchem_id 7031
#mb_accession AU229101,AU229102,AU229103,AU229104,AU229105,AU229106

>ms2
148.074800 99588.000000
269.166500 2511388.000000
271.171300 64552.000000

>ms2
120.079700 20172.000000
148.075100 2525580.000000
149.077900 323252.000000
150.080000 13612.000000
269.165400 2439644.000000
270.168000 585668.000000
271.171100 41440.000000

>ms2
118.064500 13192.000000
120.080000 107088.000000
121.083200 12788.000000
148.075600 2513456.000000
150.080100 22116.000000
225.041900 15868.000000
269.164500 149748.000000
270.167100 27980.000000

>ms2
118.064500 28652.000000
119.071700 15716.000000
120.080100 128604.000000
121.083100 15116.000000
148.074900 2248040.000000
149.077900 162036.000000
225.042300 18328.000000

>ms2
117.056400 6476.000000
118.064500 35948.000000
119.071300 17068.000000
120.080000 77596.000000
121.083100 9736.000000
132.043000 7660.000000
148.074500 649696.000000
149.077700 53056.000000
227.021500 4920.000000

>ms2
79.053700 22508.000000
91.054200 11316.000000
93.069700 10360.000000
105.057600 15872.000000
120.080900 88208.000000
148.076500 1923288.000000
149.078600 243436.000000
269.165800 719260.000000
270.168600 164012.000000
271.172000 13200.000000

