>compound AU78534350
>parentmass 397.1985
>ionization [M+Na]+
>formula C22H30O5
>rt 516.080000
>profile qtof
#smiles_iso C[C@H]1C[C@H]2[C@@H]3CC[C@@]([C@]3(C[C@@H]([C@@H]2[C@@]4(C1=CC(=O)C=C4)C)O)C)(C(=O)CO)O
#smiles_can CC1CC2C3CCC(C3(CC(C2C4(C1=CC(=O)C=C4)C)O)C)(C(=O)CO)O
#inchikey VHRSUDSXCMQTMA-PJHHCJLFSA-N
#pubchem_id 6741
#mb_accession AU107630,AU107631,AU107632

>ms2peaks
397.200700 25308.000000
398.205000 7820.000000

>ms2peaks
199.075700 344.000000
397.201300 21892.000000
398.203200 6072.000000
399.206400 788.000000

>ms2peaks
397.203200 3064.000000
398.204100 824.000000

