>compound AU78301333
>parentmass 258.2428
>ionization [M+H]+
>formula C15H31NO2
>rt 724.725000
>profile qtof
#smiles_iso CCCCCCCCCCCC(=O)NCC(C)O
#smiles_can CCCCCCCCCCCC(=O)NCC(C)O
#inchikey MMBILEWCGWTAOV-UHFFFAOYSA-N
#pubchem_id 9903249
#mb_accession AU240801,AU240802,AU240803,AU240806

>ms2peaks
183.172800 12272.000000
240.231600 136792.000000
241.215300 39644.000000
241.234400 18596.000000
258.242700 2167248.000000
259.245900 249284.000000
260.248300 21372.000000

>ms2peaks
123.116100 1088.000000
165.162800 1812.000000
183.172800 13104.000000
184.177200 1728.000000
200.201500 1044.000000
240.231400 90956.000000
241.215200 13848.000000
241.234200 14164.000000
242.219100 2640.000000
242.236300 1768.000000
258.241500 12348.000000
259.245700 2116.000000

>ms2peaks
123.115500 828.000000
183.173800 720.000000
200.200300 556.000000
240.231800 6716.000000
241.233600 1132.000000

>ms2peaks
55.053600 4320.000000
57.069300 62364.000000
58.064700 452504.000000
59.067800 12252.000000
67.053700 7700.000000
69.069400 2316.000000
71.085000 33404.000000
76.075400 285276.000000
77.078400 9772.000000
81.069700 6520.000000
83.085500 6296.000000
85.101000 16284.000000
95.086100 9428.000000
109.101800 3420.000000
183.173300 11924.000000
240.232000 95004.000000
241.215500 10356.000000
241.234300 10820.000000
258.241700 8408.000000

