>compound AU79001020
>parentmass 285.339
>ionization [M+H]+
>formula C19H42N+
>rt 770.280000
>profile qtof
#smiles_iso CCCCCCCCCCCCCCCC[N+](C)(C)C
#smiles_can CCCCCCCCCCCCCCCC[N+](C)(C)C
#inchikey RLGQACBPNDBWTB-UHFFFAOYSA-N
#pubchem_id 2681
#mb_accession AU284301,AU284302,AU284303,AU284304,AU284305,AU284306

>ms2peaks
284.330900 801944.000000
285.334200 129772.000000
286.337700 13792.000000

>ms2peaks
284.330900 982496.000000
285.334300 148100.000000
286.337600 15808.000000

>ms2peaks
284.330900 417952.000000
285.334400 70384.000000
286.337400 8984.000000

>ms2peaks
224.061900 408.000000
284.331100 26676.000000
285.333900 6172.000000

>ms2peaks
284.331100 620.000000

>ms2peaks
57.069200 3700.000000
60.080200 18168.000000
71.084900 3696.000000
284.331400 639220.000000
285.335000 144172.000000
286.338200 17332.000000

