>compound AU79467968
>parentmass 282.0873
>ionization [M+H]+
>formula C15H11N3O3
>rt 473.640000
>profile qtof
#smiles_iso C1C(=O)NC2=C(C=C(C=C2)[N+](=O)[O-])C(=N1)C3=CC=CC=C3
#smiles_can C1C(=O)NC2=C(C=C(C=C2)[N+](=O)[O-])C(=N1)C3=CC=CC=C3
#inchikey KJONHKAYOJNZEC-UHFFFAOYSA-N
#pubchem_id 4506
#mb_accession AU153506

>ms2
60.054500 620.000000
158.047400 312.000000
176.045600 516.000000
180.079700 1912.000000
181.082200 340.000000
193.085300 464.000000
195.093700 336.000000
196.076000 432.000000
207.091200 1924.000000
208.097500 1180.000000
235.085700 992.000000
236.094700 10104.000000
237.097200 1524.000000
240.090500 892.000000
251.079400 680.000000
254.095100 720.000000
268.085400 18248.000000
269.087100 2492.000000
270.086000 336.000000
282.088300 27756.000000
283.092000 4596.000000

