>compound AU79117194
>parentmass 251.16419999999997
>ionization [M+H]+
>formula C15H22O3
>rt 715.380000
>profile qtof
#smiles_iso CC1=CC(=C(C=C1)C)OCCCC(C)(C)C(=O)O
#smiles_can CC1=CC(=C(C=C1)C)OCCCC(C)(C)C(=O)O
#inchikey HEMJJKBWTPKOJG-UHFFFAOYSA-N
#pubchem_id 3463
#mb_accession AU269101,AU269102,AU269103,AU269104,AU269105,AU269106

>ms2peaks
123.079700 3196.000000
129.090100 21972.000000
130.094300 2104.000000
161.093600 524.000000
197.116700 440.000000
205.157700 8400.000000
206.160900 1028.000000
233.153200 10548.000000
234.155800 1712.000000
251.163500 800.000000

>ms2peaks
123.080100 2524.000000
129.090000 9456.000000
130.092400 988.000000
135.079100 372.000000
137.095500 376.000000
161.094700 944.000000
189.164400 304.000000
191.178000 304.000000
233.149400 320.000000

>ms2peaks
123.079100 2672.000000
124.083200 332.000000
129.089600 3116.000000
146.070600 376.000000
161.093300 524.000000

>ms2peaks
123.079500 1780.000000
129.090200 2328.000000
146.072400 304.000000

>ms2peaks
123.081600 624.000000

>ms2peaks
55.054100 3000.000000
57.032900 312.000000
57.069700 1104.000000
59.048100 1048.000000
73.063600 1088.000000
83.085400 2068.000000
119.085900 464.000000
123.079800 4436.000000
124.083000 332.000000
129.090500 14572.000000
130.093300 924.000000
133.098900 340.000000
135.079400 312.000000
161.094100 964.000000
197.115500 316.000000
233.153500 452.000000

