>compound AU79084841
>parentmass 300.1594
>ionization [M+H]+
>formula C18H21NO3
>rt 212.472000
>profile qtof
#smiles_iso CN1CC[C@]23[C@@H]4[C@H]1CC5=C2C(=C(C=C5)OC)O[C@H]3[C@H](C=C4)O
#smiles_can CN1CCC23C4C1CC5=C2C(=C(C=C5)OC)OC3C(C=C4)O
#inchikey OROGSEYTTFOCAN-DNJOTXNNSA-N
#pubchem_id 5284371
#mb_accession AU162301,AU162302,AU162303,AU162304,AU162305

>ms2
300.161500 1262268.000000
301.164700 242748.000000
302.166900 22828.000000

>ms2
215.107600 23516.000000
225.091800 10020.000000
243.102600 32816.000000
282.150400 11404.000000
300.161700 1689184.000000
301.165000 317436.000000
302.167700 27012.000000

>ms2
137.059800 5916.000000
144.058000 3836.000000
153.070600 6916.000000
155.085800 11068.000000
159.081000 9428.000000
161.060200 18664.000000
165.070600 20744.000000
166.075400 4860.000000
168.057400 3828.000000
171.081300 9604.000000
172.052000 3172.000000
172.087500 3744.000000
174.068400 3116.000000
175.076300 6352.000000
181.065600 16688.000000
182.072200 5872.000000
183.081300 42984.000000
184.085800 7780.000000
185.060100 5000.000000
186.067700 4772.000000
187.076400 24360.000000
187.112800 9028.000000
188.080700 3236.000000
191.086800 6552.000000
192.102200 4756.000000
193.065900 19556.000000
193.102800 3412.000000
194.072700 10132.000000
195.080400 5324.000000
197.096600 7752.000000
198.068200 4300.000000
199.076500 52056.000000
200.081600 12984.000000
201.091400 6176.000000
207.081100 3660.000000
209.061400 13880.000000
209.097100 6152.000000
210.066400 6384.000000
211.076300 8864.000000
212.084200 7036.000000
213.092400 15004.000000
214.095700 3224.000000
215.108400 108692.000000
216.111200 15724.000000
219.082100 6384.000000
220.088200 3488.000000
221.097400 8016.000000
223.076800 9136.000000
225.092300 51128.000000
226.095700 9660.000000
236.084600 4228.000000
237.092300 3224.000000
239.107400 3172.000000
241.087300 29000.000000
241.124500 3500.000000
242.091000 5340.000000
243.103100 70028.000000
244.106900 11904.000000
251.108000 7636.000000
253.123700 6708.000000
266.119000 7776.000000
267.127100 8364.000000
269.119900 4416.000000
282.150600 22920.000000
283.153600 4672.000000
300.162100 617280.000000
301.165100 109584.000000
302.167400 10732.000000

>ms2
115.054600 3728.000000
116.059300 676.000000
117.069400 452.000000
121.065100 1864.000000
122.036200 684.000000
127.055400 1692.000000
128.062600 7840.000000
129.070200 4312.000000
130.041800 364.000000
130.075200 636.000000
131.050000 3048.000000
131.073800 432.000000
131.086000 792.000000
132.082600 880.000000
133.065900 488.000000
134.099300 360.000000
137.060400 8976.000000
138.063100 800.000000
139.054300 984.000000
140.061400 744.000000
141.070400 10928.000000
142.075800 2316.000000
143.049800 2684.000000
143.086700 1056.000000
144.057600 12732.000000
145.064600 4040.000000
146.036000 1068.000000
146.062000 840.000000
146.071600 1064.000000
146.096600 452.000000
147.042200 660.000000
147.066000 428.000000
147.080500 1460.000000
148.053300 376.000000
148.075500 648.000000
149.061700 776.000000
150.047300 516.000000
151.054500 396.000000
151.078000 756.000000
152.062600 9656.000000
153.070500 29796.000000
154.076400 9016.000000
155.050100 3844.000000
155.086200 29704.000000
156.057500 8588.000000
156.090100 4024.000000
157.064900 5104.000000
157.102800 500.000000
158.073100 9472.000000
158.097900 528.000000
159.045300 2364.000000
159.080400 17248.000000
160.050700 1212.000000
160.083200 2276.000000
161.060400 31420.000000
162.065000 2992.000000
162.091700 668.000000
163.063900 532.000000
163.076000 1476.000000
164.070500 1736.000000
165.070700 61436.000000
166.076100 11348.000000
167.050500 436.000000
167.085500 6044.000000
168.057400 13276.000000
168.089500 980.000000
169.065200 7316.000000
169.101400 1676.000000
170.036600 900.000000
170.073400 5524.000000
170.099600 596.000000
171.045500 3288.000000
171.081200 34880.000000
172.052300 5932.000000
172.087600 10644.000000
173.058600 1800.000000
173.095500 4400.000000
174.068200 4572.000000
174.100300 548.000000
175.075700 7240.000000
176.079400 1320.000000
177.055400 1024.000000
177.071500 2608.000000
178.078600 5436.000000
179.086700 6168.000000
180.057700 1676.000000
180.093500 1324.000000
181.065700 47836.000000
181.102400 3908.000000
182.072200 15984.000000
182.105700 932.000000
183.045400 4200.000000
183.081200 42940.000000
184.052200 4900.000000
184.086200 8080.000000
185.060400 14316.000000
185.096100 5848.000000
186.068200 10488.000000
186.100500 1112.000000
187.076000 18904.000000
187.112600 6860.000000
188.080700 2556.000000
188.115400 1288.000000
189.056400 680.000000
189.070400 1700.000000
189.091400 1376.000000
190.079500 3048.000000
191.086300 11120.000000
192.056900 704.000000
192.092600 2332.000000
193.065700 17264.000000
193.102100 3292.000000
194.073400 21452.000000
195.080200 10864.000000
196.052000 948.000000
196.085700 3024.000000
197.060800 7780.000000
197.097300 8248.000000
198.068500 16584.000000
198.102700 2136.000000
199.076400 71176.000000
200.082000 19076.000000
201.055600 1644.000000
201.072900 1200.000000
201.091000 7408.000000
202.059800 512.000000
202.079900 2280.000000
203.072700 524.000000
203.085900 2192.000000
204.102600 472.000000
205.065600 2160.000000
205.101500 536.000000
206.071800 1356.000000
207.081500 5784.000000
207.102400 416.000000
208.054200 1696.000000
208.088200 4556.000000
209.060900 16264.000000
209.097200 6516.000000
210.067800 14388.000000
210.104300 1976.000000
211.075800 11196.000000
211.108900 736.000000
212.047900 560.000000
212.084000 11028.000000
213.054100 1064.000000
213.091600 20368.000000
214.061700 620.000000
214.096200 4476.000000
215.108000 52648.000000
216.111000 7936.000000
217.110300 692.000000
218.073300 1328.000000
219.081400 5728.000000
220.088100 4768.000000
220.112300 2728.000000
221.060400 3712.000000
221.097500 4248.000000
222.066600 1348.000000
222.101500 1508.000000
222.127500 412.000000
223.076800 14972.000000
223.112900 1068.000000
224.082200 4608.000000
224.108100 748.000000
225.092300 34952.000000
226.063200 3180.000000
226.096500 8260.000000
227.072400 1820.000000
227.105300 1140.000000
228.078700 2096.000000
228.103500 1616.000000
229.078300 1004.000000
229.109400 844.000000
230.119700 616.000000
234.092600 664.000000
235.077300 1180.000000
235.099000 604.000000
236.084400 5268.000000
236.108100 644.000000
237.090700 2584.000000
238.100700 2780.000000
238.124800 576.000000
239.070600 1120.000000
239.106700 2324.000000
239.132600 468.000000
240.080700 696.000000
240.110600 808.000000
240.138200 448.000000
241.086900 28972.000000
241.122600 1716.000000
242.090100 4724.000000
242.118500 840.000000
243.102600 19556.000000
244.105800 3536.000000
245.108300 508.000000
248.108100 1720.000000
249.115300 796.000000
250.122800 2620.000000
251.108800 3568.000000
251.130800 1040.000000
252.104400 2532.000000
253.125200 1604.000000
254.094600 888.000000
254.119800 1252.000000
256.132900 676.000000
266.119600 8820.000000
267.125200 4752.000000
268.132100 1424.000000
269.118800 1192.000000
270.121000 400.000000
272.132300 368.000000
280.131600 364.000000
282.149900 5716.000000
283.151800 1100.000000
285.137100 1368.000000
300.161300 59992.000000
301.164100 11744.000000
302.167400 1532.000000

>ms2
115.055000 11984.000000
116.060500 1588.000000
117.069800 936.000000
118.042900 1320.000000
121.064700 1332.000000
122.037700 1280.000000
126.048100 712.000000
127.054800 3892.000000
128.062700 25856.000000
129.069500 9972.000000
130.042600 504.000000
130.075400 1184.000000
131.050400 4788.000000
131.074700 520.000000
131.085700 1312.000000
132.057400 860.000000
132.080900 640.000000
133.064900 684.000000
134.097100 604.000000
136.076600 868.000000
137.060500 5608.000000
138.064400 932.000000
139.055400 3348.000000
140.062100 2500.000000
141.070700 26884.000000
142.075800 5420.000000
143.050000 4248.000000
143.085000 2044.000000
144.057700 21640.000000
145.065200 8228.000000
146.036300 3032.000000
146.071500 1992.000000
146.096400 592.000000
147.043400 936.000000
147.081000 1540.000000
148.076100 624.000000
149.059500 664.000000
150.048600 772.000000
151.054700 2392.000000
152.062900 38340.000000
153.070600 83260.000000
154.077100 20300.000000
155.050100 9608.000000
155.086200 30520.000000
156.057700 16420.000000
156.089500 4420.000000
157.065300 10148.000000
158.073600 11496.000000
159.045500 4496.000000
159.080600 10872.000000
160.052600 2132.000000
160.081600 1644.000000
161.060700 24964.000000
162.064400 2692.000000
162.091400 632.000000
163.054500 988.000000
163.074900 656.000000
164.063300 2636.000000
165.070900 95388.000000
166.076400 20456.000000
167.049300 872.000000
167.085400 6824.000000
168.057800 19856.000000
168.088500 1344.000000
169.065200 20500.000000
170.036300 3360.000000
170.073300 11596.000000
171.045200 8512.000000
171.081400 40596.000000
172.052400 8080.000000
172.087400 11216.000000
173.058800 2648.000000
173.094600 2548.000000
174.068800 3916.000000
174.095000 652.000000
175.075900 5056.000000
176.063700 2144.000000
177.070500 3936.000000
178.078600 9552.000000
179.062000 1180.000000
179.086200 7796.000000
180.057900 5992.000000
180.092400 2356.000000
181.066200 53328.000000
182.072500 25168.000000
183.045100 18124.000000
183.081000 21548.000000
184.052800 10084.000000
184.087000 5964.000000
185.060400 20708.000000
185.097400 5004.000000
186.032500 648.000000
186.066900 8320.000000
186.101100 1076.000000
187.075900 8964.000000
187.112900 2728.000000
188.081800 1428.000000
189.070500 4720.000000
189.091200 788.000000
190.078500 5768.000000
191.086500 10020.000000
192.058800 1168.000000
192.089900 2272.000000
193.065900 13724.000000
193.103500 1984.000000
194.073500 19760.000000
195.080500 10536.000000
196.052400 1732.000000
196.087200 2836.000000
197.061100 20556.000000
197.097900 4304.000000
198.068600 25188.000000
199.076500 40860.000000
200.082800 11512.000000
201.057200 1116.000000
201.069900 1592.000000
201.091300 2324.000000
202.080200 2548.000000
203.085900 1144.000000
205.065400 3584.000000
206.070400 2076.000000
206.099100 672.000000
207.081500 4356.000000
208.053000 4440.000000
208.089400 3636.000000
209.060900 9840.000000
209.096200 2868.000000
210.068500 16084.000000
210.100500 1096.000000
211.040300 744.000000
211.076300 8396.000000
212.049300 1156.000000
212.083600 6848.000000
212.105200 616.000000
213.057300 1332.000000
213.092000 8492.000000
214.062300 688.000000
214.095400 2472.000000
215.070200 532.000000
215.107900 8428.000000
216.111600 1324.000000
218.073900 2220.000000
218.095600 644.000000
219.082500 4744.000000
220.087700 2600.000000
220.113800 2600.000000
221.061600 4780.000000
221.095900 1808.000000
221.118600 924.000000
222.065900 1576.000000
223.077400 12340.000000
224.081500 2764.000000
224.108700 944.000000
225.056000 1864.000000
225.092300 9604.000000
226.065100 2896.000000
226.096600 2948.000000
227.071200 1820.000000
227.103000 572.000000
228.079400 1444.000000
228.107100 688.000000
234.092800 812.000000
235.077600 1764.000000
235.101100 800.000000
236.084400 2380.000000
236.108200 648.000000
237.091700 1844.000000
238.097500 1028.000000
239.070200 996.000000
239.093700 596.000000
239.128500 484.000000
240.104600 612.000000
240.139000 932.000000
241.087800 7380.000000
241.119700 604.000000
242.090000 1468.000000
242.121800 544.000000
243.104200 2852.000000
248.108100 1572.000000
249.115100 1068.000000
250.124400 1840.000000
251.106500 936.000000
251.132700 480.000000
252.104400 1328.000000
266.119800 4576.000000
267.127700 1224.000000
268.136300 852.000000
282.150800 516.000000
300.162900 3084.000000
301.163300 856.000000

