>compound AU79699024
>parentmass 329.0656
>ionization [M+H]+
>formula C17H12O7
>rt 364.908000
>profile qtof
#smiles_iso COC1=C2C3=C(C(=O)OCC3)C(=O)OC2=C4C5C=COC5OC4=C1
#smiles_can COC1=C2C3=C(C(=O)OCC3)C(=O)OC2=C4C5C=COC5OC4=C1
#inchikey XWIYFDMXXLINPU-UHFFFAOYSA-N
#pubchem_id 14421
#mb_accession AU596400,AU596401,AU596402,AU596403,AU596404

>ms2
329.065700 1829948.000000

>ms2
243.064700 32328.000000
283.059300 24524.000000
301.069600 16432.000000
311.054200 124524.000000
312.057100 20492.000000
329.065100 2014388.000000

>ms2
185.059600 4912.000000
197.059300 4368.000000
199.038800 4024.000000
199.075400 6332.000000
200.046400 17460.000000
205.085800 6984.000000
212.046500 4180.000000
213.054100 7380.000000
214.062300 41692.000000
215.070100 72796.000000
216.073600 9276.000000
225.054200 9136.000000
226.061800 7908.000000
227.069800 16936.000000
228.041300 4368.000000
229.085100 4948.000000
233.080800 23128.000000
239.069800 7068.000000
240.041100 7772.000000
241.049800 15848.000000
242.056800 21788.000000
243.065300 403616.000000
244.068500 52304.000000
245.076300 5968.000000
253.048900 10336.000000
254.055400 5000.000000
255.064600 41340.000000
256.068300 6100.000000
257.080000 8324.000000
261.075700 7816.000000
267.028100 6036.000000
267.064600 7868.000000
268.036600 24140.000000
269.042700 8648.000000
270.052100 25380.000000
271.057300 6100.000000
282.051500 15452.000000
283.060100 188748.000000
284.063400 30116.000000
285.039000 5148.000000
285.074000 10776.000000
296.031000 19956.000000
300.062400 25568.000000
301.069700 50344.000000
311.055100 392196.000000
312.058100 62336.000000
313.066200 13024.000000
314.042200 7772.000000
329.065500 785004.000000

>ms2
115.054400 3816.000000
122.059800 2000.000000
128.061800 12224.000000
129.068900 5300.000000
135.043800 3492.000000
139.054600 2132.000000
141.069600 12568.000000
143.084900 4804.000000
144.056600 3576.000000
145.064000 4816.000000
147.044200 2180.000000
152.061800 5832.000000
153.069300 8244.000000
155.048800 4532.000000
155.058600 2424.000000
155.084900 3044.000000
156.056200 4184.000000
157.063800 7452.000000
158.071800 3080.000000
159.079700 5680.000000
163.074700 2392.000000
165.069900 2812.000000
168.056300 7488.000000
169.064300 19980.000000
170.070300 3808.000000
171.044100 8688.000000
171.080000 9228.000000
172.050400 5912.000000
173.023400 2132.000000
173.058700 3636.000000
175.038100 2580.000000
175.075800 3156.000000
177.090500 6384.000000
181.064400 8116.000000
182.070500 3200.000000
183.043300 6252.000000
183.080500 3152.000000
184.051400 16796.000000
185.058800 19096.000000
186.065800 6860.000000
187.038600 3100.000000
187.074200 8048.000000
189.053800 5668.000000
190.061200 3256.000000
191.034000 3456.000000
191.068600 2524.000000
195.043200 3452.000000
196.051300 8236.000000
197.059200 22924.000000
198.066400 10172.000000
199.038500 26912.000000
199.074500 18420.000000
200.046700 149576.000000
201.051200 22040.000000
201.091000 5324.000000
202.058400 2448.000000
203.033700 2528.000000
203.069400 3604.000000
205.085400 15348.000000
209.059000 7944.000000
210.065000 3396.000000
211.038300 7840.000000
211.075200 6472.000000
212.046100 23312.000000
213.053800 28952.000000
214.062400 175912.000000
215.069800 247060.000000
216.073200 33816.000000
217.083200 4996.000000
223.038900 3376.000000
224.045400 10412.000000
225.054200 27604.000000
226.061300 19856.000000
227.033600 6528.000000
227.069900 45416.000000
228.041200 25812.000000
228.073200 6480.000000
229.048100 8764.000000
229.085600 5704.000000
230.054900 3336.000000
231.063700 3100.000000
233.080200 15316.000000
237.054100 6972.000000
239.033400 8208.000000
239.069900 12740.000000
240.041300 28908.000000
240.075000 1996.000000
241.048800 39264.000000
242.056200 34872.000000
243.065000 384824.000000
244.068200 48276.000000
245.077200 6988.000000
251.032900 6588.000000
252.040700 5732.000000
253.048500 15576.000000
254.055600 7948.000000
255.064900 67616.000000
256.068100 10364.000000
257.044500 6728.000000
257.080200 6080.000000
258.050500 2340.000000
261.075600 2368.000000
265.049300 2616.000000
267.028300 24804.000000
267.065700 3952.000000
268.035700 57984.000000
269.041300 15256.000000
270.050800 14988.000000
271.057500 5408.000000
273.075400 2120.000000
275.054600 3052.000000
281.043400 2044.000000
282.051600 10188.000000
283.059800 101632.000000
284.062900 20208.000000
285.038300 6932.000000
285.073700 6272.000000
286.044800 3228.000000
295.023100 12192.000000
296.030600 15664.000000
297.033900 2760.000000
300.062100 7104.000000
301.069200 12452.000000
311.054300 64732.000000
312.058800 13064.000000
313.033800 7128.000000
313.068400 5320.000000
314.041500 3080.000000
329.064700 43832.000000

>ms2
115.054000 13336.000000
127.053700 4668.000000
128.061400 41272.000000
129.068700 13468.000000
131.048800 3472.000000
131.085100 1860.000000
135.043200 2660.000000
139.053700 10176.000000
140.060900 4764.000000
141.069500 27272.000000
143.048800 4888.000000
143.085000 3920.000000
144.056700 14508.000000
145.027900 2620.000000
145.064200 7956.000000
146.069600 1848.000000
147.043400 3452.000000
152.061600 18668.000000
153.069200 12024.000000
154.075300 3200.000000
155.048900 14920.000000
155.084600 2528.000000
156.056300 15832.000000
157.064000 13236.000000
158.035800 2432.000000
158.071400 7336.000000
159.043500 3644.000000
159.080100 5448.000000
160.050500 2288.000000
161.059000 3256.000000
162.066800 2256.000000
163.075200 2296.000000
165.068800 3064.000000
167.048600 3068.000000
168.056400 18344.000000
169.064200 36208.000000
170.036100 3108.000000
170.069500 6500.000000
171.043600 40108.000000
171.079800 7620.000000
172.050600 14628.000000
173.022900 2664.000000
173.058600 6208.000000
174.066400 2124.000000
175.038300 3316.000000
175.074900 2552.000000
177.090900 5736.000000
181.064300 9644.000000
182.070200 2500.000000
183.043400 17504.000000
183.079300 1880.000000
184.051500 48104.000000
185.058700 36036.000000
186.031500 1980.000000
186.065600 10416.000000
187.038400 4132.000000
187.074600 5436.000000
188.045300 2788.000000
189.054500 10356.000000
190.061100 4980.000000
191.033400 4724.000000
195.043800 7352.000000
196.050800 11080.000000
197.059300 32116.000000
198.031000 2164.000000
198.066400 11748.000000
199.038800 133540.000000
199.074700 13936.000000
200.046600 351328.000000
201.050600 42752.000000
201.090600 2688.000000
203.070500 2096.000000
205.085600 5592.000000
209.059300 5316.000000
210.031200 4716.000000
210.065800 1884.000000
211.038600 25900.000000
211.075200 4588.000000
212.046400 40944.000000
213.054200 59856.000000
214.062300 167752.000000
215.069700 160648.000000
216.040700 2152.000000
216.072700 20808.000000
217.084200 3680.000000
218.056200 2192.000000
223.038200 4896.000000
224.045900 8296.000000
225.054300 23472.000000
226.060200 11152.000000
227.033200 8948.000000
227.069900 34752.000000
228.041300 40012.000000
228.072900 5008.000000
229.046500 8696.000000
230.056000 3028.000000
233.080900 2604.000000
237.054100 3172.000000
239.033300 20204.000000
239.070300 4032.000000
240.041200 29468.000000
241.048100 27012.000000
242.055900 13996.000000
243.064800 65144.000000
244.067900 10044.000000
245.079100 3320.000000
251.033100 3568.000000
252.040300 2488.000000
253.049200 5508.000000
254.055200 3076.000000
255.064700 18916.000000
256.067800 3412.000000
257.042500 3600.000000
267.028500 33388.000000
268.035100 28376.000000
269.042200 8276.000000
270.049600 2948.000000
282.050700 1828.000000
283.059200 12480.000000
284.063900 2612.000000
285.038900 8664.000000
286.043000 1928.000000
295.023100 11944.000000
296.028000 4356.000000
311.054600 3756.000000
313.034300 6548.000000

