>compound AU79096998
>parentmass 364.1672
>ionization [M+Na]+
>formula C24H23NO
>rt 763.608000
>profile qtof
#smiles_iso CCCCCN1C=C(C2=CC=CC=C21)C(=O)C3=CC=CC4=CC=CC=C43
#smiles_can CCCCCN1C=C(C2=CC=CC=C21)C(=O)C3=CC=CC4=CC=CC=C43
#inchikey JDNLPKCAXICMBW-UHFFFAOYSA-N
#pubchem_id 10382701
#mb_accession AU170630,AU170631,AU170632,AU170633,AU170634

>ms2peaks
149.024100 316.000000
364.169100 33852.000000
365.171900 9460.000000
366.173300 1080.000000

>ms2peaks
149.024200 388.000000
364.169500 8460.000000
365.170300 2060.000000

>ms2peaks
149.025000 368.000000

>ms2peaks
149.024100 452.000000

>ms2peaks
149.025200 328.000000

