>compound AU79281004
>parentmass 425.3625
>ionization [M+H]+
>formula C26H48O4
>rt 897.540000
>profile qtof
#smiles_iso CC(C)CCCCCCOC(=O)C1CCCCC1C(=O)OCCCCCCC(C)C
#smiles_can CC(C)CCCCCCOC(=O)C1CCCCC1C(=O)OCCCCCCC(C)C
#inchikey HORIEOQXBKUKGQ-UHFFFAOYSA-N
#pubchem_id 11524680
#mb_accession AU252401,AU252402,AU252403,AU252404,AU252405,AU252406

>ms2
423.342800 636.000000
425.369000 992.000000
426.362800 400.000000

>ms2
133.085200 712.000000
177.113000 480.000000
195.121500 328.000000
239.147400 976.000000
309.282100 320.000000
324.326300 504.000000
423.350400 496.000000
425.363300 348.000000

>ms2
133.084000 420.000000
187.074300 308.000000
309.280500 404.000000
324.326300 724.000000
325.329300 308.000000

>ms2
324.325100 624.000000

>ms2
149.022700 320.000000

>ms2
133.084700 696.000000
149.021300 304.000000
187.073900 584.000000
309.278600 572.000000
324.326400 960.000000

