>compound AU79232323
>parentmass 235.18049999999997
>ionization [M+H]+
>formula C14H22N2O
>rt 267.900000
>profile qtof
#smiles_iso CCN(CC)CC(=O)NC1=C(C=CC=C1C)C
#smiles_can CCN(CC)CC(=O)NC1=C(C=CC=C1C)C
#inchikey NNJVILVZKWQKPM-UHFFFAOYSA-N
#pubchem_id 3676
#mb_accession AU121201,AU121202,AU121203,AU121204,AU121205,AU121206

>ms2peaks
235.180400 2317236.000000
236.182800 410992.000000
237.185500 32676.000000

>ms2peaks
134.094800 984.000000
162.090200 1196.000000
217.168800 984.000000
235.180000 180396.000000
236.183500 33980.000000
237.184900 3004.000000

>ms2peaks
132.080200 600.000000
134.095700 2184.000000
144.078600 448.000000
150.091300 596.000000
155.067600 624.000000
173.079500 424.000000
173.105000 316.000000
235.180400 1232.000000

>ms2peaks
122.095900 332.000000
134.096000 1440.000000
173.106700 388.000000

>ms2peaks
117.055300 628.000000
118.063500 496.000000
130.065400 596.000000
131.071100 332.000000
134.095600 668.000000
144.079700 516.000000
173.106300 484.000000

>ms2peaks
58.064900 67028.000000
86.097500 1119680.000000
235.180800 147144.000000
236.183900 23584.000000

