>compound AU79012351
>parentmass 176.0706
>ionization [M+H]+
>formula C10H9NO2
>rt 315.135000
>profile qtof
#smiles_iso CC1=CC(=O)OC2=C1C=CC(=C2)N
#smiles_can CC1=CC(=O)OC2=C1C=CC(=C2)N
#inchikey GLNDAGDHSLMOKX-UHFFFAOYSA-N
#pubchem_id 92249
#mb_accession AU248201,AU248202,AU248203,AU248206

>ms2
176.070100 725764.000000
177.073300 64092.000000
178.075200 6084.000000

>ms2
115.053800 9632.000000
117.056700 16180.000000
120.080200 55368.000000
121.083200 4088.000000
130.064400 10560.000000
131.049200 4212.000000
131.071800 8332.000000
132.080000 19224.000000
133.051400 8548.000000
133.083900 2132.000000
134.058900 2500.000000
148.074700 19868.000000
149.078000 2104.000000
176.070100 403688.000000
177.073200 35460.000000
178.076300 3276.000000

>ms2
118.066400 312.000000
120.080100 1452.000000
130.065300 592.000000
133.052200 508.000000
148.075200 304.000000
176.069800 612.000000

>ms2
117.056400 332.000000
120.080000 780.000000
132.080800 320.000000
176.069500 4628.000000
177.074700 476.000000

