>compound AU80673876
>parentmass 361.3703
>ionization [M+H]+
>formula C25H46N+
>rt 786.420000
>profile qtof
#smiles_iso CCCCCCCCCCCCCCCC[N+](C)(C)CC1=CC=CC=C1
#smiles_can CCCCCCCCCCCCCCCC[N+](C)(C)CC1=CC=CC=C1
#inchikey QDYLMAYUEZBUFO-UHFFFAOYSA-N
#pubchem_id 31203
#mb_accession AU284201

>ms2
269.137500 3720.000000
360.362600 253760.000000
361.365500 63192.000000
362.368100 9956.000000

