>compound AU80403370
>parentmass 411.1978
>ionization [M+H]+
>formula C22H28F2O5
>rt 498.180000
>profile qtof
#smiles_iso C[C@@H]1C[C@H]2[C@@H]3C[C@@H](C4=CC(=O)C=C[C@@]4([C@]3([C@H](C[C@@]2([C@]1(C(=O)CO)O)C)O)F)C)F
#smiles_can CC1CC2C3CC(C4=CC(=O)C=CC4(C3(C(CC2(C1(C(=O)CO)O)C)O)F)C)F
#inchikey WXURHACBFYSXBI-GQKYHHCASA-N
#pubchem_id 16490
#mb_accession AU282301,AU282302,AU282303,AU282304,AU282305,AU282306

>ms2
121.064900 580.000000
125.059800 436.000000
135.080200 660.000000
141.089200 312.000000
147.080200 708.000000
153.089800 616.000000
159.082000 432.000000
161.094600 432.000000
163.072600 316.000000
165.090800 336.000000
167.106000 344.000000
171.079500 688.000000
177.088600 348.000000
185.094300 404.000000
193.084900 372.000000
197.094800 392.000000
209.093600 500.000000
211.092600 512.000000
211.111000 628.000000
213.091900 480.000000
223.109800 468.000000
235.111100 3076.000000
236.115100 668.000000
237.124900 2700.000000
238.131600 648.000000
239.104300 504.000000
251.105400 352.000000
253.121200 10524.000000
254.125500 2504.000000
255.124200 484.000000
255.136300 500.000000
257.133700 344.000000
261.123900 460.000000
263.145600 312.000000
273.128100 2724.000000
274.132700 524.000000
275.141900 2260.000000
276.146600 912.000000
277.119300 436.000000
277.157500 2316.000000
278.163100 764.000000
279.136600 636.000000
279.172600 596.000000
287.144100 484.000000
289.157000 1408.000000
291.138100 712.000000
293.152300 1728.000000
294.153300 420.000000
295.136700 416.000000
295.168000 2508.000000
296.174700 700.000000
297.162700 896.000000
298.165400 352.000000
299.143600 424.000000
305.151800 1004.000000
307.169700 1704.000000
308.174100 480.000000
309.145700 500.000000
309.154000 512.000000
313.161000 392.000000
315.175800 908.000000
317.153300 2264.000000
318.155300 660.000000
323.164000 992.000000
325.179400 1216.000000
327.175700 468.000000
333.167000 596.000000
335.164400 5476.000000
336.166800 1508.000000
337.161200 616.000000
343.170800 704.000000
345.179800 300.000000
345.192200 312.000000
347.181100 512.000000
351.172300 500.000000
353.175200 5284.000000
354.177700 1328.000000
355.169000 2364.000000
356.175600 492.000000
357.163200 436.000000
361.180000 748.000000
363.174300 352.000000
363.183800 304.000000
365.191100 668.000000
371.183800 11412.000000
372.188600 2860.000000
373.180600 4420.000000
374.183300 1548.000000
375.174400 1716.000000
376.174300 368.000000
376.189900 388.000000
381.184300 360.000000
391.190800 23592.000000
392.194600 7888.000000
393.190700 2740.000000
394.192400 760.000000
411.196800 57216.000000
412.201000 15584.000000
413.202700 2160.000000

>ms2
119.085600 500.000000
121.064000 4608.000000
122.068500 532.000000
123.079400 344.000000
125.058800 1052.000000
133.063400 768.000000
135.079600 3696.000000
136.085500 384.000000
137.060000 448.000000
137.095400 520.000000
139.054900 836.000000
139.073100 396.000000
139.090900 752.000000
141.089900 316.000000
145.064500 996.000000
147.080000 2440.000000
148.081100 368.000000
149.094700 1272.000000
151.074500 632.000000
153.089100 1956.000000
159.079000 1700.000000
161.094100 2352.000000
163.073600 312.000000
163.090500 304.000000
165.070100 512.000000
165.091800 600.000000
167.105500 764.000000
169.064600 696.000000
171.079000 2384.000000
172.083100 348.000000
173.095300 1240.000000
175.073900 784.000000
177.088300 744.000000
179.086300 904.000000
181.101200 596.000000
183.080600 932.000000
185.058100 1048.000000
185.095100 1320.000000
187.073800 1452.000000
187.109900 552.000000
188.081600 312.000000
189.072100 676.000000
189.089700 588.000000
189.105200 312.000000
191.085300 440.000000
193.085100 596.000000
193.101800 432.000000
195.097800 596.000000
197.094400 860.000000
199.089100 308.000000
199.110200 664.000000
201.089600 616.000000
203.083600 388.000000
205.064600 312.000000
205.100700 324.000000
207.115600 440.000000
209.095300 1780.000000
210.101700 412.000000
211.090900 364.000000
211.110600 1880.000000
212.114400 324.000000
213.089700 1072.000000
213.104100 408.000000
213.127500 616.000000
214.095000 568.000000
219.099000 348.000000
219.116600 348.000000
221.097500 948.000000
222.102600 728.000000
223.110500 1936.000000
224.114400 640.000000
225.088500 376.000000
225.127000 1568.000000
226.131300 580.000000
227.105100 452.000000
227.123300 492.000000
227.142200 556.000000
233.092100 424.000000
235.111400 8664.000000
236.114700 2452.000000
237.091300 436.000000
237.126700 8012.000000
238.130000 1712.000000
239.108700 1040.000000
239.142000 768.000000
240.114600 336.000000
241.121000 664.000000
245.132300 300.000000
247.110600 768.000000
247.146300 304.000000
248.118200 312.000000
249.124700 1024.000000
251.106600 692.000000
251.143200 2076.000000
252.145200 728.000000
253.121600 31224.000000
254.125400 6520.000000
255.124000 1132.000000
256.119500 392.000000
256.141100 364.000000
257.132600 1044.000000
259.111000 612.000000
260.119600 464.000000
261.126300 2004.000000
262.132300 844.000000
263.142900 944.000000
265.122100 1136.000000
265.156600 1080.000000
267.173000 564.000000
271.112000 312.000000
271.146100 376.000000
273.128100 6972.000000
274.132800 1748.000000
275.105100 408.000000
275.142600 5164.000000
276.147500 2104.000000
277.122000 1140.000000
277.157900 11292.000000
278.128400 372.000000
278.161600 2516.000000
279.136600 2960.000000
279.172700 976.000000
280.142500 460.000000
280.176200 332.000000
281.153200 452.000000
287.142200 1508.000000
288.143600 544.000000
289.158200 3760.000000
290.162800 1036.000000
291.138200 684.000000
291.162800 336.000000
292.145600 528.000000
293.128800 584.000000
293.153700 4192.000000
294.156400 1416.000000
295.168800 5144.000000
296.170900 1328.000000
297.165700 1604.000000
299.141800 1000.000000
305.153000 2136.000000
306.154300 488.000000
307.169100 3504.000000
308.172400 1124.000000
309.144600 1164.000000
309.163700 1112.000000
310.150300 308.000000
311.161600 668.000000
313.160600 1140.000000
313.184200 316.000000
315.173400 1188.000000
317.153400 4172.000000
318.155200 1184.000000
319.149700 388.000000
323.163600 1404.000000
324.167100 520.000000
325.180400 1392.000000
326.181100 576.000000
327.174400 1024.000000
329.171800 364.000000
333.164700 664.000000
335.163900 7804.000000
336.166600 2360.000000
337.161600 1108.000000
338.158400 328.000000
343.171200 936.000000
345.172500 360.000000
347.182600 392.000000
351.175400 452.000000
353.174800 4552.000000
354.176600 1564.000000
355.168800 2344.000000
356.172500 700.000000
357.159100 320.000000
357.171200 324.000000
361.184900 516.000000
363.175200 352.000000
371.184100 5536.000000
372.188500 1348.000000
373.180400 4184.000000
374.185900 1112.000000
375.172100 952.000000
391.192600 2504.000000
392.192300 624.000000
393.186700 1672.000000
394.187600 560.000000
411.197300 1408.000000
412.201600 468.000000

>ms2
115.055300 608.000000
119.085100 828.000000
121.064100 7784.000000
122.068400 924.000000
123.080600 368.000000
125.059700 1120.000000
128.061200 316.000000
129.070000 436.000000
131.084000 728.000000
133.063500 1412.000000
133.099800 760.000000
135.041000 340.000000
135.079200 5536.000000
136.082700 724.000000
137.059100 304.000000
137.074500 704.000000
137.096300 796.000000
139.054500 1772.000000
139.091200 828.000000
141.070100 560.000000
143.084700 544.000000
145.063600 1988.000000
145.099000 712.000000
147.079600 3780.000000
148.082400 600.000000
149.074500 304.000000
149.094700 1208.000000
151.072600 548.000000
151.091500 576.000000
153.071100 324.000000
153.090200 856.000000
155.085300 416.000000
158.070800 620.000000
159.080000 3324.000000
159.115500 432.000000
160.082000 476.000000
161.060100 456.000000
161.076500 388.000000
161.094700 4016.000000
163.073700 792.000000
163.089800 592.000000
163.110100 308.000000
165.070800 1424.000000
165.089200 628.000000
165.107400 544.000000
167.084800 416.000000
169.064400 1172.000000
169.098800 384.000000
170.068500 404.000000
171.079500 4632.000000
172.082900 644.000000
173.060800 332.000000
173.094200 1760.000000
175.075000 320.000000
175.088800 556.000000
177.088200 496.000000
179.084900 1244.000000
179.106200 304.000000
181.100500 1136.000000
183.079400 1004.000000
185.059000 752.000000
185.096100 1552.000000
187.074100 1652.000000
187.110100 1048.000000
188.078700 328.000000
189.069200 896.000000
189.093300 420.000000
189.106000 1036.000000
190.074100 332.000000
191.084400 1396.000000
191.107600 360.000000
193.100400 676.000000
195.079500 636.000000
195.094600 340.000000
196.085000 568.000000
197.095500 1468.000000
198.099100 344.000000
199.112900 528.000000
201.088400 556.000000
203.085800 560.000000
203.108100 340.000000
204.092200 320.000000
205.066700 544.000000
205.099900 956.000000
207.118900 956.000000
208.087400 436.000000
209.095500 2080.000000
209.132400 464.000000
210.101700 1416.000000
211.110600 2252.000000
213.093100 1180.000000
213.126400 740.000000
214.095600 340.000000
217.101200 464.000000
219.116100 936.000000
221.094200 1376.000000
222.102400 1564.000000
223.111400 2512.000000
224.114600 600.000000
225.126800 4256.000000
226.132000 824.000000
227.106400 508.000000
227.126100 492.000000
227.140700 584.000000
229.100100 452.000000
230.108700 408.000000
231.118600 500.000000
233.095300 628.000000
233.134600 552.000000
235.110900 8480.000000
236.115000 2116.000000
237.090000 440.000000
237.126500 7396.000000
238.098100 796.000000
238.129900 1756.000000
239.107400 1140.000000
239.142400 760.000000
240.110500 376.000000
241.100800 488.000000
241.118600 420.000000
243.118100 440.000000
244.123000 368.000000
246.103400 420.000000
246.136200 376.000000
247.111400 1052.000000
247.148100 328.000000
248.119400 768.000000
249.126700 1280.000000
249.162400 488.000000
250.131800 684.000000
251.106300 764.000000
251.142700 2012.000000
252.144600 424.000000
253.121500 20120.000000
254.125300 3716.000000
255.118900 1192.000000
255.136300 760.000000
256.120500 352.000000
257.132600 1248.000000
259.110600 880.000000
259.148000 572.000000
260.118700 1200.000000
261.126000 2860.000000
262.133300 1472.000000
263.142000 1540.000000
264.113200 404.000000
264.146600 424.000000
265.120600 1040.000000
265.158200 1604.000000
266.163900 392.000000
267.115500 312.000000
267.140500 380.000000
267.173800 464.000000
272.121300 496.000000
273.127800 3740.000000
274.135300 1656.000000
275.142100 3956.000000
276.148200 1776.000000
277.120500 1044.000000
277.158500 9820.000000
278.129200 424.000000
278.161500 2104.000000
279.137500 1808.000000
279.170600 824.000000
280.142300 668.000000
281.129800 364.000000
281.152000 368.000000
287.143000 1328.000000
289.155900 2272.000000
290.162700 708.000000
291.136100 660.000000
292.144600 536.000000
293.150600 1300.000000
294.156400 456.000000
295.169000 2292.000000
296.168400 956.000000
297.166800 848.000000
298.168800 376.000000
299.141300 904.000000
302.129600 388.000000
305.152900 1216.000000
306.155500 552.000000
307.166300 1704.000000
308.174600 368.000000
309.159800 352.000000
311.136400 300.000000
311.167500 316.000000
313.156400 312.000000
315.175700 492.000000
317.152300 1136.000000
318.157400 344.000000
323.164500 628.000000
325.175500 436.000000
335.163100 1692.000000
336.170200 572.000000
337.159000 420.000000
353.177100 812.000000
355.170600 324.000000
373.178700 364.000000
375.167600 340.000000

>ms2
115.052900 504.000000
117.068300 360.000000
119.085300 1088.000000
121.063700 7664.000000
123.079400 408.000000
125.057700 364.000000
128.061300 596.000000
129.069400 928.000000
131.083900 1484.000000
133.063900 1332.000000
133.100000 1192.000000
135.079300 3588.000000
137.094800 424.000000
139.054200 2188.000000
139.090900 1012.000000
141.069500 732.000000
142.075600 380.000000
143.084900 1236.000000
144.057700 540.000000
144.090000 344.000000
145.064400 3000.000000
145.100500 1428.000000
147.078500 2884.000000
148.084100 300.000000
149.075200 624.000000
149.096500 440.000000
151.054300 392.000000
151.071900 316.000000
151.090700 596.000000
155.086000 672.000000
157.063100 308.000000
157.101200 500.000000
158.071600 996.000000
159.079300 2504.000000
159.116200 416.000000
160.083100 384.000000
161.057400 620.000000
161.075400 452.000000
161.095200 2848.000000
163.090200 684.000000
165.069300 916.000000
166.077300 412.000000
167.083900 368.000000
169.062500 1192.000000
169.101800 504.000000
170.072300 372.000000
171.079000 2928.000000
172.084200 896.000000
173.095000 1808.000000
174.099300 336.000000
175.076000 392.000000
175.090900 480.000000
175.112300 364.000000
177.069700 468.000000
179.085100 1344.000000
180.090900 384.000000
181.063600 480.000000
181.101000 948.000000
182.071400 472.000000
183.079600 772.000000
185.056900 640.000000
185.093400 1568.000000
187.074400 820.000000
187.111100 736.000000
189.069500 576.000000
189.107300 496.000000
190.076500 460.000000
191.086000 960.000000
192.091800 612.000000
193.099700 1196.000000
194.109100 556.000000
195.079500 1356.000000
195.100300 344.000000
195.115500 648.000000
196.085500 1160.000000
197.094700 1968.000000
197.132800 344.000000
198.099400 332.000000
199.111900 480.000000
203.083900 796.000000
204.091700 308.000000
205.064400 360.000000
205.099400 808.000000
206.107600 420.000000
207.114200 1388.000000
208.085700 1008.000000
208.121100 376.000000
209.095200 2140.000000
209.132600 408.000000
210.102000 2208.000000
211.109700 1508.000000
212.116600 776.000000
213.090700 444.000000
213.109300 308.000000
213.128200 464.000000
215.082800 336.000000
218.105500 332.000000
219.077800 676.000000
219.115100 1064.000000
220.088100 988.000000
220.119300 340.000000
221.096000 1316.000000
222.102200 2828.000000
223.109600 2388.000000
224.116300 780.000000
225.094100 508.000000
225.126000 3364.000000
226.129800 940.000000
227.102500 392.000000
227.144600 308.000000
229.101400 652.000000
230.104400 336.000000
231.078800 320.000000
231.115800 512.000000
232.084600 372.000000
232.119800 404.000000
233.094900 696.000000
233.133700 536.000000
234.101700 460.000000
235.110600 6656.000000
236.115600 1832.000000
237.087800 332.000000
237.126300 3132.000000
238.098300 1744.000000
238.130900 948.000000
239.104400 1052.000000
239.143700 448.000000
240.093200 404.000000
240.110400 424.000000
241.100500 408.000000
242.105300 452.000000
243.115900 568.000000
244.122700 652.000000
245.094300 1024.000000
245.133600 360.000000
246.103100 1340.000000
247.110700 1536.000000
247.149000 328.000000
248.117900 1092.000000
249.123900 904.000000
249.165500 352.000000
250.098200 300.000000
250.129800 684.000000
251.106500 392.000000
251.142200 1072.000000
252.147000 544.000000
253.121400 7608.000000
253.157700 396.000000
254.124900 1904.000000
255.118000 460.000000
255.133400 388.000000
256.125300 452.000000
257.133700 612.000000
258.101700 484.000000
259.111800 940.000000
259.147900 604.000000
260.117500 1784.000000
261.127300 2168.000000
262.133700 2816.000000
263.143300 1108.000000
264.111800 544.000000
264.147400 336.000000
265.121800 368.000000
265.156600 492.000000
271.150000 428.000000
272.120000 480.000000
273.123600 696.000000
274.132000 1140.000000
275.103800 300.000000
275.142200 1524.000000
276.149300 784.000000
277.121500 528.000000
277.157200 2916.000000
278.130200 416.000000
278.161700 848.000000
279.139600 368.000000
279.174600 392.000000
280.141600 428.000000
281.133100 380.000000
284.115700 448.000000
287.139300 380.000000
288.119000 308.000000
289.159900 904.000000
290.127300 372.000000
291.138900 332.000000
293.155100 328.000000
295.164800 324.000000
302.124100 300.000000

>ms2
115.053000 1528.000000
116.060600 384.000000
117.068400 760.000000
119.084400 948.000000
121.064500 7164.000000
122.068000 708.000000
123.062100 448.000000
125.058800 304.000000
128.061300 1544.000000
129.069500 780.000000
131.046900 492.000000
131.084900 1084.000000
132.055800 360.000000
133.064000 652.000000
133.100300 1072.000000
135.079400 2288.000000
137.074400 320.000000
139.054400 1708.000000
139.090500 720.000000
141.068900 1220.000000
142.075200 528.000000
143.084200 1664.000000
144.056100 588.000000
145.063600 2592.000000
145.099800 1056.000000
146.051400 560.000000
146.070700 736.000000
147.079000 2480.000000
148.081400 380.000000
149.075800 380.000000
149.095300 320.000000
151.053400 300.000000
152.062200 528.000000
153.069300 620.000000
154.076600 504.000000
155.085800 952.000000
156.092500 444.000000
157.063000 444.000000
157.099900 736.000000
158.071900 1480.000000
159.058900 596.000000
159.079100 2752.000000
160.067000 504.000000
160.086400 336.000000
161.058300 320.000000
161.074900 352.000000
161.095000 2028.000000
163.055100 352.000000
163.090400 744.000000
165.068800 1592.000000
166.075000 544.000000
167.083200 560.000000
168.057000 320.000000
169.063000 1336.000000
169.099800 768.000000
170.070000 704.000000
171.079900 3368.000000
172.083400 500.000000
173.094200 892.000000
175.089100 320.000000
177.070800 384.000000
178.077600 988.000000
179.085100 1164.000000
180.089500 432.000000
181.063900 460.000000
181.100500 716.000000
182.072300 812.000000
183.079600 1092.000000
183.116200 304.000000
184.086900 436.000000
185.058300 456.000000
185.093600 1184.000000
187.073900 636.000000
187.108900 368.000000
189.069100 684.000000
190.078600 436.000000
191.084900 1048.000000
192.092400 1504.000000
193.100400 1116.000000
194.074000 392.000000
194.108900 684.000000
195.079600 2164.000000
195.117500 692.000000
196.086300 1040.000000
197.093500 1256.000000
198.099400 420.000000
201.068700 300.000000
201.094100 324.000000
202.078800 344.000000
203.084000 984.000000
204.093000 708.000000
205.063600 664.000000
205.099600 912.000000
206.104700 432.000000
207.079700 568.000000
207.115300 2408.000000
208.088200 1384.000000
208.119100 540.000000
209.095100 2384.000000
209.128500 412.000000
210.103100 2092.000000
211.111900 708.000000
213.094100 356.000000
215.084400 568.000000
216.090000 448.000000
217.099500 1000.000000
218.107800 456.000000
219.077300 708.000000
219.114900 684.000000
220.087600 2120.000000
221.096100 1804.000000
221.130700 336.000000
222.102700 2556.000000
223.108900 1600.000000
225.091800 552.000000
225.126100 1328.000000
227.085800 320.000000
229.100300 972.000000
230.106100 640.000000
231.081200 580.000000
231.114800 604.000000
232.086600 476.000000
232.123000 452.000000
233.094300 1064.000000
234.101600 848.000000
235.111000 4556.000000
236.115600 1408.000000
237.087600 308.000000
237.126200 1140.000000
238.096700 1772.000000
239.101000 728.000000
240.092800 432.000000
241.101300 404.000000
242.107600 500.000000
243.117300 712.000000
244.125500 456.000000
245.096300 1304.000000
245.129900 316.000000
246.102900 1488.000000
247.111300 1508.000000
248.118700 992.000000
249.125000 744.000000
249.165600 392.000000
250.134100 324.000000
251.140700 348.000000
253.122000 2360.000000
256.121100 440.000000
259.109400 1280.000000
259.149800 328.000000
260.116600 1048.000000
261.124900 1736.000000
262.134500 1736.000000
263.104100 344.000000
263.138600 620.000000
264.113800 332.000000
272.114700 404.000000
273.129700 464.000000
274.136400 644.000000
275.142000 464.000000
277.118100 340.000000
277.156600 416.000000
302.129300 392.000000

>ms2
115.053700 304.000000
117.068300 432.000000
119.085500 1220.000000
121.064200 13332.000000
122.067200 1028.000000
123.079800 552.000000
125.059800 1296.000000
128.063100 344.000000
129.069200 400.000000
131.084400 1152.000000
133.063800 1176.000000
133.101200 704.000000
135.079500 6796.000000
136.082300 1024.000000
137.056400 396.000000
137.095500 716.000000
139.054600 1364.000000
139.074500 356.000000
139.090900 1876.000000
143.083900 780.000000
145.063700 1920.000000
145.099900 672.000000
147.079600 3984.000000
148.083100 664.000000
149.094800 1120.000000
151.075500 752.000000
151.091700 508.000000
153.090300 1020.000000
155.084500 472.000000
159.079000 3520.000000
159.113900 348.000000
160.083100 308.000000
161.058400 412.000000
161.076100 668.000000
161.094600 3644.000000
162.096800 396.000000
163.090000 496.000000
163.108800 320.000000
165.070000 1092.000000
165.089100 492.000000
167.086900 428.000000
169.063400 1344.000000
169.099000 576.000000
170.071700 340.000000
171.079800 3980.000000
173.095000 1528.000000
175.073600 600.000000
175.089200 596.000000
177.071000 348.000000
177.089600 532.000000
179.086100 1720.000000
179.106400 332.000000
181.099400 1020.000000
182.106900 316.000000
183.078500 1008.000000
184.086400 352.000000
185.057700 1068.000000
185.095000 1732.000000
186.100900 580.000000
187.075700 1664.000000
187.108800 852.000000
189.070700 708.000000
189.088900 396.000000
189.106200 632.000000
191.086000 944.000000
191.104300 376.000000
192.093200 312.000000
193.089400 392.000000
193.101200 1456.000000
194.108600 404.000000
195.078100 816.000000
195.099200 344.000000
195.114900 396.000000
197.095900 1380.000000
199.110200 696.000000
201.090400 580.000000
203.085100 424.000000
205.067200 456.000000
205.100200 696.000000
205.120800 396.000000
207.114900 1008.000000
208.086900 636.000000
209.096800 2608.000000
209.133500 348.000000
210.101500 852.000000
211.071200 336.000000
211.111700 2712.000000
212.111100 436.000000
213.089700 1260.000000
213.107800 300.000000
213.125500 752.000000
215.084600 352.000000
215.103400 384.000000
217.100700 380.000000
219.079900 344.000000
219.098600 576.000000
219.114800 636.000000
220.087700 384.000000
221.095700 1508.000000
222.103100 2116.000000
223.110800 2324.000000
224.115700 628.000000
225.127000 3600.000000
226.130600 964.000000
227.106100 672.000000
227.138100 776.000000
229.099600 740.000000
231.116300 420.000000
233.094800 860.000000
233.129800 324.000000
234.102400 308.000000
235.111800 8708.000000
236.114300 1884.000000
237.127500 7592.000000
238.099000 1000.000000
238.130700 1776.000000
239.106600 1816.000000
239.140400 784.000000
240.109700 336.000000
241.102600 344.000000
241.117600 444.000000
244.121700 348.000000
245.094300 416.000000
246.103300 744.000000
247.111200 984.000000
248.118700 1000.000000
249.126600 1344.000000
249.162300 424.000000
250.131500 708.000000
251.105500 848.000000
251.142600 1732.000000
253.122600 22400.000000
254.125300 5376.000000
255.119000 1012.000000
256.119400 508.000000
257.132000 1268.000000
258.135400 400.000000
259.113400 1096.000000
259.145900 700.000000
260.119500 1372.000000
261.126400 2428.000000
262.132900 2344.000000
263.109600 432.000000
263.142300 1312.000000
264.116000 356.000000
264.154000 348.000000
265.119600 860.000000
265.157300 1200.000000
266.164100 404.000000
267.116300 364.000000
267.173900 544.000000
269.131900 504.000000
271.113400 300.000000
271.130800 356.000000
271.147000 392.000000
272.118800 524.000000
273.128200 3652.000000
274.131500 1492.000000
275.143000 4600.000000
276.115100 300.000000
276.148400 2412.000000
277.122400 992.000000
277.158500 11448.000000
278.128400 352.000000
278.163600 2136.000000
279.138700 1864.000000
279.170400 776.000000
280.140700 840.000000
280.177200 308.000000
281.133400 468.000000
281.153600 472.000000
284.119900 328.000000
287.141200 996.000000
288.147600 316.000000
289.157800 2756.000000
290.163000 684.000000
291.139100 808.000000
292.145800 396.000000
293.152900 2352.000000
294.159700 864.000000
295.149900 696.000000
295.170800 2764.000000
296.173300 1096.000000
297.164400 1004.000000
299.142700 728.000000
302.131000 520.000000
305.154400 1520.000000
306.154000 320.000000
307.169900 1464.000000
308.170300 716.000000
309.158600 556.000000
311.164100 504.000000
313.159500 568.000000
314.166900 300.000000
315.177100 428.000000
317.154600 2220.000000
318.159600 820.000000
323.163600 944.000000
325.163400 400.000000
325.181000 592.000000
335.165300 3408.000000
336.173200 824.000000
343.169300 444.000000
353.174400 1724.000000
354.182200 480.000000
355.170000 712.000000
371.182400 812.000000
373.183000 948.000000
374.183900 408.000000
375.174400 320.000000
393.185200 376.000000

