>compound AU80036805
>parentmass 411.1733
>ionization [M+H]+
>formula C22H28ClFO4
>rt 567.430000
>profile qtof
#smiles_iso C[C@H]1C[C@H]2[C@@H]3CCC4=CC(=O)C=C[C@@]4([C@]3([C@H](C[C@@]2([C@]1(C(=O)CCl)O)C)O)F)C
#smiles_can CC1CC2C3CCC4=CC(=O)C=CC4(C3(C(CC2(C1(C(=O)CCl)O)C)O)F)C
#inchikey FCSHDIVRCWTZOX-DVTGEIKXSA-N
#pubchem_id 5311051
#mb_accession AU239901,AU239902,AU239903,AU239904,AU239905,AU239906

>ms2
133.039800 776.000000
147.080000 2600.000000
159.077600 336.000000
161.094700 916.000000
171.055400 992.000000
171.079400 1556.000000
173.051300 376.000000
173.095200 724.000000
185.071100 528.000000
185.093200 984.000000
187.052700 412.000000
187.075000 476.000000
187.110700 460.000000
195.055900 348.000000
197.098200 376.000000
199.109900 336.000000
203.105900 732.000000
211.108900 304.000000
213.066300 740.000000
213.127400 816.000000
215.102200 376.000000
223.110100 1100.000000
225.125300 384.000000
231.078500 380.000000
235.112900 300.000000
237.126500 2576.000000
238.130300 520.000000
239.141900 868.000000
241.122600 368.000000
249.125800 360.000000
253.122300 720.000000
253.156900 444.000000
263.143100 1580.000000
267.137900 492.000000
275.145400 476.000000
277.158900 1312.000000
278.165100 868.000000
279.174300 1684.000000
280.177300 372.000000
281.157100 328.000000
291.175300 624.000000
295.167900 500.000000
301.158000 808.000000
309.184500 1200.000000
310.190800 328.000000
313.128200 300.000000
313.138400 440.000000
319.170300 1672.000000
320.174300 636.000000
327.150900 1184.000000
329.129400 2256.000000
330.135200 480.000000
331.127400 568.000000
331.147300 492.000000
337.136800 1488.000000
337.181600 2012.000000
339.131800 524.000000
339.190900 348.000000
345.162300 1300.000000
346.166800 392.000000
347.157200 508.000000
349.157300 1060.000000
350.160200 364.000000
350.986200 320.000000
355.145000 7772.000000
355.191300 1848.000000
356.147600 2700.000000
356.196700 608.000000
357.144800 1924.000000
357.170100 300.000000
358.150000 376.000000
373.156000 22344.000000
374.160900 6560.000000
375.154300 7464.000000
376.157500 1412.000000
377.153000 328.000000
391.167000 56784.000000
392.169600 15260.000000
393.164200 16864.000000
394.167000 2732.000000
411.173500 43348.000000
412.176400 12840.000000
413.170500 13932.000000

>ms2
119.084900 432.000000
121.064300 976.000000
121.100900 596.000000
125.058900 632.000000
131.084500 1472.000000
133.039900 1116.000000
133.064800 368.000000
133.099500 384.000000
135.036500 440.000000
135.080000 1124.000000
137.095800 352.000000
143.022400 352.000000
143.085200 496.000000
145.061200 316.000000
145.100400 460.000000
147.079100 14332.000000
148.083200 1636.000000
149.095300 976.000000
157.100100 320.000000
159.078700 3008.000000
160.081700 544.000000
161.094600 2508.000000
162.097700 840.000000
163.074500 468.000000
165.069600 332.000000
167.061700 348.000000
169.064900 492.000000
169.077900 476.000000
171.055700 4052.000000
171.079100 6616.000000
172.059600 652.000000
172.082400 1364.000000
173.035100 1188.000000
173.053900 1312.000000
173.094300 3384.000000
174.099300 560.000000
175.031500 388.000000
175.110600 492.000000
177.090500 740.000000
183.055500 936.000000
185.054500 460.000000
185.071500 2476.000000
185.095200 2844.000000
186.075400 368.000000
187.049900 1448.000000
187.072500 2716.000000
187.111800 2100.000000
188.076200 316.000000
188.114000 388.000000
189.050300 324.000000
189.089500 1148.000000
193.076000 328.000000
195.056000 804.000000
195.115000 364.000000
196.126700 348.000000
197.070800 580.000000
197.094000 1720.000000
198.100400 344.000000
199.071700 508.000000
199.109600 748.000000
201.126500 420.000000
203.105300 1332.000000
209.073000 320.000000
209.094400 712.000000
210.097800 328.000000
210.106700 380.000000
211.051200 856.000000
211.110800 3940.000000
212.115800 1176.000000
213.067000 2116.000000
213.089300 380.000000
213.125900 2620.000000
214.068000 348.000000
214.131200 376.000000
215.066500 1056.000000
215.082700 404.000000
215.106600 1836.000000
215.142200 304.000000
221.093900 708.000000
221.130200 320.000000
223.110400 2868.000000
224.116600 1092.000000
225.125800 1716.000000
226.129800 396.000000
227.087400 360.000000
227.141500 1012.000000
235.111400 1508.000000
235.148600 516.000000
236.117700 504.000000
237.126400 8664.000000
238.129600 1920.000000
239.104600 492.000000
239.141300 4648.000000
240.146300 992.000000
241.121200 1184.000000
241.155700 396.000000
242.124200 316.000000
249.126500 1544.000000
250.130000 508.000000
251.142300 832.000000
252.143400 312.000000
252.153700 380.000000
253.120300 2180.000000
253.158400 1952.000000
254.125000 524.000000
254.161200 476.000000
255.138200 1464.000000
260.116400 316.000000
261.127800 632.000000
261.160200 368.000000
262.135300 320.000000
263.141500 5372.000000
264.147000 772.000000
265.156500 392.000000
267.138500 2288.000000
267.174300 792.000000
268.139200 456.000000
271.088100 440.000000
275.142400 1280.000000
276.147200 516.000000
277.159600 3968.000000
278.164800 5536.000000
279.173900 4580.000000
280.177900 1168.000000
281.153500 572.000000
281.187200 312.000000
285.103500 360.000000
286.135100 316.000000
288.147000 944.000000
291.174000 3324.000000
292.175700 836.000000
293.152800 392.000000
295.133000 404.000000
295.168600 1748.000000
296.174600 1512.000000
297.183400 1232.000000
299.083100 324.000000
301.158100 3376.000000
302.161500 1092.000000
306.162500 880.000000
309.183900 2408.000000
310.187600 720.000000
311.128100 424.000000
313.098800 596.000000
313.133200 1772.000000
314.137700 584.000000
315.129800 632.000000
319.167300 4548.000000
320.170500 1404.000000
327.149600 3256.000000
327.196400 320.000000
328.153700 596.000000
329.128500 5768.000000
330.135100 1448.000000
330.155500 328.000000
331.125600 1708.000000
332.128000 300.000000
337.135900 3252.000000
337.178500 6040.000000
338.139900 812.000000
338.182900 1612.000000
339.133100 1036.000000
339.175400 404.000000
340.133300 372.000000
345.160400 2048.000000
346.169600 524.000000
347.156300 632.000000
350.985000 352.000000
355.144700 12580.000000
355.189600 2760.000000
356.148100 4232.000000
356.193400 792.000000
357.143100 4340.000000
358.148400 852.000000
373.156100 29008.000000
374.159100 8524.000000
375.153300 9392.000000
376.157100 1920.000000
391.166000 6424.000000
392.170100 1800.000000
393.165500 2184.000000
394.165200 672.000000
411.171400 928.000000

>ms2
119.084100 680.000000
120.089000 300.000000
121.064700 2152.000000
121.099900 884.000000
123.079700 332.000000
125.059100 308.000000
125.093500 640.000000
128.061900 856.000000
129.068400 468.000000
131.084400 2468.000000
132.056700 596.000000
133.040800 672.000000
133.063000 632.000000
133.100400 648.000000
135.079500 2640.000000
136.085200 440.000000
137.058200 372.000000
137.095200 464.000000
141.068400 380.000000
143.023900 324.000000
143.060400 400.000000
143.084300 1920.000000
145.023400 392.000000
145.039600 388.000000
145.063000 1524.000000
145.100500 1336.000000
146.069800 440.000000
147.079100 17556.000000
148.083300 1552.000000
149.095400 1044.000000
151.073900 376.000000
155.061600 344.000000
155.083800 680.000000
157.041600 316.000000
157.077500 332.000000
157.100200 952.000000
158.071400 688.000000
159.079300 4644.000000
160.083400 1104.000000
161.057800 316.000000
161.095000 3616.000000
162.098200 388.000000
163.074200 484.000000
167.061000 940.000000
167.086700 460.000000
169.040700 516.000000
169.061300 1056.000000
171.055600 4356.000000
171.079600 10292.000000
171.115600 568.000000
172.061000 708.000000
172.083800 1784.000000
173.034800 1128.000000
173.052300 1260.000000
173.094700 4656.000000
174.098600 536.000000
175.109000 500.000000
177.089800 612.000000
179.083800 468.000000
183.055800 1772.000000
183.080600 608.000000
183.115800 332.000000
185.035900 660.000000
185.052700 544.000000
185.072300 2272.000000
185.095200 4252.000000
186.075500 344.000000
186.098100 792.000000
187.052100 924.000000
187.072700 2240.000000
187.110800 2372.000000
188.080500 308.000000
188.118000 340.000000
189.047300 320.000000
189.089800 556.000000
193.075500 308.000000
193.101900 392.000000
195.056000 1260.000000
195.081500 340.000000
195.117000 668.000000
196.086700 524.000000
196.121600 320.000000
197.071100 364.000000
197.095200 2416.000000
197.129800 452.000000
198.100200 560.000000
199.071700 512.000000
199.113000 1048.000000
201.126400 420.000000
203.105100 704.000000
207.117300 524.000000
208.089000 344.000000
209.035600 300.000000
209.095300 1680.000000
209.133100 660.000000
210.103300 804.000000
211.051200 880.000000
211.109800 5996.000000
212.117600 3816.000000
213.049400 424.000000
213.065300 1124.000000
213.089600 524.000000
213.126000 2768.000000
214.129100 552.000000
215.107100 2240.000000
216.110700 308.000000
219.115700 680.000000
221.095300 1280.000000
221.133600 864.000000
222.103500 1332.000000
223.111100 3752.000000
224.117500 1584.000000
225.126400 2168.000000
226.130800 468.000000
227.104100 452.000000
227.143000 1540.000000
228.146600 480.000000
233.095300 412.000000
234.102600 688.000000
235.112400 3220.000000
235.146300 1312.000000
236.114600 796.000000
236.156600 492.000000
237.127100 8280.000000
238.129600 2084.000000
239.107800 500.000000
239.143400 5280.000000
240.147400 1472.000000
241.122100 740.000000
242.127000 308.000000
244.125300 380.000000
245.131000 688.000000
246.103700 348.000000
246.139800 336.000000
247.052300 304.000000
248.118800 1072.000000
249.126300 2568.000000
249.161000 488.000000
250.133200 700.000000
250.169600 1016.000000
251.104900 356.000000
251.141900 1356.000000
252.149200 1376.000000
253.122000 2156.000000
253.157300 1820.000000
254.131200 352.000000
254.157900 344.000000
255.137000 1088.000000
257.133800 396.000000
259.114200 484.000000
259.146000 556.000000
260.118700 712.000000
260.155000 468.000000
261.126900 972.000000
261.163900 840.000000
262.134400 1396.000000
263.141700 7504.000000
264.146500 1564.000000
265.160900 408.000000
267.137400 1220.000000
267.175900 688.000000
268.138200 452.000000
271.107100 352.000000
272.117900 444.000000
273.126600 700.000000
273.165000 452.000000
274.131300 476.000000
275.086700 380.000000
275.142500 1336.000000
276.150700 1244.000000
277.122200 372.000000
277.158000 4152.000000
278.165000 8452.000000
279.133100 356.000000
279.172400 4172.000000
280.175400 696.000000
281.150500 588.000000
281.185900 332.000000
283.151200 396.000000
285.102400 524.000000
286.135500 948.000000
287.091300 304.000000
287.138900 452.000000
288.149900 1396.000000
289.158800 760.000000
291.139100 448.000000
291.173700 2484.000000
292.176200 832.000000
293.150900 460.000000
295.123800 504.000000
295.169500 820.000000
296.180700 1336.000000
297.181700 796.000000
299.082000 300.000000
301.158100 3088.000000
302.161300 872.000000
303.115800 416.000000
304.143700 448.000000
306.161200 1592.000000
307.166600 424.000000
309.184800 700.000000
311.119800 412.000000
313.097800 768.000000
313.134600 1420.000000
314.137200 644.000000
315.129400 504.000000
319.169900 2324.000000
320.171300 816.000000
327.150300 1272.000000
328.155500 460.000000
329.130800 2168.000000
330.135100 564.000000
331.127300 624.000000
337.133000 1292.000000
337.178700 1756.000000
338.182400 720.000000
339.136000 812.000000
345.163000 564.000000
355.145300 3392.000000
356.147200 988.000000
357.142400 1112.000000
373.159200 3076.000000
374.158500 860.000000
375.153300 1204.000000

>ms2
115.052600 380.000000
119.085100 1460.000000
121.064000 3704.000000
121.101200 400.000000
122.068000 356.000000
125.060400 392.000000
125.095800 316.000000
128.061300 1064.000000
129.068800 728.000000
131.084600 2064.000000
132.054300 856.000000
132.090100 340.000000
133.064400 464.000000
133.100000 736.000000
135.021000 348.000000
135.079600 2124.000000
136.082800 400.000000
141.070100 708.000000
142.076800 548.000000
143.063400 344.000000
143.084100 2260.000000
144.056200 300.000000
145.064200 2208.000000
145.100200 1144.000000
146.069800 684.000000
147.079800 12812.000000
148.082600 1624.000000
149.094100 604.000000
151.075100 480.000000
155.060200 448.000000
155.084100 624.000000
156.089100 372.000000
157.100100 1100.000000
158.072700 684.000000
159.079500 4968.000000
160.082400 780.000000
161.094700 2520.000000
162.098800 480.000000
165.070100 376.000000
166.074300 344.000000
167.061200 676.000000
167.084200 620.000000
169.041000 344.000000
169.064200 844.000000
169.099300 668.000000
171.056000 1692.000000
171.078800 6892.000000
172.082900 1208.000000
173.052500 560.000000
173.094800 3096.000000
174.099900 380.000000
175.034100 348.000000
175.109300 528.000000
178.078800 472.000000
179.086600 676.000000
181.063900 352.000000
181.100300 692.000000
182.071700 484.000000
182.106400 336.000000
183.058000 916.000000
183.080000 736.000000
183.114700 684.000000
184.087500 380.000000
185.071400 964.000000
185.094700 2400.000000
186.098500 636.000000
187.052100 400.000000
187.074600 1168.000000
187.110800 808.000000
189.089800 332.000000
191.085200 604.000000
192.090200 312.000000
193.099200 1200.000000
194.106600 492.000000
195.053600 556.000000
195.078000 868.000000
195.115600 592.000000
196.087200 1652.000000
197.095400 2608.000000
197.135300 312.000000
198.099100 1060.000000
199.109900 744.000000
200.119200 352.000000
204.091400 764.000000
205.099300 620.000000
206.107600 436.000000
207.086800 320.000000
207.115500 660.000000
208.086400 1584.000000
209.094300 2280.000000
209.130800 920.000000
210.103900 1300.000000
210.135700 380.000000
211.110600 3564.000000
212.118200 3516.000000
213.125600 2216.000000
214.126300 304.000000
215.106000 728.000000
217.101000 580.000000
219.078900 328.000000
219.116000 936.000000
220.090100 380.000000
220.121100 480.000000
221.095500 1196.000000
221.131000 488.000000
222.103100 2732.000000
223.110200 3400.000000
224.116900 1652.000000
225.127100 1064.000000
226.133800 368.000000
227.144000 644.000000
230.107700 480.000000
231.114600 688.000000
232.123600 376.000000
233.096400 584.000000
233.129600 360.000000
234.103700 868.000000
235.110000 2048.000000
235.148200 1036.000000
236.116300 812.000000
236.154900 1088.000000
237.125900 4856.000000
237.160900 324.000000
238.131000 1148.000000
239.143000 2572.000000
240.153300 312.000000
244.125700 556.000000
245.094000 388.000000
245.133400 640.000000
246.102600 616.000000
247.109800 652.000000
248.118300 1612.000000
249.128000 1524.000000
250.133000 916.000000
250.170200 1012.000000
251.139800 780.000000
252.148800 1272.000000
253.122600 628.000000
253.159100 1100.000000
254.157300 304.000000
255.136800 316.000000
257.129700 308.000000
258.137900 460.000000
259.108400 520.000000
259.146300 440.000000
260.116300 748.000000
260.153900 776.000000
261.127200 892.000000
261.166100 752.000000
262.135700 1228.000000
262.167700 308.000000
263.142800 7276.000000
264.148000 1316.000000
265.155600 320.000000
267.136400 304.000000
269.152500 308.000000
271.111800 348.000000
273.127500 956.000000
274.131300 300.000000
275.139800 648.000000
276.150200 896.000000
277.121600 420.000000
277.158300 1692.000000
278.166300 2728.000000
279.169400 1568.000000
281.153100 552.000000
286.136400 724.000000
287.140200 388.000000
288.149500 784.000000
289.154800 644.000000
291.137600 656.000000
291.174200 548.000000
292.142300 448.000000
296.174600 492.000000
301.159600 1004.000000
306.164100 732.000000
319.170300 432.000000
320.170800 344.000000
355.147600 480.000000
373.158100 308.000000

>ms2
115.053200 996.000000
116.059500 348.000000
117.069000 572.000000
119.084400 1376.000000
121.063800 3348.000000
128.061000 2428.000000
129.068400 1532.000000
130.076000 556.000000
131.046800 568.000000
131.084400 1736.000000
132.055700 1176.000000
132.090600 336.000000
133.063400 540.000000
133.102100 400.000000
135.079300 1384.000000
136.083100 504.000000
141.069200 1088.000000
142.076500 1280.000000
143.084400 2360.000000
144.056500 756.000000
144.090200 548.000000
145.063500 3108.000000
145.101000 1136.000000
146.071200 644.000000
147.079000 8580.000000
148.083000 1128.000000
152.063400 308.000000
153.068900 624.000000
154.076400 540.000000
155.059300 744.000000
155.084300 1152.000000
156.089400 644.000000
157.062600 660.000000
157.099400 924.000000
158.071000 1520.000000
159.079100 4036.000000
160.085700 756.000000
161.095700 1708.000000
165.068000 1112.000000
166.075700 440.000000
167.062000 320.000000
167.084300 892.000000
168.090800 476.000000
169.063800 656.000000
169.103500 564.000000
170.069900 596.000000
170.105200 392.000000
171.056700 384.000000
171.079500 4736.000000
172.085000 1116.000000
173.094800 1620.000000
175.110700 364.000000
178.075000 1008.000000
179.083300 1644.000000
180.091500 564.000000
181.064100 740.000000
181.101100 892.000000
182.071200 1404.000000
183.078900 1388.000000
183.114300 544.000000
184.086100 916.000000
185.094300 1692.000000
186.101000 324.000000
187.071600 424.000000
187.111900 384.000000
189.069900 432.000000
190.076500 488.000000
191.083700 732.000000
192.091900 392.000000
193.099700 1516.000000
194.072400 444.000000
194.105000 804.000000
195.079300 1580.000000
195.117500 624.000000
196.087000 1628.000000
196.125000 312.000000
197.095100 2312.000000
197.133500 368.000000
198.102300 924.000000
199.111500 868.000000
202.075300 352.000000
203.085400 524.000000
204.093100 712.000000
205.099200 1056.000000
206.109200 520.000000
207.079700 792.000000
207.114700 848.000000
208.088300 1540.000000
209.095500 2608.000000
209.131600 492.000000
210.100800 1192.000000
211.111600 1892.000000
212.116700 1592.000000
213.125700 788.000000
215.086200 500.000000
215.107300 356.000000
216.091600 416.000000
217.098200 524.000000
218.106400 416.000000
219.080200 384.000000
219.115200 956.000000
220.082600 500.000000
220.123200 368.000000
221.094600 1660.000000
221.130700 692.000000
222.103400 2884.000000
223.110000 2824.000000
224.118300 980.000000
225.126600 484.000000
229.101400 400.000000
230.108700 656.000000
231.117900 464.000000
232.125100 424.000000
233.095100 1096.000000
234.103400 776.000000
235.110200 1776.000000
235.146900 1452.000000
236.118500 672.000000
236.155700 480.000000
237.127200 2632.000000
238.131000 544.000000
239.142200 704.000000
243.114000 316.000000
244.122400 420.000000
245.093000 468.000000
245.134900 796.000000
246.100000 408.000000
247.112500 1460.000000
248.117900 2500.000000
249.123200 1136.000000
249.162500 372.000000
250.131500 700.000000
250.169200 356.000000
251.140400 324.000000
251.176600 300.000000
252.151500 608.000000
257.129600 324.000000
258.105700 400.000000
258.140000 340.000000
259.110600 540.000000
259.148200 384.000000
260.120900 544.000000
260.153500 304.000000
261.125600 1304.000000
261.167600 408.000000
262.133100 824.000000
263.141900 5116.000000
264.149100 1012.000000
271.113400 468.000000
273.127700 680.000000
274.132300 384.000000
276.149100 360.000000
277.117500 328.000000
277.157800 844.000000
278.163800 560.000000
279.172200 312.000000
281.156300 420.000000
287.140700 532.000000
291.140100 780.000000

>ms2
119.023800 372.000000
119.084000 848.000000
121.063900 2892.000000
121.100600 592.000000
122.067600 516.000000
125.096000 308.000000
128.060400 616.000000
129.067800 408.000000
131.084200 1912.000000
132.089500 416.000000
133.038700 492.000000
133.063100 988.000000
133.100600 796.000000
135.018700 364.000000
135.078300 2412.000000
137.097300 456.000000
141.067300 380.000000
143.022900 404.000000
143.061200 388.000000
143.084000 1812.000000
145.062800 1580.000000
145.099700 940.000000
146.068800 456.000000
147.079300 17316.000000
148.083000 1628.000000
149.094800 1444.000000
155.082800 576.000000
157.040700 472.000000
157.074100 316.000000
157.100100 1168.000000
158.072300 520.000000
159.056400 328.000000
159.078500 4684.000000
160.082100 868.000000
161.094200 3764.000000
162.098000 656.000000
163.072900 440.000000
165.068800 412.000000
167.061800 920.000000
167.083900 332.000000
169.040700 732.000000
169.063000 860.000000
169.096800 500.000000
171.056200 4308.000000
171.079300 9636.000000
172.059800 640.000000
172.082400 1140.000000
173.033500 668.000000
173.051800 1524.000000
173.094500 4452.000000
174.098100 756.000000
175.071700 456.000000
175.109800 544.000000
177.088500 784.000000
179.083400 320.000000
181.100300 588.000000
183.055100 1496.000000
183.077400 708.000000
183.114200 336.000000
184.085600 360.000000
185.035700 340.000000
185.070800 2264.000000
185.094400 3936.000000
186.100100 672.000000
187.050400 732.000000
187.071800 2308.000000
187.110300 1996.000000
188.079700 344.000000
188.111700 352.000000
189.089500 580.000000
193.099300 740.000000
195.053800 876.000000
195.117900 852.000000
196.088300 664.000000
197.053000 328.000000
197.071000 372.000000
197.094500 2776.000000
197.130100 400.000000
198.099100 496.000000
199.074000 352.000000
199.109800 868.000000
201.126200 428.000000
203.105700 896.000000
205.097800 396.000000
207.115600 604.000000
208.087000 648.000000
208.120800 348.000000
209.076300 304.000000
209.094200 1364.000000
209.129000 656.000000
210.102400 1084.000000
211.052200 676.000000
211.071300 380.000000
211.110700 5552.000000
212.116700 3720.000000
213.067700 1324.000000
213.091500 584.000000
213.126100 2680.000000
214.071300 364.000000
214.127900 644.000000
215.065500 368.000000
215.107200 1612.000000
217.097800 368.000000
219.116500 416.000000
221.095200 1288.000000
221.130800 880.000000
222.103000 1936.000000
223.050900 324.000000
223.110100 4176.000000
224.116800 1360.000000
225.126100 2168.000000
226.130600 396.000000
227.081600 332.000000
227.103000 484.000000
227.142900 1172.000000
228.146200 524.000000
231.117200 352.000000
233.096300 388.000000
233.129200 300.000000
234.103700 560.000000
235.111800 2284.000000
235.146900 876.000000
236.116300 900.000000
236.154800 656.000000
237.126600 8484.000000
238.130100 2080.000000
239.107100 304.000000
239.142600 5052.000000
240.146800 936.000000
241.122900 924.000000
241.155300 396.000000
242.129400 308.000000
246.101800 392.000000
246.140500 368.000000
247.090000 440.000000
248.118700 996.000000
249.125900 2052.000000
250.135600 480.000000
250.169400 564.000000
251.141900 1180.000000
251.174300 348.000000
252.150600 784.000000
253.121200 1796.000000
253.156500 1560.000000
254.159100 424.000000
255.136500 956.000000
257.141400 316.000000
259.111400 376.000000
259.149100 360.000000
260.118800 884.000000
260.152200 492.000000
261.125200 588.000000
261.163300 628.000000
262.133700 1264.000000
263.142300 7328.000000
264.145100 1884.000000
265.156800 616.000000
266.163000 320.000000
267.137700 1284.000000
267.173800 680.000000
268.140000 496.000000
269.147400 336.000000
272.117500 300.000000
273.129300 816.000000
273.164500 384.000000
274.132000 588.000000
275.142400 1332.000000
276.148200 1204.000000
277.122500 516.000000
277.158500 3796.000000
278.165300 6204.000000
279.137200 388.000000
279.172700 4956.000000
280.177200 676.000000
281.153200 848.000000
283.145100 408.000000
286.135700 404.000000
287.142000 384.000000
288.151200 1084.000000
289.152200 368.000000
289.166400 376.000000
291.139700 320.000000
291.172900 2664.000000
292.177200 740.000000
293.149500 300.000000
295.132000 360.000000
295.168500 776.000000
296.174800 800.000000
297.178600 652.000000
301.156600 2756.000000
302.158000 656.000000
306.160200 1480.000000
307.162600 364.000000
309.185000 1040.000000
311.119600 348.000000
313.098200 768.000000
313.132500 1340.000000
314.136000 432.000000
315.128200 648.000000
319.169500 2128.000000
320.172600 580.000000
327.149400 1748.000000
328.153300 496.000000
329.130000 2024.000000
330.131400 760.000000
331.126900 792.000000
337.133900 1212.000000
337.178400 3064.000000
338.185900 592.000000
339.132500 848.000000
345.159800 708.000000
347.163100 304.000000
355.147100 4232.000000
355.188000 708.000000
356.147700 1656.000000
357.142000 1812.000000
358.150600 348.000000
373.155200 7484.000000
374.160200 2240.000000
375.154100 3116.000000
376.154900 524.000000
391.168300 676.000000
393.159600 360.000000
393.169600 384.000000

