>compound AU80385386
>parentmass 235.1441
>ionization [M+H]+
>formula C13H18N2O2
>rt 499.140000
>profile qtof
#smiles_iso C1CCC(CC1)N2C(=O)C3=C(CCC3)NC2=O
#smiles_can C1CCC(CC1)N2C(=O)C3=C(CCC3)NC2=O
#inchikey ZTMKADLOSYKWCA-UHFFFAOYSA-N
#pubchem_id 16559
#mb_accession AU254401,AU254402,AU254403,AU254404,AU254405,AU254406

>ms2
153.065000 279740.000000
154.067900 22284.000000
155.069100 1904.000000
235.143900 226244.000000
236.146800 34104.000000
237.149000 2876.000000

>ms2
135.054800 6968.000000
136.038700 15188.000000
153.065300 583148.000000
154.068300 45260.000000
155.070500 3132.000000
235.144200 5680.000000

>ms2
135.054600 26612.000000
136.038300 57560.000000
137.041600 3156.000000
153.065100 447416.000000
154.068400 31404.000000
155.069600 2468.000000

>ms2
110.059900 1072.000000
135.054000 42604.000000
136.037900 88544.000000
137.041300 6212.000000
151.049400 884.000000
153.064600 172104.000000
154.067600 16140.000000
155.069300 1132.000000

>ms2
110.059400 612.000000
135.054000 28972.000000
136.038200 52152.000000
136.057200 3044.000000
137.041100 4440.000000
153.064600 37528.000000
154.067800 2988.000000

>ms2
83.085800 2460.000000
135.055800 10472.000000
136.039300 20148.000000
153.066200 387112.000000
154.069400 39100.000000
155.069800 2908.000000
235.145000 4924.000000

