>compound AU80515642
>parentmass 334.1049
>ionization [M+H]+
>formula C18H14F3NO2
>rt 550.170000
>profile qtof
#smiles_iso CNC1=C(C(=O)C(O1)C2=CC=CC=C2)C3=CC(=CC=C3)C(F)(F)F
#smiles_can CNC1=C(C(=O)C(O1)C2=CC=CC=C2)C3=CC(=CC=C3)C(F)(F)F
#inchikey NYRMIJKDBAQCHC-UHFFFAOYSA-N
#pubchem_id 91755
#mb_accession AU231801,AU231802,AU231803,AU231804,AU231805,AU231806

>ms2
334.106200 2510164.000000
335.108800 782456.000000
336.111400 66556.000000

>ms2
120.080200 20972.000000
131.048400 20968.000000
171.040600 13840.000000
199.035700 25980.000000
225.015000 28912.000000
247.072700 428824.000000
248.075800 57532.000000
249.086500 15812.000000
256.057500 38140.000000
257.076600 56232.000000
275.067700 392212.000000
276.070700 55320.000000
277.083200 217276.000000
278.086400 34164.000000
288.098800 22952.000000
303.062600 436836.000000
304.065900 67240.000000
306.110000 432576.000000
307.113000 65412.000000
316.093900 36720.000000
334.105900 2510512.000000
336.110900 68856.000000

>ms2
120.080200 64020.000000
131.048500 29152.000000
171.040600 66728.000000
178.076900 115260.000000
179.080300 13752.000000
197.020000 14532.000000
199.035500 34644.000000
207.059600 19340.000000
209.075300 29216.000000
225.015300 87092.000000
227.066300 110324.000000
228.065000 29808.000000
229.081200 29128.000000
237.070500 18404.000000
238.046900 15440.000000
243.026000 31120.000000
247.073200 2513560.000000
248.076200 397336.000000
249.086000 39732.000000
256.057900 38928.000000
257.077100 78416.000000
258.080100 13568.000000
275.068000 447364.000000
276.071000 62904.000000
277.083000 73860.000000
286.103700 30220.000000
288.099100 54676.000000
303.062900 396444.000000
304.065900 63008.000000
306.110100 378844.000000
307.113400 54800.000000
316.094000 27692.000000
334.105400 389784.000000
335.108200 65744.000000

>ms2
120.079800 50676.000000
171.040500 56360.000000
178.076700 969712.000000
179.080200 110240.000000
196.066900 24892.000000
197.019900 52756.000000
207.059700 134780.000000
208.062800 19696.000000
209.075100 38328.000000
225.014900 36972.000000
227.066200 785996.000000
228.068700 104688.000000
229.080400 28356.000000
237.070300 13976.000000
243.025600 17552.000000
246.064400 26924.000000
247.072800 2460288.000000
248.076100 294272.000000
249.081400 20176.000000
255.060600 12584.000000
257.076500 23900.000000
259.072000 14048.000000
275.067500 116188.000000
276.070500 18892.000000
288.098900 20536.000000
303.062400 23228.000000
306.109700 22624.000000

>ms2
120.079800 30316.000000
151.034100 25556.000000
152.060700 20956.000000
165.068400 15388.000000
169.024700 29216.000000
171.040000 32768.000000
176.060600 15388.000000
177.068000 24220.000000
178.076800 2399464.000000
179.080200 269412.000000
180.083500 15096.000000
196.067400 39012.000000
197.019900 57180.000000
201.050000 15172.000000
207.059800 309496.000000
208.062800 43980.000000
209.074700 35284.000000
214.057900 20044.000000
227.066200 1325444.000000
228.069300 156892.000000
229.077100 14336.000000
246.064500 90640.000000
247.072400 687632.000000
248.075700 83320.000000
275.067100 48004.000000

>ms2
58.028400 73004.000000
77.038000 5796.000000
95.048800 7508.000000
103.054500 49188.000000
105.034100 457488.000000
106.037400 25576.000000
120.081600 102320.000000
121.084600 8912.000000
131.049800 29816.000000
171.041600 25036.000000
178.077900 81448.000000
179.081100 9368.000000
197.020700 7404.000000
199.036100 15464.000000
207.060400 12768.000000
209.076700 12288.000000
225.015900 32724.000000
227.066800 71924.000000
228.067000 16604.000000
229.082200 11608.000000
237.070500 8700.000000
238.046700 6424.000000
243.025700 14444.000000
247.073400 902336.000000
248.076300 171100.000000
249.086200 16900.000000
255.060500 4696.000000
256.058100 22936.000000
257.076600 38592.000000
258.079500 6568.000000
259.073200 5292.000000
265.083300 4608.000000
275.067900 236592.000000
276.070900 42292.000000
277.083200 79904.000000
278.086200 12024.000000
278.115800 5036.000000
286.104200 10724.000000
288.099200 29260.000000
289.102100 5120.000000
303.062900 243964.000000
304.066000 45596.000000
306.110300 244188.000000
307.113300 39656.000000
314.097700 6392.000000
316.094000 21236.000000
334.105400 725744.000000
335.108500 197164.000000
336.110700 15928.000000

