>compound AU80521776
>parentmass 380.1769
>ionization [M+H]+
>formula C22H22FN3O2
>rt 384.312000
>profile qtof
#smiles_iso C1CN(CC=C1N2C3=CC=CC=C3NC2=O)CCCC(=O)C4=CC=C(C=C4)F
#smiles_can C1CN(CC=C1N2C3=CC=CC=C3NC2=O)CCCC(=O)C4=CC=C(C=C4)F
#inchikey RMEDXOLNCUSCGS-UHFFFAOYSA-N
#pubchem_id 3168
#mb_accession AU120701,AU120702,AU120703,AU120704,AU120705

>ms2peaks
165.071400 5728.000000
194.098400 40796.000000
195.101500 5056.000000
380.179600 169988.000000
381.182700 38604.000000
382.185600 5084.000000

>ms2peaks
123.024200 5852.000000
165.071400 91560.000000
166.074800 9960.000000
187.087300 2564.000000
194.098700 255716.000000
195.101200 25040.000000
196.105100 1664.000000
380.179200 21560.000000
381.182800 5988.000000

>ms2peaks
123.024500 31568.000000
124.028200 2136.000000
165.072100 308868.000000
166.075300 28448.000000
167.077800 2276.000000
187.087900 4380.000000
194.099000 83240.000000
195.101800 9656.000000

>ms2peaks
123.025000 105480.000000
124.028100 6916.000000
165.072200 281072.000000
166.075000 23360.000000
167.078400 1416.000000
187.087800 3748.000000
194.099000 12612.000000
195.102100 2088.000000

>ms2peaks
123.025400 184192.000000
124.028200 12028.000000
165.072300 141580.000000
166.075900 12604.000000
167.077300 1184.000000
172.063300 932.000000
187.088100 2032.000000
194.099400 1404.000000

