>compound AU81721809
>parentmass 194.1176
>ionization [M+H]+
>formula C11H15NO2
>rt 260.760000
>profile qtof
#smiles_iso CC(CC1=CC2=C(C=C1)OCO2)NC
#smiles_can CC(CC1=CC2=C(C=C1)OCO2)NC
#inchikey SHXWCVYOXRDMCX-UHFFFAOYSA-N
#pubchem_id 1615
#mb_accession AU171206

>ms2
55.017100 11556.000000
58.064300 89332.000000
59.067700 2780.000000
77.037800 3344.000000
79.053600 46652.000000
80.056700 2620.000000
91.054200 3708.000000
95.048600 5880.000000
103.054700 15672.000000
105.071000 461240.000000
106.074100 20648.000000
115.054500 3376.000000
121.028300 4656.000000
122.035800 8468.000000
133.064800 267516.000000
134.067700 20008.000000
135.044000 339572.000000
136.046900 22096.000000
148.051200 3332.000000
151.075000 13824.000000
163.075200 441732.000000
164.077900 45940.000000
165.080700 3276.000000
194.117400 18828.000000

