>compound AU81108538
>parentmass 166.08629999999997
>ionization [M+H]+
>formula C9H11NO2
>rt 376.830000
>profile qtof
#smiles_iso CCOC(=O)C1=CC=C(C=C1)N
#smiles_can CCOC(=O)C1=CC=C(C=C1)N
#inchikey BLFLLBZGZJTVJG-UHFFFAOYSA-N
#pubchem_id 2337
#mb_accession AU272601,AU272602,AU272603,AU272604,AU272605,AU272606

>ms2
120.043500 43844.000000
121.047300 3348.000000
138.054100 334584.000000
139.057300 19160.000000
140.058600 1780.000000
166.085400 116396.000000
167.088100 10240.000000

>ms2
120.043700 115604.000000
121.046900 8200.000000
138.053800 76520.000000
139.056600 5128.000000
149.043500 724.000000
166.085400 1084.000000

>ms2
120.043800 60028.000000
121.047000 5056.000000
133.013600 504.000000
137.047700 716.000000
138.054000 4944.000000
139.055500 560.000000

>ms2
120.043700 10548.000000
121.046500 976.000000

>ms2
120.043500 1456.000000

>ms2
53.038800 1760.000000
59.049000 952.000000
65.038000 1172.000000
67.053300 568.000000
68.048300 612.000000
73.064800 1360.000000
77.037600 932.000000
92.050200 2220.000000
93.057200 2004.000000
94.066100 33416.000000
95.049500 2748.000000
95.068500 2028.000000
110.060400 1064.000000
120.044200 87412.000000
121.047000 7372.000000
138.054600 84120.000000
139.058000 6368.000000
140.059300 440.000000
166.085300 3140.000000

