>compound AU81999472
>parentmass 350.1515
>ionization [M+Na]+
>formula C23H21NO
>rt 726.330000
>profile qtof
#smiles_iso CCCCN1C=C(C2=CC=CC=C21)C(=O)C3=CC=CC4=CC=CC=C43
#smiles_can CCCCN1C=C(C2=CC=CC=C21)C(=O)C3=CC=CC4=CC=CC=C43
#inchikey VCHHHSMPMLNVGS-UHFFFAOYSA-N
#pubchem_id 10471670
#mb_accession AU170430,AU170431

>ms2
331.003200 668.000000
350.152800 13152.000000
351.156700 3624.000000

>ms2
301.066900 464.000000
350.154200 3212.000000
351.158200 728.000000

