>compound AU81455825
>parentmass 179.1278
>ionization [M+H]+
>formula C8H18O4
>rt 257.550000
>profile qtof
#smiles_iso COCCOCCOCCOC
#smiles_can COCCOCCOCCOC
#inchikey YFNKIDBQEZZDLK-UHFFFAOYSA-N
#pubchem_id 8189
#mb_accession AU277201,AU277206

>ms2peaks
133.084800 1096.000000
147.100500 2212.000000
179.126200 5232.000000
180.129900 648.000000

>ms2peaks
59.048500 17992.000000
60.052400 532.000000
103.077100 840.000000

