>compound AU81299669
>parentmass 317.1642
>ionization [M+H]+
>formula C13H24N4O3S
>rt 633.430000
>profile qtof
#smiles_iso CCCCC1=C(N=C(N=C1OS(=O)(=O)N(C)C)NCC)C
#smiles_can CCCCC1=C(N=C(N=C1OS(=O)(=O)N(C)C)NCC)C
#inchikey DSKJPMWIHSOYEA-UHFFFAOYSA-N
#pubchem_id 38884
#mb_accession AU258501,AU258502,AU258503,AU258504,AU258505,AU258506

>ms2peaks
166.096000 13240.000000
187.057400 19528.000000
209.151500 17260.000000
210.158600 13568.000000
237.207000 18420.000000
272.105700 15224.000000
317.165400 2516316.000000

>ms2peaks
140.106000 12468.000000
150.101400 133052.000000
151.121700 12420.000000
165.068600 60676.000000
166.096500 537500.000000
167.102500 78800.000000
169.046800 93524.000000
180.148300 26396.000000
187.057700 254760.000000
188.059600 28664.000000
192.148700 61012.000000
193.132600 25372.000000
194.127800 35872.000000
208.143800 205752.000000
209.151000 206236.000000
210.159200 392008.000000
211.162300 33400.000000
224.175000 15404.000000
237.207100 281136.000000
238.210100 37376.000000
247.074200 75852.000000
248.077200 14080.000000
272.106100 472384.000000
273.108800 48292.000000
274.103100 19880.000000
317.165300 2478732.000000
318.167200 550236.000000
319.162000 132872.000000

>ms2peaks
122.070400 5912.000000
138.065000 24612.000000
138.090600 8452.000000
138.101000 10324.000000
139.073000 27048.000000
140.105900 93088.000000
141.109400 8940.000000
148.085700 13400.000000
150.101600 191696.000000
151.036000 11456.000000
151.105100 15576.000000
151.121400 13340.000000
152.060800 10432.000000
152.080300 15932.000000
153.068300 8712.000000
157.026800 7604.000000
159.025900 7300.000000
165.068900 204120.000000
165.089700 25728.000000
165.101000 57308.000000
166.096600 1118080.000000
167.079000 7108.000000
167.102500 140256.000000
168.106300 11372.000000
169.046900 27480.000000
171.042400 15544.000000
179.084300 7080.000000
180.111900 28120.000000
180.148500 49480.000000
181.119100 13420.000000
181.151100 6776.000000
182.127600 21116.000000
183.059500 10872.000000
185.075100 40220.000000
186.079200 5900.000000
187.057600 92104.000000
188.059500 11976.000000
191.117100 5972.000000
192.148600 26912.000000
193.132500 60472.000000
194.128400 92908.000000
195.130700 10876.000000
208.144000 424456.000000
209.148800 62012.000000
210.159600 806200.000000
211.162600 71900.000000
219.042900 10976.000000
224.174900 44476.000000
225.178600 5628.000000
227.068400 6832.000000
237.053400 13628.000000
237.207300 180000.000000
238.210000 26224.000000
244.074400 15332.000000
245.077600 7052.000000
247.074200 20024.000000
254.095800 6280.000000
262.085000 24572.000000
272.106300 181336.000000
273.108700 26548.000000
274.103300 8228.000000
317.164500 162716.000000
318.167300 23912.000000
319.161800 7196.000000

>ms2peaks
120.079600 4328.000000
122.070200 15880.000000
122.095000 3816.000000
123.054900 7180.000000
123.077600 3556.000000
123.090600 3592.000000
124.062000 6240.000000
124.074900 3476.000000
124.086500 3588.000000
125.020900 9104.000000
136.085800 8212.000000
137.057700 6048.000000
137.093500 8188.000000
138.065300 57184.000000
138.090900 8164.000000
138.101500 16688.000000
139.053300 3648.000000
139.073000 52136.000000
139.122000 6296.000000
140.106200 229508.000000
141.015800 3812.000000
141.068800 7248.000000
141.109100 18044.000000
148.085900 8848.000000
149.069900 4232.000000
150.101600 140356.000000
151.036100 11260.000000
151.072900 5216.000000
151.106800 17572.000000
151.120900 4776.000000
152.060600 19664.000000
152.080500 30860.000000
152.115700 4136.000000
153.068100 15956.000000
153.085600 3920.000000
157.026800 15356.000000
159.026000 17064.000000
159.058600 3516.000000
164.060800 11464.000000
164.080700 21816.000000
165.069000 322748.000000
165.089100 42700.000000
165.100700 82544.000000
166.073300 45144.000000
166.096600 689548.000000
167.031600 5032.000000
167.078200 4996.000000
167.102300 85916.000000
168.107100 5936.000000
169.047000 10152.000000
170.050700 7412.000000
171.042500 10076.000000
175.020900 4804.000000
178.076300 9404.000000
179.084300 7796.000000
179.127700 11596.000000
180.111900 32748.000000
180.148600 20884.000000
181.117700 8108.000000
182.127700 56340.000000
183.059300 27572.000000
183.130500 5624.000000
184.065400 9408.000000
185.041500 3604.000000
185.074800 46240.000000
186.078100 6460.000000
187.057600 27844.000000
188.059800 3916.000000
191.116600 5544.000000
192.148800 12168.000000
193.132700 68324.000000
194.128300 99900.000000
195.130900 10744.000000
196.143600 4424.000000
199.037600 4776.000000
208.143800 111132.000000
209.146800 13672.000000
209.176000 3952.000000
210.159600 461356.000000
211.162500 42460.000000
217.047700 4448.000000
219.042400 20036.000000
224.174900 24596.000000
225.178300 3980.000000
227.067000 6684.000000
235.057800 3748.000000
237.053800 24532.000000
237.206900 51576.000000
238.056100 4840.000000
238.209900 6944.000000
244.073800 6496.000000
245.077900 3768.000000
255.064400 3684.000000
262.085100 13940.000000
263.089100 3460.000000
272.105500 9800.000000

>ms2peaks
115.053900 5344.000000
120.080800 2776.000000
121.075000 3384.000000
122.070600 19944.000000
122.095700 3320.000000
123.005000 8856.000000
123.055100 7008.000000
123.077500 5236.000000
123.090200 3196.000000
124.049800 2144.000000
124.062000 5520.000000
124.074800 6332.000000
124.085200 4476.000000
125.020500 6584.000000
127.011800 2924.000000
127.052100 1828.000000
128.060700 2732.000000
129.067400 1356.000000
133.043700 2156.000000
133.075700 1728.000000
134.070200 1424.000000
135.077800 2680.000000
136.086100 17048.000000
137.057200 4172.000000
137.069800 1548.000000
137.093500 7816.000000
137.104500 2140.000000
138.065500 58916.000000
138.092200 4812.000000
138.101200 9344.000000
139.053400 8244.000000
139.072700 34940.000000
139.107800 2492.000000
139.121600 2276.000000
140.106200 150792.000000
141.015900 2364.000000
141.069100 3368.000000
141.109200 12664.000000
143.012300 1800.000000
146.050900 1724.000000
148.085800 3648.000000
149.020800 3612.000000
149.070100 7208.000000
150.064700 3132.000000
150.101600 62144.000000
151.036900 4788.000000
151.052900 6664.000000
151.073500 3984.000000
151.107600 10836.000000
152.061000 40312.000000
152.080700 24684.000000
152.115300 2064.000000
153.067900 14164.000000
153.085200 2688.000000
154.073300 2148.000000
155.059500 2640.000000
157.026600 9544.000000
159.026000 11896.000000
159.059600 4092.000000
160.027700 1808.000000
163.053400 9464.000000
164.060900 21248.000000
164.080900 27808.000000
164.117800 3484.000000
165.069000 268272.000000
165.088800 18680.000000
165.101100 48184.000000
166.072500 35992.000000
166.096800 187652.000000
167.031500 6380.000000
167.075700 2376.000000
167.102400 31700.000000
168.055900 4320.000000
168.107100 2764.000000
169.046900 4148.000000
169.063600 6096.000000
170.051600 15256.000000
171.043600 2420.000000
171.055100 2916.000000
175.021100 4408.000000
177.101300 3856.000000
178.076800 13016.000000
179.059400 3728.000000
179.082100 3920.000000
179.127600 11392.000000
180.112100 14876.000000
180.148300 4508.000000
181.076000 1792.000000
181.118400 3580.000000
182.127800 28748.000000
183.059400 46744.000000
183.131900 3416.000000
184.065200 13536.000000
185.021200 1508.000000
185.041500 4412.000000
185.075100 17672.000000
186.078400 2884.000000
187.057800 13164.000000
188.059100 1704.000000
192.148400 4800.000000
193.132500 26432.000000
194.128200 43548.000000
195.131600 4856.000000
196.050800 2496.000000
196.144600 2580.000000
197.074500 2072.000000
199.037900 3800.000000
203.066000 1640.000000
208.144000 10752.000000
209.146800 1576.000000
209.175400 1900.000000
210.159500 68012.000000
211.162700 9040.000000
217.028100 2096.000000
217.046800 3508.000000
219.043100 11104.000000
220.044300 1920.000000
224.175200 3716.000000
227.070600 1632.000000
231.044500 2296.000000
235.037700 4316.000000
235.056800 4356.000000
237.054000 14472.000000
237.206600 6712.000000
238.056700 3352.000000
253.048600 4988.000000
255.063800 2068.000000
262.085800 1840.000000
271.059900 2288.000000

>ms2peaks
46.065000 25404.000000
69.007700 5360.000000
70.039500 12904.000000
71.059900 5520.000000
77.004800 15328.000000
77.037800 16636.000000
79.053600 7296.000000
80.998900 18784.000000
86.070400 6356.000000
91.054100 23140.000000
95.015800 13900.000000
95.048900 22904.000000
95.059100 4980.000000
95.085300 4976.000000
96.044100 14392.000000
96.080400 6096.000000
97.011400 6796.000000
97.039700 15260.000000
98.060000 14420.000000
105.044900 18184.000000
105.070200 12324.000000
108.011900 570524.000000
109.014000 14864.000000
109.044400 4080.000000
110.007400 20656.000000
110.096700 8860.000000
112.112500 4796.000000
122.071000 5540.000000
137.107100 3784.000000
138.065700 18088.000000
138.090800 5944.000000
138.102300 6796.000000
139.073600 20760.000000
140.106700 74740.000000
141.069200 6080.000000
141.110100 6448.000000
148.086500 7436.000000
150.102100 134840.000000
151.036600 9376.000000
151.105900 12444.000000
151.122600 10540.000000
152.061600 7612.000000
152.081000 8216.000000
153.069600 7688.000000
157.026600 5372.000000
159.026100 5680.000000
165.069100 166724.000000
165.088400 12888.000000
165.101200 26380.000000
166.075200 41964.000000
166.096800 529888.000000
167.079200 4360.000000
167.102800 80368.000000
168.106600 5812.000000
169.047000 41552.000000
170.048900 6308.000000
171.042600 11980.000000
179.083900 4348.000000
180.112300 13148.000000
180.148800 28444.000000
181.119700 8024.000000
182.127700 13408.000000
183.060000 7532.000000
185.075500 27008.000000
187.057800 147356.000000
188.059400 16812.000000
189.055600 4908.000000
192.148100 26268.000000
193.133000 30816.000000
194.128300 52140.000000
195.130700 4972.000000
205.067300 3840.000000
208.144000 207460.000000
209.150400 68636.000000
210.159600 368852.000000
211.162500 50372.000000
219.043000 8324.000000
224.175500 24924.000000
225.177800 3976.000000
227.067300 5212.000000
237.053600 11524.000000
237.206900 168092.000000
238.209600 20600.000000
244.074400 6768.000000
245.078200 4788.000000
247.074500 39300.000000
248.077000 7144.000000
254.095100 3684.000000
262.085400 13520.000000
265.084800 6360.000000
272.106200 239780.000000
273.108600 30572.000000
274.103400 8768.000000
317.164600 713644.000000
318.167000 159484.000000
319.162000 38656.000000

