>compound AU81253026
>parentmass 342.1482
>ionization [M+H]+
>formula C15H23N3O4S
>rt 181.500000
>profile qtof
#smiles_iso CCN1CCCC1CNC(=O)C2=C(C=CC(=C2)S(=O)(=O)N)OC
#smiles_can CCN1CCCC1CNC(=O)C2=C(C=CC(=C2)S(=O)(=O)N)OC
#inchikey BGRJTUBHPOOWDU-UHFFFAOYSA-N
#pubchem_id 5355
#mb_accession AU168502,AU168503,AU168504,AU168505

>ms2peaks
112.111600 13924.000000
214.016200 23128.000000
342.149000 2152864.000000
343.151400 352552.000000
344.146800 77196.000000

>ms2peaks
112.112000 56940.000000
113.115000 5664.000000
214.016600 361064.000000
231.043500 5256.000000
285.090100 7032.000000
297.089700 8492.000000
342.149000 611076.000000
343.151400 91736.000000
344.146800 21816.000000

>ms2peaks
112.111700 24764.000000
113.115500 3576.000000
134.035200 3812.000000
184.016400 6696.000000
214.016600 704604.000000
231.044100 2792.000000
285.090600 1144.000000
297.090700 1692.000000
342.149000 18524.000000

>ms2peaks
112.111900 9580.000000
133.027600 9164.000000
138.984100 11692.000000
151.038500 2656.000000
170.997200 8428.000000
174.021200 3092.000000
214.016500 513468.000000

