>compound AU81920111
>parentmass 368.1104
>ionization [M+H]+
>formula C18H16F3NO4
>rt 633.930000
>profile qtof
#smiles_iso CO/C=C(\C1=CC=CC=C1COC2=CC=CC(=N2)C(F)(F)F)/C(=O)OC
#smiles_can COC=C(C1=CC=CC=C1COC2=CC=CC(=N2)C(F)(F)F)C(=O)OC
#inchikey IBSNKSODLGJUMQ-SDNWHVSQSA-N
#pubchem_id 11285653
#mb_accession AU258401,AU258402,AU258403,AU258404,AU258405,AU258406

>ms2
145.063800 648100.000000
146.067000 62208.000000
173.058600 48096.000000
177.089900 19816.000000
205.086100 2504132.000000
206.088700 500148.000000
207.090500 33732.000000
368.110300 47016.000000

>ms2
115.053700 20148.000000
117.069100 19440.000000
145.064200 2352648.000000
146.067500 264532.000000
147.070100 12964.000000
173.058700 87292.000000
177.090300 94064.000000
205.085500 1062268.000000
206.088700 97648.000000

>ms2
115.053100 41648.000000
117.068800 39312.000000
130.039700 17208.000000
145.063500 1980280.000000
146.067100 199788.000000
147.071100 13048.000000
173.057800 45732.000000
177.089400 73444.000000
205.084500 163668.000000
206.087600 20436.000000

>ms2
115.053900 203232.000000
116.057800 23972.000000
117.069400 171572.000000
118.073000 20460.000000
128.061100 12636.000000
129.068900 18048.000000
130.040600 85596.000000
131.047800 44868.000000
131.084700 19032.000000
145.064300 2430060.000000
146.068600 367424.000000
147.077300 32736.000000
173.058500 55192.000000
177.090000 85056.000000
205.085300 65664.000000

>ms2
115.053900 393468.000000
116.057900 44848.000000
117.069300 255464.000000
118.072800 27792.000000
128.061100 24396.000000
129.068300 18912.000000
130.040600 228736.000000
131.047700 93784.000000
131.084700 10888.000000
132.053100 10592.000000
145.064000 1768400.000000
146.069400 223808.000000
147.077200 28288.000000
173.058500 19576.000000
177.090000 21568.000000

>ms2
115.053900 35484.000000
117.069700 49908.000000
129.069000 6676.000000
130.040400 13288.000000
131.048500 7636.000000
131.084800 8568.000000
145.064300 1319776.000000
146.067900 155792.000000
147.075600 9196.000000
173.058900 34632.000000
177.090400 53424.000000
178.093400 6760.000000
205.085500 185200.000000
206.088600 31360.000000

