>compound AU81396903
>parentmass 271.1077
>ionization [M+H]+
>formula C15H14N2O3
>rt 333.600000
>profile qtof
#smiles_iso C1=CC=C2C(=C1)[C@@H]([C@H](C3=CC=CC=C3N2C(=O)N)O)O
#smiles_can C1=CC=C2C(=C1)C(C(C3=CC=CC=C3N2C(=O)N)O)O
#inchikey PRGQOPPDPVELEG-KBPBESRZSA-N
#pubchem_id 114725
#mb_accession AU203901,AU203902,AU203903,AU203904,AU203905

>ms2peaks
180.079800 1484.000000
181.082700 448.000000
210.090600 9052.000000
211.094800 1500.000000
236.069600 3892.000000
237.074000 728.000000
253.095600 25236.000000
254.080900 13248.000000
255.085400 2236.000000
271.106800 2516.000000

>ms2peaks
180.079700 23728.000000
181.083700 5032.000000
182.095800 4424.000000
183.100000 756.000000
192.080100 364.000000
208.075400 2392.000000
209.078500 480.000000
210.090600 23376.000000
211.093900 4176.000000
212.096900 468.000000
236.070200 2932.000000
237.073500 656.000000
253.095600 592.000000
254.080400 10224.000000
255.086200 1416.000000
256.082200 300.000000

>ms2peaks
152.061200 428.000000
165.068400 320.000000
167.071600 1736.000000
180.079600 36328.000000
181.084000 6680.000000
182.095000 12484.000000
183.097800 1876.000000
192.081700 644.000000
208.076700 620.000000
209.078500 232.000000
210.090200 11452.000000
211.093900 1752.000000

>ms2peaks
152.060900 780.000000
165.068400 808.000000
166.071100 316.000000
167.072300 3900.000000
168.075600 868.000000
178.062800 520.000000
179.071200 1524.000000
180.079900 46000.000000
181.083800 7104.000000
182.095300 7956.000000
183.098600 1080.000000
193.087500 760.000000
210.090500 1500.000000

>ms2peaks
128.047500 392.000000
151.053400 324.000000
152.060700 3592.000000
153.066900 1180.000000
165.069300 1140.000000
166.062900 664.000000
167.071900 6548.000000
168.075700 1128.000000
169.063800 656.000000
178.064500 1392.000000
179.071600 3488.000000
180.079800 44764.000000
181.083000 7500.000000
182.095000 2920.000000
183.097800 480.000000
191.070600 360.000000
192.079600 404.000000
193.089200 680.000000

