>compound AU81515208
>parentmass 326.2326
>ionization [M+H]+
>formula C18H31NO4
>rt 344.890000
>profile qtof
#smiles_iso CC(C)NCC(COC1=CC=C(C=C1)COCCOC(C)C)O
#smiles_can CC(C)NCC(COC1=CC=C(C=C1)COCCOC(C)C)O
#inchikey VHYCDWMUTMEGQY-UHFFFAOYSA-N
#pubchem_id 2405
#mb_accession AU267701,AU267702,AU267703,AU267704,AU267705,AU267706

>ms2
116.106200 42012.000000
222.148000 35728.000000
326.233300 2510924.000000

>ms2
116.106700 496772.000000
117.109700 37952.000000
145.063900 18224.000000
147.079200 34440.000000
162.090000 27480.000000
163.074200 13024.000000
180.100800 15196.000000
204.137500 61364.000000
222.148100 65248.000000
308.221300 17404.000000
326.233100 2378088.000000
327.236000 493652.000000
328.238100 46656.000000

>ms2
115.053300 2000.000000
116.106600 144928.000000
117.068800 1988.000000
117.109800 12212.000000
119.048500 15120.000000
119.084900 3008.000000
120.051700 1380.000000
121.063900 12752.000000
122.067200 1332.000000
129.068400 2240.000000
133.063800 66664.000000
134.066600 7912.000000
135.079700 1004.000000
137.058500 6752.000000
144.078700 2796.000000
145.063800 38876.000000
146.067600 5176.000000
147.079200 74404.000000
148.082700 9892.000000
149.094500 4076.000000
161.094900 1696.000000
162.090100 61944.000000
163.073900 25484.000000
163.093700 6336.000000
164.076900 2368.000000
175.109500 1716.000000
179.105700 780.000000
180.100400 4456.000000
204.137100 35868.000000
205.140900 5108.000000
207.101100 800.000000
222.147000 6124.000000
223.153700 1156.000000
308.221100 3424.000000
309.222200 880.000000
326.232500 114044.000000
327.236000 22772.000000
328.238500 3108.000000

>ms2
107.048500 584.000000
115.053500 3484.000000
116.106500 16480.000000
117.069700 2216.000000
117.109600 1980.000000
119.048500 15172.000000
119.085900 1856.000000
120.051700 1772.000000
121.064200 13428.000000
122.067100 1444.000000
123.044200 400.000000
128.061300 1212.000000
129.069000 2208.000000
131.049300 612.000000
131.085300 528.000000
132.054200 612.000000
133.063900 58952.000000
134.066000 6808.000000
135.043700 672.000000
135.070300 712.000000
135.079600 1060.000000
137.059000 6300.000000
138.062300 488.000000
143.075000 448.000000
144.056100 992.000000
144.080600 1876.000000
145.063800 27904.000000
146.068200 3452.000000
147.079500 26128.000000
148.082400 3480.000000
149.059300 524.000000
149.095100 1788.000000
151.074300 520.000000
155.059700 596.000000
161.095000 1600.000000
162.090400 13948.000000
163.074200 7960.000000
163.093100 2124.000000
164.078200 992.000000
175.111200 516.000000
179.104300 724.000000
204.137600 1720.000000
205.140700 336.000000
326.232600 1020.000000
327.234200 332.000000

>ms2
107.049300 344.000000
115.053400 4004.000000
116.060100 896.000000
116.106400 3280.000000
117.069100 1908.000000
119.047900 6876.000000
119.084900 896.000000
120.051500 620.000000
121.063800 9188.000000
122.067100 992.000000
123.043800 424.000000
127.052800 400.000000
128.061300 1420.000000
129.068100 1040.000000
131.048300 868.000000
132.055600 980.000000
133.063600 25124.000000
135.043900 428.000000
135.064800 400.000000
135.078300 556.000000
137.058000 2312.000000
143.071100 604.000000
144.055100 1860.000000
144.078900 924.000000
145.063600 11380.000000
146.069700 1236.000000
147.079000 6068.000000
148.083600 708.000000
149.095600 788.000000
150.066900 308.000000
155.059000 772.000000
161.095800 488.000000
162.090300 2152.000000
163.074400 1956.000000
163.093800 464.000000

>ms2
45.033900 9400.000000
56.048900 127072.000000
57.052300 3688.000000
58.064400 16372.000000
72.080200 218392.000000
73.083500 8344.000000
74.059500 596996.000000
75.043500 21876.000000
75.062900 14800.000000
79.053500 3664.000000
84.080300 5084.000000
89.038000 6904.000000
91.054200 25760.000000
98.096800 118496.000000
99.100500 5788.000000
100.112000 4216.000000
105.070300 4768.000000
107.050000 38408.000000
116.108000 717436.000000
117.110800 37916.000000
119.049100 13192.000000
121.064500 9604.000000
133.064300 41656.000000
134.066900 4336.000000
137.059100 7064.000000
145.064200 26068.000000
147.079800 45748.000000
148.083200 4684.000000
162.090300 31672.000000
163.074500 13796.000000
180.100800 5932.000000
204.138300 33048.000000
205.141500 5088.000000
222.148500 20356.000000
308.222300 7112.000000
326.233000 554368.000000
327.236200 129208.000000

