>compound AU82642998
>parentmass 225.11349999999996
>ionization [M+H]+
>formula C13H12N4
>rt 342.400000
>profile qtof
#smiles_iso CN1C2=C(N=CC(=C2)C3=CC=CC=C3)N=C1N
#smiles_can CN1C2=C(N=CC(=C2)C3=CC=CC=C3)N=C1N
#inchikey UQVKZNNCIHJZLS-UHFFFAOYSA-N
#pubchem_id 1530
#mb_accession AU229301,AU229302,AU229303,AU229304,AU229305,AU229306

>ms2peaks
225.113400 1850368.000000
226.115800 311352.000000
227.118400 18044.000000

>ms2peaks
210.089300 70420.000000
225.113900 2344028.000000
226.116100 468640.000000
227.118400 20648.000000

>ms2peaks
130.064000 10600.000000
140.048000 21180.000000
142.063700 10200.000000
143.071000 9624.000000
154.063900 10596.000000
157.074600 31784.000000
167.059000 23020.000000
168.066400 20704.000000
181.074900 14272.000000
183.079100 19408.000000
183.089800 29060.000000
184.085900 16744.000000
208.085700 29588.000000
209.081700 21100.000000
210.089100 844120.000000
211.092200 94332.000000
225.113100 1688840.000000
226.115800 279268.000000
227.118100 13000.000000

>ms2peaks
115.053400 20220.000000
127.053300 9732.000000
128.048600 7640.000000
130.064100 40848.000000
140.048400 75916.000000
141.055700 34948.000000
142.063700 22232.000000
143.071300 20652.000000
147.065300 12052.000000
154.063900 29280.000000
155.059300 37892.000000
156.066300 18968.000000
156.079000 12324.000000
157.075000 45556.000000
158.080200 7768.000000
167.059100 45092.000000
168.067100 106504.000000
169.074100 35116.000000
170.081200 8968.000000
181.074700 18572.000000
182.070300 28804.000000
183.078300 98176.000000
184.084100 21144.000000
193.062100 7408.000000
198.101600 7236.000000
208.086000 20700.000000
209.081700 93608.000000
210.089600 1413752.000000
211.092400 146852.000000
212.095200 7368.000000
223.097000 7620.000000
225.113200 313240.000000
226.116200 50832.000000

>ms2peaks
113.038000 3932.000000
114.045600 11980.000000
115.053500 43016.000000
116.056800 6064.000000
117.055900 8548.000000
126.045200 4276.000000
127.052900 18840.000000
128.048200 19468.000000
128.060000 10036.000000
129.055800 17616.000000
130.064000 67008.000000
131.067700 6644.000000
132.042200 2420.000000
139.040600 2776.000000
139.052500 2348.000000
140.048300 181632.000000
141.055600 88924.000000
142.062800 31664.000000
143.071100 24136.000000
144.075400 3444.000000
145.063200 11592.000000
146.059000 8196.000000
147.064700 6620.000000
152.047600 3704.000000
153.055500 5976.000000
154.063600 22564.000000
155.059100 130176.000000
156.065600 38360.000000
157.050600 3316.000000
157.074100 30248.000000
158.081200 10000.000000
165.043100 5628.000000
166.051100 11124.000000
167.058800 57252.000000
168.066800 151820.000000
169.073300 51488.000000
170.059600 3584.000000
170.078900 7700.000000
179.058900 3544.000000
181.074300 8984.000000
182.069800 70196.000000
183.077600 125436.000000
184.081800 18404.000000
192.054200 4636.000000
193.061600 8028.000000
194.068800 3392.000000
196.085700 3452.000000
208.084800 5836.000000
209.081100 105556.000000
210.088900 466420.000000
211.091700 57104.000000
212.093400 3564.000000
223.097000 7660.000000
225.112400 25268.000000
226.115000 3848.000000

>ms2peaks
157.075200 8048.000000
167.059300 6500.000000
183.090300 8516.000000
208.086800 10976.000000
210.089500 218000.000000
211.092600 22656.000000
225.113700 1142504.000000
226.116200 230096.000000
227.119200 14172.000000

