>compound AU82358803
>parentmass 197.0608
>ionization [M+H]+
>formula C10H9FO3
>rt 364.790000
>profile qtof
#smiles_iso C1=CC(=CC=C1C(=O)CCC(=O)O)F
#smiles_can C1=CC(=CC=C1C(=O)CCC(=O)O)F
#inchikey WUYWHIAAQYQKPP-UHFFFAOYSA-N
#pubchem_id 101359
#mb_accession AU272401,AU272402,AU272403,AU272404,AU272405,AU272406

>ms2
123.023000 2412.000000
133.044400 840.000000
151.054200 4560.000000
152.057800 620.000000
179.049200 87936.000000
180.052100 10068.000000
181.054000 840.000000
197.060800 1456.000000

>ms2
121.045000 576.000000
123.023400 28668.000000
124.026000 2580.000000
133.044200 5000.000000
134.048100 536.000000
135.059100 1984.000000
151.054100 24536.000000
152.057100 2352.000000
161.038500 420.000000
179.049100 23932.000000
180.052300 3176.000000

>ms2
115.052700 484.000000
121.043700 996.000000
123.023300 27888.000000
124.026000 3588.000000
133.043200 5360.000000
134.047700 600.000000
135.058600 428.000000
151.053900 4156.000000
152.055600 428.000000
179.049000 964.000000

>ms2
121.044000 792.000000
123.023300 10884.000000
124.026800 1188.000000
133.043800 2132.000000

>ms2
123.023100 2416.000000
133.043500 1944.000000
134.046700 316.000000

>ms2
115.052700 512.000000
121.044200 884.000000
123.023500 29928.000000
124.026700 1736.000000
133.043800 5068.000000
134.046600 424.000000
135.058900 1128.000000
136.018200 372.000000
151.054400 20912.000000
152.058100 1652.000000
161.038300 316.000000
179.049300 26040.000000
180.053000 2292.000000

