>compound AU82794207
>parentmass 376.0381
>ionization [M+H]+
>formula C15H16Cl3N3O2
>rt 678.610000
>profile qtof
#smiles_iso CCCN(CCOC1=C(C=C(C=C1Cl)Cl)Cl)C(=O)N2C=CN=C2
#smiles_can CCCN(CCOC1=C(C=C(C=C1Cl)Cl)Cl)C(=O)N2C=CN=C2
#inchikey TVLSRXXIMLFWEO-UHFFFAOYSA-N
#pubchem_id 73665
#mb_accession AU256601,AU256602,AU256603,AU256604,AU256605,AU256606

>ms2
265.953000 25620.000000
267.949800 20672.000000
308.000400 1343188.000000
309.003600 147156.000000
309.997600 1105688.000000
311.000500 65528.000000
311.994400 17808.000000
376.038000 189440.000000
377.040500 29184.000000
378.035000 150448.000000

>ms2
174.970300 4360.000000
194.916200 4568.000000
201.981300 11304.000000
203.978700 5588.000000
222.947200 21084.000000
224.944500 15684.000000
237.958800 6332.000000
239.955300 5720.000000
239.973700 21464.000000
241.971200 21264.000000
244.028600 19044.000000
245.035300 7304.000000
246.025600 8092.000000
265.953800 210672.000000
266.956400 22108.000000
267.950900 173616.000000
268.953300 9516.000000
280.005600 38268.000000
282.003100 29856.000000
283.963900 8140.000000
285.961200 6672.000000
308.001000 860476.000000
309.004100 94316.000000
309.998200 692860.000000
311.001200 44464.000000
311.994900 10332.000000

>ms2
138.009700 920.000000
158.974300 2316.000000
159.982400 636.000000
160.954000 440.000000
160.971800 896.000000
161.961300 840.000000
161.979100 540.000000
162.951300 316.000000
163.957000 388.000000
166.004300 4680.000000
166.920900 932.000000
167.010800 4332.000000
168.000400 932.000000
168.015600 324.000000
168.918000 864.000000
169.008800 968.000000
173.986200 4192.000000
174.970000 12164.000000
175.983000 1992.000000
176.966700 4512.000000
179.928200 884.000000
180.019700 684.000000
180.056000 892.000000
181.925500 672.000000
185.961000 620.000000
186.969600 1360.000000
187.977900 1564.000000
188.969600 532.000000
189.975700 552.000000
194.915300 18768.000000
194.951500 1448.000000
195.918100 1592.000000
195.955200 324.000000
196.912600 18080.000000
196.930200 3416.000000
196.948800 1552.000000
197.915900 824.000000
197.936000 312.000000
198.908900 580.000000
198.927700 3664.000000
201.981100 21144.000000
202.986200 2656.000000
203.978000 9444.000000
204.935700 484.000000
204.984200 888.000000
206.930100 552.000000
208.051600 1332.000000
209.059500 3664.000000
210.063000 560.000000
211.054900 884.000000
215.998200 1428.000000
217.991000 448.000000
219.991900 1920.000000
220.931400 572.000000
221.991000 1080.000000
222.947100 36296.000000
223.950700 3388.000000
224.943900 33148.000000
225.946100 1400.000000
226.940200 608.000000
229.978100 476.000000
237.957800 7972.000000
238.959500 656.000000
239.955200 7580.000000
239.973400 5360.000000
240.957000 580.000000
240.976200 640.000000
241.970500 3860.000000
242.974300 376.000000
244.028700 15596.000000
245.035500 10796.000000
246.025600 6556.000000
247.032300 4792.000000
248.032700 416.000000
265.953200 34608.000000
266.955600 3624.000000
267.950300 28424.000000
268.953500 2068.000000
269.947600 964.000000
280.005000 15808.000000
281.009100 2392.000000
282.001900 12932.000000
283.005800 1132.000000
283.964600 1400.000000
283.995000 404.000000
285.962800 1120.000000
297.045300 848.000000
298.047600 332.000000
308.000200 61708.000000
309.003900 10232.000000
309.997300 54348.000000
311.000600 4836.000000
311.993300 976.000000

>ms2
122.998800 568.000000
125.014100 1256.000000
132.959300 1728.000000
134.956700 864.000000
138.008300 1772.000000
139.016600 652.000000
140.005500 528.000000
146.974300 448.000000
148.970700 328.000000
150.991400 704.000000
152.000600 812.000000
153.007300 468.000000
158.975000 8296.000000
159.982900 3864.000000
160.954400 2132.000000
160.972800 4156.000000
161.962200 5608.000000
161.979100 1456.000000
162.951400 844.000000
162.965600 548.000000
163.958600 2636.000000
166.004400 3472.000000
166.920400 5940.000000
167.011600 5072.000000
167.923800 784.000000
168.001400 880.000000
168.016300 432.000000
168.917000 5880.000000
169.007800 1004.000000
169.921200 316.000000
169.967500 624.000000
172.967200 396.000000
173.986100 6432.000000
174.969700 9068.000000
174.988500 596.000000
175.983300 2500.000000
176.966400 4668.000000
178.966400 320.000000
178.998800 344.000000
179.927900 4344.000000
180.020100 1044.000000
180.056000 344.000000
180.933600 432.000000
181.025900 800.000000
181.925200 3504.000000
185.965700 464.000000
186.970100 2788.000000
187.977900 5648.000000
188.966100 1516.000000
188.979700 736.000000
189.974200 2508.000000
192.936900 1192.000000
194.915600 35688.000000
194.951600 3896.000000
195.919000 2496.000000
195.953000 380.000000
196.912900 29892.000000
196.930600 14356.000000
196.948900 3340.000000
197.915800 1496.000000
197.935000 936.000000
198.909600 792.000000
198.928000 12364.000000
199.931300 668.000000
200.923300 312.000000
201.981400 7072.000000
202.989100 2324.000000
203.978000 2896.000000
204.936100 1428.000000
204.983800 972.000000
206.930000 1724.000000
208.051300 496.000000
208.924400 1088.000000
209.059800 1292.000000
210.062500 316.000000
211.057800 400.000000
215.997000 2876.000000
217.001500 540.000000
217.993800 1332.000000
219.991000 320.000000
220.932900 424.000000
222.947100 23284.000000
223.949900 2000.000000
224.943900 19496.000000
225.948100 1092.000000
226.941500 760.000000
237.958400 2340.000000
238.044500 308.000000
239.956200 1824.000000
241.969900 304.000000
244.028300 2180.000000
245.035100 3028.000000
246.026000 848.000000
247.034200 1344.000000
265.952900 1528.000000
267.950700 1816.000000
280.003400 1196.000000
282.000100 728.000000
283.029000 1060.000000
285.047700 380.000000
297.044900 316.000000
307.999000 2084.000000
309.997100 1788.000000

>ms2
122.998800 1764.000000
124.005800 500.000000
124.996500 444.000000
125.014600 2160.000000
127.011500 548.000000
132.959400 6780.000000
133.965000 568.000000
134.956600 3396.000000
138.009400 1420.000000
139.017000 588.000000
140.006400 556.000000
141.011400 632.000000
142.942700 908.000000
142.984900 360.000000
146.975200 640.000000
148.971300 356.000000
150.993400 720.000000
152.000800 1480.000000
153.008900 864.000000
158.974900 9872.000000
159.982500 4372.000000
160.954500 5144.000000
160.971300 3940.000000
161.961800 15884.000000
161.979300 1968.000000
162.950900 2652.000000
162.964700 1556.000000
163.958900 7612.000000
164.962900 568.000000
166.004100 1352.000000
166.920600 22212.000000
167.011800 3220.000000
167.923800 1660.000000
168.000500 368.000000
168.018400 352.000000
168.917200 17600.000000
169.009600 1004.000000
169.919700 836.000000
169.967500 976.000000
170.914700 476.000000
171.962700 352.000000
172.965000 668.000000
173.985700 2656.000000
174.969900 4416.000000
175.981900 1672.000000
176.966100 1620.000000
178.919600 604.000000
178.963900 728.000000
179.928100 8288.000000
180.020500 1016.000000
180.915400 524.000000
180.932300 480.000000
180.964400 336.000000
181.029400 1012.000000
181.925100 5772.000000
182.017000 360.000000
185.963700 512.000000
186.970200 1928.000000
187.977900 5788.000000
188.963700 1112.000000
188.981400 576.000000
189.975000 2944.000000
192.934700 1148.000000
194.915700 27320.000000
194.951000 2124.000000
195.920000 1948.000000
196.912600 21972.000000
196.930600 11112.000000
196.949400 1388.000000
197.917400 1128.000000
197.934300 872.000000
198.927700 10156.000000
199.929100 412.000000
201.981600 1024.000000
202.988000 604.000000
203.978600 604.000000
204.936900 968.000000
204.986100 452.000000
206.927500 2088.000000
208.923000 1504.000000
209.058800 428.000000
215.997200 1396.000000
217.992500 452.000000
222.947200 4640.000000
223.947700 736.000000
224.943600 4588.000000
225.042700 680.000000
283.028900 580.000000
285.049200 476.000000

>ms2
56.049000 15324.000000
57.056700 5324.000000
60.043800 9776.000000
70.028300 333292.000000
70.064700 91668.000000
71.031500 9524.000000
71.067600 3552.000000
72.043700 1908.000000
85.088400 47416.000000
86.091800 2556.000000
88.039100 6076.000000
98.060700 2836.000000
113.084800 1736.000000
166.004200 2364.000000
167.012100 3112.000000
173.986300 3728.000000
174.969700 8100.000000
176.967300 3752.000000
194.915600 16620.000000
196.912800 14700.000000
196.931600 2784.000000
198.928000 3816.000000
201.981300 13984.000000
202.986000 2364.000000
203.978300 8056.000000
209.058600 2808.000000
219.991600 2120.000000
222.947300 31620.000000
223.951200 2876.000000
224.944400 29532.000000
225.948700 1728.000000
226.941100 1888.000000
237.958000 6744.000000
239.955000 5064.000000
239.973800 33132.000000
240.976500 2900.000000
241.971100 27920.000000
243.968300 1860.000000
244.028100 16164.000000
245.035900 8624.000000
246.025400 7536.000000
247.033000 3832.000000
265.953300 58552.000000
266.956300 6568.000000
267.950600 55936.000000
268.953800 3340.000000
269.948700 3044.000000
280.005500 21164.000000
281.008600 3224.000000
282.002500 22008.000000
283.964400 10000.000000
285.961200 8964.000000
308.000600 201556.000000
309.003900 32816.000000
309.997800 175036.000000
311.000700 16316.000000
311.995000 13928.000000

