>compound AU82307258
>parentmass 182.04820000000004
>ionization [M+H]+
>formula C5H11NO4S
>rt 81.260000
>profile qtof
#smiles_iso CC(=O)NCCCS(=O)(=O)O
#smiles_can CC(=O)NCCCS(=O)(=O)O
#inchikey AFCGFAGUEYAMAO-UHFFFAOYSA-N
#pubchem_id 71158
#mb_accession AU214501,AU214502,AU214503

>ms2
123.010700 1272.000000
140.037500 45856.000000
141.041000 1384.000000
142.035400 1328.000000
182.048100 16592.000000

>ms2
123.011200 6272.000000
124.016700 352.000000
140.037700 15368.000000
141.042300 744.000000

>ms2
123.011500 2712.000000
140.038100 876.000000

