>compound AU82329682
>parentmass 251.1543
>ionization [M+H]+
>formula C17H18N2
>rt 436.800000
>profile qtof
#smiles_iso C1CN2C(CN1)C3=CC=CC=C3CC4=CC=CC=C42
#smiles_can C1CN2C(CN1)C3=CC=CC=C3CC4=CC=CC=C42
#inchikey ZBILSSSEXRZGKS-UHFFFAOYSA-N
#pubchem_id 115194
#mb_accession AU222901,AU222902,AU222903,AU222904,AU222905

>ms2
167.084500 4772.000000
208.111200 7836.000000
234.126300 1348.000000
251.154100 866728.000000
252.157200 113800.000000
253.159900 9400.000000

>ms2
118.064200 19064.000000
120.080000 16352.000000
130.064100 3124.000000
132.079500 32416.000000
134.095800 6864.000000
144.079600 7956.000000
146.095300 2860.000000
147.090400 19200.000000
158.095200 11588.000000
167.083800 5752.000000
179.083600 4008.000000
194.094600 2668.000000
196.111400 4608.000000
206.095600 2940.000000
208.111500 187660.000000
209.114600 27676.000000
222.126800 4264.000000
223.123500 2536.000000
234.127100 20772.000000
251.153900 473424.000000
252.157200 73220.000000
253.159900 5140.000000

>ms2
115.053600 5776.000000
116.060400 992.000000
117.056700 3560.000000
117.069600 4060.000000
118.064600 29032.000000
120.080000 32076.000000
128.062000 1416.000000
129.068800 5812.000000
131.070500 2692.000000
131.084900 1332.000000
132.079900 44500.000000
134.095000 3136.000000
143.072000 3864.000000
145.086000 2240.000000
146.095400 4724.000000
147.090600 28344.000000
156.079300 1356.000000
160.097200 1780.000000
166.075100 1104.000000
167.084300 1028.000000
178.075900 3324.000000
179.084200 7548.000000
181.099200 2304.000000
191.084700 1136.000000
194.094200 8360.000000
196.111100 5592.000000
204.079700 3784.000000
205.086800 3540.000000
207.101500 4176.000000
208.111800 190480.000000
209.114700 26972.000000
210.118300 1832.000000
218.095900 4016.000000
219.103000 4896.000000
220.111100 3500.000000
221.109600 1548.000000
223.124300 2528.000000
224.127800 968.000000
232.111400 1600.000000
234.126700 11176.000000
249.138200 10308.000000
251.153600 37440.000000

>ms2
116.051300 1652.000000
116.060000 2192.000000
117.056500 8592.000000
117.068900 3384.000000
118.064300 23560.000000
119.084700 560.000000
120.080100 17212.000000
127.052600 672.000000
128.048600 756.000000
128.061500 4592.000000
129.068800 4984.000000
131.049400 404.000000
131.070500 4556.000000
131.083000 868.000000
132.068500 1836.000000
132.079800 21280.000000
134.094500 908.000000
141.067900 1656.000000
142.064000 604.000000
143.071700 6352.000000
144.079300 7996.000000
145.074200 1664.000000
146.083600 572.000000
146.094800 4040.000000
147.090700 15272.000000
152.060800 2676.000000
153.067500 704.000000
155.059000 780.000000
156.080000 852.000000
157.086900 1040.000000
158.095200 5468.000000
159.090400 1760.000000
160.099300 1084.000000
165.068800 5556.000000
166.075900 6188.000000
167.084300 3856.000000
176.062900 592.000000
177.070500 672.000000
180.082100 2200.000000
181.085600 656.000000
181.099500 4204.000000
190.076300 472.000000
191.084400 1764.000000
192.080800 2756.000000
193.087800 51736.000000
194.093600 10844.000000
196.111000 2120.000000
202.076100 1148.000000
203.085200 596.000000
205.087100 3080.000000
208.111500 59872.000000
210.119000 1076.000000
217.088600 2468.000000
219.101600 3352.000000
220.111000 3180.000000
221.106700 1372.000000
222.127100 2796.000000
223.127300 676.000000
231.101100 320.000000
232.110700 1388.000000
233.116400 604.000000
234.126700 2052.000000
235.124300 988.000000
249.138000 3272.000000
251.153500 1848.000000

>ms2
116.049400 2016.000000
116.060600 2544.000000
117.056800 10244.000000
118.064700 15072.000000
119.070700 1920.000000
120.080000 4760.000000
126.044800 592.000000
127.053700 804.000000
128.050200 1100.000000
128.061200 6376.000000
129.068500 2760.000000
131.070800 3296.000000
132.069200 1976.000000
132.079800 8520.000000
139.052400 436.000000
140.048500 432.000000
141.069300 1484.000000
142.064000 1316.000000
143.072100 5072.000000
144.079800 4696.000000
145.063900 776.000000
145.076100 1172.000000
146.061900 320.000000
146.096000 1484.000000
147.090900 5476.000000
151.055000 332.000000
152.061300 4668.000000
153.067600 1156.000000
155.059900 752.000000
156.080300 892.000000
157.087700 776.000000
158.096200 1300.000000
159.090900 1076.000000
168.079900 500.000000
169.065000 476.000000
176.060000 956.000000
177.068300 2296.000000
179.060500 324.000000
179.083300 6080.000000
180.080500 2576.000000
181.086100 796.000000
181.099300 1424.000000
182.096200 312.000000
189.068600 1068.000000
190.076100 720.000000
191.084200 2356.000000
192.080800 5312.000000
193.088100 47852.000000
194.092800 9036.000000
202.076600 1012.000000
203.083800 780.000000
205.086600 2748.000000
208.111200 8276.000000
215.083200 340.000000
216.082200 616.000000
217.087600 4888.000000
218.095700 7816.000000
219.100300 1952.000000
220.111600 1508.000000
221.106100 820.000000
222.127000 320.000000
231.103300 400.000000
232.111100 904.000000
233.109000 752.000000
234.110600 324.000000
235.123400 420.000000
249.143100 396.000000

