>compound AU82037206
>parentmass 203.0927
>ionization [M+H]+
>formula C10H10N4O
>rt 312.000000
>profile qtof
#smiles_iso CC1=NN=C(C(=O)N1N)C2=CC=CC=C2
#smiles_can CC1=NN=C(C(=O)N1N)C2=CC=CC=C2
#inchikey VHCNQEUWZYOAEV-UHFFFAOYSA-N
#pubchem_id 38854
#mb_accession AU353801,AU353802,AU353803,AU353804

>ms2
145.039100 2204.000000
174.077500 3388.000000
175.096400 9892.000000
203.092700 340820.000000
204.094700 33104.000000
205.098400 2324.000000

>ms2
117.043900 500.000000
119.059800 616.000000
130.064000 1648.000000
134.070100 1088.000000
145.038100 9296.000000
158.070200 1484.000000
159.077300 1580.000000
175.096700 61272.000000
176.098900 6224.000000
177.101500 384.000000
186.064900 824.000000
187.075200 564.000000
203.092700 75152.000000
204.094700 8756.000000
205.098400 460.000000

>ms2
118.052400 316.000000
130.064000 660.000000
134.069900 372.000000
145.037600 1240.000000
158.070600 448.000000
159.077100 1124.000000
160.080100 312.000000
173.069600 416.000000
174.077200 2104.000000
175.096400 8600.000000
203.091100 2492.000000

>ms2
118.052300 428.000000
175.096600 512.000000

