>compound AU82660424
>parentmass 337.2138
>ionization [M+Na]+
>formula C21H30O2
>rt 663.435000
>profile qtof
#smiles_iso CC(=O)[C@H]1CC[C@@H]2[C@@]1(CC[C@H]3[C@H]2CCC4=CC(=O)CC[C@]34C)C
#smiles_can CC(=O)C1CCC2C1(CCC3C2CCC4=CC(=O)CCC34C)C
#inchikey RJKFOVLPORLFTN-LEKSSAKUSA-N
#pubchem_id 5994
#mb_accession AU107730,AU107731,AU107732,AU107733

>ms2peaks
318.193000 360.000000
319.080200 876.000000
337.216200 26488.000000
338.220100 5956.000000
339.224000 888.000000

>ms2peaks
191.016700 588.000000
319.080400 412.000000
337.215600 7648.000000
338.215800 1492.000000

>ms2peaks
145.067000 388.000000
161.096900 696.000000

>ms2peaks
161.098600 568.000000

