>compound AU82210902
>parentmass 294.2064
>ionization [M+H]+
>formula C17H27NO3
>rt 409.200000
>profile qtof
#smiles_iso C[N+](C)(CC(C1=CC=C(C=C1)OC)C2(CCCCC2)O)[O-]
#smiles_can C[N+](C)(CC(C1=CC=C(C=C1)OC)C2(CCCCC2)O)[O-]
#inchikey LASJEFFANGIOGZ-UHFFFAOYSA-N
#pubchem_id 76559643
#mb_accession AU212101,AU212102,AU212103,AU212104,AU212105

>ms2peaks
121.064300 53279.000000
178.121600 13548.000000
215.142600 11248.000000
223.153200 22256.000000
276.195800 4100.000000
294.206600 1774088.000000
295.210100 265140.000000
296.212100 22816.000000

>ms2peaks
121.064300 994096.000000
122.067800 74008.000000
135.079600 23084.000000
147.079600 9688.000000
163.098200 5252.000000
178.122100 90164.000000
179.125100 11024.000000
215.142700 70104.000000
216.145700 10608.000000
233.153100 27108.000000
294.206800 322908.000000
295.209700 51004.000000
296.212400 5504.000000

>ms2peaks
121.064200 979276.000000
122.067600 73344.000000
135.079400 28168.000000
147.079400 21108.000000
159.079100 7868.000000
173.094900 9424.000000
178.121500 42672.000000
179.124800 5996.000000
215.142300 18316.000000

>ms2peaks
121.064100 732976.000000
122.065500 56800.000000
135.079400 20468.000000
147.103000 5700.000000
148.074800 10360.000000
159.079600 5968.000000
173.094900 6356.000000
178.121700 9752.000000
215.142200 1244.000000

>ms2peaks
121.064000 398020.000000
122.067200 29868.000000
123.069600 2316.000000
135.079500 6960.000000
144.056000 2008.000000
146.095300 2944.000000
147.079300 3544.000000
148.074400 9488.000000
158.071100 2776.000000
159.078700 2456.000000
163.097500 4680.000000
173.094700 2272.000000

