>compound AU82500813
>parentmass 231.1016
>ionization [M+H]+
>formula C14H14O3
>rt 547.120000
>profile qtof
#smiles_iso CC(C1=CC2=C(C=C1)C=C(C=C2)OC)C(=O)O
#smiles_can CC(C1=CC2=C(C=C1)C=C(C=C2)OC)C(=O)O
#inchikey CMWTZPSULFXXJA-UHFFFAOYSA-N
#pubchem_id 1302
#mb_accession AU265101,AU265102,AU265103,AU265104,AU265105,AU265106

>ms2peaks
155.104800 560.000000
158.071400 328.000000
170.072500 308.000000
185.094700 21496.000000
186.097400 3736.000000
231.100900 11568.000000
232.104400 2296.000000

>ms2peaks
153.067500 1072.000000
154.076300 920.000000
155.084500 772.000000
158.071600 1572.000000
159.076500 316.000000
169.063200 428.000000
170.071500 3032.000000
171.074700 664.000000
185.094800 31376.000000
186.097700 5444.000000
187.100800 472.000000

>ms2peaks
115.052900 392.000000
128.061900 840.000000
129.068000 384.000000
141.069000 964.000000
142.076400 900.000000
144.057800 444.000000
152.060400 1640.000000
153.068700 3116.000000
154.076100 3676.000000
155.083900 2744.000000
156.054600 392.000000
156.088500 416.000000
158.070900 2456.000000
169.063500 1604.000000
170.070900 10956.000000
171.074200 1868.000000
184.084600 332.000000
185.095000 11552.000000
186.098300 2336.000000

>ms2peaks
115.054300 1016.000000
128.061000 944.000000
129.068200 664.000000
141.069400 4056.000000
142.076000 2036.000000
143.046900 348.000000
144.056100 424.000000
145.065400 764.000000
152.060900 2952.000000
153.069000 3720.000000
154.076400 2980.000000
155.047700 672.000000
155.084500 1624.000000
158.070800 1128.000000
169.064800 3340.000000
170.071300 6260.000000
171.077100 1012.000000
184.088700 324.000000
185.095500 1504.000000

>ms2peaks
115.053500 2312.000000
127.052700 304.000000
128.060500 924.000000
130.062500 316.000000
141.068600 7680.000000
142.038400 340.000000
142.074900 2312.000000
145.064400 360.000000
151.053000 484.000000
152.060700 4084.000000
153.068700 3616.000000
154.075500 1488.000000
155.047200 592.000000
158.070100 432.000000
169.063500 3416.000000
170.071600 2268.000000
171.074600 408.000000

>ms2peaks
142.077200 328.000000
153.069200 1324.000000
154.076700 2524.000000
155.083000 1344.000000
156.058600 504.000000
157.065500 548.000000
158.071700 1768.000000
170.071100 5624.000000
171.073200 1176.000000
185.095100 32788.000000
186.098900 4420.000000

