>compound AU83270298
>parentmass 289.0538000000001
>ionization [M+H]+
>formula C15H10ClFN2O
>rt 515.450000
>profile qtof
#smiles_iso C1C(=O)NC2=C(C=C(C=C2)Cl)C(=N1)C3=CC=CC=C3F
#smiles_can C1C(=O)NC2=C(C=C(C=C2)Cl)C(=N1)C3=CC=CC=C3F
#inchikey UVCOILFBWYKHHB-UHFFFAOYSA-N
#pubchem_id 4540
#mb_accession AU228601,AU228602,AU228603,AU228604,AU228605,AU228606

>ms2peaks
289.053800 778452.000000
290.057000 97436.000000
291.051300 168496.000000

>ms2peaks
140.024900 13448.000000
142.021800 3292.000000
165.020100 3604.000000
226.088800 8372.000000
261.058400 11432.000000
263.055000 2892.000000
289.053500 534076.000000
290.056900 79036.000000
291.050900 138300.000000

>ms2peaks
122.038700 1084.000000
123.022600 1928.000000
124.054300 1596.000000
133.050800 1820.000000
134.038600 3056.000000
138.009700 1416.000000
140.024900 98736.000000
141.028400 7148.000000
142.021900 24480.000000
143.024800 1320.000000
150.009600 1964.000000
158.045500 6068.000000
162.033500 2340.000000
165.020000 28524.000000
166.003800 11940.000000
166.023400 2916.000000
167.016500 7864.000000
168.000600 2700.000000
168.019700 4004.000000
170.016300 1220.000000
179.071500 1632.000000
193.015000 3132.000000
198.069200 1664.000000
205.074400 2920.000000
206.082400 5996.000000
209.062600 1108.000000
211.078100 11172.000000
212.081800 1896.000000
214.040600 18012.000000
215.044200 2824.000000
216.037700 4664.000000
224.073500 1152.000000
225.056300 2556.000000
225.080900 7004.000000
226.089100 83080.000000
227.073700 2156.000000
227.092100 11948.000000
232.031300 3704.000000
234.046600 3204.000000
236.072400 1708.000000
237.056700 2088.000000
241.051500 2672.000000
244.030800 2932.000000
245.039100 3244.000000
246.046000 1132.000000
247.038400 1184.000000
254.083800 1988.000000
259.042100 2880.000000
260.026100 2384.000000
260.049900 7204.000000
261.058100 35420.000000
262.061100 5596.000000
263.055400 9020.000000
271.042000 3008.000000
289.053500 210148.000000
290.056100 37016.000000
291.050500 60672.000000

>ms2peaks
122.039200 2060.000000
122.998200 948.000000
123.022500 1588.000000
124.055700 1576.000000
129.043700 1452.000000
130.051700 3148.000000
131.059300 1108.000000
133.050900 2808.000000
134.038700 7212.000000
135.045400 1296.000000
136.055700 1028.000000
138.009100 8536.000000
140.025200 181576.000000
141.028000 16552.000000
142.022000 49936.000000
143.025600 1976.000000
150.009200 3660.000000
152.006100 1356.000000
152.061500 1176.000000
158.046500 10820.000000
162.034300 1012.000000
163.004500 2588.000000
164.012000 1056.000000
165.020100 51776.000000
166.003900 14552.000000
166.023800 5228.000000
167.017000 15368.000000
168.001200 3352.000000
168.020200 2816.000000
169.063400 996.000000
170.051200 1468.000000
177.055900 3560.000000
178.063300 2304.000000
179.071500 13708.000000
180.076200 2216.000000
183.059000 3704.000000
193.015300 1940.000000
196.055600 2740.000000
197.062000 2916.000000
198.070300 9756.000000
199.074600 3308.000000
205.075000 11120.000000
206.082900 31648.000000
207.067100 1840.000000
207.086700 6012.000000
208.053800 2072.000000
209.062200 6304.000000
210.069400 2932.000000
211.078100 18384.000000
212.080400 3188.000000
213.032900 1252.000000
214.041100 45876.000000
215.044400 6104.000000
216.038000 15076.000000
216.067400 928.000000
217.020900 3720.000000
217.042000 1012.000000
219.017100 1008.000000
224.023300 920.000000
224.049700 1124.000000
224.073600 3684.000000
225.057600 7120.000000
225.081000 14080.000000
226.089300 167332.000000
227.074600 3448.000000
227.092400 22860.000000
228.044700 3112.000000
228.095000 1128.000000
230.039500 1552.000000
232.031400 6840.000000
234.028200 2452.000000
234.046900 4148.000000
234.077700 1300.000000
235.053300 952.000000
235.067500 1348.000000
236.045400 1496.000000
236.073500 3392.000000
237.058400 2488.000000
239.035700 1420.000000
240.043700 2748.000000
241.051500 4396.000000
242.040600 1128.000000
242.054400 1032.000000
243.049000 1488.000000
244.031900 4012.000000
245.039800 6944.000000
246.034000 1300.000000
246.041500 1640.000000
247.037000 2420.000000
253.077000 1448.000000
254.083200 964.000000
259.042400 8652.000000
260.026800 1936.000000
260.049800 7172.000000
261.057600 9716.000000
262.050200 2164.000000
262.060300 1828.000000
263.055200 3464.000000
271.042300 1468.000000
289.053300 23736.000000
290.056000 4676.000000
291.051300 7748.000000

>ms2peaks
109.044600 676.000000
113.014200 708.000000
122.038700 2852.000000
122.999100 1828.000000
123.024400 824.000000
123.994700 892.000000
124.996200 728.000000
127.017000 520.000000
129.043900 4540.000000
130.052100 4540.000000
131.059200 2572.000000
133.052200 1496.000000
134.038900 4792.000000
135.045700 1288.000000
136.054100 684.000000
137.001700 524.000000
138.009400 13628.000000
139.013800 1732.000000
140.025200 92992.000000
141.028300 8196.000000
142.022100 26100.000000
143.025900 1324.000000
150.009200 3028.000000
150.045300 900.000000
151.053000 1572.000000
152.007100 836.000000
152.060900 4556.000000
153.059500 736.000000
158.046600 3908.000000
159.048800 520.000000
163.004800 2308.000000
163.053000 632.000000
164.001200 856.000000
164.011200 932.000000
164.060700 1052.000000
165.020300 24576.000000
166.004000 4760.000000
166.025200 3004.000000
166.064800 1060.000000
167.017000 6620.000000
168.000400 1688.000000
168.020300 1028.000000
168.055300 544.000000
169.063700 2316.000000
170.051200 4500.000000
171.058100 2012.000000
172.054900 700.000000
174.069200 1180.000000
177.056100 7092.000000
177.991800 652.000000
178.063800 7508.000000
179.071700 41812.000000
180.076200 5624.000000
181.015600 616.000000
181.044700 764.000000
182.053500 1992.000000
183.059600 9636.000000
184.063900 2028.000000
185.062100 672.000000
186.045000 700.000000
187.054300 972.000000
189.056300 564.000000
190.064200 1984.000000
191.068900 524.000000
192.068900 656.000000
193.016900 604.000000
193.075700 1192.000000
194.058800 960.000000
195.046300 1236.000000
196.054100 3844.000000
196.074500 1472.000000
197.062500 6320.000000
198.070200 23052.000000
199.074700 3860.000000
200.076300 576.000000
204.057600 596.000000
205.075200 24372.000000
206.082500 35052.000000
207.066700 1196.000000
207.086500 6376.000000
208.054400 5980.000000
209.062200 6328.000000
210.069500 4272.000000
211.062600 3748.000000
211.077100 9328.000000
212.081000 1980.000000
213.032000 1684.000000
214.040800 33644.000000
215.045000 5900.000000
216.037300 9348.000000
216.070600 564.000000
217.020400 4004.000000
217.039000 1200.000000
218.024700 564.000000
219.019000 1360.000000
223.065200 912.000000
224.026100 932.000000
224.048700 2248.000000
224.073900 5980.000000
225.057900 3652.000000
225.081200 18832.000000
226.089000 59216.000000
227.092000 8640.000000
228.042900 2156.000000
229.049200 820.000000
230.039600 1016.000000
232.031800 3068.000000
233.036000 660.000000
234.029400 960.000000
234.045900 1672.000000
234.076500 724.000000
235.065700 636.000000
236.045300 468.000000
236.073100 1824.000000
237.056300 1644.000000
237.077000 532.000000
239.036600 2092.000000
240.043900 2724.000000
241.050400 2092.000000
242.041100 976.000000
243.048200 500.000000
244.030100 1272.000000
245.039300 3920.000000
246.039300 716.000000
247.036300 1012.000000
253.075100 676.000000
259.043100 6136.000000
260.027100 740.000000
260.047700 2324.000000
261.037800 1740.000000
262.048500 720.000000
270.035000 520.000000
289.053400 980.000000

>ms2peaks
122.038700 1084.000000
123.022600 1928.000000
124.054300 1596.000000
133.050800 1820.000000
134.038600 3056.000000
138.009700 1416.000000
140.024900 98736.000000
141.028400 7148.000000
142.021900 24480.000000
143.024800 1320.000000
150.009600 1964.000000
158.045500 6068.000000
162.033500 2340.000000
165.020000 28524.000000
166.003800 11940.000000
166.023400 2916.000000
167.016500 7864.000000
168.000600 2700.000000
168.019700 4004.000000
170.016300 1220.000000
179.071500 1632.000000
193.015000 3132.000000
198.069200 1664.000000
205.074400 2920.000000
206.082400 5996.000000
209.062600 1108.000000
211.078100 11172.000000
212.081800 1896.000000
214.040600 18012.000000
215.044200 2824.000000
216.037700 4664.000000
224.073500 1152.000000
225.056300 2556.000000
225.080900 7004.000000
226.089100 83080.000000
227.073700 2156.000000
227.092100 11948.000000
232.031300 3704.000000
234.046600 3204.000000
236.072400 1708.000000
237.056700 2088.000000
241.051500 2672.000000
244.030800 2932.000000
245.039100 3244.000000
246.046000 1132.000000
247.038400 1184.000000
254.083800 1988.000000
259.042100 2880.000000
260.026100 2384.000000
260.049900 7204.000000
261.058100 35420.000000
262.061100 5596.000000
263.055400 9020.000000
271.042000 3008.000000
289.053500 210148.000000
290.056100 37016.000000
291.050500 60672.000000

