>compound AU83868434
>parentmass 423.2177
>ionization [M+H]+
>formula C23H31FO6
>rt 517.380000
>profile qtof
#smiles_iso CC(=O)OCC(=O)[C@]1(CC[C@@H]2[C@@]1(C[C@@H]([C@]3([C@H]2CCC4=CC(=O)CC[C@@]43C)F)O)C)O
#smiles_can CC(=O)OCC(=O)C1(CCC2C1(CC(C3(C2CCC4=CC(=O)CCC43C)F)O)C)O
#inchikey SYWHXTATXSMDSB-GSLJADNHSA-N
#pubchem_id 225609
#mb_accession AU210101,AU210102,AU210103,AU210104,AU210105

>ms2
423.221200 105496.000000
424.225500 29720.000000
425.228200 4328.000000

>ms2
121.064300 536.000000
181.102800 800.000000
213.129300 604.000000
221.132900 632.000000
227.141100 484.000000
239.144500 2492.000000
241.158800 500.000000
247.146100 568.000000
257.155000 864.000000
265.159500 940.000000
267.175400 680.000000
279.176100 972.000000
283.171800 852.000000
284.178700 608.000000
285.185500 576.000000
297.187300 672.000000
307.169800 2336.000000
308.173800 636.000000
325.181800 3632.000000
326.185700 1000.000000
343.192100 4228.000000
344.200100 612.000000
345.191100 664.000000
361.200700 476.000000
367.193400 832.000000
385.203200 1996.000000
386.218300 528.000000
403.214500 1012.000000
405.207500 556.000000
423.221100 94996.000000
424.225200 25576.000000
425.225600 4172.000000

>ms2
119.085700 420.000000
121.065700 2000.000000
121.100300 420.000000
123.080100 688.000000
131.086100 748.000000
133.065600 332.000000
133.100600 416.000000
135.080700 1828.000000
137.097000 644.000000
139.075000 412.000000
143.086800 2304.000000
145.064700 444.000000
145.101900 588.000000
147.080800 1568.000000
149.098500 640.000000
151.075800 516.000000
155.086200 668.000000
157.101500 1144.000000
159.081600 916.000000
159.117200 308.000000
161.096800 2044.000000
162.101200 308.000000
163.075600 696.000000
163.112200 2272.000000
165.091100 484.000000
165.108900 488.000000
169.101700 992.000000
171.081100 944.000000
171.119300 528.000000
173.096800 1488.000000
175.112500 516.000000
181.103400 4884.000000
182.107600 540.000000
183.081300 748.000000
183.118600 1056.000000
185.097000 1424.000000
185.133100 620.000000
187.111500 952.000000
189.092000 2888.000000
189.129400 340.000000
190.096200 488.000000
191.108500 456.000000
195.118100 1000.000000
196.122100 320.000000
197.097600 784.000000
197.132800 1604.000000
198.137800 304.000000
199.112600 1688.000000
199.150200 348.000000
201.091400 564.000000
201.127900 708.000000
203.106900 684.000000
205.122100 332.000000
207.117500 1068.000000
209.096000 400.000000
209.135300 940.000000
211.114600 1132.000000
211.149700 1064.000000
212.116700 400.000000
213.127700 2152.000000
214.132800 344.000000
215.106200 336.000000
215.142200 424.000000
217.124700 900.000000
219.116700 784.000000
221.093300 336.000000
221.133800 2316.000000
222.136900 620.000000
223.113700 520.000000
223.147600 1944.000000
225.127600 784.000000
225.163800 428.000000
227.146400 1644.000000
229.124500 580.000000
232.124900 324.000000
233.134500 380.000000
235.147800 620.000000
237.129500 1528.000000
237.164200 1004.000000
238.132000 492.000000
239.144000 10804.000000
240.147000 1600.000000
241.124600 1512.000000
241.160000 1752.000000
242.130600 304.000000
242.161100 524.000000
243.140300 864.000000
245.134900 496.000000
245.150400 368.000000
247.149800 1900.000000
248.153600 412.000000
249.131100 728.000000
249.163800 684.000000
250.132600 484.000000
251.146100 428.000000
251.179200 328.000000
252.149700 376.000000
253.161500 632.000000
255.138200 1472.000000
255.177700 492.000000
257.154800 3364.000000
258.161200 844.000000
259.145000 432.000000
259.154900 644.000000
259.165500 480.000000
261.128000 364.000000
261.165500 1336.000000
263.144500 812.000000
264.152100 536.000000
265.160500 4664.000000
266.165300 1628.000000
267.139100 1016.000000
267.174600 3124.000000
268.141900 316.000000
268.180300 1164.000000
269.156500 808.000000
271.147900 704.000000
273.144100 392.000000
277.159800 632.000000
279.137700 488.000000
279.176100 2840.000000
280.181100 580.000000
281.157700 560.000000
283.171900 2876.000000
284.178200 1628.000000
285.162300 664.000000
285.185500 2032.000000
287.180400 532.000000
289.160800 2068.000000
290.166600 564.000000
294.159900 340.000000
295.172200 1644.000000
296.175500 388.000000
297.152900 532.000000
297.186400 1780.000000
298.190500 392.000000
299.165900 1012.000000
301.181000 544.000000
307.171300 4940.000000
308.174200 1640.000000
309.175100 332.000000
313.180800 1544.000000
314.191300 392.000000
315.176800 316.000000
315.192200 440.000000
325.181800 8652.000000
326.185100 2124.000000
327.184100 624.000000
341.179000 824.000000
342.182800 412.000000
343.192800 7716.000000
344.197500 2084.000000
345.191900 1400.000000
349.186100 312.000000
361.205000 844.000000
363.201100 856.000000
364.198800 336.000000
367.190600 1348.000000
368.193600 356.000000
385.202600 2080.000000
386.213500 524.000000
403.215400 992.000000
423.221200 28088.000000
424.224400 7392.000000

>ms2
115.055600 316.000000
119.086400 808.000000
121.065400 1808.000000
123.081500 1036.000000
128.065100 524.000000
129.070000 608.000000
131.086600 1600.000000
132.091200 304.000000
133.065200 492.000000
133.100500 1452.000000
135.081000 2164.000000
137.096800 672.000000
141.071000 604.000000
142.077700 516.000000
143.086000 2732.000000
145.066200 632.000000
145.101700 1536.000000
147.080800 1904.000000
147.118300 352.000000
149.098200 704.000000
151.075000 312.000000
153.070100 300.000000
153.091500 336.000000
155.086100 1480.000000
156.090900 336.000000
157.066500 396.000000
157.102400 2076.000000
159.081100 1388.000000
159.117900 1160.000000
161.096500 3364.000000
162.100900 336.000000
163.077300 688.000000
163.092900 316.000000
163.112900 2116.000000
167.086200 404.000000
169.101800 1512.000000
170.107200 444.000000
171.081900 1152.000000
171.118300 1028.000000
172.087100 328.000000
173.096900 2060.000000
175.113100 804.000000
176.116300 420.000000
179.086400 484.000000
180.093800 316.000000
181.102700 6680.000000
182.107200 1056.000000
183.081700 688.000000
183.117400 2080.000000
184.086700 324.000000
184.122100 384.000000
185.097200 1700.000000
185.133300 1164.000000
186.103000 368.000000
187.113000 1396.000000
188.117700 592.000000
189.092300 2416.000000
189.128300 468.000000
190.094800 316.000000
191.107800 412.000000
193.103700 596.000000
195.118100 1812.000000
196.125900 352.000000
197.096200 664.000000
197.133700 2588.000000
198.138400 560.000000
199.114500 1604.000000
199.149500 756.000000
200.119300 556.000000
201.091400 608.000000
201.127600 652.000000
203.108200 688.000000
205.102700 404.000000
206.107700 604.000000
207.118100 1144.000000
208.122100 364.000000
209.097700 684.000000
209.134300 1100.000000
210.099600 304.000000
210.139400 316.000000
211.113000 1524.000000
211.148200 1080.000000
213.129200 1628.000000
214.131000 372.000000
215.145100 488.000000
217.123700 620.000000
219.117400 632.000000
220.125000 380.000000
221.135400 1812.000000
222.138300 732.000000
223.112900 1064.000000
223.147800 1692.000000
224.118800 472.000000
224.154700 424.000000
225.129300 1148.000000
225.166200 1044.000000
226.132200 364.000000
227.143900 916.000000
229.123000 540.000000
234.144700 372.000000
235.149400 808.000000
237.128900 1156.000000
237.164900 1060.000000
238.169900 436.000000
239.144300 4748.000000
240.148700 1564.000000
241.123000 760.000000
241.160600 1612.000000
242.166600 396.000000
243.138900 828.000000
245.135700 508.000000
247.149800 1664.000000
248.152200 448.000000
249.128600 848.000000
249.165000 532.000000
250.135100 356.000000
251.143100 852.000000
252.153400 404.000000
253.159400 512.000000
255.139500 924.000000
255.177500 412.000000
257.156600 1264.000000
258.165200 692.000000
259.149900 424.000000
259.168800 368.000000
261.131400 304.000000
261.164800 556.000000
262.167000 312.000000
263.153000 400.000000
264.151000 484.000000
265.161500 2972.000000
266.166500 1304.000000
267.137700 564.000000
267.174500 1996.000000
268.177900 552.000000
269.156200 624.000000
271.148100 380.000000
277.164400 348.000000
279.135100 300.000000
279.175900 1940.000000
280.183200 368.000000
281.157100 404.000000
283.171400 1488.000000
284.178600 1504.000000
285.184100 956.000000
289.160000 1208.000000
290.163100 320.000000
294.166600 300.000000
295.171200 660.000000
297.187300 804.000000
299.165600 732.000000
300.173500 344.000000
301.180300 428.000000
304.180700 324.000000
307.171200 1816.000000
308.175800 496.000000
313.182800 320.000000
325.182900 2504.000000
326.184000 860.000000
343.192600 2388.000000
344.196800 656.000000
423.222000 948.000000

>ms2
115.051800 308.000000
117.070700 832.000000
119.085700 868.000000
121.065200 1612.000000
123.079800 1012.000000
128.063300 1176.000000
129.069900 1124.000000
131.086100 2092.000000
133.065400 508.000000
133.101700 1100.000000
135.081100 1204.000000
137.060900 452.000000
137.095600 304.000000
139.077200 324.000000
141.069600 820.000000
142.078500 1120.000000
143.086000 3540.000000
144.092000 420.000000
145.066700 760.000000
145.102200 2388.000000
146.072400 320.000000
147.081800 2008.000000
148.087000 412.000000
149.095900 700.000000
153.073600 392.000000
154.076700 360.000000
155.086100 1284.000000
156.093000 616.000000
157.064000 388.000000
157.101400 2580.000000
158.105500 304.000000
159.080800 1524.000000
159.118700 864.000000
160.086400 348.000000
161.096500 2176.000000
162.103500 556.000000
163.076300 656.000000
163.094800 320.000000
163.111700 1384.000000
165.070500 612.000000
166.079500 688.000000
167.085100 852.000000
168.094800 620.000000
169.101500 2428.000000
170.105900 440.000000
171.080900 756.000000
171.118000 1556.000000
172.085800 340.000000
173.096000 1620.000000
174.100000 644.000000
175.112400 880.000000
177.091800 416.000000
179.085900 1008.000000
180.093400 804.000000
181.102600 5444.000000
182.107700 1432.000000
183.080700 508.000000
183.117000 2236.000000
184.123600 528.000000
185.096500 1220.000000
185.132900 768.000000
186.101900 428.000000
187.112900 696.000000
189.091500 1616.000000
191.084500 444.000000
193.102100 964.000000
194.106700 364.000000
195.081600 504.000000
195.118500 2076.000000
196.123600 984.000000
197.097500 956.000000
197.133900 2888.000000
198.137400 548.000000
199.112700 1512.000000
199.147100 936.000000
200.120300 320.000000
201.129700 504.000000
203.108700 344.000000
203.145200 328.000000
204.093900 300.000000
205.102100 900.000000
206.110600 844.000000
207.118200 1624.000000
208.123900 476.000000
209.095500 632.000000
209.133200 1512.000000
210.107400 324.000000
210.138000 324.000000
211.113100 1308.000000
211.147400 1020.000000
212.120100 424.000000
212.152200 304.000000
213.128300 1228.000000
213.165300 348.000000
215.145000 428.000000
217.101300 496.000000
218.109100 368.000000
219.117200 564.000000
220.125300 364.000000
221.134000 1220.000000
222.101200 304.000000
222.138900 428.000000
223.111500 812.000000
223.150400 796.000000
224.121600 612.000000
224.153800 532.000000
225.127700 1252.000000
225.163000 412.000000
226.138200 640.000000
227.145300 700.000000
231.120000 528.000000
232.124400 728.000000
233.135300 448.000000
235.150400 668.000000
237.126100 772.000000
237.164400 488.000000
238.136800 408.000000
239.145200 2796.000000
240.148900 740.000000
241.157700 752.000000
243.138800 524.000000
246.144300 472.000000
247.150600 616.000000
248.156100 320.000000
249.125300 312.000000
249.166700 428.000000
250.140000 324.000000
251.145000 816.000000
252.148900 648.000000
255.176800 360.000000
257.154500 452.000000
258.161100 696.000000
261.163400 316.000000
264.151000 344.000000
265.159800 888.000000
266.166400 632.000000
267.135600 424.000000
267.173000 492.000000
269.155000 1060.000000
270.156600 432.000000
279.173600 436.000000
282.165400 356.000000
283.170000 476.000000
284.178900 1488.000000
285.180600 356.000000
295.169900 300.000000
299.165400 508.000000
325.182600 448.000000

