>compound AU83905570
>parentmass 267.1088
>ionization [M+H]+
>formula C11H14N4O4
>rt 267.960000
>profile qtof
#smiles_iso CN1C=NC2=C1C(=O)N(C(=O)N2C)CCCC(=O)O
#smiles_can CN1C=NC2=C1C(=O)N(C(=O)N2C)CCCC(=O)O
#inchikey WKASGTGXOGALBG-UHFFFAOYSA-N
#pubchem_id 151419
#mb_accession AU278501,AU278502,AU278503,AU278504,AU278505,AU278506

>ms2peaks
181.069300 476.000000
193.069900 488.000000
205.106200 672.000000
209.113300 2092.000000
221.102400 8880.000000
222.105100 1312.000000
249.097200 76252.000000
250.099100 10000.000000
267.107900 20384.000000
268.111600 2624.000000

>ms2peaks
138.065600 1072.000000
181.070300 9968.000000
182.074600 1192.000000
193.070600 17032.000000
194.073300 1736.000000
205.106900 2176.000000
206.068600 632.000000
207.086100 872.000000
209.048300 716.000000
209.112700 828.000000
211.081200 9596.000000
212.085700 1208.000000
221.102600 95096.000000
222.105000 9884.000000
223.104900 1172.000000
249.097400 26124.000000
250.100800 3660.000000
267.107800 4768.000000
268.112800 800.000000

>ms2peaks
122.069300 492.000000
132.054700 344.000000
136.048800 1172.000000
136.086100 404.000000
137.081600 500.000000
138.064700 2636.000000
149.081500 1052.000000
150.101500 2120.000000
154.059200 1140.000000
163.059300 1192.000000
165.075000 2356.000000
166.077400 412.000000
175.060400 924.000000
176.068700 340.000000
177.113300 380.000000
178.094800 540.000000
180.063300 1396.000000
181.070600 9932.000000
182.074200 1140.000000
193.070800 63352.000000
194.073400 5976.000000
195.076000 660.000000
205.106600 1092.000000
207.085700 1292.000000
209.047800 408.000000
211.081100 26164.000000
212.085000 2640.000000
213.086200 456.000000
221.102500 31016.000000
222.104900 4572.000000
225.093700 536.000000
249.096300 616.000000
267.108800 544.000000

>ms2peaks
121.062500 1244.000000
122.069800 2116.000000
124.048600 476.000000
132.053900 1216.000000
135.064700 544.000000
136.049500 3856.000000
136.085900 388.000000
137.052400 352.000000
137.081500 1120.000000
138.064900 4128.000000
139.068600 532.000000
147.064300 704.000000
149.081200 2172.000000
150.064300 804.000000
150.102300 1124.000000
153.020600 356.000000
154.059000 2280.000000
161.082000 412.000000
162.088200 892.000000
163.060300 2296.000000
165.075700 10400.000000
166.079900 1028.000000
175.060500 1172.000000
180.063700 1688.000000
181.070400 6436.000000
182.073100 440.000000
193.071000 37524.000000
194.073800 3956.000000
195.081400 304.000000
205.106300 516.000000
207.087000 608.000000
211.081100 14112.000000
212.085100 1720.000000
221.102600 2644.000000
222.106000 344.000000

>ms2peaks
120.055400 456.000000
121.062400 2404.000000
122.059500 424.000000
122.069900 1888.000000
124.049100 712.000000
132.053400 1248.000000
134.069400 664.000000
135.065000 728.000000
136.048900 3136.000000
137.055400 456.000000
137.080600 1064.000000
138.064200 3844.000000
147.065500 1128.000000
148.073600 356.000000
149.081900 1128.000000
150.065200 548.000000
154.059700 1328.000000
161.079900 444.000000
163.060700 1796.000000
164.063500 352.000000
165.075400 6988.000000
166.058800 464.000000
166.078600 716.000000
175.058400 636.000000
179.055000 584.000000
180.062400 776.000000
181.070700 2888.000000
193.070600 7800.000000
194.074000 612.000000
211.081100 2804.000000

>ms2peaks
138.064800 1944.000000
149.079700 876.000000
150.100900 1240.000000
154.059600 740.000000
163.059100 576.000000
165.074500 1324.000000
175.059900 792.000000
176.068800 392.000000
180.063400 1076.000000
181.070100 10152.000000
182.074800 872.000000
193.071100 31956.000000
194.074000 3440.000000
195.074400 420.000000
205.106200 1884.000000
207.085300 936.000000
209.047300 504.000000
209.113200 564.000000
211.081700 27632.000000
212.086300 2268.000000
221.102600 74856.000000
222.105000 5904.000000
223.110600 624.000000
225.096800 460.000000
249.097100 14144.000000
250.100200 2212.000000
267.107800 1960.000000

