>compound AU83591904
>parentmass 515.2442
>ionization [M+H]+
>formula C33H30N4O2
>rt 631.620000
>profile qtof
#smiles_iso CCCC1=NC2=C(N1CC3=CC=C(C=C3)C4=CC=CC=C4C(=O)O)C=C(C=C2C)C5=NC6=CC=CC=C6N5C
#smiles_can CCCC1=NC2=C(N1CC3=CC=C(C=C3)C4=CC=CC=C4C(=O)O)C=C(C=C2C)C5=NC6=CC=CC=C6N5C
#inchikey RMMXLENWKUUMAY-UHFFFAOYSA-N
#pubchem_id 65999
#mb_accession AU225101,AU225102,AU225103,AU225104,AU225105,AU225106

>ms2
515.250400 2501884.000000
516.251800 1219380.000000
517.254800 148056.000000

>ms2
515.251600 2505308.000000
516.251800 1469984.000000
517.254700 183208.000000

>ms2
497.237600 202852.000000
498.240000 65732.000000
515.251900 2506968.000000
517.254600 198460.000000

>ms2
193.065800 26944.000000
211.076600 49572.000000
276.138900 207528.000000
277.141500 27012.000000
289.145900 27952.000000
303.161700 17284.000000
305.177900 72752.000000
306.180800 14116.000000
317.177900 25448.000000
497.238000 1801860.000000
498.241000 587596.000000
499.243600 68544.000000
515.249400 2451720.000000
516.251700 1084164.000000
517.254400 119840.000000

>ms2
165.070600 11124.000000
193.066100 194072.000000
194.069300 28048.000000
211.076800 234788.000000
212.079900 28948.000000
261.115000 20752.000000
262.122100 15668.000000
275.130800 44440.000000
276.139300 2163124.000000
277.142200 319884.000000
278.145000 16764.000000
289.147100 318888.000000
290.150000 50660.000000
303.162700 167436.000000
304.166600 31616.000000
305.178500 207568.000000
306.181200 37680.000000
317.178400 105700.000000
318.181400 21564.000000
455.188800 11136.000000
467.190800 47504.000000
468.194600 25192.000000
485.201400 25444.000000
486.205600 11292.000000
497.238400 1959312.000000
498.241200 773216.000000
499.243800 91984.000000
515.248800 566460.000000
516.252100 192992.000000
517.254500 26676.000000

>ms2
211.074300 10664.000000
276.136800 23928.000000
305.175300 20688.000000
497.234400 304692.000000
498.237700 103352.000000
499.241200 15320.000000
515.245100 1160812.000000
516.248000 472220.000000
517.250600 81124.000000

