>compound AU83229910
>parentmass 214.1087
>ionization [M+H]+
>formula C11H11N5
>rt 243.530000
>profile qtof
#smiles_iso CC1=CN=C2C=CC3=C(C2=N1)N=C(N3C)N
#smiles_can CC1=CN=C2C=CC3=C(C2=N1)N=C(N3C)N
#inchikey DVCCCQNKIYNAKB-UHFFFAOYSA-N
#pubchem_id 62275
#mb_accession AU229201,AU229202,AU229203,AU229204,AU229205,AU229206

>ms2peaks
214.108500 2303864.000000
215.111000 289484.000000
216.113000 16528.000000

>ms2peaks
146.070100 20540.000000
172.085300 20028.000000
173.080900 80788.000000
187.096400 28640.000000
197.081000 17936.000000
199.084400 173448.000000
200.086700 18524.000000
214.108600 2498508.000000
215.111000 410272.000000
216.113500 19404.000000

>ms2peaks
129.043700 7356.000000
131.046900 44916.000000
143.059300 8124.000000
145.075000 12800.000000
146.070200 131364.000000
147.073200 11912.000000
156.054500 32224.000000
157.060900 8088.000000
158.057700 8764.000000
160.085600 32388.000000
170.070300 15788.000000
171.065500 22596.000000
172.073300 69136.000000
172.085000 79056.000000
173.081300 215120.000000
174.082800 23016.000000
187.096900 83620.000000
188.098900 9972.000000
197.081200 58196.000000
199.084600 1075988.000000
200.087100 93860.000000
213.099900 10028.000000
214.108200 1459012.000000
215.111100 151548.000000

>ms2peaks
116.049000 3356.000000
117.043600 3772.000000
118.051300 3984.000000
119.059300 8620.000000
129.043500 16064.000000
130.038600 8008.000000
130.049800 5048.000000
131.046600 240216.000000
132.049900 16988.000000
133.074700 6556.000000
134.057400 3368.000000
142.051300 6352.000000
143.058500 20816.000000
144.054400 12464.000000
144.065500 8048.000000
145.061700 19264.000000
145.073700 16064.000000
146.069800 120660.000000
147.073300 11424.000000
156.053800 27640.000000
157.060800 14760.000000
158.057200 17988.000000
159.064100 5128.000000
159.076400 5104.000000
160.084900 29828.000000
161.087900 3828.000000
170.069300 18612.000000
171.064900 85888.000000
172.072800 179284.000000
173.079500 67932.000000
174.077800 9948.000000
184.060200 6220.000000
185.080300 7644.000000
187.096000 21080.000000
197.080100 21532.000000
198.076000 30684.000000
199.084100 669060.000000
200.086800 65872.000000
212.091600 6460.000000
213.098300 7168.000000
214.107400 88824.000000
215.110300 12944.000000

>ms2peaks
116.048600 5936.000000
117.043700 6508.000000
117.056100 3076.000000
118.051600 8012.000000
119.046900 3196.000000
119.059000 10292.000000
128.036000 3296.000000
129.043600 17596.000000
130.038900 28996.000000
130.050100 8520.000000
131.046900 407060.000000
132.050400 31564.000000
133.061000 2412.000000
133.074400 4536.000000
142.051300 13020.000000
143.058900 18588.000000
144.054100 33048.000000
145.062100 33444.000000
146.069700 56924.000000
147.073300 5804.000000
148.073400 2592.000000
154.038000 2372.000000
155.046700 3260.000000
156.054200 18712.000000
157.051000 7940.000000
157.061100 13320.000000
158.057300 14256.000000
159.064400 4516.000000
159.076900 4384.000000
160.085400 11904.000000
170.069800 10528.000000
171.065300 152948.000000
172.072700 122100.000000
174.074400 2924.000000
184.059900 7072.000000
185.081000 6480.000000
187.095800 3368.000000
195.065200 3936.000000
197.080900 7384.000000
198.076200 28064.000000
199.084200 152216.000000
200.086800 17380.000000
212.091800 5784.000000
213.098600 2768.000000
214.107500 6272.000000

>ms2peaks
131.046500 6280.000000
146.070300 32000.000000
156.054000 8760.000000
160.085700 8032.000000
172.073600 10724.000000
172.085200 28200.000000
173.081300 96000.000000
174.083100 8140.000000
187.096700 33056.000000
197.081100 25452.000000
199.084600 289668.000000
200.087300 25400.000000
214.108500 1208628.000000
215.111200 187052.000000
216.113600 8640.000000

