>compound AU83736099
>parentmass 314.9853
>ionization [M+H]+
>formula C13H9Cl3N2O
>rt 715.000000
>profile qtof
#smiles_iso C1=CC(=CC=C1NC(=O)NC2=CC(=C(C=C2)Cl)Cl)Cl
#smiles_can C1=CC(=CC=C1NC(=O)NC2=CC(=C(C=C2)Cl)Cl)Cl
#inchikey ICUTUKXCWQYESQ-UHFFFAOYSA-N
#pubchem_id 7547
#mb_accession AU241701,AU241702,AU241703,AU241704,AU241705,AU241706

>ms2peaks
127.017100 336.000000
128.024200 924.000000
130.021800 372.000000
149.022600 516.000000
161.985700 1048.000000
162.991200 356.000000
163.984100 572.000000
314.985000 41964.000000
315.988500 6640.000000
316.982900 37372.000000

>ms2peaks
126.009700 900.000000
127.017000 5800.000000
128.025000 11612.000000
129.014200 1404.000000
129.029200 1132.000000
130.022000 3124.000000
154.002900 2160.000000
156.000900 496.000000
159.969800 472.000000
161.985800 16020.000000
162.989200 1076.000000
163.982700 8328.000000
164.985100 408.000000
187.965600 1432.000000
189.961900 604.000000
314.984500 15460.000000
315.988800 3020.000000
316.982300 13512.000000

>ms2peaks
126.009300 2576.000000
127.017400 12884.000000
128.008200 576.000000
128.024600 6764.000000
129.014100 3376.000000
130.020800 1208.000000
154.004400 1064.000000
159.969800 1848.000000
161.968100 716.000000
161.985800 9608.000000
162.988900 604.000000
163.983200 4756.000000
187.966800 652.000000
189.959900 456.000000
314.982000 540.000000
316.983800 412.000000

>ms2peaks
126.009400 2444.000000
127.017200 12276.000000
128.006300 308.000000
128.023700 2196.000000
129.014200 3144.000000
130.022100 592.000000
154.004600 568.000000
159.970700 1400.000000
161.966300 900.000000
161.986000 1980.000000
163.982200 708.000000

>ms2peaks
125.002100 396.000000
126.009800 2912.000000
127.017500 18708.000000
128.007500 724.000000
128.022400 1332.000000
129.014600 3940.000000
130.019300 348.000000
132.958500 684.000000
134.956700 584.000000
159.970400 1312.000000
161.968000 768.000000
161.987200 560.000000
163.983100 320.000000
172.966000 420.000000

>ms2peaks
93.057300 368.000000
126.010000 2716.000000
127.017700 16936.000000
128.025600 16604.000000
129.015000 2764.000000
129.028900 792.000000
130.022400 3420.000000
154.004700 1452.000000
159.970000 2032.000000
161.967700 980.000000
161.986300 15928.000000
162.989000 1288.000000
163.983600 6292.000000
164.985900 424.000000
172.015800 972.000000
187.965500 1072.000000
314.985300 6172.000000
315.989700 908.000000
316.982100 4568.000000

