>compound AU83815083
>parentmass 186.2216
>ionization [M+H]+
>formula C12H27N
>rt 304.780000
>profile qtof
#smiles_iso CCCCN(CCCC)CCCC
#smiles_can CCCCN(CCCC)CCCC
#inchikey IMFACGCPASFAPR-UHFFFAOYSA-N
#pubchem_id 7622
#mb_accession AU244201,AU244202,AU244203,AU244204,AU244205,AU244206

>ms2peaks
130.158200 2620.000000
186.220900 208344.000000
187.223900 26960.000000
188.228300 1440.000000

>ms2peaks
128.141500 1496.000000
130.158000 21608.000000
131.160600 2152.000000
168.079500 444.000000
186.220600 87908.000000
187.223400 9264.000000
188.227700 844.000000

>ms2peaks
128.141800 880.000000
130.157900 5580.000000
131.161000 568.000000
167.073500 532.000000
168.080100 388.000000
186.220300 5000.000000

>ms2peaks
167.070900 536.000000

>ms2peaks
166.064600 316.000000

>ms2peaks
57.069300 3704.000000
74.095900 1464.000000
128.141700 1900.000000
130.158100 19964.000000
131.160900 1752.000000
186.221000 103012.000000
187.224500 10448.000000
188.229200 872.000000

