>compound AU83122955
>parentmass 253.04639999999998
>ionization [M+H]+
>formula C11H12N2OS2
>rt 591.230000
>profile qtof
#smiles_iso C1COCCN1SC2=NC3=CC=CC=C3S2
#smiles_can C1COCCN1SC2=NC3=CC=CC=C3S2
#inchikey MHKLKWCYGIBEQF-UHFFFAOYSA-N
#pubchem_id 7619
#mb_accession AU287801,AU287802,AU287803,AU287804,AU287805,AU287806

>ms2
220.066200 9108.000000
253.046500 782820.000000
254.049000 79304.000000
255.042200 50788.000000

>ms2
118.032000 956.000000
136.020600 8772.000000
137.024700 764.000000
148.020800 1460.000000
163.031700 932.000000
163.044000 720.000000
165.976800 15636.000000
166.983000 5400.000000
167.972800 1296.000000
167.992200 18196.000000
168.995800 1848.000000
169.988100 1912.000000
182.007100 616.000000
190.056500 768.000000
205.043300 832.000000
220.066200 19068.000000
221.068500 2604.000000
222.060800 1208.000000
253.046300 116484.000000
254.049300 14044.000000
255.041800 8496.000000

>ms2
122.005300 1856.000000
124.021600 540.000000
132.995800 324.000000
135.010900 864.000000
136.020500 4444.000000
137.022600 484.000000
138.016000 344.000000
138.965500 508.000000
148.020900 484.000000
149.025500 360.000000
162.034800 768.000000
163.031200 1664.000000
163.042300 1568.000000
164.035600 424.000000
165.976700 21892.000000
166.983900 5920.000000
167.971600 1396.000000
167.991800 11716.000000
168.980200 560.000000
168.994800 1344.000000
169.989700 1188.000000
175.031300 640.000000
176.039200 660.000000
179.991900 436.000000
183.987700 416.000000
189.048400 476.000000
190.055500 516.000000
205.041800 392.000000
219.059000 640.000000
220.065100 1632.000000
221.070300 364.000000
253.046800 1384.000000

>ms2
122.004700 3416.000000
123.011000 556.000000
124.021600 520.000000
132.997200 408.000000
135.013500 1956.000000
136.020500 3456.000000
137.022600 416.000000
138.965600 1372.000000
148.019900 472.000000
162.036800 712.000000
163.031300 1052.000000
165.976400 12944.000000
166.983600 4708.000000
167.974500 1340.000000
167.992300 5072.000000
168.979800 656.000000
168.996000 508.000000
169.987200 696.000000
175.030700 648.000000
183.987500 384.000000
189.047500 392.000000
219.059600 420.000000

>ms2
122.004700 4200.000000
123.012400 748.000000
124.002100 372.000000
124.019900 472.000000
132.997000 688.000000
134.002700 464.000000
135.012800 3072.000000
136.019600 2940.000000
138.966100 1040.000000
139.974300 404.000000
162.035200 984.000000
163.030100 380.000000
164.968700 856.000000
165.977400 4252.000000
166.984600 2532.000000
167.972800 452.000000
167.991600 1276.000000
168.980000 504.000000
175.030100 500.000000
189.047100 304.000000

>ms2
56.048900 27496.000000
57.056600 13148.000000
58.064600 3216.000000
72.044100 332.000000
86.060100 39032.000000
87.067800 18772.000000
88.070700 668.000000
118.033400 764.000000
122.004800 556.000000
136.021100 7020.000000
137.024000 824.000000
138.015900 464.000000
148.020500 1296.000000
162.036100 680.000000
163.032400 1448.000000
163.042100 1136.000000
165.977500 22056.000000
166.983900 5684.000000
167.972000 1876.000000
167.992700 19632.000000
168.995600 1392.000000
169.988000 1120.000000
175.031600 420.000000
176.040200 648.000000
182.008000 428.000000
183.985700 400.000000
190.054600 524.000000
198.003400 1044.000000
205.041800 444.000000
207.008000 416.000000
219.058700 532.000000
220.066300 11540.000000
221.070300 1360.000000
222.064300 740.000000
253.046400 65408.000000
254.048800 8092.000000
255.041800 4588.000000

