>compound AU83777735
>parentmass 188.1434
>ionization [M+H]+
>formula C13H17N
>rt 282.000000
>profile qtof
#smiles_iso C[C@H](CC1=CC=CC=C1)N(C)CC#C
#smiles_can CC(CC1=CC=CC=C1)N(C)CC#C
#inchikey MEZLKOACVSPNER-GFCCVEGCSA-N
#pubchem_id 26757
#mb_accession AU211901,AU211902,AU211903,AU211904

>ms2
119.085000 59808.000000
120.088300 5608.000000
188.143000 922464.000000
189.146000 96292.000000
190.149900 6128.000000

>ms2
119.085100 13212.000000
120.088300 1376.000000
129.067900 396.000000
141.049900 4432.000000
142.055100 816.000000
148.111100 1456.000000
188.142700 15572.000000
189.146000 2636.000000

>ms2
119.085800 732.000000
141.049900 856.000000
148.110000 408.000000

>ms2
115.054800 348.000000

