>compound AU84863553
>parentmass 233.11069999999998
>ionization [M+H]+
>formula C13H16N2S
>rt 651.270000
>profile qtof
#smiles_iso C1CCC(CC1)NC2=NC3=CC=CC=C3S2
#smiles_can C1CCC(CC1)NC2=NC3=CC=CC=C3S2
#inchikey UPWPIFMHSFSVLE-UHFFFAOYSA-N
#pubchem_id 591790
#mb_accession AU287901,AU287902,AU287903,AU287904,AU287905,AU287906

>ms2
151.031200 189012.000000
233.111200 2506276.000000

>ms2
124.020800 22652.000000
151.032300 2392128.000000
152.034600 244240.000000
153.027700 114792.000000
233.111300 2325088.000000
234.113700 335884.000000
235.107900 90580.000000

>ms2
124.020600 112528.000000
151.031900 2498328.000000
152.034000 307492.000000
153.027000 138632.000000
233.109900 133452.000000
234.112800 16136.000000

>ms2
118.051500 17240.000000
124.020700 198424.000000
125.023600 15504.000000
151.031400 1992740.000000
152.034100 126016.000000
153.027000 57540.000000

>ms2
109.010300 8896.000000
118.051900 28184.000000
119.056200 3116.000000
124.021000 182140.000000
125.023500 14452.000000
126.016600 10500.000000
134.004700 5448.000000
150.023600 8380.000000
151.031600 574072.000000
152.034300 39428.000000
153.027300 21372.000000

>ms2
55.053700 112828.000000
83.085100 218472.000000
84.088300 13124.000000
92.049200 7892.000000
109.010800 9012.000000
124.021000 41152.000000
151.032600 1515152.000000
152.034500 150212.000000
153.027600 73836.000000
233.110800 785276.000000
234.113500 134904.000000
235.107500 38072.000000

