>compound AU84016752
>parentmass 435.2177
>ionization [M+H]+
>formula C24H31FO6
>rt 546.000000
>profile qtof
#smiles_iso C[C@H]1C[C@H]2[C@@H]3CCC4=CC(=O)C=C[C@@]4([C@]3([C@H](C[C@@]2([C@]1(C(=O)COC(=O)C)O)C)O)F)C
#smiles_can CC1CC2C3CCC4=CC(=O)C=CC4(C3(C(CC2(C1(C(=O)COC(=O)C)O)C)O)F)C
#inchikey AKUJBENLRBOFTD-QZIXMDIESA-N
#pubchem_id 443967
#mb_accession AU203201,AU203202,AU203203,AU203204,AU203205

>ms2peaks
279.172700 504.000000
291.173300 376.000000
309.185100 976.000000
319.171900 728.000000
327.195200 412.000000
337.177700 996.000000
355.192000 932.000000
379.191800 316.000000
397.200800 2380.000000
398.201900 600.000000
415.210500 4064.000000
416.215100 1584.000000
417.212000 308.000000
435.216300 3044.000000

>ms2peaks
133.099900 348.000000
135.079500 440.000000
147.080300 1292.000000
153.089600 416.000000
159.080200 440.000000
161.093900 364.000000
167.105700 304.000000
171.078700 408.000000
173.095100 476.000000
177.090700 588.000000
185.096500 556.000000
187.073500 452.000000
187.112000 360.000000
211.109500 528.000000
215.105600 448.000000
225.126300 344.000000
227.142000 620.000000
228.145600 312.000000
235.106700 332.000000
237.125400 1420.000000
239.145400 472.000000
253.162600 392.000000
263.142500 336.000000
275.141300 384.000000
276.148400 436.000000
277.160800 1052.000000
278.165700 348.000000
279.173200 2456.000000
280.175200 660.000000
281.191900 456.000000
291.174500 1772.000000
292.174800 424.000000
295.167600 456.000000
301.158400 1048.000000
307.164000 376.000000
309.184200 1792.000000
310.191300 360.000000
319.169000 2972.000000
320.174200 652.000000
327.194600 616.000000
337.179000 2232.000000
338.183100 556.000000
353.178000 456.000000
355.190300 1480.000000
356.190600 424.000000
379.191700 928.000000
397.200700 2284.000000
398.204900 760.000000
415.211600 608.000000

>ms2peaks
121.063600 492.000000
123.079700 336.000000
133.062600 328.000000
135.080200 668.000000
147.079700 2984.000000
148.081900 340.000000
149.093900 756.000000
151.074000 356.000000
153.090100 624.000000
159.079900 980.000000
161.095900 968.000000
167.103900 380.000000
171.079500 1136.000000
173.094800 1176.000000
177.088700 416.000000
185.096400 1140.000000
187.075600 492.000000
187.111300 396.000000
197.094500 360.000000
199.111300 420.000000
211.110900 1064.000000
212.114900 392.000000
213.126000 588.000000
215.106000 400.000000
221.095300 344.000000
222.101300 392.000000
223.110800 812.000000
225.126500 576.000000
227.140800 820.000000
235.110900 616.000000
237.126800 1984.000000
238.128900 564.000000
239.105100 300.000000
239.142200 844.000000
241.124000 328.000000
245.140400 336.000000
249.129500 320.000000
251.141600 384.000000
253.122200 496.000000
253.158900 520.000000
255.136900 560.000000
261.126100 316.000000
262.133500 308.000000
263.141300 1132.000000
267.138900 344.000000
275.143000 444.000000
276.148800 636.000000
277.156800 1108.000000
278.164900 600.000000
279.173400 2376.000000
280.177400 336.000000
281.183400 332.000000
291.174100 2240.000000
292.177000 628.000000
295.169300 600.000000
301.156400 868.000000
307.168400 404.000000
309.184100 620.000000
311.164100 308.000000
319.169500 1172.000000
320.171900 480.000000
337.177900 1532.000000
338.185500 420.000000
397.198800 328.000000

>ms2peaks
119.085300 704.000000
121.064300 1412.000000
123.080900 452.000000
125.096500 340.000000
128.060500 324.000000
129.067600 344.000000
131.085400 708.000000
133.064200 512.000000
133.100800 744.000000
135.079600 1476.000000
141.068600 376.000000
143.084900 680.000000
145.062800 688.000000
145.099000 380.000000
147.079100 5380.000000
148.083300 584.000000
149.095700 828.000000
153.090200 532.000000
157.100500 344.000000
158.069700 416.000000
159.079300 1952.000000
161.094500 1088.000000
163.072000 344.000000
167.104000 624.000000
169.063100 428.000000
171.079100 2756.000000
172.082200 592.000000
173.095300 2048.000000
174.099700 368.000000
183.114800 324.000000
185.094200 1672.000000
186.097200 360.000000
187.074900 1056.000000
187.109400 476.000000
193.099200 680.000000
196.087100 436.000000
197.094600 964.000000
198.099800 576.000000
199.109400 428.000000
201.126700 356.000000
204.093700 300.000000
205.100100 300.000000
208.087300 300.000000
209.095400 912.000000
209.131600 380.000000
210.104000 448.000000
211.110400 1632.000000
212.116900 636.000000
213.125300 1220.000000
215.105900 464.000000
220.119700 312.000000
221.094900 668.000000
222.101800 1080.000000
223.108700 936.000000
224.116100 592.000000
225.127500 916.000000
226.128800 332.000000
227.141200 1004.000000
235.110300 1132.000000
236.114000 492.000000
237.125800 2476.000000
238.129400 464.000000
239.103100 304.000000
239.142900 952.000000
240.143800 300.000000
248.118000 500.000000
249.125700 1020.000000
250.131300 492.000000
251.142800 376.000000
252.147400 368.000000
253.164200 556.000000
255.135200 316.000000
261.126900 508.000000
262.134700 912.000000
263.141300 1176.000000
264.147200 552.000000
265.156800 660.000000
275.141700 596.000000
276.152400 768.000000
277.158700 1016.000000
278.166000 936.000000
279.171600 1524.000000
280.180300 308.000000
286.134700 452.000000
291.174700 1428.000000
292.179700 508.000000
301.160700 660.000000
319.170200 724.000000

>ms2peaks
119.084500 680.000000
121.065100 1376.000000
121.099800 336.000000
128.061200 596.000000
129.066400 516.000000
131.084700 536.000000
132.056200 380.000000
133.063500 484.000000
133.100000 448.000000
135.079100 808.000000
141.070800 376.000000
143.084100 744.000000
144.056000 316.000000
145.064000 960.000000
145.101600 416.000000
147.079500 3940.000000
148.082800 472.000000
149.096300 548.000000
155.084600 508.000000
157.102200 444.000000
158.071800 440.000000
159.079200 2332.000000
160.083400 448.000000
161.095100 652.000000
165.068500 432.000000
167.084000 340.000000
169.063000 504.000000
170.071100 304.000000
171.079900 1932.000000
172.084400 388.000000
173.095200 1708.000000
178.074200 340.000000
179.083900 476.000000
181.099500 428.000000
182.072300 336.000000
183.077900 304.000000
185.094800 1068.000000
187.074300 380.000000
187.110700 308.000000
193.100800 316.000000
194.106100 320.000000
195.079700 420.000000
195.114700 408.000000
196.086100 468.000000
197.095500 880.000000
198.102400 416.000000
204.096000 336.000000
205.100800 392.000000
208.086900 412.000000
209.095000 900.000000
209.131600 396.000000
210.100000 640.000000
211.110600 1212.000000
212.118400 644.000000
215.104300 308.000000
219.113400 616.000000
221.096000 712.000000
222.104000 936.000000
223.111100 892.000000
224.118100 464.000000
225.124100 464.000000
227.143100 304.000000
233.095400 512.000000
234.104300 496.000000
235.113000 980.000000
236.118500 440.000000
237.124800 924.000000
238.134400 320.000000
239.142600 424.000000
244.127800 336.000000
245.096800 376.000000
246.100800 348.000000
247.109900 472.000000
248.119600 720.000000
249.125800 560.000000
250.143600 340.000000
261.128300 616.000000
262.134000 1068.000000
263.142000 1228.000000
276.151800 540.000000
277.159100 432.000000
278.164400 456.000000
279.174100 324.000000
286.133400 468.000000
291.168300 336.000000

