>compound AU84852922
>parentmass 233.02429999999998
>ionization [M+H]+
>formula C9H10Cl2N2O
>rt 510.762000
>profile qtof
#smiles_iso CN(C)C(=O)NC1=CC(=C(C=C1)Cl)Cl
#smiles_can CN(C)C(=O)NC1=CC(=C(C=C1)Cl)Cl
#inchikey XMTQQYYKAHVGBJ-UHFFFAOYSA-N
#pubchem_id 3120
#mb_accession AU241201,AU241202,AU241203,AU241204,AU241205,AU241206,AU341002,AU341003,AU341004,AU341005

>ms2peaks
233.023700 1183872.000000
234.026400 83676.000000
235.020800 643888.000000

>ms2peaks
132.960300 912.000000
149.015600 684.000000
151.031600 832.000000
152.996800 884.000000
159.970600 12424.000000
160.974400 1012.000000
161.967400 6920.000000
187.965300 12668.000000
188.968100 1032.000000
189.962700 8256.000000
233.024000 94020.000000
234.026500 8932.000000
235.021100 55796.000000

>ms2peaks
123.993900 1468.000000
125.000600 2852.000000
126.998900 732.000000
132.959400 5756.000000
134.956000 2940.000000
149.015300 1320.000000
151.031500 720.000000
152.996200 3924.000000
154.992600 1144.000000
159.970200 44980.000000
160.973500 3152.000000
161.967000 28588.000000
162.970800 1464.000000
172.965000 1760.000000
174.962200 888.000000
179.994000 372.000000
187.964900 6320.000000
189.961400 4676.000000
233.023800 1488.000000
235.018400 964.000000

>ms2peaks
123.994300 2340.000000
125.001900 8100.000000
125.990300 696.000000
126.999000 2436.000000
128.000900 364.000000
132.959600 16980.000000
133.963600 864.000000
134.956500 10840.000000
135.960700 380.000000
144.958900 1000.000000
146.956200 576.000000
149.014300 492.000000
151.030500 392.000000
152.996000 3904.000000
154.993900 888.000000
159.970200 31336.000000
160.973300 2032.000000
161.967500 17976.000000
162.970300 1340.000000
172.965400 3664.000000
174.962400 2280.000000
187.965100 848.000000
189.960500 516.000000

>ms2peaks
123.994400 1904.000000
125.001600 11428.000000
125.991000 528.000000
126.005000 844.000000
126.999000 2920.000000
128.003300 472.000000
132.959600 18968.000000
133.962600 1440.000000
134.956600 11940.000000
135.960200 648.000000
144.960000 632.000000
146.955900 672.000000
152.996100 1808.000000
154.993700 576.000000
159.970400 8604.000000
160.974600 580.000000
161.967700 5164.000000
162.968800 564.000000
172.965700 2740.000000
174.963000 1300.000000

>ms2peaks
46.064900 31816.000000
72.044000 538476.000000
73.047200 15580.000000
159.971600 22664.000000
161.968300 13548.000000
187.966500 8224.000000
189.963200 4560.000000
233.025700 84724.000000
234.028100 7956.000000
235.022900 45260.000000

>ms2peaks
125.002400 472.000000
132.959600 584.000000
152.996100 560.000000
159.970300 8992.000000
160.973700 732.000000
161.967200 5508.000000
173.081200 436.000000
187.965200 12416.000000
188.968600 908.000000
189.962500 6328.000000
205.977000 472.000000
233.023700 80864.000000
234.027000 7104.000000
235.021000 38636.000000
236.025300 2872.000000

>ms2peaks
123.994700 980.000000
125.001700 1836.000000
132.958800 4156.000000
152.995900 2544.000000
159.970300 32848.000000
160.973700 2308.000000
161.967200 22672.000000
162.970300 1008.000000
172.965000 1168.000000
174.962000 836.000000
187.965200 5752.000000
188.968600 456.000000
189.962500 3032.000000
233.022800 1096.000000

>ms2peaks
123.994100 2564.000000
125.001900 7792.000000
125.992300 516.000000
126.005200 400.000000
126.999400 1660.000000
132.959800 13360.000000
133.963500 1008.000000
134.956700 7364.000000
144.958600 568.000000
152.996500 2760.000000
159.970300 26136.000000
160.973700 2076.000000
161.967200 15384.000000
162.970300 1116.000000
172.965600 3196.000000
173.969200 344.000000
174.963000 1872.000000
187.965700 788.000000

>ms2peaks
123.993500 2792.000000
125.001400 11004.000000
125.990100 900.000000
126.005100 644.000000
128.003100 336.000000
132.959500 15532.000000
133.962600 1020.000000
134.956500 9736.000000
144.959200 904.000000
146.957300 668.000000
152.995900 1600.000000
159.970300 7364.000000
160.973700 540.000000
161.967200 4424.000000
162.970300 384.000000
172.965600 2104.000000
173.969200 204.000000
174.963000 1660.000000

