>compound AU84776067
>parentmass 192.07680000000002
>ionization [M+H]+
>formula C9H9N3O2
>rt 317.560000
>profile qtof
#smiles_iso COC(=O)NC1=NC2=CC=CC=C2N1
#smiles_can COC(=O)NC1=NC2=CC=CC=C2N1
#inchikey TWFZGCMQGLPBSX-UHFFFAOYSA-N
#pubchem_id 25429
#mb_accession AU286101,AU286102,AU286103,AU286104,AU286105,AU286106

>ms2peaks
160.049600 830064.000000
161.052600 62024.000000
192.076300 2211964.000000
193.079100 201212.000000
194.080600 15232.000000

>ms2peaks
132.055000 54000.000000
160.050400 2286216.000000
161.052800 217468.000000
162.054900 12096.000000
192.076300 212544.000000
193.078900 18996.000000

>ms2peaks
117.043800 11976.000000
132.054700 316380.000000
133.061100 53328.000000
135.053900 19132.000000
160.049800 2166892.000000
161.052100 171896.000000

>ms2peaks
117.043900 13976.000000
118.050800 4260.000000
132.054800 289916.000000
133.038900 4428.000000
133.060900 46440.000000
135.054200 20692.000000
159.041300 5352.000000
160.049600 659144.000000
161.052100 47896.000000

>ms2peaks
105.044400 752.000000
117.043900 8532.000000
118.051500 5220.000000
130.037200 852.000000
131.046600 3416.000000
132.054700 118684.000000
133.038600 3592.000000
133.060900 23180.000000
134.066900 2012.000000
135.054200 11616.000000
136.058000 1508.000000
159.041700 5324.000000
160.049300 125852.000000
161.051800 12084.000000
162.053600 1108.000000

>ms2peaks
92.049900 7100.000000
132.055100 67392.000000
133.062200 16960.000000
135.054800 6544.000000
160.050400 1249560.000000
161.052900 112412.000000
192.076300 211492.000000
193.080000 13844.000000

