>compound AU84346584
>parentmass 302.1751
>ionization [M+H]+
>formula C18H23NO3
>rt 209.316000
>profile qtof
#smiles_iso CN1CC[C@]23[C@@H]4[C@H]1CC5=C2C(=C(C=C5)OC)O[C@H]3[C@H](CC4)O
#smiles_can CN1CCC23C4C1CC5=C2C(=C(C=C5)OC)OC3C(CC4)O
#inchikey RBOXVHNMENFORY-DNJOTXNNSA-N
#pubchem_id 5284543
#mb_accession AU217801,AU217802,AU217803,AU217804,AU217805

>ms2peaks
302.177700 1961544.000000
303.180700 380332.000000
304.182800 30384.000000

>ms2peaks
199.076100 22500.000000
201.091500 22744.000000
227.107600 23052.000000
245.118400 63072.000000
302.177800 2426892.000000
303.180400 541344.000000
304.182300 42536.000000

>ms2peaks
137.059900 13032.000000
161.059900 13408.000000
167.086000 12904.000000
171.080600 25328.000000
173.096600 15836.000000
175.075200 9760.000000
183.080900 37940.000000
185.096400 24072.000000
187.075400 17928.000000
189.091400 40080.000000
195.081100 56644.000000
196.086700 14568.000000
199.076300 253288.000000
199.112500 21656.000000
200.079800 32828.000000
201.092000 169432.000000
202.095100 21388.000000
211.076300 14836.000000
213.092000 35724.000000
215.107300 8468.000000
217.123200 35348.000000
225.091600 16104.000000
227.107900 137844.000000
228.110800 18824.000000
243.102600 59440.000000
244.106100 10524.000000
245.118600 191968.000000
246.121600 27684.000000
284.165400 17520.000000
302.177100 1676972.000000
303.180300 233956.000000
304.182700 19548.000000

>ms2peaks
115.054400 8144.000000
128.062400 17824.000000
129.070000 12692.000000
131.049200 5012.000000
137.060000 26024.000000
141.070000 28560.000000
142.075000 5060.000000
143.049600 10980.000000
143.085400 6488.000000
144.057100 8148.000000
145.064700 7988.000000
147.080800 3712.000000
151.076100 3664.000000
152.062200 8904.000000
153.070200 13876.000000
155.086100 10372.000000
156.057300 9964.000000
157.065200 20460.000000
157.102100 6072.000000
158.073000 50824.000000
159.079700 15180.000000
161.060100 42036.000000
161.096500 8512.000000
162.064500 5480.000000
163.075500 11400.000000
165.070300 36376.000000
166.075400 7508.000000
167.086200 44108.000000
168.057300 5412.000000
168.090500 7244.000000
169.065100 16352.000000
169.101900 3680.000000
170.071500 4528.000000
171.081100 136080.000000
172.051800 4512.000000
172.084500 16352.000000
173.096800 63992.000000
174.100100 7988.000000
175.075900 17204.000000
176.081900 3700.000000
177.070400 13868.000000
177.091500 3568.000000
178.076300 5536.000000
181.065400 16768.000000
182.072800 6496.000000
183.081200 96908.000000
184.052800 4404.000000
184.087300 23420.000000
185.060400 14784.000000
185.096600 34380.000000
186.067900 20616.000000
186.100700 4072.000000
187.076000 34852.000000
188.080400 5636.000000
189.091900 54044.000000
190.094300 8080.000000
193.065600 9900.000000
193.102200 4668.000000
194.072900 10560.000000
195.081400 82380.000000
196.087500 30944.000000
197.060700 6668.000000
197.095700 13680.000000
198.068300 15812.000000
199.076600 701244.000000
200.080100 76488.000000
200.116100 5084.000000
201.091900 212252.000000
202.095500 26780.000000
203.106300 4796.000000
209.097400 9128.000000
211.076200 20444.000000
212.083700 17940.000000
213.091800 28600.000000
214.063700 3632.000000
214.096500 7192.000000
215.107400 11572.000000
217.122900 23988.000000
218.126100 4156.000000
221.096900 6112.000000
222.103500 3624.000000
225.092400 29916.000000
226.096300 6064.000000
227.108100 114552.000000
228.110700 17824.000000
243.102700 42032.000000
244.105500 8200.000000
245.118800 70940.000000
246.121600 10544.000000
253.123700 6340.000000
269.141800 7720.000000
274.146100 4592.000000
284.165800 8044.000000
302.177200 200352.000000
303.180500 35476.000000
304.183100 4064.000000

>ms2peaks
115.054800 28200.000000
116.059200 3408.000000
117.070100 2520.000000
121.065100 3840.000000
127.054500 5432.000000
128.062500 91828.000000
129.069400 32084.000000
130.076500 6380.000000
131.049700 10072.000000
131.084900 3000.000000
137.060200 16916.000000
139.054900 2760.000000
141.070400 108396.000000
142.075300 17736.000000
143.049500 15504.000000
143.085800 11480.000000
144.057300 19532.000000
145.064800 16468.000000
146.036500 3824.000000
146.071700 4168.000000
147.080200 5256.000000
152.062600 30960.000000
153.070000 37376.000000
154.076500 10368.000000
155.050100 10712.000000
155.086100 25164.000000
156.057500 37820.000000
156.090600 3652.000000
157.064800 26984.000000
157.101400 5304.000000
158.073100 110948.000000
159.079600 27484.000000
160.051900 2768.000000
160.084300 2864.000000
161.060300 55732.000000
161.096100 8636.000000
162.064700 7368.000000
163.075500 6672.000000
165.070500 103776.000000
166.076100 19748.000000
167.086100 48304.000000
168.057400 15876.000000
168.090900 7944.000000
169.065000 22392.000000
169.101400 3192.000000
170.072200 8912.000000
171.081400 316276.000000
172.052100 12244.000000
172.084800 33180.000000
173.058700 3984.000000
173.096700 68712.000000
174.068000 4924.000000
174.100000 7820.000000
175.076100 10748.000000
176.063300 4288.000000
177.070500 18408.000000
178.077100 10188.000000
179.085400 3984.000000
181.065100 20388.000000
182.072600 16360.000000
183.045200 11120.000000
183.081300 72740.000000
184.052500 18088.000000
184.087500 21328.000000
185.060300 17868.000000
185.096300 17564.000000
186.067900 23096.000000
187.075900 25816.000000
188.080800 3960.000000
189.091800 21016.000000
190.095900 3032.000000
193.066400 10640.000000
193.101700 2608.000000
194.073200 17040.000000
195.081100 35936.000000
196.088200 20980.000000
197.060500 15916.000000
197.095900 9668.000000
198.068200 21168.000000
199.076600 501488.000000
200.079900 55932.000000
201.091800 75436.000000
202.095100 11116.000000
209.097000 3832.000000
210.068700 6068.000000
211.076000 11984.000000
212.083700 16520.000000
213.091500 10260.000000
214.062800 4640.000000
214.097200 3252.000000
215.107300 4628.000000
217.122800 3828.000000
221.096500 2892.000000
225.092200 16908.000000
226.094500 4216.000000
227.107800 32232.000000
228.110600 6048.000000
243.102600 9592.000000
245.118900 6624.000000
302.175900 10480.000000
303.180000 2712.000000

