>compound AU84769913
>parentmass 231.14919999999998
>ionization [M+H]+
>formula C14H18N2O
>rt 446.725000
>profile qtof
#smiles_iso CC1=C(C(=O)N(N1C)C2=CC=CC=C2)C(C)C
#smiles_can CC1=C(C(=O)N(N1C)C2=CC=CC=C2)C(C)C
#inchikey PXWLVJLKJGVOKE-UHFFFAOYSA-N
#pubchem_id 3778
#mb_accession AU227201,AU227202,AU227203,AU227204,AU227205,AU227206,AU265301,AU265302,AU265303,AU265304,AU265305,AU265306

>ms2peaks
189.100800 13904.000000
231.149900 2495424.000000

>ms2peaks
138.090200 14368.000000
144.079900 14708.000000
146.095400 24864.000000
161.106200 14892.000000
189.101600 739332.000000
190.104900 59612.000000
201.101700 90680.000000
203.153300 23212.000000
216.125000 45908.000000
231.150400 2514444.000000

>ms2peaks
115.053300 6256.000000
118.064200 30704.000000
120.043300 9416.000000
120.079700 40940.000000
124.074700 32212.000000
130.063800 34280.000000
131.071500 58460.000000
132.078900 20916.000000
133.051100 7188.000000
133.075000 16172.000000
134.094600 10500.000000
138.090300 15092.000000
142.063600 8416.000000
144.079600 77104.000000
145.063100 13652.000000
146.082500 41268.000000
146.094900 94052.000000
147.090500 16608.000000
148.074000 10220.000000
148.110600 11500.000000
157.087100 8868.000000
158.094800 8256.000000
159.090400 7700.000000
160.073800 7820.000000
160.097700 21876.000000
161.105700 38780.000000
172.074200 16296.000000
172.110300 20676.000000
174.077400 18188.000000
186.076900 7204.000000
187.085000 8684.000000
188.093000 15196.000000
189.101100 927044.000000
190.104200 79968.000000
201.101300 331392.000000
202.104200 35520.000000
203.153200 15488.000000
215.117000 13720.000000
216.124600 27756.000000
229.132800 11880.000000
231.148500 1234832.000000
232.151600 136956.000000
233.154100 11584.000000

>ms2peaks
112.112000 728.000000
115.053400 13224.000000
116.049300 1608.000000
116.056700 1760.000000
117.056600 10392.000000
117.069300 9436.000000
118.064400 28984.000000
119.068900 4120.000000
120.043400 5392.000000
120.079800 21316.000000
121.083000 2700.000000
122.059400 2660.000000
123.053800 620.000000
123.067000 848.000000
123.090600 2680.000000
124.074800 17408.000000
125.077000 1732.000000
125.106700 908.000000
127.053700 768.000000
128.048900 3120.000000
128.060300 2336.000000
128.105600 1048.000000
129.055800 3452.000000
129.068600 2924.000000
130.064200 56500.000000
131.071700 48464.000000
132.043500 1728.000000
132.079200 21444.000000
133.051000 10660.000000
133.075300 10900.000000
134.055700 1456.000000
134.077900 832.000000
134.094800 6696.000000
135.054900 3000.000000
135.098400 872.000000
136.074600 1264.000000
138.089900 3180.000000
139.085400 4348.000000
140.048400 3368.000000
141.055200 1412.000000
141.067700 836.000000
142.063900 6684.000000
143.071800 17468.000000
144.079700 51404.000000
145.063900 10856.000000
145.075500 10288.000000
146.059300 2520.000000
146.082800 23676.000000
146.095000 31696.000000
147.066600 1484.000000
147.090300 10384.000000
148.074500 3044.000000
148.092800 1128.000000
148.110500 6376.000000
149.115000 824.000000
153.101300 680.000000
154.065200 1400.000000
155.059200 2100.000000
155.073500 760.000000
156.079800 7316.000000
157.050800 4352.000000
157.087400 7124.000000
158.058500 6300.000000
158.095000 11740.000000
159.065900 3360.000000
159.091100 8060.000000
160.075000 3796.000000
160.098000 6268.000000
161.106000 8112.000000
162.090800 672.000000
162.109400 1028.000000
162.126600 748.000000
167.071700 788.000000
170.058600 2748.000000
170.095300 1548.000000
171.054100 4780.000000
171.090900 1844.000000
172.074600 9280.000000
172.110900 4604.000000
173.070300 5060.000000
173.106400 5344.000000
174.078200 13328.000000
174.111000 720.000000
175.080900 1572.000000
183.091400 656.000000
184.074500 2788.000000
185.070000 6076.000000
186.077600 19344.000000
187.084700 6408.000000
187.122000 2184.000000
188.093000 4572.000000
188.128200 1044.000000
189.101400 96272.000000
190.104300 10976.000000
191.107900 968.000000
197.106000 1316.000000
199.086600 1316.000000
200.094800 1060.000000
201.101600 119384.000000
202.104800 15340.000000
203.108600 816.000000
203.152200 1200.000000
215.116700 3764.000000
216.123800 2052.000000
229.133000 1996.000000
231.148900 35988.000000
232.152200 5628.000000

>ms2peaks
115.053800 10628.000000
116.050100 1716.000000
117.056400 9060.000000
117.068400 3984.000000
118.064400 12152.000000
119.069100 1800.000000
120.042700 1168.000000
120.079800 5524.000000
122.059500 1080.000000
123.054300 600.000000
123.090000 716.000000
124.075200 2536.000000
125.107400 340.000000
127.054000 964.000000
128.048600 4104.000000
128.061100 2768.000000
129.056300 4412.000000
129.067700 2556.000000
130.064200 42916.000000
131.070900 14320.000000
132.043400 1324.000000
132.067600 2268.000000
132.079200 9036.000000
133.051100 4616.000000
133.075600 3540.000000
134.094800 1360.000000
135.055300 456.000000
136.074500 500.000000
138.090800 364.000000
139.085500 4168.000000
140.048300 2524.000000
141.056300 996.000000
141.069400 516.000000
142.064100 3784.000000
143.071900 17464.000000
144.079300 14552.000000
145.075000 7900.000000
146.059100 2248.000000
146.082500 5460.000000
146.094300 3804.000000
147.064400 864.000000
147.090400 2044.000000
148.075700 412.000000
148.113300 592.000000
152.046900 320.000000
154.063600 2104.000000
155.059100 1828.000000
156.043100 580.000000
156.064700 1052.000000
156.079800 6492.000000
157.051400 1216.000000
157.076900 1876.000000
157.087200 3504.000000
158.059400 1268.000000
158.082900 2820.000000
158.094200 4936.000000
159.065100 892.000000
159.090900 4472.000000
160.074000 856.000000
160.097400 1424.000000
161.106400 632.000000
166.063400 576.000000
167.069400 712.000000
168.081900 420.000000
169.076100 348.000000
170.058900 1372.000000
170.095800 600.000000
171.054200 5464.000000
171.091500 712.000000
172.058200 912.000000
172.074200 1800.000000
172.097000 956.000000
172.108800 584.000000
173.070400 2384.000000
173.105900 2268.000000
174.077100 2344.000000
174.106800 348.000000
181.072300 408.000000
182.081600 364.000000
183.090300 740.000000
184.073400 848.000000
185.069700 9700.000000
186.077500 7864.000000
187.084300 1804.000000
187.123100 716.000000
188.090300 456.000000
188.126400 420.000000
189.100900 4104.000000
197.105000 700.000000
199.084700 948.000000
201.101100 12144.000000
202.105100 1912.000000
215.117700 616.000000
231.149700 924.000000

>ms2peaks
115.053300 6256.000000
118.064200 30704.000000
120.043300 9416.000000
120.079700 40940.000000
124.074700 32212.000000
130.063800 34280.000000
131.071500 58460.000000
132.078900 20916.000000
133.051100 7188.000000
133.075000 16172.000000
134.094600 10500.000000
138.090300 15092.000000
142.063600 8416.000000
144.079600 77104.000000
145.063100 13652.000000
146.082500 41268.000000
146.094900 94052.000000
147.090500 16608.000000
148.074000 10220.000000
148.110600 11500.000000
157.087100 8868.000000
158.094800 8256.000000
159.090400 7700.000000
160.073800 7820.000000
160.097700 21876.000000
161.105700 38780.000000
172.074200 16296.000000
172.110300 20676.000000
174.077400 18188.000000
186.076900 7204.000000
187.085000 8684.000000
188.093000 15196.000000
189.101100 927044.000000
190.104200 79968.000000
201.101300 331392.000000
202.104200 35520.000000
203.153200 15488.000000
215.117000 13720.000000
216.124600 27756.000000
229.132800 11880.000000
231.148500 1234832.000000
232.151600 136956.000000
233.154100 11584.000000

>ms2peaks
189.101200 18584.000000
231.150100 2410304.000000

>ms2peaks
138.089800 12612.000000
144.079800 15536.000000
146.095300 24688.000000
161.106100 13480.000000
172.111100 12820.000000
189.101600 596424.000000
190.104500 62128.000000
201.101500 90576.000000
203.153900 22796.000000
216.125000 40504.000000
231.150000 2514672.000000

>ms2peaks
115.053300 7192.000000
117.056700 5724.000000
117.068600 6048.000000
118.064200 30124.000000
120.043500 11504.000000
120.079800 42460.000000
124.074700 36368.000000
130.064000 34008.000000
131.071800 57488.000000
132.079200 22316.000000
133.051200 9480.000000
133.075300 15392.000000
134.095200 10740.000000
138.090200 17632.000000
142.064300 9292.000000
143.071200 6436.000000
144.079700 79096.000000
145.063500 13788.000000
145.081600 11124.000000
146.082600 38292.000000
146.094900 91456.000000
147.091200 18716.000000
148.074000 11328.000000
148.110800 13596.000000
157.087300 8216.000000
158.058400 7164.000000
158.094500 8764.000000
159.090700 7140.000000
160.074100 7900.000000
160.098000 21532.000000
161.105900 41052.000000
172.074200 19912.000000
172.110900 23652.000000
174.077400 22272.000000
186.077300 8908.000000
187.084900 10612.000000
188.093000 20412.000000
189.101200 804436.000000
190.104500 86224.000000
201.101300 333880.000000
202.104600 38168.000000
203.153300 15996.000000
215.116600 16756.000000
216.124300 31548.000000
229.132700 13712.000000
231.148500 1084180.000000
232.151600 149844.000000
233.154600 10316.000000

>ms2peaks
115.053500 12100.000000
116.050000 2228.000000
117.056300 10500.000000
117.069200 9960.000000
118.064200 32280.000000
119.069300 3756.000000
120.043300 5532.000000
120.079900 22568.000000
121.082900 2304.000000
122.058800 2316.000000
123.056000 624.000000
123.065300 944.000000
123.090700 3116.000000
124.074900 18748.000000
125.078800 1976.000000
125.107500 1080.000000
127.053500 1248.000000
128.048000 4540.000000
128.060200 2712.000000
128.106400 1360.000000
129.056200 3840.000000
129.068000 3212.000000
130.064000 55440.000000
131.071400 47096.000000
132.043200 1832.000000
132.079000 23576.000000
133.051100 11724.000000
133.074900 11704.000000
134.056200 1384.000000
134.079100 1188.000000
134.095100 7164.000000
135.054500 2540.000000
136.074700 1240.000000
138.090500 3676.000000
139.085300 5712.000000
140.048200 3924.000000
141.054600 1720.000000
142.064100 7212.000000
143.071700 17356.000000
144.079500 51840.000000
145.063600 12536.000000
145.074700 11760.000000
146.060200 2880.000000
146.082500 22512.000000
146.094900 32180.000000
147.066500 1440.000000
147.090700 9452.000000
148.074200 2948.000000
148.093700 1292.000000
148.110900 5216.000000
149.073200 608.000000
149.116000 784.000000
154.064400 1632.000000
155.059500 2608.000000
156.065900 1692.000000
156.079300 7932.000000
157.051000 4696.000000
157.086200 8116.000000
158.058700 7200.000000
158.095100 12524.000000
159.065800 4068.000000
159.090300 10372.000000
160.074200 3264.000000
160.097300 7596.000000
161.106000 9204.000000
162.109400 1288.000000
167.073200 624.000000
170.057900 2976.000000
170.096000 1572.000000
171.053800 6072.000000
171.091900 1996.000000
172.074400 11092.000000
172.097900 1804.000000
172.110700 4140.000000
173.070700 4292.000000
173.105800 5840.000000
174.076700 14088.000000
175.081200 1592.000000
183.090600 728.000000
184.074500 2604.000000
185.069800 7448.000000
186.077200 21404.000000
187.083700 6092.000000
187.123000 3236.000000
188.092500 5008.000000
188.129100 1312.000000
189.101200 90836.000000
190.104400 11512.000000
191.109600 840.000000
197.106300 2252.000000
199.085000 1484.000000
200.095300 704.000000
201.101200 112984.000000
202.104100 16032.000000
203.106100 876.000000
203.154200 1272.000000
215.115900 3604.000000
216.124800 2744.000000
229.131600 1844.000000
231.148200 39236.000000
232.151100 5764.000000

>ms2peaks
112.110000 380.000000
115.053400 12540.000000
116.049800 2220.000000
117.056100 10912.000000
117.068700 5356.000000
118.063800 12928.000000
119.069500 1520.000000
120.043200 1276.000000
120.079400 5952.000000
121.083900 528.000000
122.058700 1556.000000
123.054500 484.000000
123.090400 792.000000
124.074100 3348.000000
125.076900 368.000000
125.105800 456.000000
127.054000 1156.000000
128.048400 5848.000000
128.060000 3300.000000
129.055700 4480.000000
129.067200 2824.000000
130.063800 50484.000000
131.071000 16812.000000
132.042800 1744.000000
132.078900 10840.000000
133.051100 5232.000000
133.075300 4260.000000
134.054900 680.000000
134.095400 2320.000000
135.053900 776.000000
135.100800 300.000000
136.076000 528.000000
138.090100 628.000000
139.084800 5708.000000
140.048100 4536.000000
140.087000 480.000000
141.055000 1716.000000
141.067000 1244.000000
142.063300 4052.000000
143.071500 22096.000000
144.079100 18324.000000
145.074300 11912.000000
146.058700 2740.000000
146.082200 6296.000000
146.093900 4844.000000
147.065500 816.000000
147.089400 3068.000000
148.073100 508.000000
148.095200 300.000000
148.111600 784.000000
153.057000 568.000000
154.063600 2044.000000
155.059400 3008.000000
156.042700 544.000000
156.079300 8712.000000
157.050600 1488.000000
157.076200 2008.000000
157.086200 2956.000000
158.058700 1912.000000
158.082800 3636.000000
158.094500 6972.000000
159.054300 1144.000000
159.065100 1608.000000
159.090300 5464.000000
160.072400 1284.000000
160.096100 1872.000000
161.104400 1132.000000
166.063100 984.000000
167.070900 672.000000
169.050100 432.000000
169.076200 316.000000
170.058200 1284.000000
170.093800 1136.000000
171.053800 7684.000000
171.090500 1236.000000
172.057700 1352.000000
172.074400 1892.000000
172.096600 856.000000
173.069100 2744.000000
173.105700 2496.000000
174.076500 3620.000000
175.080700 412.000000
180.079900 344.000000
181.074700 332.000000
182.083100 460.000000
183.089700 680.000000
184.074900 1416.000000
185.069100 11804.000000
186.076600 9484.000000
187.083300 2528.000000
187.124500 512.000000
188.090200 760.000000
189.101400 5368.000000
190.102900 1000.000000
197.106700 880.000000
199.085800 1072.000000
200.090400 460.000000
201.100700 17272.000000
202.103800 2212.000000
215.116800 352.000000
231.148000 1452.000000

>ms2peaks
56.049100 157900.000000
58.064900 8732.000000
79.053800 7344.000000
81.069500 9984.000000
82.064600 13584.000000
92.049300 14976.000000
94.065300 7620.000000
95.073200 17800.000000
96.080800 19696.000000
97.088500 9788.000000
98.060000 9896.000000
100.112100 6116.000000
104.049900 11400.000000
110.097200 20584.000000
112.076200 8944.000000
112.113000 61400.000000
118.065200 19380.000000
120.044600 10456.000000
120.080900 28684.000000
124.075700 23680.000000
130.064800 9868.000000
131.072600 20344.000000
132.080100 8128.000000
133.076000 5748.000000
138.091100 9396.000000
144.080400 23240.000000
146.083300 11548.000000
146.095900 28948.000000
147.090800 6732.000000
160.098800 7108.000000
161.106300 15460.000000
172.074400 6256.000000
172.111500 9416.000000
188.093500 6960.000000
189.101700 375716.000000
190.104800 36316.000000
201.101500 113104.000000
202.104800 11996.000000
203.153500 11396.000000
215.117600 6524.000000
216.124900 22504.000000
229.132600 5496.000000
231.149300 1067728.000000
233.155100 18612.000000

