>compound AU84240319
>parentmass 364.0737
>ionization [M+H]+
>formula C14H13F4N3O2S
>rt 594.000000
>profile qtof
#smiles_iso CC(C)N(C1=CC=C(C=C1)F)C(=O)COC2=NN=C(S2)C(F)(F)F
#smiles_can CC(C)N(C1=CC=C(C=C1)F)C(=O)COC2=NN=C(S2)C(F)(F)F
#inchikey IANUJLZYFUDJIH-UHFFFAOYSA-N
#pubchem_id 86429
#mb_accession AU380001,AU380002,AU380003,AU380004,AU380005

>ms2
124.054600 6968.000000
152.049600 151552.000000
153.052700 10492.000000
194.096800 1071340.000000
364.073600 263840.000000
365.076600 31736.000000
366.071100 8056.000000

>ms2
124.055300 68160.000000
152.050200 992736.000000
153.089600 6436.000000
194.097200 361480.000000

>ms2
124.055100 219552.000000
125.058100 16104.000000
152.049900 749028.000000
152.086500 72712.000000
153.089400 6992.000000
166.101400 9956.000000
194.097000 29408.000000

>ms2
109.044600 3636.000000
124.055100 349840.000000
125.039100 2300.000000
132.043700 3020.000000
134.039300 3820.000000
137.062200 2516.000000
152.049800 408512.000000
152.086500 67240.000000
153.089500 5908.000000
166.101900 4000.000000
194.097000 9532.000000

>ms2
109.044500 2128.000000
115.054400 1444.000000
122.039800 1516.000000
123.023500 12600.000000
124.055300 277876.000000
125.039300 2944.000000
125.058500 17920.000000
132.044100 3084.000000
133.045100 1832.000000
134.039000 5668.000000
135.046900 2340.000000
135.059600 1944.000000
136.055000 3644.000000
137.062600 3392.000000
151.042500 2300.000000
152.050200 110528.000000
152.086600 40044.000000
153.053200 10168.000000
153.089300 3936.000000

