>compound AU85988764
>parentmass 406.07200000000006
>ionization [M+H]+
>formula C19H17Cl2N3O3
>rt 694.650000
>profile qtof
#smiles_iso CC1COC(O1)(CN2C=NC=N2)C3=C(C=C(C=C3)OC4=CC=C(C=C4)Cl)Cl
#smiles_can CC1COC(O1)(CN2C=NC=N2)C3=C(C=C(C=C3)OC4=CC=C(C=C4)Cl)Cl
#inchikey BQYJATMQXGBDHF-UHFFFAOYSA-N
#pubchem_id 86173
#mb_accession AU258601,AU258602,AU258603,AU258604,AU258605,AU258606

>ms2
116.048600 17464.000000
131.071600 11428.000000
132.079600 13480.000000
162.089700 16340.000000
186.051500 552256.000000
206.080300 255468.000000
337.038700 7252.000000
406.072200 325936.000000
407.075100 71396.000000
408.069200 195268.000000

>ms2
116.048600 1400.000000
131.071300 1392.000000
162.089300 1360.000000
186.051100 17040.000000
206.079800 4060.000000
251.002000 217116.000000
252.005000 28196.000000
252.999000 119512.000000
254.001900 8764.000000
254.995600 2144.000000
291.033200 11468.000000
292.034400 2216.000000
293.030000 8148.000000
323.023500 5692.000000
325.020200 2492.000000
337.039200 106444.000000
338.042000 22956.000000
339.036200 63764.000000
340.039500 6952.000000
348.030200 1344.000000
406.071900 241060.000000
407.074400 54556.000000
408.069100 124432.000000

>ms2
116.048800 16300.000000
117.056500 3576.000000
118.064300 5152.000000
130.064100 5800.000000
131.071900 37852.000000
132.079400 22220.000000
145.024500 39964.000000
146.058500 15168.000000
162.089300 5592.000000
164.037100 5824.000000
173.030600 13948.000000
186.051300 348136.000000
188.037200 4540.000000
206.079700 26732.000000
251.001900 654668.000000
252.005100 84188.000000
252.999000 344288.000000
254.002100 24548.000000
254.995800 4868.000000
264.981100 10132.000000
266.978900 4480.000000
291.033200 13796.000000
293.030600 8448.000000
323.023100 14436.000000
325.020300 9344.000000
337.039200 20788.000000
338.041100 4508.000000
339.036500 12436.000000
406.071500 9212.000000
408.068700 6136.000000

>ms2
129.069000 3948.000000
141.008800 4372.000000
152.061000 12304.000000
153.068300 7908.000000
164.037000 4988.000000
181.063800 9440.000000
186.051000 5148.000000
187.030000 12672.000000
188.037400 34548.000000
189.040800 3968.000000
190.034500 7644.000000
215.025000 4992.000000
216.031600 3828.000000
223.006200 18368.000000
225.003500 10064.000000
251.002000 637300.000000
252.005000 74124.000000
252.999200 322208.000000
254.001900 21956.000000
254.995600 4392.000000
264.981200 27120.000000
265.984500 4240.000000
266.978300 15792.000000
291.032800 4756.000000
293.030400 3704.000000
323.023400 4048.000000

>ms2
128.061100 1856.000000
129.068700 5760.000000
141.009000 21272.000000
143.005800 5188.000000
145.024400 1728.000000
152.060800 41536.000000
153.068200 31072.000000
154.071700 3340.000000
164.037500 1908.000000
169.063500 1964.000000
179.059900 1812.000000
181.063700 25548.000000
182.067400 3864.000000
187.029700 26816.000000
188.037700 97276.000000
189.027500 5608.000000
189.040600 13468.000000
190.034400 21736.000000
191.037800 2028.000000
202.016300 3884.000000
208.990600 2164.000000
215.025300 13492.000000
216.031700 9888.000000
217.022900 3004.000000
218.029400 2416.000000
223.006700 41168.000000
224.009200 5380.000000
225.003700 22104.000000
226.006900 2028.000000
251.002200 327348.000000
252.005000 39044.000000
252.999200 177308.000000
254.001700 14804.000000
254.995900 2940.000000
264.981000 34884.000000
265.984500 5696.000000
266.978100 19268.000000

>ms2
105.070700 5964.000000
116.049200 36872.000000
117.056800 5556.000000
118.064700 9116.000000
130.064400 7324.000000
131.072300 73444.000000
132.080100 43956.000000
134.060000 18676.000000
145.025000 57864.000000
146.059300 21228.000000
147.066200 3836.000000
162.090300 11084.000000
164.037700 3408.000000
173.031100 23376.000000
186.051700 609940.000000
187.055100 13820.000000
188.037400 5448.000000
206.080400 65780.000000
251.002200 353360.000000
252.005400 56556.000000
252.999400 198456.000000
254.002600 17780.000000
254.996500 7312.000000
264.981000 9720.000000
266.978400 4872.000000
291.034000 8884.000000
293.031000 4276.000000
323.024400 8140.000000
325.020800 4140.000000
337.039800 36912.000000
338.043200 7096.000000
339.036400 21904.000000
406.072700 37244.000000
407.077600 11584.000000
408.069800 22764.000000

