>compound AU85123795
>parentmass 276.07
>ionization [M+H]+
>formula C11H14FNO4S
>rt 327.000000
>profile qtof
#smiles_iso CC(C)N(C1=CC=C(C=C1)F)C(=O)CS(=O)(=O)O
#smiles_can CC(C)N(C1=CC=C(C=C1)F)C(=O)CS(=O)(=O)O
#inchikey SZCMHDLOUVZYST-UHFFFAOYSA-N
#pubchem_id 16212225
#mb_accession AU205401,AU205402,AU205403,AU205404

>ms2
149.023700 644.000000
234.022600 6828.000000
235.025300 820.000000
236.021500 308.000000
276.069000 7996.000000
277.072200 1236.000000
278.070000 452.000000

>ms2
112.054400 516.000000
124.054700 596.000000
135.046800 412.000000
149.021600 644.000000
152.050300 420.000000
154.065500 640.000000
216.012200 2180.000000
234.022400 6068.000000
235.025300 724.000000
236.021500 368.000000
276.067500 368.000000

>ms2
112.055300 420.000000
124.054200 660.000000
135.046500 1340.000000
149.023300 636.000000
152.049300 496.000000
216.010700 1232.000000
234.022000 504.000000

>ms2
112.055300 416.000000
124.055500 660.000000
135.046900 1352.000000
136.051300 312.000000

