>compound AU85430786
>parentmass 153.1022
>ionization [M+H]+
>formula C8H12N2O
>rt 263.928000
>profile qtof
#smiles_iso CC1=CC(=O)NC(=N1)C(C)C
#smiles_can CC1=CC(=O)NC(=N1)C(C)C
#inchikey AJPIUNPJBFBUKK-UHFFFAOYSA-N
#pubchem_id 135444498
#mb_accession AU207101,AU207102,AU207103,AU207104,AU287001,AU287002,AU287003,AU287004,AU287005,AU287006

>ms2peaks
135.090800 4764.000000
153.101900 2504664.000000
154.104400 353128.000000
155.106800 16872.000000

>ms2peaks
135.090600 14004.000000
136.074600 5468.000000
137.070100 21816.000000
153.101900 1191504.000000
154.104400 80344.000000
155.106800 5344.000000

>ms2peaks
119.059500 348.000000
135.090700 1624.000000
136.074700 596.000000
137.070000 34832.000000
138.076600 8084.000000
153.101900 31912.000000
154.104400 4172.000000
155.106800 352.000000

>ms2peaks
137.069800 13416.000000
138.074400 1340.000000
153.100200 860.000000

>ms2peaks
153.101700 2419132.000000
154.104200 230568.000000

>ms2peaks
135.090500 12796.000000
136.074100 3944.000000
137.070300 18140.000000
138.077500 17876.000000
153.101400 667524.000000
154.104500 51684.000000
155.106400 3340.000000

>ms2peaks
119.059900 332.000000
135.090800 1580.000000
136.074300 792.000000
137.069600 27620.000000
138.076400 8532.000000
139.081800 776.000000
153.101000 26568.000000
154.104000 3200.000000

>ms2peaks
119.060300 412.000000
137.069900 8440.000000
153.101300 784.000000

>ms2peaks
137.069700 2016.000000

>ms2peaks
56.049200 3388.000000
66.033400 6892.000000
70.064600 228696.000000
71.067800 11568.000000
84.044300 669940.000000
85.047700 30276.000000
93.045000 21992.000000
135.091300 9844.000000
137.070400 16468.000000
138.078000 17884.000000
153.101800 586300.000000
154.105000 63384.000000

