>compound AU85162009
>parentmass 537.2261
>ionization [M+Na]+
>formula C33H30N4O2
>rt 630.330000
>profile qtof
#smiles_iso CCCC1=NC2=C(N1CC3=CC=C(C=C3)C4=CC=CC=C4C(=O)O)C=C(C=C2C)C5=NC6=CC=CC=C6N5C
#smiles_can CCCC1=NC2=C(N1CC3=CC=C(C=C3)C4=CC=CC=C4C(=O)O)C=C(C=C2C)C5=NC6=CC=CC=C6N5C
#inchikey RMMXLENWKUUMAY-UHFFFAOYSA-N
#pubchem_id 65999
#mb_accession AU225130,AU225131,AU225132,AU225133

>ms2peaks
537.230400 3588.000000
538.233600 1620.000000

>ms2peaks
537.228600 3920.000000
538.232800 1920.000000

>ms2peaks
327.159300 648.000000
345.171200 596.000000
537.231700 3424.000000
538.233200 1896.000000

>ms2peaks
327.161900 976.000000
328.162600 348.000000
345.171700 1132.000000
346.172200 548.000000
537.232400 1340.000000

