>compound AU85567099
>parentmass 390.1084
>ionization [M+H]+
>formula C21H15N3O5
>rt 478.010000
>profile qtof
#smiles_iso CO/C=C(\C1=CC=CC=C1OC2=NC=NC(=C2)OC3=CC=CC=C3C#N)/C(=O)O
#smiles_can COC=C(C1=CC=CC=C1OC2=NC=NC(=C2)OC3=CC=CC=C3C#N)C(=O)O
#inchikey IKCXDZCEWZARFL-FOWTUZBSSA-N
#pubchem_id 66685656
#mb_accession AU203101,AU203102,AU203103,AU203104,AU203105,AU203106

>ms2
149.022500 1132.000000
344.104000 992.000000
346.118100 2220.000000
372.098100 173636.000000
373.100900 39484.000000
374.102400 4712.000000
390.108600 79496.000000
391.111600 18312.000000
392.114200 2192.000000

>ms2
149.021900 2848.000000
316.107500 2780.000000
329.079500 3700.000000
344.102600 31976.000000
345.105100 7456.000000
346.117200 6004.000000
372.098100 321676.000000
373.101100 71396.000000
374.103000 7700.000000

>ms2
129.042600 800.000000
134.058800 4548.000000
143.059000 3244.000000
145.026800 2016.000000
149.021900 2360.000000
156.043600 1100.000000
162.054300 1496.000000
169.038400 1260.000000
171.054500 1984.000000
172.038300 4932.000000
173.044600 828.000000
177.053400 1716.000000
182.069900 744.000000
183.054600 2104.000000
186.054400 716.000000
187.049200 1296.000000
197.070100 856.000000
199.048900 700.000000
201.040700 1916.000000
201.064700 4600.000000
202.048100 880.000000
210.042200 1644.000000
210.065000 4352.000000
211.048100 940.000000
211.070300 712.000000
216.064300 9120.000000
217.068900 1204.000000
272.081000 740.000000
273.082300 904.000000
287.081300 2912.000000
288.073700 840.000000
288.084100 924.000000
288.112700 1016.000000
289.095400 1660.000000
301.085700 5244.000000
302.087300 1340.000000
303.074900 2944.000000
304.079400 936.000000
312.076600 1004.000000
314.092600 1688.000000
315.074800 748.000000
315.098400 2188.000000
316.107100 10864.000000
317.092100 2276.000000
317.108500 2956.000000
318.095200 796.000000
328.071500 2380.000000
328.108500 864.000000
329.079400 69600.000000
330.081800 14856.000000
340.072700 1084.000000
344.103200 139084.000000
345.105800 30748.000000
346.112800 4304.000000
347.120300 868.000000
372.098000 85152.000000
373.100700 19260.000000
374.104300 2888.000000

>ms2
120.043400 912.000000
129.043200 2740.000000
130.026800 788.000000
133.051000 2196.000000
134.058900 8772.000000
135.062900 888.000000
141.043100 2436.000000
143.035300 736.000000
143.059400 5720.000000
144.043400 792.000000
145.027100 2892.000000
145.050700 2892.000000
149.021700 2424.000000
155.059000 1272.000000
156.043200 7688.000000
157.026700 840.000000
157.047000 828.000000
161.069800 788.000000
162.054000 760.000000
169.038100 5244.000000
170.045100 1444.000000
171.030500 1452.000000
171.054000 4424.000000
172.037800 11776.000000
177.053200 2820.000000
182.045900 1288.000000
182.070300 1664.000000
183.054100 23320.000000
184.039200 916.000000
184.057900 3692.000000
186.054400 1240.000000
187.049500 2560.000000
197.070100 968.000000
199.049500 4900.000000
200.033300 6472.000000
201.040800 12276.000000
201.065000 3900.000000
202.046200 1928.000000
210.065100 3144.000000
211.047200 3152.000000
216.064700 10788.000000
217.068000 1412.000000
242.031300 2196.000000
245.070700 972.000000
246.078000 804.000000
258.078500 736.000000
259.084700 1128.000000
261.076000 820.000000
262.085600 808.000000
272.080000 4804.000000
273.064800 4880.000000
273.088300 6440.000000
274.071200 1824.000000
275.079300 1320.000000
284.079300 760.000000
287.080800 2704.000000
288.066300 1132.000000
288.085100 968.000000
288.113600 1500.000000
289.095100 1396.000000
301.083600 22080.000000
302.087400 5280.000000
303.076400 1076.000000
312.078200 1548.000000
314.092600 1120.000000
315.101100 1620.000000
316.107200 2468.000000
317.110400 804.000000
329.079100 141836.000000
330.082100 29444.000000
344.102400 37184.000000
345.105700 8852.000000
346.113800 880.000000
372.098000 3456.000000
373.100900 1036.000000

>ms2
114.031900 1096.000000
115.039800 488.000000
116.048800 1340.000000
117.055000 476.000000
118.041300 932.000000
119.036200 764.000000
120.043300 2252.000000
121.065400 396.000000
127.040400 1324.000000
128.048300 1136.000000
129.033600 1184.000000
129.043400 4644.000000
130.028000 1392.000000
130.046700 704.000000
130.064400 368.000000
131.034100 328.000000
131.047000 664.000000
131.057700 444.000000
132.043900 1324.000000
133.027500 732.000000
133.050700 6728.000000
134.034600 684.000000
134.058900 7352.000000
135.061700 692.000000
140.048500 560.000000
141.043500 2520.000000
142.046900 600.000000
143.035600 1860.000000
143.058700 3900.000000
144.042800 3472.000000
144.063800 572.000000
145.027200 1672.000000
145.050800 5920.000000
146.022300 1668.000000
146.055600 880.000000
147.041800 424.000000
147.057900 384.000000
148.051100 560.000000
149.022200 2632.000000
154.027400 504.000000
154.051100 644.000000
155.034400 1000.000000
155.059500 3080.000000
156.043100 29460.000000
157.026800 1012.000000
157.046900 3196.000000
158.034500 348.000000
158.049000 520.000000
159.031800 460.000000
159.054600 1048.000000
160.038600 376.000000
161.044200 364.000000
161.069800 552.000000
162.030100 1108.000000
168.043000 676.000000
169.038200 4620.000000
170.023600 440.000000
170.045900 2500.000000
171.030700 1412.000000
171.054100 5724.000000
172.038100 40468.000000
173.042700 5628.000000
174.047100 560.000000
175.036900 732.000000
177.052700 1620.000000
181.039400 520.000000
182.046600 3312.000000
182.070900 1312.000000
183.054200 34676.000000
184.039100 1004.000000
184.057600 4676.000000
185.022000 364.000000
185.032900 656.000000
185.044000 708.000000
186.055700 1048.000000
187.049500 1396.000000
190.049400 408.000000
195.042600 304.000000
195.052300 388.000000
197.033800 872.000000
197.069100 368.000000
198.039900 872.000000
198.078600 472.000000
201.040300 10564.000000
201.065800 1388.000000
202.043000 1540.000000
204.080500 464.000000
205.073600 340.000000
206.079900 300.000000
207.052800 500.000000
210.065600 1032.000000
211.048700 4288.000000
212.053400 872.000000
216.064200 2492.000000
217.064600 352.000000
218.083200 924.000000
219.088900 380.000000
225.066800 328.000000
227.044000 1144.000000
229.077200 704.000000
230.063800 376.000000
231.090600 380.000000
232.080400 560.000000
233.069300 800.000000
234.071000 332.000000
234.091900 376.000000
242.031300 2460.000000
243.034400 724.000000
244.086400 2364.000000
245.070200 1708.000000
245.089300 1120.000000
246.076800 1840.000000
247.082500 884.000000
256.086900 512.000000
257.071400 728.000000
258.076400 780.000000
259.083800 848.000000
260.074800 396.000000
260.089500 308.000000
261.076900 760.000000
262.081800 452.000000
271.085000 640.000000
273.087500 5792.000000
274.071700 4488.000000
275.080600 2736.000000
276.085000 812.000000
284.078800 900.000000
285.064500 428.000000
285.086500 348.000000
286.096600 404.000000
287.079900 1016.000000
288.065100 712.000000
288.086800 536.000000
288.115700 404.000000
289.092700 516.000000
299.079800 408.000000
301.083300 17092.000000
302.087000 2936.000000
303.074000 404.000000
303.091500 416.000000
312.078700 904.000000
313.085000 324.000000
314.092300 384.000000
315.097600 352.000000
316.110700 404.000000
329.078200 36404.000000
330.081700 7472.000000
344.104600 1532.000000
345.107400 512.000000

>ms2
129.044500 1516.000000
134.059000 8388.000000
143.058900 5056.000000
145.027000 2908.000000
156.042800 2192.000000
162.053600 1868.000000
169.037800 3868.000000
171.053900 3692.000000
172.037600 8632.000000
173.043100 1816.000000
177.052600 3668.000000
182.069900 1704.000000
183.053800 10268.000000
186.052900 1624.000000
187.049100 2080.000000
199.049100 1472.000000
200.032300 1896.000000
201.040400 6756.000000
201.064500 7204.000000
202.046000 1868.000000
210.040900 3352.000000
210.065000 6424.000000
211.069900 1872.000000
216.064700 14800.000000
217.067700 1948.000000
242.031200 2472.000000
272.080500 2680.000000
273.067200 2112.000000
273.088900 2948.000000
287.080800 4596.000000
288.063300 1492.000000
288.085700 1840.000000
288.112800 1652.000000
289.097100 2356.000000
300.076600 3264.000000
301.083700 18900.000000
302.087900 3848.000000
303.075800 4216.000000
312.076200 2236.000000
314.092200 3252.000000
315.097100 4388.000000
316.107400 15900.000000
317.096900 3220.000000
317.106500 3348.000000
328.070100 8988.000000
329.079100 165056.000000
330.082100 40400.000000
331.083500 4388.000000
340.070200 1832.000000
344.103000 200040.000000
345.105100 47264.000000
346.113000 9952.000000
372.098000 285756.000000
373.100800 82012.000000
374.103400 9688.000000

