>compound AU85091093
>parentmass 521.1492
>ionization [M+H]+
>formula C27H30Cl2O6
>rt 640.190000
>profile qtof
#smiles_iso C[C@@H]1C[C@H]2[C@@H]3CCC4=CC(=O)C=C[C@@]4([C@]3([C@H](C[C@@]2([C@]1(C(=O)CCl)OC(=O)C5=CC=CO5)C)O)Cl)C
#smiles_can CC1CC2C3CCC4=CC(=O)C=CC4(C3(C(CC2(C1(C(=O)CCl)OC(=O)C5=CC=CO5)C)O)Cl)C
#inchikey WOFMFGQZHJDGCX-ZULDAHANSA-N
#pubchem_id 441336
#mb_accession AU283401,AU283402,AU283403,AU283404,AU283405,AU283406

>ms2peaks
133.040900 488.000000
135.079600 1260.000000
147.079200 3256.000000
171.078300 1368.000000
173.094200 1024.000000
185.094600 1008.000000
187.049700 532.000000
187.073000 1244.000000
237.126700 724.000000
263.141800 5408.000000
264.146900 780.000000
275.144000 936.000000
277.157200 2460.000000
278.166900 780.000000
279.173900 16768.000000
280.177500 3108.000000
281.153500 3000.000000
282.156900 552.000000
291.175900 916.000000
297.186500 1104.000000
299.118100 692.000000
301.159500 1252.000000
309.184200 828.000000
315.142900 424.000000
319.169100 5296.000000
320.173000 1164.000000
327.150100 1376.000000
337.134200 2876.000000
337.177800 968.000000
338.138400 920.000000
339.131400 516.000000
345.162700 1748.000000
347.156900 460.000000
355.145300 27956.000000
356.148400 5508.000000
357.142900 6360.000000
358.144700 908.000000
373.155100 19476.000000
374.158400 4620.000000
375.153700 5156.000000
376.155500 856.000000
391.122700 8696.000000
391.188200 1144.000000
392.126300 2060.000000
393.118600 5352.000000
394.121100 744.000000
403.193500 408.000000
409.130000 1836.000000
410.146900 520.000000
411.130600 1132.000000
427.166700 652.000000
467.161700 1796.000000
468.165800 760.000000
469.153300 432.000000
485.173200 13816.000000
486.176300 4148.000000
487.170800 3952.000000
503.138400 77552.000000
504.141500 22384.000000
505.135200 46776.000000
507.134800 1516.000000
521.148300 65092.000000
522.151500 23128.000000
523.146400 43936.000000

>ms2peaks
119.085400 620.000000
121.064200 1364.000000
121.100300 332.000000
133.041000 2732.000000
133.100400 864.000000
135.036400 640.000000
135.079300 7184.000000
136.081400 628.000000
145.040500 544.000000
147.079000 8984.000000
148.083100 1088.000000
149.093200 332.000000
155.061300 532.000000
157.038300 540.000000
157.100100 316.000000
159.079200 1016.000000
161.057900 572.000000
161.095700 1700.000000
163.073300 480.000000
167.061000 468.000000
169.040000 400.000000
169.064300 420.000000
169.076400 520.000000
171.056400 3680.000000
171.079200 6712.000000
172.059900 704.000000
172.083500 592.000000
173.053500 940.000000
173.094800 4612.000000
174.098500 652.000000
175.112300 340.000000
177.090400 424.000000
179.060600 336.000000
181.038800 340.000000
183.055800 1168.000000
183.079900 396.000000
185.056500 460.000000
185.072500 1616.000000
185.095500 7088.000000
186.071100 348.000000
186.100100 648.000000
187.049800 1720.000000
187.074400 3700.000000
187.110400 1048.000000
188.079900 380.000000
189.089900 380.000000
191.061400 1300.000000
193.058800 472.000000
193.076200 636.000000
195.055500 824.000000
195.073500 336.000000
197.072500 1104.000000
197.095800 676.000000
199.075300 848.000000
199.108900 380.000000
203.108100 536.000000
205.077100 468.000000
207.055900 788.000000
207.075200 316.000000
209.070500 520.000000
209.096700 580.000000
210.099800 304.000000
211.109400 700.000000
213.068000 720.000000
213.091400 416.000000
213.125900 536.000000
219.057500 308.000000
221.072300 484.000000
221.094600 720.000000
223.110400 2944.000000
224.119000 884.000000
225.124900 700.000000
227.107000 312.000000
227.141800 348.000000
229.078700 312.000000
231.032800 872.000000
233.028000 384.000000
233.071800 600.000000
233.093900 328.000000
235.110400 760.000000
235.147900 312.000000
237.126700 4120.000000
238.130800 700.000000
239.141300 1584.000000
241.085100 944.000000
241.122700 740.000000
241.157300 1056.000000
242.125500 332.000000
247.052800 424.000000
247.088300 1104.000000
248.118900 532.000000
249.126400 920.000000
253.157900 1400.000000
254.163500 312.000000
255.102800 792.000000
257.071300 628.000000
259.086700 608.000000
259.147900 316.000000
260.096900 336.000000
260.122800 344.000000
261.064300 380.000000
261.083700 308.000000
261.125400 1140.000000
261.160100 316.000000
262.132400 492.000000
263.142200 25464.000000
264.145400 4396.000000
265.093500 472.000000
265.149200 532.000000
267.102300 352.000000
267.173200 1040.000000
271.090500 848.000000
273.091300 452.000000
273.101500 452.000000
273.129100 324.000000
273.163400 412.000000
274.134600 344.000000
275.141600 3628.000000
276.147300 1356.000000
277.158300 9504.000000
278.165200 11540.000000
279.173600 31700.000000
280.176600 5340.000000
281.117700 524.000000
281.153300 6776.000000
281.183600 980.000000
282.155600 756.000000
283.066900 376.000000
285.055600 428.000000
285.066500 436.000000
285.107500 328.000000
286.132900 668.000000
287.121500 388.000000
288.150800 1680.000000
289.155800 440.000000
291.174900 4620.000000
292.177400 708.000000
295.089900 412.000000
295.168700 1432.000000
296.168900 360.000000
297.101400 512.000000
297.182100 1376.000000
298.185300 492.000000
299.085700 344.000000
299.120400 2904.000000
300.122000 640.000000
301.117300 976.000000
301.158300 8160.000000
302.162300 2220.000000
305.112100 336.000000
305.154100 412.000000
306.160900 2432.000000
307.165300 520.000000
309.102200 448.000000
309.139000 336.000000
309.185900 1588.000000
311.118800 412.000000
313.105200 616.000000
313.135200 2176.000000
314.140300 1184.000000
315.126400 632.000000
315.150000 1856.000000
316.152900 592.000000
317.132400 680.000000
317.150400 444.000000
319.169000 11680.000000
320.172900 2768.000000
321.177000 568.000000
327.149900 4572.000000
328.155500 1300.000000
329.125100 344.000000
329.147100 1592.000000
331.140300 428.000000
333.147900 424.000000
337.135700 11976.000000
337.180200 1372.000000
338.138000 2768.000000
338.184300 488.000000
339.132800 3288.000000
340.136700 560.000000
343.146800 356.000000
345.162500 3048.000000
346.163400 876.000000
347.156900 840.000000
355.145600 60420.000000
356.148800 16024.000000
357.143800 14712.000000
358.146400 2300.000000
363.093000 784.000000
363.134800 344.000000
364.095000 324.000000
365.089200 524.000000
373.110700 1632.000000
373.156400 11472.000000
374.115100 388.000000
374.158700 3396.000000
375.109900 1008.000000
375.153700 3268.000000
376.157900 440.000000
391.122000 20448.000000
391.189500 1352.000000
392.125400 5480.000000
393.120000 12444.000000
394.125900 1876.000000
395.117800 380.000000
409.129900 1256.000000
410.130400 372.000000
411.130100 712.000000
412.133900 304.000000
415.142500 508.000000
427.167900 416.000000
449.148600 556.000000
457.181000 400.000000
467.161000 1072.000000
468.168200 352.000000
469.161900 596.000000
485.175700 944.000000
486.174000 368.000000
503.138800 43028.000000
504.140900 14084.000000
505.135700 29108.000000
507.131300 864.000000
521.152200 864.000000
522.153400 372.000000

>ms2peaks
117.069000 392.000000
119.085500 1068.000000
121.064500 4540.000000
121.101800 628.000000
131.025500 436.000000
131.083800 684.000000
133.040300 2468.000000
133.064300 676.000000
133.100000 1084.000000
135.079300 12632.000000
136.081500 856.000000
137.095000 600.000000
143.024800 332.000000
143.062900 456.000000
143.084800 796.000000
145.041100 540.000000
145.063000 868.000000
145.098900 948.000000
147.079000 14948.000000
148.083000 1256.000000
149.096900 588.000000
153.045100 432.000000
155.062100 608.000000
155.083900 364.000000
157.040500 712.000000
157.100100 1032.000000
158.072600 464.000000
159.057900 300.000000
159.079500 3508.000000
160.082600 636.000000
161.058500 316.000000
161.095000 2812.000000
162.099000 344.000000
163.074700 540.000000
163.110600 352.000000
167.062300 980.000000
169.038900 740.000000
169.060200 608.000000
169.076500 520.000000
169.099000 500.000000
170.069300 328.000000
171.055700 5460.000000
171.079300 10272.000000
171.115400 1112.000000
172.060900 668.000000
172.082400 1444.000000
173.054400 1344.000000
173.095500 9232.000000
174.098100 784.000000
175.110300 388.000000
177.089600 352.000000
179.061900 572.000000
180.092100 324.000000
181.037600 360.000000
182.070800 344.000000
183.056000 2000.000000
183.077800 1064.000000
183.114200 344.000000
184.087400 472.000000
185.055500 588.000000
185.072100 2276.000000
185.095100 7872.000000
186.099400 1560.000000
187.052200 1464.000000
187.073400 4100.000000
187.110700 1204.000000
188.078500 432.000000
189.047600 348.000000
189.088900 832.000000
191.061200 2276.000000
192.065800 560.000000
193.058000 760.000000
193.076900 1076.000000
193.100000 468.000000
195.055100 1496.000000
195.079900 740.000000
196.087600 508.000000
197.051800 508.000000
197.072000 1352.000000
197.094400 2132.000000
198.101200 680.000000
199.074300 1280.000000
199.110800 740.000000
200.077900 384.000000
201.088300 464.000000
203.106100 532.000000
205.039300 576.000000
205.081300 520.000000
207.056700 1444.000000
207.074900 504.000000
208.086300 696.000000
209.053300 320.000000
209.073400 564.000000
209.094500 1628.000000
210.100700 544.000000
211.053400 364.000000
211.111300 3184.000000
212.117100 616.000000
213.066700 392.000000
213.090000 456.000000
213.126700 1080.000000
217.078600 408.000000
219.058100 388.000000
219.086800 320.000000
219.095500 308.000000
221.071500 1156.000000
221.094900 2348.000000
221.131100 360.000000
222.073200 304.000000
222.102400 876.000000
223.050500 496.000000
223.111400 7504.000000
224.118400 3880.000000
225.124500 1480.000000
226.131600 324.000000
227.104000 344.000000
227.139800 444.000000
229.077000 468.000000
231.032800 332.000000
231.052500 368.000000
231.070200 360.000000
233.027200 336.000000
233.072900 788.000000
233.094600 844.000000
234.103500 944.000000
235.111000 2412.000000
235.147200 1224.000000
236.115000 852.000000
237.086300 312.000000
237.126700 5188.000000
238.130800 1264.000000
239.142800 1544.000000
240.142300 512.000000
241.082500 436.000000
241.121900 1348.000000
241.158300 700.000000
243.058700 512.000000
245.073000 440.000000
245.097600 308.000000
245.131600 668.000000
246.101600 308.000000
246.136800 340.000000
247.053500 720.000000
247.088800 1352.000000
247.112000 844.000000
248.118700 2412.000000
249.084000 480.000000
249.126000 3388.000000
249.159300 384.000000
250.097500 524.000000
250.132500 808.000000
250.172200 388.000000
251.105900 412.000000
251.141700 736.000000
251.177600 380.000000
253.158200 1064.000000
255.102100 472.000000
257.071200 1320.000000
257.133600 412.000000
259.088200 1312.000000
259.108800 1192.000000
259.150300 336.000000
260.092500 484.000000
260.117600 1724.000000
260.152500 744.000000
261.068100 496.000000
261.126300 3268.000000
261.162500 892.000000
262.133400 1928.000000
262.166900 368.000000
263.142300 34572.000000
264.146300 5516.000000
265.089200 336.000000
265.118000 380.000000
265.150800 812.000000
267.098000 336.000000
267.138200 524.000000
267.173100 816.000000
271.086200 2008.000000
271.113200 564.000000
272.094300 424.000000
272.122900 544.000000
273.099600 576.000000
273.125900 1800.000000
273.161900 1124.000000
274.133900 952.000000
274.167200 388.000000
275.078400 304.000000
275.142500 4596.000000
276.148500 1984.000000
277.122500 800.000000
277.157700 14248.000000
278.165900 30136.000000
279.172900 25644.000000
280.178100 4900.000000
281.154000 2120.000000
281.184300 408.000000
283.066600 580.000000
283.148400 324.000000
285.067200 732.000000
285.107900 604.000000
286.105200 308.000000
286.135300 1576.000000
287.089500 384.000000
287.119000 372.000000
287.144500 588.000000
288.150600 4996.000000
289.153900 1312.000000
291.137500 952.000000
291.173800 6592.000000
292.148400 436.000000
292.177700 1732.000000
295.085400 920.000000
295.167500 1200.000000
296.094600 376.000000
296.175100 848.000000
297.104200 392.000000
297.185400 820.000000
299.084100 852.000000
299.118500 1324.000000
300.124900 368.000000
301.157900 12808.000000
302.162700 3612.000000
303.168300 784.000000
304.144100 444.000000
305.154900 756.000000
306.160800 6012.000000
307.164700 1252.000000
308.097300 560.000000
309.102800 996.000000
309.142800 500.000000
309.183700 588.000000
310.105800 532.000000
311.100700 392.000000
311.120600 496.000000
313.098100 1316.000000
313.134600 1760.000000
314.103600 364.000000
314.142500 3220.000000
315.126800 664.000000
315.145200 976.000000
316.139600 864.000000
316.156400 396.000000
317.130200 368.000000
317.147000 504.000000
319.123300 588.000000
319.168200 7340.000000
320.171800 2288.000000
321.177700 352.000000
322.109500 560.000000
323.164100 448.000000
325.141700 348.000000
327.117700 352.000000
327.151000 3872.000000
328.151500 1084.000000
329.149000 1092.000000
331.139900 472.000000
337.135700 9236.000000
337.178800 660.000000
338.138900 2772.000000
338.184800 320.000000
339.132600 2876.000000
340.131000 328.000000
342.140500 324.000000
345.157300 856.000000
347.161000 300.000000
355.145700 25152.000000
356.147800 6112.000000
357.142400 6788.000000
358.144500 948.000000
363.095000 588.000000
364.096800 336.000000
365.087000 536.000000
373.111200 596.000000
373.178000 2144.000000
374.160900 312.000000
374.185100 488.000000
375.110900 552.000000
375.150400 508.000000
391.122300 4276.000000
392.125000 1708.000000
393.118400 3392.000000
394.126200 368.000000
415.143700 604.000000
457.183000 776.000000
503.137900 2948.000000
504.140800 804.000000
505.137900 2108.000000
506.136900 300.000000

>ms2peaks
115.053800 584.000000
117.071200 308.000000
119.084200 1572.000000
121.064100 4844.000000
121.101500 720.000000
122.067300 388.000000
128.061900 592.000000
129.069700 384.000000
131.024600 376.000000
131.085100 940.000000
132.055600 308.000000
132.090500 312.000000
133.041400 824.000000
133.062600 952.000000
133.100500 1032.000000
135.079300 11048.000000
136.082700 988.000000
137.095500 468.000000
141.069000 340.000000
142.075800 344.000000
143.062000 372.000000
143.084000 1304.000000
145.042100 388.000000
145.063900 1732.000000
145.100200 1040.000000
146.068900 456.000000
147.079100 13268.000000
148.081700 1632.000000
149.095000 508.000000
151.074000 420.000000
153.067600 300.000000
155.062700 488.000000
155.084000 816.000000
156.088800 516.000000
157.038800 664.000000
157.064300 352.000000
157.100100 1564.000000
158.072000 604.000000
159.079500 5212.000000
159.116200 564.000000
160.083900 664.000000
161.058700 632.000000
161.095400 2760.000000
163.074000 536.000000
167.061000 1172.000000
167.085600 340.000000
169.040500 408.000000
169.063700 976.000000
169.099900 564.000000
170.071300 444.000000
170.106500 512.000000
171.055600 3536.000000
171.079200 9056.000000
171.117200 1052.000000
172.083300 1368.000000
173.055100 840.000000
173.095100 7524.000000
174.098300 1148.000000
175.110100 588.000000
177.043800 404.000000
177.088500 304.000000
179.062100 740.000000
179.083400 792.000000
180.090700 372.000000
181.040000 328.000000
182.073100 472.000000
183.055100 1156.000000
183.079700 1424.000000
183.116600 504.000000
184.086000 740.000000
185.055800 464.000000
185.070600 1140.000000
185.094900 7220.000000
186.098500 1724.000000
187.051900 760.000000
187.074600 2328.000000
187.110600 2020.000000
188.119000 324.000000
189.090100 748.000000
191.060500 1412.000000
191.083200 428.000000
193.058700 596.000000
193.076200 656.000000
193.099600 764.000000
194.107800 320.000000
195.056500 1224.000000
195.077600 972.000000
195.118100 636.000000
196.086400 696.000000
197.052800 380.000000
197.073200 384.000000
197.094700 2296.000000
198.101100 864.000000
199.073400 1336.000000
199.111400 944.000000
201.087000 352.000000
205.042400 416.000000
205.080100 500.000000
205.101100 884.000000
207.055800 1380.000000
207.079400 564.000000
207.091300 484.000000
207.115700 628.000000
208.086700 1728.000000
209.095600 2604.000000
210.104400 1184.000000
211.067300 380.000000
211.110800 2608.000000
212.116200 500.000000
213.091500 372.000000
213.126600 796.000000
215.082000 436.000000
216.069000 300.000000
217.099100 316.000000
219.058200 336.000000
219.078900 616.000000
219.116300 536.000000
220.088200 576.000000
220.123800 448.000000
221.070800 424.000000
221.095900 3564.000000
221.130100 604.000000
222.101500 2160.000000
223.110900 7680.000000
224.117000 4980.000000
225.125700 2076.000000
226.129300 392.000000
229.041100 444.000000
229.080900 432.000000
229.100700 428.000000
230.107500 672.000000
231.036800 452.000000
232.087100 408.000000
233.072900 720.000000
233.096800 1112.000000
234.103000 2360.000000
235.109900 5472.000000
235.146900 1332.000000
236.115200 1208.000000
236.149000 420.000000
237.125200 4752.000000
238.130000 1304.000000
239.141500 1612.000000
240.145800 336.000000
241.121700 644.000000
241.157200 348.000000
243.052800 392.000000
244.119200 384.000000
245.071400 824.000000
245.097200 488.000000
245.131400 1880.000000
246.101200 684.000000
246.134400 400.000000
247.048800 436.000000
247.060800 348.000000
247.085800 880.000000
247.110900 1224.000000
248.118400 4764.000000
249.090100 520.000000
249.124600 3524.000000
249.163200 408.000000
250.098200 1100.000000
250.132000 1380.000000
250.169400 340.000000
251.083500 392.000000
251.106600 628.000000
251.142200 648.000000
251.177100 584.000000
252.145100 444.000000
253.157700 652.000000
257.072300 592.000000
257.130600 452.000000
258.105500 424.000000
259.088800 484.000000
259.110500 1236.000000
259.146800 552.000000
260.118300 2832.000000
260.156800 812.000000
261.127300 2296.000000
261.163300 1596.000000
262.135000 3264.000000
262.171500 328.000000
263.142200 27676.000000
264.146400 6344.000000
265.154300 684.000000
267.051100 328.000000
271.087900 1172.000000
271.110200 620.000000
272.093200 432.000000
272.117700 1292.000000
273.083100 332.000000
273.105900 384.000000
273.126600 2732.000000
273.164200 756.000000
274.132000 1300.000000
275.100000 400.000000
275.143800 2160.000000
276.149900 1764.000000
277.124300 672.000000
277.158300 8032.000000
278.165600 22360.000000
279.172100 13384.000000
280.177600 2312.000000
281.069500 396.000000
281.152100 912.000000
281.178000 300.000000
283.151900 348.000000
284.153100 360.000000
285.067700 452.000000
285.105600 484.000000
285.133600 408.000000
286.134100 3044.000000
287.122000 312.000000
287.141300 1124.000000
288.150700 4440.000000
289.156300 1376.000000
290.129500 304.000000
291.137200 2264.000000
291.173100 3160.000000
292.140100 520.000000
292.180500 592.000000
295.085600 504.000000
296.174800 496.000000
297.104400 388.000000
297.182700 320.000000
299.081700 672.000000
299.120800 1064.000000
299.138200 336.000000
301.119100 348.000000
301.158100 5884.000000
302.163800 1592.000000
303.169500 628.000000
304.144700 656.000000
305.151100 476.000000
306.160900 4680.000000
307.165500 1404.000000
308.091700 436.000000
309.103700 644.000000
311.116700 340.000000
313.099300 1056.000000
313.134500 712.000000
314.100600 380.000000
314.141900 1620.000000
315.150200 404.000000
316.142700 356.000000
319.166500 2272.000000
320.173300 688.000000
322.111200 616.000000
327.115500 352.000000
327.150100 1044.000000
328.154800 400.000000
329.148800 384.000000
337.137000 2824.000000
338.137100 780.000000
339.136500 492.000000
340.133100 440.000000
355.146200 3640.000000
356.149700 1432.000000
357.143600 784.000000
373.172900 304.000000
373.182700 524.000000
391.128100 320.000000

>ms2peaks
115.053900 1984.000000
116.058400 536.000000
117.069200 1236.000000
119.084800 2688.000000
120.054900 300.000000
121.063900 8632.000000
121.100600 616.000000
122.066800 696.000000
128.062300 2508.000000
129.067900 1748.000000
130.075400 740.000000
131.025000 304.000000
131.048200 732.000000
131.084300 2472.000000
132.055600 1064.000000
132.089900 720.000000
133.040500 724.000000
133.064700 1208.000000
133.100700 1944.000000
134.069700 328.000000
135.079700 14108.000000
136.083200 1624.000000
137.095900 328.000000
141.069000 1536.000000
142.077100 1508.000000
143.026100 604.000000
143.061600 736.000000
143.084600 4284.000000
144.055700 812.000000
144.090500 872.000000
145.063400 3784.000000
145.100300 3640.000000
146.071400 1184.000000
146.104700 456.000000
147.079400 18880.000000
148.082900 2432.000000
149.094500 576.000000
151.074400 328.000000
152.062100 480.000000
153.047100 444.000000
153.069300 1064.000000
154.074100 492.000000
155.059700 684.000000
155.084000 2496.000000
156.055600 428.000000
156.091600 1948.000000
157.040300 712.000000
157.064200 1264.000000
157.100200 3308.000000
158.071500 2408.000000
158.105200 816.000000
159.079300 8024.000000
159.115000 448.000000
160.083900 1364.000000
161.058700 876.000000
161.094600 4524.000000
162.099400 644.000000
163.030100 328.000000
163.073800 528.000000
163.113800 304.000000
165.047600 428.000000
165.069400 1220.000000
166.076300 560.000000
167.060800 1428.000000
167.086000 948.000000
168.059000 348.000000
168.091300 876.000000
169.039100 804.000000
169.064000 1576.000000
169.100900 1440.000000
170.071100 1436.000000
170.106900 1016.000000
171.055500 2124.000000
171.079500 14656.000000
171.115200 1640.000000
172.085100 2376.000000
172.119200 400.000000
173.095200 9624.000000
174.099100 1460.000000
175.111100 768.000000
177.046300 408.000000
178.076000 1136.000000
179.062400 632.000000
179.084100 1912.000000
180.090000 968.000000
181.042300 344.000000
181.063000 1616.000000
181.100700 1376.000000
182.070800 1040.000000
183.054700 800.000000
183.079500 1944.000000
183.117400 640.000000
184.086900 1476.000000
185.071600 1312.000000
185.095100 10172.000000
186.100400 1768.000000
187.050400 400.000000
187.074800 2728.000000
187.110400 1960.000000
188.077800 432.000000
188.116400 604.000000
189.066600 564.000000
190.075100 592.000000
191.060500 1748.000000
191.085800 908.000000
192.063400 332.000000
192.093800 808.000000
193.041600 308.000000
193.059000 352.000000
193.075900 556.000000
193.100600 1712.000000
194.072600 732.000000
194.107100 1172.000000
195.056400 844.000000
195.078400 2056.000000
195.115800 1940.000000
196.085500 1660.000000
196.121100 632.000000
197.056400 332.000000
197.072300 336.000000
197.095500 3676.000000
198.103800 1852.000000
199.073700 1464.000000
199.110600 2048.000000
200.080900 308.000000
200.110900 352.000000
203.084100 700.000000
204.091000 724.000000
205.043900 548.000000
205.076700 592.000000
205.100700 2284.000000
206.072600 676.000000
206.106700 1196.000000
207.055900 1464.000000
207.080100 1404.000000
207.115400 1800.000000
208.055800 316.000000
208.087400 4916.000000
208.123200 356.000000
209.055100 584.000000
209.070900 424.000000
209.095000 7432.000000
209.132100 624.000000
210.102000 2236.000000
211.073200 340.000000
211.110400 3312.000000
212.083700 300.000000
212.116600 904.000000
213.091300 632.000000
213.125700 1052.000000
215.084900 1016.000000
216.066400 416.000000
216.091700 956.000000
217.099500 1044.000000
218.073300 456.000000
218.108900 476.000000
219.055000 552.000000
219.079000 1500.000000
219.115800 880.000000
220.087900 1684.000000
220.123900 1296.000000
221.094800 8344.000000
221.131900 1148.000000
222.102700 5404.000000
223.110700 10376.000000
224.117800 7444.000000
225.125900 2612.000000
226.099800 480.000000
226.132000 400.000000
227.105600 308.000000
227.139400 380.000000
228.090700 372.000000
229.042100 620.000000
229.080100 448.000000
229.099700 1800.000000
230.107800 2764.000000
231.083800 452.000000
231.113900 1912.000000
232.087300 952.000000
232.123100 1020.000000
233.069900 588.000000
233.095100 4324.000000
233.131800 684.000000
234.102600 4692.000000
235.071700 644.000000
235.110500 8100.000000
235.149500 1560.000000
236.117200 3872.000000
236.150200 428.000000
237.126600 6372.000000
238.130900 1304.000000
239.102600 464.000000
239.142800 980.000000
240.146300 416.000000
241.120700 568.000000
242.107300 432.000000
243.057100 792.000000
243.114700 1352.000000
244.062300 420.000000
244.086400 360.000000
244.125700 1192.000000
245.071900 1120.000000
245.095700 1856.000000
245.132300 4224.000000
246.102300 2052.000000
246.137300 1300.000000
247.066800 476.000000
247.087700 552.000000
247.111900 3920.000000
247.147000 652.000000
248.118700 13452.000000
249.090600 1308.000000
249.126200 7524.000000
249.162200 384.000000
250.097000 1416.000000
250.133900 2728.000000
250.171800 344.000000
251.108500 684.000000
251.142400 1548.000000
251.174800 624.000000
252.146800 512.000000
253.101100 448.000000
253.122200 360.000000
253.155700 732.000000
255.116900 340.000000
257.071500 808.000000
257.086800 300.000000
257.097200 304.000000
257.132500 656.000000
258.078600 400.000000
258.103100 1444.000000
258.139100 1148.000000
259.110900 3132.000000
259.147600 1064.000000
260.119500 4920.000000
260.153900 1072.000000
261.067800 384.000000
261.126300 5480.000000
261.162900 3276.000000
262.096200 612.000000
262.134300 7412.000000
262.168000 700.000000
263.142600 42656.000000
264.113000 916.000000
264.146300 9244.000000
265.118500 360.000000
265.152300 1280.000000
266.162000 380.000000
268.124600 324.000000
269.127600 608.000000
269.136600 336.000000
270.135900 324.000000
271.086600 952.000000
271.112400 2296.000000
271.148800 344.000000
272.117800 2288.000000
273.126500 6656.000000
273.161900 704.000000
274.132300 2416.000000
274.168600 316.000000
275.107900 344.000000
275.142000 2168.000000
276.114200 608.000000
276.148500 2976.000000
277.121800 1508.000000
277.158000 7720.000000
278.125800 1000.000000
278.165900 17096.000000
279.139200 440.000000
279.172800 8720.000000
280.176700 1980.000000
281.067400 316.000000
281.152600 784.000000
283.147500 340.000000
285.128000 780.000000
286.134700 4428.000000
287.142000 3492.000000
288.150600 4484.000000
289.123500 704.000000
289.154600 1484.000000
290.131700 348.000000
291.137500 5544.000000
291.175500 2032.000000
292.140100 1232.000000
292.175100 424.000000
295.085300 336.000000
295.093900 352.000000
296.095600 536.000000
296.174800 408.000000
297.103400 384.000000
299.081200 484.000000
299.119200 1148.000000
300.124100 384.000000
301.118500 528.000000
301.158700 5048.000000
302.166000 2088.000000
303.173100 944.000000
304.147600 656.000000
305.151000 948.000000
306.161500 5008.000000
307.089000 396.000000
307.163200 812.000000
309.102500 468.000000
310.098100 352.000000
311.101400 308.000000
313.098400 512.000000
314.141000 684.000000
315.141700 304.000000
319.169800 1376.000000
320.172500 356.000000
322.115900 476.000000
327.149700 560.000000
337.138500 704.000000
339.132500 332.000000
355.143700 712.000000
356.147700 376.000000

>ms2peaks
95.013100 484.000000
119.084800 436.000000
121.063800 1316.000000
121.100800 368.000000
133.041400 612.000000
133.099200 396.000000
135.038500 324.000000
135.079600 3480.000000
136.082200 376.000000
145.063500 508.000000
147.079200 4272.000000
148.082900 364.000000
159.079000 892.000000
161.094300 992.000000
167.059100 332.000000
169.062900 472.000000
171.056000 1380.000000
171.078800 2816.000000
171.114700 384.000000
172.086000 500.000000
173.053200 328.000000
173.095000 2360.000000
183.055800 832.000000
185.070000 972.000000
185.095600 2120.000000
187.074300 812.000000
187.112500 392.000000
191.059900 628.000000
195.056600 320.000000
197.073500 376.000000
197.094500 1104.000000
198.105500 332.000000
199.073500 316.000000
199.110700 316.000000
207.053500 316.000000
207.093600 300.000000
209.095700 748.000000
211.113000 780.000000
221.096700 620.000000
222.103400 340.000000
223.110500 1788.000000
224.116500 920.000000
225.126700 508.000000
233.093300 400.000000
234.105500 476.000000
235.111000 1136.000000
236.116000 412.000000
237.125600 1028.000000
238.133000 400.000000
239.140800 800.000000
241.160400 308.000000
247.086600 372.000000
247.112300 360.000000
248.118800 1084.000000
249.126100 748.000000
250.128500 348.000000
257.071700 408.000000
259.087100 328.000000
260.119200 488.000000
261.126600 724.000000
262.134000 616.000000
263.142800 9192.000000
264.145400 1852.000000
265.154700 588.000000
271.087300 384.000000
271.105000 380.000000
273.125600 624.000000
273.166400 428.000000
274.134100 404.000000
275.141500 1252.000000
276.149600 568.000000
277.120200 368.000000
277.158300 3376.000000
278.166200 6732.000000
279.173300 6840.000000
280.177900 1300.000000
281.151600 720.000000
283.093400 316.000000
287.143400 340.000000
288.150400 1364.000000
289.153800 428.000000
291.172900 1128.000000
292.177700 360.000000
297.184800 348.000000
299.119400 500.000000
301.158100 3228.000000
302.163100 896.000000
303.174400 356.000000
306.159700 1304.000000
307.163800 792.000000
309.105200 300.000000
313.099600 312.000000
313.131900 576.000000
314.143900 652.000000
315.146000 588.000000
319.169800 2236.000000
320.175100 660.000000
327.150200 792.000000
337.136900 2352.000000
338.140600 560.000000
339.130800 548.000000
355.146100 5224.000000
356.149500 1240.000000
357.144700 1620.000000
358.147100 460.000000
373.159800 496.000000
373.177200 460.000000
391.121800 1160.000000
392.129000 468.000000
393.122600 948.000000
503.138000 1200.000000
505.135200 736.000000

