>compound AU85591103
>parentmass 268.1543
>ionization [M+H]+
>formula C14H21NO4
>rt 222.950000
>profile qtof
#smiles_iso CC(C)NCC(COC1=CC=C(C=C1)CC(=O)O)O
#smiles_can CC(C)NCC(COC1=CC=C(C=C1)CC(=O)O)O
#inchikey PUQIRTNPJRFRCZ-UHFFFAOYSA-N
#pubchem_id 62936
#mb_accession AU202501,AU202502,AU202503,AU202504,AU202505,AU202506

>ms2
191.068300 9828.000000
226.105600 9404.000000
268.153600 1574932.000000
269.156600 232372.000000
270.158400 24912.000000

>ms2
116.106100 11656.000000
145.063600 95300.000000
146.067200 10480.000000
162.090100 4916.000000
163.073400 6628.000000
165.053400 45684.000000
179.068800 5428.000000
191.069400 251640.000000
192.072600 26724.000000
208.095800 7452.000000
226.106400 128772.000000
227.110100 11984.000000
250.143000 27472.000000
268.154000 855184.000000
269.156900 109992.000000
270.158300 11428.000000

>ms2
115.053600 4292.000000
116.106400 5396.000000
117.069300 4316.000000
119.048200 8020.000000
123.043200 5456.000000
133.064000 6692.000000
135.043000 2292.000000
137.058600 17232.000000
145.064000 320404.000000
146.067100 30412.000000
147.042600 2148.000000
147.070200 1724.000000
153.053500 3324.000000
162.089700 4648.000000
163.074300 10728.000000
164.052900 1964.000000
165.053600 93596.000000
166.057000 8180.000000
179.069000 6524.000000
191.069300 118176.000000
192.072700 12268.000000
226.106600 19664.000000
227.109300 3140.000000
250.143800 2288.000000
268.153700 28536.000000
269.157300 5528.000000

>ms2
115.053600 11068.000000
116.059200 1960.000000
117.069300 8404.000000
118.072800 1136.000000
119.048600 6340.000000
121.063200 1004.000000
123.043300 5348.000000
127.054500 1052.000000
131.047900 2156.000000
133.063400 5056.000000
134.059600 1196.000000
135.043200 6328.000000
137.058600 12580.000000
144.055600 2648.000000
145.063700 162096.000000
146.066900 15356.000000
147.041400 1124.000000
147.070700 944.000000
153.053400 4120.000000
155.059300 1928.000000
163.073900 3560.000000
164.052300 2680.000000
165.053500 18996.000000
166.056900 1884.000000
191.069200 6120.000000
192.071600 900.000000

>ms2
115.053500 14204.000000
116.059300 2736.000000
117.069300 5460.000000
118.072100 736.000000
119.048100 2164.000000
120.054500 468.000000
121.064300 672.000000
123.043500 1468.000000
127.053700 1380.000000
131.048700 1532.000000
132.055500 716.000000
133.064100 1356.000000
134.060500 668.000000
135.043100 3600.000000
136.048900 436.000000
137.058700 1676.000000
144.056100 4328.000000
145.063600 49128.000000
146.066400 4796.000000
147.042200 592.000000
153.052300 1004.000000
155.059300 2888.000000
156.064000 364.000000
163.074200 556.000000
164.050900 872.000000
165.052900 1572.000000
191.070800 380.000000

>ms2
56.049100 76936.000000
57.052500 2984.000000
58.064600 8196.000000
60.079800 2812.000000
72.080400 85024.000000
73.083700 4344.000000
74.059800 47868.000000
75.063000 1956.000000
79.054100 1892.000000
91.054400 5624.000000
95.049400 2248.000000
98.097200 32280.000000
99.099900 1880.000000
107.049500 1992.000000
116.107400 20728.000000
117.069800 2560.000000
119.048600 3804.000000
123.044000 2280.000000
133.064300 2656.000000
137.059100 9264.000000
145.064300 128260.000000
146.067500 13316.000000
153.054900 1916.000000
162.090100 4340.000000
163.074300 7476.000000
165.053800 56376.000000
166.056900 4972.000000
179.069400 5072.000000
191.069900 141284.000000
192.073400 16000.000000
208.096300 3804.000000
226.107000 78248.000000
227.110600 7412.000000
250.143500 15496.000000
251.146600 2476.000000
268.154400 320100.000000
269.157800 62832.000000
270.159900 5624.000000

