>compound AU85630604
>parentmass 309.0427
>ionization [M+H]+
>formula C14H12O6S
>rt 371.250000
>profile qtof
#smiles_iso COC1=C(C=C(C(=C1)O)C(=O)C2=CC=CC=C2)S(=O)(=O)O
#smiles_can COC1=C(C=C(C(=C1)O)C(=O)C2=CC=CC=C2)S(=O)(=O)O
#inchikey CXVGEDCSTKKODG-UHFFFAOYSA-N
#pubchem_id 19988
#mb_accession AU286701,AU286702,AU286703,AU286704,AU286705,AU286706

>ms2
230.993800 408.000000
309.041800 4356.000000
310.044600 836.000000

>ms2
230.995700 4048.000000
243.066500 352.000000
309.041500 2088.000000

>ms2
230.993900 4020.000000
231.998800 344.000000
232.993700 312.000000

>ms2
135.007800 988.000000
198.969700 668.000000
230.994400 1668.000000

>ms2
135.005600 384.000000

>ms2
135.007400 380.000000
198.970700 416.000000
230.995000 3448.000000
231.997100 572.000000
232.995200 332.000000
243.065300 352.000000
309.043900 888.000000

