>compound AU86435840
>parentmass 174.1277
>ionization [M+H]+
>formula C12H15N
>rt 278.000000
>profile qtof
#smiles_iso CC(CC1=CC=CC=C1)NCC#C
#smiles_can CC(CC1=CC=CC=C1)NCC#C
#inchikey UUFAJPMQSFXDFR-UHFFFAOYSA-N
#pubchem_id 200718
#mb_accession AU211801,AU211802,AU211803

>ms2peaks
119.085100 136980.000000
120.088200 11060.000000
174.127100 630456.000000
175.129700 57144.000000
176.133500 3624.000000

>ms2peaks
117.068800 320.000000
119.085000 9048.000000
120.088200 1168.000000
129.068800 312.000000
134.094800 592.000000
174.126900 2704.000000

>ms2peaks
115.054500 420.000000
119.085000 712.000000

