>compound AU86961529
>parentmass 471.17349999999993
>ionization [M+H]+
>formula C20H22N8O6
>rt 282.410000
>profile qtof
#smiles_iso CN(CC1=NC2=C(N=C(N=C2NC1=O)N)N)C3=CC=C(C=C3)C(=O)N[C@@H](CCC(=O)O)C(=O)O
#smiles_can CN(CC1=NC2=C(N=C(N=C2NC1=O)N)N)C3=CC=C(C=C3)C(=O)NC(CCC(=O)O)C(=O)O
#inchikey HODZDDDNGRLGSI-NSHDSACASA-N
#pubchem_id 5484402
#mb_accession AU273101,AU273102,AU273103,AU273104,AU273105,AU273106

>ms2peaks
191.066800 11804.000000
192.068700 1076.000000
298.140500 1388.000000
324.119500 12956.000000
325.123400 2092.000000
471.171400 3624.000000
472.176400 1236.000000

>ms2peaks
148.062000 412.000000
191.066700 19076.000000
192.069200 1860.000000
298.137900 364.000000
324.120000 7156.000000
325.123800 1500.000000

>ms2peaks
134.059100 816.000000
148.060900 888.000000
191.066700 22920.000000
192.069300 2428.000000
324.120300 4784.000000
325.121800 912.000000

>ms2peaks
134.059000 1444.000000
148.060900 2424.000000
163.072400 496.000000
191.066700 24920.000000
192.068800 3016.000000
324.120100 3048.000000
325.121000 428.000000

>ms2peaks
121.050200 396.000000
134.059400 1572.000000
148.061000 6364.000000
149.065600 960.000000
163.071400 1528.000000
191.066700 23276.000000
192.068500 1840.000000
296.128300 300.000000
324.118800 1168.000000

>ms2peaks
134.059600 1164.000000
148.060000 1140.000000
191.066900 32468.000000
192.069500 2312.000000
324.120300 6128.000000
325.122200 1324.000000

