>compound AU86960537
>parentmass 279.1452
>ionization [M+H]+
>formula C13H18N4O3
>rt 321.260000
>profile qtof
#smiles_iso CC(=O)CCCCN1C(=O)C2=C(N=CN2C)N(C1=O)C
#smiles_can CC(=O)CCCCN1C(=O)C2=C(N=CN2C)N(C1=O)C
#inchikey BYPFEZZEUUWMEJ-UHFFFAOYSA-N
#pubchem_id 4740
#mb_accession AU226701,AU226702,AU226703,AU226704,AU226705,AU226706

>ms2
181.070900 195772.000000
182.073800 13548.000000
279.145500 2511752.000000
280.147900 448656.000000
281.149700 38020.000000

>ms2
138.065200 261340.000000
139.067600 15276.000000
156.075600 49320.000000
181.071000 2204804.000000
182.073900 123500.000000
221.102300 16000.000000
279.144900 1102156.000000
280.147800 109748.000000

>ms2
135.065200 14908.000000
137.081100 29276.000000
138.065100 411684.000000
139.067900 20760.000000
156.075400 29440.000000
163.060100 39516.000000
181.070900 1780796.000000
182.073700 90412.000000
193.070700 27540.000000
279.144600 15320.000000

>ms2
122.057500 14636.000000
123.042200 9836.000000
135.065500 33320.000000
137.081100 41180.000000
138.065300 271100.000000
139.068300 15104.000000
156.075800 3620.000000
163.060400 69484.000000
164.063000 4592.000000
165.075600 4664.000000
181.071100 537816.000000
182.073800 33608.000000
193.071300 13848.000000
211.082000 4620.000000

>ms2
110.070700 892.000000
120.054100 984.000000
121.062500 1032.000000
122.057900 22284.000000
123.041800 15556.000000
123.060500 1364.000000
124.045500 1436.000000
132.055400 700.000000
134.071100 484.000000
135.065700 19748.000000
136.049300 2484.000000
136.068500 1760.000000
137.081200 20340.000000
138.065300 87292.000000
139.068600 5496.000000
140.043100 476.000000
148.036600 2368.000000
148.085800 652.000000
149.042600 680.000000
149.080300 648.000000
150.066100 484.000000
154.060000 1036.000000
156.075200 692.000000
163.060400 40412.000000
164.063400 3444.000000
165.076500 2544.000000
166.047700 888.000000
181.071000 80396.000000
182.074400 6196.000000
183.075000 736.000000
193.070800 3016.000000
194.075200 620.000000
211.080700 860.000000

>ms2
135.065200 14908.000000
137.081100 29276.000000
138.065100 411684.000000
139.067900 20760.000000
156.075400 29440.000000
163.060100 39516.000000
181.070900 1780796.000000
182.073700 90412.000000
193.070700 27540.000000
279.144600 15320.000000

