>compound AU86900918
>parentmass 646.031
>ionization [M+H]+
>formula C25H29I2NO3
>rt 711.630000
>profile qtof
#smiles_iso CCCCC1=C(C2=CC=CC=C2O1)C(=O)C3=CC(=C(C(=C3)I)OCCN(CC)CC)I
#smiles_can CCCCC1=C(C2=CC=CC=C2O1)C(=O)C3=CC(=C(C(=C3)I)OCCN(CC)CC)I
#inchikey IYIKLHRQXLHMJQ-UHFFFAOYSA-N
#pubchem_id 2157
#mb_accession AU273301,AU273302,AU273303,AU273304,AU273305,AU273306

>ms2
646.031700 544716.000000
647.034500 151704.000000
648.037900 20276.000000

>ms2
646.030900 554244.000000
647.033600 163380.000000
648.036000 21472.000000

>ms2
201.089500 4064.000000
572.940200 3804.000000
646.031100 471976.000000
647.034100 138544.000000
648.036200 19944.000000

>ms2
159.043100 1340.000000
201.089800 13480.000000
202.092600 1908.000000
248.085300 544.000000
263.105700 1452.000000
272.940100 688.000000
275.067900 1172.000000
276.077600 7668.000000
277.085000 5284.000000
278.088800 1232.000000
290.092300 1044.000000
319.133100 5408.000000
320.139500 780.000000
359.965100 508.000000
372.819600 916.000000
372.857300 844.000000
374.950700 600.000000
375.958200 1148.000000
398.836400 968.000000
402.983400 544.000000
403.990300 584.000000
416.997900 1696.000000
418.008100 1072.000000
445.947000 1276.000000
476.072700 2644.000000
504.099400 536.000000
516.915100 3124.000000
517.908000 500.000000
517.921000 624.000000
572.941300 3916.000000
573.943900 1000.000000
646.032300 99184.000000
647.035200 33188.000000
648.035900 4844.000000

>ms2
131.047700 1628.000000
158.033900 308.000000
159.042200 5300.000000
160.046500 672.000000
171.043200 1204.000000
171.079800 672.000000
183.078000 340.000000
199.074700 420.000000
201.089800 18772.000000
202.092800 3516.000000
205.062500 380.000000
220.090000 304.000000
221.057600 1520.000000
222.063700 560.000000
233.059100 1392.000000
234.066200 1480.000000
235.073200 1716.000000
245.951900 404.000000
246.069400 440.000000
247.073100 1128.000000
247.112500 356.000000
248.081800 2760.000000
249.052600 940.000000
249.089000 1640.000000
250.060800 356.000000
259.075400 788.000000
260.083200 568.000000
261.086700 408.000000
262.062200 312.000000
262.099400 472.000000
263.070000 944.000000
263.105100 3152.000000
264.076800 336.000000
264.111000 924.000000
272.940100 1172.000000
273.088100 428.000000
275.070300 3824.000000
275.100100 348.000000
276.077000 12260.000000
277.084000 7724.000000
278.090700 1136.000000
289.084400 496.000000
290.093600 3144.000000
291.097900 1248.000000
291.140100 532.000000
319.132400 2604.000000
320.135300 920.000000
331.967900 380.000000
346.955600 1760.000000
347.962300 1472.000000
356.827100 612.000000
358.956300 680.000000
359.962600 1560.000000
360.966200 532.000000
372.822000 2656.000000
372.856300 704.000000
372.973300 456.000000
373.975000 500.000000
374.949300 1412.000000
375.958100 1380.000000
376.968600 340.000000
388.967500 952.000000
389.966600 352.000000
390.004100 416.000000
398.836600 2180.000000
401.972100 388.000000
402.979100 1184.000000
403.981900 452.000000
416.997300 1852.000000
417.997200 828.000000
418.007700 804.000000
445.025100 564.000000
445.949200 932.000000
446.944200 336.000000
460.853200 816.000000
472.855400 544.000000
474.860800 356.000000
476.070300 2796.000000
477.072000 748.000000
516.915100 4044.000000
517.917200 852.000000
546.927500 352.000000
572.941100 1084.000000
573.945900 432.000000
646.031400 10268.000000
647.036000 3076.000000
648.043800 572.000000

>ms2
58.064800 142184.000000
59.068300 5020.000000
72.080500 25616.000000
73.088300 14908.000000
86.096500 63256.000000
87.099300 2788.000000
100.112800 40936.000000
101.116400 2512.000000
201.089900 8212.000000
276.077600 6224.000000
277.083800 4152.000000
319.132100 2932.000000
476.071400 2240.000000
516.916500 2696.000000
572.942000 4144.000000
646.032400 299700.000000
647.035500 89704.000000
648.038900 13180.000000

