>compound AU87918952
>parentmass 136.1121
>ionization [M+H]+
>formula C9H13N
>rt 268.560000
>profile qtof
#smiles_iso CC(C)C1=CC=C(C=C1)N
#smiles_can CC(C)C1=CC=C(C=C1)N
#inchikey LRTFPLFDLJYEKT-UHFFFAOYSA-N
#pubchem_id 7464
#mb_accession AU243006

>ms2
91.054500 536.000000
94.065000 988.000000

