>compound AU87330784
>parentmass 211.07449999999997
>ionization [M+H]+
>formula C9H11ClN4
>rt 196.730000
>profile qtof
#smiles_iso C1CN(C(=N1)N)CC2=CN=C(C=C2)Cl
#smiles_can C1CN(C(=N1)N)CC2=CN=C(C=C2)Cl
#inchikey UEQZFAGVRGWPDK-UHFFFAOYSA-N
#pubchem_id 10130527
#mb_accession AU259201,AU259202,AU259203,AU259204,AU259205,AU259206

>ms2
126.009100 19724.000000
175.095900 19868.000000
211.073600 2198340.000000
212.076100 185252.000000
213.070600 574880.000000

>ms2
126.009600 550704.000000
127.012800 34640.000000
128.006500 177740.000000
133.074900 46060.000000
169.051300 17560.000000
175.096700 150996.000000
176.100300 16320.000000
194.046600 14940.000000
211.073700 1471856.000000
212.076500 113124.000000
213.070700 380636.000000

>ms2
126.009600 758128.000000
127.012800 48520.000000
128.006600 253544.000000
129.009600 8636.000000
132.054300 4548.000000
133.074900 44788.000000
134.078500 3800.000000
144.019800 22200.000000
146.017000 7252.000000
169.051100 5832.000000
175.096500 40116.000000
176.101500 5304.000000
194.047100 5852.000000
211.073800 81000.000000
212.076700 9112.000000
213.070400 29864.000000

>ms2
126.009600 284700.000000
127.012400 22896.000000
128.006500 96892.000000
129.010300 3832.000000
132.053700 2416.000000
132.066700 1608.000000
133.074500 10892.000000
144.019800 17932.000000
146.016600 4932.000000
175.096700 1800.000000
211.073200 2408.000000

>ms2
126.009700 90436.000000
127.012600 7120.000000
128.006700 31912.000000
129.009700 1476.000000
131.059300 456.000000
132.055200 640.000000
132.066600 1060.000000
133.074000 1484.000000
144.019600 8172.000000
146.017100 3132.000000
151.004200 568.000000

>ms2
81.033200 3504.000000
84.055300 145864.000000
85.060500 4544.000000
90.034100 24516.000000
91.040700 3992.000000
98.999800 7568.000000
126.010600 566652.000000
127.013600 36164.000000
128.007300 155616.000000
129.010300 4252.000000
133.075400 38332.000000
144.019900 8500.000000
168.031200 3776.000000
169.051600 12388.000000
175.097100 84464.000000
176.101300 7484.000000
194.047700 7456.000000
211.074300 682580.000000
212.077000 72424.000000
213.071400 187944.000000

