>compound AU87132068
>parentmass 226.1339
>ionization [M+H]+
>formula C14H15N3
>rt 666.050000
>profile qtof
#smiles_iso CC1=CC(=NC(=N1)NC2=CC=CC=C2)C3CC3
#smiles_can CC1=CC(=NC(=N1)NC2=CC=CC=C2)C3CC3
#inchikey HAORKNGNJCEJBX-UHFFFAOYSA-N
#pubchem_id 86367
#mb_accession AU256901,AU256902,AU256903,AU256904,AU256905,AU256906

>ms2peaks
226.135800 2515320.000000

>ms2peaks
133.074800 26872.000000
144.079500 21220.000000
184.085600 13328.000000
185.106000 25296.000000
209.106000 27944.000000
210.101900 26160.000000
211.108500 13664.000000
226.134100 2514300.000000

>ms2peaks
116.048500 20428.000000
117.056200 15792.000000
118.051500 62064.000000
118.063800 19556.000000
119.059400 76264.000000
123.090500 15808.000000
131.059100 46316.000000
132.066800 53720.000000
133.074900 155404.000000
134.078300 13912.000000
142.063800 19852.000000
143.059200 64800.000000
144.079500 111084.000000
145.075100 37824.000000
159.090100 55504.000000
167.071200 30480.000000
168.078500 38292.000000
169.074800 26772.000000
182.082000 18388.000000
183.089600 27804.000000
184.085700 92788.000000
185.089300 13132.000000
185.105900 76600.000000
193.075200 26640.000000
194.082600 81072.000000
195.086700 14524.000000
197.093300 18436.000000
198.101300 35232.000000
199.108000 12668.000000
207.090400 29836.000000
208.097600 30808.000000
209.106200 148276.000000
210.102200 181420.000000
211.108000 63316.000000
224.117400 36480.000000
226.133800 2513576.000000
227.136200 622872.000000
228.139100 32376.000000

>ms2peaks
115.053600 6392.000000
116.049200 12284.000000
117.044200 3396.000000
117.056500 16428.000000
118.052000 73464.000000
118.063200 10236.000000
119.059600 48768.000000
120.062700 3708.000000
122.083300 1100.000000
123.090800 3748.000000
127.053700 1476.000000
128.048800 4000.000000
128.060100 2204.000000
129.044500 1248.000000
129.067500 1088.000000
130.064600 6904.000000
131.059500 58520.000000
132.067000 51104.000000
133.075000 50628.000000
134.078700 5352.000000
139.053300 2564.000000
140.048100 8988.000000
141.055300 2980.000000
141.069300 4320.000000
142.052700 1716.000000
142.064100 13440.000000
143.059300 41348.000000
144.063100 5792.000000
144.079600 29704.000000
145.075500 22748.000000
146.078900 2496.000000
148.085500 5696.000000
149.091700 1288.000000
150.101300 2624.000000
152.061400 2024.000000
153.056500 1616.000000
153.066400 1088.000000
154.064300 6648.000000
155.059400 5924.000000
156.067000 10812.000000
157.074800 9660.000000
158.081900 4808.000000
158.094400 2828.000000
159.090500 18792.000000
160.093800 2404.000000
165.068800 8460.000000
166.064500 9696.000000
167.071700 47268.000000
168.068000 21540.000000
168.078800 26308.000000
169.074800 22120.000000
170.081900 7092.000000
171.090400 6556.000000
172.094100 1164.000000
177.055900 1244.000000
179.058700 1932.000000
180.080300 6528.000000
181.075300 16396.000000
182.082400 21864.000000
183.079400 18244.000000
183.087900 17688.000000
184.086100 35884.000000
184.109500 2348.000000
185.088900 4944.000000
185.106100 17344.000000
186.108000 2808.000000
190.063500 2592.000000
191.071400 7064.000000
192.078400 4928.000000
193.075000 61236.000000
194.082600 71560.000000
195.086700 11136.000000
196.086600 8148.000000
197.093800 10132.000000
198.101600 18444.000000
199.108600 6704.000000
200.117000 2260.000000
205.074800 1272.000000
206.083100 5460.000000
207.091000 50776.000000
208.098000 24312.000000
209.106100 32524.000000
210.102200 98564.000000
211.106800 23584.000000
224.117700 30328.000000
225.121500 6704.000000
226.133300 212488.000000
227.136200 32784.000000
228.139400 2456.000000

>ms2peaks
114.044700 824.000000
115.041500 404.000000
115.053300 7136.000000
116.037700 772.000000
116.049000 7460.000000
117.044300 3320.000000
117.056400 9660.000000
118.051800 46840.000000
119.059300 20652.000000
120.062500 1740.000000
120.079000 388.000000
121.075600 440.000000
122.083500 692.000000
126.046000 820.000000
127.053400 1752.000000
128.048700 4692.000000
128.060600 2572.000000
129.044700 2608.000000
129.054800 1820.000000
129.068400 1332.000000
130.050400 752.000000
130.063800 5104.000000
131.059500 63612.000000
132.066700 27992.000000
133.074000 11448.000000
134.070200 2996.000000
138.044700 352.000000
139.053400 7816.000000
140.048600 13476.000000
141.055900 6012.000000
141.067800 2188.000000
142.052700 3052.000000
142.064300 5824.000000
143.059600 16816.000000
143.069800 6260.000000
144.057500 2028.000000
144.065300 2648.000000
144.079300 6860.000000
145.074700 7400.000000
146.076600 1016.000000
147.079500 364.000000
148.085300 4112.000000
149.089200 540.000000
150.045300 500.000000
150.104000 1132.000000
151.052600 384.000000
152.049200 1436.000000
152.060700 2680.000000
153.056200 2224.000000
154.063900 6968.000000
155.059700 7512.000000
156.066900 9104.000000
157.074200 5036.000000
158.072200 1396.000000
158.081200 1952.000000
159.090500 3312.000000
160.092400 644.000000
163.052500 704.000000
164.047600 1224.000000
164.060400 1976.000000
165.056300 1440.000000
165.068500 6648.000000
166.064100 20192.000000
167.071900 40280.000000
168.068400 17624.000000
169.074700 18192.000000
170.079100 3548.000000
171.079900 1056.000000
171.090100 2320.000000
172.088100 452.000000
172.098000 428.000000
177.056300 1252.000000
178.062500 1016.000000
179.059200 2896.000000
180.080000 8648.000000
181.075400 24256.000000
182.081200 12348.000000
183.079200 10440.000000
183.088200 10668.000000
184.086600 10548.000000
185.089600 2048.000000
185.106700 2500.000000
186.105600 568.000000
190.064400 3332.000000
191.071300 5256.000000
192.067800 14984.000000
193.075300 68960.000000
194.081600 23032.000000
195.086500 3704.000000
196.086600 5268.000000
197.093400 4688.000000
198.101500 6752.000000
199.107400 1888.000000
200.114900 352.000000
205.075000 4388.000000
206.082800 13888.000000
207.090900 40708.000000
208.095800 9800.000000
209.104300 4356.000000
210.102000 37512.000000
211.106000 6344.000000
222.101200 1512.000000
223.109400 596.000000
224.117700 12872.000000
225.121600 3072.000000
226.133500 9272.000000
227.135700 1744.000000

>ms2peaks
65.038000 6672.000000
67.053700 10892.000000
79.053900 14640.000000
80.049000 10296.000000
81.069600 13132.000000
82.064800 10540.000000
91.054300 43688.000000
92.049400 37632.000000
93.057400 98688.000000
94.063900 10992.000000
106.065500 56040.000000
108.068000 15388.000000
108.081300 172344.000000
109.077900 10628.000000
109.084500 11808.000000
116.049500 16020.000000
117.057400 10896.000000
118.052400 37920.000000
118.064800 19228.000000
119.060500 60524.000000
123.091400 15796.000000
131.060100 15196.000000
132.067800 17816.000000
133.076000 82292.000000
134.079100 6752.000000
142.064600 6896.000000
143.060300 15056.000000
144.080400 43696.000000
145.077100 11228.000000
159.091100 19788.000000
167.071500 7088.000000
168.079300 9988.000000
169.074800 7032.000000
183.089400 8532.000000
184.086300 31196.000000
185.106500 30672.000000
194.082800 19872.000000
198.101700 10348.000000
208.098400 8048.000000
209.107000 48548.000000
210.102900 45816.000000
211.108700 22348.000000
224.117800 10652.000000
226.134200 1263976.000000

