>compound AU87661531
>parentmass 194.09639999999996
>ionization [M+H]+
>formula C14H11N
>rt 607.897500
>profile qtof
#smiles_iso C1=CC=C2C(=C1)C=CC3=CC=CC=C3N2
#smiles_can C1=CC=C2C(=C1)C=CC3=CC=CC=C3N2
#inchikey LCGTWRLJTMHIQZ-UHFFFAOYSA-N
#pubchem_id 9212
#mb_accession AU204802,AU204803,AU204804,AU204805,AU246101,AU246102,AU246103,AU246105

>ms2
135.042800 540.000000
165.069000 604.000000
167.073200 688.000000
177.069400 476.000000
179.072300 2352.000000
192.079700 2000.000000
194.095700 83076.000000
195.099100 12040.000000
196.100800 684.000000

>ms2
117.057300 304.000000
128.049100 304.000000
135.042600 324.000000
151.052800 340.000000
152.061300 1912.000000
165.068100 2756.000000
167.071400 3688.000000
169.065300 544.000000
176.061100 684.000000
177.069600 1052.000000
178.065100 1616.000000
179.071100 14840.000000
190.065800 344.000000
191.072100 1480.000000
194.095700 49660.000000
195.099100 7856.000000
196.100800 328.000000

>ms2
117.056100 492.000000
126.045700 380.000000
128.062000 364.000000
139.053800 1064.000000
150.044600 620.000000
151.053100 948.000000
152.060700 3540.000000
153.058300 1052.000000
163.052600 400.000000
164.061600 436.000000
165.068300 6452.000000
166.066700 1872.000000
167.071200 5488.000000
169.063000 1672.000000
176.062200 1124.000000
177.055800 1440.000000
177.069500 604.000000
179.071500 13992.000000
190.063800 912.000000
191.071900 5696.000000
194.093900 10760.000000

>ms2
115.053400 436.000000
126.044400 804.000000
128.049500 960.000000
129.055800 348.000000
139.053800 2784.000000
140.049500 1232.000000
150.045100 1728.000000
151.052800 2116.000000
152.060500 6224.000000
153.056800 2344.000000
163.053200 1180.000000
164.061300 1628.000000
166.064800 3636.000000
167.072100 5828.000000
168.056900 392.000000
169.063700 2668.000000
176.060800 1124.000000
177.056700 2768.000000
179.070800 7092.000000
190.064100 2644.000000
193.087200 10540.000000
194.092800 2628.000000

>ms2
192.078600 784.000000
193.087500 4588.000000
194.096000 99756.000000
195.098800 15096.000000
196.102500 980.000000

>ms2
122.095400 480.000000
152.063900 1148.000000
165.072200 620.000000
167.071300 764.000000
167.085900 984.000000
177.068600 580.000000
179.071000 2880.000000
180.096400 1312.000000
191.071100 488.000000
192.079800 2276.000000
193.087900 10496.000000
194.095800 90956.000000
195.099000 15856.000000
196.103000 1004.000000

>ms2
193.087700 508.000000
194.095200 884.000000

>ms2
151.057000 316.000000
191.071000 460.000000

