>compound AU87497361
>parentmass 286.1438
>ionization [M+H]+
>formula C17H19NO3
>rt 163.704000
>profile qtof
#smiles_iso CN1CC[C@]23[C@@H]4[C@H]1CC5=C2C(=C(C=C5)O)O[C@H]3[C@H](C=C4)O
#smiles_can CN1CCC23C4C1CC5=C2C(=C(C=C5)O)OC3C(C=C4)O
#inchikey BQJCRHHNABKAKU-KBQPJGBKSA-N
#pubchem_id 5288826
#mb_accession AU158001,AU158002,AU158003,AU158004,AU158005

>ms2
286.145600 1073792.000000
287.148800 157332.000000
288.151400 15604.000000

>ms2
201.091800 19520.000000
211.076000 8660.000000
229.086900 20980.000000
268.134300 8808.000000
286.145700 1338896.000000
287.148900 227244.000000
288.151300 19640.000000

>ms2
123.044600 3484.000000
145.065400 8256.000000
147.044800 14016.000000
153.070700 8676.000000
155.086300 16524.000000
157.065700 10092.000000
161.060000 3500.000000
165.070800 18420.000000
166.076700 3432.000000
169.065500 3104.000000
173.060600 21828.000000
173.096900 5860.000000
178.086900 5760.000000
181.065600 19200.000000
181.102600 3400.000000
182.069800 3560.000000
183.081300 31124.000000
184.084500 4824.000000
185.060900 39008.000000
186.065000 6576.000000
187.075400 5488.000000
191.086400 12824.000000
193.065800 14232.000000
194.072200 3284.000000
199.076500 13448.000000
201.092300 79188.000000
202.095400 10100.000000
207.082500 3436.000000
209.061100 22728.000000
209.097200 7728.000000
210.064500 4684.000000
211.076900 38796.000000
212.080500 5156.000000
219.081300 9152.000000
221.096800 5636.000000
227.071800 20088.000000
227.107600 3872.000000
229.087500 56424.000000
230.090500 8056.000000
237.092700 8884.000000
239.108200 5904.000000
268.134700 17556.000000
269.138800 4040.000000
286.146400 617932.000000
287.149200 87864.000000
288.151200 8652.000000

>ms2
115.054700 4112.000000
117.070200 2232.000000
119.049500 596.000000
120.080100 336.000000
121.064600 1536.000000
123.044500 5364.000000
126.047200 508.000000
127.054700 3296.000000
128.062100 7056.000000
129.069400 6324.000000
130.075800 736.000000
131.049400 2800.000000
131.074300 324.000000
131.085500 1128.000000
132.057000 1000.000000
132.081800 1192.000000
133.063900 808.000000
133.089000 804.000000
134.097000 492.000000
135.044000 1016.000000
135.101900 320.000000
137.059400 560.000000
139.054100 1588.000000
140.061500 580.000000
141.070300 7156.000000
142.075200 1100.000000
143.049600 1576.000000
143.075100 300.000000
143.086000 1880.000000
144.057400 5708.000000
144.080300 880.000000
145.065000 17740.000000
145.102000 1480.000000
146.069400 2628.000000
146.097500 660.000000
147.044500 18584.000000
148.048100 1848.000000
148.076700 388.000000
149.059800 860.000000
150.048700 428.000000
150.090700 412.000000
151.055300 800.000000
152.062500 12348.000000
153.070300 42512.000000
154.076000 7592.000000
155.060700 4360.000000
155.085900 37396.000000
156.058300 856.000000
156.089100 5016.000000
157.065400 42336.000000
158.070500 6616.000000
158.096500 660.000000
159.044500 1280.000000
159.080600 2780.000000
160.052500 5044.000000
160.076700 1744.000000
161.059500 4368.000000
162.091900 1252.000000
163.040800 612.000000
163.058700 536.000000
163.098500 300.000000
164.063600 784.000000
164.107200 820.000000
165.070700 54168.000000
166.075900 12436.000000
167.049300 780.000000
167.085800 3992.000000
168.057400 5148.000000
168.082300 332.000000
168.089600 840.000000
169.065000 7244.000000
169.101400 432.000000
170.072600 1704.000000
170.097900 324.000000
171.044400 8664.000000
171.081300 7532.000000
172.052000 3360.000000
172.083900 1012.000000
173.060200 21868.000000
173.096900 7368.000000
174.064200 2568.000000
174.099600 812.000000
175.043100 392.000000
175.076000 1040.000000
176.071100 900.000000
177.072200 752.000000
178.079800 4400.000000
179.060200 648.000000
179.085000 5144.000000
180.057600 864.000000
180.090500 1228.000000
181.065600 54148.000000
181.102000 4828.000000
182.069800 9860.000000
182.105000 1040.000000
183.081200 39744.000000
184.052900 9648.000000
184.084900 6040.000000
185.060600 45320.000000
186.066200 8552.000000
187.040500 784.000000
187.075800 5880.000000
188.077400 772.000000
189.070400 2860.000000
190.077900 4688.000000
191.086100 17388.000000
192.055800 336.000000
192.089400 2808.000000
193.065700 9880.000000
193.100900 2652.000000
194.072500 7800.000000
195.081300 2920.000000
196.051800 984.000000
197.060800 4284.000000
197.096400 840.000000
198.068500 7832.000000
198.092800 672.000000
199.076500 18036.000000
200.045500 708.000000
200.081200 3144.000000
201.091900 36572.000000
202.080100 2016.000000
202.095600 6448.000000
203.088100 1512.000000
204.097900 348.000000
205.065700 940.000000
205.100000 340.000000
206.073800 756.000000
207.080200 2352.000000
207.106000 624.000000
208.051200 540.000000
208.088400 1348.000000
209.060800 26848.000000
209.096900 6004.000000
210.065200 4724.000000
210.101000 932.000000
211.076400 30332.000000
212.080500 4280.000000
213.055900 1912.000000
213.090100 1076.000000
214.063300 1248.000000
214.087900 1300.000000
215.065000 388.000000
215.094800 476.000000
216.104100 1044.000000
218.073100 2956.000000
219.081800 6708.000000
220.085700 1060.000000
220.110200 412.000000
221.060900 928.000000
221.096900 3180.000000
222.068600 2484.000000
222.094800 436.000000
222.127800 708.000000
223.076100 1148.000000
224.084200 900.000000
224.106200 400.000000
225.056600 420.000000
225.091500 1572.000000
225.116400 320.000000
226.063600 1032.000000
226.098900 644.000000
227.071300 19480.000000
227.107700 1512.000000
228.075100 2632.000000
228.103300 824.000000
229.086600 15692.000000
230.089900 2172.000000
231.092100 584.000000
234.092700 416.000000
235.079100 376.000000
235.101100 400.000000
236.084300 436.000000
237.091900 4388.000000
238.094000 1508.000000
239.106700 2064.000000
240.079700 348.000000
240.103300 904.000000
240.138800 928.000000
242.117400 488.000000
250.124500 896.000000
251.130500 508.000000
252.102600 1424.000000
253.111000 984.000000
254.115900 496.000000
255.103200 844.000000
258.116200 380.000000
258.149000 508.000000
266.117900 328.000000
267.125200 312.000000
268.134700 5308.000000
269.138200 1152.000000
286.145800 48944.000000
287.148400 9980.000000

>ms2
115.055100 11344.000000
116.060300 1692.000000
117.058700 448.000000
117.070700 3552.000000
118.075000 744.000000
121.066500 656.000000
123.044700 3840.000000
126.047600 1232.000000
127.054900 6140.000000
128.062800 26200.000000
129.070200 13204.000000
130.075200 1640.000000
131.049800 4992.000000
131.086000 1388.000000
132.056100 1564.000000
132.081800 1448.000000
133.065000 1148.000000
134.098700 460.000000
135.044800 592.000000
137.060800 476.000000
139.054500 4324.000000
140.062400 2200.000000
141.070400 11256.000000
142.076100 1672.000000
143.050200 1548.000000
143.086000 3604.000000
144.057700 7240.000000
144.082100 808.000000
145.065600 20408.000000
145.102000 1196.000000
146.069000 2288.000000
146.097900 592.000000
147.044900 16864.000000
148.048600 1960.000000
150.046600 1052.000000
151.055900 2496.000000
152.063000 45776.000000
153.070700 81840.000000
154.075800 14604.000000
155.061100 8212.000000
155.086300 27584.000000
156.059100 2136.000000
156.090400 4104.000000
157.065800 58264.000000
158.071200 9316.000000
159.044200 880.000000
159.080200 2164.000000
160.052800 5028.000000
160.076700 1088.000000
161.059500 3164.000000
162.092700 520.000000
163.055300 1280.000000
164.062200 1956.000000
165.071000 74852.000000
166.076600 16784.000000
167.050300 1008.000000
167.085500 3744.000000
168.057600 9656.000000
168.089500 548.000000
169.065400 12500.000000
170.072600 3592.000000
170.098000 552.000000
171.045400 12164.000000
171.081400 7124.000000
172.051900 3108.000000
172.085700 1104.000000
173.060900 9768.000000
173.097100 2968.000000
174.064900 2016.000000
175.076100 484.000000
176.066000 1852.000000
177.070800 1268.000000
178.079200 9560.000000
179.061600 2472.000000
179.086300 4944.000000
180.059800 1576.000000
180.089400 1340.000000
181.066300 60696.000000
182.070200 10016.000000
182.097000 504.000000
182.106600 528.000000
183.081700 16028.000000
184.053100 19712.000000
184.086000 3096.000000
185.060500 24968.000000
186.066800 6180.000000
187.040300 604.000000
187.075600 1888.000000
189.071100 8204.000000
190.078600 8304.000000
191.086600 11404.000000
192.092200 2128.000000
193.066300 4416.000000
193.103100 896.000000
194.073400 7344.000000
194.100000 476.000000
195.080100 2100.000000
196.050300 1148.000000
197.061300 5016.000000
197.097200 736.000000
198.068500 9020.000000
199.039400 460.000000
199.076500 8508.000000
200.082100 1972.000000
201.070800 1332.000000
201.092400 7304.000000
202.079500 2020.000000
203.086800 600.000000
205.066700 1192.000000
206.074600 968.000000
206.096800 496.000000
207.082600 2100.000000
208.053900 760.000000
208.091300 776.000000
209.061200 12308.000000
209.097700 1908.000000
210.066000 3160.000000
211.076500 8820.000000
212.080700 1352.000000
213.057200 1208.000000
214.062500 920.000000
214.087400 644.000000
218.073400 2072.000000
219.081200 2132.000000
220.090300 568.000000
220.113900 592.000000
221.061400 1812.000000
221.096000 696.000000
222.068500 1692.000000
223.076000 888.000000
224.083600 444.000000
225.053800 560.000000
225.094300 676.000000
226.063400 828.000000
227.071700 4732.000000
227.110000 488.000000
228.075800 796.000000
229.086900 1880.000000
230.089200 420.000000
234.094100 572.000000
235.075000 628.000000
237.091700 1152.000000
238.090100 484.000000
240.104000 508.000000
252.104600 1020.000000
253.113500 464.000000
286.145200 2472.000000

