>compound AU87239480
>parentmass 410.1406
>ionization [M+Na]+
>formula C21H23ClFN3O
>rt 780.360000
>profile qtof
#smiles_iso CCN(CC)CCN1C(=O)CN=C(C2=C1C=CC(=C2)Cl)C3=CC=CC=C3F
#smiles_can CCN(CC)CCN1C(=O)CN=C(C2=C1C=CC(=C2)Cl)C3=CC=CC=C3F
#inchikey SAADBVWGJQAEFS-UHFFFAOYSA-N
#pubchem_id 3393
#mb_accession AU163130,AU163131,AU163132

>ms2peaks
239.147000 632.000000

>ms2peaks
133.085500 1548.000000
177.112800 752.000000
178.119100 348.000000
195.123400 408.000000
239.150700 3596.000000

>ms2peaks
133.087100 960.000000
177.113400 304.000000
239.151700 416.000000

