>compound AU87262635
>parentmass 257.1648
>ionization [M+H]+
>formula C16H20N2O
>rt 320.400000
>profile qtof
#smiles_iso C[N+](C)(CCC(C1=CC=CC=C1)C2=CC=CC=N2)[O-]
#smiles_can C[N+](C)(CCC(C1=CC=CC=C1)C2=CC=CC=N2)[O-]
#inchikey OBBDJQMNZLQVAZ-UHFFFAOYSA-N
#pubchem_id 222605
#mb_accession AU207601,AU207602,AU207603,AU207604,AU207605

>ms2
196.111500 923488.000000
197.114600 118592.000000
198.117900 6660.000000
257.164600 209088.000000
258.167600 28984.000000
259.168900 3148.000000

>ms2
118.063600 1500.000000
167.071600 8520.000000
168.079000 16072.000000
169.082600 2588.000000
196.111500 1327604.000000
197.114600 174356.000000
198.117900 10220.000000

>ms2
118.063600 1000.000000
167.071600 71632.000000
168.079400 133136.000000
169.082600 19844.000000
196.111700 1373636.000000
197.114600 179624.000000
198.117900 9652.000000

>ms2
118.064300 26980.000000
119.064100 4352.000000
166.064100 7144.000000
167.071600 349136.000000
168.079500 482176.000000
169.082600 54320.000000
196.111600 701472.000000
197.114600 79016.000000
198.117900 5120.000000

>ms2
117.056300 24820.000000
118.064100 46032.000000
119.069300 4876.000000
139.052800 9344.000000
140.059800 3956.000000
141.068700 4352.000000
167.071600 746068.000000
168.079000 427628.000000
169.082600 41068.000000
180.079500 17848.000000
181.086100 6648.000000
193.087600 5544.000000
194.095000 29872.000000
196.111400 106152.000000
197.114600 13840.000000

