>compound AU87349113
>parentmass 297.1333
>ionization [M+H]+
>formula C15H20O6
>rt 232.452000
>profile qtof
#smiles_iso CC1=CC2C(C(C1=O)O)(C3(CC(C(C34CO4)O2)O)C)CO
#smiles_can CC1=CC2C(C(C1=O)O)(C3(CC(C(C34CO4)O2)O)C)CO
#inchikey LINOMUASTDIRTM-UHFFFAOYSA-N
#pubchem_id 430147
#mb_accession AU596700,AU596701,AU596702,AU596703,AU596704

>ms2
137.059000 308.000000
187.112900 336.000000
203.105700 720.000000
219.103100 312.000000
231.099600 1168.000000
249.111500 1860.000000
261.111800 528.000000
279.122900 492.000000
297.132500 3900.000000

>ms2
125.058700 352.000000
145.101100 316.000000
159.080700 364.000000
161.059900 320.000000
173.096500 300.000000
175.076700 460.000000
177.090400 308.000000
189.091300 456.000000
197.094600 480.000000
203.107200 1636.000000
231.103200 828.000000
249.110200 896.000000
251.128100 312.000000
261.111900 352.000000
279.125100 336.000000

>ms2
159.080600 340.000000
175.076200 416.000000
203.103500 376.000000

>ms2
129.068500 352.000000
142.077000 312.000000
161.059300 328.000000
175.076100 632.000000

>ms2
128.062900 300.000000
141.068200 464.000000

