>compound AU88201810
>parentmass 215.97840000000002
>ionization [M+H]+
>formula C7H5NO3S2
>rt 268.992000
>profile qtof
#smiles_iso C1=CC=C2C(=C1)N=C(S2)S(=O)(=O)O
#smiles_can C1=CC=C2C(=C1)N=C(S2)S(=O)(=O)O
#inchikey ZCXGMSGCBDSEOY-UHFFFAOYSA-N
#pubchem_id 30647
#mb_accession AU287301,AU287302,AU287303,AU287304,AU287306

>ms2peaks
168.010200 372.000000
215.977100 3348.000000
217.972600 300.000000

>ms2peaks
134.005600 1652.000000
140.016300 528.000000
152.014800 508.000000
169.971800 788.000000
215.978000 808.000000

>ms2peaks
134.004300 1176.000000
140.014600 412.000000
152.015800 436.000000

>ms2peaks
134.006800 864.000000

>ms2peaks
134.004900 768.000000
140.016500 604.000000
152.015300 1124.000000
169.971900 604.000000
215.976500 1448.000000

