>compound AU88855285
>parentmass 136.05050000000003
>ionization [M+H]+
>formula C6H5N3O
>rt 238.890000
>profile qtof
#smiles_iso C1=CC2=NNN=C2C(=C1)O
#smiles_can C1=CC2=NNN=C2C(=C1)O
#inchikey JMTMSDXUXJISAY-UHFFFAOYSA-N
#pubchem_id 135399369
#mb_accession AU223601,AU223602,AU238001,AU238002,AU238003,AU238006

>ms2
121.039200 472.000000
136.049900 36188.000000
137.052600 2276.000000

>ms2
121.040800 488.000000
136.049700 11976.000000
137.052600 1212.000000

>ms2
136.049200 52452.000000
137.051900 4240.000000

>ms2
136.049300 20444.000000
137.051800 1664.000000

>ms2
136.049200 1772.000000

>ms2
53.038200 1280.000000
59.048500 412.000000
80.049600 2112.000000
136.050000 43532.000000
137.053000 2252.000000

