>compound AU88371586
>parentmass 270.1255
>ionization [M+H]+
>formula C14H20ClNO2
>rt 612.000000
>profile qtof
#smiles_iso CCC1=C(C(=CC=C1)CC)N(COC)C(=O)CCl
#smiles_can CCC1=C(C(=CC=C1)CC)N(COC)C(=O)CCl
#inchikey XCSGPAVHZFQHGE-UHFFFAOYSA-N
#pubchem_id 2078
#mb_accession AU322501,AU322502,AU322503,AU322504,AU322505

>ms2peaks
162.126200 9896.000000
163.129900 1364.000000
208.087800 796.000000
224.082600 752.000000
238.098700 90800.000000
239.102200 11980.000000
240.095400 25488.000000
241.097700 2668.000000
270.125000 16968.000000
271.128400 2224.000000
272.123000 3992.000000
273.125600 484.000000

>ms2peaks
118.064600 340.000000
131.071400 340.000000
132.079600 1244.000000
134.095200 1004.000000
145.100900 716.000000
146.095400 1588.000000
148.110000 548.000000
149.094600 572.000000
158.095500 308.000000
160.111700 1072.000000
161.119700 1840.000000
162.126900 50640.000000
163.110400 1488.000000
163.129700 6412.000000
164.130100 380.000000
171.103600 300.000000
172.111500 308.000000
174.089700 592.000000
174.127800 356.000000
184.110800 344.000000
202.121400 988.000000
206.073500 444.000000
208.087700 1144.000000
210.068600 560.000000
220.087600 1972.000000
221.091500 328.000000
222.084300 532.000000
224.082800 1056.000000
238.098700 43204.000000
239.102200 6328.000000
240.095400 12192.000000
241.097700 1368.000000

>ms2peaks
115.054100 396.000000
117.056900 492.000000
118.064400 920.000000
130.065000 568.000000
131.071400 1420.000000
133.085700 1156.000000
134.095300 2320.000000
144.080000 968.000000
145.088900 436.000000
147.103400 22216.000000
148.107100 2820.000000
149.097800 324.000000
156.081300 308.000000
158.095000 464.000000
160.074000 516.000000
160.111300 1036.000000
161.118800 1564.000000
162.127100 44528.000000
163.111000 2476.000000
163.130100 5548.000000
164.113400 356.000000
170.096100 712.000000
171.102300 404.000000
173.082200 816.000000
174.091300 1116.000000
174.125900 564.000000
185.117400 476.000000
188.106700 416.000000
206.071000 676.000000
210.067900 312.000000
220.087700 1124.000000
222.087600 528.000000
238.098700 2812.000000
239.102200 528.000000
240.095400 1328.000000

>ms2peaks
115.052700 428.000000
117.057300 2196.000000
118.064200 1736.000000
119.071100 684.000000
120.079000 468.000000
129.069300 300.000000
130.064700 1392.000000
131.071500 1524.000000
132.080000 19524.000000
133.085800 2512.000000
134.095400 1888.000000
143.074300 392.000000
144.080000 968.000000
145.086400 368.000000
146.095400 5484.000000
147.103400 33556.000000
156.079100 396.000000
158.096400 424.000000
160.075300 356.000000
160.111700 540.000000
161.117900 432.000000
162.126900 16844.000000
163.111200 680.000000
163.130100 2120.000000
170.095100 608.000000
173.083900 484.000000
174.090000 820.000000
184.111600 392.000000

>ms2peaks
115.051400 456.000000
117.056700 4968.000000
118.063200 1700.000000
119.071200 668.000000
120.078800 340.000000
130.064000 1984.000000
131.071000 1048.000000
132.079800 28356.000000
134.094700 716.000000
143.070900 396.000000
144.079300 1008.000000
147.103100 16664.000000
156.079700 372.000000
158.095200 372.000000
160.111600 328.000000
162.126300 2140.000000
163.131700 328.000000
170.094100 420.000000

