>compound AU88113288
>parentmass 213.1022
>ionization [M+H]+
>formula C13H12N2O
>rt 314.050000
>profile qtof
#smiles_iso CC1=NC=CC2=C1NC3=C2C=CC(=C3)OC
#smiles_can CC1=NC=CC2=C1NC3=C2C=CC(=C3)OC
#inchikey BXNJHAXVSOCGBA-UHFFFAOYSA-N
#pubchem_id 5280953
#mb_accession AU288401,AU288402,AU288403,AU288404,AU288405,AU288406

>ms2
198.077700 21556.000000
213.102100 2359840.000000
214.104800 422928.000000
215.107400 24860.000000

>ms2
169.075000 20864.000000
170.083000 141584.000000
171.086100 17160.000000
198.078200 785748.000000
199.081200 67828.000000
213.102400 2375372.000000
214.105100 476548.000000
215.107700 25412.000000

>ms2
144.079200 17232.000000
155.058900 15816.000000
169.074800 142680.000000
170.082600 1403620.000000
171.085700 144668.000000
198.077900 1705688.000000
199.080900 163676.000000
200.083400 11816.000000
213.101300 636656.000000
214.104400 85368.000000

>ms2
142.064000 15212.000000
143.070900 13608.000000
144.066700 33428.000000
144.079400 81724.000000
155.059100 77420.000000
168.066400 15336.000000
169.074900 793676.000000
170.082700 2030248.000000
171.085900 233204.000000
198.077900 345688.000000
199.080900 41404.000000
213.101000 27552.000000

>ms2
115.053500 23912.000000
118.064300 14680.000000
128.048400 29424.000000
129.054900 9152.000000
140.048600 11860.000000
141.055600 13196.000000
142.063800 51004.000000
143.059400 23452.000000
143.070800 20656.000000
144.066800 54456.000000
144.079400 141612.000000
145.082600 16492.000000
153.043400 9556.000000
155.059100 150932.000000
156.062300 12952.000000
168.066800 51356.000000
169.075000 1563740.000000
170.082200 1099776.000000
171.054200 8772.000000
171.085500 89152.000000
198.077600 25528.000000

>ms2
169.075400 19652.000000
170.083300 282952.000000
171.086300 33184.000000
198.078600 695676.000000
199.081700 61940.000000
213.102400 970212.000000
214.105500 167684.000000
215.107700 9532.000000

