>compound AU88641429
>parentmass 322.0663
>ionization [M+H]+
>formula C16H16ClNO2S
>rt 700.590000
>profile qtof
#smiles_iso COC(=O)[C@H](C1=CC=CC=C1Cl)N2CCC3=C(C2)C=CS3
#smiles_can COC(=O)C(C1=CC=CC=C1Cl)N2CCC3=C(C2)C=CS3
#inchikey GKTWGGQPFAXNFI-HNNXBMFYSA-N
#pubchem_id 60606
#mb_accession AU228401,AU228402,AU228403,AU228404,AU228405,AU228406

>ms2peaks
184.051200 40176.000000
212.046400 803356.000000
213.049400 54388.000000
214.043500 167672.000000
322.066700 2506644.000000

>ms2peaks
125.014600 29712.000000
152.025200 175008.000000
153.028000 13388.000000
154.022300 48728.000000
155.024800 154848.000000
157.021800 32140.000000
183.019900 354012.000000
184.051600 1640084.000000
185.017000 90172.000000
185.054800 131476.000000
186.048700 422324.000000
187.051700 20288.000000
201.030600 16672.000000
212.047500 2513504.000000
213.050000 481572.000000
214.044000 1450432.000000
215.047100 63288.000000
262.044700 15512.000000
322.066500 812856.000000
323.069400 125120.000000
324.063600 246876.000000

>ms2peaks
125.014300 203228.000000
126.017400 11624.000000
127.011200 54180.000000
152.024900 933360.000000
153.028000 69156.000000
154.022000 252884.000000
154.040500 44220.000000
155.024500 1744792.000000
156.028200 85704.000000
157.021700 340896.000000
158.024600 17684.000000
183.019600 1463264.000000
184.051400 2173804.000000
185.016700 342996.000000
185.054800 182788.000000
186.048500 599556.000000
187.051500 30208.000000
201.030200 34508.000000
203.027000 11348.000000
212.046400 1019592.000000
213.049500 82984.000000
214.043600 230236.000000
215.046500 13768.000000
262.044000 13268.000000

>ms2peaks
125.014400 566680.000000
126.017600 33084.000000
127.011400 144552.000000
138.993200 15748.000000
148.050700 30660.000000
152.025000 739788.000000
153.028000 55044.000000
154.022100 193576.000000
154.040500 55084.000000
155.024900 2748720.000000
156.028100 194128.000000
157.021700 826800.000000
158.024900 30996.000000
183.019700 679624.000000
184.022900 47308.000000
184.051500 461596.000000
185.016700 169620.000000
185.054800 38148.000000
186.048500 121480.000000
212.046200 36264.000000

>ms2peaks
125.014600 617416.000000
126.017900 35208.000000
127.011700 160964.000000
133.027700 28232.000000
138.993600 47568.000000
140.990600 12836.000000
148.050900 45096.000000
152.025300 151180.000000
154.022300 41104.000000
154.041100 23944.000000
155.025100 2526908.000000
156.028400 143324.000000
157.022000 581720.000000
158.025100 23104.000000
183.019900 90036.000000
184.051300 29472.000000
185.016800 26488.000000

>ms2peaks
125.014300 203228.000000
126.017400 11624.000000
127.011200 54180.000000
152.024900 933360.000000
153.028000 69156.000000
154.022000 252884.000000
154.040500 44220.000000
155.024500 1744792.000000
156.028200 85704.000000
157.021700 340896.000000
158.024600 17684.000000
183.019600 1463264.000000
184.051400 2173804.000000
185.016700 342996.000000
185.054800 182788.000000
186.048500 599556.000000
187.051500 30208.000000
201.030200 34508.000000
203.027000 11348.000000
212.046400 1019592.000000
213.049500 82984.000000
214.043600 230236.000000
215.046500 13768.000000
262.044000 13268.000000

