>compound AU88550178
>parentmass 303.2319
>ionization [M+H]+
>formula C20H30O2
>rt 620.510000
>profile qtof
#smiles_iso C[C@]12CCC(=O)C=C1CC[C@@H]3[C@@H]2CC[C@]4([C@H]3CC[C@]4(C)O)C
#smiles_can CC12CCC(=O)C=C1CCC3C2CCC4(C3CCC4(C)O)C
#inchikey GCKMFJBGXUYNAG-HLXURNFRSA-N
#pubchem_id 6010
#mb_accession AU281601,AU281602,AU281603,AU281604,AU281605,AU281606

>ms2
285.220400 35528.000000
303.232400 2204748.000000
304.235200 542900.000000
305.238400 42720.000000

>ms2
121.100600 9140.000000
123.079500 11340.000000
133.100600 10016.000000
135.116000 10392.000000
145.100300 8084.000000
147.116300 6924.000000
149.131500 8732.000000
159.116000 18948.000000
161.131800 12964.000000
163.110700 7184.000000
163.146900 6416.000000
171.115700 8372.000000
173.131600 9324.000000
175.147200 14488.000000
177.126400 19972.000000
177.163100 30772.000000
185.131700 9760.000000
187.147600 8616.000000
189.163300 69268.000000
190.165900 11024.000000
199.147500 6408.000000
201.163300 15044.000000
203.178900 19120.000000
211.147200 17084.000000
215.179300 10212.000000
225.163600 8412.000000
227.179300 44256.000000
228.182000 7932.000000
229.158300 13588.000000
243.174200 5868.000000
245.189700 45536.000000
246.193000 8472.000000
267.211100 85152.000000
268.214300 20152.000000
285.221700 231112.000000
286.224700 45328.000000
303.232600 1099272.000000
304.235900 204156.000000
305.238700 20856.000000

>ms2
109.064000 3016.000000
110.067600 312.000000
115.055100 908.000000
117.069200 1668.000000
119.084500 15844.000000
120.088000 1844.000000
121.063700 8996.000000
121.100300 18420.000000
122.067000 968.000000
122.104400 2208.000000
123.079600 28876.000000
123.115800 2268.000000
124.082800 3040.000000
125.094600 1124.000000
128.061200 496.000000
129.069300 2308.000000
130.076000 684.000000
131.084700 7392.000000
132.087500 1044.000000
133.100100 29164.000000
134.102800 2656.000000
135.079400 2920.000000
135.115900 17704.000000
136.120100 2000.000000
137.095000 5576.000000
137.131500 5616.000000
138.097600 620.000000
138.133900 432.000000
139.110800 424.000000
141.068600 1124.000000
142.077000 1116.000000
143.083900 5552.000000
144.091400 1064.000000
145.100200 15880.000000
146.104800 2472.000000
147.079000 2712.000000
147.115500 21364.000000
148.086800 416.000000
148.118800 2520.000000
149.095000 10368.000000
149.131200 16624.000000
150.098900 1332.000000
150.134000 1956.000000
151.110600 2940.000000
151.145200 672.000000
152.115300 348.000000
155.083500 3080.000000
156.090800 1172.000000
157.099900 11260.000000
158.104100 1348.000000
159.115300 31632.000000
160.119200 4024.000000
161.095000 3896.000000
161.131200 23200.000000
162.096200 416.000000
162.103700 316.000000
162.135000 2940.000000
163.110200 12452.000000
163.147000 6972.000000
164.113600 1412.000000
164.151900 1064.000000
165.127000 876.000000
168.091500 304.000000
169.099100 5504.000000
170.104500 1040.000000
171.115600 15960.000000
172.118500 2576.000000
173.095500 924.000000
173.131100 12636.000000
174.101600 380.000000
174.134400 2408.000000
175.110400 7260.000000
175.146900 20092.000000
176.113800 976.000000
176.149900 2932.000000
177.126100 22756.000000
177.162600 18120.000000
178.130300 2748.000000
178.165700 2920.000000
179.140600 828.000000
182.106500 596.000000
183.114600 4468.000000
184.120300 1060.000000
185.131000 16816.000000
186.135300 3600.000000
187.108800 904.000000
187.147000 16384.000000
188.115200 544.000000
188.150700 2300.000000
189.125900 8364.000000
189.162800 38856.000000
190.130100 1132.000000
190.166300 7048.000000
191.141500 5548.000000
191.169800 384.000000
192.144700 1128.000000
193.157900 592.000000
196.123400 740.000000
197.132000 6432.000000
198.135900 1396.000000
199.147000 8904.000000
200.151000 1932.000000
201.125400 2376.000000
201.162400 13956.000000
202.130800 552.000000
202.165600 2708.000000
203.141300 2848.000000
203.178200 9588.000000
204.145300 508.000000
204.181600 1704.000000
205.158400 692.000000
207.173500 564.000000
211.147000 18504.000000
212.151900 3612.000000
213.161400 2336.000000
214.166700 728.000000
215.141700 5708.000000
215.178300 10272.000000
216.148800 1120.000000
216.182500 1820.000000
217.157400 2296.000000
217.191800 892.000000
218.162200 392.000000
219.175000 424.000000
223.146900 452.000000
224.154700 476.000000
225.163800 8548.000000
226.166800 2052.000000
227.178700 47724.000000
228.182100 8772.000000
229.157500 9136.000000
229.185200 524.000000
230.162400 2316.000000
233.188200 1320.000000
234.193500 316.000000
237.160400 328.000000
238.172900 516.000000
239.178000 4196.000000
240.183000 672.000000
241.194600 2916.000000
242.198300 628.000000
243.173600 4416.000000
243.210100 1784.000000
244.177600 868.000000
244.213000 504.000000
245.189100 28568.000000
246.192900 5624.000000
247.170700 488.000000
247.200100 764.000000
252.186500 1352.000000
253.191000 476.000000
257.191000 1128.000000
257.224000 1232.000000
265.198100 308.000000
267.210200 39764.000000
268.213400 8888.000000
269.215500 732.000000
270.198100 1220.000000
285.221000 50112.000000
286.224000 11800.000000
287.228100 1332.000000
303.231200 51380.000000
304.234500 11500.000000
305.239700 1356.000000

>ms2
109.064100 1820.000000
115.053700 2088.000000
117.068100 3864.000000
118.074400 528.000000
119.084700 15396.000000
120.088300 1704.000000
121.063600 8784.000000
121.099800 12428.000000
122.068300 884.000000
122.104000 1564.000000
123.079300 30100.000000
124.082800 2524.000000
125.093700 884.000000
128.060800 2564.000000
129.069100 4388.000000
130.075800 1436.000000
131.084400 13816.000000
132.088100 1452.000000
133.100100 26172.000000
134.103200 3108.000000
135.079100 2520.000000
135.115500 10692.000000
136.118800 1092.000000
137.094900 3356.000000
137.131900 1040.000000
141.068900 2260.000000
142.076100 3032.000000
143.084000 9140.000000
144.090500 3160.000000
145.099500 17312.000000
146.103700 2516.000000
147.079000 2340.000000
147.115400 14608.000000
148.085900 792.000000
148.118700 1736.000000
149.094800 6844.000000
149.130700 6504.000000
150.134700 848.000000
151.109300 916.000000
153.068200 324.000000
154.075100 432.000000
155.084100 4252.000000
156.090700 2952.000000
157.099700 11004.000000
158.104900 1920.000000
159.079000 1148.000000
159.115400 20028.000000
160.086100 416.000000
160.120600 3252.000000
161.094200 2840.000000
161.130800 12044.000000
162.100300 828.000000
162.133400 1420.000000
163.110500 6888.000000
163.147000 2356.000000
164.113600 1076.000000
164.151600 408.000000
167.084100 488.000000
168.090800 780.000000
169.099300 5132.000000
171.115100 11712.000000
172.119900 2688.000000
173.093100 852.000000
173.130400 8356.000000
174.101800 528.000000
174.136200 1620.000000
175.110400 3348.000000
175.147000 6712.000000
176.115200 800.000000
176.150200 984.000000
177.125800 7944.000000
177.161900 3256.000000
178.129300 1288.000000
181.101400 880.000000
182.106100 840.000000
183.115500 4524.000000
184.120700 1344.000000
185.131100 9664.000000
186.135900 2064.000000
187.111400 880.000000
187.146600 9076.000000
188.115500 308.000000
188.150800 1560.000000
189.126600 2632.000000
189.162400 7600.000000
190.130100 424.000000
190.167300 1120.000000
191.141900 1196.000000
192.144400 332.000000
195.115200 864.000000
196.122900 1340.000000
197.131000 4140.000000
198.136000 1096.000000
199.146600 4576.000000
200.118900 420.000000
200.152500 1080.000000
201.126300 1064.000000
201.162500 5012.000000
202.133600 1216.000000
202.168200 880.000000
203.140100 872.000000
203.177000 1540.000000
204.146900 308.000000
209.131600 528.000000
210.136300 1092.000000
211.147000 5724.000000
212.152600 1908.000000
213.126700 540.000000
213.159900 1108.000000
214.136000 436.000000
215.142900 2088.000000
215.177700 1848.000000
216.146300 872.000000
216.181400 468.000000
217.157100 388.000000
223.148100 744.000000
224.157200 408.000000
225.162600 2088.000000
226.167200 808.000000
227.177700 10244.000000
228.181300 2632.000000
229.157200 1380.000000
230.164400 520.000000
237.160900 792.000000
238.170200 640.000000
239.177100 940.000000
241.192800 880.000000
243.172500 548.000000
245.189400 2936.000000
246.193300 732.000000
252.185200 1504.000000
255.171600 432.000000
257.184800 320.000000
267.208900 4780.000000
268.212500 760.000000
270.197200 1032.000000
271.200400 372.000000
285.220400 2968.000000
286.226200 688.000000
303.229500 864.000000

>ms2
109.064800 848.000000
115.053100 2784.000000
116.060500 948.000000
117.068800 5340.000000
118.073900 572.000000
119.084600 10112.000000
121.063700 6780.000000
121.100200 5220.000000
122.067800 900.000000
122.104200 716.000000
123.079600 19920.000000
124.082700 1712.000000
127.055100 400.000000
128.060500 6188.000000
129.068400 7556.000000
130.076100 2672.000000
131.084100 11076.000000
132.089100 1852.000000
133.063900 1176.000000
133.099800 11512.000000
134.103800 1420.000000
135.079600 1312.000000
135.115700 2544.000000
136.118300 500.000000
137.094900 1708.000000
141.069100 4112.000000
142.076200 5152.000000
143.084000 9316.000000
144.091000 3988.000000
145.064600 748.000000
145.099600 9592.000000
146.070900 416.000000
147.078900 1416.000000
147.115400 4832.000000
148.085900 1936.000000
148.118900 936.000000
149.094200 3308.000000
149.130400 1156.000000
152.059500 300.000000
153.067900 1184.000000
154.075900 1672.000000
155.083900 5108.000000
156.091700 4260.000000
157.099700 6884.000000
158.105400 2236.000000
159.079100 504.000000
159.115800 6880.000000
160.088600 352.000000
161.095000 1828.000000
161.131400 2632.000000
162.102900 748.000000
163.110400 1488.000000
165.068600 464.000000
167.084700 1460.000000
168.091900 1388.000000
169.098800 3964.000000
170.107300 1616.000000
171.114900 4700.000000
172.121700 1648.000000
173.095500 596.000000
173.130600 2512.000000
174.101600 624.000000
174.137000 548.000000
175.109800 892.000000
175.146300 1196.000000
177.126300 1072.000000
177.162200 368.000000
180.090400 304.000000
181.100600 1576.000000
182.106900 1228.000000
183.115300 2504.000000
184.121100 820.000000
185.131500 3756.000000
186.138000 888.000000
187.110600 660.000000
187.146400 1940.000000
189.125000 708.000000
189.162000 444.000000
195.115900 928.000000
196.122100 884.000000
197.131300 2108.000000
198.138600 516.000000
199.111500 336.000000
199.147500 892.000000
200.121300 680.000000
200.151700 432.000000
201.126100 600.000000
201.161300 720.000000
202.134000 448.000000
209.133600 348.000000
211.146200 968.000000
212.154500 1296.000000
213.125100 1120.000000
213.164600 404.000000
214.133200 540.000000
215.141000 1096.000000
215.178500 304.000000
216.144000 320.000000
223.144400 456.000000
225.161500 688.000000
227.179300 948.000000
228.183800 464.000000
237.163600 972.000000
252.184300 540.000000
267.211100 388.000000

>ms2
55.053900 1960.000000
67.053800 6744.000000
69.069300 6600.000000
71.048400 2000.000000
79.054000 13368.000000
81.069700 22164.000000
83.048900 24688.000000
83.085000 2008.000000
85.064700 3488.000000
91.054500 5564.000000
93.070400 14648.000000
95.086000 39828.000000
96.088900 2988.000000
97.065500 311252.000000
98.068700 18756.000000
105.071100 7000.000000
107.086800 16276.000000
109.066500 205440.000000
110.069400 12348.000000
119.085700 13908.000000
121.064700 7664.000000
121.101400 16332.000000
122.104800 2072.000000
123.080300 22180.000000
123.115900 2088.000000
124.084100 2156.000000
131.084800 4880.000000
133.100800 14832.000000
135.079400 1660.000000
135.116000 10380.000000
137.096100 3628.000000
137.131400 2820.000000
143.084400 2824.000000
145.100300 8988.000000
147.116000 11736.000000
149.095000 6388.000000
149.132000 9312.000000
151.110900 1716.000000
155.084100 1648.000000
157.100200 7012.000000
159.116200 18212.000000
160.119400 2812.000000
161.094500 2580.000000
161.131600 15068.000000
162.134800 2408.000000
163.110700 7272.000000
163.147000 4632.000000
169.101000 2660.000000
171.116300 9452.000000
173.131800 9064.000000
175.110200 3384.000000
175.147500 14504.000000
177.126500 16644.000000
177.163100 18224.000000
178.130000 2452.000000
178.165300 3240.000000
183.115000 1864.000000
185.131900 12184.000000
186.134500 1812.000000
187.147300 8444.000000
188.151000 1996.000000
189.127000 4764.000000
189.163400 41012.000000
190.166800 5952.000000
191.143000 4916.000000
197.131900 4448.000000
199.147400 6828.000000
201.163200 10348.000000
202.166100 1868.000000
203.142700 1924.000000
203.179100 10504.000000
204.182500 1680.000000
211.148100 13264.000000
212.151700 2696.000000
215.141900 4276.000000
215.179000 7384.000000
225.163400 6628.000000
227.179600 35524.000000
228.183000 6668.000000
229.158600 8988.000000
230.161900 2012.000000
239.180300 1720.000000
241.195200 2188.000000
243.174600 3992.000000
243.211300 1692.000000
245.190400 33860.000000
246.193800 5340.000000
267.211300 49040.000000
268.214000 11628.000000
285.221800 108228.000000
286.225000 23464.000000
287.226900 1740.000000
303.232200 280128.000000
304.236000 79816.000000
305.239000 7320.000000

