>compound AU88324634
>parentmass 494.26630000000006
>ionization [M+H]+
>formula C29H31N7O
>rt 396.330000
>profile qtof
#smiles_iso CC1=C(C=C(C=C1)NC(=O)C2=CC=C(C=C2)CN3CCN(CC3)C)NC4=NC=CC(=N4)C5=CN=CC=C5
#smiles_can CC1=C(C=C(C=C1)NC(=O)C2=CC=C(C=C2)CN3CCN(CC3)C)NC4=NC=CC(=N4)C5=CN=CC=C5
#inchikey KTUFNOKKBVMGRW-UHFFFAOYSA-N
#pubchem_id 5291
#mb_accession AU274201,AU274202,AU274203,AU274204,AU274205,AU274206

>ms2
394.166100 2880.000000
494.266400 410036.000000
495.269400 129928.000000
496.270800 21056.000000

>ms2
217.132200 14164.000000
218.135600 2312.000000
394.165800 46420.000000
395.168400 12812.000000
396.172900 1900.000000
494.266300 357132.000000
495.269500 119920.000000
496.271400 19076.000000

>ms2
174.090900 2148.000000
189.137000 5008.000000
217.132700 101000.000000
218.135300 14500.000000
222.090600 3844.000000
379.144500 2032.000000
394.166300 309876.000000
395.168500 85656.000000
396.173900 12192.000000
397.185300 2096.000000
476.255100 7608.000000
477.256200 2320.000000
494.266700 156428.000000
495.269000 63300.000000
496.271700 9148.000000

>ms2
119.047900 3176.000000
131.059300 4120.000000
158.058500 2280.000000
174.090400 3280.000000
189.137300 6496.000000
194.096300 1964.000000
217.133000 36780.000000
218.136300 5676.000000
221.106200 5428.000000
222.090800 31740.000000
223.096600 9432.000000
238.109500 1884.000000
247.085900 8832.000000
264.112800 13572.000000
265.096300 13300.000000
266.100400 1988.000000
274.096600 1684.000000
290.128300 9140.000000
291.131000 2204.000000
351.123000 2260.000000
351.159700 5980.000000
366.171900 3872.000000
376.154100 4584.000000
377.139800 6792.000000
378.135500 5216.000000
379.142200 21064.000000
380.143600 4656.000000
394.166400 335148.000000
395.169000 89504.000000
396.172000 10988.000000
476.256200 4568.000000
494.267200 8672.000000
495.268200 2992.000000

>ms2
118.041400 820.000000
119.048200 4228.000000
121.075000 3036.000000
131.059300 14096.000000
132.044000 1144.000000
132.065900 3312.000000
133.069700 664.000000
146.069100 844.000000
146.096700 784.000000
156.054800 744.000000
158.058100 3076.000000
160.074000 1268.000000
167.084100 628.000000
173.081200 4504.000000
174.065400 988.000000
174.088600 1920.000000
179.083500 1100.000000
180.089500 700.000000
185.083600 852.000000
189.137000 2828.000000
194.095400 10532.000000
195.099100 2728.000000
204.079600 2844.000000
205.084800 668.000000
206.082500 6064.000000
207.067700 1368.000000
207.087600 800.000000
208.074700 696.000000
209.106500 636.000000
210.089600 756.000000
210.112100 664.000000
212.107900 1036.000000
217.132200 6408.000000
218.137200 716.000000
219.091300 2000.000000
220.097700 736.000000
221.106500 14760.000000
222.090700 74160.000000
223.096600 26524.000000
224.099700 4572.000000
232.063200 836.000000
237.102000 2104.000000
237.124900 1036.000000
238.109100 9976.000000
239.115700 1856.000000
247.086000 43476.000000
248.089400 9596.000000
249.099900 2644.000000
259.095900 1156.000000
260.104400 1512.000000
261.109800 1828.000000
262.103200 1000.000000
262.114200 736.000000
263.116900 3676.000000
264.112400 35772.000000
265.096000 27064.000000
266.099900 4860.000000
273.101900 952.000000
274.097200 3828.000000
275.103700 2092.000000
276.123500 3396.000000
277.109000 636.000000
277.128800 856.000000
290.128100 22316.000000
291.130900 5188.000000
349.143800 1344.000000
350.136100 2408.000000
351.124100 5416.000000
351.159700 7768.000000
352.137500 1420.000000
352.162100 2620.000000
353.137400 696.000000
359.128500 788.000000
361.130900 2364.000000
363.122400 920.000000
364.120200 764.000000
364.154700 2652.000000
365.128900 696.000000
365.165800 1256.000000
366.171000 12852.000000
367.157900 2832.000000
367.172700 3768.000000
368.156200 676.000000
368.171700 628.000000
376.154800 11976.000000
377.139700 10400.000000
378.135300 25724.000000
379.142000 49132.000000
380.143900 14064.000000
381.150700 1584.000000
394.166100 125076.000000
395.169000 39572.000000
396.171800 4364.000000
412.175700 788.000000
476.251400 1140.000000

>ms2
56.048900 1604.000000
58.064700 2408.000000
70.064300 3384.000000
99.091600 4664.000000
119.048400 1504.000000
131.059300 1700.000000
174.090100 2000.000000
189.136700 4472.000000
217.132400 56292.000000
218.135400 7848.000000
221.105700 2268.000000
222.090800 10088.000000
223.096800 2944.000000
247.084700 2836.000000
264.113600 4192.000000
265.096800 5172.000000
290.127100 3820.000000
351.158900 2124.000000
366.171500 2436.000000
376.153700 2320.000000
377.140200 3620.000000
378.137000 1664.000000
379.142100 6924.000000
380.144800 1876.000000
394.166300 265052.000000
395.168900 69276.000000
396.173300 11128.000000
476.258000 5480.000000
477.255500 1804.000000
494.266000 153228.000000
495.268800 58288.000000
496.270500 8144.000000

