>compound AU88270306
>parentmass 298.27410000000003
>ionization [M+H]+
>formula C18H35NO2
>rt 544.600000
>profile qtof
#smiles_iso CCCN(CC)CC1COC2(O1)CCC(CC2)C(C)(C)C
#smiles_can CCCN(CC)CC1COC2(O1)CCC(CC2)C(C)(C)C
#inchikey PUYXTUJWRLOUCW-UHFFFAOYSA-N
#pubchem_id 86160
#mb_accession AU257101,AU257102,AU257103,AU257104,AU257105,AU257106

>ms2
144.137300 72728.000000
298.274400 1707632.000000
299.277600 277304.000000
300.280500 22928.000000

>ms2
144.137100 865668.000000
145.140200 62736.000000
298.273500 459116.000000
299.276400 85604.000000
300.279500 7476.000000

>ms2
126.126600 5892.000000
144.137300 747388.000000
145.140400 56968.000000
298.273400 21668.000000
299.277200 4800.000000

>ms2
126.126500 5340.000000
144.137300 183508.000000
145.140400 16984.000000
160.131600 976.000000

>ms2
126.126800 1532.000000
128.142400 388.000000
144.137100 41484.000000
145.140300 5360.000000

>ms2
58.064600 6472.000000
72.080400 8972.000000
84.080000 1852.000000
100.113100 45008.000000
101.115700 3484.000000
126.126900 2836.000000
144.137400 347400.000000
145.141000 44916.000000
298.274200 124524.000000
299.277300 24332.000000
300.279500 2492.000000

