>compound AU88266513
>parentmass 250.18019999999993
>ionization [M+H]+
>formula C15H23NO2
>rt 236.970000
>profile qtof
#smiles_iso CN(C)C[C@H]1CCCC[C@@]1(C2=CC(=CC=C2)O)O
#smiles_can CN(C)CC1CCCCC1(C2=CC(=CC=C2)O)O
#inchikey UWJUQVWARXYRCG-HIFRSBDPSA-N
#pubchem_id 9838803
#mb_accession AU227001,AU227002,AU227003,AU227004,AU227005,AU227006,AU228701,AU228702,AU228703,AU228704,AU228705,AU228706

>ms2peaks
232.168900 20176.000000
250.180000 2073248.000000
251.183100 282228.000000
252.185200 21640.000000

>ms2peaks
145.063800 864.000000
187.110200 2548.000000
232.168700 10716.000000
233.172100 1756.000000
250.179500 72988.000000
251.182400 12436.000000
252.186200 1036.000000

>ms2peaks
121.064000 380.000000
131.048500 516.000000
133.062800 912.000000
145.063500 3776.000000
158.074000 316.000000
159.077700 1368.000000
187.109800 1368.000000
232.169700 928.000000
250.178200 340.000000

>ms2peaks
115.055200 600.000000
117.069100 400.000000
121.064000 408.000000
131.048500 796.000000
131.085300 496.000000
133.064200 808.000000
144.056600 544.000000
145.063000 2316.000000
158.071800 308.000000
159.079600 536.000000

>ms2peaks
115.053400 856.000000
117.068300 452.000000
121.028400 304.000000
127.054200 556.000000
128.062900 404.000000
129.069300 424.000000
131.047800 872.000000
133.064200 676.000000
141.067200 464.000000
144.055800 760.000000
145.063300 2308.000000
146.069600 784.000000
157.063000 760.000000
158.069300 392.000000
159.080000 368.000000

>ms2peaks
121.064000 380.000000
131.048500 516.000000
133.062800 912.000000
145.063500 3776.000000
158.074000 316.000000
159.077700 1368.000000
187.109800 1368.000000
232.169700 928.000000
250.178200 340.000000

>ms2peaks
232.168900 20176.000000
250.180000 2073248.000000
251.183100 282228.000000
252.185200 21640.000000

>ms2peaks
145.063800 864.000000
187.110200 2548.000000
232.168700 10716.000000
233.172100 1756.000000
250.179500 72988.000000
251.182400 12436.000000
252.186200 1036.000000

>ms2peaks
121.064000 380.000000
131.048500 516.000000
133.062800 912.000000
145.063500 3776.000000
158.074000 316.000000
159.077700 1368.000000
187.109800 1368.000000
232.169700 928.000000
250.178200 340.000000

>ms2peaks
115.055200 600.000000
117.069100 400.000000
121.064000 408.000000
131.048500 796.000000
131.085300 496.000000
133.064200 808.000000
144.056600 544.000000
145.063000 2316.000000
158.071800 308.000000
159.079600 536.000000

>ms2peaks
115.053400 856.000000
117.068300 452.000000
121.028400 304.000000
127.054200 556.000000
128.062900 404.000000
129.069300 424.000000
131.047800 872.000000
133.064200 676.000000
141.067200 464.000000
144.055800 760.000000
145.063300 2308.000000
146.069600 784.000000
157.063000 760.000000
158.069300 392.000000
159.080000 368.000000

>ms2peaks
121.064000 380.000000
131.048500 516.000000
133.062800 912.000000
145.063500 3776.000000
158.074000 316.000000
159.077700 1368.000000
187.109800 1368.000000
232.169700 928.000000
250.178200 340.000000

