>compound AU88592704
>parentmass 304.202
>ionization [M+H]+
>formula C17H25N3O2
>rt 197.676000
>profile qtof
#smiles_iso C1C[C@H](N(C1)C(=O)CNC23CC4CC(C2)CC(C4)(C3)O)C#N
#smiles_can C1CC(N(C1)C(=O)CNC23CC4CC(C2)CC(C4)(C3)O)C#N
#inchikey SYOKIDBDQMKNDQ-XWTIBIIYSA-N
#pubchem_id 6918537
#mb_accession AU226601,AU226602,AU226603,AU226604,AU226605

>ms2
151.112900 4088.000000
154.098400 96932.000000
155.100900 8320.000000
304.204800 649984.000000
305.207800 108828.000000
306.209600 8704.000000

>ms2
127.087100 4092.000000
133.101600 4244.000000
151.112400 75328.000000
152.115700 8032.000000
154.098400 480636.000000
155.101400 31264.000000
304.204800 149352.000000
305.207400 27348.000000
306.209700 2728.000000

>ms2
127.086800 4440.000000
133.101400 15908.000000
134.105000 1740.000000
151.112400 94184.000000
152.115700 10716.000000
154.098100 206268.000000
155.101000 16696.000000
304.203600 5988.000000

>ms2
123.116500 1100.000000
127.086700 1832.000000
131.087500 320.000000
133.101700 14240.000000
134.104100 1512.000000
151.112200 38260.000000
152.115500 6088.000000
154.097900 36548.000000
155.101000 3292.000000

>ms2
109.065400 340.000000
123.117800 656.000000
127.086800 352.000000
131.084400 444.000000
133.101400 7488.000000
134.105000 768.000000
151.112300 9516.000000
152.115800 1076.000000
154.097800 3704.000000

