>compound AU88873582
>parentmass 296.116
>ionization [M+H]+
>formula C14H18ClN3O2
>rt 597.310000
>profile qtof
#smiles_iso CC(C)(C)C(C(N1C=NC=N1)OC2=CC=C(C=C2)Cl)O
#smiles_can CC(C)(C)C(C(N1C=NC=N1)OC2=CC=C(C=C2)Cl)O
#inchikey BAZVSMNPJJMILC-UHFFFAOYSA-N
#pubchem_id 41368
#mb_accession AU258201,AU258202,AU258203,AU258204,AU258205,AU258206

>ms2peaks
144.135400 320.000000
203.104500 436.000000
209.072900 796.000000
221.117600 684.000000
227.081900 9120.000000
228.084900 1472.000000
229.079600 2908.000000
296.114400 8396.000000
297.117900 1772.000000
298.113200 2736.000000

>ms2peaks
127.011300 480.000000
144.136900 2868.000000
161.094500 312.000000
171.035100 328.000000
209.070300 748.000000
211.067400 308.000000
227.082600 1060.000000
229.080200 388.000000

>ms2peaks
128.014400 648.000000
141.008100 592.000000
144.137500 1612.000000

>ms2peaks
141.008900 472.000000
144.137100 664.000000

>ms2peaks
127.012200 788.000000
141.009200 424.000000

>ms2peaks
57.070300 932.000000
70.039500 26804.000000
71.036500 468.000000
71.043300 596.000000
99.080000 1264.000000
141.008500 396.000000
144.137100 2680.000000
161.094200 640.000000
165.054400 412.000000
203.104000 340.000000
209.070800 420.000000
227.082200 668.000000

