>compound AU88737273
>parentmass 200.1281
>ionization [M+H]+
>formula C10H17NO3
>rt 84.000000
>profile qtof
#smiles_iso CN1C2CCC1[C@H]([C@H](C2)O)C(=O)OC
#smiles_can CN1C2CCC1C(C(C2)O)C(=O)OC
#inchikey QIQNNBXHAYSQRY-ABIFROTESA-N
#pubchem_id 443844
#mb_accession AU161801,AU161802,AU161803,AU161804,AU161805

>ms2peaks
182.117000 61968.000000
183.120100 6604.000000
200.127800 812092.000000
201.130700 69416.000000
202.133200 5936.000000

>ms2peaks
119.048400 3292.000000
122.095700 3004.000000
124.111400 2100.000000
154.084800 6940.000000
156.100500 5248.000000
182.116900 386616.000000
183.119900 35756.000000
184.121300 2704.000000
200.127800 242460.000000
201.130700 24840.000000
202.133200 2452.000000

>ms2peaks
117.056800 640.000000
118.040400 1316.000000
119.048100 6484.000000
120.052200 792.000000
122.059100 1244.000000
122.095400 6392.000000
123.101200 700.000000
124.075300 804.000000
124.111500 2600.000000
125.058700 1076.000000
132.079400 1628.000000
135.067100 1836.000000
138.090600 704.000000
140.106000 1432.000000
150.090000 12780.000000
151.074600 1100.000000
151.092500 1476.000000
154.085000 11336.000000
155.088900 1380.000000
156.100300 2332.000000
168.100600 3444.000000
182.116800 109720.000000
183.119900 11340.000000
184.121600 960.000000
200.127300 15072.000000

>ms2peaks
117.057100 500.000000
118.040700 744.000000
119.048400 2360.000000
120.051600 304.000000
120.080600 472.000000
122.058400 1032.000000
122.095600 3408.000000
124.111700 396.000000
125.059100 836.000000
132.078700 540.000000
134.060600 552.000000
135.066500 1212.000000
138.053700 548.000000
140.105800 520.000000
150.090300 2476.000000
152.070200 528.000000
154.084900 3500.000000
168.101900 328.000000
182.116600 10668.000000
183.120100 1352.000000
200.126700 836.000000

>ms2peaks
117.057800 316.000000
119.049300 392.000000
122.059900 424.000000
122.094900 588.000000
135.066900 360.000000
138.053900 476.000000
152.069400 452.000000
154.085100 496.000000
182.116100 700.000000

