>compound AU89855312
>parentmass 370.1795
>ionization [M+H]+
>formula C17H27N3O4S
>rt 234.000000
>profile qtof
#smiles_iso CCN1CCCC1CNC(=O)C2=CC(=C(C=C2OC)N)S(=O)(=O)CC
#smiles_can CCN1CCCC1CNC(=O)C2=CC(=C(C=C2OC)N)S(=O)(=O)CC
#inchikey NTJOBXMMWNYJFB-UHFFFAOYSA-N
#pubchem_id 2159
#mb_accession AU214201,AU214202,AU214203,AU214204,AU214205

>ms2peaks
242.048200 486040.000000
370.181000 2442076.000000
371.182700 431420.000000
372.178400 85872.000000

>ms2peaks
112.111800 7984.000000
129.138000 6264.000000
155.116700 8292.000000
196.005700 3944.000000
214.015600 1264.000000
242.048400 486040.000000
243.050900 43580.000000
244.044900 13876.000000
370.181000 2442076.000000
371.182700 571232.000000
372.178400 109388.000000

>ms2peaks
112.111800 31668.000000
129.138000 18260.000000
155.116700 23376.000000
196.005800 59360.000000
214.016500 28084.000000
242.048500 2369172.000000
243.050900 315020.000000
244.044900 78848.000000
370.181000 677404.000000
371.182700 105108.000000
372.178400 24392.000000

>ms2peaks
112.111800 19136.000000
121.051200 10316.000000
149.046300 247792.000000
168.009900 20776.000000
177.994600 8320.000000
196.005800 2011576.000000
214.016400 297676.000000
242.048500 1530004.000000
243.050900 318372.000000
244.044900 78680.000000
370.181000 13956.000000

>ms2peaks
121.051200 10316.000000
149.046300 247792.000000
168.010500 133656.000000
177.994700 44692.000000
196.005800 2011576.000000
214.016400 297676.000000
242.048000 1530004.000000

