>compound AU89581419
>parentmass 271.1693
>ionization [M+H]+
>formula C18H22O2
>rt 536.310000
>profile qtof
#smiles_iso C[C@]12C=CC3=C4CCC(=O)C=C4CCC3C1CC[C@@H]2O
#smiles_can CC12C=CC3=C4CCC(=O)C=C4CCC3C1CCC2O
#inchikey MEHHPFQKXOUFFV-FOIPXRHGSA-N
#pubchem_id 44403745
#mb_accession AU282401,AU282402,AU282403,AU282404,AU282405,AU282406

>ms2peaks
253.158200 14408.000000
271.169300 2223800.000000
272.172200 464288.000000
273.175300 39356.000000

>ms2peaks
159.079200 18740.000000
189.126100 17720.000000
197.095300 28024.000000
198.101900 13072.000000
199.111000 127712.000000
200.114800 20480.000000
211.110700 22296.000000
214.134100 12912.000000
225.126400 20896.000000
227.142400 32972.000000
235.147400 15156.000000
253.158700 254160.000000
254.161700 42200.000000
271.169500 2281592.000000
272.172800 345308.000000
273.175700 30712.000000

>ms2peaks
115.053600 2876.000000
117.069100 3740.000000
119.084800 4268.000000
121.063900 5888.000000
128.061000 7832.000000
129.068900 13420.000000
130.074600 2264.000000
131.048100 4716.000000
131.084500 14112.000000
133.063700 28052.000000
133.100600 6436.000000
134.067000 3224.000000
135.079400 9516.000000
141.068800 16096.000000
142.075900 4740.000000
143.084400 20692.000000
144.056000 4412.000000
144.088400 2496.000000
145.063700 11952.000000
145.100400 22920.000000
146.069800 1924.000000
146.104600 4044.000000
147.079200 14712.000000
148.086800 8328.000000
149.094200 3788.000000
152.060900 2484.000000
153.069100 5260.000000
154.076700 4344.000000
155.084400 18984.000000
156.089600 4408.000000
157.063600 28800.000000
157.099800 10904.000000
159.079400 46076.000000
159.115700 5372.000000
160.082800 5668.000000
161.094900 9848.000000
162.100200 1880.000000
165.068600 9916.000000
166.076300 10116.000000
167.083700 16856.000000
168.090500 5064.000000
169.100000 23544.000000
170.070600 1904.000000
170.104900 4640.000000
171.079200 14284.000000
171.115600 14196.000000
172.085100 3332.000000
172.119000 3092.000000
173.094700 11596.000000
174.101000 2016.000000
175.109700 2524.000000
178.076700 7644.000000
179.084300 21224.000000
180.090400 8036.000000
181.062700 1856.000000
181.100100 19548.000000
182.105700 5620.000000
183.079600 14060.000000
183.116000 25016.000000
184.087000 13068.000000
184.119400 2812.000000
185.094800 27124.000000
185.131200 3240.000000
186.102400 12660.000000
187.110600 18752.000000
188.116100 4060.000000
189.126700 6140.000000
191.084700 2336.000000
192.091700 4128.000000
193.100500 17744.000000
194.106300 5960.000000
195.079600 2284.000000
195.116100 22124.000000
196.087200 5144.000000
196.121700 5616.000000
197.095000 42056.000000
197.131300 9332.000000
198.102500 33852.000000
198.136700 1800.000000
199.111100 224640.000000
200.116500 45756.000000
201.123600 6080.000000
205.099800 5928.000000
206.107700 4736.000000
207.115900 13932.000000
208.119700 2836.000000
209.094600 3308.000000
209.132000 15672.000000
210.102900 6900.000000
210.135400 4008.000000
211.110500 34912.000000
211.147200 13348.000000
212.117700 24864.000000
212.150600 2552.000000
213.125800 14448.000000
214.134600 54036.000000
215.139700 13808.000000
219.116200 1888.000000
220.123900 11736.000000
221.128700 2680.000000
223.111200 3420.000000
223.147200 4460.000000
224.118300 16244.000000
224.153500 1892.000000
225.126700 38136.000000
225.162800 5400.000000
226.130500 5912.000000
227.142600 80772.000000
228.147100 20304.000000
229.154500 3604.000000
233.131700 2496.000000
235.147700 25688.000000
236.151300 4992.000000
237.126800 3060.000000
238.134400 28896.000000
239.138400 6352.000000
242.129300 4252.000000
243.135000 2524.000000
243.174000 3500.000000
251.142800 2540.000000
253.158400 219828.000000
254.161800 36164.000000
255.163700 3140.000000
271.169100 352596.000000
272.172100 56772.000000
273.174800 5144.000000

>ms2peaks
115.053700 12584.000000
116.060400 3104.000000
117.068900 9268.000000
118.073400 1444.000000
119.084500 5004.000000
121.063500 4660.000000
123.079300 1104.000000
126.045500 820.000000
127.053800 2832.000000
128.061000 30168.000000
129.068700 36108.000000
130.075600 7736.000000
131.048100 10936.000000
131.084400 26204.000000
132.054700 3340.000000
132.088000 3060.000000
133.063800 32228.000000
133.099900 4228.000000
134.068200 4352.000000
135.079400 12320.000000
136.082800 1188.000000
141.068700 49648.000000
142.075900 19812.000000
143.084300 34944.000000
144.056000 15248.000000
144.089600 4408.000000
145.063300 22804.000000
145.099900 22804.000000
146.070800 5720.000000
146.104800 3328.000000
147.079200 13036.000000
148.086600 7676.000000
149.093800 1500.000000
152.060700 10132.000000
153.068400 23972.000000
154.075900 16132.000000
155.084100 50372.000000
156.090700 12072.000000
157.063500 55596.000000
157.100000 18044.000000
158.069900 13660.000000
158.103100 2624.000000
159.079100 40016.000000
159.116100 2988.000000
160.083800 5412.000000
161.094800 9980.000000
162.100900 1232.000000
165.068700 44240.000000
166.075800 35868.000000
167.084000 47048.000000
168.090600 18328.000000
169.063200 7444.000000
169.099700 35972.000000
170.071300 6224.000000
170.105600 7108.000000
171.079000 23684.000000
171.115600 11808.000000
172.085000 5668.000000
172.121000 1472.000000
173.094500 9760.000000
174.100900 2172.000000
175.110500 1644.000000
177.068600 1304.000000
178.076300 28016.000000
179.084000 44648.000000
180.090800 19980.000000
181.064000 5944.000000
181.099800 43520.000000
182.071300 8096.000000
182.105900 10376.000000
183.079000 25112.000000
183.115700 23748.000000
184.086600 22480.000000
184.120400 4648.000000
185.094800 49972.000000
185.130400 2928.000000
186.101600 23940.000000
187.109700 11536.000000
188.117100 2136.000000
189.125000 1176.000000
190.076100 1544.000000
191.084400 9268.000000
192.092400 13624.000000
193.099600 19468.000000
194.071100 1652.000000
194.106600 9852.000000
195.079100 8780.000000
195.115500 23944.000000
196.086600 9612.000000
196.123000 7516.000000
197.094900 40496.000000
197.131800 5904.000000
198.102300 37048.000000
199.110800 163000.000000
200.117200 54888.000000
201.122200 7608.000000
202.127500 836.000000
203.083200 1348.000000
204.091000 1476.000000
205.099700 14164.000000
206.106500 6036.000000
207.115700 16420.000000
208.088800 1120.000000
208.120700 3536.000000
209.095200 10816.000000
209.131700 11964.000000
210.102500 9820.000000
210.135700 3060.000000
211.110500 22464.000000
211.146700 7448.000000
212.118000 21140.000000
212.150800 1232.000000
213.125800 18196.000000
214.134200 40112.000000
215.139300 8688.000000
218.108200 1412.000000
219.115500 4608.000000
220.124100 10316.000000
221.129700 4944.000000
222.102400 1088.000000
222.137400 1772.000000
223.110600 10596.000000
223.147300 2744.000000
224.117500 10764.000000
224.151700 1436.000000
225.126000 20192.000000
225.162300 1748.000000
226.130700 4236.000000
227.142000 34124.000000
228.147200 8860.000000
229.154200 1408.000000
233.131000 1200.000000
235.147800 12196.000000
236.117200 2192.000000
236.150800 2544.000000
237.127000 11052.000000
238.134100 28188.000000
239.139100 6316.000000
240.147900 1048.000000
242.128500 1768.000000
243.136200 1300.000000
251.142100 1836.000000
252.151200 1264.000000
253.158100 40152.000000
254.161400 7676.000000
256.143000 1400.000000
271.168300 17772.000000
272.172100 3884.000000

>ms2peaks
115.053600 27312.000000
116.059900 5692.000000
117.069000 11644.000000
118.074000 1588.000000
119.049500 516.000000
119.085400 3604.000000
120.055600 472.000000
121.063200 2092.000000
126.045400 1880.000000
127.053200 6324.000000
128.061200 58728.000000
129.068900 45608.000000
130.074900 10092.000000
131.048000 13212.000000
131.084500 15276.000000
132.055100 4056.000000
132.088800 1516.000000
133.063600 17912.000000
133.100400 1944.000000
134.067800 2492.000000
135.079000 5540.000000
136.082100 520.000000
139.053200 1720.000000
140.059900 868.000000
141.068900 79112.000000
142.075600 31052.000000
143.084300 27992.000000
144.055700 22780.000000
144.088600 4668.000000
145.063300 23844.000000
145.099700 8660.000000
146.070200 5796.000000
146.103900 1208.000000
147.079000 6876.000000
148.086400 3428.000000
149.093100 560.000000
151.054000 1368.000000
152.060800 31400.000000
153.068600 46160.000000
154.075800 29544.000000
155.084300 55876.000000
156.090200 14268.000000
157.063600 45072.000000
157.099400 14244.000000
158.069900 11776.000000
158.104800 2012.000000
159.079000 17720.000000
159.114900 1148.000000
161.094600 4356.000000
162.099800 808.000000
163.055800 536.000000
164.060200 1524.000000
165.068900 91228.000000
166.075800 57640.000000
167.084000 65304.000000
168.056300 1640.000000
168.090200 20180.000000
169.063800 12096.000000
169.099800 26092.000000
170.071400 9212.000000
170.105600 4468.000000
171.079100 19660.000000
171.115300 5436.000000
172.085500 4956.000000
172.120600 904.000000
173.094200 3724.000000
174.101600 980.000000
176.060100 1556.000000
177.068400 3384.000000
178.076400 42704.000000
179.084200 49468.000000
180.090800 16032.000000
181.063800 9624.000000
181.099500 40124.000000
182.071100 9680.000000
182.105200 9184.000000
183.078700 25008.000000
183.115100 9708.000000
184.086100 16304.000000
184.119000 2172.000000
185.094400 34068.000000
186.101200 12300.000000
187.109400 4452.000000
188.115400 692.000000
189.068500 2152.000000
190.076300 4980.000000
191.084300 15972.000000
192.091900 14464.000000
193.099500 14820.000000
194.071000 4272.000000
194.106600 5868.000000
195.079500 9808.000000
195.115800 10904.000000
196.086800 6636.000000
196.120400 2744.000000
197.094900 23696.000000
197.132500 2312.000000
198.102300 13740.000000
199.110800 81652.000000
200.116800 22140.000000
201.087400 504.000000
201.121400 3108.000000
202.076000 1404.000000
203.084000 3944.000000
204.091900 4028.000000
205.100100 12708.000000
206.105000 3676.000000
207.081200 1132.000000
207.115600 6764.000000
208.087000 2592.000000
208.120200 1848.000000
209.094900 9184.000000
209.131000 3272.000000
210.101900 4768.000000
210.136400 1376.000000
211.110000 8508.000000
211.147300 1304.000000
212.118200 5404.000000
213.126500 8612.000000
214.133000 7444.000000
215.139300 1532.000000
217.099200 1488.000000
218.106700 1448.000000
219.116100 5144.000000
220.122000 3444.000000
221.094100 820.000000
221.131200 3192.000000
222.100500 972.000000
222.136900 496.000000
223.110500 6796.000000
223.147200 840.000000
224.116000 2328.000000
225.126400 3768.000000
226.130200 1028.000000
227.107000 828.000000
227.142200 4012.000000
228.147200 1408.000000
235.108200 924.000000
235.145600 1744.000000
236.117100 664.000000
236.152100 500.000000
237.126000 8116.000000
238.132900 5564.000000
239.139800 1992.000000
253.158400 2312.000000
254.162100 576.000000
255.134000 696.000000

>ms2peaks
67.053500 4024.000000
79.053600 5640.000000
81.069400 6980.000000
83.048800 28972.000000
91.054100 4724.000000
93.070000 7512.000000
95.085700 5096.000000
105.070900 6232.000000
107.050200 12256.000000
107.086200 6220.000000
119.085600 3828.000000
121.064700 4880.000000
129.069100 5936.000000
131.084800 7812.000000
133.064200 14968.000000
133.100700 4260.000000
135.080000 6004.000000
141.068800 5812.000000
143.084900 9800.000000
145.063400 5736.000000
145.100400 12384.000000
147.079400 6956.000000
148.087300 3460.000000
155.084200 7756.000000
157.063600 14164.000000
157.100000 5436.000000
159.079700 26408.000000
161.094900 5644.000000
165.068800 3916.000000
166.076700 3372.000000
167.084600 7848.000000
169.100100 10788.000000
171.079200 8884.000000
171.115900 7372.000000
173.095100 5316.000000
179.084500 12720.000000
180.091400 3904.000000
181.100100 10496.000000
183.079400 8220.000000
183.115800 11412.000000
184.087200 6428.000000
185.095000 14400.000000
186.102500 5492.000000
187.110700 9904.000000
189.126500 8804.000000
193.100200 7612.000000
195.115700 9544.000000
197.095200 29552.000000
197.131800 4564.000000
198.102800 17664.000000
199.111000 136104.000000
200.116100 27708.000000
201.123100 3648.000000
207.116000 7808.000000
209.131800 9268.000000
211.111200 25380.000000
211.147300 8296.000000
212.118000 15272.000000
213.125600 7588.000000
214.134900 30060.000000
215.140500 7140.000000
220.124400 4896.000000
224.118900 7324.000000
225.126700 23432.000000
227.142800 48596.000000
228.147700 10476.000000
235.147700 14112.000000
238.134800 15544.000000
253.158800 165656.000000
254.162000 30696.000000
271.169700 661448.000000
272.173100 127188.000000
273.176300 10648.000000

