>compound AU89054245
>parentmass 185.1073
>ionization [M+H]+
>formula C12H12N2
>rt 239.030000
>profile qtof
#smiles_iso C1=CC(=CC=C1C2=CC=C(C=C2)N)N
#smiles_can C1=CC(=CC=C1C2=CC=C(C=C2)N)N
#inchikey HFACYLZERDEVSX-UHFFFAOYSA-N
#pubchem_id 7111
#mb_accession AU243301,AU243302,AU243303,AU243304,AU243305,AU243306

>ms2
167.071300 2516.000000
168.079500 11708.000000
169.083100 2548.000000
183.090300 8084.000000
184.098600 316876.000000
185.106200 412328.000000
186.109400 37884.000000
187.112400 2080.000000

>ms2
130.063700 3244.000000
141.068200 11816.000000
143.071200 3624.000000
144.078700 4096.000000
151.052800 2848.000000
156.078900 9880.000000
157.086200 4788.000000
158.094100 3284.000000
166.063200 6736.000000
167.071200 50268.000000
168.079100 139200.000000
169.084300 23540.000000
182.083000 2660.000000
183.090000 25060.000000
184.098300 530140.000000
185.104700 170464.000000
186.108300 18056.000000

>ms2
115.052900 5064.000000
117.056500 4164.000000
127.053700 1188.000000
128.060400 4428.000000
129.068300 3144.000000
130.064200 13100.000000
131.070900 1656.000000
132.079900 1212.000000
139.052900 9404.000000
140.049300 4068.000000
140.060400 4568.000000
141.068600 24112.000000
142.067500 2336.000000
143.071600 10080.000000
144.078300 3324.000000
150.045200 2876.000000
151.052900 7108.000000
152.060100 6804.000000
153.055700 7400.000000
154.063500 2904.000000
155.058900 2688.000000
156.079400 42572.000000
157.085900 15572.000000
158.083700 6136.000000
166.063800 28128.000000
167.071700 158488.000000
168.078600 66344.000000
169.084900 17240.000000
170.087400 2676.000000
179.059100 7124.000000
181.076300 1664.000000
182.082500 15424.000000
183.090400 66740.000000
184.098300 234896.000000
185.102000 34936.000000
186.106200 2396.000000

>ms2
115.053400 12836.000000
116.057600 1868.000000
117.056500 7740.000000
118.060600 976.000000
125.038000 908.000000
126.044500 2340.000000
127.052500 2140.000000
128.048800 2008.000000
128.060800 8620.000000
129.068400 6676.000000
130.064000 16496.000000
131.068200 2604.000000
132.078400 796.000000
139.053000 31120.000000
140.048800 10472.000000
140.059100 12984.000000
141.056100 4676.000000
141.068400 18248.000000
142.065100 4028.000000
143.071300 8808.000000
150.045200 10736.000000
151.052000 9440.000000
152.060400 11020.000000
153.055800 6912.000000
154.063600 5052.000000
155.059100 4556.000000
156.079300 56464.000000
157.084600 9604.000000
158.083400 3536.000000
165.055600 1100.000000
166.063800 52676.000000
167.071500 143028.000000
168.076200 24544.000000
170.086900 1116.000000
179.059000 6584.000000
181.074800 4984.000000
182.082400 23048.000000
183.089900 31428.000000
184.097600 37668.000000
185.101300 4912.000000

>ms2
113.038800 380.000000
114.045900 532.000000
115.053200 10116.000000
116.048900 956.000000
116.056700 1580.000000
117.056700 3020.000000
118.061100 500.000000
125.037600 1828.000000
126.044800 3272.000000
127.040300 456.000000
127.052300 2536.000000
128.050000 2024.000000
128.060600 9912.000000
129.067900 4052.000000
130.063800 12492.000000
131.067100 1164.000000
132.080200 300.000000
137.037800 344.000000
138.044900 604.000000
139.052700 48880.000000
140.048700 15392.000000
141.055900 6444.000000
141.067300 4576.000000
142.063200 2104.000000
143.057400 596.000000
143.071500 2652.000000
144.075300 376.000000
149.037600 360.000000
150.045100 14172.000000
151.051100 4492.000000
152.060400 6772.000000
153.056700 3516.000000
154.063600 6600.000000
155.059800 3636.000000
156.079200 18488.000000
157.081500 2864.000000
158.082300 872.000000
164.047800 856.000000
165.055800 1728.000000
166.063800 34908.000000
167.071000 42804.000000
168.074400 7516.000000
179.058900 2912.000000
180.060900 672.000000
181.074500 5500.000000
182.082300 8812.000000
183.089500 5360.000000
184.097600 2884.000000
185.102500 400.000000

>ms2
93.057800 3416.000000
130.064200 2856.000000
139.053300 1724.000000
141.068800 14560.000000
143.071600 4348.000000
144.079900 3540.000000
151.052200 3176.000000
152.060200 2468.000000
153.056800 2404.000000
156.079700 10304.000000
157.087100 5924.000000
158.085300 1700.000000
158.094500 3216.000000
166.063800 5988.000000
167.071900 68152.000000
168.079700 103548.000000
169.085300 16368.000000
170.083700 2100.000000
179.058800 2388.000000
182.082600 2644.000000
183.090500 30656.000000
184.098500 325996.000000
185.105300 152008.000000
186.108900 13356.000000

