>compound AU89465128
>parentmass 215.09610000000004
>ionization [M+H]+
>formula C8H14N4OS
>rt 414.000000
>profile qtof
#smiles_iso CC(C)(C)C1=NN=C(N(C1=O)N)SC
#smiles_can CC(C)(C)C1=NN=C(N(C1=O)N)SC
#inchikey FOXFZRUHNHCZPX-UHFFFAOYSA-N
#pubchem_id 30479
#mb_accession AU313001,AU313002,AU313003,AU313004,AU313005

>ms2
187.100200 17280.000000
215.095600 1195452.000000
216.098300 94076.000000
217.091900 30364.000000

>ms2
130.067800 3512.000000
131.026500 2792.000000
131.037600 6824.000000
145.053200 19200.000000
153.076300 2280.000000
155.062800 2892.000000
167.091800 3908.000000
171.057500 8252.000000
183.044900 3348.000000
184.052800 8728.000000
186.080800 8876.000000
187.100600 171880.000000
188.102600 13360.000000
189.096600 6412.000000
200.072400 4604.000000
215.095600 450216.000000
216.098300 35416.000000
217.091900 14352.000000

>ms2
114.035800 424.000000
114.995400 504.000000
116.014600 344.000000
122.070500 348.000000
123.055000 636.000000
123.077800 384.000000
124.086700 492.000000
125.068800 792.000000
125.081500 1224.000000
127.085100 932.000000
130.029200 1248.000000
130.069000 468.000000
131.037600 11028.000000
132.038800 716.000000
133.034300 632.000000
136.048500 688.000000
137.055700 312.000000
138.066100 564.000000
139.031400 608.000000
139.096200 864.000000
140.038800 1832.000000
140.104300 392.000000
143.061900 736.000000
145.052900 8944.000000
146.056400 856.000000
147.048600 456.000000
150.064100 764.000000
152.079900 316.000000
153.076000 2960.000000
154.041900 676.000000
155.050300 1484.000000
155.062100 1856.000000
156.057600 3388.000000
156.073200 336.000000
157.043700 844.000000
157.056100 544.000000
159.031300 664.000000
167.090800 636.000000
168.020800 612.000000
171.057100 6960.000000
171.082400 668.000000
172.061400 884.000000
172.077100 2020.000000
173.054600 404.000000
173.081400 408.000000
182.035400 652.000000
183.044900 2336.000000
184.052500 10992.000000
185.054700 1348.000000
186.080900 1064.000000
187.100000 37020.000000
188.102500 3152.000000
189.096000 2196.000000
200.072600 1036.000000
215.095000 13640.000000

>ms2
125.068800 424.000000
130.029400 936.000000
131.037800 2260.000000
139.032000 680.000000
139.098100 408.000000
140.039800 1092.000000
141.035500 632.000000
143.062300 368.000000
145.053300 1684.000000
153.076700 520.000000
154.042500 744.000000
155.053000 336.000000
155.065700 412.000000
156.058100 2584.000000
157.056000 388.000000
170.071700 324.000000
171.058800 1424.000000
172.061300 312.000000
172.077100 408.000000
182.036500 452.000000
183.042400 392.000000
184.053100 1908.000000
185.057500 312.000000
187.101000 1660.000000
215.094800 336.000000

>ms2
130.030200 424.000000
139.032500 432.000000
140.039000 540.000000
141.035700 764.000000
156.057700 1048.000000

