>compound AU89649268
>parentmass 331.1435
>ionization [M+H]+
>formula C13H22N4O4S
>rt 108.000000
>profile qtof
#smiles_iso CN/C(=C\[N+](=O)[O-])/NCCS(=O)CC1=CC=C(O1)CN(C)C
#smiles_can CNC(=C[N+](=O)[O-])NCCS(=O)CC1=CC=C(O1)CN(C)C
#inchikey SKHXRNHSZTXSLP-UKTHLTGXSA-N
#pubchem_id 3033889
#mb_accession AU219301,AU219302,AU219303,AU219304,AU219305

>ms2
130.054700 2780.000000
139.096300 7456.000000
192.042800 2508.000000
268.074400 2360.000000
286.085100 3452.000000
331.143700 380304.000000
332.146600 45380.000000
333.141200 13624.000000

>ms2
110.096100 1472.000000
130.055600 6380.000000
138.090300 238740.000000
139.093400 29472.000000
140.100600 2288.000000
143.015000 5580.000000
144.074900 2032.000000
146.050300 1904.000000
156.100800 4932.000000
176.047800 10408.000000
188.072500 7376.000000
192.042300 23608.000000
194.057100 1996.000000
222.080700 6044.000000
223.085500 1224.000000
240.093600 1732.000000
268.073200 1280.000000
286.085000 4072.000000
331.143500 10364.000000

>ms2
110.095600 2460.000000
123.065900 472.000000
125.003800 720.000000
130.057300 4688.000000
131.061700 748.000000
138.090200 76908.000000
140.100700 564.000000
143.014600 3708.000000
144.074300 784.000000
146.049600 4784.000000
147.057000 1664.000000
176.047800 1792.000000
191.115800 876.000000
192.042600 8144.000000
192.124100 1020.000000
193.049600 1696.000000
194.039100 472.000000
194.055500 604.000000
221.071800 444.000000
222.082100 1476.000000
223.089700 1864.000000
240.093100 1004.000000

>ms2
108.081300 436.000000
110.095400 1460.000000
111.098100 348.000000
123.067100 460.000000
125.004500 952.000000
129.046700 388.000000
130.056800 3248.000000
131.061300 1104.000000
135.090200 600.000000
138.090100 19920.000000
143.014300 1248.000000
146.049500 2728.000000
147.057400 912.000000
149.106100 652.000000
176.046800 536.000000
177.053200 424.000000
177.101100 408.000000
191.116600 752.000000
192.043100 1664.000000
192.123200 332.000000
193.049900 536.000000
223.089500 1052.000000

>ms2
110.096200 620.000000
121.072500 304.000000
123.066600 324.000000
125.004300 612.000000
129.047300 460.000000
130.055100 1424.000000
131.062200 400.000000
132.043400 348.000000
138.090500 6232.000000
139.093400 496.000000
146.049200 748.000000
147.058100 316.000000
148.074400 360.000000
149.106800 340.000000
191.116100 600.000000
192.046200 364.000000

