>compound AU89580790
>parentmass 335.173
>ionization [M+Na]+
>formula C19H24N2O2
>rt 550.060000
>profile qtof
#smiles_iso C1CCC(CC1)C(=O)N2CC3C4=CC=CC=C4CCN3C(=O)C2
#smiles_can C1CCC(CC1)C(=O)N2CC3C4=CC=CC=C4CCN3C(=O)C2
#inchikey FSVJFNAIGNNGKK-UHFFFAOYSA-N
#pubchem_id 4891
#mb_accession AU220230,AU220231,AU220232

>ms2
335.175100 44996.000000
336.178300 8780.000000
337.182800 1528.000000

>ms2
215.131000 372.000000
335.175100 26064.000000
336.179200 5244.000000

>ms2
335.174300 1760.000000

