>compound AU89723908
>parentmass 411.1081
>ionization [M+H]+
>formula C15H18N6O6S
>rt 402.960000
>profile qtof
#smiles_iso CN(C)C(=O)C1=C(N=CC=C1)S(=O)(=O)NC(=O)NC2=NC(=CC(=N2)OC)OC
#smiles_can CN(C)C(=O)C1=C(N=CC=C1)S(=O)(=O)NC(=O)NC2=NC(=CC(=N2)OC)OC
#inchikey RTCOGUMHFFWOJV-UHFFFAOYSA-N
#pubchem_id 73281
#mb_accession AU253201,AU253202,AU253203,AU253204,AU253205,AU253206

>ms2
156.076000 4360.000000
182.055100 55392.000000
183.057900 4328.000000
213.032400 35272.000000
214.035700 3736.000000
215.029500 2120.000000
230.058400 11228.000000
231.061800 1124.000000
256.038800 1364.000000
259.082700 1140.000000
304.140000 3648.000000
366.050400 16652.000000
367.053000 3180.000000
368.048400 1084.000000
411.109000 203848.000000
412.110900 39740.000000
413.107800 12704.000000

>ms2
156.075800 23680.000000
157.059800 2544.000000
182.055400 354740.000000
183.057900 31528.000000
184.060500 2920.000000
213.032300 183524.000000
214.035100 19676.000000
215.028200 7484.000000
230.058800 6208.000000
256.038200 10100.000000
259.081700 8684.000000
304.141000 3164.000000
366.050600 12728.000000
367.053400 2208.000000
411.107200 12296.000000
412.111800 2736.000000

>ms2
139.048900 7192.000000
156.075200 26972.000000
157.059300 10172.000000
157.078200 1676.000000
182.055100 317024.000000
183.057900 29508.000000
184.059400 2900.000000
213.032100 96224.000000
214.035600 9388.000000
215.029000 3768.000000
256.037800 2544.000000
259.081200 5408.000000

>ms2
139.049100 16940.000000
140.051800 1448.000000
156.075000 20320.000000
157.059300 25108.000000
157.077400 2272.000000
158.062200 2140.000000
182.054900 215912.000000
183.057600 21412.000000
184.058900 1584.000000
213.031700 27272.000000
214.034000 2824.000000
215.028700 1108.000000
259.081700 3396.000000

>ms2
124.049700 948.000000
126.017400 740.000000
138.027800 600.000000
138.065500 568.000000
139.048900 30976.000000
140.052100 2756.000000
141.051500 1144.000000
147.016100 772.000000
150.028300 860.000000
156.075000 14844.000000
157.059300 35448.000000
158.062500 3252.000000
167.031700 772.000000
178.059800 592.000000
182.054700 112112.000000
183.057700 9804.000000
184.060000 912.000000
213.031000 4688.000000
214.036000 848.000000
259.082300 1568.000000

>ms2
83.023600 1464.000000
106.029300 5492.000000
139.049900 3680.000000
156.076400 27396.000000
157.060400 8312.000000
157.080000 2176.000000
182.056200 230236.000000
183.058600 27912.000000
184.060000 2856.000000
213.033300 96464.000000
214.035800 11560.000000
215.030100 4012.000000
256.038600 3664.000000
259.082800 6408.000000
366.048000 2016.000000

