>compound AU89596318
>parentmass 207.14920000000004
>ionization [M+H]+
>formula C12H18N2O
>rt 493.770000
>profile qtof
#smiles_iso CC(C)C1=CC=C(C=C1)NC(=O)N(C)C
#smiles_can CC(C)C1=CC=C(C=C1)NC(=O)N(C)C
#inchikey PUIYMUZLKQOUOZ-UHFFFAOYSA-N
#pubchem_id 36679
#mb_accession AU351801,AU351802,AU351803,AU351804,AU351805,AU351806

>ms2
165.101100 28340.000000
207.148600 876208.000000
208.151600 88204.000000
209.154300 5536.000000

>ms2
119.070700 696.000000
120.044200 972.000000
132.079300 340.000000
134.095500 13344.000000
135.098900 1340.000000
137.080300 440.000000
162.090500 6312.000000
163.094300 812.000000
164.092200 1136.000000
165.101300 48100.000000
167.107600 540.000000
192.123300 356.000000
193.130300 788.000000
207.148600 56088.000000
208.151600 9176.000000
209.154300 536.000000

>ms2
115.054200 640.000000
117.070000 632.000000
118.064500 844.000000
119.072800 1484.000000
120.043800 828.000000
132.080000 660.000000
134.095700 11616.000000
135.099300 1228.000000
137.081200 332.000000
162.089100 1804.000000
164.092000 1164.000000
165.101400 3220.000000
207.149000 1040.000000

>ms2
115.053800 788.000000
117.068600 560.000000
118.063800 1336.000000
119.072100 2388.000000
132.079600 528.000000
134.095400 3744.000000
135.100100 452.000000
164.091800 464.000000

>ms2
115.053100 460.000000
117.056400 468.000000
118.064900 952.000000
119.070600 884.000000
134.095800 712.000000

>ms2
46.065100 51880.000000
72.044200 825244.000000
73.047300 24304.000000
134.095600 43288.000000
162.090000 14536.000000
165.101300 116388.000000
166.103800 13292.000000
207.148700 202032.000000
208.151600 24292.000000

