>compound AU89910343
>parentmass 301.1183
>ionization [M+H]+
>formula C16H16N2O4
>rt 510.000000
>profile qtof
#smiles_iso CCOC(=O)NC1=CC(=CC=C1)OC(=O)NC2=CC=CC=C2
#smiles_can CCOC(=O)NC1=CC(=CC=C1)OC(=O)NC2=CC=CC=C2
#inchikey WZJZMXBKUWKXTQ-UHFFFAOYSA-N
#pubchem_id 24743
#mb_accession AU373801,AU373802,AU373803,AU373804,AU373805

>ms2peaks
136.038300 8904.000000
137.042100 832.000000
154.048400 5788.000000
155.052600 568.000000
164.067700 396.000000
182.080200 59648.000000
183.083000 6888.000000
184.085200 840.000000
261.004200 316.000000
301.118400 1312.000000

>ms2peaks
133.084000 672.000000
136.038500 35016.000000
137.041600 3436.000000
146.061800 356.000000
154.049100 27616.000000
155.051900 2320.000000
156.053400 320.000000
164.069600 1452.000000
182.079900 21212.000000
183.084100 2380.000000
184.085100 300.000000

>ms2peaks
136.038300 31824.000000
137.041300 3008.000000
146.058400 404.000000
154.048600 12312.000000
155.051600 1480.000000
164.069200 1004.000000
182.079700 5736.000000
183.083600 408.000000

>ms2peaks
136.038400 25740.000000
137.041100 2356.000000
146.060100 336.000000
154.048700 5336.000000
155.051500 472.000000
164.071800 324.000000
182.079500 928.000000

>ms2peaks
136.038300 10124.000000
137.042200 1088.000000
146.058400 300.000000
154.048600 652.000000

