>compound AU89749495
>parentmass 345.24240000000003
>ionization [M+H]+
>formula C22H32O3
>rt 642.090000
>profile qtof
#smiles_iso C[C@H]1C[C@@H]2[C@H](CC[C@]3([C@H]2CC[C@@]3(C(=O)C)O)C)[C@@]4(C1=CC(=O)CC4)C
#smiles_can CC1CC2C(CCC3(C2CCC3(C(=O)C)O)C)C4(C1=CC(=O)CC4)C
#inchikey FRQMUZJSZHZSGN-HBNHAYAOSA-N
#pubchem_id 10631
#mb_accession AU239501,AU239502,AU239503,AU239504,AU239505,AU239506

>ms2peaks
123.079600 6592.000000
327.232100 7168.000000
345.242600 739252.000000
346.245900 156324.000000
347.248000 22412.000000

>ms2peaks
123.080000 118516.000000
124.083400 11048.000000
137.095400 9384.000000
145.100400 3704.000000
147.116800 3328.000000
159.115900 3224.000000
161.132000 2636.000000
163.111000 4288.000000
171.116100 2616.000000
173.131600 5336.000000
175.146900 5832.000000
177.126800 4360.000000
187.147900 3556.000000
189.126500 3836.000000
191.142300 5116.000000
197.132100 2672.000000
199.147400 3292.000000
203.142300 4288.000000
205.158500 7988.000000
213.163500 2948.000000
215.142500 3660.000000
217.158700 3948.000000
225.162900 2544.000000
227.179100 3412.000000
229.158300 2728.000000
231.174800 4560.000000
245.189200 4120.000000
257.153700 11448.000000
267.210200 14824.000000
268.213600 3556.000000
269.190300 4260.000000
275.163700 18448.000000
276.166700 3108.000000
283.205500 3108.000000
284.213100 3172.000000
285.221200 21624.000000
286.224700 4792.000000
291.210300 3520.000000
309.220900 20904.000000
310.225000 5244.000000
327.232100 49204.000000
328.235300 11520.000000
345.243100 479044.000000
346.246400 107420.000000
347.248500 11936.000000

>ms2peaks
119.085000 3204.000000
121.065200 1156.000000
121.100400 2440.000000
123.079800 199164.000000
124.083100 16292.000000
131.084300 3740.000000
133.100200 6812.000000
135.079700 3128.000000
135.116200 2856.000000
137.095000 20600.000000
138.098100 2308.000000
143.084400 2820.000000
145.099800 10424.000000
146.103200 1260.000000
147.079200 1588.000000
147.115600 9224.000000
148.120100 1024.000000
149.094600 2948.000000
149.131600 1808.000000
151.111000 1736.000000
157.099700 4472.000000
159.115600 8960.000000
160.119100 1552.000000
161.094800 2868.000000
161.131400 8544.000000
163.110300 5952.000000
163.146700 1896.000000
169.099800 2776.000000
171.115600 7188.000000
172.118200 1164.000000
173.131400 12468.000000
174.134700 2340.000000
175.110700 5228.000000
175.146900 10076.000000
176.150300 1152.000000
177.126200 6516.000000
183.115900 2868.000000
185.131600 5400.000000
186.135100 1116.000000
187.110900 3244.000000
187.147000 6200.000000
189.126200 6820.000000
189.162900 2572.000000
190.129400 1308.000000
191.141700 8056.000000
195.114400 1628.000000
197.131700 5604.000000
198.136800 1512.000000
199.111700 1144.000000
199.147100 7924.000000
200.151300 1512.000000
201.126300 1524.000000
201.162600 3288.000000
203.142100 6176.000000
203.177800 1692.000000
204.146700 1172.000000
205.157500 5696.000000
206.162700 1108.000000
209.132100 1224.000000
211.147300 5468.000000
212.152100 1000.000000
213.127100 1676.000000
213.162900 3852.000000
214.134400 4568.000000
215.142100 9412.000000
215.178900 1052.000000
216.146000 1360.000000
217.158000 5896.000000
218.161500 1060.000000
223.147300 2100.000000
225.163600 5320.000000
226.169500 1432.000000
227.142700 1280.000000
227.178900 5356.000000
228.182900 1056.000000
229.157800 3064.000000
231.173000 2084.000000
235.148200 1004.000000
237.161900 1112.000000
239.141700 4244.000000
239.178000 2480.000000
241.158700 1764.000000
241.194000 1628.000000
243.174200 3024.000000
245.190000 2320.000000
251.179700 3060.000000
253.157000 1620.000000
255.174100 1608.000000
257.153300 13324.000000
257.189000 1588.000000
258.155400 2668.000000
259.204300 1012.000000
265.192500 1908.000000
266.202400 2824.000000
267.175400 1176.000000
267.210700 14764.000000
268.214700 3508.000000
269.189100 4320.000000
270.193000 1152.000000
275.163400 9072.000000
276.167000 1484.000000
281.226600 1108.000000
283.204300 3872.000000
284.212200 5160.000000
285.220600 13732.000000
286.224400 3156.000000
291.210700 2844.000000
303.232700 1276.000000
309.221300 11380.000000
310.223300 2724.000000
327.231600 12796.000000
328.235100 3012.000000
345.242600 27344.000000
346.246300 6820.000000

>ms2peaks
117.069200 2008.000000
119.085000 5940.000000
121.064100 1192.000000
121.100800 2252.000000
123.079700 135904.000000
124.083000 11696.000000
128.061400 756.000000
129.068900 1492.000000
131.084400 7092.000000
132.087600 1012.000000
133.063300 732.000000
133.100300 8992.000000
134.103600 1224.000000
135.079100 4764.000000
135.115300 2280.000000
137.094700 18952.000000
138.098000 2096.000000
141.068200 1216.000000
142.076200 1300.000000
143.083700 5316.000000
144.090900 1332.000000
145.099600 11356.000000
146.103900 2088.000000
147.078500 1756.000000
147.115500 9184.000000
148.119200 1316.000000
149.095100 2096.000000
149.131000 1452.000000
151.110800 992.000000
154.077200 720.000000
155.083400 2092.000000
156.091000 2192.000000
157.099300 7308.000000
158.104700 1316.000000
159.078000 1012.000000
159.115700 9680.000000
160.121100 1560.000000
161.094300 3096.000000
161.131300 7340.000000
162.100800 824.000000
162.134400 1220.000000
163.110700 2560.000000
163.146500 876.000000
169.099900 3900.000000
170.105300 1388.000000
171.115500 6944.000000
172.120400 1288.000000
173.093900 1088.000000
173.131000 10236.000000
174.136900 1876.000000
175.110600 2812.000000
175.146500 7248.000000
176.150000 812.000000
177.125800 3720.000000
181.100000 972.000000
182.106900 1216.000000
183.115700 3524.000000
184.121800 1276.000000
185.130900 5644.000000
186.136200 1048.000000
187.110100 1992.000000
187.146500 4712.000000
189.126200 3976.000000
189.162000 1244.000000
190.132300 756.000000
191.141500 2672.000000
195.115200 1952.000000
196.121300 1096.000000
197.130600 5500.000000
198.135500 1104.000000
199.110300 1216.000000
199.146900 5400.000000
200.152600 952.000000
201.125700 808.000000
201.162100 1796.000000
203.141400 2240.000000
205.157400 1060.000000
209.131400 1784.000000
210.138900 776.000000
211.146800 4968.000000
212.151200 1420.000000
213.126000 1536.000000
213.163800 2144.000000
214.134000 5876.000000
215.141000 7144.000000
216.146600 1000.000000
217.156500 1776.000000
221.130500 988.000000
223.146700 1548.000000
225.162600 2980.000000
226.169000 1172.000000
227.178900 3448.000000
229.158100 1580.000000
237.162800 996.000000
239.142000 1572.000000
239.178000 1420.000000
241.157000 792.000000
241.193300 884.000000
243.172800 776.000000
251.177700 2636.000000
252.184200 1316.000000
257.152500 4256.000000
258.157000 1368.000000
265.194500 816.000000
266.202200 1324.000000
267.172500 688.000000
267.209600 3864.000000
268.213800 884.000000
269.188500 2496.000000
283.204200 680.000000
284.212900 1532.000000
285.217400 1324.000000
309.221700 1372.000000

>ms2peaks
115.053600 1352.000000
116.060800 424.000000
117.069500 2004.000000
119.084500 5912.000000
120.088300 484.000000
121.064000 1504.000000
121.100400 1352.000000
122.070800 404.000000
123.079700 71568.000000
124.083000 6884.000000
128.060900 3112.000000
129.068900 3440.000000
130.076200 1392.000000
131.084500 8644.000000
132.088700 1360.000000
133.063100 460.000000
133.099700 5832.000000
134.104600 920.000000
135.078700 2600.000000
135.116300 1776.000000
137.095200 9988.000000
138.098700 876.000000
141.068400 2040.000000
142.076100 3320.000000
143.084100 5692.000000
144.091300 1988.000000
145.062800 748.000000
145.099600 8168.000000
146.105200 1548.000000
147.079100 1644.000000
147.115500 5184.000000
148.119600 980.000000
149.094500 1540.000000
149.131100 796.000000
151.110900 568.000000
153.068900 504.000000
154.075800 1064.000000
155.083600 2324.000000
156.091400 2576.000000
157.100400 4840.000000
158.106400 1360.000000
159.078700 1312.000000
159.115300 4992.000000
160.084900 764.000000
160.120600 992.000000
161.094300 2612.000000
161.130900 3400.000000
162.100700 824.000000
162.135500 544.000000
163.110100 1372.000000
163.146700 368.000000
165.069400 636.000000
166.075700 464.000000
167.083400 908.000000
168.092600 1292.000000
169.100100 3316.000000
170.106200 1152.000000
171.115800 4900.000000
172.084700 672.000000
172.121300 1028.000000
173.095000 928.000000
173.130600 4816.000000
174.105100 468.000000
174.137600 668.000000
175.109700 1100.000000
175.147800 3080.000000
176.117300 640.000000
176.149200 560.000000
177.126600 1296.000000
178.077000 552.000000
179.084100 812.000000
180.091200 564.000000
181.100900 1544.000000
182.107300 1088.000000
183.115600 3364.000000
184.122500 1104.000000
185.096200 500.000000
185.131600 2824.000000
186.136500 912.000000
187.111900 1224.000000
187.146200 1208.000000
189.126200 1604.000000
191.143900 536.000000
193.100200 444.000000
194.108200 588.000000
195.115200 1652.000000
196.120400 680.000000
197.131300 3700.000000
198.135500 980.000000
199.110500 1056.000000
199.145800 2872.000000
200.117500 612.000000
200.150600 424.000000
201.124200 564.000000
201.163500 436.000000
205.101200 420.000000
207.114900 716.000000
209.130400 1768.000000
210.137500 704.000000
211.146100 2108.000000
212.152800 1056.000000
213.125800 1200.000000
213.162500 1252.000000
214.134400 5148.000000
215.142000 3288.000000
216.143800 492.000000
221.130800 424.000000
222.139500 636.000000
223.147100 1304.000000
225.161900 1204.000000
226.170500 496.000000
227.179700 1148.000000
229.157800 420.000000
236.153300 488.000000
237.160400 652.000000
238.168000 504.000000
239.141500 452.000000
239.175000 496.000000
241.157200 436.000000
242.130200 652.000000
251.179700 1652.000000
252.183100 524.000000
257.153700 536.000000
267.208300 728.000000
269.189100 816.000000

>ms2peaks
67.053800 1636.000000
69.069400 1016.000000
79.054200 1108.000000
81.069300 1896.000000
83.048500 4680.000000
83.085600 672.000000
85.065300 748.000000
93.069700 1800.000000
95.085100 2872.000000
97.065300 38392.000000
98.068200 2972.000000
99.080700 1256.000000
107.085700 1116.000000
119.084500 2320.000000
121.064600 680.000000
121.100000 3196.000000
123.079900 130884.000000
124.082900 16612.000000
131.084600 1980.000000
133.100500 4276.000000
134.103900 680.000000
135.079700 2472.000000
135.116300 1900.000000
137.095100 16048.000000
138.097700 1324.000000
143.083900 1460.000000
145.100400 6204.000000
146.104300 880.000000
147.079200 1184.000000
147.115900 5832.000000
149.094400 2784.000000
149.131600 1140.000000
151.110100 1296.000000
157.100400 3316.000000
159.115200 5388.000000
161.095000 2560.000000
161.131700 6068.000000
162.135600 836.000000
163.110100 4912.000000
163.146200 992.000000
165.124500 908.000000
169.099400 1384.000000
171.115400 4596.000000
172.119000 724.000000
173.094400 1036.000000
173.131400 8356.000000
174.135400 1896.000000
175.110700 3144.000000
175.146900 6076.000000
176.150000 1008.000000
177.126600 4732.000000
178.130700 672.000000
183.115100 2500.000000
184.119100 668.000000
185.131200 4204.000000
186.135400 808.000000
187.110900 2620.000000
187.146900 4952.000000
188.149700 784.000000
189.126100 4688.000000
189.163300 1228.000000
190.129100 884.000000
191.142100 5212.000000
192.145100 928.000000
195.116000 960.000000
197.131900 3716.000000
198.135300 744.000000
199.110800 884.000000
199.147300 5732.000000
200.151900 1196.000000
201.125800 1212.000000
201.161600 1992.000000
203.142400 4612.000000
203.179400 952.000000
204.144900 884.000000
205.158200 4892.000000
206.163800 788.000000
209.131000 1236.000000
211.146600 3920.000000
213.127500 1292.000000
213.162400 2940.000000
214.133900 3148.000000
214.166600 760.000000
215.142000 6032.000000
215.178500 692.000000
216.146300 1012.000000
217.157000 5268.000000
218.161800 800.000000
223.147300 1044.000000
225.162300 3512.000000
226.166000 1020.000000
227.143900 756.000000
227.178600 3716.000000
228.182000 856.000000
229.156500 1876.000000
231.173200 2656.000000
237.161800 1000.000000
239.141700 2764.000000
239.176800 1856.000000
241.160700 756.000000
241.195200 1252.000000
243.173100 1856.000000
245.188600 2892.000000
249.164700 788.000000
251.178400 3200.000000
253.159500 1248.000000
253.193900 792.000000
255.173600 1692.000000
257.153000 10280.000000
257.189800 1452.000000
258.156900 1808.000000
259.205400 1028.000000
265.193900 1156.000000
266.200800 1944.000000
267.172000 1464.000000
267.210200 12780.000000
268.213200 2308.000000
269.189900 3796.000000
271.206600 888.000000
273.183500 928.000000
275.164000 11100.000000
276.166400 1556.000000
281.225700 996.000000
283.205000 3064.000000
284.213300 3696.000000
285.182300 732.000000
285.220300 14080.000000
286.222200 3304.000000
291.210200 2752.000000
292.214500 792.000000
299.237300 964.000000
303.232800 1412.000000
309.221200 13440.000000
310.224400 3244.000000
327.232300 20432.000000
328.234800 4464.000000
345.242600 119840.000000
346.245900 39260.000000
347.248000 3688.000000

