>compound AU90588397
>parentmass 325.1711
>ionization [M+H]+
>formula C20H21FN2O
>rt 394.240000
>profile qtof
#smiles_iso CN(C)CCCC1(C2=C(CO1)C=C(C=C2)C#N)C3=CC=C(C=C3)F
#smiles_can CN(C)CCCC1(C2=C(CO1)C=C(C=C2)C#N)C3=CC=C(C=C3)F
#inchikey WSEQXVZVJXJVFP-UHFFFAOYSA-N
#pubchem_id 2771
#mb_accession AU151301,AU151302,AU151303,AU151304,AU151305,AU151306

>ms2
262.102600 1476.000000
280.112600 1104.000000
325.171500 219968.000000
326.174800 38520.000000
327.177200 4376.000000

>ms2
109.045800 912.000000
116.048000 1612.000000
156.078800 1088.000000
166.064300 2568.000000
221.062100 956.000000
234.070500 3500.000000
235.090900 872.000000
236.086200 700.000000
238.065900 940.000000
242.094600 1148.000000
247.079300 1048.000000
250.101800 1040.000000
262.101900 38676.000000
280.112700 4296.000000
281.115300 1272.000000
307.159300 3876.000000
308.161500 740.000000
325.171100 139896.000000
326.174000 29972.000000
327.177300 3048.000000

>ms2
109.044300 1832.000000
110.047800 372.000000
116.048700 4092.000000
117.051200 624.000000
123.022700 692.000000
123.058500 468.000000
125.037200 308.000000
129.068400 928.000000
130.064300 512.000000
133.044400 324.000000
137.075900 376.000000
140.047400 900.000000
142.063600 820.000000
144.042700 1072.000000
147.057600 456.000000
154.064100 728.000000
156.079700 3740.000000
157.082900 740.000000
159.059400 428.000000
166.063600 7920.000000
167.065400 1200.000000
168.078500 640.000000
184.074400 1028.000000
215.084700 1212.000000
216.087700 416.000000
218.060300 484.000000
220.067900 452.000000
221.062700 4308.000000
222.068900 3160.000000
223.076100 692.000000
224.084700 384.000000
227.071600 2956.000000
229.088800 308.000000
233.075000 600.000000
234.069800 14632.000000
235.073300 2864.000000
235.090000 3172.000000
236.086900 2316.000000
238.065000 3908.000000
239.068800 1032.000000
240.080600 800.000000
241.086200 704.000000
242.095300 5472.000000
243.098500 936.000000
245.074200 476.000000
246.072800 716.000000
247.077900 9776.000000
248.081100 1764.000000
249.082300 372.000000
250.101200 2724.000000
251.105800 516.000000
260.086400 1724.000000
261.093400 908.000000
262.102000 35092.000000
263.104800 6804.000000
264.108500 636.000000
268.115000 456.000000
280.112600 1208.000000
307.159300 3240.000000
308.163700 620.000000
325.170000 11164.000000
326.173100 3208.000000
327.173900 504.000000

>ms2
109.044200 1896.000000
110.047700 392.000000
115.052100 344.000000
116.048600 3716.000000
121.044300 448.000000
123.023300 816.000000
128.061100 360.000000
129.069300 1476.000000
130.064300 664.000000
133.043500 548.000000
139.053100 456.000000
140.049100 3040.000000
141.052900 660.000000
142.065100 920.000000
144.043400 828.000000
146.053100 456.000000
147.061300 428.000000
154.064400 1196.000000
156.080200 2548.000000
159.058900 640.000000
166.064100 9652.000000
167.068000 1500.000000
170.056800 312.000000
183.060200 500.000000
190.064000 488.000000
195.059500 580.000000
196.065400 304.000000
202.077300 496.000000
203.073000 348.000000
207.059000 520.000000
208.055700 516.000000
209.059700 388.000000
209.076600 384.000000
215.084500 2768.000000
216.084100 632.000000
218.059000 1976.000000
219.061900 352.000000
220.067200 2720.000000
222.069400 4520.000000
223.073800 620.000000
227.072300 7256.000000
228.076800 1836.000000
233.075300 1428.000000
234.070900 19176.000000
235.075300 3780.000000
236.086300 1768.000000
237.056400 472.000000
237.093200 340.000000
238.066100 2684.000000
239.067700 544.000000
240.080000 2344.000000
241.087000 2184.000000
242.095300 3308.000000
243.098700 1092.000000
244.071100 532.000000
245.072000 840.000000
246.071400 4352.000000
247.078800 18316.000000
248.082700 2812.000000
249.089400 380.000000
250.103700 2004.000000
251.105000 456.000000
260.086400 1612.000000
261.094100 2352.000000
262.101700 9144.000000
263.106100 1872.000000
307.158100 316.000000
325.171700 408.000000

>ms2
109.044500 1028.000000
116.048200 2540.000000
117.051600 308.000000
121.044600 480.000000
123.024300 644.000000
127.053900 340.000000
128.060500 840.000000
129.069300 1640.000000
130.064100 600.000000
133.044400 920.000000
139.053200 896.000000
140.048400 4644.000000
141.053000 640.000000
142.064000 428.000000
144.043100 448.000000
145.064300 300.000000
146.051700 396.000000
153.056800 320.000000
154.064700 672.000000
155.059600 416.000000
156.080100 684.000000
159.058900 432.000000
166.064200 5660.000000
167.067100 612.000000
173.051900 328.000000
183.059900 648.000000
189.069700 412.000000
190.064800 1484.000000
191.066600 552.000000
195.060200 884.000000
196.066500 332.000000
202.076600 1064.000000
203.075300 552.000000
207.060600 1680.000000
208.055000 2132.000000
209.062200 572.000000
209.073000 340.000000
213.068800 416.000000
214.065400 1108.000000
215.085100 2620.000000
216.082800 636.000000
218.059000 1608.000000
219.063700 480.000000
220.067200 3140.000000
222.068500 2952.000000
223.075500 632.000000
223.090400 488.000000
226.062700 388.000000
227.072500 8704.000000
228.077100 2412.000000
229.081400 560.000000
232.055800 812.000000
233.074600 2136.000000
235.077400 3864.000000
236.084200 912.000000
237.059200 936.000000
238.066100 1204.000000
240.079900 3340.000000
241.086800 1964.000000
242.095000 1120.000000
244.069300 768.000000
245.065200 1424.000000
247.077700 13640.000000
248.083300 2556.000000
249.083200 424.000000
250.103100 424.000000
258.071200 480.000000
259.078300 392.000000
260.087900 1564.000000
261.093800 1832.000000
262.102300 1640.000000
263.106800 328.000000

>ms2
58.064700 78836.000000
72.080100 5368.000000
84.080300 17060.000000
109.046300 921808.000000
110.049200 80304.000000
116.050200 134408.000000
117.053200 10744.000000
121.044500 7840.000000
123.024100 13372.000000
123.060800 4988.000000
129.069400 7228.000000
130.065300 6600.000000
140.049000 11184.000000
142.064800 5448.000000
144.044100 9484.000000
154.064400 6700.000000
156.080100 27516.000000
166.064500 73088.000000
167.067600 8628.000000
184.074700 5672.000000
215.085000 10188.000000
218.059300 5720.000000
220.068100 5264.000000
221.063200 46184.000000
222.070300 35576.000000
223.074400 4980.000000
227.073000 28328.000000
228.076400 5052.000000
233.075500 6360.000000
234.071400 176392.000000
235.074800 30740.000000
235.090000 23656.000000
236.087400 18852.000000
238.066000 39620.000000
239.068900 5136.000000
240.079800 6948.000000
241.088300 9584.000000
242.096000 49236.000000
243.099300 8160.000000
246.072100 9560.000000
247.079200 125016.000000
248.082000 21880.000000
250.102100 30136.000000
251.105200 5364.000000
260.087100 13380.000000
261.094100 11588.000000
262.103100 577764.000000
263.106100 100920.000000
264.109700 8312.000000
280.112900 36056.000000
281.116400 8064.000000
307.160600 52036.000000
308.163700 10728.000000
325.171900 703476.000000
326.174900 206336.000000
327.177500 18868.000000

