>compound AU90705417
>parentmass 376.2395000000001
>ionization [M+H]+
>formula C21H30FN3O2
>rt 346.930000
>profile qtof
#smiles_iso C1CCN(CC1)C2(CCN(CC2)CCCC(=O)C3=CC=C(C=C3)F)C(=O)N
#smiles_can C1CCN(CC1)C2(CCN(CC2)CCCC(=O)C3=CC=C(C=C3)F)C(=O)N
#inchikey AXKPFOAXAHJUAG-UHFFFAOYSA-N
#pubchem_id 4830
#mb_accession AU251401,AU251402,AU251403,AU251404,AU251405,AU251406

>ms2
291.150500 16180.000000
376.239900 1335852.000000
377.242900 243984.000000
378.244900 26728.000000

>ms2
165.069600 137516.000000
166.073000 14832.000000
194.095800 10748.000000
262.122500 17360.000000
291.149900 500768.000000
292.152800 84576.000000
293.155400 8776.000000
331.217000 68444.000000
332.220100 16756.000000
376.239000 866900.000000
377.242400 161380.000000
378.244000 19700.000000

>ms2
123.023000 40600.000000
138.126500 22588.000000
165.069900 828092.000000
166.072900 63412.000000
167.076000 4828.000000
194.096300 44168.000000
195.099700 5612.000000
220.112100 7856.000000
262.122800 37604.000000
263.126000 5908.000000
291.150300 252872.000000
292.152700 49068.000000
293.155000 4944.000000
331.217500 44700.000000
332.220900 10220.000000
376.239400 32712.000000
377.241900 8652.000000

>ms2
123.023500 169104.000000
124.026300 12988.000000
138.126600 22020.000000
165.070100 752292.000000
166.073300 61028.000000
194.096500 24020.000000
262.123300 6792.000000
291.150200 11428.000000

>ms2
123.023500 356904.000000
124.026300 19564.000000
138.126600 12936.000000
165.069800 346812.000000
166.073100 30856.000000
167.075700 2380.000000
194.096600 5044.000000

>ms2
55.053800 2164.000000
70.065000 2276.000000
98.060700 153200.000000
99.063900 9252.000000
123.023400 32272.000000
124.026700 2568.000000
138.127200 12512.000000
165.070200 357748.000000
166.073600 44468.000000
167.076400 2096.000000
194.097200 24760.000000
195.099500 3164.000000
220.113500 3864.000000
262.123600 23192.000000
263.127100 4908.000000
291.151000 244184.000000
292.154300 53244.000000
293.157500 4844.000000
331.219000 42608.000000
332.222100 10156.000000
376.240700 161784.000000
377.243600 45956.000000
378.245800 5232.000000

