>compound AU90591511
>parentmass 278.2115
>ionization [M+H]+
>formula C17H27NO2
>rt 369.600000
>profile qtof
#smiles_iso CN(C)CC(C1=CC=C(C=C1)OC)C2(CCCCC2)O
#smiles_can CN(C)CC(C1=CC=C(C=C1)OC)C2(CCCCC2)O
#inchikey PNVNVHUZROJLTJ-UHFFFAOYSA-N
#pubchem_id 5656
#mb_accession AU150201,AU150202,AU150203,AU150204,AU150205

>ms2peaks
260.201100 980560.000000
278.212600 2515148.000000
279.215400 661552.000000
280.217900 48176.000000

>ms2peaks
121.064000 147456.000000
122.067400 13116.000000
132.055900 3016.000000
135.079300 8924.000000
147.079400 92908.000000
148.082700 9844.000000
152.142100 8592.000000
159.079300 24788.000000
160.083100 2900.000000
173.095100 29928.000000
174.099200 4036.000000
177.114000 4484.000000
178.120700 7712.000000
183.115900 3912.000000
189.125800 2580.000000
215.142700 352016.000000
216.145700 40340.000000
217.151000 2936.000000
260.200600 489344.000000
261.203800 70624.000000
262.207000 4536.000000
278.212600 2515148.000000
279.215400 661552.000000
280.217900 48176.000000

>ms2peaks
115.053300 2488.000000
117.068600 1264.000000
119.085300 1056.000000
121.063900 201052.000000
122.067100 16840.000000
128.061400 1172.000000
129.068000 1332.000000
131.047600 2884.000000
133.061800 2524.000000
135.079200 18144.000000
136.082500 1548.000000
141.068900 2316.000000
144.054900 4824.000000
145.063400 4380.000000
146.069900 1116.000000
147.079200 172808.000000
148.082700 16980.000000
149.022700 1504.000000
152.141900 4200.000000
155.083800 1576.000000
158.071300 6832.000000
159.079000 41944.000000
160.083600 5856.000000
161.094500 6348.000000
162.090700 3492.000000
163.097700 5952.000000
173.094900 66884.000000
174.098800 9276.000000
178.121000 9380.000000
179.125500 1308.000000
183.115800 4832.000000
184.118700 1112.000000
187.110200 3348.000000
213.126800 1072.000000
215.142100 57844.000000
216.145800 8012.000000
260.199400 6028.000000
261.203400 1612.000000

>ms2peaks
115.053900 9408.000000
116.059200 2112.000000
117.069700 5396.000000
119.084800 3056.000000
121.064300 242468.000000
122.067600 18596.000000
128.061300 5244.000000
129.068300 5388.000000
130.076300 1840.000000
131.048400 7852.000000
132.056100 23892.000000
133.061900 3756.000000
135.079400 15652.000000
136.083100 1956.000000
141.069200 6752.000000
142.075800 2708.000000
143.084200 2312.000000
145.063500 8612.000000
146.070700 3652.000000
147.079700 134412.000000
148.082700 11752.000000
152.142200 1816.000000
155.059300 1892.000000
155.084900 2764.000000
159.079400 36264.000000
160.084300 5280.000000
161.094900 5608.000000
163.097600 11308.000000
164.102100 1396.000000
168.093000 1352.000000
171.079900 1968.000000
172.087000 2380.000000
173.095400 47444.000000
174.099600 6460.000000
177.114000 7048.000000
178.121500 4716.000000
183.116000 2096.000000
186.102800 1376.000000
187.110100 1888.000000
215.142300 2936.000000

>ms2peaks
116.060000 3196.000000
117.069500 4348.000000
118.072700 708.000000
119.048200 1028.000000
119.085100 2608.000000
120.054900 676.000000
121.064300 118388.000000
122.067400 9764.000000
127.053700 1776.000000
128.061200 8640.000000
129.068900 6532.000000
130.076100 2736.000000
131.084100 656.000000
132.056000 15608.000000
133.062600 2488.000000
134.095200 832.000000
135.080100 5944.000000
136.083500 868.000000
141.069000 7796.000000
142.075700 2052.000000
143.048400 2328.000000
143.084500 1864.000000
145.063900 7972.000000
146.071300 3788.000000
146.095400 860.000000
148.075800 7312.000000
149.077600 868.000000
153.069200 1152.000000
155.060200 2468.000000
155.085200 1724.000000
157.064700 2280.000000
159.078900 15948.000000
160.085000 2372.000000
161.095200 1848.000000
163.097300 3504.000000
167.084500 844.000000
168.092000 792.000000
169.074800 932.000000
171.079800 2196.000000
172.087200 1836.000000
173.095000 10824.000000
174.100200 2376.000000
177.114100 840.000000
178.122700 732.000000
185.095100 1084.000000

