>compound AU90041652
>parentmass 295.0222
>ionization [M+H]+
>formula C10H15O4PS2
>rt 432.000000
>profile qtof
#smiles_iso CC1=C(C=CC(=C1)OP(=S)(OC)OC)S(=O)C
#smiles_can CC1=C(C=CC(=C1)OP(=S)(OC)OC)S(=O)C
#inchikey DLAPIMGBBDILHJ-UHFFFAOYSA-N
#pubchem_id 19577
#mb_accession AU301401,AU301402,AU301403,AU301404,AU301405

>ms2
264.002800 5080.000000
278.019800 2828.000000
295.022400 513868.000000
296.025100 58188.000000
297.018400 36408.000000

>ms2
124.981200 1668.000000
136.033100 1484.000000
137.040800 1852.000000
138.012300 1356.000000
139.019600 3188.000000
152.981800 2380.000000
153.989200 5332.000000
154.043500 3720.000000
169.984600 2720.000000
170.020500 4872.000000
199.051000 2232.000000
200.004300 2472.000000
201.039500 7236.000000
217.061600 2176.000000
231.977000 1376.000000
232.030900 26508.000000
233.037100 5044.000000
234.027200 1384.000000
246.963100 1288.000000
247.971600 1844.000000
261.987500 9028.000000
262.995200 7728.000000
264.003100 26364.000000
265.005600 3936.000000
265.999100 2184.000000
278.018800 48384.000000
279.021800 5888.000000
279.998400 242244.000000
281.001300 23960.000000
281.994400 16604.000000
295.022100 159852.000000
296.025100 18420.000000
297.018400 10396.000000

>ms2
109.005200 1372.000000
121.009600 1880.000000
121.063800 924.000000
122.017600 1808.000000
122.071400 620.000000
123.025400 1600.000000
124.033900 1016.000000
124.981500 12900.000000
125.984200 400.000000
126.976800 444.000000
127.014900 4184.000000
134.018400 1000.000000
135.025600 3940.000000
136.032900 3264.000000
137.004700 3284.000000
137.041200 4900.000000
138.012200 3428.000000
138.048200 2112.000000
139.020200 8844.000000
140.982300 636.000000
141.016100 452.000000
141.988900 1916.000000
142.992100 5724.000000
143.992200 484.000000
151.056700 3364.000000
151.973600 824.000000
152.981900 13420.000000
153.035500 1288.000000
153.989500 15500.000000
154.043900 2444.000000
154.976200 1048.000000
155.015900 656.000000
155.048000 432.000000
155.984600 1428.000000
165.989400 992.000000
166.997400 2396.000000
167.976200 444.000000
168.005600 1564.000000
168.058700 668.000000
168.984300 2388.000000
169.013200 8276.000000
169.984600 15124.000000
170.020700 6292.000000
170.039100 868.000000
170.991300 5240.000000
171.007400 500.000000
171.024300 752.000000
171.980700 1092.000000
171.995200 576.000000
172.986800 404.000000
184.036000 1572.000000
185.007000 1128.000000
186.015900 2584.000000
199.051100 3692.000000
200.004800 13328.000000
201.010100 1472.000000
201.039400 648.000000
214.991900 600.000000
215.946100 844.000000
215.999100 668.000000
217.007300 1372.000000
218.014400 604.000000
219.023100 460.000000
229.007800 956.000000
229.960100 1012.000000
230.969400 1016.000000
231.023200 2304.000000
231.977300 1404.000000
232.031500 26208.000000
232.983100 728.000000
233.036300 3296.000000
234.029900 1212.000000
245.039100 3352.000000
245.994400 2100.000000
246.040900 576.000000
246.963900 3276.000000
247.017700 1072.000000
247.971700 3840.000000
248.978300 1412.000000
249.985500 1172.000000
264.001900 3864.000000
264.975800 2648.000000
265.982300 1164.000000
278.019100 34872.000000
279.022800 3724.000000
279.998700 79956.000000
281.001800 9384.000000
281.995700 7144.000000
282.996000 456.000000
295.022600 4564.000000
296.051000 732.000000
297.018400 436.000000

>ms2
109.004400 960.000000
110.017500 372.000000
121.010200 3988.000000
121.063900 1020.000000
122.017400 2208.000000
122.072500 336.000000
123.025500 1540.000000
124.033600 1360.000000
124.981300 16112.000000
125.984000 436.000000
126.014400 568.000000
126.976900 764.000000
127.015400 2520.000000
134.017900 1100.000000
135.025300 3188.000000
135.996500 708.000000
136.033400 2504.000000
137.004600 3608.000000
137.041100 2324.000000
138.012400 2180.000000
138.048000 1240.000000
139.019800 3308.000000
140.025200 384.000000
140.981100 1376.000000
141.989600 2324.000000
142.992000 8296.000000
143.995800 496.000000
144.989300 364.000000
151.057100 1888.000000
151.973400 564.000000
152.062800 332.000000
152.981700 16304.000000
153.036100 1760.000000
153.989500 6836.000000
154.043000 1296.000000
154.976800 1776.000000
154.995600 2100.000000
155.015200 1212.000000
155.986000 604.000000
165.988000 624.000000
166.997200 1392.000000
167.978300 560.000000
168.006000 968.000000
168.059600 632.000000
168.985600 8744.000000
169.013100 11088.000000
169.985800 7136.000000
170.019900 2596.000000
170.991700 3424.000000
171.007100 1056.000000
171.980000 720.000000
171.995800 340.000000
184.036200 660.000000
184.981500 616.000000
185.008000 348.000000
186.016100 408.000000
187.000200 304.000000
198.942300 856.000000
199.050900 1924.000000
200.004500 10324.000000
200.957000 572.000000
201.008300 1096.000000
202.000600 496.000000
202.991600 984.000000
213.011700 768.000000
214.938400 388.000000
214.991100 396.000000
215.945800 1224.000000
217.006500 1496.000000
218.013600 612.000000
229.010500 380.000000
229.963700 376.000000
230.968700 2052.000000
231.022900 1752.000000
231.977300 472.000000
232.030700 4008.000000
232.985800 528.000000
233.035800 424.000000
245.039300 960.000000
245.993100 1140.000000
246.963900 924.000000
247.020100 600.000000
247.971100 1184.000000
248.980100 564.000000
261.988100 1372.000000
262.994800 4932.000000
263.997700 948.000000
264.019800 308.000000
264.975800 416.000000
264.988300 516.000000
278.019700 2328.000000
279.021000 556.000000
279.998600 2956.000000
281.005300 432.000000

>ms2
109.006400 692.000000
110.017800 344.000000
121.009500 4820.000000
121.065000 420.000000
122.017600 1844.000000
122.072800 380.000000
123.006200 396.000000
123.024800 1536.000000
124.033900 496.000000
124.980900 9232.000000
125.040800 680.000000
125.984900 448.000000
126.012400 600.000000
126.969800 348.000000
126.976400 772.000000
127.015600 888.000000
134.017000 648.000000
135.025300 2424.000000
135.995500 748.000000
136.032400 1348.000000
137.004500 2652.000000
137.040900 832.000000
138.013000 936.000000
138.046100 380.000000
138.974300 356.000000
139.020300 956.000000
140.982100 2240.000000
141.988600 1048.000000
142.976600 300.000000
142.991600 4332.000000
151.055800 924.000000
151.974900 640.000000
152.981500 12396.000000
153.035900 688.000000
153.988300 3956.000000
154.041300 492.000000
154.975100 1568.000000
154.996200 884.000000
155.013800 460.000000
155.986200 380.000000
166.997300 388.000000
167.978200 1068.000000
168.004800 384.000000
169.012700 5292.000000
169.987900 2116.000000
170.017900 956.000000
170.990900 980.000000
171.009800 544.000000
184.981200 756.000000
185.988900 412.000000
186.942000 300.000000
198.943500 1252.000000
198.996700 380.000000
199.049800 508.000000
200.004100 2496.000000
200.959900 536.000000
201.010100 352.000000
202.992800 916.000000
213.010900 512.000000
214.938600 328.000000
215.946700 464.000000
217.007000 448.000000
230.968600 604.000000
231.022800 300.000000
262.994800 596.000000

