>compound AU90914703
>parentmass 285.1809
>ionization [M+H]+
>formula C14H24N2O4
>rt 276.000000
>profile qtof
#smiles_iso CCC(CC)O[C@@H]1C=C(C[C@@H]([C@H]1NC(=O)C)N)C(=O)O
#smiles_can CCC(CC)OC1C=C(CC(C1NC(=O)C)N)C(=O)O
#inchikey NENPYTRHICXVCS-YNEHKIRRSA-N
#pubchem_id 449381
#mb_accession AU206701,AU206702,AU206703,AU206704,AU206705

>ms2
137.070000 328.000000
138.053500 2708.000000
139.057300 312.000000
179.082200 376.000000
180.064100 4056.000000
197.090900 12192.000000
198.076200 1700.000000
198.093500 1464.000000
215.101500 6232.000000
216.104200 920.000000
268.152300 2048.000000
269.142400 356.000000
269.157500 432.000000
285.180000 9188.000000
286.183600 2288.000000

>ms2
119.060600 344.000000
120.043600 2320.000000
136.075700 548.000000
137.070000 2328.000000
138.054400 17436.000000
139.038200 700.000000
139.057500 1720.000000
156.065700 492.000000
161.070100 340.000000
162.054200 1064.000000
179.081100 764.000000
180.064600 6252.000000
181.068600 808.000000
197.091200 4548.000000
198.075600 5156.000000
198.094700 564.000000
199.077200 640.000000
215.101600 1844.000000
268.155800 552.000000

>ms2
119.060400 408.000000
120.043200 3784.000000
121.030500 316.000000
121.046800 308.000000
137.069800 3092.000000
138.054300 12700.000000
139.039300 480.000000
139.058000 1028.000000
155.080500 424.000000
156.064300 592.000000
161.070100 332.000000
162.053700 1120.000000
180.064000 1468.000000
197.091100 432.000000
198.075600 1656.000000

>ms2
120.044100 3088.000000
121.046200 468.000000
134.060100 308.000000
137.070200 1784.000000
138.054100 5328.000000
139.056500 496.000000
156.063700 380.000000
162.055100 512.000000

>ms2
120.043300 2368.000000
137.069600 524.000000
138.055600 1408.000000

