>compound AU90319855
>parentmass 180.08079999999998
>ionization [M+H]+
>formula C13H9N
>rt 516.560000
>profile qtof
#smiles_iso C1=CC=C2C(=C1)C=C3C=CC=CC3=N2
#smiles_can C1=CC=C2C(=C1)C=C3C=CC=CC3=N2
#inchikey DZBUGLKDJFMEHC-UHFFFAOYSA-N
#pubchem_id 9215
#mb_accession AU251701,AU251702,AU251703,AU251704,AU251705,AU251706

>ms2
180.079700 1719148.000000
181.082900 164476.000000
182.085500 8832.000000

>ms2
152.060500 11520.000000
179.071100 13996.000000
180.079500 1851764.000000
181.082700 178336.000000
182.085900 10128.000000

>ms2
152.060800 63112.000000
153.066500 16652.000000
178.064000 30572.000000
179.071500 86892.000000
180.079700 1248624.000000
181.083000 120260.000000
182.086300 6880.000000

>ms2
126.046000 4368.000000
127.052700 7104.000000
128.048700 13732.000000
140.048800 4136.000000
141.055800 3288.000000
150.045500 9796.000000
151.052900 20676.000000
152.061100 227804.000000
153.066000 37700.000000
154.064700 14548.000000
177.056200 19184.000000
178.064100 115044.000000
179.071700 247076.000000
180.079800 473536.000000
181.082800 51212.000000
182.086200 3832.000000

>ms2
125.037700 3648.000000
126.045300 12056.000000
127.053000 13648.000000
128.048600 18804.000000
139.052600 2268.000000
140.048000 8000.000000
141.054400 4288.000000
149.037000 1560.000000
150.045000 26916.000000
151.052700 34492.000000
152.060800 224428.000000
153.063600 28956.000000
154.064000 12112.000000
164.048100 2276.000000
165.056100 1972.000000
176.047100 1380.000000
177.055800 34404.000000
178.064000 176288.000000
179.070900 147156.000000
180.078900 85588.000000
181.082400 10576.000000

>ms2
152.060800 10112.000000
178.064200 5144.000000
179.071600 14828.000000
180.080000 828780.000000
181.083400 107076.000000
182.086100 5884.000000

