>compound AU90105711
>parentmass 367.22679999999997
>ionization [M+H]+
>formula C24H30O3
>rt 572.840000
>profile qtof
#smiles_iso C[C@]12CCC(=O)C=C1[C@@H]3C[C@@H]3[C@@H]4[C@@H]2CC[C@]5([C@H]4[C@@H]6C[C@@H]6[C@@]57CCC(=O)O7)C
#smiles_can CC12CCC(=O)C=C1C3CC3C4C2CCC5(C4C6CC6C57CCC(=O)O7)C
#inchikey METQSPRSQINEEU-HXCATZOESA-N
#pubchem_id 68873
#mb_accession AU280801,AU280802,AU280803,AU280804,AU280805,AU280806

>ms2peaks
349.215600 13536.000000
367.227000 1757916.000000
368.230200 372928.000000
369.232700 42272.000000

>ms2peaks
123.079600 8332.000000
131.084800 13420.000000
133.100400 8104.000000
135.079300 16540.000000
143.084200 12336.000000
145.100200 13148.000000
147.079300 10116.000000
149.095000 21136.000000
153.089900 24600.000000
157.100200 15660.000000
159.079300 11656.000000
159.115800 11272.000000
161.095000 8488.000000
165.090100 8104.000000
169.100200 8576.000000
171.115600 17988.000000
173.095100 10168.000000
175.110500 8724.000000
177.090300 15620.000000
183.115600 9420.000000
185.094600 8864.000000
185.131000 10032.000000
187.110300 9752.000000
189.126600 10116.000000
195.115800 9800.000000
197.131500 21532.000000
199.110600 10976.000000
201.126100 8520.000000
209.131600 6480.000000
211.147400 8184.000000
213.126800 10864.000000
215.142300 20656.000000
217.121400 6524.000000
219.137000 12800.000000
221.131800 10668.000000
227.141600 8684.000000
231.137200 13652.000000
235.147400 6876.000000
239.142500 25572.000000
253.158500 11400.000000
257.153100 27588.000000
258.157400 7404.000000
289.194100 7188.000000
295.169100 14804.000000
307.205000 17384.000000
321.220700 10320.000000
331.205500 22092.000000
349.216400 70996.000000
350.219400 18452.000000
367.227300 1228240.000000
368.230500 248508.000000
369.233100 28692.000000

>ms2peaks
115.053700 2788.000000
116.060500 900.000000
117.069400 7116.000000
118.072600 860.000000
119.084900 14880.000000
120.088300 1860.000000
121.064000 8276.000000
121.100700 3140.000000
122.066900 1128.000000
122.103700 508.000000
123.079400 17608.000000
124.083200 1528.000000
125.058700 3236.000000
125.097000 408.000000
127.053700 392.000000
127.074100 844.000000
128.061400 5748.000000
129.068800 12644.000000
131.084800 35512.000000
132.088500 3500.000000
133.063400 4160.000000
133.100300 17392.000000
134.068100 624.000000
134.103400 1560.000000
135.079500 31792.000000
135.115500 4256.000000
136.084000 3224.000000
136.119700 524.000000
137.058200 924.000000
137.095100 4768.000000
139.073600 1072.000000
141.068800 6972.000000
141.090400 408.000000
142.075900 3188.000000
143.084600 37852.000000
144.089200 4924.000000
145.063200 3292.000000
145.100200 33192.000000
146.071600 436.000000
146.103300 3560.000000
147.079200 25140.000000
147.115600 7816.000000
148.083200 2812.000000
148.118600 1008.000000
149.095100 39088.000000
150.097900 4484.000000
151.074300 6056.000000
151.109500 2324.000000
152.076700 844.000000
153.069900 1148.000000
153.089900 9468.000000
154.076200 1180.000000
154.092900 904.000000
155.084500 16628.000000
156.091100 4968.000000
157.100100 38792.000000
158.070200 676.000000
158.103900 5760.000000
159.079500 30600.000000
159.115700 30220.000000
160.083800 4020.000000
160.119300 4224.000000
161.095000 13676.000000
161.131400 4888.000000
162.098500 2088.000000
162.134000 608.000000
163.074400 2216.000000
163.110500 5824.000000
164.113800 888.000000
165.069300 1280.000000
165.089500 9192.000000
166.075900 644.000000
166.094500 1296.000000
167.084500 3968.000000
167.105000 1472.000000
168.091100 1928.000000
169.100300 24360.000000
170.104200 3604.000000
171.079500 4348.000000
171.115700 59464.000000
172.119200 8348.000000
173.095100 17304.000000
173.131400 11268.000000
174.098900 2040.000000
174.135400 1652.000000
175.075200 1164.000000
175.110500 12220.000000
175.146700 816.000000
176.114200 1616.000000
177.089900 38760.000000
177.126900 4128.000000
178.076400 684.000000
178.093500 4440.000000
178.129400 632.000000
179.084800 2864.000000
179.105600 5312.000000
180.090600 1824.000000
180.110800 624.000000
181.099700 11880.000000
182.106800 2756.000000
183.078700 1888.000000
183.115800 23504.000000
184.087400 632.000000
184.120200 4260.000000
185.094700 13104.000000
185.131400 20944.000000
186.099000 1944.000000
186.134500 3296.000000
187.110400 12580.000000
187.146300 2788.000000
188.114400 2116.000000
188.150000 476.000000
189.089500 2096.000000
189.126300 9676.000000
190.095500 1008.000000
190.131500 1508.000000
191.085100 716.000000
191.105700 8020.000000
191.141100 768.000000
192.091700 736.000000
192.108600 1076.000000
193.100500 6276.000000
193.120600 1456.000000
194.106500 1320.000000
195.115800 20760.000000
196.087900 400.000000
196.120600 4360.000000
197.094400 5392.000000
197.131600 38480.000000
198.102100 1572.000000
198.135600 6604.000000
199.110500 14076.000000
199.146900 5968.000000
200.115000 2008.000000
200.151800 1156.000000
201.089900 1876.000000
201.126500 13308.000000
201.164600 1112.000000
202.130500 2220.000000
203.105100 5748.000000
203.142600 2544.000000
204.110900 1156.000000
204.145400 388.000000
205.098800 1812.000000
205.121400 4684.000000
206.108800 1884.000000
207.115500 6312.000000
208.120700 1788.000000
209.094700 1920.000000
209.131200 11272.000000
210.135800 2580.000000
211.110400 8868.000000
211.147400 12448.000000
212.114700 1320.000000
212.152500 2936.000000
213.126300 14808.000000
213.162000 1852.000000
214.130900 3328.000000
214.168500 380.000000
215.106000 3896.000000
215.141800 9380.000000
216.110800 1244.000000
216.146700 1624.000000
217.097800 420.000000
217.121200 6292.000000
218.124900 1436.000000
219.115900 3664.000000
219.137100 15932.000000
220.121200 2036.000000
220.140400 2560.000000
221.131700 14552.000000
222.136800 3752.000000
223.111800 2720.000000
223.147300 8200.000000
224.115300 796.000000
224.151300 1812.000000
225.127200 7936.000000
225.162900 5484.000000
226.131900 1156.000000
226.167700 1348.000000
227.105500 1412.000000
227.142000 8112.000000
227.177800 1016.000000
228.110100 468.000000
228.147000 1388.000000
229.121300 4768.000000
229.157200 2044.000000
230.127800 1456.000000
230.160500 544.000000
231.114600 1272.000000
231.137100 21352.000000
232.124000 784.000000
232.141600 4740.000000
233.133500 4804.000000
233.150400 1456.000000
234.136600 1892.000000
235.111100 1480.000000
235.147200 8200.000000
236.118800 384.000000
236.152600 2432.000000
237.127000 4684.000000
237.162300 3616.000000
238.131800 996.000000
238.169100 1364.000000
239.142600 20616.000000
239.179200 1348.000000
240.147700 4672.000000
241.122200 2284.000000
241.158000 4036.000000
241.189800 400.000000
242.162600 800.000000
243.136700 3584.000000
243.172800 1832.000000
244.143300 1028.000000
244.178400 428.000000
245.132300 1580.000000
245.153700 3476.000000
246.137800 824.000000
246.155100 720.000000
247.111300 536.000000
247.147900 5192.000000
248.122400 460.000000
248.151100 1864.000000
249.127800 1892.000000
249.162700 5340.000000
250.131400 696.000000
250.169200 1504.000000
251.142500 6748.000000
251.179000 3288.000000
252.148300 1732.000000
252.182900 1384.000000
253.122000 1228.000000
253.158000 9820.000000
254.127700 520.000000
254.161800 1916.000000
255.137500 4104.000000
255.171500 1740.000000
256.123300 424.000000
256.142300 972.000000
256.177300 508.000000
257.131500 1132.000000
257.153200 20112.000000
258.158100 5456.000000
259.147300 1228.000000
259.163600 1148.000000
259.167400 1292.000000
260.155800 1060.000000
261.128100 856.000000
261.163100 4056.000000
262.171100 1284.000000
263.143100 2496.000000
263.179800 2012.000000
264.149200 884.000000
264.184100 420.000000
265.123000 436.000000
265.158400 5500.000000
265.193600 1472.000000
266.162800 1884.000000
266.197900 588.000000
267.137100 2064.000000
267.174000 3808.000000
268.141200 888.000000
268.177100 836.000000
269.153200 3732.000000
269.188800 1328.000000
270.155000 668.000000
270.190500 464.000000
271.132200 372.000000
271.148600 1008.000000
271.168400 3068.000000
272.139600 824.000000
272.167800 636.000000
273.160500 1508.000000
274.169500 812.000000
275.143300 2416.000000
275.177400 1928.000000
276.148500 676.000000
276.188300 1468.000000
277.157900 2252.000000
277.195000 1604.000000
278.164700 604.000000
278.197400 388.000000
279.135500 1420.000000
279.174300 4276.000000
279.209200 928.000000
280.177400 1168.000000
280.211600 608.000000
281.153300 4256.000000
281.187500 464.000000
282.156100 1276.000000
283.169200 4628.000000
284.171100 944.000000
285.160400 908.000000
285.184500 2088.000000
286.154800 468.000000
286.186100 588.000000
287.179400 2548.000000
288.184800 812.000000
289.158200 1956.000000
289.194600 6944.000000
290.163400 908.000000
290.196600 1872.000000
291.173800 1624.000000
292.177200 708.000000
293.152000 2444.000000
293.189800 1952.000000
293.223000 384.000000
294.160500 976.000000
294.194400 1284.000000
295.168700 11308.000000
295.201200 716.000000
296.172600 2436.000000
297.148600 532.000000
297.185600 1176.000000
298.174500 756.000000
298.190700 400.000000
299.165700 1016.000000
300.171300 592.000000
301.178500 396.000000
302.165300 408.000000
303.176200 1392.000000
303.210100 2092.000000
304.175200 484.000000
304.217500 596.000000
305.189700 3712.000000
306.195200 996.000000
307.169200 2244.000000
307.205500 12824.000000
308.175200 1088.000000
308.208900 2664.000000
309.183300 3132.000000
309.214600 608.000000
310.192200 768.000000
311.163400 952.000000
311.200800 1496.000000
312.172600 1232.000000
313.195600 2428.000000
314.199100 756.000000
316.184200 540.000000
320.175300 480.000000
321.184600 1956.000000
321.221100 5012.000000
322.187400 460.000000
322.223600 2016.000000
323.200200 2188.000000
323.237800 436.000000
324.205400 656.000000
325.180700 980.000000
325.215800 3596.000000
326.184500 760.000000
326.218500 960.000000
327.192100 372.000000
331.205400 7732.000000
332.209600 1784.000000
334.191900 636.000000
339.192600 672.000000
339.231300 1236.000000
349.216300 22004.000000
350.219500 5932.000000
351.222500 628.000000
352.201000 612.000000
367.226600 73112.000000
368.230100 17820.000000
369.232900 2968.000000

>ms2peaks
111.042900 492.000000
115.053400 7572.000000
116.061300 1856.000000
117.068900 10888.000000
118.072900 1532.000000
119.084500 17976.000000
120.087400 2300.000000
121.063800 10660.000000
121.100400 2680.000000
122.067200 1052.000000
123.079500 14244.000000
124.083400 1088.000000
125.058600 1444.000000
127.053100 1148.000000
127.073400 384.000000
128.060700 14348.000000
129.068500 23984.000000
130.074600 6132.000000
131.084500 57852.000000
132.056200 544.000000
132.088100 6080.000000
133.063600 4752.000000
133.099900 14924.000000
134.104100 1544.000000
135.079300 21836.000000
135.115500 2164.000000
136.122600 412.000000
137.058800 684.000000
137.094600 3028.000000
138.098800 448.000000
139.076000 428.000000
141.068500 11960.000000
142.075800 12684.000000
143.084200 49776.000000
144.056300 896.000000
144.089400 7900.000000
145.063500 3812.000000
145.099900 32580.000000
146.070200 1044.000000
146.103700 3712.000000
147.079000 24168.000000
147.115100 6656.000000
148.083500 3468.000000
148.120500 1044.000000
149.094500 26276.000000
150.097900 3676.000000
151.074100 2732.000000
151.109900 1120.000000
152.061400 960.000000
153.068300 3728.000000
153.090000 1524.000000
154.076400 4352.000000
155.083800 22992.000000
156.091000 14000.000000
157.099800 44128.000000
158.070400 1212.000000
158.104200 6224.000000
159.078900 28552.000000
159.115600 32456.000000
160.084100 5228.000000
160.118800 4384.000000
161.094800 10004.000000
161.130700 3312.000000
162.099300 1664.000000
162.135200 552.000000
163.074000 2560.000000
163.110400 2324.000000
164.083000 316.000000
165.068200 3664.000000
165.089300 2776.000000
166.075500 2756.000000
167.083500 6888.000000
168.091100 6308.000000
169.099500 26988.000000
170.105600 5368.000000
171.078200 3452.000000
171.115400 51092.000000
172.119700 10052.000000
173.094500 13524.000000
173.130900 9884.000000
174.098400 1932.000000
174.135400 1468.000000
175.073300 1280.000000
175.110400 6200.000000
175.151000 452.000000
176.113800 1272.000000
177.089500 22912.000000
178.076600 1440.000000
178.092900 2288.000000
179.083800 5196.000000
179.104800 964.000000
180.091600 4020.000000
181.099300 13532.000000
182.106200 5932.000000
183.078900 1952.000000
183.115500 20736.000000
184.088100 784.000000
184.120400 4972.000000
185.094000 7940.000000
185.131000 16820.000000
186.100800 1900.000000
186.134900 2492.000000
187.110900 4688.000000
187.145300 1764.000000
188.114700 1128.000000
189.089700 1512.000000
189.126000 4096.000000
190.096600 732.000000
190.131000 820.000000
191.084300 1004.000000
191.104900 3280.000000
192.092700 2296.000000
193.099300 6820.000000
193.118900 368.000000
194.107000 3252.000000
195.115300 17208.000000
196.084400 468.000000
196.120500 4336.000000
197.095400 4328.000000
197.131000 25552.000000
198.100200 1632.000000
198.134800 5052.000000
199.110500 7184.000000
199.146800 4104.000000
200.115700 1308.000000
200.151600 680.000000
201.090400 952.000000
201.126100 5292.000000
201.162300 512.000000
202.098700 400.000000
202.130000 1208.000000
203.085500 576.000000
203.105300 2928.000000
203.141300 596.000000
204.093000 684.000000
204.112600 464.000000
205.100000 2604.000000
205.120000 1756.000000
206.107200 3288.000000
207.114800 5980.000000
208.122300 2324.000000
209.094100 1644.000000
209.130600 8676.000000
210.099300 660.000000
210.136300 2256.000000
211.110100 4280.000000
211.146500 6488.000000
212.115500 1256.000000
212.150800 1832.000000
213.089500 444.000000
213.125900 6048.000000
214.132400 1508.000000
215.104700 1892.000000
215.141200 2296.000000
215.180200 344.000000
216.114300 880.000000
216.144200 396.000000
217.099800 1176.000000
217.120300 2576.000000
218.107100 1324.000000
218.125100 576.000000
219.114200 3312.000000
219.136100 4344.000000
220.123700 2280.000000
220.139500 596.000000
221.130700 8964.000000
222.101600 424.000000
222.136800 2336.000000
223.111200 1904.000000
223.147200 5872.000000
224.116800 1224.000000
224.151300 1208.000000
225.125800 3276.000000
225.163600 2708.000000
226.164100 424.000000
227.106700 708.000000
227.142200 3156.000000
227.179300 464.000000
228.111700 304.000000
228.147600 740.000000
229.121200 2288.000000
229.159700 740.000000
230.108800 348.000000
230.127200 520.000000
231.116900 1036.000000
231.136600 4744.000000
232.124200 1048.000000
232.140200 1124.000000
233.131400 4676.000000
234.100000 300.000000
234.136400 1656.000000
235.111000 880.000000
235.146500 4480.000000
236.115000 592.000000
236.151700 1448.000000
237.124900 2544.000000
237.162400 2568.000000
238.131900 896.000000
238.167200 876.000000
239.104000 504.000000
239.141700 4828.000000
239.176400 636.000000
240.149600 1620.000000
241.121500 956.000000
241.158500 1428.000000
242.126500 424.000000
242.161900 304.000000
243.112900 380.000000
243.137100 1900.000000
244.121000 312.000000
244.142200 436.000000
245.093600 468.000000
245.133200 1180.000000
245.153500 1124.000000
246.139300 1048.000000
246.160700 300.000000
247.147400 3420.000000
248.119500 348.000000
248.152700 1472.000000
249.127600 1140.000000
249.161700 2828.000000
250.132900 496.000000
250.169000 1064.000000
251.141700 2504.000000
251.178900 1884.000000
252.147200 968.000000
252.182900 448.000000
253.121800 496.000000
253.157100 3140.000000
254.125000 404.000000
254.161500 1260.000000
255.135500 1160.000000
255.172800 404.000000
257.131400 604.000000
257.152900 3212.000000
258.138500 392.000000
258.157400 896.000000
259.146800 1296.000000
260.155000 828.000000
261.125200 552.000000
261.163500 2848.000000
262.167400 1092.000000
263.143100 900.000000
263.177000 932.000000
264.149300 408.000000
264.184600 476.000000
265.123000 444.000000
265.157700 1976.000000
265.194300 928.000000
266.162300 740.000000
267.136200 772.000000
267.172900 1100.000000
268.143200 368.000000
269.151600 1036.000000
269.190300 360.000000
270.155800 340.000000
271.148900 544.000000
271.166600 584.000000
272.149800 444.000000
273.159500 592.000000
274.167400 1088.000000
275.139900 808.000000
275.177700 844.000000
276.145400 532.000000
276.185800 616.000000
277.157600 920.000000
277.191700 384.000000
278.160200 332.000000
279.137400 508.000000
279.173400 1868.000000
279.208800 508.000000
280.177000 720.000000
281.151800 1692.000000
282.157700 368.000000
283.167000 1360.000000
285.163700 420.000000
287.181600 520.000000
288.182700 536.000000
289.157600 760.000000
289.194400 1876.000000
290.195400 548.000000
291.171300 516.000000
292.181000 492.000000
293.154700 788.000000
293.190400 536.000000
294.161400 408.000000
294.195100 444.000000
295.168300 1108.000000
296.175900 592.000000
297.149500 380.000000
297.181600 436.000000
298.176100 304.000000
303.174600 412.000000
303.209300 380.000000
305.189500 956.000000
306.191300 392.000000
307.168300 492.000000
307.204200 1812.000000
308.173900 304.000000
308.205200 552.000000
309.181700 844.000000
310.187000 348.000000
313.191700 348.000000
320.177900 356.000000
321.184800 560.000000
321.219000 536.000000
322.223900 324.000000
323.201300 600.000000
325.217300 496.000000
331.204000 892.000000
334.190000 352.000000
349.213900 1512.000000
350.219800 964.000000
352.200500 352.000000
367.226200 1724.000000
368.229500 436.000000

>ms2peaks
115.053400 13256.000000
116.060800 4628.000000
117.069000 11996.000000
119.084800 13548.000000
120.087500 1824.000000
121.064000 7976.000000
121.100100 896.000000
122.066400 844.000000
123.079600 9168.000000
124.082200 920.000000
125.058500 768.000000
127.053400 1680.000000
128.061000 30540.000000
129.068600 32588.000000
130.075300 8992.000000
131.084400 58532.000000
132.055100 1040.000000
132.088200 5332.000000
133.063800 3652.000000
133.099900 9432.000000
134.071200 1256.000000
134.104100 1356.000000
135.079100 10856.000000
135.116200 1312.000000
137.060500 348.000000
137.094200 1592.000000
141.068600 21276.000000
142.076300 22084.000000
143.084300 41976.000000
144.056400 1456.000000
144.090200 8804.000000
145.063300 5672.000000
145.100000 24756.000000
146.070700 1180.000000
146.104600 3332.000000
147.079100 15884.000000
147.115700 3156.000000
148.084300 2252.000000
148.118200 480.000000
149.094300 10076.000000
150.098200 1256.000000
151.074100 768.000000
152.061200 2032.000000
153.067800 7020.000000
154.075900 8092.000000
155.084000 27988.000000
156.091400 19240.000000
157.099600 31724.000000
158.071500 1812.000000
158.104000 4260.000000
159.079000 16096.000000
159.115500 17900.000000
160.084600 3428.000000
160.119300 2528.000000
161.059400 328.000000
161.094900 4820.000000
161.130600 1156.000000
162.100100 880.000000
163.073700 860.000000
163.110800 1500.000000
165.068400 7464.000000
165.087700 652.000000
166.075000 5092.000000
167.084000 11124.000000
168.091200 9100.000000
169.099400 21064.000000
170.071600 724.000000
170.106300 5276.000000
171.078100 2792.000000
171.115500 26312.000000
172.086800 1156.000000
172.119400 3788.000000
173.094900 5600.000000
173.130600 3268.000000
174.098700 1076.000000
174.134100 528.000000
175.075400 448.000000
175.110900 2292.000000
177.089500 5896.000000
177.126400 480.000000
178.076300 2988.000000
178.092800 940.000000
179.083600 7620.000000
180.091000 6180.000000
181.063600 608.000000
181.099400 10864.000000
182.071600 456.000000
182.106900 6652.000000
183.078100 1612.000000
183.114900 12612.000000
184.087900 1156.000000
184.120400 3044.000000
185.093900 2780.000000
185.131300 6628.000000
186.100300 708.000000
186.135700 1252.000000
187.110800 2548.000000
187.147300 696.000000
188.116700 548.000000
189.069000 464.000000
189.090600 476.000000
189.127700 1012.000000
190.074900 440.000000
190.096500 316.000000
191.083900 2904.000000
191.107000 1060.000000
192.091700 3396.000000
193.099800 6548.000000
194.106700 3528.000000
195.081600 572.000000
195.115600 10592.000000
196.088800 840.000000
196.121500 3604.000000
197.095500 2028.000000
197.130500 8908.000000
198.101600 944.000000
198.135600 2132.000000
199.110700 2540.000000
199.146800 1876.000000
200.115800 648.000000
200.153600 372.000000
201.090900 468.000000
201.126100 1184.000000
202.078800 320.000000
203.085000 1452.000000
203.105700 676.000000
204.093100 804.000000
205.100100 3788.000000
206.107400 3488.000000
207.115600 4700.000000
208.088700 336.000000
208.122200 2260.000000
209.094400 1200.000000
209.131100 4656.000000
210.102200 432.000000
210.137300 1264.000000
211.109900 1796.000000
211.147100 2164.000000
212.119500 548.000000
212.152700 464.000000
213.092000 320.000000
213.126300 2304.000000
213.164800 324.000000
214.131500 924.000000
215.083100 304.000000
215.106500 580.000000
215.142300 692.000000
216.091200 312.000000
216.109700 320.000000
217.099600 1232.000000
217.121400 700.000000
218.107100 1992.000000
219.115900 3260.000000
219.137000 444.000000
220.122500 2052.000000
221.095000 604.000000
221.131200 4416.000000
222.106900 444.000000
222.137000 1260.000000
223.109700 1176.000000
223.147200 2672.000000
224.115900 484.000000
224.151600 508.000000
225.127500 1568.000000
225.162100 612.000000
226.131000 500.000000
227.145300 640.000000
228.147500 400.000000
229.099000 460.000000
229.119400 656.000000
229.155600 376.000000
230.111000 632.000000
231.116400 1396.000000
231.136400 604.000000
232.123700 1332.000000
233.131300 2504.000000
234.135800 980.000000
235.109700 512.000000
235.145700 1872.000000
236.120100 352.000000
236.152500 880.000000
237.126700 1440.000000
237.162800 1344.000000
238.132800 676.000000
238.170900 388.000000
239.105000 408.000000
239.142100 932.000000
240.154700 492.000000
241.121000 332.000000
241.154800 552.000000
243.115200 412.000000
243.135900 376.000000
244.129200 456.000000
245.131500 1108.000000
246.137600 1536.000000
247.111100 304.000000
247.148200 1736.000000
248.117100 360.000000
248.151400 556.000000
249.126200 384.000000
249.162300 1016.000000
250.133700 328.000000
250.169300 352.000000
251.141100 744.000000
251.176000 472.000000
252.147300 396.000000
253.159500 616.000000
257.131100 684.000000
259.148400 768.000000
260.151700 348.000000
261.123800 392.000000
261.160800 876.000000
262.166800 332.000000
263.143100 604.000000
263.179800 312.000000
264.150900 320.000000
265.154600 332.000000
266.164100 532.000000
269.150800 332.000000
275.182300 696.000000
277.159000 324.000000
279.174900 560.000000
283.145400 308.000000
289.193800 432.000000
293.185800 320.000000
307.206700 348.000000

>ms2peaks
55.017300 3124.000000
55.053600 4004.000000
67.053600 19480.000000
68.056700 1272.000000
69.032700 2344.000000
69.069000 3952.000000
71.048200 1968.000000
79.053700 15968.000000
80.056700 1356.000000
81.069300 21328.000000
82.073200 1972.000000
83.048700 37912.000000
84.052000 2184.000000
85.027600 5488.000000
85.064900 2024.000000
91.054400 12420.000000
92.057800 1412.000000
93.070200 36072.000000
94.073000 3040.000000
95.049500 2640.000000
95.085700 9020.000000
97.065400 159324.000000
98.068500 9716.000000
99.044600 3172.000000
105.070800 19800.000000
106.073800 1944.000000
107.086800 15884.000000
108.089800 1840.000000
109.065500 8048.000000
109.102000 2012.000000
111.045400 14940.000000
111.081400 2948.000000
115.053300 2112.000000
117.069700 7840.000000
119.085200 16636.000000
120.088800 1624.000000
121.064200 8280.000000
121.100900 3196.000000
123.080300 14444.000000
124.084000 1200.000000
125.059500 3304.000000
128.060800 3064.000000
129.069000 8928.000000
130.074200 1132.000000
131.084800 23304.000000
132.088300 2996.000000
133.063600 2504.000000
133.100400 10648.000000
134.103400 1360.000000
135.079800 18052.000000
135.115700 3528.000000
136.083900 2104.000000
137.094700 2596.000000
141.068600 3880.000000
142.075400 2292.000000
143.084600 21956.000000
144.088800 3436.000000
145.064100 1620.000000
145.100000 21576.000000
146.104400 2544.000000
147.079500 18308.000000
147.115800 4340.000000
148.083200 1908.000000
149.095300 24972.000000
150.098700 2904.000000
151.073800 5096.000000
151.111100 1296.000000
153.090300 11464.000000
155.084200 10644.000000
156.090400 3228.000000
157.099800 25908.000000
158.103700 3196.000000
159.079500 18808.000000
159.115700 21872.000000
160.083300 2272.000000
160.119300 2780.000000
161.095000 7748.000000
161.132100 2372.000000
162.099800 1352.000000
163.073900 1672.000000
163.110500 3428.000000
165.089900 5676.000000
167.084800 2624.000000
167.104900 1832.000000
168.092600 1488.000000
169.100000 14496.000000
170.104900 2204.000000
171.079100 3156.000000
171.115500 36172.000000
172.119800 5172.000000
173.095300 12636.000000
173.131200 6392.000000
174.099200 1412.000000
175.110200 7012.000000
176.115300 1308.000000
177.090000 23908.000000
177.126500 2376.000000
178.093200 2584.000000
179.084100 2152.000000
179.104900 2580.000000
181.100300 6424.000000
182.106400 1892.000000
183.078800 1352.000000
183.115800 13932.000000
184.119900 3032.000000
185.095000 8928.000000
185.131400 12968.000000
186.099100 1516.000000
186.136000 1920.000000
187.110500 8444.000000
187.146100 2240.000000
188.115100 1144.000000
189.126100 7936.000000
190.128100 1440.000000
191.105800 5292.000000
193.099700 3924.000000
194.106400 1152.000000
195.115700 15488.000000
196.121200 2784.000000
197.094800 3432.000000
197.132000 27004.000000
198.135900 5776.000000
199.110700 7952.000000
199.147700 3728.000000
200.114000 1596.000000
201.125900 9664.000000
202.130000 1684.000000
203.105700 3644.000000
203.142500 1644.000000
205.100100 1340.000000
205.121100 2488.000000
207.115600 4736.000000
209.095300 1272.000000
209.131000 8736.000000
210.136600 1652.000000
211.111000 5228.000000
211.147400 9048.000000
212.116200 1192.000000
212.151500 1852.000000
213.126400 9076.000000
213.162200 1304.000000
214.130200 2232.000000
215.106300 2456.000000
215.141700 11180.000000
216.145300 1260.000000
217.122100 5224.000000
218.124300 1144.000000
219.116700 1972.000000
219.137200 10800.000000
220.140000 1380.000000
221.132000 11352.000000
222.136500 2580.000000
223.110400 1452.000000
223.147000 5724.000000
224.152300 1344.000000
225.126700 5448.000000
225.162500 3140.000000
227.106600 1156.000000
227.142100 5780.000000
228.147000 1724.000000
229.121800 3068.000000
229.157600 1940.000000
231.137400 16028.000000
232.142100 3360.000000
233.132200 3052.000000
234.136800 1160.000000
235.147500 6872.000000
236.151400 1700.000000
237.125600 3344.000000
237.162200 2308.000000
238.131900 1256.000000
239.142300 16624.000000
240.146500 3608.000000
241.122400 1456.000000
241.157200 3164.000000
243.138800 2540.000000
243.173400 1456.000000
245.153600 2304.000000
247.147100 4064.000000
249.126300 1372.000000
249.163000 3592.000000
250.168100 1232.000000
251.143200 4260.000000
251.178500 1952.000000
253.157800 7968.000000
254.161600 1744.000000
255.137200 3160.000000
255.174700 1464.000000
257.152900 17628.000000
258.157600 5064.000000
259.164500 1400.000000
261.162700 2592.000000
263.140300 1336.000000
263.177900 1676.000000
265.158200 3036.000000
265.193000 1364.000000
267.137900 1788.000000
267.173900 3664.000000
268.177500 1136.000000
269.153100 2864.000000
269.189400 1552.000000
271.168900 2136.000000
275.141700 1192.000000
275.178800 1680.000000
276.183900 1268.000000
277.156800 1380.000000
279.173100 3868.000000
281.153600 3184.000000
283.168400 3604.000000
285.182200 2156.000000
287.178200 1588.000000
289.159100 2016.000000
289.194400 6240.000000
290.197500 1528.000000
291.174400 1700.000000
293.152800 2608.000000
293.187400 1200.000000
295.169500 10392.000000
296.172600 2608.000000
303.171800 1504.000000
303.210100 1804.000000
305.189800 3360.000000
307.169800 1676.000000
307.205600 12152.000000
308.207600 2784.000000
309.184500 2476.000000
311.200000 4760.000000
313.193800 2328.000000
321.185000 1420.000000
321.220100 5512.000000
323.200700 1500.000000
325.216500 2820.000000
331.205400 9280.000000
332.208500 2208.000000
349.216800 26916.000000
350.219400 8240.000000
367.227200 225716.000000
368.230600 71796.000000
369.233400 7476.000000

