>compound AU91890612
>parentmass 296.1257
>ionization [M+H]+
>formula C16H16F3NO
>rt 522.000000
>profile qtof
#smiles_iso C1=CC=C(C=C1)C(CCN)OC2=CC=C(C=C2)C(F)(F)F
#smiles_can C1=CC=C(C=C1)C(CCN)OC2=CC=C(C=C2)C(F)(F)F
#inchikey WIQRCHMSJFFONW-UHFFFAOYSA-N
#pubchem_id 4541
#mb_accession AU211201,AU211202

>ms2
134.095200 6948.000000
135.098800 1144.000000
203.090900 308.000000
296.125400 2484.000000

>ms2
157.048800 316.000000
162.092400 344.000000

