>compound AU91378375
>parentmass 331.01499999999993
>ionization [M+H]+
>formula C12H11ClN2O5S
>rt 361.290000
>profile qtof
#smiles_iso C1=COC(=C1)CNC2=CC(=C(C=C2C(=O)O)S(=O)(=O)N)Cl
#smiles_can C1=COC(=C1)CNC2=CC(=C(C=C2C(=O)O)S(=O)(=O)N)Cl
#inchikey ZZUFCTLCJUWOSV-UHFFFAOYSA-N
#pubchem_id 3440
#mb_accession AU269201,AU269202,AU269203,AU269204,AU269205,AU269206

>ms2
149.056200 408.000000

>ms2
149.058300 664.000000

>ms2
149.059500 584.000000
231.055700 456.000000

>ms2
231.054400 1820.000000
232.063600 340.000000
249.068900 416.000000

>ms2
231.056000 2460.000000
232.058800 456.000000
249.068100 376.000000

>ms2
81.033300 1836.000000
149.059000 840.000000
231.054100 336.000000

