>compound AU91119863
>parentmass 204.1383
>ionization [M+H]+
>formula C13H17NO
>rt 310.000000
>profile qtof
#smiles_iso CC(CC1=CC=CC=C1)[N+](C)(CC#C)[O-]
#smiles_can CC(CC1=CC=CC=C1)[N+](C)(CC#C)[O-]
#inchikey IVFPCTFUZXEDKP-UHFFFAOYSA-N
#pubchem_id 11447032
#mb_accession AU211701,AU211702,AU211703

>ms2
119.084700 63068.000000
120.087800 9920.000000
204.137500 327516.000000
205.140600 37920.000000
206.142500 3408.000000

>ms2
119.084800 9892.000000
120.087800 1572.000000
204.138500 1420.000000

>ms2
119.084200 1364.000000

