>compound AU91292391
>parentmass 404.1241
>ionization [M+H]+
>formula C22H17N3O5
>rt 536.300000
>profile qtof
#smiles_iso CO/C=C(\C1=CC=CC=C1OC2=NC=NC(=C2)OC3=CC=CC=C3C#N)/C(=O)OC
#smiles_can COC=C(C1=CC=CC=C1OC2=NC=NC(=C2)OC3=CC=CC=C3C#N)C(=O)OC
#inchikey WFDXOXNFNRHQEC-GHRIWEEISA-N
#pubchem_id 3034285
#mb_accession AU324501,AU324502,AU324503,AU324504,AU324505,AU324506

>ms2peaks
372.098300 993012.000000
373.101200 235516.000000
404.124400 796856.000000
405.127400 162588.000000
406.129900 17372.000000

>ms2peaks
344.102700 105000.000000
372.098300 1777236.000000
373.101200 412828.000000

>ms2peaks
134.058700 11636.000000
143.059100 8316.000000
145.027600 4204.000000
162.053900 3408.000000
171.054100 5440.000000
177.053800 4512.000000
183.053800 4864.000000
201.041200 4224.000000
210.041600 4232.000000
288.111800 3272.000000
301.084500 13396.000000
316.107400 39704.000000
328.071700 4432.000000
329.079400 203512.000000
330.082500 38064.000000
340.070100 3608.000000
344.103100 645316.000000
345.106100 117388.000000
372.098300 481520.000000
373.101200 103064.000000

>ms2peaks
129.043600 6508.000000
133.050800 4868.000000
141.043100 3676.000000
145.027100 8288.000000
145.050800 5332.000000
162.053800 3228.000000
170.045400 3764.000000
171.029400 4040.000000
171.053800 11604.000000
173.043700 5608.000000
177.053300 7648.000000
182.070100 5964.000000
183.054000 53416.000000
184.057600 6332.000000
201.040900 31540.000000
202.046300 4612.000000
211.048000 7772.000000
216.064600 35872.000000
217.068300 4704.000000
242.030900 3680.000000
273.088400 13464.000000
274.071600 4816.000000
274.090300 4004.000000
275.079900 3616.000000
288.112100 3272.000000
289.095700 3616.000000
301.084100 62160.000000
303.077000 3428.000000
312.076200 3652.000000
316.107500 13192.000000
317.091500 3072.000000
317.109200 3444.000000
329.079400 594128.000000
330.082500 106560.000000
344.102800 197256.000000
345.105300 42220.000000
372.097500 21736.000000

>ms2peaks
114.033100 2280.000000
116.048700 2908.000000
117.056600 1424.000000
119.035200 1596.000000
120.043200 4296.000000
121.064500 1440.000000
127.041300 3144.000000
128.047900 3172.000000
129.033000 2852.000000
129.043800 9712.000000
130.027500 3636.000000
130.048300 1720.000000
130.063800 1088.000000
131.048600 1660.000000
131.059100 1252.000000
132.043700 2752.000000
133.028200 1816.000000
134.035300 1880.000000
134.059000 25760.000000
135.062400 1784.000000
140.048800 960.000000
141.043600 7080.000000
142.048900 1220.000000
143.035800 4004.000000
143.059000 12128.000000
144.043300 6488.000000
145.027200 5304.000000
145.051100 16576.000000
146.023300 2484.000000
146.057200 2716.000000
147.042700 1588.000000
154.028200 964.000000
154.051500 1796.000000
155.035200 2268.000000
155.058800 6208.000000
156.043500 83188.000000
157.027300 4864.000000
157.047000 8988.000000
158.033100 984.000000
159.030800 1192.000000
159.054200 2268.000000
160.038200 2608.000000
161.069700 1496.000000
162.030000 2412.000000
162.053800 996.000000
169.038300 8988.000000
170.022700 1636.000000
170.046000 6164.000000
171.029800 5428.000000
172.038400 106884.000000
173.044000 13732.000000
174.049300 1464.000000
175.037900 1308.000000
177.053600 4248.000000
181.038600 1344.000000
182.070700 4436.000000
183.054400 111712.000000
184.038600 3556.000000
185.035100 1492.000000
186.053900 3484.000000
187.049100 3008.000000
197.034100 1620.000000
197.070100 1328.000000
198.039700 1656.000000
201.040900 38260.000000
201.064900 4536.000000
202.044700 4644.000000
204.080400 980.000000
207.054400 1596.000000
210.065400 3156.000000
211.048500 12880.000000
212.051600 1976.000000
216.065100 8408.000000
217.068700 1392.000000
218.083700 2292.000000
219.089200 956.000000
220.075400 1060.000000
227.044200 2348.000000
229.074900 1276.000000
231.092300 1916.000000
232.077200 1600.000000
233.071600 1800.000000
233.088000 996.000000
236.069100 1252.000000
242.031800 6712.000000
244.086400 4844.000000
245.093000 2924.000000
246.078600 5344.000000
247.084200 2588.000000
256.087900 1608.000000
257.069700 2132.000000
258.077200 2784.000000
259.084500 3044.000000
260.072900 1488.000000
260.087200 1304.000000
261.078700 2440.000000
261.101100 980.000000
262.084700 1948.000000
271.082600 1508.000000
275.079700 7940.000000
276.083600 1720.000000
284.080500 2640.000000
285.063900 1176.000000
285.088400 1308.000000
286.094900 952.000000
287.080900 3616.000000
288.065000 1968.000000
288.085700 1472.000000
288.109300 952.000000
289.096000 1188.000000
301.084100 57380.000000
302.087700 11940.000000
312.077800 2444.000000
314.090700 1584.000000
315.099200 1456.000000
316.106200 1532.000000
329.079300 187524.000000
330.081700 35532.000000
331.085100 3684.000000
344.102400 10728.000000
345.106600 2888.000000

>ms2peaks
129.044400 10176.000000
133.051700 4840.000000
134.059900 51824.000000
143.060300 29632.000000
145.028100 14312.000000
156.043600 11312.000000
162.054200 7552.000000
169.038900 9864.000000
171.054900 10600.000000
172.038600 30720.000000
177.054100 9424.000000
183.054300 24976.000000
199.049400 5500.000000
201.040600 16824.000000
201.065100 18956.000000
210.041100 12556.000000
210.065400 16540.000000
211.047600 5068.000000
216.065200 45240.000000
217.068100 5932.000000
272.081900 7208.000000
273.066100 5412.000000
273.088200 8076.000000
287.080900 16600.000000
288.112100 5868.000000
289.096400 7464.000000
300.077400 8212.000000
301.085000 52092.000000
302.086500 10984.000000
303.076200 13072.000000
312.075800 5784.000000
315.100000 11308.000000
316.107600 63360.000000
317.092300 10304.000000
317.109300 12020.000000
328.071700 24152.000000
329.079700 688076.000000
330.082800 145540.000000
331.084700 11644.000000
340.070600 5176.000000
344.103200 963148.000000
345.105900 194844.000000
346.108100 18276.000000
372.098300 861996.000000
373.101300 449148.000000
374.103900 46040.000000

