>compound AU92817305
>parentmass 353.0914
>ionization [M+H]+
>formula C14H16N4O5S
>rt 360.000000
>profile qtof
#smiles_iso CC(=O)NC1=CC=C(C=C1)S(=O)(=O)NC2=NC(=CC(=N2)OC)OC
#smiles_can CC(=O)NC1=CC=C(C=C1)S(=O)(=O)NC2=NC(=CC(=N2)OC)OC
#inchikey DQWIIKBKAIPUPY-UHFFFAOYSA-N
#pubchem_id 168167
#mb_accession AU201102,AU201103,AU201104,AU201105

>ms2peaks
134.059800 1072.000000
154.061500 828.000000
155.068100 2404.000000
156.008700 320.000000
156.076100 4972.000000
157.076900 496.000000
162.065900 452.000000
198.020800 4348.000000
199.026000 556.000000
200.016600 360.000000
212.036800 480.000000
218.023600 1260.000000
257.102700 404.000000
287.115000 2712.000000
288.118400 500.000000
321.065700 1072.000000
353.091600 45612.000000
354.094100 7320.000000
355.091500 2444.000000

>ms2peaks
125.057200 1376.000000
126.065100 1224.000000
127.049400 944.000000
134.058800 10248.000000
135.062300 1204.000000
136.073600 312.000000
140.045100 676.000000
148.074600 764.000000
150.054100 1284.000000
154.059800 8400.000000
155.067600 10736.000000
156.009300 1052.000000
156.075500 13048.000000
157.047200 384.000000
157.078000 972.000000
159.055600 456.000000
162.064400 1400.000000
164.069000 1236.000000
170.054700 688.000000
173.058500 408.000000
176.082100 360.000000
198.020800 8176.000000
212.035500 864.000000
215.069200 1284.000000
218.022100 2904.000000
230.077800 528.000000
236.032200 668.000000
245.102800 880.000000
257.101200 792.000000
272.087900 600.000000
287.113700 6024.000000
288.116700 1336.000000
321.067100 1268.000000
353.090800 9240.000000

>ms2peaks
124.047800 380.000000
125.057700 2828.000000
126.065100 2332.000000
127.049100 1276.000000
127.065200 324.000000
134.059100 13700.000000
139.037500 556.000000
140.016200 324.000000
140.043900 1496.000000
141.052700 1340.000000
148.074400 488.000000
150.054600 752.000000
155.067100 7056.000000
156.010300 1500.000000
156.075500 8640.000000
157.046600 420.000000
157.079100 784.000000
159.053800 500.000000
162.065500 740.000000
164.069800 960.000000
173.057700 3204.000000
174.060500 556.000000
198.020400 1664.000000
215.068000 2208.000000
216.073100 360.000000
218.021400 932.000000
230.078400 1444.000000
231.084000 316.000000
245.102900 916.000000
269.099200 312.000000
272.087800 424.000000
287.114300 968.000000
353.091600 328.000000

>ms2peaks
124.048400 356.000000
125.057200 2816.000000
126.065000 2128.000000
127.049500 1016.000000
134.059000 4684.000000
135.061900 444.000000
139.037200 468.000000
140.043800 1096.000000
141.052500 1416.000000
145.062600 444.000000
154.060100 15708.000000
156.075100 4544.000000
157.045900 548.000000
164.071100 352.000000
172.051000 492.000000
172.073900 372.000000
173.057300 4244.000000
174.060100 504.000000
215.066600 552.000000
229.073600 348.000000
229.080700 312.000000
230.079500 660.000000

