>compound AU92844241
>parentmass 256.1696
>ionization [M+H]+
>formula C17H21NO
>rt 387.070000
>profile qtof
#smiles_iso CN(C)CCOC(C1=CC=CC=C1)C2=CC=CC=C2
#smiles_can CN(C)CCOC(C1=CC=CC=C1)C2=CC=CC=C2
#inchikey ZZVUWRFHKOJYTH-UHFFFAOYSA-N
#pubchem_id 3100
#mb_accession AU267101,AU267102,AU267103,AU267104,AU267105,AU267106

>ms2peaks
167.085300 2505392.000000
168.087900 441708.000000
169.091000 24420.000000
256.169200 259020.000000
257.172100 42852.000000

>ms2peaks
152.061000 90048.000000
153.063800 13328.000000
165.068700 116700.000000
166.075400 43904.000000
167.085300 2498072.000000
168.087900 500712.000000
169.091000 23600.000000

>ms2peaks
152.061000 500584.000000
153.064300 61060.000000
165.068800 596596.000000
166.075700 212104.000000
167.085000 2485936.000000
168.087900 386884.000000
169.063300 18220.000000
169.090900 18492.000000

>ms2peaks
128.061300 32680.000000
141.069100 40904.000000
151.053200 27788.000000
152.061300 1457724.000000
153.064700 140880.000000
164.060800 11904.000000
165.069100 1587640.000000
166.076000 523440.000000
167.084800 1798344.000000
168.088100 167924.000000
169.063700 38584.000000

>ms2peaks
115.053700 20492.000000
128.061100 95728.000000
139.052800 15812.000000
141.068800 92156.000000
150.045200 12324.000000
151.053000 42528.000000
152.061100 1763812.000000
153.064500 180252.000000
163.052900 17052.000000
164.060400 26724.000000
165.069000 2187804.000000
166.075300 575212.000000
167.083900 297348.000000
168.087400 31268.000000
169.063600 52324.000000

>ms2peaks
152.061300 174224.000000
153.064700 19764.000000
165.069200 221016.000000
166.075900 83932.000000
167.085600 1298860.000000
168.088300 264536.000000
169.091600 13932.000000

