>compound AU92590218
>parentmass 204.0995
>ionization [M+H]+
>formula C10H12F3N
>rt 354.000000
>profile qtof
#smiles_iso CC(CC1=CC(=CC=C1)C(F)(F)F)N
#smiles_can CC(CC1=CC(=CC=C1)C(F)(F)F)N
#inchikey MLBHFBKZUPLWBD-UHFFFAOYSA-N
#pubchem_id 15897
#mb_accession AU211501,AU211502,AU211503,AU211504,AU211505

>ms2peaks
159.040900 126256.000000
160.044100 10228.000000
187.072500 187144.000000
188.074800 18780.000000
204.099200 184920.000000
205.102100 16352.000000

>ms2peaks
139.035000 1400.000000
147.060300 760.000000
159.040600 496300.000000
160.044100 33516.000000
187.071500 25808.000000
188.074800 3288.000000
204.098600 2636.000000

>ms2peaks
109.044800 2068.000000
119.028100 1400.000000
139.034700 7164.000000
147.034800 2596.000000
159.040900 416296.000000
160.044100 30632.000000

>ms2peaks
109.044300 5524.000000
119.028200 4336.000000
133.024400 1428.000000
137.038900 1200.000000
139.034200 12956.000000
140.037900 1424.000000
146.051000 1156.000000
147.034100 8960.000000
158.032200 904.000000
159.040500 179056.000000
160.043800 14320.000000
161.047800 908.000000

>ms2peaks
109.044600 4544.000000
110.048100 616.000000
113.019100 624.000000
119.028400 6012.000000
120.032200 952.000000
127.034700 344.000000
131.029100 308.000000
132.016100 584.000000
133.025000 2776.000000
137.039400 1488.000000
138.026900 1364.000000
139.034600 8116.000000
140.038600 1120.000000
141.024600 400.000000
146.051600 1372.000000
147.034100 8160.000000
148.037400 968.000000
151.034200 888.000000
158.033000 1608.000000
159.040500 36236.000000
160.044100 3896.000000

