>compound AU92400314
>parentmass 339.2166
>ionization [M+H]+
>formula C19H30O5
>rt 569.120000
>profile qtof
#smiles_iso CCCCOCCOCCOCC1=CC2=C(C=C1CCC)OCO2
#smiles_can CCCCOCCOCCOCC1=CC2=C(C=C1CCC)OCO2
#inchikey FIPWRIJSWJWJAI-UHFFFAOYSA-N
#pubchem_id 5794
#mb_accession AU229601,AU229602,AU229606

>ms2
178.120200 388.000000

>ms2
279.098400 42584.000000
280.101500 7108.000000
281.105400 1092.000000
297.108300 1996.000000
298.112200 360.000000

>ms2
171.140600 332.000000
178.121100 340.000000
279.098800 14512.000000
280.102100 2460.000000
297.110000 556.000000

