>compound AU92598711
>parentmass 214.02970000000002
>ionization [M+H]+
>formula C5H12NO4PS
>rt 194.660000
>profile qtof
#smiles_iso CNC(=O)CSP(=O)(OC)OC
#smiles_can CNC(=O)CSP(=O)(OC)OC
#inchikey PZXOQEXFMJCDPG-UHFFFAOYSA-N
#pubchem_id 14210
#mb_accession AU302701,AU302702,AU302703,AU302704,AU302705,AU302706

>ms2
124.982200 59184.000000
142.992900 158896.000000
154.992900 225720.000000
173.003600 16160.000000
182.003900 24848.000000
182.988200 1588140.000000
183.991100 56404.000000
184.984300 42660.000000
196.020000 308960.000000
197.022800 17064.000000
198.015800 9976.000000
214.030700 1667548.000000
215.033200 70196.000000
216.026900 45884.000000

>ms2
109.005200 4784.000000
124.982300 814016.000000
125.984800 16372.000000
126.977900 23960.000000
127.015500 12892.000000
140.977100 4704.000000
142.993000 478264.000000
144.988800 18884.000000
150.032200 4192.000000
154.993100 652088.000000
155.995800 17812.000000
156.988900 19568.000000
173.003600 29728.000000
182.003900 18608.000000
182.988300 220704.000000
183.990800 10312.000000
184.984700 9036.000000
196.019700 78444.000000
197.022800 5268.000000
214.030300 14692.000000

>ms2
109.005400 10464.000000
124.982600 480692.000000
125.985100 11564.000000
126.978300 18388.000000
127.015900 16160.000000
142.993200 184476.000000
144.989100 7596.000000
154.993100 46452.000000
182.987500 2832.000000

>ms2
109.005200 5800.000000
124.982600 128692.000000
125.985700 4864.000000
126.978300 5808.000000
127.015600 7692.000000
142.993100 56440.000000
144.989100 3176.000000
154.993200 1612.000000

>ms2
109.005700 1516.000000
124.982500 26132.000000
125.985200 1152.000000
126.977800 1380.000000
127.015700 2392.000000
142.992900 11504.000000
143.997100 732.000000
144.988400 1132.000000

>ms2
61.010000 16916.000000
63.006400 832.000000
72.043900 6780.000000
76.020700 2664.000000
78.994500 1880.000000
88.021800 2100.000000
104.017300 3808.000000
109.004400 1284.000000
111.022000 1000.000000
124.981300 70656.000000
125.983300 1780.000000
126.976800 2536.000000
127.015100 47036.000000
128.018200 1164.000000
128.976000 1124.000000
140.974700 864.000000
142.991600 131704.000000
143.994200 5312.000000
144.987300 7960.000000
150.029900 1136.000000
154.991500 73840.000000
155.994300 2396.000000
156.987500 2472.000000
157.006400 860.000000
173.001900 10956.000000
182.001600 4412.000000
182.986500 54868.000000
183.990600 3568.000000
184.982600 1932.000000
196.017900 22504.000000
197.020100 784.000000
198.014800 664.000000
214.028700 6524.000000

