>compound AU93992274
>parentmass 586.2904
>ionization [M+Na]+
>formula C30H46NO7P
>rt 735.780000
>profile qtof
#smiles_iso CCC(=O)OC(C(C)C)OP(=O)(CCCCC1=CC=CC=C1)CC(=O)N2C[C@@H](C[C@H]2C(=O)O)C3CCCCC3
#smiles_can CCC(=O)OC(C(C)C)OP(=O)(CCCCC1=CC=CC=C1)CC(=O)N2CC(CC2C(=O)O)C3CCCCC3
#inchikey BIDNLKIUORFRQP-FKDWWROVSA-N
#pubchem_id 55891
#mb_accession AU224734

>ms2
219.054900 432.000000
220.132100 1328.000000
237.066600 1764.000000
244.133100 452.000000
261.065500 748.000000
262.144500 1400.000000
279.077300 4764.000000
280.081800 468.000000
458.209300 6124.000000
459.212000 1992.000000

