>compound AU93972455
>parentmass 330.1006
>ionization [M+H]+
>formula C14H19NO6S
>rt 653.960000
>profile qtof
#smiles_iso CCC1=CC=CC(=C1N([C@@H](C)C(=O)O)C(=O)CS(=O)(=O)O)C
#smiles_can CCC1=CC=CC(=C1N(C(C)C(=O)O)C(=O)CS(=O)(=O)O)C
#inchikey WOXWIWNBIJDJHI-JTQLQIEISA-N
#pubchem_id 71312478
#mb_accession AU255701,AU255702,AU255703,AU255704,AU255705,AU255706

>ms2peaks
131.084100 1096.000000
149.059000 664.000000
174.989900 300.000000
251.001100 336.000000
252.997000 372.000000
284.059700 2848.000000
285.064900 816.000000
286.057500 2072.000000
330.102100 5156.000000

>ms2peaks
129.072600 328.000000
131.084500 5260.000000
132.087900 1084.000000
149.058400 624.000000
223.065000 380.000000
284.058900 1324.000000
285.066400 424.000000
286.056700 880.000000
297.043400 300.000000
330.102300 472.000000

>ms2peaks
129.069100 332.000000
131.085000 3908.000000
149.058300 540.000000
225.043000 372.000000
283.029400 316.000000

>ms2peaks
115.052500 384.000000
129.068300 872.000000
131.084800 2248.000000
132.088800 320.000000
160.110700 624.000000

>ms2peaks
115.053700 468.000000
116.061200 516.000000
129.069400 624.000000
131.085200 792.000000
225.041600 372.000000

>ms2peaks
129.069400 560.000000
131.085700 7796.000000
132.088300 912.000000
149.059400 580.000000
160.112000 332.000000
284.060100 432.000000
286.055500 324.000000
298.114800 336.000000
330.103100 328.000000

