>compound AU93207985
>parentmass 192.1383
>ionization [M+H]+
>formula C12H17NO
>rt 485.790000
>profile qtof
#smiles_iso CCN(CC)C(=O)C1=CC=CC(=C1)C
#smiles_can CCN(CC)C(=O)C1=CC=CC(=C1)C
#inchikey MMOXZBCLCQITDF-UHFFFAOYSA-N
#pubchem_id 4284
#mb_accession AU335301,AU335302,AU335303,AU335304,AU335305,AU335306

>ms2
119.048400 65888.000000
192.137900 1236424.000000
193.141100 108412.000000
194.143800 6752.000000

>ms2
119.048600 254436.000000
164.106000 820.000000
192.137900 171664.000000
193.141100 15672.000000
194.143800 1188.000000

>ms2
118.064500 2588.000000
119.048500 61040.000000
120.051500 5600.000000
121.054000 528.000000
135.043300 312.000000
164.106900 440.000000
192.137400 3240.000000

>ms2
118.064500 1852.000000
119.048500 8708.000000
120.051300 888.000000

>ms2
118.064400 2528.000000
119.048700 1880.000000
130.064400 640.000000
148.076000 436.000000

>ms2
65.037900 8240.000000
67.053700 4744.000000
72.043900 105844.000000
72.080100 6100.000000
91.054800 88512.000000
92.057600 6972.000000
100.076500 68192.000000
109.066600 52860.000000
118.064800 5432.000000
119.049900 720420.000000
120.053000 52152.000000
192.137700 350824.000000
193.141000 33228.000000

