>compound AU93707282
>parentmass 130.1087
>ionization [M+H]+
>formula C4H11N5
>rt 87.000000
>profile qtof
#smiles_iso CN(C)C(=N)N=C(N)N
#smiles_can CN(C)C(=N)N=C(N)N
#inchikey XZWYZXLIPXDOLR-UHFFFAOYSA-N
#pubchem_id 4091
#mb_accession AU112702,AU112703

>ms2peaks
113.083000 452.000000
130.108200 3232.000000

>ms2peaks
113.081800 1556.000000
130.107900 135820.000000

