>compound AU93898635
>parentmass 220.11210000000003
>ionization [M+H]+
>formula C16H13N
>rt 699.450000
>profile qtof
#smiles_iso C1=CC=C(C=C1)NC2=CC=CC3=CC=CC=C32
#smiles_can C1=CC=C(C=C1)NC2=CC=CC3=CC=CC=C32
#inchikey XQVWYOYUZDUNRW-UHFFFAOYSA-N
#pubchem_id 7013
#mb_accession AU242601,AU242602,AU242603,AU242604,AU242605,AU242606

>ms2peaks
143.071000 2320.000000
177.053100 1292.000000
219.103400 23152.000000
220.111600 205488.000000
221.114600 35248.000000
222.116700 3696.000000

>ms2peaks
115.054000 1796.000000
128.060500 3836.000000
142.063500 5952.000000
143.071400 33648.000000
144.074600 4744.000000
192.090700 708.000000
193.099300 720.000000
203.083000 3096.000000
204.079300 1100.000000
204.089000 600.000000
205.088300 1892.000000
218.094800 5144.000000
219.103200 17440.000000
220.111100 102652.000000
221.114200 18056.000000
222.117100 1728.000000

>ms2peaks
115.053700 7760.000000
116.060500 1496.000000
126.045500 524.000000
127.053200 1128.000000
128.061200 9896.000000
129.064400 1576.000000
142.064200 4740.000000
143.071800 96768.000000
144.075000 13148.000000
145.079500 808.000000
165.069500 564.000000
178.074800 1416.000000
191.083900 720.000000
192.091000 712.000000
193.097700 936.000000
202.077000 3352.000000
203.084400 3896.000000
204.080600 2872.000000
205.086600 2036.000000
206.091400 496.000000
217.087000 4488.000000
218.095400 12428.000000
219.102500 9612.000000
220.110600 15004.000000
221.115000 2852.000000

>ms2peaks
115.053800 12168.000000
116.060600 4492.000000
117.055900 528.000000
117.066100 504.000000
126.045100 1672.000000
127.053700 1248.000000
128.060800 9360.000000
129.064400 1408.000000
142.063200 1992.000000
143.072000 71884.000000
144.074900 7760.000000
145.079600 448.000000
165.067500 460.000000
171.013000 380.000000
178.076700 1160.000000
191.083900 1708.000000
192.090100 616.000000
193.090500 372.000000
202.076500 4964.000000
203.082600 1400.000000
204.079700 2136.000000
205.085000 1096.000000
216.079500 816.000000
217.087400 11760.000000
218.094300 7192.000000
219.100000 2588.000000
220.110900 804.000000

>ms2peaks
115.053100 12680.000000
116.061100 3536.000000
117.056900 528.000000
126.044900 2076.000000
127.053500 1092.000000
128.048700 320.000000
128.061000 4624.000000
129.063300 676.000000
140.048200 508.000000
142.063900 2508.000000
143.071800 29176.000000
144.074700 3320.000000
152.061500 520.000000
165.068100 392.000000
171.012500 788.000000
178.075100 472.000000
189.067700 884.000000
190.075200 416.000000
191.083000 692.000000
192.091100 308.000000
201.066800 332.000000
202.076800 2044.000000
204.079700 584.000000
216.080000 1556.000000
217.086700 7188.000000
218.092700 2008.000000
219.099400 396.000000

>ms2peaks
92.049000 1552.000000
115.053300 5268.000000
116.060200 868.000000
128.061100 7056.000000
142.063700 6060.000000
143.072000 73840.000000
144.075100 8180.000000
149.022700 1828.000000
178.076500 620.000000
193.101200 744.000000
202.076500 1204.000000
203.085000 3360.000000
204.082800 1592.000000
205.088300 2000.000000
217.086800 1024.000000
218.095500 9200.000000
219.103200 20668.000000
220.111600 121656.000000
221.114700 15856.000000
222.117200 1512.000000

