>compound AU94692521
>parentmass 127.0727
>ionization [M+H]+
>formula C3H6N6
>rt 90.880000
>profile qtof
#smiles_iso C1(=NC(=NC(=N1)N)N)N
#smiles_can C1(=NC(=NC(=N1)N)N)N
#inchikey JDSHMPZPIAZGSV-UHFFFAOYSA-N
#pubchem_id 7955
#mb_accession AU387001,AU387002,AU387006

>ms2
127.072700 41440.000000

>ms2
127.072400 7540.000000

>ms2
60.055300 756.000000
68.023900 728.000000
85.050700 2368.000000
127.072500 28484.000000
128.073800 1104.000000

