>compound AU94493042
>parentmass 404.0895
>ionization [M+H]+
>formula C20H18ClNO6
>rt 548.556000
>profile qtof
#smiles_iso CC1CC2=C(C=C(C(=C2C(=O)O1)O)C(=O)NC(CC3=CC=CC=C3)C(=O)O)Cl
#smiles_can CC1CC2=C(C=C(C(=C2C(=O)O1)O)C(=O)NC(CC3=CC=CC=C3)C(=O)O)Cl
#inchikey RWQKHEORZBHNRI-UHFFFAOYSA-N
#pubchem_id 4580
#mb_accession AU596600,AU596601,AU596602,AU596603,AU596604

>ms2
120.080300 644.000000
239.009900 1256.000000
241.006300 440.000000
257.020400 1340.000000
259.017200 488.000000
341.059300 304.000000
358.083400 5896.000000
359.086600 1524.000000
360.081900 2128.000000
361.085600 352.000000
386.076800 1600.000000
387.084300 356.000000
388.076500 688.000000
404.087700 23780.000000

>ms2
120.080100 1012.000000
239.009900 13976.000000
240.013100 1904.000000
241.007100 4988.000000
242.007400 440.000000
257.020300 19984.000000
258.024200 2024.000000
259.017400 5488.000000
260.020000 512.000000
271.035600 536.000000
341.057400 3524.000000
342.059300 756.000000
343.054500 920.000000
344.051700 324.000000
358.082400 11796.000000
359.086700 2872.000000
360.081800 3628.000000
361.083000 404.000000
386.076200 384.000000
404.087600 1596.000000

>ms2
120.081400 952.000000
137.013800 300.000000
165.009700 436.000000
193.005400 772.000000
211.015700 744.000000
220.999700 1944.000000
222.998800 612.000000
239.010500 23676.000000
240.014100 3276.000000
241.007400 8444.000000
242.010800 568.000000
257.020800 26096.000000
258.023700 4080.000000
259.018100 7372.000000
260.022000 840.000000
271.033300 844.000000
341.058200 1488.000000
342.062600 328.000000
343.052400 472.000000
358.086000 588.000000

>ms2
120.079500 384.000000
137.014800 1096.000000
165.009900 1040.000000
193.004600 3996.000000
194.007400 556.000000
195.001600 1020.000000
211.015300 2964.000000
212.019500 568.000000
213.014100 1024.000000
220.999200 5268.000000
222.003700 592.000000
222.996600 2084.000000
239.010100 25304.000000
240.013400 3592.000000
241.007300 10116.000000
242.012300 820.000000
257.020600 17312.000000
258.024600 2264.000000
259.018000 4740.000000
271.037300 552.000000
341.055900 484.000000

>ms2
130.040300 396.000000
137.014600 3784.000000
138.019400 768.000000
139.011700 804.000000
165.010200 3952.000000
166.012000 436.000000
167.006700 1456.000000
183.019400 488.000000
193.004900 9896.000000
194.007800 1444.000000
194.983800 384.000000
195.001600 2216.000000
196.005500 320.000000
211.015300 6680.000000
212.019100 716.000000
213.012000 1660.000000
220.999800 5996.000000
222.003600 932.000000
222.997300 2020.000000
239.010500 19328.000000
240.014100 2980.000000
241.007300 5704.000000
242.009800 732.000000
253.026000 336.000000
257.020200 4052.000000
258.024800 984.000000
259.017400 1424.000000
271.036100 356.000000

