>compound AU94022670
>parentmass 212.05850000000007
>ionization [M+H]+
>formula C9H10ClN3O
>rt 277.516364
>profile qtof
#smiles_iso C1CN(C(=O)N1)CC2=CN=C(C=C2)Cl
#smiles_can C1CN(C(=O)N1)CC2=CN=C(C=C2)Cl
#inchikey ADWTYURAFSWNSU-UHFFFAOYSA-N
#pubchem_id 15390532
#mb_accession AU204901,AU204902,AU204903,AU204904,AU204905,AU259101,AU259102,AU259103,AU259104,AU259105,AU259106

>ms2peaks
126.009300 2764.000000
128.025000 36472.000000
129.028200 2508.000000
130.022000 11900.000000
176.081400 1544.000000
195.031300 2500.000000
212.057500 1288212.000000
213.060400 85540.000000
214.054800 258940.000000
215.057400 10740.000000

>ms2peaks
126.009600 71624.000000
127.014200 8612.000000
128.006400 18824.000000
128.025300 362696.000000
129.028400 17900.000000
130.022000 91856.000000
131.025400 3144.000000
133.074700 4048.000000
169.015400 2568.000000
169.051700 6656.000000
176.080700 21092.000000
194.046700 5256.000000
195.031000 15180.000000
196.035900 1820.000000
197.028500 4644.000000
212.057800 409880.000000
213.060400 29960.000000
214.054800 101792.000000
215.057400 4280.000000

>ms2peaks
114.010400 4880.000000
116.007100 2588.000000
118.051800 1052.000000
120.066600 1664.000000
121.075200 1224.000000
123.054200 1616.000000
126.009600 111508.000000
127.014200 24008.000000
128.006400 30992.000000
128.025300 202324.000000
129.028400 12176.000000
130.022200 56480.000000
131.025400 1916.000000
131.059900 1308.000000
132.067300 1300.000000
133.075000 9944.000000
134.078700 1048.000000
141.020000 2664.000000
142.004900 3920.000000
142.027700 1772.000000
144.020400 3676.000000
164.092600 1856.000000
167.036300 1252.000000
168.020700 1180.000000
169.015800 2736.000000
169.051700 3904.000000
171.048400 1060.000000
176.081300 14564.000000
194.047300 4576.000000
195.030900 4744.000000
196.043300 1948.000000
212.057700 19008.000000

>ms2peaks
114.009700 4572.000000
116.007100 1780.000000
116.049100 468.000000
117.057100 388.000000
118.052100 2068.000000
119.058200 704.000000
120.067400 832.000000
121.074100 656.000000
123.053800 1328.000000
123.995700 304.000000
126.009600 48888.000000
127.014200 24748.000000
128.006400 16152.000000
128.025300 51644.000000
129.028400 3608.000000
130.022200 16400.000000
131.025400 612.000000
131.059300 1984.000000
132.066700 1408.000000
133.075100 4316.000000
134.046100 396.000000
134.080900 624.000000
135.056200 376.000000
137.080300 400.000000
139.005300 520.000000
140.025300 452.000000
141.020400 5224.000000
142.004300 2144.000000
142.026600 1768.000000
143.017900 1808.000000
143.033600 512.000000
144.020300 3740.000000
151.004600 1044.000000
152.009600 616.000000
153.004000 1120.000000
154.028100 1044.000000
156.024100 328.000000
164.091700 828.000000
165.021400 556.000000
167.036600 536.000000
168.019500 512.000000
169.014300 1272.000000
169.050900 784.000000
176.079900 2352.000000
177.088500 308.000000
194.046700 1824.000000
195.030300 504.000000
210.044400 500.000000
212.059900 576.000000

>ms2peaks
114.010100 1628.000000
118.051200 1072.000000
119.059400 636.000000
120.066400 428.000000
123.996200 404.000000
126.009600 13168.000000
127.014200 12588.000000
128.025300 9064.000000
129.028400 584.000000
130.022200 3960.000000
131.059600 1824.000000
132.067000 968.000000
133.074000 1348.000000
137.081200 392.000000
140.024900 348.000000
141.020800 3952.000000
142.004800 528.000000
142.025500 412.000000
143.018400 1464.000000
144.020000 1284.000000
151.005000 672.000000
151.051200 308.000000
152.012400 496.000000
153.019800 1652.000000
155.017400 588.000000
165.020900 308.000000
166.027900 412.000000
169.014100 608.000000
194.047800 496.000000

>ms2peaks
128.025100 90988.000000
130.021900 25412.000000
212.057900 2352128.000000
213.060600 189720.000000
214.055100 571776.000000

>ms2peaks
126.009600 125828.000000
127.015800 16520.000000
128.006500 36040.000000
128.025400 579988.000000
129.028200 34660.000000
130.022300 166080.000000
131.025200 6796.000000
133.074700 6280.000000
169.014700 5224.000000
169.051300 12416.000000
176.080500 41784.000000
177.084500 4156.000000
194.046700 10680.000000
195.030600 32044.000000
196.040900 4136.000000
197.028200 9256.000000
212.057800 732420.000000
213.060400 62660.000000
214.054800 201744.000000

>ms2peaks
114.009600 6452.000000
116.006600 2980.000000
118.051500 2300.000000
120.067400 3480.000000
123.054400 3496.000000
126.009600 183328.000000
127.016500 45944.000000
128.006400 59304.000000
128.025300 376420.000000
129.014200 13668.000000
129.028100 22364.000000
130.022300 116448.000000
131.025300 4376.000000
131.058800 3320.000000
132.066200 2880.000000
133.074900 19132.000000
134.079400 2168.000000
141.020500 6364.000000
142.004400 5480.000000
142.028000 3996.000000
143.017300 1936.000000
144.001300 2144.000000
144.020400 8724.000000
146.016900 2640.000000
167.035200 2184.000000
168.019600 2616.000000
169.014900 4576.000000
169.051400 6444.000000
171.048600 2524.000000
176.080500 31236.000000
177.084600 3692.000000
194.046300 11688.000000
195.030300 10048.000000
196.042800 3788.000000
197.028100 2804.000000
212.057400 36172.000000
213.059200 4652.000000
214.054500 12552.000000

>ms2peaks
114.010200 3188.000000
116.049900 656.000000
117.045100 388.000000
117.058600 360.000000
118.050900 2372.000000
119.058900 1316.000000
120.066600 1276.000000
121.075400 880.000000
123.054000 1692.000000
126.009400 62092.000000
127.016900 30212.000000
128.006300 22512.000000
128.024900 64952.000000
129.013900 9324.000000
129.028100 5060.000000
130.022000 22956.000000
131.025400 1044.000000
131.058400 2688.000000
132.066300 2252.000000
133.075000 5980.000000
134.045100 528.000000
134.078800 536.000000
135.053900 340.000000
139.002900 492.000000
140.024400 1148.000000
141.020000 8008.000000
142.003300 2396.000000
142.026800 2092.000000
143.017100 2256.000000
144.001200 732.000000
144.019700 4252.000000
146.016800 1404.000000
147.053500 396.000000
148.083300 368.000000
149.071600 500.000000
151.003900 1584.000000
152.012100 648.000000
153.001100 620.000000
153.018800 2408.000000
154.008000 536.000000
154.027700 1224.000000
155.016300 644.000000
155.035300 356.000000
156.026000 336.000000
158.068300 388.000000
159.054300 872.000000
159.077800 368.000000
165.021500 860.000000
166.015800 384.000000
166.026100 476.000000
167.036200 1008.000000
168.018800 476.000000
169.015100 1756.000000
169.051900 1236.000000
171.011500 604.000000
171.049700 476.000000
176.080100 2252.000000
177.086800 596.000000
194.046600 2508.000000
195.031600 676.000000
196.043700 924.000000
210.042900 816.000000
212.057900 1040.000000
214.058000 384.000000

>ms2peaks
114.009600 1996.000000
116.007800 740.000000
116.038500 396.000000
116.049700 444.000000
117.043900 684.000000
118.052300 1232.000000
119.058900 1036.000000
120.066000 472.000000
121.075000 428.000000
123.994300 340.000000
126.009700 17960.000000
127.017000 21580.000000
128.006300 6608.000000
128.024700 13852.000000
129.014300 8928.000000
129.042900 448.000000
130.022200 5576.000000
131.059200 2576.000000
132.066500 1168.000000
133.075100 2412.000000
135.053100 400.000000
139.004700 416.000000
140.027700 496.000000
141.020000 6524.000000
142.005600 432.000000
142.025800 940.000000
143.017600 2084.000000
144.019900 2132.000000
146.016200 916.000000
151.004900 1108.000000
152.013200 788.000000
153.001100 504.000000
153.020200 2096.000000
154.008700 456.000000
154.028600 520.000000
155.018000 660.000000
155.034200 352.000000
158.070800 308.000000
165.019700 632.000000
168.020300 332.000000
169.014400 784.000000
176.081500 636.000000
194.048000 516.000000

>ms2peaks
56.048800 9672.000000
65.037900 5628.000000
70.027900 7872.000000
71.059700 6016.000000
85.039300 6456.000000
90.033900 3524.000000
92.049500 10636.000000
93.057200 8996.000000
99.055800 172204.000000
100.058900 5644.000000
107.060400 3504.000000
110.060800 2456.000000
114.011400 11436.000000
116.007500 2952.000000
126.010000 135604.000000
127.016400 18848.000000
128.006800 35916.000000
128.025900 374588.000000
129.028700 22172.000000
130.022600 94432.000000
131.025800 3656.000000
133.075200 8324.000000
142.004300 2480.000000
144.020300 3832.000000
169.015400 3324.000000
169.051600 8596.000000
171.048900 1956.000000
176.080800 36024.000000
177.084900 2860.000000
194.047000 8876.000000
195.031100 17568.000000
196.041800 2328.000000
197.027900 4672.000000
212.057900 376436.000000
213.060400 40420.000000
214.054900 96324.000000

