>compound AU94627001
>parentmass 184.1193
>ionization [M+H]+
>formula C7H13N5O
>rt 241.260000
>profile qtof
#smiles_iso CCNC1=NC(=NC(=O)N1)NCC
#smiles_can CCNC1=NC(=NC(=O)N1)NCC
#inchikey YQIXRXMOJFQVBV-UHFFFAOYSA-N
#pubchem_id 135408659
#mb_accession AU207901,AU207902,AU207903,AU207904,AU207906

>ms2peaks
114.065500 7956.000000
156.086400 1700.000000
184.118900 1188100.000000
185.121500 81532.000000
186.123700 4620.000000

>ms2peaks
114.065800 59480.000000
115.068700 4196.000000
124.086100 3488.000000
141.112500 2984.000000
166.108300 3356.000000
184.118600 465068.000000
185.121500 29852.000000
186.123700 1776.000000

>ms2peaks
114.065900 15504.000000
115.068700 1280.000000
124.085900 1476.000000
128.055800 880.000000
138.075600 332.000000
139.060800 1428.000000
140.065900 436.000000
141.112800 660.000000
142.096800 708.000000
156.086800 6508.000000
166.106600 740.000000
167.091400 464.000000
182.102000 412.000000
184.118600 16016.000000
185.121500 1860.000000

>ms2peaks
114.065000 2076.000000
128.055300 616.000000
139.060400 320.000000
156.086800 276.000000
184.118400 408.000000

>ms2peaks
69.007700 1676.000000
71.061000 724.000000
97.039300 516.000000
114.066200 8804.000000
124.085800 324.000000
139.062400 304.000000
141.110600 360.000000
156.086600 1460.000000
167.091200 428.000000
184.118300 48612.000000
185.121200 2748.000000

