>compound AU94683531
>parentmass 261.19610000000006
>ionization [M+H]+
>formula C16H24N2O
>rt 236.320000
>profile qtof
#smiles_iso CCCN(CCC)CCC1=C2CC(=O)NC2=CC=C1
#smiles_can CCCN(CCC)CCC1=C2CC(=O)NC2=CC=C1
#inchikey UHSKFQJFRQCDBE-UHFFFAOYSA-N
#pubchem_id 5095
#mb_accession AU271101,AU271102,AU271103,AU271104,AU271105,AU271106

>ms2peaks
114.127600 22012.000000
160.074400 13544.000000
261.197200 2516988.000000

>ms2peaks
114.127500 368588.000000
115.130400 34992.000000
132.079800 66568.000000
160.074800 682392.000000
161.077700 53820.000000
261.196300 2461148.000000
262.199000 451928.000000
263.201800 33556.000000

>ms2peaks
114.127400 142724.000000
115.053600 13804.000000
115.130200 17520.000000
117.056800 33576.000000
117.068200 7400.000000
130.064200 12812.000000
131.071500 9756.000000
132.080000 724524.000000
133.083200 53596.000000
160.074800 1268968.000000
161.077900 94288.000000
261.195800 68152.000000
262.199000 12540.000000

>ms2peaks
114.127000 25924.000000
115.053500 43408.000000
117.056600 100020.000000
118.059900 10268.000000
130.064000 38748.000000
131.071400 33808.000000
132.079800 1154540.000000
133.083000 83516.000000
142.063700 9220.000000
160.074500 377304.000000
161.077600 32236.000000

>ms2peaks
114.126500 4044.000000
115.053700 59632.000000
116.056500 8956.000000
117.056600 155832.000000
118.059900 18196.000000
130.064000 89500.000000
131.071400 56676.000000
132.079800 647436.000000
133.082600 48568.000000
142.064100 6560.000000
145.050800 4180.000000
160.074300 61404.000000
161.077600 6620.000000

>ms2peaks
58.064500 9756.000000
72.080500 134084.000000
86.096300 487608.000000
87.099500 16720.000000
102.128300 19160.000000
105.070600 7860.000000
114.129400 1237596.000000
117.057200 12476.000000
117.070500 6504.000000
132.080700 249440.000000
133.083700 19668.000000
160.075100 511220.000000
161.078400 44136.000000
261.196500 709808.000000
262.199500 145532.000000
263.201400 11580.000000

