>compound AU94640711
>parentmass 251.0468
>ionization [M+H]+
>formula C12H11O4P
>rt 410.340000
>profile qtof
#smiles_iso C1=CC=C(C=C1)OP(=O)(O)OC2=CC=CC=C2
#smiles_can C1=CC=C(C=C1)OP(=O)(O)OC2=CC=CC=C2
#inchikey ASMQGLCHMVWBQR-UHFFFAOYSA-N
#pubchem_id 13282
#mb_accession AU230101,AU230102,AU230103,AU230104,AU230106

>ms2
251.046600 7924.000000
252.048800 1136.000000

>ms2
152.060500 576.000000
153.068100 656.000000
175.013800 488.000000
233.033500 564.000000
251.046800 5292.000000
252.051600 828.000000

>ms2
152.063100 336.000000
153.067700 364.000000

>ms2
152.060000 436.000000

>ms2
153.068600 524.000000
175.014100 352.000000
233.035000 424.000000
251.045200 1584.000000

