>compound AU95158462
>parentmass 245.1285
>ionization [M+H]+
>formula C14H16N2O2
>rt 330.850000
>profile qtof
#smiles_iso COC1=C(C=CC(=C1)C2=CC(=C(C=C2)N)OC)N
#smiles_can COC1=C(C=CC(=C1)C2=CC(=C(C=C2)N)OC)N
#inchikey JRBJSXQPQWSCCF-UHFFFAOYSA-N
#pubchem_id 8411
#mb_accession AU242701,AU242702,AU242703,AU242704,AU242705,AU242706

>ms2
201.101500 7084.000000
213.101100 8100.000000
229.096100 14184.000000
230.104200 28608.000000
243.111900 23332.000000
244.120300 804908.000000
245.127900 1074720.000000
246.131100 137200.000000
247.133600 12276.000000

>ms2
158.082500 7656.000000
170.082000 6444.000000
181.074500 4308.000000
182.082300 6788.000000
183.090100 5328.000000
184.097900 7536.000000
186.077300 11248.000000
187.085400 29364.000000
198.077300 41528.000000
199.082800 8264.000000
200.093000 6092.000000
201.101400 339324.000000
202.104000 36628.000000
213.101500 252916.000000
214.106300 46468.000000
215.080500 51168.000000
215.112900 7752.000000
216.084000 6748.000000
228.088600 18140.000000
229.096500 300540.000000
230.104000 799172.000000
231.107300 86464.000000
232.109900 7048.000000
244.120100 504572.000000
245.127400 485308.000000
246.130800 63368.000000
247.131700 6480.000000

>ms2
130.063800 6196.000000
143.071500 11212.000000
154.063700 9440.000000
158.082500 67268.000000
159.086300 6332.000000
169.074300 12328.000000
170.082300 81748.000000
171.088600 17008.000000
181.074300 13544.000000
182.082200 31212.000000
183.088100 5540.000000
184.097300 6844.000000
186.077500 148696.000000
187.085400 389996.000000
188.088300 35324.000000
197.070000 5016.000000
198.077800 194360.000000
199.082500 33980.000000
201.101300 968416.000000
202.104500 102704.000000
203.106500 7300.000000
213.101300 117740.000000
214.105600 23240.000000
215.080600 194972.000000
216.083900 23404.000000
229.096200 71668.000000
230.104000 280528.000000
231.107100 35356.000000
244.119600 22760.000000
245.126600 9988.000000

>ms2
115.053500 4900.000000
130.063900 16800.000000
131.071500 4216.000000
142.063500 6512.000000
143.071700 46516.000000
144.075700 5128.000000
146.059200 3636.000000
153.056000 11536.000000
154.064000 27344.000000
156.078500 3240.000000
157.075000 11504.000000
158.083000 383704.000000
159.086300 35988.000000
166.063800 3408.000000
167.071300 3504.000000
169.074800 50812.000000
170.059100 7532.000000
170.082900 130528.000000
171.066800 6368.000000
171.088800 27728.000000
172.093400 3576.000000
181.074600 13308.000000
182.059100 2948.000000
182.082700 28956.000000
183.087300 4624.000000
184.097200 3408.000000
186.078100 302216.000000
187.085700 567732.000000
188.088700 59908.000000
189.091600 4104.000000
197.070100 9976.000000
198.078000 58908.000000
199.082600 11412.000000
201.101700 261504.000000
202.104600 30884.000000
213.101900 7440.000000
215.080600 35272.000000
216.084200 4708.000000
230.104300 14140.000000

>ms2
115.053600 30020.000000
117.056500 8972.000000
118.063900 4472.000000
126.045300 7068.000000
127.053200 4908.000000
130.064000 60044.000000
131.070100 10776.000000
132.079300 9068.000000
140.048000 10752.000000
141.055700 10440.000000
142.063500 33136.000000
143.071500 108292.000000
144.075300 9896.000000
146.058600 10368.000000
153.055900 18084.000000
154.063800 50528.000000
155.059900 12276.000000
157.074700 41916.000000
158.082600 890108.000000
159.085900 75508.000000
160.075200 6008.000000
160.089200 5000.000000
168.066500 7184.000000
169.074700 98880.000000
170.058400 15596.000000
170.081900 66328.000000
171.065300 5200.000000
171.089200 21392.000000
181.074300 16692.000000
182.081900 15556.000000
186.077500 134596.000000
187.085400 474824.000000
188.088100 52540.000000
197.069200 9148.000000
198.076900 9820.000000
201.101100 31388.000000
202.104200 4740.000000

>ms2
143.071900 2312.000000
154.064100 3508.000000
158.082800 14496.000000
162.090200 1944.000000
169.074800 3356.000000
170.082900 26480.000000
171.088000 6080.000000
181.075200 6136.000000
182.082900 12120.000000
183.088600 2968.000000
184.098600 3016.000000
186.077900 34992.000000
187.085700 114996.000000
188.088900 13000.000000
197.072800 1924.000000
198.078100 86552.000000
199.082700 14992.000000
200.092000 2292.000000
201.101800 355184.000000
202.104700 42260.000000
203.108700 2596.000000
213.102000 115240.000000
214.106700 26424.000000
215.081100 100852.000000
216.083800 12144.000000
228.089200 19684.000000
229.096800 121276.000000
230.104400 350080.000000
231.107800 44452.000000
232.109600 4176.000000
244.120700 182536.000000
245.127900 201660.000000
246.131300 28592.000000
247.134100 2288.000000

