>compound AU95737739
>parentmass 148.0869
>ionization [M+H]+
>formula C8H9N3
>rt 412.260000
>profile qtof
#smiles_iso CC1=CC2=NNN=C2C=C1C
#smiles_can CC1=CC2=NNN=C2C=C1C
#inchikey MVPKIPGHRNIOPT-UHFFFAOYSA-N
#pubchem_id 77849
#mb_accession AU405406

>ms2peaks
53.037700 6056.000000
54.032800 2248.000000
65.037400 4636.000000
67.053000 1788.000000
77.037500 5052.000000
78.045400 1764.000000
79.053300 4888.000000
80.048100 5640.000000
81.055600 1312.000000
91.053600 26936.000000
92.049300 2044.000000
92.056100 1876.000000
93.056800 4472.000000
93.069100 43336.000000
94.064200 3708.000000
94.072500 3004.000000
95.048400 21744.000000
96.052500 1508.000000
103.054100 9644.000000
104.049600 1252.000000
105.044900 10476.000000
105.056600 3240.000000
118.063900 2896.000000
119.071600 4588.000000
120.079800 17556.000000
121.083100 1256.000000
148.086200 226656.000000
149.089100 27588.000000

