>compound AU95578561
>parentmass 259.0077
>ionization [M+H]+
>formula C9H11BrN2O2
>rt 491.460000
>profile qtof
#smiles_iso CN(C(=O)NC1=CC=C(C=C1)Br)OC
#smiles_can CN(C(=O)NC1=CC=C(C=C1)Br)OC
#inchikey WLFDQEVORAMCIM-UHFFFAOYSA-N
#pubchem_id 18290
#mb_accession AU262101,AU262102,AU262103,AU262105,AU262106

>ms2
148.062000 303604.000000
149.064900 17896.000000
169.958700 164256.000000
170.964400 16532.000000
171.956900 131680.000000
172.962700 12164.000000
227.988300 22684.000000
229.986100 21940.000000
259.007200 1693864.000000
260.010300 101932.000000
261.005400 1265700.000000

>ms2
119.059700 31312.000000
131.059600 3664.000000
142.947900 8172.000000
144.945500 7552.000000
147.054200 37360.000000
148.062200 572268.000000
149.065100 32024.000000
169.959000 670456.000000
170.966100 151564.000000
171.956900 438116.000000
172.964500 117536.000000
173.967700 4136.000000
197.953600 6756.000000
199.951200 5620.000000
226.980700 37680.000000
227.988300 20556.000000
228.978400 30612.000000
229.985900 18304.000000
259.007400 99084.000000
260.010100 9684.000000
261.005100 87432.000000

>ms2
119.059600 83272.000000
120.064100 6416.000000
131.059100 6772.000000
142.947900 44792.000000
143.951500 3372.000000
144.946000 39056.000000
147.054200 65036.000000
148.062100 202968.000000
149.065200 14572.000000
169.959000 527408.000000
170.966500 247988.000000
171.956900 355620.000000
172.964700 188984.000000
173.967700 6456.000000
184.981700 3124.000000
186.980000 2656.000000
197.952800 3068.000000
226.980700 34968.000000
227.985600 3220.000000
228.978600 28296.000000
259.008600 3180.000000
261.003900 3220.000000

>ms2
116.932800 4312.000000
118.930400 4700.000000
119.059700 34512.000000
120.042600 420.000000
120.062500 1992.000000
129.044300 2004.000000
130.051200 352.000000
131.059900 1940.000000
133.038900 1480.000000
142.947800 46532.000000
143.951500 2452.000000
144.945800 38340.000000
145.950800 1424.000000
147.054100 11876.000000
148.061600 8252.000000
149.066700 848.000000
157.960200 352.000000
169.958700 24620.000000
170.966500 42500.000000
171.956600 21192.000000
172.964300 34540.000000
173.966900 1856.000000
182.953700 436.000000
183.974300 2224.000000
184.951300 588.000000
184.969900 684.000000
184.985100 356.000000
185.972700 1556.000000
186.968400 608.000000
211.956600 428.000000
213.957900 404.000000
226.981200 1908.000000
228.978400 2068.000000

>ms2
60.044000 4260.000000
62.059700 9784.000000
91.042200 560.000000
106.050200 564.000000
119.059900 3360.000000
120.063800 452.000000
131.060700 512.000000
142.947900 1276.000000
144.945300 1160.000000
147.054200 4068.000000
148.062200 75048.000000
149.066500 4388.000000
169.959200 87236.000000
170.966400 22300.000000
171.957300 60428.000000
172.964400 20272.000000
173.968600 844.000000
184.983500 576.000000
186.981000 508.000000
197.953600 1052.000000
199.951700 1028.000000
226.980300 5040.000000
227.988200 3940.000000
228.978700 4160.000000
229.987200 2616.000000
259.007300 27724.000000
260.010800 2428.000000
261.005800 19508.000000

