>compound AU95936519
>parentmass 246.1237
>ionization [M+H]+
>formula C13H15N3O2
>rt 236.650000
>profile qtof
#smiles_iso CC1=C(C(=O)N(N1C)C2=CC=CC=C2)NC(=O)C
#smiles_can CC1=C(C(=O)N(N1C)C2=CC=CC=C2)NC(=O)C
#inchikey OIAGWXKSCXPNNZ-UHFFFAOYSA-N
#pubchem_id 65743
#mb_accession AU200101,AU200102,AU200103,AU200104,AU200105,AU200106

>ms2peaks
204.112400 234652.000000
205.115500 21532.000000
228.112700 603172.000000
246.123500 1957028.000000

>ms2peaks
145.075300 9616.000000
159.090500 62432.000000
160.094000 6668.000000
172.061700 8060.000000
186.077700 6020.000000
187.085700 49960.000000
188.088300 6916.000000
189.088700 6836.000000
204.112400 596348.000000
205.115300 48676.000000
228.112700 926708.000000
229.115500 100896.000000
230.119300 7116.000000
246.123000 63680.000000

>ms2peaks
115.054100 456.000000
117.056900 620.000000
118.064600 2800.000000
119.059500 4328.000000
120.043500 460.000000
122.059800 400.000000
128.048900 2424.000000
130.063800 4256.000000
131.059000 5412.000000
131.071200 1708.000000
132.043500 4144.000000
132.065200 676.000000
132.079700 2332.000000
133.075100 1804.000000
134.057700 448.000000
135.054300 440.000000
135.090900 408.000000
140.049300 400.000000
142.064400 1064.000000
143.059300 1384.000000
144.067600 2888.000000
144.079300 5100.000000
145.038600 1824.000000
145.075000 11900.000000
145.086400 6560.000000
146.079600 1648.000000
147.056000 2776.000000
147.090500 464.000000
148.061000 828.000000
155.059800 500.000000
156.066900 416.000000
157.074000 1200.000000
158.046100 2644.000000
158.058200 5024.000000
158.083200 2200.000000
159.053700 8592.000000
159.090600 77764.000000
160.056100 868.000000
160.093600 6444.000000
161.069100 1004.000000
161.095400 988.000000
163.085500 488.000000
169.074800 1224.000000
170.069100 904.000000
170.080500 584.000000
171.054000 6916.000000
171.090600 3824.000000
173.069300 14668.000000
173.105400 860.000000
174.072800 1396.000000
175.085300 560.000000
176.116800 1048.000000
177.100000 996.000000
183.089900 916.000000
184.086000 1612.000000
185.094800 1212.000000
186.077500 7284.000000
186.100800 1564.000000
187.085700 27488.000000
188.088200 3180.000000
189.088600 9004.000000
190.090900 1348.000000
199.084300 964.000000
200.080500 2096.000000
200.117200 3020.000000
201.100600 1064.000000
201.119500 628.000000
204.112200 43368.000000
205.115100 5620.000000
211.085800 1424.000000
212.082600 992.000000
213.088900 10060.000000
214.092600 1172.000000
226.095900 5188.000000
227.100100 984.000000
228.112200 48096.000000
229.115200 6916.000000
230.120600 528.000000

>ms2peaks
115.054000 908.000000
116.050000 416.000000
117.055900 2080.000000
118.051400 540.000000
118.064400 2804.000000
119.059600 3756.000000
120.063200 408.000000
122.059000 368.000000
128.048600 5616.000000
129.052700 604.000000
130.051400 472.000000
130.064300 6168.000000
131.059600 5780.000000
132.043200 2256.000000
132.067900 1216.000000
132.079400 4544.000000
133.075300 1324.000000
134.060800 372.000000
142.050700 324.000000
142.064100 1208.000000
143.058800 3492.000000
144.066900 4368.000000
144.079900 6600.000000
145.039400 892.000000
145.074900 7244.000000
146.077700 692.000000
148.059200 304.000000
155.059600 708.000000
156.067700 700.000000
157.074100 1484.000000
158.046500 1668.000000
158.058100 1300.000000
158.081700 2128.000000
159.053600 2480.000000
160.074100 532.000000
161.094300 828.000000
169.074200 684.000000
170.070200 956.000000
171.053700 6732.000000
171.076900 364.000000
171.090200 704.000000
172.061600 7652.000000
173.067900 1980.000000
174.068900 324.000000
184.087400 1172.000000
185.069500 4084.000000
185.092200 424.000000
186.077400 2272.000000
187.085300 2104.000000
188.080700 1820.000000
189.088900 2464.000000
190.092000 320.000000
198.063800 408.000000
200.082300 536.000000
204.111600 1296.000000
212.080400 1136.000000
213.088100 1440.000000
226.098000 700.000000
228.112200 1304.000000

>ms2peaks
115.053900 692.000000
116.050400 568.000000
117.056400 2576.000000
118.052000 736.000000
118.063700 1432.000000
119.059200 2204.000000
128.048400 4972.000000
129.043100 736.000000
129.052700 808.000000
130.064100 3724.000000
131.059600 2992.000000
131.071600 1260.000000
132.043600 1440.000000
132.067900 904.000000
132.079700 3276.000000
133.074700 1248.000000
140.048600 392.000000
142.050400 356.000000
142.063600 320.000000
143.058800 5212.000000
144.066700 3056.000000
144.079400 5240.000000
145.036900 324.000000
145.074400 2808.000000
146.059500 2596.000000
147.054500 300.000000
155.060400 416.000000
157.074200 1780.000000
158.046200 480.000000
158.083100 1032.000000
159.055000 556.000000
159.090600 4064.000000
160.087700 1292.000000
170.070300 632.000000
171.053900 5072.000000
172.060500 1784.000000
184.084800 860.000000
185.069800 1112.000000
188.080800 780.000000
189.085000 392.000000

>ms2peaks
56.049200 185940.000000
57.052400 4964.000000
58.064800 5840.000000
77.038200 8516.000000
83.060500 804384.000000
84.063700 33364.000000
85.075900 41196.000000
94.065700 60972.000000
95.049500 12200.000000
95.070500 4388.000000
96.081000 7064.000000
104.050600 506260.000000
105.053300 27572.000000
111.056800 8760.000000
132.043700 4212.000000
144.080300 4352.000000
145.075300 14924.000000
146.059600 16908.000000
159.054300 7328.000000
159.091000 82348.000000
160.093600 7812.000000
171.054100 7292.000000
171.090700 4172.000000
172.061900 14884.000000
173.069700 26968.000000
185.069700 8200.000000
186.077200 9048.000000
187.085900 53288.000000
188.089200 5812.000000
189.089100 11240.000000
204.112900 351160.000000
205.115600 46836.000000
213.089300 19436.000000
226.096800 9132.000000
228.113300 563432.000000
229.116100 85284.000000
230.118800 6056.000000
246.123800 66896.000000
247.126500 7920.000000

