>compound AU96134132
>parentmass 280.1179
>ionization [M+H]+
>formula C14H17NO5
>rt 410.510000
>profile qtof
#smiles_iso CCC1=CC=CC(=C1N(C(C)C(=O)O)C(=O)C(=O)O)C
#smiles_can CCC1=CC=CC(=C1N(C(C)C(=O)O)C(=O)C(=O)O)C
#inchikey IMFSUYMDPTXKCC-UHFFFAOYSA-N
#pubchem_id 139035264
#mb_accession AU264601,AU264602,AU264603,AU264604,AU264605,AU264606

>ms2
149.022600 788.000000
162.127000 308.000000
206.115300 384.000000
234.111300 2944.000000
235.115000 336.000000
280.114500 580.000000

>ms2
134.095400 548.000000
149.022200 840.000000
160.110000 488.000000
162.126600 1100.000000
188.107900 424.000000
234.109900 976.000000

>ms2
134.094500 1272.000000
146.096000 316.000000
149.022600 736.000000
160.110400 472.000000
162.125200 636.000000

>ms2
131.068700 332.000000
133.086400 504.000000
134.095000 1104.000000
149.021400 584.000000

>ms2
132.077800 320.000000
134.095000 396.000000
144.081800 304.000000

>ms2
134.094700 972.000000
146.093100 408.000000
149.021400 700.000000
160.110900 512.000000
162.126700 844.000000
188.105800 500.000000
234.109800 464.000000

