>compound AU97173488
>parentmass 291.1452
>ionization [M+H]+
>formula C14H18N4O3
>rt 234.510000
>profile qtof
#smiles_iso COC1=CC(=CC(=C1OC)OC)CC2=CN=C(N=C2N)N
#smiles_can COC1=CC(=CC(=C1OC)OC)CC2=CN=C(N=C2N)N
#inchikey IEDVJHCEMCRBQM-UHFFFAOYSA-N
#pubchem_id 5578
#mb_accession AU266601,AU266602,AU266603,AU266604,AU266605,AU266606

>ms2peaks
291.145400 2284732.000000
292.147900 394512.000000
293.149900 34064.000000

>ms2peaks
123.065700 108460.000000
181.085000 14956.000000
230.115500 225628.000000
231.117700 30016.000000
245.102100 56912.000000
246.109100 16608.000000
247.117900 28008.000000
257.102300 13204.000000
258.110100 85188.000000
259.113500 16196.000000
261.097500 207860.000000
262.100600 27656.000000
275.113200 138740.000000
276.120100 90328.000000
291.145300 2492900.000000
292.147700 595452.000000
293.149600 43928.000000

>ms2peaks
123.065800 235564.000000
124.070700 17472.000000
151.038000 6316.000000
161.080700 5200.000000
174.064300 8156.000000
181.084900 26640.000000
187.096800 23784.000000
188.099800 4612.000000
191.091500 5264.000000
200.104300 8552.000000
201.077300 16448.000000
201.112400 42728.000000
202.119900 34572.000000
215.091700 9136.000000
216.099600 9684.000000
217.106900 11504.000000
229.107600 103020.000000
230.115700 764508.000000
231.086600 5544.000000
231.118600 93024.000000
232.094900 22708.000000
232.121300 6332.000000
233.102400 84780.000000
234.105300 11636.000000
244.071300 6160.000000
245.102900 225392.000000
246.108900 74468.000000
247.117900 86672.000000
248.121300 12308.000000
257.102900 188548.000000
258.109500 86796.000000
259.082100 10488.000000
259.116000 22512.000000
260.124900 8520.000000
261.098000 880580.000000
262.100900 108188.000000
263.102900 9324.000000
275.113600 542180.000000
276.117800 106584.000000
291.145000 458988.000000
292.147800 72980.000000
293.149800 7056.000000

>ms2peaks
110.058500 5416.000000
111.065900 4672.000000
120.056100 3716.000000
123.043400 21184.000000
123.066000 211956.000000
124.072000 24004.000000
135.065500 8340.000000
137.058200 16960.000000
142.063700 3776.000000
145.075000 3736.000000
146.059600 2476.000000
146.070300 7008.000000
147.066200 2564.000000
148.050400 5492.000000
148.073100 4928.000000
149.022500 3264.000000
149.070300 17184.000000
151.037800 25120.000000
156.043200 5620.000000
158.058600 3576.000000
159.090800 4380.000000
160.074200 3176.000000
161.081100 23228.000000
162.088500 17592.000000
163.095000 3916.000000
165.053400 7704.000000
170.059100 5452.000000
170.067100 4284.000000
171.066700 3572.000000
172.074300 2916.000000
173.080800 7984.000000
174.064700 36440.000000
174.087300 2800.000000
175.038100 2676.000000
175.061900 7236.000000
175.096200 7604.000000
176.068000 4352.000000
181.084600 10328.000000
184.085600 6296.000000
185.081300 6568.000000
186.054500 6568.000000
186.088900 3768.000000
187.096700 67496.000000
188.100900 11272.000000
189.075100 5808.000000
190.083500 16092.000000
191.091400 25448.000000
192.095500 2808.000000
197.080800 2488.000000
198.065100 5224.000000
199.097100 17640.000000
200.069500 2704.000000
200.080000 3016.000000
200.104400 15988.000000
201.076100 14208.000000
201.112700 123296.000000
202.049100 6368.000000
202.082500 3552.000000
202.118700 33900.000000
203.091700 16312.000000
203.122300 3528.000000
204.098100 3916.000000
205.107700 4792.000000
211.097700 3676.000000
212.080700 5756.000000
213.076800 4712.000000
213.111500 4868.000000
214.083700 6512.000000
215.069300 4520.000000
215.091500 29032.000000
216.075400 8848.000000
216.098900 18604.000000
217.060900 5532.000000
217.107400 19136.000000
218.078700 4292.000000
218.108100 2656.000000
219.076200 8428.000000
227.091900 3904.000000
228.074500 2788.000000
228.099900 4852.000000
229.107900 224872.000000
230.115300 204960.000000
231.086700 28792.000000
231.118200 26656.000000
232.094900 116620.000000
233.102700 244532.000000
234.105000 27784.000000
239.092200 3168.000000
241.108200 3216.000000
242.054700 5196.000000
243.086800 7172.000000
244.071300 7928.000000
244.092000 3112.000000
245.102800 203544.000000
246.107300 39264.000000
247.081800 25384.000000
247.117700 45564.000000
248.087600 4848.000000
248.120300 6848.000000
255.086600 4052.000000
257.103100 329536.000000
258.106100 46212.000000
259.082200 51424.000000
259.117100 11320.000000
260.086100 8200.000000
261.098000 488492.000000
262.100900 57692.000000
273.097500 3944.000000
275.113700 273116.000000
276.116600 43728.000000
277.119700 3792.000000
291.144900 11476.000000

>ms2peaks
110.058800 3132.000000
111.065900 2656.000000
115.053800 6436.000000
116.050000 1688.000000
117.057000 1952.000000
118.052000 1228.000000
118.064000 2256.000000
119.048600 2972.000000
119.059400 2808.000000
120.056100 2188.000000
121.075000 4884.000000
122.059100 1004.000000
123.043200 30544.000000
123.065800 184016.000000
124.046700 2792.000000
124.072200 22620.000000
125.076600 988.000000
128.048700 9036.000000
129.044300 2384.000000
130.064200 5568.000000
131.047700 4880.000000
131.059900 6632.000000
132.043500 7328.000000
132.065500 1392.000000
132.080200 2760.000000
133.050900 1712.000000
133.062900 2284.000000
133.074700 2468.000000
134.058000 2232.000000
134.067600 1264.000000
135.043100 6708.000000
135.065500 23688.000000
136.050500 1436.000000
136.071100 2044.000000
137.058300 19476.000000
138.063800 1948.000000
140.048600 5092.000000
141.055200 1404.000000
142.063800 13248.000000
143.060700 4100.000000
144.043100 2756.000000
144.054500 4964.000000
144.078100 992.000000
145.052200 1812.000000
145.063200 4592.000000
145.074700 12576.000000
146.070000 20900.000000
147.042800 8396.000000
147.065200 9804.000000
148.049800 7796.000000
148.073000 14460.000000
149.022100 6216.000000
149.070100 36024.000000
150.073000 3488.000000
151.037800 16992.000000
151.059900 1060.000000
152.041100 2300.000000
154.063600 1840.000000
155.059600 3260.000000
156.043300 9632.000000
156.065200 1188.000000
157.048600 2140.000000
157.074800 8864.000000
158.059400 9248.000000
159.064100 3700.000000
159.079200 2716.000000
159.090300 12860.000000
160.049000 1092.000000
160.073600 7812.000000
161.081100 90352.000000
162.088300 55288.000000
163.037500 1416.000000
163.060500 1240.000000
163.094000 9300.000000
164.070100 1764.000000
164.099900 1048.000000
165.053300 7080.000000
165.076100 3328.000000
166.054400 1100.000000
167.032300 2712.000000
167.059700 3120.000000
168.054300 1216.000000
168.064800 1184.000000
169.074500 3912.000000
170.059600 13436.000000
170.067400 12924.000000
171.057200 5204.000000
171.063300 5012.000000
172.037900 7056.000000
172.073200 7748.000000
172.081900 5340.000000
173.022300 1408.000000
173.045800 3564.000000
173.055700 4084.000000
173.080800 19372.000000
174.064700 49080.000000
174.087700 6660.000000
175.037900 5696.000000
175.061200 21908.000000
175.096500 15396.000000
176.040300 948.000000
176.067900 12364.000000
176.101300 2648.000000
177.055100 960.000000
177.074100 2316.000000
177.109800 1140.000000
180.055600 1024.000000
181.084600 3528.000000
182.070200 4356.000000
183.055300 1692.000000
183.075400 2340.000000
184.050300 1980.000000
184.085400 15484.000000
185.080700 18448.000000
186.056100 6896.000000
186.088700 13808.000000
187.096600 70232.000000
188.071900 3772.000000
188.081600 4440.000000
188.100800 12688.000000
189.075900 18836.000000
189.108600 1356.000000
190.048800 3448.000000
190.083700 38792.000000
191.090700 20844.000000
192.064200 2064.000000
192.092800 1856.000000
194.071200 1352.000000
195.053900 1464.000000
197.057900 1744.000000
197.080900 4424.000000
198.065300 8436.000000
198.088100 2680.000000
199.050500 1744.000000
199.070900 2628.000000
199.097000 31620.000000
200.032700 4208.000000
200.079600 5248.000000
200.102700 10144.000000
201.076000 12124.000000
201.112500 91292.000000
202.049500 4176.000000
202.082600 3868.000000
202.116600 13116.000000
203.091800 32584.000000
204.097800 8268.000000
205.107300 6072.000000
206.109400 928.000000
210.065500 1000.000000
210.088300 952.000000
211.096900 6544.000000
212.081100 6876.000000
212.103900 3608.000000
213.076700 10832.000000
213.112100 3600.000000
214.060200 5224.000000
214.083800 12500.000000
215.046600 1700.000000
215.069500 8192.000000
215.091900 32068.000000
216.074600 9116.000000
216.097600 10204.000000
217.067100 8100.000000
217.106600 9224.000000
218.078300 7788.000000
218.109100 1428.000000
219.077000 3576.000000
227.092200 8348.000000
228.075100 1976.000000
228.099300 6944.000000
229.107900 137164.000000
230.078400 5300.000000
230.112900 29948.000000
231.087100 86876.000000
232.094800 136844.000000
233.102300 134140.000000
234.105100 17436.000000
235.106500 1224.000000
239.092600 3592.000000
240.076400 1228.000000
240.098800 2556.000000
241.070600 2632.000000
241.106900 2384.000000
242.055400 5108.000000
242.077800 2868.000000
243.058300 1032.000000
243.087300 8552.000000
244.071700 2412.000000
244.090200 2824.000000
245.102700 91904.000000
246.105300 13808.000000
247.082100 25148.000000
247.118500 6184.000000
248.085700 4684.000000
248.120900 928.000000
255.087000 5580.000000
256.092900 1420.000000
257.103000 86652.000000
258.076800 1804.000000
258.105600 14648.000000
259.082000 30528.000000
259.118100 2608.000000
260.086200 5500.000000
261.098000 63380.000000
262.101000 11192.000000
273.096800 4084.000000
275.113500 43804.000000
276.117100 8076.000000

>ms2peaks
81.044200 20768.000000
110.059600 18868.000000
111.066900 8132.000000
123.066800 194008.000000
124.071300 14876.000000
181.084800 11788.000000
187.096700 7872.000000
201.078000 5360.000000
201.112900 17252.000000
202.120400 14016.000000
216.099600 3824.000000
217.107500 4500.000000
229.107900 48132.000000
230.115800 248340.000000
231.118700 32764.000000
232.095400 11152.000000
233.102900 36328.000000
234.105900 4360.000000
245.103200 116192.000000
246.108400 38716.000000
247.118300 42008.000000
248.121000 5020.000000
257.103100 82220.000000
258.110200 60016.000000
259.082200 4768.000000
259.115400 13304.000000
260.126000 4716.000000
261.098200 346096.000000
262.101700 54812.000000
263.104000 3816.000000
275.114000 220116.000000
276.119400 60696.000000
277.122900 7380.000000
291.145500 733436.000000
292.148500 169148.000000

