>compound AU97249126
>parentmass 315.2319
>ionization [M+H]+
>formula C21H30O2
>rt 827.436000
>profile qtof
#smiles_iso CCCCCC1=CC(=C2C3C=C(CCC3C(OC2=C1)(C)C)C)O
#smiles_can CCCCCC1=CC(=C2C3C=C(CCC3C(OC2=C1)(C)C)C)O
#inchikey CYQFCXCEBYINGO-UHFFFAOYSA-N
#pubchem_id 2978
#mb_accession AU158301,AU158302,AU158303,AU158304,AU158305

>ms2peaks
193.122500 988.000000
221.154400 1012.000000
259.170900 1232.000000
315.233800 126644.000000
316.237100 28108.000000
317.239300 3896.000000

>ms2peaks
123.044900 628.000000
123.116500 1516.000000
135.117600 7384.000000
136.121400 692.000000
139.112100 512.000000
151.076300 460.000000
165.092600 584.000000
177.092900 332.000000
177.127500 800.000000
181.123600 4384.000000
182.127100 472.000000
193.123500 19488.000000
194.126600 2092.000000
205.121200 428.000000
207.138700 2588.000000
208.141400 504.000000
217.123600 1168.000000
219.138900 1276.000000
221.155000 5276.000000
222.158800 856.000000
227.146500 608.000000
231.138800 2980.000000
232.141600 732.000000
233.154600 5456.000000
234.158900 1112.000000
235.170500 5124.000000
236.175900 632.000000
237.164600 824.000000
238.171100 336.000000
241.161300 496.000000
245.155300 1116.000000
247.171800 2624.000000
248.173400 512.000000
255.238000 328.000000
259.169700 10284.000000
260.173000 2252.000000
273.185300 1400.000000
274.190300 392.000000
297.222100 1120.000000
315.234000 62808.000000
316.236700 14548.000000
317.240900 1704.000000

>ms2peaks
119.086000 720.000000
121.064400 516.000000
121.101300 652.000000
123.045200 4468.000000
123.117900 1352.000000
124.048800 608.000000
131.086300 668.000000
133.102600 480.000000
135.043100 616.000000
135.080700 324.000000
135.117700 5292.000000
136.121100 800.000000
137.061200 1928.000000
147.081000 408.000000
147.116700 300.000000
149.060400 484.000000
149.097500 364.000000
149.131800 428.000000
151.077100 1216.000000
159.081600 708.000000
161.061500 448.000000
161.097500 428.000000
163.076000 1016.000000
165.091300 1860.000000
166.096000 404.000000
171.081700 432.000000
175.077100 316.000000
177.092500 1180.000000
177.128400 1232.000000
178.133300 540.000000
181.123200 2080.000000
182.126500 348.000000
189.094500 772.000000
189.129200 340.000000
193.123600 25548.000000
194.127300 3844.000000
203.109700 424.000000
205.123500 736.000000
207.139100 2060.000000
208.144400 456.000000
217.124700 1524.000000
217.161700 328.000000
218.127500 432.000000
219.140100 804.000000
219.177000 336.000000
221.156000 2732.000000
222.159000 524.000000
227.143900 440.000000
229.159800 496.000000
231.140300 3380.000000
231.176400 536.000000
232.142500 860.000000
233.155300 3836.000000
234.158600 544.000000
235.170900 3244.000000
236.174500 656.000000
241.160200 584.000000
245.155400 896.000000
246.161000 312.000000
247.170700 3612.000000
248.174000 608.000000
255.173700 304.000000
259.171600 7604.000000
260.174300 1248.000000
272.183400 380.000000
273.185300 988.000000
297.222400 568.000000
315.235000 3836.000000
316.237300 1292.000000

>ms2peaks
117.071200 300.000000
119.086500 780.000000
121.064700 756.000000
121.102100 492.000000
123.044500 9068.000000
123.117800 528.000000
131.050700 308.000000
131.086500 784.000000
133.065400 448.000000
133.100300 584.000000
135.044900 892.000000
135.080900 720.000000
135.118100 960.000000
137.060000 3128.000000
138.066000 392.000000
143.083900 304.000000
145.100500 384.000000
147.046000 712.000000
147.082700 504.000000
149.060300 640.000000
149.095700 424.000000
151.075400 576.000000
159.082000 816.000000
161.059600 952.000000
161.098300 556.000000
163.076600 812.000000
165.092600 1144.000000
171.080500 348.000000
174.071400 492.000000
175.074800 468.000000
177.091800 996.000000
177.128200 1748.000000
185.094900 392.000000
188.084800 380.000000
189.092300 460.000000
191.147000 400.000000
193.123600 13544.000000
194.127000 2164.000000
201.093900 348.000000
202.100800 380.000000
203.144400 320.000000
205.124100 436.000000
207.137400 1068.000000
217.123500 1344.000000
218.130500 372.000000
221.158500 368.000000
231.138300 2248.000000
232.143400 420.000000
233.155300 876.000000
235.172000 336.000000
247.170700 872.000000
259.171000 1752.000000

>ms2peaks
115.055700 356.000000
119.086600 344.000000
121.065900 504.000000
123.044600 6656.000000
124.049400 664.000000
128.064200 432.000000
129.069000 444.000000
131.085000 652.000000
133.101900 452.000000
135.045600 328.000000
135.080200 492.000000
135.117700 376.000000
136.052200 568.000000
137.061200 1620.000000
143.088800 320.000000
145.100400 612.000000
147.045300 576.000000
149.061400 328.000000
159.082200 424.000000
160.054700 548.000000
161.060800 1120.000000
165.092200 332.000000
173.060700 476.000000
174.068700 1132.000000
175.073500 460.000000
177.127100 476.000000
187.077900 948.000000
188.084800 512.000000
193.123600 3552.000000
194.127600 516.000000
202.098600 348.000000
217.121900 536.000000
231.139900 716.000000
259.172400 372.000000

