>compound AU97085733
>parentmass 134.06
>ionization [M+H]+
>formula C8H7NO
>rt 310.428000
>profile qtof
#smiles_iso C1C2=CC=CC=C2NC1=O
#smiles_can C1C2=CC=CC=C2NC1=O
#inchikey JYGFTBXVXVMTGB-UHFFFAOYSA-N
#pubchem_id 321710
#mb_accession AU250801,AU250802,AU250803,AU250804,AU250806

>ms2
134.059200 68488.000000
135.062500 6872.000000

>ms2
116.048100 1200.000000
117.056400 496.000000
133.050000 920.000000
134.058700 24228.000000
135.061800 2800.000000

>ms2
116.047800 412.000000
117.057000 500.000000
133.050700 700.000000
134.059300 2608.000000

>ms2
133.050200 560.000000
134.058900 532.000000

>ms2
79.054300 1616.000000
105.033400 1480.000000
106.066000 3364.000000
116.048500 1060.000000
117.055900 412.000000
133.050300 764.000000
134.059500 73580.000000
135.062600 5952.000000

