>compound AU97030135
>parentmass 212.15059999999997
>ionization [M+H]+
>formula C9H17N5O
>rt 346.210000
>profile qtof
#smiles_iso CCNC1=NC(=O)NC(=N1)NC(C)(C)C
#smiles_can CCNC1=NC(=O)NC(=N1)NC(C)(C)C
#inchikey OYTCZOJKXCTBHG-UHFFFAOYSA-N
#pubchem_id 135495928
#mb_accession AU208101,AU208102,AU208103,AU208104,AU208105,AU208106

>ms2peaks
156.086900 291184.000000
157.089200 19900.000000
212.150000 1122268.000000
213.152800 81792.000000
214.154800 5308.000000

>ms2peaks
114.065700 10536.000000
128.056000 5960.000000
156.087200 844920.000000
157.089200 52052.000000
158.091000 3044.000000
212.149900 49364.000000
213.152800 5200.000000

>ms2peaks
114.065800 18516.000000
128.055700 11900.000000
138.076800 1860.000000
139.060500 2180.000000
156.087200 235208.000000
157.089200 9020.000000
158.091000 1440.000000

>ms2peaks
114.065500 6456.000000
128.055700 4288.000000
138.075700 1208.000000
139.060300 992.000000
156.087100 22552.000000
157.089200 1948.000000
158.091000 140.000000
167.070900 800.000000
168.078900 444.000000

>ms2peaks
114.067100 824.000000
128.055400 616.000000
156.086700 860.000000
167.071200 612.000000

>ms2peaks
57.069300 47492.000000
69.007800 61476.000000
71.059800 20284.000000
85.050700 4348.000000
86.034800 206264.000000
87.038100 4256.000000
97.040100 56104.000000
113.083700 4072.000000
114.067700 80648.000000
128.056900 14432.000000
156.088300 797860.000000
157.090500 65164.000000
212.151100 108000.000000
213.154200 10212.000000

