>compound AU97049822
>parentmass 377.2123000000001
>ionization [M+H]+
>formula C22H29FO4
>rt 535.190000
>profile qtof
#smiles_iso C[C@H]1C[C@H]2[C@@H]3CC[C@@]([C@]3(C[C@@H]([C@@]2([C@@]4(C1=CC(=O)C=C4)C)F)O)C)(C(=O)C)O
#smiles_can CC1CC2C3CCC(C3(CC(C2(C4(C1=CC(=O)C=C4)C)F)O)C)(C(=O)C)O
#inchikey FAOZLTXFLGPHNG-KNAQIMQKSA-N
#pubchem_id 9878
#mb_accession AU281101,AU281102,AU281103,AU281104,AU281105,AU281106

>ms2
125.059900 500.000000
135.079400 2872.000000
137.094300 648.000000
139.073600 936.000000
145.099500 824.000000
149.095600 1076.000000
161.094500 2652.000000
165.089600 3116.000000
173.095200 1152.000000
175.109600 884.000000
177.089500 656.000000
185.095100 1284.000000
187.110000 608.000000
189.126800 624.000000
193.101900 776.000000
213.126200 636.000000
217.122400 848.000000
225.128300 504.000000
227.107800 488.000000
229.120700 876.000000
233.132200 920.000000
237.127300 2208.000000
249.126600 760.000000
251.142700 5164.000000
252.144900 1564.000000
253.156600 928.000000
267.137400 1120.000000
269.153500 2828.000000
270.156700 808.000000
277.158500 996.000000
279.137500 1716.000000
279.173500 25056.000000
280.176400 6072.000000
281.181600 704.000000
293.189200 1616.000000
295.171000 1688.000000
296.171400 492.000000
297.183700 6136.000000
298.186400 1476.000000
299.180000 504.000000
303.174000 3728.000000
304.176600 1372.000000
311.200000 2260.000000
312.204300 756.000000
317.189800 676.000000
321.184300 24812.000000
322.188200 6444.000000
323.191300 996.000000
339.195000 35748.000000
340.198000 9084.000000
341.193700 2652.000000
342.192900 552.000000
357.205900 56136.000000
358.208600 14808.000000
359.204400 5644.000000
360.205000 1100.000000
377.211900 95332.000000
378.215200 23600.000000
379.219300 3948.000000

>ms2
119.086000 656.000000
121.063800 1848.000000
123.079700 1848.000000
125.058700 1076.000000
133.100000 532.000000
135.079600 13160.000000
136.083500 1616.000000
137.095500 1504.000000
139.074300 1380.000000
143.084700 580.000000
145.063200 924.000000
145.100600 1892.000000
147.079900 2832.000000
147.116400 472.000000
148.084800 332.000000
149.095300 2816.000000
150.098200 464.000000
151.074200 568.000000
151.110600 636.000000
157.100000 488.000000
159.079100 2068.000000
159.116200 376.000000
161.095000 14352.000000
162.098700 1600.000000
163.072500 328.000000
163.090300 380.000000
163.110100 1300.000000
165.089900 5892.000000
166.093700 576.000000
167.086100 620.000000
167.108800 388.000000
171.077300 332.000000
171.115500 1740.000000
173.095700 3536.000000
173.133700 372.000000
174.097700 476.000000
175.073200 336.000000
175.110600 3568.000000
176.115200 496.000000
177.090300 1888.000000
177.125400 368.000000
179.084400 536.000000
179.104600 492.000000
183.079700 664.000000
185.095300 6336.000000
186.098900 1276.000000
187.111600 3396.000000
189.091200 420.000000
189.105500 676.000000
189.126500 3580.000000
190.130600 888.000000
191.104800 540.000000
191.124300 388.000000
193.102000 852.000000
195.117500 332.000000
197.094000 1080.000000
199.110500 2048.000000
201.090300 1628.000000
201.124900 1312.000000
203.105700 1460.000000
205.097000 352.000000
205.121900 596.000000
207.135100 408.000000
209.095900 1136.000000
209.134200 972.000000
210.102600 460.000000
211.110300 2160.000000
212.114300 408.000000
213.090000 400.000000
213.126500 3104.000000
214.129400 520.000000
215.142800 868.000000
217.122400 1740.000000
218.124400 440.000000
223.111200 2016.000000
224.116200 596.000000
225.126900 2360.000000
226.132600 772.000000
227.105000 1672.000000
227.143800 1028.000000
228.145900 324.000000
229.120800 3444.000000
230.123800 752.000000
231.137200 2208.000000
233.132700 1480.000000
234.134400 364.000000
235.111600 988.000000
236.116400 784.000000
237.125900 11396.000000
238.129800 1832.000000
239.142200 3212.000000
240.148300 964.000000
241.122900 420.000000
241.158100 648.000000
243.142100 416.000000
249.128400 2072.000000
249.152600 372.000000
250.130400 452.000000
251.142500 15508.000000
252.146200 3436.000000
253.123100 600.000000
253.157400 4036.000000
254.163400 556.000000
255.136900 968.000000
257.152600 596.000000
259.109500 352.000000
261.126600 712.000000
261.163400 812.000000
262.136600 376.000000
263.143300 1868.000000
264.147700 684.000000
265.122300 408.000000
265.161200 636.000000
267.137300 3440.000000
267.175500 464.000000
268.141200 952.000000
269.153400 3880.000000
269.188800 492.000000
270.157700 1052.000000
274.133800 620.000000
275.149300 408.000000
275.181100 432.000000
277.158500 3600.000000
278.165500 3180.000000
279.174100 63392.000000
280.142400 860.000000
280.177500 13196.000000
281.152600 1736.000000
281.181600 1752.000000
282.155900 536.000000
285.162700 320.000000
288.153400 676.000000
293.152400 492.000000
293.190100 4924.000000
294.193600 1252.000000
295.169200 4476.000000
296.176000 1708.000000
297.149700 1288.000000
297.183800 10760.000000
298.187500 2588.000000
299.185000 636.000000
303.174000 9920.000000
304.177200 2600.000000
305.179800 348.000000
306.162100 344.000000
309.184000 556.000000
311.201800 3308.000000
312.205200 964.000000
315.159200 320.000000
317.191300 936.000000
321.185200 30520.000000
322.188600 8496.000000
323.191000 836.000000
339.195900 27436.000000
340.198700 6732.000000
341.193700 2312.000000
342.193500 320.000000
357.204300 6368.000000
358.208000 1224.000000
359.203100 768.000000
377.214800 1612.000000

>ms2
115.052700 516.000000
117.069400 368.000000
119.084900 956.000000
121.064200 3372.000000
121.099800 320.000000
122.066900 336.000000
123.080500 1076.000000
125.059700 776.000000
128.061700 320.000000
129.067900 356.000000
131.083400 360.000000
133.062200 380.000000
133.099300 876.000000
135.079500 14000.000000
136.082900 1548.000000
137.094800 928.000000
139.075700 616.000000
142.075300 380.000000
143.085200 1068.000000
145.063800 1304.000000
145.099500 2248.000000
146.070500 500.000000
146.103200 356.000000
147.078900 3296.000000
147.115200 560.000000
149.094600 1888.000000
149.130200 416.000000
150.100600 344.000000
151.075100 312.000000
151.110800 520.000000
156.094900 320.000000
157.099800 1052.000000
158.072600 712.000000
159.079500 3288.000000
160.084300 348.000000
161.095100 15024.000000
161.130800 1184.000000
162.098100 1664.000000
163.089800 388.000000
163.108900 1096.000000
165.090000 836.000000
167.087600 340.000000
169.103500 336.000000
171.078600 880.000000
171.116500 1184.000000
172.084100 496.000000
172.122400 316.000000
173.094500 3884.000000
174.098700 656.000000
175.110400 2776.000000
176.112300 448.000000
177.089700 1144.000000
181.099600 384.000000
183.082300 412.000000
185.095100 5576.000000
186.098100 692.000000
187.110300 3980.000000
188.115200 632.000000
189.126200 2652.000000
190.131700 568.000000
191.121200 464.000000
195.078900 436.000000
195.115100 452.000000
196.089700 396.000000
197.094800 1452.000000
198.105200 312.000000
199.111700 2560.000000
200.112800 588.000000
201.090800 1236.000000
201.127600 984.000000
202.131700 300.000000
203.104400 596.000000
203.142900 472.000000
207.120000 380.000000
208.086300 504.000000
209.094600 2384.000000
209.132000 1012.000000
210.104900 712.000000
211.110700 1852.000000
212.119400 456.000000
213.126500 2460.000000
214.132700 408.000000
215.105600 356.000000
215.121700 320.000000
217.120500 580.000000
219.116900 388.000000
221.095900 352.000000
222.101600 928.000000
223.110700 3400.000000
223.150100 480.000000
224.118300 832.000000
225.126500 2160.000000
226.131300 644.000000
227.106100 1760.000000
227.141600 744.000000
229.121100 2104.000000
231.135600 884.000000
232.141300 384.000000
233.096500 300.000000
233.132000 576.000000
235.110800 936.000000
235.151200 364.000000
236.118800 2248.000000
237.126600 9164.000000
238.129900 2592.000000
239.143300 2708.000000
240.145700 860.000000
241.120500 428.000000
241.157500 336.000000
247.111800 540.000000
248.117300 620.000000
249.127300 1832.000000
250.129300 984.000000
251.142600 8960.000000
252.146800 1972.000000
253.121400 424.000000
253.157800 2776.000000
254.160500 812.000000
255.136600 580.000000
257.157300 356.000000
259.112100 592.000000
260.118200 548.000000
261.126400 976.000000
261.163400 604.000000
262.133700 760.000000
262.167500 304.000000
263.142000 3224.000000
264.152000 1112.000000
265.157400 704.000000
266.163500 360.000000
267.140600 1132.000000
267.176300 328.000000
269.155600 780.000000
270.155900 388.000000
273.124800 592.000000
274.135100 1116.000000
275.140400 568.000000
277.158200 2284.000000
278.164700 2884.000000
279.137300 1372.000000
279.173800 24800.000000
280.144700 412.000000
280.176900 5876.000000
281.154500 484.000000
281.183800 808.000000
285.160200 360.000000
288.150300 1280.000000
289.155700 468.000000
293.188500 1984.000000
294.193200 392.000000
295.168800 1524.000000
296.172900 608.000000
297.148800 480.000000
297.184100 2204.000000
298.189200 396.000000
303.174400 3524.000000
304.176500 1276.000000
306.159200 704.000000
307.164600 332.000000
321.185000 4456.000000
322.188400 1332.000000
323.184800 372.000000
339.196600 1540.000000
340.198700 516.000000

>ms2
115.054400 1024.000000
117.069000 968.000000
119.084800 1140.000000
121.063500 4116.000000
122.066800 532.000000
123.078800 720.000000
125.057800 440.000000
128.062300 672.000000
129.068900 728.000000
131.049200 392.000000
131.084600 1396.000000
133.063600 888.000000
133.100600 1836.000000
135.079000 11900.000000
136.083500 1432.000000
137.094600 592.000000
139.073100 424.000000
141.068900 560.000000
142.076300 808.000000
143.083800 1712.000000
144.056100 360.000000
144.090200 504.000000
145.064100 2228.000000
145.099300 2728.000000
146.070500 1488.000000
147.079600 3412.000000
147.114000 612.000000
148.082700 608.000000
149.095700 1204.000000
151.108400 372.000000
153.067400 396.000000
155.084500 816.000000
156.090700 512.000000
157.099800 1536.000000
158.071700 1004.000000
159.078900 4492.000000
159.115300 800.000000
160.082200 712.000000
161.094300 14028.000000
162.098600 2448.000000
163.091600 344.000000
163.109800 652.000000
165.067200 392.000000
165.089600 568.000000
166.075100 616.000000
167.085200 556.000000
169.100200 460.000000
171.077300 1168.000000
171.115700 880.000000
172.086800 644.000000
173.094000 3512.000000
174.098800 380.000000
175.109800 2076.000000
176.113800 352.000000
177.086900 344.000000
179.084300 664.000000
180.090100 380.000000
181.099200 764.000000
182.070400 384.000000
183.079500 1104.000000
184.086100 464.000000
185.094700 5464.000000
186.097900 912.000000
187.110000 2012.000000
188.118100 336.000000
189.127300 1312.000000
191.085000 496.000000
192.094400 436.000000
193.098900 968.000000
194.105700 548.000000
195.078600 1844.000000
195.113500 1016.000000
196.085600 1012.000000
197.095000 1128.000000
197.129100 336.000000
198.102100 660.000000
199.111500 1712.000000
200.117500 428.000000
201.090100 696.000000
201.127100 328.000000
203.082600 460.000000
204.091100 564.000000
205.096800 536.000000
206.104500 376.000000
207.117200 512.000000
208.086400 956.000000
209.093800 4116.000000
209.132500 936.000000
210.102700 2332.000000
211.110400 2216.000000
212.115200 776.000000
213.092300 316.000000
213.126100 1156.000000
214.130300 520.000000
217.099300 352.000000
218.106700 648.000000
219.113800 864.000000
220.121100 392.000000
221.094500 1240.000000
222.102200 3852.000000
223.110100 4040.000000
224.116300 2104.000000
225.125300 2304.000000
226.130000 544.000000
227.104500 852.000000
227.140900 664.000000
228.109300 384.000000
229.120500 640.000000
233.091800 308.000000
233.132100 592.000000
234.100100 612.000000
234.136700 300.000000
235.110800 1728.000000
235.146100 356.000000
236.117600 3960.000000
237.125600 5684.000000
238.131300 1948.000000
239.139300 1424.000000
245.093300 408.000000
245.131800 320.000000
246.101300 500.000000
246.137600 496.000000
247.113200 616.000000
247.144800 724.000000
248.116500 1288.000000
249.126000 3252.000000
250.131600 1168.000000
251.142700 4656.000000
252.145200 1364.000000
253.122800 312.000000
253.157800 1016.000000
257.132400 424.000000
259.110800 1376.000000
260.114000 428.000000
261.125500 632.000000
261.161500 384.000000
262.133500 856.000000
263.143100 3216.000000
264.147300 1632.000000
265.158700 752.000000
270.142600 388.000000
273.125200 1312.000000
274.131400 968.000000
275.141400 376.000000
277.121600 316.000000
277.157000 1064.000000
278.165700 1704.000000
279.173300 9296.000000
280.176900 2016.000000
281.151700 484.000000
288.151100 1052.000000
292.141700 320.000000
293.190600 396.000000
295.165800 324.000000
303.172600 780.000000
304.177100 412.000000
306.159100 432.000000
321.182200 492.000000

>ms2
115.053100 2304.000000
116.059300 448.000000
117.069400 1056.000000
119.051100 372.000000
119.084800 980.000000
121.064200 5052.000000
121.099000 336.000000
122.067900 584.000000
123.057800 304.000000
123.080300 620.000000
128.060900 1720.000000
129.068900 1464.000000
130.076800 480.000000
131.047200 608.000000
131.084000 1608.000000
132.056000 588.000000
133.062000 880.000000
133.099900 1916.000000
135.079300 9700.000000
136.082200 976.000000
137.096400 316.000000
139.055100 352.000000
141.068100 1136.000000
142.076000 1852.000000
143.083700 1544.000000
144.056100 892.000000
144.091500 428.000000
145.063800 3500.000000
145.100700 1464.000000
146.070900 2972.000000
147.079300 2276.000000
147.116300 452.000000
149.095100 684.000000
150.100900 300.000000
152.061200 408.000000
153.068300 448.000000
155.083700 816.000000
156.091800 864.000000
157.063300 704.000000
157.098700 1864.000000
158.071500 2280.000000
158.106200 476.000000
159.079000 4080.000000
159.114800 480.000000
161.095100 7920.000000
162.098600 904.000000
163.088600 316.000000
165.068600 956.000000
166.075600 624.000000
167.083600 660.000000
169.065100 552.000000
169.100300 696.000000
170.068800 728.000000
171.079000 1872.000000
171.113100 360.000000
172.087000 1540.000000
173.094700 1848.000000
175.111600 1320.000000
178.076600 760.000000
179.084800 1012.000000
180.090000 596.000000
181.063900 568.000000
181.099800 952.000000
182.071500 516.000000
183.079600 1260.000000
183.117000 364.000000
184.086800 428.000000
185.094600 4384.000000
186.101000 640.000000
187.109300 1276.000000
189.069800 304.000000
189.126000 548.000000
190.076800 396.000000
191.084700 444.000000
192.092000 568.000000
193.099200 1572.000000
194.071700 512.000000
194.108900 592.000000
195.079100 1996.000000
195.114000 604.000000
196.085600 1508.000000
197.094000 1632.000000
198.100500 584.000000
199.073700 532.000000
199.110600 1288.000000
203.082900 780.000000
204.092700 828.000000
205.101900 924.000000
206.105500 608.000000
207.078600 572.000000
207.113600 488.000000
208.086900 1948.000000
208.120900 560.000000
209.094000 4372.000000
210.101500 2360.000000
211.109700 1908.000000
212.116500 528.000000
213.127000 444.000000
215.081400 560.000000
216.089900 640.000000
217.101400 528.000000
218.072400 308.000000
218.106800 712.000000
219.077500 528.000000
219.117800 392.000000
220.087000 728.000000
220.121900 420.000000
221.095700 2696.000000
221.131700 448.000000
222.102800 4132.000000
223.109100 2968.000000
224.115900 1160.000000
225.090200 424.000000
225.124100 988.000000
228.109100 444.000000
229.099500 320.000000
230.105200 556.000000
231.082800 396.000000
231.113500 600.000000
232.087900 340.000000
232.123300 352.000000
233.094500 888.000000
233.135700 436.000000
234.102000 1116.000000
235.111400 2316.000000
235.147100 304.000000
236.118300 3048.000000
237.125900 2832.000000
238.134200 548.000000
239.144400 588.000000
245.094200 392.000000
245.132400 608.000000
246.102100 656.000000
247.109700 864.000000
247.149300 652.000000
248.119700 1376.000000
249.125600 3604.000000
250.130800 1332.000000
251.142200 1924.000000
252.149900 388.000000
255.113800 556.000000
258.105100 340.000000
259.112300 1460.000000
260.114800 328.000000
261.126300 312.000000
262.135400 424.000000
263.143500 2268.000000
264.147400 896.000000
265.152900 300.000000
265.161300 324.000000
272.122000 300.000000
273.125000 828.000000
277.158700 380.000000
279.174300 1380.000000

>ms2
55.053300 368.000000
61.027400 328.000000
81.069100 400.000000
85.064100 336.000000
93.069700 524.000000
95.085300 904.000000
107.085900 372.000000
115.052300 544.000000
117.069700 416.000000
119.084800 1556.000000
120.087200 320.000000
121.063900 4252.000000
122.067100 596.000000
123.080100 2472.000000
125.057800 1312.000000
128.061100 308.000000
129.068900 604.000000
131.084900 860.000000
133.063100 388.000000
133.100500 1696.000000
135.079500 24676.000000
136.082600 3116.000000
137.057100 320.000000
137.075900 404.000000
137.095000 2132.000000
139.074200 940.000000
143.084300 1036.000000
145.063400 1220.000000
145.099800 3076.000000
146.070300 496.000000
146.102800 400.000000
147.078800 4196.000000
147.115700 376.000000
148.083800 516.000000
149.094500 4236.000000
149.129900 400.000000
151.109400 492.000000
157.099700 1240.000000
158.069300 748.000000
159.079200 3740.000000
159.115800 692.000000
160.084600 432.000000
161.094800 24052.000000
162.098500 2472.000000
163.074200 536.000000
163.089600 444.000000
163.110200 1444.000000
165.089600 3216.000000
167.084200 620.000000
169.099800 508.000000
171.078600 768.000000
171.115600 1700.000000
172.085800 848.000000
173.094600 5512.000000
174.098600 808.000000
175.110000 3676.000000
176.115500 304.000000
177.090300 1328.000000
179.082400 340.000000
180.092000 424.000000
181.100300 316.000000
183.078000 888.000000
183.115500 432.000000
184.085500 584.000000
185.095000 9360.000000
186.099200 1336.000000
187.110700 4260.000000
188.113900 792.000000
189.089400 680.000000
189.106600 444.000000
189.126700 3624.000000
190.127800 756.000000
191.083300 532.000000
191.119300 336.000000
193.100200 720.000000
195.078400 400.000000
195.115700 432.000000
196.086000 432.000000
196.124700 472.000000
197.092500 1396.000000
198.100600 744.000000
199.110800 2792.000000
200.112700 312.000000
201.090700 1752.000000
201.126000 988.000000
203.106400 836.000000
203.139800 420.000000
205.100700 784.000000
207.115600 456.000000
207.136300 372.000000
208.087900 520.000000
209.094500 3264.000000
209.133800 1544.000000
210.099400 1128.000000
211.112100 2632.000000
212.117400 560.000000
213.090100 476.000000
213.125400 3116.000000
214.131800 488.000000
215.141500 444.000000
217.120000 892.000000
219.117100 640.000000
221.096000 588.000000
221.132900 412.000000
222.102900 1504.000000
223.110400 5248.000000
223.147600 556.000000
224.115500 1964.000000
225.126100 3264.000000
226.129500 704.000000
227.106500 1632.000000
227.142600 584.000000
228.112900 364.000000
229.120300 2480.000000
230.125800 740.000000
231.137500 1276.000000
232.141700 368.000000
233.131500 1472.000000
234.102000 380.000000
235.111200 1624.000000
236.117600 2184.000000
237.126500 13232.000000
238.130700 2892.000000
239.106800 352.000000
239.142000 3392.000000
240.148000 1296.000000
241.157600 572.000000
247.147900 504.000000
248.118900 648.000000
249.125900 2668.000000
250.131700 2228.000000
251.142400 12520.000000
252.146400 2428.000000
253.120600 596.000000
253.157200 4156.000000
254.160600 1072.000000
255.138800 624.000000
257.155300 304.000000
259.110100 996.000000
259.152000 416.000000
260.119400 392.000000
261.126000 1072.000000
261.166200 620.000000
262.132700 736.000000
263.142700 3252.000000
264.147900 1748.000000
265.119700 556.000000
265.155600 1168.000000
267.135700 2132.000000
267.171000 564.000000
268.141300 580.000000
269.151600 1848.000000
269.188300 388.000000
270.155100 572.000000
273.126300 824.000000
274.133800 1352.000000
275.137300 316.000000
277.158500 3172.000000
278.165300 4456.000000
279.173800 44784.000000
280.142500 696.000000
280.177500 10116.000000
281.151400 876.000000
281.181100 1116.000000
285.162400 312.000000
288.150200 1712.000000
289.154300 412.000000
293.150600 308.000000
293.189900 2760.000000
294.189800 716.000000
295.169100 3336.000000
296.176300 1012.000000
297.148800 428.000000
297.160800 456.000000
297.183000 5064.000000
298.188500 1088.000000
299.175800 468.000000
303.174200 6060.000000
304.176500 1728.000000
306.159100 704.000000
309.184300 408.000000
311.199500 1024.000000
312.203500 356.000000
317.196000 396.000000
321.184500 11912.000000
322.187300 3884.000000
323.186700 564.000000
339.195200 8356.000000
340.198300 2008.000000
341.192900 712.000000
341.204100 420.000000
357.206500 1124.000000
358.214900 340.000000
359.196200 344.000000
359.208900 320.000000

