>compound AU97133920
>parentmass 269.1051
>ionization [M+H]+
>formula C13H17ClN2O2
>rt 282.610000
>profile qtof
#smiles_iso C1COCCN1CCNC(=O)C2=CC=C(C=C2)Cl
#smiles_can C1COCCN1CCNC(=O)C2=CC=C(C=C2)Cl
#inchikey YHXISWVBGDMDLQ-UHFFFAOYSA-N
#pubchem_id 4235
#mb_accession AU227901,AU227902,AU227903,AU227904,AU227905,AU227906

>ms2peaks
182.035500 129728.000000
183.038700 11580.000000
184.032700 35696.000000
269.104600 1369920.000000
270.107700 159136.000000
271.101400 290472.000000

>ms2peaks
138.993300 49712.000000
140.990200 14876.000000
182.035700 1283636.000000
183.038800 91424.000000
184.032800 257076.000000
185.035600 13240.000000
269.104600 168296.000000
270.107500 26416.000000
271.101300 45188.000000

>ms2peaks
138.993300 712364.000000
139.996600 42584.000000
140.990300 174660.000000
182.035500 2022728.000000
183.038600 107436.000000
184.032700 352244.000000
185.035700 16072.000000

>ms2peaks
110.999400 12172.000000
138.993600 1401140.000000
139.996900 64596.000000
140.990700 310876.000000
141.994200 10260.000000
182.036000 463012.000000
183.039000 30860.000000
184.033100 94360.000000

>ms2peaks
110.999100 19588.000000
112.996400 10268.000000
129.008900 4912.000000
138.993500 563856.000000
139.996900 32272.000000
140.990500 148980.000000
141.993900 4892.000000
182.035500 41996.000000
183.038700 4248.000000
184.032300 12648.000000

>ms2peaks
138.993300 712364.000000
139.996600 42584.000000
140.990300 174660.000000
182.035500 2022728.000000
183.038600 107436.000000
184.032700 352244.000000
185.035700 16072.000000

