>compound AU98333875
>parentmass 423.1695
>ionization [M+H]+
>formula C22H23ClN6O
>rt 509.900000
>profile qtof
#smiles_iso CCCCC1=NC(=C(N1CC2=CC=C(C=C2)C3=CC=CC=C3C4=NNN=N4)CO)Cl
#smiles_can CCCCC1=NC(=C(N1CC2=CC=C(C=C2)C3=CC=CC=C3C4=NNN=N4)CO)Cl
#inchikey PSIFNNKUMBGKDQ-UHFFFAOYSA-N
#pubchem_id 3961
#mb_accession AU228001,AU228002,AU228003,AU228004,AU228005,AU228006

>ms2
171.067200 992.000000
192.080100 1240.000000
207.090300 16396.000000
208.094600 1864.000000
235.098100 2048.000000
341.175200 1288.000000
377.152500 10324.000000
378.155400 2712.000000
379.148200 3300.000000
405.158300 83624.000000
406.161500 21344.000000
407.155800 24480.000000
408.157800 4792.000000
423.169100 187372.000000
424.171800 46392.000000
425.166900 46372.000000

>ms2
171.067200 17328.000000
172.070600 1688.000000
173.064200 4780.000000
180.079100 3568.000000
189.077700 4968.000000
190.064400 1344.000000
191.073500 1376.000000
192.079800 22496.000000
193.082500 2880.000000
206.082600 2288.000000
206.094500 1592.000000
207.090900 239412.000000
208.093700 29160.000000
209.097100 1288.000000
235.096900 48056.000000
236.100300 7628.000000
253.108000 1552.000000
258.101700 5400.000000
259.104900 1220.000000
294.078100 3108.000000
324.148800 1456.000000
341.175400 11652.000000
342.177700 2916.000000
362.140800 5160.000000
364.139000 1816.000000
365.153900 1864.000000
377.152200 56928.000000
378.155300 14184.000000
379.149600 16080.000000
380.151400 4316.000000
405.158800 45000.000000
406.161000 12564.000000
407.156000 14344.000000
408.159000 2288.000000
423.168000 10028.000000
424.170100 3120.000000
425.166700 3612.000000

>ms2
153.068600 2548.000000
171.067100 30328.000000
172.070200 3164.000000
173.064200 8972.000000
178.076800 3464.000000
180.079400 21096.000000
181.082400 2736.000000
189.077500 3740.000000
190.063900 8912.000000
191.071200 2640.000000
192.079200 33408.000000
193.082800 4484.000000
196.074700 2220.000000
205.074300 4592.000000
206.082700 15812.000000
207.090700 427112.000000
208.093700 51936.000000
209.096500 3052.000000
235.097100 32732.000000
236.100500 5256.000000
258.101700 10940.000000
259.085200 3844.000000
259.106500 2476.000000
294.079100 2328.000000
324.148000 2956.000000
341.174800 7188.000000
362.140200 4156.000000
377.152000 7784.000000
378.155400 2596.000000
379.149600 2432.000000

>ms2
140.048100 1504.000000
142.027800 4208.000000
152.059900 3396.000000
153.068600 6532.000000
163.052200 1512.000000
165.068400 4268.000000
166.074700 1596.000000
167.070800 2700.000000
169.064000 1320.000000
171.067000 19040.000000
172.070700 1608.000000
173.064200 5224.000000
177.056200 1456.000000
178.064200 4316.000000
178.075700 4840.000000
179.071400 5248.000000
180.079400 54420.000000
181.083000 8016.000000
190.063700 18896.000000
191.070000 4912.000000
192.078700 28796.000000
193.082400 4292.000000
194.058100 1908.000000
196.074400 7304.000000
205.074900 15028.000000
206.082800 38916.000000
207.090800 256304.000000
208.074900 4420.000000
208.093600 30608.000000
209.097000 1844.000000
235.097300 2652.000000
241.075700 3024.000000
243.090900 1540.000000
258.101200 5580.000000
259.085300 3152.000000
259.104000 1424.000000
282.102000 1556.000000
362.138800 1312.000000

>ms2
129.020700 1016.000000
129.043700 2176.000000
129.069800 668.000000
135.090600 2156.000000
139.052900 756.000000
140.048800 4056.000000
142.028100 7928.000000
144.025500 2120.000000
151.054300 1600.000000
152.061000 12432.000000
153.068600 17120.000000
154.071900 2520.000000
155.084000 872.000000
163.053300 4220.000000
164.051600 1056.000000
164.057800 1368.000000
165.069000 13968.000000
166.072700 3320.000000
167.071700 6256.000000
168.069400 1084.000000
169.063800 4960.000000
170.067000 812.000000
171.067500 11744.000000
172.071100 1120.000000
173.064600 3732.000000
177.056200 3004.000000
178.064200 9680.000000
178.075400 8608.000000
179.071700 15936.000000
180.079900 99388.000000
181.082800 11560.000000
182.087100 924.000000
190.064200 34192.000000
191.070600 9836.000000
192.067500 27356.000000
192.078300 26080.000000
193.071400 3968.000000
193.081900 3516.000000
194.059600 3812.000000
195.063600 808.000000
195.091100 824.000000
196.074900 8404.000000
197.077800 1240.000000
205.075300 44640.000000
206.083100 61504.000000
207.090900 130116.000000
208.074300 6548.000000
208.093900 17380.000000
209.078200 900.000000
209.096000 1128.000000
211.060200 1420.000000
214.063800 1860.000000
216.079400 1500.000000
217.084200 736.000000
219.090300 876.000000
231.092200 840.000000
241.075600 3076.000000
242.082100 1152.000000
243.091300 1692.000000
258.102400 2068.000000
259.085900 1824.000000
281.093900 1384.000000
282.099000 768.000000
298.122800 748.000000

>ms2
153.068600 2548.000000
171.067100 30328.000000
172.070200 3164.000000
173.064200 8972.000000
178.076800 3464.000000
180.079400 21096.000000
181.082400 2736.000000
189.077500 3740.000000
190.063900 8912.000000
191.071200 2640.000000
192.079200 33408.000000
193.082800 4484.000000
196.074700 2220.000000
205.074300 4592.000000
206.082700 15812.000000
207.090700 427112.000000
208.093700 51936.000000
209.096500 3052.000000
235.097100 32732.000000
236.100500 5256.000000
258.101700 10940.000000
259.085200 3844.000000
259.106500 2476.000000
294.079100 2328.000000
324.148000 2956.000000
341.174800 7188.000000
362.140200 4156.000000
377.152000 7784.000000
378.155400 2596.000000
379.149600 2432.000000

