>compound AU98535037
>parentmass 234.1489
>ionization [M+H]+
>formula C14H19NO2
>rt 456.000000
>profile qtof
#smiles_iso CCC1=CC=CC(=C1N2C(COCC2=O)C)C
#smiles_can CCC1=CC=CC(=C1N2C(COCC2=O)C)C
#inchikey DVBDYPDVNRJKNJ-UHFFFAOYSA-N
#pubchem_id 179957
#mb_accession AU205902,AU205903,AU205904,AU205905

>ms2
206.117200 103276.000000
234.149000 2080804.000000
235.152100 289140.000000
236.154700 22128.000000

>ms2
115.053200 4560.000000
117.056300 6220.000000
117.068700 6916.000000
120.080000 175568.000000
121.063800 1992.000000
121.083400 12760.000000
129.068700 3492.000000
131.084100 6672.000000
132.043600 1900.000000
133.051200 28512.000000
134.057200 3404.000000
136.109200 2736.000000
137.095500 1656.000000
143.071600 5304.000000
143.084600 1776.000000
146.095300 146556.000000
148.074600 169528.000000
148.111100 155256.000000
149.077700 13648.000000
149.094700 2216.000000
149.114300 15332.000000
160.111100 161088.000000
161.082400 8668.000000
161.114400 16868.000000
162.089900 20408.000000
162.126100 2240.000000
163.093900 1604.000000
172.110400 3252.000000
173.118300 2184.000000
174.090100 2628.000000
175.098200 2776.000000
176.142200 36428.000000
177.111700 4744.000000
177.145300 4016.000000
186.126600 2948.000000
188.105500 1832.000000
188.142200 13664.000000
189.145900 2320.000000
192.101300 1848.000000
193.108400 4248.000000
204.136100 2692.000000
206.116800 88796.000000
216.137700 2848.000000
234.149000 273784.000000
235.152100 36364.000000
236.154700 3656.000000

>ms2
115.053700 8752.000000
116.060800 2664.000000
117.068700 8652.000000
119.048000 2560.000000
120.080100 144868.000000
121.063700 2040.000000
121.083400 10596.000000
128.049700 928.000000
128.061300 2104.000000
129.069400 3860.000000
132.043700 4236.000000
133.051400 49944.000000
134.056500 5636.000000
135.102400 8716.000000
136.109100 928.000000
137.094600 764.000000
142.065100 924.000000
143.071500 7540.000000
146.095400 66580.000000
147.101100 10812.000000
148.074400 39716.000000
148.111200 52768.000000
149.077900 2432.000000
149.114200 6484.000000
156.080600 1140.000000
157.087700 1796.000000
159.102300 4288.000000
160.074400 6252.000000
160.111100 62212.000000
161.081700 4168.000000
161.115000 7568.000000
162.090100 13712.000000
162.125300 1144.000000
163.093400 1464.000000
172.110600 2616.000000
173.120500 968.000000
174.090000 992.000000
174.126400 4460.000000
175.133700 2312.000000
176.105800 4080.000000
176.142400 5916.000000
177.146400 1044.000000
186.128200 888.000000
188.105400 744.000000
188.141100 1332.000000
206.116600 7964.000000
234.148400 7740.000000

>ms2
116.049700 2180.000000
116.059000 2476.000000
117.068600 6056.000000
119.048700 2256.000000
119.083600 5308.000000
120.080000 57184.000000
121.064200 1484.000000
121.083200 5676.000000
127.053600 724.000000
128.048700 2132.000000
128.061100 3800.000000
129.056000 824.000000
129.068800 2972.000000
132.043700 5812.000000
133.051400 38032.000000
134.056000 4712.000000
135.101600 2572.000000
141.055800 596.000000
141.069100 492.000000
142.064000 2588.000000
143.071800 7172.000000
146.095100 20228.000000
147.099600 2684.000000
148.074100 5100.000000
148.111100 11376.000000
149.077800 504.000000
149.114200 1348.000000
155.058500 772.000000
156.079200 1556.000000
157.087700 1900.000000
158.095300 6640.000000
159.101500 1712.000000
160.074700 3240.000000
160.110800 11576.000000
161.081000 880.000000
161.115900 1308.000000
162.090300 3144.000000
162.125800 608.000000
163.094900 460.000000
170.096000 720.000000
172.110300 1900.000000
174.127200 712.000000
176.106400 516.000000
206.118200 496.000000

