>compound AU98509485
>parentmass 455.2903999999999
>ionization [M+H]+
>formula C27H38N2O4
>rt 434.260000
>profile qtof
#smiles_iso CC(C)C(CCCN(C)CCC1=CC(=C(C=C1)OC)OC)(C#N)C2=CC(=C(C=C2)OC)OC
#smiles_can CC(C)C(CCCN(C)CCC1=CC(=C(C=C1)OC)OC)(C#N)C2=CC(=C(C=C2)OC)OC
#inchikey SGTNSNPWRIOYBX-UHFFFAOYSA-N
#pubchem_id 2520
#mb_accession AU226001,AU226002,AU226003,AU226004,AU226005,AU226006

>ms2
165.090200 2884.000000
303.206100 1224.000000
455.291000 1293220.000000
456.293900 298632.000000
457.296300 42448.000000

>ms2
165.090200 88916.000000
166.093200 10952.000000
260.164000 3692.000000
303.206100 33760.000000
304.208300 6288.000000
455.291000 1477312.000000
456.293900 345696.000000
457.296300 50240.000000

>ms2
133.063800 6348.000000
135.042600 5696.000000
150.066300 61364.000000
151.072100 8740.000000
165.090000 1086048.000000
166.093200 98832.000000
260.164000 36076.000000
303.206400 329856.000000
304.208300 51580.000000
455.290000 534548.000000
456.293900 122212.000000
457.296300 17564.000000

>ms2
133.063800 32496.000000
135.042600 27340.000000
150.066700 280400.000000
165.090200 1629368.000000
166.093200 129960.000000
260.164000 88144.000000
303.206700 238352.000000
304.208300 36372.000000

>ms2
118.040600 7312.000000
119.047900 8112.000000
120.055900 8812.000000
122.070600 4976.000000
122.095600 6200.000000
131.047800 7356.000000
136.049300 9276.000000
137.058500 8332.000000
138.066200 7408.000000
139.073700 5600.000000
150.066700 419020.000000
151.072100 69612.000000
165.089900 909132.000000
166.093200 62700.000000
177.089500 34496.000000
191.105600 6964.000000
217.108400 6712.000000
218.116500 25008.000000
260.164100 36544.000000
303.206600 27148.000000

>ms2
58.064800 12732.000000
105.070300 17424.000000
122.096000 5220.000000
133.064400 19084.000000
134.072000 13852.000000
135.043200 10028.000000
135.079600 12076.000000
150.066900 134380.000000
151.072900 21444.000000
165.090600 995004.000000
166.093600 111436.000000
167.095300 7912.000000
177.089900 10936.000000
218.116400 6456.000000
260.164200 80796.000000
261.161200 37172.000000
303.206900 383292.000000
304.210000 74740.000000
305.212800 5948.000000
455.290900 742136.000000
456.294100 292428.000000
457.296300 45680.000000

