>compound AU98214438
>parentmass 313.0707
>ionization [M+H]+
>formula C17H12O6
>rt 407.076000
>profile qtof
#smiles_iso COC1=C2C3=C(C(=O)CC3)C(=O)OC2=C4C5C=COC5OC4=C1
#smiles_can COC1=C2C3=C(C(=O)CC3)C(=O)OC2=C4C5C=COC5OC4=C1
#inchikey OQIQSTLJSLGHID-UHFFFAOYSA-N
#pubchem_id 14403
#mb_accession AU596200,AU596201,AU596202,AU596203,AU596204

>ms2
313.070700 2138996.000000

>ms2
257.079700 13572.000000
270.050200 13536.000000
284.066600 27952.000000
285.074400 94740.000000
298.046000 18056.000000
313.069800 2278172.000000

>ms2
173.096100 3696.000000
185.059400 3704.000000
186.067100 4464.000000
187.075100 7364.000000
197.058600 4248.000000
201.091100 25400.000000
213.054500 8184.000000
214.062500 38292.000000
215.068800 16508.000000
224.046900 3876.000000
225.053900 5928.000000
226.062300 5068.000000
227.034200 5700.000000
229.049400 8104.000000
229.086100 38820.000000
241.049800 55908.000000
241.085600 4744.000000
242.057300 66868.000000
243.064200 45212.000000
244.068100 5716.000000
252.041500 14936.000000
253.049200 16848.000000
254.055300 4700.000000
257.080700 72936.000000
259.060300 10868.000000
269.044600 98052.000000
270.052100 152012.000000
271.057000 28192.000000
272.063100 5184.000000
280.036900 8632.000000
281.043500 5592.000000
284.067900 113356.000000
285.075800 407968.000000
298.047400 81672.000000
299.050200 14244.000000
313.070900 705868.000000

>ms2
115.054100 4120.000000
128.061800 7640.000000
129.069400 4656.000000
131.048600 1704.000000
139.053700 1844.000000
141.069400 11744.000000
142.076000 3868.000000
143.049000 1964.000000
143.084600 2068.000000
144.056400 4208.000000
145.064400 4676.000000
152.061600 2232.000000
153.069600 3460.000000
155.048300 3032.000000
155.085000 3316.000000
156.056400 2052.000000
157.064200 6128.000000
158.072200 14440.000000
159.079200 5736.000000
161.059000 2672.000000
168.056400 6800.000000
169.064400 11808.000000
170.071500 6480.000000
171.043400 8076.000000
171.078900 2904.000000
172.050600 5068.000000
173.058800 3532.000000
173.095800 11220.000000
177.053300 2368.000000
181.064300 2028.000000
183.043400 2320.000000
183.079600 2752.000000
184.051500 4688.000000
185.059400 26708.000000
186.066600 24984.000000
187.038400 3028.000000
187.074800 20472.000000
188.046700 3424.000000
188.078600 3256.000000
189.053900 2936.000000
191.070300 5120.000000
195.043300 1696.000000
196.051500 10428.000000
197.059400 15884.000000
198.066300 10280.000000
199.039100 7592.000000
199.074200 5024.000000
200.046100 12228.000000
201.053500 6852.000000
201.090800 48032.000000
203.070400 3404.000000
205.049200 2008.000000
211.039200 1724.000000
211.075000 3792.000000
212.046300 2100.000000
213.054400 63568.000000
214.062100 140196.000000
215.067900 35348.000000
216.041300 3684.000000
217.048600 2000.000000
219.065400 3188.000000
223.038900 3796.000000
224.046300 22668.000000
225.053700 17296.000000
226.061100 9568.000000
227.033300 17792.000000
227.069100 4412.000000
228.040500 10796.000000
228.078200 3512.000000
229.048000 9304.000000
229.085500 34848.000000
230.053900 1904.000000
231.065600 3784.000000
239.069400 3136.000000
240.041700 1904.000000
241.049500 317748.000000
242.056300 153100.000000
243.063000 43576.000000
244.068300 6260.000000
245.044200 3020.000000
251.032900 4896.000000
252.041100 34788.000000
253.048700 37788.000000
254.053700 8656.000000
255.028300 9804.000000
255.065200 2948.000000
256.034300 3788.000000
256.072400 3328.000000
257.042800 3284.000000
257.080300 35452.000000
259.059700 17000.000000
260.062600 1868.000000
269.044400 245992.000000
270.051200 167524.000000
271.055900 30364.000000
272.063300 5340.000000
280.036400 7684.000000
281.043000 9328.000000
282.048800 2520.000000
284.067500 37924.000000
285.075200 126524.000000
297.039100 1904.000000
298.046600 31756.000000
299.049500 5520.000000
313.070200 46912.000000

>ms2
115.053900 10868.000000
127.053800 3448.000000
128.061700 24620.000000
129.069400 17232.000000
130.076300 3672.000000
131.048600 5516.000000
139.053800 6860.000000
140.061700 5884.000000
141.069500 23844.000000
142.075300 4768.000000
143.048700 7560.000000
144.056400 9784.000000
145.064300 9520.000000
152.061400 5348.000000
153.069100 5280.000000
155.049100 6776.000000
155.058300 4684.000000
156.056400 5108.000000
157.064100 31384.000000
158.071700 31352.000000
159.043700 2624.000000
159.078500 7728.000000
160.051400 3824.000000
161.059700 3868.000000
168.056500 17312.000000
169.064300 21760.000000
170.070700 7044.000000
171.043500 25208.000000
171.078900 3116.000000
172.050500 10040.000000
173.058800 6552.000000
173.095800 7608.000000
181.064600 3316.000000
183.043000 3676.000000
183.079900 2380.000000
184.051100 8632.000000
185.059700 101336.000000
186.031500 2568.000000
186.066300 42224.000000
187.038700 7060.000000
187.074100 20780.000000
188.045600 6312.000000
188.078700 2816.000000
189.053500 4016.000000
191.069600 2960.000000
195.043900 7496.000000
196.051000 15412.000000
197.059100 26180.000000
198.066200 9528.000000
199.038600 20372.000000
199.073200 4404.000000
200.045900 20452.000000
201.053400 10424.000000
201.090800 22476.000000
203.069800 4856.000000
211.038000 3248.000000
211.075100 2344.000000
212.046400 5584.000000
213.054500 212684.000000
214.061700 127704.000000
215.033300 3044.000000
215.066500 21952.000000
216.041100 5020.000000
217.048500 3260.000000
223.038800 7812.000000
224.046300 25732.000000
225.053400 19060.000000
226.061000 7604.000000
227.033900 22960.000000
227.069800 4044.000000
228.040000 8576.000000
229.048100 5492.000000
229.085700 7592.000000
240.041200 7656.000000
241.049600 463276.000000
242.055000 100212.000000
243.062300 23164.000000
244.068100 2432.000000
245.044200 2564.000000
251.033900 6200.000000
252.041200 14640.000000
253.049200 20544.000000
254.053600 4232.000000
255.028600 9156.000000
255.063200 3440.000000
256.034700 2996.000000
257.044700 2580.000000
257.080600 5456.000000
259.059800 6648.000000
269.044300 131128.000000
270.049900 42184.000000
271.056000 8892.000000
281.043100 3836.000000
284.067700 4744.000000
285.075300 11668.000000
298.047700 2816.000000

