>compound AU98340708
>parentmass 273.1849
>ionization [M+H]+
>formula C18H24O2
>rt 713.860000
>profile qtof
#smiles_iso C[C@]12CC[C@H]3[C@H]([C@@H]1CC[C@@H]2O)CCC4=C3C=CC(=C4)O
#smiles_can CC12CCC3C(C1CCC2O)CCC4=C3C=CC(=C4)O
#inchikey VOXZDWNPVJITMN-ZBRFXRBCSA-N
#pubchem_id 5757
#mb_accession AU279701,AU279702,AU279703,AU279704,AU279705,AU279706

>ms2
191.084800 588.000000
224.063700 2212.000000
255.173200 896.000000
273.184000 19792.000000
274.187100 4492.000000
275.190000 464.000000

>ms2
157.099000 424.000000
167.140800 308.000000
175.109900 432.000000
191.084600 344.000000
224.063900 1312.000000
226.042200 1104.000000
227.178400 392.000000
240.150100 940.000000
255.174000 11368.000000
256.176500 2072.000000
273.184900 11496.000000
274.187300 2988.000000

>ms2
129.069800 348.000000
157.100200 1748.000000
175.111800 564.000000
185.095100 920.000000
197.131300 552.000000
198.138600 432.000000
212.155600 1300.000000
213.160300 384.000000
225.127600 2452.000000
226.042500 2236.000000
226.132200 1068.000000
227.177600 1136.000000
228.182600 380.000000
240.149900 4148.000000
241.152900 1180.000000
255.173400 10640.000000
256.177200 2648.000000
257.178300 328.000000
273.184600 1216.000000

>ms2
129.067700 860.000000
142.076200 468.000000
143.083400 440.000000
157.062600 508.000000
157.099000 1448.000000
158.103500 320.000000
171.113500 352.000000
183.113700 424.000000
185.094600 800.000000
197.130100 2816.000000
198.137500 896.000000
211.110500 992.000000
212.111700 320.000000
212.155000 2504.000000
213.160600 452.000000
225.125900 5632.000000
226.043800 1588.000000
226.130400 1244.000000
227.180300 584.000000
228.020100 1064.000000
240.150400 1820.000000
255.172000 1436.000000
256.176900 332.000000

>ms2
128.062000 720.000000
129.068000 1168.000000
141.069000 824.000000
142.075800 1512.000000
143.083300 464.000000
153.068800 484.000000
155.085500 744.000000
156.092000 708.000000
157.063700 344.000000
157.099800 1068.000000
167.085500 924.000000
168.090600 508.000000
169.100200 828.000000
170.108800 352.000000
182.108400 1492.000000
183.113800 976.000000
195.077300 364.000000
197.092500 308.000000
197.132300 5204.000000
198.136000 820.000000
210.105900 952.000000
211.109400 512.000000
212.156000 840.000000
225.127100 3204.000000
226.043000 564.000000
226.129100 840.000000
228.021100 548.000000
240.150300 404.000000

>ms2
135.116200 312.000000
145.098900 600.000000
147.116000 660.000000
159.116600 404.000000
161.131800 364.000000
199.146400 436.000000
224.063200 1412.000000
226.042800 2920.000000

