>compound AU98387555
>parentmass 359.18530000000004
>ionization [M+H]+
>formula C21H26O5
>rt 430.658182
>profile qtof
#smiles_iso C[C@]12CC(=O)[C@H]3[C@H]([C@@H]1CC[C@@]2(C(=O)CO)O)CCC4=CC(=O)C=C[C@]34C
#smiles_can CC12CC(=O)C3C(C1CCC2(C(=O)CO)O)CCC4=CC(=O)C=CC34C
#inchikey XOFYZVNMUHMLCC-ZPOLXVRWSA-N
#pubchem_id 5865
#mb_accession AU219601,AU219602,AU219603,AU219604,AU219605,AU240101,AU240102,AU240103,AU240104,AU240105,AU240106

>ms2peaks
135.081600 532.000000
137.095700 472.000000
147.080600 2984.000000
159.080800 532.000000
161.096700 700.000000
171.081300 920.000000
173.097800 468.000000
181.085200 840.000000
183.102500 968.000000
197.095900 788.000000
213.128100 928.000000
237.126300 2408.000000
239.107900 1384.000000
253.122300 724.000000
255.136000 576.000000
261.130300 1304.000000
263.142300 1124.000000
264.151500 508.000000
265.159400 2712.000000
266.163200 832.000000
267.138900 3172.000000
268.140800 692.000000
277.159700 1176.000000
281.155200 912.000000
283.170100 1192.000000
287.145800 604.000000
293.153900 948.000000
295.170700 5092.000000
296.175100 908.000000
297.148300 456.000000
305.154000 4108.000000
306.158200 904.000000
311.163900 1396.000000
313.180100 8520.000000
314.184400 1992.000000
323.165900 6604.000000
324.170100 1340.000000
341.176900 22592.000000
342.179700 7004.000000
343.182000 1140.000000
359.187700 90848.000000
360.190800 18096.000000
361.193600 3564.000000

>ms2peaks
119.086700 532.000000
121.065800 908.000000
123.080600 476.000000
125.095400 396.000000
133.064400 368.000000
135.080400 2668.000000
137.058900 380.000000
137.096000 812.000000
139.075900 1136.000000
145.065500 352.000000
147.080700 11676.000000
148.084100 1300.000000
151.076100 376.000000
153.091300 1896.000000
159.080300 4192.000000
161.096000 2320.000000
162.101200 400.000000
163.076300 1256.000000
165.091300 780.000000
171.080900 6236.000000
172.084300 844.000000
173.096300 3516.000000
174.099700 428.000000
175.113200 344.000000
177.092000 552.000000
181.086600 2068.000000
183.080400 512.000000
183.102800 1720.000000
184.105400 308.000000
185.097400 1052.000000
187.076100 2392.000000
187.112700 1836.000000
188.079300 388.000000
188.115500 444.000000
189.090400 700.000000
195.081600 564.000000
197.096300 4092.000000
198.103500 912.000000
199.112400 2588.000000
200.115600 536.000000
201.091200 428.000000
203.108400 596.000000
209.097900 1792.000000
211.111900 1920.000000
213.095100 540.000000
213.128000 2432.000000
214.131100 392.000000
215.106800 1524.000000
221.095600 940.000000
222.104100 388.000000
223.111300 1764.000000
224.116200 572.000000
225.129400 2464.000000
226.131700 488.000000
227.105800 524.000000
227.144500 992.000000
235.113000 1716.000000
236.115500 636.000000
237.128100 8652.000000
238.131300 1860.000000
239.107600 2056.000000
239.143500 2316.000000
240.112300 424.000000
240.153000 400.000000
241.122700 724.000000
243.138600 364.000000
247.114200 304.000000
248.118700 344.000000
249.127600 1448.000000
250.131700 492.000000
251.144700 1136.000000
252.150600 512.000000
253.123300 5076.000000
253.159600 1592.000000
254.126500 668.000000
254.162300 552.000000
255.138400 4444.000000
255.176200 392.000000
256.143000 1148.000000
259.110000 348.000000
261.128800 2764.000000
262.133800 1248.000000
263.106900 344.000000
263.143700 5608.000000
264.149600 2348.000000
265.122200 528.000000
265.159600 9876.000000
266.162100 1516.000000
267.139200 7808.000000
267.174400 1388.000000
268.141500 1888.000000
269.144900 444.000000
275.147300 1308.000000
277.125000 332.000000
277.159800 6204.000000
278.161400 1568.000000
279.138100 872.000000
280.145400 320.000000
281.154700 3516.000000
282.157600 696.000000
283.134700 456.000000
283.170600 1720.000000
284.171600 420.000000
285.184700 356.000000
287.144100 1864.000000
288.146700 352.000000
288.155000 368.000000
290.127000 316.000000
292.143700 372.000000
293.155300 3088.000000
294.157700 712.000000
295.170100 10360.000000
296.174500 2360.000000
297.150600 1980.000000
298.153000 380.000000
299.164400 456.000000
305.154500 5892.000000
306.158900 1364.000000
311.166400 2140.000000
312.170800 392.000000
313.181000 8916.000000
314.183100 1292.000000
323.165400 9864.000000
324.169300 2192.000000
325.174800 308.000000
341.176300 13508.000000
342.180600 2876.000000
343.184300 336.000000
359.187500 3228.000000

>ms2peaks
117.070800 336.000000
119.085000 572.000000
121.064600 2292.000000
123.081400 632.000000
129.069400 440.000000
131.048800 304.000000
131.086300 840.000000
132.058200 404.000000
133.064800 848.000000
133.100400 308.000000
135.080500 3968.000000
137.061000 588.000000
137.097200 652.000000
139.077000 500.000000
141.068700 484.000000
145.064900 1116.000000
145.102300 324.000000
147.080600 13188.000000
148.084000 1984.000000
149.095200 564.000000
151.076800 404.000000
153.091900 1236.000000
155.086900 400.000000
158.072700 812.000000
159.081000 6968.000000
161.096300 3116.000000
162.101600 680.000000
163.075600 1616.000000
169.101600 500.000000
171.080700 10368.000000
172.083800 1588.000000
173.096700 5136.000000
174.102000 788.000000
175.076000 396.000000
175.110800 568.000000
177.090400 308.000000
179.084700 532.000000
181.099300 308.000000
182.073500 500.000000
183.082300 1312.000000
183.101900 464.000000
185.061000 444.000000
185.097400 1572.000000
186.102200 776.000000
187.075000 2640.000000
187.112400 3892.000000
188.115200 436.000000
189.091400 1512.000000
193.101400 364.000000
195.081800 756.000000
196.088400 664.000000
197.097200 5504.000000
198.100900 908.000000
199.112600 3672.000000
200.115400 548.000000
201.091300 404.000000
201.127100 312.000000
205.099200 384.000000
207.118800 384.000000
208.088200 772.000000
209.097300 2896.000000
209.134000 312.000000
210.103600 1332.000000
211.114000 2080.000000
212.120000 1236.000000
213.090700 752.000000
213.127800 2536.000000
215.108900 984.000000
219.118600 732.000000
220.085100 316.000000
221.096100 2328.000000
222.105400 2676.000000
223.112400 4024.000000
224.118300 912.000000
225.093900 408.000000
225.128800 2976.000000
226.103300 312.000000
226.130500 624.000000
226.137300 604.000000
227.107200 576.000000
227.145000 2920.000000
228.148000 656.000000
233.097000 400.000000
234.104600 872.000000
235.111600 2140.000000
236.120500 660.000000
237.128000 9580.000000
238.134000 2468.000000
239.106200 1636.000000
239.144000 3140.000000
240.109000 352.000000
240.150400 624.000000
241.121300 724.000000
245.132500 380.000000
246.107000 708.000000
247.111900 928.000000
247.148400 508.000000
248.120900 1704.000000
249.128600 3812.000000
250.134500 1220.000000
251.143500 1744.000000
252.148800 704.000000
253.123800 2140.000000
253.159200 1468.000000
254.127800 968.000000
254.161700 556.000000
255.139900 3140.000000
256.143600 772.000000
259.110900 472.000000
260.120600 748.000000
261.130000 2224.000000
262.135700 1940.000000
263.107100 520.000000
263.144300 4900.000000
264.112600 340.000000
264.151600 3052.000000
265.124800 804.000000
265.160700 7240.000000
266.164300 1528.000000
267.139900 3068.000000
267.177100 756.000000
268.143900 528.000000
272.119300 620.000000
275.147400 984.000000
276.148400 564.000000
277.120700 540.000000
277.160000 3600.000000
278.164100 872.000000
279.141900 524.000000
280.147200 620.000000
281.154100 1540.000000
282.159000 516.000000
283.170300 672.000000
287.146100 1180.000000
290.129100 584.000000
292.146800 752.000000
293.153600 1824.000000
295.170400 2832.000000
296.174800 512.000000
297.150500 712.000000
305.154900 1880.000000
306.161200 356.000000
311.166100 544.000000
313.182200 1148.000000
323.165900 1820.000000
324.167700 544.000000
341.181300 920.000000

>ms2peaks
115.054400 776.000000
117.070200 720.000000
119.085500 1008.000000
121.065600 3312.000000
122.069700 504.000000
123.081600 464.000000
128.062200 1000.000000
129.070300 876.000000
131.048900 540.000000
131.085600 1592.000000
132.057200 740.000000
133.066400 768.000000
135.080600 2092.000000
137.059300 316.000000
141.069800 1448.000000
143.085500 1028.000000
144.057100 856.000000
145.064900 2956.000000
145.101400 520.000000
146.071800 1760.000000
147.080800 16552.000000
148.084000 2140.000000
149.095800 324.000000
153.072600 580.000000
154.078700 360.000000
155.087200 628.000000
157.065600 684.000000
157.099300 468.000000
158.072500 2088.000000
159.080300 8232.000000
160.085700 1824.000000
161.096300 3200.000000
162.101900 300.000000
163.076200 712.000000
165.070800 860.000000
166.077700 480.000000
167.086300 788.000000
169.065400 864.000000
169.100100 508.000000
170.071500 544.000000
171.080500 10708.000000
172.085100 1340.000000
173.096500 5100.000000
174.100600 1036.000000
177.090500 312.000000
178.076900 472.000000
179.084700 1716.000000
180.091300 568.000000
181.065900 980.000000
181.101300 1216.000000
182.072200 1228.000000
183.080600 2368.000000
184.087200 1500.000000
185.058400 368.000000
185.096500 2548.000000
186.103300 900.000000
187.075900 1904.000000
187.112500 2632.000000
188.115700 460.000000
189.091900 780.000000
191.085100 748.000000
192.093600 396.000000
193.101300 964.000000
194.072800 856.000000
194.108000 796.000000
195.081300 1940.000000
195.119400 504.000000
196.088100 1752.000000
197.096700 4116.000000
198.102600 1436.000000
199.112500 2236.000000
200.116100 588.000000
204.093500 428.000000
205.100000 632.000000
206.073200 328.000000
207.081500 688.000000
207.115600 468.000000
208.088700 2424.000000
209.096400 3388.000000
209.132000 820.000000
210.103700 2428.000000
211.111600 2516.000000
212.119600 1812.000000
213.125600 1500.000000
215.082500 328.000000
215.107200 604.000000
219.081500 580.000000
219.117500 704.000000
220.088300 696.000000
220.120600 444.000000
221.096400 3036.000000
221.134400 392.000000
222.104000 5388.000000
223.111800 3368.000000
224.085600 388.000000
224.119600 1420.000000
225.091000 528.000000
225.128200 2276.000000
226.133900 676.000000
227.105800 304.000000
227.144800 1872.000000
228.150600 388.000000
230.112600 324.000000
231.078200 368.000000
231.117600 692.000000
232.089400 448.000000
232.131100 340.000000
233.094700 932.000000
234.105000 1328.000000
235.111700 2848.000000
236.117800 1292.000000
237.094200 300.000000
237.128200 4692.000000
238.099900 400.000000
238.133200 1804.000000
239.106800 1064.000000
239.143400 2012.000000
240.117600 544.000000
240.151400 380.000000
243.115500 380.000000
245.100500 528.000000
245.131100 436.000000
246.104500 1188.000000
247.114500 1436.000000
247.148800 624.000000
248.120100 2128.000000
249.128000 3876.000000
250.136000 1892.000000
251.145100 1260.000000
252.149600 592.000000
253.124700 1036.000000
253.159300 860.000000
254.128500 504.000000
255.139900 764.000000
257.095200 508.000000
259.113700 312.000000
260.118500 428.000000
261.128700 820.000000
262.101300 428.000000
262.136500 1416.000000
263.144300 1872.000000
264.152400 1560.000000
265.124600 448.000000
265.161100 2500.000000
266.161400 704.000000
267.140100 388.000000
272.120000 892.000000
273.124400 340.000000
275.144400 456.000000
277.159500 824.000000
280.145800 396.000000
281.153900 356.000000
282.162300 428.000000
292.145400 716.000000
293.151800 336.000000
295.170400 304.000000

>ms2peaks
115.054500 1512.000000
117.069100 828.000000
119.085900 2092.000000
121.065500 2932.000000
127.056100 412.000000
128.062200 2088.000000
129.069400 1900.000000
131.048900 900.000000
131.086100 1324.000000
132.057200 2036.000000
133.063000 488.000000
133.102400 448.000000
135.080300 1252.000000
141.069800 1796.000000
142.076400 836.000000
143.086000 1240.000000
144.057300 1864.000000
145.064500 4648.000000
145.101300 552.000000
146.073400 3080.000000
147.080800 11408.000000
148.084200 1140.000000
152.061700 928.000000
153.069400 1768.000000
154.076700 508.000000
155.086200 820.000000
156.091100 396.000000
157.065500 1192.000000
157.100800 316.000000
158.073100 3952.000000
159.081100 6812.000000
160.087300 1212.000000
161.096400 2440.000000
162.102100 368.000000
163.077900 548.000000
165.071400 1580.000000
166.077100 656.000000
167.084900 1084.000000
168.057800 440.000000
169.064800 1216.000000
169.100700 632.000000
170.072400 1088.000000
171.080400 10548.000000
172.085800 2128.000000
173.096300 3032.000000
174.100100 576.000000
178.078100 1248.000000
179.085700 2568.000000
180.092300 824.000000
181.065100 2132.000000
181.102500 604.000000
182.072900 2420.000000
183.079600 2732.000000
184.089000 1552.000000
185.059500 404.000000
185.095800 1668.000000
186.102000 788.000000
187.076300 348.000000
187.111700 820.000000
189.071900 468.000000
189.093600 392.000000
190.076100 588.000000
191.085700 1148.000000
192.093300 732.000000
193.102400 1432.000000
194.074900 1204.000000
194.109500 476.000000
195.081000 3148.000000
195.117400 404.000000
196.089400 2692.000000
197.096200 3548.000000
198.103100 924.000000
199.112700 456.000000
202.080100 348.000000
203.087100 588.000000
204.094300 864.000000
205.067100 412.000000
205.101700 792.000000
206.073000 540.000000
206.108900 452.000000
207.082200 2036.000000
207.116600 868.000000
208.088600 3216.000000
209.096400 3336.000000
209.135200 320.000000
210.102700 2284.000000
211.110400 1784.000000
212.118400 1380.000000
213.127200 444.000000
215.084500 712.000000
216.090900 324.000000
217.100300 540.000000
218.072000 348.000000
219.080800 1320.000000
219.115700 604.000000
220.088600 692.000000
221.097000 3124.000000
221.129700 304.000000
222.105100 5808.000000
223.111000 3592.000000
224.086400 500.000000
224.117500 912.000000
225.094300 316.000000
225.128400 880.000000
227.146300 412.000000
228.094700 312.000000
229.102300 564.000000
230.110800 376.000000
231.084000 788.000000
231.116800 420.000000
232.088500 1092.000000
233.096500 1744.000000
234.103200 1852.000000
235.110900 1608.000000
236.118000 864.000000
237.093000 324.000000
237.127300 2156.000000
238.098800 732.000000
238.137100 820.000000
239.104300 324.000000
239.110300 308.000000
239.143500 588.000000
245.095900 704.000000
246.102200 696.000000
247.112500 1484.000000
248.121700 1660.000000
249.128800 2468.000000
250.132900 660.000000
251.141500 508.000000
252.152100 484.000000
257.100000 380.000000
259.113300 348.000000
261.126800 600.000000
262.100700 308.000000
262.138400 340.000000
263.143000 572.000000
265.159800 836.000000
275.144100 308.000000

>ms2peaks
147.079400 5508.000000
159.078700 1448.000000
161.096100 1076.000000
171.079100 1976.000000
173.094000 1276.000000
181.085300 1588.000000
183.100300 1904.000000
187.074300 1048.000000
197.095300 1652.000000
213.127500 1892.000000
225.127000 1180.000000
237.126900 4192.000000
239.106000 2120.000000
253.121100 1708.000000
255.136800 1260.000000
261.127200 1680.000000
263.142200 2616.000000
265.157700 5292.000000
266.160100 1216.000000
267.136500 5240.000000
268.141700 1532.000000
277.157500 2232.000000
281.153800 1676.000000
283.168400 3344.000000
287.143300 1184.000000
293.153100 1656.000000
295.167800 9652.000000
296.171700 2868.000000
297.145900 1352.000000
305.153400 7148.000000
306.157200 2104.000000
311.165100 2076.000000
313.179300 16428.000000
314.183000 2912.000000
323.163300 16672.000000
324.166400 3136.000000
341.174200 51960.000000
342.176500 10768.000000
343.183900 1812.000000
359.185200 197420.000000
360.188500 41356.000000

>ms2peaks
117.068900 372.000000
119.085000 716.000000
121.063400 2224.000000
123.078800 1076.000000
125.057300 400.000000
125.093000 440.000000
127.073400 320.000000
131.084500 564.000000
133.063600 512.000000
135.079300 5260.000000
136.082000 528.000000
137.058400 408.000000
137.095300 2068.000000
139.073900 1860.000000
141.052900 312.000000
145.063000 448.000000
145.101500 312.000000
147.078700 22656.000000
148.082700 2328.000000
149.094400 516.000000
151.073900 724.000000
153.089400 3704.000000
154.092400 460.000000
155.068600 408.000000
157.101500 524.000000
158.069100 420.000000
159.078500 6652.000000
160.081900 704.000000
161.094600 5228.000000
162.098700 724.000000
163.073700 3072.000000
165.090000 1392.000000
167.069000 736.000000
169.100900 332.000000
171.079200 12684.000000
172.082500 1492.000000
173.094400 7132.000000
174.098300 1080.000000
175.074400 448.000000
175.109000 536.000000
177.089200 612.000000
181.084200 2500.000000
182.088500 404.000000
183.078400 560.000000
183.099900 2796.000000
184.102300 380.000000
185.059600 924.000000
185.094800 2180.000000
186.097200 480.000000
187.074100 4604.000000
187.110500 4388.000000
188.077000 524.000000
188.111600 552.000000
189.089300 1436.000000
195.078600 988.000000
195.101900 420.000000
196.084500 340.000000
197.094400 8688.000000
198.098500 1664.000000
199.111000 5936.000000
200.114600 1024.000000
201.089100 456.000000
201.125300 488.000000
203.104700 796.000000
208.085600 652.000000
209.094000 3400.000000
210.102100 672.000000
211.110600 3176.000000
212.113500 556.000000
213.088400 1040.000000
213.126000 4840.000000
214.089800 336.000000
214.129100 1012.000000
215.106000 2424.000000
215.141900 384.000000
216.108600 320.000000
221.096800 1928.000000
222.101000 1040.000000
223.110400 3800.000000
224.116300 780.000000
225.089200 564.000000
225.126000 4304.000000
226.131500 980.000000
227.105000 1472.000000
227.142300 2580.000000
228.145500 488.000000
234.099800 428.000000
235.110100 3376.000000
236.115100 732.000000
237.126000 19384.000000
238.096300 372.000000
238.129200 4004.000000
239.104500 3628.000000
239.141300 4592.000000
240.112400 512.000000
240.146300 996.000000
241.120700 1432.000000
242.126900 792.000000
243.134100 600.000000
247.112100 1080.000000
247.147200 504.000000
248.119100 632.000000
249.125800 2376.000000
250.131100 660.000000
251.143100 1996.000000
252.148200 824.000000
253.121500 7880.000000
253.157900 3512.000000
254.124500 1824.000000
254.159300 816.000000
255.136700 9956.000000
255.173100 1368.000000
256.140300 1340.000000
257.145500 324.000000
259.112400 364.000000
261.126200 5012.000000
262.133200 2144.000000
263.141800 11144.000000
264.148300 5060.000000
265.121500 1368.000000
265.157700 18704.000000
266.122700 380.000000
266.162500 3372.000000
267.136700 14760.000000
267.172900 3376.000000
268.140100 2968.000000
268.176600 612.000000
269.153400 712.000000
272.118400 328.000000
275.142500 2432.000000
276.145200 576.000000
277.119900 644.000000
277.157900 10724.000000
278.161900 2352.000000
279.136300 2008.000000
279.165300 476.000000
280.144700 636.000000
281.152700 6352.000000
282.157500 1716.000000
283.135100 516.000000
283.166900 3964.000000
284.169500 680.000000
285.145900 420.000000
285.185900 372.000000
287.143000 4092.000000
288.148400 984.000000
289.148100 324.000000
290.130500 404.000000
292.145000 832.000000
293.152200 5572.000000
294.156900 1052.000000
295.168400 19876.000000
296.171600 4592.000000
297.147100 4724.000000
297.177300 660.000000
298.153500 1096.000000
299.163600 1080.000000
305.152400 12520.000000
306.155800 2124.000000
307.156900 332.000000
311.162400 3584.000000
312.165700 1060.000000
313.179000 17140.000000
314.181300 4476.000000
315.192500 1772.000000
323.163900 18528.000000
324.166900 4896.000000
325.174000 824.000000
341.174000 26132.000000
342.177000 6484.000000
343.187600 4696.000000
344.195100 532.000000
359.184300 5968.000000
360.188300 1856.000000

>ms2peaks
115.054200 688.000000
117.070700 684.000000
119.084400 1100.000000
121.063900 4404.000000
122.068800 340.000000
123.079700 1376.000000
125.057400 372.000000
125.095700 612.000000
128.061800 376.000000
129.068900 464.000000
131.047700 476.000000
131.084400 1612.000000
132.055000 412.000000
133.064000 1000.000000
133.101500 420.000000
135.079200 6148.000000
136.083100 828.000000
137.058200 1016.000000
137.095600 1068.000000
139.074000 1480.000000
141.068800 944.000000
143.085500 796.000000
145.063700 2648.000000
145.099300 748.000000
146.070700 880.000000
147.079100 27620.000000
148.082200 2424.000000
149.058000 300.000000
149.095900 728.000000
151.073900 916.000000
153.088800 1680.000000
155.083900 724.000000
157.064300 420.000000
157.098500 628.000000
158.071100 1540.000000
159.079400 12140.000000
160.084400 1716.000000
161.057000 364.000000
161.095100 5888.000000
162.098000 548.000000
163.075000 3108.000000
163.109500 388.000000
164.076400 392.000000
165.089600 496.000000
167.084900 476.000000
169.063300 420.000000
169.099900 1064.000000
171.079100 21632.000000
172.083500 2788.000000
173.094900 11128.000000
174.098400 1228.000000
175.074000 760.000000
175.110500 976.000000
177.089700 792.000000
179.084200 1260.000000
180.092900 324.000000
181.084400 636.000000
181.100300 1080.000000
182.073000 580.000000
183.079400 2180.000000
183.101200 944.000000
183.114900 376.000000
184.087400 588.000000
185.057600 956.000000
185.095400 3836.000000
186.101300 1448.000000
187.073900 5432.000000
187.109800 6112.000000
188.078500 696.000000
188.113700 836.000000
189.091100 1964.000000
190.090500 364.000000
192.092800 340.000000
193.099700 808.000000
195.079200 1720.000000
195.100600 304.000000
195.115500 600.000000
196.085700 1592.000000
197.094900 10920.000000
198.098500 1904.000000
199.073000 388.000000
199.110900 7428.000000
200.114000 880.000000
201.090100 740.000000
201.125900 684.000000
202.095600 324.000000
203.104500 624.000000
204.094400 392.000000
205.101300 568.000000
207.081300 400.000000
207.113300 796.000000
208.086400 2228.000000
209.094700 5080.000000
209.130800 848.000000
210.102000 2112.000000
210.137900 304.000000
211.074300 396.000000
211.111700 5416.000000
212.116700 2896.000000
213.090100 952.000000
213.126200 3540.000000
214.098400 320.000000
214.127600 516.000000
215.106600 2252.000000
215.139900 320.000000
217.099400 484.000000
219.117400 672.000000
220.090600 348.000000
221.094900 3920.000000
221.132200 472.000000
222.103100 5040.000000
223.110700 7040.000000
224.117400 1968.000000
225.089300 824.000000
225.127000 6580.000000
226.095400 488.000000
226.130200 1516.000000
227.106600 896.000000
227.142000 6020.000000
228.145700 708.000000
230.104900 300.000000
233.095800 608.000000
233.133900 756.000000
234.102200 1240.000000
235.110800 5588.000000
235.148100 480.000000
236.116800 1728.000000
237.126200 20572.000000
238.096000 516.000000
238.131000 4656.000000
239.104700 2548.000000
239.142100 8140.000000
240.112700 816.000000
240.146700 2060.000000
241.121100 1116.000000
241.159600 480.000000
242.128900 688.000000
243.116000 400.000000
243.128000 384.000000
245.097100 576.000000
245.133700 568.000000
246.102700 1428.000000
247.111800 1348.000000
247.146800 1112.000000
248.118100 2632.000000
249.090100 376.000000
249.126200 6376.000000
249.162800 344.000000
250.132600 1644.000000
251.141500 2884.000000
252.150000 1084.000000
253.121900 4684.000000
253.157000 3056.000000
254.125400 1032.000000
254.161200 908.000000
255.136700 6512.000000
256.140200 828.000000
257.094400 404.000000
258.104300 560.000000
259.111500 480.000000
260.120300 640.000000
261.126400 3168.000000
262.133700 4352.000000
263.102200 608.000000
263.141900 8680.000000
264.114400 556.000000
264.149200 5932.000000
265.123600 1224.000000
265.157500 13708.000000
266.130400 432.000000
266.161500 2776.000000
267.137000 5612.000000
267.174600 2140.000000
268.140100 1236.000000
268.175500 484.000000
269.128100 360.000000
269.152600 504.000000
271.131600 312.000000
272.117400 1636.000000
274.132300 300.000000
275.143400 2096.000000
276.117700 332.000000
276.146900 932.000000
277.124100 656.000000
277.157800 6264.000000
278.126300 348.000000
278.163000 1356.000000
279.138700 1056.000000
279.174600 364.000000
280.143000 800.000000
281.151800 3036.000000
282.157600 1392.000000
283.167900 1484.000000
287.140800 1568.000000
288.145600 488.000000
290.130100 828.000000
292.146800 1684.000000
293.153400 2804.000000
294.155900 932.000000
295.136100 320.000000
295.169100 5164.000000
296.171700 876.000000
297.148900 1264.000000
298.153000 404.000000
299.164100 696.000000
305.152500 2620.000000
306.157300 676.000000
308.139200 364.000000
311.163700 816.000000
313.178000 2104.000000
314.183600 496.000000
315.195500 760.000000
323.163000 2520.000000
324.164600 668.000000
325.177400 404.000000
341.174800 1540.000000
342.178900 516.000000
343.189800 1688.000000

>ms2peaks
115.053400 944.000000
117.069400 932.000000
119.083400 1648.000000
121.063700 4392.000000
122.066200 472.000000
123.079500 680.000000
125.097800 316.000000
128.060600 1116.000000
129.068800 1240.000000
130.075900 376.000000
131.047900 1064.000000
131.084700 1872.000000
132.055100 1104.000000
133.063600 1292.000000
133.099500 1012.000000
135.079000 3324.000000
136.083200 396.000000
137.059300 524.000000
137.093700 304.000000
139.072900 348.000000
141.068700 2296.000000
142.075500 608.000000
143.084600 1284.000000
144.055000 1348.000000
145.063400 5308.000000
145.100100 1272.000000
146.070500 2256.000000
147.079300 23396.000000
148.083200 2064.000000
149.093000 400.000000
151.074500 312.000000
152.061000 340.000000
153.068100 1120.000000
153.088500 532.000000
154.077100 376.000000
155.083400 852.000000
156.091100 316.000000
157.062500 596.000000
157.101000 648.000000
158.071300 4024.000000
159.079000 11656.000000
160.084300 1992.000000
161.057700 328.000000
161.094100 4372.000000
162.098900 828.000000
163.074000 1544.000000
165.068000 764.000000
166.074000 456.000000
167.084100 1304.000000
168.092000 384.000000
169.062500 1400.000000
169.098700 1576.000000
170.071000 716.000000
171.079000 18164.000000
172.084000 2764.000000
173.094600 8368.000000
174.098500 1288.000000
175.073900 456.000000
177.090500 384.000000
178.077400 480.000000
179.084400 3112.000000
181.063500 1040.000000
181.100200 880.000000
182.072200 2436.000000
183.078600 2968.000000
183.114700 696.000000
184.086600 1700.000000
185.061100 772.000000
185.095200 4012.000000
186.101500 1428.000000
187.074900 2080.000000
187.111200 3796.000000
188.115200 528.000000
189.091800 1220.000000
190.076300 420.000000
191.084400 784.000000
192.094200 620.000000
193.100700 1508.000000
194.070500 764.000000
194.108800 864.000000
195.079300 3560.000000
195.115500 920.000000
196.087000 2156.000000
197.095000 7072.000000
198.100200 1480.000000
199.109900 3148.000000
200.114100 708.000000
201.124600 420.000000
203.084000 328.000000
204.091800 652.000000
205.100200 896.000000
206.071000 492.000000
206.107300 432.000000
207.078600 1456.000000
207.114600 820.000000
208.086900 3380.000000
209.094300 5388.000000
209.131800 1004.000000
210.102100 3316.000000
210.137000 388.000000
211.075700 376.000000
211.111100 4576.000000
212.116200 2408.000000
213.089500 356.000000
213.124800 2492.000000
214.129800 464.000000
215.087500 300.000000
215.105500 880.000000
216.092400 360.000000
217.103300 476.000000
219.079800 768.000000
219.115800 1468.000000
220.087200 1360.000000
221.094700 5292.000000
221.129500 852.000000
222.102400 9092.000000
223.109400 6316.000000
224.082600 776.000000
224.117900 1580.000000
225.090700 680.000000
225.125100 3836.000000
226.103900 352.000000
226.130200 1016.000000
227.105300 720.000000
227.142000 2664.000000
228.145400 372.000000
229.101100 396.000000
230.109900 564.000000
231.083700 744.000000
231.116100 556.000000
232.085600 572.000000
232.122400 416.000000
233.095300 1552.000000
233.132900 444.000000
234.100700 1952.000000
234.135700 336.000000
235.111700 3492.000000
235.144000 344.000000
236.117500 1752.000000
237.090100 376.000000
237.126200 7340.000000
238.098700 1048.000000
238.132100 2612.000000
239.105000 1048.000000
239.141500 3484.000000
240.110900 836.000000
240.148100 848.000000
241.125600 352.000000
243.116900 472.000000
244.121400 368.000000
245.095000 1024.000000
245.132200 364.000000
246.100600 1688.000000
247.109800 1868.000000
247.147000 536.000000
248.118200 3188.000000
248.150200 320.000000
249.126400 5980.000000
250.096800 436.000000
250.132400 1624.000000
251.141900 1792.000000
252.148400 404.000000
253.121800 1684.000000
253.158600 880.000000
255.138600 788.000000
257.093900 360.000000
259.112800 552.000000
259.152400 320.000000
260.119200 1068.000000
261.125500 1108.000000
262.132800 2384.000000
263.103800 336.000000
263.142800 3036.000000
264.112000 360.000000
264.148400 2052.000000
265.121900 700.000000
265.157900 4644.000000
266.125600 396.000000
266.160800 832.000000
267.137800 1124.000000
267.168400 420.000000
268.141500 316.000000
269.150600 312.000000
272.117500 1164.000000
275.143600 440.000000
276.148400 304.000000
277.122100 636.000000
277.158800 980.000000
278.131300 436.000000
278.160900 324.000000
279.136800 360.000000
280.147200 484.000000
281.152400 600.000000
282.161200 736.000000
290.127700 596.000000
292.141500 796.000000
293.152400 620.000000

>ms2peaks
115.054000 932.000000
116.061000 332.000000
117.068500 1116.000000
119.084400 1836.000000
121.063700 3944.000000
122.069000 364.000000
123.079100 344.000000
128.060900 3292.000000
129.068200 2292.000000
130.075400 584.000000
131.047700 1568.000000
131.084300 1852.000000
132.055700 3280.000000
133.062700 628.000000
133.100100 816.000000
135.079900 1988.000000
141.068700 3212.000000
142.075100 796.000000
143.083800 1468.000000
144.055800 2816.000000
145.063300 6052.000000
145.099800 860.000000
146.071200 3972.000000
147.079300 15460.000000
148.082900 1604.000000
152.060500 1020.000000
153.069000 1820.000000
154.074100 844.000000
155.082900 1176.000000
157.063900 1656.000000
157.099000 760.000000
158.071500 5804.000000
159.078900 7316.000000
160.083400 1408.000000
161.094800 2560.000000
162.096500 356.000000
163.073800 736.000000
163.108100 308.000000
165.068900 2084.000000
166.073900 916.000000
167.084300 1472.000000
168.055300 708.000000
168.091200 592.000000
169.063000 2160.000000
169.101000 832.000000
170.070800 944.000000
171.079000 15004.000000
172.083800 2168.000000
173.094700 4964.000000
174.097400 760.000000
178.077500 1928.000000
179.083900 4164.000000
180.090400 1292.000000
181.062800 2872.000000
181.099400 1116.000000
182.071400 3096.000000
183.079000 2504.000000
183.114700 376.000000
184.087700 2112.000000
185.095200 2252.000000
186.101600 1296.000000
187.073700 952.000000
187.110500 1148.000000
188.115400 336.000000
189.072500 504.000000
189.091700 500.000000
190.076400 1076.000000
191.083800 1480.000000
192.091800 1084.000000
193.099500 1952.000000
194.071400 1936.000000
194.106600 880.000000
195.079100 4956.000000
195.113300 892.000000
196.085300 3448.000000
196.121200 312.000000
197.094100 3532.000000
198.100800 1128.000000
199.111500 1408.000000
202.076500 736.000000
203.083900 1168.000000
204.091500 1056.000000
205.062700 532.000000
205.099600 1220.000000
206.070900 536.000000
206.105300 508.000000
207.079500 2496.000000
207.116300 644.000000
208.086300 5304.000000
209.094500 4748.000000
209.130500 552.000000
210.101200 3524.000000
211.074800 372.000000
211.109400 2092.000000
212.082600 336.000000
212.118700 2096.000000
213.089700 364.000000
213.125000 588.000000
215.084900 732.000000
215.104100 304.000000
216.093300 540.000000
217.098800 680.000000
218.071800 380.000000
219.078400 1184.000000
219.082600 1136.000000
219.115800 1000.000000
220.087400 1324.000000
220.123100 340.000000
221.094700 4840.000000
221.130900 696.000000
222.102300 7836.000000
223.108700 3392.000000
224.082100 496.000000
224.117000 1724.000000
225.092600 676.000000
225.125500 1256.000000
226.134900 396.000000
227.141900 668.000000
229.099200 956.000000
230.107900 644.000000
231.080100 1540.000000
231.116200 620.000000
232.088800 1072.000000
232.121700 480.000000
233.095100 2492.000000
233.131700 452.000000
234.103400 1780.000000
235.110300 2592.000000
236.116800 1592.000000
237.126200 3352.000000
238.096900 820.000000
238.133700 1248.000000
239.105000 324.000000
239.141600 988.000000
240.111800 352.000000
243.116600 420.000000
244.126200 312.000000
245.095100 1212.000000
245.129900 360.000000
246.102800 1748.000000
247.110200 2304.000000
247.146800 476.000000
248.118300 1728.000000
249.125900 3772.000000
250.133700 992.000000
251.102400 328.000000
251.142500 504.000000
253.122100 444.000000
257.096900 452.000000
259.110800 488.000000
260.116300 572.000000
261.129700 588.000000
262.136600 664.000000
263.140800 1228.000000
264.148100 508.000000
265.158900 696.000000
272.118900 520.000000
275.105200 344.000000
277.124400 376.000000
278.124400 308.000000
292.143600 380.000000

>ms2peaks
55.053700 436.000000
57.033200 304.000000
67.053300 432.000000
69.032800 308.000000
71.049200 372.000000
79.056000 316.000000
81.068900 940.000000
85.065200 300.000000
93.069600 936.000000
95.085800 780.000000
97.064700 340.000000
101.058500 440.000000
107.086400 352.000000
109.065800 464.000000
111.082400 316.000000
117.069100 992.000000
119.085600 1276.000000
121.063900 5088.000000
122.067200 480.000000
123.079100 1600.000000
125.058200 488.000000
125.095100 640.000000
128.060200 348.000000
129.069700 380.000000
131.083800 1024.000000
132.057900 420.000000
133.063400 1040.000000
133.101300 300.000000
135.079300 7536.000000
136.083100 440.000000
137.059100 708.000000
137.095000 960.000000
139.074400 1560.000000
141.068800 544.000000
143.084600 700.000000
144.057100 348.000000
145.063400 1648.000000
145.101000 356.000000
146.069800 660.000000
147.079300 35268.000000
148.082000 2768.000000
149.093900 680.000000
151.073700 580.000000
153.090200 2388.000000
155.084800 460.000000
157.063000 388.000000
157.099900 656.000000
158.071300 744.000000
159.079800 12528.000000
160.084200 1368.000000
161.094600 5752.000000
162.097000 552.000000
163.073600 3448.000000
164.078300 460.000000
165.090000 764.000000
167.069000 452.000000
167.081900 460.000000
169.063100 392.000000
169.100700 360.000000
171.079400 16476.000000
172.082700 2324.000000
173.094800 11840.000000
174.098300 788.000000
175.072300 420.000000
175.107900 604.000000
177.090500 700.000000
179.084200 1312.000000
181.062900 368.000000
181.085000 1052.000000
181.097700 596.000000
182.070300 720.000000
183.078100 1500.000000
183.099800 1656.000000
183.115400 336.000000
184.086100 1256.000000
185.058900 696.000000
185.094700 3224.000000
186.102500 1104.000000
187.074600 5076.000000
187.110000 5268.000000
188.079700 684.000000
188.114400 832.000000
189.089900 1736.000000
193.101800 632.000000
195.079700 1736.000000
195.101800 368.000000
195.115700 472.000000
196.084300 648.000000
197.095200 12564.000000
198.098600 1604.000000
199.110800 7368.000000
200.114500 1244.000000
201.090100 300.000000
201.125500 792.000000
203.105200 556.000000
204.091100 356.000000
205.098300 336.000000
207.080300 300.000000
207.115100 356.000000
208.087600 1612.000000
209.095300 5588.000000
209.133900 804.000000
210.103400 1552.000000
211.076500 352.000000
211.111000 5912.000000
212.117500 2328.000000
213.090100 956.000000
213.126200 3672.000000
214.095900 308.000000
214.130700 660.000000
215.105900 2276.000000
215.140600 304.000000
216.108500 324.000000
217.102200 356.000000
219.117300 860.000000
221.094900 3136.000000
221.132000 360.000000
222.102100 3920.000000
223.110100 6252.000000
224.114700 1540.000000
225.091400 664.000000
225.126100 5408.000000
226.132300 1720.000000
227.104500 896.000000
227.142400 3572.000000
228.146400 648.000000
229.122800 308.000000
230.112500 300.000000
232.086500 424.000000
232.122100 384.000000
233.094300 612.000000
233.128100 452.000000
234.103100 1028.000000
235.110400 5044.000000
235.153100 444.000000
236.116700 1240.000000
237.126400 18868.000000
238.098700 708.000000
238.132300 3616.000000
239.105500 3528.000000
239.141900 6228.000000
240.110600 1232.000000
240.146000 1304.000000
241.119600 1340.000000
241.160000 316.000000
243.115200 340.000000
243.137900 412.000000
245.095900 344.000000
245.130400 488.000000
246.102500 808.000000
247.109600 884.000000
247.147000 600.000000
248.118800 2172.000000
249.126600 5528.000000
250.097600 516.000000
250.132100 1708.000000
251.105700 364.000000
251.143500 2388.000000
252.148200 1544.000000
253.121400 6856.000000
253.158600 2848.000000
254.124200 1636.000000
254.162300 572.000000
255.137000 6920.000000
255.173900 568.000000
256.140200 1136.000000
259.111700 572.000000
259.127900 356.000000
260.121100 628.000000
261.126800 3280.000000
262.135100 2952.000000
263.142100 8520.000000
264.111400 316.000000
264.149200 5164.000000
265.119000 1476.000000
265.158900 13916.000000
266.128500 380.000000
266.161200 3612.000000
267.137500 7692.000000
267.173400 1784.000000
268.140000 1512.000000
268.179600 440.000000
269.152700 672.000000
272.118100 1152.000000
273.121400 516.000000
275.142900 1764.000000
276.118800 488.000000
276.145800 484.000000
277.117700 644.000000
277.158300 7896.000000
278.127400 352.000000
278.161300 1008.000000
279.138300 1296.000000
279.163200 308.000000
280.144000 768.000000
281.153200 4088.000000
282.158300 1196.000000
283.168300 1776.000000
284.170000 316.000000
287.143600 2012.000000
288.147500 644.000000
290.129300 364.000000
292.144800 1340.000000
293.152900 3900.000000
294.156400 636.000000
295.169400 9952.000000
296.171600 1852.000000
297.149300 2808.000000
297.179400 424.000000
298.154300 568.000000
299.162300 444.000000
305.153500 4752.000000
306.157000 1304.000000
307.163500 308.000000
311.165300 2132.000000
312.166400 440.000000
313.179400 5920.000000
314.182000 1368.000000
315.196000 1064.000000
323.164800 7488.000000
324.168000 1648.000000
325.174100 564.000000
341.175300 6004.000000
342.178200 1828.000000
343.190100 2136.000000
344.193900 436.000000
359.187300 1320.000000
360.189500 368.000000

