>compound AU98631936
>parentmass 230.17509999999996
>ionization [M+H]+
>formula C12H23NO3
>rt 527.820000
>profile qtof
#smiles_iso CCC(C)OC(=O)N1CCCCC1CCO
#smiles_can CCC(C)OC(=O)N1CCCCC1CCO
#inchikey QLHULAHOXSSASE-UHFFFAOYSA-N
#pubchem_id 125098
#mb_accession AU287201,AU287202,AU287203,AU287204,AU287205,AU287206

>ms2
130.121700 1573860.000000
131.124900 91284.000000
156.100700 148732.000000
157.104000 13988.000000
174.111400 353072.000000
175.114400 27320.000000
186.184100 19000.000000
230.174400 556184.000000
231.177500 64988.000000

>ms2
128.069700 39700.000000
130.122000 1505712.000000
131.125200 91240.000000
156.101000 54716.000000
174.111500 10628.000000

>ms2
112.110900 4004.000000
128.069500 36940.000000
129.072500 3228.000000
130.121600 344564.000000
131.124500 30384.000000
156.100600 14180.000000
169.074300 4952.000000

>ms2
112.112300 1576.000000
113.097100 696.000000
128.070100 21164.000000
129.073700 1412.000000
130.121900 85016.000000
131.125300 8116.000000
156.101700 2056.000000
168.066900 1016.000000
169.074900 7196.000000
170.078100 904.000000

>ms2
112.113200 360.000000
115.054000 452.000000
128.069800 4444.000000
129.072200 552.000000
130.121800 6568.000000
140.048200 300.000000
168.067600 1592.000000
169.074300 3352.000000
170.077300 308.000000

>ms2
55.053700 5140.000000
57.069300 15056.000000
67.053800 39012.000000
69.069500 11828.000000
70.064600 12628.000000
71.048700 63160.000000
72.044000 11716.000000
83.085500 4096.000000
84.080700 32460.000000
93.070300 5112.000000
95.086200 91444.000000
96.089200 6536.000000
112.113700 57616.000000
113.097700 15768.000000
128.070300 39796.000000
130.122700 774796.000000
131.125600 63396.000000
156.101300 42532.000000
157.104800 4272.000000
169.075200 5728.000000
174.111500 8020.000000

