>compound AU98829678
>parentmass 474.1734000000001
>ionization [M+H]+
>formula C28H27NO4S
>rt 385.790000
>profile qtof
#smiles_iso C1CCN(CC1)CCOC2=CC=C(C=C2)C(=O)C3=C(SC4=C3C=CC(=C4)O)C5=CC=C(C=C5)O
#smiles_can C1CCN(CC1)CCOC2=CC=C(C=C2)C(=O)C3=C(SC4=C3C=CC(=C4)O)C5=CC=C(C=C5)O
#inchikey GZUITABIAKMVPG-UHFFFAOYSA-N
#pubchem_id 5035
#mb_accession AU275401,AU275402,AU275403,AU275404,AU275405,AU275406

>ms2peaks
474.173800 1577344.000000
475.176900 436796.000000
476.174800 99752.000000

>ms2peaks
474.173900 2011876.000000
475.176800 551936.000000
476.175500 115196.000000

>ms2peaks
112.111600 24384.000000
147.042800 11480.000000
269.025700 41716.000000
474.173400 1515376.000000
475.176500 421992.000000
476.174700 88856.000000

>ms2peaks
112.111700 35092.000000
113.114800 4176.000000
121.028800 1368.000000
147.043100 35416.000000
148.046900 3484.000000
197.058400 4280.000000
206.153700 1816.000000
213.037000 1888.000000
241.031400 1568.000000
269.026700 116292.000000
270.029400 21816.000000
271.024100 5740.000000
305.061300 2272.000000
319.043100 1368.000000
333.058100 3532.000000
345.056700 3800.000000
361.053000 6184.000000
362.060300 17752.000000
363.063500 5256.000000
374.059800 1736.000000
389.084300 2928.000000
474.174000 268560.000000
475.176600 85576.000000

>ms2peaks
112.111800 11148.000000
113.114400 1840.000000
121.027400 1276.000000
137.004400 560.000000
147.042900 25804.000000
148.046800 2284.000000
176.068700 396.000000
176.999800 808.000000
197.058600 15556.000000
198.062300 2332.000000
213.035800 7352.000000
214.039200 1672.000000
215.016800 456.000000
224.028600 596.000000
240.022200 792.000000
241.030700 5976.000000
242.033200 1032.000000
251.015300 880.000000
252.023700 936.000000
253.029900 1096.000000
266.038100 564.000000
267.045100 488.000000
268.018800 1156.000000
269.026500 78684.000000
270.029100 13244.000000
271.023700 3648.000000
272.030300 480.000000
277.068100 556.000000
284.082100 520.000000
287.050500 2244.000000
288.056900 880.000000
289.066900 996.000000
290.038900 564.000000
291.049000 604.000000
295.042800 408.000000
299.053300 632.000000
300.058300 796.000000
300.076800 852.000000
301.082000 480.000000
303.048100 632.000000
304.054700 928.000000
305.063000 4956.000000
306.063600 964.000000
315.045300 780.000000
316.052700 1388.000000
317.059100 2092.000000
318.062200 592.000000
319.041200 2064.000000
320.046500 484.000000
327.047900 752.000000
328.054600 804.000000
329.082700 648.000000
332.053100 816.000000
333.058200 5516.000000
334.060300 1428.000000
335.062600 540.000000
343.043400 1000.000000
343.075800 416.000000
344.051700 1112.000000
345.057700 5004.000000
346.062400 1876.000000
360.044400 1364.000000
361.052400 7340.000000
362.059900 12212.000000
363.060900 3828.000000
364.063200 1120.000000
371.068300 404.000000
374.060100 1612.000000
375.064600 584.000000
376.036000 1060.000000
377.046300 944.000000
474.173000 8680.000000
475.176200 3472.000000

>ms2peaks
55.053900 4144.000000
56.049000 5892.000000
58.064500 4992.000000
69.069500 19280.000000
70.064700 4980.000000
84.080700 67780.000000
85.088600 55252.000000
86.095400 5520.000000
98.096900 4464.000000
112.113800 257768.000000
113.116500 20296.000000
147.043200 13472.000000
269.026900 49032.000000
270.030000 8032.000000
362.060000 7072.000000
474.174000 698940.000000
475.177300 257120.000000

