>compound AU99481256
>parentmass 186.2216
>ionization [M+H]+
>formula C12H27N
>rt 515.070000
>profile qtof
#smiles_iso CCCCCCCCCCN(C)C
#smiles_can CCCCCCCCCCN(C)C
#inchikey YWWNNLPSZSEZNZ-UHFFFAOYSA-N
#pubchem_id 70711
#mb_accession AU285401,AU285402,AU285403,AU285406

>ms2peaks
186.220400 126776.000000
187.223400 18896.000000
188.226700 1052.000000

>ms2peaks
186.220100 51352.000000
187.223300 7940.000000
188.225800 564.000000

>ms2peaks
186.219300 2440.000000

>ms2peaks
46.064800 1552.000000
57.069200 2688.000000
71.085000 480.000000
85.099400 336.000000
186.220900 62472.000000
187.224400 6752.000000
188.227700 660.000000

