>compound AU99597585
>parentmass 384.0824
>ionization [M+H]+
>formula C16H15F2N3O4S
>rt 444.700000
>profile qtof
#smiles_iso COC1=C(C(=NC=C1)CS(=O)C2=NC3=C(N2)C=C(C=C3)OC(F)F)OC
#smiles_can COC1=C(C(=NC=C1)CS(=O)C2=NC3=C(N2)C=C(C=C3)OC(F)F)OC
#inchikey IQPSEEYGBUAQFF-UHFFFAOYSA-N
#pubchem_id 4679
#mb_accession AU227401,AU227402,AU227403,AU227404,AU227405,AU227406

>ms2
138.054000 152048.000000
153.077400 533656.000000
154.080400 33616.000000
168.064300 25204.000000
170.080000 17964.000000
185.050800 11912.000000
200.037000 2049224.000000
201.039700 187844.000000
202.033200 68732.000000
384.082600 2102832.000000
385.085000 309904.000000
386.081400 65676.000000

>ms2
136.038300 37832.000000
138.054100 1653068.000000
139.057400 112880.000000
152.069400 48528.000000
153.077500 1549676.000000
154.048500 23044.000000
154.080700 94732.000000
168.064300 60644.000000
170.080100 68260.000000
185.051000 40060.000000
200.037000 2056764.000000
201.039800 189504.000000
202.033400 63868.000000
215.007400 17500.000000
366.071100 21260.000000
384.081900 29100.000000

>ms2
122.059000 17616.000000
136.038100 106740.000000
138.054100 2151916.000000
139.057200 189840.000000
140.058600 11284.000000
152.069400 126008.000000
153.077200 338456.000000
154.048400 63352.000000
154.080500 24464.000000
167.002300 24796.000000
168.064200 35420.000000
170.079800 30388.000000
182.025700 28556.000000
185.050700 38332.000000
200.036600 1210540.000000
201.039700 101344.000000
202.033100 35128.000000
215.007200 22852.000000

>ms2
122.059300 34796.000000
136.038400 239596.000000
137.041800 18236.000000
138.054400 2368496.000000
139.007300 30636.000000
139.057400 198332.000000
140.059300 12016.000000
152.069700 197432.000000
153.076900 74108.000000
154.048900 125096.000000
156.010300 12176.000000
165.010400 22248.000000
167.002700 65232.000000
168.064600 32776.000000
182.026100 48852.000000
185.013100 13696.000000
185.051300 36004.000000
200.037000 593248.000000
201.039900 51084.000000
202.033200 17576.000000

>ms2
122.059300 52300.000000
123.066000 11628.000000
124.074700 14796.000000
136.038600 433380.000000
137.042200 27496.000000
138.054300 1990944.000000
139.007500 44452.000000
139.057500 152804.000000
152.069700 204956.000000
153.075300 26084.000000
154.048900 236712.000000
155.052000 14808.000000
156.010200 19116.000000
165.010700 26444.000000
167.002600 86560.000000
168.008100 11620.000000
168.064200 25916.000000
182.026100 35204.000000
185.051300 20656.000000
200.036900 134184.000000
201.039100 13984.000000

>ms2
122.059000 17616.000000
136.038100 106740.000000
138.054100 2151916.000000
139.057200 189840.000000
140.058600 11284.000000
152.069400 126008.000000
153.077200 338456.000000
154.048400 63352.000000
154.080500 24464.000000
167.002300 24796.000000
168.064200 35420.000000
170.079800 30388.000000
182.025700 28556.000000
185.050700 38332.000000
200.036600 1210540.000000
201.039700 101344.000000
202.033100 35128.000000
215.007200 22852.000000

