>compound AU99339669
>parentmass 218.1539
>ionization [M+H]+
>formula C14H19NO
>rt 293.940000
>profile qtof
#smiles_iso CC1=CC=C(C=C1)C(=O)C(C)N2CCCC2
#smiles_can CC1=CC=C(C=C1)C(=O)C(C)N2CCCC2
#inchikey APSJUNFBAXIXLK-UHFFFAOYSA-N
#pubchem_id 6430745
#mb_accession AU169906

>ms2
55.053300 6804.000000
56.048400 10972.000000
70.064100 146644.000000
71.068300 5696.000000
72.079800 120724.000000
84.079900 80216.000000
91.053600 49292.000000
93.069400 12116.000000
98.096400 866336.000000
99.099400 39844.000000
105.069800 7528.000000
115.053100 10288.000000
117.069300 49440.000000
118.072900 4848.000000
119.085600 929252.000000
120.088700 68728.000000
121.064600 5460.000000
126.091100 7020.000000
129.069200 36124.000000
131.085300 10436.000000
135.080300 4828.000000
147.080000 549624.000000
148.083300 46720.000000
174.126900 5656.000000
184.110900 5828.000000
185.119200 21156.000000
198.126700 10172.000000
200.142400 18432.000000
203.129500 15700.000000
216.137800 7136.000000
218.154300 749220.000000
219.157000 139232.000000
220.159500 11860.000000

