>compound AU99612867
>parentmass 181.0859
>ionization [M+H]+
>formula C10H12O3
>rt 500.424000
>profile qtof
#smiles_iso CCCOC(=O)C1=CC=C(C=C1)O
#smiles_can CCCOC(=O)C1=CC=C(C=C1)O
#inchikey QELSKZZBTMNZEB-UHFFFAOYSA-N
#pubchem_id 7175
#mb_accession AU237201,AU237202,AU237203,AU237204,AU237206

>ms2peaks
121.027000 1580.000000
139.037600 23844.000000
140.041500 2316.000000

>ms2peaks
121.027600 5464.000000
122.030400 300.000000
139.037600 6940.000000

>ms2peaks
121.027400 3000.000000
139.037900 664.000000

>ms2peaks
121.028300 1324.000000

>ms2peaks
95.051300 756.000000
121.028100 4296.000000
139.038400 15476.000000
140.041800 744.000000

