>compound AU99942946
>parentmass 333.1809
>ionization [M+H]+
>formula C18H24N2O4
>rt 569.200000
>profile qtof
#smiles_iso CCC(C)(CC)C1=NOC(=C1)NC(=O)C2=C(C=CC=C2OC)OC
#smiles_can CCC(C)(CC)C1=NOC(=C1)NC(=O)C2=C(C=CC=C2OC)OC
#inchikey PMHURSZHKKJGBM-UHFFFAOYSA-N
#pubchem_id 73672
#mb_accession AU259901,AU259902,AU259903,AU259904,AU259905,AU259906

>ms2peaks
165.053500 1621664.000000
166.057000 113988.000000
249.085900 33228.000000
333.181500 2343728.000000
334.184200 429940.000000
335.186200 43480.000000

>ms2peaks
150.029900 41768.000000
165.054200 2508160.000000
166.056800 346524.000000
167.058700 28884.000000
333.180700 114868.000000
334.183200 21772.000000

>ms2peaks
122.035400 34164.000000
150.030000 198060.000000
151.033300 15284.000000
165.054300 2499412.000000
166.057000 334448.000000
167.058600 29228.000000
168.040300 27128.000000

>ms2peaks
122.035400 91276.000000
135.043000 21264.000000
150.029900 409832.000000
151.033200 33492.000000
165.053700 2451188.000000
166.056700 190936.000000
167.058500 17744.000000
168.040300 73956.000000

>ms2peaks
122.035400 230204.000000
123.038500 16972.000000
135.042700 39376.000000
150.030100 647368.000000
151.033300 50556.000000
165.053500 1585596.000000
166.056900 95596.000000
167.058400 9452.000000
168.040500 117000.000000
169.043400 10124.000000

>ms2peaks
57.069300 28988.000000
85.101000 151488.000000
86.104200 11412.000000
122.035700 17020.000000
150.030200 97184.000000
165.054600 1290796.000000
166.057300 201996.000000
167.059100 16636.000000
168.040700 17736.000000
333.181200 14284.000000

