>compound AU99609657
>parentmass 149.1073
>ionization [M+H]+
>formula C9H12N2
>rt 160.800000
>profile qtof
#smiles_iso C1CC(NC1)C2=CN=CC=C2
#smiles_can C1CC(NC1)C2=CN=CC=C2
#inchikey MYKUKUCHPMASKF-UHFFFAOYSA-N
#pubchem_id 412
#mb_accession AU222801,AU222802,AU222803,AU222804,AU222805

>ms2
117.056100 2504.000000
120.079600 1524.000000
130.064500 12016.000000
132.079800 37420.000000
132.101300 9384.000000
149.106500 363236.000000
150.110800 99052.000000

>ms2
114.092700 332.000000
115.054300 892.000000
117.056600 13384.000000
118.061900 1868.000000
120.080500 2704.000000
130.064600 32860.000000
131.068400 3536.000000
132.079800 30688.000000
132.101000 7152.000000
133.083600 2824.000000
149.106500 18392.000000
150.110800 8904.000000

>ms2
115.053100 644.000000
116.049600 344.000000
117.056500 10212.000000
118.061900 3092.000000
120.080000 1064.000000
128.048600 380.000000
130.064600 15172.000000
131.068400 1920.000000
132.079400 3724.000000
132.099900 300.000000
133.083600 444.000000
149.105500 1680.000000

>ms2
117.056600 4748.000000
118.061900 1580.000000
120.082400 388.000000
128.048500 484.000000
130.064800 5472.000000
131.068500 768.000000
132.082300 372.000000

>ms2
117.056800 1616.000000
118.063000 560.000000
130.064000 1652.000000

