>compound AU99133531
>parentmass 359.1635
>ionization [M+H]+
>formula C16H26N2O5S
>rt 286.545000
>profile qtof
#smiles_iso CC1(C[C@@H]1C(=O)N/C(=C\CCCCSC[C@@H](C(=O)O)N)/C(=O)O)C
#smiles_can CC1(CC1C(=O)NC(=CCCCCSCC(C(=O)O)N)C(=O)O)C
#inchikey DHSUYTOATWAVLW-WFVMDLQDSA-N
#pubchem_id 6435415
#mb_accession AU212901,AU212902,AU212903,AU212904

>ms2
130.069100 304.000000
156.084300 344.000000
202.091300 2492.000000
203.093900 408.000000
217.102900 588.000000
219.116400 1128.000000
263.105600 1444.000000
315.174500 2480.000000
341.156900 780.000000
342.138000 1400.000000
359.165700 46348.000000
360.168600 8716.000000
361.164500 2448.000000

>ms2
115.058700 360.000000
130.068700 2816.000000
142.087500 456.000000
156.084700 1484.000000
166.085800 604.000000
174.060000 1276.000000
184.096800 1012.000000
194.152900 328.000000
200.074300 1596.000000
202.090400 7880.000000
203.092000 1064.000000
204.086300 460.000000
217.100200 1248.000000
219.117500 6716.000000
220.119700 552.000000
221.110500 616.000000
226.125200 396.000000
238.144200 1252.000000
239.146700 376.000000
245.098700 816.000000
246.087600 368.000000
252.103600 384.000000
263.106700 2608.000000
264.107400 440.000000
313.163200 668.000000
315.173600 2056.000000
341.153000 436.000000
342.141300 1220.000000
359.165100 3136.000000

>ms2
113.044600 408.000000
130.068700 2920.000000
156.085200 904.000000
174.058300 384.000000
182.064100 360.000000
200.074900 920.000000
202.089300 1500.000000
203.094500 344.000000
219.116700 1280.000000
220.135700 388.000000
238.146400 372.000000

>ms2
130.068400 1008.000000
156.084200 412.000000
200.075800 652.000000

