>compound AU99802884
>parentmass 258.2791
>ionization [M+H]+
>formula C16H35NO
>rt 724.260000
>profile qtof
#smiles_iso CCCCCCCCCCCCCC[N+](C)(C)[O-]
#smiles_can CCCCCCCCCCCCCC[N+](C)(C)[O-]
#inchikey ONHFWHCMZAJCFB-UHFFFAOYSA-N
#pubchem_id 18739
#mb_accession AU285201,AU285202,AU285203,AU285204,AU285205,AU285206

>ms2peaks
258.279900 2513552.000000
260.285300 53880.000000

>ms2peaks
240.267800 189664.000000
241.271200 26908.000000
258.278900 2415544.000000
259.282100 473616.000000
260.284700 28840.000000

>ms2peaks
128.142600 1220.000000
142.157800 1820.000000
156.173600 1100.000000
170.188400 976.000000
184.203200 1028.000000
198.219700 576.000000
212.236900 584.000000
226.251500 2380.000000
227.038100 364.000000
240.267800 68184.000000
241.271600 9040.000000
242.273500 1272.000000
258.278600 61972.000000
259.281700 12088.000000
260.285200 884.000000

>ms2peaks
128.142200 536.000000
142.159600 624.000000
156.172100 624.000000
170.190300 672.000000
184.204500 508.000000
226.252300 872.000000
240.268000 9332.000000
241.271500 1588.000000
258.279400 456.000000

>ms2peaks
240.267600 712.000000

>ms2peaks
227.040600 888.000000
256.266200 488.000000

