>compound AU99157316
>parentmass 214.126
>ionization [M+H]+
>formula C11H19NOS
>rt 618.300000
>profile qtof
#smiles_iso CCCCCCCCN1C(=O)C=CS1
#smiles_can CCCCCCCCN1C(=O)C=CS1
#inchikey JPMIIZHYYWMHDT-UHFFFAOYSA-N
#pubchem_id 33528
#mb_accession AU286401,AU286402,AU286403,AU286404

>ms2
214.125600 2416168.000000
215.128600 370132.000000
216.121800 86160.000000

>ms2
214.125200 124328.000000
215.127800 17788.000000
216.121500 5688.000000

>ms2
149.043300 440.000000
214.125300 992.000000

>ms2
167.054400 340.000000
171.086500 400.000000

