>compound CE10616634
>parentmass 106.04987000000004
>ionization [M+H]+
>formula C3H7NO3
>rt 103.792613
>profile orbitrap
#smiles_iso C(C(C(=O)O)N)O
#smiles_can C(C(C(=O)O)N)O
#inchikey MTCFGRXMJLQNBG-UHFFFAOYSA-N
#pubchem_id 617
#mb_accession CE000490,CE000491,CE000492,CE000493,CE000494,CE000495,CE000496,CE000497,CE000498,CE000499,CE000500,CE000501,CE000502,CE000503,CE000504

>ms2peaks
60.044643 28888.609375
88.039398 25400.064453
106.043022 3910.516113
106.043861 4113.600586
106.046265 7464.108887
106.047165 5173.732422
106.049957 778013.125000
106.052902 5721.167480
106.053925 3625.871094
106.054543 5295.252441
106.055428 4454.811035
106.056183 4467.908691
106.057816 3750.299072
299.187469 3113.272705
299.209930 4350.211914

>ms2peaks
60.044651 37070.203125
88.039459 41988.859375
106.050011 53997.589844
299.191528 3351.177002

>ms2peaks
60.044655 15373.054688
88.039375 9277.801758

>ms2peaks
60.044632 39828.746094
88.039444 60895.328125
106.050003 88981.914062
299.194366 3802.161621
299.204285 4358.811523

>ms2peaks
60.044659 39287.464844
88.039482 51945.847656
299.186584 4210.271484
299.199310 4013.792725

>ms2peaks
60.044632 13810.845703
88.039459 23775.814453
106.049980 36922.644531
299.189301 4188.953613
299.198120 5211.836426

>ms2peaks
60.044643 12777.627930
88.039406 15585.866211
106.049950 12006.152344
299.179321 4030.733398
299.198975 3120.187988

>ms2peaks
60.044647 11630.935547
88.039337 7869.105957
299.184204 7495.347168

>ms2peaks
60.044689 13425.307617
88.039505 12756.626953
106.049942 4842.206055
299.179321 8247.531250

>ms2peaks
60.044628 23752.142578
88.039413 25221.767578
106.042168 4003.645752
106.043861 3357.134277
106.044693 3406.410889
106.045517 3856.579590
106.046440 3540.261719
106.047157 5849.535156
106.049965 641092.812500
106.053665 6271.550293
106.054649 3255.849365
106.055389 3471.725342
106.057037 3184.227783
299.204620 4328.224609

>ms2peaks
60.044659 46885.542969
88.037979 3535.921875
88.039452 51733.210938
106.050018 85075.992188
299.178619 3235.639160
299.191040 3707.383789

>ms2peaks
60.044708 17644.623047
88.039490 18724.154297
106.050011 8881.541016
299.194305 4231.155273

>ms2peaks
60.044655 22997.896484
88.039436 19557.587891
106.050003 24761.691406
299.187622 3898.712891

>ms2peaks
60.044636 8151.378418
88.039474 5866.996094
299.180542 7772.107422

>ms2peaks
60.044651 24658.402344
88.039436 25478.519531
106.046371 3400.868896
106.047127 4219.770996
106.049988 552163.187500
106.054565 4097.171387
106.057030 3556.604004
299.217987 5120.500000

