>compound CE17516464
>parentmass 132.10191000000003
>ionization [M+H]+
>formula C6H13NO2
>rt 1563.333000
>profile orbitrap
#smiles_iso CC(C)CC(C(=O)O)N
#smiles_can CC(C)CC(C(=O)O)N
#inchikey ROHFNLRQFUQHCH-UHFFFAOYSA-N
#pubchem_id 857
#mb_accession CE000681,CE000682,CE000683,CE000684,CE000685,CE000686,CE000687,CE000688,CE000689,CE000690

>ms2peaks
74.804146 1448.083740
84.769707 1626.497681
86.093735 3525.958252
86.094940 6720.386230
86.096344 284866.781250
94.286476 1436.110962
132.101715 13479.613281
163.551666 1734.475708
165.355560 1508.375366
188.179993 1511.085815
212.025726 1531.402100
264.804077 1572.534302
299.217834 5048.557129

>ms2peaks
62.108932 1715.055542
72.802757 1464.169922
79.623337 1459.181885
86.093651 2943.244629
86.094704 8833.848633
86.096313 236506.093750
96.304543 1514.290283
111.759300 1469.792847
132.101593 9718.147461
141.125336 1486.346924
143.391052 1563.943848
191.200211 1560.089478
231.914474 1610.914917
276.960571 1474.252319
288.773590 1530.144775
291.571564 1675.319336
291.585419 2263.451416
299.200439 2598.010742
299.209106 5366.967285
299.217865 4251.385742

>ms2peaks
72.768555 1476.517944
75.224609 1485.584106
76.144333 1430.135132
86.094551 5490.147949
86.096382 153868.296875
110.924026 1516.010010
132.094467 2309.593018
132.101944 355661.218750
132.106003 1849.655396
132.108170 2285.059814
132.109238 1777.936768
158.980850 1470.916748
248.754471 1459.466553
256.379608 1441.814697
272.673615 1437.233887
278.489807 1456.727417
291.589020 1576.092773
299.221344 6745.793457

>ms2peaks
69.070038 2113.271973
74.803925 1758.244385
74.810097 1451.161743
77.061958 1424.616333
77.449837 1459.539185
86.094864 1758.112183
86.096405 70468.414062
105.834656 1578.152588
128.179810 1525.976196
132.101898 14390.928711
137.849823 1551.795410
156.175339 1484.240601
162.071259 1675.015259
174.013535 1488.055908
178.189926 1614.581299
183.997665 1474.542236
217.561249 1739.261353
252.423019 1451.479980
276.126709 1603.312866
299.215179 4009.702637
299.226379 2276.399658
299.236908 3818.548340

>ms2peaks
70.797623 1438.377930
86.093674 2445.364746
86.094612 7873.261719
86.096321 240560.109375
132.101822 13114.605469
163.608063 1534.969482
167.204010 1605.237671
220.751297 1581.616211
247.115829 1520.977051
285.918457 1442.512939
299.193665 3360.135986
299.211731 2730.734131
299.224945 3299.842285

>ms2peaks
50.904930 1452.059692
73.025230 1430.521484
83.963463 1569.951050
86.093681 2751.591064
86.094757 6550.064941
86.096359 232101.656250
89.479019 1461.407349
99.803284 1539.662842
109.241287 1495.530518
121.089745 1426.621338
173.846725 1542.418945
251.993332 1436.751343
291.574127 1557.428833
299.217102 3241.762939
299.225861 6250.913574

>ms2peaks
58.260151 1435.887207
69.070000 1928.860718
75.734718 1494.104004
82.486366 1467.269775
86.094574 3064.588135
86.096390 65014.496094
130.516327 1579.327759
132.101746 3569.920166
190.506989 1451.991821
191.767258 1556.607056
209.879135 1425.385498
214.034103 1426.626221
226.300278 1493.937500
259.850128 1469.260010
281.434662 1534.190430
291.567749 1620.474243
299.227753 6138.638184
299.231964 5896.850586

>ms2peaks
69.304008 1473.770752
74.807640 1606.193604
86.094421 3289.393066
86.096375 82975.578125
95.182457 1544.121094
96.703613 1440.769165
96.773422 1529.906494
101.591400 1482.305298
117.400436 1614.941162
132.101944 7673.236328
146.943802 1476.128906
167.372635 1473.376709
183.301651 1547.395508
285.296234 1496.931641
299.208252 1459.298096
299.221741 5549.178711

>ms2peaks
69.069969 1582.238647
71.476250 1454.177979
74.807106 1481.433594
86.094757 1856.604736
86.096367 49050.367188
137.812088 1720.384766
180.195618 1433.657349
222.979614 1716.978882
232.686783 1545.674683
299.220703 2735.832520
299.230408 1851.008667

>ms2peaks
58.235397 1423.198364
60.740112 1673.590698
74.806709 2396.427246
86.094810 5139.259277
86.096375 147257.906250
96.358635 1425.080322
110.596451 1537.141846
125.901207 1438.067749
132.091080 2786.298340
132.093124 2074.498291
132.094406 1580.797607
132.095444 1828.437866
132.096619 2067.901611
132.097824 2641.959717
132.101929 342016.562500
132.105896 1522.212769
148.679947 1620.175293
149.620499 1546.841431
167.764465 1579.697876
234.689636 1499.582642
277.612366 1527.404419
291.588989 1522.796265
297.376251 1450.068726
299.205261 4086.960693
299.225098 6617.265625

