>compound CE20132503
>parentmass 352.16155
>ionization [M+H]+
>formula C15H21N5O5
>rt 6.379000
>profile orbitrap
#smiles_iso C/C(=C/CNC1=C2C(=NC=N1)N(C=N2)[C@H]3[C@@H]([C@@H]([C@H](O3)CO)O)O)/CO
#smiles_can CC(=CCNC1=C2C(=NC=N1)N(C=N2)C3C(C(C(O3)CO)O)O)CO
#inchikey GOSWTRUMMSCNCW-BAJUWZQUSA-N
#pubchem_id 13935024
#mb_accession CE000261

>ms2peaks
109.712250 1210.770508
136.061401 6081.540527
185.081696 1976.480469
188.070374 1440.662231
202.108337 3822.327637
220.070816 1733.522705
220.108902 1593.692993
220.118668 396461.125000
220.126389 2355.405762
220.165878 1701.844849
291.599670 1595.752441
291.609650 1591.625610
292.199646 2069.362305
299.106689 1900.820068
299.120941 6929.587891
299.132538 1632.047363
351.187286 4417.166016
351.213074 1196.573364
351.250000 7401.001465
351.286011 1310.374756
351.307220 4160.514160
351.984467 1400.254883
352.160767 147500.734375
352.189911 2596.787109
352.211060 2103.660400
352.214264 2112.731934
352.231537 7247.899414
352.252533 15934.812500
352.282379 5747.228027
352.317902 2397.864990

