>compound CE24138515
>parentmass 182.08116999999996
>ionization [M+H]+
>formula C9H11NO3
>rt 6720.250000
>profile orbitrap
#smiles_iso C1=CC(=CC=C1CC(C(=O)O)N)O
#smiles_can C1=CC(=CC=C1CC(C(=O)O)N)O
#inchikey OUYCCCASQSFEME-UHFFFAOYSA-N
#pubchem_id 1153
#mb_accession CE000224,CE000225,CE000226,CE000227,CE000228,CE000229,CE000230,CE000231,CE000232

>ms2
119.049210 3173.899414
123.043983 2357.449463
136.075714 119148.875000
147.043808 7352.156738
165.041275 2392.855469
165.046112 2912.037598
165.047852 2535.714844
165.049118 2465.382812
165.054688 529901.687500
165.060822 2335.052734
165.062057 3068.487793
165.064987 3016.245117
165.066895 2566.396973
182.081253 22371.716797
299.255096 3600.613525
299.261871 4160.964844

>ms2
74.810272 2731.412354
119.049118 12484.087891
123.044052 20501.908203
136.075714 103607.718750
147.043991 20017.226562
165.054733 115313.953125
182.081375 39549.343750
299.240143 4582.523438
299.250153 2721.565186

>ms2
136.075699 34700.792969
147.043930 2369.836182
165.054703 210692.437500
182.047470 2654.964600
182.081482 489374.093750
299.252136 2706.042969

>ms2
95.049133 2317.421631
119.049049 21801.906250
123.043983 38160.722656
136.075714 172266.875000
147.043945 30367.687500
165.054703 69175.593750
182.080948 6629.604004
299.247498 4276.665527

>ms2
123.044090 3332.521973
136.075745 131032.609375
147.044037 9737.211914
165.044510 3160.428955
165.046143 3103.241211
165.049103 3253.642090
165.054703 557361.625000
165.060760 2890.551270
165.062256 2683.463135
165.063736 3178.699219
165.065262 2964.402588
165.068390 2694.675293
299.241547 5292.808105
299.251556 3628.727051

>ms2
119.049065 18419.671875
123.043976 31250.210938
136.075714 134796.484375
147.043991 26645.878906
165.054718 95776.304688
182.081299 16699.460938
299.243469 6399.680664
299.259796 2428.521973

>ms2
91.054230 4072.498291
95.049042 5354.832520
119.049049 41441.804688
123.044006 73717.359375
136.075684 204645.156250
147.043869 26618.826172
165.054657 26760.244141
299.243378 5338.547852

>ms2
91.054169 3176.458984
95.049149 4600.627441
119.049110 30861.941406
123.044037 46796.613281
136.075745 194935.968750
147.043961 28062.652344
165.054749 44335.714844
182.081268 2972.705811
299.253418 6871.438477
299.267609 3848.370361

>ms2
123.044083 2849.951172
136.075699 114578.195312
147.043915 7829.603516
165.046082 2986.116943
165.054657 509671.687500
165.061966 2794.878662
165.063751 2351.577881
165.065277 2343.156250
182.081268 21562.830078
299.244141 4560.249023
299.251648 3044.879150

