>compound CE24081648
>parentmass 132.10191000000003
>ionization [M+H]+
>formula C6H13NO2
>rt 110.679833
>profile orbitrap
#smiles_iso CCC(C)C(C(=O)O)N
#smiles_can CCC(C)C(C(=O)O)N
#inchikey AGPKZVBTJJNPAG-UHFFFAOYSA-N
#pubchem_id 791
#mb_accession CE000609,CE000610,CE000611,CE000612,CE000613,CE000614,CE000615,CE000616,CE000617,CE000618,CE000619,CE000620

>ms2peaks
86.096558 10182402.000000
132.102493 16790474.000000

>ms2peaks
86.096542 1721769.500000
132.102463 1970674.000000

>ms2peaks
86.096588 1714470.750000
132.102554 1704021.750000

>ms2peaks
86.096550 18926454.000000
132.102509 11317977.000000

>ms2peaks
86.092667 166213.843750
86.096527 27916486.000000
86.098732 186360.687500
86.099892 188439.921875
132.102554 2526393.500000

>ms2peaks
69.070320 828622.937500
86.096596 12351795.000000
132.102432 215354.328125

>ms2peaks
69.070229 894567.062500
86.096519 10950718.000000

>ms2peaks
86.095276 174541.578125
86.096657 7221447.000000
132.036499 166691.578125
132.080292 308033.718750
132.092651 193088.734375
132.093704 169302.531250
132.094925 237841.437500
132.096024 230199.640625
132.097214 271579.718750
132.098358 238061.187500
132.102478 39308340.000000
132.106308 204374.328125
132.107529 265011.031250
132.108643 235480.953125
132.109802 246543.343750
132.110947 215328.046875
132.112061 181808.937500
132.113220 164158.171875
132.114426 166276.281250
132.124054 266109.437500

>ms2peaks
86.096527 20855108.000000
132.102493 12361072.000000

>ms2peaks
69.070274 974057.875000
86.096565 12670256.000000

>ms2peaks
69.070366 158823.140625
86.092262 158488.781250
86.092697 210580.156250
86.093452 170666.703125
86.094475 269764.500000
86.096535 34735812.000000
86.098068 245387.625000
86.099304 210833.281250
86.099922 224457.671875
86.101120 166146.609375
86.131287 217997.031250
132.102554 2448289.250000

>ms2peaks
86.096611 7128301.500000
132.090332 158168.000000
132.091461 167899.078125
132.092621 188501.390625
132.093719 186877.468750
132.094955 266974.843750
132.095993 205849.843750
132.097214 315544.562500
132.098373 304857.343750
132.102448 39451176.000000
132.106232 183117.515625
132.107483 292739.781250
132.108673 312842.656250
132.109695 201342.046875
132.110977 235460.875000
132.112091 200232.234375
132.113235 174510.609375
132.115570 163390.984375

