>compound CE28786010
>parentmass 148.06044
>ionization [M+H]+
>formula C5H9NO4
>rt 3519.708333
>profile orbitrap
#smiles_iso C(CC(=O)O)C(C(=O)O)N
#smiles_can C(CC(=O)O)C(C(=O)O)N
#inchikey WHUUTDBJXJRKMK-UHFFFAOYSA-N
#pubchem_id 611
#mb_accession CE000651,CE000652,CE000653,CE000654,CE000655,CE000656,CE000657,CE000658,CE000659,CE000660,CE000661,CE000662

>ms2peaks
74.816216 2919.625000
84.044296 3547.828857
102.054863 4875.777832
130.049866 24547.472656
130.086182 4824.234863
131.089600 2452.723389
147.112671 9048.133789
148.042908 2567.316162
148.060379 64284.152344
148.116165 6761.987305
173.885147 1610.069824
191.095535 1594.937378
208.016342 1632.717529
227.812195 1555.892700
291.593964 2716.267822
299.252960 2484.729736
299.261414 5353.970703

>ms2peaks
84.044418 11301.956055
96.296295 1545.792358
102.054840 6457.712402
117.820343 1979.246948
128.482880 1737.907104
130.049866 42772.406250
130.086044 9969.000000
131.089432 6236.246582
147.112549 7601.207031
148.042496 6005.993164
148.060379 41027.980469
148.116058 3307.926514
291.578583 2187.591797
299.247559 2918.623047
299.255981 3574.932617
299.262543 3350.260498

>ms2peaks
84.044533 8352.658203
102.000671 5655.631348
102.054970 51069.488281
112.018150 1670.540039
120.011436 10637.573242
120.052086 2159.300781
129.102325 6033.068359
130.049973 384540.031250
130.086273 115651.156250
130.105637 3260.501221
131.033661 2059.522949
131.089630 46995.085938
147.112656 2392.433105
148.042709 15748.235352
148.060440 28399.001953
148.116669 1672.394043
237.066971 1756.287476
291.608093 1853.591431
291.621216 1900.921509
299.206726 1746.508057
299.217590 5736.087402
299.232330 3162.188721

>ms2peaks
84.044327 54456.109375
84.080803 6513.138672
85.084091 3463.793945
93.853355 1588.037109
102.054733 17037.000000
108.097939 1545.505005
130.049805 67472.453125
130.086151 24514.738281
131.089478 10959.881836
141.920517 1572.052734
147.112457 5012.024902
148.042587 13959.612305
148.060211 28178.677734
148.115952 2929.228271
185.407974 1640.533325
291.605194 1613.707397
299.256073 6441.203125

>ms2peaks
79.120918 1755.432373
84.044357 68097.812500
84.080765 11533.938477
85.083992 5258.073242
89.711929 1569.047974
92.319199 1561.564575
102.000694 1749.410034
102.054794 19206.330078
130.049820 51937.191406
130.086105 21769.843750
131.089569 9360.741211
147.112656 3149.301025
148.042496 13461.731445
148.060318 12063.776367
159.858490 1655.501587
188.197922 1880.478027
194.001205 1668.845703
291.574188 1580.415405
299.241760 4656.379883
299.252045 3105.323730

>ms2peaks
53.162094 1567.588745
74.810616 2004.918701
84.042465 2341.157715
84.044327 86956.882812
84.080681 18298.308594
85.084114 6470.907715
102.054741 18847.691406
130.049713 19770.000000
130.086227 9694.859375
131.089294 5308.491211
133.667282 1572.462769
146.310913 1626.926147
148.042633 7325.030762
148.059967 4730.233887
225.086182 1542.571411
243.390976 1614.926514
299.240845 4471.448730
299.247925 6723.162109

>ms2peaks
74.005997 2675.173096
74.810661 2240.773926
84.044327 102041.906250
84.080734 22650.519531
85.084015 8354.480469
102.054810 11852.307617
130.049774 5155.107910
130.085953 3926.296875
131.089294 1550.734497
148.042572 3387.796875
193.091843 1584.745239
299.227417 1755.891357
299.238953 5321.473633
299.247162 4389.641113

>ms2peaks
102.054665 2299.482910
130.049744 20052.019531
131.089294 3423.778320
135.078003 1628.002319
148.060211 33372.792969
148.115906 4381.951172
169.742538 1620.326538
177.465271 1925.817017
186.286057 1553.239380
188.208466 1662.034424
213.055725 1612.961548
247.334763 1545.269653
291.619507 1552.957642
299.241425 1547.662842
299.252197 2169.684570
299.260712 4135.747559
299.267548 4262.831543

>ms2peaks
84.044365 30500.910156
84.080658 1900.147827
99.789856 1555.376587
102.054855 18274.105469
106.046661 1570.052124
130.049820 88227.820312
130.086182 22442.162109
131.089462 12617.422852
147.112610 8793.365234
148.042389 14732.125000
148.060303 46559.089844
148.116089 4735.489258
192.059250 1552.747925
291.585663 2152.449463
299.237946 2593.873291
299.252319 2190.663818
299.258606 3170.033447

>ms2peaks
59.414360 1634.484619
74.005951 2878.179443
84.042999 3769.341797
84.044373 88871.125000
84.080780 16840.718750
85.084038 6625.942871
102.054817 13494.485352
120.052422 2294.567383
130.049911 11153.314453
130.086075 4641.005371
131.089203 2485.444092
148.042465 4822.833984
148.060211 2026.007080
189.786194 1573.372070
291.560547 1546.223877
299.229797 3875.159424
299.239014 3748.312988

>ms2peaks
74.006088 1700.546265
84.044411 78631.765625
84.080742 14212.663086
85.084183 5456.450684
102.000954 1839.877930
102.054886 18782.361328
109.711960 2020.131592
130.049835 25746.552734
130.086166 14255.455078
131.089401 8918.818359
135.906189 1540.687500
148.042542 9951.108398
148.060272 5415.019531
299.230957 4412.922852
299.246643 2481.114014

>ms2peaks
68.253212 1581.675659
130.049805 13632.526367
131.089371 2286.516357
148.060425 20076.144531
148.115906 2033.291382
232.546371 1550.202393
291.586548 1653.705566
299.222931 1687.581909
299.232391 4317.000977
299.246124 3571.657227
299.268677 3187.428955

