>compound CE35663662
>parentmass 116.07061000000002
>ionization [M+H]+
>formula C5H9NO2
>rt 169.166539
>profile orbitrap
#smiles_iso C1CC(NC1)C(=O)O
#smiles_can C1CC(NC1)C(=O)O
#inchikey ONIBWKKTOPOVIA-UHFFFAOYSA-N
#pubchem_id 614
#mb_accession CE000622,CE000623,CE000624,CE000625,CE000626,CE000627,CE000628,CE000629,CE000630,CE000631,CE000632,CE000633,CE000634,CE000635,CE000636,CE000637,CE000638,CE000639

>ms2
70.065186 40558.406250
116.062187 8086.417480
116.063164 9435.715820
116.064018 8314.995117
116.065025 10448.470703
116.065964 11146.078125
116.066910 12450.569336
116.070320 1810263.625000
116.073334 7291.690430
116.074509 14892.455078
116.075325 10765.496094
116.076347 10399.739258
116.077232 8142.408203
116.078255 8518.500977
116.079193 8251.155273

>ms2
70.065193 183233.312500
116.070389 15754.724609

>ms2
70.065163 146919.578125
116.070427 428657.843750

>ms2
70.065155 199494.859375
116.070496 67731.117188

>ms2
70.065178 130375.562500
116.070465 380123.062500

>ms2
70.065231 102667.562500
116.070511 625521.437500

>ms2
70.065216 140178.531250
116.070518 537443.500000

>ms2
70.065216 164402.781250
116.070518 363719.750000

>ms2
70.065178 188065.812500
116.070503 150218.218750

>ms2
70.065208 199098.156250
116.070564 218264.125000

>ms2
70.065186 195579.218750
116.070473 39168.589844

>ms2
70.065247 41113.144531
116.062523 8466.883789
116.064384 8530.083984
116.066574 9247.715820
116.067162 10597.363281
116.070442 1763975.125000
116.072960 7302.296387
116.074722 9103.016602
116.075668 8071.059570
116.077515 8744.010742

>ms2
70.065201 136577.343750
116.070480 399176.218750

>ms2
70.065201 174447.093750
116.070541 289395.093750

>ms2
70.065186 162259.093750
116.070488 471921.718750

>ms2
70.065208 185174.140625
116.070511 24412.113281

>ms2
70.065208 196062.218750
116.070549 108453.015625

>ms2
70.065201 38011.414062
116.062256 7772.751465
116.064079 8432.534180
116.065048 11195.196289
116.065971 10828.701172
116.066750 8623.928711
116.070351 1727479.750000
116.073654 9069.374023
116.074303 8795.622070
116.075363 9433.827148
116.076378 10333.932617
116.077263 9009.906250
116.079224 7371.083984

