>compound CE36346375
>parentmass 217.04954
>ionization [M+H]+
>formula C12H8O4
>rt 867.985250
>profile orbitrap
#smiles_iso COC1=C2C=CC(=O)OC2=CC3=C1C=CO3
#smiles_can COC1=C2C=CC(=O)OC2=CC3=C1C=CO3
#inchikey BGEBZHIAGXMEMV-UHFFFAOYSA-N
#pubchem_id 2355
#mb_accession CE000158,CE000159,CE000160,CE000161

>ms2peaks
56.172020 9153.727539
58.483875 10865.365234
60.199467 9418.486328
66.140160 10238.516602
68.882942 9872.099609
73.813530 9467.689453
75.937393 9786.061523
85.265236 10090.578125
97.875282 9493.624023
99.774223 10070.723633
100.138748 11277.200195
105.909691 9092.039062
106.287399 9194.204102
106.412018 9315.636719
111.743980 13624.607422
115.053810 155371.984375
117.069473 172363.078125
117.869492 12090.808594
131.048889 14661.822266
133.063858 18936.917969
143.048752 44182.660156
145.064453 110444.765625
150.174316 10287.742188
158.035995 59140.230469
161.059265 130312.039062
171.054764 49385.035156
173.059433 901001.500000
174.030777 41948.812500
188.451874 10215.623047
189.054672 129245.007812
201.709839 27536.380859
202.025894 7712972.000000
202.341263 23268.748047
216.468567 15829.323242
216.697327 48406.917969
217.049194 12326901.000000
217.584747 11581.647461
218.052353 52779.089844
226.495850 9634.410156
236.681595 10787.434570

>ms2peaks
63.010910 8283.142578
70.069305 7489.971191
76.580811 9262.065430
76.971733 8582.849609
81.796906 8461.295898
82.496254 9541.684570
87.262421 8556.857422
95.912209 7805.467773
105.069756 10287.527344
113.954964 8291.026367
115.053749 175576.921875
117.069389 182648.187500
120.011024 9476.352539
121.151566 9615.154297
131.048676 26288.601562
133.064529 28031.166016
133.208145 7596.963379
143.048691 48905.320312
145.064484 130680.125000
147.378021 8638.207031
155.060120 15020.375977
158.036163 59595.746094
161.059311 154473.031250
161.878036 8391.273438
171.054077 50435.968750
173.059341 965261.125000
174.031036 38653.343750
175.392380 8564.234375
189.054489 143948.531250
199.042465 11477.153320
201.713593 45799.554688
202.025772 8064139.000000
202.337418 29942.335938
209.094849 9286.531250
217.049088 7736048.000000
217.397736 30372.351562
218.052399 83592.468750

>ms2peaks
56.616386 6757.100586
59.798897 6437.732910
60.842361 8187.025391
63.953983 6688.425293
68.648346 7693.396973
80.269104 8581.861328
82.827553 8051.408203
90.012184 8057.504395
91.053642 9949.264648
91.160294 7978.403320
91.279549 6776.451660
91.882858 7236.818359
96.888168 7051.705566
105.069839 9319.618164
115.053810 210417.656250
117.069511 214259.203125
121.320358 7333.453125
122.182632 9583.135742
131.048660 20494.281250
133.064301 25063.376953
133.595154 8407.630859
133.903305 7028.639648
142.117264 8524.825195
143.048386 56211.332031
145.064499 141813.468750
155.059753 12203.043945
158.035873 66700.820312
161.059402 168386.375000
171.054840 69018.976562
173.059341 1067217.125000
174.030518 43985.214844
178.505035 7264.334961
181.576935 7618.588867
185.023758 9122.422852
189.054550 162130.656250
199.039886 9727.775391
202.025742 9143172.000000
216.702316 12604.809570
216.908951 25238.220703
217.049103 3271045.500000
217.397232 10868.803711
218.052200 114072.867188
220.022888 7314.586426
232.251160 6968.527344

>ms2peaks
60.002956 4577.346680
67.293816 5034.205078
69.985420 4339.684082
72.446579 3844.312744
82.305611 4537.216797
84.131836 4007.318604
89.556015 4450.578613
95.829552 4273.381836
105.069077 5274.019531
111.051811 4908.232910
115.053787 112411.054688
117.069450 117081.875000
131.048203 14262.977539
133.064606 14144.462891
141.418579 5157.394043
143.048798 34210.160156
145.064545 82145.359375
149.346680 3870.329102
155.060883 6627.690430
158.035675 36153.300781
160.048477 4222.230469
161.059296 101724.898438
170.497528 4302.588379
171.054428 32471.646484
173.059311 630964.500000
174.030853 67668.398438
185.022797 12868.648438
189.054520 104646.671875
194.053024 5143.571777
199.039551 9032.642578
201.507629 5631.430664
202.025665 5458380.000000
203.028442 35283.843750
217.049103 957290.250000
218.052368 669983.375000
244.618851 4823.128906

