>compound CE44146236
>parentmass 241.03113
>ionization [M+H]+
>formula C6H12N2O4S2
>rt 7860.226667
>profile orbitrap
#smiles_iso C(C(C(=O)O)N)SSCC(C(=O)O)N
#smiles_can C(C(C(=O)O)N)SSCC(C(=O)O)N
#inchikey LEVWYRKDKASIDU-UHFFFAOYSA-N
#pubchem_id 595
#mb_accession CE000595,CE000596,CE000597,CE000598,CE000599,CE000600,CE000601,CE000602,CE000603

>ms2
120.011230 13994.929688
122.026932 19202.529297
151.983383 299996.718750
153.999008 119808.375000
177.999252 134162.453125
195.025726 105611.414062
205.994308 4205.373535
223.020630 5992.205566
224.004715 15668.931641
299.264526 5223.682129

>ms2
74.023796 5887.267578
120.011223 23456.431641
122.026970 17114.818359
151.983368 59044.878906
153.998947 6855.247559
177.999054 8559.988281
195.025528 8774.752930
241.031387 212423.078125
299.279480 7130.021973

>ms2
151.983398 36169.156250
153.998993 17181.494141
177.999252 11963.710938
195.025803 16061.758789
241.007935 4359.607422
241.010727 4722.171875
241.016571 5229.829590
241.019073 6754.931152
241.031479 967577.500000
241.041748 6603.499512
241.045212 4357.274902
241.047775 4428.133301
241.050110 5093.001953
241.053131 4048.564697
299.287933 5371.125488

>ms2
74.006004 4245.734863
74.023773 10701.431641
120.011276 77246.804688
122.026917 27910.429688
151.983383 58948.109375
177.999420 5498.512695
241.031357 27717.488281

>ms2
120.011230 7060.980469
122.026932 14447.137695
151.983383 40755.816406
153.998962 5953.720703
177.999115 5920.300293
195.025772 7614.903320
241.031448 388715.937500

>ms2
74.023758 8673.719727
120.011330 42888.355469
122.026962 22087.460938
151.983444 68469.875000
177.999176 7865.604492
195.025711 6647.975586
241.031372 79784.187500
299.276917 5545.895996

>ms2
74.006004 6701.259277
74.023804 7704.550781
120.011322 116616.109375
122.026947 14103.291016
151.983444 23192.289062
299.272644 4693.853027

>ms2
74.005981 6488.390137
74.023766 8039.331055
120.011330 94266.710938
122.026962 20565.867188
151.983368 41341.941406
241.031372 6510.815430
299.282684 6230.543457

>ms2
120.011246 12940.912109
122.026939 16526.894531
136.972382 3870.799072
151.983353 282839.687500
153.999008 117783.390625
177.999237 109118.710938
195.025757 98247.546875
205.994171 4088.880859
223.020493 6692.563965
224.004700 14654.159180
241.031326 163214.937500
299.288269 4822.695801

