>compound CE52864633
>parentmass 118.08626000000001
>ionization [M+H]+
>formula C5H11NO2
>rt 601.726611
>profile orbitrap
#smiles_iso CC(C)C(C(=O)O)N
#smiles_can CC(C)C(C(=O)O)N
#inchikey KZSNJWFQEVHDMF-UHFFFAOYSA-N
#pubchem_id 1182
#mb_accession CE000562,CE000563,CE000564,CE000565,CE000566,CE000567,CE000568,CE000569,CE000570,CE000571,CE000572,CE000573,CE000574,CE000575,CE000576,CE000577,CE000578,CE000579

>ms2peaks
72.080826 45342.632812

>ms2peaks
72.080833 9767.310547
118.065010 5543.952148

>ms2peaks
72.080879 41554.855469

>ms2peaks
72.080879 11594.909180
118.064934 8442.997070
299.225189 5881.994141

>ms2peaks
72.080879 37253.664062

>ms2peaks
72.080887 16527.984375
118.065018 8607.715820
118.086105 6087.564453
299.240143 5800.809570

>ms2peaks
72.080833 17272.419922
118.064949 10293.353516

>ms2peaks
72.080879 18643.458984
118.065048 9807.236328

>ms2peaks
72.080902 11762.069336
118.064903 9535.120117

>ms2peaks
72.080894 15976.377930
118.064980 11758.140625
299.235931 6072.172852

>ms2peaks
72.080887 9179.962891
118.065025 6647.681641
299.217255 6914.894531

>ms2peaks
72.080788 27283.857422
118.064941 22259.972656
118.074684 5955.136719
118.086060 106876.289062

>ms2peaks
72.080864 36423.738281
299.246857 6908.084961

>ms2peaks
72.080894 13614.769531
118.064964 10595.981445
299.233063 5355.300293

>ms2peaks
72.080856 18290.775391
118.064911 10620.461914

>ms2peaks
72.080910 7243.359863
118.064911 6039.571777

>ms2peaks
72.080811 11418.830078
118.064835 9046.394531

>ms2peaks
72.080826 25467.246094
118.064964 20820.625000
118.074715 7515.652344
118.086075 106701.953125

