>compound CE64661760
>parentmass 271.0601
>ionization [M+H]+
>formula C15H10O5
>rt 785.317667
>profile orbitrap
#smiles_iso C1=CC(=CC=C1C2=COC3=CC(=CC(=C3C2=O)O)O)O
#smiles_can C1=CC(=CC=C1C2=COC3=CC(=CC(=C3C2=O)O)O)O
#inchikey TZBJGXHYKVUXJN-UHFFFAOYSA-N
#pubchem_id 5280961
#mb_accession CE000011,CE000012,CE000013

>ms2
75.814644 4021.297363
83.980301 3715.143066
94.805817 3702.297119
111.007233 10416.608398
119.049294 8689.807617
121.027939 18656.015625
123.460205 3779.816406
129.070557 5063.727051
131.048950 6181.296875
133.028534 20869.275391
145.028381 168223.640625
147.043762 4995.615234
149.023270 260158.765625
152.810593 4367.198730
153.018127 923968.562500
154.021072 6862.240234
159.043991 168491.890625
165.018356 39114.761719
169.064941 26611.072266
173.059525 13967.808594
177.018890 4906.179199
181.066483 7959.527344
182.190948 4197.799316
185.059692 5709.478027
187.039001 57792.269531
197.059845 57717.531250
198.197968 3797.402588
199.075134 5587.014648
201.054520 18293.238281
203.070724 8564.380859
214.933609 5552.404297
215.070465 689311.125000
216.074966 10129.827148
225.054810 88856.226562
227.069763 21957.333984
229.049362 13918.707031
243.065567 533855.000000
244.068466 11167.899414
252.487640 3685.732666
253.049927 320111.625000
254.050476 7934.190430
270.568054 35163.406250
271.060364 6346512.500000
271.254486 21947.812500
271.557556 29485.498047
271.867859 13918.626953
272.063263 2201096.750000
272.259583 7014.330078
272.558197 6036.353027
273.149231 4144.222168
292.158142 4429.550293

>ms2
77.521111 3823.313965
78.692749 3573.041748
91.053650 8486.751953
108.778900 3695.972656
111.007736 15028.342773
119.049088 13069.316406
119.676193 4390.270020
121.028122 33189.914062
127.229187 4013.551270
131.049301 13812.005859
133.028564 38413.589844
141.070236 8235.228516
145.028427 290012.406250
147.044373 16278.712891
149.023407 435039.593750
152.805466 4709.163574
153.018173 1546466.250000
153.229080 4444.370117
153.852325 4549.988770
154.021790 13418.943359
157.064499 5521.115723
159.043961 301574.031250
161.061539 5212.948730
165.018311 74587.914062
169.064911 38618.972656
173.059448 31936.402344
175.074829 9613.973633
177.018478 8869.182617
181.064911 21034.308594
183.045517 8094.291016
185.060532 13564.985352
187.039154 89534.703125
188.454056 3978.934082
194.698883 3908.982666
197.059875 103718.367188
198.639282 4302.835938
199.076126 6956.023926
200.045822 4226.131836
201.054672 26516.281250
203.070404 17362.984375
211.038818 4265.240723
214.859253 4086.343506
215.070541 1173289.250000
215.425659 4763.957520
215.731735 3541.504395
216.073303 18391.451172
220.560745 4580.327637
225.054962 165469.765625
227.070633 36892.304688
229.049622 21714.191406
243.065567 867412.687500
244.068924 16022.901367
252.877167 4542.735352
253.049850 541404.000000
254.054169 18149.269531
270.415527 3907.910156
270.559540 11323.293945
270.866547 18067.031250
271.060547 3141893.750000
271.559753 5603.973145
271.736511 5294.725098
271.868958 14685.376953
272.063477 2519256.750000
272.260498 9162.535156

>ms2
73.225258 4094.636230
74.792336 3540.899658
75.021057 3782.843506
89.038300 4849.087402
104.096657 3892.715820
109.028130 4063.800049
111.007591 11310.718750
115.055046 6741.297363
119.049011 15132.079102
121.028046 30027.564453
124.356079 3609.036621
129.070435 4526.759277
131.049240 15380.033203
133.028183 36682.328125
141.070389 8053.284668
145.028442 287861.343750
146.030624 7987.355957
147.044312 10589.054688
149.023407 435735.718750
150.025986 10049.892578
153.018158 1589933.000000
154.021500 43244.054688
157.065063 8003.323242
158.723709 4680.625977
159.043915 302609.812500
160.047485 11642.598633
161.059753 5268.421875
165.018204 75200.828125
169.064713 46834.628906
173.059525 33223.902344
175.075653 8908.032227
177.017746 7655.869629
181.065247 22251.068359
183.044373 8438.159180
185.059082 16009.642578
187.039062 93275.843750
188.040222 5127.214844
193.785156 4087.718018
197.059830 114943.625000
198.062180 9889.906250
199.075439 5828.027832
201.054642 31152.125000
203.070541 15802.374023
211.037781 4903.286621
213.055618 5634.921875
214.932022 6306.017578
215.070465 1199892.375000
216.073730 72720.531250
225.054779 173871.875000
226.059906 9122.887695
227.069992 39971.175781
229.050491 18337.410156
231.722153 4368.054688
242.899918 5423.913086
243.065475 907661.062500
244.068939 57822.671875
249.194473 3952.061768
249.352448 3869.946289
253.049652 563727.437500
254.053192 44854.695312
270.867706 6237.068359
271.060455 1026577.875000
271.248352 4758.672363
271.566071 5236.685059
271.672821 5423.681152
271.867523 12149.901367
272.063538 1964671.250000
272.253204 4528.805176

