>compound CE68873842
>parentmass 150.05833000000004
>ionization [M+H]+
>formula C5H11NO2S
>rt 3850.296364
>profile orbitrap
#smiles_iso CSCCC(C(=O)O)N
#smiles_can CSCCC(C(=O)O)N
#inchikey FFEARJCKVFRZRR-UHFFFAOYSA-N
#pubchem_id 876
#mb_accession CE000442,CE000443,CE000444,CE000445,CE000446,CE000447,CE000448,CE000449,CE000450,CE000451,CE000452

>ms2
56.049568 3221.168945
102.054802 6093.296387
104.052811 181967.500000
133.021927 2995.847900
133.024216 3770.580811
133.025345 4305.093750
133.026413 3647.872559
133.027649 4031.245850
133.031830 659110.750000
133.035782 3035.970947
133.036957 4460.300781
133.037949 3278.758545
133.039276 4124.245117
133.042755 2872.437256
150.058273 58042.183594

>ms2
56.049545 2923.359863
102.054665 4269.934570
104.052803 162156.406250
133.023010 2967.274658
133.024124 3268.713623
133.025391 4607.703613
133.026474 3832.639160
133.031799 663836.187500
133.035782 4060.121582
133.036972 5075.323242
133.037781 3095.157471
133.040405 3422.813721
133.042755 3074.325439
299.255219 3432.151611
299.262390 3173.909180

>ms2
104.052795 66500.078125
133.031876 312054.125000
150.044983 3236.605469
150.047623 3063.368164
150.049026 3369.915527
150.050537 5096.852051
150.051651 3668.701416
150.053070 4712.436035
150.058243 682523.187500
150.063110 3994.289795
150.064255 4546.786621
150.065659 4802.834961
150.066788 2929.413330
150.068542 4210.762207
150.069824 2859.291260
150.072708 2904.867676
299.243561 3890.281250

>ms2
56.049557 10977.581055
61.010815 2950.337402
87.026260 2817.877441
102.054802 17267.382812
104.052727 40092.101562
133.031769 142781.343750
150.058228 42268.421875
299.211243 2959.121582
299.237885 3603.006104

>ms2
102.054718 3689.635498
104.052795 153854.562500
133.023041 3569.920654
133.024124 2888.627441
133.026566 5549.880859
133.031784 614619.250000
133.035812 3277.467529
133.036789 2820.394531
133.038101 4131.034668
133.039200 3255.191650
150.058182 47188.453125
299.242950 3325.364746

>ms2
56.049500 3427.384521
102.054825 9403.632812
104.052711 9874.443359
133.031677 23263.492188
299.223450 5528.899902
299.240509 3079.081787

>ms2
56.049568 6707.272949
87.026245 3537.415283
102.054817 14138.818359
104.052704 46532.191406
133.031784 148004.156250
150.058212 77151.132812
299.226868 2907.759766
299.234985 5239.328125

>ms2
56.049545 7919.449219
61.010834 2981.923096
102.054871 18134.031250
104.052750 26752.613281
133.031769 64494.675781
150.026459 2929.279785
150.058304 8093.994141
299.241547 7011.326660

>ms2
56.049568 10364.962891
102.054855 18146.423828
104.052696 34144.609375
133.031738 98480.929688
150.058105 19117.875000
299.228790 4981.846680

>ms2
56.049541 5285.685547
61.010792 4148.022461
102.054718 10928.064453
104.052689 18782.400391
133.031708 39786.851562
150.058334 4226.622559
299.247253 5006.340820

>ms2
104.052841 62641.238281
133.031921 289807.812500
150.038239 3494.825684
150.046448 2899.973145
150.048950 2798.936279
150.050446 3743.428223
150.051987 4732.408203
150.054855 7003.437500
150.058304 693750.750000
150.063202 4412.176758
150.065689 3819.309814
150.067154 4191.117676
150.069916 3191.260254
150.074142 3004.931152
299.242279 4521.120605

