>compound CE76588252
>parentmass 354.1336
>ionization [M+H]+
>formula C20H19NO5
>rt 570.092500
>profile orbitrap
#smiles_iso CN1CC2=C(C=CC3=C2OCO3)[C@@H]4[C@H]1C5=CC6=C(C=C5C[C@@H]4O)OCO6
#smiles_can CN1CC2=C(C=CC3=C2OCO3)C4C1C5=CC6=C(C=C5CC4O)OCO6
#inchikey GHKISGDRQRSCII-ZOCIIQOWSA-N
#pubchem_id 197810
#mb_accession CE000133,CE000134

>ms2peaks
97.122063 12263.924805
100.991241 14292.567383
110.130775 14409.132812
119.882935 15182.294922
123.095650 13442.433594
123.352730 14380.697266
131.528809 12785.733398
135.043915 221480.078125
140.471741 13793.851562
143.048584 25393.037109
149.022644 45562.828125
161.059799 130821.078125
163.039093 98632.671875
170.337509 15445.883789
173.059601 161833.687500
176.070419 38333.316406
188.071930 20834.064453
188.454529 15425.666016
189.658966 12847.643555
228.244888 16269.840820
245.759796 14128.977539
247.075241 406999.218750
265.085846 83295.398438
267.067780 24391.828125
274.558594 39461.164062
274.870728 63387.605469
275.070374 8851581.000000
275.270172 39959.148438
275.581696 30721.853516
276.073364 247559.125000
279.066559 27312.625000
293.080994 277424.593750
295.096741 2105452.250000
296.099274 47948.324219
304.482910 59673.140625
304.848267 67528.414062
305.080750 10540546.000000
305.314117 39675.496094
305.678680 33861.203125
306.084137 294427.875000
307.096039 84992.203125
322.033752 17748.523438
322.441071 90682.187500
322.667816 27406.382812
322.837219 126044.953125
323.091156 18707118.000000
323.742310 65139.027344
324.094208 562659.375000
328.515259 15313.255859
336.122192 1455075.875000
337.126617 58400.410156
338.136688 34164.839844
346.606018 14669.226562
354.133209 1408544.875000
354.388855 36835.667969
354.662537 13491.262695
354.843292 47078.886719
355.136444 6980167.500000
355.431610 29498.412109

>ms2peaks
99.381905 14945.600586
117.604271 15582.687500
117.745262 15452.914062
120.960564 19017.753906
134.811676 15455.718750
135.043762 289319.562500
143.048691 41416.179688
149.023270 53296.687500
150.130493 14179.916016
151.038895 23412.312500
154.426270 14977.632812
161.059433 140460.296875
163.038956 105247.468750
173.059280 184460.765625
176.070953 55492.812500
181.128632 16967.166016
188.454117 17486.871094
242.012497 16419.937500
247.075470 404792.312500
265.085968 83115.078125
267.065277 25043.974609
274.558197 40552.968750
274.740021 16000.258789
274.870697 62435.691406
275.070221 10553674.000000
275.265961 34988.183594
275.580780 23097.886719
276.073120 275440.125000
277.089508 15938.228516
278.322021 21861.173828
279.066132 46338.242188
293.080994 339320.187500
295.096619 2606483.500000
296.099091 44535.433594
302.441864 24544.033203
304.289703 17394.996094
304.481537 51728.125000
304.692505 31146.109375
304.847809 79893.062500
305.080658 12296324.000000
305.307495 37513.226562
305.470673 19424.203125
305.681030 44684.632812
306.084381 247210.562500
307.096283 92225.703125
322.002960 21654.107422
322.132996 19328.585938
323.090973 22080202.000000
323.339386 75778.289062
323.514313 37334.835938
323.746948 66438.789062
324.094788 464599.000000
329.494965 15130.567383
336.122070 1769652.000000
337.125977 51037.750000
338.139465 50472.628906
339.158691 17019.753906
354.133026 1293757.250000
354.383392 30273.107422
354.842072 37017.933594
355.136353 6154083.000000
355.422699 21227.328125
355.888214 26202.855469

