>compound CE83330170
>parentmass 175.11895999999993
>ionization [M+H]+
>formula C6H14N4O2
>rt 5363.470000
>profile orbitrap
#smiles_iso C(CC(C(=O)O)N)CN=C(N)N
#smiles_can C(CC(C(=O)O)N)CN=C(N)N
#inchikey ODKSFYDXXFIFQN-UHFFFAOYSA-N
#pubchem_id 232
#mb_accession CE000262,CE000263,CE000264,CE000265,CE000266,CE000267,CE000268,CE000269,CE000270,CE000271,CE000272,CE000273,CE000274,CE000275,CE000276

>ms2
116.070549 163868.218750
130.097488 96514.070312
157.108353 248753.796875
158.092346 260115.390625
175.119064 1597371.750000

>ms2
116.070534 150866.250000
130.097473 93455.750000
157.108322 193792.609375
158.092346 229817.781250
175.118927 25645.740234

>ms2
70.065170 390277.312500
116.070511 72842.054688
130.097519 76350.843750

>ms2
116.070503 258625.906250
130.097488 134632.578125
157.108322 334425.656250
158.092316 398607.906250
175.118988 38266.218750

>ms2
116.070488 244906.125000
130.097488 148776.359375
157.108322 297784.406250
158.092285 360655.968750

>ms2
116.070518 29010.777344
175.119049 99187.125000

>ms2
70.065170 400532.406250
116.070534 205202.000000
130.097504 173215.421875
175.119019 24617.234375

>ms2
60.055737 28385.697266
70.065147 390498.500000
112.086792 25971.912109
116.070496 318404.312500
130.097504 217938.562500
158.092377 42518.863281
175.119019 71195.218750

>ms2
70.065178 279998.968750
116.070435 28455.871094
130.097427 31947.271484

>ms2
116.070564 26457.917969
157.108475 103156.445312
158.092453 56323.007812
175.104523 27232.890625
175.108627 27554.388672
175.109909 33059.234375
175.112823 32293.896484
175.119217 5806716.500000
175.127243 34995.363281
175.129257 28016.669922
175.130829 25406.152344
175.132492 28201.191406
175.135880 25378.933594

>ms2
116.070541 116604.851562
130.097488 64573.496094
157.108322 144597.156250
158.092346 184129.640625

>ms2
60.055763 29305.279297
70.065170 386628.312500
112.086800 34057.734375
116.070511 449480.593750
130.097549 276732.812500
158.092377 94292.187500
175.119080 219173.015625

>ms2
175.118973 29887.640625

>ms2
70.065140 446173.343750
116.070488 142715.656250
130.097458 136317.250000

>ms2
116.070595 204829.171875
130.097580 135197.593750
157.108444 322696.125000
158.092438 333616.343750
175.111206 26780.306641
175.119156 3490354.000000
175.128662 26056.916016

