>compound CE92708961
>parentmass 352.16155
>ionization [M+H]+
>formula C15H21N5O5
>rt 2.496100
>profile orbitrap
#smiles_iso C/C(=C\CNC1=C2C(=NC=N1)N(C=N2)[C@H]3[C@@H]([C@@H]([C@H](O3)CO)O)O)/CO
#smiles_can CC(=CCNC1=C2C(=NC=N1)N(C=N2)C3C(C(C(O3)CO)O)O)CO
#inchikey GOSWTRUMMSCNCW-HNNGNKQASA-N
#pubchem_id 6440982
#mb_accession CE000542

>ms2peaks
96.537315 536.410095
96.579926 570.103333
97.351776 493.556946
98.354996 476.565948
99.210602 519.592163
100.132950 527.989685
102.836815 510.764435
106.911621 513.172791
107.490150 601.791382
109.637444 615.183899
109.712868 1436.861206
110.550537 609.008362
112.532990 487.014435
114.529243 580.856445
115.053078 518.422363
118.101685 524.374756
122.336700 479.392090
127.299553 614.704163
130.049271 586.899597
131.106918 546.833069
131.154633 516.304688
136.910583 495.785522
138.650238 527.687256
139.600998 475.359589
145.885452 505.582916
146.108658 554.435059
152.256348 620.263550
153.146484 606.978271
153.356506 598.576477
154.238327 639.195862
155.505280 576.363464
164.435089 611.077881
165.715225 677.419861
167.688644 603.314941
168.525024 537.543091
169.421906 545.655334
182.953690 547.011169
187.697495 541.575317
188.018738 1371.848022
189.298935 513.030396
196.646820 580.711182
202.614746 531.187683
204.583084 543.057129
209.672867 482.775818
213.255524 651.053223
214.318741 624.495544
214.817581 512.146484
218.070892 559.092285
220.118851 5531.493652
227.179779 581.648987
227.952637 592.628479
236.986252 542.260010
237.142227 541.500732
242.471436 575.680664
245.445053 523.871582
253.433685 537.896484
254.424942 553.082825
260.968597 589.704956
262.208130 513.090454
281.342010 483.887787
291.564240 1624.493408
291.574188 1517.934204
298.210632 665.917664
299.079254 1346.244873
299.105103 6989.906738
299.121765 654.261353
299.130554 1059.350708
301.658661 521.545959
306.864899 576.659668
315.605835 469.156433
318.350708 555.796204
320.591187 523.138428
322.675354 608.829407
330.841064 566.067688
333.037659 556.135864
339.208313 630.795898
340.731628 564.930664
353.738037 485.291260
361.180756 678.640564
365.963104 551.088867
367.426514 517.045532
383.770142 568.490417
396.218689 534.966431
397.164642 573.889099
397.782837 609.836487

