>compound CE93419671
>parentmass 303.04993
>ionization [M+H]+
>formula C15H10O7
>rt 733.722000
>profile orbitrap
#smiles_iso C1=CC(=C(C=C1C2=C(C(=O)C3=C(C=C(C=C3O2)O)O)O)O)O
#smiles_can C1=CC(=C(C=C1C2=C(C(=O)C3=C(C=C(C=C3O2)O)O)O)O)O
#inchikey REFJWTPEDVJJIY-UHFFFAOYSA-N
#pubchem_id 5280343
#mb_accession CE000168,CE000169,CE000170

>ms2peaks
84.585587 3933.881836
93.033134 3878.165283
101.779610 3392.497559
109.028229 15439.627930
109.711578 4340.135254
111.007355 36990.761719
121.028114 70668.078125
123.082275 4507.222168
127.038353 5030.144043
135.043365 7020.680664
137.023163 205245.718750
145.063843 4499.800781
147.045242 5024.588867
149.023178 79084.578125
153.018036 186711.578125
155.219711 3824.793701
161.059799 50056.265625
161.579605 3406.279297
163.038818 60730.246094
165.018112 567036.937500
166.026489 30882.003906
166.957855 4080.681885
168.781387 3637.419434
173.059433 24131.716797
177.018448 15551.778320
183.044296 9310.046875
185.058762 10888.899414
187.039139 34600.308594
191.033508 20166.978516
193.050293 12425.126953
195.028717 57845.589844
201.054565 135291.734375
205.049713 31662.312500
211.039886 4987.795410
213.054535 67432.109375
215.033997 32800.296875
217.048950 4897.437988
219.064774 41472.789062
228.898575 5956.863281
229.049530 959425.312500
230.052841 16910.240234
233.045898 10678.456055
239.033356 20778.023438
241.049942 11089.843750
243.029129 7232.734375
247.060272 282201.156250
248.062073 5897.393555
256.863495 6595.407227
257.044586 1070370.375000
258.048859 18572.945312
261.035339 5228.348145
267.029022 8474.281250
274.047363 161750.500000
275.055328 79253.343750
277.284393 4212.738770
285.039612 527083.625000
286.042206 13735.431641
294.618744 3707.925537
302.052155 5877.812988
302.456787 29110.330078
303.049866 6136927.500000
303.647430 25544.492188
303.818787 9639.877930
304.052795 2029252.000000
304.285614 11232.337891
304.646606 7494.232422
307.559784 3630.288086

>ms2peaks
84.837936 2643.476074
107.205513 2859.473145
109.028145 18428.505859
111.007370 45087.539062
112.695389 2879.635254
121.028114 66539.156250
127.039261 6071.553711
135.043564 4206.478516
137.023178 226660.656250
145.064575 7704.795898
149.023254 80531.398438
151.804108 3100.965332
153.018066 208667.296875
155.048386 3388.022949
157.064804 5571.603516
158.265488 3066.534912
159.044785 3745.688965
161.059525 65009.335938
161.347000 3151.250000
163.038925 62568.609375
165.018097 633778.375000
166.026428 27365.150391
173.059479 24230.179688
175.037735 3545.592285
177.017960 17153.492188
180.721786 2945.892334
183.044525 13793.991211
183.757446 2506.295410
185.059891 11518.020508
187.038879 40045.921875
189.017212 3133.604492
191.034058 19104.865234
193.049271 7643.494141
195.028671 70031.703125
197.765182 2810.737305
201.054504 158380.796875
205.049454 31687.019531
207.028702 5424.160645
211.039185 4299.089355
213.054520 74462.960938
214.056702 3222.467773
215.034042 39261.355469
217.048462 6499.131836
219.065125 42197.753906
220.618973 3589.245850
223.037109 4782.467773
228.039764 3558.627930
228.659180 6593.649902
228.898651 6050.999512
229.049500 1063286.250000
229.201508 4526.692871
229.435577 3264.105713
230.052673 27610.740234
233.044876 8347.357422
239.034012 26131.357422
241.049515 13857.343750
243.028168 4489.228516
246.051117 5897.457520
247.060287 297834.718750
248.063309 7844.801758
256.576080 5471.593750
256.865631 4464.422852
257.044464 1165203.625000
257.222870 3887.055176
258.047913 34023.574219
261.038788 7521.971191
267.030151 8239.254883
274.047211 185890.156250
275.054779 74869.203125
276.059540 3381.362061
280.698792 2734.743896
284.504791 2414.481934
284.827362 4592.653320
285.039429 572873.750000
285.614594 2915.989502
286.043427 21113.486328
294.887573 2876.890137
302.446350 6800.860840
302.820099 8681.856445
303.049957 1393286.250000
303.451752 8213.565430
303.664825 4912.870117
303.820557 10852.897461
304.052979 1804166.750000
304.284363 7227.760742
304.441467 3556.022461
304.645721 4387.067871

>ms2peaks
83.377533 2467.238770
84.856705 2597.986572
85.451431 2891.833496
93.033463 5611.109863
93.480858 2833.769531
100.445328 3039.239990
105.179283 3181.311035
107.011978 3895.106201
109.028023 16386.480469
111.007339 52172.253906
117.479103 2599.424561
121.028183 84834.351562
123.043892 6157.637207
127.038109 8931.414062
135.044205 7241.353516
137.023117 247225.140625
138.026520 4893.026855
145.064545 6916.159668
145.881287 3031.618164
147.043289 3269.060547
149.023071 88980.992188
153.018021 229691.906250
154.022125 7188.224121
156.526993 2726.162109
157.063766 6494.503418
159.042908 6718.572754
161.059464 67068.539062
163.038818 75068.023438
164.775772 3603.690918
165.018051 712296.937500
166.027969 26291.898438
173.059387 27873.925781
175.039520 4373.771484
177.018600 19533.525391
183.044235 16917.468750
185.059052 13148.470703
187.039001 39011.605469
188.437698 2923.941406
189.054810 3198.632568
191.033768 20198.441406
193.049316 10552.937500
194.023621 4029.336182
195.028763 77596.523438
201.054459 173918.765625
202.056183 6591.321289
205.049347 35795.253906
207.029343 5012.026367
211.038971 8979.331055
213.054626 74237.992188
213.612640 2591.081543
214.057083 4313.825195
215.033829 44269.386719
219.028778 49463.386719
220.066223 3094.349854
223.040909 3491.785645
228.041641 3780.370850
228.655930 5019.938965
228.898315 7523.017578
229.049408 1150833.875000
229.200089 3898.339355
229.444595 3562.762451
230.052673 58909.242188
233.044189 11595.249023
239.034073 29062.140625
241.050461 13866.695312
243.028748 3993.534424
246.051910 6329.791504
247.060135 324868.718750
248.063736 15158.282227
256.573273 5911.269531
256.864441 9096.973633
257.044373 1245371.500000
257.220856 5217.629883
257.515808 3976.833740
258.047363 79304.554688
259.416779 3194.420654
261.040924 6501.762695
267.028534 6072.290527
274.047089 206631.328125
275.054688 85666.726562
276.057404 5323.821777
284.830292 5010.854980
285.039246 601712.375000
286.042450 37306.367188
302.456970 4240.601562
303.049774 632698.187500
303.453339 4724.719727
303.658844 3801.708252
303.822784 7202.182617
304.052979 1246279.875000
304.282349 4114.010742
304.654175 4511.935059
316.210083 3676.867920

