>compound AU00744613
>parentmass 721.32
>ionization [M+H]+
>formula C37H48N6O5S2
>rt 96.924000
>profile qtof
#smiles_iso CC(C)C1=NC(=CS1)CN(C)C(=O)N[C@@H](C(C)C)C(=O)N[C@@H](CC2=CC=CC=C2)C[C@@H]([C@H](CC3=CC=CC=C3)NC(=O)OCC4=CN=CS4)O
#smiles_can CC(C)C1=NC(=CS1)CN(C)C(=O)NC(C(C)C)C(=O)NC(CC2=CC=CC=C2)CC(C(CC3=CC=CC=C3)NC(=O)OCC4=CN=CS4)O
#inchikey NCDNCNXCDXHOMX-XGKFQTDJSA-N
#pubchem_id 392622
#mb_accession AU219207,AU219208,AU219209,AU219210,AU219211

>ms2
171.095800 7732.000000
268.149800 10640.000000
296.144900 107228.000000
297.148000 13208.000000
426.188000 30404.000000
427.190800 7212.000000
721.327200 599524.000000
722.330200 248084.000000
723.328200 81752.000000

>ms2
140.053500 11232.000000
171.095800 104204.000000
197.075100 14612.000000
268.149400 98212.000000
269.152400 13332.000000
296.144800 1087412.000000
297.147700 132660.000000
426.187900 180244.000000
427.190500 39808.000000
428.188000 8944.000000
551.235900 6492.000000
721.326200 120080.000000
722.329500 53740.000000

>ms2
140.053300 52424.000000
171.095700 274588.000000
173.091200 7956.000000
197.075200 108524.000000
250.159800 5856.000000
268.149600 853964.000000
269.152200 96880.000000
296.144700 1058720.000000
297.147600 125700.000000
311.178300 5608.000000
382.196200 7916.000000
426.187700 156920.000000
427.190500 38208.000000
428.188300 9088.000000
507.245800 19688.000000
508.250200 6772.000000
533.224300 6144.000000

>ms2
140.053700 139244.000000
142.049100 4732.000000
169.080300 7320.000000
171.096200 329820.000000
197.075800 468468.000000
250.160500 22476.000000
268.150200 925292.000000
270.146700 25792.000000
296.145200 175768.000000
297.147800 27268.000000
311.177300 9788.000000
347.160100 9572.000000
365.170700 15312.000000
382.198700 11156.000000
408.176100 6380.000000
426.188300 40464.000000
427.190700 10652.000000
507.246400 7384.000000

>ms2
140.053400 447024.000000
142.049200 12800.000000
169.079800 7708.000000
171.095900 353560.000000
173.091300 10108.000000
197.075500 1023344.000000
217.079900 5916.000000
250.160200 44952.000000
266.154900 5280.000000
268.149600 394224.000000
270.146300 12660.000000
296.144500 19052.000000
347.159900 19580.000000
348.161300 5444.000000
365.170700 10836.000000
382.197400 5420.000000
426.187000 6520.000000

