>compound AU00887556
>parentmass 349.1771
>ionization [M+H]+
>formula C19H20N6O
>rt 398.076000
>profile qtof
#smiles_iso C1CN=C(N1)C2=CC(=CC=C2)NC(=O)NC3=CC=CC(=C3)C4=NCCN4
#smiles_can C1CN=C(N1)C2=CC(=CC=C2)NC(=O)NC3=CC=CC(=C3)C4=NCCN4
#inchikey SCEVFJUWLLRELN-UHFFFAOYSA-N
#pubchem_id 21389
#mb_accession AU117007,AU117008,AU117009,AU117010,AU117011

>ms2peaks
151.097500 416.000000
304.008000 1880.000000
305.014600 568.000000
349.183200 456.000000

>ms2peaks
151.096600 304.000000
162.102900 6020.000000
163.106500 628.000000
188.082000 7340.000000
189.085700 976.000000
304.009700 8640.000000
305.015400 1616.000000
306.132500 432.000000
348.162800 320.000000
349.178800 30204.000000
350.181500 6184.000000

>ms2peaks
162.102800 15944.000000
163.106400 1624.000000
188.082400 28900.000000
189.086000 3860.000000
190.088100 380.000000
232.025900 376.000000
260.020400 1772.000000
261.025200 432.000000
262.019100 324.000000
276.013300 1068.000000
277.020900 528.000000
304.010400 5740.000000
305.013100 1160.000000
306.136100 1672.000000
307.139000 516.000000
349.179800 5800.000000
350.183300 1088.000000

>ms2peaks
145.039100 1188.000000
159.058300 376.000000
162.102800 11852.000000
163.105400 1512.000000
188.082200 39108.000000
189.085100 5608.000000
217.001900 340.000000
232.025700 1180.000000
248.019800 364.000000
260.020600 1716.000000
276.014700 1048.000000
277.021100 596.000000
304.011000 1388.000000
306.135700 612.000000

>ms2peaks
145.039500 1628.000000
159.057000 540.000000
162.102800 3088.000000
188.082400 12832.000000
189.085100 1664.000000

