>compound AU02629875
>parentmass 144.1747
>ionization [M+H]+
>formula C9H21N
>rt 346.725000
>profile qtof
#smiles_iso CCCN(CCC)CCC
#smiles_can CCCN(CCC)CCC
#inchikey YFTHZRPMJXBUME-UHFFFAOYSA-N
#pubchem_id 7616
#mb_accession AU510307,AU510308,AU510309,AU510310

>ms2
144.173100 1844340.000000
145.176100 158412.000000

>ms2
144.173400 2017020.000000
145.176000 216292.000000
146.179200 10744.000000

>ms2
144.172300 41436.000000
145.175300 4712.000000

>ms2
144.172100 508.000000

