>compound AU02289708
>parentmass 134.0713
>ionization [M+H]+
>formula C7H7N3
>rt 94.104000
>profile qtof
#smiles_iso CC1=CC2=NNN=C2C=C1
#smiles_can CC1=CC2=NNN=C2C=C1
#inchikey LRUDIIUSNGCQKF-UHFFFAOYSA-N
#pubchem_id 8705
#mb_accession AU405107,AU405108,AU405109,AU405110,AU405111

>ms2
134.072400 2214540.000000
135.075100 153760.000000

>ms2
134.072000 878068.000000
135.075200 54092.000000

>ms2
119.048200 368.000000
134.071700 63120.000000
135.075300 4296.000000

>ms2
119.047800 556.000000
134.071300 3640.000000

>ms2
134.069700 544.000000

