>compound AU02424063
>parentmass 342.1852
>ionization [M+H]+
>formula C24H23NO
>rt 81.444000
>profile qtof
#smiles_iso CCCCCN1C=C(C2=CC=CC=C21)C(=O)C3=CC=CC4=CC=CC=C43
#smiles_can CCCCCN1C=C(C2=CC=CC=C21)C(=O)C3=CC=CC4=CC=CC=C43
#inchikey JDNLPKCAXICMBW-UHFFFAOYSA-N
#pubchem_id 10382701
#mb_accession AU170607,AU170608,AU170609,AU170610,AU170611

>ms2
155.048600 17976.000000
342.187400 2484832.000000
343.188900 944040.000000
344.191800 83348.000000

>ms2
145.063900 9096.000000
155.048700 514840.000000
156.052000 49756.000000
214.122600 112004.000000
215.125300 14612.000000
342.185800 1557048.000000
343.188800 366876.000000
344.191600 39092.000000

>ms2
127.053700 64168.000000
144.043700 49732.000000
145.064200 81276.000000
155.048800 2022228.000000
156.051900 166348.000000
157.054600 10832.000000
214.122300 420788.000000
215.125500 47388.000000
342.185200 184992.000000
343.188200 44288.000000

>ms2
126.045900 16628.000000
127.053600 212572.000000
128.056900 19172.000000
144.043700 157028.000000
145.046500 12932.000000
145.064200 251988.000000
146.067300 21388.000000
155.048700 1227040.000000
156.051900 100140.000000
214.121900 152096.000000
215.125100 20648.000000

>ms2
116.049100 16072.000000
117.069800 5252.000000
126.046100 34708.000000
127.053900 416156.000000
144.044100 165416.000000
145.064400 405652.000000
155.048400 280224.000000
156.053300 35588.000000
214.122700 26376.000000

