>compound AU02552249
>parentmass 266.1652
>ionization [M+H]+
>formula C17H19N3
>rt 361.956000
>profile qtof
#smiles_iso CN1CCN2C(C1)C3=CC=CC=C3CC4=C2N=CC=C4
#smiles_can CN1CCN2C(C1)C3=CC=CC=C3CC4=C2N=CC=C4
#inchikey RONZAEMNMFQXRA-UHFFFAOYSA-N
#pubchem_id 4205
#mb_accession AU155107,AU155108,AU155109,AU155110,AU155111

>ms2
195.091300 98836.000000
196.094000 14216.000000
209.106700 23944.000000
266.163400 2513280.000000
266.170000 2442900.000000

>ms2
194.083100 15448.000000
195.091500 2052688.000000
196.094600 272536.000000
197.097800 13056.000000
209.107100 442564.000000
210.110000 51324.000000
223.122700 84964.000000
224.125800 12788.000000
235.122500 86588.000000
236.125100 15972.000000
264.149100 49160.000000
266.165500 2413536.000000
267.168200 515692.000000
268.170800 32320.000000

>ms2
115.053800 15980.000000
144.079900 23128.000000
167.071700 16968.000000
168.079000 16060.000000
180.079800 48676.000000
182.095400 58708.000000
192.079700 16408.000000
194.083100 158128.000000
195.092100 2507960.000000
197.097100 26248.000000
207.090500 22704.000000
209.106600 757408.000000
210.109900 80548.000000
218.094900 12888.000000
219.091300 18120.000000
220.097900 20776.000000
223.122200 92112.000000
224.125100 12604.000000
235.122200 128824.000000
236.125000 22096.000000
264.148400 33128.000000
266.164600 155236.000000
267.167500 25960.000000

>ms2
115.053800 30120.000000
130.064600 21072.000000
131.059800 15912.000000
131.071900 20696.000000
133.075600 14080.000000
144.080000 33156.000000
165.069300 13400.000000
167.072200 85428.000000
168.079600 81208.000000
178.064500 52848.000000
179.071500 46504.000000
180.080000 105360.000000
181.084500 22136.000000
182.095300 58328.000000
192.079800 28568.000000
193.075900 25616.000000
194.083300 880768.000000
195.091800 2501528.000000
196.094500 476508.000000
197.097400 21156.000000
206.082900 17972.000000
207.091000 45508.000000
208.098000 19028.000000
209.106900 287892.000000
210.110100 30488.000000
219.091200 55460.000000
220.097600 25660.000000
221.105500 16180.000000
223.122300 24968.000000
235.122400 31056.000000

>ms2
115.053900 38672.000000
116.049000 12524.000000
117.044200 14052.000000
128.061100 9888.000000
130.064700 41624.000000
131.059700 18772.000000
131.071700 21244.000000
139.053800 12912.000000
141.069200 32540.000000
144.080000 35320.000000
151.053700 31728.000000
152.060800 29260.000000
153.057800 16148.000000
153.068200 16984.000000
154.064300 19844.000000
165.068900 27008.000000
166.064500 41084.000000
167.072400 253116.000000
168.079600 194400.000000
169.064700 17552.000000
177.056800 18120.000000
178.064500 118476.000000
179.071600 115560.000000
180.079800 155924.000000
182.095200 24244.000000
191.072100 24724.000000
192.078500 23632.000000
193.075600 106896.000000
194.083400 1864292.000000
195.091100 1973008.000000
197.097900 10120.000000
205.075600 25436.000000
206.081900 21312.000000
207.090900 45732.000000
208.097600 18608.000000
209.106600 64044.000000
218.083900 17508.000000
219.090900 74588.000000
220.095700 15944.000000
221.106100 10636.000000

