>compound AU05911285
>parentmass 408.1254
>ionization [M+H]+
>formula C16H15F6N5O
>rt 377.748000
>profile qtof
#smiles_iso C1CN2C(=NN=C2C(F)(F)F)CN1C(=O)C[C@@H](CC3=CC(=C(C=C3F)F)F)N
#smiles_can C1CN2C(=NN=C2C(F)(F)F)CN1C(=O)CC(CC3=CC(=C(C=C3F)F)F)N
#inchikey MFFMDFFZMYYVKS-SECBINFHSA-N
#pubchem_id 4369359
#mb_accession AU225707,AU225708,AU225709,AU225710,AU225711

>ms2
174.052900 8624.000000
193.070600 11696.000000
235.081300 44128.000000
408.128800 1138012.000000
409.131700 159876.000000
410.133900 11412.000000

>ms2
127.036200 1572.000000
154.047900 1428.000000
174.053400 63788.000000
193.070800 87636.000000
235.082000 215472.000000
236.084400 15844.000000
391.101800 16016.000000
392.105000 3664.000000
408.129000 123224.000000
409.131500 21648.000000
410.131100 2060.000000

>ms2
127.035700 13700.000000
138.028100 5388.000000
154.046900 21144.000000
171.042200 12888.000000
174.053400 492612.000000
193.070800 413448.000000
194.073100 22592.000000
199.037500 3632.000000
219.050300 4208.000000
235.081800 351948.000000
236.084000 26616.000000
237.060800 2800.000000
391.101800 33468.000000
392.104200 6472.000000
408.127600 9092.000000

>ms2
127.036200 53184.000000
128.039800 3440.000000
134.040800 4328.000000
137.033200 3244.000000
138.028200 17860.000000
145.026700 3728.000000
151.035900 6984.000000
153.038600 3940.000000
154.047200 65036.000000
165.039300 3144.000000
168.038400 6732.000000
171.042400 31060.000000
174.053800 484988.000000
175.056600 33652.000000
176.044000 2872.000000
193.071100 312540.000000
194.073700 18108.000000
199.038600 3064.000000
219.049800 3116.000000
235.082000 67372.000000
236.084200 7444.000000
391.101900 4708.000000

>ms2
118.021500 1372.000000
127.035900 84368.000000
128.039500 6736.000000
134.041100 6224.000000
135.044700 1104.000000
137.020900 1048.000000
137.032500 2272.000000
138.028000 17032.000000
139.030400 1120.000000
145.026700 6796.000000
150.028400 2848.000000
151.035900 11656.000000
152.050800 1116.000000
153.039200 5100.000000
154.047200 77256.000000
157.026500 3140.000000
164.043700 1028.000000
165.038800 2756.000000
168.038600 10316.000000
169.026400 1084.000000
171.042200 16640.000000
174.053600 188812.000000
175.056700 13420.000000
176.043900 1800.000000
193.070800 82580.000000
194.073200 6184.000000
199.038800 1076.000000
235.081200 6096.000000

