>compound AU07404708
>parentmass 132.1019
>ionization [M+H]+
>formula C6H13NO2
>rt 424.920000
>profile qtof
#smiles_iso CCC(C)C(C(=O)O)N
#smiles_can CCC(C)C(C(=O)O)N
#inchikey AGPKZVBTJJNPAG-UHFFFAOYSA-N
#pubchem_id 791
#mb_accession AU515307

>ms2peaks
130.084600 340.000000
132.100400 4300.000000

