>compound AU08655070
>parentmass 916.5264
>ionization [M+H]+
>formula C46H77NO17
>rt 376.260000
>profile qtof
#smiles_iso CC[C@@H]1[C@H](/C=C(/C=C/C(=O)[C@@H](C[C@@H]([C@@H]([C@H]([C@@H](CC(=O)O1)O)C)O[C@H]2[C@@H]([C@H]([C@@H]([C@H](O2)C)O[C@H]3C[C@@]([C@H]([C@@H](O3)C)O)(C)O)N(C)C)O)CC=O)C)\C)CO[C@H]4[C@@H]([C@@H]([C@@H]([C@H](O4)C)O)OC)OC
#smiles_can CCC1C(C=C(C=CC(=O)C(CC(C(C(C(CC(=O)O1)O)C)OC2C(C(C(C(O2)C)OC3CC(C(C(O3)C)O)(C)O)N(C)C)O)CC=O)C)C)COC4C(C(C(C(O4)C)O)OC)OC
#inchikey WBPYTXDJUQJLPQ-VMXQISHHSA-N
#pubchem_id 5280440
#mb_accession AU105707,AU105708,AU105709,AU105710,AU105711

>ms2
916.531400 749960.000000
917.534200 382140.000000
918.536600 103624.000000

>ms2
174.112100 10980.000000
772.447700 8308.000000
916.531100 972980.000000
917.533800 488820.000000
918.534900 125288.000000

>ms2
127.074700 6332.000000
145.085400 12236.000000
174.112100 112820.000000
175.115100 8000.000000
318.191200 25700.000000
407.243100 6588.000000
772.449600 93456.000000
773.452000 35788.000000
774.457300 9436.000000
916.531100 928544.000000
917.534000 501080.000000
918.535500 126676.000000

>ms2
127.075300 46340.000000
132.101800 50508.000000
145.085900 114312.000000
146.089300 8052.000000
156.101900 31980.000000
174.112700 1579068.000000
175.115700 93796.000000
176.117400 8244.000000
232.154900 9644.000000
276.180900 23496.000000
318.191700 99392.000000
319.195200 16012.000000
389.233600 20888.000000
391.247900 8952.000000
407.243800 38824.000000
408.247100 10280.000000
409.258400 9876.000000
598.359900 29944.000000
599.364600 10044.000000
772.451100 408632.000000
773.455200 165192.000000
774.456800 35732.000000
916.532400 452080.000000
917.534300 245936.000000
918.536800 65640.000000

>ms2
116.070800 14876.000000
127.075400 90760.000000
132.102000 153076.000000
143.070000 15404.000000
145.085900 188120.000000
146.088900 14016.000000
156.102000 124096.000000
174.112900 2564132.000000
175.115900 211728.000000
176.117200 14808.000000
232.154500 27344.000000
276.181100 27128.000000
318.191700 54204.000000
389.232900 22584.000000
407.243700 30308.000000
598.360000 26172.000000
772.451500 99008.000000
773.454800 45968.000000
916.532300 28812.000000
917.537100 16600.000000

