>compound AU11900338
>parentmass 453.2748
>ionization [M+H]+
>formula C27H36N2O4
>rt 91.236000
>profile qtof
#smiles_iso CCOC1=C(C=CC(=C1)CC(=O)N[C@@H](CC(C)C)C2=CC=CC=C2N3CCCCC3)C(=O)O
#smiles_can CCOC1=C(C=CC(=C1)CC(=O)NC(CC(C)C)C2=CC=CC=C2N3CCCCC3)C(=O)O
#inchikey FAEKWTJYAYMJKF-QHCPKHFHSA-N
#pubchem_id 65981
#mb_accession AU218907,AU218908,AU218909,AU218910,AU218911

>ms2
162.128600 53716.000000
230.191900 58300.000000
292.155700 15528.000000
453.286100 2513280.000000

>ms2
162.128700 1861720.000000
163.132000 150228.000000
230.192500 2391064.000000
231.195600 379328.000000
232.198400 19476.000000
292.156900 574808.000000
293.160100 77152.000000
453.282600 2511440.000000

>ms2
146.096800 15832.000000
162.128400 2190832.000000
163.131800 198708.000000
174.128300 113012.000000
179.070800 26348.000000
189.055600 15204.000000
207.066000 38004.000000
230.194000 2512776.000000
231.195000 1820088.000000
232.198400 79952.000000
292.156200 306024.000000
293.159400 41428.000000
453.278300 492920.000000
454.281500 123592.000000
455.283500 16624.000000

>ms2
118.065800 20776.000000
130.065800 19168.000000
131.073300 13952.000000
132.081500 23928.000000
144.081500 20496.000000
146.097300 125512.000000
158.097200 15640.000000
159.104400 13356.000000
160.112600 17140.000000
162.128800 1041760.000000
163.132000 91688.000000
172.113100 51208.000000
173.119700 19972.000000
174.128800 829464.000000
175.132300 79840.000000
179.071400 68064.000000
189.055500 38968.000000
202.160100 38180.000000
207.066500 15356.000000
230.193700 2511408.000000
231.195600 1994020.000000
232.198900 90624.000000

>ms2
117.058300 20172.000000
118.066100 107760.000000
120.081700 31444.000000
130.065900 91352.000000
131.073500 62760.000000
132.081600 110540.000000
133.087100 12736.000000
144.081800 100500.000000
145.088900 38464.000000
146.097500 588356.000000
147.100700 43436.000000
158.097500 85580.000000
159.104900 63448.000000
160.112800 67812.000000
162.128900 535368.000000
163.131900 51948.000000
172.113500 305896.000000
173.120000 89908.000000
174.129100 2428064.000000
175.132600 224992.000000
179.071500 80556.000000
186.128900 54216.000000
187.135600 22028.000000
188.144600 32344.000000
189.055800 28396.000000
202.160600 105596.000000
203.164000 15260.000000
228.176100 21196.000000
230.194500 2512504.000000
231.195800 1432760.000000
232.198900 62988.000000

