>compound AU14613661
>parentmass 646.1497
>ionization [M+H]+
>formula C25H27N9O8S2
>rt 342.760000
>profile qtof
#smiles_iso CCN1CCN(C(=O)C1=O)C(=O)N[C@@H](C2=CC=C(C=C2)O)C(=O)N[C@H]3[C@@H]4N(C3=O)C(=C(CS4)CSC5=NN=NN5C)C(=O)O
#smiles_can CCN1CCN(C(=O)C1=O)C(=O)NC(C2=CC=C(C=C2)O)C(=O)NC3C4N(C3=O)C(=C(CS4)CSC5=NN=NN5C)C(=O)O
#inchikey GCFBRXLSHGKWDP-WJONJSRFSA-N
#pubchem_id 7048632
#mb_accession AU105007,AU105008,AU105011

>ms2
530.137700 2980.000000
531.138300 792.000000
532.138200 348.000000
646.153900 1256.000000

>ms2
133.084400 780.000000
143.081900 956.000000
177.112500 648.000000
199.124400 312.000000
227.126900 344.000000
290.114200 620.000000

>ms2
143.081100 4732.000000
144.085400 440.000000
148.039600 2016.000000
156.013400 464.000000

