>compound AU14398573
>parentmass 326.0855
>ionization [M+H]+
>formula C18H13ClFN3
>rt 121.176000
>profile qtof
#smiles_iso CC1=NC=C2N1C3=C(C=C(C=C3)Cl)C(=NC2)C4=CC=CC=C4F
#smiles_can CC1=NC=C2N1C3=C(C=C(C=C3)Cl)C(=NC2)C4=CC=CC=C4F
#inchikey DDLIGBOFAVUZHB-UHFFFAOYSA-N
#pubchem_id 4192
#mb_accession AU155907,AU155908,AU155909,AU155910,AU155911

>ms2
326.088400 2513360.000000

>ms2
244.031800 67020.000000
246.028900 18004.000000
249.081700 14080.000000
285.058600 40432.000000
290.108400 77740.000000
291.116300 362132.000000
292.119400 48388.000000
326.089900 2513280.000000

>ms2
170.082900 17788.000000
189.021100 13412.000000
189.081700 17124.000000
205.052200 30428.000000
208.055100 28624.000000
209.062900 147216.000000
210.066000 17764.000000
222.070200 15096.000000
223.078600 43448.000000
230.047200 39508.000000
231.053300 14340.000000
232.043600 13720.000000
244.032200 609412.000000
245.036000 71492.000000
246.029300 131436.000000
249.082000 198576.000000
250.088900 136432.000000
251.092800 15388.000000
257.038900 14400.000000
258.047700 83588.000000
259.050100 13788.000000
260.044500 20160.000000
265.052200 25468.000000
270.101700 18340.000000
284.050500 19588.000000
285.058800 309456.000000
286.061600 45556.000000
287.055800 80004.000000
290.108800 474920.000000
291.116800 2410992.000000
292.119700 422348.000000
293.122500 22428.000000
297.058300 15476.000000
299.074100 28880.000000
306.079200 26652.000000
309.059100 98976.000000
310.062100 21584.000000
311.058300 37840.000000
325.077500 30276.000000
326.086300 2504504.000000
327.088700 702692.000000
328.083000 1040296.000000

>ms2
128.048700 27308.000000
129.056600 97352.000000
137.014400 15580.000000
147.046800 13304.000000
148.054600 22512.000000
152.025200 26332.000000
162.009700 18388.000000
164.025200 48156.000000
169.074900 23704.000000
170.082900 72072.000000
173.049800 13712.000000
182.051400 19260.000000
183.059400 80484.000000
184.066700 63304.000000
189.020500 139004.000000
189.081400 31504.000000
190.024500 14580.000000
191.017700 33920.000000
196.067300 77692.000000
203.036200 12872.000000
203.071600 19044.000000
205.051700 50464.000000
208.055100 146632.000000
209.062800 1057528.000000
210.066100 101504.000000
214.076600 24224.000000
215.084400 42064.000000
217.020400 36800.000000
222.070600 162208.000000
223.078400 693228.000000
224.025400 16500.000000
224.082300 72432.000000
229.075200 32876.000000
230.047200 56000.000000
230.082300 22544.000000
231.035800 16184.000000
231.054100 46168.000000
232.042100 17600.000000
233.058400 14276.000000
237.092800 16220.000000
238.040500 15344.000000
243.090800 37820.000000
244.031600 566300.000000
245.036700 99732.000000
246.028800 131476.000000
249.081500 1067224.000000
250.088700 619828.000000
251.093000 68952.000000
255.068100 33568.000000
257.035800 34248.000000
258.047300 274236.000000
259.049100 29856.000000
260.044300 63128.000000
263.096800 45744.000000
264.103700 22200.000000
265.052000 90736.000000
266.055200 15416.000000
267.048700 22816.000000
268.031400 22568.000000
270.101800 69588.000000
271.108800 41124.000000
273.057700 16336.000000
273.081100 17468.000000
274.088500 19268.000000
276.092200 32632.000000
283.043400 14304.000000
284.050300 99012.000000
285.058200 388908.000000
286.060000 54776.000000
287.055200 85820.000000
289.051700 86268.000000
289.099900 14084.000000
290.108200 351488.000000
291.116600 2490616.000000
292.119300 614104.000000
293.121900 29824.000000
297.058100 24688.000000
299.072700 29112.000000
306.078300 32128.000000
307.042100 14552.000000
309.058200 210612.000000
310.061100 36120.000000
311.058500 87132.000000
312.061300 12948.000000
313.058800 12580.000000
325.076700 92092.000000
326.084800 420648.000000
327.086100 72532.000000
328.082200 112356.000000

>ms2
115.053700 8480.000000
120.036600 6908.000000
121.044300 18436.000000
122.039800 8440.000000
127.040900 19296.000000
128.049000 110860.000000
129.056800 211196.000000
137.014800 38420.000000
138.011200 6864.000000
140.048600 7476.000000
142.064200 10088.000000
143.072300 9840.000000
146.039400 25596.000000
147.047000 55552.000000
148.054800 30628.000000
152.025600 37344.000000
153.044000 22636.000000
154.022600 9076.000000
154.039900 8672.000000
154.051100 11828.000000
155.059600 34072.000000
162.009800 70920.000000
162.070700 11656.000000
163.005400 45908.000000
163.016000 45908.000000
163.053300 6880.000000
164.005000 30240.000000
164.025200 45080.000000
164.061000 20080.000000
165.002900 13468.000000
165.013900 13820.000000
166.022500 13160.000000
168.067100 11800.000000
169.075100 30316.000000
170.052300 6820.000000
170.083100 55588.000000
173.050300 25852.000000
174.057600 15352.000000
175.053500 10608.000000
176.060600 10044.000000
177.020900 16808.000000
177.056800 40348.000000
178.041400 13664.000000
180.020500 10736.000000
181.044200 15976.000000
182.052100 140512.000000
183.059900 314984.000000
184.066500 81332.000000
185.070100 10388.000000
186.046800 17348.000000
187.065300 8844.000000
189.021000 207180.000000
189.081900 13724.000000
190.024900 25256.000000
191.017900 52588.000000
195.059200 9524.000000
195.078500 10192.000000
196.067800 156264.000000
196.086000 15708.000000
197.070300 19880.000000
198.070400 6856.000000
201.056900 17720.000000
202.064400 59180.000000
203.036100 12352.000000
203.072000 102240.000000
204.078300 28944.000000
205.051700 16708.000000
208.055500 256192.000000
209.063100 1003044.000000
210.067600 124540.000000
211.076600 16412.000000
214.076500 11280.000000
215.084400 38220.000000
217.021100 80772.000000
218.024400 10948.000000
219.018300 20464.000000
220.075200 17460.000000
221.063400 28520.000000
222.071100 687304.000000
223.078700 1182852.000000
224.025700 20420.000000
224.082900 145216.000000
225.086200 8992.000000
226.065500 11796.000000
227.072400 12776.000000
228.068200 9540.000000
229.075600 107652.000000
230.047200 17636.000000
230.081600 41632.000000
231.054800 27448.000000
231.090300 19568.000000
232.033900 8936.000000
232.054900 17240.000000
233.062000 34556.000000
234.069000 12184.000000
235.077800 15164.000000
236.082600 17424.000000
237.093600 36700.000000
238.040800 24336.000000
238.065000 9368.000000
240.038200 8412.000000
241.021000 14648.000000
242.017200 13064.000000
242.083300 10988.000000
243.021800 11964.000000
243.091300 51596.000000
244.032100 93224.000000
244.095600 9184.000000
245.038900 44556.000000
246.029100 25352.000000
247.036400 12820.000000
247.069200 10508.000000
248.076300 11464.000000
249.082100 1352920.000000
250.088400 458808.000000
251.093700 51920.000000
253.075500 17924.000000
254.080800 6856.000000
255.068700 74216.000000
256.032300 19288.000000
256.073500 10924.000000
256.081200 9616.000000
257.035800 60208.000000
258.047500 221380.000000
259.048500 32072.000000
260.045000 57976.000000
261.081000 11052.000000
262.088900 9428.000000
263.097400 43700.000000
264.103800 14688.000000
265.052300 60192.000000
266.056400 11604.000000
268.032100 16160.000000
269.037900 8860.000000
270.033400 10360.000000
270.102300 50564.000000
271.040900 10384.000000
271.108500 26752.000000
272.049700 9408.000000
273.057800 12800.000000
273.081600 36776.000000
274.088100 23208.000000
275.088200 8668.000000
276.092800 58736.000000
277.095400 8924.000000
282.047100 8148.000000
283.043200 56020.000000
284.050500 85216.000000
285.058000 97664.000000
286.050700 24304.000000
287.055600 25084.000000
288.093500 15256.000000
289.052700 173700.000000
289.100500 10192.000000
290.054800 30640.000000
290.108600 103148.000000
291.050600 48540.000000
291.116600 741692.000000
292.058300 7980.000000
297.058400 13184.000000
299.073700 9484.000000
306.077500 7896.000000
307.043100 49300.000000
308.048800 12444.000000
309.057800 66412.000000
310.059000 22244.000000
311.059100 36804.000000
325.077700 35544.000000
326.082900 16452.000000

