>compound AU15543426
>parentmass 131.1291
>ionization [M+H]+
>formula C5H14N4
>rt 996.600000
>profile qtof
#smiles_iso C(CCN=C(N)N)CN
#smiles_can C(CCN=C(N)N)CN
#inchikey QYPPJABKJHAVHS-UHFFFAOYSA-N
#pubchem_id 199
#mb_accession AU510707

>ms2peaks
114.100300 1564.000000
131.127300 8724.000000

