>compound AU17312563
>parentmass 786.3596
>ionization [M+H]+
>formula C43H51N3O11
>rt 96.960000
>profile qtof
#smiles_iso C[C@H]1/C=C/C=C(\C(=O)NC2=C(C3=C(C4=C(C(=C3O)C)O[C@@](C4=O)(O/C=C/[C@@H]([C@H]([C@H]([C@@H]([C@@H]([C@@H]([C@H]1O)C)O)C)OC(=O)C)C)OC)C)C5=C2N6C=CC(=CC6=N5)C)O)/C
#smiles_can CC1C=CC=C(C(=O)NC2=C(C3=C(C4=C(C(=C3O)C)OC(C4=O)(OC=CC(C(C(C(C(C(C1O)C)O)C)OC(=O)C)C)OC)C)C5=C2N6C=CC(=CC6=N5)C)O)C
#inchikey NZCRJKRKKOLAOJ-XRCRFVBUSA-N
#pubchem_id 6436173
#mb_accession AU117907,AU117908,AU117909,AU117910,AU117911

>ms2
754.340100 936.000000
784.335300 324.000000
785.351000 472.000000
786.362700 49360.000000
787.367200 24252.000000
788.370600 6620.000000

>ms2
123.079100 304.000000
151.074700 836.000000
163.111500 344.000000
179.109000 328.000000
209.116100 360.000000
362.112900 576.000000
754.337100 12012.000000
755.337900 5620.000000
756.341800 1604.000000
784.335900 384.000000
785.345800 476.000000
785.361100 388.000000
786.362000 53980.000000
787.367300 24592.000000
788.370600 7380.000000

>ms2
121.064300 364.000000
121.101200 864.000000
123.080900 1780.000000
125.097300 588.000000
133.101300 776.000000
135.080600 828.000000
135.116400 528.000000
137.059800 352.000000
137.095300 1636.000000
137.134800 340.000000
139.074900 892.000000
139.111200 324.000000
141.090100 324.000000
145.101700 928.000000
147.115900 1380.000000
149.131300 364.000000
151.075000 10788.000000
152.078900 844.000000
153.090000 1796.000000
155.107100 624.000000
159.115900 860.000000
160.121700 368.000000
161.096200 1788.000000
163.111600 5692.000000
164.115400 672.000000
165.128000 1156.000000
173.095100 1372.000000
173.132800 824.000000
175.111700 2092.000000
175.146100 324.000000
176.116800 352.000000
177.091200 688.000000
177.127100 712.000000
179.106400 5292.000000
180.109100 736.000000
181.121800 884.000000
183.140400 584.000000
185.132000 460.000000
189.092700 448.000000
191.106300 4088.000000
192.110200 476.000000
193.121500 1400.000000
194.127600 496.000000
195.137700 412.000000
199.112000 348.000000
199.149500 512.000000
201.129600 928.000000
203.142700 668.000000
205.122600 324.000000
209.117800 3680.000000
210.118400 548.000000
211.136800 388.000000
213.128600 348.000000
217.120900 448.000000
219.137700 1732.000000
220.140900 468.000000
221.152900 448.000000
227.141900 360.000000
231.139200 952.000000
237.148200 512.000000
249.147600 392.000000
251.182000 444.000000
255.136300 320.000000
261.165100 428.000000
269.189300 844.000000
270.195500 300.000000
271.169300 568.000000
272.172300 384.000000
277.177600 400.000000
279.174900 960.000000
287.204100 612.000000
289.181900 664.000000
297.186100 3772.000000
315.194600 3216.000000
316.200400 768.000000
333.207200 1368.000000
334.209900 404.000000
347.103800 1116.000000
361.110400 412.000000
362.114600 5784.000000
363.114600 1444.000000
375.220600 680.000000
676.307700 332.000000
694.320600 932.000000
695.318000 472.000000
736.319300 840.000000
737.338500 484.000000
754.337200 33732.000000
755.340800 18184.000000
756.342900 3816.000000
768.357400 804.000000
769.363400 480.000000
784.349600 388.000000
786.364000 13004.000000
787.362900 7084.000000
788.371400 1820.000000

>ms2
115.054000 340.000000
119.085500 1548.000000
120.089500 392.000000
121.064500 1340.000000
121.101500 1480.000000
123.080200 8416.000000
123.117100 868.000000
124.083500 968.000000
125.095600 1444.000000
131.086900 480.000000
133.064900 472.000000
133.086500 460.000000
133.101100 2076.000000
135.080500 4756.000000
135.116700 2052.000000
136.084400 548.000000
137.059400 568.000000
137.095600 3116.000000
137.132900 672.000000
138.100900 340.000000
139.075500 1292.000000
139.109300 332.000000
143.085900 340.000000
145.100800 3712.000000
146.103300 496.000000
147.080000 852.000000
147.117000 5856.000000
148.120200 472.000000
149.096000 916.000000
149.132900 784.000000
151.075300 34132.000000
152.078100 3184.000000
153.091000 7884.000000
154.094600 944.000000
155.106900 780.000000
157.100800 1376.000000
158.106000 452.000000
159.079300 504.000000
159.117100 3044.000000
160.121100 312.000000
161.095700 5476.000000
161.133200 744.000000
162.099600 884.000000
163.111500 22492.000000
164.114600 2492.000000
165.127200 2568.000000
166.131800 576.000000
169.085100 352.000000
171.117500 788.000000
173.095600 4728.000000
173.132200 3408.000000
174.099700 864.000000
174.138200 360.000000
175.111900 5688.000000
175.148000 1144.000000
176.117700 1092.000000
177.091300 1680.000000
177.126800 1948.000000
179.105900 11628.000000
180.109800 1132.000000
181.122000 1920.000000
182.127100 308.000000
183.119300 504.000000
183.138500 572.000000
185.094300 504.000000
185.131900 1800.000000
186.136000 476.000000
187.111600 608.000000
187.149200 880.000000
189.091600 464.000000
189.128700 1048.000000
190.093600 380.000000
191.106400 13604.000000
192.109600 1796.000000
193.122100 4360.000000
194.126200 540.000000
195.118800 388.000000
195.140700 512.000000
197.133400 400.000000
198.140000 360.000000
199.111500 860.000000
199.148800 596.000000
200.152900 676.000000
201.127400 3520.000000
202.132300 452.000000
203.108000 452.000000
203.143300 2804.000000
204.148400 424.000000
205.121400 752.000000
207.101300 408.000000
209.116800 5784.000000
210.121100 1120.000000
211.109300 328.000000
211.128400 860.000000
211.147700 516.000000
213.130300 1436.000000
215.144400 856.000000
215.178900 328.000000
216.150800 332.000000
217.121900 1368.000000
217.158700 584.000000
218.125700 344.000000
219.137900 3076.000000
220.140800 752.000000
221.152300 1476.000000
223.149700 416.000000
225.163900 640.000000
227.142800 552.000000
229.123800 340.000000
229.161400 340.000000
231.137100 2868.000000
232.143700 652.000000
235.131200 440.000000
237.125500 484.000000
237.148100 588.000000
238.137200 304.000000
241.121100 332.000000
241.195700 336.000000
245.155800 436.000000
249.149800 828.000000
251.180200 648.000000
252.181100 328.000000
253.155400 624.000000
255.143400 548.000000
255.173800 592.000000
259.168900 488.000000
261.163100 440.000000
261.184800 452.000000
264.148200 364.000000
269.191500 1672.000000
271.168700 1504.000000
272.174900 328.000000
279.174000 2416.000000
280.175200 468.000000
281.176900 484.000000
287.201300 792.000000
289.181900 736.000000
297.184400 4972.000000
298.189200 1472.000000
315.197300 3784.000000
333.206800 860.000000
334.207100 428.000000
346.096900 356.000000
347.104500 1880.000000
348.106300 596.000000
357.211900 624.000000
361.105600 1928.000000
362.113700 11404.000000
363.117400 3332.000000
364.120400 448.000000
375.215700 736.000000
455.146500 460.000000
482.172100 320.000000
512.182200 348.000000
513.180000 448.000000
571.222400 316.000000
676.303800 936.000000
694.316300 1172.000000
695.311900 616.000000
695.329000 568.000000
708.321900 364.000000
736.327000 2108.000000
737.327300 1560.000000
738.346700 356.000000
754.336200 10264.000000
755.341000 5884.000000
756.341900 1144.000000
768.349500 1584.000000
769.363300 784.000000
786.359100 748.000000

>ms2
109.066900 340.000000
115.053300 508.000000
117.068900 412.000000
119.086700 1680.000000
121.065100 1560.000000
121.100900 2776.000000
122.104500 400.000000
123.080300 8280.000000
123.117600 596.000000
124.084200 828.000000
125.057700 304.000000
125.096300 2168.000000
130.077300 620.000000
131.086400 608.000000
133.064100 652.000000
133.084300 388.000000
133.100900 3084.000000
134.105500 692.000000
135.080200 6540.000000
135.116300 3576.000000
136.083600 648.000000
137.059700 584.000000
137.095700 2592.000000
137.132300 852.000000
138.099700 556.000000
138.137000 352.000000
139.076500 1176.000000
139.111400 496.000000
141.091400 476.000000
142.079500 336.000000
143.085300 1048.000000
144.093100 308.000000
145.063800 356.000000
145.101100 4616.000000
146.105200 888.000000
147.079600 688.000000
147.116400 5672.000000
148.087100 444.000000
148.120100 692.000000
149.059100 780.000000
149.095500 1016.000000
149.132000 544.000000
151.075200 26712.000000
152.078600 2880.000000
152.117000 524.000000
153.090600 6512.000000
154.093400 636.000000
155.106300 736.000000
157.099900 1540.000000
159.080000 644.000000
159.116300 3120.000000
160.120000 500.000000
161.096200 6480.000000
161.132100 784.000000
162.100100 732.000000
162.133100 316.000000
163.111400 21820.000000
164.115100 2584.000000
165.091100 388.000000
165.127600 2792.000000
166.131300 604.000000
170.108200 448.000000
171.116600 1140.000000
172.125300 324.000000
173.095800 4184.000000
173.132500 2624.000000
174.100600 956.000000
174.136000 740.000000
175.074300 376.000000
175.111300 5720.000000
175.148900 984.000000
176.116400 636.000000
177.090100 2064.000000
177.127800 1248.000000
178.095000 384.000000
179.106500 5044.000000
180.109800 688.000000
181.103500 340.000000
181.122000 988.000000
182.123400 316.000000
183.117400 728.000000
183.137900 348.000000
185.097600 400.000000
185.131900 2084.000000
186.104500 344.000000
187.111600 520.000000
187.148500 580.000000
188.156300 324.000000
189.093000 596.000000
189.127500 936.000000
191.106200 8916.000000
191.142500 508.000000
192.109700 1752.000000
193.121500 2820.000000
195.117000 404.000000
197.130700 484.000000
198.141700 536.000000
199.111200 540.000000
199.147400 952.000000
201.127300 2616.000000
201.161700 348.000000
202.128400 416.000000
203.106500 412.000000
203.142600 2236.000000
205.120200 452.000000
209.095100 328.000000
209.117300 1812.000000
211.109700 316.000000
211.135900 752.000000
211.148300 616.000000
213.127800 1876.000000
213.166100 312.000000
214.129800 316.000000
215.141600 596.000000
217.121300 720.000000
219.137200 1772.000000
221.154300 440.000000
223.112100 312.000000
223.145900 424.000000
225.164400 564.000000
227.144500 456.000000
231.138300 2984.000000
232.139800 476.000000
237.127400 424.000000
238.134000 300.000000
239.143500 616.000000
241.159800 360.000000
241.193000 412.000000
243.172600 372.000000
249.148000 552.000000
251.178800 572.000000
253.158900 552.000000
255.172300 340.000000
269.189100 684.000000
271.167800 428.000000
279.175600 1100.000000
280.176600 324.000000
289.182200 304.000000
297.185000 1608.000000
298.191400 428.000000
315.197500 1236.000000
316.201200 452.000000
347.102500 2192.000000
348.105800 1132.000000
357.207200 356.000000
360.099800 392.000000
361.104600 2252.000000
362.114500 10092.000000
363.117500 3308.000000
364.123700 312.000000
456.158800 368.000000
465.170300 568.000000
466.177800 1256.000000
467.182300 584.000000
495.180100 752.000000
496.185400 632.000000
497.196000 372.000000
512.180500 380.000000
676.305100 716.000000
708.325500 340.000000
736.324700 1284.000000
737.329600 908.000000
754.335200 972.000000
755.333200 336.000000
768.360500 552.000000
769.359800 404.000000

