>compound AU19266049
>parentmass 214.0297
>ionization [M+H]+
>formula C5H12NO4PS
>rt 121.596000
>profile qtof
#smiles_iso CNC(=O)CSP(=O)(OC)OC
#smiles_can CNC(=O)CSP(=O)(OC)OC
#inchikey PZXOQEXFMJCDPG-UHFFFAOYSA-N
#pubchem_id 14210
#mb_accession AU302707,AU302708,AU302709,AU302710,AU302711

>ms2
142.992000 1884.000000
154.991100 2076.000000
182.986400 14448.000000
196.018100 3148.000000
214.029200 11624.000000

>ms2
124.981000 9304.000000
125.986400 344.000000
126.980100 300.000000
127.013600 328.000000
142.991100 8464.000000
144.989100 352.000000
154.991200 7400.000000
172.999900 528.000000
182.001100 512.000000
182.986400 3552.000000
196.019200 1356.000000
214.028500 360.000000

>ms2
124.981000 4188.000000
126.977300 320.000000
142.991000 2428.000000
154.990600 960.000000

>ms2
109.004000 8468.000000
124.980900 195416.000000
126.976600 8940.000000
127.014100 11664.000000
142.991000 76400.000000
144.987100 4784.000000
154.990800 3076.000000

>ms2
124.980000 600.000000
142.989500 508.000000

