>compound AU19846649
>parentmass 734.4685
>ionization [M+H]+
>formula C37H67NO13
>rt 380.028000
>profile qtof
#smiles_iso CC[C@@H]1[C@@]([C@@H]([C@H](C(=O)[C@@H](C[C@@]([C@@H]([C@H]([C@@H]([C@H](C(=O)O1)C)O[C@H]2C[C@@]([C@H]([C@@H](O2)C)O)(C)OC)C)O[C@H]3[C@@H]([C@H](C[C@H](O3)C)N(C)C)O)(C)O)C)C)O)(C)O
#smiles_can CCC1C(C(C(C(=O)C(CC(C(C(C(C(C(=O)O1)C)OC2CC(C(C(O2)C)O)(C)OC)C)OC3C(C(CC(O3)C)N(C)C)O)(C)O)C)C)O)(C)O
#inchikey ULGZDMOVFRHVEP-RWJQBGPGSA-N
#pubchem_id 12560
#mb_accession AU105407,AU105408,AU105409,AU105410,AU105411

>ms2peaks
158.117200 2616.000000
522.346000 884.000000
558.368000 2416.000000
559.371300 624.000000
574.361400 1524.000000
576.377600 6636.000000
577.382700 1880.000000
716.464000 1420.000000
717.469800 604.000000
732.456800 5512.000000
733.461200 3628.000000
734.472700 108860.000000
735.476300 47800.000000
736.478100 10812.000000

>ms2peaks
116.106500 884.000000
127.076100 1356.000000
158.117800 43900.000000
159.099800 480.000000
159.121100 3248.000000
316.213100 5876.000000
317.216600 1164.000000
325.203600 440.000000
365.232000 456.000000
383.240600 780.000000
401.251300 372.000000
500.321900 380.000000
522.342700 6856.000000
523.350300 2364.000000
524.349500 724.000000
538.336500 480.000000
540.355900 4276.000000
541.357800 1508.000000
556.349900 408.000000
558.366800 16244.000000
559.369700 5272.000000
560.371000 1100.000000
574.361100 7176.000000
575.365200 3172.000000
576.377000 63792.000000
577.379700 20368.000000
578.383800 4064.000000
579.389100 600.000000
698.453300 2284.000000
699.451800 800.000000
716.462200 4908.000000
717.464500 2408.000000
718.469000 736.000000
732.456900 2928.000000
733.461800 1648.000000
734.473200 60208.000000
735.476100 25996.000000
736.479700 5520.000000

>ms2peaks
116.071700 1800.000000
116.107300 4840.000000
127.075800 6076.000000
158.118100 224072.000000
159.101200 1372.000000
159.121000 17836.000000
160.124000 1156.000000
176.129800 1520.000000
233.153800 1152.000000
316.213400 3496.000000
365.234200 1224.000000
383.243500 1536.000000
408.279500 1492.000000
500.323600 1484.000000
522.345000 10384.000000
523.349100 3552.000000
540.356400 7908.000000
541.360200 2844.000000
556.348200 1188.000000
558.367300 16360.000000
559.370700 6336.000000
560.380400 1192.000000
574.362600 6392.000000
575.368300 2644.000000
576.377900 68340.000000
577.380900 24228.000000
578.383600 4832.000000
716.467400 1208.000000
734.471900 6340.000000
735.478500 2988.000000

>ms2peaks
116.070700 3948.000000
116.107500 5844.000000
123.080700 2204.000000
127.075400 5996.000000
158.117900 282640.000000
159.120800 23020.000000
160.121600 2216.000000
233.154400 4080.000000
408.274700 2420.000000
522.346100 2692.000000
540.357700 1692.000000
558.365000 3872.000000
559.372100 1632.000000
576.376700 13360.000000
577.379500 5356.000000

>ms2peaks
116.071100 6292.000000
116.107200 4824.000000
123.081300 3216.000000
127.075600 3652.000000
158.118300 166792.000000
159.121500 15260.000000
160.123900 1148.000000
176.130500 1004.000000
233.153800 2328.000000
576.380000 1664.000000

