>compound AU20989403
>parentmass 160.0272
>ionization [M+H]+
>formula C5H6ClN3O
>rt 106.140000
>profile qtof
#smiles_iso CN1C(=O)C(=C(C=N1)N)Cl
#smiles_can CN1C(=O)C(=C(C=N1)N)Cl
#inchikey XNSGCNYTNLWRKM-UHFFFAOYSA-N
#pubchem_id 594330
#mb_accession AU203707,AU203708,AU203709,AU203710,AU203711

>ms2
160.027900 259672.000000
161.030400 11116.000000
162.024900 69352.000000

>ms2
116.998200 3044.000000
118.995200 1592.000000
124.051000 1256.000000
130.006100 5104.000000
131.001200 1340.000000
131.013700 2588.000000
132.004000 1976.000000
133.013300 1140.000000
145.004400 2476.000000
160.028100 181656.000000
161.030100 8252.000000
162.024900 48988.000000

>ms2
115.992200 544.000000
116.998100 4284.000000
118.995400 2188.000000
124.051000 1232.000000
125.058400 416.000000
128.985300 612.000000
130.005700 8224.000000
131.002400 892.000000
131.012700 2716.000000
132.003200 2564.000000
133.012000 724.000000
145.004100 4328.000000
146.009300 316.000000
147.000800 1120.000000
158.012800 600.000000
160.027400 31988.000000
161.031700 1372.000000
162.024800 10292.000000

>ms2
116.998200 1660.000000
124.049900 308.000000
130.005500 3904.000000
131.012300 460.000000
132.003000 1120.000000
145.003900 1552.000000
160.027600 2856.000000
162.023900 1208.000000

>ms2
116.996800 396.000000
130.004900 744.000000

