>compound AU21212327
>parentmass 515.2442
>ionization [M+H]+
>formula C33H30N4O2
>rt 128.556000
>profile qtof
#smiles_iso CCCC1=NC2=C(N1CC3=CC=C(C=C3)C4=CC=CC=C4C(=O)O)C=C(C=C2C)C5=NC6=CC=CC=C6N5C
#smiles_can CCCC1=NC2=C(N1CC3=CC=C(C=C3)C4=CC=CC=C4C(=O)O)C=C(C=C2C)C5=NC6=CC=CC=C6N5C
#inchikey RMMXLENWKUUMAY-UHFFFAOYSA-N
#pubchem_id 65999
#mb_accession AU225107,AU225108,AU225109,AU225110,AU225111

>ms2
515.250300 2428596.000000
516.252300 1033080.000000
517.255300 114320.000000

>ms2
305.178300 51416.000000
515.253300 2507556.000000
517.256000 208660.000000

>ms2
211.076900 62460.000000
305.178400 174764.000000
306.180800 31692.000000
497.238000 168924.000000
498.240700 53064.000000
515.251600 2506168.000000
516.252400 1489896.000000
517.255400 174756.000000

>ms2
193.065900 27040.000000
211.077200 276660.000000
212.080300 32364.000000
276.139300 165024.000000
277.142400 23896.000000
289.147000 25332.000000
303.162400 15736.000000
305.179000 292688.000000
306.181500 49408.000000
317.178200 20992.000000
497.238900 1696844.000000
498.242200 499796.000000
499.244900 59560.000000
515.250300 2298384.000000
516.252900 954052.000000
517.255900 106484.000000

>ms2
165.070300 21184.000000
183.081300 10848.000000
193.065900 186868.000000
194.069200 22148.000000
211.076700 570536.000000
212.079700 67028.000000
261.114900 16348.000000
262.122300 15444.000000
275.130900 41468.000000
276.139100 2077260.000000
277.141800 280792.000000
278.144600 17536.000000
289.146800 281480.000000
290.149900 49004.000000
303.162500 147668.000000
304.166300 29988.000000
305.178500 394880.000000
306.181200 63068.000000
317.178300 90336.000000
318.181000 20840.000000
467.190400 45060.000000
468.195200 22676.000000
485.200600 20812.000000
486.205100 10416.000000
497.238300 2007820.000000
498.241400 698768.000000
499.244200 78092.000000
515.248800 490792.000000
516.252100 174388.000000
517.254400 23088.000000

