>compound AU22385344
>parentmass 136.1121
>ionization [M+H]+
>formula C9H13N
>rt 389.580000
>profile qtof
#smiles_iso CC(CC1=CC=CC=C1)N
#smiles_can CC(CC1=CC=CC=C1)N
#inchikey KWTSXDURSIMDCE-UHFFFAOYSA-N
#pubchem_id 3007
#mb_accession AU154007,AU154008

>ms2peaks
119.085000 46600.000000
120.087800 6092.000000
136.111200 40932.000000
137.114800 3692.000000

>ms2peaks
119.084500 1868.000000
136.111900 688.000000

