>compound AU26523996
>parentmass 705.397
>ionization [M+H]+
>formula C38H52N6O7
>rt 94.248000
>profile qtof
#smiles_iso CC(C)(C)[C@@H](C(=O)N[C@@H](CC1=CC=CC=C1)[C@H](CN(CC2=CC=C(C=C2)C3=CC=CC=N3)NC(=O)[C@H](C(C)(C)C)NC(=O)OC)O)NC(=O)OC
#smiles_can CC(C)(C)C(C(=O)NC(CC1=CC=CC=C1)C(CN(CC2=CC=C(C=C2)C3=CC=CC=N3)NC(=O)C(C(C)(C)C)NC(=O)OC)O)NC(=O)OC
#inchikey AXRYRYVKAWYZBR-GASGPIRDSA-N
#pubchem_id 148192
#mb_accession AU214807,AU214808,AU214809,AU214810,AU214811

>ms2peaks
335.200400 2196.000000
705.405200 344724.000000
706.408100 143468.000000
707.410700 29996.000000

>ms2peaks
168.081600 6964.000000
335.199100 35196.000000
336.204100 5876.000000
534.312400 11400.000000
687.391600 5252.000000
705.405100 674104.000000
706.407900 267756.000000
707.410300 50748.000000

>ms2peaks
120.081800 1268.000000
144.102700 5936.000000
167.073400 3416.000000
168.081400 92356.000000
169.085400 9840.000000
170.097000 3060.000000
311.177800 3492.000000
312.180800 1428.000000
322.192700 2012.000000
328.183200 1896.000000
335.199100 237972.000000
336.202100 44352.000000
337.204200 5080.000000
371.209500 5720.000000
372.217000 1452.000000
397.226900 1772.000000
424.241300 4340.000000
434.074900 1340.000000
499.274000 7012.000000
500.278900 2036.000000
502.282000 1824.000000
516.304500 2228.000000
519.303300 1452.000000
520.316900 1320.000000
534.312200 63852.000000
535.314400 20308.000000
536.316200 3412.000000
544.294900 1408.000000
612.359400 14420.000000
613.360600 6360.000000
614.360100 1240.000000
673.376900 4440.000000
674.379200 1920.000000
687.392300 11432.000000
688.394500 5476.000000
689.395000 1560.000000
705.404200 185288.000000
706.406700 89676.000000
707.409100 17972.000000

>ms2peaks
120.081300 8988.000000
144.102800 73784.000000
145.106000 4908.000000
146.097000 9368.000000
167.073500 31412.000000
168.081700 931788.000000
311.177100 8844.000000
322.193000 6156.000000
328.183300 10144.000000
335.199400 563680.000000
336.202400 88668.000000
337.204900 9968.000000
363.219900 7148.000000
371.210400 6880.000000
424.241700 16336.000000
425.245400 5204.000000
499.274300 10160.000000
502.286100 5440.000000
516.301700 7096.000000
534.312400 106456.000000
535.315600 38060.000000
536.319800 5644.000000
612.359500 13592.000000
613.363100 6244.000000
705.403800 19528.000000
706.407900 8380.000000

>ms2peaks
120.081500 18044.000000
144.103000 185724.000000
145.106100 15280.000000
146.097300 10520.000000
167.073900 69684.000000
168.081900 1640888.000000
328.183000 8888.000000
335.199700 213744.000000
336.202900 40132.000000
363.221800 9252.000000
534.312800 20472.000000

