>compound AU27653718
>parentmass 429.23969999999997
>ionization [M+H]+
>formula C25H28N6O
>rt 96.516000
>profile qtof
#smiles_iso CCCCC1=NC2(CCCC2)C(=O)N1CC3=CC=C(C=C3)C4=CC=CC=C4C5=NNN=N5
#smiles_can CCCCC1=NC2(CCCC2)C(=O)N1CC3=CC=C(C=C3)C4=CC=CC=C4C5=NNN=N5
#inchikey YOSHYTLCDANDAN-UHFFFAOYSA-N
#pubchem_id 3749
#mb_accession AU209407,AU209408,AU209409,AU209410,AU209411

>ms2
207.092300 54108.000000
401.235700 21928.000000
429.244600 2485528.000000
430.246400 995568.000000
431.248700 101300.000000

>ms2
195.150500 263964.000000
196.153000 27256.000000
207.093200 1428388.000000
208.096200 143212.000000
209.098800 8216.000000
235.099000 17216.000000
386.225400 48944.000000
387.228300 12112.000000
401.236800 86744.000000
402.239200 22460.000000
429.243600 1422120.000000
430.246700 322408.000000
431.248900 35176.000000

>ms2
167.154900 19052.000000
180.081200 42872.000000
192.080800 20328.000000
195.150200 408504.000000
196.153400 43976.000000
206.084600 34864.000000
207.093300 2422740.000000
208.096100 360772.000000
209.099100 16940.000000
235.098800 33892.000000
386.225300 82192.000000
387.228100 20484.000000
429.243000 45884.000000
430.245800 12420.000000

>ms2
153.069600 14868.000000
167.154500 38140.000000
178.065500 15676.000000
179.072700 20512.000000
180.081200 194332.000000
181.084400 24608.000000
190.065400 40448.000000
191.071700 15000.000000
192.080600 99560.000000
193.084100 14168.000000
195.150000 191716.000000
196.076000 18856.000000
196.153000 21792.000000
205.076500 47512.000000
206.084400 163772.000000
207.092700 2358288.000000
208.095700 307520.000000
209.098400 16148.000000
386.224700 20532.000000

>ms2
129.045000 7500.000000
140.049500 8096.000000
151.054200 9072.000000
152.062100 30688.000000
153.069600 39028.000000
163.054500 8276.000000
165.069800 32484.000000
166.075600 10200.000000
167.072900 19476.000000
167.154400 19380.000000
169.064700 8540.000000
177.057700 7388.000000
178.065400 39112.000000
179.072900 59824.000000
180.081200 387568.000000
181.084200 44236.000000
190.065600 91168.000000
191.072100 35436.000000
192.069700 76192.000000
192.079900 102012.000000
193.072300 9888.000000
193.083600 16072.000000
194.060000 6900.000000
195.149600 48292.000000
196.076400 27996.000000
205.076800 148128.000000
206.084300 295080.000000
207.092400 1319684.000000
208.075900 17980.000000
208.095700 143260.000000
209.099000 8276.000000

