>compound AU28812358
>parentmass 388.1586
>ionization [M+H]+
>formula C21H23ClFN3O
>rt 349.920000
>profile qtof
#smiles_iso CCN(CC)CCN1C(=O)CN=C(C2=C1C=CC(=C2)Cl)C3=CC=CC=C3F
#smiles_can CCN(CC)CCN1C(=O)CN=C(C2=C1C=CC(=C2)Cl)C3=CC=CC=C3F
#inchikey SAADBVWGJQAEFS-UHFFFAOYSA-N
#pubchem_id 3393
#mb_accession AU163107,AU163108,AU163109,AU163110,AU163111

>ms2peaks
315.069600 101720.000000
317.083500 32656.000000
388.160800 2513560.000000

>ms2peaks
143.117200 28332.000000
288.058100 69724.000000
289.062600 12040.000000
290.055100 17320.000000
315.069600 2348476.000000
316.072500 439260.000000
317.068300 373688.000000
317.081900 747260.000000
318.086800 115112.000000
319.082200 190456.000000
320.085000 15524.000000
388.159300 2407000.000000
389.161800 557128.000000
390.156400 708428.000000

>ms2peaks
143.117200 27668.000000
225.094000 18468.000000
244.031500 19612.000000
253.088100 18228.000000
258.047000 13100.000000
260.062900 50792.000000
271.042200 19248.000000
272.026300 37632.000000
287.050200 47700.000000
287.073500 33624.000000
288.058200 485344.000000
289.061500 88072.000000
290.055400 112508.000000
291.059100 14168.000000
315.071200 2510072.000000
316.072500 1024764.000000
317.067600 1389112.000000
318.069800 94564.000000
318.083900 68896.000000
319.082100 130284.000000
388.158300 94864.000000
389.161700 22924.000000
390.156100 25560.000000

>ms2peaks
130.064400 23336.000000
131.072200 48556.000000
134.039300 41656.000000
150.009500 17856.000000
162.034200 18524.000000
166.041000 45304.000000
191.036300 21424.000000
209.062800 16132.000000
211.078000 15180.000000
224.085800 24108.000000
225.094200 169348.000000
226.097300 19688.000000
236.073400 42348.000000
244.031800 150320.000000
245.038300 55512.000000
252.081100 14656.000000
253.089000 88616.000000
254.092100 14240.000000
258.047200 52680.000000
259.053600 59444.000000
260.063000 208152.000000
261.065300 30028.000000
271.043000 153476.000000
272.026900 160268.000000
272.046000 21400.000000
273.037300 43468.000000
273.054100 18520.000000
274.023500 38492.000000
280.099600 20508.000000
285.058100 51464.000000
287.050500 301288.000000
287.073700 74492.000000
288.057700 293384.000000
289.053400 105324.000000
290.055300 75748.000000
291.054800 16576.000000
295.062600 27288.000000
315.070000 2493740.000000
316.072600 594892.000000
317.066800 857948.000000
318.069600 66284.000000

>ms2peaks
109.044800 11796.000000
122.039700 6088.000000
122.999100 4932.000000
123.023500 16060.000000
125.014700 49824.000000
130.064600 112168.000000
131.072400 132356.000000
133.043800 5876.000000
134.039600 246132.000000
135.044900 24904.000000
138.009900 11888.000000
144.043700 11544.000000
150.009900 61760.000000
150.070200 6032.000000
151.016500 14796.000000
152.006800 14912.000000
152.025100 11292.000000
153.017900 5632.000000
159.066600 6000.000000
162.034300 60816.000000
163.005100 10364.000000
164.025300 40756.000000
165.030400 5800.000000
166.004400 7164.000000
166.022400 9804.000000
166.041100 53928.000000
168.038200 15888.000000
177.020800 4744.000000
179.036100 5748.000000
183.059800 56212.000000
184.067500 72284.000000
185.070800 9168.000000
189.020800 24304.000000
191.017900 5792.000000
191.036200 30460.000000
193.030700 13100.000000
194.036000 8612.000000
204.080600 6704.000000
208.055200 11632.000000
209.063000 100404.000000
210.067500 16588.000000
211.078300 43752.000000
212.081200 6808.000000
214.041400 6236.000000
216.067600 26024.000000
217.020900 63676.000000
217.087500 6608.000000
218.024400 8252.000000
219.018200 14464.000000
222.070700 23944.000000
223.078000 36060.000000
224.086600 131352.000000
225.094500 421512.000000
226.097600 50628.000000
231.024500 5512.000000
232.031200 4556.000000
232.099000 5592.000000
235.066900 29712.000000
236.074300 175024.000000
237.078200 30092.000000
237.090300 19588.000000
238.091300 5392.000000
240.056800 7908.000000
244.032300 272280.000000
245.038700 127828.000000
246.029300 59804.000000
247.036400 30284.000000
248.042900 5200.000000
251.036800 16960.000000
251.097200 27180.000000
252.043700 6244.000000
252.081400 52656.000000
252.103700 14364.000000
253.051800 7236.000000
253.089200 103808.000000
254.092600 15944.000000
257.028300 8492.000000
258.047900 163680.000000
259.054000 221016.000000
260.045600 37296.000000
260.062200 164544.000000
260.093900 8992.000000
261.052000 49148.000000
262.060000 38468.000000
267.031000 7088.000000
267.067800 15548.000000
269.064700 4900.000000
270.035400 20356.000000
271.043200 264488.000000
272.027300 121528.000000
272.046800 45036.000000
273.038700 64664.000000
273.055700 39564.000000
274.023900 28824.000000
274.058400 12380.000000
275.055900 10264.000000
279.091800 10156.000000
280.099300 18216.000000
285.058700 103272.000000
286.062100 19260.000000
287.050800 313836.000000
287.073900 45720.000000
288.055900 84300.000000
289.050600 105580.000000
290.054800 23660.000000
291.051600 12780.000000
295.062300 23776.000000
296.066800 4564.000000
297.059900 6816.000000
315.069700 901044.000000
316.072800 147440.000000
317.066800 212992.000000
318.070000 21552.000000

