>compound AU29374588
>parentmass 557.3044
>ionization [M+H]+
>formula C31H44N2O5S
>rt 351.564000
>profile qtof
#smiles_iso CCCCC1=C(C2=C(O1)C=CC(=C2)NS(=O)(=O)C)C(=O)C3=CC=C(C=C3)OCCCN(CCCC)CCCC
#smiles_can CCCCC1=C(C2=C(O1)C=CC(=C2)NS(=O)(=O)C)C(=O)C3=CC=C(C=C3)OCCCN(CCCC)CCCC
#inchikey ZQTNQVWKHCQYLQ-UHFFFAOYSA-N
#pubchem_id 208898
#mb_accession AU218107,AU218108,AU218109,AU218110,AU218111

>ms2
557.312600 2512336.000000

>ms2
557.312900 2512612.000000

>ms2
142.159500 72288.000000
170.191000 80384.000000
294.081200 13860.000000
435.267400 215548.000000
436.270100 44692.000000
501.244100 27904.000000
557.305100 2511832.000000

>ms2
114.128600 27412.000000
128.144000 64080.000000
142.159800 973016.000000
161.060400 22636.000000
170.191400 590648.000000
294.081600 230904.000000
295.084600 28572.000000
309.137600 14708.000000
310.145400 23980.000000
324.161800 13912.000000
336.161100 21092.000000
379.204300 49752.000000
388.124700 24104.000000
393.220200 17540.000000
421.251900 19700.000000
428.155800 14248.000000
435.268200 1968724.000000
436.271300 501360.000000
437.274000 51232.000000
501.246100 256844.000000
502.249400 64212.000000
503.248400 15520.000000
557.314800 2512260.000000

>ms2
114.128600 83000.000000
121.028900 28292.000000
128.144000 202656.000000
130.159400 19360.000000
142.159800 2146188.000000
147.044600 13088.000000
161.060100 96284.000000
170.191200 662136.000000
171.194500 59160.000000
214.087400 18068.000000
215.095000 100728.000000
216.102000 47628.000000
252.033900 46428.000000
266.082200 10768.000000
278.082200 25532.000000
279.089600 21520.000000
280.098000 20120.000000
294.081300 567412.000000
295.084300 63072.000000
305.106100 12248.000000
306.113000 13244.000000
308.129700 46796.000000
309.137100 69600.000000
310.145100 82620.000000
311.147300 13292.000000
320.129500 13104.000000
321.137500 29276.000000
321.173900 12052.000000
322.144300 11824.000000
324.160800 66724.000000
325.164000 13084.000000
336.161900 194392.000000
337.163900 41560.000000
348.161800 12716.000000
349.168300 12368.000000
350.176400 18328.000000
366.196100 19116.000000
379.204300 113648.000000
380.207500 26992.000000
388.124000 56724.000000
393.219600 57392.000000
394.223000 14024.000000
421.251500 24796.000000
435.267800 1414088.000000
436.271000 362028.000000
437.273500 40308.000000
449.282000 11580.000000
477.315000 10780.000000
501.245500 150060.000000
502.248400 41364.000000
557.309300 1532648.000000
558.312300 438804.000000
559.311400 90684.000000

