>compound AU32701287
>parentmass 416.08949999999993
>ionization [M+H]+
>formula C21H18ClNO6
>rt 106.284000
>profile qtof
#smiles_iso CC1=C(C2=C(N1C(=O)C3=CC=C(C=C3)Cl)C=CC(=C2)OC)CC(=O)OCC(=O)O
#smiles_can CC1=C(C2=C(N1C(=O)C3=CC=C(C=C3)Cl)C=CC(=C2)OC)CC(=O)OCC(=O)O
#inchikey FSQKKOOTNAMONP-UHFFFAOYSA-N
#pubchem_id 1981
#mb_accession AU215107,AU215108,AU215109,AU215110,AU215111

>ms2peaks
138.995400 824.000000
260.093100 692.000000
312.079900 380.000000
416.093700 3700.000000
417.095400 1072.000000
418.088400 1488.000000

>ms2peaks
131.070600 412.000000
133.086400 2172.000000
134.090800 328.000000
138.995300 4268.000000
140.992300 1276.000000
152.144300 1544.000000
161.117100 556.000000
174.092400 580.000000
175.096400 344.000000
177.112900 2620.000000
178.116300 540.000000
205.108300 1184.000000
221.015200 372.000000
221.142500 428.000000
249.133500 384.000000
312.080800 420.000000
416.091100 384.000000

>ms2peaks
128.069100 360.000000
133.086300 908.000000
138.994700 5384.000000
139.997400 348.000000
140.991500 1372.000000
152.144100 1748.000000
174.091800 700.000000
177.112400 572.000000
197.071700 376.000000
221.073400 396.000000

>ms2peaks
133.086200 548.000000
138.994900 3264.000000
139.998300 544.000000
140.992700 1080.000000
152.144300 2728.000000
197.074000 396.000000

>ms2peaks
138.995100 2588.000000
140.991800 924.000000
152.143900 1472.000000
174.094500 408.000000
197.075000 316.000000

