>compound AU34336454
>parentmass 435.2177
>ionization [M+H]+
>formula C24H31FO6
>rt 90.912000
>profile qtof
#smiles_iso C[C@H]1C[C@H]2[C@@H]3CCC4=CC(=O)C=C[C@@]4([C@]3([C@H](C[C@@]2([C@]1(C(=O)COC(=O)C)O)C)O)F)C
#smiles_can CC1CC2C3CCC4=CC(=O)C=CC4(C3(C(CC2(C1(C(=O)COC(=O)C)O)C)O)F)C
#inchikey AKUJBENLRBOFTD-QZIXMDIESA-N
#pubchem_id 443967
#mb_accession AU203207,AU203208,AU203209,AU203210,AU203211

>ms2peaks
133.101100 456.000000
135.080700 780.000000
137.098600 640.000000
147.081100 1984.000000
149.097800 596.000000
153.090700 460.000000
159.080500 492.000000
161.096200 912.000000
171.080800 928.000000
173.097800 1408.000000
177.091000 1108.000000
185.096400 1796.000000
187.075500 636.000000
195.102100 1224.000000
197.095800 640.000000
209.118700 796.000000
211.097800 1136.000000
211.112400 804.000000
215.109300 460.000000
222.148200 624.000000
225.128800 492.000000
227.143400 972.000000
235.112000 468.000000
236.164000 876.000000
237.129000 3152.000000
239.110300 476.000000
239.146300 452.000000
251.143800 636.000000
253.125200 520.000000
253.160000 552.000000
255.138400 660.000000
261.129900 588.000000
263.143500 888.000000
267.142300 612.000000
267.173900 756.000000
269.190500 728.000000
275.145300 1264.000000
277.162200 1924.000000
278.165300 672.000000
279.176600 9988.000000
280.180600 2028.000000
281.189500 1296.000000
289.163400 712.000000
291.176700 5032.000000
292.180400 1280.000000
293.155300 436.000000
293.180900 420.000000
295.173300 1016.000000
297.186600 2084.000000
298.190200 552.000000
301.161200 3088.000000
302.162700 448.000000
307.173300 720.000000
309.187100 12380.000000
310.191300 2876.000000
311.190200 496.000000
319.172100 12172.000000
320.176300 2932.000000
321.176300 432.000000
325.182900 556.000000
327.199100 2660.000000
337.182300 15648.000000
338.186600 4444.000000
339.183600 816.000000
351.199300 824.000000
353.177600 2440.000000
355.193600 14868.000000
356.196800 3296.000000
357.194800 964.000000
361.181700 480.000000
369.210700 676.000000
373.206000 1344.000000
374.207400 480.000000
379.193400 6244.000000
380.199100 1608.000000
397.204700 39628.000000
398.207400 12808.000000
399.209100 3032.000000
400.209000 516.000000
415.215600 82184.000000
416.218400 24400.000000
417.220600 4368.000000
418.225000 432.000000
434.216900 440.000000
435.221800 69952.000000
436.224900 19356.000000

>ms2peaks
119.085100 1096.000000
121.065400 1260.000000
121.101100 816.000000
123.080900 1016.000000
123.118100 436.000000
125.059600 440.000000
131.084400 780.000000
133.064600 304.000000
133.085300 1236.000000
133.101500 1468.000000
134.105900 352.000000
135.080400 3196.000000
137.097000 2384.000000
139.075200 424.000000
143.086300 384.000000
145.066100 420.000000
145.101200 776.000000
147.080700 13564.000000
148.084500 1360.000000
149.096500 3596.000000
151.075700 996.000000
151.112000 1092.000000
153.090800 3648.000000
155.071000 348.000000
157.102900 348.000000
159.081300 3752.000000
159.117200 332.000000
161.060500 464.000000
161.096200 4860.000000
162.099800 616.000000
163.075100 608.000000
163.110700 748.000000
165.091800 420.000000
167.106300 1664.000000
169.065100 872.000000
169.086000 608.000000
171.081100 6268.000000
171.150600 712.000000
172.084100 784.000000
172.135400 348.000000
173.096100 6104.000000
174.099900 896.000000
175.074600 476.000000
175.111300 756.000000
177.091600 3808.000000
177.114500 668.000000
178.094500 772.000000
179.086600 396.000000
179.105300 936.000000
183.080700 820.000000
185.060900 388.000000
185.096600 6536.000000
186.101400 968.000000
187.075700 3548.000000
187.111700 1640.000000
188.079500 448.000000
189.090200 1220.000000
191.106900 360.000000
193.084000 476.000000
193.122800 440.000000
195.102500 2616.000000
196.104900 344.000000
197.097400 2304.000000
198.099900 628.000000
199.075600 372.000000
199.111400 1640.000000
201.092100 508.000000
201.127300 392.000000
203.108100 1024.000000
207.102800 344.000000
209.098200 1204.000000
209.118800 1544.000000
211.112500 4520.000000
213.090900 544.000000
213.127900 2120.000000
214.133300 500.000000
215.106400 2700.000000
216.111000 540.000000
217.106700 324.000000
221.097800 1436.000000
221.139500 352.000000
222.101600 536.000000
222.147100 1120.000000
223.113600 2304.000000
224.118100 636.000000
225.128800 2488.000000
227.105900 648.000000
227.144400 5024.000000
228.147700 992.000000
229.123700 548.000000
231.116100 352.000000
235.113000 3248.000000
236.161500 1028.000000
237.128200 12148.000000
238.131900 2160.000000
239.107700 1144.000000
239.143900 3572.000000
240.111700 448.000000
241.123600 1264.000000
241.162200 428.000000
247.113100 356.000000
248.123600 308.000000
249.128000 1844.000000
249.168600 344.000000
250.131900 352.000000
250.173600 356.000000
251.143800 3248.000000
253.124200 1908.000000
253.159800 3132.000000
254.129100 408.000000
255.139000 2584.000000
256.141200 500.000000
257.135800 436.000000
259.114800 440.000000
259.149400 344.000000
260.121400 360.000000
261.128200 1668.000000
262.132900 588.000000
263.106800 376.000000
263.145300 3124.000000
265.121700 488.000000
265.159600 1496.000000
266.164600 368.000000
267.138600 2192.000000
267.176600 2532.000000
268.145500 544.000000
268.179000 628.000000
269.154100 484.000000
269.189000 704.000000
270.191700 404.000000
273.127500 320.000000
273.164800 716.000000
275.143800 3636.000000
276.149900 1124.000000
277.124100 868.000000
277.159500 10332.000000
279.175400 20504.000000
280.177900 4620.000000
281.154300 1136.000000
281.190500 3220.000000
282.194500 760.000000
283.152600 384.000000
283.175900 372.000000
286.140000 588.000000
287.146200 352.000000
289.159500 1584.000000
290.160900 368.000000
291.176000 21100.000000
292.179000 4752.000000
293.156400 1480.000000
293.183300 680.000000
294.159100 652.000000
295.132700 1280.000000
295.169700 4388.000000
296.175400 804.000000
297.156900 316.000000
297.185500 2232.000000
298.189300 708.000000
301.161400 9988.000000
302.164700 2624.000000
306.160600 452.000000
307.171500 2264.000000
308.179200 520.000000
309.186400 19364.000000
310.189500 5084.000000
311.166900 1308.000000
311.190400 1088.000000
313.180900 780.000000
319.170900 28840.000000
320.174500 6936.000000
321.176300 968.000000
325.181100 1736.000000
326.183200 356.000000
327.196900 5940.000000
328.199700 1436.000000
329.194100 616.000000
333.186500 388.000000
337.181700 23232.000000
338.184400 6784.000000
339.184200 1416.000000
351.197700 1476.000000
353.177100 3928.000000
354.183000 912.000000
355.192000 17480.000000
356.195300 3904.000000
357.190600 1628.000000
361.183500 1108.000000
362.183000 372.000000
369.207700 720.000000
373.203300 2024.000000
374.207100 456.000000
375.201800 1048.000000
379.192400 8180.000000
380.196400 2180.000000
381.197200 572.000000
397.203800 26320.000000
398.207400 7008.000000
399.209800 1468.000000
415.213500 4196.000000
416.218700 1056.000000
417.211100 872.000000
418.214200 336.000000
433.208300 328.000000
435.223400 2712.000000
436.228800 1008.000000

>ms2peaks
119.085800 1844.000000
121.065200 2612.000000
121.101300 1068.000000
123.081500 1592.000000
125.060500 512.000000
125.098000 344.000000
128.062200 424.000000
129.070000 424.000000
131.085200 1288.000000
132.059700 404.000000
133.065100 1056.000000
133.084600 660.000000
133.101400 1596.000000
135.080700 6548.000000
135.118700 344.000000
136.083900 984.000000
137.061500 400.000000
137.096400 1384.000000
139.075700 344.000000
141.071700 348.000000
143.086100 936.000000
144.057600 408.000000
145.065600 1616.000000
145.101500 1124.000000
147.080500 20204.000000
148.083500 2204.000000
149.096400 3956.000000
151.076200 1976.000000
151.111800 992.000000
153.091200 3900.000000
154.095700 420.000000
154.122200 600.000000
155.071100 584.000000
155.086900 328.000000
157.063300 336.000000
157.101800 816.000000
158.073300 372.000000
159.080800 7128.000000
160.084200 576.000000
161.059300 364.000000
161.096400 4720.000000
162.098700 656.000000
163.074800 836.000000
163.111200 528.000000
165.091100 856.000000
167.106600 3364.000000
169.063900 684.000000
169.086700 436.000000
169.101300 340.000000
171.080900 10848.000000
171.116500 584.000000
172.084300 1352.000000
173.096400 7040.000000
174.099500 1164.000000
175.075800 408.000000
175.111400 948.000000
177.091300 2668.000000
179.087700 480.000000
179.105700 448.000000
181.101900 348.000000
183.080500 920.000000
185.096300 7064.000000
186.099600 1100.000000
187.075500 3812.000000
187.112200 3008.000000
188.080500 764.000000
189.092200 1064.000000
191.107700 372.000000
193.086000 544.000000
193.101700 588.000000
195.081200 560.000000
195.100400 1232.000000
196.087400 400.000000
196.109300 336.000000
197.096500 3928.000000
198.102000 880.000000
199.074500 628.000000
199.112100 2212.000000
201.091900 504.000000
201.126300 940.000000
203.106600 644.000000
207.117300 516.000000
209.096300 1676.000000
209.118400 316.000000
209.132600 676.000000
210.101800 804.000000
211.112800 6288.000000
212.117900 2160.000000
213.090700 592.000000
213.127400 4160.000000
214.131900 908.000000
215.107600 3036.000000
215.141400 468.000000
217.100500 456.000000
219.117300 572.000000
221.095900 2356.000000
221.131100 560.000000
222.104600 1536.000000
222.148400 408.000000
223.112300 4516.000000
224.115600 996.000000
225.091900 436.000000
225.128100 4076.000000
226.132100 792.000000
227.107700 784.000000
227.143900 5452.000000
228.147300 820.000000
229.122600 604.000000
231.119300 328.000000
234.103700 360.000000
235.113300 4692.000000
235.149500 356.000000
236.117900 1096.000000
236.159700 832.000000
237.128500 13460.000000
238.131700 2852.000000
239.108100 1584.000000
239.143800 6140.000000
240.110500 300.000000
240.147400 1252.000000
241.123300 1140.000000
242.129400 368.000000
244.129700 352.000000
245.096600 316.000000
245.134000 520.000000
247.112100 684.000000
247.149500 304.000000
248.121000 876.000000
249.128400 3664.000000
249.165000 712.000000
250.134500 1228.000000
250.174500 412.000000
251.108700 600.000000
251.144000 2336.000000
252.150800 1004.000000
253.121700 2028.000000
253.159500 3732.000000
254.125500 432.000000
254.163200 744.000000
255.138800 2468.000000
256.142900 304.000000
257.137700 736.000000
258.145500 356.000000
259.113300 484.000000
259.151000 724.000000
260.121800 568.000000
261.128500 2640.000000
261.166100 436.000000
262.135000 1772.000000
263.105700 552.000000
263.143500 5736.000000
263.180700 480.000000
264.147900 1800.000000
265.122300 456.000000
265.159000 1860.000000
266.129900 316.000000
266.165100 836.000000
267.138100 2244.000000
267.175900 1504.000000
268.142000 496.000000
268.176700 316.000000
272.123000 664.000000
273.125200 568.000000
273.167400 1420.000000
274.132900 416.000000
274.166900 308.000000
275.144400 3244.000000
276.151200 2580.000000
277.124800 1272.000000
277.160000 8144.000000
278.127500 476.000000
278.166200 4708.000000
279.138300 1196.000000
279.175400 14508.000000
280.178500 3396.000000
281.156300 968.000000
281.188800 852.000000
286.135900 1484.000000
287.142700 300.000000
289.159100 1460.000000
290.129600 664.000000
290.165200 400.000000
291.175700 14696.000000
292.180100 3820.000000
293.154200 1776.000000
293.186100 388.000000
294.161200 628.000000
295.135200 512.000000
295.170200 3156.000000
296.177700 1508.000000
297.188000 1188.000000
301.160000 7248.000000
302.162000 1836.000000
304.146800 912.000000
305.152200 344.000000
306.160600 828.000000
307.169200 2316.000000
308.175900 384.000000
309.185800 5604.000000
310.190300 1664.000000
311.165900 1588.000000
313.178900 364.000000
319.170400 11592.000000
320.174500 2264.000000
321.172600 464.000000
325.179600 1272.000000
327.197100 632.000000
337.181100 7492.000000
338.184400 1792.000000
339.183400 388.000000
351.198500 324.000000
353.178400 1052.000000
354.177900 308.000000
355.192900 2548.000000
357.191800 620.000000
379.191400 1640.000000
380.196900 564.000000
397.204800 1996.000000
398.209500 716.000000
433.206500 364.000000
435.221600 3112.000000
436.222500 708.000000

>ms2peaks
115.056400 608.000000
117.069400 448.000000
119.085700 2424.000000
121.065200 6016.000000
121.101700 1404.000000
123.081100 1568.000000
125.060100 656.000000
125.096800 496.000000
128.062200 1124.000000
129.070500 888.000000
131.051300 548.000000
131.086200 2976.000000
132.057300 1144.000000
132.090600 404.000000
133.065400 1780.000000
133.101700 2732.000000
135.080800 6316.000000
136.084400 780.000000
137.061300 392.000000
137.096600 1580.000000
139.075200 352.000000
141.071100 1232.000000
142.077000 536.000000
143.085400 2784.000000
144.058900 348.000000
144.090200 384.000000
145.064600 3424.000000
145.101700 2436.000000
146.071100 656.000000
147.080900 24624.000000
148.084200 3040.000000
149.096600 3316.000000
151.075500 1636.000000
153.070300 448.000000
153.091600 2468.000000
154.095600 316.000000
155.084600 1052.000000
157.065200 420.000000
157.101600 1664.000000
158.074100 1256.000000
159.081000 9284.000000
160.085700 1120.000000
161.060500 544.000000
161.096800 6000.000000
163.076600 684.000000
163.113500 352.000000
165.070700 808.000000
165.091800 600.000000
167.086400 576.000000
167.106900 3012.000000
168.092700 300.000000
169.066600 904.000000
169.101800 868.000000
170.071600 600.000000
170.107900 472.000000
171.080800 14276.000000
171.117300 856.000000
172.085400 2216.000000
173.096400 8848.000000
174.100500 876.000000
175.074700 836.000000
175.112600 892.000000
177.092000 928.000000
178.077600 608.000000
179.085800 1052.000000
179.109000 536.000000
180.093100 560.000000
181.065100 628.000000
181.103000 624.000000
182.072600 660.000000
183.080200 988.000000
183.117600 940.000000
184.091600 588.000000
185.096400 7696.000000
186.100600 1608.000000
187.076500 3524.000000
187.113000 2056.000000
188.079200 748.000000
188.115500 356.000000
189.071900 444.000000
189.092400 672.000000
190.076200 308.000000
191.087500 756.000000
192.095400 576.000000
193.087300 528.000000
193.101800 1656.000000
194.109300 528.000000
195.081800 1316.000000
195.100900 532.000000
195.117000 1280.000000
196.088500 1364.000000
197.096300 5340.000000
197.135000 468.000000
198.103000 1292.000000
199.112500 2872.000000
200.116500 448.000000
201.091900 616.000000
201.127800 300.000000
203.085900 580.000000
203.106000 408.000000
204.094300 736.000000
205.101000 812.000000
206.109300 556.000000
207.116900 1148.000000
208.088900 1364.000000
208.120800 320.000000
209.096400 4164.000000
209.134000 1136.000000
210.104100 2072.000000
211.078300 604.000000
211.112500 8304.000000
212.118600 4360.000000
213.091200 688.000000
213.128000 4252.000000
214.133200 712.000000
215.107100 2060.000000
216.093600 428.000000
218.106600 412.000000
219.118800 1648.000000
220.124600 892.000000
221.097500 4096.000000
221.133000 892.000000
222.106000 4768.000000
222.148700 812.000000
223.112500 6312.000000
224.118800 2188.000000
225.090900 460.000000
225.128900 3280.000000
226.099900 312.000000
227.108800 508.000000
227.144000 4628.000000
228.148400 1088.000000
229.105800 472.000000
229.124100 300.000000
230.111400 700.000000
231.116400 1228.000000
232.124900 368.000000
233.098000 644.000000
233.132600 608.000000
234.105800 1532.000000
235.113100 6796.000000
235.150900 1076.000000
236.118000 1500.000000
236.163100 700.000000
237.128400 11096.000000
237.163100 688.000000
238.134200 1984.000000
239.109100 1216.000000
239.144900 4400.000000
240.114000 476.000000
240.148300 508.000000
241.124900 912.000000
243.117600 692.000000
244.124400 800.000000
245.093200 304.000000
245.103800 348.000000
245.131900 940.000000
246.104300 568.000000
246.141900 336.000000
247.114700 1424.000000
247.148700 552.000000
248.120500 3328.000000
249.128300 4040.000000
249.166000 964.000000
250.134200 1480.000000
250.166700 396.000000
251.109000 700.000000
251.146000 2056.000000
252.150500 948.000000
253.123700 1568.000000
253.160200 3124.000000
254.127500 540.000000
255.138700 812.000000
256.124100 344.000000
257.132900 496.000000
258.141900 800.000000
259.111000 884.000000
259.150600 916.000000
260.120800 1108.000000
260.155000 352.000000
261.129100 2560.000000
261.165700 880.000000
262.134800 4152.000000
263.109800 516.000000
263.143500 6540.000000
263.180600 344.000000
264.111000 492.000000
264.148500 2436.000000
265.123300 392.000000
265.161200 2052.000000
266.169100 748.000000
267.137600 1280.000000
267.175800 596.000000
268.147100 340.000000
271.111900 764.000000
272.120400 872.000000
273.127200 896.000000
273.163900 684.000000
274.135800 644.000000
275.142900 2540.000000
276.152600 3828.000000
277.124800 928.000000
277.159600 6308.000000
278.129100 596.000000
278.167500 4128.000000
279.137800 584.000000
279.175300 5884.000000
280.179900 1524.000000
281.153900 464.000000
281.189600 452.000000
283.149800 368.000000
285.133400 304.000000
286.135800 2100.000000
287.140800 620.000000
289.122500 740.000000
289.159200 1192.000000
290.129400 500.000000
290.163200 332.000000
291.138600 500.000000
291.176000 5696.000000
292.179300 1800.000000
293.152400 460.000000
294.157900 308.000000
295.134600 336.000000
295.169500 1908.000000
296.174100 440.000000
297.185200 544.000000
301.161000 2996.000000
302.169300 656.000000
304.147000 724.000000
306.164900 640.000000
307.170800 1088.000000
308.172200 340.000000
309.186700 1464.000000
311.168800 992.000000
312.172000 328.000000
319.170300 2844.000000
320.175900 892.000000
325.182600 404.000000
337.183100 1496.000000
338.184000 536.000000
435.223600 804.000000

>ms2peaks
115.054100 1540.000000
116.060100 312.000000
117.070300 900.000000
119.085700 2916.000000
121.065200 6496.000000
121.101600 1176.000000
122.068200 664.000000
123.081700 980.000000
125.059700 408.000000
127.054200 304.000000
128.062800 3404.000000
129.070000 2032.000000
130.077300 396.000000
131.050300 596.000000
131.086000 2676.000000
132.057500 1452.000000
132.090400 464.000000
133.065300 1404.000000
133.101400 1752.000000
135.080800 5748.000000
136.084600 528.000000
137.060300 488.000000
137.095700 628.000000
139.056700 332.000000
139.074200 396.000000
141.070000 2004.000000
142.077600 1164.000000
143.085900 3964.000000
144.056800 1520.000000
144.090000 936.000000
145.064600 3616.000000
145.101500 2408.000000
146.072700 1020.000000
147.080700 22372.000000
148.084500 2280.000000
149.096400 1904.000000
150.101100 392.000000
151.075300 692.000000
153.070800 876.000000
153.091000 1224.000000
154.076400 720.000000
155.058800 380.000000
155.085900 2376.000000
156.091300 564.000000
157.066100 696.000000
157.101500 1436.000000
158.072800 2784.000000
159.080600 10876.000000
160.086400 1996.000000
161.059200 464.000000
161.096300 4308.000000
163.077400 796.000000
165.070300 852.000000
165.091600 388.000000
166.079300 620.000000
167.085400 1428.000000
167.107100 816.000000
168.059200 428.000000
168.092400 664.000000
169.065500 1400.000000
169.100500 1504.000000
170.072000 912.000000
170.107000 484.000000
171.081200 11536.000000
171.116800 684.000000
172.085700 1560.000000
173.096500 6236.000000
174.100600 1304.000000
175.076500 508.000000
175.110800 708.000000
177.093700 412.000000
178.077900 1592.000000
179.086100 2648.000000
180.092600 712.000000
181.065100 1380.000000
181.102400 1368.000000
182.072000 1036.000000
183.079800 1816.000000
183.119000 808.000000
184.088300 768.000000
185.059400 472.000000
185.096400 5508.000000
186.101300 1212.000000
187.076000 2688.000000
187.111000 1612.000000
188.079000 428.000000
189.072800 656.000000
189.090000 532.000000
190.078300 800.000000
191.086100 1264.000000
192.093000 1036.000000
193.101900 2628.000000
194.072900 508.000000
194.110800 1044.000000
195.081200 2184.000000
195.117100 1052.000000
196.088600 2740.000000
197.096500 5440.000000
198.102400 1608.000000
199.076000 392.000000
199.111500 1656.000000
202.077300 348.000000
203.085200 904.000000
204.093000 1912.000000
205.102400 1640.000000
206.075600 300.000000
206.110200 1016.000000
207.082300 940.000000
207.117000 2016.000000
208.088700 2376.000000
208.121600 492.000000
209.095800 4956.000000
209.131700 1060.000000
210.103200 2744.000000
211.112600 5348.000000
212.118200 3640.000000
213.090300 740.000000
213.128600 2384.000000
214.131600 460.000000
215.086500 528.000000
215.107100 1120.000000
216.094100 756.000000
216.109300 508.000000
217.102800 460.000000
218.107900 448.000000
219.080800 748.000000
219.117500 1832.000000
220.089800 712.000000
220.123500 888.000000
221.097100 4432.000000
221.132500 848.000000
222.104500 6124.000000
222.138500 352.000000
223.111400 5172.000000
224.118700 1848.000000
225.090600 404.000000
225.128600 1736.000000
226.135400 852.000000
227.109000 348.000000
227.143100 1308.000000
228.094600 328.000000
228.147400 492.000000
229.102300 1108.000000
230.108200 740.000000
231.081900 368.000000
231.117400 928.000000
232.089800 600.000000
232.125500 544.000000
233.095700 1372.000000
233.130600 432.000000
234.103800 2104.000000
234.138400 408.000000
235.112000 5100.000000
235.147500 1064.000000
236.119400 2152.000000
236.156100 628.000000
237.127900 5468.000000
237.163500 336.000000
238.102800 404.000000
238.132900 1540.000000
239.107100 572.000000
239.143600 1936.000000
240.112100 320.000000
240.151200 308.000000
241.104800 372.000000
241.121100 368.000000
242.109600 304.000000
243.117500 808.000000
244.123500 952.000000
245.096700 1080.000000
245.134900 860.000000
246.104100 1228.000000
246.137200 464.000000
247.112400 2820.000000
247.149000 536.000000
248.120300 3480.000000
249.127300 2968.000000
249.164700 448.000000
250.133800 1200.000000
250.169700 304.000000
251.111800 344.000000
251.143800 1356.000000
252.151000 1268.000000
253.122800 424.000000
253.158000 1160.000000
257.131800 320.000000
258.143200 572.000000
259.111600 864.000000
259.149400 392.000000
260.120900 1852.000000
261.128000 3484.000000
261.164500 884.000000
262.136600 3360.000000
263.106700 440.000000
263.144600 6028.000000
264.114400 324.000000
264.150000 1468.000000
265.159900 868.000000
266.165100 388.000000
267.140200 532.000000
268.130100 384.000000
269.133100 300.000000
271.113700 1484.000000
271.147700 388.000000
272.122300 832.000000
273.128600 520.000000
274.135600 756.000000
275.105200 320.000000
275.141500 788.000000
276.114200 360.000000
276.152500 2652.000000
277.122700 408.000000
277.157900 1960.000000
278.168200 1116.000000
279.140000 436.000000
279.176100 1368.000000
285.128900 500.000000
286.135300 1264.000000
287.143200 664.000000
289.123400 448.000000
289.159100 536.000000
290.126000 352.000000
291.141200 312.000000
291.176400 1252.000000
292.182400 340.000000
293.152100 336.000000
295.170200 468.000000
301.161600 1012.000000
302.160400 388.000000
304.151800 428.000000
305.156100 316.000000
306.166400 320.000000
309.185800 416.000000
319.167000 512.000000

