>compound AU39024206
>parentmass 302.1751
>ionization [M+H]+
>formula C18H23NO3
>rt 394.296000
>profile qtof
#smiles_iso CN1CC[C@]23[C@@H]4[C@H]1CC5=C2C(=C(C=C5)OC)O[C@H]3[C@H](CC4)O
#smiles_can CN1CCC23C4C1CC5=C2C(=C(C=C5)OC)OC3C(CC4)O
#inchikey RBOXVHNMENFORY-DNJOTXNNSA-N
#pubchem_id 5284543
#mb_accession AU217807,AU217808,AU217809,AU217810,AU217811

>ms2peaks
302.182600 2512260.000000

>ms2peaks
195.081600 15216.000000
199.076700 43180.000000
201.092300 47736.000000
213.092400 15800.000000
217.123900 13260.000000
227.108200 47160.000000
243.102900 25880.000000
245.119300 135400.000000
246.122600 18320.000000
302.180300 2512316.000000

>ms2peaks
137.060200 37344.000000
157.065600 15624.000000
158.072900 15384.000000
161.060300 28604.000000
163.075700 18696.000000
165.070300 13816.000000
167.086400 30420.000000
169.065400 12652.000000
171.081100 54920.000000
173.096800 40560.000000
175.076100 21484.000000
181.065600 17712.000000
183.081500 93676.000000
184.086800 17400.000000
185.097000 47772.000000
187.076200 38044.000000
189.092200 87212.000000
195.081600 137596.000000
196.086800 30868.000000
197.095900 13216.000000
199.076700 677208.000000
199.113200 44316.000000
200.079900 68644.000000
201.092300 450752.000000
202.095500 51176.000000
209.097300 23272.000000
211.076400 32608.000000
212.082900 16940.000000
213.092400 72244.000000
214.096100 12608.000000
215.107500 22384.000000
217.123500 81016.000000
218.126100 12868.000000
225.092000 41856.000000
227.108300 314276.000000
228.111200 45596.000000
241.123300 16916.000000
243.103400 150464.000000
244.106500 21552.000000
245.119200 486116.000000
246.122400 60228.000000
253.123700 21256.000000
269.142900 17232.000000
274.145400 14524.000000
284.166300 52892.000000
302.178300 2489316.000000
303.180800 638056.000000
304.183700 46196.000000

>ms2peaks
115.054900 18696.000000
128.062500 44504.000000
129.070100 30244.000000
131.049700 14280.000000
137.060300 60568.000000
141.070500 71252.000000
142.075900 11452.000000
143.049800 27040.000000
143.085500 12596.000000
144.057100 17752.000000
145.065100 16308.000000
152.062500 21516.000000
153.070300 30272.000000
155.085900 28784.000000
156.057500 21460.000000
157.065300 56048.000000
157.102100 14404.000000
158.073200 116544.000000
159.080100 34532.000000
161.060300 99584.000000
161.096600 17288.000000
162.064700 12192.000000
163.075900 29588.000000
165.070900 84384.000000
166.076400 18764.000000
167.086400 110900.000000
168.057000 10728.000000
168.090400 15724.000000
169.065500 39448.000000
170.072200 10828.000000
171.081400 353364.000000
172.052300 9712.000000
172.084800 36664.000000
173.096900 161692.000000
174.100000 20144.000000
175.075900 40948.000000
177.070700 32120.000000
178.077100 12196.000000
181.065300 42856.000000
182.072500 18572.000000
183.081500 239148.000000
184.087400 54912.000000
185.060500 28820.000000
185.096800 83864.000000
186.068300 49344.000000
186.100100 9572.000000
187.076200 78224.000000
188.080700 12028.000000
189.092200 132540.000000
190.094900 18052.000000
193.065900 26292.000000
193.102600 11832.000000
194.073000 23848.000000
195.081600 209924.000000
196.087800 71468.000000
197.060500 16140.000000
197.096100 32460.000000
198.068500 35976.000000
199.076600 1863788.000000
200.080400 186012.000000
200.116500 11056.000000
201.092100 622808.000000
202.095500 63920.000000
203.105700 12044.000000
209.097100 26988.000000
211.076300 53360.000000
212.083900 42396.000000
213.091800 69184.000000
214.063100 11180.000000
214.097400 14664.000000
215.107500 27112.000000
217.123100 48852.000000
221.097000 15704.000000
222.104300 9508.000000
225.092500 71772.000000
226.096800 14296.000000
227.108200 306368.000000
228.111000 44496.000000
241.122500 9940.000000
243.103100 102404.000000
244.106100 16540.000000
245.118900 173944.000000
246.121900 27112.000000
253.123700 14680.000000
269.142200 17204.000000
274.146000 13404.000000
284.166300 27104.000000
302.177500 551792.000000
303.180700 86596.000000

>ms2peaks
115.055000 55044.000000
116.059500 5860.000000
121.065200 7544.000000
127.054800 10916.000000
128.062600 166840.000000
129.069800 64532.000000
130.076200 10116.000000
131.049300 19988.000000
131.085100 5556.000000
137.060100 36156.000000
141.070500 223088.000000
142.075600 31768.000000
143.049400 25844.000000
143.085700 22808.000000
144.057300 37960.000000
145.065000 28972.000000
146.036600 9088.000000
146.071500 7488.000000
147.080300 10444.000000
152.062600 57380.000000
153.070200 73824.000000
154.076400 18392.000000
155.049900 17140.000000
155.085800 48904.000000
156.057500 80472.000000
156.090900 6676.000000
157.064700 56052.000000
157.101400 10620.000000
158.073300 228132.000000
159.079600 54552.000000
160.051500 6344.000000
160.084100 6428.000000
161.060500 110864.000000
161.096600 16872.000000
162.064700 12384.000000
163.075800 10084.000000
165.070600 214576.000000
166.076200 43204.000000
167.086100 100120.000000
168.057600 30776.000000
168.090700 16164.000000
169.065500 47672.000000
170.072300 17680.000000
171.081200 710696.000000
172.052100 24076.000000
172.084700 65848.000000
173.096800 138844.000000
174.067800 11668.000000
174.100000 14092.000000
175.075700 22428.000000
176.062700 9308.000000
176.081400 5052.000000
177.070500 36528.000000
178.077000 18580.000000
179.084700 7068.000000
181.065600 41620.000000
182.072500 30464.000000
183.044600 21004.000000
183.081300 145036.000000
184.052200 34952.000000
184.087600 41908.000000
185.060200 39264.000000
185.096100 31752.000000
186.067800 45772.000000
187.076000 47684.000000
188.080800 8832.000000
189.091700 39752.000000
190.094700 5700.000000
193.066200 24004.000000
193.102300 6036.000000
194.073400 34720.000000
195.081300 77836.000000
196.088200 40416.000000
197.060200 28556.000000
197.095900 19232.000000
198.068300 44840.000000
199.076400 1009984.000000
200.080200 111056.000000
201.092000 164076.000000
202.095200 20740.000000
209.096900 8728.000000
210.068700 9120.000000
211.075800 23764.000000
212.084100 28828.000000
213.091100 19848.000000
214.063300 10656.000000
214.096500 5524.000000
215.107300 9332.000000
217.122300 6640.000000
225.092100 32288.000000
226.095800 8212.000000
227.107900 61156.000000
228.109900 12828.000000
243.102400 16092.000000
245.118700 13848.000000
302.177100 19820.000000

