>compound AU40809322
>parentmass 171.1128
>ionization [M+H]+
>formula C8H14N2O2
>rt 124.230000
>profile qtof
#smiles_iso CC[C@H](C(=O)N)N1CCCC1=O
#smiles_can CCC(C(=O)N)N1CCCC1=O
#inchikey HPHUVLMMVZITSG-ZCFIWIBFSA-N
#pubchem_id 441341
#mb_accession AU160507,AU160508,AU160509,AU160510

>ms2
126.090900 168652.000000
127.094100 10212.000000
154.085600 94964.000000
155.089100 6524.000000
156.091000 860.000000
171.111900 11104.000000
172.113700 968.000000

>ms2
126.090900 168512.000000
127.093900 9756.000000
154.085600 2068.000000

>ms2
125.047500 420.000000
126.090800 39472.000000
127.094400 2628.000000

>ms2
126.090300 5752.000000

