>compound AU41240668
>parentmass 564.3085
>ionization [M+H]+
>formula C30H46NO7P
>rt 146.616000
>profile qtof
#smiles_iso CCC(=O)OC(C(C)C)OP(=O)(CCCCC1=CC=CC=C1)CC(=O)N2C[C@@H](C[C@H]2C(=O)O)C3CCCCC3
#smiles_can CCC(=O)OC(C(C)C)OP(=O)(CCCCC1=CC=CC=C1)CC(=O)N2CC(CC2C(=O)O)C3CCCCC3
#inchikey BIDNLKIUORFRQP-FKDWWROVSA-N
#pubchem_id 55891
#mb_accession AU224707,AU224708,AU224709,AU224710,AU224711

>ms2
436.225000 484.000000
492.249100 844.000000

>ms2
133.086400 1512.000000
177.113600 1052.000000
221.140000 728.000000
265.164100 448.000000
418.217300 924.000000
436.227800 1148.000000
437.229000 436.000000
459.275200 332.000000

>ms2
131.070600 752.000000
133.085800 11376.000000
134.089200 836.000000
175.098300 568.000000
177.112300 6992.000000
221.138300 1232.000000
239.150400 332.000000
265.166500 340.000000
283.176800 464.000000
299.307200 328.000000
309.189800 424.000000
327.201100 300.000000
327.342200 320.000000
390.220100 504.000000
418.217800 404.000000
436.228300 648.000000
459.283800 336.000000

>ms2
133.086600 1904.000000
152.145100 1356.000000
177.111700 584.000000
281.299000 308.000000
282.281400 708.000000
310.314100 320.000000
390.222100 896.000000
391.222400 304.000000

>ms2
133.085300 512.000000
152.143600 1812.000000
153.148300 316.000000
282.280100 752.000000
310.312600 416.000000

