>compound AU43432881
>parentmass 390.1084
>ionization [M+H]+
>formula C21H15N3O5
>rt 93.036000
>profile qtof
#smiles_iso CO/C=C(\C1=CC=CC=C1OC2=NC=NC(=C2)OC3=CC=CC=C3C#N)/C(=O)O
#smiles_can COC=C(C1=CC=CC=C1OC2=NC=NC(=C2)OC3=CC=CC=C3C#N)C(=O)O
#inchikey IKCXDZCEWZARFL-FOWTUZBSSA-N
#pubchem_id 66685656
#mb_accession AU203107,AU203108,AU203109,AU203110,AU203111

>ms2
346.122200 7568.000000
372.101500 592720.000000
373.104700 114532.000000
374.106800 11832.000000
390.112300 265060.000000
391.115500 50700.000000
392.117300 6392.000000

>ms2
133.086800 7912.000000
149.023800 2404.000000
177.113100 5036.000000
316.111000 2188.000000
329.082200 2256.000000
344.105500 21036.000000
345.109000 3616.000000
346.121100 4276.000000
347.125300 1396.000000
372.101500 188208.000000
373.104500 43420.000000
374.106400 5924.000000

>ms2
129.045000 1952.000000
133.087000 1940.000000
134.060900 9816.000000
143.060900 6208.000000
145.028900 3700.000000
156.044800 2388.000000
162.055300 3112.000000
169.040800 2864.000000
171.056000 4456.000000
172.039800 11580.000000
177.055000 4404.000000
183.056300 5116.000000
187.050900 3092.000000
201.042700 4300.000000
201.066400 11412.000000
202.049300 2324.000000
210.042800 3768.000000
210.067100 9580.000000
216.066400 17512.000000
217.070600 2216.000000
273.090700 2252.000000
287.083500 6300.000000
288.066800 1792.000000
288.085400 1920.000000
288.117100 3192.000000
289.098200 3812.000000
301.087100 12048.000000
302.089900 3356.000000
303.077500 5576.000000
312.079000 2332.000000
314.094000 4632.000000
315.101800 5636.000000
316.109700 24332.000000
317.096200 4496.000000
317.111900 5884.000000
328.073600 4052.000000
329.081900 166696.000000
330.084600 33200.000000
331.086900 4056.000000
340.073900 2744.000000
344.106000 357084.000000
345.108700 75384.000000
346.114100 11936.000000
372.101100 200228.000000
373.103500 41612.000000
374.106000 4592.000000

>ms2
114.033600 316.000000
120.045300 904.000000
129.045000 1168.000000
130.030200 324.000000
132.045300 428.000000
133.052800 1136.000000
133.086000 340.000000
134.060800 3532.000000
135.063000 580.000000
141.045600 860.000000
143.036500 448.000000
143.061400 2160.000000
144.045100 444.000000
145.028300 1360.000000
145.053200 620.000000
149.023200 2392.000000
150.028500 400.000000
154.053200 312.000000
155.061000 604.000000
156.044700 4364.000000
157.029900 308.000000
157.048100 676.000000
159.055300 396.000000
160.040200 428.000000
161.072100 812.000000
162.055400 688.000000
168.044600 328.000000
169.039900 2156.000000
170.048300 528.000000
171.031400 840.000000
171.056000 1820.000000
172.040200 5892.000000
173.047300 1220.000000
177.055100 1296.000000
182.048900 612.000000
182.071100 972.000000
183.056000 10156.000000
184.039100 492.000000
184.059800 1468.000000
185.024300 460.000000
185.045700 328.000000
185.070000 376.000000
186.055600 728.000000
187.050200 1520.000000
196.054500 312.000000
197.071600 516.000000
199.051600 2052.000000
200.034800 2516.000000
201.042700 5776.000000
201.067000 2248.000000
202.049000 936.000000
207.056000 420.000000
210.043600 4188.000000
210.067300 1392.000000
211.050600 1576.000000
212.036400 432.000000
216.066900 4732.000000
217.070200 956.000000
225.065700 352.000000
227.047300 320.000000
231.090500 384.000000
232.073800 376.000000
242.034400 1504.000000
244.087500 452.000000
245.071600 420.000000
245.097500 504.000000
246.080300 356.000000
247.086300 372.000000
258.078700 312.000000
259.086500 816.000000
261.084500 328.000000
262.087000 424.000000
271.086500 340.000000
272.082900 2772.000000
273.068500 1792.000000
273.090500 2480.000000
274.073900 940.000000
274.092100 1028.000000
275.083700 768.000000
284.083700 552.000000
285.091400 300.000000
287.083700 1328.000000
288.067500 368.000000
288.074900 480.000000
288.091400 756.000000
288.114200 596.000000
289.098000 660.000000
289.117900 352.000000
300.078500 2880.000000
301.086600 9300.000000
302.088300 1828.000000
303.085300 788.000000
312.081900 548.000000
313.080200 352.000000
314.094000 752.000000
315.102200 840.000000
316.110000 1348.000000
317.092000 356.000000
317.109100 424.000000
328.074200 7544.000000
329.081700 56856.000000
330.084800 13824.000000
331.086900 1840.000000
344.105200 15272.000000
345.107700 3932.000000
346.111100 480.000000
372.105100 1540.000000
373.103200 616.000000

>ms2
114.034500 624.000000
116.049300 544.000000
119.037200 488.000000
120.045100 1196.000000
121.065100 300.000000
127.042800 716.000000
128.050400 556.000000
129.035300 916.000000
129.044800 1748.000000
130.029800 416.000000
131.049600 372.000000
132.046100 972.000000
133.028500 500.000000
133.052400 3664.000000
134.036100 520.000000
134.061000 4000.000000
135.063700 328.000000
140.053700 300.000000
141.045300 1372.000000
143.037600 972.000000
143.061100 2048.000000
144.046100 1224.000000
145.028600 1052.000000
145.052600 2948.000000
146.024800 876.000000
146.058800 528.000000
149.023200 1312.000000
154.030600 444.000000
154.053700 476.000000
155.036900 408.000000
155.060500 1588.000000
156.045200 13008.000000
157.029400 704.000000
157.049500 1316.000000
159.034300 356.000000
159.055900 464.000000
160.038700 528.000000
161.045700 312.000000
162.032000 552.000000
169.040700 1444.000000
170.026700 376.000000
170.047800 1504.000000
171.031900 1072.000000
171.056900 2808.000000
172.040100 19548.000000
173.045000 2692.000000
174.048400 456.000000
177.055100 780.000000
181.040600 544.000000
182.048000 1424.000000
182.072600 848.000000
183.056400 14016.000000
184.041200 512.000000
184.059300 1660.000000
185.036000 440.000000
185.074400 356.000000
186.057600 708.000000
187.051900 808.000000
197.036800 440.000000
197.071400 408.000000
199.051500 5328.000000
200.035100 8892.000000
201.043100 4788.000000
201.068600 868.000000
202.045800 620.000000
210.044400 3056.000000
210.067900 612.000000
211.050500 2188.000000
216.067300 1068.000000
217.075000 396.000000
218.085500 388.000000
227.045000 368.000000
228.069800 300.000000
229.077700 348.000000
231.092500 432.000000
232.083200 456.000000
233.073000 468.000000
234.091800 308.000000
242.034800 1200.000000
244.086100 1100.000000
245.072200 1076.000000
245.094400 464.000000
246.081300 1236.000000
247.085600 612.000000
256.089000 328.000000
257.069200 428.000000
258.079900 440.000000
259.086900 608.000000
261.079600 472.000000
261.106600 304.000000
272.084500 4032.000000
273.069300 2680.000000
273.090600 3144.000000
274.075100 2044.000000
274.092200 660.000000
275.080900 1312.000000
284.084700 400.000000
287.082000 776.000000
288.065000 348.000000
288.111600 304.000000
300.079600 4960.000000
301.085500 6448.000000
302.090100 1588.000000
303.087400 336.000000
328.074200 10728.000000
329.081100 16916.000000
330.084400 3512.000000
344.104600 1104.000000

