>compound AU43141405
>parentmass 400.1755
>ionization [M+H]+
>formula C22H25NO6
>rt 121.020000
>profile qtof
#smiles_iso CC(=O)N[C@H]1CCC2=CC(=C(C(=C2C3=CC=C(C(=O)C=C13)OC)OC)OC)OC
#smiles_can CC(=O)NC1CCC2=CC(=C(C(=C2C3=CC=C(C(=O)C=C13)OC)OC)OC)OC
#inchikey IAKHMKGGTNLKSZ-INIZCTEOSA-N
#pubchem_id 6167
#mb_accession AU117207,AU117208,AU117209,AU117210,AU117211

>ms2peaks
400.177400 2501024.000000
401.179900 849460.000000
402.182200 83192.000000

>ms2peaks
282.124900 17928.000000
309.112200 14712.000000
310.119600 33980.000000
313.143200 22132.000000
326.138600 30728.000000
341.138800 61964.000000
342.141400 14064.000000
358.165500 122780.000000
359.168800 22896.000000
368.149700 16104.000000
382.165400 53056.000000
383.168900 12832.000000
400.177100 2493836.000000
401.179800 680948.000000
402.182200 68572.000000

>ms2peaks
137.059400 4500.000000
152.069700 3056.000000
181.085300 10140.000000
203.093500 3804.000000
205.085000 3492.000000
207.101400 4916.000000
219.090300 2892.000000
219.098300 3248.000000
220.096900 2920.000000
222.111500 2876.000000
234.112200 24964.000000
235.116200 4116.000000
239.106200 4360.000000
242.093600 4272.000000
245.104600 3052.000000
249.091400 4848.000000
250.097800 6456.000000
251.105800 5400.000000
252.112300 5340.000000
253.084000 2776.000000
253.120700 2836.000000
254.091700 3180.000000
255.100400 4760.000000
256.107100 3648.000000
257.116600 3744.000000
265.084500 4132.000000
266.092300 8372.000000
266.115700 3476.000000
267.101100 20644.000000
268.107400 11156.000000
269.080600 2752.000000
269.114700 3408.000000
270.087500 6540.000000
270.124300 6752.000000
271.095300 3612.000000
272.101200 2972.000000
273.111000 5504.000000
277.085500 8880.000000
278.092900 24176.000000
279.064800 4160.000000
279.099300 11864.000000
280.104800 5488.000000
281.117100 32252.000000
282.124700 129924.000000
283.096200 15812.000000
283.128200 25620.000000
284.102900 11160.000000
284.129500 5980.000000
285.111800 52132.000000
286.116100 17020.000000
287.091100 4404.000000
287.122600 3820.000000
292.106500 5440.000000
293.080500 2772.000000
293.104800 4780.000000
294.088300 15860.000000
294.111700 11400.000000
295.095900 30624.000000
295.118800 22128.000000
296.096700 9756.000000
296.124900 7972.000000
297.110100 7056.000000
297.134800 8536.000000
298.083300 5640.000000
298.119400 37704.000000
298.143100 27020.000000
299.089700 3076.000000
299.125100 21416.000000
300.098500 3792.000000
300.128300 11180.000000
301.107100 5604.000000
301.132400 5824.000000
302.114200 13616.000000
303.118700 2844.000000
307.119300 3324.000000
308.103800 5532.000000
308.127000 11164.000000
309.112200 53720.000000
310.119700 195884.000000
311.091200 22980.000000
311.121400 48232.000000
312.095500 5900.000000
312.123600 11808.000000
313.106800 23812.000000
313.143800 57600.000000
314.110200 7356.000000
314.144800 14904.000000
315.121200 6608.000000
315.147100 4688.000000
316.154100 20444.000000
317.156300 4452.000000
323.126500 6536.000000
323.150600 4416.000000
324.123200 12840.000000
325.109000 3284.000000
325.130000 16672.000000
326.114600 68864.000000
326.138300 97024.000000
327.119200 17476.000000
327.142800 29428.000000
328.118700 20960.000000
328.146200 3728.000000
329.128400 11400.000000
330.133800 12968.000000
330.169900 7464.000000
336.124000 2856.000000
338.138400 2824.000000
339.146100 16548.000000
340.154400 50332.000000
341.138700 129696.000000
342.139300 39420.000000
343.141200 25364.000000
344.144500 5028.000000
350.138000 6728.000000
351.146400 3976.000000
352.118200 8208.000000
353.123900 2888.000000
354.170100 9568.000000
357.157000 7672.000000
358.165600 314664.000000
359.168500 56804.000000
360.170600 6776.000000
367.141100 20160.000000
368.148500 18324.000000
369.151800 4440.000000
382.165000 65524.000000
383.167700 17276.000000
400.176500 533752.000000
401.179500 106804.000000
402.181600 13428.000000

>ms2peaks
119.049900 664.000000
123.044600 704.000000
130.064600 840.000000
131.049500 892.000000
132.054700 664.000000
133.052600 1140.000000
133.063600 648.000000
136.076900 636.000000
137.059700 8356.000000
138.057300 996.000000
138.064200 1272.000000
145.064500 3136.000000
146.062000 856.000000
147.044300 1000.000000
147.067500 752.000000
148.052600 948.000000
148.075000 1124.000000
149.059900 996.000000
150.054700 3812.000000
151.076000 3064.000000
152.070500 5116.000000
153.072300 1012.000000
155.070100 640.000000
158.061500 952.000000
159.044100 692.000000
160.052300 988.000000
160.075300 2600.000000
161.059000 1800.000000
161.081100 972.000000
162.056500 672.000000
162.065800 1104.000000
162.090000 668.000000
163.074300 1736.000000
164.071300 1164.000000
165.078300 6956.000000
166.062100 1720.000000
166.083900 1508.000000
167.069700 2488.000000
167.085600 1096.000000
168.076300 628.000000
172.074200 644.000000
173.060000 2512.000000
173.086100 652.000000
174.066200 1732.000000
174.090400 632.000000
175.064000 2076.000000
175.073500 2532.000000
176.071400 6564.000000
177.054500 2332.000000
177.075600 1960.000000
177.088700 1464.000000
178.061100 1232.000000
178.078400 1548.000000
179.070200 4848.000000
180.077100 1260.000000
181.064400 1396.000000
181.085800 18764.000000
182.074200 784.000000
182.089400 2540.000000
183.080000 1088.000000
187.074000 848.000000
188.082500 3284.000000
189.078400 1272.000000
189.088600 1296.000000
190.063900 1884.000000
190.086600 3740.000000
191.070300 3836.000000
191.086800 1584.000000
192.065800 2088.000000
192.075900 1676.000000
192.092900 868.000000
193.073700 2948.000000
193.100500 760.000000
194.074700 1248.000000
194.093800 2120.000000
195.080700 3924.000000
195.101900 1040.000000
196.087800 1660.000000
197.060400 1412.000000
197.096500 1160.000000
198.067400 1452.000000
199.075600 2328.000000
200.075600 956.000000
201.080900 940.000000
202.063100 636.000000
202.085900 1940.000000
203.068800 1644.000000
203.093700 8072.000000
204.065300 3072.000000
204.098200 1608.000000
205.070400 2196.000000
205.085700 4140.000000
206.079300 3476.000000
206.092800 3500.000000
207.080900 4932.000000
207.101400 11040.000000
208.051600 684.000000
208.086100 2612.000000
208.104700 2064.000000
209.060000 1436.000000
209.096100 2720.000000
209.120600 632.000000
210.068000 2680.000000
210.100100 684.000000
211.074900 3816.000000
211.111200 1448.000000
212.081900 2908.000000
213.089000 2324.000000
214.099500 1024.000000
215.070100 1072.000000
216.079000 1532.000000
217.067800 908.000000
217.085900 776.000000
218.079300 2328.000000
219.087600 6360.000000
220.093100 5876.000000
221.059100 1540.000000
221.096300 5248.000000
222.067900 1480.000000
222.109600 2804.000000
223.075700 8128.000000
223.110500 1360.000000
224.082300 7916.000000
224.108000 1392.000000
225.055000 852.000000
225.089600 6836.000000
226.062100 1712.000000
226.097900 5900.000000
227.070400 7984.000000
227.106100 3852.000000
228.074700 1896.000000
228.106900 960.000000
229.083100 2148.000000
230.083100 816.000000
230.093600 688.000000
231.100700 2156.000000
232.072400 644.000000
232.098100 1144.000000
233.059900 1756.000000
233.082700 760.000000
233.101700 1172.000000
234.066600 3704.000000
234.092000 1928.000000
234.112700 17876.000000
235.075300 14752.000000
235.097300 2104.000000
235.118400 3592.000000
236.081700 7364.000000
236.105500 3012.000000
237.054500 1716.000000
237.090700 10368.000000
237.111900 2620.000000
238.061000 1176.000000
238.097700 9188.000000
239.070300 3964.000000
239.106300 19268.000000
240.078200 7588.000000
240.110700 6380.000000
241.085200 12440.000000
241.115400 1432.000000
242.093100 14604.000000
242.113700 1048.000000
243.065900 2556.000000
243.099300 3456.000000
244.071100 924.000000
244.098100 1100.000000
245.079100 980.000000
245.105300 1816.000000
246.074800 968.000000
246.085900 1052.000000
246.110800 2072.000000
247.075900 4084.000000
247.096800 1088.000000
248.082400 5828.000000
248.105600 1712.000000
249.052200 748.000000
249.090000 10796.000000
249.111200 1560.000000
250.062800 1716.000000
250.097900 14816.000000
251.070100 18088.000000
251.106100 19412.000000
252.077200 16704.000000
252.111900 10932.000000
253.050600 876.000000
253.085300 12560.000000
253.118400 4504.000000
254.093200 9864.000000
254.116700 2608.000000
255.065600 9832.000000
255.101600 19652.000000
256.070000 3692.000000
256.106600 8220.000000
257.079700 3796.000000
257.115500 5876.000000
258.088700 5960.000000
258.113000 2312.000000
259.095000 2164.000000
259.119700 872.000000
260.103900 692.000000
260.130400 856.000000
261.056200 736.000000
261.100300 1424.000000
262.062900 2044.000000
262.086400 2228.000000
263.070500 12400.000000
263.094400 3392.000000
264.076400 5628.000000
264.101700 7524.000000
265.086000 17720.000000
265.109000 7744.000000
266.093700 20744.000000
266.117000 6108.000000
267.102000 86988.000000
268.073100 5536.000000
268.105100 30360.000000
269.080500 11900.000000
269.111300 7080.000000
270.088700 22104.000000
270.122900 8132.000000
271.059400 1372.000000
271.095000 12120.000000
271.130700 3196.000000
272.070400 904.000000
272.103700 5380.000000
272.128500 3724.000000
273.078100 820.000000
273.112400 6000.000000
275.069300 816.000000
275.093700 1100.000000
275.127500 668.000000
276.077800 2788.000000
276.102800 2864.000000
277.085500 9060.000000
277.109600 3736.000000
278.093100 27228.000000
279.064600 18252.000000
279.100700 21372.000000
280.071500 9272.000000
280.100200 16980.000000
280.130700 3648.000000
281.080200 4884.000000
281.117100 33340.000000
282.124900 111784.000000
283.096900 53360.000000
283.128100 24908.000000
284.102200 23692.000000
284.128300 9460.000000
285.076400 4828.000000
285.112500 62400.000000
286.082600 3160.000000
287.092000 18320.000000
287.116000 3456.000000
288.095700 3684.000000
288.121900 772.000000
288.128200 748.000000
289.108900 852.000000
290.117600 1060.000000
291.097600 1672.000000
291.123300 1064.000000
292.098800 8860.000000
293.080500 10968.000000
293.105000 10296.000000
293.140900 840.000000
294.088700 20840.000000
294.112100 20764.000000
295.097100 107484.000000
295.119500 28284.000000
296.068900 3216.000000
296.126700 13164.000000
297.076200 2336.000000
297.109600 14872.000000
297.134300 9644.000000
298.084000 5792.000000
298.119800 36972.000000
298.144000 23908.000000
299.090800 5416.000000
299.123800 20284.000000
300.096100 6000.000000
300.124000 35600.000000
301.106500 5104.000000
301.129700 19312.000000
302.115900 11380.000000
303.119100 2920.000000
304.097000 972.000000
305.107600 980.000000
306.112900 4848.000000
307.097200 1232.000000
307.120600 4760.000000
308.104400 6572.000000
308.128800 15184.000000
309.111800 30888.000000
310.119100 125072.000000
311.092000 79224.000000
311.119700 32588.000000
312.095600 16292.000000
312.123700 19868.000000
313.105400 10340.000000
313.143300 16876.000000
314.103800 14988.000000
314.140100 15940.000000
315.111700 6564.000000
315.143500 5936.000000
316.108500 996.000000
316.122200 1324.000000
316.155100 10496.000000
317.158300 2096.000000
319.121300 1020.000000
320.093500 2404.000000
320.127300 1956.000000
321.099300 3176.000000
321.134900 848.000000
322.107100 1944.000000
322.145300 1816.000000
323.119200 3416.000000
323.150800 4396.000000
324.123400 29920.000000
325.107700 8476.000000
325.129700 14240.000000
326.115700 41020.000000
326.138400 38276.000000
327.119400 10128.000000
327.144600 12668.000000
328.119100 47636.000000
329.123700 15900.000000
330.132900 5780.000000
330.169800 3784.000000
331.137900 1360.000000
331.173400 1024.000000
334.107900 2440.000000
335.113800 2296.000000
336.123300 4392.000000
337.099400 1392.000000
337.128700 1032.000000
338.103400 1188.000000
338.139800 5664.000000
339.146800 18416.000000
340.154600 21604.000000
341.139000 25764.000000
342.136200 31240.000000
343.140600 20708.000000
344.144500 3744.000000
345.144900 652.000000
350.138400 2388.000000
351.113400 956.000000
351.144500 1660.000000
352.118300 9412.000000
352.147100 908.000000
353.122600 2752.000000
354.133000 1284.000000
354.170400 4404.000000
355.172300 1232.000000
356.150400 1436.000000
357.121700 1056.000000
357.159200 2580.000000
358.165800 44588.000000
359.168400 10068.000000
360.172000 1196.000000
366.134700 4180.000000
367.142500 8452.000000
368.146800 3092.000000
369.149800 824.000000
370.127900 1368.000000
382.165000 6880.000000
383.168800 1932.000000
384.145100 2516.000000
385.149300 716.000000
400.176200 12220.000000
401.181200 2960.000000

>ms2peaks
115.054400 1396.000000
119.048900 1084.000000
121.064300 884.000000
123.043400 968.000000
125.059300 1152.000000
128.060800 708.000000
130.040200 612.000000
130.064700 1460.000000
131.049200 1612.000000
132.056300 1120.000000
133.052500 7976.000000
134.056400 820.000000
135.031500 1684.000000
135.043700 676.000000
136.051900 864.000000
137.046600 1252.000000
137.059600 10524.000000
138.066200 1532.000000
139.053900 844.000000
141.070600 944.000000
143.049100 512.000000
144.056700 936.000000
145.051900 584.000000
145.064500 4008.000000
146.060500 1908.000000
146.072400 816.000000
147.044100 2376.000000
147.067800 1668.000000
147.079700 756.000000
148.051600 2924.000000
148.075700 2668.000000
149.058800 2428.000000
150.054800 6080.000000
151.038000 1104.000000
151.057600 752.000000
151.074700 2864.000000
152.068500 4100.000000
153.055400 672.000000
153.069500 2180.000000
154.074500 892.000000
155.050800 540.000000
155.067500 564.000000
155.083800 656.000000
156.056500 972.000000
157.063100 572.000000
158.058900 1936.000000
158.072000 1004.000000
159.043500 1112.000000
159.067600 648.000000
159.079400 568.000000
160.052000 1612.000000
160.075800 2564.000000
161.047200 908.000000
161.059200 3276.000000
161.081500 1168.000000
162.066400 852.000000
163.037000 564.000000
163.061800 524.000000
163.074200 1732.000000
164.069700 2292.000000
165.055200 832.000000
165.074300 5996.000000
166.062800 2420.000000
166.077600 2532.000000
167.047000 776.000000
167.070300 1340.000000
167.085200 3804.000000
168.056900 940.000000
168.079900 588.000000
169.064800 1852.000000
170.070800 900.000000
171.046700 564.000000
171.067300 512.000000
171.079600 1704.000000
172.050900 652.000000
172.075700 904.000000
173.059500 2440.000000
173.084400 584.000000
174.057000 1244.000000
174.067000 1580.000000
174.092200 736.000000
175.039500 796.000000
175.063000 2532.000000
175.074100 2888.000000
176.069900 9708.000000
176.081400 5972.000000
177.054200 3456.000000
177.072100 2512.000000
177.088300 1716.000000
178.061400 1056.000000
178.077400 4264.000000
179.070400 4948.000000
179.084800 5088.000000
180.056600 1400.000000
180.085700 1764.000000
181.064700 6388.000000
181.085400 13324.000000
182.071700 4020.000000
182.089300 1348.000000
183.044500 600.000000
183.079800 3488.000000
184.052900 1144.000000
184.078100 916.000000
184.087800 1468.000000
185.059100 1240.000000
185.094700 672.000000
186.058300 584.000000
186.065600 636.000000
187.038700 628.000000
187.074200 1204.000000
188.071000 5500.000000
189.055100 1312.000000
189.072600 3296.000000
189.092700 752.000000
190.062400 2012.000000
190.073800 1592.000000
190.086500 2280.000000
191.053500 564.000000
191.069800 4888.000000
191.085100 3748.000000
192.065300 3772.000000
192.091600 1764.000000
193.067200 2968.000000
193.088600 1500.000000
193.098600 1460.000000
194.072300 5132.000000
194.097000 1424.000000
195.045200 904.000000
195.080000 15652.000000
195.100200 1060.000000
196.051400 1104.000000
196.087300 7220.000000
197.059300 5160.000000
197.095400 3272.000000
198.066800 4468.000000
198.096600 1252.000000
199.074600 7660.000000
199.112900 508.000000
201.055600 1528.000000
201.081900 988.000000
202.061300 844.000000
202.082200 1292.000000
203.070900 1112.000000
203.093700 7164.000000
204.065200 6840.000000
204.099000 1128.000000
205.066000 6556.000000
205.084800 3056.000000
206.073100 6664.000000
206.091700 3216.000000
207.080000 16972.000000
207.101600 6868.000000
208.052200 2672.000000
208.086900 8956.000000
209.059400 6072.000000
209.095700 10264.000000
209.117400 964.000000
210.066800 6224.000000
210.096700 2372.000000
211.074700 13144.000000
211.110400 3552.000000
212.047000 1268.000000
212.082700 10996.000000
212.108100 1100.000000
213.053900 1648.000000
213.090000 5592.000000
214.060800 1984.000000
214.093500 1644.000000
215.070300 2356.000000
215.093500 528.000000
215.101800 616.000000
216.077300 1584.000000
216.104500 508.000000
217.066200 2200.000000
217.084900 1008.000000
218.078600 3448.000000
219.045600 616.000000
219.081900 7504.000000
220.052700 2500.000000
220.088800 5336.000000
221.059400 4808.000000
221.095400 7740.000000
222.067300 6152.000000
222.092200 4332.000000
223.074800 25312.000000
223.107600 1924.000000
224.082800 26012.000000
224.107400 3000.000000
225.055000 4768.000000
225.088900 14820.000000
226.061400 4728.000000
226.096600 7676.000000
227.070300 22408.000000
227.105400 6708.000000
228.074900 5640.000000
228.104700 1348.000000
229.047900 700.000000
229.085000 3032.000000
229.110700 760.000000
230.057500 792.000000
230.080400 700.000000
231.086200 1236.000000
231.099300 1284.000000
232.050700 504.000000
232.082700 1132.000000
233.060300 4376.000000
233.082700 2080.000000
233.096100 1352.000000
234.067300 6996.000000
234.089900 4516.000000
234.112200 3452.000000
235.075300 29864.000000
235.099000 2424.000000
236.046400 2584.000000
236.081500 18664.000000
236.107000 6208.000000
237.055000 6824.000000
237.090700 24512.000000
237.113800 3724.000000
238.061200 3940.000000
238.097300 12428.000000
238.120500 1088.000000
239.070300 11140.000000
239.106700 35728.000000
240.078100 20928.000000
240.107400 9004.000000
241.049200 1208.000000
241.085300 23132.000000
241.110000 2380.000000
242.058000 1496.000000
242.092400 14004.000000
243.064800 4880.000000
243.098200 4400.000000
244.073000 2612.000000
244.102500 1080.000000
245.061100 660.000000
245.077400 1148.000000
245.103300 744.000000
246.071400 1232.000000
246.091400 1488.000000
246.110600 824.000000
247.037500 604.000000
247.075100 6384.000000
247.098200 1824.000000
248.045700 952.000000
248.082300 7140.000000
248.106200 2248.000000
249.053600 2752.000000
249.090200 12136.000000
250.061900 7060.000000
250.094600 13832.000000
251.070300 40220.000000
251.106000 19060.000000
252.077600 36104.000000
252.105700 13580.000000
253.049300 4676.000000
253.083900 19180.000000
253.108800 5820.000000
254.055200 2452.000000
254.091000 10972.000000
254.117500 3048.000000
255.064800 22896.000000
255.101400 26076.000000
256.070800 10040.000000
257.045500 1232.000000
257.079300 5620.000000
257.111100 4012.000000
258.088100 4560.000000
258.114700 2604.000000
259.095400 3284.000000
259.120400 660.000000
260.102500 1136.000000
261.055000 1332.000000
261.088300 1436.000000
262.062000 1528.000000
262.086100 3660.000000
263.070000 19292.000000
263.094300 5272.000000
264.046400 728.000000
264.076000 10252.000000
264.101700 12380.000000
265.049900 3088.000000
265.086000 31340.000000
265.107900 6680.000000
266.054400 1500.000000
266.091600 19340.000000
266.115800 6148.000000
267.064500 6816.000000
267.101700 100784.000000
268.073000 19068.000000
268.102000 34516.000000
269.079800 20112.000000
269.106200 8084.000000
270.088000 17632.000000
270.112900 5576.000000
271.059400 2104.000000
271.094100 12152.000000
271.117600 2144.000000
272.065800 2208.000000
272.096900 4556.000000
272.128300 3980.000000
273.074000 1668.000000
273.111700 2452.000000
274.086300 1000.000000
275.073300 800.000000
275.092700 1328.000000
276.078700 1968.000000
276.101400 2652.000000
277.085700 6784.000000
277.106000 2792.000000
278.056400 1768.000000
278.088800 13792.000000
278.115500 4108.000000
279.065100 19792.000000
279.098800 14264.000000
280.072600 15276.000000
280.097600 17712.000000
280.132100 1624.000000
281.044200 1448.000000
281.078000 8092.000000
281.114600 12308.000000
282.085400 7300.000000
282.121500 29272.000000
283.060400 2660.000000
283.096600 53104.000000
283.123000 8228.000000
284.066700 1496.000000
284.100100 16624.000000
284.127900 5924.000000
285.075100 5828.000000
285.110600 17504.000000
286.109000 13152.000000
286.143000 1024.000000
287.091100 14972.000000
288.096000 3032.000000
289.107700 1052.000000
290.083300 656.000000
290.117900 1076.000000
291.093300 1924.000000
291.122700 636.000000
292.096600 10880.000000
292.131300 792.000000
293.081200 10968.000000
293.104300 10548.000000
294.086700 10776.000000
294.112700 15964.000000
295.096700 73708.000000
296.068700 7752.000000
296.127100 8372.000000
297.074200 3060.000000
297.109900 10944.000000
298.082100 3096.000000
298.117900 10708.000000
298.143400 4396.000000
299.088300 3956.000000
299.119400 7324.000000
300.088800 5420.000000
300.123600 38844.000000
301.128800 11552.000000
302.114100 2416.000000
302.134600 2148.000000
303.119500 700.000000
304.096900 788.000000
305.103200 1236.000000
306.076300 732.000000
306.111900 3648.000000
307.096700 2048.000000
307.119600 2660.000000
308.092800 4572.000000
308.128100 7492.000000
309.078200 1020.000000
309.106700 9436.000000
310.084900 2560.000000
310.114000 23076.000000
311.091800 48508.000000
312.095100 10372.000000
312.123100 9360.000000
313.096200 4788.000000
313.125800 2272.000000
313.140800 2308.000000
314.102500 10792.000000
314.139400 5308.000000
315.107600 3180.000000
315.142800 2180.000000
316.109300 772.000000
316.152400 1412.000000
319.085300 544.000000
320.092000 2480.000000
320.127400 1160.000000
321.098400 3216.000000
322.073400 636.000000
322.106200 1704.000000
322.141500 1112.000000
323.115400 3148.000000
323.150100 700.000000
324.123300 17804.000000
325.108500 6552.000000
325.127600 5644.000000
326.114000 6308.000000
326.139200 5400.000000
327.112900 3152.000000
327.144100 2232.000000
328.117700 15924.000000
329.121900 4328.000000
330.127500 728.000000
334.107900 1612.000000
335.113800 660.000000
336.088900 1316.000000
336.124900 1428.000000
337.094000 1252.000000
337.124500 572.000000
338.101500 712.000000
338.139500 3412.000000
339.146700 3868.000000
340.120400 836.000000
340.153900 2960.000000
341.139500 1752.000000
342.096200 1020.000000
342.133900 10620.000000
343.140500 4408.000000
344.143600 1024.000000
351.111300 1520.000000
352.118600 2796.000000
353.125500 672.000000
358.164300 2104.000000
366.133800 980.000000
367.139000 1116.000000
384.147300 768.000000

