>compound AU45467962
>parentmass 316.1543
>ionization [M+H]+
>formula C18H21NO4
>rt 373.992000
>profile qtof
#smiles_iso CN1CC[C@]23[C@@H]4C(=O)CC[C@]2([C@H]1CC5=C3C(=C(C=C5)OC)O4)O
#smiles_can CN1CCC23C4C(=O)CCC2(C1CC5=C3C(=C(C=C5)OC)O4)O
#inchikey BRUQQQPBMZOVGD-XFKAJCMBSA-N
#pubchem_id 5284603
#mb_accession AU160207,AU160208,AU160209,AU160210,AU160211

>ms2peaks
298.143900 86792.000000
299.146300 15804.000000
316.154800 2074504.000000
317.157900 292208.000000
318.159700 31172.000000

>ms2peaks
187.074200 13940.000000
213.089900 4828.000000
241.085500 7460.000000
241.108900 48652.000000
242.112100 8008.000000
256.132400 46880.000000
257.134900 8308.000000
298.143500 925224.000000
299.146600 162884.000000
300.149500 16004.000000
316.154000 712076.000000
317.157200 110288.000000
318.159500 11896.000000

>ms2peaks
161.082600 9080.000000
175.074400 28384.000000
181.063900 17840.000000
187.074600 65820.000000
188.077300 8252.000000
189.090000 8216.000000
195.080400 5596.000000
197.058700 9780.000000
199.074500 18308.000000
201.090300 3728.000000
202.085800 13252.000000
203.092200 4828.000000
212.106200 7932.000000
213.090100 29996.000000
213.113900 5568.000000
214.094700 4704.000000
215.105300 5624.000000
224.106500 20672.000000
225.089600 11824.000000
225.111300 4752.000000
226.086000 6388.000000
227.104700 8768.000000
228.102300 6436.000000
228.137900 6820.000000
229.084500 7036.000000
238.120600 4152.000000
239.105400 6100.000000
240.101400 8544.000000
241.084600 32696.000000
241.109300 258692.000000
242.089400 6244.000000
242.112900 41612.000000
243.121900 6952.000000
248.105800 3840.000000
249.112600 4048.000000
252.101300 8140.000000
254.117400 5316.000000
255.100600 9100.000000
255.122700 5276.000000
256.132600 244364.000000
257.135700 34552.000000
266.116400 8200.000000
267.100700 4956.000000
268.097500 3956.000000
269.103700 5308.000000
270.111700 10608.000000
270.147800 12008.000000
280.132100 13892.000000
283.119700 10824.000000
298.143500 743492.000000
299.146600 124144.000000
316.153800 48456.000000
317.157200 10152.000000

>ms2peaks
115.054500 2836.000000
128.061300 2080.000000
129.069400 3928.000000
131.048600 5592.000000
131.084700 2068.000000
132.056000 2424.000000
132.080100 6920.000000
133.064600 2268.000000
133.087800 2596.000000
137.059100 3316.000000
141.069000 4624.000000
143.048900 2736.000000
144.055800 3400.000000
145.062600 2448.000000
146.035700 1876.000000
148.074700 2144.000000
152.061400 2616.000000
153.068500 12452.000000
154.074700 2564.000000
155.084400 2840.000000
157.064300 4372.000000
158.071100 2252.000000
159.043000 5268.000000
159.066800 1764.000000
159.079400 11076.000000
160.050400 6136.000000
160.074400 4856.000000
161.058800 7684.000000
161.082300 7996.000000
162.065000 1696.000000
162.089200 1820.000000
163.074300 1640.000000
165.068800 4780.000000
166.075500 2196.000000
167.084000 5568.000000
168.055700 2092.000000
168.080500 1952.000000
169.063500 6048.000000
170.070400 3312.000000
170.095400 2080.000000
171.079400 7736.000000
172.050800 4812.000000
172.084900 2756.000000
173.082900 3004.000000
174.066200 3084.000000
174.090900 6344.000000
175.074500 69452.000000
176.077900 6808.000000
178.079300 1632.000000
179.084300 4252.000000
181.064000 31920.000000
181.087700 4008.000000
182.069100 6784.000000
182.094600 2872.000000
183.078900 6420.000000
184.050200 1956.000000
184.110900 3016.000000
185.057700 4084.000000
185.094800 2556.000000
186.066200 3544.000000
187.074600 50896.000000
188.076300 7220.000000
189.089700 4900.000000
193.064600 2636.000000
194.096400 1608.000000
195.079700 10036.000000
195.104300 1600.000000
196.085500 4304.000000
196.111600 6148.000000
197.058600 8500.000000
197.093200 3792.000000
198.066800 6804.000000
198.090500 11704.000000
199.074300 40320.000000
200.079000 7208.000000
201.090400 5420.000000
202.085700 18288.000000
203.091500 6416.000000
207.079600 4700.000000
208.086400 2608.000000
209.059500 2468.000000
209.083300 2440.000000
209.093300 2900.000000
210.066200 6844.000000
210.089800 6760.000000
211.073600 6276.000000
211.097300 4548.000000
212.081700 4880.000000
212.106200 57912.000000
213.089900 31880.000000
213.113400 37464.000000
214.093000 6464.000000
214.117300 5124.000000
215.105700 9480.000000
216.107200 1792.000000
220.109600 2220.000000
221.082500 5708.000000
222.089700 3616.000000
223.073900 3872.000000
223.097700 4296.000000
224.082200 4124.000000
224.106000 22160.000000
225.089900 20276.000000
225.112600 9508.000000
226.062000 1928.000000
226.086200 35976.000000
226.120100 3400.000000
227.092200 11584.000000
227.103600 10076.000000
227.128600 3372.000000
228.100600 14244.000000
228.137300 12328.000000
229.085300 3572.000000
229.105700 2788.000000
229.141700 1892.000000
230.116500 2424.000000
234.089500 2216.000000
235.073500 1752.000000
236.105300 1596.000000
237.089100 1860.000000
237.112900 2192.000000
238.121500 5344.000000
239.103700 8364.000000
239.121200 1804.000000
240.101100 35412.000000
241.084600 18236.000000
241.109200 318976.000000
242.090500 5084.000000
242.113000 49696.000000
243.121500 7820.000000
248.105600 4516.000000
249.112900 4164.000000
250.086400 1880.000000
251.091600 1600.000000
252.100500 6308.000000
254.080900 4184.000000
254.116400 14880.000000
255.100600 5340.000000
255.123500 9428.000000
256.132700 131360.000000
257.115700 2496.000000
257.135300 19104.000000
258.138400 1888.000000
264.100300 2984.000000
265.108700 6040.000000
266.116600 13148.000000
267.100800 3216.000000
267.121500 4536.000000
268.096800 8160.000000
269.102900 6204.000000
270.111500 10496.000000
270.147900 8008.000000
271.113600 2552.000000
271.150200 1748.000000
280.132000 6796.000000
281.137900 1640.000000
282.111600 6920.000000
283.119200 11332.000000
284.122400 1860.000000
298.143400 82780.000000
299.146300 14572.000000
316.154000 3020.000000

>ms2peaks
115.054000 6664.000000
117.057000 1384.000000
120.079700 772.000000
127.053100 1708.000000
128.061400 8276.000000
129.068400 6332.000000
131.048100 13248.000000
131.072300 824.000000
131.084500 2356.000000
132.056100 9040.000000
132.080200 9436.000000
133.063700 2820.000000
133.085900 1988.000000
137.058100 1528.000000
139.053100 1520.000000
141.068800 11876.000000
142.074700 2700.000000
143.048500 2536.000000
143.083600 1084.000000
144.055900 7996.000000
144.079400 1780.000000
145.063600 4512.000000
145.087000 764.000000
146.035700 3120.000000
146.070600 1676.000000
147.042000 960.000000
147.066200 848.000000
147.080100 840.000000
148.051200 1080.000000
148.074600 1972.000000
151.074100 1404.000000
152.061100 11080.000000
153.069000 23948.000000
154.074600 5108.000000
155.048500 3916.000000
155.073100 1956.000000
155.084000 5032.000000
156.056100 2808.000000
156.083300 1404.000000
157.063500 4316.000000
157.088000 1164.000000
158.071100 5348.000000
158.094900 1284.000000
159.043400 8112.000000
159.079200 13648.000000
160.050700 14516.000000
160.075100 7176.000000
161.058000 6172.000000
161.081800 3412.000000
162.064500 1576.000000
162.089500 892.000000
163.071500 788.000000
165.069200 10880.000000
166.075100 4136.000000
167.084300 8792.000000
168.056200 4648.000000
168.080000 6732.000000
169.063900 10928.000000
169.087000 5928.000000
170.071500 6544.000000
170.095100 6692.000000
171.043000 2432.000000
171.079000 10792.000000
171.100600 1332.000000
172.050700 8132.000000
172.076300 3016.000000
172.085300 4948.000000
173.056900 2296.000000
173.082500 3308.000000
174.066600 3484.000000
174.090200 6092.000000
175.074600 58872.000000
176.062900 844.000000
177.070300 1364.000000
178.076600 4088.000000
179.084300 5376.000000
180.055500 1392.000000
180.080500 3820.000000
181.064000 24236.000000
181.087900 20124.000000
182.070200 9992.000000
182.094500 7856.000000
183.043200 4256.000000
183.078500 7720.000000
183.102100 2680.000000
184.050600 8508.000000
184.075400 3520.000000
184.084500 2708.000000
184.111000 8512.000000
185.058000 6520.000000
185.081200 1496.000000
185.094300 2812.000000
185.117800 1852.000000
186.065800 3504.000000
186.090800 1360.000000
187.074900 13804.000000
187.110800 1332.000000
188.071700 4056.000000
189.070900 1260.000000
189.089700 1796.000000
191.086700 1052.000000
193.063400 3264.000000
193.087100 908.000000
194.070700 2488.000000
194.095300 5596.000000
195.078900 7788.000000
195.101700 3292.000000
196.049800 2324.000000
196.076400 5980.000000
196.084000 6336.000000
196.110900 7364.000000
197.058300 5736.000000
197.082600 13452.000000
197.117200 1588.000000
198.066700 11328.000000
198.090400 32448.000000
199.074400 35820.000000
199.095000 4588.000000
200.079300 6132.000000
200.105200 1376.000000
201.088800 2644.000000
202.085300 8888.000000
203.090600 2764.000000
205.064400 848.000000
205.087600 1052.000000
206.071600 1092.000000
207.079800 3444.000000
208.076700 2856.000000
208.110600 1588.000000
209.059300 3908.000000
209.082000 5232.000000
209.116200 1080.000000
210.066600 9292.000000
210.090600 14792.000000
210.127400 1292.000000
211.072600 6876.000000
211.097700 7208.000000
212.106500 149884.000000
213.089400 14232.000000
213.112500 45608.000000
214.064000 1088.000000
214.086300 5484.000000
214.116700 5828.000000
215.105000 4560.000000
218.095000 1136.000000
220.111500 2732.000000
221.082600 4888.000000
221.117800 1020.000000
222.090400 7028.000000
223.075100 2852.000000
223.096800 4604.000000
224.082000 3748.000000
224.106000 14128.000000
225.087900 10632.000000
225.113300 6864.000000
226.085800 81812.000000
226.121200 4268.000000
227.067800 1404.000000
227.090800 15944.000000
227.128100 1748.000000
228.100500 10440.000000
228.137400 4308.000000
229.084200 1032.000000
229.104700 1644.000000
230.117100 1860.000000
234.067300 884.000000
234.090500 2556.000000
235.072300 1252.000000
235.092400 848.000000
236.070100 988.000000
236.105500 2552.000000
237.052500 852.000000
237.085200 1196.000000
237.113300 1536.000000
238.086300 3952.000000
238.121700 6196.000000
239.069000 1912.000000
239.093400 8548.000000
239.127000 1532.000000
240.101000 50212.000000
241.109000 117040.000000
242.113100 22000.000000
243.119600 3016.000000
247.097800 996.000000
248.106100 2876.000000
249.114400 1452.000000
250.085300 2788.000000
250.119900 784.000000
251.090900 1172.000000
252.077200 1680.000000
252.101400 1880.000000
253.074200 1172.000000
253.106300 772.000000
254.080600 5424.000000
254.117100 13432.000000
255.087700 3304.000000
255.122800 4520.000000
256.132300 19080.000000
257.136200 3268.000000
264.101000 4660.000000
265.109000 3852.000000
266.116900 7964.000000
267.120800 1716.000000
268.095500 6708.000000
268.129400 848.000000
269.102900 2316.000000
270.112200 4000.000000
270.146500 1552.000000
280.132800 1080.000000
282.111600 6088.000000
283.118800 3296.000000
298.143600 4124.000000
299.144400 824.000000

