>compound AU52210571
>parentmass 182.0126
>ionization [M+H]+
>formula C5H11NS3
>rt 234.840000
>profile qtof
#smiles_iso CN(C)C1CSSSC1
#smiles_can CN(C)C1CSSSC1
#inchikey DNVLJEWNNDHELH-UHFFFAOYSA-N
#pubchem_id 35970
#mb_accession AU382507,AU382508,AU382509,AU382510

>ms2
136.955000 25288.000000
138.951000 3520.000000
182.013200 51980.000000
183.014600 3928.000000
184.008900 7608.000000

>ms2
136.954900 48348.000000
137.957300 2116.000000
138.950300 5824.000000
182.012400 4948.000000
184.007800 612.000000

>ms2
136.954600 8176.000000
138.951000 1044.000000

>ms2
136.954400 1200.000000

