>compound AU53230258
>parentmass 324.207
>ionization [M+H]+
>formula C20H25N3O
>rt 375.912000
>profile qtof
#smiles_iso CCN(CC)C(=O)C1CN(C2CC3=CNC4=CC=CC(=C34)C2=C1)C
#smiles_can CCN(CC)C(=O)C1CN(C2CC3=CNC4=CC=CC(=C34)C2=C1)C
#inchikey VAYOSLLFUXYJDT-UHFFFAOYSA-N
#pubchem_id 3981
#mb_accession AU162507,AU162508,AU162509,AU162510,AU162511

>ms2peaks
223.122300 36204.000000
281.164300 51936.000000
324.206000 2505120.000000

>ms2peaks
128.106200 45344.000000
180.079600 23256.000000
192.079700 38984.000000
197.106600 270008.000000
198.109300 31272.000000
208.074800 157040.000000
208.098500 26308.000000
209.077800 19656.000000
223.122400 1678860.000000
224.125500 245576.000000
225.128500 14724.000000
251.117400 146000.000000
252.120300 23684.000000
281.164200 646368.000000
282.167300 114132.000000
293.163400 22772.000000
309.182400 50980.000000
324.208800 2488800.000000

>ms2peaks
128.106400 117856.000000
154.064400 13016.000000
156.079600 18252.000000
167.071800 18592.000000
168.079500 29152.000000
180.079900 337332.000000
181.084500 45916.000000
182.094800 88628.000000
191.071600 16168.000000
192.079900 201168.000000
193.083000 37200.000000
194.095100 79840.000000
195.101600 24388.000000
196.110700 28832.000000
197.106600 719780.000000
198.109600 72764.000000
207.067100 22596.000000
207.090800 144384.000000
208.074900 960024.000000
208.098500 702388.000000
209.078000 97848.000000
209.102600 86664.000000
210.089500 26364.000000
220.098500 15844.000000
221.106400 108368.000000
222.113000 50164.000000
223.123700 2512180.000000
224.125500 866444.000000
225.128800 44844.000000
251.117100 177112.000000
252.120500 30500.000000
281.164200 633524.000000
282.167400 99796.000000
309.182500 80592.000000
310.185500 16380.000000
324.206300 1048512.000000
325.209500 178772.000000
326.212000 16004.000000

>ms2peaks
128.106700 84028.000000
152.061400 18588.000000
153.069300 49764.000000
154.064900 73304.000000
156.080200 37296.000000
165.069300 32696.000000
167.072600 169704.000000
168.079900 103136.000000
180.080600 917608.000000
181.064700 19440.000000
181.086600 218904.000000
182.083900 144392.000000
182.095100 347196.000000
183.098600 39536.000000
190.064700 32800.000000
191.072700 153264.000000
192.080500 592256.000000
193.079600 127020.000000
194.081800 36040.000000
194.095800 238328.000000
195.103000 122700.000000
196.111300 127616.000000
197.107400 576128.000000
198.110500 62004.000000
205.075800 13460.000000
206.095100 31000.000000
207.067600 202724.000000
207.091700 1456016.000000
208.075600 1332000.000000
208.099300 2409848.000000
209.079000 124260.000000
209.103100 279672.000000
210.090300 22268.000000
210.106000 15488.000000
220.099200 40620.000000
221.107300 363132.000000
222.114000 157728.000000
223.123600 2511344.000000
224.126400 567948.000000
225.129400 27332.000000
236.094100 14340.000000
251.117700 39372.000000
281.164900 76892.000000
324.207300 18144.000000

>ms2peaks
128.106500 25320.000000
129.069400 30408.000000
141.069000 13812.000000
152.061400 67852.000000
153.056700 12252.000000
153.069100 200916.000000
154.065000 168100.000000
155.069600 28444.000000
155.084100 11848.000000
156.079900 34880.000000
164.061100 14552.000000
165.069100 82832.000000
166.066100 19800.000000
167.072500 431096.000000
168.079300 128508.000000
169.083100 14492.000000
178.064900 19560.000000
179.071900 37032.000000
180.080300 992928.000000
181.064700 38584.000000
181.086500 337688.000000
182.084400 271208.000000
182.092200 190884.000000
183.087100 32612.000000
183.096300 27992.000000
190.064400 48252.000000
191.072500 323588.000000
192.080000 514624.000000
193.077000 257356.000000
194.080200 42400.000000
194.095400 204384.000000
195.102700 127832.000000
196.110400 80416.000000
197.107200 213344.000000
198.109600 26112.000000
205.075800 43360.000000
206.083400 52188.000000
207.067600 362524.000000
207.091600 2303612.000000
208.074900 436816.000000
208.098200 1606872.000000
209.078200 45404.000000
209.102700 153448.000000
220.099000 61752.000000
221.106900 348120.000000
222.113200 112056.000000
223.122500 743028.000000
224.126000 88824.000000

