>compound AU53059652
>parentmass 405.2636
>ionization [M+H]+
>formula C24H36O5
>rt 85.200000
>profile qtof
#smiles_iso CC[C@H](C)C(=O)O[C@H]1C[C@H](C=C2[C@H]1[C@H]([C@H](C=C2)C)CC[C@@H]3C[C@H](CC(=O)O3)O)C
#smiles_can CCC(C)C(=O)OC1CC(C=C2C1C(C(C=C2)C)CCC3CC(CC(=O)O3)O)C
#inchikey PCZOHLXUXFIOCF-BXMDZJJMSA-N
#pubchem_id 53232
#mb_accession AU221207,AU221208,AU221209,AU221210,AU221211

>ms2peaks
125.059700 1772.000000
143.070500 11952.000000
144.073900 1180.000000
145.101500 1792.000000
157.100900 1188.000000
159.117300 3788.000000
169.101100 1132.000000
171.116900 2112.000000
173.132800 38688.000000
174.136300 5220.000000
191.106200 1120.000000
199.149000 150004.000000
200.151800 21672.000000
201.164400 15928.000000
202.167500 2628.000000
209.117400 2872.000000
215.181000 1160.000000
221.175800 2596.000000
223.147900 3992.000000
224.152800 964.000000
225.164700 36592.000000
226.168200 6168.000000
229.123300 976.000000
239.180400 7320.000000
240.183200 1472.000000
243.175500 80868.000000
244.178600 13328.000000
249.164700 8208.000000
250.175800 2612.000000
267.175500 43964.000000
268.179200 9480.000000
285.186700 188728.000000
286.189600 35468.000000
287.194600 4924.000000
303.197400 114780.000000
304.200500 25900.000000
305.203900 3340.000000
321.206200 1684.000000
405.266500 101640.000000
406.269900 26732.000000
407.272200 3156.000000

>ms2peaks
119.086300 1280.000000
121.101300 1868.000000
125.060100 2380.000000
128.063000 800.000000
131.086400 4092.000000
133.101800 2060.000000
135.117700 1244.000000
143.071100 4884.000000
143.086200 5720.000000
144.090600 736.000000
145.101400 8484.000000
146.105300 944.000000
147.117500 1912.000000
151.076700 1056.000000
155.085700 1080.000000
157.101900 6784.000000
158.106700 1292.000000
159.117600 18384.000000
160.121500 2992.000000
161.132600 1556.000000
163.111900 1360.000000
165.091300 1056.000000
169.102500 6852.000000
170.106400 1068.000000
171.117300 13828.000000
172.121100 2056.000000
173.133500 77884.000000
174.136500 10188.000000
181.102800 1196.000000
183.118000 3464.000000
185.133800 5116.000000
187.110400 720.000000
189.093000 1516.000000
191.107900 7244.000000
192.110900 1100.000000
193.102100 936.000000
193.124100 888.000000
195.122100 1632.000000
197.134000 3940.000000
198.136000 1028.000000
199.149500 142888.000000
200.152500 18656.000000
201.165100 36388.000000
202.168100 6016.000000
203.108100 1628.000000
203.178200 832.000000
205.123200 3028.000000
207.117800 1544.000000
209.118200 4648.000000
210.126800 756.000000
211.112700 1176.000000
211.149500 2648.000000
212.155000 816.000000
213.165300 1180.000000
215.109600 728.000000
215.180500 3964.000000
216.184700 888.000000
221.133900 824.000000
221.174400 1008.000000
223.150100 14316.000000
224.152600 2600.000000
225.165500 76896.000000
226.168500 14948.000000
227.171400 748.000000
229.124200 3904.000000
239.144900 1316.000000
239.181100 20652.000000
240.184400 4304.000000
241.161100 852.000000
241.195300 1376.000000
243.175900 82076.000000
244.179300 14232.000000
247.133900 956.000000
249.165500 25324.000000
250.169100 6496.000000
251.172300 944.000000
257.155600 1392.000000
257.191200 1064.000000
267.176200 40808.000000
268.179600 9016.000000
269.182500 1016.000000
285.187400 93740.000000
286.190800 18500.000000
287.195200 2208.000000
303.198200 30392.000000
304.201600 6200.000000
305.203100 964.000000
321.208400 1124.000000
405.265500 6220.000000
406.267200 1576.000000

>ms2peaks
117.070600 784.000000
119.086000 3276.000000
121.101500 3224.000000
125.061300 1392.000000
128.063000 3352.000000
129.070600 2280.000000
131.086200 12196.000000
132.089400 1280.000000
133.102200 4848.000000
135.080300 900.000000
135.117000 1308.000000
141.070500 1588.000000
142.077700 2896.000000
143.070800 1168.000000
143.086400 22552.000000
144.091000 4040.000000
145.101700 20864.000000
146.105400 2328.000000
147.117200 2852.000000
149.096300 1032.000000
151.076300 1772.000000
155.086300 5008.000000
156.093100 2712.000000
157.101700 19756.000000
158.108300 5216.000000
159.117600 37092.000000
160.120900 4784.000000
161.133400 2092.000000
163.075200 868.000000
163.112600 1880.000000
165.091500 2256.000000
168.095500 864.000000
169.101800 20060.000000
170.105700 2656.000000
171.117300 31316.000000
172.120500 4808.000000
173.133500 100008.000000
174.136500 12628.000000
175.113900 764.000000
177.091000 1620.000000
179.108100 880.000000
181.101900 3204.000000
182.108000 804.000000
183.117600 12724.000000
184.122900 2772.000000
185.133600 7180.000000
186.137800 1852.000000
187.112500 1448.000000
187.148600 924.000000
189.092500 1304.000000
191.107200 10900.000000
192.112100 1324.000000
193.102000 1780.000000
194.108900 908.000000
195.117400 2748.000000
196.123500 800.000000
197.133500 11320.000000
198.138400 2916.000000
199.149500 149404.000000
200.152400 22684.000000
201.164700 32720.000000
202.168400 6264.000000
203.107700 1700.000000
203.176500 964.000000
205.122900 4472.000000
207.118100 4388.000000
208.122600 1448.000000
209.118400 1172.000000
209.132700 1284.000000
210.141800 864.000000
211.113600 3580.000000
211.149400 6476.000000
212.117900 788.000000
212.152500 1684.000000
213.165600 1184.000000
215.107500 1132.000000
215.180500 6992.000000
216.182600 1440.000000
217.123700 1236.000000
220.126400 892.000000
221.133200 1608.000000
223.149700 18724.000000
224.152900 3672.000000
225.165400 93240.000000
226.168500 16996.000000
227.172900 1316.000000
229.124200 5100.000000
230.128300 1000.000000
234.140800 1620.000000
239.144800 1692.000000
239.180900 18912.000000
240.184300 4548.000000
241.195900 980.000000
243.176100 41568.000000
244.179200 7648.000000
249.164900 23872.000000
250.169200 5132.000000
251.172000 956.000000
257.155800 976.000000
267.176300 15056.000000
268.179400 4132.000000
285.186600 27352.000000
286.190800 6056.000000
287.194600 1664.000000
303.197300 5264.000000
304.201000 1620.000000
405.264800 7368.000000
406.270700 1624.000000

>ms2peaks
115.055000 1620.000000
116.062100 928.000000
117.070800 2696.000000
119.086100 5224.000000
120.090400 556.000000
121.102000 2104.000000
125.059300 692.000000
128.062800 7720.000000
129.070500 5492.000000
130.076800 1668.000000
131.085900 23968.000000
132.089500 2356.000000
133.064400 500.000000
133.101600 5124.000000
134.106700 700.000000
135.080900 836.000000
135.117800 884.000000
141.071000 3868.000000
142.078100 7872.000000
143.086000 48280.000000
144.091700 8320.000000
145.101700 29236.000000
146.105500 3296.000000
147.081200 884.000000
147.117600 2480.000000
149.096200 1456.000000
151.076800 1192.000000
153.070700 1004.000000
154.079300 1448.000000
155.086400 10372.000000
156.093100 6364.000000
157.101800 27232.000000
158.108800 12956.000000
159.117600 36588.000000
160.121500 5624.000000
161.096900 636.000000
161.133200 1392.000000
163.075300 676.000000
163.111800 1452.000000
165.091800 1020.000000
167.086800 1036.000000
168.094300 1868.000000
169.101800 27688.000000
170.107100 4260.000000
171.117700 31580.000000
172.121100 5124.000000
173.133400 80492.000000
174.136700 11288.000000
175.113400 496.000000
177.091800 1244.000000
177.127400 468.000000
179.085100 956.000000
181.102600 4628.000000
182.108200 1836.000000
183.117600 19180.000000
184.122000 4564.000000
185.133400 5948.000000
186.137800 1324.000000
187.111800 1712.000000
187.147500 668.000000
189.091100 868.000000
191.108300 5364.000000
192.095800 1232.000000
192.111300 824.000000
193.102500 4092.000000
194.108800 1404.000000
195.118300 2632.000000
196.125100 2108.000000
197.133500 14976.000000
198.137900 3588.000000
199.149500 90756.000000
200.152800 14860.000000
201.164700 13884.000000
202.169000 1992.000000
203.108000 768.000000
205.101000 1384.000000
205.123400 1560.000000
206.109800 652.000000
206.127000 468.000000
207.117600 5156.000000
208.123700 1932.000000
209.133500 1240.000000
210.141300 2116.000000
211.112200 3524.000000
211.148600 5752.000000
212.119500 564.000000
212.155300 1344.000000
213.128800 576.000000
213.164900 1084.000000
215.107300 608.000000
215.181000 2784.000000
217.124700 808.000000
219.118200 1480.000000
220.126100 1656.000000
221.133700 2412.000000
223.149500 12828.000000
224.153800 2716.000000
225.165000 51052.000000
226.168500 10436.000000
229.123800 3432.000000
230.126800 512.000000
234.141400 2220.000000
235.143900 916.000000
239.145300 1024.000000
239.180500 5724.000000
240.184300 1344.000000
241.194700 492.000000
243.139400 1168.000000
243.175800 7996.000000
244.179800 1796.000000
249.165600 6876.000000
250.169700 1768.000000
257.155000 640.000000
267.175800 3012.000000
268.178400 752.000000
285.187300 3232.000000
286.189000 532.000000
405.265100 1628.000000

>ms2peaks
115.054700 4060.000000
116.060700 880.000000
117.070200 4544.000000
118.074800 1068.000000
119.085800 7996.000000
121.101500 1760.000000
127.054100 1188.000000
128.062500 18464.000000
129.069900 14268.000000
130.077300 5436.000000
131.086000 33320.000000
132.089400 3944.000000
133.063900 456.000000
133.101600 4396.000000
135.081700 720.000000
135.117800 616.000000
141.070600 9016.000000
142.078100 18832.000000
143.086000 85696.000000
144.091900 15808.000000
145.101800 35672.000000
146.105300 4532.000000
147.080200 860.000000
147.117500 2408.000000
149.096400 820.000000
152.062200 728.000000
153.070300 2896.000000
154.078000 3572.000000
155.085800 19964.000000
156.093400 14980.000000
157.101800 33108.000000
158.109000 19496.000000
159.117300 35120.000000
160.121300 4988.000000
161.096800 792.000000
161.132100 916.000000
163.076000 536.000000
163.112800 740.000000
165.071400 1612.000000
166.078600 1008.000000
167.085600 2932.000000
168.093300 6116.000000
169.101600 32828.000000
170.106700 6208.000000
171.117500 24032.000000
172.120600 4284.000000
173.133300 50596.000000
174.136600 6060.000000
177.093500 544.000000
178.077700 1252.000000
179.086500 2088.000000
180.093200 856.000000
181.102000 6508.000000
182.108100 3708.000000
183.117500 19104.000000
184.123000 4908.000000
185.132100 4012.000000
186.137600 696.000000
187.112500 944.000000
187.148300 460.000000
191.085800 748.000000
191.106700 1700.000000
192.095200 1812.000000
193.101900 4428.000000
194.108600 1776.000000
195.117400 5532.000000
196.125400 2684.000000
197.133300 13036.000000
198.139100 2716.000000
199.149000 39888.000000
200.152200 7056.000000
201.163700 4300.000000
202.168000 804.000000
205.101800 1488.000000
206.109400 904.000000
207.116800 4244.000000
208.125000 2060.000000
209.132000 1792.000000
210.140900 3952.000000
211.111600 1196.000000
211.148800 2996.000000
212.116200 468.000000
212.156100 920.000000
213.166100 632.000000
215.179400 808.000000
219.117900 2612.000000
220.124900 1304.000000
221.132600 1212.000000
223.148600 6808.000000
224.153100 1460.000000
225.165300 22312.000000
226.168400 4212.000000
227.177300 544.000000
229.123500 1004.000000
230.127800 448.000000
234.142800 1616.000000
235.145000 540.000000
239.144100 528.000000
239.180700 1532.000000
243.142300 476.000000
243.176000 648.000000
249.165100 1656.000000
250.170600 440.000000

