>compound AU53879599
>parentmass 414.26390000000004
>ionization [M+H]+
>formula C25H35NO4
>rt 373.560000
>profile qtof
#smiles_iso C[C@]([C@H]1C[C@@]23CC[C@@]1([C@H]4[C@@]25CCN[C@@H]3CC6=C5C(=C(C=C6)O)O4)OC)(C(C)(C)C)O
#smiles_can CC(C)(C)C(C)(C1CC23CCC1(C4C25CCNC3CC6=C5C(=C(C=C6)O)O4)OC)O
#inchikey YOYLLRBMGQRFTN-IOMBULRVSA-N
#pubchem_id 114976
#mb_accession AU166407,AU166408,AU166409,AU166410,AU166411

>ms2peaks
414.265700 168948.000000
415.269300 46404.000000
416.272000 5840.000000

>ms2peaks
414.265900 242188.000000
415.269400 60928.000000
416.272500 8148.000000

>ms2peaks
187.075600 392.000000
237.091500 300.000000
239.107600 332.000000
255.102400 332.000000
265.119500 436.000000
267.099600 312.000000
271.129000 304.000000
271.138100 312.000000
279.139000 328.000000
297.146800 340.000000
311.164100 480.000000
312.162500 500.000000
326.177400 468.000000
328.155900 360.000000
340.192600 776.000000
341.195700 300.000000
353.210500 308.000000
364.226600 684.000000
382.238800 524.000000
396.256200 1136.000000
397.262300 544.000000
414.265200 57884.000000
415.269200 17440.000000
416.272300 2404.000000

>ms2peaks
121.100800 552.000000
123.043900 612.000000
123.117000 1104.000000
135.079800 748.000000
135.116500 384.000000
137.095800 2060.000000
147.043900 396.000000
149.095600 1032.000000
151.112300 812.000000
155.143400 564.000000
157.063200 740.000000
159.080000 396.000000
161.057800 1456.000000
163.074800 672.000000
164.072200 384.000000
173.058800 1660.000000
174.063700 444.000000
175.075500 1684.000000
176.073200 480.000000
181.066200 628.000000
184.051500 688.000000
185.058100 876.000000
187.075100 6516.000000
188.074100 1224.000000
189.078400 620.000000
190.086100 1804.000000
191.069900 1176.000000
191.086800 404.000000
193.065200 1192.000000
195.080700 756.000000
197.058800 896.000000
198.065000 496.000000
199.074800 2464.000000
201.090800 788.000000
202.086000 1244.000000
203.081600 432.000000
204.102000 824.000000
205.160100 380.000000
207.081200 612.000000
209.096900 480.000000
211.074500 3224.000000
212.079000 808.000000
213.091400 2248.000000
214.089700 936.000000
215.069500 460.000000
215.104200 468.000000
217.084900 948.000000
219.081200 600.000000
219.117500 584.000000
221.095000 1420.000000
223.074800 2444.000000
223.111300 680.000000
224.081900 652.000000
225.091000 2516.000000
226.094500 696.000000
227.069700 832.000000
227.105500 724.000000
229.086700 452.000000
233.095700 984.000000
235.073600 432.000000
236.084000 436.000000
237.091700 2584.000000
238.095500 1024.000000
239.106100 3212.000000
240.077600 560.000000
240.110900 484.000000
241.086400 2232.000000
241.119600 612.000000
242.094900 1144.000000
243.101000 3420.000000
245.095900 764.000000
247.110200 1544.000000
248.116400 440.000000
249.091600 444.000000
251.106400 1692.000000
252.109700 620.000000
253.084100 612.000000
253.121000 1820.000000
254.117800 964.000000
255.100600 2248.000000
257.117200 696.000000
261.127000 1152.000000
263.106900 1016.000000
264.111100 536.000000
265.122700 3868.000000
266.126300 956.000000
267.100800 1572.000000
267.139100 596.000000
268.110200 932.000000
269.116300 1976.000000
269.154600 424.000000
270.121100 516.000000
271.133400 1624.000000
272.136900 420.000000
273.132500 904.000000
277.123700 472.000000
279.138600 2100.000000
280.137700 1176.000000
281.117400 432.000000
281.151700 1120.000000
282.122700 392.000000
282.151800 768.000000
283.133000 2076.000000
284.136000 508.000000
285.136300 548.000000
286.146600 600.000000
291.138000 1588.000000
292.143500 552.000000
293.153500 572.000000
295.134400 1444.000000
297.148700 2792.000000
307.166300 416.000000
308.164500 1024.000000
309.151200 396.000000
311.164800 2348.000000
312.160600 2596.000000
313.162700 988.000000
314.175000 552.000000
315.157900 468.000000
321.187700 1456.000000
322.189200 496.000000
323.160300 848.000000
326.174900 2688.000000
327.178100 928.000000
335.199500 1140.000000
339.194400 532.000000
340.190800 4728.000000
341.194000 1484.000000
342.169400 876.000000
343.173100 388.000000
347.198200 400.000000
351.196400 476.000000
353.211300 1560.000000
354.216200 568.000000
364.228400 2640.000000
365.231700 840.000000
367.225400 524.000000
382.239500 1848.000000
383.241200 828.000000
396.252400 5184.000000
397.257200 1316.000000
414.265100 75204.000000
415.268500 20424.000000
416.271900 3500.000000

>ms2peaks
123.043100 376.000000
123.114000 416.000000
135.081400 488.000000
137.096200 536.000000
143.048500 348.000000
145.064900 432.000000
147.044500 324.000000
149.095500 400.000000
151.110800 312.000000
159.080400 364.000000
161.059900 568.000000
162.054100 352.000000
162.091700 324.000000
165.069200 620.000000
169.064900 348.000000
173.058500 1484.000000
174.091900 384.000000
175.073400 528.000000
176.071000 332.000000
179.084600 320.000000
181.062200 652.000000
184.051100 1132.000000
185.056600 652.000000
187.074600 2724.000000
189.077600 372.000000
190.085700 940.000000
191.069000 628.000000
191.085500 528.000000
193.064800 844.000000
193.105500 328.000000
195.079400 780.000000
197.057200 444.000000
197.094300 544.000000
198.066900 348.000000
199.075000 1348.000000
202.083900 440.000000
204.091700 356.000000
205.156900 380.000000
207.079800 368.000000
209.097800 528.000000
211.074700 2036.000000
212.080000 492.000000
213.090300 728.000000
217.103800 312.000000
219.077900 412.000000
221.095800 752.000000
223.075300 1472.000000
223.110000 336.000000
224.078200 632.000000
225.057300 352.000000
225.090200 1256.000000
227.070600 492.000000
233.095300 324.000000
235.073600 664.000000
235.113600 316.000000
237.091400 1180.000000
238.097300 464.000000
239.106200 1020.000000
240.078900 400.000000
241.085700 848.000000
241.120900 604.000000
242.090900 536.000000
242.124300 312.000000
243.102100 864.000000
244.106600 392.000000
245.096300 652.000000
247.111600 580.000000
249.088900 364.000000
251.105100 772.000000
252.102000 304.000000
253.121900 416.000000
255.101300 788.000000
261.124500 344.000000
263.107400 696.000000
264.112200 312.000000
265.124400 1004.000000
266.125400 612.000000
267.099500 996.000000
269.115700 444.000000
279.137200 688.000000
280.136100 408.000000
281.117200 460.000000
281.154500 388.000000
282.143200 364.000000
283.130100 432.000000
295.133100 328.000000
297.149900 424.000000
308.170500 312.000000
311.167100 508.000000
312.159100 508.000000
321.183900 440.000000
326.176900 564.000000
340.189500 576.000000
342.173400 596.000000
364.225100 456.000000
396.253400 712.000000
414.261400 3200.000000
415.272700 632.000000

