>compound AU54594285
>parentmass 494.3299
>ionization [M+H]+
>formula C28H47NO4S
>rt 368.088000
>profile qtof
#smiles_iso CCN(CC)CCSCC(=O)O[C@@H]1C[C@@]([C@H]([C@@H]([C@@]23CC[C@H]([C@@]1([C@@H]2C(=O)CC3)C)C)C)O)(C)C=C
#smiles_can CCN(CC)CCSCC(=O)OC1CC(C(C(C23CCC(C1(C2C(=O)CC3)C)C)C)O)(C)C=C
#inchikey UURAUHCOJAIIRQ-QGLSALSOSA-N
#pubchem_id 656958
#mb_accession AU105507,AU105508,AU105509,AU105510,AU105511

>ms2peaks
192.104400 454464.000000
193.107200 31096.000000
494.323000 2510220.000000
494.340900 2512752.000000

>ms2peaks
119.015700 31784.000000
163.111100 31312.000000
177.127300 14956.000000
192.106100 2425668.000000
194.101400 126944.000000
221.153200 23072.000000
227.178300 16852.000000
229.194600 15776.000000
245.189600 80280.000000
246.193000 14308.000000
257.225400 23108.000000
267.210100 46932.000000
285.221000 131176.000000
286.224200 25328.000000
303.231300 106456.000000
304.234900 20920.000000
494.331600 2207280.000000
495.333800 672952.000000
496.332400 163204.000000

>ms2peaks
119.015600 234548.000000
119.085000 32780.000000
121.100500 28404.000000
123.116500 13756.000000
131.084600 17280.000000
133.100500 68076.000000
135.079600 15740.000000
135.116300 28400.000000
145.100200 35944.000000
147.115900 63972.000000
149.095200 58248.000000
149.131500 35724.000000
157.100200 21276.000000
159.115900 55524.000000
161.095100 24748.000000
161.131700 52048.000000
163.111000 287540.000000
163.147400 26112.000000
164.114000 26956.000000
165.126300 26272.000000
169.100300 14648.000000
171.115800 30900.000000
173.131600 56828.000000
175.110900 64764.000000
175.147300 60868.000000
177.126800 99240.000000
179.142000 13132.000000
183.115800 15924.000000
185.131600 34100.000000
187.147400 50684.000000
189.126300 35216.000000
189.162800 19772.000000
191.142100 30524.000000
192.106200 2513304.000000
193.107800 704464.000000
194.101200 213488.000000
197.131700 27940.000000
199.147000 24144.000000
201.162800 35108.000000
203.142100 64552.000000
203.178400 13124.000000
205.157900 23500.000000
211.147300 46168.000000
213.162800 21100.000000
215.142400 34352.000000
215.178700 34180.000000
217.157700 32188.000000
221.152900 90272.000000
225.163100 23328.000000
227.178600 70332.000000
228.181600 13332.000000
229.157700 35912.000000
229.194200 50988.000000
231.173000 12964.000000
233.152800 35244.000000
235.168500 25608.000000
241.193900 20816.000000
243.173000 12752.000000
243.210000 14420.000000
245.189500 189748.000000
246.192300 32936.000000
247.168200 14996.000000
247.204500 14444.000000
257.225700 73060.000000
258.228700 13484.000000
259.204600 15632.000000
267.210200 159320.000000
268.213000 30336.000000
275.235700 16420.000000
285.220900 287704.000000
286.224000 52684.000000
303.231500 135552.000000
304.234100 25992.000000
494.329900 133848.000000
495.332900 40676.000000

>ms2peaks
119.016000 881340.000000
119.085300 89940.000000
120.018800 28888.000000
121.011800 22944.000000
121.100800 74736.000000
123.079900 23068.000000
123.116400 21644.000000
125.095700 19200.000000
131.085100 42164.000000
133.100900 163300.000000
134.104200 14936.000000
135.079900 35076.000000
135.116400 56664.000000
137.095700 24388.000000
137.132200 17704.000000
143.085200 28100.000000
145.100700 98836.000000
147.079900 28584.000000
147.116600 138840.000000
148.119800 14576.000000
149.095800 153964.000000
149.132000 62876.000000
150.098800 14092.000000
151.111200 14604.000000
155.085300 17004.000000
157.100700 55016.000000
159.116400 120236.000000
160.119900 14928.000000
161.095600 51792.000000
161.132100 105620.000000
162.135700 12580.000000
163.111400 497608.000000
163.147900 33880.000000
164.114500 42980.000000
165.126800 37332.000000
169.100400 38384.000000
171.116300 72024.000000
173.095400 15888.000000
173.132100 118220.000000
174.135600 15696.000000
175.111200 111744.000000
175.147700 110488.000000
176.115000 12908.000000
176.151100 14248.000000
177.127100 153480.000000
178.130200 16372.000000
179.142300 15472.000000
183.116500 34092.000000
185.132100 72684.000000
187.111400 18988.000000
187.147700 97640.000000
188.151200 12712.000000
189.127000 52660.000000
189.163200 26124.000000
191.142600 44020.000000
192.105800 2511344.000000
194.101400 112340.000000
197.132100 50584.000000
199.147800 46140.000000
201.126900 17632.000000
201.163300 64072.000000
203.142700 87116.000000
203.179100 16452.000000
205.158300 29644.000000
211.147800 63624.000000
212.152400 14816.000000
213.163100 29500.000000
215.142500 45320.000000
215.179000 33664.000000
217.158300 33176.000000
221.153100 51992.000000
225.163300 31492.000000
227.179100 75972.000000
228.182100 14696.000000
229.158200 42436.000000
229.194700 49048.000000
233.152900 25036.000000
235.168500 16220.000000
239.178800 13244.000000
241.194500 21296.000000
243.173300 13208.000000
243.209900 13112.000000
245.189800 80680.000000
246.193200 13012.000000
257.226100 39820.000000
267.210700 98652.000000
268.213500 18644.000000
285.221100 98128.000000
286.224400 18272.000000
303.231500 29172.000000

>ms2peaks
115.054000 9328.000000
117.069700 19924.000000
119.016000 982756.000000
119.085300 127384.000000
120.018800 35008.000000
120.088600 14112.000000
121.011700 30928.000000
121.064400 18072.000000
121.100900 102200.000000
122.104200 9952.000000
123.080000 27784.000000
123.116100 16172.000000
125.095700 15988.000000
128.061500 11592.000000
129.069200 20540.000000
131.085000 79052.000000
133.100700 219468.000000
134.104100 20544.000000
135.079900 45868.000000
135.116300 59760.000000
137.095500 25056.000000
137.132100 10140.000000
141.069400 9852.000000
142.076800 14508.000000
143.084900 49328.000000
144.091400 11484.000000
145.100600 138144.000000
146.104300 16064.000000
147.079800 33832.000000
147.116300 143056.000000
148.119400 15672.000000
149.095700 162572.000000
149.131900 44592.000000
150.098700 16040.000000
151.111000 13652.000000
155.084700 30112.000000
156.092000 17052.000000
157.100500 78156.000000
158.106600 16096.000000
159.079800 12920.000000
159.116200 149296.000000
160.120300 20108.000000
161.095200 57540.000000
161.132000 97796.000000
162.135900 11832.000000
163.111300 436148.000000
164.114300 42832.000000
165.126600 24724.000000
169.100400 48496.000000
170.106600 17368.000000
171.116300 81196.000000
172.120600 12480.000000
173.095600 18448.000000
173.131900 111684.000000
174.135700 14584.000000
175.111200 94580.000000
175.147500 82896.000000
176.115000 10484.000000
176.151100 10664.000000
177.126900 120236.000000
178.130200 14136.000000
179.142400 10208.000000
182.108100 12820.000000
183.116000 39100.000000
185.131900 70292.000000
186.136600 12664.000000
187.110800 20600.000000
187.147600 82360.000000
188.151100 10724.000000
189.126700 38836.000000
189.162900 18444.000000
191.142500 30140.000000
192.104900 1815772.000000
193.107900 100492.000000
194.100800 37828.000000
196.124000 11120.000000
197.131800 44232.000000
198.137300 10772.000000
199.147700 43420.000000
201.126400 14540.000000
201.163100 40596.000000
203.142200 43756.000000
203.178500 9264.000000
205.157600 14520.000000
211.147300 42760.000000
212.152100 12920.000000
213.162700 21028.000000
215.142200 25076.000000
215.178900 17256.000000
217.157300 17088.000000
221.152900 12468.000000
225.162800 18140.000000
227.179000 35152.000000
229.157900 17804.000000
229.194400 22036.000000
241.194600 9100.000000
245.189100 15308.000000
267.210300 22048.000000
285.220800 14892.000000

