>compound AU54716314
>parentmass 411.2191000000001
>ionization [M+H]+
>formula C23H27FN4O2
>rt 382.272000
>profile qtof
#smiles_iso CC1=C(C(=O)N2CCCCC2=N1)CCN3CCC(CC3)C4=NOC5=C4C=CC(=C5)F
#smiles_can CC1=C(C(=O)N2CCCCC2=N1)CCN3CCC(CC3)C4=NOC5=C4C=CC(=C5)F
#inchikey RAPZEAPATHNIPO-UHFFFAOYSA-N
#pubchem_id 5073
#mb_accession AU150507,AU150508,AU150509,AU150510,AU150511

>ms2
191.118000 155004.000000
411.220200 2516280.000000

>ms2
191.118700 2515296.000000
192.121000 530428.000000
411.219200 2514996.000000

>ms2
191.118500 2513000.000000
192.121200 2253132.000000
193.123800 105240.000000
411.221100 2511224.000000
413.225300 95632.000000

>ms2
148.112100 36924.000000
150.078600 30424.000000
163.086600 50560.000000
163.123000 56872.000000
191.120800 2513572.000000
192.121800 2446184.000000
193.124400 113664.000000
411.220500 110480.000000
412.223800 24504.000000

>ms2
110.060400 28752.000000
123.091500 13160.000000
125.070800 31160.000000
148.112100 134048.000000
149.070800 14600.000000
150.078800 131376.000000
163.086600 208032.000000
163.123100 196260.000000
164.089400 15632.000000
164.126400 18836.000000
191.119800 2514188.000000
192.121800 2418288.000000
193.124200 122408.000000

