>compound AU56522255
>parentmass 359.16349999999994
>ionization [M+H]+
>formula C16H26N2O5S
>rt 441.320000
>profile qtof
#smiles_iso CC1(C[C@@H]1C(=O)N/C(=C\CCCCSC[C@@H](C(=O)O)N)/C(=O)O)C
#smiles_can CC1(CC1C(=O)NC(=CCCCCSCC(C(=O)O)N)C(=O)O)C
#inchikey DHSUYTOATWAVLW-WFVMDLQDSA-N
#pubchem_id 6435415
#mb_accession AU212907,AU212908,AU212909

>ms2
202.089200 1024.000000
263.104700 388.000000
315.174800 784.000000
342.136700 520.000000
359.165300 11736.000000
360.167800 2108.000000

>ms2
130.069700 712.000000
156.085600 492.000000
174.059400 436.000000
200.073300 472.000000
202.090800 1636.000000
219.118000 1988.000000
238.143900 344.000000
245.096500 424.000000
263.108200 836.000000
342.143500 328.000000
359.168500 740.000000

>ms2
130.068700 740.000000
200.073700 300.000000
202.088900 344.000000
219.116100 580.000000

