>compound AU59366789
>parentmass 559.2603
>ionization [M+H]+
>formula C33H35FN2O5
>rt 109.248000
>profile qtof
#smiles_iso CC(C)C1=C(C(=C(N1CC[C@H](C[C@H](CC(=O)O)O)O)C2=CC=C(C=C2)F)C3=CC=CC=C3)C(=O)NC4=CC=CC=C4
#smiles_can CC(C)C1=C(C(=C(N1CCC(CC(CC(=O)O)O)O)C2=CC=C(C=C2)F)C3=CC=CC=C3)C(=O)NC4=CC=CC=C4
#inchikey XUKUURHRXDUEBC-KAYWLYCHSA-N
#pubchem_id 60823
#mb_accession AU112907,AU112908,AU112909,AU112910,AU112911

>ms2
440.220300 4128.000000
441.223000 764.000000
466.203600 2796.000000
467.205000 940.000000
557.241900 1036.000000
559.258900 136928.000000
560.262500 51036.000000
561.263400 8436.000000

>ms2
133.085600 536.000000
177.110200 412.000000
292.148400 492.000000
336.141900 404.000000
380.160800 456.000000
413.204800 360.000000
422.211800 2352.000000
423.216200 748.000000
430.188700 484.000000
440.222300 55432.000000
441.225900 19884.000000
442.227500 2408.000000
448.190900 1548.000000
466.202200 10416.000000
467.205100 3436.000000
468.207600 556.000000
517.207900 528.000000
541.248600 440.000000
557.247200 424.000000
558.246300 432.000000
559.259900 65472.000000
560.263700 25172.000000
561.266400 5312.000000

>ms2
133.084200 1448.000000
250.101800 4556.000000
276.117700 1224.000000
280.148700 1024.000000
292.148400 11644.000000
293.152600 2476.000000
294.163600 2668.000000
336.136400 1220.000000
362.155200 2200.000000
380.163800 4936.000000
380.202000 880.000000
381.167700 1416.000000
398.175600 2464.000000
404.201100 2408.000000
406.142700 900.000000
422.211800 14660.000000
423.215600 3876.000000
424.153600 1792.000000
424.215000 948.000000
430.180200 2384.000000
438.207300 908.000000
440.223300 174876.000000
441.226900 50732.000000
442.228300 7536.000000
448.191300 2720.000000
466.201600 13884.000000
467.203800 4128.000000
517.211000 1148.000000
559.258600 7848.000000
560.263800 2560.000000

>ms2
120.043900 680.000000
133.085600 736.000000
233.075200 384.000000
238.102500 2608.000000
239.105500 440.000000
248.085700 448.000000
249.094200 1856.000000
250.102200 40772.000000
251.105600 8632.000000
252.114600 2296.000000
262.103200 1756.000000
263.106100 364.000000
264.081900 416.000000
264.115900 404.000000
276.079200 1228.000000
276.117300 13924.000000
277.121300 3380.000000
278.131000 528.000000
279.142300 1484.000000
280.148500 4080.000000
281.151100 668.000000
290.132500 1136.000000
292.149400 49260.000000
293.152400 10552.000000
294.093000 728.000000
294.129600 1080.000000
294.163900 6228.000000
295.095400 428.000000
295.168000 1212.000000
302.099500 776.000000
302.134700 1644.000000
303.136500 532.000000
304.147200 640.000000
306.128000 2056.000000
307.131400 600.000000
308.143400 896.000000
316.151300 540.000000
318.128300 1700.000000
318.165900 4580.000000
319.133400 436.000000
319.167400 1564.000000
320.110400 424.000000
320.143900 3008.000000
321.147000 512.000000
334.198400 632.000000
336.142100 784.000000
336.174600 1976.000000
337.176400 624.000000
344.145200 1624.000000
344.178600 428.000000
360.139800 708.000000
360.214600 440.000000
361.147200 868.000000
362.154900 12576.000000
362.193900 1040.000000
363.159400 3280.000000
364.164100 616.000000
369.138800 816.000000
370.122500 440.000000
370.134100 544.000000
378.223800 1992.000000
379.159100 1620.000000
380.165400 23388.000000
380.201500 2816.000000
381.168400 6880.000000
381.201100 820.000000
382.172100 820.000000
388.133500 620.000000
398.177800 6900.000000
399.179000 1524.000000
402.185600 632.000000
404.201000 5404.000000
405.203800 1424.000000
406.144400 1276.000000
406.179500 944.000000
411.183700 432.000000
422.213400 17452.000000
423.215500 4676.000000
424.154000 2156.000000
424.218800 872.000000
425.156900 440.000000
430.181100 832.000000
440.223900 72136.000000
441.226600 20856.000000
442.228000 3460.000000
448.188800 788.000000
466.202800 15348.000000
467.205900 4372.000000
468.209300 492.000000

>ms2
120.043400 804.000000
209.074700 872.000000
233.077100 1308.000000
237.093300 1900.000000
238.101800 8744.000000
239.105900 1512.000000
248.086900 1504.000000
249.093600 9252.000000
250.102100 115284.000000
251.105800 19908.000000
252.115500 4064.000000
262.101800 4880.000000
263.106000 1304.000000
264.081000 1328.000000
264.118300 1972.000000
265.123800 664.000000
275.110300 932.000000
276.081700 4276.000000
276.117800 37480.000000
277.083700 876.000000
277.121100 8380.000000
278.094400 696.000000
278.129800 1640.000000
279.139800 1616.000000
280.147500 4560.000000
281.152100 1064.000000
288.118900 800.000000
289.125700 740.000000
290.134700 2012.000000
291.137100 744.000000
292.148600 33420.000000
293.152300 7580.000000
294.127200 1440.000000
294.162500 4032.000000
295.167000 780.000000
302.096300 2024.000000
302.133400 4276.000000
303.139200 1340.000000
304.146500 728.000000
306.128000 4800.000000
307.135400 880.000000
308.141000 620.000000
316.149100 1892.000000
317.154900 700.000000
318.127000 2644.000000
318.164100 5372.000000
319.132000 796.000000
319.168600 1820.000000
320.106500 632.000000
320.143500 5040.000000
321.147000 1104.000000
334.124700 748.000000
336.175900 2144.000000
338.154800 748.000000
344.143300 2336.000000
345.146300 832.000000
346.122400 676.000000
361.145500 904.000000
362.155000 12148.000000
362.190000 1024.000000
363.157300 3244.000000
363.192000 692.000000
369.138700 616.000000
370.125200 1032.000000
379.159300 1040.000000
380.164900 13000.000000
380.196400 1804.000000
381.167700 4204.000000
381.206000 672.000000
388.133400 592.000000
398.175400 2004.000000
404.201700 1820.000000
406.181400 2224.000000
407.184900 756.000000
422.212700 3208.000000
423.217900 1040.000000
424.152600 792.000000
440.222800 7328.000000
441.224900 2024.000000
466.202200 8220.000000
467.206300 2852.000000

