>compound AU60857440
>parentmass 253.0972
>ionization [M+H]+
>formula C15H12N2O2
>rt 150.216000
>profile qtof
#smiles_iso C1=CC=C2C(=C1)C3C(O3)C4=CC=CC=C4N2C(=O)N
#smiles_can C1=CC=C2C(=C1)C3C(O3)C4=CC=CC=C4N2C(=O)N
#inchikey ZRWWEEVEIOGMMT-UHFFFAOYSA-N
#pubchem_id 2555
#mb_accession AU203807,AU203808,AU203809,AU203810,AU203811

>ms2peaks
133.088400 352.000000
159.044300 692.000000
180.081600 2324.000000
181.085700 568.000000
182.097500 720.000000
208.076500 440.000000
210.092000 14480.000000
211.094900 3028.000000
212.099500 312.000000
236.071700 7028.000000
237.074500 1452.000000
253.098500 37876.000000

>ms2peaks
131.049600 880.000000
133.086300 376.000000
180.081800 72068.000000
181.084800 11020.000000
182.097000 13032.000000
183.099800 1568.000000
192.080300 836.000000
208.076900 4968.000000
209.078400 792.000000
210.092900 57940.000000
211.096100 7344.000000
212.097600 700.000000
236.071800 5240.000000
237.075500 844.000000
253.097400 1368.000000

>ms2peaks
131.049500 504.000000
152.063800 360.000000
165.070600 692.000000
167.073400 2472.000000
179.073600 432.000000
180.081700 65944.000000
181.085500 10728.000000
182.097200 19680.000000
183.100600 2664.000000
192.083100 416.000000
193.088300 704.000000
208.076700 476.000000
209.082900 476.000000
210.092300 11252.000000
211.094800 2668.000000

>ms2peaks
152.063100 2736.000000
153.069400 768.000000
165.071400 2044.000000
167.073500 11272.000000
168.077400 1940.000000
178.065100 1376.000000
179.074500 3556.000000
180.081900 112948.000000
181.085200 16676.000000
182.097500 15448.000000
183.100300 2200.000000
192.081600 660.000000
193.089600 2096.000000
210.091900 2240.000000

>ms2peaks
128.050700 680.000000
139.054600 408.000000
151.053800 396.000000
152.062400 5256.000000
153.069400 984.000000
154.066300 352.000000
165.070100 1752.000000
166.066300 944.000000
167.073700 9000.000000
168.076800 1584.000000
169.065000 660.000000
177.058500 428.000000
178.065600 2552.000000
179.073400 6664.000000
180.081600 63376.000000
181.085000 9280.000000
182.097800 2164.000000
183.104900 332.000000
191.074000 568.000000
192.081500 656.000000
193.089600 944.000000

