>compound AU61780951
>parentmass 359.1853
>ionization [M+H]+
>formula C21H26O5
>rt 103.260000
>profile qtof
#smiles_iso C[C@]12CC(=O)[C@H]3[C@H]([C@@H]1CC[C@@]2(C(=O)CO)O)CCC4=CC(=O)C=C[C@]34C
#smiles_can CC12CC(=O)C3C(C1CCC2(C(=O)CO)O)CCC4=CC(=O)C=CC34C
#inchikey XOFYZVNMUHMLCC-ZPOLXVRWSA-N
#pubchem_id 5865
#mb_accession AU219607,AU219608,AU219609,AU219610,AU219611

>ms2
147.081100 1288.000000
159.079300 324.000000
171.080400 536.000000
172.131800 400.000000
173.095400 432.000000
181.084900 496.000000
183.101600 456.000000
197.097000 324.000000
213.128100 500.000000
237.129000 816.000000
239.105600 324.000000
253.124400 496.000000
255.138100 404.000000
261.129800 544.000000
263.146600 404.000000
265.159100 1028.000000
267.139800 1652.000000
268.144000 324.000000
277.161000 596.000000
281.153900 472.000000
283.169600 496.000000
287.145200 312.000000
293.151700 472.000000
295.169800 2260.000000
296.176100 728.000000
297.147600 312.000000
305.154200 1716.000000
306.160200 492.000000
311.164800 644.000000
313.182400 4060.000000
314.184200 964.000000
323.166000 3376.000000
324.167800 744.000000
341.176900 10332.000000
342.179900 2032.000000
359.188100 36772.000000
360.191100 9004.000000

>ms2
121.065400 432.000000
123.081800 304.000000
135.081200 1556.000000
137.095200 524.000000
139.075900 356.000000
147.081000 4400.000000
148.085200 556.000000
153.090100 744.000000
159.081200 1168.000000
161.097100 1384.000000
163.076200 552.000000
171.081400 2440.000000
173.098200 1188.000000
181.086200 584.000000
183.101900 676.000000
185.097600 452.000000
187.077200 880.000000
187.113100 976.000000
189.091200 444.000000
197.097500 1848.000000
199.113300 1364.000000
209.097800 800.000000
211.114000 592.000000
213.092300 324.000000
213.130300 728.000000
215.106400 408.000000
221.096200 596.000000
223.111000 560.000000
224.119000 380.000000
225.129800 680.000000
227.107700 412.000000
227.143700 816.000000
235.111400 844.000000
237.128400 3100.000000
238.132900 892.000000
239.106800 632.000000
239.143800 976.000000
240.145300 304.000000
241.124100 368.000000
249.128400 408.000000
251.141700 568.000000
253.124300 1360.000000
253.159900 780.000000
254.164600 360.000000
255.140700 1700.000000
256.142600 436.000000
261.127300 884.000000
262.133100 600.000000
263.145000 2616.000000
264.150300 1008.000000
265.123800 328.000000
265.160400 3732.000000
266.164400 872.000000
267.139100 2952.000000
267.179300 448.000000
268.143200 972.000000
275.144100 456.000000
277.159800 2256.000000
278.164300 600.000000
279.140600 340.000000
281.154300 1460.000000
283.170100 1044.000000
284.172100 408.000000
287.145100 1156.000000
288.146400 500.000000
293.156400 1464.000000
294.156000 368.000000
295.171200 3684.000000
296.176900 944.000000
297.152300 748.000000
305.156100 2228.000000
306.161500 848.000000
311.166500 592.000000
312.169800 312.000000
313.182100 3688.000000
314.186000 892.000000
323.166900 3540.000000
324.170700 1004.000000
341.177600 5300.000000
342.182300 988.000000
359.191000 1504.000000

>ms2
119.085600 376.000000
121.065300 788.000000
123.081800 300.000000
133.066100 380.000000
135.080900 2068.000000
137.061600 316.000000
139.075900 328.000000
143.086000 300.000000
145.065700 456.000000
146.070200 304.000000
147.080500 5700.000000
148.086200 756.000000
153.091600 328.000000
158.073700 524.000000
159.080900 2848.000000
160.085700 436.000000
161.096100 1588.000000
163.076200 788.000000
169.102200 308.000000
171.080400 3872.000000
172.084100 708.000000
173.096300 2432.000000
174.100600 376.000000
177.094100 412.000000
179.085200 424.000000
182.074200 352.000000
183.080700 988.000000
183.104300 372.000000
185.096200 1056.000000
186.103100 444.000000
187.077000 1048.000000
187.111800 1960.000000
189.092300 364.000000
197.097300 2724.000000
198.100700 528.000000
199.113300 1372.000000
200.117800 328.000000
208.088600 596.000000
209.097100 1080.000000
210.100500 420.000000
211.112900 1516.000000
212.116900 688.000000
213.126600 932.000000
215.108000 588.000000
219.119400 336.000000
221.099200 836.000000
222.103800 1504.000000
223.112400 1756.000000
224.120900 612.000000
225.127600 1592.000000
227.106700 312.000000
227.143200 1096.000000
234.105200 396.000000
235.111800 1376.000000
236.118200 364.000000
237.129000 4528.000000
238.098900 368.000000
238.135100 1184.000000
239.108700 484.000000
239.144000 1916.000000
240.147800 400.000000
247.110900 332.000000
248.120900 916.000000
249.128800 1808.000000
251.143200 796.000000
253.124000 1128.000000
253.160900 664.000000
254.126500 540.000000
255.139200 1264.000000
256.141400 304.000000
261.128100 588.000000
262.136100 636.000000
263.143200 2308.000000
264.150800 1476.000000
265.160900 2876.000000
266.163000 640.000000
267.138500 1176.000000
267.174800 516.000000
275.148000 444.000000
277.160700 1456.000000
278.163300 452.000000
279.138500 424.000000
281.156300 848.000000
282.159700 328.000000
283.166300 404.000000
287.142900 680.000000
292.143400 300.000000
293.155000 1004.000000
295.172200 1036.000000
296.181100 424.000000
297.148200 376.000000
305.153500 736.000000
313.184800 644.000000
323.164900 692.000000
341.180700 652.000000

>ms2
115.055100 452.000000
119.084900 580.000000
121.066200 1032.000000
129.070900 512.000000
131.050200 332.000000
131.087600 640.000000
133.066000 360.000000
133.100200 316.000000
135.081200 608.000000
141.069000 440.000000
143.086500 404.000000
145.065200 1096.000000
145.104200 300.000000
146.073700 532.000000
147.081000 6152.000000
148.085000 872.000000
153.070800 376.000000
155.085100 340.000000
158.072700 712.000000
159.081100 3152.000000
160.085600 864.000000
161.096400 996.000000
167.087900 372.000000
169.064000 408.000000
171.081000 4312.000000
172.088300 692.000000
173.097800 1952.000000
179.088100 712.000000
181.065000 408.000000
182.073700 508.000000
183.081200 676.000000
184.086900 408.000000
185.100100 784.000000
186.103800 744.000000
187.077100 552.000000
187.112600 852.000000
193.102300 312.000000
195.079800 700.000000
196.087000 500.000000
197.096700 2016.000000
198.104800 388.000000
199.113000 820.000000
205.101600 376.000000
207.117300 360.000000
208.087600 788.000000
209.097800 1304.000000
210.104800 1180.000000
211.112800 1088.000000
212.119900 1240.000000
213.128400 684.000000
219.117500 464.000000
220.089500 340.000000
221.098600 1100.000000
222.106000 1916.000000
223.113800 1756.000000
224.118700 536.000000
225.129400 692.000000
227.143700 724.000000
233.096400 456.000000
234.104400 484.000000
235.111600 880.000000
236.120600 536.000000
237.128000 1956.000000
238.098600 492.000000
238.132900 624.000000
239.146100 756.000000
246.102100 336.000000
247.114200 660.000000
248.122400 784.000000
249.128400 1840.000000
250.133400 496.000000
251.144600 356.000000
253.126000 428.000000
255.138800 500.000000
260.118700 440.000000
261.128100 344.000000
262.137400 444.000000
263.142900 880.000000
264.151900 520.000000
265.158900 632.000000
267.140700 328.000000
277.157300 364.000000

>ms2
115.055800 420.000000
117.070900 316.000000
119.085700 712.000000
121.066300 1180.000000
128.062800 668.000000
129.070700 648.000000
131.050300 372.000000
131.086100 576.000000
132.056900 800.000000
135.081200 456.000000
141.069700 1124.000000
143.087500 620.000000
144.056600 728.000000
145.064700 1856.000000
146.072400 1128.000000
147.080900 4028.000000
148.085300 512.000000
153.069500 524.000000
155.086200 384.000000
157.065400 416.000000
158.072900 2276.000000
159.080800 2272.000000
160.085400 728.000000
161.097100 836.000000
165.070900 816.000000
166.076900 408.000000
167.085700 612.000000
169.063900 500.000000
170.072100 552.000000
171.080900 3544.000000
172.085500 988.000000
173.096100 1216.000000
178.077200 816.000000
179.086300 1220.000000
180.091500 468.000000
181.063800 1184.000000
181.100900 328.000000
182.072400 1032.000000
183.079700 844.000000
184.087300 624.000000
185.060600 412.000000
185.097300 668.000000
189.071200 344.000000
191.086000 368.000000
193.101600 532.000000
194.074200 492.000000
194.108800 476.000000
195.080900 1260.000000
196.089900 888.000000
197.095900 1084.000000
199.112000 436.000000
203.088500 304.000000
204.093500 304.000000
205.063600 444.000000
205.099400 504.000000
207.078600 956.000000
207.118900 336.000000
208.088700 1240.000000
209.096200 1432.000000
210.105200 860.000000
211.111200 784.000000
212.122400 388.000000
215.109800 348.000000
219.083800 308.000000
219.116900 368.000000
220.090000 744.000000
221.098000 1532.000000
222.104600 1928.000000
223.110400 948.000000
224.118600 384.000000
225.127600 572.000000
228.093100 324.000000
229.103400 388.000000
231.081700 396.000000
232.089400 372.000000
233.098300 1036.000000
233.132700 328.000000
234.102500 820.000000
235.112800 556.000000
236.119500 420.000000
237.127800 588.000000
238.098500 436.000000
238.135300 404.000000
239.143600 320.000000
245.096200 576.000000
246.105000 496.000000
247.112500 992.000000
248.118900 956.000000
249.128700 1096.000000
263.149100 320.000000

