>compound AU62729394
>parentmass 436.23429999999996
>ionization [M+H]+
>formula C24H29N5O3
>rt 117.564000
>profile qtof
#smiles_iso CCCCC(=O)N(CC1=CC=C(C=C1)C2=CC=CC=C2C3=NNN=N3)[C@@H](C(C)C)C(=O)O
#smiles_can CCCCC(=O)N(CC1=CC=C(C=C1)C2=CC=CC=C2C3=NNN=N3)C(C(C)C)C(=O)O
#inchikey ACWBQPMHZXGDFX-QFIPXVFZSA-N
#pubchem_id 60846
#mb_accession AU111207,AU111208,AU111209,AU111210,AU111211

>ms2peaks
207.092200 7480.000000
235.098200 85272.000000
236.101000 12520.000000
291.150100 59788.000000
292.153700 12316.000000
306.172300 66288.000000
307.175200 13960.000000
308.181000 1348.000000
352.177700 41064.000000
353.181300 9044.000000
362.223600 38860.000000
363.225900 10248.000000
364.230000 1556.000000
408.230100 118708.000000
409.233000 31396.000000
410.235400 4024.000000
418.225300 109756.000000
419.228600 28388.000000
420.231000 3608.000000
436.236600 245052.000000
437.239200 65756.000000
438.242000 9008.000000

>ms2peaks
178.077900 2856.000000
180.081200 9596.000000
190.065300 6880.000000
194.097200 4892.000000
206.084100 3896.000000
207.092100 171200.000000
208.095500 24644.000000
210.092400 2860.000000
235.098700 538184.000000
236.101700 69688.000000
237.103500 4632.000000
291.150600 471084.000000
292.153400 78072.000000
293.157600 7648.000000
306.172800 201132.000000
307.175600 39124.000000
308.178100 2904.000000
352.178100 93476.000000
353.180900 21552.000000
362.223900 63300.000000
363.227300 15752.000000
408.230800 9892.000000
409.233000 2908.000000
418.225400 31484.000000
419.228200 7992.000000

>ms2peaks
153.069900 5736.000000
178.077800 11972.000000
179.084800 5880.000000
180.081200 45264.000000
181.084300 5280.000000
190.065300 31156.000000
191.070900 6836.000000
192.070100 7224.000000
194.096800 17484.000000
195.099100 3092.000000
205.075800 3300.000000
206.084100 20428.000000
207.092500 458156.000000
208.075700 9644.000000
208.095700 54416.000000
210.091800 18012.000000
211.094200 2856.000000
235.098700 263140.000000
236.101800 40132.000000
237.103700 2296.000000
291.150700 189484.000000
292.153500 38404.000000
293.156700 4396.000000
306.172600 39652.000000
307.175600 6736.000000
352.178400 4792.000000
362.225200 3288.000000

>ms2peaks
140.049800 6268.000000
152.062400 5664.000000
153.069900 29572.000000
154.073400 4312.000000
163.054200 6344.000000
165.069800 6288.000000
167.072700 5040.000000
178.078100 38888.000000
179.083400 12272.000000
180.081500 150880.000000
181.084400 19560.000000
190.065700 98392.000000
191.071300 24252.000000
192.069200 26884.000000
193.072100 4448.000000
193.087900 7688.000000
194.096800 21976.000000
195.081000 3548.000000
195.098800 4556.000000
196.076400 4512.000000
205.076300 15684.000000
206.084600 70188.000000
207.092700 577616.000000
208.076400 44640.000000
208.095500 66432.000000
209.080300 7892.000000
210.092100 30824.000000
211.096100 4652.000000
235.098000 83588.000000
236.100900 12696.000000
291.150800 64484.000000
292.153700 12420.000000

>ms2peaks
115.054700 2072.000000
129.045500 3152.000000
140.049700 13356.000000
141.069600 2256.000000
151.054100 3012.000000
152.062200 21340.000000
153.070300 65876.000000
154.073200 9424.000000
163.054500 16124.000000
164.058900 3216.000000
165.070100 19048.000000
166.066600 6960.000000
167.072900 9760.000000
168.070000 3512.000000
169.065500 3516.000000
177.057900 3736.000000
177.070000 2332.000000
178.078100 78680.000000
179.077200 17668.000000
180.081600 281048.000000
181.065700 6864.000000
181.084300 32076.000000
182.086900 2808.000000
190.065900 158244.000000
191.071700 43512.000000
192.069300 59768.000000
193.071600 10156.000000
193.088100 13040.000000
194.060600 1940.000000
194.096600 13340.000000
195.080900 4616.000000
195.100500 2096.000000
196.076400 9128.000000
205.076800 46564.000000
206.084800 133152.000000
207.092500 369852.000000
208.076500 52700.000000
208.095600 37264.000000
209.080100 8340.000000
209.107400 11832.000000
210.092000 20384.000000
210.110700 2312.000000
211.095300 3736.000000
235.090800 12432.000000
236.093500 2576.000000
291.150200 11628.000000
292.155000 2312.000000

