>compound AU64257368
>parentmass 134.0713
>ionization [M+H]+
>formula C7H7N3
>rt 393.684000
>profile qtof
#smiles_iso CN1C2=CC=CC=C2N=N1
#smiles_can CN1C2=CC=CC=C2N=N1
#inchikey HXQHRUJXQJEGER-UHFFFAOYSA-N
#pubchem_id 25902
#mb_accession AU224007,AU224008,AU224009,AU224010,AU224011

>ms2
134.072900 2474520.000000
135.075100 298004.000000

>ms2
133.063900 16920.000000
134.072100 1446540.000000
135.075200 98984.000000

>ms2
117.045300 10492.000000
133.063900 33216.000000
134.072000 487064.000000
135.075000 30788.000000

>ms2
117.045400 1772.000000
118.052200 1012.000000
132.057100 636.000000
133.063500 10968.000000
134.071600 26388.000000
135.075200 2384.000000

>ms2
117.045000 344.000000
118.051700 468.000000
132.056300 492.000000
133.064200 3432.000000
134.071600 3776.000000

