>compound AU66169982
>parentmass 734.4685
>ionization [M+H]+
>formula C37H67NO13
>rt 368.592000
>profile qtof
#smiles_iso CCC1C(C(C(C(=O)C(CC(C(C(C(C(C(=O)O1)C)OC2CC(C(C(O2)C)O)(C)OC)C)OC3C(C(CC(O3)C)NC)O)(C)OC)C)C)O)(C)O
#smiles_can CCC1C(C(C(C(=O)C(CC(C(C(C(C(C(=O)O1)C)OC2CC(C(C(O2)C)O)(C)OC)C)OC3C(C(CC(O3)C)NC)O)(C)OC)C)C)O)(C)O
#inchikey CIJTVUQEURKBDL-UHFFFAOYSA-N
#pubchem_id 13923912
#mb_accession AU202007,AU202008,AU202009,AU202010,AU202011

>ms2
144.102300 36912.000000
302.197600 10508.000000
576.379000 47092.000000
577.381400 13336.000000
734.475800 2090788.000000
735.478700 687968.000000
736.481300 140416.000000

>ms2
127.075800 36820.000000
144.102500 985368.000000
145.105600 48020.000000
159.101900 7400.000000
270.171000 19408.000000
302.198200 158664.000000
307.192300 6132.000000
339.218500 22540.000000
365.234300 31024.000000
366.237200 6544.000000
383.245200 27744.000000
384.247300 6396.000000
397.261000 41564.000000
398.263900 9572.000000
401.255200 7904.000000
415.271900 11352.000000
433.282200 25672.000000
434.286300 6064.000000
526.339200 6980.000000
544.352500 45296.000000
545.355500 13576.000000
576.378900 510528.000000
577.382400 145780.000000
578.384800 25256.000000
702.447700 18620.000000
703.452000 7700.000000
734.475500 1024564.000000
735.478500 394276.000000
736.480100 73904.000000

>ms2
127.075500 45332.000000
144.102300 1736328.000000
145.105500 92700.000000
159.101600 11804.000000
170.118200 9188.000000
270.170300 13552.000000
302.197700 77948.000000
303.200000 14604.000000
307.191200 20916.000000
339.218500 19780.000000
365.233900 69668.000000
366.237100 13884.000000
383.244800 30500.000000
397.261400 16424.000000
544.351100 26832.000000
545.355100 10264.000000
576.377700 82320.000000
577.381200 27492.000000
734.474700 36288.000000
735.477300 15532.000000

>ms2
123.081000 27044.000000
127.075600 68984.000000
144.102700 2379508.000000
145.105900 154024.000000
159.101900 11916.000000
170.118100 41872.000000
289.181200 29832.000000
302.198000 24600.000000
307.192000 62996.000000
365.234800 74440.000000
366.237800 15788.000000
383.245100 21240.000000
602.395800 12616.000000

>ms2
123.080400 33576.000000
126.091500 9484.000000
127.075300 37964.000000
137.096000 7100.000000
144.102100 1373036.000000
145.105400 105576.000000
170.117700 33616.000000
183.101900 10404.000000
193.122300 15652.000000
251.164400 9596.000000
289.180500 32812.000000
307.191200 28644.000000
365.233300 15952.000000

