>compound AU66890747
>parentmass 115.0324
>ionization [M+H]+
>formula C4H6N2S
>rt 108.980000
>profile qtof
#smiles_iso CN1C=CNC1=S
#smiles_can CN1C=CNC1=S
#inchikey PMRYVIKBURPHAH-UHFFFAOYSA-N
#pubchem_id 1349907
#mb_accession AU116707,AU116708,AU116709

>ms2peaks
114.024200 1244.000000
115.032800 96900.000000
116.035400 5784.000000
117.028900 4748.000000

>ms2peaks
115.032500 15504.000000
117.028200 972.000000

>ms2peaks
115.032500 1220.000000

