>compound AU66998243
>parentmass 370.1649
>ionization [M+H]+
>formula C21H23NO5
>rt 359.100000
>profile qtof
#smiles_iso CC(=O)O[C@H]1C=C[C@H]2[C@H]3CC4=C5[C@]2([C@H]1OC5=C(C=C4)OC(=O)C)CCN3C
#smiles_can CC(=O)OC1C=CC2C3CC4=C5C2(C1OC5=C(C=C4)OC(=O)C)CCN3C
#inchikey GVGLGOZIDCSQPN-PVHGPHFFSA-N
#pubchem_id 5462328
#mb_accession AU153307,AU153308,AU153309,AU153310,AU153311

>ms2peaks
370.167300 232912.000000
371.169900 46272.000000
372.172700 7080.000000

>ms2peaks
211.076000 1348.000000
268.135100 1816.000000
310.144000 3468.000000
328.156300 3560.000000
370.167000 250868.000000
371.170200 55992.000000
372.171500 8028.000000

>ms2peaks
165.069600 1316.000000
183.081800 1304.000000
187.073200 672.000000
191.084700 1824.000000
193.064400 5104.000000
194.068800 1140.000000
201.091300 776.000000
203.070200 1444.000000
207.080900 1260.000000
209.059100 2484.000000
209.095300 628.000000
211.075100 12404.000000
212.079900 1712.000000
219.080000 3436.000000
221.098600 644.000000
225.091900 800.000000
229.084900 2144.000000
237.090700 5028.000000
238.096500 1076.000000
239.108500 1104.000000
240.102600 1192.000000
250.122800 640.000000
253.086400 680.000000
255.103600 920.000000
267.125400 944.000000
268.134200 17428.000000
269.137900 3584.000000
286.144200 2664.000000
287.146400 632.000000
310.145000 9464.000000
311.146200 1996.000000
328.154800 19152.000000
329.159200 3904.000000
370.166700 122088.000000
371.169600 31848.000000
372.171000 4452.000000

>ms2peaks
123.044700 388.000000
132.079600 356.000000
133.087200 348.000000
137.059600 584.000000
141.070100 700.000000
144.080800 456.000000
145.065100 512.000000
146.094200 380.000000
147.043700 652.000000
152.061000 520.000000
153.069200 856.000000
154.074700 304.000000
155.084800 956.000000
157.063500 860.000000
158.094800 312.000000
159.102900 304.000000
161.059400 1772.000000
164.108000 348.000000
165.069200 8432.000000
166.073200 1576.000000
167.085600 464.000000
168.057000 352.000000
169.064400 728.000000
173.059100 1076.000000
173.096000 368.000000
178.084800 588.000000
179.085500 1568.000000
181.064400 4360.000000
181.101200 932.000000
182.069900 664.000000
183.080000 4180.000000
184.084700 520.000000
184.113300 352.000000
185.059200 1348.000000
186.066000 508.000000
187.074800 1588.000000
191.084800 6612.000000
192.088000 1108.000000
193.064100 10540.000000
193.101000 696.000000
194.068600 2004.000000
197.058300 372.000000
197.096600 448.000000
198.065100 364.000000
199.073800 804.000000
201.090200 3808.000000
202.089700 1072.000000
203.070000 792.000000
203.087900 444.000000
207.079500 2152.000000
208.085200 336.000000
209.059100 8520.000000
209.095800 2552.000000
210.063400 1276.000000
211.075200 20304.000000
212.078400 3652.000000
213.082300 828.000000
213.089500 712.000000
218.071800 544.000000
219.079700 6948.000000
220.083500 1244.000000
220.109200 300.000000
221.095100 1580.000000
222.064300 320.000000
222.091800 388.000000
222.125800 804.000000
223.074400 328.000000
225.091500 2036.000000
226.088900 308.000000
226.096500 400.000000
227.069500 2728.000000
227.109100 556.000000
229.085700 3940.000000
232.109700 300.000000
235.097200 360.000000
236.106400 316.000000
237.090600 5996.000000
238.094200 1792.000000
239.104800 1608.000000
240.102800 1708.000000
240.137600 532.000000
243.102200 424.000000
248.104400 468.000000
249.116600 320.000000
250.121700 1536.000000
251.127600 504.000000
252.104800 620.000000
253.088200 432.000000
253.107700 1212.000000
254.113800 384.000000
255.102300 1936.000000
256.104500 388.000000
266.117900 1556.000000
267.125800 1224.000000
268.133200 20444.000000
269.079800 936.000000
269.136800 4592.000000
270.140400 508.000000
271.097800 344.000000
282.111900 324.000000
286.143800 3980.000000
287.146900 540.000000
310.144100 3664.000000
311.149000 752.000000
328.154500 13812.000000
329.158600 2380.000000
370.165500 19756.000000
371.168000 5160.000000

>ms2peaks
115.053100 644.000000
117.068400 408.000000
121.063800 528.000000
123.043800 376.000000
128.062700 408.000000
131.047800 496.000000
131.071600 392.000000
132.079100 316.000000
135.043600 308.000000
141.069500 1812.000000
144.058100 352.000000
144.079800 328.000000
145.063200 940.000000
146.059100 428.000000
146.069500 328.000000
146.095200 300.000000
147.043800 1080.000000
152.061400 936.000000
153.068800 3152.000000
154.074800 516.000000
155.084700 2820.000000
156.088500 400.000000
157.063100 1360.000000
158.069100 496.000000
158.096800 412.000000
159.103100 344.000000
160.075000 344.000000
161.059100 1084.000000
164.068200 312.000000
165.069100 15500.000000
166.073300 2908.000000
167.083200 636.000000
168.056400 600.000000
169.063800 1220.000000
171.044400 440.000000
171.077600 444.000000
173.058500 1016.000000
173.095600 484.000000
176.071100 436.000000
178.077800 1252.000000
179.085200 1780.000000
180.088200 548.000000
181.064200 8396.000000
181.101000 768.000000
182.067400 1732.000000
183.079700 4924.000000
184.082400 880.000000
185.059100 2044.000000
186.066700 752.000000
187.075200 1300.000000
189.069900 876.000000
190.076300 1436.000000
191.084800 7848.000000
192.088800 1420.000000
193.063600 7088.000000
193.100100 744.000000
194.068800 1944.000000
195.078800 544.000000
196.048500 332.000000
197.058400 816.000000
197.094500 868.000000
198.065700 348.000000
198.092600 328.000000
199.075100 1036.000000
201.071100 676.000000
201.090800 2772.000000
202.076900 548.000000
203.082600 348.000000
203.088100 388.000000
205.066700 316.000000
207.080200 1148.000000
208.084800 356.000000
209.059300 7620.000000
209.094500 2068.000000
210.063500 2032.000000
211.074500 9136.000000
212.079600 2056.000000
213.051600 308.000000
214.060800 632.000000
216.099700 316.000000
218.072000 832.000000
219.079700 3348.000000
220.083100 816.000000
220.110500 484.000000
221.058600 324.000000
221.095800 968.000000
222.068400 724.000000
222.091700 412.000000
222.128100 536.000000
223.073600 300.000000
225.090200 1028.000000
227.070000 2156.000000
227.103800 396.000000
228.076200 308.000000
228.100800 388.000000
229.084400 1652.000000
230.085200 520.000000
234.090900 552.000000
235.098500 432.000000
236.105300 300.000000
237.089800 3060.000000
238.093700 680.000000
239.095200 380.000000
240.102700 836.000000
240.138500 492.000000
250.121100 652.000000
251.126500 420.000000
252.104300 896.000000
253.107200 876.000000
255.098000 580.000000
266.117000 1188.000000
267.123100 556.000000
268.133500 5168.000000
269.081500 316.000000
269.135900 1532.000000
286.143500 984.000000
328.154500 2104.000000
329.156500 464.000000
370.166500 904.000000

