>compound AU68343048
>parentmass 300.1594
>ionization [M+H]+
>formula C18H21NO3
>rt 381.192000
>profile qtof
#smiles_iso CN1CC[C@]23[C@@H]4[C@H]1CC5=C2C(=C(C=C5)OC)O[C@H]3[C@H](C=C4)O
#smiles_can CN1CCC23C4C1CC5=C2C(=C(C=C5)OC)OC3C(C=C4)O
#inchikey OROGSEYTTFOCAN-DNJOTXNNSA-N
#pubchem_id 5284371
#mb_accession AU162307,AU162308,AU162309,AU162310,AU162311

>ms2
300.160100 2010624.000000
301.163000 378380.000000
302.165400 31728.000000

>ms2
215.105800 32292.000000
225.090400 14724.000000
243.101000 42188.000000
282.148400 27700.000000
300.160000 2302780.000000
301.162800 473960.000000
302.165400 37888.000000

>ms2
137.059100 12676.000000
153.069100 9012.000000
155.084500 16088.000000
159.079300 12388.000000
161.058800 27612.000000
165.069000 28944.000000
171.079700 12592.000000
175.074200 13580.000000
181.064100 23084.000000
182.070400 7976.000000
183.079700 59160.000000
184.084400 9396.000000
185.059000 8776.000000
187.074500 35408.000000
187.110800 9724.000000
191.084400 11520.000000
192.101100 10260.000000
193.064000 28920.000000
194.071000 15060.000000
195.079100 7264.000000
197.095600 10428.000000
198.066600 6296.000000
199.074800 77392.000000
200.080300 16180.000000
201.089600 8820.000000
207.079000 6204.000000
209.058700 21960.000000
209.095100 8256.000000
210.065400 9220.000000
211.074400 15460.000000
212.081600 8680.000000
213.089800 19712.000000
215.106200 150328.000000
216.109200 22960.000000
219.079200 9232.000000
221.095100 9188.000000
223.074900 12488.000000
225.090400 83692.000000
226.094300 15300.000000
241.085400 39304.000000
242.089000 7580.000000
243.101200 101344.000000
244.104500 15488.000000
251.106600 11620.000000
253.121500 8608.000000
266.116900 9852.000000
267.124700 13472.000000
282.148200 52228.000000
283.151200 9728.000000
300.159600 1151132.000000
301.162800 170100.000000
302.165300 15448.000000

>ms2
115.053700 3932.000000
116.060200 896.000000
117.068500 596.000000
118.064600 436.000000
120.082200 368.000000
121.064100 2824.000000
122.036400 944.000000
127.053600 1384.000000
128.061200 6520.000000
129.068600 4432.000000
131.048200 2168.000000
131.084600 1512.000000
132.080300 1456.000000
133.063700 384.000000
134.062200 452.000000
134.095400 836.000000
136.073600 500.000000
137.058800 12468.000000
138.063000 1036.000000
139.053600 1072.000000
140.060700 464.000000
141.069000 12896.000000
142.073700 1744.000000
143.047900 2372.000000
143.084900 1476.000000
144.055900 13800.000000
144.080400 1032.000000
145.062300 4584.000000
145.087500 560.000000
146.035400 1364.000000
146.059500 2012.000000
146.070800 1680.000000
146.094800 732.000000
147.043000 524.000000
147.066100 432.000000
147.079600 1360.000000
148.074100 1020.000000
149.058700 764.000000
149.083100 372.000000
150.065500 448.000000
151.051900 872.000000
151.075000 1160.000000
152.061100 9476.000000
153.068800 34424.000000
154.075100 7668.000000
155.047900 3288.000000
155.058700 2228.000000
155.084300 30544.000000
156.056100 7860.000000
156.088000 3560.000000
157.063600 5580.000000
157.100400 788.000000
158.071300 8464.000000
158.097200 428.000000
159.042800 2132.000000
159.079200 16312.000000
160.049400 1464.000000
160.076200 3436.000000
161.058700 29244.000000
162.062800 3232.000000
162.090000 1584.000000
163.057100 500.000000
163.072100 1612.000000
163.097100 392.000000
164.069100 2648.000000
165.068900 66508.000000
166.074600 12504.000000
167.048500 460.000000
167.083800 6504.000000
168.055900 12712.000000
168.089000 896.000000
169.063700 7436.000000
169.099900 1188.000000
170.035900 556.000000
170.071700 4964.000000
170.095400 1288.000000
171.044000 2972.000000
171.079500 33708.000000
172.050600 6880.000000
172.086100 10936.000000
173.056900 2220.000000
173.094100 3396.000000
174.067200 5236.000000
174.093100 636.000000
175.074200 8256.000000
176.074000 2152.000000
177.053800 1124.000000
177.069700 2628.000000
178.077500 4184.000000
179.059500 472.000000
179.083600 7588.000000
180.056900 2020.000000
180.097600 2200.000000
181.063800 49292.000000
181.100000 5552.000000
182.070500 20400.000000
182.102300 1064.000000
183.043200 4564.000000
183.079400 44272.000000
184.050600 4568.000000
184.084300 9476.000000
185.058500 17520.000000
185.095100 4820.000000
186.066000 9724.000000
186.098600 1104.000000
187.073900 20648.000000
187.110600 8444.000000
188.078800 3656.000000
188.114500 1204.000000
189.052500 452.000000
189.069200 1756.000000
189.089000 2488.000000
190.077100 4244.000000
191.084600 10628.000000
192.056700 748.000000
192.099700 3340.000000
193.064100 19400.000000
193.101100 3348.000000
194.071400 21836.000000
195.078100 10876.000000
196.051200 1056.000000
196.085000 2660.000000
196.109600 388.000000
197.058800 7372.000000
197.094900 9188.000000
198.066600 18660.000000
198.100400 2824.000000
199.074600 72708.000000
200.080400 17124.000000
201.053600 1900.000000
201.089300 6112.000000
201.111900 408.000000
202.060200 432.000000
202.080400 1420.000000
203.085700 2124.000000
204.100400 880.000000
205.064900 1912.000000
205.100700 644.000000
206.071600 1144.000000
207.079000 5748.000000
208.049900 1748.000000
208.086800 4708.000000
209.058700 17704.000000
209.094900 6188.000000
210.066300 15920.000000
210.099500 1988.000000
211.073900 13600.000000
211.110500 732.000000
212.081700 11248.000000
213.052600 1272.000000
213.089900 19436.000000
214.059300 888.000000
214.093800 4428.000000
215.105700 49608.000000
216.108900 8520.000000
217.110600 1000.000000
218.070800 1888.000000
219.079700 6068.000000
220.087600 4192.000000
220.109800 1852.000000
221.059100 4160.000000
221.094200 5208.000000
222.065500 1336.000000
222.099400 1668.000000
222.127400 988.000000
223.074200 15564.000000
223.109800 1612.000000
224.079700 4736.000000
224.104900 1272.000000
225.090300 42220.000000
226.060900 2608.000000
226.094200 8556.000000
227.068500 2252.000000
227.101200 1544.000000
228.076100 2552.000000
228.101100 1660.000000
229.076000 1128.000000
229.109900 1148.000000
230.116400 1180.000000
233.095100 592.000000
234.093800 536.000000
235.073500 1656.000000
235.097000 660.000000
236.082600 4380.000000
236.108000 716.000000
237.089300 3212.000000
237.112600 364.000000
238.096000 3340.000000
238.122200 1144.000000
239.070900 1272.000000
239.103100 3036.000000
239.128100 864.000000
240.074800 728.000000
240.104800 892.000000
240.133600 600.000000
241.085200 29256.000000
241.120200 2096.000000
242.088000 5480.000000
242.117100 908.000000
243.100700 19552.000000
244.104600 2996.000000
248.106600 1320.000000
249.111900 1244.000000
250.096500 548.000000
250.122300 3860.000000
251.105600 4172.000000
251.126100 2064.000000
252.102400 3340.000000
253.083100 440.000000
253.121000 3480.000000
254.093000 884.000000
254.118900 968.000000
254.152100 440.000000
255.121900 404.000000
256.131700 612.000000
257.115100 452.000000
264.099800 540.000000
265.113800 428.000000
266.117000 10952.000000
267.123300 6676.000000
268.128200 2220.000000
269.117200 1256.000000
270.118200 376.000000
272.125900 464.000000
280.132700 996.000000
282.147800 8220.000000
283.150700 1612.000000
285.134000 2428.000000
286.141400 368.000000
298.143200 560.000000
300.159000 60984.000000
301.161400 11112.000000
302.165100 1384.000000

>ms2
115.053600 11232.000000
116.059200 1816.000000
117.069200 972.000000
118.040400 952.000000
119.046600 496.000000
121.064100 2204.000000
122.036000 1544.000000
126.046300 908.000000
127.053600 3720.000000
128.061100 23716.000000
129.068600 9504.000000
131.048500 4040.000000
131.072700 504.000000
131.085800 1040.000000
132.055800 1116.000000
132.081400 1260.000000
133.063700 636.000000
134.060000 464.000000
134.095500 780.000000
135.043800 584.000000
136.075500 620.000000
137.059000 7960.000000
139.053300 3732.000000
140.060300 1720.000000
141.069100 24588.000000
142.040300 456.000000
142.075200 4740.000000
143.048100 3744.000000
143.083900 1272.000000
144.055900 18056.000000
144.079900 1388.000000
145.063400 7392.000000
146.035300 2124.000000
146.069600 2132.000000
146.094600 700.000000
147.042200 1036.000000
147.078800 1776.000000
148.049600 488.000000
148.073800 1280.000000
149.060000 844.000000
150.047600 516.000000
151.053900 2040.000000
151.074000 460.000000
152.061200 37052.000000
153.069000 74004.000000
154.075100 16564.000000
155.048700 7376.000000
155.084500 26328.000000
156.056400 13188.000000
157.063500 9816.000000
157.089900 492.000000
157.100400 628.000000
158.071500 9876.000000
159.042800 3624.000000
159.079200 8808.000000
160.050200 2088.000000
160.075900 2736.000000
161.059000 20752.000000
162.089700 1000.000000
163.053300 972.000000
164.062300 2524.000000
165.069200 83404.000000
166.074400 17440.000000
167.048900 600.000000
167.083700 6636.000000
168.055900 19140.000000
169.063500 18016.000000
170.034800 3124.000000
170.071200 9700.000000
170.094500 688.000000
171.042900 6888.000000
171.079500 38216.000000
172.050900 6140.000000
172.085800 10192.000000
173.057200 2264.000000
173.093600 2856.000000
174.065900 3712.000000
175.074200 4304.000000
176.062300 2016.000000
177.069500 3544.000000
178.076700 8300.000000
179.059200 1772.000000
179.084100 7776.000000
180.056000 5104.000000
180.090900 1912.000000
181.063900 51080.000000
182.070600 22188.000000
183.043000 16544.000000
183.079100 18808.000000
184.050600 9944.000000
184.084900 4900.000000
185.058500 20548.000000
185.094600 4572.000000
186.030900 756.000000
186.065500 6972.000000
187.074000 7684.000000
187.110100 2400.000000
189.069000 4448.000000
189.087800 808.000000
190.076200 5644.000000
191.083800 8752.000000
192.058100 944.000000
192.090500 1696.000000
193.064000 12428.000000
193.098900 1840.000000
194.071200 16444.000000
195.078300 9024.000000
196.050700 1380.000000
196.085500 2616.000000
196.109300 532.000000
197.058700 16176.000000
197.094900 3036.000000
198.066500 22212.000000
198.092900 1608.000000
199.074300 31516.000000
200.045700 496.000000
200.080300 9444.000000
200.106700 656.000000
201.054300 1068.000000
201.088100 2784.000000
202.076900 2228.000000
203.082900 1128.000000
205.063900 3716.000000
205.092500 424.000000
206.071400 1596.000000
206.097400 800.000000
207.079700 4420.000000
207.102300 460.000000
208.051200 3880.000000
208.086400 3356.000000
208.108800 536.000000
209.058900 10464.000000
209.094600 2824.000000
210.065900 13484.000000
210.091900 916.000000
210.099500 1056.000000
211.038200 780.000000
211.073700 7588.000000
211.109900 488.000000
212.050600 452.000000
212.081600 6492.000000
213.053200 1464.000000
213.089300 7728.000000
214.089400 2552.000000
215.069400 420.000000
215.106000 7808.000000
218.071500 2116.000000
218.093300 528.000000
219.079500 4020.000000
220.085800 2392.000000
220.110900 2692.000000
221.059700 3932.000000
221.094500 1548.000000
221.114900 428.000000
222.063300 1332.000000
222.091300 480.000000
222.106000 576.000000
222.124300 440.000000
223.074300 10320.000000
223.101000 596.000000
224.080000 2920.000000
224.106600 1032.000000
225.053500 1304.000000
225.089500 9332.000000
226.061000 2580.000000
226.093800 2568.000000
227.069400 1412.000000
227.093500 428.000000
228.077800 872.000000
228.100800 1104.000000
229.077500 660.000000
234.091000 1364.000000
235.073900 1800.000000
235.099300 1108.000000
236.081500 2660.000000
236.104600 568.000000
237.084100 1212.000000
238.096200 1020.000000
238.122400 712.000000
239.067700 856.000000
239.099500 788.000000
240.075200 524.000000
240.101500 556.000000
240.136900 660.000000
241.085300 7636.000000
242.091000 1320.000000
242.114000 820.000000
243.100300 1712.000000
248.105800 1584.000000
249.114100 700.000000
250.121400 1840.000000
251.103200 956.000000
251.126400 556.000000
252.100500 1848.000000
254.116000 548.000000
266.116900 4824.000000
267.122600 1680.000000
268.128700 816.000000
282.149000 1020.000000
300.159300 2980.000000

