>compound AU68657307
>parentmass 748.4842
>ionization [M+H]+
>formula C38H69NO13
>rt 375.924000
>profile qtof
#smiles_iso CC[C@@H]1[C@@]([C@@H]([C@H](C(=O)[C@@H](C[C@@]([C@@H]([C@H]([C@@H]([C@H](C(=O)O1)C)O[C@H]2C[C@@]([C@H]([C@@H](O2)C)O)(C)OC)C)O[C@H]3[C@@H]([C@H](C[C@H](O3)C)N(C)C)O)(C)OC)C)C)O)(C)O
#smiles_can CCC1C(C(C(C(=O)C(CC(C(C(C(C(C(=O)O1)C)OC2CC(C(C(O2)C)O)(C)OC)C)OC3C(C(CC(O3)C)N(C)C)O)(C)OC)C)C)O)(C)O
#inchikey AGOYDEPGAOXOCK-KCBOHYOISA-N
#pubchem_id 84029
#mb_accession AU105307,AU105308,AU105309,AU105310,AU105311

>ms2
158.116400 24192.000000
590.389200 53316.000000
591.392800 12004.000000
748.485500 1770616.000000
749.488100 645624.000000
750.491200 132260.000000

>ms2
116.106800 15556.000000
127.074600 13860.000000
158.117200 621696.000000
159.120400 51484.000000
316.211500 55544.000000
317.215600 9956.000000
558.364600 103344.000000
559.367800 31580.000000
590.391000 787576.000000
591.394900 253512.000000
592.395900 48712.000000
716.461100 13048.000000
748.487000 1748424.000000
749.489500 510496.000000
750.491600 128852.000000

>ms2
116.069900 22908.000000
116.106400 56796.000000
127.074600 60808.000000
158.117100 2439848.000000
159.100500 19584.000000
159.119900 249460.000000
160.121800 14428.000000
284.184500 14312.000000
316.210400 52100.000000
365.230800 17812.000000
540.351600 14288.000000
558.363200 255920.000000
559.366100 75436.000000
560.368700 14432.000000
590.389600 928824.000000
591.393100 239216.000000
592.394800 39016.000000
748.484300 105724.000000
749.487500 47040.000000

>ms2
116.070500 59756.000000
116.107000 77208.000000
127.075000 63020.000000
158.118100 2489624.000000
159.120600 374296.000000
365.232400 14604.000000
558.364500 77552.000000
559.368300 25992.000000
590.391800 69796.000000
591.394300 23192.000000

>ms2
116.070400 129540.000000
116.106800 87856.000000
123.080000 18296.000000
127.074800 57448.000000
158.117800 2471612.000000
159.120300 335592.000000
558.363400 13856.000000

