>compound AU70621769
>parentmass 278.1903
>ionization [M+H]+
>formula C20H23N
>rt 366.624000
>profile qtof
#smiles_iso CNCCCC12CCC(C3=CC=CC=C31)C4=CC=CC=C24
#smiles_can CNCCCC12CCC(C3=CC=CC=C31)C4=CC=CC=C24
#inchikey QSLMDECMDJKHMQ-UHFFFAOYSA-N
#pubchem_id 4011
#mb_accession AU222107,AU222108,AU222109,AU222110,AU222111

>ms2peaks
169.101500 15844.000000
219.117900 13996.000000
247.149600 23004.000000
250.160700 218764.000000
251.163600 35532.000000
278.193600 2515320.000000

>ms2peaks
115.055200 21324.000000
117.070900 158048.000000
118.074100 16284.000000
129.070800 18860.000000
131.086500 67524.000000
141.070800 31516.000000
143.086400 48200.000000
155.086300 13024.000000
169.102500 266568.000000
170.105600 31256.000000
178.078900 30984.000000
179.085400 13396.000000
191.086900 66468.000000
193.102400 21136.000000
205.102500 30912.000000
219.118700 445588.000000
220.121900 64884.000000
247.150400 114516.000000
248.153500 22584.000000
250.161600 2197948.000000
251.164600 399704.000000
252.167600 21684.000000
278.193500 2491092.000000
279.196500 659016.000000
280.199500 41296.000000

>ms2peaks
115.055000 68180.000000
117.070800 268096.000000
118.073900 23980.000000
128.062800 23620.000000
129.070300 50960.000000
131.086300 163776.000000
132.089700 13612.000000
141.070700 195080.000000
142.073900 18232.000000
143.086300 74124.000000
155.086200 28324.000000
169.102200 305684.000000
170.105400 34368.000000
178.078800 400800.000000
179.084300 86144.000000
191.086800 903284.000000
192.090200 105180.000000
193.102200 160664.000000
194.105600 22636.000000
203.086400 16352.000000
204.094500 86928.000000
205.102100 138160.000000
206.106200 23608.000000
217.102600 11988.000000
218.109900 19792.000000
219.118500 2134140.000000
220.121800 267876.000000
221.124900 17304.000000
247.149400 27384.000000
250.161100 1690636.000000
251.164200 225060.000000
278.192400 214732.000000
279.195500 39368.000000

>ms2peaks
115.055100 112488.000000
116.059900 12536.000000
117.070800 162644.000000
118.074100 14764.000000
128.062700 65472.000000
129.070300 48896.000000
131.086400 114216.000000
141.070800 277544.000000
142.073900 27556.000000
143.086200 39132.000000
154.078300 21272.000000
155.085600 20212.000000
165.070700 23228.000000
169.102000 68672.000000
178.078800 1080828.000000
179.084300 199804.000000
180.088900 15012.000000
189.070900 37136.000000
190.078400 65696.000000
191.086900 2340896.000000
192.090300 274856.000000
193.102100 120948.000000
194.105600 15748.000000
202.079000 23636.000000
203.086700 120428.000000
204.094700 458484.000000
205.101200 152076.000000
206.105800 23096.000000
217.102500 38868.000000
218.109900 48100.000000
219.118500 972052.000000
220.121800 121904.000000
250.161000 122072.000000
251.163800 19524.000000

>ms2peaks
115.055000 180640.000000
116.060000 21176.000000
117.070600 96212.000000
127.054500 14084.000000
128.062600 121592.000000
129.070000 43648.000000
131.086100 58176.000000
141.070600 275628.000000
142.073800 26764.000000
152.062500 26952.000000
153.069800 20980.000000
154.077800 29592.000000
155.085500 12888.000000
165.070600 114132.000000
166.074100 14772.000000
176.062600 15712.000000
177.070300 19024.000000
178.078700 1554964.000000
179.083900 303400.000000
189.070900 258820.000000
190.078400 353108.000000
191.086800 2492808.000000
192.090200 373840.000000
193.100300 38556.000000
202.078900 106332.000000
203.086700 516092.000000
204.094300 749600.000000
205.099200 109380.000000
215.086300 13152.000000
217.102300 67792.000000
218.109400 47528.000000
219.117900 143960.000000
220.121100 26400.000000

