>compound AU75276744
>parentmass 282.1601
>ionization [M+H]+
>formula C17H19N3O
>rt 376.992000
>profile qtof
#smiles_iso CN1CCN2C(C1)C3=CC=CC=C3CC4=C2N=CC(=C4)O
#smiles_can CN1CCN2C(C1)C3=CC=CC=C3CC4=C2N=CC(=C4)O
#inchikey DAWYIZBOUQIVNX-UHFFFAOYSA-N
#pubchem_id 11500131
#mb_accession AU155507,AU155508,AU155509,AU155510,AU155511

>ms2peaks
211.085800 22168.000000
282.160300 2085024.000000
283.163100 338536.000000
284.165700 27104.000000

>ms2peaks
211.086200 557172.000000
212.089100 63296.000000
225.101800 92140.000000
226.104900 13116.000000
239.117200 39300.000000
251.117400 42964.000000
252.120600 8024.000000
280.143900 23672.000000
282.160100 1389004.000000
283.163200 203928.000000
284.165300 14540.000000

>ms2peaks
144.079900 8688.000000
149.069600 11328.000000
166.063800 11680.000000
196.074700 12040.000000
198.090000 10380.000000
210.077700 25884.000000
211.086000 1268148.000000
212.089200 134032.000000
213.091600 8200.000000
223.085300 8468.000000
225.101500 176416.000000
226.104500 25028.000000
235.086300 7500.000000
236.093500 9944.000000
239.116900 50024.000000
240.120600 8472.000000
251.117100 75804.000000
252.120200 12684.000000
253.132000 6564.000000
280.143800 20744.000000
282.159400 78596.000000
283.162200 15764.000000

>ms2peaks
115.054100 8340.000000
130.064600 6608.000000
141.069100 7332.000000
144.079800 14352.000000
147.054500 6768.000000
149.069800 10192.000000
156.079500 6700.000000
166.064200 62512.000000
167.070500 18840.000000
168.079200 6504.000000
181.075100 7860.000000
182.083200 13832.000000
183.066800 12312.000000
183.090300 11972.000000
184.074400 7804.000000
194.082700 8048.000000
195.067300 11344.000000
196.074600 27024.000000
197.078600 6520.000000
198.090100 18108.000000
208.075200 6012.000000
210.078500 143656.000000
211.086100 1190248.000000
212.089300 121228.000000
213.092400 7056.000000
222.077800 6896.000000
223.085700 17680.000000
224.093000 8484.000000
225.101500 109780.000000
226.104900 15096.000000
235.085800 24468.000000
236.092800 12976.000000
237.100600 7636.000000
239.117100 18424.000000
251.117100 23984.000000

>ms2peaks
115.053700 12524.000000
116.049100 8488.000000
127.053800 3076.000000
128.061400 8308.000000
129.069200 9916.000000
130.064600 13376.000000
131.072100 7172.000000
132.079300 2192.000000
133.039300 4020.000000
134.046300 3712.000000
135.054800 2436.000000
139.053400 13188.000000
140.049500 4296.000000
141.069200 11584.000000
142.064700 3288.000000
143.072000 3596.000000
144.080100 14788.000000
145.063600 1828.000000
145.085400 2180.000000
146.095300 2116.000000
147.054500 7108.000000
149.070000 4236.000000
152.061400 5328.000000
153.068900 6160.000000
154.064300 12196.000000
155.060800 3820.000000
155.070200 4648.000000
156.080100 15008.000000
165.068300 2460.000000
166.064500 95864.000000
167.071100 34100.000000
168.077300 10220.000000
169.075100 9544.000000
170.095100 4464.000000
178.064400 2424.000000
178.076300 1988.000000
180.080200 8244.000000
181.075500 20024.000000
182.059200 5520.000000
182.082900 32840.000000
183.067100 24028.000000
183.090600 16384.000000
184.074000 14436.000000
191.072600 1940.000000
192.067500 4792.000000
193.075300 6876.000000
194.059700 3448.000000
194.082800 16000.000000
195.067200 24728.000000
195.088600 4824.000000
196.074300 28184.000000
197.078700 6896.000000
198.089500 7812.000000
205.074700 2076.000000
206.082600 2480.000000
207.091000 3536.000000
208.074900 5964.000000
209.070400 12104.000000
210.078400 298020.000000
211.085800 365112.000000
213.091300 3120.000000
221.070500 8756.000000
222.077600 6248.000000
223.085800 15792.000000
224.092500 6880.000000
225.101400 21772.000000
226.105200 3468.000000
234.079400 3400.000000
235.085600 27220.000000
236.090800 6808.000000
237.100900 4560.000000
239.117400 2364.000000
249.102100 3044.000000
250.097200 3488.000000
251.117000 2820.000000

