>compound AU75944798
>parentmass 375.2166
>ionization [M+H]+
>formula C22H30O5
>rt 109.248000
>profile qtof
#smiles_iso C[C@H]1C[C@H]2[C@@H]3CC[C@@]([C@]3(C[C@@H]([C@@H]2[C@@]4(C1=CC(=O)C=C4)C)O)C)(C(=O)CO)O
#smiles_can CC1CC2C3CCC(C3(CC(C2C4(C1=CC(=O)C=C4)C)O)C)(C(=O)CO)O
#inchikey VHRSUDSXCMQTMA-PJHHCJLFSA-N
#pubchem_id 6741
#mb_accession AU107607,AU107608,AU107609,AU107610,AU107611

>ms2
135.079600 4980.000000
147.078800 912.000000
149.094500 848.000000
161.095000 9460.000000
162.099000 1144.000000
165.090300 1648.000000
173.094700 928.000000
175.110000 1160.000000
183.099800 1512.000000
185.094900 3724.000000
187.110200 4992.000000
211.109200 1008.000000
213.125200 2184.000000
225.125500 904.000000
231.137400 1412.000000
237.126300 1412.000000
241.156600 972.000000
249.126100 844.000000
251.141200 4828.000000
253.156900 8128.000000
254.161200 1560.000000
255.172800 1684.000000
267.138000 1396.000000
277.157400 2244.000000
279.137000 1040.000000
279.173200 7084.000000
280.177200 3196.000000
281.188400 3508.000000
291.173000 1204.000000
293.151900 5084.000000
293.189100 3608.000000
294.156300 1148.000000
294.191300 928.000000
295.169000 1628.000000
297.147900 1768.000000
297.184300 3280.000000
303.173400 5500.000000
304.175900 1788.000000
309.182900 3072.000000
311.198500 2428.000000
315.158500 1328.000000
321.184000 25800.000000
322.187000 6460.000000
327.194300 1664.000000
329.208100 856.000000
339.194700 74496.000000
340.197700 14204.000000
357.205400 159640.000000
358.208300 33512.000000
375.216200 116936.000000
376.218500 23864.000000
377.223900 3828.000000

>ms2
119.084800 684.000000
121.064300 2036.000000
123.080200 456.000000
125.058000 540.000000
125.094900 308.000000
127.073700 416.000000
131.084400 908.000000
133.100000 1076.000000
135.079500 18624.000000
136.082400 1648.000000
137.057900 316.000000
137.095800 580.000000
139.074400 1204.000000
143.086300 428.000000
145.063700 844.000000
145.100700 1840.000000
147.079600 2824.000000
147.119000 628.000000
149.095100 2804.000000
151.073900 1036.000000
153.090300 552.000000
155.071900 592.000000
155.084800 308.000000
157.085200 356.000000
157.099900 616.000000
158.071600 304.000000
159.079200 3712.000000
159.116800 512.000000
160.084900 568.000000
161.094900 28124.000000
162.098300 3524.000000
163.111100 1336.000000
165.090000 3816.000000
166.095600 312.000000
167.106700 520.000000
169.099900 420.000000
171.079900 1004.000000
171.116100 892.000000
172.086100 452.000000
173.095800 3740.000000
173.132100 340.000000
175.111700 2728.000000
177.089600 2280.000000
177.127200 568.000000
178.094400 532.000000
179.103800 548.000000
183.099500 1524.000000
183.113400 480.000000
185.094800 15400.000000
186.098100 2148.000000
187.110900 13180.000000
188.114600 2140.000000
189.090600 2592.000000
189.125100 904.000000
191.106600 740.000000
191.140100 304.000000
193.122200 460.000000
195.115000 340.000000
197.095600 424.000000
198.101400 316.000000
199.111200 2888.000000
201.092700 388.000000
201.126500 2044.000000
203.108900 428.000000
203.143700 316.000000
205.123400 544.000000
209.095000 832.000000
210.101000 332.000000
211.110900 6460.000000
212.114500 1300.000000
213.126000 5072.000000
214.128000 1068.000000
215.104700 420.000000
215.142200 604.000000
219.135000 484.000000
222.104300 308.000000
223.110800 1788.000000
224.118600 560.000000
225.126100 2640.000000
226.130500 768.000000
227.104200 996.000000
227.140500 1752.000000
228.110100 336.000000
228.146400 636.000000
229.120900 432.000000
231.137100 3632.000000
232.140700 588.000000
235.111400 1644.000000
236.116000 448.000000
237.126500 6892.000000
238.129800 1960.000000
239.142400 3796.000000
240.147000 964.000000
241.155900 2300.000000
247.110200 456.000000
248.116900 320.000000
249.127000 1792.000000
249.150500 356.000000
250.130100 720.000000
251.141700 8400.000000
252.144600 1728.000000
253.158000 25348.000000
254.161900 4404.000000
255.174300 3328.000000
256.177500 480.000000
261.129400 1344.000000
262.134300 600.000000
263.141900 2044.000000
264.146000 560.000000
265.120000 464.000000
265.158700 1956.000000
267.136500 2112.000000
267.161700 428.000000
268.140400 620.000000
269.152900 1176.000000
274.133000 696.000000
275.143800 688.000000
275.173600 300.000000
277.157200 4892.000000
278.162100 1996.000000
279.137000 4076.000000
279.173200 13276.000000
280.139500 1036.000000
280.179500 11812.000000
281.150900 436.000000
281.187500 8040.000000
282.191000 1704.000000
283.195600 424.000000
285.151900 484.000000
288.148100 852.000000
289.152200 408.000000
290.163400 404.000000
291.175000 3448.000000
292.177900 968.000000
293.152100 2160.000000
293.189200 7824.000000
294.151600 336.000000
294.162700 384.000000
294.192900 1724.000000
295.167300 1424.000000
296.172900 388.000000
297.148100 3588.000000
297.185500 1788.000000
298.153400 1188.000000
298.189000 344.000000
299.199800 936.000000
300.209400 308.000000
303.173100 9392.000000
304.175500 2720.000000
305.181300 488.000000
306.160800 436.000000
309.183600 4024.000000
310.187200 1204.000000
311.167100 500.000000
311.198800 1752.000000
312.197500 408.000000
312.206100 320.000000
315.157500 2804.000000
316.161200 592.000000
321.184400 19116.000000
322.187400 4644.000000
323.190500 472.000000
327.195900 960.000000
329.209000 564.000000
339.194800 25044.000000
340.198100 5560.000000
357.206000 37880.000000
358.208400 8412.000000
375.212200 1352.000000

>ms2
115.053700 1044.000000
116.060400 300.000000
117.069600 656.000000
119.084300 2360.000000
121.064200 8396.000000
122.068100 584.000000
123.079100 1320.000000
125.061300 904.000000
127.076200 416.000000
128.060600 632.000000
129.069000 920.000000
131.048800 352.000000
131.084800 3188.000000
133.064600 1312.000000
133.100700 2768.000000
135.079500 30064.000000
136.083400 3200.000000
137.059100 1436.000000
137.095900 1260.000000
139.074100 948.000000
139.109500 404.000000
141.068800 924.000000
142.076000 568.000000
143.084400 2476.000000
144.055800 436.000000
145.063500 3776.000000
145.100000 4800.000000
146.070600 1316.000000
146.104300 608.000000
147.079300 6468.000000
147.116000 1664.000000
148.083600 756.000000
149.095200 4040.000000
150.100400 796.000000
151.073800 684.000000
151.110300 428.000000
153.089300 444.000000
155.068600 300.000000
155.085000 508.000000
156.091300 352.000000
157.064800 508.000000
157.099900 1684.000000
158.071400 1144.000000
159.079500 9928.000000
159.116200 1688.000000
160.084500 1844.000000
161.095200 48212.000000
162.098300 5688.000000
163.075400 328.000000
163.109700 812.000000
165.090500 2520.000000
165.125700 380.000000
167.085300 360.000000
167.107700 324.000000
169.100900 640.000000
170.071300 512.000000
171.079200 2368.000000
171.115900 1392.000000
172.086700 1472.000000
172.121000 456.000000
173.094700 10164.000000
173.130200 1688.000000
174.098700 1464.000000
175.073900 440.000000
175.111200 4100.000000
175.147700 312.000000
176.115800 504.000000
177.090500 3300.000000
179.106200 1040.000000
181.100000 844.000000
183.079000 788.000000
183.101000 624.000000
183.115300 452.000000
184.087400 572.000000
185.095100 37092.000000
186.098900 4616.000000
187.110900 24988.000000
188.114900 4032.000000
189.090500 5248.000000
189.125700 1072.000000
190.094100 696.000000
191.106600 784.000000
191.141700 804.000000
193.101100 844.000000
193.123400 332.000000
195.080400 1040.000000
195.115600 876.000000
196.085800 1148.000000
197.094200 2600.000000
197.130900 372.000000
198.100200 784.000000
199.110800 6716.000000
200.115100 1084.000000
201.089700 608.000000
201.125700 2900.000000
202.130800 464.000000
203.106500 360.000000
203.142500 420.000000
205.121900 304.000000
206.109100 652.000000
207.117100 468.000000
208.087700 712.000000
208.119600 468.000000
209.094700 4188.000000
209.131000 652.000000
210.101500 2004.000000
211.110800 21592.000000
212.114600 3584.000000
213.089000 604.000000
213.126500 8096.000000
214.129800 1384.000000
215.104800 580.000000
215.140800 396.000000
219.116600 660.000000
219.137300 488.000000
220.122300 652.000000
221.100100 580.000000
221.130700 920.000000
222.103100 1968.000000
223.110400 6000.000000
224.116900 2144.000000
225.125700 6588.000000
225.162300 388.000000
226.130100 1484.000000
227.107500 988.000000
227.142100 3204.000000
228.147600 476.000000
229.119900 428.000000
231.115500 408.000000
231.136900 3504.000000
232.139800 492.000000
233.096100 556.000000
233.132100 536.000000
234.101700 764.000000
234.139500 372.000000
235.111800 3800.000000
235.146400 1304.000000
236.117100 2156.000000
236.151700 396.000000
237.126000 14792.000000
238.133000 5740.000000
239.106600 480.000000
239.141400 7400.000000
240.148500 1612.000000
241.118500 816.000000
241.157400 1924.000000
242.163500 724.000000
243.135700 428.000000
245.094500 328.000000
246.106300 624.000000
247.108600 664.000000
247.145300 484.000000
248.118600 968.000000
249.126900 5012.000000
249.162300 312.000000
250.131500 1420.000000
251.141700 13232.000000
252.146100 2784.000000
253.158200 27008.000000
254.160400 5260.000000
255.139000 620.000000
255.172800 3268.000000
256.175100 632.000000
259.112500 932.000000
260.116800 936.000000
261.126000 3096.000000
261.161700 312.000000
262.132900 1828.000000
263.142000 3300.000000
263.178500 1200.000000
264.112600 440.000000
264.150100 1628.000000
264.181500 560.000000
265.119500 680.000000
265.158000 5840.000000
266.127000 584.000000
266.162300 2488.000000
267.137500 2160.000000
267.172400 348.000000
268.142600 972.000000
269.115000 344.000000
269.151100 1436.000000
273.125800 924.000000
273.154600 404.000000
274.133500 1772.000000
275.140600 1884.000000
275.175800 396.000000
276.148200 444.000000
277.157500 5016.000000
278.163300 2052.000000
279.137400 4356.000000
279.173100 10576.000000
280.181300 18108.000000
281.146900 484.000000
281.186900 6668.000000
282.192400 1272.000000
283.171300 348.000000
285.145500 496.000000
285.161800 428.000000
288.149000 2432.000000
289.151800 820.000000
290.163100 792.000000
291.173800 3024.000000
292.176500 928.000000
293.152800 864.000000
293.189600 4456.000000
294.193000 1228.000000
295.168900 1004.000000
297.146400 2840.000000
297.185900 868.000000
298.153200 836.000000
299.200100 616.000000
303.173500 6260.000000
304.177500 1668.000000
305.178100 400.000000
306.158200 516.000000
308.174600 944.000000
309.183300 3384.000000
310.188400 676.000000
311.164300 684.000000
311.201800 580.000000
315.159700 684.000000
321.183800 5216.000000
322.189400 1384.000000
339.194600 2980.000000
340.197600 940.000000
357.205400 2744.000000
358.204800 636.000000

>ms2
115.053600 2392.000000
116.060500 424.000000
117.069700 2140.000000
119.084700 2724.000000
121.064300 11376.000000
121.100700 572.000000
122.067800 1244.000000
123.043700 368.000000
123.079300 708.000000
125.059500 512.000000
127.052700 424.000000
128.062500 1324.000000
129.069700 2464.000000
130.076600 1136.000000
131.048600 692.000000
131.085300 4032.000000
132.054900 360.000000
132.090900 396.000000
133.063600 1496.000000
133.100800 4360.000000
135.079800 24672.000000
136.084000 2432.000000
137.059100 1516.000000
137.095000 692.000000
141.068900 2496.000000
142.076300 2236.000000
143.085100 3144.000000
144.056500 1012.000000
144.091800 1016.000000
145.064300 5776.000000
145.100400 4680.000000
146.072300 4424.000000
146.104800 532.000000
147.079600 5848.000000
147.116300 1588.000000
148.083800 852.000000
149.095700 2276.000000
151.075300 492.000000
152.060400 520.000000
153.070300 744.000000
154.076100 496.000000
155.085100 1780.000000
156.091400 668.000000
157.063600 1488.000000
157.100500 2716.000000
158.072000 4492.000000
159.079600 12912.000000
159.115500 1728.000000
160.085900 3340.000000
160.121400 348.000000
161.095500 39156.000000
162.098700 4924.000000
165.069500 1040.000000
165.088600 936.000000
166.075500 892.000000
167.085000 1264.000000
168.091800 696.000000
169.064600 596.000000
169.099800 1416.000000
170.072000 820.000000
170.106700 476.000000
171.079500 4832.000000
171.115400 1504.000000
172.087200 5240.000000
172.125000 348.000000
173.094700 9460.000000
173.131900 932.000000
174.101300 1332.000000
175.111000 3084.000000
175.146500 376.000000
177.091000 1652.000000
178.076100 868.000000
179.083800 1216.000000
180.091700 856.000000
181.064100 1068.000000
181.100300 1360.000000
182.072000 560.000000
182.108700 372.000000
183.079600 1760.000000
183.115900 1028.000000
184.087800 1100.000000
185.095400 30284.000000
186.099200 4232.000000
187.111300 16964.000000
188.114900 2352.000000
189.090500 3480.000000
189.126000 696.000000
191.084300 488.000000
191.140800 436.000000
192.094400 760.000000
193.100400 3760.000000
194.072000 520.000000
194.109100 1000.000000
195.079900 3720.000000
195.115500 1520.000000
196.087100 5388.000000
196.123100 328.000000
197.094800 4556.000000
197.132100 692.000000
198.102400 2380.000000
199.111200 5448.000000
200.114900 820.000000
201.091600 460.000000
201.127000 1228.000000
202.076300 460.000000
203.082600 516.000000
203.105100 352.000000
203.141100 436.000000
204.092500 1140.000000
205.100600 844.000000
206.106900 1256.000000
207.081100 328.000000
207.116100 1144.000000
208.087000 2204.000000
208.124800 364.000000
209.095400 8524.000000
209.133000 1072.000000
210.102700 4512.000000
211.110900 21752.000000
212.116000 4644.000000
213.090500 420.000000
213.126500 6044.000000
214.129900 1212.000000
217.099700 776.000000
218.109100 864.000000
219.080300 464.000000
219.114700 1024.000000
220.089100 368.000000
220.123400 1716.000000
221.095800 1496.000000
221.131300 1116.000000
222.102900 5580.000000
222.134900 348.000000
223.110500 7968.000000
224.116900 5148.000000
225.125600 5936.000000
225.164100 628.000000
226.131300 1708.000000
227.106600 600.000000
227.141700 2368.000000
228.146700 484.000000
229.124300 468.000000
231.079300 564.000000
231.117000 596.000000
231.137800 876.000000
232.088500 640.000000
233.095100 1320.000000
233.131500 760.000000
234.104600 1320.000000
234.135800 428.000000
235.111700 3596.000000
235.147200 1244.000000
236.118800 4516.000000
237.126800 9108.000000
238.133800 7120.000000
239.105500 484.000000
239.141800 4952.000000
240.147800 1600.000000
241.121900 316.000000
241.156900 584.000000
243.115800 368.000000
244.119500 316.000000
245.095800 740.000000
245.129400 404.000000
246.104500 1904.000000
247.109900 1348.000000
248.119500 1936.000000
249.127000 3080.000000
250.133900 2076.000000
251.104200 624.000000
251.142800 7796.000000
252.119700 380.000000
252.147000 1972.000000
253.158100 9148.000000
254.161800 1804.000000
255.136200 356.000000
255.173400 856.000000
259.110800 1132.000000
259.149200 428.000000
260.118200 932.000000
261.127100 1920.000000
261.163200 364.000000
262.133200 1684.000000
263.104900 336.000000
263.142000 2576.000000
263.179500 2204.000000
264.115100 480.000000
264.149900 1604.000000
264.182800 600.000000
265.121400 636.000000
265.158100 10184.000000
266.129200 488.000000
266.160800 2516.000000
267.136000 1368.000000
267.164000 492.000000
268.144500 468.000000
269.152200 580.000000
273.126200 1996.000000
274.136600 932.000000
275.143700 1084.000000
276.149300 536.000000
277.159300 1204.000000
278.163500 1208.000000
279.137200 1568.000000
279.173400 3576.000000
280.181000 6288.000000
281.185700 2044.000000
282.189100 320.000000
287.146500 328.000000
288.151000 1116.000000
289.157800 376.000000
290.163800 348.000000
291.172500 1332.000000
292.178600 372.000000
293.152800 816.000000
293.190400 968.000000
294.158400 300.000000
294.193000 348.000000
297.146100 460.000000
303.173900 1184.000000
306.163300 344.000000
308.176000 744.000000
309.187200 880.000000
311.164000 328.000000
321.185100 504.000000

>ms2
115.053600 5376.000000
116.059200 932.000000
117.069900 3344.000000
119.085200 2948.000000
121.063900 12408.000000
122.067500 1284.000000
123.078100 332.000000
127.054300 752.000000
128.061500 4864.000000
129.069200 3756.000000
130.075200 1984.000000
131.048800 1388.000000
131.085300 4848.000000
132.055700 604.000000
133.064100 1660.000000
133.100700 4640.000000
135.079600 19424.000000
136.083300 1948.000000
137.059400 1140.000000
137.095400 328.000000
141.069000 4224.000000
142.076700 4756.000000
143.085000 4436.000000
144.056200 2200.000000
144.091800 1236.000000
145.064300 8132.000000
145.100600 3204.000000
146.071400 6092.000000
147.079000 4536.000000
147.116500 1332.000000
149.096000 1008.000000
150.101000 344.000000
152.061800 1232.000000
153.068100 1736.000000
154.075500 1120.000000
155.085000 3464.000000
156.091600 1592.000000
157.063700 2228.000000
157.099900 3468.000000
158.071500 7912.000000
158.106500 604.000000
159.079100 11244.000000
159.115800 1764.000000
160.084700 2940.000000
161.095100 20584.000000
162.098400 2604.000000
165.069400 2788.000000
166.076500 1928.000000
167.084300 1960.000000
168.092000 1352.000000
169.064600 784.000000
169.099300 1920.000000
170.071200 2016.000000
170.107200 432.000000
171.079500 6516.000000
171.116100 804.000000
172.087100 6936.000000
173.094700 6296.000000
173.132900 452.000000
174.099900 876.000000
175.111200 1324.000000
177.068400 320.000000
177.089000 464.000000
178.076300 3216.000000
179.084500 2628.000000
180.090300 1248.000000
181.063500 3100.000000
181.100400 1856.000000
182.070400 1756.000000
182.107900 888.000000
183.079000 2504.000000
183.115600 1620.000000
184.086000 2516.000000
185.095000 19528.000000
186.099600 2612.000000
187.110300 6400.000000
188.115000 800.000000
189.068100 396.000000
189.089800 1096.000000
190.074900 784.000000
191.084000 1396.000000
192.092100 1688.000000
193.100200 4768.000000
194.072700 1232.000000
194.107200 1552.000000
195.079700 6980.000000
195.115200 1200.000000
196.087000 7404.000000
197.094100 5224.000000
197.131200 528.000000
198.101600 1684.000000
199.110600 2240.000000
200.117100 548.000000
202.076400 1196.000000
203.083500 1640.000000
204.091000 1288.000000
205.099800 2596.000000
206.106300 1660.000000
207.078800 1384.000000
207.115200 1836.000000
208.087300 4244.000000
208.121900 476.000000
209.095400 11132.000000
210.102100 6572.000000
211.110400 11488.000000
212.116000 2932.000000
213.125600 1816.000000
215.084300 616.000000
216.091100 736.000000
217.099800 868.000000
218.108800 1308.000000
219.078500 740.000000
219.117100 872.000000
220.087700 1028.000000
220.123500 1420.000000
221.094800 3820.000000
221.130900 948.000000
222.102800 6500.000000
223.110700 9980.000000
224.117700 4040.000000
225.125600 3604.000000
226.131000 884.000000
227.142900 400.000000
228.093400 308.000000
229.098400 428.000000
230.106400 708.000000
231.078800 480.000000
231.115900 508.000000
232.087100 728.000000
233.095800 2324.000000
233.135100 592.000000
234.102100 1796.000000
235.110200 3816.000000
235.145400 536.000000
236.118500 4368.000000
237.090900 392.000000
237.126200 5468.000000
238.096000 308.000000
238.132800 2804.000000
239.139800 1468.000000
240.144900 580.000000
243.117200 404.000000
245.095300 1132.000000
245.130900 328.000000
246.102000 1344.000000
247.109700 1780.000000
248.117700 1832.000000
249.089000 464.000000
249.125800 3180.000000
250.132600 1932.000000
251.106000 448.000000
251.141400 3196.000000
252.146100 628.000000
253.157900 1616.000000
255.115600 316.000000
256.123600 352.000000
258.102300 572.000000
259.110500 1512.000000
260.118600 944.000000
261.126200 1348.000000
262.132900 564.000000
263.105800 488.000000
263.140600 1060.000000
263.179500 1576.000000
264.114300 440.000000
264.148300 960.000000
265.120100 416.000000
265.157600 8108.000000
266.131300 400.000000
266.161100 2060.000000
267.135100 312.000000
273.125200 1308.000000
274.130400 344.000000
275.138600 448.000000
277.120700 344.000000
277.158400 560.000000
278.168500 308.000000
279.138300 324.000000
279.173300 1616.000000
280.178800 736.000000
281.185600 336.000000
287.142600 568.000000

