>compound AU77017996
>parentmass 286.1438
>ionization [M+H]+
>formula C17H19NO3
>rt 395.652000
>profile qtof
#smiles_iso CN1CC[C@]23[C@@H]4[C@H]1CC5=C2C(=C(C=C5)O)O[C@H]3[C@H](C=C4)O
#smiles_can CN1CCC23C4C1CC5=C2C(=C(C=C5)O)OC3C(C=C4)O
#inchikey BQJCRHHNABKAKU-KBQPJGBKSA-N
#pubchem_id 5288826
#mb_accession AU158007,AU158008,AU158009,AU158010,AU158011

>ms2
286.143900 910620.000000
287.147200 134288.000000
288.149500 13860.000000

>ms2
201.090000 11280.000000
211.074400 6320.000000
229.084500 15016.000000
268.132100 6632.000000
286.143500 899592.000000
287.146800 141512.000000
288.148600 14472.000000

>ms2
123.043200 3156.000000
145.063900 5836.000000
147.043000 9248.000000
153.069400 7396.000000
155.084400 11516.000000
156.087700 2088.000000
157.063700 8444.000000
161.058900 2332.000000
165.069400 12488.000000
166.074600 2964.000000
169.063100 2092.000000
171.043600 2172.000000
171.079200 2344.000000
173.059000 13488.000000
173.094900 4828.000000
174.062600 2564.000000
178.085200 4100.000000
179.085900 2736.000000
181.064200 13932.000000
181.100100 2768.000000
182.067400 2656.000000
183.079200 21676.000000
184.050800 1932.000000
184.083100 2608.000000
185.058700 27284.000000
186.063500 4612.000000
187.074400 4388.000000
191.084500 8960.000000
193.064000 8972.000000
193.099800 2152.000000
194.070200 2932.000000
198.066000 2124.000000
199.074400 8384.000000
200.078600 1952.000000
201.090200 57412.000000
202.093600 8344.000000
207.079200 2288.000000
209.059100 18760.000000
209.094800 5528.000000
210.063400 3004.000000
211.074400 27368.000000
212.078700 4920.000000
219.079000 6544.000000
221.095100 3944.000000
225.089500 2112.000000
227.069000 13604.000000
227.105300 2332.000000
228.072500 2696.000000
229.085100 35344.000000
230.088500 6372.000000
237.091000 5868.000000
239.105900 4032.000000
268.132000 12892.000000
269.136200 3024.000000
286.143300 382016.000000
287.146500 65188.000000
288.148500 5916.000000

>ms2
115.054000 2132.000000
116.059900 324.000000
117.068700 1704.000000
120.080200 536.000000
121.064600 1168.000000
123.043100 3404.000000
127.053400 2096.000000
128.061000 5056.000000
129.068800 3036.000000
131.047900 1888.000000
131.084300 576.000000
132.054200 604.000000
132.079400 852.000000
133.063600 868.000000
137.058100 348.000000
139.053200 840.000000
141.069100 4320.000000
143.047200 808.000000
143.083800 1236.000000
144.055900 2724.000000
144.080800 708.000000
145.063900 11052.000000
145.099700 1276.000000
146.067100 1252.000000
146.095500 680.000000
147.042900 11820.000000
148.046600 1452.000000
149.058000 860.000000
151.053800 560.000000
152.060900 7156.000000
153.068900 24348.000000
154.074000 4392.000000
155.058900 2384.000000
155.084300 19892.000000
156.062500 688.000000
156.088100 2576.000000
157.063900 22624.000000
158.068900 3808.000000
158.094800 452.000000
159.043900 1028.000000
159.079400 1808.000000
160.051200 3188.000000
160.074900 1036.000000
161.057500 2704.000000
162.054100 596.000000
162.089500 1076.000000
163.061800 424.000000
164.060500 512.000000
164.104900 404.000000
165.068800 30564.000000
166.074300 7456.000000
167.048000 520.000000
167.084000 2484.000000
168.055700 3420.000000
169.063600 4740.000000
170.069400 1352.000000
171.043100 4768.000000
171.078900 4668.000000
172.050000 2340.000000
172.082100 504.000000
173.058600 10488.000000
173.094400 4060.000000
174.062700 1644.000000
175.071300 540.000000
176.068100 676.000000
177.070600 632.000000
178.082700 2580.000000
179.060100 500.000000
179.084500 3224.000000
180.057800 596.000000
180.089700 552.000000
181.063500 34368.000000
181.099600 3268.000000
182.068300 4980.000000
182.104500 544.000000
183.079000 20424.000000
184.050800 5520.000000
184.083400 3224.000000
185.058700 28012.000000
186.064400 5636.000000
187.039100 556.000000
187.073800 3172.000000
188.075100 592.000000
189.068400 1372.000000
190.075700 3500.000000
191.084000 9580.000000
192.087700 2036.000000
193.063400 6320.000000
193.100300 1712.000000
194.071200 4440.000000
194.104200 488.000000
195.079700 1440.000000
196.050400 596.000000
196.074200 308.000000
197.058800 2540.000000
197.094400 952.000000
198.065800 3832.000000
198.090000 408.000000
199.074500 9876.000000
200.047300 304.000000
200.079100 1868.000000
201.090200 23740.000000
202.076000 1020.000000
202.093200 4668.000000
203.084500 996.000000
205.065700 396.000000
206.072400 620.000000
207.078700 1916.000000
207.104300 316.000000
208.053400 392.000000
208.086700 576.000000
209.058600 15592.000000
209.094800 3940.000000
210.062500 2568.000000
210.097800 432.000000
211.074400 16560.000000
212.078100 3260.000000
213.052400 1108.000000
214.062700 1256.000000
214.084900 704.000000
215.067900 376.000000
215.089500 384.000000
216.101500 568.000000
218.070500 952.000000
219.079000 3940.000000
220.083900 1144.000000
221.058600 684.000000
221.095100 1880.000000
222.066000 992.000000
222.126000 456.000000
223.070800 620.000000
224.080500 636.000000
225.088400 1040.000000
226.061000 496.000000
226.088400 568.000000
227.069300 10472.000000
227.104600 940.000000
228.073000 1932.000000
228.101100 372.000000
229.084700 9220.000000
230.088300 1384.000000
232.094900 312.000000
235.074300 512.000000
235.095400 324.000000
237.090900 2772.000000
239.105500 1020.000000
240.075900 312.000000
240.101200 540.000000
240.108900 504.000000
240.139400 584.000000
252.102200 684.000000
253.106900 876.000000
254.113200 304.000000
258.111700 352.000000
266.117100 300.000000
268.131700 2600.000000
269.135800 984.000000
286.142800 30928.000000
287.145700 6060.000000

>ms2
115.053500 6572.000000
117.069500 2516.000000
119.047500 356.000000
121.062800 492.000000
123.043100 3084.000000
126.045200 1292.000000
127.053800 5044.000000
128.061400 17140.000000
129.069100 9584.000000
131.048700 5328.000000
131.084900 828.000000
132.056400 1108.000000
132.080000 1000.000000
133.063600 736.000000
134.058800 364.000000
134.095900 392.000000
135.044500 408.000000
137.058600 360.000000
139.053200 2944.000000
140.061000 1552.000000
141.068500 7372.000000
143.049200 1124.000000
143.083900 1712.000000
144.056100 4824.000000
144.078200 472.000000
145.063500 12920.000000
145.100300 868.000000
146.097300 1048.000000
147.043300 11652.000000
148.072600 416.000000
151.053100 1984.000000
152.061100 28844.000000
153.068800 51388.000000
154.074400 8784.000000
155.058900 6484.000000
155.084600 19272.000000
156.059100 1700.000000
157.063900 37776.000000
158.070000 6016.000000
159.041900 852.000000
159.078400 1668.000000
160.051100 3092.000000
160.074700 496.000000
161.058000 2176.000000
162.056000 424.000000
162.091900 552.000000
163.053500 936.000000
164.060900 1268.000000
165.069100 49640.000000
166.074600 10536.000000
167.046900 532.000000
167.082000 2432.000000
168.056000 7124.000000
168.081100 508.000000
169.063100 7012.000000
170.069900 2284.000000
170.094600 380.000000
171.042900 7372.000000
171.079800 5124.000000
172.049000 2688.000000
173.058300 6648.000000
173.094700 1524.000000
175.072300 564.000000
176.064000 792.000000
177.069600 848.000000
178.076800 5120.000000
179.059100 1204.000000
179.084000 4644.000000
180.057500 1568.000000
181.064000 36900.000000
182.068500 7360.000000
183.042100 588.000000
183.078900 9344.000000
184.051300 12824.000000
185.058400 16344.000000
186.064400 3560.000000
186.091900 300.000000
187.038000 708.000000
187.073500 1488.000000
188.074300 336.000000
189.068500 5300.000000
190.076700 6024.000000
191.084300 8188.000000
192.055500 348.000000
193.064100 3480.000000
193.101500 960.000000
194.071300 4568.000000
195.076900 1844.000000
196.051600 608.000000
196.078800 388.000000
197.059000 3676.000000
197.094300 328.000000
198.066300 5888.000000
198.093300 380.000000
199.038200 424.000000
199.074900 5884.000000
200.046100 492.000000
201.071500 1136.000000
201.089400 4400.000000
202.080900 1672.000000
203.082300 360.000000
205.064800 984.000000
206.069600 388.000000
206.094600 324.000000
207.078700 1460.000000
208.050100 508.000000
208.085000 584.000000
209.058700 8788.000000
209.095000 1156.000000
210.063200 1772.000000
211.074600 5636.000000
212.079700 1064.000000
213.053500 1192.000000
213.089300 400.000000
214.062700 336.000000
214.082800 468.000000
215.093700 304.000000
218.070900 1660.000000
219.078600 2096.000000
220.083200 348.000000
221.059700 1564.000000
221.093900 668.000000
222.065500 1260.000000
223.072200 1136.000000
224.081100 320.000000
226.062800 352.000000
226.082900 312.000000
227.069700 3380.000000
228.072900 740.000000
228.104400 308.000000
229.085400 1376.000000
234.092300 568.000000
235.073200 300.000000
236.106800 340.000000
237.092500 516.000000
238.090600 384.000000
239.108300 348.000000
240.103500 336.000000
252.099900 356.000000
253.107200 308.000000
268.130400 416.000000
286.143500 1912.000000

