>compound AU78010642
>parentmass 413.1983
>ionization [M+H]+
>formula C22H25FN4O3
>rt 411.140000
>profile qtof
#smiles_iso C1CC(C2=NC=C(C(=O)N2C1)CCN3CCC(CC3)C4=NOC5=C4C=CC(=C5)F)O
#smiles_can C1CC(C2=NC=C(C(=O)N2C1)CCN3CCC(CC3)C4=NOC5=C4C=CC(=C5)F)O
#inchikey CSQXUYGPAMNXJT-UHFFFAOYSA-N
#pubchem_id 57568992
#mb_accession AU156807,AU156808,AU156809

>ms2peaks
413.200600 460.000000

>ms2peaks
151.095700 568.000000
301.141100 820.000000
355.151600 1228.000000
371.163500 620.000000
413.191600 1272.000000

>ms2peaks
171.002300 336.000000
183.134800 308.000000
189.014700 648.000000
301.141700 1040.000000
302.146900 328.000000

