>compound AU81505404
>parentmass 136.0505
>ionization [M+H]+
>formula C6H5N3O
>rt 168.060000
>profile qtof
#smiles_iso C1=CC=C2C(=C1)N=NN2O
#smiles_can C1=CC=C2C(=C1)N=NN2O
#inchikey ASOKPJOREAFHNY-UHFFFAOYSA-N
#pubchem_id 75771
#mb_accession AU223207,AU223208,AU223209,AU223210

>ms2peaks
119.048100 11832.000000
136.051100 718752.000000
137.054300 43240.000000

>ms2peaks
119.048600 29580.000000
120.052100 2384.000000
136.051500 178768.000000
137.054600 12776.000000

>ms2peaks
119.048500 7784.000000
136.051500 8284.000000

>ms2peaks
119.048800 1000.000000

