>compound AU81150557
>parentmass 837.5318
>ionization [M+H]+
>formula C41H76N2O15
>rt 371.136000
>profile qtof
#smiles_iso CC[C@@H]1[C@@]([C@@H]([C@H](/C(=N/OCOCCOC)/[C@@H](C[C@@]([C@@H]([C@H]([C@@H]([C@H](C(=O)O1)C)O[C@H]2C[C@@]([C@H]([C@@H](O2)C)O)(C)OC)C)O[C@H]3[C@@H]([C@H](C[C@H](O3)C)N(C)C)O)(C)O)C)C)O)(C)O
#smiles_can CCC1C(C(C(C(=NOCOCCOC)C(CC(C(C(C(C(C(=O)O1)C)OC2CC(C(C(O2)C)O)(C)OC)C)OC3C(C(CC(O3)C)N(C)C)O)(C)O)C)C)O)(C)O
#inchikey RXZBMPWDPOLZGW-XMRMVWPWSA-N
#pubchem_id 6915744
#mb_accession AU218507,AU218508,AU218509,AU218510,AU218511

>ms2peaks
679.442900 77956.000000
680.446300 18004.000000
837.541000 2489888.000000
838.543300 1379736.000000
839.545300 257220.000000

>ms2peaks
158.118700 151452.000000
316.213500 23328.000000
522.335000 18988.000000
540.357500 11500.000000
558.368400 57484.000000
559.371000 15980.000000
679.444500 1480008.000000
680.447000 432720.000000
681.449200 76652.000000
716.465400 18320.000000
837.541500 2271548.000000
838.544100 1101744.000000
839.545600 201260.000000

>ms2peaks
116.071500 11956.000000
116.107600 51580.000000
127.075600 16968.000000
158.118400 1589420.000000
159.121700 110524.000000
316.213700 47084.000000
398.256400 17632.000000
522.334200 118168.000000
523.336500 33320.000000
540.357700 36920.000000
541.359900 12376.000000
555.368400 19284.000000
558.368500 122160.000000
559.371600 38928.000000
573.379800 25528.000000
603.390300 41980.000000
604.391900 12888.000000
661.431800 45024.000000
662.434700 16308.000000
679.444900 2371096.000000
680.447300 825476.000000
681.449500 140792.000000
682.452300 14836.000000
837.540400 188384.000000
838.543700 109628.000000
839.546200 21820.000000

>ms2peaks
116.071600 39932.000000
116.108100 106672.000000
127.076300 34580.000000
158.119100 2487496.000000
159.122000 279760.000000
160.123900 13936.000000
176.129000 13108.000000
246.171500 14000.000000
380.246800 19512.000000
398.257300 45088.000000
416.267700 18456.000000
446.279800 18912.000000
522.336300 70884.000000
523.339200 22508.000000
540.358300 22036.000000
555.369800 26900.000000
558.369400 43812.000000
559.372000 13736.000000
573.379800 19936.000000
603.391400 33680.000000
604.393700 13240.000000
661.433000 31796.000000
662.437200 13252.000000
679.445300 425988.000000
680.448100 157700.000000
681.451200 27452.000000

>ms2peaks
116.071400 59912.000000
116.107900 89436.000000
127.076000 29044.000000
142.123500 13996.000000
158.119000 2449364.000000
159.121900 238920.000000
160.123700 12392.000000
176.129100 13020.000000
380.247100 17180.000000
398.257300 27372.000000
679.443200 31136.000000
680.448800 14356.000000

