>compound AU82512865
>parentmass 121.07599999999998
>ionization [M+H]+
>formula C7H8N2
>rt 401.500000
>profile qtof
#smiles_iso C1=CC=C(C=C1)C(=N)N
#smiles_can C1=CC=C(C=C1)C(=N)N
#inchikey PXXJHWLDUBFPOL-UHFFFAOYSA-N
#pubchem_id 2332
#mb_accession AU216909,AU216910,AU216911

>ms2
121.076000 3084.000000

>ms2
121.076800 1463700.000000
122.079800 88412.000000

>ms2
104.050000 1488.000000
121.076400 161564.000000
122.079300 9760.000000

