>compound AU89805083
>parentmass 455.0373000000001
>ionization [M+H]+
>formula C14H14N8O4S3
>rt 339.540000
>profile qtof
#smiles_iso CC1=NN=C(S1)SCC2=C(N3[C@@H]([C@@H](C3=O)NC(=O)CN4C=NN=N4)SC2)C(=O)O
#smiles_can CC1=NN=C(S1)SCC2=C(N3C(C(C3=O)NC(=O)CN4C=NN=N4)SC2)C(=O)O
#inchikey MLYYVTUWGNIJIB-BXKDBHETSA-N
#pubchem_id 33255
#mb_accession AU104507,AU104508,AU104509,AU104510,AU104511

>ms2peaks
132.988400 308.000000
156.010700 2452.000000
158.009500 352.000000
295.062400 1116.000000
323.055900 18084.000000
324.059100 2812.000000
455.037300 9264.000000
456.040300 1884.000000
457.034300 1612.000000

>ms2peaks
120.069200 308.000000
124.021600 1488.000000
124.048800 840.000000
126.004100 304.000000
126.037300 576.000000
128.026400 624.000000
132.988100 3576.000000
139.033200 728.000000
140.045000 576.000000
141.047000 824.000000
144.009200 356.000000
151.032300 840.000000
152.016500 1712.000000
153.017900 352.000000
153.047600 5132.000000
154.007200 312.000000
156.010700 21036.000000
157.014700 1868.000000
157.027700 632.000000
158.024800 628.000000
161.079400 860.000000
162.065800 736.000000
162.086900 344.000000
163.032100 544.000000
166.042100 3064.000000
167.046500 528.000000
168.011000 476.000000
168.052900 712.000000
177.111100 468.000000
178.042000 2700.000000
179.027500 680.000000
180.057700 1020.000000
181.043600 416.000000
190.084700 440.000000
193.054400 312.000000
194.041000 328.000000
195.024200 636.000000
195.069100 1096.000000
196.049900 428.000000
197.036900 444.000000
206.037100 1532.000000
207.022400 428.000000
210.033900 620.000000
221.046800 584.000000
223.064600 2136.000000
224.068100 308.000000
239.059200 428.000000
249.045400 524.000000
251.071100 356.000000
252.043200 3104.000000
253.029100 316.000000
253.044300 440.000000
267.054500 1204.000000
295.060300 16864.000000
296.062000 2016.000000
323.055600 18896.000000
324.058100 2464.000000
325.052200 988.000000

>ms2peaks
119.062100 352.000000
124.020800 1548.000000
124.050900 580.000000
126.001800 388.000000
128.026900 632.000000
132.988500 1728.000000
133.086100 336.000000
139.031500 1492.000000
140.014800 604.000000
141.046700 524.000000
151.031500 844.000000
152.014000 748.000000
153.047600 3228.000000
154.049100 316.000000
156.011100 5088.000000
157.016900 696.000000
158.022200 320.000000
161.082200 388.000000
162.066900 380.000000
162.089900 428.000000
166.043500 2804.000000
167.027900 424.000000
168.011100 424.000000
178.044000 1364.000000
179.026600 640.000000
181.044000 352.000000
189.076300 316.000000
193.053900 372.000000
195.070000 348.000000
197.038500 444.000000
206.038400 768.000000
207.022000 392.000000
208.055200 436.000000
210.033400 472.000000
221.050200 368.000000
223.062100 680.000000
252.043500 1804.000000
295.060300 2000.000000
296.058800 420.000000
323.056000 588.000000

>ms2peaks
119.060100 1476.000000
120.068100 1024.000000
122.005700 628.000000
123.014200 336.000000
124.022000 3944.000000
124.050900 628.000000
126.001900 512.000000
126.015400 592.000000
126.036100 464.000000
127.019600 460.000000
128.026600 1180.000000
130.019900 364.000000
132.055100 340.000000
132.988400 4932.000000
133.063500 512.000000
134.070800 772.000000
134.984100 584.000000
137.015200 488.000000
139.008800 316.000000
139.032300 4964.000000
140.016600 768.000000
140.032000 476.000000
140.042700 376.000000
141.047900 1112.000000
144.010900 332.000000
146.073000 340.000000
147.077300 444.000000
149.016500 384.000000
149.079600 420.000000
151.032200 2776.000000
152.016500 868.000000
152.035800 464.000000
153.047700 4872.000000
154.008400 308.000000
154.048500 364.000000
155.045400 348.000000
156.010800 9096.000000
157.017000 1300.000000
157.031500 632.000000
158.026500 632.000000
161.081900 1020.000000
162.065900 352.000000
162.086300 608.000000
163.032100 556.000000
164.028100 392.000000
166.042900 3944.000000
167.027700 592.000000
167.047100 360.000000
168.012400 468.000000
169.040900 308.000000
178.042900 2768.000000
179.027700 812.000000
179.048600 320.000000
180.058200 788.000000
181.042900 396.000000
182.039600 304.000000
185.039300 320.000000
189.077100 456.000000
192.024600 592.000000
193.007000 400.000000
193.055100 572.000000
194.038900 380.000000
195.022800 484.000000
195.071900 316.000000
196.054100 360.000000
197.037300 540.000000
206.039500 628.000000
208.051400 332.000000
210.032600 504.000000
252.043400 1156.000000

>ms2peaks
118.053300 312.000000
119.061500 1232.000000
120.068300 1136.000000
122.006500 904.000000
123.012000 308.000000
124.021700 2836.000000
126.001000 420.000000
126.037100 324.000000
127.020500 776.000000
128.027000 1532.000000
132.988300 4776.000000
133.063800 380.000000
134.070800 796.000000
134.984300 476.000000
135.056100 304.000000
136.020700 440.000000
137.017700 392.000000
139.008800 356.000000
139.032900 4068.000000
140.017300 496.000000
140.038200 332.000000
141.027400 312.000000
141.048500 600.000000
145.062400 332.000000
151.032400 2040.000000
152.016300 560.000000
153.047500 2040.000000
154.013100 352.000000
156.011500 5124.000000
157.016600 736.000000
158.024800 376.000000
161.082200 672.000000
162.091500 312.000000
163.032900 316.000000
164.026600 520.000000
166.043600 1728.000000
167.027900 420.000000
168.011300 380.000000
178.043200 892.000000
179.026300 412.000000
195.021500 376.000000
197.039000 308.000000
210.036000 388.000000

