>compound AU89392360
>parentmass 328.1696
>ionization [M+H]+
>formula C23H21NO
>rt 82.044000
>profile qtof
#smiles_iso CCCCN1C=C(C2=CC=CC=C21)C(=O)C3=CC=CC4=CC=CC=C43
#smiles_can CCCCN1C=C(C2=CC=CC=C21)C(=O)C3=CC=CC4=CC=CC=C43
#inchikey VCHHHSMPMLNVGS-UHFFFAOYSA-N
#pubchem_id 10471670
#mb_accession AU170407,AU170408,AU170409,AU170410,AU170411

>ms2peaks
155.048500 4904.000000
328.169500 453660.000000
329.172800 99280.000000
330.176800 12660.000000

>ms2peaks
127.053200 3388.000000
145.063800 3700.000000
155.048600 257192.000000
156.051800 21412.000000
200.106300 45152.000000
201.109700 7172.000000
328.169500 534428.000000
329.172900 106696.000000
330.175500 11472.000000

>ms2peaks
127.053600 24176.000000
144.043600 19432.000000
145.064000 36268.000000
146.067200 3944.000000
155.048600 697348.000000
156.051900 54944.000000
157.054600 3856.000000
200.106300 121384.000000
201.109900 16596.000000
328.169200 42740.000000
329.171500 11616.000000

>ms2peaks
116.048900 1820.000000
126.045700 5816.000000
127.053500 70852.000000
128.056300 7972.000000
144.043500 57972.000000
145.046200 5404.000000
145.063900 104472.000000
146.067000 11708.000000
155.048500 301016.000000
156.051700 31592.000000
156.060700 16752.000000
157.055300 1952.000000
158.058000 1916.000000
200.106000 45972.000000
201.109100 7764.000000

>ms2peaks
116.049000 7644.000000
117.069500 2196.000000
126.045900 13884.000000
127.053800 136688.000000
130.064300 1440.000000
131.049300 1492.000000
144.043900 63228.000000
145.064200 160320.000000
155.048200 81056.000000
157.064800 1560.000000
158.058300 1584.000000
200.106400 10656.000000

