>compound AU90255299
>parentmass 160.1332
>ionization [M+H]+
>formula C8H17NO2
>rt 389.040000
>profile qtof
#smiles_iso CC(C)C[C@@H](CC(=O)O)CN
#smiles_can CC(C)CC(CC(=O)O)CN
#inchikey AYXYPKUFHZROOJ-ZETCQYMHSA-N
#pubchem_id 5486971
#mb_accession AU166807,AU166808,AU166809,AU166810,AU166811

>ms2peaks
124.111700 8132.000000
125.095800 7132.000000
125.115300 1116.000000
126.098600 804.000000
142.122200 121276.000000
143.106000 27912.000000
143.125500 9156.000000
144.110100 2348.000000
160.132800 108836.000000
161.135800 9884.000000

>ms2peaks
117.057200 3424.000000
120.081000 1296.000000
124.111700 10092.000000
125.095400 3204.000000
125.115300 948.000000
142.121900 16952.000000
143.105600 1076.000000
143.124800 1484.000000
160.131600 832.000000

>ms2peaks
117.056900 4036.000000
120.079500 572.000000
124.111000 724.000000
142.120500 424.000000

>ms2peaks
117.056700 2124.000000
118.064900 348.000000

>ms2peaks
117.056900 488.000000

