>compound AU90470225
>parentmass 161.9872
>ionization [M+H]+
>formula C6H5Cl2N
>rt 84.864000
>profile qtof
#smiles_iso C1=CC(=C(C=C1N)Cl)Cl
#smiles_can C1=CC(=C(C=C1N)Cl)Cl
#inchikey SDYWXFYBZPNOFX-UHFFFAOYSA-N
#pubchem_id 7257
#mb_accession AU400407,AU400408,AU400409,AU400410,AU400411

>ms2
127.017800 4804.000000
129.015000 836.000000
161.986600 53520.000000
162.989600 4480.000000
163.983600 31596.000000

>ms2
126.010100 344.000000
127.017300 30244.000000
128.020300 2408.000000
129.014300 7604.000000
144.958700 520.000000
160.977500 332.000000
161.986100 14116.000000
162.988900 1156.000000
163.982600 9100.000000

>ms2
127.017300 20240.000000
128.020600 1764.000000
129.014400 4288.000000
144.959600 924.000000
160.978400 536.000000
161.985600 780.000000

>ms2
126.008800 316.000000
127.017100 7960.000000
129.013800 2728.000000
144.959000 396.000000
160.977900 356.000000

>ms2
127.016600 1156.000000

