>compound AU91699291
>parentmass 441.16700000000003
>ionization [M+H]+
>formula C24H20N6O3
>rt 157.440000
>profile qtof
#smiles_iso CCOC1=NC2=CC=CC(=C2N1CC3=CC=C(C=C3)C4=CC=CC=C4C5=NNN=N5)C(=O)O
#smiles_can CCOC1=NC2=CC=CC(=C2N1CC3=CC=C(C=C3)C4=CC=CC=C4C5=NNN=N5)C(=O)O
#inchikey HTQMVQVXFRQIKW-UHFFFAOYSA-N
#pubchem_id 2541
#mb_accession AU213707,AU213708,AU213709,AU213717,AU213718

>ms2
207.078000 2384.000000
207.092600 10896.000000
235.099200 8064.000000
235.124000 8028.000000
263.131000 420484.000000
264.133600 63220.000000
265.137000 4912.000000
338.107100 2640.000000
395.153400 3612.000000
413.139200 2564.000000
413.163800 3056.000000
423.159800 179424.000000
424.162400 47100.000000
425.165200 6260.000000
441.170600 367336.000000
442.173300 86652.000000
443.175800 11452.000000

>ms2
178.077900 2920.000000
180.081400 5028.000000
189.066700 4492.000000
190.067000 3560.000000
191.045700 6156.000000
192.081000 12956.000000
193.087900 6732.000000
194.097000 15300.000000
206.084600 4460.000000
207.077700 18860.000000
207.092300 94684.000000
208.095800 12596.000000
208.112300 7804.000000
210.091900 30560.000000
211.095300 4316.000000
218.097200 3972.000000
220.100200 6528.000000
234.115700 6100.000000
235.099000 90612.000000
235.123800 83092.000000
236.101400 14324.000000
236.127800 15964.000000
251.130300 2984.000000
263.130800 509036.000000
264.133500 77628.000000
265.136700 4920.000000
338.106900 48720.000000
339.110500 13556.000000
349.110000 6960.000000
350.094700 9988.000000
352.109500 23680.000000
353.111600 5012.000000
367.121200 5064.000000
380.142300 23892.000000
381.144000 5992.000000
395.152200 54940.000000
396.155700 13768.000000
413.164300 2716.000000
423.159800 168840.000000
424.162400 45756.000000
425.165300 6440.000000
441.168500 8836.000000

>ms2
140.049200 1744.000000
147.055500 1896.000000
152.063100 2536.000000
153.070000 5672.000000
161.034500 6520.000000
165.069900 10908.000000
166.072300 1876.000000
167.085200 6424.000000
173.034700 4860.000000
178.077800 20784.000000
179.045400 4688.000000
179.083600 5712.000000
180.081300 37992.000000
181.083800 6840.000000
189.066100 11188.000000
190.065700 30752.000000
191.045400 5556.000000
191.072100 9280.000000
192.080800 50120.000000
193.088400 25408.000000
194.096600 61300.000000
195.099800 8764.000000
205.076200 5660.000000
206.084500 22520.000000
206.108800 4548.000000
207.075600 19676.000000
207.092300 270300.000000
208.095400 33604.000000
208.112000 14652.000000
209.113800 2732.000000
210.091900 87468.000000
211.095400 12444.000000
217.089100 1984.000000
218.096500 13644.000000
219.094200 6700.000000
220.099800 15500.000000
221.103900 3448.000000
233.071400 1456.000000
233.107800 5136.000000
234.115100 16360.000000
235.098600 66628.000000
235.123800 107520.000000
236.101400 9888.000000
236.127200 20652.000000
251.130000 2252.000000
261.104600 1616.000000
262.111000 2272.000000
263.130300 86280.000000
264.132600 14832.000000
265.136100 1368.000000
309.103300 6796.000000
310.109600 3608.000000
337.098300 6568.000000
338.106100 36716.000000
339.110700 9056.000000
340.112500 1700.000000
349.109600 16012.000000
350.094600 24312.000000
351.098600 6024.000000
352.110000 77688.000000
353.113000 16884.000000
354.115200 1712.000000
366.113700 2208.000000
367.120100 7732.000000
368.105800 3012.000000
370.121600 1804.000000
377.141800 2148.000000
380.141300 14636.000000
381.144700 4336.000000
395.152800 23248.000000
396.155900 7388.000000
423.157500 6204.000000
424.160700 1796.000000

>ms2
140.049800 3704.000000
147.055200 1340.000000
151.054600 1148.000000
152.062400 8404.000000
153.070200 18776.000000
154.073400 1888.000000
161.034700 14460.000000
162.037600 1312.000000
163.054500 3916.000000
164.061200 1848.000000
165.070500 37408.000000
166.074400 7096.000000
167.085700 8904.000000
168.088800 1292.000000
173.034900 6368.000000
177.057800 4620.000000
177.069300 2348.000000
178.078300 47188.000000
179.045600 7696.000000
179.082500 10012.000000
180.081500 87756.000000
181.084500 11972.000000
189.066300 11848.000000
190.066000 70808.000000
191.046300 2268.000000
191.072200 27476.000000
192.081000 61036.000000
193.088700 34968.000000
194.097000 55500.000000
195.099200 7708.000000
196.076400 2860.000000
203.074100 1452.000000
205.076800 17016.000000
206.084600 54992.000000
207.076800 17292.000000
207.092500 223448.000000
208.095600 28516.000000
208.112100 12108.000000
209.100200 2152.000000
209.115200 1740.000000
210.092300 60608.000000
211.096000 9212.000000
217.089600 2916.000000
218.097100 10748.000000
219.093000 11016.000000
220.099700 11316.000000
221.103900 2516.000000
233.072500 1368.000000
233.107900 4528.000000
234.115800 15900.000000
235.098300 11140.000000
235.123900 39780.000000
236.102300 2328.000000
236.127400 6680.000000
251.130100 1360.000000
263.130800 7012.000000
264.134000 1356.000000
308.095200 1176.000000
308.120100 5112.000000
309.103900 11488.000000
310.110500 5784.000000
311.113700 1232.000000
322.099300 2920.000000
323.106500 1272.000000
324.113500 3608.000000
325.117500 1132.000000
334.099200 1612.000000
337.099900 5900.000000
338.105800 9912.000000
339.110000 2408.000000
348.101800 1692.000000
349.086200 3212.000000
349.110000 10920.000000
350.093500 14372.000000
351.099500 5408.000000
352.110100 52888.000000
353.113200 11980.000000
354.117700 1612.000000
366.113500 1336.000000
367.120300 3220.000000
368.107300 1532.000000
380.143300 1452.000000
395.151800 2312.000000

>ms2
115.055200 1252.000000
128.062700 652.000000
129.045700 2104.000000
129.071100 1000.000000
133.040500 684.000000
139.055700 760.000000
140.050500 8912.000000
141.054300 992.000000
141.070800 1832.000000
145.040600 1348.000000
147.057200 816.000000
150.047200 1100.000000
151.053700 2892.000000
152.062900 24476.000000
153.070500 38688.000000
154.073300 5424.000000
155.061300 796.000000
161.035300 22296.000000
162.037800 2172.000000
163.055100 10188.000000
164.061400 4368.000000
165.070800 72380.000000
166.074900 11004.000000
167.074400 6392.000000
167.085900 10076.000000
168.069000 2012.000000
168.089600 1360.000000
169.066400 2248.000000
171.056800 1084.000000
173.035200 9016.000000
174.038800 1084.000000
176.062900 2204.000000
177.058600 11000.000000
178.078800 75712.000000
179.045600 9720.000000
179.079100 15572.000000
180.082000 127680.000000
181.085000 19028.000000
182.087400 1352.000000
189.066500 8100.000000
190.066500 105800.000000
191.073300 53832.000000
192.080700 63384.000000
193.089100 36556.000000
194.097300 36132.000000
195.100900 5620.000000
196.077100 4128.000000
197.080600 888.000000
203.074600 1708.000000
205.077300 41288.000000
206.085200 73216.000000
207.093100 125452.000000
208.078400 4524.000000
208.096500 17008.000000
208.110600 5648.000000
209.082200 1464.000000
209.103900 1236.000000
210.092600 26344.000000
211.095300 3276.000000
216.082400 916.000000
217.090400 5764.000000
218.097500 5116.000000
219.093600 13036.000000
220.100200 8556.000000
221.104700 1904.000000
232.101900 1100.000000
233.072700 1080.000000
233.108800 5784.000000
234.078000 644.000000
234.116700 12408.000000
235.102500 712.000000
235.123700 10952.000000
236.128400 2096.000000
254.095300 720.000000
267.104400 840.000000
279.092200 716.000000
281.107700 1800.000000
282.094700 2344.000000
282.114700 1648.000000
283.121300 656.000000
293.099500 1132.000000
294.079600 836.000000
294.105100 1472.000000
295.088600 1172.000000
295.103100 756.000000
296.115300 1224.000000
297.104500 1500.000000
306.106300 1264.000000
307.087600 1120.000000
307.110300 1184.000000
308.096600 3148.000000
308.120600 7252.000000
309.104800 11296.000000
310.111500 5160.000000
311.115800 1104.000000
320.107300 660.000000
321.094100 1556.000000
322.099400 4056.000000
323.105500 2224.000000
324.115700 6740.000000
325.118100 1508.000000
333.094600 780.000000
334.098400 2572.000000
335.084900 1088.000000
335.108200 1684.000000
336.092000 1016.000000
337.101300 4420.000000
348.104000 2820.000000
349.090200 4596.000000
349.110500 6908.000000
350.094200 6912.000000
351.101000 4980.000000
352.110600 16024.000000
353.112900 4344.000000
365.106200 1468.000000
366.110100 668.000000

