>compound AU92428129
>parentmass 151.0324
>ionization [M+H]+
>formula C7H6N2S
>rt 97.524000
>profile qtof
#smiles_iso C1=CC=C2C(=C1)N=C(S2)N
#smiles_can C1=CC=C2C(=C1)N=C(S2)N
#inchikey UHGULLIUJBCTEF-UHFFFAOYSA-N
#pubchem_id 8706
#mb_accession AU405707,AU405708,AU405709,AU405710,AU405711

>ms2
124.022200 27240.000000
151.034300 2515320.000000
153.029100 181680.000000

>ms2
109.011600 23112.000000
118.053100 47372.000000
124.022400 503768.000000
125.025100 33780.000000
126.018000 20832.000000
151.034400 2515524.000000

>ms2
109.011400 35924.000000
118.053000 101280.000000
119.057500 7972.000000
124.022200 454808.000000
125.025000 30940.000000
126.017600 23000.000000
134.006300 20588.000000
150.025000 19320.000000
151.033100 1262604.000000
152.035800 90928.000000
153.028700 51848.000000

>ms2
108.004100 1440.000000
109.011300 13876.000000
118.053100 49244.000000
119.057800 5400.000000
122.006500 2004.000000
123.014400 5392.000000
124.022300 102800.000000
125.025300 7960.000000
126.017400 5360.000000
132.999000 4940.000000
134.006200 12984.000000
135.013200 2924.000000
150.025200 11304.000000
151.033200 107480.000000
152.035700 9432.000000
153.029100 6232.000000

>ms2
108.003100 788.000000
109.010900 2380.000000
118.053100 10344.000000
119.056600 1188.000000
122.006700 2612.000000
123.013900 2348.000000
124.021800 13544.000000
125.023700 1112.000000
126.017900 1000.000000
132.998500 3320.000000
134.006800 3736.000000
135.011900 976.000000
150.025500 2764.000000
151.032600 6868.000000

