>compound AU94459926
>parentmass 120.05559999999998
>ionization [M+H]+
>formula C6H5N3
>rt 94.220000
>profile qtof
#smiles_iso C1=CC2=NNN=C2C=C1
#smiles_can C1=CC2=NNN=C2C=C1
#inchikey QRUDEWIWKLJBPS-UHFFFAOYSA-N
#pubchem_id 7220
#mb_accession AU405007,AU405008,AU405009

>ms2
120.056400 617460.000000
121.059200 33448.000000

>ms2
120.056400 133612.000000
121.059000 8968.000000

>ms2
120.056400 12096.000000
121.059000 1188.000000

