>compound AU95593352
>parentmass 548.2425
>ionization [M+H]+
>formula C27H37N3O7S
>rt 88.836000
>profile qtof
#smiles_iso CC(C)CN(C[C@H]([C@H](CC1=CC=CC=C1)NC(=O)O[C@H]2CO[C@@H]3[C@H]2CCO3)O)S(=O)(=O)C4=CC=C(C=C4)N
#smiles_can CC(C)CN(CC(C(CC1=CC=CC=C1)NC(=O)OC2COC3C2CCO3)O)S(=O)(=O)C4=CC=C(C=C4)N
#inchikey CJBJHOAVZSMMDJ-HEXNFIEUSA-N
#pubchem_id 213039
#mb_accession AU217907,AU217908,AU217909,AU217910,AU217911

>ms2
250.181700 436.000000
320.258000 1028.000000
321.254500 1104.000000
392.202900 83536.000000
393.205500 21184.000000
394.202800 5540.000000
395.201600 660.000000
418.184900 2312.000000
419.189000 684.000000
436.192800 68660.000000
437.195900 17492.000000
438.193400 4440.000000
439.195700 640.000000
504.255300 4912.000000
505.260800 1680.000000
506.256400 468.000000
548.246400 60484.000000
549.249300 17492.000000

>ms2
113.060100 976.000000
156.011700 3212.000000
241.101500 6952.000000
245.165600 3796.000000
374.190400 1408.000000
392.203000 182892.000000
393.205100 40216.000000
394.202900 9428.000000
395.201800 1280.000000
418.182000 3748.000000
419.183800 1132.000000
436.191700 6368.000000
437.192700 2088.000000
504.255300 1944.000000
548.246300 2576.000000

>ms2
113.060500 628.000000
120.081100 1456.000000
129.069400 1020.000000
133.085700 976.000000
134.095700 480.000000
146.097600 1988.000000
156.011500 33040.000000
157.014400 3252.000000
158.095800 328.000000
164.107100 3452.000000
177.111500 568.000000
189.103100 480.000000
200.144100 2748.000000
201.150900 1136.000000
202.159600 4264.000000
208.096800 720.000000
216.139400 740.000000
217.171500 1096.000000
218.153800 1616.000000
218.177800 408.000000
219.158800 468.000000
219.185600 960.000000
220.169900 1268.000000
220.188000 484.000000
221.173900 312.000000
229.102300 560.000000
237.196900 1492.000000
238.201300 516.000000
241.101400 29312.000000
242.104100 4028.000000
245.165200 4780.000000
250.178900 628.000000
255.118200 352.000000
261.160700 996.000000
263.176900 856.000000
271.111400 652.000000
291.232100 324.000000
320.150200 928.000000
320.256300 1008.000000
321.255000 804.000000
336.139100 408.000000
357.166200 1660.000000
358.170600 520.000000
374.190900 908.000000
375.175400 1344.000000
376.187400 308.000000
392.203300 58692.000000
393.205300 13936.000000
394.202600 4140.000000
395.205800 652.000000
418.180400 1004.000000
419.188400 372.000000

>ms2
120.081400 2172.000000
127.124100 820.000000
129.070800 2720.000000
131.085800 596.000000
133.087200 320.000000
134.096700 992.000000
140.017200 476.000000
144.081400 616.000000
146.097000 2480.000000
156.012100 56228.000000
157.014900 4064.000000
158.098400 904.000000
164.069600 300.000000
164.107700 1956.000000
189.103300 712.000000
200.144900 3320.000000
201.150800 1328.000000
202.160100 5188.000000
208.099400 444.000000
216.137700 484.000000
217.171800 580.000000
218.155200 832.000000
218.176800 632.000000
219.184400 724.000000
220.170600 1676.000000
229.102300 332.000000
237.196900 2120.000000
238.201500 380.000000
241.102400 10692.000000
243.098100 608.000000
245.166700 1748.000000
246.169200 556.000000
247.206900 416.000000
250.178800 696.000000
261.162100 588.000000
263.176500 1384.000000
271.112100 504.000000
281.191800 344.000000
319.247500 360.000000
320.257400 604.000000
321.253500 964.000000
336.141900 304.000000
357.167400 712.000000
392.202400 4740.000000
393.207000 1544.000000
393.237900 336.000000
394.199400 576.000000

>ms2
120.081700 1544.000000
127.121500 444.000000
129.070800 1232.000000
146.097100 1284.000000
149.018000 324.000000
156.011800 18052.000000
157.014700 1676.000000
158.008100 896.000000
158.097800 376.000000
164.107300 608.000000
200.142900 628.000000
201.149700 376.000000
202.159200 2232.000000
203.165700 332.000000
208.098700 396.000000
220.168900 736.000000
237.198700 620.000000
241.104700 556.000000
263.178300 300.000000
320.263000 360.000000

