>compound AU95137267
>parentmass 251.1543
>ionization [M+H]+
>formula C17H18N2
>rt 377.796000
>profile qtof
#smiles_iso C1CN2C(CN1)C3=CC=CC=C3CC4=CC=CC=C42
#smiles_can C1CN2C(CN1)C3=CC=CC=C3CC4=CC=CC=C42
#inchikey ZBILSSSEXRZGKS-UHFFFAOYSA-N
#pubchem_id 115194
#mb_accession AU222907,AU222908,AU222909,AU222910,AU222911

>ms2peaks
208.113300 51488.000000
249.139800 12652.000000
251.156700 2514796.000000
253.162200 65272.000000

>ms2peaks
118.065500 101856.000000
120.081200 99220.000000
130.065400 16532.000000
132.081100 190864.000000
133.084400 16464.000000
134.096700 35164.000000
144.080900 40440.000000
147.092100 105216.000000
158.096600 56872.000000
179.085800 21540.000000
196.112500 22968.000000
206.097000 13272.000000
208.113000 1129324.000000
209.116300 151968.000000
222.128600 23440.000000
234.128800 111480.000000
235.131600 18692.000000
249.139700 71212.000000
250.142800 13156.000000
251.156000 2480168.000000
252.158800 433476.000000
253.161600 24316.000000

>ms2peaks
115.054700 40784.000000
117.057400 31820.000000
117.070000 23596.000000
118.065400 245512.000000
119.069900 20084.000000
120.081100 285032.000000
121.084400 19300.000000
128.062100 9736.000000
129.070000 43016.000000
130.065400 104168.000000
131.071300 17284.000000
132.081000 370628.000000
133.084200 29496.000000
134.096400 21376.000000
143.073000 24124.000000
144.080700 75016.000000
145.087200 16828.000000
146.096200 37496.000000
147.092000 235932.000000
148.095100 17768.000000
158.096600 85128.000000
159.097700 10472.000000
160.099300 18004.000000
178.077700 21320.000000
179.085400 50240.000000
181.101700 16620.000000
193.089100 144164.000000
194.095400 59148.000000
196.112300 41776.000000
204.081200 20920.000000
205.088300 21424.000000
206.096800 40464.000000
207.103700 26796.000000
208.112900 1886004.000000
209.116000 210264.000000
210.119300 13756.000000
218.096900 25288.000000
219.104100 35140.000000
220.111800 29064.000000
222.128100 52216.000000
223.125600 14372.000000
232.112600 10948.000000
234.128400 86188.000000
235.131500 14424.000000
249.139700 82548.000000
250.142300 14108.000000
251.155300 320604.000000
252.158200 50652.000000

>ms2peaks
115.055000 72560.000000
116.061000 11652.000000
117.057900 58708.000000
117.070300 19644.000000
118.065800 157004.000000
119.071000 17360.000000
119.085200 2232.000000
120.081400 120400.000000
121.084800 7980.000000
127.054100 3180.000000
128.050000 2828.000000
128.062500 21856.000000
129.070200 32752.000000
130.065800 135512.000000
131.071600 25508.000000
131.085000 3412.000000
132.068600 11016.000000
132.081300 147296.000000
133.084400 13644.000000
134.097000 3304.000000
141.070800 7112.000000
142.066000 3988.000000
143.073300 35072.000000
144.081100 45352.000000
145.077600 9024.000000
145.086600 7696.000000
146.096700 20092.000000
147.092300 100176.000000
148.095300 9652.000000
152.062200 3284.000000
153.070400 2416.000000
155.060600 4956.000000
156.080800 5332.000000
157.088800 3924.000000
158.096800 28412.000000
159.093400 7640.000000
160.099900 6924.000000
165.070400 20572.000000
166.078100 27780.000000
167.083300 7812.000000
177.070900 3528.000000
178.078300 58688.000000
179.085700 45136.000000
180.084100 11556.000000
181.102000 22788.000000
182.105000 4244.000000
189.069800 2228.000000
190.077300 3024.000000
191.085600 10992.000000
192.081700 12704.000000
193.089700 388612.000000
194.095100 74012.000000
195.100100 8568.000000
196.112700 8544.000000
202.078800 4044.000000
203.085600 3572.000000
204.081800 38576.000000
205.088300 17560.000000
206.097300 54352.000000
207.104500 43836.000000
208.113300 420492.000000
209.116600 51884.000000
210.122700 3624.000000
217.089200 11288.000000
218.097500 51504.000000
219.104000 23564.000000
220.112400 18104.000000
221.111200 8508.000000
222.129100 12436.000000
223.128200 3252.000000
232.113100 8248.000000
234.128600 9500.000000
235.125500 4336.000000
249.139700 16620.000000
250.145100 3044.000000
251.155600 8260.000000

>ms2peaks
115.055000 89624.000000
116.051800 9672.000000
116.061100 17792.000000
117.058000 67648.000000
118.065700 101344.000000
119.071100 10588.000000
120.081200 40340.000000
121.084700 3356.000000
127.054700 5488.000000
128.050100 7708.000000
128.062500 33816.000000
129.070000 17336.000000
130.065900 137236.000000
131.071700 22760.000000
132.068900 10244.000000
132.081200 60540.000000
133.085000 4940.000000
141.070300 7032.000000
142.065900 6404.000000
143.073400 30916.000000
144.081100 31908.000000
145.078100 5416.000000
146.096700 7472.000000
147.092100 30588.000000
148.095300 3172.000000
152.062300 12340.000000
153.069600 5724.000000
155.060600 6680.000000
156.081100 5136.000000
157.089400 3484.000000
158.097000 7336.000000
159.092700 8100.000000
164.061900 2092.000000
165.070600 91096.000000
166.077600 48992.000000
167.081900 9212.000000
176.062600 6364.000000
177.070000 12252.000000
178.078600 117808.000000
179.084700 39656.000000
180.082400 16684.000000
181.088200 4956.000000
181.102000 10000.000000
189.070800 7120.000000
190.077800 4692.000000
191.085700 13428.000000
192.081700 41948.000000
193.089800 417524.000000
194.094400 58364.000000
202.079100 9440.000000
203.084100 3900.000000
204.082000 50624.000000
205.086800 14572.000000
206.097500 68788.000000
207.104300 40364.000000
208.113000 55196.000000
209.116100 9328.000000
216.082500 2932.000000
217.089700 28788.000000
218.097200 42792.000000
219.102300 14048.000000
220.112200 8988.000000
221.109800 4684.000000
222.128100 2680.000000
232.113000 4996.000000
233.110800 2956.000000
235.124000 3352.000000

