>compound AU95786005
>parentmass 380.1769
>ionization [M+H]+
>formula C22H22FN3O2
>rt 380.136000
>profile qtof
#smiles_iso C1CN(CC=C1N2C3=CC=CC=C3NC2=O)CCCC(=O)C4=CC=C(C=C4)F
#smiles_can C1CN(CC=C1N2C3=CC=CC=C3NC2=O)CCCC(=O)C4=CC=C(C=C4)F
#inchikey RMEDXOLNCUSCGS-UHFFFAOYSA-N
#pubchem_id 3168
#mb_accession AU120707,AU120708,AU120709,AU120710,AU120711

>ms2peaks
165.069900 22212.000000
194.097200 126524.000000
195.099800 16664.000000
380.176600 865916.000000
381.179600 186264.000000
382.181600 20588.000000

>ms2peaks
123.023600 12876.000000
165.070700 202976.000000
166.073900 22872.000000
187.086600 4960.000000
194.097800 507808.000000
195.100400 61964.000000
196.103400 4132.000000
380.177200 44876.000000
381.180000 11420.000000

>ms2peaks
123.023500 90348.000000
124.026500 8324.000000
165.070100 1009032.000000
166.073500 94896.000000
187.085100 14088.000000
194.096700 295828.000000
195.099600 31856.000000

>ms2peaks
123.023900 313056.000000
124.027100 20832.000000
165.070700 976600.000000
166.073900 77812.000000
167.076100 5276.000000
187.085800 11468.000000
194.096900 38680.000000

>ms2peaks
123.024000 390188.000000
124.027000 27960.000000
165.070600 376668.000000
166.073700 32836.000000
167.076100 2100.000000
172.061900 2168.000000
187.085500 5704.000000
194.096700 2312.000000

