>compound AU97203067
>parentmass 138.0913
>ionization [M+H]+
>formula C8H11NO
>rt 391.860000
>profile qtof
#smiles_iso C1=CC(=CC=C1CCN)O
#smiles_can C1=CC(=CC=C1CCN)O
#inchikey DZGWFCGJZKJUFP-UHFFFAOYSA-N
#pubchem_id 5610
#mb_accession AU510507,AU510508,AU510509

>ms2
121.063300 330000.000000
122.066600 28708.000000
123.068500 1848.000000
138.088900 9560.000000

>ms2
121.063400 62200.000000
122.066700 5788.000000
123.069200 536.000000

>ms2
119.047700 356.000000
120.056200 408.000000
121.063100 6428.000000
122.066000 576.000000

