>compound AU98244980
>parentmass 184.0192
>ionization [M+H]+
>formula C4H10NO3PS
>rt 105.405000
>profile qtof
#smiles_iso CC(=O)NP(=O)(OC)SC
#smiles_can CC(=O)NP(=O)(OC)SC
#inchikey YASYVMFAVPKPKE-UHFFFAOYSA-N
#pubchem_id 1982
#mb_accession AU311107,AU311108,AU311109,AU311110

>ms2peaks
124.982500 18864.000000
136.016400 6400.000000
142.993400 1052424.000000
143.995700 22628.000000
144.989100 37620.000000
184.020000 6460.000000

>ms2peaks
110.967500 744.000000
124.982700 21796.000000
126.978400 1240.000000
136.016400 924.000000
142.008700 6072.000000
142.993400 134420.000000
143.996000 3360.000000
144.989600 4592.000000

>ms2peaks
110.967300 844.000000
124.982200 13936.000000
126.978700 696.000000
127.968800 372.000000
128.977000 328.000000
142.009400 2340.000000
142.993200 18068.000000
144.989200 1120.000000

>ms2peaks
124.982600 3712.000000
142.993000 2824.000000

