>compound AU99626978
>parentmass 182.0482
>ionization [M+H]+
>formula C5H11NO4S
>rt 347.490000
>profile qtof
#smiles_iso CC(=O)NCCCS(=O)(=O)O
#smiles_can CC(=O)NCCCS(=O)(=O)O
#inchikey AFCGFAGUEYAMAO-UHFFFAOYSA-N
#pubchem_id 71158
#mb_accession AU214507,AU214508,AU214509,AU214510

>ms2
122.027800 588.000000
123.011900 2972.000000
140.038200 99908.000000
141.040900 2708.000000
142.033700 2720.000000
182.048600 36208.000000
183.051800 2380.000000
184.045200 1164.000000

>ms2
122.027500 704.000000
123.011200 14632.000000
125.008100 668.000000
140.037800 33112.000000
141.041600 1804.000000
142.033800 1184.000000
182.049000 352.000000

>ms2
123.011500 3568.000000
140.038300 1884.000000

>ms2
123.013000 432.000000

