>compound NA02130422
>parentmass 282.1197000000001
>ionization [M+H]+
>formula C11H15N5O4
>rt 43.776000
>profile orbitrap
#smiles_iso COC1C(C(OC1N2C=NC3=C(N=CN=C32)N)CO)O
#smiles_can COC1C(C(OC1N2C=NC3=C(N=CN=C32)N)CO)O
#inchikey FPUGCISOLXNPPC-UHFFFAOYSA-N
#pubchem_id 317398
#mb_accession NA000792,NA000794,NA000796,NA000922,NA000924,NA000926,NA001299,NA001301,NA001303,NA001428,NA001495,NA001497,NA001559,NA001561,NA001563

>ms2peaks
136.061700 17901.700000
282.119700 26503.000000

>ms2peaks
136.061800 70887.000000
282.119900 12319.500000

>ms2peaks
136.061800 271702.900000
282.119800 2891.300000

>ms2peaks
136.061600 53195.500000
282.119400 27581.300000

>ms2peaks
101.059800 2305.600000
129.054700 1106.300000
136.061600 334975.800000
282.119600 13052.500000

>ms2peaks
101.059600 4229.900000
129.054200 1598.800000
136.061700 304068.500000
282.119600 1465.200000

>ms2peaks
69.033500 23291.100000
85.028500 3021.400000
87.044000 4866.600000
94.040000 8655.400000
119.035200 20986.600000
136.061800 646105.500000
137.046100 3353.500000

>ms2peaks
69.033500 6987.100000
85.028500 1233.800000
87.044100 1728.000000
94.040000 5067.900000
119.035400 17027.800000
136.061900 189790.400000
137.045900 2330.900000

>ms2peaks
69.033500 3764.700000
94.040000 5479.400000
119.035300 21517.400000
136.061900 94734.800000
137.046100 2990.900000

>ms2peaks
69.033500 3764.700000
94.040000 5479.400000
119.035300 21517.400000
136.061900 94734.800000
137.046100 2990.900000

>ms2peaks
69.033500 23291.100000
85.028500 3021.400000
87.044000 4866.600000
94.040000 8655.400000
119.035200 20986.600000
136.061800 646105.500000
137.046100 3353.500000

>ms2peaks
69.033500 6987.100000
85.028500 1233.800000
87.044100 1728.000000
94.040000 5067.900000
119.035400 17027.800000
136.061900 189790.400000
137.045900 2330.900000

>ms2peaks
59.049100 3168.100000
69.033500 26002.000000
71.012700 2098.300000
73.064800 3073.800000
75.044100 5872.100000
85.028400 3700.600000
87.044200 4891.600000
94.040100 13270.600000
101.059700 5163.200000
109.050900 2294.800000
119.035300 37694.800000
136.061900 652287.400000
137.045800 5075.000000

>ms2peaks
59.049000 1494.800000
69.033500 12159.100000
73.065000 1308.300000
75.044100 2545.300000
85.028500 1582.100000
87.044100 2582.600000
94.040000 15213.600000
101.059700 3004.400000
109.051000 2523.100000
119.035300 46782.800000
136.061800 306090.800000
137.046000 5947.500000

>ms2peaks
69.033500 5433.700000
71.012800 1438.600000
94.040100 10218.300000
109.050800 2480.000000
119.035300 41456.100000
136.061900 116706.800000
137.045900 5388.400000

