>compound NA03584922
>parentmass 243.14919999999992
>ionization [M+H]+
>formula C15H18N2O
>rt 91.545000
>profile orbitrap
#smiles_iso C/C=C/1\[C@@H]2CC3=C([C@]1(CC(=C2)C)N)C=CC(=O)N3
#smiles_can CC=C1C2CC3=C(C1(CC(=C2)C)N)C=CC(=O)N3
#inchikey ZRJBHWIHUMBLCN-YQEJDHNASA-N
#pubchem_id 854026
#mb_accession NA002240,NA002241,NA002242,NA002243,NA002244,NA002638,NA002639,NA002640,NA002641,NA002642,NA003021,NA003022,NA003023,NA003024,NA003025,NA003389,NA003390,NA003391,NA003392,NA003393

>ms2peaks
243.149400 25013.400000

>ms2peaks
226.123700 1119.800000
243.149300 31466.700000

>ms2peaks
226.122700 9380.600000
243.149300 159842.900000

>ms2peaks
226.122800 10908.300000
243.149400 158611.200000

>ms2peaks
226.122500 11307.200000
243.149400 170487.300000

>ms2peaks
226.122600 16972.100000
243.149200 178605.800000

>ms2peaks
210.091400 1832.000000
211.098900 1681.400000
226.122800 23194.800000
243.149300 167888.600000

>ms2peaks
134.095900 1253.400000
184.075900 2278.900000
197.082900 1998.100000
208.112800 2616.600000
210.091600 2492.800000
211.099100 3207.500000
224.107500 1381.600000
226.122700 30874.200000
227.117700 1471.500000
228.126500 2045.700000
243.149300 136555.200000

>ms2peaks
110.060000 1505.700000
181.101500 1620.300000
184.075000 2095.600000
187.086400 1182.400000
196.075700 1769.900000
197.083400 3566.900000
198.127200 1499.600000
208.112100 4677.300000
210.091200 4840.000000
211.099500 3572.400000
224.106700 3523.800000
226.122500 37921.200000
227.118200 2476.000000
228.126200 2271.300000
243.149100 106166.000000

>ms2peaks
110.060100 2924.400000
134.096300 3903.600000
181.101300 3319.800000
184.075300 2275.500000
187.086700 1603.200000
196.075800 3336.000000
197.083500 4565.800000
198.127300 1313.900000
208.112000 7639.200000
210.091200 10340.200000
211.098800 4806.900000
224.107300 4593.800000
226.122600 34408.600000
227.118400 3922.800000
228.126100 2915.700000
243.149200 66345.400000

>ms2peaks
110.060000 3191.100000
134.096500 4865.700000
161.070800 1337.900000
181.101500 3680.300000
184.075600 3739.000000
184.112200 1362.000000
193.088400 1829.900000
196.075500 5325.900000
197.083700 6178.600000
198.091500 2357.500000
208.112200 7533.700000
209.095700 1129.100000
210.091300 14515.000000
211.099100 7610.300000
213.102800 1808.400000
224.107100 5418.500000
226.122600 34832.300000
227.118100 6713.000000
228.125600 3590.200000
243.149300 47571.800000

>ms2peaks
110.060000 3874.600000
134.096300 5570.200000
166.077800 1347.300000
180.080200 1456.500000
181.101200 4537.300000
183.104200 1523.600000
184.076100 3161.200000
187.086500 2647.800000
193.088500 3666.000000
196.075800 9747.400000
197.083900 5888.300000
198.091600 1678.700000
198.127100 1517.300000
208.112200 7515.100000
210.091400 18279.300000
211.099000 7797.400000
212.107100 2517.200000
213.101800 1965.100000
224.107000 3910.900000
226.122700 31658.700000
227.118100 8725.700000
228.125400 4030.800000
243.149300 26687.100000

>ms2peaks
110.060000 3367.200000
134.096400 6535.900000
166.078200 3067.300000
170.096700 1351.800000
181.100900 4902.800000
183.104000 1518.400000
184.075700 2599.200000
184.112600 1747.600000
187.086200 2776.500000
193.088500 5464.900000
196.075800 8933.300000
197.083300 5778.000000
198.090700 1914.100000
206.096600 1320.700000
208.111700 6518.000000
210.091300 18023.500000
211.099100 5787.400000
212.106700 2339.600000
213.101400 2892.100000
224.107100 5098.900000
226.122600 21994.600000
227.117800 10664.700000
228.125200 3030.700000
243.149400 14062.300000

>ms2peaks
110.060100 1910.100000
134.096400 6245.000000
161.070500 1382.300000
165.070400 1233.900000
166.078000 2763.300000
168.081000 2001.300000
170.096100 1411.000000
181.100900 2919.800000
183.104200 1168.500000
184.075700 2750.800000
187.086500 3904.100000
192.081300 1352.500000
193.088800 3962.600000
196.075600 9463.700000
197.083600 6562.900000
208.112100 5716.600000
210.091300 20263.600000
211.099100 4671.200000
212.106800 1745.400000
213.101600 1813.900000
224.106900 3697.000000
226.122800 15630.900000
227.117900 12825.300000
228.125600 2095.500000
243.149400 5846.900000

>ms2peaks
110.060300 2313.200000
134.096600 5843.700000
161.070700 1624.900000
165.069800 1567.600000
166.077600 3027.500000
168.080700 2190.100000
170.096500 1102.900000
180.080800 1113.000000
181.101200 3461.900000
183.104500 1521.500000
184.076200 2748.600000
187.086200 2499.500000
192.081100 1752.300000
193.088600 5410.100000
196.075800 9856.500000
197.083600 4090.000000
198.127300 1139.200000
206.096300 2311.700000
208.112000 4877.100000
209.095400 1176.000000
210.091400 20879.100000
211.098900 3862.800000
213.102300 3902.500000
224.107000 2265.300000
226.122700 12455.400000
227.118000 11255.000000
243.149100 3651.700000

>ms2peaks
110.060100 1860.000000
119.072800 1583.800000
134.096000 4566.800000
165.069600 2272.000000
166.077400 1886.700000
168.081100 1950.200000
181.101300 1847.300000
182.060100 1869.000000
187.086000 2876.400000
191.072400 1419.600000
192.080000 3036.900000
193.088800 3648.600000
196.075500 10430.500000
197.083600 2276.800000
208.111600 2603.400000
210.091300 15403.500000
213.101700 3097.900000
224.106800 1749.800000
226.122400 7126.800000
227.118000 10099.100000

>ms2peaks
110.059900 1632.900000
119.073300 2260.000000
134.096500 2685.700000
153.069400 1132.300000
154.065600 1739.700000
165.069800 3177.100000
166.078100 2016.500000
168.080800 3238.300000
178.065500 3000.800000
181.101000 1596.100000
182.059900 1197.700000
182.096000 1274.700000
187.086600 3474.500000
191.072300 1264.100000
192.080900 3634.300000
193.088700 3541.200000
196.075700 10032.600000
197.083200 1836.000000
208.111600 1166.600000
210.091200 16354.200000
213.102600 1942.200000
224.106800 1450.100000
226.122700 5999.300000
227.117800 8759.400000

>ms2peaks
92.049500 2558.800000
110.060000 1323.500000
119.073100 1571.600000
134.096100 3072.700000
153.069800 1431.700000
154.065300 1651.600000
165.069900 4939.700000
166.077500 3150.600000
167.073000 1319.300000
168.080900 2402.300000
178.065100 3388.000000
181.101300 1395.100000
182.060000 1530.800000
182.096000 1781.800000
187.087100 1437.200000
192.080500 4709.400000
193.088600 3294.700000
196.075800 7617.300000
197.082900 1954.000000
208.111900 1788.400000
210.091200 14545.500000
226.122700 3628.100000
227.117900 5839.800000

>ms2peaks
92.049300 1148.500000
110.060000 1254.100000
118.064700 1155.300000
119.073000 3284.500000
134.096400 1438.100000
154.064600 2605.900000
165.069800 4438.300000
166.077600 2657.200000
167.073100 1302.200000
168.080900 3952.500000
178.065300 3923.100000
181.100700 1057.000000
182.096700 1835.400000
187.086500 1842.700000
191.073000 1385.000000
192.080700 5890.300000
193.088500 3298.500000
196.075600 6043.300000
197.083800 1309.300000
208.112400 1537.800000
210.091300 11482.600000
226.122600 3389.200000
227.118000 5137.700000

>ms2peaks
118.065300 1190.900000
119.073100 2023.900000
134.096500 1781.700000
154.065500 3077.200000
165.070000 4636.800000
166.077800 2552.700000
167.072600 2531.600000
168.080600 3020.600000
178.065300 3944.300000
181.101000 1901.400000
182.096000 1324.500000
187.086700 1363.300000
191.072500 1808.000000
192.080600 5548.600000
193.088800 1486.500000
196.075700 5847.600000
208.111400 1263.600000
210.091400 9400.500000
226.122600 2482.800000
227.117900 3277.000000

