>compound NA04612360
>parentmass 646.3222000000001
>ionization [M+H]+
>formula C34H47NO11
>rt 583.935000
>profile orbitrap
#smiles_iso CCN1C[C@@]2([C@@H](C[C@@H]([C@@]34[C@@H]2[C@H]([C@@H](C31)[C@@]5([C@@H]6[C@H]4C[C@@]([C@@H]6OC(=O)C7=CC=CC=C7)([C@H]([C@@H]5O)OC)O)OC(=O)C)OC)OC)O)COC
#smiles_can CCN1CC2(C(CC(C34C2C(C(C31)C5(C6C4CC(C6OC(=O)C7=CC=CC=C7)(C(C5O)OC)O)OC(=O)C)OC)OC)O)COC
#inchikey XFSBVAOIAHNAPC-XTHSEXKGSA-N
#pubchem_id 245005
#mb_accession NA002479,NA002480,NA002481,NA002482,NA002483,NA002874,NA002875,NA002876,NA002877,NA002878,NA003254,NA003255,NA003256,NA003257,NA003258,NA003619,NA003620,NA003621,NA003622,NA003623

>ms2peaks
521.999400 2116.800000
646.321800 166024.000000

>ms2peaks
646.322000 177491.600000

>ms2peaks
586.300800 2018.100000
646.321700 167967.800000

>ms2peaks
105.033000 1062.800000
522.003100 1457.500000
522.072300 2668.800000
586.300200 13816.500000
646.322100 157407.400000

>ms2peaks
105.033700 1603.400000
522.000800 1258.800000
522.073800 2838.500000
586.301000 59597.600000
646.322500 114870.500000

>ms2peaks
105.033400 24541.000000
111.080400 2773.300000
142.122600 2387.100000
152.107100 1542.400000
233.095900 1620.500000
251.106300 1258.700000
259.095800 1248.000000
261.091900 1455.000000
265.121800 1714.900000
293.116200 2710.600000
350.174800 3559.000000
355.154500 1000.000000
368.185200 30993.500000
372.215900 1423.500000
404.242200 3949.900000
405.244800 1048.700000
476.245100 1548.800000
490.223800 1621.100000
494.253100 3942.400000
504.238400 4526.800000
522.025500 1339.200000
522.247500 5782.800000
526.279400 25511.100000
536.263600 12903.200000
537.267200 4754.600000
554.274400 29980.800000
555.278500 10658.000000
568.289400 1633.300000
586.300900 156638.200000
596.285600 4578.700000
614.295800 1652.300000
646.322600 90167.300000

>ms2peaks
75.044000 3136.600000
85.028200 1492.800000
105.033500 75630.200000
108.080800 1347.900000
109.064900 2366.600000
110.096200 2454.400000
111.080400 6045.200000
117.069700 1123.900000
129.070000 1936.400000
137.059500 1549.900000
140.106800 2012.500000
141.091100 1570.000000
142.122600 5628.100000
152.106700 3587.600000
159.080700 1802.700000
161.096200 1728.000000
165.053900 1467.000000
171.081000 1326.300000
174.090800 3315.800000
186.128100 1803.500000
188.070200 1076.600000
202.086500 2549.400000
205.100700 2134.400000
207.116900 1411.600000
209.095800 1339.700000
216.138600 1526.000000
217.101300 1515.600000
218.154300 4840.300000
219.081300 1253.900000
223.111900 1750.200000
225.090600 1171.100000
233.096200 4198.000000
235.111800 3714.400000
237.091900 1831.500000
239.105800 1288.400000
251.106500 4139.000000
259.096100 3618.700000
261.090600 3698.600000
263.106500 2122.900000
265.123000 3022.800000
279.101200 2159.600000
293.117200 4639.600000
295.133600 2519.400000
308.164700 1675.200000
318.150100 2168.300000
322.180900 1133.400000
324.161000 1299.700000
325.143500 3523.800000
340.189600 3101.400000
344.222600 1361.100000
350.175000 7499.500000
351.179000 1200.000000
354.206400 3080.400000
355.153900 1155.400000
368.185600 80647.700000
369.189100 19746.600000
372.217400 5956.900000
376.248500 4113.100000
382.201500 2245.000000
400.211100 2308.600000
404.243000 15540.000000
405.246100 2924.500000
414.227200 2565.100000
472.212100 3449.900000
476.242700 8100.300000
478.221900 1861.400000
490.222500 4192.400000
494.253700 12729.100000
495.257500 4175.300000
504.237800 8670.300000
505.240700 2287.600000
522.248700 15572.600000
526.279900 41476.700000
527.283300 13046.000000
536.264600 22101.400000
537.268000 7204.500000
554.275000 42797.200000
555.278100 12678.700000
568.290300 3092.800000
586.301500 117692.200000
596.285600 3844.000000
614.296700 1308.600000
646.323200 29582.700000

>ms2peaks
71.048900 1669.100000
75.044100 5644.000000
79.054300 1223.000000
84.081200 1325.900000
85.028300 1384.700000
102.091200 1907.300000
105.033500 157196.700000
108.080600 3031.700000
109.064800 2975.000000
110.096400 5703.600000
111.080400 11638.000000
113.083600 1240.100000
117.070000 3033.500000
121.064900 1720.500000
122.096700 2417.800000
129.069800 2641.500000
131.085700 2924.600000
137.059600 2898.900000
140.107100 3194.800000
141.091000 1951.200000
142.122800 7728.500000
145.064400 1041.200000
147.044000 1530.900000
147.080300 2086.100000
152.107000 7956.400000
155.086000 1637.000000
157.065300 1256.600000
159.080400 2406.300000
161.095500 1795.900000
165.054500 1829.500000
174.091600 7075.300000
179.085600 2214.500000
184.112400 1553.900000
185.095500 1305.500000
186.127900 2025.600000
188.071000 2415.500000
190.087000 1931.600000
190.122800 1926.100000
193.100500 2146.500000
195.080300 1483.800000
202.086400 2758.300000
203.094400 1393.400000
205.101300 3606.500000
207.080600 1414.800000
207.117700 1394.000000
209.096300 2208.400000
213.091700 1032.700000
216.137500 1361.100000
217.101700 1739.400000
218.154000 9186.700000
219.081200 1158.700000
221.096500 2128.900000
223.111800 2125.400000
225.091200 1665.000000
229.085100 1149.400000
233.096000 6249.600000
235.111600 5012.500000
236.163600 1370.900000
237.091100 2144.600000
245.096300 1735.400000
249.091600 1920.700000
251.106300 5302.000000
259.096600 5598.900000
261.091100 5282.400000
263.106800 4807.100000
265.122200 5048.900000
275.105400 1946.300000
279.101800 3733.800000
283.133000 2056.800000
293.117300 5882.000000
294.149400 1132.700000
295.133600 1983.500000
306.148200 2067.600000
318.148200 2725.200000
322.181500 2217.500000
325.143200 3909.400000
326.211600 1873.000000
336.160600 1865.100000
340.190800 10422.500000
344.222400 3371.600000
350.175200 6805.600000
351.180800 1405.900000
354.206100 7411.400000
355.211700 1389.300000
368.185700 105161.700000
369.189300 19204.600000
372.216800 14405.800000
376.248100 5788.400000
382.201400 3214.500000
386.233400 3345.700000
400.211300 3372.700000
404.243000 24884.200000
405.246100 4500.000000
414.228200 2535.800000
418.221500 1445.400000
462.226600 3460.600000
472.210900 2563.400000
476.243600 9845.300000
478.222000 3117.900000
490.222400 5633.700000
494.253600 16805.600000
495.257700 4868.300000
504.238100 8557.100000
505.240900 2538.900000
508.270800 1647.000000
510.250600 1720.800000
522.043700 1413.100000
522.248400 15111.800000
523.252000 3568.700000
526.280400 36961.300000
527.283000 11288.000000
536.264700 15448.600000
537.267500 4968.700000
554.275300 32555.700000
555.278900 9163.400000
568.289900 2314.200000
586.301900 55732.800000
646.325400 4889.400000

>ms2peaks
71.049100 1609.100000
75.044000 5880.500000
84.080900 2192.900000
85.028400 2596.700000
88.075900 1409.000000
91.054100 1514.500000
102.091400 1522.400000
105.033500 203066.200000
108.080900 3637.100000
109.064800 3130.800000
110.096300 4945.200000
111.080500 9931.300000
112.075600 1856.100000
113.083600 1347.700000
117.070000 2952.500000
121.064400 1983.400000
122.096400 3409.100000
129.069900 3020.500000
131.085500 4815.500000
137.059700 2229.400000
140.107000 4572.100000
141.069600 2296.900000
141.091000 2245.200000
142.122600 4014.100000
147.044000 2605.400000
147.080400 2954.200000
148.112300 1606.700000
152.106800 10353.700000
155.084800 1677.600000
159.080700 2064.600000
161.095900 2164.700000
162.090900 2733.600000
164.106500 1954.400000
165.054500 1724.700000
165.069700 1098.800000
167.085500 1854.600000
169.064700 1214.100000
171.080200 1889.300000
172.112400 2364.300000
174.091600 8979.400000
178.122600 2514.400000
179.085900 2912.700000
181.101100 1617.500000
183.080100 1667.500000
184.112300 2088.000000
185.096300 2091.400000
186.128400 1858.900000
188.070600 5008.600000
190.086600 1295.500000
190.122800 2987.300000
191.085100 1352.700000
193.100800 3482.800000
195.079600 1815.700000
197.096200 1592.500000
202.086100 1158.100000
202.122300 3189.400000
203.086100 1188.400000
203.093700 1923.000000
205.100900 5158.900000
207.080800 1474.800000
207.116400 2168.900000
209.095900 2713.900000
216.137900 2975.600000
217.101400 3858.900000
218.153900 11051.300000
219.080700 1639.000000
221.096300 4194.500000
223.111600 3122.100000
229.084900 1054.500000
233.096200 7521.400000
235.112100 5534.000000
236.164700 3075.800000
237.090400 2715.300000
239.106600 2045.500000
245.096000 1929.500000
249.091700 1695.500000
251.106700 4530.300000
259.096900 4296.000000
261.090800 5006.700000
263.106400 4038.600000
265.122000 2975.000000
275.106400 1323.700000
279.100600 2034.400000
280.132600 1117.700000
283.132500 1812.100000
290.155000 2215.700000
293.118200 3753.300000
295.132800 2087.900000
306.148100 1532.500000
308.164900 3396.800000
312.196500 1246.200000
318.148700 2629.000000
322.180500 3308.900000
324.159800 2215.600000
325.143700 1975.600000
326.212000 2680.000000
336.160200 3388.700000
340.191100 12119.500000
344.220900 3679.500000
350.175200 4021.100000
354.206200 10563.000000
355.211000 1392.100000
368.185700 78197.900000
369.189500 6875.400000
372.217000 16526.200000
376.248300 5869.400000
382.200600 1884.500000
386.231600 2606.800000
400.211900 3199.800000
404.243100 21367.500000
418.222300 3367.800000
462.227600 3643.700000
476.243600 7172.000000
478.221600 3451.700000
490.223100 4431.400000
494.253200 10723.500000
495.257000 1595.500000
504.237800 5640.600000
508.271200 1099.100000
510.249000 2584.000000
521.951700 1634.100000
522.024900 1828.300000
522.248500 10259.500000
523.251400 1464.700000
526.279700 17621.600000
527.284400 1235.100000
536.264900 8256.200000
537.270200 1678.500000
554.275300 14817.100000
555.280300 2478.600000
586.301600 18361.300000
646.322600 969.000000

>ms2peaks
75.044100 6421.200000
79.054200 1498.900000
84.080600 1005.000000
85.028400 2788.900000
88.075600 1588.200000
91.054500 2430.000000
102.091500 1579.700000
105.033500 207284.300000
108.080700 3604.300000
109.064800 3465.800000
110.096700 5337.300000
111.080400 10556.700000
112.075700 1351.600000
113.083600 1247.000000
117.070000 4338.100000
121.064800 2782.200000
122.096400 4365.400000
129.069800 5067.700000
131.085500 4878.300000
137.059700 1687.400000
140.107000 2991.900000
141.069900 1672.100000
141.091200 1349.800000
142.122500 2650.200000
145.065200 1209.000000
147.044300 3139.400000
147.080500 2327.600000
148.111800 1671.300000
152.107000 10165.200000
155.085800 2456.200000
157.065300 1575.100000
159.080000 1871.800000
161.096300 3260.900000
162.091500 5016.300000
164.107300 1423.100000
165.054700 1444.600000
165.069800 1139.500000
167.085800 1980.500000
169.064700 1747.100000
171.080200 2206.500000
172.112100 2402.600000
174.091500 9910.100000
178.122700 3116.700000
179.085600 3098.600000
181.101200 2452.400000
183.080400 1869.700000
185.096200 3140.600000
186.127700 3230.300000
188.070500 6184.700000
190.086100 2690.900000
190.122700 3970.700000
191.085000 2024.400000
193.101400 2822.600000
195.080700 2801.700000
197.095800 1915.800000
202.085800 1389.500000
202.122800 5343.900000
203.085700 2229.500000
203.094100 3379.900000
205.101400 6553.300000
207.080600 2324.900000
207.116000 1858.100000
209.095900 3688.800000
213.091400 1546.800000
216.138100 2665.400000
217.101400 2024.500000
218.153900 12248.600000
219.080800 1438.600000
221.096200 2728.400000
223.111800 2958.900000
225.090600 1648.700000
233.095900 7238.600000
235.111500 4746.000000
236.164700 2349.400000
237.090900 2463.200000
239.106200 1281.400000
245.097000 2037.600000
249.089900 2218.200000
251.106400 5022.500000
259.097200 1558.100000
261.091100 4088.100000
263.106600 3191.000000
265.122200 3498.800000
279.102000 1720.900000
280.133300 1791.800000
290.154500 2813.700000
293.117800 2738.500000
294.149300 1594.000000
306.149700 3010.800000
308.164500 5482.100000
312.197300 1061.500000
318.150100 1862.300000
322.180500 2698.200000
324.158200 2304.700000
326.211900 2551.000000
336.159600 1731.700000
340.190800 13907.900000
344.221900 3944.400000
350.175000 2865.900000
354.206500 8914.300000
368.185900 38744.600000
369.190600 2103.000000
372.217300 13305.000000
376.248000 2754.700000
382.201200 1577.600000
386.232500 3441.600000
404.243200 12025.700000
418.222000 2160.300000
462.229500 2104.100000
476.242600 4672.200000
478.221200 3526.400000
490.221000 1514.700000
494.253400 4357.600000
521.949500 1345.800000
522.047100 1371.300000
522.247000 3608.200000
526.280400 6777.100000
536.264400 3383.000000
554.274900 4099.900000
586.300000 4362.300000

>ms2peaks
71.049100 3810.500000
72.080800 2717.300000
75.044100 9233.600000
77.038600 7406.900000
79.054200 2794.400000
81.069900 2441.300000
82.065100 2015.800000
84.081000 3011.800000
85.028400 5609.800000
87.044100 1058.900000
88.075700 1469.300000
91.054200 6787.000000
93.070100 1413.100000
95.049200 1676.900000
96.080900 1928.300000
97.064900 2364.300000
102.091500 4484.100000
105.033500 409388.800000
107.049100 2473.100000
108.080800 7997.900000
109.064900 7278.600000
110.096400 6422.800000
111.080400 15899.900000
112.075600 3711.100000
113.083300 3183.400000
114.091400 2076.200000
115.054100 1178.300000
117.069900 10673.400000
118.078100 1784.400000
119.049300 1482.400000
119.085500 2037.800000
121.064800 5379.800000
121.088800 1832.600000
122.096400 8673.600000
123.044400 1756.000000
128.062600 1363.600000
129.069900 9824.600000
131.048700 1833.200000
131.085500 10675.100000
132.080900 1441.000000
133.028400 2321.700000
133.064600 1425.000000
134.096700 5261.600000
135.044100 2194.100000
135.080500 3698.100000
137.059900 4874.200000
138.091100 2688.100000
140.107100 6061.000000
141.070000 4450.300000
143.085500 4464.000000
145.064700 3086.400000
146.036200 2717.400000
146.096200 3867.400000
147.044000 5936.200000
147.080500 5194.400000
147.104700 2205.200000
148.112000 3442.100000
149.060100 2344.600000
152.106900 17555.700000
153.070000 3652.800000
154.122600 2005.800000
155.085600 6345.300000
157.064800 3087.300000
158.096500 3743.000000
159.080600 5151.100000
160.075700 1419.900000
160.112100 6007.100000
161.023300 2623.400000
161.059900 1303.900000
161.096300 4683.400000
162.091500 11512.300000
164.107300 3985.500000
165.070100 3132.900000
167.085500 5182.800000
169.064600 2062.000000
171.080500 4844.200000
172.112200 6016.000000
173.059700 1385.800000
173.095900 1727.600000
173.119500 1278.200000
174.091400 16566.400000
174.127700 3316.800000
176.107100 2955.900000
177.054900 1924.300000
178.077700 2272.500000
178.122600 7784.800000
179.085600 7276.700000
181.065100 2317.000000
181.101000 5025.100000
182.073100 1073.300000
183.080800 3920.200000
184.112000 4595.400000
185.060000 1332.700000
185.096200 3594.700000
186.090500 1148.500000
186.127900 6901.800000
187.075100 2607.000000
188.070600 10730.600000
188.107600 2874.600000
189.078900 2123.500000
190.077600 2982.300000
190.086500 4989.600000
190.122700 7114.100000
191.085600 5371.000000
192.093300 1857.800000
193.101300 5741.900000
194.072600 1262.200000
195.080700 4220.200000
196.112600 1682.600000
197.096100 3638.900000
198.128200 1942.100000
200.106800 1052.000000
202.078400 2849.100000
202.122600 12485.400000
203.086300 4664.100000
203.093300 4757.700000
204.094000 1654.600000
204.102000 2330.300000
204.138100 3138.600000
205.101000 9199.900000
207.080700 5670.300000
207.117700 3961.400000
208.089200 1651.900000
209.096000 6359.200000
210.127700 1480.700000
215.085000 2990.400000
216.138300 5871.500000
217.101400 5143.900000
218.072700 2496.900000
218.153900 20431.400000
219.080800 4116.400000
219.117200 2280.100000
221.096400 5060.700000
222.128800 1239.400000
223.075600 1948.600000
223.112000 4849.200000
225.090700 2746.700000
226.123200 1541.800000
232.088600 2268.100000
233.096200 8131.100000
234.127300 1306.900000
234.148000 1142.700000
235.075200 2708.400000
235.111900 5861.100000
236.143600 2080.900000
236.164600 4623.000000
237.091100 4090.100000
238.122800 1897.600000
240.137700 1234.500000
245.095900 2810.200000
247.112000 1875.700000
249.091000 3354.700000
250.123600 1985.500000
251.106800 6389.000000
252.138500 2771.100000
261.091300 7604.400000
263.107000 5111.200000
264.138600 2932.000000
265.122300 2797.900000
266.153800 1604.100000
276.138200 1824.800000
278.153900 3412.600000
279.101100 3111.300000
280.133500 2070.100000
280.168600 1355.000000
282.148700 1384.500000
290.153900 3774.400000
292.132400 1725.800000
294.149100 2268.100000
296.165100 4532.000000
306.149600 3505.700000
308.164200 6741.500000
310.180600 1362.600000
312.196500 1576.400000
322.144800 2100.400000
322.180000 4236.100000
324.159600 4740.900000
340.190800 17545.800000
344.222300 3221.800000
354.206200 11551.700000
368.185600 34527.900000
369.189100 7273.600000
372.217000 15205.800000
386.233200 3968.800000
522.149500 1778.300000

>ms2peaks
67.054100 1289.000000
71.049200 3875.300000
72.080900 1346.200000
75.044100 7303.000000
77.038600 7564.300000
79.054300 3964.200000
81.070100 1633.900000
84.080800 4371.700000
85.028400 4446.900000
87.043900 1618.000000
88.075700 1409.700000
91.054200 6749.800000
95.049100 1538.300000
96.081100 2326.400000
97.065100 1894.900000
102.091500 2712.900000
105.033500 359150.000000
107.049000 2246.600000
108.080800 8299.700000
109.064900 5835.500000
110.096300 6096.200000
111.080400 10173.700000
112.075600 4072.100000
113.083100 2150.900000
115.054500 1628.800000
117.069800 8114.500000
118.077700 951.600000
119.049000 1766.200000
119.085600 1656.000000
121.064700 4815.100000
121.088800 1873.200000
122.096500 7582.600000
123.044400 2486.800000
124.075600 1357.100000
128.062400 2589.600000
129.069900 10915.100000
131.049300 2010.500000
131.085500 8126.600000
132.081400 1018.500000
133.028700 1836.400000
133.064900 2663.400000
134.096400 3577.300000
135.044100 1894.900000
135.080700 3039.200000
137.059800 3766.600000
138.091400 3509.800000
140.107000 3337.400000
141.070200 4042.500000
143.085700 4065.100000
145.064700 2702.800000
146.036300 3198.000000
146.060000 1322.900000
146.096200 3785.000000
147.043900 5707.800000
147.080600 3676.400000
147.104100 3069.000000
148.112200 3901.000000
149.059800 1632.000000
152.107000 16942.400000
153.069900 3765.500000
155.085500 4610.200000
157.064900 3488.400000
158.073100 1178.300000
158.096300 4669.900000
159.080400 4554.800000
159.103500 1376.700000
160.076200 1571.600000
160.112000 6986.100000
161.023200 2324.500000
161.059700 1754.400000
161.096200 3180.600000
162.091400 11206.800000
164.107100 3681.500000
165.069600 4025.200000
166.077900 2367.100000
167.085400 5925.600000
169.065200 1736.500000
171.080400 3873.100000
171.104500 2210.100000
172.112100 6236.600000
173.059700 1333.200000
173.096100 1718.700000
174.091400 14097.300000
174.128100 2086.300000
176.106800 2165.500000
177.054400 2394.900000
178.077800 3457.100000
178.122600 6728.100000
179.085400 7596.800000
181.065000 1883.100000
181.101000 4988.100000
182.073000 1723.500000
183.080700 2108.600000
184.111900 3560.700000
185.059800 1603.700000
185.096300 1934.900000
186.091700 1177.100000
186.128000 6112.900000
187.075900 1736.700000
188.070600 10226.100000
188.107600 2261.700000
189.078900 1624.000000
190.077600 3913.800000
190.086600 2568.200000
190.122900 6266.700000
191.085700 6830.100000
192.093400 2391.300000
193.101300 6804.300000
194.073000 1372.700000
195.080500 4268.500000
196.112500 1260.100000
197.096200 3550.100000
198.128000 2443.700000
200.106200 1829.600000
202.078500 2041.400000
202.122500 13193.500000
203.085900 5048.600000
203.093500 4235.500000
204.093800 2579.700000
204.101700 1840.400000
204.138700 2401.900000
205.101200 9971.900000
207.080700 3656.200000
207.116800 2788.000000
208.089000 1836.300000
209.096300 4505.000000
210.128700 1793.000000
216.138300 4220.800000
217.101000 3760.700000
218.072700 2935.200000
218.153900 12421.100000
219.080500 3735.800000
219.116000 1568.200000
221.096600 3780.000000
222.128300 1954.500000
223.074900 1829.700000
223.111800 3149.600000
225.091500 2086.800000
232.088400 1933.000000
233.096000 6164.700000
234.148500 1146.700000
235.074600 1600.500000
235.111900 2812.700000
236.164200 4093.900000
237.091000 3539.700000
238.123200 2351.100000
239.106700 1277.000000
247.111800 2235.000000
249.091200 2040.200000
250.123800 1575.300000
251.106900 4209.400000
252.138500 3240.600000
261.091000 3637.200000
263.106500 3261.100000
264.138000 3005.900000
265.123300 1685.600000
266.153600 1373.900000
276.139300 2362.900000
278.153300 1847.900000
279.100900 1618.100000
280.133200 2710.300000
282.149800 2365.800000
290.155400 2621.700000
294.150100 1390.400000
296.165600 2508.600000
306.148700 3074.100000
308.164800 4339.400000
310.179700 1210.800000
312.196300 1908.800000
322.143800 1387.900000
322.180900 1893.700000
324.160700 2457.000000
340.191300 8911.400000
344.222700 2033.800000
354.206100 5705.100000
368.185800 9698.600000
369.189300 2106.500000
372.216700 6392.800000
386.233800 2256.800000

>ms2peaks
71.049100 2754.500000
72.080800 1526.900000
75.044100 5172.700000
77.038600 9207.800000
79.054200 3028.000000
81.070200 1321.700000
82.065100 1589.700000
84.080800 2129.700000
85.028500 3408.100000
88.075700 1519.400000
91.054100 7307.400000
95.049100 2550.500000
96.080800 1997.000000
97.064700 1349.100000
102.091700 1513.700000
103.054300 1867.600000
105.033500 309487.700000
107.049100 3253.800000
108.080700 6567.300000
109.064600 4142.800000
110.096300 4246.100000
111.080500 7437.200000
112.075600 3520.100000
114.091000 1836.900000
115.054100 2385.500000
117.069900 10780.400000
119.049100 2669.300000
119.085400 2079.900000
121.064900 4291.500000
121.088700 2191.700000
122.096400 6236.800000
123.044000 2045.500000
124.075600 1383.200000
128.062000 4093.700000
129.069800 10117.600000
131.049000 1629.900000
131.085500 8801.200000
132.081100 1071.000000
133.028200 1822.800000
133.064600 1746.200000
134.096300 4673.300000
135.043900 2177.900000
135.080700 2469.200000
137.059800 2842.300000
138.091200 2281.300000
140.107100 3064.300000
141.070000 5293.300000
143.085600 2695.300000
145.064900 2852.300000
145.088500 1371.100000
146.036200 3664.400000
146.060000 1374.600000
146.096500 4601.900000
147.044200 5450.200000
147.080300 2897.100000
147.104100 2969.900000
148.112000 3593.900000
149.059800 1793.100000
152.107000 14186.400000
153.069700 3439.000000
154.077500 2077.300000
154.122700 1201.800000
155.085500 4928.500000
157.064800 2742.300000
158.096300 4449.800000
159.080600 3089.400000
159.104500 1715.200000
160.112000 7000.400000
161.023400 2102.900000
161.096800 2090.900000
162.091300 7854.100000
164.107300 2714.400000
165.069700 6112.100000
166.078100 1912.700000
167.085100 5107.900000
169.064800 1876.100000
171.080200 2625.400000
171.104600 1514.800000
172.112100 5180.600000
173.060000 1185.600000
173.120400 1410.100000
174.091400 8160.900000
174.127800 1408.400000
176.107100 1493.100000
178.077600 3924.100000
178.122600 6364.200000
179.085500 8127.700000
181.064800 2474.400000
181.101500 3567.000000
182.097100 1470.000000
183.080800 2277.700000
184.112400 4567.400000
185.059500 1107.000000
185.096100 1838.700000
186.091500 1505.800000
186.127600 6470.500000
187.074600 1815.200000
188.070500 7650.100000
190.077400 4541.900000
190.086500 3095.400000
190.122200 5299.800000
191.085400 6073.200000
192.093600 2768.500000
193.100700 4359.100000
194.072600 1950.000000
195.080100 3299.100000
196.111800 2296.700000
197.095900 1777.200000
198.128200 2239.300000
202.077900 4370.800000
202.122600 10991.300000
203.086400 4179.700000
203.093500 3760.900000
204.094000 2095.400000
204.101400 815.000000
204.138800 1267.900000
205.101400 5497.500000
207.080700 2673.000000
207.117300 1464.900000
209.096000 3572.100000
210.127400 1474.800000
215.085000 2989.900000
216.139000 2681.500000
217.101200 3722.000000
218.072800 2962.300000
218.153800 8762.200000
219.080100 3917.800000
221.095800 3979.900000
222.127100 1698.900000
223.075900 1700.300000
223.112300 2703.900000
225.090700 1251.300000
226.123000 1630.700000
232.087000 2154.700000
233.095800 3296.600000
234.127100 1706.200000
235.075400 1935.300000
235.111500 2401.400000
236.143300 1151.200000
236.164300 2949.300000
237.090900 2491.000000
238.121800 1774.600000
240.138200 1344.200000
245.096000 2038.700000
249.091000 1404.800000
250.122700 1569.800000
251.106200 2575.700000
252.137300 1890.900000
261.091300 3588.200000
264.138400 2071.500000
266.153500 1407.900000
280.134500 2022.800000
282.148700 1186.800000
290.155400 1478.800000
292.134300 1280.200000
294.148500 2544.000000
296.163600 1909.800000
306.149700 1972.400000
308.165600 1928.500000
322.142700 1562.700000
322.180800 1708.600000
324.158700 1882.700000
340.190400 3382.100000
354.206400 3319.600000
368.185000 2979.600000
522.128800 1343.900000

>ms2peaks
67.054400 1370.400000
75.044100 3738.700000
77.038600 12918.700000
79.054300 4169.100000
82.065300 1205.300000
84.080700 1401.400000
85.028300 2845.000000
91.054300 8848.100000
93.070000 1526.200000
95.048800 1732.600000
96.080700 2777.200000
102.091600 1168.000000
105.033500 234718.500000
107.049100 2507.600000
108.080800 5613.700000
109.064900 4051.700000
110.096600 3243.400000
111.080600 5084.400000
112.075800 2112.400000
113.083600 1126.600000
115.054200 3132.800000
117.069900 9977.500000
119.048900 2022.500000
119.085900 1342.500000
121.064700 2454.000000
121.088500 1727.800000
122.096500 5917.200000
123.044200 2305.600000
124.076000 2372.800000
128.061900 3817.300000
129.069900 9372.100000
131.049100 1579.100000
131.085500 6531.500000
132.081000 2181.800000
133.028300 2449.900000
133.065100 1583.800000
134.096600 5768.200000
135.044000 1134.300000
135.081000 1960.800000
137.059600 1739.100000
138.091500 1568.600000
140.107400 1155.800000
141.070100 4468.800000
143.085600 3189.000000
145.065000 1841.300000
145.089300 1617.200000
146.036200 2831.000000
146.060000 1745.800000
146.096300 3988.800000
147.044100 3603.100000
147.080500 2710.800000
147.104100 3071.100000
148.112400 2425.500000
149.059600 1296.100000
152.106900 12115.100000
153.070200 3586.100000
154.077800 1866.500000
155.086000 3682.500000
157.064700 1743.300000
158.073000 1321.700000
158.096600 4157.600000
159.080700 2831.700000
160.075500 2117.200000
160.112400 6274.800000
161.059800 1207.900000
161.096500 1350.700000
162.091400 5293.300000
164.107300 1106.600000
165.069900 5378.500000
166.077700 3314.200000
167.085700 3886.900000
169.064800 1700.500000
171.080600 3548.500000
171.104400 1992.100000
172.112300 4297.700000
173.096100 1242.500000
173.120600 1440.400000
174.091200 5247.100000
174.128600 2089.300000
177.054800 1406.700000
178.077800 4615.400000
178.122800 5947.400000
179.085600 7274.600000
181.064600 2635.200000
181.101600 2100.600000
183.080800 2347.900000
184.111900 3399.900000
186.128200 2455.400000
188.070400 4416.800000
188.107100 1651.400000
189.078700 1203.100000
190.077900 3981.800000
190.086300 974.800000
190.122600 4996.900000
191.085400 5011.400000
192.093300 2453.100000
193.101200 3678.400000
194.072800 1430.600000
195.080700 3426.900000
196.112500 2506.300000
197.095800 2019.500000
202.077400 4168.600000
202.122800 9398.700000
203.085900 3599.900000
204.093600 1681.600000
205.101400 5472.500000
207.080700 3315.100000
208.089300 1512.900000
209.095900 3236.300000
210.128200 1537.200000
215.085000 2726.700000
216.138700 1994.600000
217.102100 1813.200000
218.072800 2194.600000
218.154000 3704.800000
219.080600 3451.100000
220.087900 1615.200000
221.096300 2442.700000
223.075500 1078.200000
223.111300 1186.000000
232.088000 1179.200000
233.096000 2680.700000
234.127600 1256.600000
235.076000 1981.200000
237.090100 1163.400000
238.123000 1158.400000
239.105600 1242.100000
250.123000 1513.600000
251.107900 1479.500000
252.138400 2005.700000
261.091800 1267.600000
264.138500 1474.600000
266.154400 1481.400000
280.132500 1194.400000
280.168600 1116.000000
282.148800 1367.400000
308.164000 1630.200000
522.153100 1651.400000

>ms2peaks
71.049000 2547.400000
75.044100 1739.400000
77.038600 14960.100000
79.054200 2550.200000
81.070100 1063.300000
85.028600 1827.200000
91.054200 8262.400000
95.049200 2700.200000
103.054400 1721.300000
105.033500 187958.300000
107.049100 3093.900000
108.080800 5644.700000
109.064800 2252.500000
110.096300 1683.200000
111.080400 3257.200000
115.054200 2465.000000
117.069900 6468.100000
119.048700 2163.500000
119.085700 1331.200000
121.065000 1955.400000
121.088500 1486.000000
122.096400 3867.000000
124.076200 1485.500000
128.062200 3223.500000
129.069900 7207.900000
131.085500 5701.800000
132.080400 2013.600000
133.028300 1707.100000
134.096400 3573.300000
135.044100 1539.000000
135.080200 1183.200000
140.106400 1164.300000
141.069700 4124.400000
143.085600 1584.200000
146.036700 1865.500000
146.060100 1450.200000
146.096400 4654.300000
147.044100 2337.800000
147.080100 1502.600000
147.104400 2131.100000
148.112000 2908.100000
152.106900 6504.400000
153.069900 3932.300000
155.085400 3935.700000
157.065500 1354.700000
158.096500 3821.000000
159.079900 1788.600000
160.075700 2102.300000
160.112100 5187.800000
162.091600 3692.000000
165.069700 6188.300000
166.077600 2849.000000
167.085500 3786.300000
171.104400 2397.100000
172.112100 3624.100000
174.091400 3828.000000
178.077700 5337.200000
178.122700 4022.000000
179.085400 5686.900000
181.101700 1380.200000
182.095600 1099.700000
184.112100 2845.700000
186.127700 2281.500000
188.071000 2804.600000
188.107300 1317.400000
190.077600 3452.000000
190.122600 2030.300000
191.085900 4290.800000
192.093200 2416.900000
193.101100 1837.200000
194.072800 1930.700000
195.080200 2835.800000
198.127200 1084.100000
200.108000 1488.500000
202.078200 2997.600000
202.122600 7754.100000
203.085200 3202.000000
204.093000 1984.800000
205.100900 3744.400000
207.080200 2180.500000
207.116900 1306.900000
209.095700 1395.800000
210.128000 1714.500000
215.084600 2888.200000
216.138800 1922.200000
218.154600 1806.000000
219.080300 1306.200000
220.088500 1352.500000
221.095900 1250.900000
222.127600 2155.000000
225.091000 1140.800000
233.096000 1668.000000
234.127100 1757.600000
237.090300 1219.700000
250.122600 1707.700000
261.090000 1321.500000
322.142500 1098.400000
522.128600 2609.900000

>ms2peaks
71.049100 1639.600000
72.080700 1215.300000
75.043900 3287.500000
77.038500 37149.300000
79.054200 6426.500000
80.049600 1515.700000
81.069700 1989.600000
82.065000 2905.500000
85.028400 3093.200000
91.054100 13071.400000
94.064900 2348.700000
95.049000 4676.400000
96.080700 2263.800000
103.054100 2089.800000
105.033400 243560.100000
106.065100 2377.200000
107.049100 2446.800000
108.080600 7190.700000
109.064600 3459.500000
110.096500 2605.100000
111.080400 3440.400000
115.054000 5089.800000
116.061900 2169.200000
117.057300 1593.900000
117.069700 10276.800000
118.065200 2933.200000
119.049100 2899.500000
119.085000 1152.600000
120.080900 1300.800000
121.064800 3608.300000
121.088500 3412.000000
122.096300 5808.800000
124.075400 3184.400000
128.061900 7872.700000
129.069700 12187.700000
130.064900 1249.600000
131.048700 2043.000000
131.073200 1818.900000
131.085400 5983.200000
132.080500 3936.300000
133.028300 2559.400000
134.060000 2064.600000
134.096300 5454.100000
135.080300 2319.000000
136.075500 1587.400000
137.059800 1764.300000
138.091300 1703.700000
141.069700 8886.400000
142.077400 1364.800000
143.085100 2019.900000
144.056800 1406.600000
144.080800 2020.300000
145.064300 1856.300000
145.088500 2952.800000
146.036100 2832.100000
146.059900 2542.700000
146.096200 6065.700000
147.044000 4749.900000
147.104100 3024.500000
148.112000 4109.100000
150.091900 1620.000000
152.061800 2524.400000
152.106800 9075.000000
153.069700 5642.000000
154.077300 2080.800000
155.085300 4270.000000
156.080500 2217.000000
157.064800 1625.000000
158.096300 6472.100000
160.075700 3364.000000
160.111900 7504.400000
162.091100 5281.100000
165.069700 9995.300000
166.077300 4747.900000
167.085300 7641.200000
169.064800 2589.300000
170.096000 1805.600000
171.080200 2958.400000
171.103900 2113.100000
172.112000 7311.500000
174.091100 5161.800000
174.127300 1645.400000
176.106700 1738.200000
178.077500 8908.900000
178.122400 6843.300000
179.085400 9678.700000
181.064600 2664.800000
182.096800 1464.100000
184.111800 5040.500000
186.127600 3352.800000
188.070600 2363.800000
188.107300 1631.300000
189.069800 2831.800000
190.077400 6724.600000
190.121900 3306.800000
191.085300 7150.400000
192.093500 2475.700000
193.100600 2616.100000
194.072700 2002.100000
194.096800 1304.200000
195.080500 3102.800000
196.111300 2820.800000
202.122400 8454.500000
203.085500 4488.800000
204.093700 2626.900000
205.063700 1728.400000
205.100900 3822.100000
208.111800 2012.900000
215.085200 2698.200000
218.072500 2633.700000
219.081000 2618.600000
231.079700 1977.700000
250.122600 2101.000000
263.105700 960.800000

>ms2peaks
71.049100 1317.700000
72.080700 1313.500000
75.044000 2442.500000
77.038600 36267.100000
79.054200 4941.300000
80.049700 1267.000000
81.069900 2035.600000
82.065100 2555.300000
85.028400 2789.300000
91.054200 12695.000000
94.064800 1193.300000
95.049100 5215.400000
96.080500 1336.300000
103.054400 1754.300000
105.033500 171980.500000
106.065200 2762.100000
107.049000 3220.000000
108.080800 6015.200000
109.064900 3418.300000
110.096400 2021.400000
111.080700 2241.900000
115.054200 5822.000000
116.062200 2440.700000
117.057400 2599.400000
117.069900 7175.400000
118.065100 2486.300000
119.049100 1750.200000
119.085700 1092.800000
120.081100 1735.900000
121.064700 3029.500000
121.088600 3290.600000
122.096500 5434.500000
124.075600 1381.400000
128.062100 7214.200000
129.069800 8910.300000
130.065400 2413.500000
131.049600 1676.700000
131.072900 1146.700000
131.085600 4504.300000
132.080900 3486.500000
133.028400 1659.900000
134.060200 1961.800000
134.096400 3972.300000
135.080400 1105.700000
137.059400 1236.800000
138.091500 1376.700000
141.069900 7107.200000
142.077300 2004.000000
143.085700 1831.400000
144.080900 1889.100000
145.065200 1714.600000
146.036100 1534.500000
146.060100 1309.900000
146.096200 4758.700000
147.044200 3129.100000
147.103700 2303.000000
148.112200 2820.800000
152.061800 2510.000000
152.107100 6767.500000
153.069800 5512.600000
154.077600 2951.900000
155.085300 2837.500000
156.080700 1495.100000
157.064800 1507.400000
158.096400 4562.000000
160.075500 2579.400000
160.112100 5065.600000
162.091000 2803.100000
165.069800 11781.000000
166.077600 5000.500000
167.085500 4494.200000
169.064700 2021.700000
170.096900 1226.100000
171.080500 1991.700000
172.112200 5605.900000
174.091800 3029.000000
174.128200 1657.300000
178.077800 7747.700000
178.122700 4849.000000
179.085500 7504.600000
181.064500 2527.600000
182.096200 2580.700000
184.112100 4813.300000
186.128200 1865.700000
188.070600 1322.900000
189.069700 4263.900000
190.077800 4535.700000
190.122700 2027.600000
191.085700 5796.300000
192.093400 2311.700000
193.101100 2099.700000
194.072300 1525.800000
194.097300 1277.300000
196.112500 1212.900000
198.128300 1478.800000
202.077400 4990.100000
202.122500 5889.800000
203.085300 4361.200000
204.094200 2286.900000
205.101200 2510.800000
208.111800 1616.600000
215.085600 3589.100000
218.072600 1543.800000
222.127700 1416.200000
231.079700 1222.400000
263.107700 856.500000

>ms2peaks
71.049300 1484.500000
77.038600 34846.900000
79.054200 4070.500000
82.065100 1762.100000
85.028400 2397.200000
91.054200 9940.700000
94.065200 1736.300000
95.049100 4916.600000
103.054500 2021.800000
105.033500 117775.200000
106.065100 2361.500000
107.049100 1507.600000
108.080700 3778.700000
109.065000 1253.400000
115.054200 5821.100000
116.061900 2013.100000
117.057300 1909.200000
117.069800 7518.100000
118.065000 2372.700000
119.049000 1847.400000
120.080600 1495.900000
121.064900 1323.900000
121.088800 1884.300000
122.096300 2815.300000
124.076200 1531.600000
128.062100 5177.600000
129.069700 6619.600000
130.065100 1916.500000
131.073100 1763.800000
131.085300 1563.900000
132.080800 1646.800000
133.028500 1306.700000
134.096300 2407.700000
136.075600 1638.400000
141.069900 5089.100000
144.080800 1943.200000
145.064800 1984.600000
145.088000 1530.900000
146.060300 1552.600000
146.096300 3051.700000
147.043900 2125.200000
147.103800 1897.300000
148.111700 1683.000000
150.091800 1011.500000
152.062100 3381.100000
152.106900 3387.000000
153.069700 5564.100000
154.077800 2118.700000
155.085800 3173.600000
156.081000 1624.400000
158.096500 4310.100000
160.075800 2454.900000
160.112100 3433.300000
162.091100 1941.300000
165.069800 9398.800000
166.077200 3159.000000
167.085600 3532.700000
169.065200 1836.500000
171.103500 1366.000000
172.112000 2883.400000
176.107200 1143.900000
178.077700 8380.500000
178.122700 2205.800000
179.085600 4852.500000
181.064200 2184.500000
182.096000 1671.500000
184.112100 2913.800000
186.127100 1541.500000
188.107200 2079.500000
189.069800 4779.800000
190.077500 3667.400000
191.085200 5445.100000
192.094300 1719.400000
193.101500 1747.200000
195.080400 1656.800000
198.127800 1293.300000
202.077400 3985.700000
202.122100 2790.700000
203.085900 3499.300000
204.094300 1702.900000
205.064700 1355.800000
205.101900 1886.300000
206.096600 1120.000000
208.112500 1867.600000
215.085100 2862.000000
218.071400 2154.800000
219.079400 1514.200000
250.122400 1464.800000

>ms2peaks
77.038600 32343.000000
79.054200 2773.600000
80.049600 1086.400000
91.054200 7738.100000
95.049100 3548.300000
105.033500 68228.200000
106.065400 1762.400000
107.048900 1249.800000
108.080900 2728.100000
115.054200 4697.600000
117.057200 1549.900000
117.069900 2538.100000
118.064900 1416.700000
121.064800 1118.700000
122.096800 1377.400000
128.062200 5117.800000
129.069900 4556.100000
130.065200 1959.300000
132.081200 1502.900000
134.096600 1770.200000
141.069800 3898.300000
144.056800 1257.900000
144.080600 1199.500000
145.064700 1426.600000
146.059700 1145.600000
146.095900 1724.000000
147.044100 1575.800000
147.103800 1408.200000
148.111900 1069.600000
152.061900 2338.700000
152.106600 2695.300000
153.069400 3251.600000
154.077900 1980.900000
155.085500 1974.300000
156.080700 1443.100000
158.096600 3713.200000
160.112500 2394.900000
165.069800 7447.500000
166.077700 2122.500000
167.085700 1791.400000
172.112000 1593.300000
178.077800 5953.400000
178.123100 1265.900000
179.085400 3104.600000
182.097300 1265.900000
184.111900 2345.300000
189.069700 3517.000000
190.077600 2280.900000
191.086000 3274.500000
202.077500 2317.400000
202.122400 1129.000000
206.095700 1031.100000
222.126900 1505.700000

>ms2peaks
77.038500 26166.100000
79.054400 2078.600000
91.054200 6072.000000
95.049100 1900.700000
103.053900 1120.200000
105.033500 41898.400000
106.064600 1582.700000
108.080800 1338.100000
115.054100 3804.900000
116.062400 1098.300000
117.057600 1184.800000
117.070000 2626.000000
118.065200 2109.400000
121.088300 1211.700000
128.062100 4139.600000
129.069700 2639.800000
130.065400 1339.500000
133.028500 932.600000
141.069800 2179.100000
147.104500 1634.900000
148.111600 1287.600000
152.062000 3426.700000
153.069800 2392.900000
156.080200 1558.200000
158.096600 1190.900000
160.112400 1408.000000
165.070000 6082.700000
166.077600 1332.000000
172.112200 1319.700000
178.077400 5353.800000
179.085700 1623.600000
181.064800 1312.600000
184.112200 1929.500000
189.069900 3321.300000
190.077400 1217.300000
191.085400 1714.300000
202.077400 2484.400000

