>compound NA04143611
>parentmass 330.1911
>ionization [M+H]+
>formula C16H27NO6
>rt 164.580000
>profile orbitrap
#smiles_iso C[C@H]([C@@](C(C)C)(C(=O)OCC1=CC[N+]2([C@H]1[C@H](CC2)O)[O-])O)OC
#smiles_can CC(C)C(C(C)OC)(C(=O)OCC1=CC[N+]2(C1C(CC2)O)[O-])O
#inchikey QSTHEUSPIBEICI-MCAMCBDESA-N
#pubchem_id 5355258
#mb_accession NA002349,NA002350,NA002351,NA002352,NA002353,NA002744,NA002745,NA002746,NA002747,NA002748,NA003124,NA003125,NA003126,NA003127,NA003128,NA003489,NA003490,NA003491,NA003492,NA003493

>ms2
330.191500 111366.300000

>ms2
330.191500 443917.600000

>ms2
330.191500 469536.500000

>ms2
172.096700 3515.500000
330.191500 470485.200000

>ms2
172.097000 22092.000000
330.191500 454377.900000

>ms2
93.057200 1530.700000
94.065300 1216.400000
112.076000 1636.600000
136.075600 3897.100000
137.083700 1640.100000
138.091200 10888.800000
154.086400 8536.900000
155.094200 3259.600000
172.096900 108419.900000
330.191100 615967.600000

>ms2
83.049000 943.700000
93.057200 2387.100000
94.065100 2294.400000
98.060200 1223.300000
108.080600 1587.400000
110.059700 1591.000000
112.075600 4032.400000
136.075700 11151.800000
137.083500 3495.000000
138.091400 29652.800000
154.086300 18604.600000
155.094200 9836.600000
172.096900 238137.300000
298.165300 1870.200000
330.191400 464422.500000

>ms2
80.049700 1187.600000
82.065100 1498.200000
83.048800 1227.400000
93.057300 8321.900000
94.065100 5959.000000
98.060100 2002.600000
108.080700 3449.300000
109.065200 1657.200000
110.060100 1830.000000
111.068100 2702.400000
112.075700 5538.000000
136.075700 17982.300000
137.083600 6886.600000
138.091400 47020.600000
154.086300 25096.300000
155.094100 17475.900000
172.096900 358639.100000
298.164500 2436.900000
330.191300 292742.800000

>ms2
59.049000 1710.500000
80.049500 2408.200000
81.070100 1310.500000
82.041500 2452.300000
82.065200 3055.100000
83.049100 3364.500000
93.057400 12988.700000
94.065200 10657.900000
98.060000 3503.700000
102.055100 1782.400000
106.065100 1840.900000
108.080800 5233.900000
109.064600 1990.700000
110.060100 2736.600000
111.067900 6919.700000
112.075600 6715.500000
124.075800 3383.200000
136.075700 22425.000000
137.083600 6929.100000
138.091400 55907.200000
154.086400 25119.800000
155.094200 22817.600000
172.097000 424439.300000
298.165500 1720.200000
330.191400 150546.500000

>ms2
59.049200 1680.300000
80.049500 4139.100000
81.070000 1409.500000
82.041400 3200.300000
82.065200 3132.800000
83.049200 3656.400000
93.057300 16514.300000
94.065200 16031.000000
98.059900 3853.700000
102.054800 3394.200000
106.065100 1738.800000
108.080800 6597.400000
109.064800 1956.200000
110.060200 2469.100000
111.067900 15540.100000
112.075700 7371.700000
124.075900 4285.500000
136.075700 22960.900000
137.083600 6028.800000
138.091300 58698.000000
154.086300 20508.400000
155.094200 19182.800000
172.096900 415913.300000
330.191200 58758.900000

>ms2
59.049100 1766.800000
67.054300 2029.700000
68.049500 3089.900000
71.085600 1309.800000
80.049500 6678.400000
81.069600 2531.100000
82.041300 5669.800000
82.065100 5532.900000
83.049200 7296.800000
93.057300 26717.400000
94.065100 32069.500000
98.060100 7263.700000
102.054900 7392.700000
106.065100 4445.200000
108.080700 9265.200000
109.064800 2690.600000
110.060000 5496.600000
111.067900 37741.300000
112.075700 9540.700000
124.075700 9002.200000
126.091600 2201.800000
128.070800 1870.500000
136.075700 28091.600000
137.083600 11584.600000
138.091300 64261.600000
140.071100 1654.900000
142.085900 1618.300000
154.086300 20172.800000
155.094200 25244.700000
172.096900 487196.200000
330.191300 25035.500000

>ms2
59.049000 1806.000000
67.054100 2411.800000
68.049400 3975.100000
71.085600 1191.300000
80.049500 9305.500000
81.057200 2099.600000
81.070100 2498.700000
82.041400 4122.000000
82.065200 5819.200000
83.049200 9028.700000
93.057400 27069.600000
94.065100 39976.100000
95.073100 1935.100000
96.044500 1837.000000
96.081200 1929.900000
98.060100 7516.100000
102.055000 7772.400000
106.065100 5519.700000
108.080900 11749.900000
109.064700 2804.300000
110.060000 5657.200000
111.067900 60501.800000
112.075800 8797.300000
124.075700 13820.500000
126.091200 1893.600000
128.070700 2419.200000
136.075800 26818.200000
137.083600 13454.300000
138.091400 50375.700000
140.070100 1319.300000
142.086200 1537.700000
154.086300 16687.400000
155.094200 22263.000000
172.096900 411498.300000
330.191300 7223.500000

>ms2
59.049000 2945.900000
67.054200 2523.800000
68.049400 5085.600000
71.085400 1118.100000
80.049500 14172.600000
81.057300 2054.800000
81.069900 2900.900000
82.041300 4756.000000
82.065200 5006.800000
83.049100 8244.700000
93.057300 31657.400000
94.065200 49730.200000
95.072900 1213.500000
96.044600 2216.800000
96.080900 2505.800000
98.060000 7236.900000
102.055000 12314.300000
106.065100 8422.800000
108.080800 11502.100000
109.065300 1936.300000
110.060000 5713.900000
111.067900 77184.600000
112.075600 7252.500000
124.075700 18008.300000
126.091500 1549.900000
128.070500 4389.600000
136.075700 23839.400000
137.083600 12216.600000
138.091400 43894.200000
140.070400 1365.800000
142.086200 2124.800000
154.086300 11969.700000
155.094200 18830.500000
172.096900 318109.200000
330.191500 1306.000000

>ms2
59.049100 1968.100000
67.054100 2529.600000
68.049400 5111.800000
79.054200 1791.800000
80.049500 17948.300000
81.057200 1819.800000
81.069900 4198.600000
82.041300 5230.700000
82.065200 7088.900000
83.049100 9018.000000
93.057300 32810.500000
94.065100 57529.400000
96.044400 2806.400000
96.080600 2050.000000
98.060000 6525.200000
102.054900 12370.100000
106.065100 9806.300000
108.080800 10401.200000
110.060100 5898.800000
111.067800 94138.600000
112.075600 6615.000000
124.075700 16298.100000
126.090800 1820.700000
128.070700 3825.900000
136.075700 21507.500000
137.083400 10449.100000
138.091400 29638.900000
142.086400 1729.100000
154.086300 11144.200000
155.094000 14975.800000
172.096800 229675.600000

>ms2
59.049000 1196.200000
67.054100 2699.800000
68.049400 5230.000000
79.054200 2255.400000
80.049500 20532.200000
81.057300 3175.000000
81.069900 3419.500000
82.041300 3850.200000
82.065100 6590.000000
83.049100 8280.800000
93.057300 30400.000000
94.065100 59360.500000
96.044200 3605.800000
96.080800 2049.900000
98.060100 5883.900000
102.054900 12146.200000
106.065200 9723.400000
108.080800 9188.500000
109.064900 1650.100000
110.060000 6972.200000
111.067900 101946.700000
112.075600 3853.300000
124.075700 18197.000000
126.091600 1671.500000
128.070700 4648.700000
136.075700 15107.900000
137.083500 6681.300000
138.091400 19105.000000
140.070100 1840.200000
142.086300 2092.500000
154.086400 5655.000000
155.094200 8944.700000
172.096900 150193.300000

>ms2
59.048900 2157.900000
67.041600 2588.700000
67.054200 4905.500000
68.049400 9770.300000
79.054300 2840.000000
80.049500 41114.300000
81.033600 1386.000000
81.057400 4906.400000
81.069700 4446.100000
82.041400 5108.300000
82.065200 9276.200000
83.049200 11404.600000
92.049400 1616.200000
93.057300 42094.000000
94.065100 83625.700000
96.044300 3492.500000
96.080800 1792.500000
98.060100 7018.100000
102.054900 17708.700000
106.065100 13533.400000
108.080800 11767.500000
109.064600 1760.800000
110.060200 8896.100000
111.067800 136458.300000
112.075500 5032.800000
124.075700 24164.300000
128.070600 5876.600000
136.075600 21280.300000
137.083500 7642.900000
138.091400 17861.800000
154.086300 6424.800000
155.094100 10403.400000
172.096900 133860.600000

>ms2
59.049100 1871.400000
65.038500 1209.600000
67.041600 2960.800000
67.054100 4700.600000
68.049400 8877.200000
79.054200 2647.900000
80.049500 48638.300000
81.033500 1157.600000
81.057300 5662.500000
81.069900 4261.000000
82.041200 3297.800000
82.065100 8705.500000
83.049200 9448.800000
92.049500 1402.900000
93.057300 41947.900000
94.065100 80350.200000
95.072800 1405.900000
96.044400 4306.300000
96.080800 2858.300000
98.060100 5182.800000
102.054900 16089.800000
106.065100 13741.300000
108.080800 13095.000000
109.065300 1521.600000
110.060100 9649.400000
111.067800 125015.600000
112.075700 4882.300000
124.075700 20396.800000
128.070700 5808.400000
136.075700 18160.400000
137.083700 6079.300000
138.091300 12452.600000
154.086300 5375.300000
155.094100 7786.300000
172.096900 86309.400000

>ms2
59.049000 1401.600000
67.041800 1329.200000
67.054100 5044.800000
68.049500 7956.400000
79.054100 2352.000000
80.049500 57389.900000
81.057300 4182.700000
81.069800 3793.000000
82.041400 3264.500000
82.065100 9930.000000
83.049100 8445.400000
91.054400 1357.800000
92.049600 2518.300000
93.057300 35975.900000
94.065100 74492.700000
95.072900 1382.700000
96.044400 3948.700000
96.080800 2228.200000
98.060100 3934.800000
102.055000 11911.600000
106.065100 12020.500000
108.080700 9767.800000
110.060000 9961.900000
111.067800 110198.300000
112.075900 2319.200000
124.075700 17278.600000
128.070400 4232.700000
136.075600 13027.300000
137.083600 3947.800000
138.091400 10161.700000
154.086300 3891.900000
155.093800 4606.200000
172.096800 49157.300000

>ms2
59.049100 2196.100000
60.044200 1362.600000
65.038700 1331.400000
67.041600 2720.700000
67.054200 5739.600000
68.049500 8131.300000
79.054300 1915.700000
80.049500 68283.700000
81.057300 4447.400000
81.070000 2477.900000
82.041200 2306.000000
82.065100 8034.600000
83.049200 7290.100000
91.054000 1181.500000
92.049600 3033.900000
93.057300 34157.800000
94.065100 67551.000000
96.044400 2966.300000
96.080800 2687.300000
98.060100 3723.900000
102.055000 10967.800000
106.065100 12033.500000
108.080800 8159.300000
110.060000 7509.200000
111.067900 89410.300000
112.076100 1876.000000
124.075700 14100.000000
128.070500 3050.700000
136.075700 11688.300000
137.083500 3043.900000
138.091300 6108.300000
154.086200 2670.800000
155.094400 3498.000000
172.096900 29896.700000

>ms2
59.049100 1193.100000
60.044300 1350.100000
67.041700 2520.400000
67.054200 5297.600000
68.049500 8132.600000
79.054200 2573.200000
80.049500 68652.200000
81.057400 5330.600000
81.069800 1305.200000
82.041300 1450.600000
82.065200 6875.600000
83.049100 5246.000000
91.054100 1783.200000
92.049500 4232.200000
93.057300 33592.700000
94.065200 57659.400000
96.044600 2336.700000
96.080700 1225.500000
98.060100 2739.200000
102.055000 8265.300000
106.065200 13696.500000
108.080800 8087.100000
110.060000 9761.300000
111.067900 71257.600000
112.075700 2227.200000
124.075700 9421.200000
128.070700 2115.700000
136.075600 9142.900000
138.091400 4464.000000
154.086700 1824.100000
155.094300 1882.600000
172.097000 16557.600000

