>compound NA04976770
>parentmass 350.15980000000013
>ionization [M+H]+
>formula C18H23NO6
>rt 57.795000
>profile orbitrap
#smiles_iso C/C=C\1/C[C@@]2([C@@](O2)(C(=O)OCC3=CCN4[C@H]3[C@@H](CC4)OC1=O)C)CO
#smiles_can CC=C1CC2(C(O2)(C(=O)OCC3=CCN4C3C(CC4)OC1=O)C)CO
#inchikey NOQVBHHOUTTZGE-LUZNJDLOSA-N
#pubchem_id 76308652
#mb_accession NA002449,NA002450,NA002451,NA002452,NA002453,NA002844,NA002845,NA002846,NA002847,NA002848,NA003224,NA003225,NA003226,NA003227,NA003228,NA003589,NA003590,NA003591,NA003592,NA003593

>ms2
350.159600 194037.100000

>ms2
350.159900 623101.800000

>ms2
350.159900 518285.800000

>ms2
350.159900 426316.500000

>ms2
350.160000 349528.600000

>ms2
79.054200 1022.300000
93.070200 1518.900000
94.065100 4125.100000
96.080700 2419.000000
103.054300 1538.200000
109.064300 1239.600000
118.065100 2559.600000
120.080700 45429.800000
121.088300 1921.800000
122.096500 2308.800000
125.060100 1271.300000
138.091300 33339.800000
141.054600 1818.700000
164.106900 7117.900000
165.054900 1136.700000
322.164800 12964.500000
350.159700 947089.600000

>ms2
67.054100 1491.900000
68.049500 1776.400000
79.054300 1530.600000
80.049500 4323.600000
81.070000 1869.000000
82.065000 3349.100000
91.054100 2416.100000
92.049700 1572.400000
93.069900 9383.100000
94.065100 11424.200000
95.085400 984.400000
96.080800 6520.400000
103.054300 3638.900000
106.064700 1875.000000
108.080800 2231.700000
109.064700 1509.300000
110.060000 3188.600000
110.096000 2638.700000
111.044400 1343.200000
118.065100 4591.000000
120.080700 100589.500000
121.064900 1855.300000
121.088700 4130.300000
122.096300 7961.900000
123.043900 1769.700000
125.059800 2726.700000
136.075500 1993.200000
138.091300 75237.200000
141.054700 4624.700000
146.096200 1017.500000
148.112100 1220.800000
156.102500 1315.700000
164.107000 17100.700000
165.054500 3282.400000
167.071100 1625.900000
182.117700 1445.000000
192.101600 1400.500000
220.133000 2306.200000
320.149300 1712.900000
322.164900 20024.000000
350.159800 740878.900000

>ms2
67.054200 4410.800000
68.049400 3731.200000
79.054200 3459.000000
80.049500 5501.000000
81.069900 2095.600000
82.065200 5412.800000
83.049300 2118.200000
91.054200 6682.300000
92.049400 1213.400000
93.069900 15804.100000
94.065100 19194.700000
95.049000 2143.800000
95.085300 1930.300000
96.080700 10612.600000
97.064800 1687.400000
103.054100 5038.400000
106.065100 4248.100000
108.080700 6513.400000
109.064900 3947.300000
110.060000 4341.100000
110.096400 7919.500000
111.044000 3754.700000
118.065100 8743.300000
120.080700 130625.500000
121.064500 4068.100000
121.088600 6967.100000
122.096400 10524.600000
123.043900 4416.400000
123.080400 1993.900000
125.059800 3818.100000
136.075700 2747.200000
136.112200 1343.300000
137.059800 1299.300000
138.091300 99534.900000
139.074900 2484.000000
141.054600 7619.800000
146.096200 1651.100000
148.112200 1668.800000
149.059400 2994.700000
151.075800 1431.300000
156.101900 2939.800000
164.107000 21746.800000
165.054900 4702.200000
167.070100 1776.100000
182.117300 3538.000000
192.102200 1919.800000
220.133100 3967.300000
320.149600 1301.900000
322.164900 18678.700000
350.159800 415018.100000

>ms2
67.054200 7003.900000
68.049400 3925.800000
77.038500 2007.300000
79.054300 3691.000000
80.049500 10159.400000
81.069900 4618.400000
82.065200 7002.000000
83.049100 2524.400000
91.054200 8061.400000
93.069900 19690.500000
94.065100 23576.100000
95.049000 3229.300000
95.072900 2149.200000
95.085900 2292.800000
96.080800 16898.900000
97.064900 2061.800000
103.054200 7368.500000
106.065100 4423.100000
108.080700 7766.100000
109.064800 6029.400000
110.059900 3259.800000
110.096500 8243.600000
111.044100 3608.900000
118.065200 7253.900000
119.073200 1632.900000
120.080800 113557.300000
121.064700 4639.500000
121.088600 5837.900000
122.096400 14482.800000
123.043900 4182.800000
123.080100 1707.800000
125.059600 3730.700000
136.075500 3280.600000
136.112600 1101.300000
137.059400 1515.000000
138.091300 102456.300000
139.075500 1273.600000
140.107600 932.400000
141.054700 7599.700000
146.096200 2138.600000
148.112300 1667.700000
149.059600 2252.800000
151.075300 1161.400000
156.101900 1612.600000
164.107000 18987.300000
165.054800 3650.800000
167.069800 1855.300000
182.117300 2820.300000
192.102600 1445.000000
220.133600 5730.900000
322.165000 12693.500000
350.159900 190567.100000

>ms2
67.054100 7734.600000
68.049400 4907.300000
77.038600 2830.400000
79.054200 6150.500000
80.049500 7828.500000
81.069900 2901.200000
82.065200 8643.000000
83.049200 1659.700000
91.054200 10366.000000
92.049400 1307.400000
93.069900 19781.600000
94.065100 24518.200000
95.049100 3067.900000
95.073200 2329.900000
95.085600 1360.600000
96.080700 19391.400000
97.064700 1860.300000
103.054100 6232.900000
106.064800 3451.600000
108.080700 6675.900000
109.064800 6139.700000
110.060200 2693.200000
110.096300 8160.100000
111.044000 5247.500000
118.065100 7479.400000
119.073000 2219.000000
120.080800 85143.000000
121.064800 3582.000000
121.088600 6786.800000
122.096400 11552.700000
123.044000 4254.200000
125.059600 4119.000000
136.075500 2718.900000
136.112100 1942.400000
137.060100 1807.400000
138.091300 71844.900000
139.075400 1556.500000
140.106900 1426.100000
141.054600 5754.200000
146.096200 2046.700000
149.060100 1289.700000
156.101900 1608.800000
164.106800 12942.900000
165.054400 3670.900000
182.117600 1964.300000
220.133300 6126.400000
322.165000 7179.400000
350.159800 71102.500000

>ms2
53.038400 1044.600000
55.054300 2056.200000
65.038500 1961.300000
67.054200 31242.800000
68.049400 14381.700000
69.033500 1765.200000
69.057500 1435.000000
69.069900 2760.900000
77.038600 7645.300000
79.054300 16398.000000
80.049600 30452.700000
81.033700 1751.700000
81.057400 4357.800000
81.069900 11961.300000
82.065200 24725.100000
83.049200 8884.800000
84.044500 2513.000000
84.080900 1449.700000
86.060000 1979.800000
91.054300 29291.000000
92.049600 4546.600000
93.069900 46895.200000
94.065200 79718.400000
95.049200 11201.100000
95.073000 7956.200000
95.085500 7051.800000
96.080800 60046.100000
97.064900 6775.400000
99.044300 2198.000000
103.054300 18863.500000
105.057200 2981.200000
105.069900 4421.300000
106.065200 12161.400000
107.049600 1954.900000
107.073100 3563.600000
108.080800 21063.400000
109.064900 19759.700000
109.088600 2434.200000
110.060100 7478.700000
110.096500 23047.700000
111.044100 9201.300000
111.080400 3314.900000
113.059900 1330.600000
118.065200 21690.800000
119.073000 4811.900000
120.080800 196692.800000
121.064800 12086.800000
121.088600 19548.700000
122.096500 34754.100000
123.044000 9319.900000
123.080800 2650.500000
125.059800 8703.900000
136.075700 7396.500000
136.112200 3626.600000
137.059900 5161.900000
138.091400 177295.400000
139.039200 1299.500000
139.075500 3146.300000
139.099400 1819.700000
140.107200 3142.700000
141.054800 11796.300000
146.096700 4223.300000
148.112200 2324.700000
149.059500 4086.100000
154.086500 2686.900000
156.102100 4466.500000
164.107100 23550.500000
165.054700 5396.000000
174.090500 1518.800000
182.080400 1538.400000
182.117600 4923.900000
192.102500 2709.900000
220.133300 17222.000000
322.165200 10943.200000
350.160100 76178.900000

>ms2
53.038500 2781.500000
55.054200 2602.700000
65.038500 2557.500000
67.054200 34052.400000
68.049500 16145.500000
69.033500 1447.200000
69.057400 1368.100000
69.069800 3606.200000
77.038600 11330.200000
79.054300 19002.200000
80.049500 27548.000000
81.033700 2978.100000
81.057300 6318.200000
81.069900 14622.100000
82.065200 26990.200000
83.049200 9491.700000
84.044400 3146.800000
84.080900 2114.700000
86.059900 1320.400000
91.054300 34102.100000
92.049500 6834.900000
93.057400 2875.900000
93.069900 41333.400000
94.065200 82614.100000
95.049200 10909.900000
95.073000 9854.600000
95.085600 4079.500000
96.080800 61192.700000
97.064800 7281.100000
99.044000 2300.600000
103.054300 19579.500000
105.057300 4605.700000
105.069800 4889.200000
106.065200 11105.100000
107.048800 2296.100000
107.073000 4476.100000
108.080800 21299.000000
109.064800 20615.400000
109.088500 2928.200000
110.060000 6295.800000
110.096500 20109.700000
111.044100 10441.000000
111.080500 2344.100000
113.059200 1293.300000
118.065200 20121.300000
119.073100 5190.600000
120.080800 150264.300000
121.064800 9702.900000
121.088600 13664.200000
122.096400 29820.000000
123.044100 8684.000000
123.080200 2402.200000
125.059800 9021.800000
136.075800 6658.300000
136.112300 2226.100000
137.059500 3742.800000
138.091400 123423.600000
139.039200 1029.800000
139.075500 2347.500000
139.099800 1514.500000
140.106900 3858.700000
141.054500 7283.300000
146.096500 4096.600000
148.111800 1972.300000
149.059400 3301.900000
154.085700 1277.700000
156.101800 3569.500000
164.107100 14159.900000
165.054900 3300.200000
174.091800 1598.800000
182.080900 1600.200000
182.117600 1842.900000
192.102000 1817.100000
220.133300 15306.200000
236.127600 1522.500000
322.165200 4561.800000
350.159900 24701.000000

>ms2
53.038500 1683.300000
55.054000 2173.600000
65.038500 3016.400000
67.041600 2530.700000
67.054200 35214.700000
68.049400 12368.800000
69.057300 1576.300000
69.069900 2226.800000
77.038600 10619.200000
79.054200 15863.100000
80.049500 25531.700000
81.033600 2394.500000
81.057300 5844.000000
81.069900 13468.600000
82.065100 25710.100000
83.049200 7989.400000
84.044400 2722.400000
84.080500 1072.800000
86.060100 1486.200000
91.054300 26883.700000
92.049300 4116.300000
93.057400 3182.600000
93.069900 30018.500000
94.065100 73296.100000
95.049200 8591.300000
95.072900 6422.100000
95.085500 3427.300000
96.080800 45818.100000
97.064800 3555.800000
103.054200 16537.900000
105.057200 3999.600000
105.069900 5280.600000
106.065200 7809.900000
107.073000 3185.000000
108.080800 16238.600000
109.064800 17634.300000
109.088500 2620.600000
110.059900 4441.300000
110.096400 17607.100000
111.044100 6601.100000
111.080700 1847.800000
118.065100 16957.200000
119.072900 4158.600000
120.080800 99037.700000
121.064800 6857.200000
121.088700 9152.900000
122.096400 24932.500000
123.044100 5999.700000
123.080200 2572.700000
125.059600 4669.500000
136.075600 5859.200000
136.112400 1314.900000
137.059700 3049.800000
138.091300 70260.000000
139.075300 1023.800000
139.099200 1283.700000
140.107400 1798.300000
141.054600 3291.100000
146.096400 3409.300000
156.102200 2290.600000
164.107100 6450.200000
165.054800 1629.500000
182.117600 1366.900000
220.133200 9745.800000
236.128800 1417.500000
350.160100 5739.200000

>ms2
55.054000 1069.000000
65.038400 2207.500000
67.041600 1980.800000
67.054200 25295.800000
68.049500 9981.000000
69.033600 1140.700000
69.057000 1407.800000
69.069700 1587.700000
77.038600 8911.300000
79.054300 12448.300000
80.049500 20298.700000
81.057400 4158.500000
81.069900 9139.600000
82.065200 15098.200000
83.049200 4638.900000
84.044400 1683.600000
91.054300 22625.200000
92.049500 3440.800000
93.057400 3853.000000
93.069900 20002.400000
94.065200 49245.500000
95.049200 6829.000000
95.073000 4609.800000
95.085700 1682.100000
96.080800 33941.200000
97.064800 2829.900000
99.043800 1234.600000
103.054300 12803.800000
105.057300 3650.500000
105.069900 2050.900000
106.065100 6186.400000
107.072600 2835.300000
108.080800 12111.500000
109.064800 12829.900000
110.060200 3284.900000
110.096500 9282.100000
111.044100 4464.400000
118.065100 11131.400000
119.072900 2332.000000
120.080800 57188.400000
121.064900 4156.100000
121.088800 6781.200000
122.096500 12493.100000
123.044100 3298.300000
125.059900 3128.800000
136.075600 2159.400000
137.059400 1068.600000
138.091400 35247.400000
146.096600 2296.200000
164.107400 2760.600000
220.133400 5471.800000

>ms2
65.038500 2006.500000
67.041600 1661.900000
67.054200 21353.400000
68.049400 7532.800000
77.038600 7006.000000
79.054300 8098.100000
80.049500 14615.100000
81.033500 1233.800000
81.057300 4687.700000
81.070000 5968.800000
82.065200 9160.100000
83.049200 4317.800000
91.054300 16040.400000
92.049500 4749.200000
93.057300 1923.400000
93.069900 12836.200000
94.065100 36663.800000
95.049000 3622.700000
95.073000 2658.600000
96.080800 19322.600000
97.064600 2447.400000
103.054100 6053.600000
105.057300 2792.800000
105.069900 3333.900000
106.065100 3898.000000
108.080800 8693.800000
109.064800 7893.600000
110.060100 1978.200000
110.096400 6994.100000
111.043900 2902.100000
118.065100 7632.800000
119.073100 2041.400000
120.080800 33108.700000
121.064700 2253.600000
121.088700 2912.600000
122.096500 8968.800000
123.044000 2385.800000
125.059700 2236.600000
136.075700 2163.000000
137.059700 1364.600000
138.091300 14833.600000
220.133200 3951.900000

>ms2
53.038500 1599.000000
55.054100 1638.300000
65.038600 4291.300000
67.041600 4347.800000
67.054200 42366.000000
68.049400 14420.400000
69.033500 1272.100000
69.069800 3728.800000
77.038600 15543.200000
78.033800 1493.400000
79.054300 20855.200000
80.049500 30610.000000
81.033400 1261.500000
81.057300 10195.400000
81.069900 12367.800000
82.065100 20207.600000
83.012500 2134.600000
83.049200 8477.600000
83.073000 1342.400000
84.044300 2402.900000
91.054200 33349.400000
92.049500 7284.300000
93.057400 6455.300000
93.069900 19840.600000
94.065100 70705.400000
95.049100 8840.400000
95.073000 5182.400000
95.085500 2625.000000
96.080800 36856.400000
97.065000 1849.900000
103.054200 12651.400000
105.057200 6116.300000
105.069700 4337.100000
106.065200 7600.100000
107.049200 1107.300000
107.073200 3428.600000
108.080700 14474.900000
109.064800 13611.400000
109.088400 1685.100000
110.060000 3535.900000
110.096500 10226.000000
111.044000 5258.400000
118.065100 15304.500000
119.073000 3363.800000
120.080800 57192.500000
121.064900 2944.700000
121.088600 3593.200000
122.096400 15851.100000
125.060000 2436.600000
136.075700 3608.300000
138.091400 18751.800000
146.096700 1946.400000
220.133800 3270.700000

>ms2
53.038400 1093.600000
55.054200 1447.200000
65.038600 5897.000000
67.041600 4726.900000
67.054200 49032.300000
68.049400 15986.000000
69.033400 1481.500000
69.069900 3625.500000
77.038600 20533.500000
78.033700 1314.500000
79.054200 22522.900000
80.049500 33479.900000
81.033600 1212.900000
81.057300 10315.000000
81.069900 12242.200000
82.065100 21106.600000
83.012700 2468.000000
83.049200 7256.800000
83.073000 1260.200000
84.044500 1219.000000
91.054200 30511.100000
92.049400 7564.200000
93.057300 7754.500000
93.069900 16921.100000
94.065100 71206.400000
95.049000 7285.700000
95.072900 5291.300000
95.085700 1535.800000
96.080700 30188.900000
97.064900 2701.900000
103.054200 13238.500000
105.057300 5441.700000
105.069800 5176.900000
106.065200 7660.500000
107.048900 1317.600000
107.072900 5284.200000
108.080800 16626.800000
109.064800 13277.600000
109.088800 1377.700000
110.060000 3701.500000
110.096300 6378.800000
111.044000 4566.800000
117.057100 2248.200000
118.065100 15651.900000
119.072900 3830.300000
120.080800 50277.400000
121.064900 2163.900000
121.088700 3716.800000
122.096400 12035.700000
125.059600 1423.400000
136.075800 1747.300000
138.091400 12500.000000
146.096000 1469.100000
220.133600 1365.400000

>ms2
65.038600 5691.100000
67.041600 5618.400000
67.054200 39145.400000
68.049500 11115.300000
69.033700 957.600000
69.069800 2351.700000
77.038600 15772.400000
79.054200 17950.500000
80.049500 27726.800000
81.057300 9293.600000
81.069900 10216.700000
82.065100 15811.900000
83.049200 5436.600000
91.054200 29249.800000
92.049400 4892.700000
93.057300 8493.800000
93.069900 12287.200000
94.065100 55576.700000
95.049000 4190.500000
95.072900 4524.200000
95.085400 2057.000000
96.080800 19875.000000
103.054200 8485.500000
105.057300 5142.300000
105.070000 3217.000000
106.065200 5625.600000
107.072900 3067.600000
108.080700 11295.000000
109.064800 9821.300000
110.060300 1927.900000
110.096400 4200.900000
111.044100 3013.400000
117.057700 1257.700000
118.065100 11566.900000
119.072500 1759.900000
120.080800 33564.700000
121.064900 1798.200000
121.088400 2244.000000
122.096500 7721.700000
125.059900 1043.900000
138.091300 6046.100000

>ms2
65.038500 5303.300000
67.041600 4313.900000
67.054200 30149.300000
68.049500 9931.000000
69.069900 1554.500000
77.038600 12024.600000
79.054300 11704.400000
80.049500 22881.200000
81.057300 5663.800000
81.070000 7111.200000
82.065200 10841.000000
83.012900 1223.600000
83.049100 3022.100000
91.054200 20433.100000
92.049400 3756.400000
93.057300 6007.100000
93.070000 6844.500000
94.065100 34965.800000
95.049100 3588.700000
95.073000 1808.000000
96.080800 12278.600000
103.054200 5212.400000
105.057300 3038.700000
105.070000 3070.200000
106.065100 3531.800000
107.073100 1919.100000
108.080800 8355.300000
109.064800 6130.900000
110.060200 1831.700000
110.096600 2031.000000
111.044100 2255.100000
117.057600 1406.500000
118.065100 10128.200000
119.073000 1573.300000
120.080800 16498.900000
122.096600 3818.500000
136.075800 1450.900000
138.091200 3421.100000

>ms2
65.038500 4692.900000
67.041700 2123.500000
67.054200 18773.800000
68.049500 5930.200000
69.069700 1344.700000
77.038600 7443.600000
78.034200 1279.200000
79.054300 8741.100000
80.049500 15651.400000
81.057400 5378.500000
81.069900 4063.900000
82.065200 6440.200000
83.049300 1960.600000
91.054200 13748.000000
92.049500 3077.500000
93.057300 2885.800000
93.070000 3443.900000
94.065100 21344.200000
95.049100 1779.900000
96.080700 7174.400000
103.054200 2964.000000
105.057300 2073.000000
106.065200 3682.600000
108.080900 5631.600000
109.064900 2480.500000
111.043800 1176.400000
118.065100 5498.700000
119.073000 1259.100000
120.080800 13298.600000
122.096600 2280.300000
138.091300 1113.400000

