>compound NA05551674
>parentmass 247.13289999999998
>ionization [M+H]+
>formula C15H18O3
>rt 538.605000
>profile orbitrap
#smiles_iso C[C@H]1[C@@H]2CC[C@]3(C=CC(=O)C(=C3[C@H]2OC1=O)C)C
#smiles_can CC1C2CCC3(C=CC(=O)C(=C3C2OC1=O)C)C
#inchikey XJHDMGJURBVLLE-BOCCBSBMSA-N
#pubchem_id 221071
#mb_accession NA002324,NA002325,NA002326,NA002327,NA002328,NA002719,NA002720,NA002721,NA002722,NA002723,NA003099,NA003100,NA003101,NA003102,NA003103,NA003464,NA003465,NA003466,NA003467,NA003468

>ms2
173.096100 31386.300000
229.121700 2711.900000
247.132900 98474.500000

>ms2
173.096200 55317.900000
201.127600 1361.200000
229.122500 1825.500000
247.132900 95505.200000

>ms2
135.080400 2708.400000
145.101400 1606.300000
161.095700 1199.800000
173.096200 332650.700000
191.107100 1185.000000
201.127500 15800.500000
229.122300 10986.300000
247.133000 254260.000000

>ms2
135.080400 6036.200000
145.101100 3024.800000
173.096000 369494.200000
191.107600 1267.600000
201.127200 22842.600000
229.122100 8857.300000
247.132800 119786.500000

>ms2
135.080300 9705.700000
145.101200 3272.500000
161.096200 1797.000000
173.096100 347950.700000
201.127300 25763.200000
229.122000 8075.200000
247.132800 51828.600000

>ms2
135.080500 24911.400000
145.101200 13809.400000
149.096200 5583.900000
158.072800 1287.000000
159.080700 1959.200000
161.096000 4743.400000
173.096200 582992.200000
174.104100 10686.900000
187.111900 2869.700000
191.107100 3466.900000
201.127500 50622.400000
229.122000 8234.400000
247.133000 40952.900000

>ms2
135.080400 24324.000000
145.101200 19096.900000
149.096000 5480.100000
155.085500 3420.200000
158.072700 4436.000000
159.080500 2483.700000
161.096000 5383.400000
173.096100 452721.500000
174.103900 8753.800000
187.111300 2280.800000
191.106400 3132.500000
201.127300 40783.200000
229.122400 4750.100000
247.132900 12466.700000

>ms2
135.080500 25799.700000
145.101200 28203.700000
149.096100 6603.000000
155.085400 5305.100000
158.072700 8395.600000
159.080500 3179.600000
161.096400 4921.400000
172.088500 1413.100000
173.096200 356264.400000
174.104100 10186.900000
186.104600 2082.500000
187.111700 1706.400000
191.106800 2555.100000
201.127400 33535.100000
229.121700 2817.900000
247.133500 3841.900000

>ms2
135.080400 24376.600000
145.101200 30865.700000
149.096100 4941.000000
155.085500 8866.800000
158.072700 13001.200000
159.080500 3187.600000
161.095900 4006.400000
172.088300 1690.100000
173.096200 267066.300000
174.104000 9801.200000
186.104100 3450.000000
187.111600 1661.500000
201.127400 20794.200000
229.122100 1565.700000
247.132900 1203.700000

>ms2
135.080400 22800.000000
145.101200 36742.200000
149.096000 4739.000000
155.085400 11805.100000
158.072600 20493.500000
159.080500 4426.600000
161.096200 3774.200000
172.088600 2280.400000
173.096100 202858.100000
174.104000 9753.300000
186.104200 3438.100000
187.111300 1285.800000
201.127400 15957.300000

>ms2
91.054000 1357.000000
105.070100 1437.800000
117.069800 1955.700000
130.077700 1621.100000
131.085700 3122.400000
135.080500 33396.400000
143.085900 1017.600000
145.101300 55447.000000
149.096300 6601.200000
155.085600 19786.600000
158.072700 39163.800000
159.080600 7370.700000
160.088600 1903.800000
161.096200 5693.400000
172.088600 5092.700000
173.096200 212713.200000
174.104100 10671.700000
186.104000 5000.900000
201.127300 16184.400000

>ms2
91.054300 1556.700000
105.069900 2740.200000
117.069900 3631.600000
129.070000 1878.500000
131.085500 2724.200000
135.080400 28217.200000
143.085600 1123.200000
145.101200 45394.800000
146.072000 1224.600000
149.096200 5122.500000
155.085500 17995.300000
158.072600 45119.600000
159.080500 9078.500000
160.088200 1412.700000
161.096300 4273.700000
172.088400 4583.900000
173.096100 141849.400000
174.103900 8735.900000
186.103900 5342.800000
201.127200 8333.500000

>ms2
91.054300 2769.300000
105.069900 3286.000000
117.069900 5667.200000
129.069800 1382.400000
130.077600 1942.500000
131.085300 3786.400000
135.080500 26844.500000
145.101300 39247.200000
149.096100 3532.000000
155.085600 20723.400000
158.072700 55919.500000
159.080500 10332.400000
160.088500 1956.800000
161.096200 3420.700000
171.080900 1650.700000
172.088300 4237.000000
173.096200 104878.400000
174.104000 7425.800000
186.104000 5445.700000
201.127300 5119.600000

>ms2
79.054100 1824.600000
91.054300 3549.100000
105.069900 4150.200000
107.085300 1339.400000
117.069800 4701.600000
129.069900 3734.600000
130.077500 4837.900000
131.085500 4252.100000
135.080400 26368.700000
143.085700 1664.300000
145.101200 34474.900000
146.072500 1917.500000
149.096200 3027.200000
153.070000 1986.700000
155.085700 15711.600000
157.065100 1137.600000
158.072700 62439.300000
159.080500 11800.000000
160.088600 2641.400000
161.096400 3145.500000
171.080600 2684.600000
172.088200 4085.300000
173.096200 79103.700000
174.104000 4226.500000
186.103800 4865.600000
201.127000 2785.900000

>ms2
79.054200 1757.700000
91.054400 4416.100000
105.069900 5159.900000
107.085500 1539.700000
117.070000 6387.300000
129.069900 3614.900000
130.077700 4096.300000
131.085700 4207.800000
135.080500 21029.500000
143.085500 2246.000000
145.101300 24381.200000
149.096200 1426.500000
153.069500 2224.700000
155.085600 13834.100000
157.064500 2015.800000
158.072700 64067.700000
159.080600 10128.200000
161.096100 2079.900000
171.080600 3090.100000
172.088200 3834.000000
173.096200 54227.400000
174.103800 3333.600000
186.103900 2501.900000
201.127400 1917.100000

>ms2
67.054000 1100.200000
77.038700 1231.400000
79.054200 6142.900000
91.054200 28309.000000
93.070000 2086.800000
103.054300 1504.600000
105.069800 22863.600000
107.085500 4777.000000
115.054200 12266.400000
116.062000 2836.000000
117.069800 21383.000000
119.085600 1567.800000
121.064600 2669.800000
121.100700 2344.800000
128.061900 6069.700000
129.069800 19418.500000
130.077600 23491.600000
131.085500 13112.800000
133.101500 2447.000000
135.080400 66662.300000
140.061800 2089.700000
141.069700 2031.500000
143.085500 8187.900000
144.056900 2392.100000
144.094000 1082.300000
145.064600 5344.800000
145.101200 65291.400000
146.072500 6321.100000
149.096100 5061.500000
153.069800 10222.900000
154.077800 4857.900000
155.085500 43536.600000
156.093700 1054.700000
157.064900 11401.900000
158.072600 218751.300000
159.080400 36375.000000
160.088200 5686.900000
161.095900 6271.100000
171.080400 12818.900000
172.088300 10476.100000
173.096100 119541.300000
174.103900 7872.900000
186.103800 10865.700000
201.127500 3746.400000

>ms2
77.038800 1867.900000
79.054200 7275.200000
91.054200 29377.100000
93.069800 1400.700000
103.054200 2951.000000
105.069900 26823.800000
107.085500 4848.300000
115.054200 16794.700000
116.062000 3578.600000
117.069900 22187.600000
119.085300 2555.800000
121.065000 1323.800000
121.101600 1405.900000
128.062000 7024.200000
129.069900 28478.400000
130.077700 30005.900000
131.085500 12898.100000
133.100700 1753.400000
135.080400 54740.300000
140.062500 1937.300000
141.070000 5556.200000
143.085600 8718.600000
144.057100 2993.400000
144.092700 1895.000000
145.064900 7505.100000
145.101200 47740.700000
146.072600 6714.000000
149.096200 3635.700000
153.069900 12208.900000
154.077700 4241.800000
155.085600 37076.100000
156.093700 1011.100000
157.064900 18614.600000
158.072600 229983.900000
159.080500 35604.100000
160.088100 5638.700000
161.096100 4543.000000
171.080500 13970.100000
172.088200 9412.900000
173.096100 88160.000000
174.103900 4536.400000
185.095300 1155.200000
186.103700 9122.100000
201.127000 1456.700000

>ms2
67.054500 1131.500000
77.038600 2225.700000
79.054200 8034.100000
91.054200 33428.000000
103.054600 1193.900000
105.069800 25605.100000
107.085400 3980.000000
115.054200 20292.600000
116.062000 5169.000000
117.069800 19534.500000
119.085300 1629.800000
121.064900 1961.500000
128.061900 8339.500000
129.069800 38256.700000
130.077700 32284.200000
131.049100 2063.900000
131.085400 11920.700000
133.101300 1779.900000
135.080400 42313.800000
140.061800 4452.300000
141.069900 4419.200000
143.085500 7726.000000
144.056900 4983.800000
145.064700 8163.400000
145.101100 32610.000000
146.072700 5465.500000
153.069800 10464.700000
154.077700 4830.400000
155.085500 30528.500000
156.093700 1606.900000
157.064800 22431.900000
158.072600 190758.700000
159.080400 30999.000000
160.088100 2923.800000
161.096200 2891.700000
171.080300 11381.200000
172.088200 7428.100000
173.096100 52929.100000
174.103900 2417.500000
185.095600 1867.100000
186.103900 5847.700000

>ms2
79.054200 6706.200000
91.054200 30361.000000
93.069500 1053.600000
103.054300 2243.200000
105.069900 24750.100000
107.085500 4022.800000
115.054200 22437.900000
116.062000 5634.100000
117.069900 14000.500000
119.085500 1716.800000
121.064700 1337.200000
128.062100 10221.800000
129.069800 39318.300000
130.077700 27835.000000
131.049200 1390.200000
131.085600 8635.300000
133.101200 1227.000000
135.080400 29865.100000
140.061900 3897.200000
141.069800 4997.600000
143.085500 5449.200000
144.056800 5100.000000
144.093600 940.300000
145.064700 7165.700000
145.101200 18436.800000
146.072600 5057.500000
153.069800 9621.900000
154.077700 4113.800000
155.085500 14627.500000
157.064800 22875.300000
158.072600 140889.500000
159.080500 19903.300000
160.088800 1942.400000
171.080400 12111.200000
172.088500 4444.400000
173.096100 30480.400000
185.095900 1606.800000
186.104100 3479.800000

>ms2
67.054400 907.500000
77.038500 2208.600000
79.054200 6073.600000
91.054200 25749.200000
103.054200 1644.900000
105.069800 15967.200000
107.085700 1987.800000
115.054200 22581.600000
116.062000 5403.100000
117.069900 10136.500000
128.062000 9761.000000
129.069900 38089.400000
130.077700 22585.300000
131.049200 2665.100000
131.085600 6226.300000
135.080500 18862.300000
140.062100 4412.900000
141.069700 6525.800000
143.085700 4696.800000
144.056900 3331.500000
145.064700 7727.000000
145.101200 9642.300000
146.072900 4218.100000
153.069900 7106.100000
154.077800 3393.600000
155.085600 9547.600000
157.064800 26156.100000
158.072700 97039.400000
159.080600 13576.400000
171.080400 7884.600000
172.087800 2992.600000
173.096100 15047.500000

