>compound NA06158915
>parentmass 352.17550000000006
>ionization [M+H]+
>formula C18H25NO6
>rt 62.010000
>profile orbitrap
#smiles_iso C[C@@H]1C[C@]2([C@@H](O2)C)C(=O)O[C@@H]3CCN4[C@@H]3C(=CC4)COC(=O)[C@]1(C)O
#smiles_can CC1CC2(C(O2)C)C(=O)OC3CCN4C3C(=CC4)COC(=O)C1(C)O
#inchikey IAPHXJRHXBQDQJ-WKMWQDDRSA-N
#pubchem_id 442741
#mb_accession NA002270,NA002271,NA002272,NA002273,NA002274,NA002667,NA002668,NA002669,NA002670,NA002671,NA003049,NA003050,NA003051,NA003052,NA003053,NA003414,NA003415,NA003416,NA003417,NA003418

>ms2
352.175300 210167.000000

>ms2
352.175500 720536.200000

>ms2
280.153200 1201.500000
352.175600 632335.200000

>ms2
120.081000 2815.600000
123.104500 1352.100000
280.154800 5096.000000
308.150000 3382.700000
352.175800 447886.900000

>ms2
120.080900 5617.100000
123.104200 3274.700000
280.154700 12234.400000
308.149700 7555.400000
352.175600 300284.300000

>ms2
70.065000 1934.100000
80.049500 5888.000000
93.069700 1951.700000
94.065200 2681.100000
113.059900 1559.400000
115.075400 2614.300000
120.080800 35710.100000
121.088800 1066.300000
122.096500 17248.300000
123.104300 26845.000000
138.091500 3251.600000
140.107000 3953.200000
155.106700 17016.900000
162.091300 3641.000000
165.091600 1317.400000
183.101900 2696.000000
200.143300 1726.900000
218.154000 1932.300000
234.148600 6264.700000
236.164600 1506.800000
262.143900 19785.700000
264.159400 6610.300000
280.154500 66354.800000
308.149500 28231.700000
324.180600 3360.400000
352.175600 539218.500000

>ms2
70.065100 2973.900000
79.054300 1317.100000
80.049500 11088.400000
93.069900 2639.100000
94.065100 4958.600000
97.064900 1589.900000
105.070000 1460.300000
108.080800 1556.600000
113.059900 1872.400000
115.075500 3283.800000
120.080800 47591.500000
122.096400 28916.800000
123.104300 30088.700000
136.076300 1444.800000
138.091400 5239.900000
140.107000 6531.700000
146.096600 1641.100000
155.106700 26289.000000
162.091500 6192.100000
165.091100 2642.400000
183.101600 3503.300000
200.143100 2039.600000
216.139100 2626.400000
218.153500 2471.600000
234.149100 9303.000000
236.164700 1110.200000
262.143900 23846.100000
264.159600 7348.100000
280.154500 57878.500000
308.149500 29610.400000
324.180600 3547.500000
352.175600 259642.600000

>ms2
70.065000 3805.700000
79.054300 2001.800000
80.049500 9018.700000
93.070000 3831.400000
94.065200 6177.400000
95.085600 1329.300000
105.069800 2390.900000
108.080800 2832.900000
113.059600 2742.400000
115.075400 2909.400000
120.080800 43015.300000
121.088400 1780.300000
122.096400 29751.600000
123.104200 30325.000000
136.076100 1592.400000
137.096600 1425.700000
138.091400 5640.800000
140.106900 6841.900000
146.096500 1724.200000
147.081000 1253.800000
155.106600 31045.900000
162.091400 7143.600000
165.091700 2783.300000
183.101500 2739.500000
200.143300 2539.500000
216.137700 2370.700000
218.154100 2657.200000
234.148800 9585.600000
262.143600 17055.400000
264.159500 5526.100000
280.154300 35327.700000
308.149200 17025.600000
324.180100 4182.400000
352.175500 97655.800000

>ms2
70.065100 3586.700000
79.054300 2345.800000
80.049500 7584.200000
91.054400 1670.500000
93.069800 4597.500000
94.065100 6887.800000
95.085400 1212.400000
97.064700 984.900000
105.070000 3521.900000
108.080700 3241.900000
113.059800 3850.200000
115.075400 2125.800000
120.080800 38851.500000
121.088900 1159.800000
122.096400 27705.400000
123.104300 19972.700000
136.076300 1589.500000
137.095700 1240.200000
138.091300 7379.200000
140.107100 6063.700000
147.080300 1276.800000
155.106700 28395.900000
162.091400 5419.300000
165.091000 1784.000000
183.101700 4237.300000
200.143200 1647.300000
218.153500 1415.200000
234.148700 7184.400000
262.143600 8787.800000
264.159300 3285.400000
280.154400 16909.800000
308.149600 6942.200000
324.181100 2075.300000
352.175500 30005.900000

>ms2
70.065100 4314.700000
79.054100 2810.000000
80.049500 6144.600000
91.054200 2835.200000
93.069900 5023.600000
94.065200 6503.500000
105.069800 2585.300000
108.080800 3438.400000
113.059600 4144.800000
120.080800 25617.900000
122.096400 21604.800000
123.104200 13903.400000
137.095800 1098.900000
138.091200 3736.100000
140.107000 5025.800000
146.097100 1677.500000
155.106700 18664.900000
162.091300 4355.000000
183.101800 1758.100000
218.154800 1274.700000
234.148500 4405.000000
262.143900 2998.400000
264.160000 1676.600000
280.153900 6589.300000
308.149600 2917.400000
324.181600 1306.100000
352.175400 7868.800000

>ms2
67.054200 6918.100000
68.049500 3608.500000
69.033500 4318.800000
69.070000 3339.000000
70.065100 27559.000000
71.049100 3699.400000
77.038600 4605.700000
79.054300 17914.700000
80.049600 30030.400000
81.069900 4182.700000
82.065200 7131.700000
85.065000 2137.000000
87.044100 2056.600000
91.054300 13709.500000
93.070000 30420.900000
94.065200 40979.200000
95.049000 4267.100000
95.073000 6187.600000
95.085500 8511.100000
96.080800 7587.000000
97.064800 7042.800000
103.054200 3589.400000
105.069900 21063.900000
106.065300 4811.400000
107.073100 10599.900000
108.080800 19360.400000
109.064800 3191.900000
109.101200 4450.600000
110.060100 3783.500000
110.096500 7010.600000
111.080500 2018.000000
113.059800 21982.400000
115.075500 4285.900000
118.065200 4061.100000
119.073100 4178.600000
119.085500 3507.300000
120.080900 126141.600000
121.088700 9886.000000
121.101400 2558.900000
122.096500 93325.400000
123.080500 3897.700000
123.104300 51561.900000
132.081200 2033.400000
134.096500 4747.100000
136.076000 4188.400000
137.096200 10104.300000
138.091400 22133.800000
139.111400 1917.400000
140.070900 2614.000000
140.107100 24560.000000
144.081100 3538.900000
146.096500 4365.100000
147.080300 2603.100000
148.075700 3822.700000
148.111700 3408.600000
155.106800 81640.100000
162.091400 17681.200000
165.091100 7673.200000
172.112400 1398.300000
174.127600 2390.100000
183.102100 7589.300000
192.101500 2332.700000
210.113100 3315.500000
216.138400 3347.800000
234.149000 17530.000000
262.144100 10579.100000
264.159600 4989.100000
280.154400 15905.600000
352.175800 12143.200000

>ms2
67.054200 7413.200000
68.049400 4011.100000
69.033600 3155.200000
69.069700 2671.700000
70.065100 22940.000000
71.049200 3897.500000
77.038600 5914.100000
79.054300 18989.200000
80.049500 25988.500000
81.057100 2034.300000
81.070000 3596.000000
82.065200 7414.500000
85.064800 1749.900000
87.044100 1986.900000
91.054300 15015.400000
93.069900 27770.100000
94.065200 32144.900000
95.049200 5294.100000
95.073000 5478.300000
95.085600 7844.500000
96.080900 5750.400000
97.064900 6150.300000
103.054200 5736.500000
105.069900 15266.400000
106.065200 6733.600000
107.073000 8915.300000
108.080800 13341.100000
109.064800 3285.700000
109.101300 4552.500000
110.060200 2078.800000
110.096500 5749.000000
111.080500 2558.300000
113.059800 19471.200000
115.075300 2183.600000
118.065000 3289.500000
119.073300 2776.300000
119.085700 3709.300000
120.080900 92210.100000
121.088700 5917.800000
121.101200 2292.000000
122.096500 65841.900000
123.080100 1703.000000
123.104300 29275.000000
132.080700 2419.600000
134.096600 5195.400000
136.075700 2088.800000
137.096100 7436.200000
138.091400 15419.700000
140.070900 1643.800000
140.107100 21012.500000
144.080700 1545.000000
146.096500 3531.100000
147.080900 1152.800000
148.075500 2156.200000
148.111900 2410.000000
149.084100 961.600000
155.106800 47720.800000
162.091500 10081.100000
165.091000 4499.100000
172.112600 1936.700000
174.128000 2602.000000
183.101500 3570.100000
192.101200 1388.200000
210.112300 2584.100000
216.137500 1547.100000
234.148900 8395.900000
262.143400 3068.700000
264.159400 2250.000000
280.154500 4959.300000
352.175800 2498.700000

>ms2
67.054200 4696.500000
68.049500 3651.700000
69.033500 3031.100000
69.069900 2238.500000
70.065100 17479.500000
71.049100 3200.000000
77.038700 5021.700000
79.054200 14299.600000
80.049500 17074.700000
81.057300 2134.200000
81.069900 3858.000000
82.065200 6209.500000
85.064900 1745.500000
91.054200 12300.500000
93.070000 16390.700000
94.065100 19723.300000
95.049300 4571.700000
95.073000 3800.900000
95.085600 6846.200000
96.080900 4489.800000
97.064600 3944.000000
103.054300 4115.200000
105.069900 10821.800000
106.065300 4003.400000
107.073000 6948.800000
108.080800 10048.500000
109.064800 2759.200000
109.101100 2053.200000
110.060000 1357.200000
110.096500 3571.400000
113.059700 11786.600000
118.065400 3009.300000
119.073200 2682.400000
119.085600 1709.100000
120.080800 57334.600000
121.088700 3706.700000
122.096400 34686.500000
123.081000 1833.400000
123.104200 12284.700000
132.080300 1065.500000
134.096500 3427.700000
136.075600 1503.900000
137.096000 5234.200000
138.091400 7895.300000
139.111900 1186.200000
140.107100 13495.400000
144.080900 1245.600000
146.096300 1670.900000
148.075400 2410.100000
148.112500 1349.000000
149.083000 1020.000000
155.106700 23727.900000
162.091500 5399.600000
165.091800 2390.700000
174.128100 1297.600000
234.148400 2913.700000
280.154500 2262.300000

>ms2
67.054200 3867.000000
69.033300 1790.200000
69.069900 2349.900000
70.065200 8930.800000
71.049000 1535.800000
77.038700 3963.600000
79.054300 9297.700000
80.049600 11680.700000
81.057500 1669.600000
81.069900 2300.400000
82.065100 3649.400000
85.065000 1430.600000
91.054300 7696.900000
93.070000 10960.700000
94.065200 13939.600000
95.049300 2420.300000
95.073100 1868.900000
95.085400 2170.100000
96.080900 2668.400000
97.064900 2113.400000
103.054100 2279.800000
105.070000 6186.800000
106.065300 3977.100000
107.073100 4332.800000
108.080900 5495.400000
109.064800 2328.000000
109.101600 1569.300000
110.096900 2951.600000
113.059800 5979.000000
118.065300 2165.500000
119.072900 1075.100000
119.085700 1213.100000
120.080800 31575.100000
121.088700 1787.500000
122.096500 16904.500000
123.080400 1230.500000
123.104400 5253.900000
134.096400 1656.200000
137.096200 2971.700000
138.091500 2592.700000
140.107100 7590.500000
155.106800 8622.300000
162.091500 2388.200000
165.090400 1494.600000
234.149100 1486.800000

>ms2
67.054100 3212.700000
68.049500 1689.700000
69.033300 1418.900000
70.065100 7600.400000
77.038600 3388.900000
79.054300 7446.600000
80.049500 8330.700000
81.070000 1839.300000
82.065200 2928.300000
91.054200 6159.400000
93.070000 6809.100000
94.065200 9784.300000
95.049400 2057.800000
95.073300 1232.100000
95.085500 2286.900000
96.081000 1909.600000
103.054500 1983.100000
105.070000 4359.900000
106.065200 2515.800000
107.073000 3610.900000
108.080700 3948.700000
109.101500 1362.100000
110.096400 2240.300000
113.059600 4550.000000
118.065100 1497.500000
120.080800 16652.300000
121.088200 1301.900000
122.096500 8248.300000
123.104200 2758.200000
137.096000 1601.900000
138.091400 2322.500000
140.107100 3139.000000
155.106600 3755.900000

>ms2
67.054200 14238.800000
68.049400 4746.200000
69.033500 6884.900000
69.069900 3550.900000
70.065100 23486.800000
71.049100 3911.000000
77.038600 14599.700000
79.054300 23462.800000
80.049500 27549.900000
81.057400 4043.100000
81.069900 7786.500000
82.065100 12498.800000
85.064800 2277.300000
91.054200 25856.800000
92.049500 1825.200000
93.057400 3165.400000
93.069900 21977.600000
94.065100 36745.600000
95.049200 9025.900000
95.072900 4736.300000
95.085400 6763.000000
96.080700 6594.700000
97.064800 4079.100000
103.054200 7586.000000
105.057100 1176.100000
105.069900 12877.500000
106.065100 8957.400000
107.073000 11352.900000
108.080800 12757.200000
109.064800 4126.400000
109.089100 1163.200000
109.101200 3991.300000
110.059800 2156.900000
110.096400 8391.000000
111.080600 2739.700000
113.059800 11501.700000
118.065100 6694.300000
119.072900 3314.100000
119.085700 3337.200000
120.080800 62347.000000
121.088600 3143.300000
122.096400 24558.900000
123.104300 6167.300000
132.080700 2957.700000
134.096400 5801.000000
137.096300 4269.700000
138.091500 4791.100000
140.107100 13631.600000
144.080900 1931.900000
146.096400 2443.900000
155.106800 6324.700000
162.091400 2037.900000

>ms2
67.054200 11306.000000
68.049500 3069.700000
69.033500 4897.400000
69.070000 2591.600000
70.065100 18275.400000
71.049200 2394.400000
77.038600 12668.600000
79.054300 20190.600000
80.049500 20658.700000
81.057500 3422.600000
81.070000 4816.600000
82.065200 7485.200000
85.065000 1452.900000
91.054200 21955.700000
92.049500 1864.700000
93.057500 2606.300000
93.069900 13030.500000
94.065200 24799.300000
95.049100 6238.500000
95.072900 3543.500000
95.085600 3110.300000
96.081000 3121.100000
97.064700 1644.300000
103.054300 7054.800000
105.057200 1810.700000
105.069900 7446.000000
106.065200 8294.100000
107.072900 9379.600000
108.080900 9446.900000
109.064700 3304.700000
109.088500 1375.900000
110.060000 1167.400000
110.096500 4878.300000
111.080600 1610.500000
113.059700 6547.700000
118.065200 5137.700000
119.073100 1714.700000
119.085500 1631.300000
120.080800 40347.400000
121.088900 3077.100000
122.096400 13713.100000
123.104000 2570.100000
132.080900 2063.400000
134.096300 3786.700000
137.095900 2609.600000
138.091200 2742.000000
140.107100 7739.600000
144.080700 2078.600000
146.096600 1323.700000
155.106600 3107.800000
162.091900 1354.200000

>ms2
67.054200 8455.500000
68.049400 2698.600000
69.033300 2535.500000
69.069900 2068.400000
70.065100 11149.700000
71.049000 1371.400000
77.038500 7746.500000
79.054300 10443.800000
80.049500 13546.500000
81.057200 1857.300000
81.070000 2997.300000
82.065100 5552.100000
85.065100 1005.300000
91.054200 14981.000000
92.049300 1356.400000
93.057100 3036.200000
93.069900 6296.700000
94.065100 16223.700000
95.049000 4811.900000
95.072800 1367.000000
95.085700 3201.400000
96.080500 2064.800000
103.054300 3718.900000
105.070000 4610.500000
106.065200 6223.200000
107.073000 4827.800000
108.080700 4745.700000
109.065000 1376.400000
109.088500 1342.200000
109.101100 1553.200000
110.060200 1885.800000
110.096400 4266.800000
113.059600 4145.200000
118.065100 3666.500000
119.072800 1337.600000
120.080800 24205.100000
122.096400 7299.500000
132.081000 1725.000000
134.096700 1271.800000
140.107100 3456.600000

>ms2
67.054200 4268.700000
68.049400 2653.700000
69.033600 1501.500000
69.070000 1597.500000
70.065100 5427.000000
77.038700 6884.200000
79.054300 7930.000000
80.049500 9342.800000
81.057300 1816.600000
81.069700 1387.800000
82.065300 4327.400000
91.054300 8498.200000
93.057300 1107.400000
93.069800 3626.300000
94.065200 10891.500000
95.049300 2180.000000
103.054300 1956.000000
105.070000 2274.700000
106.065300 3377.100000
107.073000 3290.900000
108.080900 2864.400000
110.096800 2327.000000
118.065300 2430.900000
120.080900 12693.500000
122.096500 3245.300000

>ms2
67.054200 3708.100000
70.065100 4538.000000
77.038700 4451.600000
79.054200 5671.000000
80.049600 6358.200000
81.070000 1147.700000
82.065300 2877.200000
91.054300 5546.600000
93.069800 2841.800000
94.065200 7639.500000
95.049000 1677.400000
106.065100 2940.700000
107.072800 1493.300000
108.080800 1535.900000
110.096500 1836.800000
118.065000 2192.700000
120.080900 6960.700000
122.096600 1268.600000

