>compound NA09671945
>parentmass 323.1754
>ionization [M+H]+
>formula C20H22N2O2
>rt 108.660000
>profile orbitrap
#smiles_iso CN1C[C@@]2([C@@H]3[C@H]1[C@@H]4C2CC([C@@]35C6=CC=CC=C6NC5=O)OC4)C=C
#smiles_can CN1CC2(C3CC4C5(C2C1C3CO4)C6=CC=CC=C6NC5=O)C=C
#inchikey NFYYATWFXNPTRM-XXVYUQGQSA-N
#pubchem_id 24776144
#mb_accession NA002434,NA002435,NA002436,NA002437,NA002438,NA002829,NA002830,NA002831,NA002832,NA002833,NA003209,NA003210,NA003211,NA003212,NA003213,NA003574,NA003575,NA003576,NA003577,NA003578

>ms2peaks
323.175300 147813.200000

>ms2peaks
323.175500 582315.400000

>ms2peaks
323.175600 618542.900000

>ms2peaks
70.064900 2219.600000
236.107500 1351.100000
323.175500 628589.900000

>ms2peaks
70.064900 8810.900000
236.107400 6502.400000
323.175700 638968.800000

>ms2peaks
70.065000 45738.200000
86.060100 4375.300000
88.075700 3807.300000
117.069800 3470.500000
131.085700 4461.500000
146.059800 2814.000000
159.080500 4928.200000
191.130500 1682.500000
210.091200 2750.000000
236.106900 27482.700000
238.122700 12215.700000
248.107000 1720.900000
254.118400 1103.400000
262.123400 2942.300000
274.122900 2122.400000
292.132700 2520.600000
323.175400 794144.800000

>ms2peaks
70.065100 94794.100000
86.060000 12466.400000
88.075800 7591.200000
105.070200 1023.500000
117.069900 7705.600000
131.085500 10043.000000
132.044300 2892.700000
146.060000 6553.400000
158.059900 4199.700000
159.080500 10203.400000
162.127400 2849.400000
165.115100 1451.200000
190.123200 2339.800000
191.130500 3521.300000
195.067700 2506.700000
196.075700 4086.500000
208.076200 1234.000000
210.091300 6491.000000
222.092200 1557.700000
236.107000 61807.900000
238.122600 24303.700000
248.107500 2570.500000
262.122700 4254.800000
264.138700 2216.800000
274.122600 4070.000000
292.133800 2650.200000
293.164300 2191.100000
305.164600 1310.300000
323.175500 663910.400000

>ms2peaks
70.065000 138679.400000
81.033500 1701.600000
86.060000 13920.200000
88.075700 9804.600000
93.070200 1878.900000
105.069700 2828.800000
117.069800 12664.400000
131.085600 15250.500000
132.044400 4618.900000
134.060000 2427.200000
134.096300 2934.000000
135.103600 1306.900000
146.060000 11816.100000
148.111800 1987.900000
158.060000 6742.600000
159.080500 15534.900000
162.127900 3280.700000
165.114600 1390.600000
190.122500 6769.400000
191.130300 5153.100000
195.067600 5947.100000
196.075500 9330.500000
208.074900 2315.100000
210.091400 11429.300000
218.096200 1314.200000
222.091500 1576.600000
236.106900 95153.300000
238.122500 31099.100000
248.107000 3717.200000
254.117000 1371.800000
262.122600 5571.000000
274.122800 5669.300000
292.132600 3426.900000
293.166100 2204.500000
305.164500 2218.400000
323.175300 453682.100000

>ms2peaks
70.065000 192081.500000
81.033500 1615.200000
86.060000 16277.600000
88.075600 9910.000000
91.054300 2321.700000
93.069900 1848.100000
94.065000 1398.400000
96.081200 1194.800000
105.070100 3720.000000
117.069800 16223.100000
129.069800 1638.100000
131.085500 20314.700000
132.044400 6411.200000
134.060100 1722.200000
134.096400 4209.700000
135.103800 1370.600000
146.060000 14006.700000
148.111800 3059.400000
158.060100 9855.900000
159.080400 16738.200000
160.111400 1730.100000
162.127800 4643.700000
165.115100 1273.700000
172.075500 2388.200000
184.075600 3870.300000
190.122500 6303.900000
191.130700 4785.600000
195.067800 14936.800000
196.075700 13251.200000
208.075800 2535.000000
210.091300 17429.500000
210.127600 1709.200000
218.096400 3585.000000
222.091600 2004.500000
234.090300 1617.600000
236.106900 114130.500000
238.122500 30698.700000
248.106800 3089.800000
262.122900 5943.500000
264.138500 2378.300000
274.122700 4318.900000
279.148900 1564.800000
292.132900 3536.400000
293.165400 2947.700000
305.164400 2284.600000
323.175400 283552.900000

>ms2peaks
70.065000 221628.400000
81.033300 1132.200000
86.060000 16589.000000
88.075600 9880.900000
91.054100 2686.800000
93.070100 2077.000000
94.065200 1670.400000
96.080800 1435.700000
105.069800 4714.100000
117.069800 20838.200000
129.069800 2666.500000
131.085500 24005.200000
132.044400 8763.000000
134.059500 2396.800000
134.096500 4442.100000
146.060000 18898.800000
148.111700 3181.700000
158.060100 14394.200000
159.080400 12839.400000
160.112100 1713.000000
162.127300 3724.400000
165.114900 1740.300000
172.075700 2973.300000
184.075600 3976.800000
190.122600 6478.000000
191.130500 4197.600000
195.067800 20200.800000
196.075700 18187.000000
208.075900 5154.300000
210.091200 19875.400000
210.128200 2656.200000
218.096200 6909.100000
222.091100 2805.000000
234.091300 2518.700000
236.106900 129739.100000
238.122500 26719.300000
248.107000 4560.700000
262.122300 6740.800000
264.138500 1590.900000
274.122800 4044.200000
279.149000 1495.700000
293.165300 2051.900000
305.163900 1462.500000
323.175400 145545.400000

>ms2peaks
70.065100 249588.000000
86.060100 17981.000000
88.075700 11082.300000
91.054200 6365.000000
93.069700 1848.300000
94.065300 1751.400000
96.081000 1432.400000
105.069900 6094.200000
108.080800 1870.700000
109.088600 1947.800000
117.069900 26133.700000
119.085300 1704.600000
120.080700 2398.700000
121.088000 1191.900000
122.096200 1245.000000
129.069900 3489.900000
130.065600 1705.600000
131.085600 28696.500000
132.044400 11083.200000
134.059800 4046.100000
134.096400 7227.000000
135.103900 1950.800000
141.070100 1514.200000
146.060100 23078.500000
146.096400 3387.400000
147.104100 2330.000000
148.112000 5687.600000
150.091600 1995.200000
158.060100 18111.300000
159.080400 13847.000000
160.111800 2246.400000
162.127800 6073.100000
172.075800 3257.800000
180.080800 1350.200000
183.067800 1802.400000
184.075700 6047.900000
190.122400 5354.300000
191.130600 3930.000000
195.067900 31371.700000
196.075700 22680.200000
208.075900 7779.500000
208.111600 2955.200000
209.084100 1441.200000
210.091300 27853.300000
218.096600 11503.400000
220.075800 1393.200000
220.111900 1601.100000
222.091800 3187.800000
233.083300 1334.600000
234.091000 3275.900000
236.107000 131182.900000
238.122600 24932.500000
248.106300 3702.000000
262.122600 5659.400000
274.122500 3400.000000
323.175600 84499.900000

>ms2peaks
70.065100 222798.300000
86.060000 13055.100000
88.075700 7853.000000
91.054200 7735.100000
93.069800 2400.300000
94.065100 2945.200000
105.069800 5639.100000
108.080300 1632.900000
109.088700 1863.300000
115.054200 2168.000000
116.062300 1279.300000
117.069800 25460.800000
120.080300 2115.100000
122.096900 1298.600000
129.069700 4577.100000
130.065400 3293.000000
131.085500 25657.200000
132.044400 13910.500000
132.080500 1449.800000
134.059700 1961.000000
134.096300 8929.800000
135.104400 2347.100000
141.070200 1627.700000
146.060000 24672.800000
146.096400 3751.400000
147.104300 2814.500000
148.112000 5565.300000
150.090900 1881.900000
158.060100 18870.600000
159.080300 8425.400000
160.111600 2328.500000
162.127600 4431.000000
170.059900 1378.900000
172.075800 2582.700000
178.065000 2575.300000
180.081100 1577.900000
183.067500 2681.800000
184.075700 5712.400000
190.122400 3059.400000
191.130900 2956.500000
195.067800 38383.300000
196.075700 21681.400000
206.096000 1241.500000
208.075700 13464.500000
208.111400 1663.300000
210.091300 24562.000000
217.089200 1963.500000
218.096400 17728.000000
220.075700 1817.600000
220.111600 1784.000000
222.091700 3439.400000
233.082500 2389.000000
234.091100 2876.600000
236.106900 102024.200000
238.122500 16126.900000
244.111700 1338.400000
248.107800 2593.900000
251.117300 1952.400000
262.122500 3745.400000
274.121900 1594.500000
323.175500 32804.800000

>ms2peaks
70.065100 220432.100000
86.060000 10197.600000
88.075700 5886.100000
91.054200 10979.100000
93.069900 1978.400000
94.065300 3610.500000
96.080500 1221.300000
105.069800 6560.900000
108.080700 1874.400000
115.054200 4406.200000
116.061700 2055.800000
117.069900 25792.400000
118.064600 1433.700000
119.085700 1666.000000
120.080800 2576.700000
129.069900 3263.700000
130.065200 4255.500000
131.085500 26075.000000
132.044400 14287.200000
132.080900 1433.100000
134.060200 2592.200000
134.096500 7396.400000
135.104100 1937.600000
141.069600 1575.800000
146.060100 22061.500000
146.096500 3621.900000
147.103900 1808.700000
148.112100 5194.700000
150.091700 1983.200000
158.060100 16701.800000
159.080600 5575.100000
160.112200 2315.600000
162.127800 4099.000000
165.069600 1106.700000
172.075700 2221.900000
176.106300 1351.900000
178.065400 2545.800000
180.080700 2827.300000
182.060300 1237.600000
183.068000 3197.500000
184.075700 4757.000000
190.123000 2670.900000
191.085700 1385.200000
191.130500 1930.900000
192.080800 1194.400000
193.088700 1336.000000
195.067800 52744.200000
196.075700 24253.600000
203.072800 3436.900000
204.080200 978.400000
208.075500 11739.400000
208.112200 1558.100000
209.083300 2036.500000
210.091300 23888.000000
217.088300 3779.900000
218.096400 16092.700000
220.075400 1275.000000
220.112100 1890.300000
222.091500 4068.600000
230.096400 2074.200000
233.084000 1956.200000
234.091100 2359.200000
236.107000 82005.800000
238.122600 9292.100000
246.091200 1195.100000
248.107700 2046.400000
262.122300 2100.600000
274.123100 1252.000000
323.175500 11528.200000

>ms2peaks
70.065100 203754.800000
79.054300 1465.900000
86.060100 7524.800000
88.075700 4082.500000
91.054300 12774.400000
94.065400 1843.900000
105.069800 6684.700000
108.080800 2457.700000
115.054200 5345.500000
116.062300 3104.500000
117.069900 23406.300000
120.080900 3361.100000
121.088100 1455.000000
128.049400 2025.300000
129.069800 4736.600000
130.065200 6151.500000
131.085600 19796.900000
132.044400 16045.300000
134.096500 7215.800000
141.069300 1391.900000
146.060000 18349.100000
146.096400 3944.600000
148.112000 4501.900000
158.060100 14660.400000
159.080200 3188.100000
160.112400 1739.300000
162.127800 2562.900000
167.072800 1526.400000
172.075500 1689.900000
178.065300 3578.300000
180.080800 3668.300000
182.060600 1227.600000
183.068400 2432.900000
184.075500 4843.800000
190.064900 1385.900000
190.122600 1669.500000
191.131400 1239.600000
192.080900 2307.300000
193.088300 1808.900000
195.067900 49175.200000
196.075800 23262.700000
203.073000 4399.700000
204.080900 1996.800000
206.096200 1338.600000
208.075700 12772.200000
209.083800 2164.700000
210.091300 22468.400000
216.080700 1659.700000
217.088300 5308.000000
218.096300 16795.600000
220.075600 2031.600000
220.112000 1768.600000
221.083900 1345.000000
222.091600 2644.500000
230.096200 2201.000000
233.084600 1779.700000
234.091300 2865.600000
236.107000 59759.500000
238.122400 4969.000000
246.090400 1188.800000
248.106500 1386.200000
323.175700 4763.100000

>ms2peaks
70.065100 194078.800000
79.054200 1192.600000
86.060100 8316.700000
88.075700 3803.300000
91.054200 16331.500000
93.069900 1675.200000
94.065200 1907.900000
105.069900 5659.500000
108.080700 2371.000000
115.054200 6528.200000
116.062100 3448.400000
117.069900 22556.700000
118.065200 945.300000
120.080900 2413.700000
121.088500 1391.000000
128.049700 1816.900000
129.069900 5104.800000
130.065200 7857.100000
131.085600 16244.800000
132.044500 16776.300000
132.081300 1031.500000
134.060000 2556.200000
134.096300 5004.200000
141.070200 1523.200000
146.060000 19124.100000
146.096300 6304.400000
148.112000 3929.900000
150.091100 1364.900000
158.060200 12422.100000
159.080500 2553.500000
160.111900 1938.600000
162.128200 1565.000000
165.069900 2074.300000
167.072700 2428.300000
170.059600 1061.200000
172.075400 1616.000000
176.107200 1427.600000
178.065300 6152.500000
180.080700 5436.600000
183.067700 3889.300000
184.075400 3870.400000
190.065000 1832.600000
191.085200 2862.100000
192.080800 2759.100000
193.088100 2053.500000
195.067800 55677.600000
196.075700 21119.400000
203.072800 6826.900000
204.079900 1417.400000
208.075700 13240.400000
208.111600 1412.700000
209.083800 2985.500000
210.091300 19345.200000
216.079900 1657.900000
217.088500 7476.400000
218.096400 14887.400000
220.076200 2530.600000
220.111100 1774.600000
221.082900 1279.300000
222.091600 2669.500000
233.082900 1748.000000
234.091500 3155.700000
236.107000 37126.800000
238.121600 1699.000000
244.111800 1249.400000
251.118500 1304.200000

>ms2peaks
70.065100 169151.000000
79.054200 2088.600000
86.060000 4831.800000
88.075700 2618.900000
91.054300 19553.000000
94.065100 3263.800000
103.054200 1934.300000
104.049400 1720.100000
105.069900 4378.000000
106.065100 1319.400000
108.080600 1836.700000
115.054300 7453.500000
116.061900 4376.000000
117.069900 16948.100000
118.065300 1279.900000
120.081000 3035.000000
121.088600 1320.700000
128.049700 3490.700000
129.069700 3699.400000
130.065100 9610.300000
131.085600 10262.400000
132.044400 16039.900000
132.080400 1148.600000
134.059600 1511.900000
134.096400 6115.300000
144.080700 1342.500000
146.060000 12603.800000
146.096300 5819.200000
148.111900 2861.600000
154.065200 2097.000000
158.060300 8892.100000
160.112400 1895.900000
165.069900 2982.200000
166.064900 1519.600000
167.073100 5437.600000
168.080200 1181.100000
177.057100 3366.500000
178.065100 6720.200000
180.080800 5398.300000
183.067700 3281.200000
184.075200 3509.400000
190.064800 2375.200000
191.073900 1271.300000
191.085100 2491.500000
192.080700 3030.800000
193.088100 1674.600000
195.067900 47226.300000
196.075600 12668.600000
202.077600 1341.100000
203.072900 9730.000000
208.075700 11171.100000
209.084100 1740.100000
210.091300 15399.900000
216.080400 1445.100000
217.088600 8045.100000
218.096500 14424.400000
220.076500 3176.500000
222.091200 2902.000000
230.096600 1998.100000
233.084100 1295.100000
234.091700 2325.900000
236.106900 23958.300000

>ms2peaks
70.065100 134606.100000
86.060100 3094.100000
88.075500 1511.600000
91.054300 18375.300000
94.065200 1690.000000
103.054100 1503.400000
104.049500 2496.400000
105.069900 4651.500000
108.080700 1705.100000
115.054300 8678.800000
116.062000 3500.600000
117.069900 16243.000000
118.064800 2135.900000
120.080700 2463.700000
121.088700 1488.900000
128.049400 3378.800000
128.062200 1272.000000
129.069900 4735.100000
130.065200 10198.200000
131.085600 6438.500000
132.044500 15502.200000
132.080600 2339.400000
134.059600 1530.900000
134.096500 5082.400000
144.080700 1522.300000
146.060000 10563.800000
146.096600 3840.700000
148.112300 2835.900000
152.062300 1287.700000
154.065600 1398.000000
158.060300 5739.700000
165.070000 2829.800000
166.064800 2493.500000
167.072900 8132.900000
168.080400 1836.800000
177.057400 5051.900000
178.065100 5825.100000
180.080900 7233.000000
183.068200 2407.900000
184.075900 1462.800000
190.065700 3752.100000
191.073100 1808.500000
191.085300 2823.900000
192.080900 3872.000000
193.088900 3097.500000
195.067800 43630.600000
196.075700 13623.500000
202.077000 1217.000000
203.072900 9826.700000
204.080600 2685.600000
208.075600 9267.100000
209.083800 1442.200000
210.091200 12054.700000
216.080800 3181.400000
217.088300 8404.700000
218.096300 9160.100000
222.092400 2199.700000
230.097200 1336.900000
233.082800 1117.400000
234.091100 1718.800000
236.107100 14244.500000

>ms2peaks
70.065100 136398.300000
79.054100 1939.000000
86.060200 2984.000000
91.054200 18897.700000
94.065400 2096.800000
103.054000 1402.400000
104.049500 3334.900000
105.069900 4471.800000
106.064800 1663.600000
108.080700 2386.000000
115.054300 12140.200000
116.062100 3964.800000
117.069800 11227.700000
118.065000 2385.600000
120.080700 3568.500000
128.049500 5061.800000
128.062200 1573.400000
129.070000 3136.200000
130.065000 10807.300000
131.085400 5936.300000
132.044400 17074.300000
132.080800 1364.100000
134.096400 3492.400000
144.080300 1404.600000
146.060100 8861.500000
146.096400 4533.500000
148.111500 2320.900000
154.065400 1649.000000
158.059900 4829.500000
165.070100 3801.600000
166.065100 2678.100000
167.072900 10573.800000
168.080600 2374.900000
177.057200 6264.700000
178.065000 6885.500000
180.080700 6862.700000
183.067700 2194.300000
184.074900 1195.200000
190.064900 3580.200000
191.086300 2670.900000
192.080600 4468.600000
193.088600 1967.600000
195.067800 40915.800000
196.075600 13359.600000
203.072900 8149.500000
204.080000 2942.800000
208.075500 9097.400000
210.091200 8656.300000
216.080900 2783.900000
217.088300 8161.500000
218.096100 6500.600000
220.076100 2391.800000
234.091900 2003.300000
236.106600 6307.600000

>ms2peaks
70.065100 115558.700000
77.038700 1422.200000
79.054300 1336.500000
86.060000 1687.700000
91.054300 20265.100000
103.054300 3553.300000
104.049400 3955.800000
105.069900 3554.200000
108.080700 1556.300000
115.054200 11716.400000
116.062100 4619.400000
117.070000 11190.900000
118.065200 2425.300000
120.080900 3355.900000
128.049400 4799.200000
128.061800 1353.100000
129.069900 3627.100000
130.065200 10902.600000
131.085600 3105.500000
132.044500 13846.300000
132.080700 2153.100000
134.096600 2799.100000
144.080500 1237.900000
146.060100 6589.500000
146.096400 3210.200000
152.062100 2499.700000
154.065200 2263.200000
158.060000 4106.500000
165.069900 5663.000000
166.065000 4646.400000
167.073100 15944.200000
168.080700 1849.300000
177.057300 5878.500000
178.064900 7928.400000
180.081000 7513.600000
183.067600 1308.100000
184.075300 1159.200000
190.065000 5221.800000
191.085400 1327.800000
192.080500 3279.700000
193.088900 3052.900000
195.067900 34771.200000
196.075800 9586.200000
203.073000 10124.400000
204.081200 3305.200000
208.075600 5799.600000
210.091400 6464.700000
216.080900 3410.900000
217.088700 9897.000000
218.096100 5398.500000
220.076200 2256.300000
222.091200 1946.000000
236.107200 3358.400000

>ms2peaks
70.065100 97571.300000
77.038600 1602.500000
79.054200 1969.900000
86.059900 2283.300000
91.054300 20693.700000
94.065200 1915.200000
103.054200 3222.500000
104.049500 3886.800000
105.070000 2876.100000
106.064900 2218.300000
108.080900 1291.600000
115.054300 13040.200000
116.062100 5346.500000
117.069900 9028.500000
118.065000 1822.900000
120.081000 3472.300000
128.049500 6896.700000
128.062000 1832.500000
129.070100 2075.500000
130.065200 10789.000000
131.085600 2458.600000
132.044400 11329.400000
132.080900 1567.900000
134.096600 3547.700000
146.060100 5478.400000
146.096600 2742.800000
152.062200 2320.000000
154.064400 2783.800000
160.112500 1039.000000
165.070200 6251.600000
166.065100 4068.400000
167.072900 16050.000000
168.080600 1856.900000
177.057300 5417.400000
178.065300 5916.100000
180.080800 6443.500000
183.068600 1471.700000
190.065000 4607.200000
191.072800 2838.700000
191.085200 1356.300000
192.080900 2104.200000
193.088400 2696.600000
195.067800 26525.600000
196.075600 7732.900000
202.078100 1240.000000
203.073000 8584.500000
204.080500 3540.000000
208.075900 4260.900000
210.091400 3957.900000
216.080000 3398.300000
217.088400 6461.400000
218.096200 2618.700000
220.075200 2933.000000
222.091300 1138.900000
236.107700 2636.100000

