>compound NA11150814
>parentmass 341.13839999999993
>ionization [M+H]+
>formula C20H20O5
>rt 714.780000
>profile orbitrap
#smiles_iso CC(=CCC1=C2C(=C(C=C1O)O)C(=O)C[C@H](O2)C3=CC=C(C=C3)O)C
#smiles_can CC(=CCC1=C2C(=C(C=C1O)O)C(=O)CC(O2)C3=CC=C(C=C3)O)C
#inchikey LPEPZZAVFJPLNZ-SFHVURJKSA-N
#pubchem_id 480764
#mb_accession NA002444,NA002445,NA002446,NA002447,NA002448,NA002839,NA002840,NA002841,NA002842,NA002843,NA003219,NA003220,NA003221,NA003222,NA003223,NA003584,NA003585,NA003586,NA003587,NA003588

>ms2
285.075100 1507.000000
341.138100 109378.400000

>ms2
165.017900 2042.100000
285.075900 41525.200000
341.138300 388787.100000

>ms2
147.044400 2346.100000
165.018100 12904.300000
221.080700 4869.900000
285.075900 109527.500000
341.138300 292510.700000

>ms2
121.064900 1841.000000
147.043900 3732.700000
165.018200 60273.900000
183.028500 1622.900000
191.034300 3065.500000
221.080600 6879.000000
285.075800 156223.800000
341.138300 161933.700000

>ms2
121.064700 4871.600000
147.044100 6464.500000
165.018300 152592.000000
183.029000 5064.200000
191.034000 5519.600000
221.080700 9611.200000
285.075900 145518.900000
341.138400 84443.700000

>ms2
107.049100 5144.400000
121.064800 13695.400000
123.007600 1498.900000
147.044000 16114.900000
165.018300 494876.900000
179.033900 7179.700000
183.028700 22136.900000
191.033900 16689.300000
197.044400 3172.400000
221.080800 21177.000000
243.065200 3250.800000
267.065800 2254.100000
285.075800 202850.700000
341.138400 70494.500000

>ms2
55.017700 1520.800000
107.049100 8889.100000
121.064800 12404.300000
123.008000 2760.800000
147.044100 17727.500000
165.018300 586467.000000
179.033900 8646.000000
183.028800 24656.000000
191.033900 14045.800000
197.044300 5324.000000
221.080900 16853.000000
243.065200 4359.400000
267.065000 4155.700000
285.075900 106937.100000
341.138200 23376.000000

>ms2
107.049100 12011.900000
121.064800 9332.100000
123.007800 5367.000000
141.017800 1156.300000
147.044100 14896.100000
165.018300 556639.500000
179.033900 10602.300000
183.028800 24870.000000
191.034000 7849.900000
197.044300 3422.000000
221.080900 9469.600000
225.054700 1993.200000
243.064900 3856.200000
267.065100 3572.900000
285.075900 37975.500000
341.137800 6711.600000

>ms2
55.017700 3315.600000
107.049200 12259.300000
121.064900 6673.200000
123.007700 6860.500000
137.023700 1412.100000
141.017900 2109.300000
147.044200 10286.800000
165.018300 478596.400000
179.033800 7295.800000
183.028900 20738.500000
191.034200 4107.900000
197.044400 3521.400000
221.080500 4550.300000
225.055300 1389.300000
243.065000 3134.000000
267.065200 2279.500000
285.075900 11322.700000
341.137000 1139.700000

>ms2
55.017700 4230.400000
107.049200 11078.500000
121.064800 5532.400000
123.007700 11127.000000
137.023300 3015.800000
141.018300 3803.700000
147.044100 9278.900000
165.018300 412600.400000
179.033900 6848.000000
183.028900 16986.500000
191.033600 2795.100000
197.044300 2915.100000
221.080500 1818.800000
225.054600 2305.800000
243.065200 2590.000000
267.065500 2195.800000
285.076900 4042.600000

>ms2
55.017800 9250.300000
68.997300 2469.500000
97.028500 1842.900000
99.007500 1372.200000
107.049200 20870.900000
119.049200 3541.500000
121.064800 8779.400000
123.007800 29940.300000
137.023400 9374.400000
141.018300 9836.600000
147.044200 15761.100000
165.018400 675309.900000
169.065200 1901.400000
179.034000 10183.700000
183.029000 30927.100000
191.034100 3255.100000
197.044400 6674.200000
197.059800 2272.100000
213.054500 2752.500000
243.064800 3294.100000
267.065200 3415.700000

>ms2
55.017700 12115.000000
68.997100 4353.000000
69.033600 2137.200000
79.018000 4056.600000
81.033600 4248.100000
92.997300 1860.000000
97.028500 2820.300000
99.007800 2924.900000
107.049200 22733.400000
109.028600 1416.500000
119.049100 5116.000000
121.064900 7025.800000
123.007700 35798.700000
137.023300 13077.900000
141.018300 12691.800000
147.044100 13510.800000
165.018300 642135.600000
169.065200 1591.200000
171.044400 1952.700000
179.033900 9337.500000
183.028900 26854.400000
185.059600 1952.500000
191.033500 3045.200000
197.044400 5175.400000
197.059600 2213.800000
211.075600 1386.200000
213.055100 3187.200000
243.065500 1710.700000
267.064200 1699.200000

>ms2
55.017700 11535.300000
68.997100 5419.800000
69.033500 2664.100000
79.017900 4909.000000
81.033400 7891.000000
92.997100 5651.300000
97.028400 5083.800000
99.007700 6845.300000
107.049100 18615.700000
109.028400 4910.900000
119.049200 5775.500000
121.064800 6630.300000
123.007700 31905.600000
137.023400 18768.400000
141.018300 11692.600000
147.007800 1583.400000
147.044100 9363.200000
157.065400 1245.700000
165.018300 512575.900000
169.064700 2820.700000
171.044200 1742.800000
179.034000 6817.600000
183.028800 20282.300000
185.059900 2036.300000
197.044600 3700.400000
197.059700 2529.200000
211.076000 1274.700000
213.054800 2730.500000
243.064000 1292.900000

>ms2
55.017700 6766.800000
68.997100 7770.400000
69.033500 4718.900000
79.017900 5639.800000
81.033600 11502.300000
92.997100 6366.100000
97.028400 4480.200000
99.007700 10003.900000
107.049100 15767.100000
109.028400 4655.500000
119.049300 4174.900000
121.065000 3550.300000
123.007700 27793.500000
137.023300 19059.200000
141.018300 8958.100000
147.044200 6589.900000
157.064700 1651.500000
165.018300 366812.300000
169.065300 1940.000000
179.033600 3867.300000
183.028900 13823.800000
185.059600 1958.100000
197.044300 3244.900000
213.054900 1513.400000

>ms2
55.017800 8709.500000
68.997100 10650.600000
69.033400 4333.800000
79.017800 6713.500000
81.033500 13726.500000
92.997100 10846.100000
97.028500 4092.400000
99.007700 9307.700000
107.049200 12687.600000
109.028300 5579.300000
119.049100 3737.900000
121.064800 2970.100000
123.007700 20279.600000
137.023400 19949.900000
141.018300 6014.800000
147.007500 1202.000000
147.044000 4322.300000
157.064900 3104.300000
165.018300 255319.200000
169.065200 1633.700000
179.034000 1803.700000
183.029000 8593.100000
197.045200 2100.300000
197.060500 1439.000000

>ms2
55.017700 9802.300000
59.049200 1092.600000
65.038500 2271.000000
67.017800 1575.700000
68.997100 25409.200000
69.033500 7122.100000
79.017900 12808.700000
81.033500 32678.000000
91.054300 5433.700000
92.997100 25203.300000
97.028500 8516.900000
99.007700 23549.000000
107.049100 19553.000000
109.028400 15031.200000
111.007600 3019.900000
119.049100 7320.400000
121.028400 2252.100000
121.064900 3442.300000
123.007700 27103.500000
137.023400 35237.700000
141.018300 10610.800000
141.069600 1695.000000
147.007600 3185.300000
147.044100 6851.300000
157.064800 4138.300000
165.018300 339185.000000
169.064900 3129.000000
179.033700 4285.700000
183.028900 12059.900000
185.060200 1748.900000
197.044500 2123.300000
197.059800 2036.400000

>ms2
51.022900 1684.300000
55.017800 9533.600000
59.049200 1146.100000
65.038500 2915.100000
67.017700 2470.400000
68.997100 27961.500000
69.033400 7492.600000
79.017900 13858.300000
81.033500 37348.100000
91.054200 5181.800000
92.997100 38082.600000
97.028500 6970.200000
99.007700 24565.100000
103.054300 1159.700000
107.049200 18504.300000
109.028400 17234.700000
111.007600 2840.000000
115.054100 1177.400000
119.049200 8827.800000
121.028300 2961.700000
121.064600 3030.300000
123.007700 21467.900000
137.023400 29639.800000
141.018400 5371.600000
141.069700 1203.900000
147.007500 3364.300000
147.044200 7375.900000
157.065000 3739.300000
165.018300 229193.600000
169.064800 2016.600000
179.033700 2358.300000
183.028900 9459.900000
197.044300 1074.300000

>ms2
51.022800 1555.500000
55.017800 5772.400000
59.049000 1433.700000
65.038500 2700.000000
67.017800 1597.800000
68.997200 33749.000000
69.033500 7192.400000
79.017900 12424.300000
81.033600 36897.600000
91.054400 6886.000000
92.997200 41590.300000
97.028500 5884.400000
99.007800 23061.800000
107.049200 14473.700000
109.028500 14236.600000
111.007800 3531.900000
115.054400 1346.400000
119.049200 6301.100000
121.028500 3065.700000
121.064900 1466.700000
123.007800 11598.200000
137.023500 26279.000000
141.018400 3632.800000
147.008200 2103.800000
147.044200 3363.300000
157.065200 3795.400000
165.018400 142019.200000
183.029000 5058.800000
185.059800 1344.200000
197.045300 1284.400000
197.060100 1123.200000

>ms2
55.017800 3615.000000
65.038600 2793.700000
68.997100 26804.700000
69.033500 5435.300000
79.017800 9105.100000
81.033500 28868.900000
91.054300 5646.200000
92.997200 37240.200000
97.028300 3767.000000
99.007700 18114.200000
107.049200 10907.200000
109.028400 10759.300000
111.007800 3050.300000
115.053900 1711.600000
119.049500 3812.100000
121.028500 1971.800000
123.007700 6100.100000
137.023400 16836.500000
141.069800 1770.900000
147.007600 1954.900000
147.044000 1969.600000
157.064700 2584.800000
165.018400 77526.300000
183.028400 2078.100000

>ms2
51.022700 1626.500000
55.017800 3059.200000
65.038700 1625.900000
67.017700 1673.900000
68.997100 26789.000000
69.033500 3923.900000
79.017800 6410.300000
81.033500 23416.200000
91.054300 3839.800000
92.997100 37062.500000
97.028400 2541.300000
99.007700 13915.100000
103.054000 1391.100000
107.049200 7157.400000
109.028500 8377.100000
111.007200 1671.900000
115.054100 1654.600000
119.049500 2799.300000
123.007700 4340.700000
137.023400 10116.400000
157.065100 2075.100000
165.018300 40433.500000

