>compound NA12175938
>parentmass 355.2016000000001
>ionization [M+H]+
>formula C21H26N2O3
>rt 396.600000
>profile orbitrap
#smiles_iso CC[C@@]12CCCN3[C@@H]1C4=C(CC3)C5=CC=CC=C5N4[C@](C2)(C(=O)OC)O
#smiles_can CCC12CCCN3C1C4=C(CC3)C5=CC=CC=C5N4C(C2)(C(=O)OC)O
#inchikey RXPRRQLKFXBCSJ-GIVPXCGWSA-N
#pubchem_id 15376
#mb_accession NA002551,NA002552,NA002553,NA002554,NA002555,NA002944,NA002945,NA002946,NA002947,NA002948,NA003319,NA003320,NA003321,NA003322,NA003323,NA003689,NA003690,NA003691,NA003692,NA003693

>ms2
355.201100 385485.800000

>ms2
337.191100 6036.600000
355.201300 1259226.500000

>ms2
337.190900 51468.700000
355.201300 1283035.900000

>ms2
212.128600 1691.500000
280.131800 1424.600000
295.180600 2930.800000
308.164600 4110.200000
310.179000 2043.000000
337.190900 220462.400000
355.201400 1223532.600000

>ms2
212.128000 15425.900000
280.133000 7434.100000
294.148400 9652.000000
295.180400 11220.700000
308.163800 19604.200000
310.180200 6196.500000
337.190800 492105.600000
355.201300 951001.400000

>ms2
110.096100 1870.000000
124.111600 1337.100000
144.080700 30180.600000
152.107000 4745.200000
194.117500 9619.200000
212.128000 47717.900000
221.119300 931.000000
224.128400 1564.900000
224.143300 1639.600000
236.143700 3491.900000
240.101500 1222.800000
246.126800 1102.200000
250.159300 4276.700000
253.170600 2252.200000
267.125300 2795.600000
268.133100 17742.500000
277.170000 4381.600000
280.133000 28109.200000
282.149300 2546.700000
294.148700 38446.900000
295.180300 31649.600000
305.165600 3170.400000
306.148200 4609.200000
308.163200 48507.000000
310.179900 16789.500000
320.163700 1628.200000
325.191700 1552.600000
326.174500 5132.700000
337.190800 795550.800000
355.201300 720047.500000

>ms2
70.065000 5140.400000
98.096500 1234.100000
110.096400 4059.300000
112.111900 2882.600000
124.112200 3343.400000
144.080700 76240.800000
152.106900 15929.700000
158.096300 2704.200000
162.091500 2862.600000
165.091100 1369.400000
180.102100 1571.200000
194.117500 17512.400000
209.119100 1698.400000
210.127700 1512.600000
212.128100 89880.000000
222.128200 3097.800000
224.128100 3343.800000
224.143000 4748.400000
236.143400 5954.000000
239.094000 1920.600000
240.102100 1667.700000
246.127600 2875.700000
248.142500 1183.900000
249.152400 1514.400000
250.158700 7668.100000
252.102000 2001.900000
253.170100 7344.000000
254.117700 1406.800000
258.113500 1608.800000
260.143000 1007.600000
262.122300 1211.800000
266.116800 3176.100000
267.125400 7405.000000
268.133200 36362.400000
274.122800 1279.600000
277.169900 11681.900000
278.154600 1186.400000
279.125600 1261.500000
280.133100 72099.700000
282.148900 6182.700000
293.139800 2247.300000
294.148900 82418.200000
295.180500 45187.900000
305.164600 4776.000000
306.148800 6923.200000
307.144200 1680.400000
308.163300 86216.400000
310.180100 20932.800000
320.164000 4397.100000
324.159500 2507.300000
326.174900 8131.600000
337.190900 813707.700000
355.201400 398894.500000

>ms2
55.054200 1014.000000
70.065000 7108.600000
84.080700 2475.700000
93.070200 1522.000000
98.096400 2237.900000
107.085500 1864.300000
110.096400 7104.800000
112.112000 5115.300000
122.096200 1454.100000
123.080200 2847.900000
124.111900 6232.200000
130.064900 3215.600000
134.096300 1363.000000
138.127400 1355.600000
144.080600 119044.700000
150.091300 1483.700000
151.075400 1672.500000
152.106800 36213.300000
154.086100 1743.600000
156.080600 2983.200000
158.096500 4791.800000
162.091600 3621.000000
165.091300 1671.900000
170.096200 2250.900000
180.102200 2008.600000
182.080900 2848.000000
182.096500 2117.800000
194.117300 22474.500000
196.096000 1047.100000
196.112200 1946.900000
198.127400 1930.100000
208.111900 2427.500000
209.120100 3455.300000
210.127700 2514.500000
212.128000 113004.100000
216.102800 1949.000000
221.119300 2763.800000
222.127400 6681.000000
224.128600 2361.000000
224.143300 8024.700000
234.127400 4980.600000
235.135900 3203.100000
236.143400 13204.400000
239.093800 4461.600000
240.102400 2904.600000
246.127800 4422.500000
248.131400 1652.800000
248.143200 5234.700000
249.138400 1567.400000
249.151500 2615.600000
250.158900 10431.900000
252.101300 3300.800000
253.110100 3218.800000
253.169800 10062.300000
254.117100 2368.700000
260.143700 1852.600000
262.122300 1429.200000
265.109800 4343.700000
266.117400 6005.700000
266.153200 3381.600000
267.125500 12056.700000
267.185900 1971.100000
268.133000 51684.300000
274.123800 1548.000000
276.127000 1838.300000
277.169700 15699.800000
278.177800 4802.300000
279.124600 5102.800000
280.133000 113619.500000
282.148900 9321.600000
291.125100 3653.000000
292.133200 4436.600000
293.141100 3757.800000
294.148700 132893.000000
295.180300 46286.200000
305.164500 4156.700000
306.148800 8256.900000
307.143200 5630.100000
308.163000 101712.600000
310.179800 17270.400000
320.163800 7053.300000
326.174000 5743.900000
337.190700 621163.400000
355.201200 179393.600000

>ms2
70.065000 10164.600000
83.049100 5292.500000
84.080800 2298.200000
93.069800 2486.100000
95.085500 3622.700000
98.096400 2978.500000
105.070100 1162.600000
107.085500 1666.600000
110.096400 10068.700000
111.104200 1595.100000
112.111900 6138.200000
121.064700 1588.300000
122.060200 1535.000000
122.096300 1471.600000
123.080300 4173.400000
124.075500 1380.400000
124.112000 9994.300000
130.065000 6090.000000
132.080400 1290.100000
134.096400 5851.900000
135.080200 2644.800000
138.127800 2971.800000
144.080700 162624.100000
146.096500 1486.100000
150.091100 2142.800000
151.074900 1958.900000
152.106900 57333.100000
154.085900 2757.200000
156.080800 4112.400000
158.096200 5843.500000
162.091200 6847.100000
164.106900 2423.700000
165.091100 2512.100000
168.081500 1245.300000
170.060000 2233.300000
170.096300 3734.900000
171.091400 2174.400000
172.112300 2144.000000
177.091800 1650.900000
180.081000 1620.400000
180.101700 2833.300000
182.081000 3066.700000
182.095900 2378.700000
184.112100 2242.700000
192.101600 1844.000000
194.117500 24155.100000
196.096600 1583.000000
198.090900 1882.600000
198.127500 2143.200000
206.096100 2573.500000
208.112100 4804.900000
209.119800 6420.800000
210.127800 4978.400000
212.128000 98851.600000
216.102300 1284.900000
220.112400 2978.700000
221.119900 4814.600000
222.127600 11163.500000
223.135500 2400.000000
224.143000 12499.600000
234.127700 11205.800000
235.135900 5511.900000
236.107600 1864.000000
236.143300 16107.600000
237.151300 2501.400000
238.122900 1950.800000
239.094000 7319.600000
240.102100 3432.200000
246.128000 5310.200000
248.143200 8690.200000
249.138900 2464.900000
249.151500 3466.700000
250.158800 11835.700000
252.102000 4991.800000
252.139300 1370.900000
253.110200 5848.900000
253.169700 9894.500000
254.117700 3716.400000
260.143000 2585.000000
262.122200 3320.200000
264.102100 1471.300000
265.109600 10527.100000
266.117600 12786.100000
266.153700 3560.000000
267.125400 20959.700000
267.185800 1409.700000
268.133100 59459.300000
270.148900 1184.100000
276.126800 2315.300000
277.169900 19579.000000
278.117600 2620.900000
278.153700 1940.700000
278.177900 4674.900000
279.125100 10397.300000
280.133000 159635.600000
282.148800 11357.300000
291.125000 4923.900000
292.133700 6108.700000
293.141200 7170.400000
294.148800 171076.600000
295.180400 43480.000000
305.164800 5848.300000
306.148900 8751.100000
307.144200 10564.000000
308.163100 105867.900000
309.158700 6862.300000
310.179900 8539.600000
320.164500 8342.000000
324.160300 1946.200000
325.190900 2104.100000
326.174500 6231.100000
337.190800 393264.600000
355.201400 68361.800000

>ms2
55.054100 1029.700000
70.065000 10344.700000
83.049100 8036.300000
84.080800 2492.400000
93.069800 3742.900000
95.085600 5748.400000
98.096400 3000.900000
105.069900 3029.800000
107.085700 3191.900000
110.096400 13834.500000
111.104200 4939.200000
112.111900 5592.300000
121.064600 2243.400000
122.059900 3243.900000
122.096400 3420.100000
123.080300 6073.400000
124.075500 1895.500000
124.112100 13091.900000
130.065300 6587.300000
132.080700 2967.500000
134.096400 9230.100000
135.080300 5402.700000
138.127700 2204.700000
144.080700 175787.800000
146.096100 1447.200000
150.092000 1879.500000
151.075100 2407.600000
152.106900 70651.600000
154.086200 1436.500000
156.080600 5856.300000
158.096400 8068.100000
162.091400 8399.600000
164.107200 3020.000000
165.091000 2204.600000
168.080700 1724.800000
170.060100 2637.600000
170.096200 5150.300000
171.091800 1342.700000
172.111800 3352.500000
177.090600 1211.700000
180.080600 2870.600000
180.101500 2330.600000
182.080700 2530.500000
182.096200 4940.400000
184.112600 2227.800000
192.101400 1415.000000
194.117400 17454.500000
196.096300 1976.900000
196.111800 2456.000000
198.090800 3006.400000
198.127300 2920.200000
206.096500 4249.300000
208.111900 6222.900000
209.120000 6196.900000
210.127700 6151.600000
212.128100 75236.200000
216.101600 1161.600000
220.111700 5775.400000
221.119600 5001.400000
222.127600 15097.600000
223.135700 2554.100000
224.143200 14959.200000
234.127600 17985.000000
235.135700 7265.100000
236.106600 2515.800000
236.143400 14923.800000
237.151900 2719.200000
238.122800 2219.500000
239.094100 9063.400000
240.102400 2547.900000
246.127800 4145.200000
248.130500 2696.500000
248.143200 13188.500000
249.139200 4137.400000
249.151100 4729.100000
250.158900 10628.300000
252.101600 6315.500000
252.138300 1710.500000
253.109700 7083.200000
253.170300 8004.900000
254.117300 3897.500000
258.111400 1413.500000
260.143700 1764.500000
262.122900 4101.200000
264.101500 3771.600000
265.109700 19307.900000
266.117500 19757.100000
266.153300 5988.100000
267.125500 31235.200000
268.133100 56747.400000
270.150100 1306.000000
276.126900 3481.700000
277.169900 18519.200000
278.117800 3748.000000
278.178200 5007.100000
279.125300 19707.900000
280.133100 169629.300000
282.148800 7572.500000
291.125200 4957.300000
292.133400 11936.900000
293.141000 10152.600000
294.148800 179405.000000
295.180600 31211.500000
305.164100 3606.500000
306.148300 5871.000000
307.144100 13429.400000
309.158800 6715.900000
310.179900 4315.600000
320.164200 6621.900000
326.175200 4259.400000
337.190900 205521.800000
355.201400 23324.200000

>ms2
55.054100 1444.800000
67.054200 4026.700000
70.065100 16901.100000
79.054100 2856.700000
81.069800 2868.600000
83.049100 15921.500000
84.080700 3533.800000
91.054200 3601.400000
93.069800 7871.500000
94.064800 1299.800000
95.085500 11933.000000
98.096400 4774.300000
105.069800 6091.600000
107.085500 9933.200000
108.080600 3730.500000
109.064900 2383.200000
109.100900 2438.700000
110.096300 27501.900000
111.104200 7285.000000
112.112000 8699.700000
117.069800 4988.300000
120.080400 2812.600000
121.064800 4120.800000
122.059700 7090.200000
122.096300 6781.700000
123.080400 13880.400000
123.104600 1648.400000
124.075700 5202.600000
124.112000 27581.500000
130.064900 8294.900000
131.072700 1405.600000
132.080700 4429.500000
133.064700 3163.900000
134.096300 20566.700000
135.080300 8637.700000
136.112200 2107.000000
138.127600 2965.800000
143.073200 2403.000000
144.080700 261463.800000
146.096300 3912.300000
148.075300 1730.500000
150.091400 4919.800000
151.075100 3700.300000
152.106900 104843.500000
154.086400 3461.600000
156.080600 11759.300000
157.088900 1932.500000
158.096200 13433.300000
160.111600 3684.300000
162.091300 13521.100000
164.106800 5782.900000
165.091200 2267.000000
168.080800 4616.500000
170.060100 6974.900000
170.096400 8844.900000
171.091900 1708.400000
172.111700 3367.600000
174.092200 1868.800000
180.080800 6520.300000
181.088800 6080.900000
182.096200 8213.300000
184.075900 3134.400000
184.112600 3619.200000
194.096300 5001.100000
194.117400 18166.900000
195.104000 1533.400000
196.076100 2013.300000
196.096500 3014.300000
196.111900 4328.700000
198.091100 3464.100000
198.127400 5703.300000
204.079900 2037.400000
205.088600 4382.600000
206.096500 8862.700000
207.104300 4354.900000
207.116500 1873.500000
208.074900 1758.300000
208.111800 16805.900000
209.119900 14960.400000
210.127600 11886.300000
212.127900 71752.400000
216.101600 2890.100000
218.096500 1555.300000
219.104200 10461.900000
220.112100 15022.200000
221.119900 9948.200000
222.127600 28776.100000
223.123500 2371.000000
223.136200 4928.100000
224.130600 7433.000000
224.143200 20788.500000
226.123200 3478.300000
231.104800 2147.000000
232.111900 1918.200000
233.120300 2132.900000
234.127500 36856.100000
235.123600 2285.000000
235.135800 11894.600000
236.107300 3101.900000
236.143300 22477.100000
237.077400 1720.800000
237.139400 3792.900000
238.085800 3093.800000
238.122600 3698.500000
238.159800 2153.200000
239.094000 15637.300000
239.154300 2969.500000
246.127400 4759.200000
247.123300 1578.800000
248.131000 6626.400000
248.143200 22075.200000
249.138700 9495.200000
249.151500 6703.000000
250.085400 2552.400000
250.123000 1927.400000
250.159000 14797.800000
251.093600 2505.900000
252.101600 13021.700000
252.139200 2821.400000
253.109400 13246.100000
253.169800 10188.900000
254.118000 3785.200000
260.144100 3379.300000
262.122200 7142.900000
262.147300 2182.000000
264.101500 11050.800000
265.109600 42546.900000
266.117600 34618.600000
266.153300 6556.100000
267.125300 53307.400000
268.133100 69382.800000
276.101800 2049.900000
277.133900 1885.000000
277.169900 21204.500000
278.117600 10104.800000
278.178300 5463.800000
279.125200 44904.100000
280.132900 242858.800000
282.148600 7715.000000
290.117800 4747.800000
291.125500 9720.400000
292.133000 21591.100000
293.140800 15743.600000
294.148700 218961.500000
295.180300 29785.800000
305.164900 3680.500000
306.148400 9150.600000
307.144000 25522.500000
320.163600 6572.300000
326.174400 2120.900000
337.190700 127514.800000
355.200900 10628.500000

>ms2
55.054200 1458.500000
67.054300 4208.700000
68.049500 2602.200000
70.065000 18989.700000
79.054200 4565.900000
81.033400 1069.900000
81.069800 3861.900000
82.065100 1884.100000
83.049100 15919.800000
84.080900 3444.300000
91.054200 6063.400000
93.069800 9781.100000
94.065000 1855.800000
95.049100 1889.600000
95.085500 20764.500000
96.080800 3992.700000
98.096300 6531.500000
105.069800 9587.500000
106.064800 2014.000000
107.085400 10494.400000
108.080800 4578.300000
109.064500 2708.500000
109.101200 1402.400000
110.096400 29011.500000
111.104100 5707.100000
112.112100 6764.700000
117.069800 7732.300000
118.064800 2028.200000
119.085500 1938.400000
120.081000 2153.500000
121.064700 5057.300000
122.060200 6085.300000
122.096400 5275.400000
123.080400 16049.400000
123.104200 2204.200000
124.075500 4838.400000
124.112000 27617.400000
130.065100 9138.400000
131.073000 2517.300000
132.080900 5727.000000
133.064700 4093.800000
134.096400 23382.200000
135.080400 9976.200000
136.075700 3080.000000
136.111800 2185.300000
137.096000 1256.700000
138.127700 2199.300000
143.073100 3965.600000
144.080700 250860.000000
146.096100 3023.900000
148.075700 2491.900000
150.091400 3953.500000
151.075500 3102.400000
152.106900 92754.700000
154.086200 2186.800000
156.080700 11031.100000
157.088100 1742.300000
158.096300 10916.600000
160.075600 1730.700000
160.112200 2225.500000
162.091200 13310.900000
164.107100 3914.300000
165.090700 2061.700000
168.080800 6174.500000
170.060000 6268.300000
170.096300 9145.500000
171.091800 2067.100000
172.112100 5031.800000
174.091100 1674.900000
180.080700 7189.300000
181.088800 7395.600000
182.096400 9969.600000
184.076400 3340.900000
184.111400 2531.100000
186.090800 2438.100000
193.088300 2785.400000
193.101800 2449.400000
194.096300 6775.900000
194.117400 10811.200000
195.104400 2805.800000
196.096600 2570.200000
196.111900 5399.500000
197.107500 2741.200000
198.091400 2335.300000
198.127800 4571.100000
204.080800 3010.600000
205.088900 6437.900000
206.096400 14843.300000
207.104600 7567.800000
207.116600 2255.400000
208.075500 1851.000000
208.112000 25329.400000
209.120200 12475.800000
210.127900 8707.800000
212.128000 37128.300000
216.102100 1663.200000
217.088400 2100.000000
218.096400 3754.400000
219.104300 14121.400000
220.112100 22543.600000
221.120200 10618.800000
222.091600 1309.000000
222.127800 26030.800000
224.131000 8663.300000
224.143300 18924.300000
226.122600 4055.600000
231.105300 1570.400000
232.112000 4633.400000
233.083000 2086.900000
233.120200 3391.200000
234.127600 41353.700000
236.106800 3869.700000
236.143600 15736.000000
237.078700 2362.700000
237.138900 4199.700000
238.086200 4699.900000
238.123300 3556.100000
238.159000 1637.200000
239.094100 18662.300000
239.154200 2950.500000
246.128000 3455.600000
247.099900 1229.600000
247.123100 3211.400000
248.130800 4489.400000
248.143200 18203.200000
249.138900 7834.500000
249.152100 6818.500000
250.086600 3919.700000
250.122400 1471.000000
250.159200 11051.600000
251.094400 4902.800000
252.101800 15076.400000
252.138300 2531.100000
253.109900 14653.600000
253.170100 5315.200000
254.118400 2092.800000
260.143100 2688.900000
262.123000 5387.000000
262.145500 2024.900000
263.154400 1245.700000
264.101800 18385.700000
265.109700 54463.400000
266.117800 41078.900000
266.154000 4239.300000
267.125600 46289.600000
268.133300 47299.000000
276.101500 2436.100000
277.134000 2067.700000
277.169700 15015.700000
278.117500 15990.300000
278.178300 4019.100000
279.125200 50741.400000
280.133000 192600.400000
282.148700 4566.400000
290.117700 4954.000000
291.125900 6410.300000
292.133200 22678.500000
293.141000 12764.700000
294.148700 150973.700000
295.180400 16660.200000
305.164500 2243.300000
306.148900 3473.300000
307.143900 23272.500000
320.163800 2368.100000
326.173800 2229.500000
337.190900 44446.600000
355.202000 2761.900000

>ms2
55.054100 1485.800000
67.054200 5357.000000
68.049300 3052.300000
70.065000 14883.900000
79.054200 4199.200000
80.049600 1420.200000
81.069800 4479.300000
82.065000 1569.300000
83.049100 15340.200000
84.080700 3513.600000
91.054100 6918.600000
93.069800 12093.500000
94.065100 2347.000000
95.048700 2264.200000
95.085400 27303.700000
96.080700 4079.800000
98.096300 4496.500000
103.054200 1303.200000
105.069800 10447.900000
107.049400 1100.800000
107.085400 13273.100000
108.080700 5498.800000
109.064800 2069.800000
110.096400 27501.000000
111.104100 6862.300000
112.111900 6378.900000
115.053800 1562.600000
117.057300 1432.600000
117.069700 10860.500000
118.065300 2235.100000
119.085700 2571.200000
120.080700 2628.800000
121.064600 5745.600000
122.060100 5590.300000
122.096300 4769.200000
123.080300 17162.600000
123.104100 2814.300000
124.075500 4701.100000
124.112000 29242.300000
129.070300 2142.500000
130.065000 10915.300000
131.073000 2119.200000
132.080600 6211.900000
133.064500 4099.700000
134.096300 25035.800000
135.080200 9333.300000
136.075700 2331.500000
136.111900 1826.300000
137.096000 1498.400000
138.127800 1992.300000
143.073000 5747.000000
144.080600 223887.500000
146.096400 2580.400000
150.091200 2409.300000
151.075300 2577.000000
152.106800 70363.100000
154.086300 2678.300000
155.072900 1564.300000
156.080700 12545.700000
157.088100 4040.900000
158.096400 10253.700000
160.075900 1405.900000
160.112500 2335.100000
162.091300 8790.300000
164.106900 3441.300000
165.090600 1683.600000
168.080700 7972.200000
169.089200 2137.200000
170.060000 7518.900000
170.096300 8651.200000
171.091300 1761.400000
172.099100 1105.200000
172.112100 4153.900000
174.090900 1329.900000
179.085400 1449.700000
180.080500 8380.800000
181.088600 8778.700000
182.096400 9769.500000
184.075200 2611.000000
184.111400 3544.000000
186.090700 1450.800000
191.072100 2780.900000
192.080600 3154.100000
193.088900 4803.100000
193.100500 3240.800000
194.096400 8421.300000
194.117100 5517.600000
195.104400 4509.800000
196.112100 5109.100000
197.107200 2014.000000
198.091700 2085.700000
198.127700 3945.600000
204.080700 5492.800000
205.088500 11825.900000
206.096300 17997.100000
207.104200 7083.800000
207.116300 2995.400000
208.075600 1649.800000
208.111900 28780.500000
209.120100 10355.900000
210.128100 7406.400000
212.127900 16934.500000
217.088400 3375.200000
218.096400 6978.400000
219.104100 17928.200000
220.112000 30215.600000
221.120100 13213.000000
222.091300 1521.500000
222.127600 26336.900000
224.130600 7381.500000
224.143200 14099.000000
226.122400 3919.000000
231.104700 2245.700000
232.111900 7182.500000
233.083700 2785.200000
233.107200 1347.600000
233.120400 4116.900000
234.127500 42908.900000
236.106900 2851.500000
236.143400 10035.300000
237.078600 3610.200000
237.138600 4904.500000
238.086200 7000.900000
238.123000 2403.900000
239.094000 16912.400000
239.154000 4062.100000
246.127500 3254.400000
247.122400 3189.300000
248.107400 1548.700000
248.130400 5588.000000
248.143200 16749.200000
249.138700 9626.400000
249.152000 5963.900000
250.085900 8302.300000
250.159600 4593.800000
251.094000 9290.000000
252.101700 17522.600000
252.139400 1332.900000
253.110100 13725.000000
253.169800 3888.600000
254.118600 1356.200000
260.142800 2133.800000
262.122400 4230.900000
262.147300 1491.600000
264.101700 32237.000000
265.109600 62460.200000
266.117500 44142.900000
266.154100 2970.400000
267.125400 43930.000000
268.133400 32490.500000
275.117100 2732.000000
276.101500 2463.700000
277.169700 9605.000000
278.117300 24962.800000
278.178400 2055.800000
279.125200 50843.500000
280.133000 139708.700000
282.149200 2242.100000
290.117000 6485.800000
291.125600 5232.300000
292.133000 22799.900000
293.141100 8771.300000
294.148600 100634.400000
295.180500 7963.200000
306.149700 1755.600000
307.143700 21036.300000
320.164900 2006.100000
337.190600 14632.500000

>ms2
55.054200 1083.100000
67.054100 8604.800000
68.049500 2522.200000
70.065000 17115.700000
79.054200 6685.100000
80.049400 1251.500000
81.033400 1067.800000
81.069900 6276.000000
82.065100 2478.100000
83.049100 17963.900000
84.080600 2041.300000
91.054200 10600.300000
93.069800 11280.600000
94.064900 2697.300000
95.049200 2259.400000
95.085400 30915.700000
96.080700 5362.700000
98.096300 4802.000000
103.054000 1314.900000
105.069800 12679.600000
106.065000 2614.900000
107.085400 9952.000000
108.080600 5122.800000
109.064700 2583.800000
109.101200 1281.300000
110.096400 29528.400000
111.104200 5492.900000
112.112100 5331.200000
115.054100 1640.300000
117.057000 1628.300000
117.069800 12866.700000
118.065000 2192.500000
119.085500 2015.200000
120.080800 3938.100000
121.064700 4652.000000
122.060000 5930.000000
122.096200 5441.500000
123.080400 16241.200000
123.104400 3252.700000
124.075500 4905.700000
124.112000 30593.000000
129.069700 3485.000000
130.065000 12439.300000
131.073000 4312.300000
132.080600 5960.900000
133.064600 3410.400000
134.096300 23892.800000
135.080400 6983.800000
136.075500 3135.500000
137.095900 1246.300000
138.127700 1735.400000
143.072900 9380.300000
144.080600 205011.900000
146.096400 3548.900000
148.076300 1075.800000
150.091500 2165.400000
151.075800 1721.200000
152.106800 52552.400000
154.064900 1660.900000
154.086300 1983.900000
155.059700 1885.100000
155.072400 1304.200000
156.080700 10754.100000
157.088300 4238.200000
158.096400 11583.400000
160.112300 1634.800000
162.091100 7158.800000
164.106900 1966.800000
165.090800 1232.000000
167.073300 3173.100000
168.080600 8176.800000
169.088700 2476.200000
170.060000 6715.900000
170.096300 7556.700000
171.091300 1784.200000
172.098600 1325.200000
172.112300 3992.600000
174.091000 1700.800000
178.077200 1297.900000
179.085900 2505.400000
180.080700 13129.700000
181.088600 12060.300000
182.096400 8859.900000
183.104500 1616.400000
184.075300 2782.200000
184.111700 2803.700000
191.072900 4827.600000
192.080800 5272.100000
192.092600 1814.100000
193.088600 7101.500000
193.100700 2359.600000
194.096200 11422.000000
194.117100 3704.000000
195.104700 5600.200000
196.112200 5033.100000
197.107700 2198.800000
198.127700 4280.900000
204.080500 9304.700000
205.088500 15345.200000
206.096300 25121.300000
207.104400 11922.600000
207.116500 2297.800000
208.075600 1962.700000
208.111900 35425.700000
209.120100 10736.800000
210.128100 7322.900000
212.127700 9028.900000
217.088700 3840.700000
218.096200 10533.100000
219.104300 20194.900000
220.112000 31896.200000
221.120400 9114.600000
222.127600 27716.000000
223.123500 3548.600000
223.136600 3483.000000
224.130700 6869.600000
224.143100 11260.400000
225.139800 2040.200000
226.122200 2449.100000
230.095600 1485.300000
231.103900 2414.300000
232.075100 1820.900000
232.112200 6773.100000
233.083600 1760.400000
233.106400 1432.600000
233.120200 5819.100000
234.127500 40611.100000
236.106500 2600.500000
236.143200 7570.500000
237.078300 4145.800000
237.138500 5826.100000
238.086000 8493.600000
238.122400 2058.000000
239.094000 16281.000000
239.154000 1803.300000
246.128200 2382.000000
247.099200 1501.400000
247.123000 4008.500000
248.130900 4969.100000
248.143400 11354.900000
249.138600 8822.000000
249.152300 3346.700000
250.086000 9160.400000
250.122700 2043.600000
250.159300 5591.400000
251.094100 12774.900000
252.101700 21762.900000
252.138100 1936.500000
253.109600 17857.500000
253.169100 2023.900000
262.122400 3271.300000
262.146100 1503.400000
263.155400 1045.600000
264.101800 49290.900000
265.109600 58782.100000
266.117600 50811.100000
267.125400 37810.200000
268.133200 19912.400000
275.117100 2825.500000
276.101700 3678.900000
277.170000 4816.000000
278.117200 33976.700000
279.125200 39729.900000
280.132900 106888.300000
290.117100 7313.400000
291.126100 3647.400000
292.132800 23143.000000
293.140300 6954.600000
294.148600 58910.600000
295.180000 4371.000000
307.143800 18003.900000
337.190200 5894.400000

>ms2
55.054000 1899.200000
67.054100 9317.900000
68.049400 3106.800000
70.065000 13052.500000
79.054100 8588.300000
80.049300 1887.000000
81.069900 5066.100000
82.065100 1614.300000
83.049100 17855.800000
84.080800 2643.000000
91.054200 11312.300000
93.069800 13382.100000
94.065200 3737.000000
95.049300 1963.900000
95.085500 33903.800000
96.080700 5935.500000
98.096300 4290.300000
103.054400 1632.000000
105.069800 15072.700000
106.065000 2417.700000
107.049400 1642.000000
107.085400 10638.900000
108.080700 6796.400000
109.064800 3047.700000
109.100900 1424.300000
110.096300 29659.700000
111.104300 3813.000000
112.112100 3588.300000
115.054100 3500.000000
117.057700 1595.300000
117.069800 18574.600000
118.065100 3703.500000
119.085600 2691.300000
120.080900 3550.700000
121.064800 4516.100000
122.059900 5168.100000
122.096300 3593.500000
123.080400 14850.700000
123.104400 3431.900000
124.075600 4567.300000
124.112000 27387.600000
129.069900 4713.300000
130.065000 10518.300000
131.072900 3882.200000
132.080600 4882.100000
133.064800 4770.600000
134.096300 24679.500000
135.080400 6299.700000
136.075600 3839.800000
136.111700 1448.100000
137.095600 1670.600000
143.072900 12522.900000
144.080700 184744.900000
146.096500 3327.900000
152.106900 36273.700000
154.065100 3182.300000
154.085900 2266.700000
155.060500 3788.600000
155.072800 1736.700000
156.080700 12793.100000
157.088500 4995.500000
158.096400 8658.900000
162.091200 5646.300000
167.073100 4727.200000
168.080600 11202.500000
169.088800 2694.300000
170.059900 5482.200000
170.096300 8294.100000
171.091300 2202.000000
172.112500 2620.200000
174.091700 1555.100000
178.077900 2766.700000
179.085100 3243.500000
180.080600 15395.300000
181.088600 11431.400000
182.096300 9432.600000
183.104800 1758.300000
184.075700 1987.900000
184.112200 2786.200000
191.072700 6087.700000
192.080400 4811.500000
192.092600 2955.600000
193.088600 10887.400000
193.101200 3566.400000
194.096400 14286.500000
194.117500 1727.100000
195.104400 7097.500000
196.076200 1861.500000
196.112000 6221.600000
197.107100 1949.700000
198.127800 3009.500000
204.080600 16105.200000
205.088600 18111.200000
206.096300 28493.900000
207.104400 10940.500000
207.116500 2461.100000
208.075500 1955.100000
208.112000 33330.200000
209.120100 8940.900000
210.128200 5117.800000
212.127800 4081.200000
217.088000 5785.400000
218.096300 16050.400000
219.104300 22206.300000
220.112000 35476.100000
221.120400 11353.400000
222.091000 1513.400000
222.127500 26799.000000
223.123500 4775.500000
224.131100 5174.600000
224.143400 6866.100000
225.139600 1555.700000
226.122400 2078.500000
230.095800 1977.400000
231.104300 2660.900000
232.075000 1597.100000
232.111900 10913.600000
233.083000 1303.100000
233.107500 2696.300000
233.120000 5826.700000
234.127500 31764.500000
235.124100 1568.700000
235.136400 4998.700000
236.106600 2802.900000
236.143400 5900.200000
237.078200 3337.300000
237.138800 5982.200000
238.086300 14098.700000
238.122700 1895.000000
239.094100 14695.200000
239.154800 2056.700000
246.128200 2821.000000
247.123000 6494.200000
248.106700 1871.000000
248.131200 3459.400000
248.143300 10305.100000
249.138800 6399.100000
250.086000 13087.800000
250.158500 2268.000000
251.094000 16694.100000
252.101800 25242.000000
253.110000 12316.600000
262.121900 2735.700000
264.101800 65827.600000
265.109700 59229.200000
266.117400 55244.500000
267.125500 29766.700000
268.133400 11292.200000
275.116800 1614.900000
276.102100 3656.000000
277.170500 2322.700000
278.117300 42637.900000
279.125300 31986.600000
280.132900 71857.200000
290.117600 6727.400000
291.125000 2435.500000
292.132500 22519.700000
293.141400 3944.400000
294.148700 32960.900000
295.180700 1454.200000
307.143900 13185.500000

>ms2
55.054100 2687.100000
67.054200 16258.000000
68.049300 3238.000000
69.069900 1066.500000
70.065100 18496.000000
77.038500 2916.200000
79.054200 10891.300000
80.049400 3702.300000
81.033500 2517.100000
81.069800 6825.900000
82.065100 3126.400000
83.049100 19071.500000
84.080700 3035.900000
91.054200 20594.600000
93.057200 1608.000000
93.069800 18255.100000
94.065100 6307.800000
95.049200 2893.100000
95.085500 51075.200000
96.080800 6647.300000
98.096400 3620.900000
103.054200 3672.700000
105.044800 1587.500000
105.069800 18672.700000
106.065100 4011.600000
107.085500 12729.500000
108.080700 8669.100000
109.065000 2262.400000
109.088600 1317.200000
110.096400 31142.500000
111.104200 3895.700000
112.112000 4086.500000
115.054300 5894.300000
117.057200 3774.000000
117.069800 22401.500000
118.065200 4707.400000
119.072700 1863.700000
119.085700 1660.900000
120.080800 4237.900000
121.064800 4767.000000
122.060000 6999.300000
122.096400 5374.000000
123.080400 14400.700000
123.104100 4057.200000
124.075700 6406.800000
124.112100 28577.600000
128.049900 1429.700000
128.062100 2294.200000
129.069700 7760.400000
130.065000 15371.400000
131.072900 5707.000000
132.080700 6682.300000
133.064900 2922.700000
134.096300 22643.900000
135.080400 6905.200000
136.075500 4395.500000
138.127500 1594.900000
141.069800 1633.800000
142.064900 2985.500000
143.073000 21172.800000
144.080700 204707.900000
146.059300 1332.400000
146.096500 4215.300000
152.107000 29899.800000
154.064900 5052.400000
155.060400 6764.400000
155.072700 3215.000000
156.080600 12288.500000
157.088400 7919.000000
158.096400 10333.400000
162.091400 4145.800000
165.069600 3458.800000
166.077300 2006.000000
167.073100 10315.900000
167.084800 1572.100000
168.080700 14663.400000
169.076100 1895.900000
169.088500 3572.400000
170.060000 7684.100000
170.096300 8811.900000
172.112000 3299.300000
178.077400 5131.600000
179.085400 3146.500000
180.080700 22358.000000
181.088500 12717.600000
181.101300 1737.500000
182.096500 12336.900000
183.091300 2435.500000
183.104100 1809.600000
184.075400 1884.500000
184.111800 2149.700000
190.064900 1584.600000
191.072800 11030.300000
192.080900 10794.900000
192.093200 3048.000000
193.088600 18428.200000
193.101000 4121.200000
194.096600 16495.800000
195.091800 1310.700000
195.104500 6264.000000
196.075800 2029.600000
196.112200 5713.700000
197.107100 2355.400000
198.127400 1974.900000
202.078100 1129.300000
204.080700 24794.200000
205.088700 24340.600000
206.096400 35372.000000
207.104600 15722.300000
207.116600 2541.200000
208.075200 2625.100000
208.112000 36879.000000
209.120500 8471.700000
210.128000 5966.200000
211.123200 2386.100000
216.080700 1413.400000
217.088500 7822.300000
218.096400 23443.200000
219.092700 3664.600000
219.104400 28857.200000
220.112000 43401.700000
221.120900 10056.300000
222.091400 3170.200000
222.127600 23440.400000
223.123700 6342.600000
224.131000 4218.200000
224.143400 6107.600000
230.096400 3102.400000
231.104100 3579.000000
232.075200 1670.800000
232.111900 12030.000000
233.084300 2322.400000
233.107400 1845.600000
233.120300 5420.400000
234.091700 1732.300000
234.127600 30954.600000
236.107800 1556.100000
236.143700 4631.700000
237.077700 3137.900000
237.138700 5029.900000
238.086100 20364.200000
239.094400 12884.100000
246.127200 1574.100000
247.123300 8390.400000
248.131500 3016.300000
248.143500 7733.600000
249.139100 6843.500000
250.086000 17161.800000
250.159100 3263.800000
251.094100 29017.700000
252.102000 33210.000000
253.110800 10336.100000
263.094200 2313.300000
264.101700 98320.600000
265.110000 55834.600000
266.117600 60714.700000
267.126100 17313.200000
268.134100 6757.000000
275.117800 2636.800000
276.101900 3790.900000
278.117300 53787.100000
279.125400 24432.900000
280.133000 53108.000000
290.117100 7502.600000
292.132400 22487.000000
294.148600 17018.800000
307.143800 11283.200000

>ms2
55.054100 1700.900000
67.054200 15292.300000
68.049500 3868.500000
70.065100 13663.700000
77.038600 3098.200000
79.054200 12723.200000
80.049500 3219.100000
81.033400 2792.600000
81.069800 8396.500000
82.065100 3761.800000
83.049100 16880.900000
84.080700 1888.100000
91.054200 19075.400000
93.057400 1383.300000
93.069900 15877.100000
94.065200 4705.000000
95.049200 2162.200000
95.072900 3235.400000
95.085500 42243.000000
96.080700 7171.200000
98.096500 3723.400000
103.054300 4032.100000
105.044800 1579.600000
105.069900 18204.100000
106.065200 3893.900000
107.085600 9731.200000
108.080800 7202.300000
109.088700 2884.900000
110.096400 26159.300000
111.104200 3777.900000
112.112100 2711.300000
115.054200 7957.800000
117.057300 4703.100000
117.069800 23996.300000
118.065100 3913.200000
119.072700 3059.500000
119.086000 1730.200000
120.080700 4517.900000
121.064700 3795.700000
122.059900 3636.900000
122.096300 4517.200000
123.067800 1510.500000
123.080400 10807.500000
123.104200 2865.600000
124.075700 6542.200000
124.112100 22952.000000
128.049500 3115.400000
128.062200 2796.600000
129.069800 7153.900000
130.065100 16156.700000
131.072900 6404.500000
132.080800 5045.600000
133.065200 2628.700000
134.096400 17681.300000
135.080400 5237.900000
136.075700 4181.300000
138.127600 1109.000000
141.069900 1309.500000
142.065300 4108.400000
143.072900 24179.200000
144.080700 167348.700000
146.096600 3128.300000
152.107000 20374.000000
153.070200 2362.800000
154.065100 5299.700000
155.060400 8334.000000
155.072800 3679.500000
156.080600 11832.300000
157.088500 5637.500000
158.096400 7478.800000
162.091200 2525.200000
165.069700 3951.100000
166.064700 1194.900000
166.077400 2207.900000
167.072900 11452.600000
168.080600 13343.100000
169.076300 1428.700000
169.088400 2210.000000
170.060300 5468.000000
170.096400 4828.900000
171.091400 1496.900000
172.112400 1196.700000
178.065100 1031.200000
178.077400 5374.900000
179.072900 1630.400000
179.085200 3811.800000
180.080800 23671.900000
181.088700 12705.300000
181.100600 2190.300000
182.096300 9871.200000
183.103700 1334.200000
184.076500 1929.300000
184.112100 1705.800000
190.065000 2202.700000
191.072900 10893.900000
191.085500 1657.000000
192.080800 11842.200000
192.093400 2648.400000
193.088700 21267.000000
193.100600 1999.000000
194.096400 22118.300000
195.104300 6241.100000
196.075400 1192.300000
196.111800 6068.700000
197.106400 2334.000000
198.127300 1235.700000
204.080600 31880.000000
205.088600 23877.800000
206.096400 35480.400000
207.104600 17044.800000
207.116200 1203.000000
208.075800 2314.300000
208.112000 29726.500000
209.120400 6742.900000
210.090700 1425.600000
210.127900 5498.100000
217.088600 11682.200000
218.096400 28616.700000
219.092600 3326.800000
219.104500 26926.100000
220.112100 37826.500000
221.120800 8019.300000
222.090800 3018.500000
222.127800 17892.700000
223.123600 6441.000000
224.131100 2410.700000
224.143100 3858.900000
230.096600 3598.600000
231.104500 3531.100000
232.076400 1648.300000
232.112000 13314.300000
233.108000 3161.400000
233.120400 3029.800000
234.091700 1352.200000
234.127600 22786.100000
236.070800 1779.100000
236.106300 1890.400000
236.144000 1963.100000
237.078200 2658.700000
237.138800 4273.200000
238.086100 27013.200000
239.094300 11004.000000
239.153400 1170.400000
247.122900 7595.300000
248.132000 1722.000000
248.143000 4857.200000
249.138900 4965.900000
250.086100 17502.700000
250.159200 1603.100000
251.094100 28933.100000
252.101900 33643.300000
253.110300 11888.100000
262.087300 1598.000000
263.093500 2358.300000
264.101800 106444.200000
265.110200 39850.600000
266.117500 61888.300000
267.126400 9784.800000
268.134300 2603.700000
275.116600 2120.500000
276.101900 5145.700000
277.110700 1705.100000
278.117400 47580.300000
279.125400 14803.900000
280.133100 31466.900000
290.117300 6392.400000
292.132500 18105.700000
294.148400 6626.200000
307.143900 6986.200000

>ms2
55.054200 1164.500000
67.054200 17832.700000
68.049400 3034.300000
70.065100 11834.700000
77.038600 3565.000000
79.054300 13806.100000
80.049500 4103.200000
81.033400 2784.600000
81.069900 8492.400000
82.065200 3521.800000
83.049200 15017.300000
84.080800 2772.700000
91.054200 22100.800000
93.057500 2055.300000
93.069900 16578.500000
94.065200 6533.800000
95.049200 3329.800000
95.073000 3001.400000
95.085500 42519.700000
96.080800 7407.100000
98.096600 3527.800000
103.054300 6068.300000
105.044800 3666.500000
105.069900 14229.800000
106.065200 5316.000000
107.085500 7090.300000
108.080900 7405.100000
109.064600 1928.200000
109.088500 1794.300000
110.096400 25673.800000
111.104500 1880.900000
112.112500 1683.300000
115.054200 12641.100000
117.057100 5534.600000
117.069900 24909.900000
118.065200 5187.400000
119.060300 1153.200000
119.073200 2419.800000
119.085600 1616.800000
120.080900 4671.500000
121.064700 3018.600000
122.060100 3631.700000
122.096500 4541.700000
123.067700 1376.700000
123.080400 7649.700000
123.104300 2298.600000
124.075800 5821.700000
124.112100 18291.600000
128.049500 4092.900000
128.062200 3619.200000
129.069900 7285.500000
130.065100 15058.800000
131.073000 7840.800000
132.080800 4739.600000
133.064900 2496.600000
134.096400 13299.700000
135.080300 3897.100000
136.076200 3673.100000
141.069600 1757.300000
142.065000 4709.800000
143.073000 30196.000000
144.080800 141244.300000
146.059900 1620.200000
146.096800 1668.600000
152.107100 9831.900000
153.069800 2567.400000
154.065200 6029.700000
155.060600 9847.700000
155.072900 6657.000000
156.080900 13283.600000
157.088500 6564.500000
158.096300 5513.200000
165.070100 6249.200000
166.077100 2352.100000
167.073000 12251.700000
167.084900 1464.300000
168.080800 15393.000000
169.075800 1764.800000
169.088700 3181.200000
170.059900 4842.800000
170.096600 6791.700000
171.091600 2101.400000
178.077800 5842.200000
179.073100 2099.000000
179.085800 4283.600000
180.080800 25605.300000
181.076400 1355.800000
181.088900 10672.600000
181.101100 1686.000000
182.096400 7992.400000
184.076300 1817.900000
184.112100 1605.600000
190.065100 3758.100000
191.073000 12672.300000
191.085400 2061.400000
192.080800 15073.000000
192.093300 2518.700000
193.088700 24090.800000
193.101200 2391.200000
194.096500 19170.800000
195.092400 1314.200000
195.104200 6876.500000
196.076300 1232.100000
196.112500 3739.100000
198.127700 1343.700000
204.080700 43841.500000
205.088800 26997.600000
206.096500 41441.200000
207.104600 16291.400000
208.074900 1372.000000
208.112100 26276.300000
209.120700 4218.600000
210.128000 5005.200000
216.080000 1849.100000
217.088500 13940.600000
218.096500 27556.700000
219.092500 4138.400000
219.104500 21908.800000
220.112200 34985.800000
221.120800 6335.400000
222.091200 3520.700000
222.127700 16111.200000
223.123400 5689.000000
224.071000 1072.300000
224.143700 1950.200000
230.096600 3854.700000
231.104900 3180.800000
232.075700 1974.200000
232.112100 10287.000000
233.107400 2453.500000
233.120300 4293.700000
234.091500 1668.500000
234.127700 17887.400000
236.070300 1609.700000
236.106500 1464.900000
236.143600 2911.000000
237.079000 2944.600000
237.138800 4024.900000
238.086200 27224.500000
239.094700 6570.600000
239.154100 1208.500000
246.127600 1763.500000
247.123000 8829.400000
248.070900 1100.100000
248.143400 3640.400000
249.077600 2355.300000
249.138700 4029.800000
250.086200 20092.700000
251.094200 37216.400000
252.102200 31521.800000
253.110800 6903.900000
262.086500 2735.300000
263.093800 4034.600000
264.101800 106883.600000
265.110400 29138.200000
266.117600 49217.000000
267.126400 6258.200000
268.133200 1473.900000
275.094000 3073.700000
276.101600 5746.200000
277.109800 2573.800000
278.117400 44363.400000
279.126100 7888.100000
280.133000 16178.900000
290.117900 5270.300000
292.132000 14158.900000
294.149300 2570.300000
307.143700 4517.300000

>ms2
55.054400 1454.500000
67.054200 19957.200000
68.049400 3027.500000
69.069900 1341.400000
70.065100 10065.700000
77.038600 5363.800000
79.054200 16883.600000
80.049600 3934.100000
81.033500 2572.100000
81.069900 9314.100000
82.065200 2899.600000
83.049100 10649.400000
84.081100 2242.500000
91.054200 24935.300000
93.057200 1804.000000
93.069900 12367.500000
94.065100 7708.600000
95.049100 2853.900000
95.073000 4149.300000
95.085500 35819.400000
96.080800 6564.500000
98.096300 2658.800000
103.054300 7552.400000
105.044700 4173.500000
105.069800 16659.300000
106.065300 3728.400000
107.085600 6276.800000
108.080600 6220.700000
109.065100 1227.600000
109.088500 3424.600000
110.096400 20040.000000
111.104000 1543.400000
112.111900 2466.200000
115.054200 13280.600000
117.057200 6413.600000
117.069800 24377.500000
118.065100 5702.600000
119.060400 1187.100000
119.073000 4026.400000
120.080800 3011.600000
122.059900 2545.300000
122.096500 4567.800000
123.080400 5785.200000
123.103900 1838.100000
124.075600 4635.400000
124.112100 13744.900000
128.049500 4844.800000
128.061900 4540.300000
129.069900 8279.900000
130.065100 17899.200000
131.072800 5136.600000
132.080700 4356.600000
133.065100 1173.100000
134.096400 9723.500000
135.080800 1273.000000
136.075800 2815.000000
141.069600 2056.200000
142.065500 2764.900000
143.073000 30313.600000
144.080800 117089.500000
146.059500 1587.500000
146.096100 1392.600000
152.062200 1874.500000
152.107100 6950.100000
153.069900 1249.900000
154.065200 6761.600000
155.060400 10859.800000
155.073000 3982.900000
156.080800 10529.000000
157.088500 4847.800000
158.096300 4877.800000
165.070000 5635.500000
166.065300 2944.400000
166.077400 2570.300000
167.073000 14849.200000
168.080800 14996.000000
169.076300 1599.500000
169.088800 2754.000000
170.059800 2649.400000
170.096400 4136.100000
178.065100 1536.600000
178.077700 6527.900000
179.073200 3670.000000
179.085500 5524.500000
180.080800 27539.600000
181.076200 1487.600000
181.088800 11342.800000
181.100800 1667.000000
182.096300 8759.200000
183.092500 1888.900000
184.112200 1368.800000
190.065100 4174.300000
191.072900 15853.900000
191.085100 2499.600000
192.080800 16545.800000
192.092900 1420.500000
193.088600 30516.000000
194.096500 22155.100000
195.091600 1894.100000
195.104500 5531.000000
196.075300 1320.100000
196.112200 4255.800000
202.077200 1628.400000
203.072800 1746.000000
204.080700 49081.100000
205.088700 32091.000000
206.096500 41155.500000
207.104300 15769.600000
208.075400 2606.900000
208.112000 20894.300000
209.107800 3897.200000
209.120400 2855.700000
210.092000 1035.700000
210.128200 2556.700000
211.123400 1000.400000
216.080200 2445.000000
217.088500 18556.600000
218.096400 36943.700000
219.092600 4600.900000
219.104600 18581.400000
220.112100 30272.900000
221.120700 4709.000000
222.091400 2607.400000
222.127700 12026.300000
223.122800 5153.500000
224.143600 1787.100000
230.096100 4384.700000
231.104400 2722.300000
232.112000 10158.600000
233.108100 2867.200000
233.120000 2871.600000
234.091500 1733.200000
234.127700 12230.300000
236.070800 2048.100000
236.107600 1766.600000
237.079200 2391.200000
237.138500 2840.100000
238.086100 30983.300000
239.095200 5666.900000
247.122900 6753.400000
248.143800 2355.600000
249.078600 3149.100000
249.138200 1774.200000
250.086300 20744.000000
251.093900 45347.100000
252.102000 29883.200000
253.110900 5509.100000
262.086700 3339.700000
263.093900 5578.600000
264.101800 95791.200000
265.110300 17774.600000
266.117500 40247.800000
275.094300 1443.200000
276.101600 6529.100000
277.110300 1937.300000
278.117400 35851.800000
279.125400 3988.800000
280.132900 9122.200000
290.117800 4850.000000
292.132300 8645.900000
307.144600 2082.800000

>ms2
55.054100 1930.000000
67.054200 19999.800000
68.049500 3587.600000
70.065100 8766.500000
77.038600 6010.300000
79.054300 13237.400000
80.049500 3590.600000
81.033600 2072.500000
81.069900 8161.500000
82.065200 3550.600000
83.049200 10125.300000
84.080800 1859.900000
91.054300 24912.700000
93.057200 1692.200000
93.069900 12309.900000
94.065200 5516.400000
95.049400 3066.400000
95.073000 6001.200000
95.085600 28410.500000
96.080800 7022.600000
98.096300 2069.000000
103.054200 8707.900000
105.044800 5285.900000
105.069900 13447.000000
106.065300 3907.300000
107.085700 3516.600000
108.080800 6755.400000
109.088700 2964.800000
110.096500 17419.900000
112.112300 1902.300000
115.054300 17272.400000
117.057400 7963.600000
117.069900 20470.000000
118.065200 5198.200000
119.073000 3576.700000
120.080900 3001.400000
122.059700 2620.300000
122.096400 3058.400000
123.068200 1256.400000
123.080500 4148.300000
123.104300 1610.300000
124.075600 4021.400000
124.112100 11322.000000
128.049400 4873.500000
128.062000 5478.500000
129.069900 7023.900000
130.065200 18770.700000
131.073100 5538.400000
132.081000 3604.000000
134.096600 6800.600000
135.080100 1505.800000
136.075900 1901.700000
142.065200 5135.200000
143.073100 34535.100000
144.080800 90328.000000
146.096000 1037.300000
152.062100 1300.600000
152.107000 3452.600000
153.069900 1821.900000
154.065300 7636.300000
155.060500 11190.700000
155.072800 3520.100000
156.080900 9185.100000
157.088600 5391.300000
158.096500 3867.700000
162.091100 1100.100000
165.070000 8436.100000
166.065200 2642.600000
166.078000 2046.700000
167.073100 17347.500000
167.085800 1739.800000
168.080800 16240.800000
169.076300 1010.100000
169.088900 2459.300000
170.060000 2161.300000
170.096600 3156.800000
178.065400 2684.100000
178.077800 7627.600000
179.073300 4585.200000
179.085700 3308.100000
180.080800 29105.600000
181.076500 1147.700000
181.088700 11597.800000
182.096600 7427.900000
184.075100 1257.800000
184.112600 1946.900000
190.065500 4925.500000
191.073000 17961.400000
191.085500 1743.700000
192.080800 20897.200000
192.093600 2011.100000
193.088700 32812.200000
194.096500 20372.500000
195.091900 1204.800000
195.104600 3646.100000
196.075800 1372.900000
196.112100 3175.500000
202.077900 1444.800000
203.073100 3171.600000
204.080800 59854.800000
205.088600 31297.900000
206.096500 40131.200000
207.104300 14111.100000
208.075600 2248.900000
208.112100 17143.900000
209.108000 2765.700000
209.120500 2324.700000
216.080800 2677.400000
217.088600 19977.800000
218.096400 37190.300000
219.092100 3976.000000
219.104400 17567.000000
220.112100 24433.500000
221.121000 3499.900000
222.091200 3251.400000
222.127400 6693.400000
223.123400 5824.800000
224.069700 1206.400000
230.096000 4348.000000
231.104500 2786.600000
232.112300 7995.200000
233.084000 1138.100000
233.107700 2672.800000
233.120700 3030.200000
234.091100 1245.400000
234.127500 7492.300000
236.071500 1876.800000
237.079200 1724.900000
237.137800 1896.200000
238.086200 30081.900000
247.123300 7308.700000
248.070600 1908.000000
248.131100 1687.300000
248.144400 1539.800000
249.078400 4361.000000
250.086300 19432.900000
251.094100 48956.800000
252.102200 21790.200000
253.110500 4375.000000
262.086500 3674.900000
263.094300 4932.100000
264.101900 83422.400000
265.110900 10295.500000
266.117600 30636.900000
275.095100 2922.700000
276.101900 8419.700000
277.110200 1556.800000
278.117500 28800.300000
280.133000 3779.900000
290.117900 3004.900000

