>compound NA13888202
>parentmass 163.0389999999999
>ionization [M+H]+
>formula C9H6O3
>rt 371.865000
>profile orbitrap
#smiles_iso C1=CC(=CC2=C1C=CC(=O)O2)O
#smiles_can C1=CC(=CC2=C1C=CC(=O)O2)O
#inchikey ORHBXUUXSCNDEV-UHFFFAOYSA-N
#pubchem_id 5281426
#mb_accession NA002486,NA002487,NA002488,NA002489,NA002490,NA002879,NA002880,NA002881,NA002882,NA002883,NA003259,NA003260,NA003261,NA003262,NA003263,NA003624,NA003625,NA003626,NA003627,NA003628

>ms2peaks
163.039000 39007.500000

>ms2peaks
163.038900 43036.100000

>ms2peaks
163.039000 42778.300000

>ms2peaks
163.039000 184293.300000

>ms2peaks
163.038900 188082.200000

>ms2peaks
107.048600 1737.400000
119.049200 4451.000000
163.039000 214369.900000

>ms2peaks
91.054000 1944.700000
107.049200 4033.000000
119.049100 9178.500000
135.044100 1436.400000
163.038900 197802.600000

>ms2peaks
91.054300 3023.200000
107.049200 8538.300000
119.049200 14261.500000
135.044200 3167.000000
163.038900 166410.500000

>ms2peaks
91.054100 5456.700000
107.049100 17418.700000
119.049100 17411.600000
135.043800 4631.800000
163.039000 135689.700000

>ms2peaks
91.054200 10270.100000
107.049100 29041.200000
119.049200 21964.000000
135.044000 5359.400000
163.038900 116536.000000

>ms2peaks
77.038700 1829.600000
91.054200 25205.400000
107.049100 72004.400000
119.049200 37305.500000
135.044100 6955.500000
163.039000 134051.000000

>ms2peaks
77.038500 1645.400000
79.054300 1744.300000
91.054300 27342.800000
107.049200 85535.500000
119.049200 34309.400000
135.044200 7536.700000
163.039100 89207.200000

>ms2peaks
77.038500 3840.000000
79.054300 1291.500000
91.054200 29086.000000
107.049200 90301.700000
119.049200 28514.900000
135.044300 7278.500000
163.039100 55585.900000

>ms2peaks
77.038700 2935.600000
79.054300 3346.200000
91.054200 27010.600000
107.049100 99538.000000
119.049200 20393.100000
135.044100 6096.000000
163.039000 36108.200000

>ms2peaks
77.038600 7131.100000
79.054300 2846.700000
91.054200 26377.400000
107.049100 101667.500000
119.049200 14388.700000
135.044200 4468.200000
163.038900 19307.500000

>ms2peaks
65.038600 1940.600000
77.038600 12114.400000
79.054300 6025.100000
91.054300 30125.100000
95.048900 1272.600000
107.049200 135585.500000
119.049200 13350.900000
135.044200 3966.800000
163.039100 17298.200000

>ms2peaks
65.038600 2407.500000
77.038600 12733.500000
79.054200 6482.800000
91.054200 26875.500000
95.049300 1983.000000
107.049100 117049.800000
119.049100 7039.300000
135.044400 2802.500000
163.039000 10318.900000

>ms2peaks
65.038600 2389.200000
77.038600 16183.800000
79.054300 7036.100000
91.054300 19265.300000
95.048900 1424.100000
107.049200 104062.300000
119.049200 6135.000000
135.044100 1691.000000
163.039100 4743.600000

>ms2peaks
65.038500 1418.200000
77.038600 17522.300000
79.054300 7259.400000
91.054200 15059.200000
95.049000 2509.500000
107.049100 84263.300000
119.049100 2577.900000
135.044500 1776.900000
163.039000 3429.300000

>ms2peaks
65.038500 2569.100000
77.038600 22184.700000
79.054200 7149.300000
91.054200 12886.400000
95.049100 2187.800000
107.049200 68964.100000
119.049000 1930.000000

