>compound NA13680554
>parentmass 209.11720000000003
>ionization [M+H]+
>formula C12H16O3
>rt 669.840000
>profile orbitrap
#smiles_iso CCCCCC1=CC(=O)C=C(C1=O)OC
#smiles_can CCCCCC1=CC(=O)C=C(C1=O)OC
#inchikey WLWIMKWZMGJRBS-UHFFFAOYSA-N
#pubchem_id 84800
#mb_accession NA002491,NA002492,NA002493,NA002494,NA002495,NA002884,NA002885,NA002886,NA002887,NA002888,NA003629,NA003630,NA003631,NA003632,NA003633

>ms2
153.054400 4389.800000
177.091600 2199.100000
209.117100 4336.300000

>ms2
153.054500 4605.000000
177.091000 2172.300000
209.117000 3094.300000

>ms2
153.054700 9775.100000
177.091400 2287.100000
209.117200 3485.200000

>ms2
153.054600 38226.200000
177.090900 6913.600000
209.117500 4995.100000

>ms2
153.054600 36142.200000
177.091000 4052.800000
209.117600 1555.400000

>ms2
107.049000 2659.800000
125.059400 6584.100000
153.054500 61596.900000
177.090500 3825.900000

>ms2
107.049100 4034.800000
125.059800 9915.700000
153.054600 49822.000000
177.090900 2029.700000

>ms2
107.049100 5638.200000
125.059700 10482.700000
153.054600 31240.400000

>ms2
107.049100 4611.400000
125.059700 14189.200000
153.054700 22069.600000

>ms2
107.049000 3599.100000
125.059600 11936.100000
153.054600 11219.900000

>ms2
67.054100 1512.400000
68.996900 1649.600000
77.038400 1125.300000
79.054400 2622.600000
107.049200 3898.300000
110.036300 5795.900000
125.059800 10771.100000

>ms2
67.054200 1350.800000
68.997200 1714.000000
77.038600 1356.900000
79.054200 1624.400000
107.048900 2788.600000
110.036200 7023.500000
125.059800 7066.000000

>ms2
77.038800 1090.800000
79.054200 1890.400000
107.048900 1369.200000
110.036400 4573.500000
125.059900 3475.100000

>ms2
68.997100 1178.600000
77.038400 1999.800000
110.036400 2595.300000
125.059700 2859.100000

>ms2
77.038600 1449.300000
110.036300 2857.300000

