>compound NA15830166
>parentmass 340.15430000000003
>ionization [M+H]+
>formula C20H21NO4
>rt 455.325000
>profile orbitrap
#smiles_iso COC1=C(C=C(C=C1)CC2=NC=CC3=CC(=C(C=C32)OC)OC)OC
#smiles_can COC1=C(C=C(C=C1)CC2=NC=CC3=CC(=C(C=C32)OC)OC)OC
#inchikey XQYZDYMELSJDRZ-UHFFFAOYSA-N
#pubchem_id 4680
#mb_accession NA002265,NA002266,NA002267,NA002268,NA002269,NA002662,NA002663,NA002664,NA002665,NA002666,NA003044,NA003045,NA003046,NA003047,NA003048,NA003409,NA003410,NA003411,NA003412,NA003413

>ms2
340.153700 613844.700000

>ms2
340.154200 2354166.200000

>ms2
202.086600 2640.200000
325.130500 2901.700000
340.154100 2234997.200000

>ms2
202.086000 15049.700000
340.154000 2374331.000000

>ms2
202.086100 74456.800000
325.130600 16670.200000
340.154100 2019794.500000

>ms2
202.086200 383620.900000
295.120500 4790.900000
296.128200 13404.800000
310.107100 4001.400000
324.122800 66701.100000
325.130900 81272.300000
340.154100 2760872.200000

>ms2
123.044100 6658.400000
171.067900 14247.600000
187.062400 6389.600000
202.086200 789691.100000
279.124800 2336.900000
295.120300 14946.600000
296.128200 38360.000000
308.128600 2448.700000
310.107000 11803.800000
324.123000 216815.800000
325.130800 159570.200000
340.154300 2102817.200000

>ms2
123.044000 17761.600000
142.065100 2074.000000
148.051200 2186.100000
151.075400 4538.000000
170.060300 2377.900000
171.067900 44237.300000
174.091600 1745.000000
175.075000 3063.200000
187.062800 16735.400000
202.086200 1004229.400000
249.114900 2155.900000
279.125500 3396.800000
282.113700 2143.900000
294.111500 3403.500000
295.120200 33369.800000
296.128200 81132.000000
308.128100 7028.800000
310.107500 18496.300000
324.123000 427621.200000
325.130000 175011.500000
340.154200 1193743.200000

>ms2
95.049500 1595.000000
123.044000 34835.400000
142.065100 4184.600000
148.051700 5695.000000
151.075500 4887.100000
158.059900 5414.300000
159.068100 3160.500000
170.060400 3585.000000
171.067800 112652.900000
172.075200 12735.900000
174.091700 5182.100000
175.075400 8465.900000
186.054500 2954.300000
187.062800 34355.700000
188.070600 5809.300000
189.078400 2029.800000
190.086700 3466.800000
202.086200 1212235.900000
236.107200 1773.800000
241.109300 3048.400000
249.114900 6860.700000
264.101400 5072.600000
266.117600 3386.900000
278.118800 2370.200000
279.125500 8870.700000
280.097200 3818.100000
282.112100 6345.100000
292.096800 3116.900000
294.112400 10457.200000
295.120300 54078.600000
296.128100 126373.300000
306.113700 2165.900000
308.127500 8059.600000
310.107300 26107.200000
324.123000 720977.900000
325.130000 151456.100000
340.154200 674259.400000

>ms2
95.049200 2515.600000
123.044000 46059.300000
142.065200 7840.600000
148.051800 7258.300000
151.075400 8970.800000
158.060200 13235.400000
159.067600 8099.600000
170.060000 10959.900000
171.067900 198842.100000
172.075400 23311.200000
174.091500 7389.000000
175.075300 13309.600000
186.054800 11572.300000
187.062700 43762.700000
188.070500 9770.900000
189.078700 2810.900000
190.086000 2734.600000
202.086200 1014056.100000
236.107400 2717.500000
241.109500 3487.200000
249.115000 9727.900000
264.102000 9588.300000
266.117200 7799.500000
278.117900 5024.300000
279.125200 7137.700000
280.096500 10321.400000
282.112100 12998.800000
292.097800 2297.100000
294.112300 17953.200000
295.120300 55721.600000
296.128100 151149.000000
306.113300 2276.100000
308.128100 11173.200000
310.107300 27888.700000
324.122900 859748.200000
325.130000 87197.400000
340.154200 276318.800000

>ms2
95.049100 13279.000000
115.054300 5004.700000
116.049200 2469.100000
123.044000 91964.600000
128.049500 3594.900000
131.048700 2345.200000
136.052400 2176.300000
138.067300 3155.300000
142.065200 16640.000000
144.043900 2457.100000
144.080600 4115.500000
145.064900 5270.900000
146.060000 1990.200000
146.073100 2021.400000
147.080500 5724.200000
148.051900 17292.800000
151.075500 10273.800000
156.044100 7072.400000
157.052100 3699.900000
157.088400 6417.300000
158.060100 37692.500000
159.067700 19332.100000
160.075300 5787.600000
161.059600 5605.400000
162.067200 5090.700000
170.060000 23162.000000
171.067800 437308.100000
172.073200 46761.300000
174.054900 4864.900000
174.067700 4208.900000
174.091300 13702.200000
175.075300 30027.100000
186.054900 40519.400000
187.062800 92685.300000
188.070900 23058.800000
189.078600 13161.400000
190.086300 6367.700000
202.086200 1228575.500000
224.107000 2727.300000
227.093200 2093.500000
235.099300 7268.200000
236.107200 9089.500000
240.102300 6532.500000
241.109800 7958.400000
248.106700 5854.500000
249.114900 18157.400000
252.101800 17542.800000
254.117100 3088.100000
263.093400 4323.700000
264.102000 19519.500000
266.117700 24702.400000
267.126700 6609.900000
278.117400 11677.700000
279.088600 3106.300000
279.125500 9567.800000
280.096800 27179.400000
281.105400 6867.300000
282.112600 31874.100000
292.096500 7575.100000
294.112500 41233.100000
295.120500 75770.700000
296.128100 233261.300000
306.113200 2252.600000
308.091700 15400.900000
308.127700 15820.400000
309.099600 23405.300000
310.107600 34896.600000
322.108000 5102.800000
324.122900 1341633.800000
340.154100 140210.200000

>ms2
91.054300 3075.400000
95.049100 19915.700000
107.049000 3567.200000
115.054200 11037.000000
116.049700 3193.100000
117.070000 4838.000000
121.065000 2738.600000
123.044100 87782.300000
128.049300 6839.900000
130.065600 2856.500000
131.049400 3489.300000
131.072500 3664.100000
133.065200 2969.300000
135.044400 3449.700000
136.051800 4712.100000
138.067600 5222.500000
141.057300 4312.600000
142.065100 25056.600000
143.072500 5645.200000
144.043900 3571.900000
144.080500 6327.300000
145.064900 7033.200000
146.060000 2931.800000
147.080600 5108.300000
148.051900 19856.200000
151.075400 14874.200000
155.036400 2969.800000
155.072800 3284.100000
156.044300 15063.500000
157.052200 5105.300000
157.088600 4850.700000
158.060100 65472.500000
159.067800 34636.200000
160.051700 4008.500000
160.075700 9751.900000
161.059500 7555.200000
162.067000 3562.500000
170.060200 24126.200000
171.067900 545173.700000
172.039000 3604.800000
174.055200 6923.900000
174.067500 4290.200000
174.091300 14630.800000
175.075400 35345.900000
186.055000 67244.700000
187.062800 110159.600000
188.070700 29634.700000
189.078500 23004.700000
190.086300 6945.200000
202.086200 911799.900000
220.075300 2191.600000
224.107300 6041.000000
235.099400 10447.200000
236.107500 8144.000000
240.101800 14496.200000
241.110800 7992.700000
248.107500 5634.000000
249.114600 14843.800000
251.094200 5537.900000
252.101800 29328.300000
254.116800 4081.100000
263.094500 5381.500000
264.101800 25704.700000
266.117500 30937.700000
267.090000 2754.300000
278.080200 2575.400000
278.117500 10092.100000
279.088500 6688.700000
279.125100 9195.800000
280.096900 57532.700000
281.105400 14209.600000
282.112600 39548.800000
292.097100 8093.000000
294.112600 51018.400000
295.120600 50321.900000
296.128100 185345.600000
306.112500 3292.600000
308.091700 44101.000000
308.128100 15309.700000
309.099400 33929.900000
310.107600 20340.800000
322.107600 7511.600000
324.123000 1150393.100000
340.154400 37204.300000

>ms2
91.054000 1850.600000
95.049100 24460.300000
103.054300 3642.200000
107.049000 4442.600000
108.056800 2275.200000
115.054200 13131.800000
116.049500 5442.600000
117.069900 5257.600000
123.044000 87266.500000
128.049600 12396.400000
129.057200 5094.200000
130.065100 5275.900000
131.049200 5894.500000
131.072900 5318.000000
132.056900 4426.800000
133.064700 4578.400000
135.044200 4195.100000
136.051700 5463.900000
138.067500 4410.500000
140.049500 3913.900000
141.057100 7874.100000
142.065100 26659.500000
143.072500 6152.100000
144.044500 5971.100000
144.080600 9872.800000
145.064800 8991.500000
146.060200 6521.300000
147.080500 6394.000000
148.051800 20372.800000
151.075200 10813.900000
155.036700 3961.300000
155.072800 4038.200000
156.044400 31821.800000
157.051900 10650.200000
157.088700 4463.800000
158.060100 79004.500000
159.067700 40777.700000
160.051900 3388.800000
160.075300 12483.400000
161.059700 6342.500000
162.068000 3663.400000
170.060100 25884.100000
171.067800 544382.300000
172.039500 5643.800000
172.072500 54788.400000
174.054900 9408.600000
174.067400 3356.600000
174.091300 9493.700000
175.075300 33955.700000
183.068000 2320.400000
186.055000 82911.000000
187.062800 110887.000000
188.070800 24397.200000
189.078400 29808.200000
190.086400 6528.800000
200.070400 1851.800000
202.086200 630529.600000
204.065500 1994.900000
219.104500 3959.400000
220.076100 3691.700000
222.091900 1918.800000
223.099200 3290.100000
224.106600 4655.700000
227.093500 2580.600000
234.090600 5197.400000
235.099200 14851.400000
236.107400 9645.600000
237.078900 3229.400000
238.085800 1725.300000
240.101700 23431.300000
241.110800 9225.900000
248.070300 2466.500000
248.107100 5111.100000
249.078800 2156.600000
249.115000 11450.200000
250.086900 2623.600000
251.094400 9435.400000
252.101900 39475.500000
254.117900 7011.900000
262.085900 4188.200000
263.094500 9122.900000
264.102100 28231.700000
266.117400 34478.400000
267.089900 3374.600000
267.126700 5373.700000
278.080400 2550.000000
278.117500 13212.700000
279.089500 16788.700000
279.125500 5659.300000
280.096800 90105.800000
281.105800 15497.100000
282.112500 37219.600000
292.097500 8942.700000
294.112400 51505.400000
295.120400 24021.700000
296.128000 131894.900000
308.091700 90535.700000
308.127500 10134.200000
309.099800 48217.300000
310.107300 11816.300000
322.107900 14214.100000
324.122900 836897.100000
340.154600 9379.300000

>ms2
77.038400 2879.400000
91.054300 4321.700000
95.049100 30902.700000
103.054400 3700.600000
107.049200 5990.100000
108.057200 2994.700000
115.054200 22431.000000
116.049700 6386.300000
117.069900 6317.300000
118.065100 3326.900000
121.064700 4682.700000
123.044000 82836.900000
128.049500 25219.700000
129.057100 7175.600000
130.041500 2635.100000
130.065100 11030.600000
131.049300 11946.300000
131.072900 7472.000000
132.056900 6062.700000
133.028500 2803.800000
133.064400 5027.300000
135.044100 7666.500000
136.052200 4503.600000
138.067700 7440.000000
140.049300 6703.000000
141.057300 11399.800000
142.065100 33709.100000
143.072500 6228.700000
144.044500 9781.400000
144.057200 1850.500000
144.080900 7918.900000
145.064800 8714.600000
146.059800 7802.500000
146.072500 2154.600000
147.080400 5770.800000
148.051800 18755.300000
151.075400 9607.500000
155.036500 8409.800000
155.073400 4329.000000
156.044400 50068.000000
157.051900 12852.200000
157.088800 3762.600000
158.060100 96553.200000
159.067800 50155.700000
160.051800 5184.100000
160.075500 13837.400000
161.059700 6375.100000
162.067500 3551.300000
170.060200 28500.100000
171.067800 531595.200000
172.039400 8461.700000
172.073200 47493.600000
174.055000 10959.900000
174.067300 2642.200000
174.091400 8946.600000
175.075300 29964.200000
183.067800 4265.600000
186.055000 94820.000000
187.062800 101756.800000
188.070700 21761.300000
189.078400 31757.400000
190.086500 5816.000000
200.070400 4346.300000
202.086200 483873.600000
204.065500 4644.500000
209.084100 4170.400000
219.104600 2392.000000
220.075500 6754.300000
221.083800 4576.600000
222.091900 4587.600000
223.099500 6432.900000
224.107000 9990.000000
227.094300 5641.000000
234.091900 6707.300000
235.099300 15423.100000
236.107400 7205.400000
237.078700 4557.800000
238.086200 7465.600000
240.101800 27839.300000
241.110300 10353.400000
248.071700 2996.200000
248.107400 6748.500000
249.114600 4950.000000
250.086500 10466.600000
251.094500 17595.600000
252.101800 46924.500000
254.117600 10757.800000
262.086000 7033.900000
263.094100 19260.400000
264.102200 24253.900000
266.081400 5993.500000
266.117600 36187.700000
267.089700 4752.300000
278.080400 5962.600000
278.117500 11318.600000
279.089100 26127.700000
280.096800 139206.900000
281.105200 15668.000000
282.112500 31031.700000
292.096700 5231.400000
294.112300 44528.400000
295.120500 11721.500000
296.128100 84507.500000
306.112700 3458.200000
308.091800 155860.000000
308.128100 8658.600000
309.099600 46001.100000
322.107200 19905.400000
324.122900 575168.200000

>ms2
77.038400 4574.600000
91.054200 5672.300000
95.049100 37765.000000
103.054200 11744.800000
107.049100 9292.600000
108.057000 3629.100000
115.054200 27631.100000
116.049400 7579.300000
117.069800 6761.100000
118.065000 6044.700000
121.065000 2539.800000
123.044100 68766.200000
128.049500 37736.400000
129.057300 7234.200000
130.041000 2736.700000
130.065100 15729.600000
131.049200 18111.100000
131.073000 9138.700000
132.057000 7665.300000
133.028700 3128.300000
133.064500 3412.300000
135.044300 7556.300000
136.051800 4129.300000
138.067700 6614.700000
140.049500 11362.700000
141.057300 17796.300000
142.065100 26629.000000
143.072700 6335.500000
144.044400 11276.200000
144.057300 2398.900000
144.080600 5614.300000
145.064700 11442.000000
146.060000 9944.200000
146.072600 1434.600000
147.080600 4345.000000
148.051900 15559.500000
151.075500 7959.500000
155.036400 4955.500000
155.072900 2288.700000
156.044400 75838.700000
157.051600 16019.400000
157.088600 3061.900000
158.060100 102983.100000
159.067700 46833.400000
160.052100 5598.400000
160.075600 15364.700000
161.059800 6160.600000
162.067000 1344.000000
170.060300 26435.700000
171.067900 475133.400000
172.039400 7319.800000
172.072200 44056.200000
174.055100 15432.700000
174.067500 2881.800000
174.091500 6632.300000
175.075300 30059.400000
183.068000 4741.300000
186.055000 98297.000000
187.062800 86731.500000
188.070800 16704.600000
189.078500 31430.600000
190.086500 6812.300000
200.070400 5940.300000
202.086200 336806.100000
204.065100 3280.300000
209.083900 4221.200000
220.075700 11553.200000
221.084100 5098.500000
222.091600 8629.000000
223.099900 9272.600000
224.107300 11194.500000
227.094000 5586.300000
234.091400 12543.300000
235.099400 18714.500000
236.107900 7168.900000
237.078400 5648.000000
238.086300 9641.300000
240.102000 30597.300000
248.069600 4508.300000
248.107000 2629.600000
249.079500 2871.300000
250.086400 17139.500000
251.094400 20076.600000
252.102100 44946.900000
254.117800 11038.000000
262.086400 8497.000000
263.094300 22948.800000
264.102500 19190.100000
266.081200 8626.600000
266.117500 30913.600000
267.090200 2431.800000
278.081500 8225.700000
278.117100 6703.700000
279.089100 34937.800000
280.096800 167277.600000
282.112800 22422.200000
292.097000 7324.800000
294.112400 30646.800000
296.128100 43049.600000
308.091800 192398.200000
309.099000 35067.300000
322.107200 12561.800000
324.123000 322161.200000

>ms2
77.038600 9836.000000
91.054200 8763.400000
95.049100 55426.600000
102.046400 5029.300000
103.054200 24469.800000
107.049000 17578.100000
108.057000 5733.400000
114.046400 4207.400000
115.054200 45125.200000
116.049500 16022.600000
116.062200 5295.400000
117.069900 7652.600000
118.041600 3317.300000
118.065200 13433.800000
119.049100 3748.100000
121.064600 5173.900000
123.044000 80977.400000
127.041500 7949.400000
128.049500 83842.300000
129.057200 20316.500000
130.041400 1894.900000
130.065100 35920.000000
131.049200 37239.700000
131.073000 15550.000000
132.057000 12767.400000
132.080900 2241.000000
133.028400 7818.600000
133.064800 4476.500000
135.044200 9422.000000
136.051800 5181.300000
138.067600 11028.600000
140.049500 20960.200000
141.057200 28463.300000
142.065100 40267.000000
143.049200 2033.800000
143.072800 8767.200000
144.044400 27957.600000
144.057000 4176.000000
144.080400 8311.500000
145.064800 17169.900000
146.060000 20879.400000
147.044400 2735.600000
147.080400 6182.400000
148.051900 15212.000000
151.075500 12673.400000
155.036600 8500.300000
156.044500 143264.500000
157.089100 2510.500000
158.060100 172985.700000
159.043900 5963.700000
159.067600 69299.000000
160.051200 6242.900000
160.075300 18787.100000
161.059700 8733.500000
170.060100 36875.500000
171.067900 578812.800000
172.039200 17533.600000
173.047400 2715.600000
174.054900 21350.500000
174.091000 7262.100000
175.075300 36921.100000
183.067600 7761.500000
184.075400 3552.500000
186.054900 141860.900000
187.062800 100197.000000
188.070700 14757.100000
189.078400 37125.300000
190.086200 8895.300000
191.073600 2200.600000
192.080300 2932.900000
194.096400 1558.900000
196.075600 8228.000000
197.083100 3221.200000
200.070400 7156.000000
202.086100 333257.100000
204.065500 6468.000000
204.080800 4390.300000
205.089200 3169.700000
206.096400 6712.600000
208.075100 7643.100000
209.083900 9899.800000
210.091700 7206.500000
220.075500 20150.700000
221.084200 9932.500000
222.091500 21121.800000
223.099600 14078.900000
224.070400 11083.900000
224.107200 14571.700000
225.078800 4769.700000
227.093900 5697.300000
233.083900 7604.500000
234.091500 20653.500000
235.099400 25398.900000
236.070500 5642.000000
237.078700 9107.800000
238.086300 24818.800000
240.101800 40480.800000
248.070400 7152.400000
248.107100 6823.000000
249.079100 6048.400000
250.086200 37104.500000
251.094300 34658.500000
252.102100 60953.800000
254.117600 15105.900000
262.086200 13627.500000
263.094200 32729.200000
264.102300 24493.900000
266.081000 16780.800000
266.117300 34122.200000
267.089900 3531.100000
278.081000 20058.200000
278.117500 6241.300000
279.089100 49406.800000
280.096700 245842.500000
282.112800 20502.300000
290.082500 4502.200000
292.096900 9145.400000
294.112300 33042.000000
296.127900 32106.200000
306.075700 2078.100000
308.091600 301003.600000
322.107300 16732.200000
324.122800 233812.600000

>ms2
77.038600 6758.900000
91.054200 13774.600000
95.049100 58696.000000
102.046500 5291.900000
103.054200 39694.600000
104.062200 3367.800000
107.049100 20491.100000
108.057300 5128.700000
114.046300 7967.800000
115.054200 49438.600000
116.049400 24115.300000
116.062100 6703.100000
117.069800 9340.300000
118.041100 3443.000000
118.065100 16357.200000
123.044000 74716.100000
127.041600 10340.300000
128.049500 129026.400000
129.057300 29449.800000
130.041400 6027.600000
130.065100 55597.100000
131.049100 54071.500000
131.072900 22091.500000
132.057000 14657.700000
133.028700 5846.900000
133.064900 5133.800000
135.044100 12449.300000
136.052000 4707.500000
138.067600 8477.800000
140.049400 26586.000000
141.057300 39719.800000
142.065100 37250.700000
143.072600 9491.400000
144.044500 32464.100000
144.056600 2876.800000
144.080800 5458.600000
145.051600 4376.000000
145.064600 15217.100000
146.060100 31695.800000
147.080500 4233.500000
148.051900 15728.700000
151.075400 14410.600000
154.065600 3281.600000
155.036400 9659.800000
156.044400 190317.400000
157.051900 29323.400000
158.060100 207295.900000
159.044200 9761.300000
159.067700 75551.600000
160.052100 10179.300000
160.075600 18427.600000
161.059400 9505.200000
170.060200 37424.700000
171.067900 530652.800000
172.039300 19191.300000
172.073100 39890.000000
173.047300 3174.100000
174.054900 23906.800000
174.091200 2982.800000
175.075400 30728.300000
180.081200 2761.300000
181.088300 2893.200000
183.067500 8158.300000
184.075800 4705.300000
186.054900 163704.500000
187.062800 93662.400000
188.070800 13600.000000
189.078300 33303.600000
190.086600 9579.500000
192.080800 2913.600000
193.089000 4379.600000
196.075600 12676.100000
197.083700 6559.600000
200.070400 4197.400000
202.086100 240346.100000
204.065400 8141.300000
204.080600 7508.600000
205.088600 5831.100000
206.096400 10287.800000
208.075800 10578.700000
209.083500 11369.500000
210.091400 11559.000000
212.070300 5201.100000
220.075400 25662.100000
221.083900 14754.900000
222.091400 33232.600000
223.099500 16821.300000
224.070000 15523.100000
224.107300 15077.800000
225.078700 8444.100000
227.093900 7450.800000
232.075700 3146.600000
233.083200 9927.300000
234.091300 34026.800000
235.099300 25408.000000
236.070000 10638.200000
236.107900 6039.400000
237.078300 11442.200000
238.086300 34737.100000
240.101700 43083.000000
247.099000 4062.700000
248.070500 8893.800000
248.107600 3367.700000
249.078400 7622.500000
250.086200 56438.300000
251.094200 43358.500000
252.101900 69638.400000
254.117800 13216.100000
262.086100 22299.700000
263.094200 34599.400000
264.102000 27428.400000
265.073300 2511.500000
266.081000 20575.800000
266.117600 32673.700000
267.090000 3169.800000
278.081100 30719.700000
278.118100 4408.800000
279.088900 48628.200000
280.096600 274542.600000
282.112500 9953.600000
290.079800 3051.800000
292.096500 8408.900000
294.112100 22512.400000
296.128200 15180.400000
306.076700 6303.500000
308.091600 325223.100000
322.107200 10503.400000
324.122800 114109.900000

>ms2
77.038600 13462.900000
78.046400 3126.800000
91.054200 15737.900000
95.049100 61143.300000
102.046400 7727.300000
103.054200 59420.100000
107.049100 23275.500000
108.057000 6100.100000
114.046500 11927.400000
115.054200 53015.400000
116.049500 28044.400000
116.062100 6035.800000
117.057100 3022.700000
117.069800 8897.000000
118.041000 3470.300000
118.065200 21211.000000
119.049100 4292.400000
121.065100 2874.900000
123.044100 55423.400000
127.041800 10751.100000
128.049500 153020.600000
129.057300 38153.400000
130.041200 5067.300000
130.065100 60980.600000
131.049100 69105.000000
131.073000 19317.400000
132.056700 10923.800000
132.081100 2947.700000
133.028400 7149.000000
133.065100 4163.200000
135.044100 10670.900000
136.052500 3649.800000
138.067500 6949.800000
140.049500 34901.900000
141.057300 42330.300000
142.065100 33815.100000
143.072600 8227.100000
144.044500 38079.100000
144.057200 5249.800000
144.080700 5147.300000
145.052000 5764.400000
145.064900 15472.300000
146.060000 31769.200000
147.044300 2876.500000
148.052100 10374.400000
151.075200 13715.800000
154.065600 3222.800000
155.036600 10667.900000
156.044500 211863.300000
157.051800 27996.300000
158.060100 221641.900000
159.044000 16778.700000
159.067600 67986.200000
160.051900 5569.300000
160.075500 16460.000000
161.060300 5624.100000
170.060100 36441.600000
171.067900 413825.100000
172.039300 18387.300000
172.072600 31397.900000
173.046600 4286.300000
174.054900 21684.800000
174.091400 4379.200000
175.075300 27078.700000
180.080600 4429.200000
181.088800 3767.000000
183.067700 10521.100000
184.075500 5599.900000
186.055000 178685.000000
187.062900 69040.500000
188.070800 8377.300000
189.078400 20822.100000
190.086900 3296.800000
191.072400 3549.500000
192.080600 8513.100000
193.088500 4090.400000
194.097300 5880.200000
196.075700 16812.900000
197.084200 6115.200000
200.070400 3987.100000
202.086200 148980.900000
204.066000 8903.200000
204.080400 10904.900000
205.088900 6294.400000
206.096100 9294.800000
207.068000 2599.400000
208.075600 11955.100000
209.083700 18027.500000
210.091400 16188.000000
211.062300 1972.400000
212.071100 3053.800000
217.088300 4539.000000
218.096800 3256.900000
220.075700 29121.600000
221.083800 13771.900000
222.091200 50838.400000
224.070400 20159.800000
224.107300 14847.300000
225.079300 9491.600000
227.094700 7109.600000
232.075800 6069.500000
233.083500 15673.500000
234.091300 39083.000000
235.099400 21143.700000
236.070900 12608.700000
236.107500 4719.500000
237.078800 12159.700000
238.086300 40242.600000
240.101900 32151.600000
248.070600 12148.600000
248.106000 2946.200000
249.078700 10719.300000
250.086200 80519.100000
251.094500 32259.600000
252.102100 50906.100000
254.117600 8726.300000
262.086400 15982.700000
263.094200 31907.000000
264.102300 20297.900000
266.080900 21603.900000
266.117600 23096.100000
277.072000 3168.100000
278.081100 40068.900000
278.117500 3569.100000
279.089200 33016.200000
280.096700 216733.300000
282.112100 6968.600000
290.081600 3265.500000
292.096800 4251.400000
294.112400 14077.100000
296.128200 5835.600000
306.076600 7621.700000
308.091700 272104.700000
322.107200 5170.900000
324.122800 44223.600000

>ms2
77.038600 18204.900000
78.046600 1764.800000
90.046300 1955.000000
91.054200 15000.400000
95.049200 52865.000000
102.046400 11018.500000
103.054200 70840.500000
104.061900 2765.200000
105.033700 3598.100000
107.049100 24626.700000
108.057000 4425.900000
114.046400 15728.200000
115.054200 53408.400000
116.049500 27150.800000
116.062100 5601.200000
117.057600 5192.200000
117.069900 5178.100000
118.041300 3931.700000
118.065200 20613.600000
119.048900 4205.000000
121.064500 2062.800000
123.044100 40528.200000
127.041700 14389.000000
128.049500 171102.100000
129.057300 34808.800000
130.041000 3536.200000
130.065100 64134.100000
131.049200 84616.800000
131.073000 19589.000000
132.056900 13853.500000
132.080300 1900.200000
133.028300 5635.500000
133.064900 4630.300000
135.044200 10190.400000
136.051800 2501.500000
138.067500 5542.100000
140.049500 41294.600000
141.057300 33704.200000
142.065100 33632.800000
143.072700 8320.800000
144.044500 41109.000000
144.057000 5195.600000
144.080600 4058.000000
145.051700 6416.300000
145.064800 11050.900000
146.060100 30833.700000
147.044500 2247.100000
147.080600 2016.300000
148.051800 9182.900000
151.075300 9551.800000
154.065300 3220.700000
155.036600 9487.500000
156.044500 191302.800000
158.060100 212459.300000
159.044100 17638.600000
159.067500 53678.900000
160.051500 4364.800000
160.075100 12097.400000
161.060000 6171.300000
167.073600 2479.100000
170.060100 24764.800000
171.067900 295339.900000
172.039300 15333.900000
173.046400 4125.300000
174.054900 17838.600000
174.091300 3799.000000
175.075300 20076.700000
179.072200 2106.100000
180.080700 6707.200000
181.088300 5154.100000
183.067900 10028.100000
184.076100 5717.200000
186.055000 168735.300000
187.063000 44386.700000
188.070800 9623.400000
189.078400 16179.900000
190.086100 3493.800000
191.073000 5000.100000
192.080800 12819.300000
193.088800 6023.100000
194.096400 4605.200000
195.068300 2543.500000
196.075600 19634.200000
197.084200 5947.800000
200.070400 3532.600000
202.086200 77607.400000
204.065300 11236.500000
204.080600 13758.800000
205.089100 8246.200000
206.096600 11478.600000
207.067800 4158.600000
208.075700 17906.000000
209.083800 18491.100000
210.091400 18804.100000
211.063700 2049.500000
212.070700 4407.600000
216.081200 3132.800000
217.088900 4774.800000
219.068600 3467.800000
220.075800 33766.300000
221.084100 17932.200000
222.091400 57215.100000
224.070500 29018.800000
224.107500 9710.400000
225.079000 9126.600000
227.093800 3127.100000
232.076000 4804.100000
233.083700 17324.200000
234.091400 34883.300000
235.099900 14710.200000
236.070400 13722.000000
236.107700 3855.800000
237.079000 7864.800000
238.086300 35924.000000
240.102100 26235.000000
247.100200 2122.100000
248.070800 11649.500000
248.106200 1717.000000
249.078800 9971.500000
250.086300 85763.800000
252.102200 36044.800000
254.116900 5165.700000
262.086300 17475.700000
263.094400 18202.700000
264.102100 15638.900000
266.081100 16441.300000
266.117900 12558.600000
277.073900 1847.400000
278.081100 33452.000000
279.089700 19638.300000
280.096800 155215.900000
282.112700 2787.100000
290.081000 1884.800000
292.095900 4207.600000
294.112300 4694.100000
296.127900 1751.600000
306.076000 8872.000000
308.091700 184152.800000
322.106900 1672.500000
324.123000 12491.100000

>ms2
77.038600 18462.000000
78.046500 2191.500000
90.046400 1730.600000
91.054200 17652.600000
95.049100 49283.200000
102.046400 14347.200000
103.054200 83039.400000
104.062000 3375.000000
105.033300 3936.200000
107.049100 24517.600000
108.056800 2914.700000
114.046400 16618.600000
115.054200 51441.200000
116.049400 33981.000000
116.062100 5735.500000
117.057200 5693.300000
117.070000 4145.200000
118.041200 3501.300000
118.065100 25053.200000
119.049200 4875.200000
121.064600 1979.700000
123.044000 26795.900000
127.041700 13269.300000
128.049500 197453.700000
129.057300 38115.300000
130.041400 4263.100000
130.065100 78209.700000
131.049100 94888.100000
131.072900 17187.900000
132.056900 12348.100000
132.080800 2099.100000
133.028300 8729.500000
133.064500 1559.700000
135.044200 10471.700000
136.052200 2688.900000
138.067500 2934.000000
140.049500 37644.900000
141.057300 34060.500000
142.065000 24140.900000
143.048500 1535.300000
143.072500 5781.900000
144.044400 38780.200000
144.057000 2520.900000
144.080700 4081.700000
145.052100 7669.300000
145.064700 10653.600000
146.060000 31148.900000
147.043900 2125.700000
148.052000 4008.700000
151.075500 6763.100000
154.065000 3510.900000
155.036700 7116.600000
156.044400 167647.800000
157.088500 2329.200000
158.060100 195237.300000
159.044100 19314.700000
159.067500 46342.600000
160.051400 4179.000000
160.075200 9729.400000
161.059700 3426.600000
167.072800 3946.400000
170.060000 19778.700000
171.067900 207121.000000
172.039300 14461.400000
174.054900 11862.100000
174.091000 1745.700000
175.075200 14328.800000
179.072900 1836.500000
180.080700 10537.900000
181.088400 5538.000000
183.067900 11658.300000
184.075500 7047.800000
186.054900 140293.100000
187.062800 30203.200000
188.070500 6693.900000
189.078400 9235.000000
190.086400 2645.500000
191.073000 8512.000000
192.080800 18051.300000
193.088600 4709.300000
194.096500 9146.800000
195.067700 3095.600000
196.075700 21556.000000
197.083800 5308.800000
202.086200 37544.900000
204.065600 8849.500000
204.080700 16525.000000
205.088800 9435.900000
206.096500 13021.900000
207.067700 7108.100000
208.075500 22641.300000
209.083800 16417.000000
210.091400 17475.900000
211.062500 4325.600000
212.070800 3084.800000
216.080100 2865.600000
217.088600 6002.900000
218.096600 3175.500000
219.068100 3380.500000
220.075600 35692.500000
221.084000 18642.400000
222.091300 64818.400000
224.070400 29554.000000
224.107400 5402.900000
225.079000 7378.200000
232.075300 7559.500000
233.083700 21674.600000
234.091500 30672.200000
236.070500 17465.800000
236.108100 2479.600000
237.079100 6414.300000
238.086100 39082.300000
240.102000 14465.600000
248.070600 11274.700000
249.078700 12003.800000
250.086200 84777.200000
252.102000 27995.700000
254.117600 2328.700000
262.086400 16942.700000
263.094700 11885.700000
264.102200 9051.300000
265.073100 2350.400000
266.081200 14317.000000
266.118200 7952.500000
278.081100 32069.100000
279.089700 11403.200000
280.096700 103689.400000
292.097700 2234.100000
294.111600 3208.200000
306.076600 6867.000000
308.091600 112522.200000
322.105900 1673.700000
324.123400 5042.400000

