>compound NA19660176
>parentmass 355.2016000000001
>ionization [M+H]+
>formula C21H26N2O3
>rt 391.380000
>profile orbitrap
#smiles_iso COC(=O)[C@H]1[C@H](CC[C@@H]2[C@@H]1C[C@H]3C4=C(CCN3C2)C5=CC=CC=C5N4)O
#smiles_can COC(=O)C1C(CCC2C1CC3C4=C(CCN3C2)C5=CC=CC=C5N4)O
#inchikey BLGXFZZNTVWLAY-SCYLSFHTSA-N
#pubchem_id 8969
#mb_accession NA002379,NA002380,NA002381,NA002382,NA002383,NA002774,NA002775,NA002776,NA002777,NA002778,NA003154,NA003155,NA003156,NA003157,NA003158,NA003519,NA003520,NA003521,NA003522,NA003523

>ms2peaks
355.201200 279660.400000

>ms2peaks
144.080600 2022.400000
355.201400 986564.500000

>ms2peaks
144.080600 5307.100000
212.128400 3555.400000
355.201400 1012720.500000

>ms2peaks
144.080700 31045.700000
212.128000 30846.500000
224.128200 5425.700000
285.008800 2131.900000
326.175600 1943.500000
355.201500 986328.200000

>ms2peaks
144.080800 134486.200000
212.128100 97470.500000
224.128000 16350.100000
285.009600 3878.300000
326.175300 6127.400000
355.201600 858727.200000

>ms2peaks
117.069900 1780.000000
130.064700 1556.000000
144.080700 540597.800000
158.096400 5414.000000
162.091400 1655.500000
177.091100 2352.200000
180.102000 3292.600000
192.102200 1637.400000
194.117600 5429.000000
198.112800 2105.700000
206.118200 1412.600000
210.112200 2284.000000
212.128100 356283.100000
224.128100 52304.100000
226.142700 1857.800000
248.143400 1071.100000
266.153200 1455.100000
294.149200 8378.200000
306.148200 3678.400000
308.165100 3600.000000
312.159800 2627.600000
320.163100 2126.300000
323.176400 1200.700000
324.159600 2139.500000
326.174900 15606.900000
337.192000 2241.600000
338.174800 9271.000000
355.201500 960546.600000

>ms2peaks
117.070000 4483.600000
130.065100 5549.000000
132.080500 2554.800000
134.096500 4143.800000
144.080800 848894.100000
158.096500 8470.600000
162.091500 7076.100000
163.075600 1432.700000
177.090300 2312.400000
180.102000 8574.100000
192.102300 2939.400000
194.117500 12981.200000
198.111800 2451.600000
206.117700 1979.600000
210.112900 3427.600000
212.128100 469725.600000
224.128100 71564.200000
226.143600 3414.600000
248.143100 3940.100000
260.142900 2714.500000
266.154500 2560.800000
276.138400 1415.700000
278.155100 1086.000000
280.133100 1204.100000
294.149100 12772.600000
306.149200 6304.900000
308.164800 5146.600000
312.159700 2693.300000
320.165800 3348.300000
324.158700 3266.700000
326.175200 19403.300000
337.191500 3136.500000
338.175200 12575.200000
355.201600 558569.600000

>ms2peaks
105.069800 1379.100000
106.064900 1648.500000
117.069800 9461.000000
130.065100 7231.300000
132.080800 2722.700000
134.096300 11397.000000
144.080700 1055977.600000
152.106300 1117.400000
158.096300 14129.800000
162.091300 12865.700000
163.075500 2293.200000
170.096500 1587.100000
177.091100 2793.900000
180.101900 14420.400000
192.101800 5105.900000
194.117400 29358.000000
198.111800 2292.500000
206.117600 3359.500000
210.112300 4121.600000
212.128000 429048.400000
220.112900 1221.300000
224.127900 68462.700000
226.143600 3221.700000
234.127300 1306.800000
246.128200 1856.200000
248.143100 6765.700000
260.143900 5204.100000
266.153900 3133.200000
276.138800 2359.400000
278.154500 2044.500000
288.138200 1493.800000
294.148600 13315.600000
306.149100 7042.700000
308.163400 6387.800000
312.159300 1938.700000
320.164800 4488.800000
323.176000 1650.800000
324.159700 1787.500000
326.174900 12245.400000
337.190900 3600.000000
338.175100 11062.900000
355.201400 271486.100000

>ms2peaks
79.054000 1464.500000
94.065300 1483.500000
105.069800 2356.400000
106.065200 2396.300000
107.085700 1546.900000
117.069900 15592.800000
119.085900 1542.800000
130.065200 10508.700000
132.080800 3383.500000
134.096500 23545.100000
135.080900 1354.400000
136.112300 2628.700000
144.080800 1097488.800000
145.064800 1670.100000
146.096000 2428.100000
152.107100 1907.700000
156.080600 2016.200000
158.096500 14061.800000
162.091300 21374.300000
163.075100 1393.100000
168.080700 1914.800000
170.096400 2863.900000
177.090400 2600.500000
180.102000 20187.100000
192.101900 5458.100000
194.117600 39581.700000
198.112500 1363.700000
206.117700 4368.700000
208.112500 1671.400000
210.112800 3197.400000
212.128200 308786.200000
220.112500 1596.200000
221.120700 1598.500000
224.128100 49817.600000
226.144100 3182.100000
234.127600 3066.600000
246.127200 2374.800000
248.143300 6793.900000
260.143100 6000.400000
266.154300 3399.500000
276.139000 1856.400000
278.154100 1467.600000
288.138000 2619.000000
294.149200 9601.300000
306.148300 5638.500000
308.164300 6632.900000
320.164400 2691.900000
323.175200 1814.800000
326.174900 7788.000000
337.190800 3097.900000
338.175100 6727.500000
355.201800 98471.600000

>ms2peaks
79.054300 1323.000000
94.065100 3020.500000
105.069900 2830.600000
106.065200 5192.700000
107.085600 2067.500000
117.069900 18107.400000
119.085600 2391.100000
130.065200 11496.200000
132.080900 4663.500000
134.096500 34592.500000
135.080700 2426.600000
136.112400 1624.500000
144.080800 1037314.900000
145.064900 2413.500000
146.096200 2546.100000
152.107000 2236.900000
156.081500 2060.600000
158.096500 12268.100000
162.091500 24362.000000
163.075200 2011.600000
168.080800 1447.600000
170.096700 3926.700000
177.091100 2739.400000
180.102000 20633.700000
192.102200 6158.700000
194.117600 41176.000000
206.117800 2568.600000
208.112400 1798.700000
210.112900 1479.600000
212.128200 197385.200000
220.111900 3007.500000
224.128300 34986.200000
234.128000 2462.300000
246.128500 2290.600000
248.143600 8022.000000
260.143500 5534.600000
266.154700 2472.900000
276.137300 2814.600000
278.154700 1306.400000
280.133400 1271.500000
288.138900 1628.300000
294.149600 7338.300000
306.149000 4084.200000
308.165000 3296.600000
320.164700 1826.200000
326.174700 2903.700000
337.191400 1650.100000
338.175200 3077.300000
355.202000 32133.800000

>ms2peaks
79.054300 2187.500000
91.054200 2806.600000
93.069600 2704.900000
94.064900 4589.700000
105.069900 3606.300000
106.065100 8268.800000
107.085700 3040.300000
117.069800 30676.400000
118.065200 2327.800000
119.085300 2048.900000
120.080900 1536.500000
130.065100 15825.800000
131.073500 1373.800000
132.080700 5116.400000
134.096400 43964.100000
135.080400 2578.300000
136.112100 2799.500000
138.091200 1803.700000
143.073000 8211.500000
144.080700 1085827.200000
145.064700 2859.000000
146.096000 2545.300000
152.107100 3212.100000
155.060100 4085.800000
156.080900 3179.000000
157.088700 3225.300000
158.096400 13899.100000
162.091300 28641.800000
168.080100 2404.700000
170.096300 4889.900000
180.080700 1969.000000
180.101800 21196.700000
182.096200 1790.400000
192.101600 3995.200000
194.117400 39076.000000
196.111900 1365.400000
206.096400 1847.000000
206.117600 3739.800000
208.111800 4165.000000
209.120200 2803.500000
212.128000 125218.300000
218.095700 1181.600000
220.111900 4137.800000
221.120400 1581.300000
222.128700 1511.300000
224.127900 23112.300000
226.142800 1697.100000
232.111900 1973.900000
234.127500 3987.900000
246.128300 3070.000000
248.143100 7914.400000
260.143200 6792.000000
276.137900 2632.700000
294.148800 3745.800000
355.201400 10037.700000

>ms2peaks
79.054100 2652.500000
80.049500 2124.600000
91.054200 3106.700000
93.069900 1766.800000
94.065000 8070.800000
105.069900 4995.200000
106.065100 11208.500000
107.085500 2900.100000
115.054200 1736.200000
117.069800 46983.100000
118.065000 1519.400000
119.085500 1850.100000
120.080600 2682.800000
129.069600 1123.500000
130.065000 15491.100000
131.072700 2644.700000
132.080800 6287.500000
133.064200 1306.400000
134.096300 48077.500000
135.080200 2092.200000
136.112100 2030.600000
138.091300 1429.400000
143.072900 12959.200000
144.080700 1007639.000000
145.064500 2943.500000
146.096300 4535.000000
152.107000 2746.300000
155.060300 9397.000000
156.080700 5306.700000
157.088200 4595.700000
158.096400 15454.900000
162.091200 24841.100000
168.080800 2775.000000
169.088500 2103.000000
170.096400 5675.100000
180.081200 1955.900000
180.101800 17209.900000
182.096600 3292.800000
192.101900 5893.900000
194.096600 2731.000000
194.117400 30211.200000
196.111500 2272.800000
206.096400 2193.700000
206.116800 2268.000000
208.111900 3795.600000
209.119900 1473.200000
212.128000 64682.000000
218.097400 2001.200000
219.104000 2266.700000
220.111700 4151.400000
221.119200 2765.400000
222.126700 1110.700000
224.127800 13259.100000
226.143900 1152.600000
231.104000 1888.800000
232.111100 1937.500000
234.127600 4085.000000
245.119000 1015.000000
246.127200 3241.100000
248.143200 7965.500000
260.143800 2573.400000
276.138600 1448.100000
294.150000 1559.100000
355.201400 1987.100000

>ms2peaks
79.054300 2575.300000
80.049700 1713.600000
91.054300 5535.100000
93.069800 2575.100000
94.065200 7597.500000
105.069900 6099.500000
106.065200 11176.500000
107.085600 2985.800000
115.054200 3928.900000
117.069900 61897.500000
118.065200 2765.100000
119.049400 1167.600000
119.085400 2869.800000
120.080900 2596.500000
128.049400 2114.900000
129.070100 2863.700000
130.065200 13515.500000
131.072600 1841.000000
131.085800 1555.400000
132.080800 5038.100000
134.096400 44382.400000
135.080600 1413.300000
138.090800 2063.100000
143.073000 23959.800000
144.080800 884780.100000
145.065000 2877.600000
146.096300 3060.300000
152.107000 1773.000000
155.060500 12010.000000
156.080600 4495.000000
157.088700 4285.300000
158.096500 12972.200000
162.091400 18949.100000
168.080800 4639.500000
169.088800 1420.200000
170.096500 3712.100000
180.080700 2954.800000
180.101800 11201.100000
182.096600 3363.100000
192.102200 3990.500000
194.096500 3130.500000
194.117600 21203.500000
206.097100 2900.200000
207.103800 1197.300000
208.111900 3216.800000
209.119900 2100.700000
212.128100 28656.300000
218.097200 1532.500000
220.112300 4277.800000
221.119000 1337.600000
224.127900 8525.600000
231.105300 1610.700000
232.111800 2945.400000
233.119800 1790.100000
234.128100 3636.400000
246.128300 2134.300000
248.143200 5503.600000
260.142800 2678.200000

>ms2peaks
79.054200 4341.100000
80.049600 2311.600000
91.054200 7234.700000
93.070000 3327.700000
94.065100 9610.100000
103.054100 1782.300000
105.069800 4970.400000
106.065200 11507.000000
107.085800 1189.900000
115.054300 6644.000000
117.069900 71658.400000
118.065100 2822.900000
119.049300 1724.700000
119.085700 1874.000000
120.081000 2863.500000
128.049300 3009.700000
128.062600 1190.800000
129.070300 2830.400000
130.065100 16801.800000
131.073000 1930.700000
131.085200 1095.600000
132.080700 5579.700000
133.064800 1399.400000
134.096500 35807.600000
135.081100 993.800000
136.112000 1348.800000
138.091300 1511.200000
142.065600 1060.500000
143.073000 36570.700000
144.080800 758552.100000
145.064900 3917.400000
146.096600 2989.800000
152.106500 1433.100000
155.060400 18996.100000
156.080800 4797.800000
157.088600 4677.600000
158.096500 10704.000000
162.091500 13944.600000
168.080500 3017.300000
169.088000 1149.700000
170.096300 4203.800000
180.080800 2880.200000
180.101900 8351.300000
181.088600 1461.200000
182.096400 3829.700000
192.101400 3514.200000
194.096500 3151.300000
194.117600 12463.000000
196.111800 1522.300000
206.096100 3163.500000
207.104700 1487.500000
208.112200 4333.100000
209.119600 1626.200000
212.128200 12123.500000
217.087700 1060.400000
218.096300 2076.400000
219.104100 1841.700000
220.112100 3996.500000
221.119800 1162.000000
222.127700 1128.800000
224.128700 3321.500000
231.103600 1790.300000
232.111600 2042.600000
233.120600 1608.000000
234.128500 2020.800000
246.127600 2174.900000
248.143000 3271.100000
260.142700 1556.800000

>ms2peaks
79.054300 3645.300000
80.049600 2864.200000
91.054200 8672.600000
93.069900 1875.200000
94.065100 7212.100000
103.054200 2624.400000
105.069900 4745.700000
106.065100 12395.400000
107.085300 1278.900000
115.054200 10908.900000
117.069900 79486.900000
118.065200 3731.000000
119.049300 1370.700000
120.080900 2001.400000
128.049500 3634.100000
128.062000 2151.800000
129.069800 1858.900000
130.065100 13218.200000
131.073100 2370.400000
132.080800 3985.600000
133.065100 1164.200000
134.096400 26789.600000
135.080900 1235.500000
136.112000 1251.000000
142.065500 1184.100000
143.073000 41754.800000
144.080700 576273.800000
145.064800 2961.900000
146.096400 3015.200000
155.060300 22355.600000
156.080900 4575.600000
157.088700 3958.400000
158.096400 9226.600000
162.091400 7935.200000
168.080800 4127.500000
170.095900 1988.400000
180.080400 3095.400000
180.101500 3075.000000
181.089300 1475.600000
182.096000 1866.500000
192.101600 1698.600000
194.096300 2685.900000
194.117600 4568.300000
206.096400 3200.900000
208.112100 2987.000000
212.128100 4975.000000
217.088800 1570.700000
218.096300 2157.900000
219.103300 2136.600000
220.111700 3366.300000
231.104100 1692.300000
232.112800 2845.000000
234.127200 1824.300000
245.120300 1291.900000
246.126800 1207.200000
248.143700 1608.400000

>ms2peaks
70.065300 1051.300000
79.054300 6015.400000
80.049500 4765.700000
81.033400 2075.100000
81.069800 2301.600000
82.065200 1489.100000
91.054300 21120.600000
92.049300 1407.100000
93.057300 1840.300000
93.070000 5536.800000
94.065200 18957.300000
95.072900 2701.400000
103.054300 7705.600000
104.049600 1617.600000
105.044200 1083.400000
105.069900 11924.000000
106.065200 29469.800000
107.048900 1228.400000
107.073000 1572.300000
107.085500 3137.200000
108.080600 2871.400000
110.096700 1112.900000
113.059800 2979.100000
115.054300 39478.500000
116.049700 3969.800000
116.057800 1755.300000
116.062500 1178.600000
117.057400 15834.200000
117.069900 186181.700000
118.065100 11035.900000
118.073300 9539.600000
119.049300 2061.400000
119.073100 1832.900000
119.085500 2779.600000
120.080900 4933.500000
127.054200 5121.100000
128.049500 9055.900000
128.062100 5394.600000
129.057300 2180.500000
129.069900 6469.800000
130.065200 26838.600000
131.072900 5356.200000
132.080800 8905.000000
133.065300 1558.400000
134.096500 44740.500000
135.104400 2266.600000
138.091400 2054.500000
142.065500 4434.000000
143.073100 110332.300000
144.080800 979057.100000
145.064700 6706.200000
146.060000 2563.900000
146.096300 4469.000000
154.064900 2358.200000
155.060400 63352.000000
155.072600 3225.500000
156.080900 9551.100000
157.088600 7463.900000
158.096600 11796.900000
162.091300 13781.200000
167.072900 4747.500000
168.080800 9071.000000
169.089100 1704.300000
170.096600 5263.900000
180.080500 6765.600000
180.102000 3995.800000
181.088700 3151.000000
182.096400 5314.900000
192.080700 1715.800000
193.089000 3110.300000
194.096700 6217.600000
194.117500 6112.300000
195.104600 1351.100000
196.112600 1342.600000
204.081100 2019.900000
205.088300 3242.400000
206.096700 6455.700000
208.112300 4592.400000
212.127800 4121.700000
217.089000 2489.100000
218.096700 5681.700000
219.105000 3146.200000
220.112000 6927.500000
230.096400 3512.600000
231.104200 3287.600000
232.112500 5101.500000
233.120300 2870.700000
234.127100 1937.100000
246.126700 2448.400000

>ms2peaks
70.065100 1725.100000
77.038600 2398.000000
79.054200 7256.500000
80.049500 6187.000000
81.033600 2175.500000
81.070300 1640.900000
82.064900 1434.600000
91.054200 28378.300000
93.057300 3155.100000
93.069900 3204.800000
94.065100 18572.300000
95.072900 2075.600000
103.054200 11366.000000
104.049500 1506.300000
105.044600 2829.900000
105.069900 9273.500000
106.065100 26622.600000
107.072700 2257.600000
107.085500 2495.700000
108.080600 2312.600000
110.096500 1479.000000
113.059600 2568.000000
115.054200 44588.900000
116.049400 5347.500000
116.057500 1939.100000
116.062100 3972.400000
117.057300 21423.500000
117.069800 186301.000000
118.065100 12407.000000
118.073300 5415.700000
119.049300 1368.000000
119.073000 2226.700000
119.085100 1408.000000
120.080800 4786.600000
127.054100 6353.800000
128.049400 13043.600000
128.061900 6156.800000
129.057300 2410.800000
129.070000 5774.800000
130.065000 27257.700000
131.072800 5148.900000
132.080800 6197.300000
133.064300 1551.700000
134.060000 1735.100000
134.096400 33407.600000
135.104200 1330.700000
138.091500 1299.100000
142.065200 6623.200000
143.073000 132598.700000
144.080700 788746.900000
145.064600 5346.200000
146.059700 3283.900000
146.096500 3870.600000
154.065500 1469.400000
155.060300 65211.900000
155.072500 3477.800000
156.080600 8342.600000
157.088500 6067.600000
158.096400 10762.100000
162.091100 7430.600000
167.073000 5467.300000
168.080500 9786.100000
169.088700 1416.300000
170.096500 3168.700000
180.080600 7031.600000
180.101900 3481.200000
181.088400 3624.300000
182.096500 3893.600000
193.088700 3666.000000
194.096100 6820.200000
194.117400 2234.500000
196.112000 1515.900000
204.080700 4198.900000
205.088800 2816.100000
206.096300 6146.700000
207.104100 1400.600000
208.111700 5217.000000
212.127600 2260.300000
217.088300 4053.400000
218.096500 4908.500000
219.104200 4146.200000
220.111800 6277.200000
230.096100 4435.200000
231.104700 3105.300000
232.112100 6236.000000
233.120600 2574.200000
234.127100 3999.200000
244.112800 2311.200000
246.127200 1286.100000

>ms2peaks
67.054200 1348.400000
70.065100 1077.100000
77.038600 3458.700000
79.054300 5825.900000
80.049400 4835.300000
81.033500 2233.500000
81.069900 3092.200000
91.054200 33753.700000
92.049700 1464.800000
93.057200 2116.200000
93.069700 3207.600000
94.065100 14195.500000
95.073000 2398.500000
103.054200 13604.800000
104.049400 1929.100000
105.044600 2601.000000
105.070000 7160.300000
106.065100 23089.500000
107.049200 2094.300000
107.072700 1545.200000
107.085500 2562.000000
108.080900 2000.100000
115.054200 54093.500000
116.049300 5943.200000
116.062200 2797.900000
117.057300 24122.000000
117.069900 176362.000000
118.065100 11061.100000
119.049400 1502.800000
119.073100 1289.600000
119.085500 1148.300000
120.080700 5676.200000
127.054200 7505.300000
128.049500 15802.300000
128.062100 8626.100000
129.057400 3738.000000
129.069900 5904.000000
130.065100 26518.800000
131.072900 5987.600000
132.080900 6775.200000
133.064900 1836.400000
134.060200 1780.400000
134.096400 20638.900000
135.104400 2073.400000
142.065300 5401.600000
143.073000 140590.400000
144.080800 603757.200000
145.064600 5076.800000
146.060100 3256.800000
146.096200 2356.200000
154.065400 3517.600000
155.060400 74390.000000
155.072800 4853.300000
156.080800 7838.400000
157.088600 5192.300000
158.096500 8578.400000
162.091100 4276.200000
167.073000 6784.100000
168.080800 9653.000000
169.088400 1517.900000
170.096500 3030.600000
180.080800 8911.200000
181.088200 2790.600000
182.096200 3873.200000
192.081000 2258.200000
193.088800 3978.400000
194.096600 6071.700000
195.103300 1232.000000
196.111800 1339.600000
204.081100 3289.300000
205.088400 2738.200000
206.096300 6946.700000
208.112300 3945.200000
217.088300 4409.800000
218.096400 5925.000000
219.104200 2115.600000
220.112000 5342.300000
230.096400 4092.500000
231.105300 2226.100000
232.112200 4918.800000
233.120800 1857.300000
244.112500 2123.000000
246.128600 2112.900000

>ms2peaks
67.054200 1610.800000
77.038700 3894.000000
79.054300 7204.600000
80.049600 3880.300000
81.033500 1376.400000
81.070100 1479.100000
82.065300 1251.700000
91.054200 35726.500000
93.057400 3621.000000
93.069900 2783.500000
94.065200 14448.600000
95.073300 1295.600000
103.054200 14650.400000
104.049800 2254.200000
105.044700 3843.600000
105.070000 8575.100000
106.065100 17694.500000
107.072800 1821.500000
108.080800 1411.400000
113.060000 1401.000000
115.054300 62437.600000
116.049500 5402.700000
116.062100 4436.100000
117.057300 28195.000000
117.069900 156482.200000
118.065200 10441.000000
119.072900 1070.700000
119.085000 1325.500000
120.080700 4197.600000
127.054300 8498.400000
128.049500 14486.800000
128.062200 7961.300000
129.057500 3719.000000
129.069900 6729.500000
130.065200 24004.600000
131.072900 3495.600000
132.081000 3378.800000
134.096500 15404.700000
142.065300 8104.100000
143.073000 140507.800000
144.080800 432477.800000
145.064800 4922.600000
146.060000 3112.700000
146.096500 1539.100000
154.065500 2795.400000
155.060400 67297.600000
155.073000 3509.600000
156.080700 6897.100000
157.088900 3235.200000
158.096600 5039.000000
162.091500 2489.600000
167.073000 7215.400000
168.080900 9558.900000
170.096100 1733.300000
180.080900 8995.600000
181.088800 2621.100000
182.096300 3160.200000
192.081200 1526.900000
193.089000 3854.400000
194.096700 5898.800000
204.080500 4781.000000
205.088800 4350.400000
206.096100 6825.700000
207.104700 1450.000000
208.111900 3299.700000
217.088600 3207.000000
218.096200 5425.100000
219.104500 2132.200000
220.111900 2961.700000
230.096500 4014.400000
231.103400 2059.000000
232.112100 4204.700000
233.120200 1377.400000
244.112200 1897.100000

>ms2peaks
67.054100 1357.100000
77.038500 4784.000000
79.054200 5899.400000
80.049400 3802.900000
81.069900 1655.600000
91.054200 39146.200000
92.049400 1340.400000
93.057300 2387.200000
93.069900 1446.200000
94.065100 12275.300000
103.054200 17513.700000
104.049500 1742.000000
105.044800 4738.100000
105.069800 5695.800000
106.065100 15443.700000
107.072900 1809.100000
108.081000 1566.500000
115.054200 75838.400000
116.049500 8340.600000
116.062000 7418.500000
117.057300 34541.800000
117.069800 137916.700000
118.065000 9707.400000
120.080800 3995.100000
127.054200 9588.600000
128.049400 15833.900000
128.062000 8292.600000
129.057200 4040.800000
129.069700 5169.700000
130.065100 22092.800000
131.072700 3625.300000
132.080700 4630.600000
134.059800 1879.900000
134.096300 8912.900000
142.065200 6719.500000
143.072900 148570.400000
144.080700 320262.400000
145.065100 3619.000000
146.060000 2629.600000
146.096700 1932.400000
154.065000 3933.500000
155.060400 63046.800000
155.072700 4140.700000
156.081000 7489.500000
157.088900 2705.000000
158.096300 3362.000000
162.091500 1434.100000
167.073000 9702.300000
168.080900 8477.800000
169.089000 1278.500000
170.096700 1583.100000
180.080700 8935.100000
181.088900 2610.800000
182.096600 2143.400000
192.080700 2272.800000
193.088800 4006.900000
194.096400 5370.100000
204.080600 4306.700000
205.088100 4146.200000
206.096200 5221.500000
207.103500 1316.200000
208.111900 2058.600000
217.088500 4958.500000
218.096400 4966.400000
219.103700 1457.000000
220.111800 1636.800000
230.096500 3969.100000
231.104100 1549.200000
232.111900 2706.600000
244.112100 1415.800000

