>compound NA20820503
>parentmass 330.1911
>ionization [M+H]+
>formula C16H27NO6
>rt 61.050000
>profile orbitrap
#smiles_iso C[C@@H]([C@](C(=O)OCC1=CCN2[C@H]1[C@H](CC2)O)(C(C)(C)O)O)OC
#smiles_can CC(C(C(=O)OCC1=CCN2C1C(CC2)O)(C(C)(C)O)O)OC
#inchikey ZNEMYFCJOCCUJN-VFFTVRQLSA-N
#pubchem_id 5462451
#mb_accession NA002526,NA002527,NA002528,NA002529,NA002530,NA002919,NA002920,NA002921,NA002922,NA002923,NA003294,NA003295,NA003296,NA003297,NA003298,NA003664,NA003665,NA003666,NA003667,NA003668

>ms2peaks
330.191100 169605.700000

>ms2peaks
138.091300 11562.900000
254.138700 5321.200000
312.180400 1410.300000
330.191000 829338.100000

>ms2peaks
138.091400 69469.400000
156.101800 1946.900000
254.138800 31255.600000
312.180200 6901.200000
330.191300 916383.000000

>ms2peaks
96.080600 946.600000
120.081100 1941.300000
136.076100 1432.200000
138.091300 215242.700000
156.101800 8362.400000
240.122900 2952.400000
254.138700 93167.000000
312.180400 12874.100000
330.191200 721820.100000

>ms2peaks
96.080600 1215.100000
120.080700 5550.800000
136.075700 2671.900000
138.091300 357759.800000
156.101900 19874.100000
240.123400 8310.000000
254.138700 136880.100000
312.180400 12675.700000
330.191200 391052.700000

>ms2peaks
59.048900 1950.800000
94.065100 1658.600000
96.080600 1327.600000
120.080900 4817.100000
136.075600 2327.300000
138.091300 338012.200000
139.099100 4706.400000
156.101900 28919.700000
240.122900 8326.900000
254.138600 107801.900000
272.150200 2680.300000
312.180400 7666.200000
330.191100 139796.900000

>ms2peaks
59.049000 2338.500000
94.065200 2883.700000
96.080700 4741.400000
120.080700 7195.700000
136.075900 1555.100000
138.091300 283248.800000
139.098900 5940.000000
156.101900 43446.900000
240.122900 7559.900000
254.138500 71287.800000
312.180800 3211.000000
330.191100 44096.800000

>ms2peaks
59.049000 2348.400000
94.065300 3074.300000
96.080800 6799.200000
120.080800 9678.700000
136.076000 1262.800000
138.091300 199456.200000
139.099100 9576.500000
156.101900 48713.700000
240.123000 6573.600000
254.138700 37626.000000
272.149100 1155.400000
330.191100 11102.500000

>ms2peaks
59.049000 2866.400000
82.065300 2383.000000
94.065100 7437.900000
96.080800 6221.700000
120.080800 10676.800000
136.075200 1418.100000
138.091300 138954.600000
139.099200 10705.600000
156.101900 54726.600000
240.122900 3854.000000
254.138600 18662.900000
330.189700 1974.700000

>ms2peaks
59.049000 1153.400000
82.065000 2380.600000
94.065200 6500.900000
96.080700 6840.000000
120.080700 9102.200000
138.091200 94328.000000
139.099000 8331.600000
156.101800 48590.300000
240.122200 4145.300000
254.138700 6861.500000

>ms2peaks
59.049000 6108.100000
67.041700 1557.200000
80.049500 2333.300000
82.065200 16934.000000
86.059700 1385.400000
94.065100 43741.200000
95.073000 13843.300000
96.080700 34169.100000
108.080700 9923.100000
109.064400 1728.100000
110.060000 5817.200000
112.075600 1256.100000
118.065100 1509.900000
120.080800 49792.100000
136.075700 3296.900000
138.091300 275361.500000
139.099100 30362.600000
156.101900 202823.100000
240.123100 7629.600000
254.138800 9938.300000

>ms2peaks
59.049000 5782.700000
67.041600 3060.900000
80.049400 3471.100000
82.065100 16103.700000
86.059900 2086.800000
94.065100 36363.500000
95.072900 11902.500000
96.080800 24239.300000
108.080800 12549.800000
110.060000 5351.600000
112.075600 1714.300000
120.080700 36787.000000
136.075000 1529.200000
138.091300 153701.500000
139.099100 20012.600000
156.101900 135833.500000
240.123300 3312.200000
254.138800 2700.300000

>ms2peaks
59.049000 3383.200000
67.041500 2259.900000
80.049400 3360.200000
82.065100 13884.600000
86.059900 1185.700000
94.065100 28795.100000
95.072900 11514.000000
96.080700 16387.300000
108.080700 11092.600000
109.065000 1046.600000
110.059900 4085.300000
112.075700 2790.000000
120.080700 30470.000000
138.091300 80501.800000
139.099100 12299.300000
156.101800 85602.700000
240.122600 2453.600000

>ms2peaks
59.049000 2346.100000
67.041500 1951.500000
80.049400 2931.400000
82.065200 12788.300000
86.060000 1776.500000
94.065100 25256.900000
95.073000 9401.600000
96.080800 10364.900000
108.080900 13991.900000
110.060000 2572.300000
112.075600 3418.700000
120.080800 23668.100000
138.091400 47573.700000
139.099200 6632.000000
156.101900 54380.800000

>ms2peaks
59.049100 1583.700000
67.041700 1555.600000
80.049500 4187.100000
82.065100 11033.100000
86.060300 1628.800000
94.065100 20540.900000
95.072900 9816.100000
96.080800 6165.900000
108.080700 10956.900000
110.059900 1746.200000
112.075600 2974.900000
118.065100 1030.700000
120.080800 19697.500000
138.091300 24571.400000
139.099100 3254.600000
156.101900 34580.100000

>ms2peaks
59.049100 5252.000000
67.041600 7501.300000
67.054100 4050.600000
68.049600 2625.700000
79.054300 1451.400000
80.049500 18205.900000
81.057300 3768.900000
81.069900 3319.400000
82.065200 38416.600000
86.060100 5999.700000
91.054300 3808.700000
92.049500 2365.900000
93.070000 3395.600000
94.065200 65286.500000
95.073000 24365.200000
96.080800 23500.700000
108.080800 42097.200000
109.065100 2151.800000
110.060200 6881.000000
112.075800 9771.500000
118.065000 3785.200000
120.080900 62620.800000
138.091400 65056.200000
139.099200 6984.700000
156.102000 83569.600000

>ms2peaks
59.049000 3292.200000
67.041600 6087.700000
67.054100 3683.800000
68.049400 1931.600000
80.049500 14855.100000
81.057300 2985.700000
81.069900 1392.300000
82.065200 25108.200000
86.060200 3668.600000
91.054100 2025.600000
92.049600 2757.500000
93.069900 2398.500000
94.065200 50234.600000
95.073000 17310.200000
96.080800 15514.300000
108.080800 31048.300000
109.064800 1912.200000
110.059900 3058.000000
112.075700 5329.000000
118.065000 2172.600000
120.080800 38649.500000
138.091300 34011.300000
139.099000 3326.300000
156.102000 40671.600000

>ms2peaks
59.049100 1733.700000
67.041600 4076.700000
67.054200 2352.400000
68.049500 2093.400000
80.049600 10788.100000
81.057400 3464.900000
81.070000 1595.600000
82.065200 19667.800000
86.059900 1729.500000
91.054100 3259.700000
92.049400 1285.500000
93.070000 1919.700000
94.065200 34070.600000
95.073000 12516.000000
96.080800 7576.000000
108.080800 19887.800000
110.060100 2229.600000
112.075700 4810.100000
118.064900 2317.200000
120.080800 23633.000000
138.091400 20973.500000
139.099300 2100.300000
156.102000 19724.800000

>ms2peaks
59.049100 1181.700000
67.041500 2828.600000
67.054100 3326.500000
68.049400 1215.300000
79.054200 1019.900000
80.049500 11644.700000
81.057300 2024.900000
82.065100 12409.900000
86.059700 1543.000000
91.054300 2091.200000
94.065100 23269.400000
95.073000 6627.200000
96.080800 4594.700000
108.080800 15064.900000
112.075600 2883.700000
120.080800 20139.400000
138.091300 9301.300000
156.101900 9985.600000

>ms2peaks
59.049200 1105.300000
67.041600 2694.000000
67.054400 1900.600000
68.049500 1458.400000
80.049500 9821.600000
82.065100 9843.800000
86.060200 2452.100000
91.054400 1245.000000
92.049400 1245.500000
94.065100 19725.600000
95.072900 4619.300000
96.080600 2685.600000
108.080800 8745.400000
110.060100 1007.500000
112.075700 2077.600000
120.080800 12058.000000
138.091300 5773.400000
156.101900 5453.300000

