>compound NA22010923
>parentmass 166.12260000000003
>ionization [M+H]+
>formula C10H15NO
>rt 36.780000
>profile orbitrap
#smiles_iso CN(C)CCC1=CC=C(C=C1)O
#smiles_can CN(C)CCC1=CC=C(C=C1)O
#inchikey KUBCEEMXQZUPDQ-UHFFFAOYSA-N
#pubchem_id 68313
#mb_accession NA002404,NA002405,NA002406,NA002407,NA002408,NA002799,NA002800,NA002801,NA002802,NA002803,NA003179,NA003180,NA003181,NA003182,NA003183,NA003544,NA003545,NA003546,NA003547,NA003548

>ms2
121.064700 3846.100000
166.122700 85382.900000

>ms2
121.064800 4836.800000
166.122600 89650.300000

>ms2
121.064800 10239.100000
166.122800 83420.300000

>ms2
121.064800 114757.300000
166.122800 350355.400000

>ms2
121.064800 209452.800000
166.122700 275722.600000

>ms2
93.069800 2976.000000
103.054700 1023.100000
121.064800 457762.800000
166.122600 343371.900000

>ms2
93.069900 5014.200000
103.054500 1328.900000
121.064800 496217.800000
166.122700 178314.500000

>ms2
93.069900 7632.300000
121.064800 498317.300000
166.122700 93140.200000

>ms2
91.054200 1796.800000
93.069900 9753.800000
103.054300 2830.400000
121.064800 466843.400000
166.122600 47258.300000

>ms2
91.054300 3571.600000
93.069900 19205.800000
103.054200 6071.300000
121.064800 447502.000000
166.122700 19063.400000

>ms2
77.038600 4207.500000
91.054200 12005.000000
93.069900 46003.100000
103.054200 24220.700000
121.064800 677421.900000
166.122600 15437.300000

>ms2
77.038600 7362.100000
91.054200 17603.000000
93.069900 57115.500000
103.054200 38342.100000
121.064800 564984.500000
166.122800 4896.500000

>ms2
77.038600 10472.100000
91.054300 26410.700000
93.069900 69124.500000
95.049200 1783.800000
103.054300 49811.100000
121.064800 453759.300000
166.123000 1604.700000

>ms2
77.038600 16026.600000
91.054300 36183.700000
93.069900 71443.500000
95.049400 2198.300000
103.054200 65218.300000
121.064800 339162.500000

>ms2
77.038600 24484.400000
91.054300 44157.800000
93.069900 76778.500000
95.049100 2658.200000
103.054300 83014.800000
121.064800 288491.400000

>ms2
77.038600 49233.700000
91.054300 67224.800000
93.069900 105805.800000
95.049200 5233.300000
103.054300 139588.900000
121.064800 312734.200000

>ms2
77.038600 71466.900000
91.054200 87318.600000
93.069900 109660.400000
95.049100 7276.000000
103.054200 167822.000000
121.064800 264539.000000

>ms2
77.038600 93894.700000
91.054300 109714.600000
93.069900 107990.300000
95.049200 12718.300000
102.046500 2149.500000
103.054300 191670.500000
121.064800 214296.000000

>ms2
65.038500 1241.300000
77.038600 107000.200000
91.054300 105639.900000
93.069900 91908.800000
95.049100 11770.400000
102.046400 2830.600000
103.054300 194562.300000
121.064800 151462.400000

>ms2
65.038600 1471.300000
77.038600 108714.500000
91.054200 93992.100000
93.069900 67354.500000
95.049100 13854.300000
102.046300 3259.600000
103.054200 167100.500000
121.064800 96039.400000

