>compound NA22458076
>parentmass 235.13289999999992
>ionization [M+H]+
>formula C14H18O3
>rt 506.662500
>profile orbitrap
#smiles_iso CC1=CC2=C(C(=C1CCO)C)C(=O)[C@@H](C2)CO
#smiles_can CC1=CC2=C(C(=C1CCO)C)C(=O)C(C2)CO
#inchikey LGXRGPOUGZXSEB-NSHDSACASA-N
#pubchem_id 169739
#mb_accession NA000897,NA000899,NA000901,NA001028,NA001030,NA001032,NA001152,NA001154,NA001156,NA001274,NA001276,NA001278,NA001404,NA001406,NA001408,NA001529,NA001531,NA001533,NA001664,NA001666,NA001668,NA001784,NA001786,NA001788

>ms2peaks
217.122500 2389.700000
235.133000 35702.900000

>ms2peaks
217.122500 12766.300000
235.133100 26973.700000

>ms2peaks
171.116800 3139.800000
187.111800 1777.700000
189.127600 7739.600000
199.111300 2622.000000
217.122500 61495.700000
235.133100 24166.300000

>ms2peaks
217.122100 4960.700000
235.132800 44756.700000

>ms2peaks
158.129800 895.600000
189.127100 3563.600000
217.122200 35186.800000
235.132900 33998.600000

>ms2peaks
171.116900 11385.500000
187.111700 5468.000000
189.127400 20274.300000
199.111800 8288.000000
217.122300 114341.300000
235.132900 21240.300000

>ms2peaks
143.085200 3269.500000
145.100700 1414.400000
156.093000 8628.200000
159.116600 1652.600000
171.116500 45271.500000
187.111500 11707.800000
189.127000 53533.300000
199.111300 20508.800000
217.121800 201206.300000

>ms2peaks
143.085200 7798.200000
145.100800 1736.100000
156.093000 25113.900000
159.116500 4133.800000
171.116500 40667.000000
187.111300 8445.000000
189.127000 32348.700000
199.111400 16620.700000
217.121800 63463.000000

>ms2peaks
143.085200 8389.900000
145.101300 1939.700000
156.093000 20134.800000
159.116600 2563.300000
171.116400 17691.200000
187.111200 2248.600000
189.126700 8950.400000
199.111100 3482.900000
217.121600 10430.000000

>ms2peaks
143.085200 8981.500000
145.100800 2307.100000
156.093100 20074.400000
159.116500 6454.700000
171.116500 67893.700000
187.111400 13846.600000
189.127000 61690.900000
199.111400 27541.700000
217.121800 175911.600000

>ms2peaks
105.069600 1734.800000
119.085200 1590.500000
128.061600 3076.400000
129.069400 3026.100000
141.069500 2385.100000
142.077500 4363.600000
143.085200 25785.000000
144.093000 1465.800000
145.100800 6517.100000
155.085500 3217.200000
156.093100 72455.900000
159.116500 10937.100000
169.101000 2187.100000
171.116500 83304.400000
186.104200 2712.100000
187.111500 14693.400000
189.127000 51557.100000
199.111400 23926.300000
217.121800 78727.000000

>ms2peaks
105.069700 2303.700000
119.085000 2157.700000
128.061700 3784.000000
129.069500 5521.700000
141.069500 7231.800000
142.077600 4152.000000
143.085200 28537.800000
144.093000 1855.700000
145.100800 6315.400000
155.085200 2690.600000
156.093000 81479.100000
159.116500 6827.100000
169.100500 2728.900000
171.116500 37770.300000
186.103400 2277.400000
187.111000 5123.100000
189.127000 18932.000000
199.111400 8007.400000
217.121800 15448.900000

>ms2peaks
91.054000 1520.200000
105.069700 6085.200000
115.053900 1544.400000
119.085200 3661.500000
128.061800 14637.100000
129.069600 10334.900000
130.077200 4740.200000
131.085300 4433.400000
133.100900 2472.800000
141.069600 22069.200000
142.077400 9506.200000
143.085200 48267.600000
144.092800 5731.700000
145.100900 9048.500000
154.077800 1689.900000
155.085300 8421.500000
156.093000 136051.700000
158.108600 3711.100000
159.079700 1414.500000
159.116500 10288.000000
169.100900 5410.500000
171.080200 4554.200000
171.116500 45744.900000
187.111400 7041.500000
189.127000 20090.800000
199.111100 8219.100000
217.121800 12997.200000

>ms2peaks
91.054000 1518.900000
105.069700 5900.900000
115.054300 2267.800000
119.085500 3848.500000
128.061800 16968.700000
129.069600 9305.600000
130.077600 3528.600000
131.085300 3785.100000
133.101100 2762.700000
141.069600 35267.200000
142.077400 8129.000000
143.085300 29841.700000
144.093100 5022.300000
145.101000 3742.600000
154.077300 2270.300000
155.085200 9359.700000
156.093100 85857.000000
158.108400 2204.200000
159.080300 926.500000
159.116600 4393.300000
169.101000 2655.600000
171.080300 3060.900000
171.116600 12210.600000
187.111400 2099.500000
189.127000 4931.200000
199.111600 1943.700000
217.122000 1989.200000

>ms2peaks
91.053900 2363.100000
105.069600 3434.200000
119.085400 1398.100000
128.061700 8847.900000
129.069500 5391.400000
130.077300 2032.400000
141.069500 27224.200000
142.077500 3491.800000
143.085200 11230.900000
144.093000 2068.100000
145.100900 1365.300000
154.077100 1199.400000
155.085400 5734.300000
156.093000 28948.300000
169.101100 1004.000000
171.116700 1501.200000

>ms2peaks
91.054000 1520.200000
105.069700 6085.200000
115.053900 1544.400000
119.085200 3661.500000
128.061800 14637.100000
129.069600 10334.900000
130.077200 4740.200000
131.085300 4433.400000
133.100900 2472.800000
141.069600 22069.200000
142.077400 9506.200000
143.085200 48267.600000
144.092800 5731.700000
145.100900 9048.500000
154.077800 1689.900000
155.085300 8421.500000
156.093000 136051.700000
158.108600 3711.100000
159.079700 1414.500000
159.116500 10288.000000
169.100900 5410.500000
171.080200 4554.200000
171.116500 45744.900000
187.111400 7041.500000
189.127000 20090.800000
199.111100 8219.100000
217.121800 12997.200000

>ms2peaks
91.054000 1518.900000
105.069700 5900.900000
115.054300 2267.800000
119.085500 3848.500000
128.061800 16968.700000
129.069600 9305.600000
130.077600 3528.600000
131.085300 3785.100000
133.101100 2762.700000
141.069600 35267.200000
142.077400 8129.000000
143.085300 29841.700000
144.093100 5022.300000
145.101000 3742.600000
154.077300 2270.300000
155.085200 9359.700000
156.093100 85857.000000
158.108400 2204.200000
159.080300 926.500000
159.116600 4393.300000
169.101000 2655.600000
171.080300 3060.900000
171.116600 12210.600000
187.111400 2099.500000
189.127000 4931.200000
199.111600 1943.700000
217.122000 1989.200000

>ms2peaks
91.053900 2363.100000
105.069600 3434.200000
119.085400 1398.100000
128.061700 8847.900000
129.069500 5391.400000
130.077300 2032.400000
141.069500 27224.200000
142.077500 3491.800000
143.085200 11230.900000
144.093000 2068.100000
145.100900 1365.300000
154.077100 1199.400000
155.085400 5734.300000
156.093000 28948.300000
169.101100 1004.000000
171.116700 1501.200000

>ms2peaks
119.085200 2270.600000
128.061800 9577.200000
129.069600 5721.200000
141.069700 16293.500000
142.077400 6076.900000
143.085300 19851.100000
155.085400 5367.400000
156.093100 65797.900000
171.116500 14435.000000
187.111100 1748.100000
189.127000 6121.500000
199.111000 1434.900000
217.121600 3445.400000

>ms2peaks
119.085000 1254.600000
128.061700 5326.800000
129.069400 2960.000000
141.069600 11936.700000
142.077800 2393.900000
143.085400 6379.000000
155.085300 2703.800000
156.093000 21136.600000

>ms2peaks
119.085700 1288.800000
128.061600 3982.000000
129.069800 2161.000000
141.069700 9371.200000
143.085500 2526.600000
155.085400 2265.300000
156.093300 5521.700000

>ms2peaks
91.054300 2452.500000
115.054000 3655.600000
128.061700 16448.800000
129.069600 6765.100000
141.069600 36309.700000
142.077200 4590.600000
143.085300 10556.200000
155.085400 7251.100000
156.093100 17879.100000

>ms2peaks
91.054300 1683.300000
115.053900 2205.700000
128.061900 8995.600000
129.069700 3363.000000
141.069700 16586.000000
142.077200 1274.900000
143.085200 3923.100000
155.085500 3538.500000
156.093100 2949.900000

>ms2peaks
115.054000 2093.000000
128.061800 4132.200000
129.069900 1343.200000
141.069700 8347.500000
155.085500 2174.200000

