>compound NA24812462
>parentmass 336.1805000000001
>ionization [M+H]+
>formula C18H25NO5
>rt 205.545000
>profile orbitrap
#smiles_iso C[C@@H]1[C@H]([C@@](C(=O)OCC2=CCN3[C@H]2[C@@H](CC3)OC(=O)C1=C)(C)O)C
#smiles_can CC1C(C(C(=O)OCC2=CCN3C2C(CC3)OC(=O)C1=C)(C)O)C
#inchikey FLUOSFVUPTUYEX-QHOAOGIMSA-N
#pubchem_id 442764
#mb_accession NA002354,NA002355,NA002356,NA002357,NA002358,NA002749,NA002750,NA002751,NA002752,NA002753,NA003129,NA003130,NA003131,NA003132,NA003133,NA003494,NA003495,NA003496,NA003497,NA003498

>ms2peaks
336.180600 94658.100000

>ms2peaks
336.180600 396117.700000

>ms2peaks
336.180600 422360.000000

>ms2peaks
336.180600 440313.400000

>ms2peaks
336.180800 471425.200000

>ms2peaks
120.080700 8109.100000
138.091500 3566.600000
308.186000 7145.400000
336.180600 454179.300000

>ms2peaks
81.069700 1178.900000
93.070200 1442.900000
94.065000 2196.900000
96.080600 1723.000000
120.080800 23497.200000
122.096200 3504.900000
138.091400 14815.300000
140.106800 1239.800000
153.091000 1292.600000
290.175100 1744.100000
308.185700 20362.600000
336.180700 427349.400000

>ms2peaks
81.070000 2626.400000
93.069800 3253.200000
94.065100 5941.100000
96.080900 3092.700000
107.085500 1606.600000
108.081000 3036.000000
109.064600 1650.500000
110.096500 1359.400000
118.065100 1473.700000
120.080800 46628.500000
122.096500 7759.600000
138.091400 32212.100000
153.091200 4178.900000
290.176100 3616.100000
292.190500 1578.500000
308.185700 38779.300000
336.180800 345636.200000

>ms2peaks
67.054100 1811.800000
79.054400 1647.200000
80.049700 2629.800000
81.069800 6294.900000
91.054000 1671.000000
93.069900 6884.000000
94.065100 9740.000000
96.080800 5353.300000
103.054200 2847.900000
107.085500 3155.100000
108.080800 5204.400000
109.064800 2239.200000
109.101100 1315.000000
110.096400 2262.200000
111.044100 1160.000000
118.065200 1750.600000
120.080800 64815.800000
121.088900 2564.800000
122.096500 15505.900000
125.096100 1881.800000
138.091400 53110.800000
153.091100 7643.800000
220.133400 5472.500000
290.174600 4388.300000
292.190100 2648.800000
308.185700 47348.800000
336.180700 232514.700000

>ms2peaks
67.054200 3432.100000
79.054200 4699.800000
80.049600 4849.100000
81.069900 12375.400000
91.054200 4701.800000
93.069800 10102.900000
94.065100 15267.700000
96.080700 9630.500000
103.054200 3744.400000
107.085600 5891.700000
108.080700 9261.300000
109.064700 3537.800000
109.101100 2247.800000
110.096300 5002.300000
111.043800 2832.200000
118.065000 4129.900000
120.080700 81016.200000
121.088600 4715.100000
122.096300 15573.300000
125.096000 4375.800000
138.091300 70370.000000
140.106900 2707.700000
153.091000 9696.200000
220.133200 6583.000000
290.174500 2993.200000
308.185500 48394.100000
336.180600 132338.600000

>ms2peaks
53.038400 1104.900000
55.054300 1046.300000
67.054200 6053.100000
68.049300 4641.200000
77.038600 1218.500000
79.054200 9427.000000
80.049500 7660.900000
81.069900 23733.400000
82.065200 2708.600000
83.049100 1735.600000
91.054200 7023.300000
92.049500 1678.300000
93.069900 13338.800000
94.065100 22539.500000
95.072900 1635.900000
95.085300 1227.400000
96.080700 14587.000000
103.054200 5554.400000
105.070000 3525.600000
106.065100 1603.600000
107.072900 1447.300000
107.085500 8107.000000
108.080800 16561.300000
109.064700 3318.600000
109.088600 3163.000000
109.101000 2587.400000
110.060100 1469.400000
110.096400 5657.500000
111.044000 4542.200000
111.080400 1913.100000
118.065200 5539.100000
119.085400 1126.800000
120.080800 91817.600000
121.088600 5918.600000
122.096400 17660.900000
125.096100 5832.100000
135.080600 2320.800000
136.075900 2344.600000
137.095800 1400.600000
138.091300 82271.000000
140.107200 2788.300000
153.091000 15419.100000
154.086600 2368.800000
156.102400 1776.200000
220.133100 9360.200000
238.144000 1185.300000
248.165500 1960.500000
290.174900 2352.200000
308.185600 41065.300000
336.180700 76014.900000

>ms2peaks
55.054100 1928.800000
67.054200 9080.200000
68.049500 5967.200000
77.038400 1667.400000
79.054300 10407.500000
80.049500 11159.100000
81.057100 1737.400000
81.069900 26276.800000
82.065200 5064.100000
83.049200 2405.100000
91.054200 9596.000000
92.049500 1903.800000
93.057500 1449.900000
93.069900 15259.000000
94.065200 26720.800000
95.073000 2084.000000
95.085400 1562.900000
96.080800 18149.300000
103.054300 7740.700000
105.070000 3604.800000
106.065200 2061.300000
107.072800 2572.400000
107.085600 7335.000000
108.080800 19906.300000
109.064700 4940.100000
109.088500 3871.500000
109.101300 3757.600000
110.060200 2860.600000
110.096400 8982.700000
111.044000 5974.700000
111.068000 1682.400000
111.080500 1461.500000
118.065200 6106.400000
119.073300 1563.300000
119.085300 1173.400000
120.080800 83087.600000
121.064800 1722.000000
121.088700 6224.500000
122.096500 14385.700000
125.096200 5848.800000
135.080500 1603.100000
136.075400 2497.700000
137.083400 1709.700000
137.096200 1455.700000
138.091400 76279.600000
148.112200 1223.800000
153.091100 11749.800000
154.086200 3024.200000
156.102300 2187.500000
220.133400 8132.800000
248.164300 1652.300000
308.185800 28000.700000
336.180700 32682.500000

>ms2peaks
55.054200 1580.200000
67.054200 12050.000000
68.049500 6195.000000
70.065200 1124.700000
77.038800 2866.400000
79.054300 14689.500000
80.049500 12067.500000
81.057400 3122.100000
81.069900 28068.800000
82.065200 7283.600000
83.049200 3902.600000
91.054300 12163.500000
92.049600 1613.300000
93.057400 1128.900000
93.069900 16147.500000
94.065200 33003.600000
95.072900 2252.100000
95.085700 1961.800000
96.080900 19425.300000
103.054300 6932.200000
105.057300 1159.300000
105.070100 3030.900000
106.065200 3344.800000
107.072900 2267.800000
107.085600 8908.100000
108.080900 21034.900000
109.064900 3959.700000
109.088700 4544.200000
109.101200 3260.900000
110.060000 1813.300000
110.096400 8250.400000
111.044100 8400.200000
111.067800 1354.200000
118.065200 6507.800000
119.073000 1411.300000
120.080900 73626.100000
121.065000 1297.600000
121.088700 4761.300000
122.096400 10865.300000
125.096100 3011.400000
135.080200 1901.200000
136.075800 3722.000000
137.083700 1282.900000
138.091400 57387.800000
140.107100 1275.900000
153.091000 7433.900000
154.086500 3558.200000
220.133500 6139.000000
238.143500 1193.000000
290.174000 1127.600000
308.185800 13700.000000
336.181100 10582.100000

>ms2peaks
53.038600 1236.400000
67.054200 14007.100000
68.049400 7285.600000
77.038600 2901.400000
79.054300 14564.300000
80.049500 10469.400000
81.057400 3251.500000
81.069900 27647.400000
82.065100 7791.800000
83.049100 2994.100000
84.044500 1877.700000
91.054200 13899.000000
92.049500 1997.800000
93.057000 1897.500000
93.069900 13960.700000
94.065100 34393.000000
95.049400 1553.000000
95.072800 2353.400000
95.085300 1993.800000
96.044200 1374.900000
96.080800 19431.600000
103.054200 7857.700000
105.070000 4618.600000
106.065300 3367.200000
107.073100 2110.200000
107.085500 8422.800000
108.080800 17490.200000
109.064800 3418.000000
109.088700 4439.900000
109.101100 2719.900000
110.060100 2691.800000
110.096400 8871.100000
111.044100 7492.500000
111.067800 1462.100000
111.080500 1341.900000
118.065000 5679.000000
119.073400 1388.700000
119.085800 2016.400000
120.080800 58105.200000
121.088800 3906.400000
122.096400 9217.000000
125.095900 4101.400000
136.075400 4128.800000
137.096200 1132.400000
138.091300 44599.400000
153.090900 5622.600000
154.086100 3781.600000
156.101100 1400.900000
220.133400 5192.500000
308.185500 6507.200000
336.181100 3791.500000

>ms2peaks
55.054100 1244.000000
67.054200 13769.900000
68.049400 5747.700000
70.065400 892.100000
77.038600 2935.900000
79.054200 14650.000000
80.049500 11775.000000
81.057400 3236.200000
81.069900 28523.300000
82.065100 7996.800000
83.049200 3895.200000
84.044400 1659.100000
91.054300 14941.600000
92.049500 2748.400000
93.057300 2071.200000
93.069900 14517.200000
94.065100 31958.800000
95.049200 1292.900000
95.072800 2951.700000
95.085300 1446.300000
96.044500 1419.600000
96.080800 18093.500000
103.054300 7275.600000
105.057500 2027.000000
105.069900 2920.600000
106.065100 3827.100000
107.073000 3820.000000
107.085600 7578.700000
108.080800 16328.900000
109.064800 2933.300000
109.088400 4104.700000
109.101000 2391.400000
110.060200 3352.200000
110.096500 5881.700000
111.044000 6594.900000
111.067900 1677.000000
111.080200 1108.600000
118.065200 6496.200000
119.072700 1432.000000
120.080800 47714.700000
121.088400 3457.100000
122.096500 7169.900000
125.096100 1533.600000
136.075800 4019.700000
138.091300 28095.400000
148.111700 1212.900000
153.090800 1378.300000
154.086400 3538.300000
156.101700 1836.700000
220.133400 2698.300000

>ms2peaks
67.041700 1320.700000
67.054200 16449.400000
68.049500 8707.100000
77.038600 6108.700000
79.054300 15423.900000
80.049500 13842.400000
81.057300 4019.700000
81.069900 27664.600000
82.065200 9222.600000
83.049200 2724.600000
84.044300 1802.400000
91.054300 15835.900000
92.049700 2472.400000
93.057400 4178.900000
93.069900 12017.500000
94.065100 32528.000000
95.073100 2650.000000
95.085500 1907.200000
96.080900 15414.000000
103.054300 7319.000000
105.057300 1912.500000
105.070000 3962.800000
106.065100 5038.300000
107.073000 3743.900000
107.085600 5869.100000
108.080800 16739.500000
109.088500 3237.700000
109.101200 1871.700000
110.060200 3641.000000
110.096500 5228.200000
111.044100 4577.000000
112.076200 1716.500000
118.065100 7748.000000
119.073100 2079.700000
120.080800 37438.500000
121.088800 3166.400000
122.096300 4697.600000
125.096400 1662.400000
136.076000 3076.200000
138.091400 20402.900000
154.086200 4472.600000
156.102100 2072.100000

>ms2peaks
65.038400 1712.900000
67.054200 17131.700000
68.049400 7604.500000
77.038500 4391.900000
79.054300 17344.700000
80.049500 15111.800000
81.057400 4300.200000
81.069900 20868.600000
82.065200 7582.100000
83.049200 3616.600000
91.054300 15894.900000
92.049400 2572.700000
93.057300 4401.700000
93.069900 10485.200000
94.065100 31816.900000
95.073300 1950.200000
95.085200 1293.200000
96.044400 1161.900000
96.080800 12082.800000
103.054200 5478.800000
105.057200 1676.100000
105.070000 3883.800000
106.065100 2675.000000
107.073000 2805.800000
107.085700 4499.700000
108.080800 14992.700000
109.088700 1822.900000
109.101300 1225.200000
110.060100 4440.700000
110.096400 5227.000000
111.044100 3507.700000
117.069800 1166.900000
118.065100 6279.800000
119.073400 1500.900000
120.080900 30620.500000
121.088400 2329.900000
122.096400 3101.100000
125.096200 1074.800000
136.075800 3493.500000
138.091400 9937.300000
154.086600 2209.400000
156.101500 1198.900000

>ms2peaks
65.038500 1840.400000
67.041800 1364.600000
67.054200 16702.800000
68.049400 7240.400000
77.038500 5080.700000
79.054300 14395.300000
80.049500 15829.200000
81.057300 2886.200000
81.069900 19695.800000
82.065100 8044.200000
83.049000 1766.900000
91.054300 17237.600000
92.049500 2906.400000
93.057300 4216.800000
93.069900 7319.600000
94.065200 31553.400000
95.049100 1296.000000
95.072900 1775.000000
96.044700 1164.100000
96.080800 12143.700000
103.054200 5177.400000
105.069900 3548.900000
106.065200 3683.600000
107.073000 2412.400000
107.085500 2989.000000
108.080800 12302.700000
110.060200 3664.300000
110.096500 3123.000000
111.044200 4940.500000
112.075400 1780.500000
118.065200 6769.800000
119.073400 1892.600000
120.080800 25425.900000
122.096600 2312.600000
125.096300 1329.200000
136.075900 3248.200000
138.091400 9434.300000
154.085900 2003.500000

>ms2peaks
55.054000 1351.000000
65.038400 2664.200000
67.054200 15321.000000
68.049500 6958.100000
77.038500 6152.300000
79.054200 13559.000000
80.049500 13633.500000
81.057300 3876.100000
81.069900 15201.000000
82.065200 6822.200000
83.049300 3150.100000
84.044400 1086.200000
91.054200 16788.300000
92.049500 3119.100000
93.057300 4626.700000
93.069900 6777.600000
94.065100 26310.000000
95.049200 1751.400000
95.072700 1177.200000
96.080700 7950.300000
103.054200 4973.900000
105.057300 1928.900000
105.069700 3666.400000
106.065300 4178.500000
107.072800 1664.900000
107.085700 1927.200000
108.080700 9582.700000
110.060000 3694.100000
110.096500 1454.700000
111.043900 2281.400000
117.070300 1263.000000
118.065100 6834.500000
119.073000 1855.800000
120.080800 18659.100000
122.096100 2078.900000
136.075400 1884.900000
138.091500 4510.500000

>ms2peaks
55.054200 1322.200000
65.038600 2876.300000
67.041700 1513.500000
67.054200 17103.800000
68.049500 6893.700000
77.038700 6796.600000
79.054300 12597.300000
80.049500 14669.700000
81.057300 4533.500000
81.069900 14282.300000
82.065100 8250.700000
83.049100 1785.400000
91.054300 18612.700000
92.049400 3483.700000
93.057300 4343.900000
93.070000 5494.200000
94.065100 25207.400000
95.049100 1478.200000
95.073200 1748.400000
96.080800 5885.200000
103.054400 4692.800000
105.069900 2386.200000
106.065100 5163.500000
107.073300 2375.600000
107.085400 1781.100000
108.080800 7964.000000
110.060100 2940.100000
110.096800 976.000000
111.044000 1770.600000
118.065100 6037.700000
120.080800 16037.900000
122.096000 1251.100000
136.075900 1883.700000
138.091600 2385.700000

