>compound NA25032632
>parentmass 233.1536
>ionization [M+H]+
>formula C15H20O2
>rt 703.800000
>profile orbitrap
#smiles_iso C/C/1=C\CC/C(=C/[C@@H]2[C@@H](CC1)C(=C)C(=O)O2)/C
#smiles_can CC1=CCCC(=CC2C(CC1)C(=C)C(=O)O2)C
#inchikey HRYLQFBHBWLLLL-AHNJNIBGSA-N
#pubchem_id 5281437
#mb_accession NA002319,NA002320,NA002321,NA002322,NA002323,NA002714,NA002715,NA002716,NA002717,NA002718,NA003094,NA003095,NA003096,NA003097,NA003098,NA003459,NA003460,NA003461,NA003462,NA003463

>ms2
187.148000 8696.200000
215.143100 7420.500000
233.153500 153627.200000

>ms2
187.148100 19040.300000
197.132700 1591.700000
205.157900 1329.200000
215.143000 12417.000000
233.153500 188472.600000

>ms2
79.054100 1231.900000
81.069700 10108.300000
93.069800 3398.100000
95.085500 9884.600000
105.069600 5568.200000
107.085600 3396.800000
109.101100 5193.100000
119.085500 3236.700000
121.101100 2039.600000
125.059400 1524.400000
131.085600 5153.500000
133.101300 2582.200000
135.081000 1231.000000
137.059900 2802.300000
139.075100 3279.500000
145.101200 6029.000000
147.116800 4895.100000
151.075600 2794.900000
159.080600 1533.100000
159.116900 7028.200000
161.132600 8929.100000
163.075400 3134.600000
177.091000 11618.600000
187.148200 141882.100000
189.163200 3697.800000
191.106900 3269.800000
197.132500 12068.300000
205.158600 13059.200000
215.143100 77502.200000
233.153600 655897.500000

>ms2
79.054600 930.400000
81.069800 12639.700000
91.054200 1427.200000
93.069800 6125.100000
95.085400 12474.000000
105.069800 9155.400000
107.085500 6869.900000
109.101200 6840.500000
119.085500 3542.300000
121.101200 2706.700000
125.060000 2709.400000
131.085600 8555.300000
133.101100 4515.500000
135.080900 1210.800000
135.116800 1120.300000
137.059500 2822.500000
139.075500 5578.600000
145.101200 10467.200000
147.116900 6376.300000
151.075400 4439.700000
157.101000 1497.100000
159.080300 1664.600000
159.116900 9265.400000
161.132600 12774.700000
163.075700 4358.300000
173.096300 2337.100000
173.132900 1774.000000
177.091100 15414.500000
187.148200 182246.600000
189.164000 4557.200000
191.106800 5876.500000
197.132500 16743.000000
205.158900 12035.200000
215.143100 81306.800000
233.153600 466389.800000

>ms2
81.069700 14909.000000
91.053900 2141.900000
93.069800 7398.600000
95.085500 16012.100000
105.069900 12708.400000
107.085500 9380.800000
109.101200 6612.000000
119.085400 6308.700000
121.101300 4361.400000
125.059700 3173.900000
131.085500 9466.400000
133.101100 7511.600000
135.116800 2134.500000
137.059700 3897.300000
139.075300 7233.200000
145.101200 14948.200000
147.116800 7568.800000
151.075500 5549.900000
157.101500 1505.000000
159.080600 2953.200000
159.116800 12243.900000
161.132500 17943.300000
163.075600 4034.900000
173.096100 3176.200000
173.132500 1548.900000
177.091100 18256.600000
187.148100 185765.600000
189.164000 3253.900000
191.106800 4984.400000
197.132400 16673.000000
205.158600 9389.200000
215.143000 63989.700000
233.153600 256348.200000

>ms2
67.054300 1724.300000
69.069900 1282.000000
79.054200 4504.900000
81.069900 22762.000000
83.085800 1670.700000
91.054300 5917.100000
93.069900 18656.000000
95.085600 30015.800000
97.101000 1396.000000
105.070000 27339.100000
107.085600 20217.100000
109.101200 11703.200000
111.080400 2002.700000
117.069900 2990.900000
119.085600 11893.100000
121.064600 1381.900000
121.101200 9564.200000
123.080400 1313.800000
123.116900 1573.500000
125.059800 7435.800000
131.085600 24301.400000
133.101200 12092.700000
134.108700 1083.400000
135.081000 1731.500000
135.116900 3686.400000
137.059900 7001.700000
139.075400 14082.500000
145.101300 31565.000000
147.116900 18215.800000
149.059900 3117.400000
151.075400 8562.500000
153.090900 1371.500000
155.085900 3468.200000
157.101100 2440.600000
159.080400 5755.900000
159.117000 24864.500000
161.132600 33583.500000
163.075400 9611.500000
165.091200 2224.100000
171.117100 3163.900000
173.096100 6038.900000
173.132700 2919.600000
177.091100 29035.600000
187.148200 303110.600000
189.163800 5702.200000
191.106700 8784.700000
197.132500 27059.800000
205.159000 12270.300000
215.143100 87445.000000
233.153700 232859.300000

>ms2
55.054100 3017.900000
67.054200 3253.800000
69.069800 3668.500000
79.054200 5210.500000
81.069900 31556.200000
83.085600 4347.900000
91.054300 8739.600000
93.070000 26651.400000
95.085600 41553.500000
97.065000 1571.900000
97.101300 3024.700000
105.070000 38684.800000
107.085600 29948.600000
109.101200 16763.700000
111.080500 2204.700000
117.070000 5726.100000
119.048900 1265.000000
119.085600 18559.300000
121.064600 2062.400000
121.101300 13492.900000
123.080700 2035.900000
123.116900 1376.200000
125.059800 7842.500000
131.085600 39083.700000
133.064900 4669.400000
133.101300 19535.000000
135.080500 3155.900000
135.116900 2741.000000
137.059600 7119.900000
139.075500 13501.500000
143.085600 1911.900000
145.101300 49691.200000
147.080500 2463.800000
147.117000 20764.600000
149.059700 2643.200000
149.095500 1345.400000
149.132700 1782.200000
151.075500 8123.700000
153.090400 1206.900000
155.085600 5386.900000
157.101400 2910.700000
159.080600 6502.000000
159.117000 33114.700000
161.132600 41691.700000
163.075200 10684.700000
165.091200 3477.200000
169.101100 4258.300000
171.116800 4975.800000
173.096100 7638.100000
173.132600 6406.700000
177.091100 34947.300000
182.109200 2730.900000
185.133000 1146.500000
187.148300 346760.100000
189.163900 5938.100000
191.106900 11856.200000
197.132600 27287.000000
205.158700 9243.600000
215.143100 82969.800000
233.153700 149663.700000

>ms2
55.054100 2185.300000
67.054200 2836.100000
69.069900 4204.400000
79.054300 5972.600000
81.069900 34338.500000
83.085500 3390.100000
91.054300 9697.200000
93.069900 28309.600000
95.085600 40948.800000
97.064900 2705.700000
97.101300 1130.500000
105.069900 40002.100000
107.085600 32359.900000
109.101200 14151.500000
111.080500 2624.900000
117.070000 6662.000000
119.085600 18967.500000
121.064700 2541.600000
121.101200 13467.600000
123.080600 1603.500000
123.116900 1401.800000
125.059700 7908.300000
131.085600 49853.900000
133.065000 3191.300000
133.101200 21806.700000
135.080500 2455.400000
135.116700 3304.900000
137.059700 6109.200000
139.075500 13290.300000
143.085700 2931.500000
145.101300 58667.400000
147.116900 21663.600000
149.059800 4509.700000
149.096200 3294.500000
149.132400 1023.300000
151.075300 9120.900000
153.091000 1731.500000
155.085600 4796.400000
157.101400 2467.700000
159.080700 10086.700000
159.116900 36290.700000
161.132600 40442.000000
163.075400 9274.600000
165.090900 2651.900000
169.101500 4335.000000
171.116700 4945.000000
173.096500 7198.600000
173.132500 4787.200000
177.091100 30063.700000
182.109200 3438.500000
185.132600 1814.300000
187.148200 279083.700000
189.164100 4378.300000
191.106900 8877.900000
197.132500 20059.900000
205.158600 6262.300000
215.143000 49594.100000
233.153600 70728.400000

>ms2
55.054100 1618.900000
67.054300 3600.700000
69.069800 3429.100000
79.054300 8171.900000
81.069900 28982.400000
83.085500 2796.100000
91.054300 13747.100000
93.070000 28695.600000
95.085600 39925.600000
97.064700 2753.700000
97.101400 1286.300000
105.070000 43306.000000
107.085600 34460.600000
109.064600 1336.200000
109.101300 14708.500000
111.080600 3330.700000
117.069900 6287.400000
119.049600 1157.400000
119.085700 21762.800000
121.064900 2472.600000
121.101300 11246.800000
123.080400 1537.500000
125.059800 6773.900000
131.085600 54605.300000
133.064800 2611.100000
133.101400 17178.700000
134.109000 2874.100000
135.044500 2367.500000
135.080300 1902.900000
135.117000 3447.700000
137.059900 5264.900000
139.075400 8189.700000
143.085400 1761.600000
145.101300 59959.900000
147.080600 2200.000000
147.117000 16252.900000
149.059600 2774.700000
149.096300 1353.100000
149.132600 1445.200000
151.075500 5451.000000
155.085600 5508.200000
157.101600 2288.100000
159.080700 8584.300000
159.117000 31514.700000
161.132600 32557.100000
163.075600 6588.800000
165.090400 3049.100000
169.101200 4225.100000
171.116700 4928.000000
173.096300 5779.600000
173.132700 4119.300000
177.091300 19455.700000
182.109100 4052.300000
185.132900 2440.300000
187.148300 208286.900000
189.163400 1635.400000
191.106800 5858.400000
197.132600 13958.000000
205.159100 4317.500000
215.143100 30957.800000
233.153800 30662.600000

>ms2
55.054000 1335.100000
67.054200 4272.300000
69.069900 4614.800000
79.054300 9453.300000
81.069900 30962.400000
83.085600 1511.700000
91.054300 14369.100000
93.069900 29812.900000
95.085600 36374.700000
97.065000 2124.700000
105.069900 46644.700000
107.085600 29601.300000
109.065000 1473.300000
109.101200 12577.400000
111.080500 2439.300000
117.069900 8326.400000
119.085600 22012.900000
121.064800 3057.100000
121.101200 9001.400000
125.059800 4336.400000
131.085600 55512.200000
133.064700 2391.800000
133.101300 16528.400000
134.109000 1589.000000
135.044500 1103.800000
135.080200 2607.000000
135.116600 3400.100000
137.059800 2338.900000
139.075400 6153.200000
143.085700 3468.000000
145.101300 62721.600000
147.080300 1277.400000
147.117000 13617.800000
149.060000 2717.100000
149.096400 1142.000000
151.075600 3457.600000
153.091300 1051.100000
155.085700 4506.100000
157.101200 2964.000000
159.080500 6513.900000
159.116900 32477.000000
161.132600 22701.400000
163.075400 4797.600000
165.091700 1144.800000
169.101100 3261.100000
171.117100 3019.300000
173.096100 5937.900000
173.132600 2763.200000
177.091000 11663.800000
182.109200 3121.300000
185.132300 2084.700000
187.148200 137133.300000
191.106500 4862.800000
197.132600 7799.800000
215.143100 16779.700000
233.153700 13124.100000

>ms2
67.054200 4352.900000
69.069800 3239.500000
79.054300 7612.800000
81.069900 27430.700000
91.054200 14842.900000
93.069900 28090.700000
95.085500 29534.800000
97.064900 2284.000000
105.069900 42609.400000
107.085500 28602.800000
109.101100 8128.300000
111.080400 1779.600000
117.069900 9273.000000
119.048800 1309.100000
119.085600 20067.800000
121.065000 3372.100000
121.101200 9730.100000
125.060100 1935.800000
129.069400 1264.100000
131.085500 54761.000000
133.064800 2299.700000
133.101200 15319.400000
135.080200 2037.200000
135.116900 2493.700000
139.075400 2923.900000
143.085500 3399.700000
145.101200 55445.200000
147.116800 10520.700000
149.059400 2352.200000
149.095700 1136.300000
155.085600 4521.500000
157.101300 1405.800000
158.108800 1025.800000
159.080400 4335.000000
159.116900 26754.300000
161.132600 18039.900000
163.075400 3565.500000
169.101200 2829.200000
171.117200 1945.300000
172.124700 2897.400000
173.096300 4538.700000
173.133000 1730.600000
177.091000 7562.300000
182.108900 2842.700000
187.148100 89349.000000
191.106500 2592.800000
197.132500 4671.700000
215.142900 9128.300000
233.153600 5224.000000

>ms2
67.054100 6013.200000
69.033600 941.200000
69.069800 3447.600000
77.038600 1232.700000
79.054300 8201.700000
81.069900 20743.700000
91.054200 13889.700000
93.069900 26848.400000
95.085500 24185.000000
97.064700 1635.200000
105.069900 39341.000000
107.085500 21192.700000
109.101200 5571.200000
111.080500 2055.900000
117.069800 8819.200000
119.048600 1892.200000
119.085500 22224.100000
121.064700 2472.400000
121.101100 7930.700000
123.079900 1247.300000
129.069800 1986.200000
131.085500 48789.200000
133.101200 14546.500000
135.043900 1717.900000
135.080400 1353.700000
139.075200 2173.600000
143.085600 4227.600000
144.092700 2037.600000
145.101200 51661.400000
147.116800 7551.700000
149.059800 1299.000000
149.096300 2110.600000
155.085600 1916.700000
157.101300 2032.700000
159.080200 4917.400000
159.116800 23308.000000
161.132500 11812.200000
163.075600 2070.000000
169.101400 2199.900000
171.117100 1772.500000
173.096200 2215.400000
173.132400 1767.000000
177.090800 4045.900000
182.109000 2389.100000
187.148100 51241.900000
191.107000 1852.900000
197.132100 2958.600000
215.142900 3099.000000
233.153500 1877.300000

>ms2
67.054100 6525.800000
69.033600 1069.800000
69.069800 1870.400000
79.054200 10042.800000
81.069900 21748.300000
91.054200 17547.900000
93.069800 21796.400000
95.085500 20096.700000
97.064700 2294.700000
103.054700 1185.500000
105.069900 38162.400000
107.085600 18324.700000
109.101100 4117.400000
117.069800 10577.700000
119.085500 20921.000000
121.064600 2275.700000
121.101100 6292.600000
123.080600 1250.900000
125.059500 1338.000000
129.069900 1473.800000
131.085500 43375.100000
133.064400 1996.100000
133.101200 9154.800000
135.116700 1417.000000
139.074800 1587.400000
143.085400 3444.100000
144.093300 1561.700000
145.101200 44820.000000
147.116800 5606.500000
149.060000 1386.200000
149.095600 1629.500000
155.086000 3177.200000
157.100600 1933.400000
158.108700 1113.500000
159.080300 3929.700000
159.116900 17563.900000
161.132600 7851.700000
167.085000 1253.000000
169.100700 1745.100000
171.116700 1117.400000
172.124500 1525.300000
173.096700 1551.300000
177.091100 2509.500000
182.108900 1189.000000
187.148100 30933.400000
197.133100 1576.000000
215.142800 1699.000000

>ms2
67.054200 5895.600000
69.070000 2286.000000
77.038600 1953.900000
79.054200 11855.300000
81.069900 21170.800000
91.054200 20146.200000
93.069800 20075.400000
95.085500 16318.800000
97.064500 2205.300000
103.054300 1534.800000
105.069800 40071.200000
107.085500 14682.200000
109.101000 3974.900000
116.061700 1377.100000
117.069800 12762.100000
119.085500 18675.300000
121.064800 1880.300000
121.101100 3751.900000
129.070000 2575.800000
130.077400 3303.500000
131.085500 40269.900000
133.064600 1501.900000
133.101000 9648.200000
135.044300 1415.400000
135.080400 1290.500000
143.085500 4065.700000
144.093400 1851.700000
145.101100 36716.400000
147.117100 4182.800000
149.095800 1333.300000
155.085500 2445.400000
157.101400 4014.200000
158.108300 1099.300000
159.080000 2651.000000
159.116900 14431.700000
161.132700 5100.900000
169.101400 1712.300000
172.124100 1941.000000
173.096100 2143.200000
177.091800 1491.600000
187.148100 18531.000000
215.143300 1534.100000

>ms2
67.054200 5685.100000
69.069800 2352.400000
77.038800 2327.600000
79.054200 10925.400000
81.069900 17664.700000
91.054200 25473.500000
93.069800 21315.700000
95.085500 14357.800000
103.054300 1480.800000
105.069800 41768.700000
107.085500 15662.000000
109.101400 2989.100000
116.062100 2524.000000
117.069800 13932.300000
119.085500 18177.800000
121.064900 2579.100000
121.101200 3106.700000
129.069700 2951.300000
130.077700 5052.800000
131.085500 38461.100000
133.101100 8824.300000
143.085300 4641.000000
144.093300 2711.500000
145.101200 33185.400000
147.116900 3068.300000
155.085400 2014.200000
157.101200 1514.200000
158.109100 1837.400000
159.080100 1630.300000
159.116700 12186.400000
161.132400 3989.000000
167.085500 1535.900000
169.101000 1083.700000
172.123900 1255.700000
187.148100 11612.800000

>ms2
55.054200 1206.400000
67.054300 11404.900000
69.069900 4555.600000
77.038700 6142.500000
79.054300 22241.300000
81.069900 30631.200000
91.054300 53461.300000
93.070000 33446.800000
95.085600 25319.500000
103.054300 2657.800000
105.070000 74436.600000
107.085600 23461.200000
109.064900 1760.200000
109.101100 3095.200000
115.054400 5435.700000
116.062100 5326.200000
117.070000 26863.500000
119.085600 35178.100000
121.064900 3730.000000
121.101300 5854.000000
128.061800 2185.400000
129.070000 8206.600000
130.077900 8616.500000
131.085600 62635.800000
132.093300 3522.200000
133.065200 1372.800000
133.101300 13961.800000
135.044300 1831.200000
135.080200 1257.300000
141.069900 1838.000000
143.085800 10862.000000
144.093500 5056.500000
145.101300 51192.700000
146.109200 2021.100000
147.117000 4012.800000
155.085600 3555.600000
157.101300 4438.800000
158.109400 1971.700000
159.080700 2747.300000
159.117000 17564.300000
161.132700 5224.400000
167.085700 3348.700000
172.124900 2954.500000
187.148200 11533.500000

>ms2
55.054200 1331.400000
67.054200 10107.700000
69.069900 3824.700000
77.038600 5675.500000
79.054300 21840.900000
81.069900 26116.100000
91.054300 48744.600000
93.069900 27215.900000
95.085600 17993.700000
103.054400 4058.900000
105.069900 60714.100000
107.085600 14243.000000
115.054100 4404.100000
116.062000 5953.300000
117.070000 24278.400000
119.085600 27236.900000
121.064800 2874.500000
121.101400 2399.300000
128.062300 2956.200000
129.070000 7597.500000
130.077800 8757.000000
131.085600 45916.800000
132.092900 2279.400000
133.064700 1318.200000
133.101200 10081.200000
135.044300 2018.400000
135.081000 1743.700000
142.078000 2037.000000
143.085600 9519.900000
144.093400 3676.800000
145.101300 32015.600000
146.109200 1442.900000
147.116700 2320.100000
157.101300 5215.600000
158.108500 1453.300000
159.080400 1587.100000
159.117000 9308.500000
161.132800 3343.400000
167.085700 3751.600000
172.124100 1899.700000
187.148500 5202.900000

>ms2
55.054100 1501.900000
67.054200 8276.200000
69.069900 3136.000000
77.038600 4111.800000
79.054300 16159.800000
81.069900 17450.000000
91.054300 47653.800000
93.070000 18823.800000
95.085600 10543.700000
103.054200 4555.300000
105.070000 47914.200000
107.085600 11263.500000
109.065200 999.000000
109.100900 1432.000000
115.054300 4848.200000
116.062200 5274.200000
117.069900 19028.500000
119.085600 16179.600000
121.064800 2132.200000
121.101300 1757.100000
128.062300 2328.900000
129.069800 8213.000000
130.077900 8552.000000
131.085600 31231.500000
133.101200 5227.100000
143.085600 6019.800000
144.093300 2837.900000
145.101300 19769.300000
146.109200 1183.900000
155.085800 1040.800000
157.101500 4218.200000
159.117000 5632.600000
167.085700 2153.400000
187.148000 2396.200000

>ms2
67.054200 7344.800000
69.069800 1756.100000
77.038500 7262.500000
79.054200 17571.000000
81.069900 14356.500000
91.054200 44284.500000
93.069900 13890.400000
95.085500 7116.400000
103.054300 3989.800000
105.069900 42654.400000
107.085400 6936.400000
115.054200 4983.700000
116.062200 6644.400000
117.069800 18555.400000
119.085500 14423.100000
121.064800 1755.700000
128.062100 3563.500000
129.069800 8261.600000
130.077700 6987.300000
131.085600 24046.700000
133.101200 4651.300000
142.077300 2121.700000
143.085500 5369.200000
144.093500 2565.500000
145.101300 13582.800000
155.084800 1028.900000
157.101100 2434.200000
159.117000 4311.400000
187.148300 1209.900000

>ms2
67.054200 5323.800000
77.038500 6926.700000
79.054200 17554.600000
81.069800 13394.400000
91.054200 39469.600000
93.069900 12766.700000
95.085600 5772.000000
103.054200 5421.400000
105.069900 36806.400000
107.085500 5424.900000
115.054200 6641.800000
116.062100 7869.200000
117.069900 16382.100000
119.085600 10959.800000
128.062000 4069.900000
129.069900 10187.500000
130.077800 7808.900000
131.085500 20465.600000
133.100900 2314.100000
141.069900 1546.400000
142.078000 1821.400000
143.085500 4721.200000
144.093500 2524.400000
145.101200 9790.200000
157.100800 3523.500000
159.116900 2607.800000

