>compound NA27201427
>parentmass 128.14339999999996
>ionization [M+H]+
>formula C8H17N
>rt 42.366000
>profile orbitrap
#smiles_iso CCC[C@H]1CCCCN1
#smiles_can CCCC1CCCCN1
#inchikey NDNUANOUGZGEPO-QMMMGPOBSA-N
#pubchem_id 441072
#mb_accession NA000873,NA000875,NA000877,NA000998,NA001000,NA001002,NA001127,NA001129,NA001131,NA001249,NA001251,NA001253,NA001379,NA001381,NA001383,NA001504,NA001506,NA001508,NA001639,NA001641,NA001643,NA001886,NA001888,NA001890,NA002004,NA002006,NA002008,NA002115,NA002117,NA002119

>ms2peaks
128.143300 796651.200000

>ms2peaks
128.143200 2124997.500000

>ms2peaks
69.069700 22173.200000
128.143200 1981144.100000

>ms2peaks
128.143200 2284375.800000

>ms2peaks
128.143200 2068367.800000

>ms2peaks
69.069600 23742.200000
128.143200 1936485.900000

>ms2peaks
69.069800 34969.900000
128.143200 1109284.600000

>ms2peaks
77.038400 5732.000000
128.143200 25094.400000

>ms2peaks
77.038400 10000.900000
128.143200 14883.300000

>ms2peaks
69.069800 34969.900000
128.143200 1109284.600000

>ms2peaks
77.038400 5732.000000
128.143200 25094.400000

>ms2peaks
77.038400 10000.900000
128.143200 14883.300000

>ms2peaks
55.054100 74044.000000
67.054100 56095.800000
69.069800 1511104.200000
83.085500 89504.800000
111.116800 46695.900000
128.143300 5729967.500000

>ms2peaks
55.054000 63818.300000
67.054100 60389.500000
69.069800 1389966.100000
83.085600 74791.800000
111.116900 21130.200000
128.143300 2649571.500000

>ms2peaks
55.054000 61011.000000
67.054200 34217.200000
69.069800 1097764.800000
83.085500 54070.600000
128.143300 1116844.900000

>ms2peaks
55.054100 74044.000000
67.054100 56095.800000
69.069800 1511104.200000
83.085500 89504.800000
111.116800 46695.900000
128.143300 5729967.500000

>ms2peaks
55.054000 63818.300000
67.054100 60389.500000
69.069800 1389966.100000
83.085600 74791.800000
111.116900 21130.200000
128.143300 2649571.500000

>ms2peaks
55.054000 61011.000000
67.054200 34217.200000
69.069800 1097764.800000
83.085500 54070.600000
128.143300 1116844.900000

>ms2peaks
55.054100 60936.600000
67.054200 42278.300000
69.069800 1182588.500000
83.085500 83654.200000
111.116800 30121.900000
128.143300 2923911.500000

>ms2peaks
55.054100 64531.900000
67.054100 44640.400000
69.069800 1068327.900000
83.085500 79562.200000
111.116700 18847.500000
128.143300 1507545.400000

>ms2peaks
55.054100 40974.100000
67.054200 32038.900000
69.069800 762511.600000
83.085500 44001.800000
111.116900 8175.500000
128.143300 588829.400000

>ms2peaks
55.054100 28191.300000
67.054100 40054.100000
69.069800 758756.100000
83.085500 37980.700000
128.143300 286498.500000

>ms2peaks
55.054100 3954.600000
69.069800 86169.700000
75.022900 4633.300000
128.143200 16994.600000

>ms2peaks
75.022900 22801.400000

>ms2peaks
55.054100 28191.300000
67.054100 40054.100000
69.069800 758756.100000
83.085500 37980.700000
128.143300 286498.500000

>ms2peaks
55.054100 3954.600000
69.069800 86169.700000
75.022900 4633.300000
128.143200 16994.600000

>ms2peaks
75.022900 22801.400000

>ms2peaks
55.054100 28191.300000
67.054100 40054.100000
69.069800 758756.100000
83.085500 37980.700000
128.143300 286498.500000

>ms2peaks
55.054100 3954.600000
69.069800 86169.700000
75.022900 4633.300000
128.143200 16994.600000

>ms2peaks
75.022900 22801.400000

