>compound NA29100891
>parentmass 269.0808
>ionization [M+H]+
>formula C16H12O4
>rt 639.045000
>profile orbitrap
#smiles_iso COC1=CC=C(C=C1)C2=COC3=C(C2=O)C=CC(=C3)O
#smiles_can COC1=CC=C(C=C1)C2=COC3=C(C2=O)C=CC(=C3)O
#inchikey HKQYGTCOTHHOMP-UHFFFAOYSA-N
#pubchem_id 5280378
#mb_accession NA002414,NA002415,NA002416,NA002417,NA002418,NA002809,NA002810,NA002811,NA002812,NA002813,NA003189,NA003190,NA003191,NA003192,NA003193,NA003554,NA003555,NA003556,NA003557,NA003558

>ms2peaks
269.080800 32013.000000

>ms2peaks
269.080700 58257.400000

>ms2peaks
269.080800 146435.000000

>ms2peaks
269.080700 159097.200000

>ms2peaks
269.080800 147062.900000

>ms2peaks
213.091700 1657.800000
254.056700 2105.100000
269.080900 334203.100000

>ms2peaks
118.040800 1010.100000
213.090900 5433.600000
237.054400 2180.600000
254.057000 8657.000000
269.080800 261883.500000

>ms2peaks
107.049200 2165.000000
118.041500 2394.600000
136.015600 1276.500000
213.091000 14070.400000
226.062100 1794.600000
237.054900 4605.300000
253.049000 3079.900000
254.057400 15089.700000
269.080900 200015.300000

>ms2peaks
107.049200 3345.200000
118.041300 5177.400000
136.015900 1645.300000
137.023500 1874.600000
197.060400 1330.400000
213.091100 21278.900000
226.062200 6699.800000
237.054800 10289.900000
253.049500 7771.400000
254.057500 23157.800000
269.080900 144184.600000

>ms2peaks
107.049300 4043.500000
118.041300 6289.100000
136.015500 3831.700000
137.023400 2370.400000
197.059900 2133.200000
213.091100 23070.400000
226.062500 13936.700000
237.054500 14760.600000
253.049600 11171.900000
254.057500 25465.700000
269.081000 85704.000000

>ms2peaks
105.069900 1225.400000
107.049200 5581.400000
118.041300 15388.400000
133.064800 4104.400000
136.015400 8267.600000
137.023300 8114.900000
153.069700 1098.500000
156.057400 1464.300000
163.038800 2691.700000
170.072400 3031.800000
181.065100 4317.700000
182.072500 1670.700000
197.059600 10415.900000
198.067300 7557.800000
210.068100 1369.000000
213.090900 43854.400000
225.054300 5919.000000
226.062300 37932.100000
237.054500 31939.500000
253.049500 25561.700000
254.057300 38849.500000
269.080800 92878.600000

>ms2peaks
107.049100 6214.600000
118.041400 16076.500000
133.064700 3714.200000
136.015600 6184.000000
137.023300 8314.100000
153.069400 1452.700000
156.056700 2684.200000
163.039200 1973.700000
170.072600 2537.500000
181.064800 5844.400000
182.072900 2608.800000
197.059800 16592.500000
198.067600 7661.100000
210.067300 1096.100000
213.091100 33827.400000
225.054800 9136.200000
226.062400 40098.400000
237.054700 26765.200000
253.049700 27145.500000
254.057600 26413.100000
269.081000 39587.800000

>ms2peaks
107.049100 2885.200000
108.021000 1804.700000
118.041300 14397.700000
133.064700 5312.300000
136.015600 6850.600000
137.023200 7342.700000
152.062200 1276.500000
153.070200 1543.200000
156.057000 4997.500000
157.065000 1634.200000
169.065300 1682.000000
170.072900 4222.000000
181.064700 6812.200000
182.072600 2608.700000
196.052000 1255.800000
197.059700 22609.900000
198.067600 8271.900000
209.060100 1683.300000
213.091000 20547.800000
225.054800 10355.200000
226.062400 35586.700000
237.054700 19274.200000
253.049600 21397.900000
254.057600 12643.000000
269.080800 15852.700000

>ms2peaks
90.046300 1488.900000
105.069900 1288.800000
107.049100 3266.500000
108.020400 1946.500000
118.041400 12315.500000
133.064800 4628.600000
136.015400 5143.600000
137.023500 6414.900000
152.062500 2398.700000
153.069800 1409.400000
156.056900 4350.400000
157.065300 1587.200000
169.064800 2904.400000
170.072800 6016.800000
180.057700 1264.900000
181.065100 9980.300000
182.073000 2950.600000
196.051900 1596.700000
197.059700 29217.300000
198.067400 9495.700000
200.046900 1404.700000
213.091100 17542.100000
225.054600 12427.800000
226.062400 31159.500000
237.054600 15142.300000
253.049600 19126.800000
254.057400 8460.000000
269.081100 5936.700000

>ms2peaks
90.046400 2340.800000
105.069700 1237.800000
107.049200 2619.700000
108.020900 2342.500000
118.041300 15064.700000
133.064600 3551.100000
136.015500 3349.700000
137.023300 6421.900000
152.062000 2646.900000
153.069900 1823.900000
156.056900 4799.000000
169.064800 4324.000000
170.072700 8120.900000
180.057500 1143.200000
181.064800 9961.400000
182.072700 3092.100000
196.051600 1988.300000
197.059800 35460.000000
198.067500 9132.300000
200.047100 2725.800000
209.059300 1551.900000
213.091300 9310.200000
225.054800 14254.000000
226.062400 22453.100000
237.054700 11786.800000
253.049800 17061.800000
254.057600 3915.100000
269.081300 3067.200000

>ms2peaks
68.997200 1783.000000
79.054200 1254.600000
81.033400 1031.700000
90.046400 9476.900000
103.054200 3191.000000
105.069900 2736.300000
107.049100 3149.300000
108.020700 6765.000000
118.041400 25422.100000
128.062100 2530.300000
129.069700 1651.200000
133.064800 7146.600000
136.015500 5546.600000
137.023400 16394.800000
141.069900 2324.500000
142.077200 1400.800000
152.062200 8541.000000
153.070100 5445.700000
156.057000 10545.900000
157.065000 3525.600000
158.072500 3734.100000
165.070200 2499.300000
168.056200 1031.900000
169.065000 15918.200000
170.072800 17042.100000
180.056900 3281.000000
181.064900 22788.400000
182.072900 4798.400000
184.052000 3182.100000
195.079800 1762.300000
196.052200 2714.800000
197.059700 90164.500000
198.067600 16709.900000
200.046900 7919.900000
209.059600 4065.600000
211.038800 2288.000000
213.090900 12120.200000
225.054600 40369.600000
226.062400 33399.800000
237.054600 19109.100000
253.049600 31663.200000
254.057500 3132.900000

>ms2peaks
77.038500 1925.300000
79.054200 2134.700000
81.033400 2015.300000
89.038300 1193.500000
90.046400 11146.500000
103.054100 2422.700000
105.069900 1954.800000
107.049300 2774.300000
108.020600 5339.200000
118.041300 21379.800000
128.061900 2702.200000
129.070100 2562.300000
133.064900 5950.400000
136.015500 4109.800000
137.023300 14007.500000
141.070000 4681.500000
152.062200 8439.900000
153.069800 5655.400000
155.049600 1743.100000
156.056900 8410.300000
157.064800 2862.500000
158.072700 2798.600000
165.070100 1948.000000
169.064800 17320.700000
170.072700 15374.500000
180.057000 1732.900000
181.064900 18997.600000
182.072900 3409.000000
184.051700 1483.700000
195.080300 1925.100000
196.052100 2901.200000
197.059700 82569.300000
198.067500 10263.900000
200.046800 4455.900000
209.059200 2509.700000
213.090800 5390.900000
225.054600 35801.100000
226.062300 16301.200000
237.054600 14895.100000
253.049400 19907.400000
254.056800 1599.700000

>ms2peaks
68.997000 1559.800000
77.039000 1148.500000
79.054200 2323.300000
81.033400 1106.500000
90.046400 12696.600000
103.054200 1599.600000
107.049300 1697.600000
108.020600 5735.900000
118.041300 16332.700000
128.062200 3707.700000
129.069900 2439.900000
133.064800 3423.300000
136.015900 2761.500000
137.023300 9862.500000
141.070000 5278.800000
142.077600 1398.000000
144.056800 1184.300000
152.062200 9659.800000
153.070000 5600.600000
155.049900 1514.500000
156.057100 4695.000000
157.064600 3675.400000
158.072700 1708.400000
169.064800 18631.700000
170.072700 11152.800000
180.056500 2369.800000
181.064900 15746.600000
182.073200 1350.400000
184.052400 1322.900000
196.052000 2028.100000
197.059700 63076.700000
198.067700 6103.500000
200.047100 4370.600000
209.059500 2120.400000
213.091000 1623.800000
225.054600 29776.400000
226.062300 8174.700000
237.054600 8302.500000
253.049600 11709.800000

>ms2peaks
68.997000 1313.100000
77.038800 1919.100000
79.054300 1554.500000
81.033500 1274.000000
89.038700 1438.200000
90.046400 14204.500000
103.054300 2197.500000
108.020600 4451.100000
115.053900 1391.400000
118.041300 11402.700000
128.062000 4089.300000
129.069700 1706.500000
133.064800 1770.100000
137.023300 7413.700000
141.070000 7225.200000
144.057500 1500.300000
152.062200 8637.600000
153.069800 4007.800000
155.049200 1497.300000
156.056900 2528.400000
157.065000 1478.600000
158.072900 1524.000000
168.057100 1344.300000
169.064800 18179.700000
170.072700 6993.600000
181.064800 12193.000000
196.052200 2390.000000
197.059700 55353.000000
198.067700 4048.000000
200.046500 3338.000000
211.038300 1231.000000
213.091900 1055.600000
225.054600 21416.400000
226.062400 4691.600000
237.054400 3477.000000
253.049500 6306.300000

>ms2peaks
68.997100 1435.300000
77.038700 1449.600000
79.054100 1239.900000
81.033600 2734.600000
90.046400 14581.300000
108.020600 2923.200000
115.054200 1421.100000
118.041300 9374.700000
128.061800 3557.100000
129.069700 3066.900000
137.023300 5529.800000
141.069900 9793.200000
144.056900 1388.500000
152.062000 7122.500000
153.070100 4334.900000
156.056200 2110.200000
157.064800 1292.800000
158.073100 1132.100000
168.057300 1320.300000
169.064800 15605.900000
170.072500 5957.300000
181.064800 11063.100000
196.051500 1336.700000
197.059600 44679.300000
198.066600 1340.200000
200.046600 2637.600000
225.054500 15741.800000
237.054000 2985.200000
253.049200 5236.300000

