>compound NA30863446
>parentmass 546.2698
>ionization [M+H]+
>formula C29H39NO9
>rt 428.040000
>profile orbitrap
#smiles_iso CC(C)(CCC[C@@](CC(=O)OC)(C(=O)O[C@H]1[C@H]2C3=CC4=C(C=C3CCN5[C@@]2(CCC5)C=C1OC)OCO4)O)O
#smiles_can CC(C)(CCCC(CC(=O)OC)(C(=O)OC1C2C3=CC4=C(C=C3CCN5C2(CCC5)C=C1OC)OCO4)O)O
#inchikey HYFHYPWGAURHIV-JFIAXGOJSA-N
#pubchem_id 285033
#mb_accession NA002399,NA002400,NA002401,NA002402,NA002403,NA002794,NA002795,NA002796,NA002797,NA002798,NA003174,NA003175,NA003176,NA003177,NA003178,NA003539,NA003540,NA003541,NA003542,NA003543

>ms2peaks
546.269400 344466.800000

>ms2peaks
298.143500 11192.400000
546.269600 363424.600000

>ms2peaks
298.143300 146551.600000
546.269300 370151.500000

>ms2peaks
126.091300 2175.100000
150.091300 6950.400000
176.070500 9670.800000
215.070600 2119.100000
226.085900 6624.700000
227.094200 3754.300000
229.109700 2754.100000
251.106100 4871.900000
255.102500 1866.000000
266.117300 10552.500000
281.116700 4614.500000
284.127900 14025.500000
298.143500 729232.400000
316.153700 23706.500000
546.269600 265847.800000

>ms2peaks
126.091200 9315.300000
150.091200 28136.700000
176.070500 29260.900000
215.070100 8510.100000
226.086100 24834.300000
227.094500 19380.600000
229.109400 9454.100000
251.106400 30483.400000
255.101400 11659.100000
266.117400 36579.900000
281.117000 23163.700000
284.128000 44977.800000
298.143500 1299378.200000
316.154000 62175.200000
546.269800 109909.000000

>ms2peaks
70.065000 3585.400000
85.064800 2199.800000
93.070100 3295.700000
100.075800 2695.500000
107.085600 4717.200000
109.064700 20050.500000
120.080500 9052.800000
121.064500 2657.100000
123.080200 12629.700000
126.091200 22514.200000
129.054800 3496.300000
135.044000 4197.700000
150.091200 79038.000000
161.059600 9379.800000
163.098700 2760.100000
167.106500 11675.800000
173.059600 7332.200000
176.070500 55806.500000
185.060300 2782.400000
190.086200 4130.600000
199.076000 1958.100000
200.070300 1988.400000
214.087000 3839.400000
215.070000 21668.100000
219.080900 2806.600000
223.075200 14104.900000
223.111700 11208.000000
224.076500 2732.800000
225.090800 6058.500000
226.086100 63351.700000
227.094200 72535.300000
229.085400 19100.900000
229.109500 27495.000000
236.107400 5994.200000
237.090300 9118.700000
239.107000 5299.300000
240.077900 6578.300000
240.101700 16910.300000
241.087100 3144.900000
243.100800 3074.300000
249.091000 7492.600000
250.099400 4688.400000
251.106400 79778.300000
252.077800 2012.500000
253.085800 27232.700000
253.110100 6929.300000
255.101300 26160.700000
266.117300 114712.800000
268.134100 6881.200000
269.116900 15530.600000
270.112000 18824.800000
281.116900 42729.100000
283.120300 12195.600000
284.128000 94183.800000
296.128100 6349.700000
298.143500 1780200.100000
316.153900 107542.500000
546.269700 46375.400000

>ms2peaks
70.065100 6523.000000
85.064800 3176.200000
91.054200 1396.700000
93.069900 6821.200000
94.065000 1757.900000
96.080900 2493.300000
97.028100 1709.900000
100.075800 5062.300000
107.085600 8180.400000
109.064800 25399.300000
120.080700 10339.300000
121.064600 3868.400000
123.080400 15953.500000
126.091300 28384.200000
129.054800 5862.500000
135.044500 3899.000000
135.080500 2697.200000
138.090900 1451.400000
149.059800 3148.900000
150.091300 114719.100000
153.091000 1793.400000
159.043600 2207.300000
161.059500 9875.100000
163.099600 3233.200000
167.106600 8610.100000
171.080500 1748.700000
173.059700 9782.300000
174.054700 3234.200000
175.062500 1945.300000
176.070600 56790.600000
185.059800 2162.300000
190.086300 3568.800000
195.079500 1764.100000
197.095900 2889.600000
199.075300 3908.700000
200.070700 6662.600000
207.080500 1590.700000
208.112200 2327.400000
209.096700 1643.700000
211.074800 3809.500000
212.070600 1904.200000
213.091900 1516.100000
214.086200 6659.400000
215.070300 24017.900000
216.101600 2675.200000
219.080100 5546.400000
223.075300 24863.900000
223.111600 17126.600000
225.090900 12017.400000
226.086300 79035.400000
227.094400 102213.500000
229.085800 23145.900000
229.109700 35666.700000
236.107100 10755.800000
237.091100 13813.700000
238.086200 6144.600000
239.070000 3911.000000
239.106800 8064.000000
240.078300 13826.700000
240.101900 37034.600000
242.081400 8797.300000
243.102000 5041.100000
249.091000 13547.400000
250.099200 5743.900000
251.106600 98484.100000
252.078200 2508.600000
253.085900 37064.400000
253.109800 16954.100000
255.101400 33836.500000
255.125000 3723.500000
266.117500 165028.800000
267.126500 36216.000000
268.096700 5615.900000
268.134000 15731.800000
269.117000 19118.800000
270.112400 30635.900000
281.117100 39680.800000
283.120300 26035.000000
284.128200 117860.000000
296.127600 9290.800000
298.143700 1340092.500000
316.154100 94906.700000
546.270300 9278.700000

>ms2peaks
59.049000 3321.200000
70.065100 6145.800000
75.044100 1631.600000
85.064800 5217.800000
93.069800 11103.600000
100.075600 3833.400000
107.085500 10121.400000
109.064700 25937.900000
110.060100 1417.000000
111.080500 2649.500000
120.080700 7256.500000
121.064700 4364.900000
123.080300 17845.200000
125.059600 1557.900000
126.091200 22426.600000
129.054500 7853.200000
131.049000 3330.700000
135.044100 4725.300000
135.080500 2212.500000
149.059600 7082.600000
150.091200 126641.800000
153.090400 2593.800000
159.044200 5278.700000
161.059700 10481.400000
163.099600 2712.300000
167.106600 5508.900000
170.059800 2713.700000
173.059600 15160.200000
174.054800 6841.500000
175.063600 1238.600000
176.070400 47809.900000
181.101800 1508.300000
185.059500 6806.100000
187.075200 2157.900000
190.086200 3731.400000
191.085400 5132.300000
193.065700 1409.900000
195.080400 3726.600000
197.059000 2049.900000
197.095400 4234.700000
199.075100 7514.600000
200.070500 8502.400000
202.086900 2541.300000
207.079900 3714.400000
208.088800 1307.000000
208.111500 7098.200000
209.096700 1856.900000
211.075400 6335.100000
212.071500 1896.200000
213.090700 3325.600000
214.086200 6163.800000
215.070300 24940.500000
216.101400 2736.100000
219.080400 7337.000000
223.075300 31172.500000
223.111600 22269.600000
224.076000 3880.100000
225.090900 15106.300000
226.086200 78726.500000
227.094200 114561.800000
229.085800 24016.600000
229.109600 40840.900000
230.109600 3297.500000
236.082300 3321.600000
236.107000 14252.600000
237.090900 17802.800000
238.086600 11421.600000
238.121800 1988.300000
239.070400 5806.300000
239.106900 7911.400000
240.078300 17631.300000
240.101700 72159.900000
241.086800 6873.500000
242.081000 17955.300000
243.101500 5178.300000
249.090900 13089.400000
251.106500 91542.000000
252.078200 4690.500000
253.085800 40494.100000
253.109800 22358.700000
254.118600 6214.900000
255.101300 26915.400000
255.126000 4090.900000
257.104900 2183.700000
264.102000 2959.100000
266.117300 166961.400000
267.125900 67525.000000
268.096500 12910.100000
268.134400 17807.700000
269.116900 15679.100000
269.137100 3443.600000
270.112000 40136.700000
281.117000 23075.800000
282.112500 5151.900000
283.120200 31759.800000
284.128100 111086.200000
296.127900 9972.800000
298.143500 801889.100000
316.154000 58452.100000

>ms2peaks
55.017700 1373.000000
59.049100 3897.200000
70.065100 5245.000000
75.044000 2157.800000
79.054200 2000.300000
85.064800 6628.500000
93.069900 10060.600000
94.065200 1716.400000
96.081000 2828.800000
97.028500 1526.400000
100.075700 2394.700000
107.085500 10902.700000
109.064800 20009.100000
111.080100 1448.600000
120.080900 5601.400000
121.064600 3991.500000
123.080500 13676.000000
125.060000 1530.700000
126.091400 17962.000000
129.054700 5948.900000
131.049200 4837.800000
135.044000 4529.800000
135.079900 1459.500000
138.091400 1598.300000
143.049700 1771.300000
149.059700 10220.900000
150.091400 102578.900000
153.091000 1882.600000
159.044100 6539.800000
161.059700 7467.100000
163.099300 1902.500000
167.106300 2513.000000
170.059500 1984.300000
171.080400 1678.600000
173.059700 11678.400000
174.055100 5554.900000
176.070600 38498.000000
179.085800 2416.800000
181.064200 2113.400000
181.101800 1556.200000
185.059700 5101.000000
187.075600 2737.900000
190.086400 2126.400000
191.085600 5927.000000
193.064400 2440.600000
195.080300 4011.700000
197.059900 2382.700000
197.096100 5382.400000
199.075100 7122.900000
200.070600 7752.000000
202.086900 2377.100000
207.080300 4846.500000
208.088900 1841.800000
208.112100 9020.000000
209.060000 1697.500000
209.096100 3079.900000
210.068100 2081.100000
210.091700 2267.700000
211.075500 6366.100000
211.112400 1388.300000
212.071100 3014.100000
213.091200 2144.600000
214.086500 6779.100000
215.070300 20806.600000
216.101400 3483.200000
219.080400 7311.000000
220.089300 1431.300000
223.075400 31993.500000
223.111700 20326.900000
225.079000 1293.400000
225.091200 14401.700000
226.086400 64034.300000
227.094300 93740.000000
229.085900 15230.700000
229.109800 35977.500000
230.109500 2484.200000
236.083300 5176.100000
236.106900 14793.600000
237.091200 13022.300000
238.086600 14473.300000
238.122600 3376.200000
239.070500 4529.800000
239.107100 5472.100000
240.078300 16762.100000
240.101900 84681.000000
241.086600 6806.000000
242.081100 20276.700000
242.118400 1465.100000
243.101100 3449.400000
249.091300 10265.500000
250.087100 1991.700000
251.094800 11882.700000
251.106700 60974.500000
252.078600 3147.300000
253.086000 27910.200000
253.109800 24472.500000
254.118300 9282.900000
255.101400 17537.800000
255.126200 4711.400000
256.097600 4083.000000
256.133900 2189.600000
264.101200 3288.600000
266.117500 146028.500000
267.126100 64605.800000
268.096900 18845.700000
269.117300 8196.100000
270.112400 31074.700000
281.117300 10288.200000
282.112100 8091.800000
283.120500 28483.700000
284.128300 77102.000000
296.128000 7463.400000
298.143800 379960.700000
316.154300 26649.700000

>ms2peaks
55.017700 1102.300000
59.049000 4103.100000
70.065000 3593.700000
75.044100 1646.700000
79.054400 1690.200000
85.064800 4368.100000
91.054300 2052.800000
93.069900 8010.400000
96.080700 1723.100000
97.028600 1231.900000
100.075700 2222.700000
107.085500 8989.400000
109.064800 12170.300000
110.059900 1785.300000
111.080400 1464.100000
120.080600 3944.800000
121.064500 3914.200000
123.080400 9297.300000
126.091200 11254.700000
129.054700 4221.200000
131.049200 2915.500000
135.044000 4202.400000
135.080300 2026.900000
143.048800 1596.700000
149.059600 7248.700000
150.091300 72869.300000
153.090500 1238.400000
159.044000 5775.000000
161.059500 4417.600000
170.059700 2475.200000
171.080100 2342.600000
173.059700 8161.400000
174.054900 2846.500000
175.063200 1130.500000
176.070600 27788.800000
179.085500 3541.200000
181.065300 1782.400000
181.101100 2042.500000
185.059600 4032.700000
187.075400 3404.700000
190.086000 1701.300000
191.085500 6430.300000
193.065100 2253.000000
195.080200 6285.700000
197.059200 1923.400000
197.096200 5205.100000
199.075400 6958.800000
200.070700 5430.400000
202.085800 3185.600000
207.080300 5176.500000
208.088000 2768.800000
208.112000 11564.200000
209.059800 3453.400000
209.096300 1912.800000
210.067300 2557.300000
210.090700 1600.500000
211.075400 6590.800000
211.112200 1410.900000
212.070900 3477.000000
213.091200 2242.500000
214.086300 7362.100000
215.070300 12375.500000
216.102300 2732.800000
219.080500 5755.300000
220.089300 1401.700000
223.075300 25641.600000
223.111600 16200.600000
225.078200 1732.000000
225.091000 10386.200000
226.086200 50171.300000
227.094100 67669.500000
229.085600 10122.000000
229.109700 28318.800000
236.083400 3887.500000
236.106900 13859.300000
237.091000 11980.400000
238.086200 14746.800000
238.122800 3248.900000
239.070200 3926.700000
239.106700 3852.600000
240.078300 10387.100000
240.101800 82345.700000
241.085800 5223.500000
242.081100 20627.000000
242.117800 1430.500000
243.101700 3150.100000
249.091000 4951.100000
250.086400 1531.500000
250.099000 3068.000000
251.094200 12610.300000
251.106500 33448.600000
252.077600 2617.400000
253.086000 15574.300000
253.109700 20943.400000
254.117700 12572.900000
255.101500 7943.700000
255.125600 4204.100000
256.096700 4832.600000
256.133000 2128.200000
257.104100 1498.900000
264.102300 4019.100000
266.117500 108013.900000
267.125600 60824.700000
268.096700 24535.600000
268.134400 8572.000000
269.117300 3931.800000
269.138200 1520.300000
270.112200 23996.600000
281.117100 5083.600000
282.112300 11614.700000
283.120400 17107.200000
284.128300 46649.900000
296.128000 7059.700000
298.143700 154757.100000
316.154200 11481.900000

>ms2peaks
55.017700 5766.600000
55.054200 2040.200000
59.049000 13765.700000
70.065100 10963.000000
79.054200 4616.100000
81.069900 2717.100000
83.085300 4117.300000
85.064700 11387.200000
91.054100 8655.800000
93.069800 25493.900000
94.065000 4309.400000
95.049300 2575.700000
96.080800 4217.100000
97.028300 3573.600000
97.064600 2136.600000
100.075600 4068.300000
103.054000 2445.100000
107.085500 26422.300000
108.056900 3348.300000
109.064700 34651.800000
110.060000 6329.100000
111.080200 4033.000000
115.054100 6890.200000
118.065000 4399.600000
119.048900 5635.500000
120.080700 11108.700000
121.064600 9235.800000
123.080400 24862.200000
124.075800 3026.100000
125.059200 4615.500000
125.096300 4069.500000
126.091200 25923.100000
129.054400 7709.200000
129.069400 3501.300000
131.049100 11832.500000
135.044100 10847.100000
135.080500 3449.500000
138.091600 3144.300000
141.069400 2405.900000
142.065200 2717.900000
143.049000 8512.100000
148.075800 4082.500000
149.059700 30157.900000
150.091300 216735.300000
153.069600 4982.700000
157.064300 4141.700000
159.044100 18616.600000
161.059600 11135.700000
163.099400 2140.000000
165.069900 12740.300000
166.077300 3180.300000
167.049400 4005.900000
167.085900 6608.500000
168.081200 6534.100000
169.064700 3729.900000
170.060200 10093.600000
171.080500 9139.700000
172.051600 5089.700000
173.059700 27804.600000
174.054900 9844.600000
175.063000 5303.800000
176.070500 71151.300000
179.085300 16497.400000
180.080400 4527.500000
181.064900 11196.600000
181.101200 6690.400000
182.072800 4816.800000
182.096300 5196.900000
183.080600 7511.200000
185.059600 18141.700000
186.067000 2261.500000
187.062200 3846.200000
187.075200 8891.300000
189.078200 3434.200000
190.086700 2968.300000
191.085300 25877.400000
192.093700 3802.400000
193.064300 10399.700000
193.100700 6068.200000
194.073500 2763.200000
195.080300 23128.000000
196.075600 6410.500000
197.059500 9430.100000
197.096300 13688.700000
198.067800 2544.900000
199.062200 5768.700000
199.075200 18816.100000
200.046200 5430.300000
200.070600 17589.200000
202.086100 6803.700000
207.080300 16300.700000
208.088300 12124.700000
208.111900 39971.600000
209.059500 10804.700000
209.096300 11100.800000
210.067600 12716.200000
210.091500 6962.900000
210.128100 3008.400000
211.062500 5623.700000
211.075400 19572.200000
211.112300 3652.900000
212.071000 14667.600000
212.107200 3000.000000
213.091300 6013.900000
214.086300 23782.000000
215.070300 31268.500000
216.101600 10746.500000
219.080400 16640.500000
221.083900 2638.100000
221.096000 5232.700000
222.067300 7224.000000
222.091300 2313.900000
223.075300 74973.900000
223.111500 42843.300000
225.054300 8616.500000
225.078800 7352.300000
225.091000 29875.100000
225.114700 5672.500000
226.086200 152624.900000
227.057700 13738.600000
227.094200 160301.100000
228.065600 8906.100000
228.077800 4871.400000
228.094500 13275.800000
229.085900 22546.900000
229.109700 88553.100000
236.083400 11805.800000
236.106900 41098.700000
237.078100 7286.400000
237.091200 22543.100000
238.062100 9168.700000
238.086200 51759.800000
238.122700 10957.900000
239.070200 14610.000000
239.106900 10035.800000
240.078200 25402.400000
240.101700 275900.800000
241.086800 11148.000000
241.115400 1992.300000
242.081100 67966.100000
242.118500 8249.500000
243.100800 4048.800000
249.090800 12639.800000
250.086400 9987.000000
250.099400 6152.700000
251.094000 40390.800000
251.106500 66483.100000
252.078300 6436.300000
252.102700 32252.200000
253.086000 36150.500000
253.109700 52184.200000
254.081800 12883.400000
254.118100 35474.200000
255.089100 24191.200000
255.101100 16736.200000
255.116200 2934.200000
256.097700 14503.200000
256.133800 6158.300000
264.101800 18423.300000
266.117300 257463.000000
267.125800 153769.800000
268.096500 87859.600000
269.116400 6938.000000
270.112300 50469.300000
281.116800 6521.600000
282.112200 36859.700000
283.120600 30388.800000
284.128200 95711.400000
294.113900 4509.100000
296.127700 9563.600000
298.143600 203724.100000
316.154300 14793.700000

>ms2peaks
55.017700 4322.000000
55.054200 2087.700000
59.049000 12789.200000
69.069700 4872.500000
70.065100 9865.700000
79.054300 3852.800000
81.069700 2271.400000
83.085600 2618.700000
85.064700 8986.900000
91.054200 10382.000000
93.069800 25839.600000
94.065100 2900.700000
95.049300 4205.200000
96.080500 2787.000000
97.028300 2769.800000
97.064700 3051.600000
100.075400 2997.500000
103.054000 4617.900000
105.070000 1995.900000
107.085400 25681.400000
108.056700 3635.200000
109.064700 25804.800000
110.060000 8878.000000
111.067900 4862.300000
111.080500 3796.000000
115.054000 8284.200000
117.069900 2624.700000
118.064900 3740.100000
119.048900 3944.200000
120.080900 7963.000000
121.064800 7049.600000
123.080300 21196.000000
124.076000 3645.100000
125.059700 5693.000000
125.096000 3586.100000
126.091200 17729.500000
129.054500 5265.100000
129.069400 3533.500000
131.049000 13023.100000
135.043900 11891.900000
141.070000 4321.500000
142.065200 5389.800000
143.049100 9313.900000
148.075900 5337.500000
149.059600 25121.700000
150.091200 188267.600000
153.069400 7287.500000
153.091000 2649.200000
155.085700 4340.100000
157.064800 4462.300000
159.044000 15509.300000
160.051600 2870.800000
161.059600 9724.200000
163.099200 2390.600000
165.069800 18450.200000
167.049100 3723.100000
167.085500 8158.300000
168.080700 7111.600000
169.064900 4602.500000
170.059900 10674.700000
171.080400 9993.500000
172.051500 3459.100000
173.059500 20971.000000
174.054900 10890.900000
175.062600 4822.300000
176.070500 53832.500000
178.078200 2979.400000
179.085400 20681.000000
180.080900 4635.900000
180.092800 2708.600000
181.064800 11669.800000
181.101100 7430.300000
182.072300 7143.800000
182.096200 6059.000000
183.080400 8038.800000
185.059500 18025.100000
186.068300 3982.600000
187.063000 2647.900000
187.075300 9946.100000
190.085600 2039.300000
191.085400 30166.200000
192.093500 4732.400000
193.064800 12344.200000
193.087900 4405.700000
193.100800 4390.600000
194.073200 2917.100000
195.080300 28452.900000
196.075600 6580.700000
196.087800 2431.100000
197.059400 10871.500000
197.096100 16572.800000
198.054600 2138.700000
198.067800 4818.100000
198.091500 4441.700000
199.062600 14345.000000
199.075200 17680.800000
200.046800 6751.100000
200.070700 14042.900000
202.085600 9087.600000
207.080200 13164.200000
208.075900 4038.900000
208.088600 12106.600000
208.111900 42223.500000
209.059700 14261.600000
209.096600 9415.600000
210.067500 16944.900000
210.091400 9817.000000
210.127400 3366.100000
211.063400 7422.900000
211.075300 16969.700000
211.111700 4152.500000
212.070600 20862.700000
212.083300 2476.500000
212.106600 5435.500000
213.079000 6594.000000
213.091100 7943.700000
214.086200 32619.500000
215.070100 22506.300000
216.101400 9841.500000
219.080400 15848.500000
220.089200 5372.200000
221.059800 2892.600000
221.083600 3902.900000
221.095900 3962.800000
222.067100 8521.500000
222.091300 4187.700000
223.075300 64890.100000
223.111600 36340.500000
225.054200 12357.900000
225.078600 9556.100000
225.091000 21442.200000
225.115000 8012.100000
226.086100 140606.900000
226.122500 8106.000000
227.057700 21695.200000
227.094300 121991.600000
228.065800 11581.100000
228.079200 2988.500000
228.093800 11243.400000
229.085600 17603.200000
229.109700 77347.000000
235.075100 2819.600000
236.083100 9328.400000
236.106900 37373.200000
237.078300 6663.900000
237.091100 21062.900000
237.117500 3002.200000
238.062700 12448.800000
238.086200 52942.900000
238.122800 14747.100000
239.070200 12383.500000
239.095200 11812.800000
239.106900 8016.400000
240.078600 21083.100000
240.101600 268121.800000
241.086800 6673.500000
241.115300 2168.700000
242.081000 55958.600000
242.117200 8133.100000
249.090600 7332.900000
250.086400 13976.200000
250.099100 4196.400000
251.094000 38817.300000
251.106500 40715.200000
252.078300 5166.100000
252.102600 38221.000000
253.085800 24604.500000
253.110000 40479.500000
254.081400 12736.200000
254.117800 41369.800000
255.089000 21432.200000
255.100300 6777.000000
256.097100 12730.300000
256.133900 5317.000000
264.101800 15322.800000
266.117300 207200.300000
267.125700 116890.400000
268.096600 89512.400000
269.116700 5161.200000
270.112100 31130.500000
281.116700 2340.700000
282.112200 40201.700000
283.121200 15075.400000
284.128100 59135.500000
294.111500 4440.800000
296.127800 6649.800000
298.143600 81983.300000
316.153600 7560.500000

>ms2peaks
55.017700 5081.500000
55.054000 4237.500000
59.049000 10970.500000
69.069800 4686.700000
70.065000 8559.900000
79.054200 7384.700000
81.069900 2285.400000
85.064700 9045.400000
91.054200 11633.200000
93.069900 18593.000000
94.065200 4032.800000
95.049100 3106.400000
96.080600 6278.900000
97.028500 4612.500000
103.054100 5505.600000
105.070200 2715.600000
107.085500 20814.200000
108.057100 2536.300000
109.064700 20496.800000
110.059900 8251.400000
111.067500 3078.100000
111.080300 4871.100000
115.054100 14249.100000
117.070400 2178.200000
118.064900 6061.900000
119.049200 4508.100000
120.080800 7588.300000
121.064800 4826.700000
123.080600 12540.400000
124.075500 2154.100000
125.095700 3040.600000
126.091300 15913.700000
129.054300 3973.500000
129.069800 2883.500000
131.049200 14860.400000
135.044100 11834.700000
135.080700 3543.000000
141.069900 5098.000000
142.064900 6558.000000
143.049000 10271.700000
148.075600 8245.300000
149.059600 23242.300000
150.091300 169334.000000
152.062500 2256.200000
153.069800 10671.600000
153.090800 2493.100000
155.085300 5104.500000
157.064600 4390.900000
159.044000 17035.300000
160.051500 2359.500000
161.059700 7056.000000
165.069800 30722.100000
167.049200 5193.200000
167.072600 2641.000000
167.085200 12063.300000
168.080600 9737.300000
169.064700 6230.900000
169.088900 2201.400000
170.059800 9381.300000
170.096400 2858.000000
171.080400 8648.400000
172.052100 5716.500000
173.059700 19784.200000
174.054700 10329.000000
175.062500 5449.000000
176.070500 52860.000000
178.077600 6979.800000
179.085300 27015.700000
180.080700 7699.000000
181.064700 14740.000000
181.100900 7010.100000
182.072600 11420.200000
182.096200 12197.800000
183.080300 11784.200000
185.059700 19013.800000
186.067500 2996.600000
187.062700 2515.900000
187.075300 10703.000000
189.078600 2692.600000
190.077400 4401.600000
190.087100 2512.600000
191.085400 26278.600000
192.080400 2999.200000
192.093200 5204.300000
193.064700 13505.300000
193.088500 6123.000000
193.101200 4774.200000
194.072500 3324.200000
195.080400 32640.700000
196.075800 9457.200000
196.089200 2787.600000
196.112400 2830.600000
197.059600 11337.000000
197.084300 2090.100000
197.096000 14735.300000
198.068000 5659.400000
198.091400 7244.800000
199.039000 4057.000000
199.062700 15082.500000
199.075300 17179.700000
200.047000 5362.400000
200.070800 12194.100000
200.106800 2160.400000
202.086800 7170.000000
207.080500 15070.500000
208.075700 5324.200000
208.088300 16193.400000
208.111900 48130.100000
209.059500 17337.500000
209.096600 7870.000000
210.067600 22485.100000
210.091600 14740.200000
210.128400 2689.800000
211.063100 10622.500000
211.075500 19529.300000
211.112700 4257.300000
212.070700 21610.100000
212.107300 5299.800000
213.079200 8729.100000
213.091000 6693.800000
214.086200 37260.900000
215.070100 17619.300000
216.102200 8106.400000
219.080200 10930.100000
221.059400 3673.400000
221.082900 2875.400000
222.068000 7702.400000
222.091900 5883.600000
223.075300 55443.700000
223.111500 22707.400000
224.071400 13216.300000
224.107700 8587.400000
225.054600 12470.300000
225.078700 9201.200000
225.091200 17087.700000
225.115200 8493.800000
226.086200 145274.700000
227.057700 28300.200000
227.094400 91584.100000
228.065800 11562.000000
228.078400 3398.500000
228.102900 26354.700000
229.086300 9091.800000
229.109700 60164.700000
235.074800 2740.400000
236.083200 9250.800000
236.106800 29910.300000
237.078400 6183.700000
237.091300 13830.000000
237.117200 2378.500000
238.062600 9157.500000
238.086200 57019.800000
238.122700 18020.700000
239.070700 11287.700000
239.107200 4777.000000
240.078100 14803.900000
240.101700 264021.300000
241.074100 2655.900000
242.081000 47647.400000
242.118000 6226.700000
243.101000 2149.200000
249.091400 5952.900000
250.086300 15980.200000
251.094300 31616.800000
251.106500 20748.700000
252.102200 42229.700000
253.086000 14037.500000
253.110300 30608.300000
254.081400 14492.400000
254.118000 37901.800000
255.089200 16469.900000
256.097400 10741.800000
256.133400 4640.100000
264.101600 17833.000000
266.117300 159283.700000
267.126000 69279.900000
268.096600 74428.400000
270.112200 20798.700000
282.112400 40105.900000
283.120000 5585.800000
284.128100 41413.700000
294.112200 5682.300000
296.128400 5980.000000
298.143600 29973.800000
316.154000 3016.500000

>ms2peaks
55.017700 3581.000000
59.049000 7070.100000
67.054200 2845.000000
69.069700 3759.900000
70.065100 6853.900000
79.054200 6683.300000
83.085500 3484.300000
85.064800 4291.000000
91.054100 13524.600000
93.069800 18291.500000
94.065200 2837.800000
95.048900 2587.800000
96.080700 4592.800000
97.028500 2273.900000
97.064700 2332.000000
100.075800 1970.800000
103.054100 8409.300000
105.069500 2761.800000
107.085500 17560.300000
108.056800 2726.900000
109.064700 14316.900000
110.060000 8916.700000
111.067900 3478.800000
111.080400 3022.500000
115.054200 13251.300000
117.069600 2002.500000
118.064800 4700.200000
119.049100 5336.800000
120.080800 5917.200000
121.064900 4377.200000
123.080300 7184.900000
125.059400 3264.500000
126.091300 10680.700000
129.069700 5105.500000
131.049000 9929.400000
135.043900 9303.800000
135.067800 1990.400000
138.090900 1750.400000
139.053900 3292.500000
141.069700 7583.600000
142.065000 6508.000000
143.048900 8450.900000
145.064400 2817.800000
146.059700 1957.900000
147.044100 2280.600000
148.075800 4960.400000
149.059600 16650.200000
150.091200 130604.900000
152.061900 5294.600000
153.069700 13859.900000
155.085700 5264.900000
156.080700 1629.600000
157.064700 5544.600000
159.043900 16714.100000
160.052400 2400.300000
161.059800 6126.300000
165.069700 30689.500000
166.077100 10439.600000
167.049400 3573.900000
167.073000 4140.500000
167.085300 9725.900000
168.080800 10290.400000
169.064900 4768.300000
170.060000 8743.800000
170.096400 3154.900000
171.080400 12032.400000
171.104200 3221.900000
172.051800 7673.600000
173.059700 12519.900000
174.054900 8671.200000
175.062700 4675.700000
176.070500 33758.900000
178.077600 8166.900000
179.085400 20849.800000
180.057100 3568.600000
180.080600 11314.700000
180.092600 2791.600000
181.064700 16628.500000
181.087800 1787.600000
181.100800 4926.200000
182.072600 13591.900000
182.096300 12754.000000
183.080100 8802.900000
185.059700 16001.500000
186.067900 5066.300000
187.062500 3857.900000
187.075400 6852.800000
189.078600 2681.700000
190.077600 5910.400000
191.085300 22959.700000
192.080500 4079.600000
192.093800 6419.000000
193.064600 11970.300000
193.088500 6863.200000
193.101000 4225.800000
194.073100 4334.700000
194.097000 3899.300000
195.080400 26718.300000
196.075900 6161.100000
196.088300 3503.100000
196.112000 4533.600000
197.059700 10727.500000
197.084100 2655.700000
197.095800 9733.500000
198.055000 3563.500000
198.067300 5598.600000
198.091300 8030.500000
199.038700 3270.800000
199.062800 18701.000000
199.075300 11617.700000
200.047000 5241.400000
200.070600 12118.500000
200.107100 3486.600000
202.086600 4652.000000
206.095900 3751.200000
207.080500 11925.900000
207.103600 3754.200000
208.076100 5166.700000
208.088400 15628.100000
208.111900 35357.700000
209.059600 18148.200000
209.085700 2443.900000
209.096700 4657.100000
210.067700 17064.200000
210.091200 16572.200000
210.127600 2966.200000
211.062900 12813.400000
211.075300 16142.200000
212.070800 21804.600000
212.107100 8110.600000
213.054700 3626.800000
213.079000 8610.600000
213.091400 4050.700000
214.086300 31901.000000
215.070200 7262.400000
216.101600 7350.300000
219.080400 7036.200000
220.088900 2634.200000
221.059400 2528.100000
221.084000 3364.900000
222.067800 7994.800000
222.091500 7125.100000
223.075400 38031.800000
223.111600 12239.800000
224.071300 16072.700000
224.107600 11778.600000
225.054600 11787.000000
225.078500 12435.400000
225.091000 8744.100000
225.115200 6584.000000
226.086100 114110.100000
227.057500 26715.100000
227.070200 3000.900000
227.094500 58386.600000
228.066500 9648.000000
228.102600 22456.200000
229.086700 2825.400000
229.109700 40445.400000
235.075800 3395.600000
236.083800 4863.500000
236.106900 25031.900000
237.078700 4625.400000
237.091200 8693.700000
238.062500 8988.500000
238.086200 48192.900000
238.122600 15214.700000
239.070700 7660.800000
239.095200 10106.800000
239.106300 1810.900000
240.101600 201050.800000
241.073800 1983.600000
241.086000 3767.700000
242.081100 29124.000000
242.117500 6501.100000
249.091700 2807.700000
250.086200 17928.200000
251.094100 26884.100000
252.102000 45105.000000
253.086000 8225.500000
253.110500 19367.200000
254.081100 11378.300000
254.117700 31049.600000
255.089400 9895.700000
256.097100 8219.100000
256.133300 2930.000000
264.101900 12448.600000
266.117300 106233.900000
267.126100 41981.700000
268.096600 55063.300000
270.112300 10909.800000
282.112200 32291.500000
284.127900 17588.400000
294.112500 2582.300000
298.144000 9454.800000

>ms2peaks
55.017700 2859.500000
59.049000 4330.400000
67.054000 2463.500000
69.069600 4161.800000
70.065000 4810.600000
79.054200 5444.400000
81.070100 1973.600000
85.064800 3059.200000
91.054100 12217.000000
93.069900 15522.300000
94.065100 3150.800000
95.049100 2163.800000
96.080700 3151.200000
97.028700 1960.600000
97.065000 2041.200000
103.054100 10999.500000
107.085500 14848.600000
108.057100 2772.700000
109.064700 10189.700000
110.059900 8765.900000
111.067800 3844.600000
111.080200 2621.500000
115.054100 17384.300000
117.069700 1788.600000
118.065100 3930.600000
119.049200 7110.100000
120.080800 4132.600000
121.064600 3310.100000
123.080400 5424.500000
126.091300 7302.800000
129.069900 5913.600000
131.049000 8556.800000
135.044100 9911.400000
135.067800 2959.400000
139.054300 1947.500000
141.069700 9807.200000
142.064900 5950.200000
143.048900 5976.300000
145.064500 2426.600000
146.060100 3050.800000
147.043900 1799.000000
148.075300 2969.200000
149.059700 12664.900000
150.091200 103674.400000
152.061900 10431.000000
153.069700 15391.300000
155.085400 7757.700000
156.080400 2967.500000
157.064100 4515.600000
159.044100 11607.600000
160.051500 1912.700000
161.060100 3486.900000
165.069700 34585.500000
167.048900 4841.300000
167.073000 4745.200000
167.085300 9509.300000
168.080600 9159.400000
169.064400 5154.300000
169.088500 4003.300000
170.060000 7520.600000
170.096200 3903.800000
171.080200 8030.900000
171.104000 2461.100000
172.051500 9576.200000
173.059500 9246.200000
174.054800 8217.300000
175.063000 1881.400000
176.070500 25490.200000
178.077600 8566.300000
179.085500 22502.900000
180.056400 4573.200000
180.080500 10470.600000
180.093400 5128.400000
181.064700 14902.300000
181.089200 3347.900000
181.101600 2644.900000
182.072600 15987.600000
182.096400 15307.700000
183.080200 9505.500000
185.059700 15216.400000
186.067900 3088.300000
187.063000 3349.700000
187.075200 6453.900000
190.077300 5567.800000
191.085400 22011.500000
192.080600 4036.400000
192.093600 7359.900000
193.064700 10645.100000
193.088800 8416.500000
194.072900 4869.400000
194.096600 4287.700000
195.080300 23365.900000
196.075600 7959.100000
196.088600 2953.900000
196.112000 4839.200000
197.059500 12029.700000
197.083800 3755.900000
197.096200 7009.600000
198.054600 6611.800000
198.068000 3514.200000
198.090900 7357.100000
199.038400 5514.200000
199.062600 22209.300000
199.075200 7599.400000
200.046100 4098.500000
200.070900 8745.400000
200.107000 5291.700000
202.086200 3791.100000
206.095400 3800.800000
207.080400 10470.000000
207.104300 3438.500000
208.075700 7045.200000
208.088200 12446.300000
208.111800 29632.300000
209.059600 15994.100000
209.086000 1491.200000
210.067700 15033.800000
210.091300 19379.000000
210.128200 2393.500000
211.062800 15246.500000
211.075300 15740.400000
212.070700 18737.900000
212.083200 2743.200000
212.106900 3935.500000
213.054500 3577.500000
213.078900 7393.400000
213.090600 2089.900000
214.086100 29581.300000
215.069800 5279.500000
216.101300 4682.900000
219.080200 6004.100000
221.060000 2867.200000
221.084100 3003.200000
222.067200 8033.100000
222.091300 7716.000000
223.075300 27713.200000
223.111800 7223.100000
224.070800 13015.800000
224.107100 11346.500000
225.054300 8862.600000
225.078400 12786.800000
225.090900 5855.200000
225.115700 2613.300000
226.086100 94821.200000
226.122800 5168.000000
227.057500 25880.200000
227.070500 2998.800000
227.094900 30799.100000
228.066600 5148.200000
228.102100 26389.500000
229.084900 2354.700000
229.109900 24799.500000
235.074600 2229.100000
236.083900 3856.900000
236.106800 18728.100000
237.078400 4244.400000
237.091000 5468.300000
238.062200 8353.900000
238.086000 35493.000000
238.122600 14863.400000
239.070300 6587.100000
239.095000 12272.800000
240.101700 158606.500000
241.074500 1974.000000
242.080900 22641.100000
242.117500 3670.500000
250.086000 16657.300000
251.094100 21894.200000
252.101900 35864.400000
253.085800 3230.900000
253.110600 9053.200000
254.081200 9129.200000
254.117700 23022.900000
255.089200 7605.800000
255.118000 2725.700000
256.096700 3588.900000
256.134100 2363.300000
264.101800 11720.800000
266.117300 71379.700000
267.126400 18825.700000
268.096500 42502.200000
270.112000 7988.700000
282.112400 24493.000000
284.128200 10836.900000

>ms2peaks
55.017800 2220.500000
59.049000 5679.000000
67.054100 2718.700000
69.069900 4889.600000
70.065100 4850.900000
77.038600 2931.300000
79.054300 4564.600000
81.069700 2646.300000
91.054200 21567.100000
93.069900 18165.400000
94.065200 3740.700000
95.049100 3598.500000
96.080700 3130.300000
97.064800 2432.000000
103.054200 15256.100000
105.069800 2620.100000
107.073100 4108.100000
107.085400 13563.700000
108.056900 3208.100000
108.081100 2522.100000
109.064800 9655.000000
110.060000 11254.400000
111.067700 3343.000000
111.080500 2722.200000
115.054200 25579.400000
117.069900 4561.800000
118.065100 7121.600000
119.049100 8082.300000
120.080700 6349.200000
121.064700 4570.700000
122.060400 2522.500000
123.080300 2676.900000
126.091500 3956.600000
128.062000 6069.500000
129.069800 9774.000000
131.049000 10656.100000
135.044000 9539.700000
135.067900 4072.400000
139.054300 6834.200000
141.069800 11889.600000
142.065000 8357.600000
143.049100 6793.900000
143.085200 1604.600000
144.056800 2066.000000
144.080600 1917.500000
145.064800 3424.100000
146.060400 3315.800000
147.043900 2553.600000
148.051300 2311.200000
148.075700 5310.900000
149.059700 13400.400000
150.091300 115384.900000
152.062000 18301.700000
153.069800 25586.700000
154.065300 5260.100000
154.077000 4653.700000
155.049000 1769.600000
155.073300 2185.900000
155.085300 8265.600000
156.056800 1703.800000
156.080500 2551.300000
157.064500 5834.100000
159.044000 13777.200000
161.059600 3134.400000
165.069800 54312.300000
166.065100 3626.900000
166.077300 14074.700000
167.049000 6734.300000
167.072800 10219.500000
167.085400 14195.300000
168.057000 4669.600000
168.080600 13265.700000
169.052000 2797.600000
169.064700 7768.600000
169.088100 8136.000000
169.100600 2191.700000
170.059700 7818.000000
170.096200 6593.400000
171.043800 2904.600000
171.080500 8435.000000
171.104200 5407.300000
172.051800 10571.800000
172.075000 1717.200000
172.111900 3239.000000
173.047100 3202.900000
173.059600 9355.600000
174.054800 10044.900000
175.062700 2768.100000
176.070600 24667.700000
178.077500 15940.400000
179.085500 27684.800000
180.056900 6372.400000
180.080700 16754.100000
180.093000 5436.900000
181.064700 21591.500000
181.088800 4487.600000
181.101200 3699.600000
182.059800 4482.000000
182.072600 19884.400000
182.096400 21239.600000
183.068000 3845.600000
183.080400 11109.000000
184.052500 2351.200000
184.075500 4790.300000
185.059700 20196.200000
186.055000 2454.800000
186.067200 4087.600000
187.062800 3376.900000
187.075200 5914.200000
189.070000 5030.600000
190.077700 9827.600000
191.085500 21192.900000
192.080600 5106.900000
192.093800 6607.400000
193.064700 14707.700000
193.088800 12483.200000
194.072800 6447.200000
194.096700 8498.100000
195.068600 1636.000000
195.080300 27018.500000
195.105200 2219.000000
196.051700 3333.100000
196.075800 10726.600000
196.088800 4297.300000
196.112100 7226.400000
197.059600 15253.900000
197.083900 5117.400000
197.095800 6747.200000
198.054700 10556.200000
198.067800 6095.700000
198.091300 12684.300000
199.038700 8244.800000
199.062600 23823.600000
199.075000 7335.700000
200.046800 3042.300000
200.071100 11345.800000
200.106400 5719.300000
202.086100 5358.000000
206.096100 4599.300000
207.080300 11959.100000
207.104700 4339.300000
208.075700 6946.600000
208.088400 12423.000000
208.111900 35671.500000
209.059500 18590.600000
209.097000 2990.000000
210.067700 16561.700000
210.091100 24783.600000
211.062800 18277.800000
211.075400 15413.700000
212.070700 24528.900000
212.106900 7413.900000
213.054500 3558.300000
213.079100 8642.700000
214.086200 35598.000000
215.070200 4730.800000
216.101400 5409.000000
219.080200 4522.400000
220.075500 3127.100000
221.059400 4015.100000
221.083700 4296.500000
222.067600 6145.400000
222.091400 10937.100000
223.062500 2640.900000
223.075200 26506.500000
223.099700 6314.600000
223.111700 5496.300000
224.070900 19837.900000
224.107200 15710.400000
225.054400 11057.600000
225.078500 17787.100000
225.091300 4573.800000
226.086100 102199.100000
227.057400 30007.000000
227.084600 6012.300000
227.095200 24187.400000
228.066100 6724.200000
228.102200 23883.700000
229.109800 21646.600000
235.074900 3090.500000
236.071100 3589.100000
236.106900 18352.200000
237.078200 6154.300000
237.091300 5105.800000
238.062500 8002.600000
238.086200 40523.200000
238.122500 17465.400000
239.070700 5440.800000
239.094900 16029.900000
240.101600 155672.500000
242.081000 18338.500000
242.118100 3332.400000
250.086100 22233.600000
251.094300 19854.300000
252.102000 37276.400000
253.073200 3386.100000
254.081300 9492.400000
254.117500 22364.400000
256.096900 5255.800000
256.133600 2926.100000
264.101500 11579.400000
266.117200 65037.700000
268.096500 36846.700000
270.112000 5501.100000
282.112100 21305.500000
284.127700 8335.900000

>ms2peaks
55.017700 1664.700000
59.049100 3078.300000
67.054200 1909.400000
69.069900 6012.000000
70.065100 3253.000000
77.038600 3545.100000
79.054200 7754.700000
81.070000 2673.600000
91.054200 20705.700000
93.069900 16025.900000
94.065200 3065.600000
95.048800 1669.800000
96.080900 2846.600000
97.064800 1766.000000
103.054200 14536.700000
105.069700 2651.500000
106.065200 2007.000000
107.072900 5697.000000
107.085500 8534.800000
108.056800 3604.200000
108.080900 1949.100000
109.064900 6541.800000
110.060000 10145.400000
111.067700 2220.300000
115.054200 26182.400000
117.057300 1853.300000
117.069900 3538.600000
118.065100 6086.200000
119.049100 5813.500000
120.080600 5471.700000
121.065100 2744.400000
122.060100 1616.300000
123.080300 2569.900000
126.091000 3593.700000
128.062100 8720.300000
129.069900 9262.900000
131.049100 7961.100000
135.044200 10440.600000
135.067900 5611.300000
139.054200 7775.000000
141.057400 2165.500000
141.069900 14776.800000
142.065200 6679.000000
143.049300 6013.600000
143.073200 1411.200000
143.085500 2071.200000
144.056700 1339.900000
144.080600 2166.900000
145.064900 1916.500000
146.060200 3179.100000
147.044100 2850.000000
148.052100 1311.600000
148.075800 3680.900000
149.059600 10015.200000
150.091400 82434.600000
152.062100 24550.000000
153.069800 27504.100000
154.065000 6760.900000
154.077200 7282.400000
155.049100 3019.200000
155.072900 3136.100000
155.085500 8440.700000
156.057300 2118.100000
156.080800 4785.800000
157.065000 5953.500000
159.044200 10458.400000
160.052100 2701.100000
161.059600 2055.900000
164.061900 1671.900000
165.069900 54502.700000
166.064500 2595.300000
167.049100 7207.300000
167.073000 11021.100000
167.085400 9420.300000
168.056900 4930.300000
168.080600 15740.100000
169.052300 2887.600000
169.064800 7833.800000
169.088700 7555.000000
169.100600 1604.100000
170.060200 6272.700000
170.096300 7397.100000
171.044200 4138.800000
171.079900 5072.800000
171.104200 6033.600000
172.052100 8549.100000
172.111900 4483.800000
173.046400 2093.400000
173.059500 6938.500000
174.054900 10200.500000
175.062800 2901.500000
176.061600 1557.300000
176.070600 14900.600000
177.069300 2278.100000
178.065400 2061.000000
178.077800 16261.100000
179.085600 22642.800000
180.057100 7978.500000
180.080800 15319.800000
181.064800 19555.800000
181.088500 5759.900000
181.101300 3444.300000
182.059900 5399.200000
182.072700 14661.500000
182.096500 19986.800000
183.067500 3801.000000
183.080600 6261.500000
184.051800 2213.200000
184.075500 5636.200000
184.112000 2148.300000
185.059700 16246.000000
186.054300 3378.700000
186.067600 3340.600000
187.063200 3243.800000
187.075300 3720.200000
189.069600 7158.100000
190.077700 7504.100000
191.085600 17622.800000
192.081000 8462.700000
192.093600 6055.300000
193.064800 9413.200000
193.088700 11571.700000
194.072600 4281.500000
194.096700 10841.000000
195.080500 20497.100000
196.052600 2650.300000
196.075900 9337.300000
196.088500 3413.800000
196.112200 10889.700000
197.059600 12102.000000
197.084200 5413.700000
197.096200 2780.000000
198.055000 12659.400000
198.067700 4358.500000
198.091400 7960.900000
199.038900 5393.100000
199.062800 23573.200000
199.075600 5735.900000
200.047100 2466.500000
200.070800 8667.800000
200.106900 5260.200000
201.079100 2119.000000
202.086300 3535.500000
206.096100 5303.900000
207.080600 8285.900000
207.104300 5974.600000
208.075700 6233.000000
208.088600 7830.900000
208.112200 26617.400000
209.059600 14008.900000
209.097100 1995.500000
210.067800 11392.200000
210.091300 23217.300000
211.062800 19056.200000
211.075500 12447.800000
212.070900 21862.600000
212.107200 5707.500000
213.054400 4293.400000
213.078800 7833.500000
214.086300 29780.900000
215.069700 2209.800000
216.102000 2987.400000
219.080300 3636.900000
220.076100 3688.600000
221.058900 2857.600000
221.084600 2879.300000
222.067100 5690.100000
222.091400 10676.300000
223.062800 1800.200000
223.075500 16153.000000
223.100200 3749.800000
223.112200 2113.400000
224.070900 22532.600000
224.107100 14802.100000
225.054800 6939.700000
225.078900 14420.200000
225.091300 2611.900000
226.086300 78961.000000
227.057600 20614.100000
227.085800 5054.200000
228.066300 4391.400000
228.102000 20797.200000
229.110300 8856.400000
235.075300 3764.000000
236.071600 2511.100000
236.106900 12831.800000
237.079100 4152.500000
237.091800 1989.200000
238.062000 5434.800000
238.086200 31007.100000
238.122600 13895.900000
239.070900 4417.900000
239.095100 11870.100000
240.101800 100217.200000
242.080800 11981.200000
242.116900 2210.100000
250.086300 17828.300000
251.094500 11532.600000
252.102100 26403.000000
254.081300 7211.500000
254.117700 17562.600000
256.132200 1466.300000
264.101400 8226.400000
266.117400 38982.800000
268.096800 24223.300000
270.113500 3038.400000
282.112500 14946.700000
284.127500 1932.200000

>ms2peaks
59.049100 2150.800000
67.054200 2623.500000
68.049300 1060.500000
69.069900 3758.400000
70.065000 3818.500000
77.038500 2476.100000
79.054200 6894.200000
81.069700 1776.200000
91.054200 15151.200000
93.069900 9918.200000
94.064900 2317.400000
95.049100 2040.000000
96.081100 2237.500000
97.064500 1002.000000
103.054200 14464.700000
105.070000 1899.200000
106.065200 1357.800000
107.073000 4779.000000
107.085500 6429.800000
108.057200 1680.300000
109.064900 3419.200000
110.060000 7862.400000
111.067900 1521.500000
111.080400 1269.600000
115.054200 21561.700000
116.062100 1174.000000
117.056900 1152.300000
117.070000 2796.800000
118.065100 5027.800000
119.049100 4336.800000
120.080900 2842.000000
121.064700 1436.900000
122.060300 2269.100000
126.091200 1961.600000
128.062000 7895.000000
129.069800 8312.700000
131.049100 4643.600000
135.044100 6549.300000
135.067900 3990.200000
139.054300 8525.100000
140.062000 2062.900000
141.057400 2353.700000
141.069900 11602.300000
142.065100 5298.100000
143.049100 4485.100000
144.080300 978.700000
145.065000 1600.800000
146.059900 1739.600000
147.043900 1966.200000
148.075400 3578.300000
149.059500 6074.800000
150.091300 55979.800000
151.054000 1321.800000
152.062100 23069.000000
153.069700 22092.800000
154.065000 6665.700000
154.077300 4741.800000
155.048900 2450.200000
155.072500 2480.400000
155.085600 5636.200000
156.080600 4702.400000
157.064600 4053.300000
159.044100 7159.300000
164.062100 1298.600000
165.069900 48662.100000
166.065100 3090.100000
166.077000 8797.700000
167.049100 4182.200000
167.072900 12854.600000
167.085400 7336.200000
168.056800 4543.900000
168.080700 13790.600000
169.052600 1981.200000
169.064900 4607.200000
169.088500 5302.400000
169.101100 1020.800000
170.059900 4326.700000
170.096500 6974.800000
171.044000 3080.300000
171.080300 2880.900000
171.103900 4503.900000
172.051900 6963.500000
172.075900 2086.600000
172.111800 2645.300000
173.047500 2716.400000
173.059400 4897.400000
174.055000 5588.700000
175.062900 1335.200000
176.070600 8404.700000
177.070100 1935.400000
178.065500 1837.300000
178.077700 14969.600000
179.085500 15762.600000
180.057100 6030.200000
180.080700 14020.200000
180.093400 3285.100000
181.064800 13664.700000
181.088400 5182.300000
181.100900 1788.300000
182.059700 4686.300000
182.072700 11145.600000
182.096400 17799.000000
183.067800 4523.200000
183.080300 5233.500000
184.052200 1068.300000
184.075200 4636.100000
184.112100 2067.500000
185.059700 13177.800000
186.055300 2704.000000
186.067300 2285.400000
187.062600 1821.400000
187.075000 2159.100000
189.070000 4703.700000
190.077800 5738.800000
191.085500 11743.300000
192.080800 7404.200000
192.093500 2665.500000
193.064500 7033.600000
193.088800 8651.100000
194.073100 3159.000000
194.096600 9122.000000
195.066900 1484.300000
195.080500 13494.200000
195.104800 1278.800000
196.051200 2002.400000
196.075800 9167.800000
196.088600 2398.800000
196.112100 7316.500000
197.059500 9221.700000
197.083500 4636.100000
198.055100 12567.600000
198.067900 3889.000000
198.091700 6369.700000
199.039000 3826.300000
199.062800 15441.400000
199.075000 4042.900000
200.070900 5805.300000
200.106900 2896.300000
201.078300 1778.500000
202.086000 1566.000000
206.096400 5466.500000
207.080500 5006.600000
207.104500 3688.500000
208.076400 4893.300000
208.088600 5082.500000
208.112000 19026.300000
209.059700 12197.800000
209.084000 3409.800000
210.067900 6812.600000
210.091300 18401.200000
211.062800 18739.300000
211.075300 6611.600000
212.070900 17100.600000
212.107100 4289.800000
213.054500 1853.100000
213.079200 5228.900000
214.086300 18544.700000
216.102300 1654.900000
220.075800 3803.300000
221.059800 1531.800000
221.084400 2845.300000
222.067700 3535.800000
222.091100 8340.700000
223.062300 2249.000000
223.075400 8979.200000
223.100200 2872.400000
224.070700 17468.500000
224.107000 9520.600000
225.054800 4615.800000
225.078700 12691.200000
226.086200 47290.500000
227.057500 14172.900000
227.085800 3856.300000
228.102100 15053.900000
229.110300 4337.700000
235.075000 2830.000000
236.071500 1585.000000
236.106800 10434.100000
237.078800 3084.300000
237.091700 1404.100000
238.062600 2899.100000
238.086100 23027.100000
238.122400 7516.000000
239.070100 1493.300000
239.095100 8873.800000
240.101800 65807.200000
242.081300 5814.400000
242.118600 1748.500000
250.086100 13215.100000
251.094400 8743.400000
252.102000 16145.900000
253.073700 2241.900000
254.081400 3131.000000
254.117600 9132.100000
256.098100 1663.500000
264.101800 5171.100000
266.117400 20891.000000
268.096600 11776.500000
270.111900 1426.600000
282.112400 5902.900000
284.128500 1507.400000

>ms2peaks
68.049300 928.400000
69.069900 1747.600000
70.065000 1432.500000
77.038600 1558.000000
79.054200 3897.200000
91.054200 12387.200000
93.070000 6480.100000
94.065300 1499.700000
95.049100 1958.100000
103.054300 6950.300000
107.073000 5641.200000
107.085500 3357.600000
109.064900 1596.700000
110.060000 4627.100000
115.054300 17787.400000
117.057300 1100.100000
118.065100 3501.500000
119.049400 2295.100000
120.080700 1904.200000
121.065100 1413.900000
122.059900 1401.800000
128.062100 7209.300000
129.069900 6004.300000
131.049000 3454.500000
135.044200 2964.400000
135.067900 3556.600000
139.054400 7168.500000
140.061700 1426.800000
141.057400 2021.700000
141.069900 8149.900000
142.065100 4619.000000
143.049100 2502.100000
143.072700 1261.800000
146.060200 1202.000000
147.044400 2451.500000
149.059600 2927.400000
150.091300 32800.700000
152.062000 20937.300000
153.057400 1518.300000
153.069800 19410.000000
154.065100 7738.900000
154.077500 4774.200000
155.049100 2063.300000
155.073000 2331.600000
155.085500 5149.200000
156.080900 3496.500000
157.064300 3302.500000
159.044200 4427.300000
160.051100 1378.800000
164.062100 2361.700000
165.069900 35999.000000
166.065600 3535.500000
166.077400 8094.200000
167.049200 4560.900000
167.073100 10502.200000
167.085200 5252.300000
168.056800 3402.900000
168.080700 11565.600000
169.051600 1911.400000
169.064900 4360.500000
169.088300 4241.800000
170.060400 3069.900000
170.096200 5859.100000
171.043700 3852.100000
171.080700 1889.100000
171.104100 1896.000000
172.051900 4098.200000
172.076000 1511.800000
172.111900 1616.500000
173.047200 2136.000000
173.059500 2778.200000
174.055000 4468.800000
176.070900 4958.100000
178.077700 12649.100000
179.085700 10406.400000
180.057400 3124.400000
180.080800 11290.000000
180.093700 2329.000000
181.064800 10052.500000
181.088600 5564.700000
182.059900 4619.000000
182.072700 6583.900000
182.096600 10933.700000
183.067800 4107.600000
183.080500 2878.900000
184.051200 1243.800000
184.075200 2480.800000
184.112100 1249.400000
185.059800 6090.600000
186.068100 1108.600000
187.062900 1657.600000
189.070000 4796.100000
190.078100 4290.500000
191.085600 7033.600000
192.081000 6631.500000
193.064800 4771.500000
193.088600 6913.100000
194.072700 1627.400000
194.096300 6553.000000
195.068600 1128.100000
195.080500 7068.200000
196.075800 7386.900000
196.087700 975.900000
196.111800 6236.700000
197.059800 5645.200000
197.083900 2085.700000
198.055200 9058.200000
198.067900 2436.400000
198.091400 4535.300000
199.038200 2521.800000
199.062800 10154.300000
199.075100 1582.400000
200.070900 5065.500000
200.107000 2567.300000
206.096500 3777.200000
207.080600 3322.900000
207.105200 2631.900000
208.075900 4438.100000
208.088500 1369.000000
208.112100 12480.500000
209.059400 7678.200000
209.083900 2989.900000
210.067600 3655.300000
210.091400 15047.400000
211.062600 13518.100000
211.075300 5521.100000
211.099200 1208.200000
212.070800 10056.000000
212.106500 3037.400000
213.078500 2869.000000
214.086400 10074.800000
216.102500 1282.100000
219.080300 1132.400000
220.075900 2271.700000
221.082900 1826.900000
222.067100 2210.500000
222.091300 5616.900000
223.075200 4899.100000
223.099600 2163.000000
224.070700 11287.400000
224.107100 5722.100000
225.055400 2273.800000
225.078600 7469.300000
226.086200 29357.600000
227.057500 6699.200000
228.066300 2686.900000
228.102000 8654.200000
229.110300 1648.100000
236.107200 4861.700000
237.077800 3496.200000
238.086200 16175.100000
238.122400 5202.100000
239.094400 6625.400000
240.101800 32192.100000
242.081000 2547.800000
250.086200 7974.800000
251.094300 4591.500000
252.101900 7881.400000
253.073700 1296.500000
254.081200 2235.700000
254.117100 4099.200000
264.103100 2550.600000
266.117600 9428.900000
268.096500 5341.500000
282.111700 3711.100000

>ms2peaks
69.069900 1370.700000
77.038500 2470.600000
79.054200 3620.800000
91.054200 7524.600000
93.069800 2694.600000
95.049600 1134.900000
96.080500 1010.200000
103.054200 6360.900000
107.072900 3652.200000
110.060200 2853.200000
115.054300 12775.100000
116.062400 1487.500000
117.069900 1337.900000
118.065200 1795.200000
119.049000 1491.800000
122.059900 1523.400000
128.062200 5548.200000
129.069900 3254.700000
135.044300 2077.700000
135.067600 1728.700000
139.054300 5505.300000
140.062400 1820.400000
141.069900 7359.000000
142.065200 2345.300000
143.049100 1491.700000
145.065200 1201.700000
147.044300 1056.700000
150.091500 15799.400000
151.054500 1374.400000
152.062100 16271.400000
153.057100 1421.000000
153.070100 15515.100000
154.065300 6750.400000
154.077400 1342.700000
155.049600 1807.100000
155.073300 1531.800000
155.085900 2377.600000
156.081300 2238.200000
159.044000 2086.400000
161.059800 1038.700000
164.062200 1795.000000
165.070000 25594.400000
166.065400 2002.100000
166.077700 4792.600000
167.049400 2820.600000
167.073100 8700.500000
167.085500 3513.400000
168.057100 3738.000000
168.080900 9162.900000
169.064800 1958.600000
169.088300 2362.300000
170.060500 1691.100000
170.096700 4852.000000
171.044800 2885.200000
171.103800 1314.300000
172.051900 2714.500000
172.112300 1183.400000
173.047600 2325.300000
173.060500 1183.700000
174.055000 2772.000000
176.062000 1413.000000
176.070800 2622.300000
178.077800 8542.400000
179.085600 6469.900000
180.057300 2250.000000
180.081000 7761.200000
181.064800 6707.100000
181.088800 4460.200000
182.060000 3278.300000
182.072900 3102.800000
182.096600 8766.300000
183.068300 1974.600000
183.079900 1408.900000
184.075700 2282.500000
185.060100 3674.900000
186.055400 1347.700000
189.070000 4193.700000
190.078100 2803.800000
191.085800 3529.200000
192.081100 4908.000000
193.064800 2598.700000
193.089200 4304.600000
194.073400 1362.200000
194.096400 5752.000000
195.080500 4323.600000
196.076000 5952.900000
196.112200 3941.200000
197.060000 3944.000000
197.083600 1539.500000
198.055000 7071.800000
198.067600 2128.200000
198.091600 3655.800000
199.038600 1239.300000
199.062500 4497.600000
200.070800 3275.600000
200.106800 1937.900000
206.096300 3124.900000
207.080700 1677.000000
207.103900 2054.700000
208.112100 7842.800000
209.059800 3764.300000
209.084100 1249.700000
210.067800 1470.500000
210.091200 7032.900000
211.062600 7828.700000
211.074900 1770.000000
211.098900 1647.200000
212.070400 6181.200000
212.106500 2376.700000
213.078600 2768.500000
214.086300 5563.100000
220.076400 1900.900000
222.091200 4162.900000
223.075800 2080.300000
223.098700 2044.700000
224.070400 8720.700000
224.106700 3025.400000
225.055000 1451.900000
225.078600 5565.600000
226.086300 15384.300000
227.058000 3640.900000
227.093300 1556.400000
228.101900 3888.700000
236.106700 2844.200000
237.079400 1217.300000
238.086300 9058.500000
238.123100 2383.700000
239.094400 4815.900000
240.102000 16057.900000
250.086800 4126.100000
251.094900 3132.600000
252.101800 4488.300000
254.117000 2293.900000
264.102100 1916.500000
266.117600 4768.900000
268.097000 1590.300000

