>compound NA30109588
>parentmass 368.1704
>ionization [M+H]+
>formula C18H25NO7
>rt 76.740000
>profile orbitrap
#smiles_iso C[C@@H]1C[C@]2([C@@H](O2)C)C(=O)O[C@@H]3CC[N+]4([C@@H]3C(=CC4)COC(=O)[C@]1(C)O)[O-]
#smiles_can CC1CC2(C(O2)C)C(=O)OC3CC[N+]4(C3C(=CC4)COC(=O)C1(C)O)[O-]
#inchikey NKRQJWQYBNTAEV-SAJQNFQWSA-N
#pubchem_id 132282048
#mb_accession NA002285,NA002286,NA002287,NA002288,NA002289,NA002682,NA002683,NA002684,NA002685,NA002686,NA003064,NA003065,NA003066,NA003067,NA003068,NA003429,NA003430,NA003431,NA003432,NA003433

>ms2peaks
368.170500 186430.800000

>ms2peaks
368.170600 418093.400000

>ms2peaks
296.149800 1418.000000
368.170600 386855.500000

>ms2peaks
296.148800 7793.600000
368.170500 384345.000000

>ms2peaks
296.149400 27936.100000
368.170600 330552.700000

>ms2peaks
93.069800 1231.900000
94.065200 1567.600000
95.073100 6205.300000
106.065200 1522.900000
108.081200 1123.900000
118.065200 8245.800000
119.073000 7835.400000
120.080800 20459.100000
121.088700 8527.800000
122.096500 5324.300000
136.075800 5429.400000
138.091500 5309.800000
139.099200 15054.600000
154.086300 2100.100000
156.102400 3348.800000
218.153800 1256.600000
236.127300 1076.900000
280.154500 2428.700000
296.149400 108406.600000
324.144400 8421.800000
340.177000 1392.600000
368.170500 411763.500000

>ms2peaks
79.054300 1001.200000
80.049500 2183.400000
91.054200 2510.000000
93.057400 2214.100000
93.069900 3751.300000
94.065200 3416.200000
95.073000 13024.500000
96.080900 1402.400000
106.065000 3311.500000
108.080700 2305.500000
110.060100 1567.300000
113.059600 2201.300000
118.065100 14828.200000
119.073000 17034.800000
120.080800 45673.300000
121.088600 15565.500000
122.096400 8893.200000
124.075900 1267.700000
136.075700 5961.800000
138.091500 8902.900000
139.099100 23094.000000
140.107000 1260.700000
154.086300 4751.200000
156.101800 4603.500000
174.128400 1665.500000
178.086000 1420.400000
190.122300 3742.500000
192.101600 2061.800000
218.154100 1654.500000
236.128000 1847.600000
262.144300 1676.600000
268.154600 1437.800000
278.138400 2421.400000
280.154300 2342.100000
296.149300 143177.700000
324.144200 10420.100000
340.174300 1858.200000
368.170400 244482.900000

>ms2peaks
77.038600 1618.400000
79.054300 2906.900000
80.049500 4756.500000
81.069800 1250.600000
91.054200 6272.400000
93.057400 5320.200000
93.069900 5378.600000
94.065100 8038.100000
95.073000 18647.400000
96.080800 2147.400000
97.064900 1441.300000
106.065200 5470.900000
108.080900 3121.100000
110.060000 2337.400000
110.096700 2209.900000
113.059800 5406.100000
118.065200 16809.800000
119.073000 22666.200000
120.080800 68177.800000
121.088700 23355.400000
122.096500 15887.200000
124.075900 2933.300000
136.075800 8355.400000
137.083700 1786.600000
138.091400 12099.200000
139.099300 26106.700000
140.107000 1261.700000
152.106600 1209.800000
154.086400 5289.900000
156.102100 6701.100000
174.128100 1979.900000
178.086600 1446.200000
190.122800 4900.300000
192.065300 2198.000000
192.102600 1961.600000
218.153900 1516.300000
220.132800 1814.300000
236.128400 2587.800000
262.145000 1606.400000
268.154700 2022.200000
278.139100 3184.500000
280.153600 1819.500000
296.149500 127055.400000
324.144700 7305.600000
340.175900 3333.000000
368.170600 116325.200000

>ms2peaks
67.054200 1319.400000
68.049300 1120.400000
77.038600 3332.300000
79.054300 4577.900000
80.049500 7279.800000
81.069900 1472.300000
82.065300 1039.400000
91.054200 8182.100000
93.057400 8232.800000
93.070000 8434.100000
94.065200 9786.400000
95.049300 1496.700000
95.073000 20242.300000
96.080900 4029.200000
106.065000 6187.700000
108.080800 5718.900000
109.088400 1407.300000
110.060200 2503.300000
110.096500 3788.800000
113.059700 6568.800000
118.065200 18769.500000
119.073000 28033.900000
120.080800 85853.700000
121.088600 27166.100000
122.096400 18777.200000
124.075700 3524.300000
136.075700 7628.300000
137.083500 1305.400000
138.091400 13681.300000
139.099200 21449.500000
140.107400 1169.600000
152.107000 1181.100000
154.086200 6384.100000
156.102100 8403.600000
162.091300 1389.200000
163.099700 2159.300000
178.086600 1367.300000
190.122900 8673.000000
192.065900 2863.300000
192.102200 2603.100000
218.154000 1422.200000
220.132700 1711.200000
236.129100 1850.900000
268.154700 4659.500000
278.138700 2730.100000
280.154200 1390.100000
296.149400 94974.900000
324.144700 4852.300000
340.175200 2943.900000
368.170500 46017.100000

>ms2peaks
67.054100 1620.000000
68.049400 2360.500000
77.038800 2585.300000
79.054300 4309.800000
80.049500 7902.800000
81.069900 1651.100000
82.065300 1573.100000
91.054300 10398.600000
93.057400 11866.900000
93.069800 8175.700000
94.065200 13965.600000
95.049300 2344.300000
95.073000 18274.400000
96.080700 2952.900000
97.065100 1404.600000
106.065100 7265.400000
108.080800 4705.300000
109.088400 1662.700000
110.060100 1934.600000
110.096500 1509.300000
113.059600 8423.600000
118.065100 20727.200000
119.073000 20450.500000
120.080800 91796.800000
121.088600 26004.900000
122.096400 16304.700000
124.075600 3956.600000
136.075700 9455.200000
137.083800 2326.900000
138.091300 13181.800000
139.099200 13382.100000
140.107000 1929.100000
152.106500 1318.400000
154.086400 2915.300000
156.102100 4937.000000
162.091300 1842.500000
163.099300 3487.700000
174.128000 2356.800000
190.122500 8643.500000
192.065200 2995.800000
192.102300 2120.200000
268.154400 3573.500000
278.138500 2637.200000
296.149400 44135.000000
324.144100 2320.400000
340.174500 1816.900000
368.170600 13128.700000

>ms2peaks
67.054100 4043.800000
68.049400 2806.800000
69.069800 1228.100000
77.038500 9621.400000
79.054200 8939.400000
80.049500 15209.000000
81.057300 2097.000000
81.069900 4119.200000
82.065200 4818.600000
84.044500 2204.600000
86.060100 1717.700000
91.054300 15603.100000
92.049400 2486.200000
93.057300 25789.800000
93.069900 12862.000000
94.065100 32719.300000
95.049100 3712.300000
95.073000 29043.600000
96.044300 1872.200000
96.080900 6059.800000
97.064800 2445.200000
98.059900 2169.200000
103.054200 2270.600000
105.069800 2856.900000
106.065100 19014.900000
108.080800 11755.800000
109.088600 3602.200000
110.060000 5078.400000
110.096400 3910.500000
111.068000 2409.000000
112.075400 1831.300000
113.059700 17068.300000
118.065100 36586.900000
119.073000 38917.300000
120.080800 164945.100000
121.088600 35232.700000
122.096400 27366.000000
124.075700 5615.400000
134.096800 2131.700000
136.075700 17489.200000
137.083500 2347.900000
138.091300 19027.100000
139.099100 15465.300000
140.107000 3561.900000
141.054400 1163.500000
146.096200 1496.900000
148.075900 1563.000000
150.091500 1170.700000
152.107000 2281.300000
154.086400 5020.100000
156.101900 9824.600000
157.086500 1480.400000
162.091500 6849.500000
163.099100 4165.900000
174.127600 3535.800000
190.122700 11867.300000
192.065700 4417.600000
192.102300 2095.600000
218.118100 1019.900000
232.133500 3453.700000
268.154200 5466.300000
278.138900 4177.000000
296.149400 39833.000000
368.170200 5919.500000

>ms2peaks
67.054200 4348.600000
68.049400 3864.800000
69.069800 2117.000000
77.038600 8741.500000
79.054200 9078.200000
80.049500 14785.300000
81.033100 1169.800000
81.057500 1259.200000
81.069900 4920.400000
82.065200 4104.000000
83.049100 1192.000000
84.044400 1514.000000
85.065200 1053.400000
86.060000 1675.200000
91.054200 17929.000000
92.049400 2082.800000
93.057300 26357.100000
93.069900 11878.900000
94.065100 34018.400000
95.049200 4547.200000
95.073000 24047.200000
95.085900 2107.100000
96.044700 1827.500000
96.080800 5386.300000
97.064800 2066.100000
98.059900 1943.100000
99.044000 1507.000000
103.054000 3372.300000
105.070300 1659.500000
106.065200 17541.400000
107.073000 2009.500000
108.080800 9183.700000
109.088800 1842.900000
110.060100 5386.700000
110.096600 2197.300000
111.068100 2369.600000
112.075600 1587.900000
113.059700 15863.900000
118.065200 30149.300000
119.073000 35085.500000
120.080800 149706.100000
121.088600 28876.600000
122.096400 21124.500000
124.075700 5726.100000
134.096200 1778.600000
136.075700 13787.900000
137.083400 1786.100000
138.091300 14269.800000
139.099200 9449.000000
140.107200 1737.800000
141.054500 1163.000000
146.096400 2128.900000
150.091100 1884.200000
152.107700 1629.000000
154.086400 2467.500000
156.102000 9492.300000
162.091400 7575.200000
163.099400 4605.900000
174.127300 2172.100000
190.122800 8765.400000
192.065600 4351.900000
192.102100 1886.300000
218.118500 1361.000000
232.133400 2266.900000
268.153600 3181.300000
278.139000 1774.300000
296.149500 14785.400000
368.170700 2176.400000

>ms2peaks
67.054200 3784.500000
68.049400 2524.900000
77.038700 8938.100000
79.054300 9522.700000
80.049600 13436.400000
81.057600 2221.600000
81.069900 3899.200000
82.065100 3691.200000
83.049100 1506.800000
84.044500 1400.400000
85.064900 1578.500000
91.054300 18316.700000
92.049700 2026.200000
93.057400 27140.000000
93.069900 9531.700000
94.065200 34799.200000
95.049100 4686.300000
95.073000 18038.800000
95.085600 1457.000000
96.044400 1687.400000
96.080800 5025.100000
97.064600 2431.500000
98.060100 2450.000000
99.044200 1386.000000
103.054300 2064.900000
105.069900 2408.700000
106.065200 16420.100000
107.073300 1670.900000
108.080900 8802.800000
109.088600 2552.500000
110.060200 3991.200000
110.096600 1551.100000
111.068000 1724.200000
113.059800 9931.500000
117.057300 952.200000
118.065200 28796.700000
119.073100 27322.500000
120.080900 132398.700000
121.088700 18335.100000
122.096400 16646.100000
124.075800 3797.100000
132.081000 1543.800000
134.096000 1208.400000
136.075900 12119.700000
138.091500 8974.600000
139.099300 5624.000000
140.107200 1203.100000
146.096300 2006.000000
148.075700 1633.400000
154.086400 1890.100000
156.102200 5942.700000
157.086100 1151.000000
162.091500 5766.400000
163.099500 2654.600000
174.128100 1585.400000
190.122700 5764.300000
192.065800 3501.500000
232.134400 1366.600000
296.150400 4219.200000

>ms2peaks
67.054200 4419.200000
68.049300 2020.200000
77.038600 7765.800000
79.054300 9912.400000
80.049500 13983.100000
81.033400 1353.900000
81.057100 1714.000000
81.069900 2724.400000
82.065000 3642.300000
83.048900 1875.600000
84.044800 1264.700000
85.064800 1373.400000
86.059900 1466.200000
91.054200 16938.500000
92.049400 2654.000000
93.057300 25816.000000
93.070000 7028.700000
94.065100 38917.400000
95.049000 3079.600000
95.073000 12935.100000
96.080700 3054.900000
97.064800 2411.300000
99.044100 1461.600000
103.054200 1726.900000
105.069600 1393.900000
106.065100 14363.400000
107.073200 2270.600000
108.080800 9139.200000
109.088800 1781.100000
110.060000 2720.800000
113.059600 8470.100000
118.065200 24488.800000
119.073000 21921.100000
120.080800 118142.200000
121.088500 12524.100000
122.096400 13204.200000
124.075800 3711.200000
132.081400 1688.200000
136.075600 8485.600000
138.091400 6104.700000
146.096200 1372.200000
148.075800 1382.600000
156.101900 3878.100000
162.091600 5837.800000
190.122700 3242.300000
192.064800 1941.900000

>ms2peaks
67.054200 4208.500000
68.049500 2356.600000
69.069700 1365.900000
77.038600 6485.500000
79.054200 7007.000000
80.049500 12963.200000
81.033400 1267.700000
81.057500 1391.500000
81.069800 2096.600000
82.065300 2263.100000
91.054300 12896.900000
92.049400 2631.600000
93.057400 23186.000000
93.069900 5801.600000
94.065100 32671.200000
95.049100 3360.800000
95.073000 9851.700000
96.080800 3432.200000
103.054100 1648.100000
105.070100 1670.100000
106.065100 13144.600000
107.073000 2308.000000
108.080800 6800.400000
110.059800 2454.400000
110.096900 1379.600000
113.059800 4976.400000
117.057500 1250.200000
118.065100 21827.900000
119.073000 16325.900000
120.080800 95071.800000
121.088700 8355.600000
122.096400 7757.500000
124.076000 2135.300000
132.080800 1531.500000
134.096700 1776.400000
136.075800 6667.000000
138.091400 4774.700000
139.099500 1768.900000
140.107200 1093.500000
148.075100 1613.500000
156.102100 2674.800000
162.091200 4670.400000
174.128000 1345.400000
190.122500 1121.800000

>ms2peaks
65.038500 1625.600000
66.046200 1183.800000
67.054200 5975.200000
68.049500 2767.700000
69.069900 2525.400000
77.038600 14296.300000
79.054300 11341.300000
80.049500 20345.800000
81.033800 1192.500000
81.057300 3083.900000
81.069900 4013.800000
82.065100 2401.000000
83.049000 1304.200000
84.044700 1397.600000
86.060000 1383.900000
91.054300 24392.600000
92.049500 4048.300000
93.057400 37282.400000
93.070000 7326.700000
94.065200 59247.800000
95.049300 4683.700000
95.073000 12499.400000
95.085700 2216.500000
96.080800 4070.100000
97.064800 2032.800000
98.060200 1047.800000
103.054200 2164.100000
105.069900 2040.400000
106.065200 24136.000000
107.073000 2278.400000
108.080900 9579.100000
110.060200 3201.100000
113.059700 5776.300000
117.057500 2559.500000
118.065200 36643.300000
119.073000 19514.700000
120.080900 137273.700000
121.088700 7635.000000
122.096500 10141.200000
124.075900 4855.500000
134.060100 1649.000000
134.097100 1768.000000
136.075900 9522.300000
138.091400 4299.200000
148.075700 2002.400000
156.101900 2670.400000
162.091700 6293.100000

>ms2peaks
65.038500 1298.700000
66.046400 1395.300000
67.041600 1358.200000
67.054200 5264.400000
68.049400 3470.100000
77.038600 14230.400000
79.054300 8761.100000
80.049500 19931.300000
81.033600 1490.400000
81.057200 1291.900000
81.069900 3335.600000
82.065200 1875.300000
84.044700 1024.200000
86.060000 1635.900000
91.054200 20154.200000
92.049400 4774.600000
93.057300 33917.400000
93.069900 4565.200000
94.065200 50062.500000
95.049200 3428.500000
95.073000 7606.100000
95.085400 1236.500000
96.044400 2033.200000
96.080800 3413.400000
97.064500 1620.200000
98.060100 1509.800000
103.054100 1804.800000
105.057400 1551.400000
105.069700 1836.500000
106.065200 18778.200000
107.072900 2304.900000
108.080800 8607.300000
109.064600 1451.000000
110.060000 3954.000000
113.059700 3179.600000
117.057400 3109.400000
118.065200 32105.800000
119.073000 13336.200000
120.080800 115679.200000
121.088800 3821.000000
122.096500 6419.600000
124.075900 2639.300000
132.080400 1455.300000
134.060200 1759.500000
134.096500 1963.100000
136.075700 6729.300000
138.091500 3600.100000
148.076200 1395.800000
156.102000 1989.100000
162.091600 3416.000000

>ms2peaks
65.038500 1448.500000
67.041600 2062.600000
67.054200 4197.800000
68.049300 2496.300000
69.069900 2500.500000
77.038600 10752.800000
79.054300 9077.000000
80.049500 18668.900000
81.033300 1000.600000
81.057300 2048.900000
81.070000 1823.000000
82.065200 1928.800000
86.060000 1516.600000
91.054200 18829.800000
92.049500 5266.800000
93.057300 27747.200000
93.069800 4496.500000
94.065100 44103.600000
95.049200 2965.200000
95.073000 4308.500000
95.085700 1300.700000
96.080800 2736.200000
97.064700 1406.300000
103.054000 2538.600000
105.069700 1977.700000
106.065100 13835.200000
107.073000 1406.600000
108.080800 8333.700000
109.065100 1082.000000
110.060100 2214.100000
117.057300 3286.000000
118.065200 30907.000000
119.073000 10683.300000
120.080800 89700.500000
121.088500 3704.100000
122.096400 4762.300000
124.075800 2184.900000
134.096100 1387.400000
136.075700 4084.800000
138.091000 2150.500000
162.091800 2692.000000

>ms2peaks
65.038400 1400.300000
67.041500 1583.300000
67.054200 4573.600000
68.049400 1736.900000
77.038600 9947.400000
79.054300 8080.500000
80.049500 15530.000000
81.057200 1717.700000
82.065300 1767.000000
83.049200 1254.000000
86.060000 1502.300000
91.054300 17699.300000
92.049600 5775.600000
93.057400 21441.100000
93.069800 3142.800000
94.065200 35737.800000
95.049100 3437.900000
95.072900 2775.500000
96.044500 1206.900000
96.081200 1199.900000
103.054200 1882.600000
106.065200 14576.300000
107.073000 1910.600000
108.080900 7937.900000
110.060100 2843.000000
113.060200 1144.500000
117.057100 2800.700000
118.065200 24086.200000
119.073000 8270.700000
120.080900 72296.500000
122.096600 3306.400000
132.081000 1183.600000
134.059600 1381.900000
134.096100 1321.700000
136.076000 2695.200000
138.091500 1463.100000

>ms2peaks
65.038600 1380.800000
66.046200 2590.500000
67.041500 2120.600000
67.054200 4119.900000
77.038600 8133.700000
79.054200 5584.900000
80.049500 14355.800000
81.057500 1606.900000
81.069900 2359.800000
82.065400 1898.400000
91.054200 15442.400000
92.049500 6502.000000
93.057300 17589.000000
93.070100 2176.200000
94.065100 30811.700000
95.049500 1627.900000
95.073100 1948.000000
96.080500 1371.600000
103.054400 1324.100000
105.057000 1334.100000
106.065100 8675.600000
107.073100 1069.500000
108.080800 4171.600000
110.060100 2517.200000
117.057300 3327.800000
118.065100 22279.900000
119.072900 5047.400000
120.080800 56203.100000
122.096500 2383.400000
134.097100 1299.300000
136.075400 2438.300000

