>compound NA31609147
>parentmass 354.13360000000006
>ionization [M+H]+
>formula C20H19NO5
>rt 419.670000
>profile orbitrap
#smiles_iso CN1CC2=C(C=CC3=C2OCO3)[C@@H]4[C@H]1C5=CC6=C(C=C5C[C@@H]4O)OCO6
#smiles_can CN1CC2=C(C=CC3=C2OCO3)C4C1C5=CC6=C(C=C5CC4O)OCO6
#inchikey GHKISGDRQRSCII-ZOCIIQOWSA-N
#pubchem_id 197810
#mb_accession NA002275,NA002276,NA002277,NA002278,NA002279,NA002672,NA002673,NA002674,NA002675,NA002676,NA003054,NA003055,NA003056,NA003057,NA003058,NA003419,NA003420,NA003421,NA003422,NA003423

>ms2peaks
354.133700 392218.200000

>ms2peaks
275.070600 1280.700000
305.081100 7549.300000
323.092200 6649.300000
336.122700 2282.600000
354.133800 976735.700000

>ms2peaks
135.044400 1483.700000
163.039400 1205.800000
275.070700 12167.400000
295.096200 3439.900000
305.080800 52746.500000
323.091400 44554.400000
336.123300 8901.500000
354.133700 983115.800000

>ms2peaks
135.044000 7334.600000
161.060200 2633.200000
163.038700 5027.000000
176.070900 2207.500000
247.076200 2375.000000
275.070200 57819.100000
293.080800 1735.400000
295.096500 16222.500000
305.080700 149069.000000
307.096400 2117.400000
323.091300 124053.200000
336.123000 21736.400000
354.133600 825224.600000

>ms2peaks
135.044100 21365.000000
161.059800 7956.200000
163.039100 11916.800000
176.070900 5299.600000
247.075400 12429.400000
275.070400 175749.000000
293.081200 6315.600000
295.096600 30916.800000
305.080800 202612.500000
307.095800 1477.800000
323.091500 178102.500000
336.123000 39758.600000
354.133700 483094.300000

>ms2peaks
133.028500 1968.200000
135.044100 82634.400000
143.049100 4401.400000
149.023400 2849.600000
149.059900 3392.700000
151.039000 2396.000000
159.044100 4876.700000
161.059800 32460.400000
163.039000 54850.000000
173.059800 12530.500000
175.038800 2196.900000
176.070700 15050.500000
187.039100 3250.800000
188.070700 15028.800000
235.074300 1686.400000
237.091000 3610.800000
245.059500 3381.700000
247.075400 70195.100000
263.070100 2202.800000
265.086000 18765.800000
267.065100 2580.600000
275.070300 643197.400000
277.085100 1723.900000
293.080900 27525.900000
295.096600 89574.800000
305.080900 385449.400000
307.096600 7074.000000
323.091500 322074.500000
336.123100 97341.500000
354.133700 442362.400000

>ms2peaks
133.028200 2234.000000
135.044100 115969.200000
143.049300 5711.200000
149.023300 5167.200000
149.059800 5397.400000
151.039100 4186.400000
159.044100 7827.100000
161.059700 45934.000000
163.039000 85296.400000
173.059700 18944.100000
175.039100 4807.900000
176.070600 22523.800000
187.039000 4454.500000
188.070600 31831.700000
201.054700 2100.000000
207.080400 1324.200000
217.064900 3298.900000
235.075400 7412.200000
237.090900 15732.100000
245.059800 10866.900000
247.075300 160510.900000
249.091300 2252.500000
263.070700 4899.400000
265.085900 41242.600000
267.064500 2980.800000
275.070200 941391.000000
277.086100 2771.600000
279.065000 1798.900000
293.080900 43071.400000
295.096500 109159.700000
305.080700 288827.900000
307.095900 6151.900000
323.091400 243876.800000
336.123000 95020.500000
354.133700 187631.800000

>ms2peaks
131.048700 1721.700000
133.028600 1654.800000
135.044000 131265.100000
143.049100 9043.700000
149.023300 6734.300000
149.059800 7388.000000
151.039000 6227.600000
159.044100 13288.700000
161.059700 59371.900000
163.038900 107516.400000
173.059700 23970.800000
175.039100 6638.700000
176.070500 27086.400000
187.039000 8807.300000
188.070500 49827.700000
201.054300 2343.000000
207.080400 4470.000000
217.064500 12062.900000
219.080200 1739.000000
235.075100 16416.400000
237.090900 31068.500000
245.059800 24440.400000
247.075300 296164.900000
249.091100 5706.800000
263.070200 10348.500000
265.085900 67164.600000
267.064600 3780.800000
275.070200 1176039.000000
277.085400 3753.600000
293.080900 47006.300000
295.096500 94875.500000
305.080700 178802.900000
307.096300 5352.000000
323.091300 137090.300000
334.108300 2262.800000
336.122900 76032.800000
354.133500 63197.500000

>ms2peaks
131.049200 2582.900000
133.028600 2358.600000
135.044100 111434.700000
143.049200 9208.900000
146.060700 3204.100000
148.051900 1745.500000
149.023500 5157.300000
149.059800 7922.100000
151.039300 3171.200000
159.044200 13994.700000
161.059800 48943.900000
163.039100 104959.500000
173.059900 19522.500000
175.039000 5677.100000
175.062400 2157.100000
176.070800 25907.800000
187.039100 8291.000000
188.070700 59191.200000
189.069400 7097.200000
201.053700 1468.900000
207.080400 8337.200000
217.064900 33874.400000
219.080700 4896.800000
235.075500 25963.100000
237.091100 46806.000000
245.059900 28235.500000
247.075500 374335.600000
249.091100 6793.800000
263.070600 10643.000000
265.086100 72301.700000
267.065500 2590.600000
275.070400 982889.400000
277.086300 3923.800000
278.057600 1474.800000
279.065000 1547.500000
293.080900 35509.200000
295.096700 64127.100000
305.081000 74810.000000
307.096300 3809.500000
323.091600 48593.100000
336.123100 39797.500000
354.133800 13898.700000

>ms2peaks
131.049100 5936.500000
133.028500 1154.500000
135.044100 95839.700000
143.049200 9721.900000
146.060100 4693.800000
148.051900 1787.200000
149.023500 4142.400000
149.059700 8278.200000
151.039500 2494.300000
159.044200 14990.400000
161.059800 45602.400000
163.039000 105638.800000
173.059800 17963.900000
175.039200 5124.800000
175.062900 4098.000000
176.070700 24908.000000
187.039100 7623.800000
188.070700 67340.300000
189.069700 19224.500000
201.054900 2158.700000
207.080600 15923.100000
217.064900 71944.600000
219.080500 10486.300000
235.075400 36523.300000
237.091100 57023.600000
245.059900 33682.200000
247.075500 469526.100000
249.091300 5885.500000
263.070500 12422.600000
265.086000 72484.100000
267.065700 2338.500000
275.070400 856645.600000
277.086100 4191.400000
278.057900 1718.800000
279.063900 1431.000000
293.081000 25345.900000
295.096600 40403.500000
305.081000 27128.500000
307.095600 1491.300000
323.091600 19961.400000
334.107300 2193.900000
336.123200 20306.700000
354.134100 3047.000000

>ms2peaks
79.054400 1433.300000
103.054100 1826.300000
115.054800 1516.500000
118.065100 1433.300000
131.049300 8882.600000
135.044100 92196.900000
143.049300 9401.900000
146.060300 7145.000000
148.051900 3906.100000
149.023300 3727.200000
149.059800 8644.400000
159.044200 15860.300000
161.059800 38270.600000
163.039100 95181.600000
173.059900 10444.500000
175.039300 4775.800000
175.062800 2972.800000
176.070800 21153.100000
179.085900 8552.100000
187.038900 5676.800000
188.070700 63194.800000
189.070000 52968.000000
191.085700 5874.500000
205.064500 3983.500000
207.080500 28660.300000
209.059200 2234.000000
217.064900 124664.400000
219.080600 14949.500000
222.068400 2944.400000
223.075100 1427.200000
233.060400 2188.700000
235.075400 43816.800000
237.091100 57004.700000
245.059900 37676.900000
246.068700 2148.400000
247.075500 513199.200000
249.091100 5944.200000
263.070400 13088.100000
265.086100 60175.500000
275.070400 704207.100000
277.085800 3696.700000
278.057400 1590.300000
279.064700 1666.800000
280.072900 1298.900000
293.081100 16766.300000
295.096700 17911.600000
305.081000 10333.300000
334.108600 2034.600000
336.123200 7385.300000

>ms2peaks
79.054300 2868.200000
103.054300 2035.600000
115.054200 2531.200000
118.065100 3962.000000
131.049200 14296.300000
133.028600 1859.500000
135.044100 76627.500000
143.049200 8454.900000
146.060100 7060.500000
147.044100 1232.900000
148.052100 3872.300000
149.023400 2930.800000
149.059700 7313.500000
159.044100 15076.600000
160.075500 1695.900000
161.059900 29189.000000
163.039100 86067.000000
173.059900 8434.800000
175.039000 3715.400000
175.063100 4087.800000
176.070700 16193.500000
179.085700 15116.900000
187.039300 5327.500000
188.070700 61328.100000
189.070000 120655.100000
191.085700 9786.400000
205.064800 9078.200000
207.080500 34465.900000
209.059700 2786.400000
217.064900 193060.900000
219.080600 20925.900000
222.067800 3874.000000
233.059300 3305.400000
235.075400 47956.100000
237.091100 58738.800000
245.060000 34988.600000
246.068700 4856.400000
247.075500 532814.200000
249.091000 5402.200000
250.061700 2824.300000
263.070600 9427.800000
265.086100 47364.200000
275.070400 521520.700000
277.086200 3446.200000
278.057300 3297.800000
293.080700 9369.700000
295.097000 9165.800000
305.080900 5486.500000
334.106100 1855.000000
336.124000 4456.200000

>ms2peaks
79.054200 4716.000000
103.054200 4250.200000
115.054200 2383.100000
118.065200 5985.800000
131.049200 15809.500000
133.028200 1721.900000
135.044200 66937.100000
143.049300 6380.400000
146.060100 7973.900000
147.043800 2232.700000
148.052000 4142.900000
149.023100 2464.900000
149.059700 6830.500000
158.060100 1307.400000
159.044300 15424.200000
160.075400 3238.600000
161.059900 21103.800000
163.039100 65741.000000
173.059900 5071.000000
175.039400 3686.900000
175.062700 4332.000000
176.070700 10518.200000
177.070000 2353.400000
179.085700 26208.000000
186.055200 1186.800000
187.039100 3012.500000
188.070800 57774.300000
189.070000 208951.800000
190.077800 3169.600000
191.085500 18290.300000
201.069300 1462.300000
205.064900 11217.100000
206.072800 1029.500000
207.080600 42234.600000
209.059900 3447.600000
217.064900 233880.600000
218.073500 3615.900000
219.080500 25989.800000
222.067900 5164.900000
223.076100 1548.800000
233.059800 2981.300000
235.075400 46243.600000
237.091100 51977.700000
245.060000 27548.000000
246.068000 10577.700000
247.075500 479672.900000
249.091200 3021.600000
250.062100 2197.800000
263.070400 7843.700000
265.086100 34017.500000
275.070500 358926.600000
277.086300 2440.000000
278.058600 1501.000000
279.065900 1257.200000
280.073600 1810.000000
293.080700 4740.100000
295.097200 3884.200000
336.122900 1299.700000

>ms2peaks
77.038700 1557.500000
79.054400 6422.700000
91.054100 1401.100000
103.054400 5214.400000
105.033700 1646.100000
115.054500 3423.700000
118.065300 7020.700000
131.049300 14249.900000
135.044200 59362.700000
143.049500 4800.200000
146.060100 7009.200000
147.044300 2021.800000
148.051800 4012.100000
149.023600 1854.500000
149.059700 5719.200000
158.060200 2320.400000
159.044200 12056.500000
160.075800 4622.500000
161.059900 14006.500000
163.039200 52400.000000
173.060100 3145.900000
175.039800 2265.800000
175.062800 2977.300000
176.070900 8444.900000
177.070200 3921.700000
178.077900 4888.900000
179.085700 36680.200000
186.055000 1330.600000
187.038200 2865.900000
188.070800 44366.100000
189.070100 294832.400000
190.077900 6290.000000
191.085700 21825.100000
201.070600 1994.100000
205.064900 15443.700000
207.080600 39800.900000
209.060200 3513.400000
217.065000 229411.500000
218.072900 5578.800000
219.080600 26741.600000
222.067800 5847.800000
223.074600 2267.600000
233.059600 3137.800000
235.075500 42572.300000
237.091200 39786.300000
245.060000 21103.500000
246.067700 15324.100000
247.075600 365970.400000
249.091300 1394.800000
250.063200 2880.600000
263.070500 4450.000000
265.086100 19771.500000
274.061600 1409.300000
275.070500 211534.500000
278.056800 1309.000000
293.081500 2937.400000

>ms2peaks
77.038700 2038.400000
79.054200 7199.100000
91.054200 1685.300000
103.054300 8319.100000
105.033600 2406.700000
115.054300 3883.800000
118.065200 7466.500000
131.049200 14722.900000
133.028500 1105.200000
135.044200 42889.000000
143.048900 3518.800000
146.060100 6292.400000
147.043900 2451.800000
148.052200 3977.200000
149.059600 4210.500000
158.060100 2830.100000
159.044100 9607.000000
160.075900 4951.900000
161.059900 10012.200000
163.039100 36935.000000
173.059600 2111.800000
175.039200 2280.900000
175.063000 2227.200000
176.070900 3934.200000
177.070000 5943.200000
178.077700 7071.200000
179.085700 34892.100000
186.055100 1452.700000
187.039300 1355.200000
188.070800 33109.100000
189.070000 362329.700000
190.077800 12031.900000
191.085600 24234.100000
201.069900 2186.700000
205.064900 16324.400000
206.072300 1970.500000
207.080600 32315.500000
209.060100 2551.100000
217.064900 206989.400000
218.072700 6424.600000
219.080500 22904.800000
222.067700 5493.400000
233.059800 3103.700000
235.075300 29148.700000
237.091000 24056.200000
245.059900 12983.700000
246.067500 19235.700000
247.075500 248305.500000
250.062900 1559.600000
263.070800 2299.000000
265.086000 8710.000000
274.063000 1077.100000
275.070400 110338.600000

>ms2peaks
77.038700 7229.100000
79.054200 15428.700000
91.054300 1886.500000
103.054200 20121.800000
105.033600 5425.600000
107.049200 2787.400000
115.054200 7840.900000
118.065100 16699.400000
130.065100 4271.700000
131.049200 21125.300000
135.044100 64737.400000
143.049200 4138.000000
146.060000 9362.100000
147.044000 4692.400000
148.051800 5780.600000
149.059600 6815.300000
152.061800 1735.900000
158.060200 5803.400000
159.044100 14396.200000
160.075700 11255.800000
161.059600 10292.400000
162.054700 2908.800000
163.039000 50090.000000
165.070000 6775.200000
166.077700 1470.700000
172.051900 1581.500000
173.059300 2421.300000
175.039300 2680.400000
175.062700 4396.700000
176.062100 2872.800000
176.070800 5829.500000
177.069800 15507.000000
178.077700 22014.700000
179.085500 66776.700000
186.055000 3635.700000
188.070600 41666.100000
189.069800 736350.000000
191.085400 42148.500000
192.057200 2263.500000
193.064300 1199.400000
194.072200 1724.100000
201.070000 5359.700000
202.078500 3915.000000
205.064700 32509.400000
206.073000 4187.900000
207.080400 55315.700000
209.059900 5305.100000
216.057800 1118.800000
217.064700 317805.500000
219.080300 36119.700000
220.052100 1274.000000
221.059600 2455.100000
222.067200 12004.100000
233.059900 3754.300000
234.067800 1663.900000
235.075100 34657.000000
237.090800 31491.400000
245.059700 16778.900000
246.067400 39908.100000
247.075200 301453.600000
263.070500 3902.700000
265.085900 7879.100000
275.070100 107338.000000

>ms2peaks
77.038700 9659.900000
79.054300 17102.300000
91.054300 5665.400000
103.054300 22438.300000
105.033600 6111.400000
107.048900 1320.400000
115.054300 8646.600000
117.057100 1268.500000
118.065200 16122.300000
119.049400 1414.000000
130.065200 6151.000000
131.049300 22454.500000
132.081100 1592.600000
135.044200 54175.400000
143.049200 3808.800000
146.060100 7999.300000
147.044300 4051.900000
148.052000 4422.600000
149.060000 4983.900000
158.060100 5973.600000
159.044300 9844.300000
160.075800 12495.200000
161.059800 5904.700000
162.055000 1297.000000
163.039200 32924.200000
165.070000 9273.500000
166.077100 2084.600000
175.039500 1704.500000
175.063400 3539.400000
176.062100 4448.400000
176.070900 3108.100000
177.070000 19260.200000
178.077800 29876.600000
179.085700 68273.000000
186.055100 3732.300000
188.070700 30982.900000
189.070000 818752.800000
191.085500 38224.900000
192.057200 3039.100000
193.064500 1584.700000
194.072800 1643.500000
201.069900 6221.900000
202.078400 3844.700000
204.057000 1302.800000
205.064800 30422.100000
206.073100 2663.700000
207.080600 44479.200000
209.059500 4201.500000
217.064900 246366.300000
219.080500 29138.100000
220.051700 1865.400000
221.060100 2339.700000
222.067500 11210.600000
233.059700 3059.800000
234.067500 2446.100000
235.075400 24546.600000
237.091000 18926.200000
245.059900 9742.200000
246.067600 47130.300000
247.075500 187024.300000
263.069500 3100.300000
265.086500 4787.700000
275.070400 53508.300000

>ms2peaks
77.038700 11647.800000
79.054300 15741.000000
91.054500 5157.000000
103.054400 23687.400000
105.033600 7055.600000
107.049200 2213.100000
115.054300 7311.900000
117.033600 1434.000000
118.065300 17585.000000
119.049100 1731.900000
130.065300 8687.500000
131.049300 16845.700000
135.044200 41862.400000
143.049400 3515.100000
146.060500 4549.000000
147.044200 4789.300000
148.052000 3164.900000
149.060000 3183.900000
151.054000 1152.200000
152.062100 2563.100000
153.070300 2517.900000
158.060200 7816.800000
159.044300 7463.700000
160.076000 12653.700000
161.059900 3332.500000
163.039200 21511.800000
164.061500 1758.100000
165.070100 10729.300000
166.077600 2479.800000
172.052200 1793.200000
175.039100 1305.500000
175.063000 2770.300000
176.062200 5289.000000
176.070900 2023.800000
177.070100 23660.100000
178.077900 48959.900000
179.085800 65549.900000
181.065100 1323.800000
186.055300 2938.600000
188.062400 8425.900000
188.070900 22128.300000
189.070100 865420.700000
190.078100 36947.100000
191.085700 32229.000000
192.056800 3883.000000
193.064700 1087.600000
194.072200 1429.000000
201.070300 5604.500000
202.077800 3974.700000
204.057400 1974.000000
205.064900 25630.700000
206.073000 5369.700000
207.080600 32645.300000
209.059800 4482.200000
216.057300 1681.600000
217.065000 178923.400000
218.073300 15638.100000
219.080700 19372.600000
220.051200 1499.300000
221.060100 3391.700000
222.067500 10482.200000
233.060200 1634.200000
234.067400 2789.200000
235.075400 15214.600000
237.091500 11245.600000
245.060100 6745.300000
246.067700 43704.500000
247.075600 106200.800000
275.070500 25645.900000

>ms2peaks
65.038700 1122.300000
77.038600 15230.700000
79.054300 15143.500000
89.038500 1441.400000
91.054200 5655.300000
103.054200 25125.500000
105.033600 7066.800000
115.054200 6776.400000
117.033400 1045.900000
117.057200 1910.300000
118.065100 15673.900000
119.049000 1628.800000
130.065100 10694.600000
131.049200 12000.100000
135.044100 32621.800000
143.049500 1489.200000
146.060200 3950.200000
147.044100 4420.600000
148.052300 1414.500000
149.059700 2964.700000
152.061700 2770.600000
153.070300 2510.300000
158.060200 6574.000000
159.044100 6409.700000
160.075700 9627.400000
161.059500 1781.000000
162.054700 1570.200000
163.039000 12456.800000
163.054300 4637.000000
164.062200 2414.200000
165.069800 10788.800000
166.077700 3054.900000
173.059400 1063.900000
175.062800 1809.300000
176.062300 7225.300000
177.069900 24295.700000
178.077700 52804.800000
179.085600 53763.400000
181.064900 2213.400000
186.054700 2762.800000
188.062100 14023.300000
188.070800 12721.200000
189.069900 868813.700000
190.077800 38095.600000
191.085500 27613.100000
192.056600 4811.600000
193.064100 1427.900000
201.070100 5533.200000
202.077600 3256.500000
204.057500 1214.300000
205.064700 21287.700000
206.072300 4035.000000
207.080400 25767.100000
209.059100 2562.700000
216.056700 2036.500000
217.064700 124859.600000
218.072700 20511.300000
219.080400 12591.700000
220.052100 1075.700000
221.059500 2764.300000
222.067400 7460.100000
233.059200 1371.400000
234.068500 2102.200000
235.075200 9984.500000
237.090800 7108.100000
245.059900 5813.700000
246.067400 42997.800000
247.075300 56502.300000
275.070000 10881.400000

>ms2peaks
65.038500 1692.100000
77.038600 9313.000000
79.054300 12818.200000
89.038600 1593.700000
91.054200 5611.500000
103.054200 23825.100000
105.033400 6850.500000
107.049200 1134.500000
115.054300 7417.500000
117.033500 1235.300000
117.057300 2066.000000
118.065100 15575.500000
119.049200 1563.300000
130.065100 10411.300000
131.049200 8552.100000
132.080700 1783.700000
135.044100 21116.900000
146.060000 2075.500000
147.043700 2695.500000
148.051700 1160.100000
149.059900 1682.500000
151.054200 2468.400000
152.062000 4628.300000
153.069800 2780.300000
158.060200 7300.600000
159.043500 3843.800000
160.075700 6680.100000
162.055300 1224.800000
163.039000 7780.400000
163.054000 6315.600000
164.062000 4191.500000
165.070000 12007.000000
166.078000 1891.500000
172.051400 1071.000000
176.062000 11926.200000
177.069900 21132.000000
178.077700 60429.600000
179.085600 37618.800000
181.064500 1523.800000
186.055200 2226.600000
188.062100 24896.400000
188.070600 8134.600000
189.069900 762560.700000
190.077700 37910.500000
191.085400 17891.800000
192.057200 2521.100000
193.064600 1431.600000
194.073200 1714.000000
201.070200 4368.200000
202.077700 3816.600000
204.057600 1412.200000
205.064700 17246.200000
206.072400 2604.900000
207.080400 13986.700000
209.059400 2017.100000
216.056800 1775.400000
217.064700 72841.400000
218.072500 17557.700000
219.080600 8212.500000
221.059100 1555.100000
222.067800 5702.100000
233.060400 1875.600000
234.068200 1207.700000
235.074900 6364.700000
237.090500 2501.800000
245.060200 2432.500000
246.067400 33369.000000
247.075200 28356.200000
275.070500 2872.900000

