>compound NA31075311
>parentmass 319.154
>ionization [M+H]+
>formula C18H22O5
>rt 702.005000
>profile orbitrap
#smiles_iso C[C@H]1CCCC(=O)CCC/C=C/C2=C(C(=CC(=C2)O)O)C(=O)O1
#smiles_can CC1CCCC(=O)CCCC=CC2=C(C(=CC(=C2)O)O)C(=O)O1
#inchikey MBMQEIFVQACCCH-QBODLPLBSA-N
#pubchem_id 5281576
#mb_accession NA002250,NA002251,NA002252,NA002253,NA002254,NA002648,NA002649,NA002650,NA002651,NA003031,NA003032,NA003033

>ms2peaks
319.153700 12455.400000

>ms2peaks
283.133000 2225.400000
301.143300 5703.500000
319.154100 41526.100000

>ms2peaks
231.065000 1300.200000
283.133100 4169.900000
301.144000 10272.200000
319.154000 23468.100000

>ms2peaks
187.074800 1518.900000
231.065100 3585.300000
283.132900 5664.000000
301.143600 9057.500000
319.153800 9268.900000

>ms2peaks
187.075700 2256.500000
231.065400 3321.500000
283.132500 3665.300000
301.143300 3404.200000

>ms2peaks
69.069700 2885.400000
97.064800 3677.400000
185.060000 3054.900000
187.075400 7652.100000
189.054600 2926.700000
203.070100 4788.600000
205.085800 2639.900000
231.065200 5487.500000
283.133000 7767.600000
301.143400 4162.600000

>ms2peaks
69.069800 3184.700000
97.064800 1984.400000
185.059900 3413.200000
187.075300 6864.400000
189.055000 2638.100000
203.070400 4751.800000
205.085300 2175.200000
231.065300 3888.300000
283.133300 2760.800000
301.142800 1506.800000

>ms2peaks
69.069800 1884.400000
185.060000 2756.100000
187.076000 4496.500000
189.054500 1376.600000
203.070300 4375.400000
205.086400 1410.300000
231.064900 2360.800000

>ms2peaks
185.059300 1839.600000
187.075900 1771.700000
203.070100 2612.400000
205.086200 1105.300000

>ms2peaks
69.069800 3698.500000
157.064900 2664.500000
161.060000 2109.100000
175.075600 3057.300000
185.059800 7823.900000
187.075300 5230.800000
189.055500 2540.200000
203.070200 7475.000000

>ms2peaks
69.069800 2214.500000
157.065000 2264.100000
161.060000 1088.100000
175.075100 1859.200000
185.059900 4031.200000
187.075000 2340.000000
189.054600 2146.600000
203.070200 3599.300000

>ms2peaks
69.070000 1109.100000
157.065200 1385.600000
185.059500 2587.200000

