>compound NA31273251
>parentmass 398.21730000000014
>ionization [M+H]+
>formula C20H31NO7
>rt 388.980000
>profile orbitrap
#smiles_iso C/C=C(/C)\C(=O)O[C@@H]1CCN2[C@@H]1C(=CC2)COC(=O)[C@@]([C@H](C)O)(C(C)(C)O)O
#smiles_can CC=C(C)C(=O)OC1CCN2C1C(=CC2)COC(=O)C(C(C)O)(C(C)(C)O)O
#inchikey HRSGCYGUWHGOPY-LYHHMGRNSA-N
#pubchem_id 5281729
#mb_accession NA002464,NA002465,NA002466,NA002467,NA002468,NA002859,NA002860,NA002861,NA002862,NA002863,NA003239,NA003240,NA003241,NA003242,NA003243,NA003604,NA003605,NA003606,NA003607,NA003608

>ms2peaks
398.217300 222827.900000

>ms2peaks
83.049000 1618.100000
120.080700 29913.200000
220.133200 32846.200000
336.179500 2765.200000
380.208300 1009.300000
398.217300 508659.700000

>ms2peaks
83.049100 8186.400000
120.080800 140697.500000
138.091800 1449.900000
220.133400 128007.100000
336.180500 7918.600000
380.206500 2913.200000
398.217700 468195.600000

>ms2peaks
83.049100 28253.300000
120.080800 360969.200000
138.091600 5973.200000
220.133400 209499.200000
238.143800 4856.700000
254.138100 1777.400000
336.180700 15686.800000
380.206900 5266.700000
398.217800 276706.500000

>ms2peaks
83.049100 57424.500000
120.080800 521738.400000
138.091400 11900.300000
220.133400 189017.300000
238.143900 10516.800000
254.138500 2510.200000
336.181000 20428.200000
380.207100 4451.300000
398.217800 125274.000000

>ms2peaks
55.054000 62727.200000
83.049100 112921.600000
94.065000 2464.300000
108.080600 2316.600000
120.080700 1023101.600000
121.088300 1660.700000
136.075300 1679.400000
138.091200 18401.200000
174.127600 8628.100000
202.122500 7785.800000
220.133100 200653.000000
221.141500 3544.800000
222.148900 1734.600000
238.143600 27044.600000
254.138500 3826.100000
298.165400 2180.800000
316.175300 3094.400000
336.180400 20002.500000
340.176000 4065.400000
380.206200 7171.500000
398.217200 69125.400000

>ms2peaks
55.054000 65913.000000
83.049100 152949.100000
94.065200 4606.500000
108.080500 2899.600000
120.080700 969742.500000
121.088300 3888.400000
138.091300 19675.700000
156.101200 1320.200000
174.127800 9938.600000
202.122500 4989.600000
220.133100 85553.500000
221.141000 9001.300000
222.148400 2927.900000
238.143700 33125.500000
254.138500 4837.800000
298.163900 1162.400000
316.176600 1869.900000
336.180400 10428.500000
340.175600 3130.000000
380.207700 1913.300000
398.217000 13536.400000

>ms2peaks
53.038500 1093.200000
55.054100 60867.000000
79.054300 1192.600000
83.049200 173508.500000
93.070200 974.100000
94.065100 4575.400000
108.080700 3648.400000
120.080800 866558.900000
121.088500 7693.700000
122.096200 1125.300000
136.075500 1748.900000
138.091400 20880.900000
156.101800 2466.300000
174.127800 10217.300000
202.122700 3610.800000
220.133200 30331.700000
221.141100 9675.700000
222.149100 2431.800000
238.143800 41429.700000
254.139000 4285.400000
316.176600 1746.800000
336.180600 3590.500000
340.176100 1589.800000
398.218700 2770.500000

>ms2peaks
53.038400 1320.500000
55.054100 52330.100000
80.049800 1361.800000
83.049200 154189.200000
91.054400 1033.300000
93.069700 2219.500000
94.065100 7566.500000
103.054300 1708.700000
108.080700 6104.800000
120.080800 770871.900000
121.088600 12931.600000
122.096500 3042.500000
136.075600 2009.000000
138.091300 22365.000000
156.101900 2534.900000
174.127900 9378.500000
220.133300 9910.800000
221.141100 8464.000000
222.149300 1232.500000
238.143800 44167.500000
254.138900 2598.300000

>ms2peaks
55.054100 43555.500000
79.054300 2470.100000
80.049500 1956.500000
83.049100 151243.400000
91.054200 3061.400000
93.069900 5804.000000
94.065100 7854.300000
103.054200 3480.000000
108.080800 5448.400000
120.080800 657708.200000
121.088500 14855.400000
122.096000 2481.800000
138.091300 24170.000000
156.101800 2650.100000
174.127900 8260.600000
220.133400 4829.900000
221.141200 4897.300000
222.148700 1604.100000
238.143700 39010.400000

>ms2peaks
55.054100 59592.800000
68.049200 1066.500000
79.054200 4407.000000
80.049500 5977.500000
83.049200 150339.800000
91.054200 4408.100000
92.049400 2853.600000
93.069900 14068.100000
94.065100 10730.800000
94.077900 1169.400000
95.072900 4149.700000
96.080500 1502.100000
103.054200 8847.900000
105.057300 4354.100000
106.065200 1986.500000
108.080800 8644.300000
118.065200 6065.600000
119.073300 2476.100000
120.080800 829745.700000
121.088600 22746.000000
122.096300 6367.400000
136.075800 1426.100000
138.091300 35836.300000
156.102300 2902.200000
168.102100 2102.200000
174.127700 7519.000000
221.141000 3502.500000
238.143900 44813.700000

>ms2peaks
55.054100 38708.200000
67.054200 1294.200000
68.049400 2140.200000
77.038600 2164.800000
79.054300 5932.000000
80.049500 9469.200000
82.065300 2171.500000
83.049200 135717.000000
91.054300 6569.800000
92.049700 3032.400000
93.069900 16523.500000
94.065200 13209.900000
95.073000 4722.100000
96.080800 2730.000000
103.054200 8575.400000
105.057300 4918.100000
106.065100 3179.300000
108.080800 7964.100000
110.096200 1724.400000
118.065300 9748.400000
119.073400 1551.800000
120.080800 675157.100000
121.088600 20020.300000
122.096500 5219.500000
136.075500 2216.000000
138.091400 37660.800000
156.101900 4401.200000
168.101900 2028.900000
174.127600 5230.300000
221.141400 2620.400000
238.143700 32578.500000

>ms2peaks
55.054100 27913.600000
67.041500 1137.600000
67.054000 1078.000000
68.049600 1416.500000
77.038500 2589.300000
79.054200 8069.100000
80.049500 9690.400000
83.049200 112782.000000
91.054200 9092.600000
92.049400 4030.600000
93.069900 18781.600000
94.065200 12370.600000
94.077800 1423.700000
95.073000 4130.100000
96.080800 3399.000000
103.054200 11617.700000
105.057300 7127.600000
106.065200 3065.200000
108.080900 9575.600000
110.059900 2942.800000
110.096500 1488.800000
118.065200 12006.300000
119.073000 2930.800000
120.080800 548188.200000
121.088600 14536.800000
122.096600 3385.500000
138.091400 37665.200000
156.102000 4900.400000
168.102300 1713.100000
174.127700 3029.400000
238.143800 18892.700000

>ms2peaks
55.054100 22522.300000
67.041600 2129.200000
67.054200 1966.700000
68.049300 2243.200000
77.038600 5778.000000
79.054200 7794.300000
80.049500 13368.900000
82.065200 1802.900000
83.049100 99991.800000
91.054300 10899.100000
92.049400 7180.100000
93.069900 22925.100000
94.065100 12895.700000
95.073000 4760.200000
96.080800 5710.800000
103.054200 12931.700000
105.057300 9307.100000
106.065300 3140.700000
108.080800 10084.100000
110.060400 3433.400000
110.096800 1713.200000
118.065200 11150.300000
119.073000 3350.900000
120.080800 454030.100000
121.088600 12143.600000
122.096300 3534.800000
138.091300 31952.900000
156.102200 4875.700000
168.101200 1494.000000
174.128000 1940.000000
238.143700 10384.100000

>ms2peaks
55.054100 15187.200000
67.041500 1075.000000
67.054200 2264.800000
68.049300 3280.900000
77.038500 5599.100000
79.054200 7707.600000
80.049400 15091.400000
82.065100 2794.000000
83.049100 76997.900000
91.054200 13436.500000
92.049500 7979.700000
93.069800 21224.000000
94.065000 12900.000000
95.072700 3805.300000
96.080800 6751.800000
103.054100 12792.900000
105.057200 10283.000000
106.064900 3030.900000
108.080700 8714.000000
110.060200 3453.200000
110.096400 2193.200000
118.065100 15640.200000
119.072800 3718.100000
120.080700 355810.300000
121.088500 6560.000000
122.096300 3697.400000
138.091200 25678.600000
156.101800 2885.200000
168.101900 1104.700000
238.143400 6293.100000

>ms2peaks
55.054100 27221.900000
65.038600 3516.000000
67.041600 2453.400000
67.054200 6102.500000
68.049400 4889.000000
77.038600 15225.900000
79.054200 18120.100000
80.049500 35931.200000
81.057300 1462.600000
81.069900 1706.000000
82.065200 5947.200000
83.049100 56408.900000
91.054200 31425.100000
92.049500 19822.700000
93.057300 5428.700000
93.069900 42965.200000
94.065100 29356.100000
94.077900 2022.300000
95.049200 3040.100000
95.073000 4715.700000
96.080800 14061.600000
103.054200 29388.000000
104.049800 1275.400000
105.057300 29361.300000
106.065100 5653.500000
108.080800 17086.000000
110.060000 9812.900000
110.096500 3356.600000
118.065100 30134.800000
119.073100 8177.600000
120.080800 544526.100000
121.088600 7388.300000
122.096400 5742.100000
138.091300 35080.100000
156.102000 3725.600000
158.096500 1438.400000
238.143900 5721.500000

>ms2peaks
55.054100 21339.100000
59.049100 919.000000
65.038500 3546.200000
67.041600 2339.700000
67.054100 6810.400000
68.049400 4420.000000
77.038600 15211.700000
79.054200 15285.600000
80.049500 35798.900000
81.057300 1586.600000
81.069800 1995.200000
82.065100 6267.200000
83.049100 53655.500000
91.054200 33053.200000
92.049400 21359.800000
93.057300 5579.500000
93.069800 37561.400000
94.065100 32841.700000
94.077900 2027.000000
95.049000 2631.900000
95.072900 5196.100000
96.080700 14204.500000
103.054200 27062.100000
104.049700 1230.900000
105.057200 26445.300000
106.065100 3680.200000
107.073200 922.800000
108.080700 16796.900000
110.060000 10997.900000
110.096500 4230.900000
112.075200 1678.000000
118.065100 26699.000000
119.072800 9005.700000
120.080700 411760.300000
121.088500 5950.000000
122.096200 4370.200000
138.091300 26286.600000
156.102200 3541.800000
238.144000 2509.000000

>ms2peaks
55.054100 15595.200000
59.049100 1370.000000
65.038500 4264.200000
67.041600 3071.700000
67.054100 8151.100000
68.049400 5149.500000
77.038500 13098.900000
79.054200 11873.600000
80.049500 31214.400000
81.057100 1857.100000
81.069800 1383.400000
82.065100 4946.700000
83.049100 43578.500000
91.054200 29297.800000
92.049500 19445.200000
93.057300 5245.000000
93.069800 32616.100000
94.065100 28703.700000
95.049100 3070.500000
95.073000 4053.400000
96.080700 12145.700000
103.054200 22895.900000
104.049400 1212.000000
105.057300 25851.500000
106.065100 3813.400000
108.080800 10637.400000
110.060000 6900.300000
110.096600 3087.700000
117.057500 2043.400000
118.065100 26308.800000
119.072900 7588.900000
120.080700 295673.900000
121.088500 3156.100000
122.096400 2211.100000
138.091300 15086.700000
156.102000 3261.800000
158.096500 1128.300000

>ms2peaks
55.054100 14140.400000
65.038600 5442.300000
67.041600 2487.200000
67.054200 9318.300000
68.049400 4679.100000
77.038600 15051.000000
79.054300 12290.400000
80.049500 32119.100000
81.057300 2081.700000
81.069800 1178.800000
82.065200 7000.600000
83.049100 40301.700000
91.054300 30860.600000
92.049500 20841.400000
93.057300 7410.200000
93.069900 25153.200000
94.065100 29121.000000
95.049000 2813.000000
95.073100 3080.600000
96.080700 9290.800000
103.054200 18497.200000
104.049600 3112.200000
105.057300 24616.700000
106.065300 3546.200000
107.073300 1113.100000
108.080800 10185.400000
110.060000 8130.800000
110.096200 2192.200000
112.075500 1187.400000
117.057300 2679.500000
118.065200 25796.300000
119.073000 6925.000000
120.080800 217019.100000
121.088500 2709.500000
122.096700 2539.800000
138.091400 9696.700000
156.101900 2363.000000

>ms2peaks
55.054100 9769.200000
65.038500 5348.600000
67.041800 1629.900000
67.054200 7680.300000
68.049400 3846.700000
77.038600 15564.900000
79.054200 10105.200000
80.049500 31928.500000
81.057300 2242.500000
82.065100 6362.300000
83.049100 29885.000000
91.054200 27503.900000
92.049500 15787.800000
93.057200 4137.500000
93.069900 18741.300000
94.065100 27179.000000
95.049100 3293.600000
95.072900 1973.900000
96.080700 8538.000000
103.054200 15829.800000
104.049700 3052.500000
105.057300 23135.800000
106.065100 3538.700000
108.080800 6908.300000
110.060000 8597.700000
117.057300 2406.700000
118.065100 22981.800000
119.073000 5662.200000
120.080800 157583.500000
121.088800 1383.100000
122.096900 1705.800000
138.091300 6852.600000
156.101600 1952.200000

