>compound NA33973688
>parentmass 335.1754
>ionization [M+H]+
>formula C21H22N2O2
>rt 189.990000
>profile orbitrap
#smiles_iso C1CN2CC3=CCO[C@H]4CC(=O)N5[C@H]6[C@H]4[C@H]3C[C@H]2[C@@]61C7=CC=CC=C75
#smiles_can C1CN2CC3=CCOC4CC(=O)N5C6C4C3CC2C61C7=CC=CC=C75
#inchikey QMGVPVSNSZLJIA-FVWCLLPLSA-N
#pubchem_id 441071
#mb_accession NA002531,NA002532,NA002533,NA002534,NA002535,NA002924,NA002925,NA002926,NA002927,NA002928,NA003299,NA003300,NA003301,NA003302,NA003303,NA003669,NA003670,NA003671,NA003672,NA003673

>ms2peaks
335.175400 94465.200000

>ms2peaks
335.175500 368045.400000

>ms2peaks
335.175300 394679.000000

>ms2peaks
335.175500 418559.400000

>ms2peaks
335.175600 447683.200000

>ms2peaks
335.175200 517542.400000

>ms2peaks
222.091000 1329.200000
264.101700 1551.800000
335.175400 536863.400000

>ms2peaks
184.075900 4655.800000
222.090900 2559.800000
264.101900 4821.900000
290.117800 1087.000000
307.144200 2998.700000
335.175300 533137.800000

>ms2peaks
144.080700 1389.100000
184.075500 12830.300000
198.091800 1063.300000
220.075900 2076.200000
222.090700 5021.900000
262.122200 2543.000000
264.102000 11017.700000
266.118800 919.200000
272.107900 1882.100000
290.117900 1904.200000
307.143700 5857.700000
335.175300 478422.100000

>ms2peaks
144.080900 2807.600000
184.075700 34569.100000
198.091100 2342.000000
220.075800 2712.100000
222.091300 10278.500000
262.123100 5075.000000
264.101800 18933.300000
266.116200 2875.700000
272.108100 2144.300000
290.117200 2833.400000
307.144000 8358.900000
335.175400 408283.200000

>ms2peaks
81.069700 1308.700000
108.081000 4248.500000
118.065500 1104.900000
121.064800 2043.200000
122.060500 1426.600000
124.075600 3292.700000
144.080700 5939.000000
156.080900 5163.600000
169.076400 1237.200000
171.092100 2274.700000
182.096100 1191.900000
184.075800 62101.000000
194.096800 2792.400000
196.075900 2846.000000
198.091300 5635.200000
210.091400 2723.600000
220.076000 6817.300000
222.091300 17368.200000
224.106600 1119.900000
234.091600 4689.200000
234.126900 1589.900000
246.091800 2805.600000
248.106700 3686.500000
262.122800 7687.700000
264.102200 23497.600000
264.138100 1367.500000
266.117300 4314.400000
272.107300 4051.300000
274.122600 3774.800000
290.117700 4573.300000
292.132700 1809.300000
306.148500 3152.800000
307.144500 8919.200000
335.175600 346893.600000

>ms2peaks
79.054200 1458.800000
81.069900 1616.700000
93.069700 3082.300000
94.064700 1213.200000
95.049000 991.900000
106.065200 1867.400000
108.080700 6907.800000
121.065000 1662.400000
122.060000 3044.900000
124.075800 2921.800000
130.065100 1873.800000
144.080800 9212.600000
156.080900 10310.200000
168.081000 3020.500000
169.076200 1328.600000
171.091600 2877.900000
182.096000 1377.800000
184.075700 87192.100000
194.060200 1684.600000
194.096600 6727.100000
196.075700 6086.300000
198.091300 7402.500000
200.070100 1666.600000
206.096400 1330.400000
210.090700 3296.900000
218.095400 1499.400000
220.075600 7714.100000
220.111800 3206.100000
222.091300 22471.000000
222.127800 2040.400000
234.091200 6250.800000
236.106800 1840.500000
236.142900 1891.200000
246.091300 2906.500000
246.127600 1948.800000
248.107100 6026.900000
262.122700 8753.800000
264.101900 25412.800000
264.138300 2267.900000
266.117300 5230.400000
272.106600 6181.900000
274.122500 4427.900000
280.133100 1183.000000
290.118300 4300.900000
292.134400 2356.100000
306.150100 2819.600000
307.144300 10722.700000
335.175500 230431.200000

>ms2peaks
79.054400 1969.900000
80.049600 1566.000000
81.070000 3671.300000
91.054100 1327.200000
93.070000 3793.600000
94.064900 1387.500000
95.049100 2178.100000
105.069800 2374.700000
106.065000 1588.700000
108.080700 7095.300000
118.065400 1229.100000
121.064900 2182.300000
122.060100 3903.000000
124.075700 4718.700000
130.065100 3542.000000
144.080800 11932.000000
154.064800 1255.000000
156.080800 21945.300000
168.080800 3656.600000
169.076300 2274.600000
170.096400 3229.000000
171.091700 3817.600000
180.080600 1781.500000
182.096700 2903.000000
184.075700 103230.200000
194.059800 1971.800000
194.096600 8851.600000
196.075500 5961.400000
198.091300 9524.400000
200.070500 1447.900000
206.096000 2087.700000
208.112900 1634.900000
210.091100 3685.400000
212.070100 1226.000000
217.087600 1764.000000
218.096600 2241.200000
219.103300 2082.000000
220.075500 8428.200000
220.112400 5802.600000
221.083200 1638.500000
222.091400 21585.000000
222.127800 1977.100000
224.107300 1637.100000
226.085900 1324.300000
232.111500 1630.700000
234.091300 8445.300000
234.127500 1687.600000
236.107000 1466.600000
246.091300 4253.900000
246.127100 2618.700000
248.107000 5514.500000
250.122100 1652.200000
260.107200 1586.000000
261.113800 1752.300000
262.122800 9890.200000
264.102000 23920.200000
266.116700 3635.300000
272.107000 4882.400000
274.123000 3149.500000
280.132800 1157.500000
290.117700 3383.700000
292.133200 2403.000000
306.150000 2119.100000
307.144200 8689.900000
335.175500 150637.600000

>ms2peaks
79.054200 2358.300000
80.049400 1519.500000
81.069900 4062.600000
91.054200 3394.300000
93.069900 2979.000000
94.065300 1993.700000
95.049100 1515.800000
96.080600 2292.700000
105.070000 1577.200000
106.065100 3334.000000
108.080800 7375.800000
118.065200 1838.800000
121.064800 3228.000000
122.060000 2941.300000
124.075700 3679.900000
129.069900 2404.000000
130.065100 3455.200000
144.080800 16157.100000
156.080800 34086.300000
167.072200 1739.600000
168.080700 6748.900000
169.076300 2049.700000
170.059900 1626.800000
170.096300 3197.300000
171.091700 3922.100000
180.080700 3184.500000
182.096600 6138.800000
183.067200 1331.600000
184.075700 106510.200000
194.060900 2892.100000
194.096400 10963.400000
196.075700 6704.700000
198.091400 8633.400000
204.080400 1819.500000
206.096400 3139.200000
210.091200 3507.500000
212.071100 1261.600000
217.088100 1232.500000
218.096400 3293.400000
220.075700 9280.400000
220.111700 6240.800000
222.091400 19148.700000
222.128100 2753.000000
224.106100 1931.600000
226.086800 1075.600000
232.113100 1943.600000
234.091500 9150.700000
234.127500 2118.700000
236.107100 2491.100000
236.143500 1344.600000
244.112200 2967.400000
246.091500 3004.400000
246.128400 2555.700000
248.106800 4155.100000
262.122700 8981.800000
264.102000 15939.000000
266.116800 3233.000000
272.107600 4318.500000
274.123500 4016.500000
280.132700 1429.900000
290.117500 2908.000000
306.150100 2019.600000
307.144300 4915.900000
335.175600 81783.200000

>ms2peaks
79.054200 3201.200000
81.069800 4609.000000
91.054300 3975.600000
93.069900 5039.300000
94.065100 1986.700000
95.049100 2799.900000
96.080700 1836.200000
105.069900 2785.800000
106.065100 3498.400000
108.080800 7066.000000
118.065400 2540.500000
121.064700 2887.600000
122.059900 3815.800000
124.075800 4604.100000
129.069900 5743.300000
130.064900 5418.200000
144.080700 15770.200000
154.065200 2760.100000
156.080700 50021.200000
167.072900 1932.900000
168.080900 7720.600000
169.075200 1421.700000
170.059500 1308.100000
170.096400 3915.100000
171.091600 5253.000000
180.080500 2740.100000
182.096200 4226.700000
183.067900 2007.900000
184.075600 104279.700000
194.059900 3234.900000
194.096300 12574.700000
196.075500 5280.800000
198.091200 8808.800000
200.071100 1365.500000
204.080300 3368.800000
206.096200 3645.700000
208.113000 1510.300000
210.091200 3077.400000
212.070500 1074.400000
217.088000 2793.200000
218.096200 4183.400000
219.104400 1770.800000
220.075600 9934.100000
220.112200 6011.300000
221.083400 2470.800000
222.091200 19773.500000
222.128000 2199.900000
232.112200 1836.400000
234.091500 6615.800000
234.127000 1793.400000
236.143200 1495.500000
244.111700 2284.900000
246.091700 3409.900000
248.107100 4968.700000
250.122300 1436.100000
260.108100 2006.900000
261.115500 1361.000000
262.122700 7022.000000
264.101800 10559.900000
266.116700 2342.600000
272.106900 4048.200000
274.122200 2727.200000
290.117900 1500.300000
307.144200 3038.600000
335.175300 40405.300000

>ms2peaks
67.054300 1162.800000
68.049700 986.600000
77.038700 1497.600000
79.054300 3884.200000
81.070000 4573.500000
91.054200 5231.700000
93.057300 1833.400000
93.070000 4035.700000
94.065000 2982.300000
95.049200 1770.800000
95.085400 1132.100000
96.081000 2817.800000
105.069900 2536.900000
106.065100 5353.800000
107.085900 1026.200000
108.080900 7046.700000
117.069700 1059.600000
118.065400 1271.400000
120.080700 1366.000000
121.064600 2230.400000
122.060100 3836.200000
124.075700 3571.700000
129.069900 12800.300000
130.065300 6632.900000
132.080800 1128.200000
143.073200 1562.800000
144.080900 18412.800000
154.065100 3465.000000
155.073000 1283.700000
156.080900 64841.300000
166.065200 2495.600000
167.073200 3388.900000
168.080900 10248.000000
169.076100 2663.400000
170.059800 2173.800000
170.096600 4411.600000
171.091900 3135.100000
180.080800 3764.300000
181.088000 2387.700000
182.096500 6379.300000
183.068000 2304.100000
184.075800 91567.700000
192.080900 1359.900000
193.089400 1714.800000
194.060300 2894.000000
194.096600 14359.800000
196.075900 4756.500000
198.091300 7550.300000
204.080400 3567.900000
205.088600 2318.300000
206.096200 5849.700000
207.105000 1505.900000
208.112000 1512.000000
210.090700 1995.400000
217.088300 3642.700000
218.096700 4898.100000
219.104800 2414.000000
220.075800 11875.500000
220.111900 8016.100000
221.084100 1786.000000
222.091300 14859.300000
222.127900 2872.200000
230.097400 1790.700000
231.105100 1575.500000
232.112500 3042.000000
234.091200 8132.700000
234.127700 2126.100000
244.111100 2227.100000
246.091100 3897.600000
246.127400 2009.100000
248.107500 4137.900000
262.122500 5067.400000
264.102100 6613.800000
272.107800 2869.000000
335.175600 20680.300000

>ms2peaks
67.054200 1805.700000
68.049300 1117.700000
79.054200 5226.400000
81.069900 5238.200000
91.054200 5627.300000
93.057100 2569.800000
93.069800 3108.100000
94.065200 2765.500000
95.049600 1057.600000
95.086000 1465.900000
96.080700 2828.600000
105.069900 3146.900000
106.065100 5498.000000
108.080900 5397.400000
117.070000 1454.700000
118.065100 2503.400000
120.080300 1034.600000
121.064700 2508.700000
122.060100 2803.400000
124.076000 2665.600000
128.062200 1484.900000
129.069900 17966.000000
130.065000 8210.400000
132.044100 1778.300000
132.081000 1492.500000
142.065300 2566.700000
143.072600 1285.900000
144.080800 18740.400000
154.065400 4380.300000
155.072500 2183.600000
156.080800 74568.200000
166.065100 4321.700000
167.073100 4629.900000
168.080700 10030.300000
169.076200 2772.700000
170.059800 1957.200000
170.096300 5810.300000
171.091500 4221.000000
180.080700 5249.400000
181.088500 2689.800000
182.096400 5237.200000
183.067800 2066.200000
184.075700 72042.600000
191.072800 1133.900000
192.080700 2312.700000
193.088200 2500.000000
194.059900 1985.900000
194.096400 14476.100000
196.075500 4528.900000
198.091200 5848.000000
204.080500 4291.700000
205.088800 4013.000000
206.096200 5149.600000
207.104400 1551.000000
208.112100 2026.000000
210.090600 2088.800000
217.088600 4576.300000
218.096300 7350.800000
219.104000 2218.800000
220.075600 10389.700000
220.112200 6708.900000
221.083600 2579.700000
222.091300 11529.300000
222.128200 1346.500000
230.095900 2180.800000
231.103700 2137.300000
232.112500 1772.800000
234.091200 7402.100000
234.127800 2544.500000
246.090900 3414.700000
246.128200 1675.200000
248.107100 2624.500000
262.121800 3250.600000
264.102100 3537.100000
272.106300 1802.200000
335.175500 7449.700000

>ms2peaks
79.054200 4757.300000
80.049500 2208.000000
81.069900 5580.400000
91.054300 7041.300000
93.057400 3456.300000
93.069900 3598.000000
94.065000 2092.400000
95.049200 2040.200000
96.080700 2059.500000
105.044900 1576.000000
105.070200 3110.800000
106.065100 3960.700000
107.085300 1188.200000
108.080800 3816.400000
115.054500 1687.900000
117.069800 1659.200000
121.065300 2322.000000
122.060000 1886.600000
124.075800 1946.300000
128.061700 1580.600000
129.069900 24277.300000
130.065200 6604.500000
132.044800 2087.500000
132.081200 1518.600000
142.065200 1215.200000
143.072900 2364.800000
144.080800 16593.500000
154.065200 5240.200000
155.073200 2726.500000
156.080900 75508.400000
166.065400 4032.900000
167.072900 6401.100000
168.080800 10576.400000
169.076300 2049.400000
170.060400 2152.400000
170.096600 6490.900000
171.092100 2776.700000
180.081000 6239.800000
181.088900 2988.100000
182.096300 6427.700000
183.068400 2436.200000
184.075800 51106.100000
192.080900 2889.900000
193.088300 3375.900000
194.060600 2318.900000
194.096400 13940.500000
196.075400 3631.800000
198.091000 4069.700000
204.081000 5202.100000
205.088900 4212.500000
206.096100 6801.900000
207.104300 1431.300000
217.088400 5948.700000
218.096300 7954.300000
219.103500 2576.800000
220.075600 8786.400000
220.112100 5476.700000
222.091300 6784.200000
230.096900 2928.500000
231.104700 2157.100000
232.112700 3369.500000
234.091300 5132.600000
234.127100 2266.000000
244.112800 1930.400000
246.091700 2852.300000
246.128100 2260.000000
248.107200 3271.700000
262.122300 1537.800000
272.107200 1795.400000
335.176400 3398.400000

>ms2peaks
67.054200 1595.000000
68.049400 898.700000
77.038600 1332.400000
79.054200 4996.100000
80.049300 2001.100000
81.069900 3847.600000
91.054100 5928.500000
93.057300 3288.400000
93.069800 2229.300000
94.065100 3715.900000
95.049500 1368.700000
96.080700 2447.700000
105.044400 2092.600000
105.069700 1797.800000
106.065100 5860.000000
108.080700 2591.100000
115.054000 2108.100000
117.069500 2324.000000
118.064900 1790.400000
121.065000 1781.600000
122.060100 1782.600000
128.061900 4202.900000
129.069800 32966.700000
130.065000 9189.900000
132.044400 1435.700000
143.073100 3350.500000
144.080700 16734.900000
154.065200 5009.700000
155.060600 1699.600000
155.073000 3446.600000
156.080700 71792.700000
166.065200 4896.300000
167.072800 8759.600000
168.080700 11896.100000
170.060700 1649.800000
170.096600 4397.500000
171.091800 3314.000000
180.080800 7350.700000
181.088900 3377.400000
182.096500 3601.500000
183.067900 3101.700000
184.075600 34010.600000
191.072700 1816.500000
192.080500 3635.200000
193.088500 3219.400000
194.059700 1741.200000
194.096400 12196.300000
196.075500 2892.800000
198.091100 3551.300000
204.080300 5326.500000
205.088300 3823.800000
206.096300 5651.100000
207.104800 2224.700000
208.112700 1834.300000
210.091000 1361.800000
217.088600 7495.500000
218.096100 7323.800000
219.103800 2123.200000
220.075700 7371.700000
220.111600 5059.400000
222.091300 4412.500000
230.095700 2471.900000
231.104400 2614.800000
232.112200 3319.600000
234.091300 4284.000000
234.128000 1977.700000
244.111700 2041.900000
246.091000 2693.500000
246.127000 1436.100000
248.107300 1302.500000

>ms2peaks
77.038600 1412.500000
79.054300 6520.500000
80.049500 1750.800000
81.069900 4576.700000
91.054200 8841.900000
93.057400 5072.500000
93.069900 1451.500000
94.065200 2292.400000
105.044600 1699.500000
105.070000 1961.600000
106.065100 5077.200000
108.080900 2348.000000
115.054200 2763.900000
117.069800 2711.000000
118.064800 2641.900000
120.080400 1513.600000
121.064700 1142.700000
128.062200 5336.300000
129.069900 37438.400000
130.065200 9452.000000
132.080200 1392.000000
142.064800 1791.300000
143.073000 2871.500000
144.080900 15016.400000
154.065300 6620.200000
155.060600 1536.800000
155.072900 4284.700000
156.080800 65777.300000
166.065300 5175.700000
167.073100 10035.700000
168.080900 11626.300000
169.076500 1449.800000
170.059800 1672.300000
170.096200 4021.700000
171.092100 1293.700000
180.080900 7759.100000
181.089000 2796.500000
182.096300 3108.500000
183.067600 2956.700000
184.075600 25875.500000
191.073200 3542.700000
192.080600 4658.500000
193.088500 3962.000000
194.060600 1123.900000
194.096400 9617.300000
196.075700 2490.800000
198.091900 1915.300000
204.080900 8059.600000
205.088700 5060.200000
206.096500 6345.500000
207.104600 1877.600000
217.088600 7529.000000
218.096400 7505.600000
220.076000 5596.100000
220.111400 4137.600000
222.091800 2178.200000
222.127300 1233.000000
230.096900 3243.200000
231.104300 1437.000000
232.111700 1284.000000
234.091300 2562.400000
244.112800 2058.200000

