>compound NA36487740
>parentmass 400.1755000000001
>ionization [M+H]+
>formula C22H25NO6
>rt 556.350000
>profile orbitrap
#smiles_iso CC(=O)N[C@H]1CCC2=CC(=C(C(=C2C3=CC=C(C(=O)C=C13)OC)OC)OC)OC
#smiles_can CC(=O)NC1CCC2=CC(=C(C(=C2C3=CC=C(C(=O)C=C13)OC)OC)OC)OC
#inchikey IAKHMKGGTNLKSZ-INIZCTEOSA-N
#pubchem_id 6167
#mb_accession NA002290,NA002291,NA002292,NA002293,NA002294,NA002687,NA002688,NA002689,NA002690,NA002691,NA003069,NA003070,NA003071,NA003072,NA003073,NA003434,NA003435,NA003436,NA003437,NA003438

>ms2
400.175500 454008.500000

>ms2
400.175500 499085.500000

>ms2
341.138300 2935.100000
358.165700 3543.800000
368.150000 1454.900000
400.175700 422424.700000

>ms2
282.125900 1405.400000
310.120500 3314.800000
313.143800 4465.700000
326.115700 1342.400000
326.138600 5925.700000
340.154100 1451.300000
341.138500 11010.900000
358.164800 15819.700000
368.149100 2306.600000
382.165700 8852.500000
400.175800 318375.500000

>ms2
282.125300 7665.400000
310.119900 13136.900000
313.143500 8507.800000
326.115500 4933.400000
326.138900 13117.900000
340.153800 5564.200000
341.138500 24184.200000
358.165000 40322.500000
368.149000 3438.600000
382.165000 13954.000000
400.175800 198253.500000

>ms2
137.059700 1144.700000
181.086600 3268.300000
207.100900 1040.500000
234.112700 7692.200000
239.107500 1204.400000
267.101200 2994.100000
268.109700 1662.500000
277.085400 2466.000000
278.093400 5680.200000
281.117100 7529.600000
282.125000 32008.100000
283.097200 1731.900000
284.103800 1767.000000
285.112200 12019.400000
294.088900 2296.400000
295.096000 2828.900000
295.120800 6262.400000
298.120000 9759.000000
298.143700 7038.800000
302.115700 2295.700000
308.128500 2199.300000
309.112400 16812.900000
309.134800 1019.000000
310.119900 46210.000000
311.092000 4066.100000
313.107400 7573.700000
313.143500 19778.700000
316.154600 6687.200000
323.151300 1231.600000
324.122300 1373.000000
325.131700 2987.200000
326.114900 18074.200000
326.138800 37188.400000
327.145400 1869.800000
329.126100 2008.900000
330.132900 3343.200000
330.170200 1849.800000
339.146600 3756.900000
340.154300 14381.400000
341.138400 51151.900000
342.133700 2054.800000
343.140800 4163.900000
350.137400 1482.900000
352.119200 1610.300000
354.169600 2763.300000
357.157500 1650.700000
358.164900 97160.900000
367.140900 4946.600000
368.149200 5288.800000
382.164900 22027.000000
400.175600 169385.200000

>ms2
137.059600 2307.400000
152.071100 1572.600000
181.085900 4629.600000
234.112500 9483.900000
250.098700 1620.000000
252.115600 1110.400000
266.093800 1863.900000
267.101800 4888.200000
268.109900 2643.900000
270.125400 1907.600000
278.093600 5724.000000
279.101100 1446.100000
281.117100 9761.900000
282.125300 37318.300000
283.097100 3462.700000
283.131700 1668.900000
284.104400 1977.100000
285.112300 15075.400000
286.120700 1185.300000
294.089300 4403.400000
294.113600 1758.100000
295.096900 8585.700000
295.120400 6323.100000
296.092900 1201.500000
297.111800 2208.400000
297.136200 1748.600000
298.120200 11763.600000
298.143900 9355.200000
300.099000 1271.800000
302.114400 2325.900000
308.103600 1149.500000
308.128100 4138.500000
309.112200 16300.600000
309.137200 1494.900000
310.119900 49429.500000
311.091700 5936.300000
311.116400 4288.500000
312.123100 1348.400000
313.107600 6146.700000
313.143400 14877.800000
314.137500 1771.500000
316.154500 5219.300000
324.123100 3963.500000
325.109600 1195.600000
325.131900 4351.200000
326.115200 21687.900000
326.138800 29594.100000
327.147800 1819.000000
328.118500 5983.600000
330.133600 2594.200000
330.169600 2277.800000
339.146600 4978.500000
340.154500 15659.000000
341.138400 35569.900000
342.133900 4559.100000
343.141300 6391.500000
350.139000 1556.900000
352.117800 1544.600000
354.169800 2865.700000
357.158500 2756.100000
358.165000 67797.500000
367.142000 5658.300000
368.148600 1557.100000
382.164900 12092.800000
400.175700 50672.900000

>ms2
137.060000 2385.200000
152.070600 2146.300000
165.078900 2072.100000
181.085700 3733.000000
193.072900 1032.800000
203.093300 1570.400000
207.101100 2076.100000
234.112800 7198.500000
235.075600 1093.800000
239.107100 1628.700000
242.094200 1602.600000
249.091400 2126.100000
250.100000 1913.500000
251.106200 1431.200000
255.101900 2557.900000
266.094000 3704.800000
267.101800 9559.200000
268.109200 2392.700000
270.089400 2328.500000
270.124900 2333.700000
273.112500 1805.800000
277.085400 2850.700000
278.093600 7694.200000
279.066500 1773.100000
279.101800 3022.400000
281.117800 9582.200000
282.125100 32679.000000
283.096500 5798.600000
283.131700 1593.000000
284.105000 2366.400000
285.112400 16119.900000
286.119600 1449.600000
287.091700 1894.100000
293.082000 1571.500000
294.089300 4308.400000
294.112100 2530.300000
295.096900 10249.000000
295.121000 8229.100000
297.137100 3412.400000
298.084500 1781.900000
298.120200 11617.900000
298.144000 8240.000000
300.123700 2974.300000
301.107800 1230.800000
301.130100 1993.000000
302.114500 3235.100000
308.129100 1769.300000
309.112600 10274.900000
309.135900 2034.400000
310.119900 40269.100000
311.091700 11568.500000
311.115800 5204.400000
312.122500 2325.100000
313.106700 3363.600000
313.144000 9136.900000
314.102600 1141.800000
314.139600 3109.400000
316.155000 4313.600000
323.152400 1261.000000
324.123200 3909.000000
325.130800 4079.800000
326.115600 16642.100000
326.139000 19565.800000
327.146000 2576.400000
328.118500 10718.600000
330.169200 1198.000000
336.122300 1126.900000
339.147400 5761.200000
340.154800 10349.600000
341.138900 17800.100000
342.134100 5359.100000
343.142100 4519.200000
352.118100 1684.000000
354.170800 2073.300000
357.157400 1391.300000
358.165100 31443.300000
367.141200 3698.500000
382.165700 6974.300000
400.176100 11576.900000

>ms2
137.059900 2535.900000
152.071100 1696.900000
165.078500 2336.800000
181.086000 5592.000000
203.094200 2408.500000
207.102400 2527.800000
219.087900 1156.900000
234.112900 6221.300000
235.075200 2720.400000
238.098600 1960.800000
239.107700 3907.100000
241.085400 1731.000000
242.093100 2300.200000
248.083800 1273.000000
249.091600 2747.200000
250.098700 2224.100000
251.070400 3223.200000
251.106800 2558.200000
252.078800 1941.400000
252.114200 1784.800000
253.086800 1604.000000
255.064800 1307.200000
255.101400 2755.000000
265.086500 3013.500000
266.093900 5175.800000
267.101500 14124.400000
268.108300 3142.500000
269.081300 2232.300000
270.089300 3530.300000
270.124500 1182.600000
273.111300 1122.000000
277.086200 2199.000000
278.093700 6242.900000
279.065700 2983.600000
279.100500 3619.900000
281.117400 6964.600000
282.125100 24601.600000
283.096700 8998.000000
284.104300 3255.800000
285.112400 13561.300000
287.091300 2124.100000
293.080800 2796.200000
293.105700 1563.700000
294.089400 3541.400000
294.112700 3584.700000
295.096800 18720.600000
295.120400 6021.600000
296.091900 2985.100000
296.128100 1348.400000
297.110900 2479.200000
297.136100 2479.900000
298.082900 1447.300000
298.119800 8581.400000
298.144100 7397.800000
300.099600 1401.500000
300.123900 5135.800000
301.107000 1592.600000
301.131400 3660.400000
302.116300 1896.500000
308.104800 1806.700000
308.128200 3868.700000
309.112100 7048.900000
309.135200 1482.300000
310.119400 28983.800000
311.091800 15297.700000
311.115700 3274.100000
312.122200 3652.300000
313.107000 1985.100000
313.143800 4436.700000
314.138700 2129.300000
316.154700 2907.400000
324.123000 7811.500000
325.109800 1116.300000
325.131100 1983.300000
326.115200 10018.700000
326.138900 9403.000000
328.117600 10744.300000
329.124900 1364.500000
336.121600 1042.800000
339.146400 3952.900000
340.154700 6019.500000
341.138400 7688.400000
342.133900 6069.500000
343.142200 3753.400000
352.119600 1838.300000
358.165000 10816.500000
400.176900 1686.200000

>ms2
137.059800 3212.800000
165.078100 2191.400000
181.086000 4270.000000
193.073100 1185.200000
203.094800 1829.600000
207.101400 2716.600000
219.088000 1139.000000
234.112300 3092.000000
235.074600 3601.200000
238.099200 2040.000000
239.106900 3260.200000
241.085700 2470.000000
242.094000 2522.000000
248.083300 1138.900000
249.091800 2068.500000
250.099200 2983.700000
251.070500 5830.500000
251.106300 4133.500000
252.078500 3144.800000
252.113500 1735.300000
253.086300 2437.800000
255.065500 1986.600000
255.101900 4460.100000
265.086100 4718.400000
266.093800 5635.700000
267.101700 18148.600000
268.109200 2535.100000
269.079800 2464.000000
270.088800 4931.800000
277.085400 1973.500000
278.093100 4353.200000
279.065400 4034.600000
279.101900 2611.000000
281.117100 6400.800000
282.124800 18728.900000
283.096500 12306.700000
284.104000 1796.400000
285.112400 8208.800000
287.091500 3053.600000
293.080600 1500.100000
293.105000 1765.000000
294.089300 2762.300000
294.112500 3925.600000
295.096500 22042.000000
295.120600 4580.800000
296.092900 4899.500000
296.126800 1237.300000
297.111600 3273.300000
297.136100 1433.400000
298.119600 6124.500000
298.143600 4156.500000
300.123400 8192.500000
301.130500 1999.000000
308.127900 3896.800000
309.111800 3909.500000
310.119000 16429.100000
311.091500 14647.200000
311.116700 2719.200000
312.122500 2234.300000
313.107700 1051.700000
313.143500 1841.400000
314.102800 2183.300000
314.140200 1472.300000
324.123100 5612.200000
325.132100 1331.100000
326.115200 4896.500000
326.138700 5187.500000
328.118200 10383.900000
339.145600 3609.800000
340.153900 2309.500000
341.139300 2151.300000
342.133700 4560.100000
343.142100 2616.800000
358.165900 4105.200000

>ms2
137.059600 6789.900000
150.055200 2540.000000
152.070400 4109.400000
160.075800 1496.900000
165.078500 3414.100000
176.070800 5652.800000
176.083000 2278.900000
177.053900 1748.000000
179.070800 1996.000000
181.086000 9285.000000
188.071000 1893.100000
191.069700 1744.000000
192.066000 1356.700000
195.080300 3075.700000
196.088800 1210.400000
203.093900 5579.500000
204.065400 2717.800000
206.073400 1248.900000
207.080900 4683.900000
207.101300 4804.500000
209.060600 1185.900000
209.095900 2164.300000
211.075000 3312.400000
211.112300 1265.500000
212.082600 3410.800000
219.081300 3421.300000
221.059800 1130.600000
221.096500 3122.400000
222.066500 1448.800000
223.075300 7009.800000
224.083300 5978.000000
224.106300 1190.900000
225.090900 5416.600000
226.098400 4021.200000
227.070100 8140.800000
227.106200 2160.600000
233.060500 1075.600000
234.067400 1761.700000
234.091800 1889.100000
234.112300 4622.600000
235.075400 10178.800000
236.083100 5793.600000
236.107100 2398.700000
237.091000 8255.900000
238.098700 3980.400000
239.069700 3252.300000
239.106600 14321.200000
240.077800 6998.800000
240.102700 1547.800000
240.115000 1086.800000
241.086200 6071.000000
242.093600 7042.600000
243.066400 1387.800000
247.074400 2502.200000
248.083900 1927.200000
249.090900 5813.800000
250.062200 1269.000000
250.086300 2700.300000
250.098700 6430.000000
251.070300 14632.500000
251.106600 9042.500000
252.078000 11570.600000
252.101800 4191.500000
252.113600 4434.000000
253.085900 6508.700000
254.093700 3401.200000
255.065300 6874.300000
255.101600 12819.700000
256.073800 1510.300000
256.096500 1047.500000
256.109200 1922.100000
263.070500 8701.000000
264.077600 2226.700000
264.101300 5266.900000
265.086000 12418.300000
265.109200 3244.200000
266.093800 9986.000000
266.117200 2619.300000
267.101400 46350.400000
268.072400 3433.800000
268.097100 10576.700000
269.080800 7495.000000
270.088600 9188.500000
270.113000 2126.400000
271.095900 3206.700000
272.128200 2186.000000
277.085800 4152.200000
279.065300 9441.200000
279.100800 7204.300000
280.072500 2560.400000
280.097500 7435.300000
281.080000 2391.800000
281.116900 8105.600000
282.087900 1641.000000
283.096600 26606.900000
284.128300 2344.100000
285.075800 2597.000000
285.111900 13384.900000
286.107300 4307.700000
287.091300 8157.600000
292.097500 3911.300000
293.080800 5445.400000
293.104900 3631.000000
294.111900 7222.500000
295.096500 40340.800000
295.120200 6701.600000
296.068000 2517.700000
296.092000 10876.700000
296.128300 4406.400000
297.111400 5424.300000
298.119200 7919.000000
298.144300 4979.900000
300.123100 19874.100000
301.130600 4515.800000
306.111200 1953.800000
308.127100 4829.100000
311.091400 27032.100000
311.115200 3994.700000
312.123500 5401.700000
314.102300 6521.200000
314.138300 3389.600000
324.122900 11005.300000
325.107100 2811.800000
326.114300 4513.300000
326.138100 4151.700000
328.117900 13094.200000
342.133500 9018.200000

>ms2
133.052100 1903.400000
137.059800 5561.500000
150.055100 2384.600000
152.070800 2341.400000
160.075500 1188.000000
165.078800 2542.300000
176.071100 3048.800000
179.070200 2568.300000
179.085600 1321.700000
181.085900 6825.000000
188.070100 1402.700000
188.083400 1934.500000
191.070100 1403.900000
195.080500 5131.400000
196.088500 1685.800000
197.059200 1237.500000
199.075000 1108.200000
203.094000 2668.900000
205.064700 2017.400000
206.072000 1771.800000
207.080300 5133.900000
207.101400 3422.000000
208.088800 2250.200000
209.059800 1285.500000
209.096100 2492.500000
210.067700 1699.400000
211.075300 4304.500000
211.112100 1202.200000
212.083500 2652.900000
213.091800 1580.900000
219.080800 2228.500000
221.096200 2274.500000
222.068100 1589.700000
222.091200 1303.700000
223.075400 7985.700000
224.083300 8768.500000
225.090500 4089.000000
226.062000 1036.100000
226.099000 1853.600000
227.070100 9796.600000
227.106500 1771.100000
234.068000 2177.100000
234.113200 2008.700000
235.075300 10815.800000
236.071500 1464.300000
236.083100 4837.500000
236.107900 1874.900000
237.054400 1504.900000
237.090900 8408.100000
238.098300 4238.200000
239.070700 2723.100000
239.106600 14866.500000
240.077800 7285.600000
240.101400 2072.000000
240.115300 1744.500000
241.085900 8619.300000
242.093800 4312.600000
243.065600 2016.800000
247.075500 2215.700000
248.082400 1721.900000
249.077500 1181.800000
249.091000 5058.400000
250.061800 1215.900000
250.087100 3573.800000
250.098400 4159.300000
251.070000 12156.300000
251.093000 1987.900000
251.106600 7055.500000
252.078200 10323.200000
252.102000 4269.400000
252.113400 2396.800000
253.085600 5403.700000
254.081500 1933.700000
254.093600 1651.600000
255.065200 6718.800000
255.101200 9023.200000
256.073600 1691.200000
256.097400 1399.800000
256.109100 1994.400000
263.069900 7447.000000
264.077800 2648.900000
264.102200 4228.100000
265.085900 10473.400000
265.110500 2466.600000
266.093200 6890.400000
267.101500 39959.600000
268.072900 5155.400000
268.097000 9924.500000
269.081100 5587.900000
270.088200 6415.000000
270.112200 1393.700000
272.129100 1500.900000
277.085500 2337.200000
279.064900 6563.200000
279.100300 4769.100000
280.072500 3391.900000
280.097400 6281.800000
281.116400 3796.900000
282.089100 1386.200000
283.096700 18431.900000
284.127600 1563.400000
285.076300 1743.900000
285.112600 5125.200000
286.107400 3407.200000
287.090800 5237.000000
292.097400 3347.000000
293.080300 3637.200000
293.104500 3057.100000
294.112300 5585.600000
295.096400 24713.400000
295.121200 2480.300000
296.068700 1420.000000
296.091900 6819.300000
296.127700 3277.200000
297.111900 3690.200000
298.119000 2678.700000
298.143600 2551.200000
300.123100 13241.400000
301.130800 2027.200000
306.112700 1414.600000
308.128400 2404.800000
311.091400 18661.600000
311.115800 2154.500000
312.122200 2763.600000
314.102700 3202.500000
314.138700 2429.700000
324.123200 6843.200000
325.108000 2541.000000
326.116000 1320.400000
326.138600 1264.000000
328.117000 6340.100000
342.133600 4310.600000

>ms2
133.052200 3895.000000
137.059900 4806.200000
150.054800 2709.800000
161.059400 1600.700000
165.070100 1164.300000
165.079100 1204.700000
176.070700 3474.300000
176.083100 2149.700000
177.054900 1515.500000
179.069700 1678.000000
179.085700 1850.600000
181.064800 2437.900000
181.085800 3751.900000
183.080000 1681.600000
188.070900 1331.900000
191.070000 1597.700000
192.065400 1370.300000
194.072400 1603.500000
195.080600 4989.100000
196.088300 1302.800000
197.059400 1322.500000
199.075200 2382.100000
203.094000 2080.900000
204.066000 1516.500000
205.065100 2294.500000
207.080600 6545.700000
208.088400 2212.400000
209.060000 1690.600000
209.096000 3780.300000
210.068000 1528.700000
211.075500 5566.200000
211.112100 1064.100000
212.083100 3341.400000
213.091400 1726.100000
219.081200 2217.400000
221.060100 1727.700000
221.096200 1959.100000
222.067800 2225.200000
222.091100 1338.700000
223.075500 8689.800000
224.083300 9881.300000
225.090900 4780.000000
226.063000 1653.800000
226.087100 1253.900000
227.070200 9306.100000
233.059600 1373.500000
234.067000 2406.700000
235.075500 10409.700000
236.082900 5407.000000
236.106400 1667.600000
237.054500 3100.100000
237.091100 8433.300000
238.085300 1470.200000
238.099100 3332.500000
239.070700 2297.500000
239.106800 12162.700000
240.078100 7089.500000
240.102000 1616.100000
241.086100 7075.100000
242.081900 1164.800000
242.094100 3326.100000
243.066300 1653.000000
247.074600 1771.300000
249.090300 3068.300000
250.061500 2769.800000
250.086500 3901.800000
250.098200 2014.000000
251.070300 12815.900000
251.095300 1467.500000
251.106800 5283.200000
252.078100 10349.700000
252.102300 3372.800000
252.115200 1001.600000
253.073600 2091.600000
253.085500 4233.000000
253.110400 1417.300000
254.082000 1111.900000
254.094800 1742.800000
255.065500 9456.000000
255.101900 8031.000000
256.072500 1845.400000
263.070400 5418.900000
264.077600 2524.200000
264.101400 4188.700000
265.086000 7407.600000
265.110800 1621.900000
266.093600 5026.100000
266.116600 1104.600000
267.064000 2524.500000
267.101800 27286.700000
268.072800 4893.300000
268.097000 6391.900000
269.080800 4702.200000
270.088300 2922.400000
270.111700 1493.300000
271.095900 1919.200000
277.085300 1462.700000
279.065100 4363.300000
279.100900 1957.600000
280.073200 4282.800000
280.097000 3260.400000
281.081400 1030.300000
283.096700 12348.600000
284.091900 1817.200000
285.076200 1723.900000
286.107900 2470.100000
287.091400 3176.200000
292.097500 2639.900000
293.081600 1315.700000
293.104700 1638.400000
294.113300 3762.700000
295.096500 14971.400000
295.121600 1285.600000
296.068800 1658.000000
296.091700 3651.100000
297.110800 1962.700000
300.123000 7725.900000
308.090600 1165.500000
308.128500 1713.100000
311.091500 7971.500000
312.123300 1567.600000
314.102700 1816.400000
324.124200 4351.100000
326.138400 1364.900000
328.117300 1446.200000

>ms2
133.052300 4154.000000
137.059900 4321.300000
148.052200 1248.800000
150.055200 1608.100000
161.059500 1428.000000
165.070100 1799.100000
176.070500 2396.300000
176.083400 1176.900000
178.077900 1066.200000
179.069900 1086.000000
179.085700 1862.300000
181.064600 3589.100000
181.085700 2148.800000
183.080800 1200.700000
188.071000 2007.400000
188.082500 1079.000000
194.072700 2818.500000
195.080500 6833.600000
196.088300 2079.300000
197.060600 2137.300000
198.068000 1951.300000
199.075600 2588.000000
205.065000 3387.600000
206.072800 2933.200000
207.080800 8301.000000
207.101300 1041.100000
208.088200 2894.400000
209.060700 2999.500000
209.095400 2996.400000
210.067500 2785.200000
211.075300 5660.800000
212.083400 3855.300000
213.091500 1674.200000
219.081400 1521.400000
220.052000 1025.800000
221.059800 2477.100000
221.096900 2298.900000
222.067700 2821.300000
223.075400 9761.100000
224.083300 11819.900000
224.105900 1204.500000
225.054400 1879.000000
225.077600 2195.100000
225.090700 4405.300000
226.062200 2503.500000
226.085500 1081.400000
226.098700 1853.200000
227.070200 8692.100000
227.106600 1972.800000
233.060700 2302.600000
234.067700 3336.200000
234.092000 2040.000000
235.075500 9830.600000
236.083200 5335.400000
236.106500 2353.100000
237.054200 2804.100000
237.091300 8467.600000
238.099800 1964.800000
239.070000 4053.700000
239.107000 10432.500000
240.078500 9192.600000
240.101400 2261.000000
241.085700 6996.800000
242.094800 1529.400000
243.066000 1917.300000
247.074500 1666.000000
249.079100 1403.200000
249.090900 3209.100000
250.062900 2785.000000
250.086300 3151.400000
251.070400 13913.600000
251.106800 3372.200000
252.078400 12072.100000
252.102000 3187.900000
253.049100 2354.400000
253.073700 1865.200000
253.086000 3120.700000
253.109500 1248.400000
254.081700 2481.200000
254.093500 915.600000
255.065500 6433.700000
255.101800 4859.200000
256.072900 1559.200000
256.097200 2142.200000
263.070800 4099.800000
264.077400 1551.100000
264.102500 2125.100000
265.085600 6774.400000
265.109200 1152.900000
266.093700 4573.200000
267.064700 2225.800000
267.101500 18876.800000
268.073500 5564.700000
268.097100 5837.200000
269.081100 4083.300000
270.111300 1453.400000
279.065800 4293.800000
280.073400 3193.500000
280.097400 2801.900000
283.096600 8639.000000
284.093000 2172.300000
286.108500 2038.100000
292.097100 1919.000000
293.105300 1459.400000
295.096500 7217.700000
296.092200 2199.400000
297.110900 1148.200000
300.123600 4560.400000
308.091900 1670.600000
311.091100 3979.200000
325.107700 1094.700000

>ms2
133.052300 4136.000000
137.059800 3735.900000
148.052100 2522.500000
150.055300 2527.100000
165.069900 3394.300000
176.070800 2174.200000
176.083600 1833.900000
177.053800 1402.800000
178.078300 2097.200000
179.085600 3094.000000
181.065200 3513.100000
181.086200 2151.700000
183.080400 1425.200000
188.071000 1600.900000
194.073000 3324.000000
195.080300 7665.100000
196.088500 3572.300000
197.059000 3172.500000
198.068500 2396.200000
199.075400 2488.500000
205.064800 3846.600000
206.072800 2933.000000
207.080900 7915.900000
208.088600 3915.500000
209.059600 3320.800000
209.096000 3590.700000
210.067600 2361.600000
211.075200 5457.200000
212.083000 5736.200000
213.091200 1561.300000
219.080700 2382.400000
220.052400 1394.200000
221.059400 3311.300000
221.096500 1728.100000
222.067700 5220.000000
222.091000 2056.800000
223.075400 10272.000000
224.083200 12290.400000
225.055100 4564.400000
225.077800 2681.600000
225.091000 3897.900000
226.062200 3180.900000
226.085900 1806.100000
226.099600 1540.500000
227.070300 8634.300000
234.068100 2121.200000
234.091900 1583.000000
235.075500 11190.100000
236.070600 1929.000000
236.083300 5115.500000
236.107800 2745.800000
237.054500 4402.900000
237.091000 6576.200000
238.085900 2315.400000
238.099200 1534.500000
239.070600 5423.600000
239.106900 9044.500000
240.078100 9776.800000
240.102100 2749.400000
241.085800 7103.300000
242.081300 2136.500000
243.065400 1272.300000
247.076000 1459.000000
249.077300 1979.300000
249.090700 2333.200000
250.063000 3675.400000
250.086700 3177.800000
251.070100 12397.500000
251.094100 1043.500000
251.106600 3174.000000
252.078300 9084.300000
252.101900 3490.300000
253.049800 2487.600000
253.073100 2530.100000
253.086400 3448.200000
254.080400 1281.600000
254.094400 1399.900000
255.065200 6275.900000
255.102000 4107.400000
256.073700 1908.600000
256.096700 1464.000000
263.071200 2995.600000
264.077900 1494.700000
264.101600 2119.400000
265.085900 5613.100000
267.065100 2989.500000
267.101500 14801.700000
268.073400 4428.500000
268.097400 4139.100000
269.081800 2884.200000
279.064900 2183.000000
280.072600 2302.900000
283.097300 4664.800000
287.090600 1336.700000
292.097300 1290.600000
293.081500 1284.700000
294.111800 1627.600000
295.096400 4132.000000
300.123700 2194.800000
308.091900 1469.800000
311.091100 2932.500000

>ms2
91.054200 2222.900000
115.054200 2100.800000
129.070500 1034.600000
131.049300 1892.100000
133.052300 8772.500000
133.064800 1322.400000
137.059600 6648.200000
141.069500 1885.700000
145.064800 3133.100000
147.043900 1623.600000
148.051900 2625.000000
150.054900 4537.700000
152.062100 4549.200000
153.069900 4078.600000
160.075700 1890.100000
161.059900 2372.800000
165.070000 9626.600000
166.077900 4216.500000
167.085600 5315.500000
168.057800 1265.900000
169.065100 5388.700000
170.072700 1104.700000
171.080400 2263.500000
176.070600 3114.000000
176.083200 2835.400000
177.054800 1953.100000
177.070200 4222.000000
178.077700 7097.200000
179.085700 8900.600000
180.057300 2923.500000
180.080700 1190.600000
181.064800 13375.400000
182.072500 6132.200000
183.080500 6233.100000
184.051900 2534.900000
185.059700 2212.000000
188.070600 2742.600000
189.070200 4285.600000
190.077300 2012.400000
191.085800 5043.800000
192.056900 2009.400000
193.064700 4396.900000
194.072600 10149.800000
194.096900 1061.200000
195.080500 17730.700000
196.051800 2637.100000
196.075900 2402.500000
196.088300 8114.800000
197.059600 9677.000000
197.083900 3582.200000
197.096200 2373.200000
198.067700 5345.800000
199.075400 8560.600000
204.080300 1902.000000
205.064700 9362.900000
206.072800 6409.300000
207.068200 1991.000000
207.080600 13694.100000
208.051700 4818.000000
208.075200 1842.100000
208.088300 8428.000000
209.059700 8955.000000
209.083100 1575.700000
209.095900 6541.800000
210.067500 6795.800000
210.091300 1907.400000
211.075300 12197.000000
211.098800 1363.000000
212.047000 4487.400000
212.083400 9468.400000
213.055200 3202.300000
213.091100 4217.500000
215.070400 1557.000000
219.080800 4999.000000
220.051600 5083.500000
220.075600 3538.200000
221.059700 8784.300000
221.083700 3211.200000
222.067500 10872.300000
222.091500 2795.500000
223.075400 21182.200000
224.070700 3290.500000
224.083300 26504.000000
224.106900 1567.800000
225.054600 9664.900000
225.078400 7243.500000
225.091300 7585.700000
226.062400 4249.400000
226.086000 2915.000000
226.099000 1744.000000
227.070200 14632.700000
227.107400 1444.200000
228.065800 1680.000000
228.078900 2000.600000
228.102200 1664.000000
229.050000 1500.400000
233.059400 3991.300000
233.084100 1517.500000
234.067800 5636.900000
234.091100 2361.400000
235.075400 17124.800000
236.047000 3152.300000
236.070200 4667.700000
236.083300 8673.400000
236.107500 4198.100000
237.054500 12525.900000
237.078300 4070.200000
237.091000 11633.200000
238.062400 2805.100000
238.086000 4942.300000
238.099000 3101.500000
239.070300 8668.200000
239.094200 5328.500000
239.106600 13007.200000
240.065300 1353.100000
240.078100 16836.900000
240.101800 3303.100000
241.085900 9478.900000
242.081000 4176.000000
243.065600 3648.100000
247.075900 2419.900000
248.084000 1356.400000
249.054600 2580.300000
249.078500 3447.800000
249.090600 3175.300000
250.062500 5916.800000
250.086300 6612.300000
251.070300 21043.700000
251.094000 2488.800000
251.107600 3494.700000
252.078100 19527.600000
252.101900 6382.400000
253.049700 7747.500000
253.073800 5469.800000
253.085100 5329.100000
254.056800 1842.000000
254.081800 3867.600000
255.065500 7966.100000
255.101600 4458.400000
256.060300 2223.700000
256.073200 3431.900000
256.096400 3236.400000
263.070500 3400.400000
263.094700 2245.000000
264.078200 2365.700000
265.049600 2567.000000
265.085900 7437.400000
266.081400 5375.600000
267.065000 3818.300000
267.101400 19927.900000
268.073000 7676.200000
268.096800 5639.500000
269.081000 3446.200000
278.081400 4137.700000
279.065600 2818.200000
280.072700 4327.300000
280.097500 3509.000000
282.112400 3157.300000
283.096000 4340.500000
292.097200 2022.700000
294.075700 2513.500000

>ms2
91.054400 1757.000000
119.049700 1441.100000
128.062100 1586.700000
131.049400 1930.900000
133.052300 7280.400000
137.059700 4951.400000
141.069700 1640.600000
145.065000 1653.700000
147.044000 1485.100000
148.052300 2030.500000
150.054800 3552.800000
152.062100 4386.000000
153.069900 6284.700000
160.075700 1167.300000
161.059700 2286.300000
165.070000 11155.000000
166.077800 3728.100000
167.085700 4688.900000
168.057500 1452.800000
169.065000 5318.400000
171.080100 1666.900000
176.070700 1636.200000
176.083400 1680.800000
177.054900 1120.700000
177.069700 3552.100000
178.077700 6863.100000
179.085600 5765.900000
180.056900 3744.000000
180.081100 1790.200000
181.064900 14092.800000
182.072900 4392.600000
183.080400 3855.500000
184.052100 3216.700000
184.076300 1136.300000
184.088200 1828.100000
185.059700 2098.300000
188.070600 1824.600000
189.069900 3924.400000
190.077300 2699.100000
191.085700 3799.700000
192.057200 2797.100000
193.064900 4533.300000
194.072800 10134.200000
194.096000 1343.500000
195.045000 968.200000
195.080400 13600.100000
196.051400 2137.600000
196.075200 3253.100000
196.088400 8258.000000
197.059600 8322.600000
197.084100 3757.500000
197.095800 2688.400000
198.067800 4637.100000
199.075400 6544.200000
205.065000 8328.500000
206.072700 5400.900000
207.080500 11926.200000
208.051700 3797.700000
208.075800 2289.400000
208.088300 7154.900000
209.059800 10608.400000
209.083800 1524.200000
209.096200 4396.100000
210.067700 4171.800000
210.091600 2045.900000
211.075300 8686.400000
211.100100 1318.600000
212.047100 3807.800000
212.070600 1490.300000
212.083200 7865.600000
213.054000 2703.900000
213.090700 2670.100000
214.086800 1693.800000
219.080800 4125.800000
220.052200 3551.400000
220.076100 2308.700000
221.059700 9197.500000
221.083300 2876.000000
222.067600 6083.000000
222.091000 2664.300000
223.075400 13482.500000
224.070600 2517.700000
224.083300 18624.600000
224.107000 1488.500000
225.054500 8175.900000
225.078300 6400.700000
225.091300 5336.600000
226.062200 3892.800000
226.085300 2917.000000
226.098000 1126.300000
227.070300 11065.700000
227.105800 1164.400000
228.065900 1191.500000
228.079100 1476.900000
233.059700 2887.800000
233.083500 1924.700000
234.067700 4943.000000
234.091800 2608.500000
235.075400 11607.100000
236.047000 4483.000000
236.069900 2863.900000
236.083300 7731.500000
236.107900 1836.600000
237.054300 8738.000000
237.078200 1843.100000
237.091000 6226.100000
238.062200 1291.800000
238.086700 4079.200000
238.099300 1384.600000
239.070400 7368.900000
239.093400 2222.700000
239.106700 7550.500000
240.065200 2179.500000
240.078200 10619.100000
240.101400 2351.800000
241.086200 5422.200000
242.081600 3715.500000
243.065900 1512.400000
247.074600 1633.400000
248.083800 1119.500000
249.054500 3143.600000
249.078500 2481.200000
249.091500 1891.100000
250.062700 4580.300000
250.086200 5549.900000
251.070200 13682.400000
251.094100 1928.600000
251.106700 2196.500000
252.078000 13589.800000
252.101500 2986.500000
253.049300 5708.400000
253.074100 3036.100000
253.086000 1653.900000
254.057500 1440.200000
254.081800 2077.500000
255.064600 3521.200000
255.102000 3146.800000
256.060900 1221.700000
256.073500 1417.100000
256.097800 1691.900000
263.069900 2953.800000
263.094300 1521.400000
264.076900 2692.100000
264.102300 2322.300000
265.049100 2049.700000
265.085600 3760.300000
266.080800 3318.300000
267.065300 4005.400000
267.101200 9264.700000
268.072800 4972.100000
268.096600 3286.000000
269.079900 2318.200000
270.076100 2547.000000
278.081200 2362.100000
279.064300 1565.100000
280.071700 2290.500000
280.096500 2461.100000
282.112400 1652.500000
283.096800 1565.700000
294.076600 1454.900000

>ms2
91.054100 1647.000000
115.054100 1270.200000
119.049100 1504.200000
131.049200 2493.700000
133.052200 6297.500000
137.059800 3313.600000
139.054100 1750.500000
141.070200 2662.600000
148.051800 1286.400000
150.055100 2882.400000
152.062300 6963.700000
153.070000 5923.000000
161.059900 1573.600000
165.070100 13104.400000
166.078000 3667.200000
167.049100 1397.600000
167.085700 5614.500000
168.057400 1595.000000
168.080700 1158.300000
169.064900 6896.000000
170.072400 1594.500000
171.081000 2292.300000
176.062100 2127.100000
177.055200 1307.500000
177.070000 3845.900000
178.077800 6971.800000
179.085700 5161.600000
180.056800 3716.200000
181.064800 12041.000000
182.072700 4192.800000
183.080900 3790.100000
184.052000 3361.300000
184.087800 1940.200000
185.059200 2758.200000
189.070400 2979.800000
190.077900 2317.100000
191.085800 2924.300000
192.056900 2520.200000
193.064900 3877.100000
194.072500 8968.300000
194.096900 1612.400000
195.043900 1312.100000
195.080700 11142.100000
196.051400 1627.200000
196.076000 1716.000000
196.088500 5262.100000
197.059700 10753.200000
197.084100 4024.800000
197.095100 1430.700000
198.067400 4981.100000
199.075500 4419.600000
205.064800 7428.700000
206.072700 5224.400000
207.067300 1708.000000
207.080800 7727.800000
208.052200 3498.600000
208.076300 2152.000000
208.088700 3988.100000
209.059800 10907.500000
209.083900 2061.600000
209.095800 2522.200000
210.067500 3125.300000
210.091400 2169.400000
211.075400 8170.900000
211.098400 1314.300000
212.047100 2990.300000
212.069700 1785.500000
212.083200 6264.200000
213.054800 2340.600000
213.091500 1228.100000
215.070400 1154.500000
219.080200 2534.200000
220.051500 3813.700000
220.075100 1927.200000
221.059800 7214.400000
221.084000 2257.300000
222.067200 5179.700000
222.091500 3822.700000
223.075400 9483.500000
224.070800 3790.200000
224.083400 13362.100000
225.054600 8193.000000
225.078100 3710.200000
225.090700 3133.400000
226.062300 3262.100000
226.086000 1592.800000
227.070400 8235.600000
228.065500 1718.700000
228.101800 1163.200000
229.049900 1350.200000
233.059900 1974.900000
234.067700 2759.800000
234.091200 1798.300000
235.075700 7774.900000
236.047300 2164.200000
236.070800 3469.900000
236.083400 3405.100000
236.107300 1372.700000
237.054700 7902.500000
237.091000 3603.400000
238.062700 1687.600000
238.086600 3275.600000
239.070300 5110.900000
239.094200 1426.600000
239.106700 3846.400000
240.065000 1509.900000
240.078000 5821.700000
240.101200 1481.600000
241.086400 3898.300000
242.080100 2553.700000
249.055600 2941.400000
249.078500 1545.400000
249.091000 1231.400000
250.063300 3320.000000
250.085800 3729.300000
251.070400 9685.200000
251.093900 1679.800000
252.065600 1971.300000
252.078200 6297.400000
252.101900 1782.400000
253.049800 4101.100000
253.073200 2599.900000
253.086900 2003.400000
255.065000 3745.800000
256.061500 1062.400000
256.097500 1892.200000
264.102800 1569.600000
265.086900 1559.400000
267.064900 2400.500000
267.101100 3979.600000
268.072300 2775.700000
268.096500 1769.300000
278.081600 2474.600000
292.097700 1656.500000

>ms2
91.054300 1759.900000
115.054300 2256.400000
128.062000 1309.100000
131.049500 1669.400000
133.052300 4747.800000
137.059700 2464.500000
141.070000 3117.700000
145.064600 1222.400000
147.043700 1380.100000
148.052400 1192.200000
150.054900 1659.900000
152.062200 7669.300000
153.070000 6820.000000
154.078000 1256.600000
156.057200 1536.800000
160.075600 1259.500000
161.059200 1747.900000
165.070000 16660.000000
166.078100 5317.800000
167.049300 1659.100000
167.085500 4700.200000
168.057000 3605.200000
168.081200 2518.300000
169.064800 7333.100000
171.081000 1542.500000
176.062000 2131.900000
176.070100 1333.900000
177.054500 1095.100000
177.069500 5042.300000
178.077700 6844.100000
179.085700 5053.900000
180.056800 3325.000000
180.080700 2159.200000
181.064800 15747.900000
182.072700 3988.700000
183.044200 1872.400000
183.080500 3397.600000
184.052100 4788.700000
184.075300 1212.400000
184.087900 2144.300000
185.060300 1574.000000
188.071300 1412.400000
189.069900 3727.800000
190.077200 2467.600000
191.085900 1561.000000
192.056700 2072.400000
192.079900 1101.600000
193.064700 5003.700000
194.072700 7689.700000
195.080400 11714.500000
196.075600 3788.200000
196.088300 5868.700000
197.059600 10483.600000
197.083500 2863.200000
198.067400 3689.300000
199.075300 3874.300000
205.064700 8709.100000
206.073000 4145.800000
207.067400 1152.100000
207.080400 6272.200000
208.052000 4613.300000
208.075900 1659.900000
208.088300 2984.900000
209.059500 9455.400000
209.083900 2650.100000
209.097000 2240.900000
210.067500 3746.200000
210.091100 1617.500000
211.075100 5522.900000
212.046000 2459.300000
212.070800 1452.100000
212.082900 3844.800000
213.054200 2414.700000
214.086200 1848.400000
219.080900 1367.400000
220.051400 2625.000000
220.075800 3486.000000
221.059700 7344.400000
221.083300 3234.700000
222.067200 4728.200000
222.091400 1764.400000
223.075300 7645.600000
224.070500 2393.500000
224.083100 8570.500000
225.054600 7122.400000
225.078600 2737.300000
225.091500 1432.900000
226.062500 2402.600000
226.086700 2421.600000
227.070100 4986.500000
234.067500 2023.000000
234.091500 2341.400000
235.075300 5567.800000
236.046200 1743.700000
236.069700 2636.800000
236.084000 2091.600000
237.054600 7430.800000
237.090500 2879.000000
238.061300 1165.100000
238.085500 2476.200000
239.069800 3713.100000
239.093200 1247.300000
240.078100 3909.400000
242.082200 2045.000000
249.054500 1625.900000
249.078400 2901.000000
250.063000 1865.000000
250.086100 3283.800000
251.069900 6211.500000
252.065800 2132.200000
252.078700 3933.400000
252.101500 1300.300000
253.049900 2801.100000
266.081600 1698.700000
268.072800 2114.700000
270.074900 1161.300000

>ms2
91.054400 2568.000000
115.054300 1547.100000
128.062100 2013.400000
129.070500 1598.100000
131.048900 1285.500000
133.052100 3821.600000
133.064700 1172.200000
137.059600 1859.900000
139.054000 1809.800000
141.070100 5115.300000
145.065000 1398.800000
147.043900 1361.800000
150.054800 1555.900000
152.062400 10460.900000
153.070000 6859.500000
154.078200 1987.500000
156.057000 2682.300000
160.075100 1654.700000
161.060100 1945.900000
165.070000 16236.600000
166.077900 5108.800000
167.049700 1275.900000
167.085600 4457.700000
168.057300 4088.300000
168.080800 1898.100000
169.065000 9228.800000
171.080200 1600.500000
176.062100 2427.000000
177.070300 5109.600000
178.077800 7661.100000
179.085800 5009.800000
180.056900 4127.000000
180.081300 2809.300000
181.064800 16565.500000
182.072800 4157.000000
183.044100 1522.100000
183.080200 2817.600000
184.051900 3239.600000
184.088600 1890.800000
185.059600 2281.400000
189.070000 3859.300000
190.077500 1797.400000
191.085400 2425.600000
192.057500 3059.300000
192.081100 2002.800000
193.064800 4952.600000
194.072600 7650.100000
195.080600 8620.900000
196.052300 1591.300000
196.076000 4273.100000
196.088200 5831.500000
197.059700 9901.400000
197.083700 4103.900000
198.067700 3776.900000
199.075900 1942.400000
204.080600 1674.200000
205.064600 6513.100000
206.073200 3613.800000
207.068500 1594.400000
207.080500 4439.000000
208.052400 3060.100000
208.075500 2225.200000
208.088500 2948.700000
209.059700 9882.500000
210.068100 3141.200000
210.091000 2203.400000
211.075600 4330.900000
212.046100 2272.600000
212.070800 1745.000000
212.083400 4509.800000
213.054300 2960.200000
219.080800 1469.700000
220.052100 3096.400000
220.075500 2413.500000
221.059600 6496.400000
222.067600 4860.700000
222.091500 2032.600000
223.075600 7271.500000
224.071200 1313.700000
224.083300 6965.500000
225.054500 6450.800000
225.078400 1869.900000
227.069800 2925.400000
234.091100 2241.500000
235.075500 3232.300000
236.047000 3291.100000
236.069600 1667.900000
237.054800 5864.600000
237.078500 1682.200000
238.086200 2237.400000
239.070900 2910.100000
240.065100 1337.100000
240.078400 1540.000000
240.100900 1466.400000
242.080700 1640.400000
249.055600 1086.900000
249.078400 1346.400000
250.085600 2449.800000
251.070200 4206.100000
252.065800 1231.700000
252.077300 2128.600000
253.049500 3165.000000
253.073500 1257.400000
264.100600 1230.500000
265.086200 1590.400000
266.082100 2142.000000

