>compound NA42213417
>parentmass 147.04410000000001
>ionization [M+H]+
>formula C9H6O2
>rt 426.300000
>profile orbitrap
#smiles_iso C1=CC=C2C(=C1)C=CC(=O)O2
#smiles_can C1=CC=C2C(=C1)C=CC(=O)O2
#inchikey ZYGHJZDHTFUPRJ-UHFFFAOYSA-N
#pubchem_id 323
#mb_accession NA002586,NA002587,NA002588,NA002589,NA002590,NA002974,NA002975,NA002976,NA002977,NA002978,NA003349,NA003350,NA003351,NA003352,NA003353,NA003719,NA003720,NA003721,NA003722,NA003723

>ms2
147.044100 76341.100000

>ms2
147.044000 86897.400000

>ms2
147.044100 93959.500000

>ms2
147.044100 155427.200000

>ms2
147.044100 401940.300000

>ms2
91.054000 2334.900000
103.054200 18365.000000
147.044000 497226.500000

>ms2
91.054300 5780.500000
103.054200 38392.500000
147.044000 448875.200000

>ms2
91.054200 11485.900000
103.054200 64032.100000
119.048700 1123.300000
147.044000 408390.400000

>ms2
91.054200 23319.300000
103.054200 90120.200000
147.044100 344984.100000

>ms2
91.054200 39411.000000
103.054200 114110.100000
119.048600 1680.000000
147.044100 279006.900000

>ms2
77.038600 1815.200000
91.054200 82916.900000
103.054200 176051.400000
119.049100 2667.100000
147.044100 297329.400000

>ms2
77.038500 3752.000000
91.054300 110996.600000
103.054200 181568.300000
119.049500 2317.900000
147.044100 225128.600000

>ms2
77.038600 6517.700000
91.054200 137220.400000
103.054200 182065.900000
119.049000 2014.200000
147.044100 158798.300000

>ms2
77.038600 8738.100000
91.054200 161510.800000
103.054200 162303.900000
119.049200 2762.700000
147.044100 108312.400000

>ms2
77.038600 13031.500000
91.054200 182792.600000
103.054200 143459.300000
119.049600 1451.900000
147.044100 76303.000000

>ms2
65.038400 1981.900000
77.038600 15405.400000
91.054200 223930.300000
95.049000 1842.600000
102.046400 2101.600000
103.054200 145555.600000
119.049000 1567.000000
147.044100 57504.300000

>ms2
65.038600 3123.000000
77.038600 17001.700000
91.054200 232440.200000
95.049100 2219.700000
102.046500 1398.800000
103.054200 115848.400000
147.044100 38016.700000

>ms2
65.038600 6211.700000
77.038600 18746.400000
91.054200 227162.100000
95.048900 2541.700000
102.046400 1806.400000
103.054200 88637.300000
119.048800 1085.500000
147.044000 22505.200000

>ms2
65.038500 9528.700000
77.038600 19405.300000
91.054200 222082.400000
95.049000 2491.400000
102.046300 2084.600000
103.054200 69460.100000
147.044100 13485.200000

>ms2
65.038500 11901.200000
77.038600 19326.900000
91.054200 206840.900000
95.049100 3035.900000
102.046400 1923.000000
103.054200 52706.300000
147.044100 8165.800000

