>compound NA43649268
>parentmass 352.17550000000006
>ionization [M+H]+
>formula C18H25NO6
>rt 281.865000
>profile orbitrap
#smiles_iso CC1C(C(C(=O)OCC2=CC[N+]3(C2C(CC3)OC(=O)C1=C)[O-])(C)O)C
#smiles_can CC1C(C(C(=O)OCC2=CC[N+]3(C2C(CC3)OC(=O)C1=C)[O-])(C)O)C
#inchikey GDDNFNQRHNCJAZ-UHFFFAOYSA-N
#pubchem_id 14313723
#mb_accession NA002369,NA002370,NA002371,NA002372,NA002373,NA002764,NA002765,NA002766,NA002767,NA002768,NA003144,NA003145,NA003146,NA003147,NA003148,NA003509,NA003510,NA003511,NA003512,NA003513

>ms2peaks
352.175700 117667.700000

>ms2peaks
352.175500 457354.100000

>ms2peaks
352.175600 478180.800000

>ms2peaks
352.175600 499344.100000

>ms2peaks
352.175500 474407.000000

>ms2peaks
95.073100 6367.600000
106.065000 1868.300000
118.065200 10164.200000
119.073000 5748.600000
120.081000 4551.400000
121.088600 11580.400000
122.096500 1247.400000
136.075800 4273.000000
138.091500 5702.600000
153.091200 1290.000000
154.085900 3024.200000
220.133300 5142.800000
246.148800 1329.600000
248.165000 3685.800000
324.180900 4031.200000
352.175600 603257.200000

>ms2peaks
81.069800 1899.500000
93.057500 1346.200000
94.065200 4986.500000
95.073000 20868.600000
106.065500 4200.000000
108.080900 2037.500000
112.075600 1322.700000
118.065300 28335.400000
119.073100 18578.700000
120.080900 14371.700000
121.088700 23840.600000
122.096600 2292.600000
136.075800 10925.600000
137.083800 2100.200000
138.091500 13958.100000
153.091100 3203.900000
154.086500 7939.000000
218.117900 1396.500000
220.133500 11633.600000
246.148800 1995.900000
248.165000 5092.200000
324.181000 11968.100000
352.175800 501746.600000

>ms2peaks
79.054300 1980.700000
80.049400 1318.700000
81.069900 5538.800000
93.057400 5271.700000
94.065100 10497.900000
95.073000 37632.100000
106.065100 10856.200000
107.085900 1809.900000
108.080700 5327.200000
109.065000 1790.800000
110.072600 2354.900000
112.075800 2594.100000
118.065200 45455.300000
119.073000 34719.500000
120.080800 29642.400000
121.088600 33509.900000
122.096400 6850.500000
125.096500 1272.500000
136.075700 23593.500000
137.083600 4039.000000
138.091400 26221.500000
152.107100 2697.100000
153.091100 5693.400000
154.086300 17276.800000
192.138100 1223.700000
202.123500 1712.200000
211.133000 1990.400000
218.118200 2131.600000
218.153700 1741.200000
220.133200 16424.800000
246.149200 2444.800000
248.164300 9135.800000
290.175800 2049.100000
324.180700 16368.800000
352.175600 339926.100000

>ms2peaks
67.054300 1234.000000
79.054200 3132.100000
80.049500 3091.300000
81.070000 13272.300000
82.065500 1349.400000
84.044400 1995.800000
91.054200 3100.500000
93.057400 11707.500000
94.065200 16869.400000
95.073000 52462.300000
106.065100 15889.700000
107.085500 1519.000000
108.080800 5922.300000
109.064900 3370.300000
109.088700 1986.100000
109.101500 1212.100000
110.072600 1766.900000
111.044200 1493.100000
111.067400 1364.000000
112.075600 3785.200000
118.065200 60136.800000
119.073000 50902.900000
120.080800 53606.800000
121.088600 35921.600000
122.096400 7423.800000
136.075700 37230.000000
137.083600 6477.000000
138.091400 38124.600000
141.091100 1310.500000
152.106900 4692.600000
153.091000 7603.800000
154.086400 22142.300000
202.122700 4242.700000
211.132800 3454.300000
218.116900 3497.000000
220.133300 16274.500000
246.148800 2779.800000
248.164500 6588.200000
290.175300 3213.800000
324.180800 20504.600000
352.175600 193246.600000

>ms2peaks
67.054300 1537.900000
79.054300 4277.200000
80.049500 4597.200000
81.069900 13798.700000
82.065300 1799.700000
84.044400 2587.800000
91.054600 1462.400000
93.057300 17855.500000
94.065100 27476.500000
95.073000 52393.700000
106.065200 18102.000000
107.085600 3380.900000
108.080800 10465.400000
109.064900 3382.300000
109.088600 1871.500000
109.101200 2516.700000
111.044000 2895.600000
111.067700 1949.400000
112.075700 5250.100000
118.065200 60126.000000
119.073000 51619.700000
120.080800 68319.900000
121.088600 27957.900000
122.096400 7371.300000
125.096200 2971.600000
136.075700 45062.800000
137.083600 7877.100000
138.091400 43847.500000
141.090500 1814.700000
152.107100 4308.600000
153.091100 9083.400000
154.086400 21051.200000
192.138200 1439.700000
202.122800 2822.700000
211.133100 4776.000000
218.117800 3449.900000
218.154300 1376.500000
220.133300 13394.800000
246.148500 2671.900000
248.164900 5096.500000
290.175300 2338.700000
324.180900 15962.700000
352.175600 87977.600000

>ms2peaks
55.054200 1169.100000
67.054200 2763.300000
68.049400 1295.300000
79.054300 9557.700000
80.049500 6659.000000
81.057300 1483.700000
81.069900 23106.700000
82.065200 2588.600000
83.049300 3488.700000
84.044300 2734.300000
91.054200 4130.800000
93.057300 34983.900000
94.065100 57185.300000
95.073000 67729.500000
98.060100 3776.800000
106.065200 26692.000000
107.073000 2057.700000
107.085700 5939.600000
108.080800 14728.700000
109.064900 5396.500000
109.088500 2089.000000
109.101300 2374.400000
110.060000 2303.400000
111.044000 3679.400000
111.068200 2696.600000
112.075800 8465.700000
118.065200 76034.800000
119.073000 69760.000000
120.080800 107122.800000
121.088600 28736.100000
122.096400 10135.100000
124.075700 3298.100000
125.096100 3495.000000
126.091500 1765.900000
134.097000 1619.600000
135.080300 1507.900000
136.075700 70272.900000
137.060200 1640.600000
137.083500 9282.800000
138.091400 54339.000000
141.090800 2683.600000
148.111900 1242.400000
152.107100 7455.300000
153.091000 12717.700000
154.086300 23131.200000
192.139000 1594.600000
202.122600 5122.600000
211.132800 7476.400000
218.117300 4817.000000
220.133300 11869.700000
236.128600 2512.500000
246.149200 2730.100000
248.164600 4489.000000
290.174800 2217.800000
324.180900 10243.900000
352.175600 43385.500000

>ms2peaks
55.054200 1237.000000
67.054200 3300.300000
68.049500 2455.100000
79.054200 10961.800000
80.049500 6579.900000
81.057500 2217.600000
81.069900 27054.100000
82.065100 3293.500000
83.049100 4496.900000
84.044300 2920.400000
91.054300 4548.100000
92.049600 1596.700000
93.057300 47148.600000
94.065100 75832.800000
95.073000 57140.600000
96.080700 1562.600000
98.060100 4198.600000
106.065200 27144.700000
107.072900 1653.700000
107.085500 7221.200000
108.080800 18346.400000
109.064900 4858.000000
109.088400 3483.800000
109.101200 2933.600000
110.060100 1896.400000
111.044100 4961.000000
111.068000 3654.900000
112.075700 7315.300000
117.057600 1154.300000
118.065200 72997.500000
119.073000 64831.000000
120.080800 109081.300000
121.088600 15230.200000
122.096400 10172.200000
124.075800 3098.400000
125.096300 3470.200000
126.091000 1460.200000
132.081000 1546.300000
134.096000 2083.000000
135.080400 1226.300000
136.075700 75315.200000
137.059600 1925.200000
137.083500 6383.700000
138.091300 47286.500000
141.090900 2700.500000
146.095900 1177.300000
148.111900 2040.800000
152.106800 6762.300000
153.091000 8706.400000
154.086200 16758.300000
167.106600 1135.700000
174.090600 1869.600000
202.122300 3388.300000
211.132800 6825.200000
218.117300 3998.900000
220.133400 5429.900000
236.128400 1933.400000
246.149400 1545.500000
248.164600 2075.600000
290.174900 2199.400000
324.180300 6528.500000
352.175400 15417.900000

>ms2peaks
55.054100 1592.000000
67.054200 3180.400000
68.049200 1914.100000
79.054300 12827.500000
80.049500 10259.700000
81.057200 2032.600000
81.069900 27196.900000
82.065300 3192.900000
83.049100 4277.700000
84.044400 3990.400000
91.054200 5738.700000
92.049800 1677.700000
93.057300 48854.600000
94.065100 85763.200000
95.073000 48121.500000
96.044800 1149.500000
96.081000 2154.700000
98.060100 5797.500000
106.065200 29106.500000
107.073200 1604.100000
107.085600 4817.200000
108.080800 17884.500000
109.064700 4343.300000
109.088500 2629.600000
109.101300 1315.400000
110.060100 2118.600000
111.044100 4770.900000
111.067900 4800.200000
112.075700 5364.100000
117.057400 1485.200000
118.065100 71336.100000
119.072900 58246.200000
120.080800 110899.200000
121.088600 10730.600000
122.096400 8283.800000
124.075700 3343.600000
125.096200 2653.100000
126.091500 1452.700000
132.080900 2036.600000
134.096500 2421.600000
136.075700 69739.400000
137.083500 4305.700000
138.091300 31289.600000
141.091100 2442.400000
146.096200 1214.200000
152.107100 5447.600000
153.091000 6842.500000
154.086200 9678.400000
167.106000 1434.000000
174.091800 1637.200000
192.137900 1754.900000
202.122400 2347.300000
211.132800 5959.400000
218.117100 2531.700000
220.133100 3055.900000
324.180800 2229.700000
352.175900 3015.300000

>ms2peaks
67.054200 4819.100000
68.049500 1786.000000
79.054300 13748.000000
80.049600 13984.800000
81.057500 2889.500000
81.069900 29361.000000
82.065100 2378.500000
83.049200 4702.900000
84.044400 3861.400000
91.054200 5804.200000
92.049700 1559.800000
93.057400 53260.800000
94.065200 104619.800000
95.073000 35417.000000
96.044400 1850.400000
96.080900 1619.700000
98.060300 3268.100000
106.065200 28462.000000
107.073200 1630.300000
107.085600 7769.200000
108.080800 21221.500000
109.064800 3272.200000
109.088600 3948.900000
109.101300 1536.000000
110.059800 2266.100000
111.044100 6118.800000
111.067900 3862.900000
112.075700 3781.400000
117.057400 2675.600000
118.065200 67824.900000
119.073000 52593.500000
120.080800 105832.700000
121.088700 6010.600000
122.096500 6308.000000
124.075700 3397.300000
125.096100 2187.200000
132.080400 1505.600000
134.096400 1939.300000
135.080700 1342.400000
136.075800 68618.700000
137.059900 1237.500000
137.083700 3267.900000
138.091400 24225.500000
141.090900 1764.500000
146.096400 2751.300000
148.112200 2000.200000
152.106900 2646.200000
153.091100 5048.700000
154.086200 6620.600000
174.091500 1442.600000
211.133100 3384.200000
218.117900 1960.100000

>ms2peaks
67.054300 3835.600000
68.049400 1706.600000
79.054300 11434.000000
80.049500 15553.200000
81.057400 2266.800000
81.069900 23241.200000
82.065300 1548.300000
83.049200 4465.200000
84.044600 3350.700000
91.054300 7029.600000
92.049700 2240.200000
93.057400 55013.900000
94.065200 97361.600000
95.073000 27485.400000
96.081000 2961.300000
98.060100 3724.800000
106.065200 25979.800000
107.085600 4986.600000
108.080800 18671.800000
109.064800 4251.800000
109.088600 2126.800000
110.060100 1364.700000
111.044100 5275.400000
111.068000 2617.600000
112.075700 2549.300000
117.057500 3372.500000
118.065200 61836.700000
119.073000 43507.500000
120.080900 96934.500000
121.088600 3829.700000
122.096500 4821.600000
124.076100 2662.400000
125.096000 1615.100000
134.096100 2028.100000
136.075800 53745.600000
137.059700 1570.900000
137.083300 2135.000000
138.091500 16045.400000
146.096300 2751.200000
148.112200 1645.300000
153.091100 2721.700000
154.086400 3679.600000
174.091300 1710.300000
211.132800 2090.100000

>ms2peaks
66.046400 1542.300000
67.041600 2008.900000
67.054300 5558.600000
68.049600 1388.200000
77.038700 1227.300000
79.054300 14569.800000
80.049500 21587.400000
81.057300 2650.800000
81.069900 23201.300000
82.065200 2548.700000
83.049200 3683.100000
84.044400 3884.900000
91.054200 8483.900000
92.049600 3672.400000
93.057300 57907.500000
94.065200 118828.400000
95.073000 21418.000000
96.044600 1495.100000
96.080900 3709.400000
98.060100 2694.900000
105.069900 2034.100000
106.065200 24553.500000
107.073100 1534.700000
107.085400 4650.000000
108.044400 1652.500000
108.080800 17223.400000
109.064900 2688.900000
109.088500 1437.000000
109.101500 1871.600000
110.059800 1935.700000
111.044200 4046.800000
111.067500 1354.100000
112.075300 1993.100000
117.057400 3558.200000
118.065200 65309.900000
119.073000 32974.100000
120.080800 99300.300000
122.096500 3848.100000
124.075900 2751.200000
134.096700 1805.700000
136.075700 54250.800000
138.091300 11618.100000
146.096400 1719.000000
148.111800 2634.400000
154.086400 2514.200000
174.091700 1590.200000

>ms2peaks
65.038800 1248.200000
66.046300 2059.600000
67.041700 2134.300000
67.054200 6339.400000
68.049400 2364.000000
79.054300 15698.900000
80.049500 23688.600000
81.057300 2600.700000
81.069900 22730.500000
82.065100 2882.100000
83.049300 3626.100000
84.044400 2077.500000
91.054300 9780.000000
92.049500 3112.900000
93.057400 52684.800000
94.065200 115059.600000
95.072900 15509.300000
96.080800 3262.700000
98.059800 1873.500000
106.065200 23625.300000
107.072800 2016.100000
107.085600 3599.700000
108.080800 19381.700000
109.064300 1460.100000
109.088900 1482.100000
109.101300 1122.200000
110.060300 3138.900000
111.044000 4314.400000
111.068000 1053.300000
112.075700 1518.700000
117.057300 5526.200000
118.065200 60095.700000
119.073000 26153.300000
120.080800 90052.600000
122.096500 2902.500000
124.075400 1752.900000
136.075700 43326.400000
138.091400 7702.800000
148.112700 840.400000
174.091200 1264.800000

>ms2peaks
65.038500 1341.800000
66.046500 2006.200000
67.041800 2625.400000
67.054100 5964.400000
77.038500 1681.600000
79.054300 13487.000000
80.049500 23272.900000
81.057300 2524.000000
81.069900 20698.000000
82.064900 1425.400000
83.049200 2384.600000
84.044600 2494.900000
91.054300 12119.900000
92.049500 4831.800000
93.057300 46760.900000
94.065200 106544.600000
95.073000 10492.900000
96.080800 2196.900000
106.065200 20604.200000
107.073200 1460.800000
107.085500 3982.900000
108.044100 2255.100000
108.080800 18737.900000
109.064900 1708.300000
110.059900 3289.500000
111.044100 2163.200000
111.067900 1462.100000
117.057400 5979.100000
118.065200 52704.000000
119.073000 18269.800000
120.080800 67255.500000
122.096400 2568.400000
124.075100 1108.000000
132.080300 1575.400000
136.075800 33238.200000
138.091300 3535.700000
146.096200 1688.300000
154.086600 1623.500000

>ms2peaks
66.046300 2570.700000
67.041600 3444.300000
67.054200 4815.200000
68.049500 2079.200000
77.038500 2151.200000
79.054200 12218.900000
80.049500 25699.300000
81.057400 2944.500000
81.069900 14406.300000
82.065000 1702.100000
83.049300 1791.100000
91.054200 10858.400000
92.049400 7688.100000
93.057300 39179.400000
94.065100 98600.900000
95.072900 7785.100000
96.044800 1173.600000
96.080700 3202.900000
106.065100 17718.900000
107.072800 1783.700000
107.085600 1602.800000
108.080700 14989.800000
109.064300 1279.100000
110.060000 3338.300000
111.044000 1980.400000
111.067700 1685.700000
117.057300 7827.000000
118.065100 53459.300000
119.072900 13768.100000
120.080700 62683.100000
122.096400 1391.400000
134.096500 1259.700000
136.075600 25142.800000
138.091000 1639.500000

>ms2peaks
65.038500 1959.000000
66.046400 3905.100000
67.041600 3006.100000
67.054200 6026.800000
68.049400 1454.700000
77.038700 1561.200000
79.054300 10673.000000
80.049500 23929.700000
81.057200 1634.900000
81.069900 11886.500000
82.065100 1896.900000
83.049300 1637.000000
84.044700 1201.000000
91.054200 11367.400000
92.049500 9031.200000
93.057300 39615.100000
94.065100 91941.100000
95.073000 5623.900000
96.044600 1332.400000
96.080700 2636.000000
105.070000 1270.500000
106.065100 14704.000000
107.072600 1753.000000
108.044700 1793.900000
108.080800 13008.700000
110.060200 3857.100000
111.043900 2105.000000
117.057400 8838.000000
118.065200 47270.300000
119.073000 8156.900000
120.080800 55581.000000
132.080200 1095.400000
134.097000 1172.800000
136.075700 19467.500000
138.091500 1509.100000

