>compound NA44271005
>parentmass 353.1859999999999
>ionization [M+H]+
>formula C21H24N2O3
>rt 453.390000
>profile orbitrap
#smiles_iso C[C@H]1[C@H]2CN3CCC4=C([C@@H]3C[C@@H]2C(=CO1)C(=O)OC)NC5=CC=CC=C45
#smiles_can CC1C2CN3CCC4=C(C3CC2C(=CO1)C(=O)OC)NC5=CC=CC=C45
#inchikey GRTOGORTSDXSFK-XJTZBENFSA-N
#pubchem_id 441975
#mb_accession NA002546,NA002547,NA002548,NA002549,NA002550,NA002939,NA002940,NA002941,NA002942,NA002943,NA003314,NA003315,NA003316,NA003317,NA003318,NA003684,NA003685,NA003686,NA003687,NA003688

>ms2
353.185500 382502.200000

>ms2
144.080500 8106.400000
353.185600 1229845.200000

>ms2
144.080600 47456.100000
199.122200 1613.700000
210.112000 9584.600000
321.159100 3383.200000
353.185500 1260943.000000

>ms2
144.080800 205097.200000
158.096600 3100.100000
170.096200 2055.800000
178.086400 2639.600000
185.107300 2564.200000
196.096500 3169.600000
199.123000 7037.600000
208.097200 2472.800000
210.112400 45234.500000
222.112500 10792.100000
251.154400 1855.100000
278.118100 1742.400000
284.128300 3858.000000
310.143900 2718.000000
321.159800 14048.300000
336.159000 2485.700000
353.185900 1125580.100000

>ms2
144.080700 484179.600000
158.096300 8427.900000
170.096200 6879.000000
178.086200 9987.700000
185.107200 5028.300000
196.096600 7067.700000
199.122800 12368.100000
208.096600 2874.800000
210.112300 96046.100000
222.112300 23203.400000
251.153900 2406.000000
278.117100 4279.300000
284.127900 13240.500000
310.143800 5505.100000
321.159400 32871.800000
324.159200 2805.500000
336.159300 4598.100000
353.185700 843468.800000

>ms2
68.049400 2694.800000
108.080900 2615.500000
124.039200 2100.300000
130.065000 6368.200000
144.080600 1156971.200000
156.080600 8307.000000
158.096300 17747.600000
164.070600 2569.800000
167.070200 5772.400000
170.096200 20472.900000
172.111300 1442.400000
178.086100 39217.300000
181.085300 2578.300000
182.096200 6669.200000
185.107200 8947.200000
190.085700 1827.800000
196.096500 13832.000000
199.122800 23420.300000
208.096500 7949.800000
210.112200 199639.000000
222.112200 48931.700000
224.107600 1810.700000
225.138700 4372.200000
234.127400 4139.400000
240.102100 3398.700000
250.121800 2546.600000
251.154100 8466.400000
252.101700 13093.400000
253.168900 1555.800000
254.117500 7080.500000
264.138800 1931.900000
266.116800 1802.700000
278.117300 16110.200000
284.128000 31675.700000
292.133200 4958.400000
293.164200 5566.800000
303.150000 1442.900000
304.132700 2391.400000
310.143700 6914.900000
321.159500 54759.600000
324.159500 7538.900000
336.159300 7178.800000
353.185600 644033.600000

>ms2
68.049400 4388.700000
81.069800 1562.600000
84.080700 2444.100000
108.080600 5564.600000
109.064900 1783.600000
124.039100 5218.300000
130.065000 6847.200000
144.080600 1365234.800000
149.059500 1489.900000
150.090700 1642.800000
156.080500 12992.600000
158.096300 22654.800000
162.091400 1734.000000
164.070300 5600.500000
167.070100 7160.100000
168.101800 1839.400000
170.096200 37411.000000
172.111800 1681.400000
178.086100 69872.800000
181.085300 2506.100000
182.096300 12549.300000
185.107200 9830.300000
194.117000 1397.700000
196.096700 14241.900000
199.122800 22277.400000
208.096700 6965.300000
208.112300 2551.100000
210.112200 182978.100000
222.112200 46525.000000
222.127400 3205.800000
224.106900 3002.600000
225.139300 3788.800000
234.127500 3624.100000
238.087100 1636.700000
250.085600 1504.100000
250.122600 4664.200000
251.154200 11576.000000
252.101700 23855.100000
253.169900 1703.700000
254.117500 6795.200000
262.121600 1722.200000
264.138500 2976.500000
266.116700 1419.800000
276.138900 2011.500000
277.132300 1755.100000
278.117200 18625.100000
284.127900 33723.800000
292.132600 7595.000000
293.164700 7033.000000
303.149200 3651.200000
304.133500 2537.500000
310.144300 2310.900000
321.159600 45281.600000
324.159000 6465.400000
335.175000 3357.600000
336.158500 6260.600000
353.185700 280243.300000

>ms2
68.049500 3310.200000
81.070000 2037.800000
84.080900 2104.500000
108.080700 7944.000000
109.064600 2116.900000
117.069800 2028.300000
124.039300 7300.600000
130.065100 9782.700000
134.096500 1908.700000
143.073100 2473.900000
144.080700 1401461.800000
149.059900 1453.000000
150.091300 2303.000000
153.054300 1705.600000
156.080600 20437.200000
158.096400 24044.100000
162.091200 3416.700000
164.070700 6150.000000
167.070200 7722.600000
170.096400 49804.900000
172.112200 1466.300000
178.086200 89021.100000
182.096400 16457.900000
185.107200 6212.000000
190.086200 1916.300000
194.096900 1954.500000
194.117600 1819.000000
196.096700 9662.800000
199.122900 15227.700000
208.075600 1473.600000
208.096800 6434.000000
208.112400 2151.900000
210.112400 127728.500000
222.112400 33801.100000
222.127500 4822.400000
224.106900 5445.100000
225.139000 3493.300000
232.111800 1626.800000
234.091500 1580.400000
234.127600 4778.200000
236.143900 2710.300000
238.085500 1962.900000
240.101700 1984.000000
248.107000 1962.400000
250.086200 2022.600000
250.122700 6405.600000
251.154100 9532.000000
252.101800 37713.900000
254.117400 4874.300000
260.107100 3159.700000
262.122900 2068.100000
264.138700 3768.100000
274.123600 1562.700000
276.138900 2508.900000
277.132700 1584.800000
278.117500 19184.300000
284.128300 26613.000000
292.133400 7826.400000
293.164900 5663.800000
303.149600 2883.900000
304.133800 4263.800000
310.142800 2250.400000
321.159800 28074.000000
324.159100 3946.800000
336.159000 2315.900000
353.186000 92421.100000

>ms2
68.049300 3396.000000
81.069800 5238.100000
84.080700 4569.200000
95.049100 2086.500000
108.080700 10828.100000
109.028100 1387.100000
109.064800 3552.900000
117.069800 5037.700000
124.039200 10528.200000
130.065100 11154.700000
132.080600 1975.700000
133.064300 1700.200000
134.096600 2081.800000
143.072900 4802.300000
144.080600 1312852.400000
149.059600 1351.300000
150.091200 2346.700000
156.080600 22435.500000
157.087900 1632.700000
158.096300 29146.800000
162.091200 4198.900000
164.070600 6271.600000
167.069900 6862.900000
168.080400 3556.700000
168.101500 1681.700000
170.096300 53912.200000
172.112500 1594.700000
178.086100 83457.800000
180.080800 2877.200000
182.096200 25294.200000
185.107300 3279.500000
190.085900 1786.700000
194.096800 1993.100000
194.117500 2187.900000
196.096600 4891.800000
196.111500 2912.200000
199.122600 9373.600000
206.096600 2886.500000
208.075700 1609.900000
208.096800 5108.500000
208.112000 3187.900000
210.112300 67109.100000
222.091000 1887.300000
222.112400 20447.000000
222.127900 6830.700000
224.106600 5828.000000
225.138300 2204.400000
232.112100 1688.600000
234.091400 3698.200000
234.127700 5254.700000
236.143300 3245.100000
238.086600 1352.700000
240.101900 1833.900000
246.127200 1351.700000
248.107200 2196.900000
250.086200 1938.300000
250.122200 9061.100000
251.153700 7233.300000
252.101700 36814.800000
253.170200 2266.000000
254.117100 3316.200000
260.106800 3461.800000
262.122800 2186.000000
264.138100 6042.100000
266.116800 1379.000000
274.122300 2536.100000
276.137500 2450.600000
278.117400 17405.900000
284.128000 16158.600000
292.132700 6016.900000
293.164100 2824.400000
303.148600 1915.600000
321.160100 13120.000000
324.160100 1771.800000
353.185600 25637.400000

>ms2
68.049400 2822.000000
81.069800 5647.900000
84.080800 3262.000000
95.049200 2722.100000
108.080800 12763.000000
109.028100 1891.400000
109.064900 3228.300000
117.069900 9333.500000
124.039300 12878.300000
130.065100 13259.800000
132.080600 2265.700000
133.064500 1670.300000
134.096200 1632.600000
136.075800 2144.500000
143.073000 7132.000000
144.080800 1191719.600000
149.059500 1774.300000
150.091200 2884.400000
156.080800 27403.200000
157.088600 2860.900000
158.096500 24347.000000
162.091600 4236.400000
164.070600 5390.500000
167.070100 6659.200000
168.080700 5627.500000
170.096500 58904.200000
172.112200 1563.400000
178.086300 69295.200000
180.081300 3317.100000
182.096500 27339.800000
185.107200 2095.000000
190.085400 1217.800000
194.096500 3649.500000
194.118100 1564.300000
196.096700 1945.200000
196.112300 3640.500000
198.127100 1416.200000
199.122800 5046.200000
206.096500 4833.300000
208.097300 3454.700000
208.112000 4627.200000
210.112500 30776.100000
218.097200 1689.700000
222.091600 2855.800000
222.112500 11323.800000
222.127700 6572.600000
224.106900 7275.900000
232.112300 2914.500000
234.091300 3816.000000
234.127600 5649.100000
236.142800 3539.400000
238.086700 2278.800000
246.128100 2302.300000
250.086600 2207.900000
250.122800 8332.100000
251.154600 4391.400000
252.102000 31197.700000
254.116400 3070.100000
260.107500 3397.600000
262.122100 1610.300000
264.138600 3292.000000
274.123900 1514.200000
276.137900 1999.500000
278.117800 10001.900000
284.128300 6825.300000
292.133400 4609.800000
293.164700 1284.100000
303.149800 1481.400000
321.159300 6327.300000
353.186000 6176.800000

>ms2
68.049400 2932.900000
79.054300 2405.100000
81.033600 1382.500000
81.069900 8274.200000
82.064900 1616.800000
83.012600 1682.100000
84.080800 4010.000000
91.054100 1937.200000
95.049200 4075.500000
105.069600 2412.000000
107.049000 3543.400000
108.080700 18757.200000
109.028100 4140.000000
109.064800 4074.700000
115.054500 1823.500000
117.069800 27963.500000
118.064900 1637.800000
120.080600 1966.900000
121.065000 2081.100000
124.039200 20959.200000
129.069900 2493.200000
130.065000 17171.500000
132.080700 2790.200000
133.064800 2986.000000
134.095900 3406.300000
135.044000 1815.800000
136.075600 2442.300000
143.073000 16240.600000
143.085500 2035.800000
144.080700 1331070.900000
149.059500 2916.700000
150.091100 2964.400000
155.060300 7272.900000
155.072800 3562.000000
156.080700 34742.400000
157.088300 6912.300000
158.060000 1782.600000
158.096400 22177.300000
162.091300 4314.300000
164.070600 4964.400000
168.080700 8099.100000
169.088700 4599.000000
170.096300 76110.500000
171.090900 1376.800000
178.086200 64493.000000
180.080800 5266.700000
181.089000 2462.800000
182.096300 36987.300000
184.099400 1862.200000
190.086200 2690.200000
194.096100 5804.000000
194.116900 2178.800000
196.111900 6047.600000
199.122200 2983.800000
206.096400 6608.200000
208.074900 2745.800000
208.096600 3669.700000
208.111900 4848.100000
210.091600 4042.200000
210.112300 15266.400000
210.127300 1671.000000
217.088200 2036.700000
218.096000 2952.700000
219.104600 1560.800000
220.112000 3387.800000
222.091300 3738.800000
222.112100 6863.200000
222.127800 7486.200000
224.106800 9504.400000
232.111900 3856.200000
234.091600 4569.300000
234.127500 5238.300000
235.098600 1474.000000
236.143200 2119.900000
238.085900 1568.100000
246.128100 1904.900000
248.107200 1851.400000
250.085800 1500.500000
250.122500 8766.200000
251.154700 3976.000000
252.101800 22522.300000
260.106700 2796.700000
264.138100 3138.500000
278.117200 6552.300000
292.133400 3554.700000

>ms2
68.049300 2739.900000
79.054300 5238.000000
81.069900 10415.300000
84.080700 4424.600000
91.054200 4549.900000
93.070100 2202.300000
95.049200 4749.900000
105.069800 2721.700000
106.065000 1709.900000
107.049100 4036.500000
108.080700 20020.900000
109.028300 5782.000000
109.064800 5335.500000
115.054000 4754.700000
117.057200 3488.800000
117.069800 62364.700000
118.065200 4082.900000
118.073200 3642.400000
120.080800 2120.900000
121.064700 3413.600000
122.096400 2049.600000
124.039300 29875.400000
128.049400 1922.500000
128.062000 2585.900000
129.069800 5448.200000
130.065100 19896.500000
131.072700 2342.000000
132.080500 2690.100000
133.064600 2705.500000
134.096500 4436.500000
135.044300 2660.000000
136.075700 2356.200000
143.073000 32151.400000
143.085800 4404.700000
144.080700 1469719.100000
149.059400 3107.300000
150.091200 4206.500000
154.065300 2118.100000
155.060400 18215.500000
155.072900 9012.100000
156.080700 40061.700000
157.088100 10704.600000
158.060200 2480.700000
158.096400 28552.300000
162.091300 4646.400000
164.070300 5897.700000
168.080700 16419.100000
169.088500 8784.500000
170.096400 85735.100000
171.091300 2039.100000
178.086200 49456.700000
180.080600 10404.400000
181.088800 5188.300000
182.096400 47332.900000
184.099700 2412.000000
190.086000 1499.800000
192.080400 2702.900000
194.096400 9610.500000
194.117400 1728.800000
196.112100 7628.600000
199.122500 1797.200000
204.081000 3439.800000
205.088800 2734.800000
206.096400 9884.900000
207.104700 2875.800000
208.075900 2634.600000
208.096600 2882.300000
208.112000 7289.200000
209.084000 1673.300000
210.091500 5788.600000
210.112300 8369.200000
217.088200 3508.300000
218.096800 3408.200000
219.104800 2309.800000
220.075700 2141.100000
220.112000 4521.300000
221.083700 1913.600000
222.091300 3855.400000
222.112100 3642.100000
222.127500 7563.500000
224.106600 9023.800000
231.104800 2342.100000
232.112100 5234.200000
233.083900 1800.100000
234.091400 5386.800000
234.127800 3527.500000
236.143600 3044.600000
238.086900 2128.900000
246.128700 2128.300000
248.107000 3036.700000
250.122800 5989.200000
251.155000 1900.600000
252.101600 13985.900000
260.107600 2914.400000
264.137800 3470.700000
278.118000 4388.000000
292.133900 1566.000000

>ms2
68.049500 1583.400000
77.038600 1640.900000
79.054200 6412.900000
81.069900 10128.500000
82.065200 1978.900000
83.012800 3202.500000
84.080700 2832.300000
91.054200 8128.700000
95.049200 6483.800000
103.054400 3026.700000
105.069800 4301.100000
107.049200 4093.300000
108.080800 21352.900000
109.028400 7043.800000
109.064800 6921.100000
115.054200 9337.700000
116.049200 1723.000000
117.057200 6297.400000
117.069800 100088.400000
118.065000 3604.000000
118.073300 6032.400000
119.049400 1611.200000
120.080800 3702.300000
121.064700 3286.400000
124.039300 32863.400000
127.054300 1949.200000
128.049500 4067.800000
128.062100 4793.500000
129.069800 10380.300000
130.065100 27243.200000
131.072900 3833.900000
132.080700 3383.000000
133.064900 4042.700000
134.096500 4373.200000
135.044400 1818.600000
136.075500 2939.400000
142.065200 2145.300000
143.073100 57589.600000
143.085600 6277.100000
144.080700 1452748.100000
146.059900 1921.100000
146.095700 1976.600000
149.059500 2868.900000
150.091000 3031.500000
154.065100 4381.000000
155.060400 30913.300000
155.072800 13431.700000
156.080700 40403.200000
157.088500 15309.500000
158.060000 2443.800000
158.096400 24158.600000
162.091000 5448.500000
164.070700 4250.700000
168.080700 21902.400000
169.088700 9156.600000
170.096400 81672.200000
178.086300 34187.400000
180.080800 11883.900000
181.088700 7941.900000
182.096400 47066.300000
184.076200 2116.600000
184.099300 2439.400000
191.072300 1982.200000
192.080900 3814.500000
193.089000 2402.700000
194.096400 10843.100000
196.111700 6000.100000
204.080500 3723.800000
205.088900 4620.800000
206.096400 11279.300000
207.104500 5131.600000
208.075500 3285.200000
208.112000 6183.900000
210.091000 4347.500000
210.112100 2831.000000
217.088800 5852.500000
218.096900 4336.800000
219.104800 3248.200000
220.075500 2403.100000
220.112000 4481.000000
222.092300 2950.900000
222.127600 7932.700000
224.107200 7257.100000
230.096500 2220.400000
231.104800 3674.500000
232.112500 5336.700000
233.084300 2311.000000
234.091300 6383.700000
234.127900 2934.000000
236.107900 1839.600000
236.144200 2471.800000
246.127700 1970.200000
248.107800 2215.200000
250.122000 4533.300000
252.101700 7798.100000
260.107200 3449.200000
264.138300 2264.200000
278.116400 2804.200000

>ms2
68.049200 1459.200000
77.038600 1847.900000
79.054200 8454.100000
81.033300 1589.200000
81.069800 10647.200000
82.065200 2094.000000
83.012600 4140.700000
84.080800 4220.900000
91.054200 11245.000000
93.069900 2465.800000
95.049100 5989.500000
96.080800 1737.600000
103.054000 5626.900000
105.069700 4618.300000
107.049000 3987.300000
108.080700 21891.900000
109.028100 8141.300000
109.064900 3821.400000
115.054100 18714.100000
116.049300 2568.700000
117.057200 9664.700000
117.069800 123918.700000
118.065100 7826.200000
118.073200 5965.100000
120.080700 2725.300000
121.064600 5061.900000
124.039200 29587.600000
127.054100 3176.200000
128.049500 6149.900000
128.061800 8209.800000
129.069800 14733.000000
130.065000 29461.500000
131.072800 4566.500000
132.080700 3321.800000
133.064900 2768.400000
134.096400 4743.200000
135.044000 2937.300000
136.075700 2170.400000
142.065100 3997.300000
143.072900 84037.600000
143.085500 7346.600000
144.080600 1371039.900000
145.064800 2877.300000
146.059800 3395.200000
149.059100 1972.500000
150.091000 2996.400000
153.070200 2524.700000
154.065000 4645.500000
155.060200 52346.300000
155.072800 22920.700000
156.080600 40790.600000
157.088400 17659.000000
158.060100 2420.100000
158.096300 20662.800000
162.091500 4685.100000
164.070500 2014.700000
167.073600 12655.100000
168.080600 31938.400000
169.088500 10392.300000
170.096300 79054.600000
178.086200 21229.700000
179.086000 1933.700000
180.080700 16288.700000
181.088600 10923.700000
182.096200 45220.000000
184.075200 2317.900000
184.099600 2026.900000
191.072300 2340.200000
192.080400 5315.800000
193.088900 4671.300000
194.096300 13815.700000
196.111700 5661.100000
204.080600 3820.100000
205.088000 4845.500000
206.096100 11794.100000
207.104300 5977.300000
208.076300 2567.000000
208.111800 5749.100000
209.083800 2381.700000
210.091100 5967.100000
217.088200 6593.100000
218.096500 6158.900000
219.103900 3123.300000
220.075100 3390.400000
220.112000 4542.400000
221.084100 1774.100000
222.091400 3154.100000
222.127700 6240.000000
224.106200 4037.400000
231.103600 5031.300000
232.111800 5235.700000
233.083400 2081.000000
234.091000 7425.600000
234.127300 3594.100000
250.122400 2256.600000
252.101300 3019.900000
260.107200 3130.700000

>ms2
77.038600 5001.200000
79.054200 8201.400000
81.069800 12017.700000
82.065100 1985.200000
83.012800 3446.200000
84.080700 2362.000000
91.054200 14352.500000
93.069700 2688.500000
95.049100 5565.600000
96.080800 2480.400000
103.054200 8170.800000
105.069800 6251.900000
106.065300 1737.900000
107.049000 5632.300000
108.080700 18286.800000
109.028400 5199.700000
109.064700 4192.500000
115.054100 25610.700000
116.049400 5270.400000
117.057200 15834.300000
117.069800 140377.400000
118.065000 8480.100000
120.080900 2260.000000
121.064700 3034.800000
122.096000 1843.700000
124.039200 20575.000000
127.054100 3095.900000
128.049300 9143.400000
128.062000 10668.900000
129.057400 2281.900000
129.069800 18749.600000
130.065000 27530.000000
131.073000 3996.500000
132.080800 3324.400000
133.065000 1979.700000
134.096500 3499.100000
135.044000 2427.900000
136.075500 2430.300000
142.065100 4359.900000
143.072900 102168.200000
143.085600 9629.600000
144.080600 1025751.200000
145.064600 3813.100000
146.059700 3175.700000
146.096700 1659.900000
149.059200 1499.700000
150.090800 2254.100000
153.070100 2629.400000
154.064900 7998.800000
155.060300 64141.300000
155.072700 24182.500000
156.080600 36678.100000
157.088300 13245.200000
158.060400 1620.600000
158.096300 15828.100000
162.091500 3140.700000
164.071100 2044.900000
167.073400 18054.500000
168.080600 32085.100000
169.088300 9598.400000
170.096300 56081.100000
178.086100 8487.600000
179.085800 1674.000000
180.080600 19545.700000
181.088500 10149.300000
182.096300 34563.300000
183.067300 1262.100000
184.074800 1170.200000
191.073000 3900.300000
192.080600 5490.000000
193.088600 5056.100000
194.096300 11836.700000
196.075200 1475.800000
196.111900 4509.500000
204.080300 6718.500000
205.088600 4300.400000
206.096300 11121.300000
207.104700 4237.200000
208.075600 2875.500000
208.111700 3689.700000
209.083700 1869.500000
210.091600 3224.700000
217.088200 7033.800000
218.096500 5815.300000
219.105000 2492.900000
220.075300 2839.700000
220.112000 3411.200000
222.091600 1501.200000
222.127600 4091.500000
224.106500 1919.500000
230.096400 3462.000000
231.104700 4042.100000
232.112200 3877.400000
233.083200 2065.000000
234.091000 3781.600000
234.127400 2358.900000
235.099500 1401.300000
248.107400 1428.200000
250.121500 2080.400000
252.101100 1641.600000
260.108000 1432.100000

>ms2
56.049200 1049.900000
68.049600 1480.600000
77.038600 6650.800000
79.054300 9428.200000
80.049400 1774.300000
81.069900 10440.400000
82.065200 1572.200000
83.012800 5019.600000
84.080900 2016.100000
91.054200 22437.000000
93.057300 1805.500000
93.069900 3803.600000
94.065200 1535.600000
95.049000 4682.200000
96.081000 1655.900000
103.054200 13563.300000
104.049400 1869.500000
105.044800 2267.200000
105.069800 6339.900000
106.065100 2404.100000
107.049200 5585.200000
108.080800 16072.200000
109.028600 4560.800000
109.064700 3558.200000
115.054200 43118.600000
116.049500 5055.600000
116.057500 2253.900000
116.061900 3113.500000
117.057300 27442.700000
117.069900 190753.100000
118.065100 10637.100000
118.073200 14786.400000
119.072800 1604.200000
120.080800 2104.700000
121.064800 4572.200000
122.023800 2859.300000
124.039300 19452.500000
127.054200 7684.800000
128.049500 16109.000000
128.062100 15621.200000
129.057100 3091.000000
129.069900 19961.800000
130.065100 34342.300000
131.072700 5082.900000
132.080700 4085.000000
133.064500 1695.900000
134.060000 2214.400000
134.096400 3136.300000
135.044300 2291.200000
136.075500 1387.700000
142.065300 7938.900000
143.073000 144617.300000
144.080800 982090.600000
145.064700 4956.100000
146.059900 6007.400000
148.076000 1321.900000
153.070300 2151.300000
154.065100 14101.600000
155.060400 81750.400000
155.072900 30175.100000
156.080700 37229.800000
157.088300 13773.700000
158.060100 2194.500000
158.096400 13845.800000
162.091900 1990.700000
165.069600 2363.100000
167.073400 24210.100000
168.080800 37411.200000
169.075500 2089.900000
169.088200 8883.600000
170.096400 47864.000000
178.086500 5185.500000
179.085200 1375.200000
180.080800 23231.600000
181.088600 13333.100000
182.096300 26821.000000
184.098600 1678.600000
191.073000 5050.300000
192.080800 6143.800000
193.088600 6754.800000
194.096400 12809.800000
196.075600 1303.200000
196.111800 3442.800000
204.080900 9544.400000
205.088700 7222.800000
206.096500 10280.100000
207.104600 5901.900000
208.076200 2484.900000
208.112100 4915.500000
210.091800 1445.900000
217.088400 9676.700000
218.096900 8112.300000
219.105100 2918.400000
220.076100 5050.700000
220.112500 4184.800000
221.083800 1491.200000
222.091300 1865.400000
224.106700 1447.000000
230.097000 3235.600000
231.104900 3929.800000
232.112400 4301.100000
233.083300 1568.000000
234.092100 3676.800000
246.090900 1282.800000
248.107300 1827.400000

>ms2
56.049300 1196.300000
77.038600 7085.500000
79.054200 12797.800000
80.049400 2303.100000
81.069900 12709.000000
82.065000 1759.900000
83.012900 4563.200000
91.054200 29450.700000
93.057500 2616.900000
93.069900 2220.400000
95.049100 6075.500000
96.080700 1948.600000
103.054200 17354.200000
104.049300 2873.000000
105.044800 4520.800000
105.069800 7665.000000
106.065200 2878.200000
107.049000 4329.800000
108.080800 12631.800000
109.028300 4491.200000
109.064700 3007.600000
115.054200 64772.000000
116.049500 6498.900000
116.057500 2483.200000
116.062000 3795.100000
117.057300 34224.800000
117.069900 208394.100000
118.065100 10803.500000
118.073200 11587.300000
119.073100 2233.000000
120.080800 2019.500000
121.064500 3646.600000
122.023600 2579.700000
124.039400 14024.900000
127.054200 8759.700000
128.049400 19418.400000
128.062100 22143.500000
129.057000 3643.700000
129.069900 27149.100000
130.065100 43502.400000
131.072700 6508.500000
132.080700 3420.200000
133.064600 1879.000000
134.060000 1823.200000
134.097000 2763.300000
135.044100 1471.500000
141.070100 1639.500000
142.065300 10675.100000
143.073000 186903.200000
144.080700 858402.600000
145.064700 6398.100000
146.059900 4739.700000
148.075700 1631.800000
153.069800 2651.000000
154.065200 21866.100000
155.060400 95899.800000
155.072900 34481.900000
156.080700 39077.200000
157.088600 16434.500000
158.060400 1899.200000
158.096300 9627.600000
162.091000 1722.500000
165.070000 3731.000000
167.073200 36023.200000
168.080700 47402.300000
169.088400 7486.500000
170.096400 35625.400000
178.077500 1539.700000
178.086200 3208.000000
180.080800 27436.200000
181.088600 15698.400000
182.096400 24907.500000
183.091600 1826.600000
184.098800 1403.600000
191.072800 5637.600000
192.080700 10147.600000
193.088700 7862.000000
194.096300 12287.500000
196.075300 2377.800000
196.111300 1498.500000
204.081000 11549.000000
205.089000 6923.600000
206.096300 12114.100000
207.104600 4372.800000
208.075500 2253.600000
208.112500 3140.200000
217.088500 11620.900000
218.096400 9708.200000
220.075100 3307.900000
220.112800 4305.100000
221.084000 1774.900000
222.090800 1696.100000
224.107100 1470.900000
230.096900 5023.700000
231.104500 4657.900000
232.112700 1982.500000
234.091300 4817.300000
246.090600 2063.400000
248.106800 1403.600000

>ms2
53.107400 1377.200000
67.054400 2374.700000
77.038600 9033.800000
79.054200 9768.900000
80.049500 2078.900000
81.069900 7533.700000
83.012800 4532.300000
84.080800 1848.100000
91.054200 35469.200000
93.057100 2472.500000
93.069900 3522.300000
95.049100 4681.800000
96.081000 1766.900000
103.054200 19290.800000
104.049500 2926.800000
105.044700 7420.300000
105.069800 5368.700000
106.065100 1908.800000
107.049300 4023.400000
108.080700 10115.100000
109.028600 3416.800000
109.064900 2709.200000
115.054200 80474.300000
116.049400 9644.700000
116.057600 2435.100000
116.062000 4575.800000
117.057300 42759.900000
117.069800 199000.000000
118.065000 12980.400000
118.073300 8586.400000
121.064700 2246.200000
122.023700 2446.900000
124.039300 10339.000000
127.054200 12681.600000
128.049500 23136.000000
128.062100 26633.600000
129.057300 5396.600000
129.069800 25815.800000
130.065100 43348.100000
131.072700 4598.700000
134.059700 1901.100000
134.096300 2046.800000
136.076000 2056.000000
142.065200 11355.800000
142.078300 1562.400000
143.072900 200973.500000
144.080700 658614.200000
145.064800 6329.400000
146.060100 5252.100000
153.070300 3107.400000
154.065000 21067.100000
155.060300 97150.200000
155.072800 37337.200000
156.080700 34651.000000
157.088300 10185.300000
158.060300 1775.100000
158.096200 6727.000000
165.069800 4809.800000
167.073100 43323.400000
168.080700 45446.300000
169.088400 7542.300000
170.096400 23622.400000
178.086400 1593.300000
179.085800 1322.200000
180.080700 30289.800000
181.088600 13037.400000
182.096400 19214.800000
191.073000 5343.300000
192.080800 6215.000000
193.088500 7498.200000
194.096300 13557.200000
204.080600 11800.900000
205.088300 6218.500000
206.096300 11982.600000
207.104500 4175.500000
208.076000 2039.000000
208.112200 3111.000000
210.091100 1470.700000
216.081600 1749.500000
217.088300 9971.000000
218.096500 10339.800000
219.103700 2328.600000
220.075400 3578.900000
220.111400 3274.800000
230.096000 6460.000000
231.104100 2538.500000
232.111100 1544.300000
233.083400 1838.000000
234.091800 4099.800000

>ms2
53.107300 1319.500000
67.054100 1313.200000
68.049300 1144.800000
77.038500 10898.100000
79.054200 10282.700000
80.049300 3836.700000
81.069900 8035.500000
82.065100 2012.100000
83.012600 2858.800000
84.081000 1292.900000
91.054200 48442.600000
93.057100 2710.900000
93.070000 2021.100000
94.064900 2001.200000
95.049100 5239.700000
96.080700 1859.100000
103.054200 23267.700000
104.049400 3489.000000
105.044800 8046.300000
105.069800 4299.300000
106.065300 2391.100000
107.049100 3197.600000
108.080800 8084.200000
109.028500 1662.900000
109.064900 1463.300000
115.054200 90269.900000
116.049400 9666.800000
116.057700 3657.000000
116.062200 6869.200000
117.057300 48504.300000
117.069800 180686.200000
118.065100 10161.300000
118.073200 8732.000000
120.081000 1471.900000
122.024000 1861.000000
124.039300 7311.000000
127.054200 14550.700000
128.049400 22292.800000
128.062100 28318.000000
129.057200 6223.000000
129.069800 25871.200000
130.065100 36819.200000
131.072900 3032.600000
132.081100 1988.500000
134.060700 1867.500000
135.043900 1280.500000
141.069800 1350.200000
142.065200 12901.800000
142.077800 2601.000000
143.073000 208844.000000
144.080700 489940.800000
145.064700 7801.900000
146.059900 4351.000000
152.062200 2562.300000
153.070000 3788.000000
154.065100 27192.000000
155.060400 95501.800000
155.072900 34097.100000
156.080700 30182.500000
157.088400 8406.500000
158.096600 3543.400000
165.069900 5427.800000
166.064300 1983.400000
167.073100 46804.700000
168.080700 37992.700000
169.076200 1719.600000
169.088500 6293.600000
170.096400 18432.500000
178.077400 1306.400000
179.073200 1869.000000
179.086000 1383.100000
180.080700 28260.200000
181.088500 11299.400000
182.096300 12312.000000
183.091000 1242.600000
191.072900 7451.900000
192.080700 8087.700000
193.088800 6629.400000
194.096700 9398.700000
204.080600 12636.900000
205.088500 6808.400000
206.096400 10745.700000
207.104800 3530.700000
208.111500 1372.600000
216.080700 2760.300000
217.088700 12162.900000
218.096400 8353.100000
219.104600 1261.100000
220.075600 3296.600000
220.112100 3392.900000
230.096400 4337.500000
231.104200 2035.900000
234.091100 3615.800000
246.091100 2140.400000
248.107000 1469.400000

>ms2
77.038600 13656.600000
79.054300 10483.100000
80.049500 2081.100000
81.070000 5823.800000
82.065000 1739.000000
83.012900 1673.300000
91.054200 53495.500000
93.057300 3495.300000
94.064900 1715.700000
95.049300 4858.500000
103.054200 22726.900000
104.049200 4062.600000
105.044800 10740.600000
105.070000 3559.300000
106.065100 3601.200000
107.048900 2191.600000
108.080700 6125.900000
109.027900 1244.500000
115.054200 92112.700000
116.049400 10291.100000
116.062000 8439.700000
117.057300 51889.900000
117.069800 151716.600000
118.065100 13279.900000
118.073200 4993.800000
119.072700 1667.400000
122.023800 1401.700000
124.039500 3684.000000
127.054200 12465.600000
128.049500 25341.900000
128.062100 26874.200000
129.057200 5691.800000
129.069800 23803.100000
130.065100 37364.700000
131.072800 3094.600000
132.080600 1645.700000
134.060500 1751.400000
134.096400 1728.500000
141.070300 1939.300000
142.065200 13157.700000
142.077900 1125.200000
143.073000 199607.800000
144.080700 355400.200000
145.064700 6863.200000
146.060000 4968.600000
152.061900 2781.300000
153.069400 2243.300000
154.065100 29695.200000
155.060400 87284.900000
155.072800 30941.300000
156.080700 29290.700000
157.088400 7228.300000
158.096500 2810.300000
165.069700 4940.800000
166.065100 2027.000000
167.073000 51191.200000
168.080700 33060.300000
169.088500 4030.800000
170.096400 9870.400000
178.077200 1747.100000
179.072400 1663.800000
180.080700 28913.400000
181.088800 8945.200000
182.096500 8606.900000
191.072800 8311.400000
192.080800 7853.800000
193.088600 7629.100000
194.096500 9820.900000
204.080600 11615.700000
205.089000 5118.900000
206.096200 11603.400000
207.104700 2041.800000
208.112900 1823.100000
216.081600 1625.900000
217.088500 12103.400000
218.096300 7022.000000
219.103400 1146.600000
220.076000 3655.900000
220.112000 2932.500000
230.096000 5651.000000
234.091500 2670.700000
246.091300 1811.600000

