>compound NA44876035
>parentmass 182.1903000000001
>ionization [M+H]+
>formula C12H23N
>rt 328.635000
>profile orbitrap
#smiles_iso C1CCC(CC1)NC2CCCCC2
#smiles_can C1CCC(CC1)NC2CCCCC2
#inchikey XBPCUCUWBYBCDP-UHFFFAOYSA-N
#pubchem_id 7582
#mb_accession NA002618,NA002619,NA002620,NA002621,NA002622,NA003001,NA003002,NA003003,NA003004,NA003005,NA003369,NA003370,NA003371,NA003372,NA003373,NA003742,NA003743,NA003744,NA003745,NA003746

>ms2peaks
182.190400 207589.000000

>ms2peaks
182.190300 235034.500000

>ms2peaks
182.190300 277009.700000

>ms2peaks
100.112000 4124.900000
182.190300 1119793.000000

>ms2peaks
100.112100 20429.900000
182.190400 1228981.000000

>ms2peaks
55.054100 4192.500000
83.085500 22850.900000
100.112000 67590.900000
182.190300 1441164.800000

>ms2peaks
55.054100 11162.900000
83.085600 54098.100000
100.112100 124030.600000
182.190400 1340621.400000

>ms2peaks
55.054100 21133.000000
83.085600 100058.400000
98.096800 1256.000000
100.112100 182007.200000
182.190300 1148786.600000

>ms2peaks
55.054000 34716.800000
83.085500 160889.900000
100.112000 218384.200000
182.190200 901127.100000

>ms2peaks
55.054100 45584.600000
83.085500 204535.900000
98.096600 2043.700000
100.112100 219703.100000
182.190300 647572.600000

>ms2peaks
55.054100 63738.100000
83.085600 262807.200000
98.096300 1944.000000
100.112100 216822.200000
182.190400 453851.800000

>ms2peaks
55.054100 74862.500000
83.085600 284866.800000
98.096300 2299.700000
100.112100 176328.300000
182.190400 267019.000000

>ms2peaks
55.054100 69931.500000
83.085600 272741.400000
98.096600 2061.300000
100.112100 128907.600000
182.190400 150972.400000

>ms2peaks
55.054100 74627.300000
83.085500 265394.200000
98.096400 2275.500000
100.112100 87655.100000
182.190300 75546.600000

>ms2peaks
55.054100 70891.900000
83.085500 233345.300000
98.096300 1760.400000
100.112100 53866.900000
182.190300 34999.200000

>ms2peaks
55.054100 69577.200000
83.085500 236094.200000
100.112100 41823.700000
182.190200 19348.200000

>ms2peaks
55.054100 66313.800000
83.085500 184077.500000
100.112100 22194.500000
182.190300 8817.000000

>ms2peaks
55.054100 53505.000000
83.085500 145632.100000
100.112100 11644.300000
182.190200 2251.600000

>ms2peaks
55.054100 43361.900000
83.085500 121359.300000
100.112100 6681.100000

>ms2peaks
55.054100 41268.300000
83.085500 97207.800000
100.112000 3905.500000

