>compound NA45478420
>parentmass 421.18330000000003
>ionization [M+Na]+
>formula C20H30O8
>rt 516.613333
>profile orbitrap
#smiles_iso C[C@@H]1C[C@]2(C=C(C3(CC3)[C@@]([C@H]2C1=O)(C)O)C)O[C@H]4[C@@H]([C@H]([C@@H]([C@H](O4)CO)O)O)O
#smiles_can CC1CC2(C=C(C3(CC3)C(C2C1=O)(C)O)C)OC4C(C(C(C(O4)CO)O)O)O
#inchikey GPHSJPVUEZFIDE-YVPLJZHISA-N
#pubchem_id 13962857
#mb_accession NA002147,NA002149,NA002151,NA002163,NA002165,NA002167,NA002185,NA002187,NA002198

>ms2peaks
421.184100 1442.100000

>ms2peaks
203.052700 4917.700000
223.109700 1478.200000
241.119900 17321.500000
421.181800 1964.500000

>ms2peaks
203.052700 3917.700000
223.109900 2112.200000
241.119800 6682.800000

>ms2peaks
241.119400 3326.800000

>ms2peaks
203.052500 12417.600000
223.109200 4015.900000
241.120000 24991.300000

>ms2peaks
203.052200 5542.000000
223.109200 1818.800000
241.120500 6866.700000

>ms2peaks
158.202700 1405.000000
203.052600 6536.700000
223.109300 1778.100000
241.120100 5241.200000

>ms2peaks
158.203000 1056.200000

>ms2peaks
158.209000 1614.800000
203.052400 3080.700000
241.121100 1656.600000

