>compound NA46735617
>parentmass 342.17
>ionization [M+H]+
>formula C20H23NO4
>rt 378.135000
>profile orbitrap
#smiles_iso CN1CCC2=CC(=C(C3=C2[C@@H]1CC4=C3C(=C(C=C4)OC)O)OC)OC
#smiles_can CN1CCC2=CC(=C(C3=C2C1CC4=C3C(=C(C=C4)OC)O)OC)OC
#inchikey QELDJEKNFOQJOY-ZDUSSCGKSA-N
#pubchem_id 10143
#mb_accession NA002536,NA002537,NA002538,NA002539,NA002540,NA002929,NA002930,NA002931,NA002932,NA002933,NA003304,NA003305,NA003306,NA003307,NA003308,NA003674,NA003675,NA003676,NA003677,NA003678

>ms2
311.126300 2308.200000
342.169700 313843.400000

>ms2
279.100800 8035.200000
299.126700 1206.200000
311.127800 57492.300000
342.169900 1084886.600000

>ms2
247.075700 1548.000000
248.082900 3049.900000
251.106500 2770.500000
267.101500 4839.000000
279.101600 67443.700000
280.109200 10472.400000
296.103600 6408.300000
299.128800 3988.400000
311.127800 235972.100000
342.170000 890532.000000

>ms2
247.075400 8241.900000
248.083200 17980.500000
251.106700 17568.400000
264.077700 1864.900000
267.101800 14948.600000
279.101600 225468.000000
280.109400 37095.400000
296.104400 30259.800000
299.127700 8404.600000
311.127900 398228.400000
342.170100 538694.800000

>ms2
247.075400 17075.100000
248.083300 47592.600000
251.106700 37714.400000
264.077800 6779.400000
267.101700 20221.600000
279.101600 380944.800000
280.109400 76369.500000
296.104300 61680.400000
299.127700 7160.500000
311.127900 352154.100000
342.170100 219104.500000

>ms2
191.084900 2603.600000
219.080400 7450.800000
221.096400 2138.100000
223.111500 3401.700000
233.096500 1654.000000
236.083000 20971.400000
247.075300 40438.100000
248.083100 147925.100000
251.106400 114815.100000
253.086300 1742.400000
261.091000 4814.700000
262.098800 7787.900000
264.077900 44318.700000
265.086400 7627.900000
267.101300 43990.700000
268.110200 3447.500000
278.093700 2151.500000
279.101400 751781.800000
280.109100 164875.600000
281.080500 6360.800000
284.104400 3097.400000
293.117700 1409.600000
294.126000 1544.500000
296.104100 171629.800000
299.127500 7759.100000
311.127600 412310.900000
313.144300 3653.500000
342.169700 119864.000000

>ms2
191.085100 5930.900000
208.088400 1463.300000
219.080300 15286.600000
220.088200 2696.300000
221.096200 5245.600000
223.111400 6064.400000
224.083600 1817.600000
233.096000 2773.100000
235.075500 2395.500000
236.082900 62285.400000
237.091000 4798.300000
239.106100 2332.600000
247.075100 53134.700000
248.083000 216241.800000
249.091900 13662.100000
250.099000 3033.300000
251.106400 153431.900000
253.086600 2229.800000
261.090500 7677.100000
262.098900 11529.100000
264.077800 106848.100000
265.085800 33015.800000
267.101300 42900.200000
268.109700 5706.500000
278.093400 2341.900000
279.101300 727310.700000
280.109200 202054.300000
281.080400 29701.900000
284.104200 5015.100000
293.118000 1950.000000
294.125000 2017.800000
296.104000 215736.300000
299.127900 4182.200000
311.127600 260384.100000
313.142800 2352.100000
342.169700 31637.000000

>ms2
191.085300 14949.900000
193.101300 1925.700000
194.072600 1728.600000
205.064600 1593.700000
208.088400 5935.100000
219.080400 27592.300000
220.088600 5596.100000
221.096200 9215.900000
223.111500 14151.800000
224.083400 3466.900000
231.080800 2432.500000
233.096000 6710.800000
235.074900 5426.200000
236.083100 106678.700000
239.106600 2980.200000
246.067600 1482.500000
247.075400 50298.300000
248.083200 220480.000000
250.099100 5515.900000
251.106500 141853.800000
252.078300 2134.500000
253.086400 3958.900000
261.090700 7665.200000
262.098700 12794.300000
263.070300 3861.000000
264.078000 161074.200000
265.086000 79396.200000
267.101500 30947.900000
268.109700 6867.100000
278.093600 6256.000000
279.101500 493026.900000
280.109500 175524.800000
281.080700 65223.300000
284.104400 4000.700000
294.124200 1863.900000
296.104200 199470.200000
298.120400 1700.700000
299.127300 2017.100000
311.127700 139061.900000
313.144300 1476.800000
342.169700 7215.900000

>ms2
191.085500 25292.600000
192.093900 2344.600000
193.100900 3779.500000
194.072600 2768.600000
203.085300 3170.900000
205.064400 3502.200000
205.100200 1544.800000
206.072900 1673.300000
207.080300 3675.900000
208.088200 13805.400000
209.096000 2636.700000
218.072100 3198.400000
219.080400 43806.200000
220.088500 12673.400000
221.060400 1794.600000
221.096200 14784.300000
223.111600 18097.000000
224.083000 6946.100000
231.080200 4231.000000
233.096000 12774.800000
234.067800 2386.200000
235.075400 16216.600000
236.083100 162134.800000
237.091700 8960.500000
238.062700 1482.300000
239.106300 2422.900000
246.067400 4000.700000
247.075300 56711.500000
248.083200 210107.600000
249.054400 2297.700000
249.091800 14095.900000
250.098800 13175.800000
251.106500 123729.300000
252.077900 5526.100000
253.086000 11135.600000
261.090800 10628.000000
262.098600 12148.900000
263.070300 9987.600000
264.077900 205637.700000
265.085800 149809.100000
266.057100 1226.000000
267.101300 22680.200000
268.109200 8278.400000
277.085300 3173.000000
278.094000 6633.000000
279.101500 309620.900000
280.109400 133589.600000
281.080600 118093.600000
284.104200 3699.700000
295.096800 1225.500000
296.104100 155722.700000
299.128700 1513.500000
311.127700 74676.600000

>ms2
191.085500 40289.300000
192.093300 4632.400000
193.100900 5444.700000
194.072700 6523.000000
203.085500 5102.200000
205.064700 4029.700000
205.100800 2086.600000
206.072600 3646.000000
207.080500 6282.700000
208.088200 21430.300000
209.096100 4376.700000
218.072600 7512.700000
219.080300 52780.500000
220.088300 18597.900000
221.059600 4612.700000
221.096100 19040.500000
223.111700 19874.500000
224.083100 8863.400000
231.080200 9689.800000
233.096100 14994.300000
234.067400 4425.800000
235.075200 29925.300000
236.083100 207703.700000
237.091300 15356.300000
238.062600 6219.800000
239.106000 3712.500000
246.067600 5787.500000
247.075300 69705.100000
248.083100 185185.000000
249.054400 6159.200000
249.091200 14459.000000
250.098600 17703.800000
251.106500 96812.300000
252.077500 7240.200000
253.085800 27841.300000
261.091100 7639.900000
262.098800 12309.400000
263.070100 21384.700000
264.078000 224896.800000
265.085800 197244.400000
266.056200 2145.700000
267.101400 19040.200000
268.109100 5725.300000
277.086000 4132.000000
278.093600 8647.100000
279.101400 181082.400000
280.109400 87141.100000
281.080600 146170.900000
284.103800 1171.800000
295.096100 1340.700000
296.104100 98410.000000
298.121100 1306.300000
311.127700 33015.200000

>ms2
165.069900 3998.700000
166.077800 1402.600000
178.077600 5258.500000
179.085600 4164.100000
180.093100 4731.100000
189.070100 2891.700000
190.077400 7973.000000
191.085400 72737.700000
192.092800 4867.600000
193.064600 4866.500000
193.101100 9541.500000
194.072600 11691.100000
195.081400 2198.700000
201.069700 1921.300000
202.077500 3685.200000
203.085500 9328.800000
205.064700 9098.900000
205.101500 3175.300000
206.072700 10662.100000
207.080500 16943.700000
208.088200 38988.800000
209.060400 1586.300000
209.096900 6967.900000
217.064800 1256.100000
218.072400 15594.500000
219.080400 74413.000000
220.088800 26935.600000
221.059500 13768.700000
221.096300 22052.700000
222.067700 4916.400000
223.075700 3248.500000
223.111600 22995.100000
224.083000 14360.600000
225.091300 1702.800000
231.080300 19769.300000
233.059800 5338.800000
233.095900 12137.500000
234.067500 9452.400000
235.075200 61712.600000
236.083100 296736.600000
238.062200 21509.500000
239.106700 3441.100000
246.067400 6838.900000
247.075300 91628.500000
248.083200 186602.700000
249.054500 13983.900000
250.099000 17451.700000
251.070100 6040.500000
251.106500 80324.000000
252.077900 7925.400000
253.085800 69889.600000
261.090900 7442.800000
262.099000 12921.000000
263.070200 39844.100000
264.077900 233037.700000
265.085800 261623.600000
266.057400 4873.100000
267.101300 18613.700000
268.110000 6963.800000
269.080400 2527.700000
277.086000 7073.100000
278.094000 8976.300000
279.101400 111353.300000
280.109700 49681.500000
281.080600 178802.400000
295.096600 2650.200000
296.104100 73865.600000
311.127700 14002.500000

>ms2
165.070000 6668.900000
166.077200 3289.200000
177.069800 3243.400000
178.077700 10793.400000
179.085500 8142.500000
180.093500 7076.800000
181.064100 1412.800000
189.070100 4339.900000
190.077600 17071.800000
191.085500 93142.800000
192.093700 8882.700000
193.064700 14170.100000
193.101300 11181.900000
194.072600 16298.800000
195.080600 3375.600000
201.070200 2483.400000
202.077700 8473.900000
203.085400 13174.100000
205.064700 12970.400000
205.101000 4150.600000
206.072700 22110.800000
207.080500 36915.400000
208.088300 55923.800000
209.059300 2985.200000
209.096700 9519.200000
217.064500 4084.800000
218.072600 22595.100000
219.080400 84612.900000
220.088800 26867.400000
221.059700 28090.700000
221.096300 24328.500000
222.068100 9425.700000
222.104700 3895.500000
223.075600 4012.300000
223.111700 16587.400000
224.083100 16851.900000
225.091600 4938.800000
231.080500 26007.900000
233.060000 10330.100000
233.096000 13967.200000
234.067600 12715.700000
235.075300 99440.200000
236.083100 315715.900000
237.092200 49121.000000
238.062100 46407.300000
239.106300 2514.400000
241.085200 1898.100000
246.067200 10410.100000
247.075300 122899.400000
248.083300 144407.000000
249.054600 19523.700000
250.062700 2546.200000
250.098900 18018.700000
251.070400 7995.000000
251.106600 50264.700000
252.077900 8234.000000
253.085800 107326.100000
261.090700 5524.100000
262.098800 7928.800000
263.070200 51172.600000
264.078000 201042.200000
265.085800 289213.700000
266.057100 7697.900000
267.101300 10879.100000
268.110100 3308.100000
269.081200 2681.000000
277.085800 6917.600000
278.094600 4489.800000
279.101400 64428.000000
280.109700 28880.400000
281.080700 160347.700000
295.097100 2430.200000
296.104200 36157.900000
311.127900 6400.000000

>ms2
153.069300 1051.200000
165.069800 11201.200000
166.077600 4124.000000
177.070000 3949.200000
178.077700 19100.100000
179.085600 13630.100000
180.093400 12254.200000
181.064800 3431.000000
182.073000 1156.800000
189.069900 8991.700000
190.077800 23636.200000
191.085600 95078.700000
192.093600 10764.100000
193.064800 19531.400000
193.101200 7433.800000
194.072700 19463.400000
195.080600 4536.300000
196.088100 2189.000000
197.096900 1357.800000
201.070200 4180.600000
202.078000 8412.500000
203.085700 12990.500000
204.093800 1834.600000
205.064900 18785.100000
205.101100 2301.300000
206.072800 34778.900000
207.080500 57187.900000
208.088400 58687.600000
209.059800 5349.600000
209.096900 10271.400000
210.067800 3004.200000
217.064800 6085.100000
218.072700 31116.300000
219.080500 85626.400000
220.088800 22604.600000
221.059600 38849.200000
221.096300 20772.800000
222.068000 14840.100000
222.105000 3625.900000
223.076000 5893.900000
223.111700 11467.300000
224.083300 14908.300000
225.091500 7976.500000
226.062600 1475.500000
231.080500 30042.600000
233.059900 14617.100000
233.096100 10428.800000
234.067800 13437.900000
235.075400 109163.400000
236.083200 277124.300000
237.091700 78407.400000
238.062300 70304.400000
239.107500 1608.000000
241.085400 2023.100000
245.060100 1536.900000
246.067500 10992.900000
247.075400 122809.200000
248.083500 89674.300000
249.054700 20032.200000
250.062900 3666.800000
250.098900 12642.700000
251.070600 7826.800000
251.106600 28276.000000
252.078400 9149.200000
253.086000 125908.000000
261.090600 4894.100000
262.099200 3975.700000
263.070400 48802.400000
264.078100 130777.600000
265.085900 234205.000000
266.057400 7672.500000
267.101500 9540.700000
268.109400 1411.200000
269.081500 1537.400000
277.085800 6640.000000
278.093100 3113.400000
279.101500 32247.800000
280.110100 10398.800000
281.080800 109335.500000
295.096400 1757.100000
296.104400 14845.900000
311.128300 1920.400000

>ms2
152.062600 1483.600000
165.069800 20582.600000
166.077700 9459.700000
167.084900 2417.900000
177.069800 5850.400000
178.077500 29610.400000
179.085500 23080.900000
180.057000 1240.700000
180.093200 16353.700000
181.064800 6547.500000
181.101900 2096.800000
182.072100 2190.900000
189.069700 15834.800000
190.077600 40425.300000
191.085400 102763.000000
192.093600 10031.000000
193.064600 31489.400000
193.101000 8779.000000
194.072500 28018.700000
195.080500 7472.000000
196.088600 2203.200000
197.095500 1524.100000
201.069700 4183.900000
202.077500 12543.500000
203.085400 14598.100000
204.056400 2468.400000
204.093500 1571.600000
205.064600 28105.000000
205.101000 2781.800000
206.072600 47337.700000
207.080300 80393.100000
208.088200 61215.100000
209.059400 7883.500000
209.096300 15684.200000
210.067400 6554.000000
217.064700 8265.600000
218.072500 32387.800000
219.080300 82532.000000
220.051600 2273.300000
220.088500 24620.700000
221.059500 55124.800000
221.096000 17024.400000
222.067600 28535.300000
222.104500 3679.300000
223.075300 7910.600000
223.111600 6923.600000
224.083200 15160.900000
225.091100 12528.100000
226.062300 2134.100000
231.080300 33594.000000
233.059500 16933.600000
233.095900 5968.900000
234.067400 14626.700000
235.075200 116880.600000
236.083000 239240.500000
237.091100 105240.400000
238.062100 99461.200000
246.067300 8603.300000
247.075200 133406.800000
248.083300 56258.500000
249.054400 18040.100000
249.091600 9587.100000
250.062500 4190.800000
250.098700 7187.800000
251.070100 6612.400000
251.106500 14504.100000
252.077900 8787.600000
253.085700 127495.400000
261.090900 3456.800000
262.099200 2942.200000
263.070100 44207.400000
264.077900 85920.300000
265.085700 187403.400000
266.057000 7893.100000
267.101700 7075.100000
277.085800 4477.300000
278.094400 1869.500000
279.101300 19022.100000
280.110000 4733.400000
281.080600 60558.600000
295.096000 1860.200000
296.104600 4628.100000

>ms2
152.062100 2339.800000
153.069900 2815.400000
165.069900 35769.800000
166.077800 12172.600000
167.085200 3222.400000
177.070000 9780.400000
178.077700 45445.700000
179.085600 37469.100000
180.057600 1262.500000
180.093400 15725.200000
181.064900 9200.200000
181.100900 1752.500000
182.072400 2794.000000
189.070000 23635.300000
190.077700 47742.900000
191.085600 102697.400000
192.093800 8341.500000
193.064800 47484.900000
193.101200 7622.700000
194.072700 32211.100000
195.080300 6915.500000
196.088100 2181.500000
197.095800 2835.700000
201.069900 6273.100000
202.077700 15103.800000
203.085600 13805.500000
204.057600 2231.200000
204.093800 1700.500000
205.064800 36192.300000
206.072700 49538.200000
207.080500 96194.100000
208.088400 47170.900000
209.059800 8095.500000
209.096200 21530.600000
210.067600 11359.200000
217.064800 11675.500000
218.072700 30946.000000
219.080500 82429.600000
220.051400 3996.700000
220.088800 14403.700000
221.059700 69535.900000
221.096100 13940.500000
222.067700 35931.200000
222.104500 3797.400000
223.075700 9092.500000
223.111800 3572.400000
224.083400 7997.500000
225.091100 13747.200000
226.062700 2614.200000
231.080500 32954.800000
233.059700 17491.000000
233.096200 4561.300000
234.067800 13031.800000
235.075400 110312.200000
236.083200 182005.000000
237.091100 111886.000000
238.062300 108655.300000
245.059700 1983.700000
246.067400 9299.900000
247.075400 124839.900000
248.083600 32912.800000
249.054600 15157.000000
249.091600 7989.400000
250.062800 7888.300000
250.099400 4289.200000
251.070400 5515.600000
251.106600 6459.500000
252.078700 5371.200000
253.085900 113145.900000
261.091100 2079.000000
263.070400 31357.300000
264.078200 45209.800000
265.085900 124975.800000
266.057100 5091.200000
267.101700 2819.500000
277.085500 3695.200000
279.101700 8382.500000
281.080800 31396.400000

>ms2
141.069500 1603.700000
152.062000 5087.200000
153.070000 6476.800000
154.077600 1300.800000
165.069900 77620.200000
166.077600 21705.800000
167.085500 5804.200000
168.056500 2319.500000
176.062000 7071.700000
177.069800 19153.400000
178.077600 85874.600000
179.085500 68565.700000
180.093300 22488.900000
181.064600 14962.300000
181.101100 3909.800000
182.072600 10044.000000
183.080100 1527.100000
189.069900 48460.800000
190.077600 80739.100000
191.085400 139037.300000
192.056800 7123.600000
192.093400 13006.200000
193.064600 81121.200000
194.072500 54289.700000
195.080600 10635.000000
196.088300 4658.900000
197.059200 2449.600000
197.095800 4636.100000
201.069700 7875.600000
202.077600 24541.800000
203.085500 19425.700000
204.056400 4356.900000
205.064600 58454.400000
206.072500 80033.000000
207.080300 153535.000000
208.088300 53511.700000
209.059600 13233.400000
209.095900 31018.800000
210.067400 27153.000000
217.064700 19417.600000
218.072500 46795.900000
219.080300 110540.300000
220.051600 9298.900000
220.088700 14832.100000
221.059500 94756.000000
221.096100 14035.600000
222.067400 65215.000000
223.075500 11537.000000
224.083200 9151.100000
225.091000 20565.100000
226.062300 4277.400000
231.080300 43119.400000
233.059500 27027.200000
233.096100 3709.500000
234.067400 18281.200000
235.075100 136998.100000
236.083000 179745.500000
237.054500 9073.000000
237.090900 131391.800000
238.062100 179982.400000
245.059900 3270.000000
246.067300 9278.300000
247.075100 168971.500000
248.083600 24232.100000
249.054300 15223.900000
249.091200 6534.500000
250.062100 8122.500000
251.069900 5306.400000
251.106600 3797.200000
252.078200 6176.100000
253.085700 122875.800000
263.070000 31557.800000
264.077900 34619.300000
265.085700 101092.700000
277.084800 3880.200000
281.080600 20081.600000

>ms2
141.069900 1817.300000
152.062200 9566.900000
153.069700 6883.100000
154.077400 4523.800000
164.062600 2822.100000
165.069900 106907.300000
166.077600 25786.200000
167.085500 8901.200000
168.057700 2367.700000
169.064900 2837.500000
176.062100 6859.900000
177.070000 24215.100000
178.077800 109152.700000
179.085600 91650.800000
180.057200 2172.600000
180.093400 17742.000000
181.064900 17992.600000
181.101600 3471.700000
182.072800 14842.800000
183.080500 1694.300000
188.062200 1559.700000
189.069900 70820.600000
190.077800 85776.400000
191.085600 127309.700000
192.057000 11591.700000
192.093900 8518.200000
193.064800 92329.400000
194.072700 61244.200000
195.080700 10509.200000
196.051600 2366.300000
196.088400 2828.800000
197.059100 2768.000000
197.096200 6286.200000
201.069800 9173.400000
202.077800 26702.200000
203.085600 12927.500000
204.057200 5101.200000
205.064800 62807.400000
206.072700 75435.000000
207.080500 143012.000000
208.088500 37316.400000
209.059700 13042.200000
209.096100 32446.700000
210.067600 31364.700000
217.064800 18219.000000
218.072600 39302.700000
219.080400 91790.900000
220.051800 11844.500000
220.089000 9473.000000
221.059700 89660.800000
221.096200 9822.900000
222.067600 61544.200000
223.076000 8879.700000
224.083200 7517.000000
225.090900 17429.100000
226.062300 5642.800000
231.080400 36194.100000
233.059700 21894.400000
234.067600 15170.100000
235.075300 104904.400000
236.083300 109062.900000
237.054600 10584.500000
237.091100 102159.400000
238.062300 165832.400000
245.059900 3360.100000
246.067500 6201.200000
247.075300 138278.400000
248.084400 13932.200000
249.054700 11847.500000
249.091800 4667.900000
250.062200 7104.400000
251.070600 3809.800000
251.107500 1659.900000
252.078600 4277.200000
253.085900 81253.000000
263.070300 19494.500000
264.078000 18667.800000
265.085800 55289.700000
277.086400 1618.200000
281.081000 7566.900000

>ms2
141.070200 2838.500000
152.062100 13519.000000
153.069800 14408.600000
154.077800 7712.600000
164.061900 3465.400000
165.069900 137084.000000
166.077700 31033.000000
167.049700 1780.500000
167.085500 10227.900000
168.057100 2896.700000
169.065000 2226.800000
176.061900 10770.200000
177.069900 31581.700000
178.077700 136730.000000
179.085500 106062.300000
180.093400 16135.000000
181.064800 22547.000000
182.072600 22416.400000
183.080500 2204.200000
189.069900 94725.400000
190.077600 91582.000000
191.085400 121556.900000
192.056900 18874.300000
192.093800 6293.000000
193.064700 106473.500000
194.072500 77391.400000
195.080400 12682.400000
196.051000 3494.200000
196.087900 2304.600000
197.058900 2361.200000
197.096100 7677.900000
200.062500 2082.900000
201.069700 9822.200000
202.077600 29075.800000
203.085500 13068.000000
204.056600 5583.200000
205.064600 73488.200000
206.072500 75910.600000
207.080300 134459.600000
208.051900 1468.600000
208.088300 27784.900000
209.059400 15211.700000
209.096000 33072.800000
210.067300 44149.800000
217.064700 18232.400000
218.072500 34198.200000
219.080400 75085.000000
220.051700 13134.500000
220.088800 6237.100000
221.059600 86527.900000
221.096300 6440.700000
222.067400 65590.200000
223.075300 10266.700000
224.083100 5011.700000
225.090900 16899.600000
226.062400 4247.200000
231.080300 31357.000000
233.059700 17210.800000
233.096700 1560.200000
234.067300 10982.400000
235.075200 81188.600000
236.083100 76900.800000
237.054500 12537.300000
237.090800 76068.800000
238.062200 158940.200000
245.060600 3031.600000
246.066700 5687.600000
247.075200 115620.400000
248.083400 9410.100000
249.054500 7397.700000
249.091200 2399.300000
250.062300 7122.400000
251.069400 2668.300000
252.077400 2407.400000
253.085800 55422.700000
263.070100 13682.000000
264.078000 9263.200000
265.085800 27086.900000
281.081700 2647.000000

>ms2
139.054100 2014.300000
141.070000 3452.300000
151.054100 2279.000000
152.062100 19423.400000
153.069900 18825.700000
154.077700 8644.000000
163.054100 1015.600000
164.062200 5878.900000
165.069900 160513.100000
166.077600 29732.000000
167.048900 2679.400000
167.085500 8762.600000
168.057100 3792.200000
169.064900 3368.500000
176.062100 15636.800000
177.069900 34287.300000
178.077700 136855.500000
179.085500 97397.600000
180.057100 2036.600000
180.093300 9488.600000
181.064900 28817.500000
182.072600 24771.100000
183.079900 3242.700000
189.069900 111515.500000
190.077800 80496.100000
191.085500 91619.900000
192.056900 21854.700000
192.094100 3056.600000
193.064700 93863.800000
194.072600 69326.000000
195.044600 1241.500000
195.080600 11421.000000
196.051500 2136.700000
196.088700 1661.800000
197.059200 1841.900000
197.096300 5387.500000
200.062400 2581.400000
201.069700 7594.200000
202.077600 29208.900000
203.085900 8337.500000
204.057100 5080.200000
205.064700 65560.400000
206.072700 54016.800000
207.080400 102685.800000
208.051300 1568.200000
208.088700 16182.600000
209.059500 13361.300000
209.096100 23767.600000
210.067500 40947.200000
217.064800 14766.500000
218.072500 27840.300000
219.080400 55269.800000
220.051800 14082.000000
221.059600 62801.000000
221.096600 3624.800000
222.067500 54052.600000
223.076100 6112.500000
224.083500 2325.600000
225.091000 10252.300000
226.062500 2572.100000
229.063900 2356.200000
231.080400 23485.900000
233.059600 14733.900000
234.067600 8991.100000
235.075300 50378.900000
236.083300 39253.800000
237.054300 11756.000000
237.091000 46409.200000
238.062200 113964.900000
245.059800 2839.900000
246.067900 3254.900000
247.075300 92403.100000
249.054400 4132.800000
250.062400 5311.400000
252.077800 1627.400000
253.085800 24848.800000
263.070100 10984.600000
264.078200 3471.900000
265.085700 11351.000000

>ms2
139.054600 2644.900000
141.069900 4358.200000
151.054200 3795.100000
152.062200 28517.500000
153.069900 25386.500000
154.077700 15496.200000
163.054300 1233.000000
164.062100 8395.300000
165.069900 189202.500000
166.077700 36798.300000
167.049200 4138.900000
167.085500 8710.800000
168.057200 4243.500000
169.065200 4167.700000
176.062100 21282.700000
177.070000 39872.600000
178.077700 150256.100000
179.085600 100013.900000
180.057000 1874.700000
180.093300 6349.300000
181.064900 33107.500000
182.072700 31154.900000
183.080000 1411.300000
188.062200 1791.700000
189.070000 127370.900000
190.077800 70777.800000
191.085500 81041.900000
192.056900 26152.100000
192.093500 2827.000000
193.064800 89247.700000
194.072600 71565.600000
195.044700 1316.100000
195.080700 8623.700000
196.051700 1555.400000
196.087900 1437.900000
197.060100 1678.900000
197.096400 4684.900000
200.061700 2504.900000
201.070100 7986.600000
202.077700 28347.400000
203.085600 7552.100000
204.057300 6167.100000
205.064700 64896.700000
206.072700 47654.200000
207.080500 79959.600000
208.051400 1637.600000
208.088500 11225.200000
209.059600 18218.300000
209.095900 19816.300000
210.067500 37455.700000
217.064800 14200.100000
218.072500 22645.100000
219.080400 40229.900000
220.051800 13726.200000
220.089100 3319.000000
221.059700 57420.700000
222.067500 43267.200000
223.075900 4903.100000
225.091100 7204.500000
226.062900 3172.700000
229.064100 1560.600000
231.080400 20734.100000
233.059500 8293.800000
234.067600 5335.200000
235.075300 34568.700000
236.083300 23828.300000
237.054500 13633.000000
237.091000 27756.900000
238.062300 87279.500000
245.059800 3265.500000
246.067800 3381.300000
247.075300 70202.600000
249.054700 2828.100000
250.062400 2843.700000
251.070900 1598.800000
252.077900 1715.900000
253.085800 12418.800000
263.070000 6573.200000
264.078500 1374.000000
265.085700 4700.800000

