>compound NA47357407
>parentmass 395.1965
>ionization [M+H]+
>formula C23H26N2O4
>rt 358.140000
>profile orbitrap
#smiles_iso COC1=C(C=C2C(=C1)[C@]34CCN5[C@H]3C[C@@H]6[C@@H]7C4N2C(=O)CC7OCC=C6C5)OC
#smiles_can COC1=C(C=C2C(=C1)C34CCN5C3CC6C7C4N2C(=O)CC7OCC=C6C5)OC
#inchikey RRKTZKIUPZVBMF-PLNGPGDESA-N
#pubchem_id 9649
#mb_accession NA002556,NA002557,NA002558,NA002559,NA002560,NA002949,NA002950,NA002951,NA002952,NA002953,NA003324,NA003325,NA003326,NA003327,NA003328,NA003694,NA003695,NA003696,NA003697,NA003698

>ms2peaks
395.196700 148670.700000

>ms2peaks
395.196800 358273.400000

>ms2peaks
395.196800 400160.800000

>ms2peaks
395.196800 384496.900000

>ms2peaks
395.196800 376601.300000

>ms2peaks
244.096500 4660.600000
282.112800 4114.400000
324.122900 14577.500000
350.137800 4331.700000
367.165200 18662.100000
380.173300 1386.200000
395.196300 668128.600000

>ms2peaks
124.076300 1345.000000
244.096800 17089.900000
251.095000 1265.200000
256.096500 1700.600000
280.096100 1948.500000
282.112800 13367.400000
294.112600 1035.500000
322.143000 2662.100000
324.123100 42121.900000
326.137600 1118.600000
332.128100 2236.200000
349.155800 3112.600000
350.138900 12864.700000
352.153500 1944.800000
367.165400 43548.800000
380.171700 2568.300000
395.196500 569084.300000

>ms2peaks
108.080900 3551.600000
122.059800 1310.100000
124.075700 3242.300000
178.085800 2384.400000
229.072200 1216.700000
244.096800 42703.400000
251.093100 1225.300000
254.117600 1311.800000
256.096600 4747.700000
258.111800 2547.200000
263.093700 1980.100000
267.089200 3988.100000
280.097100 3448.800000
282.112600 26957.200000
321.136300 2118.400000
322.143900 6986.300000
324.123100 71734.300000
326.138500 1415.800000
332.127800 4999.700000
349.154000 3445.900000
350.138600 21930.400000
352.153500 2498.000000
366.169800 1443.100000
367.165400 60410.400000
380.173400 4496.100000
395.196500 416786.800000

>ms2peaks
70.065200 1456.700000
108.080900 6692.200000
122.060100 4262.500000
124.075700 4792.400000
178.086200 2026.700000
190.086100 1802.300000
213.078600 5505.100000
216.102200 2421.200000
227.093500 1715.200000
228.101900 1843.600000
229.073300 7329.100000
243.089400 1796.800000
244.096800 78647.300000
251.094500 2840.900000
254.116700 3285.300000
256.096800 5320.400000
258.112400 3773.900000
260.091700 1774.100000
263.094300 6069.800000
267.089000 8232.900000
272.091800 1861.700000
280.096900 7658.500000
281.105700 2267.800000
282.112500 34604.100000
294.112600 5415.600000
298.106800 2435.700000
301.109600 1913.100000
306.112700 2218.300000
308.127400 2119.400000
317.104900 1277.500000
321.135900 4193.700000
322.143800 11475.500000
323.138100 2176.800000
324.123200 90443.700000
332.128300 6249.300000
335.115100 1267.500000
338.138100 2152.400000
349.154600 6955.600000
350.138800 31834.400000
352.142900 4503.000000
366.168600 2127.200000
367.165400 63392.100000
379.164900 1427.300000
380.173700 3783.200000
395.196500 268023.100000

>ms2peaks
70.065000 1562.900000
108.080700 9119.000000
122.059900 6516.300000
124.075700 7182.100000
178.085800 3447.100000
190.085900 2927.100000
213.078200 12682.900000
216.101700 6328.000000
227.094000 2134.400000
228.101800 3307.100000
229.073300 13865.100000
243.088400 2255.200000
244.096600 116909.700000
251.093800 8033.400000
254.117200 6381.100000
256.096500 8643.400000
258.112800 4667.800000
260.090600 2357.400000
263.093800 9920.000000
267.088800 12038.000000
272.090900 1879.300000
280.096500 11945.600000
281.103900 1957.000000
282.112300 34978.800000
294.112500 6620.200000
298.107600 2924.000000
301.109800 3994.200000
306.111800 3840.100000
308.128300 2217.800000
317.105100 1534.000000
321.135400 6811.600000
322.143500 13380.400000
323.139000 1541.100000
324.122800 86757.800000
326.138100 2078.300000
332.127500 6164.300000
335.115600 1463.800000
338.139200 2164.400000
349.154100 6244.900000
350.138600 30504.400000
352.143300 3930.500000
366.169300 2664.200000
367.165200 49691.400000
379.163800 2966.000000
380.172100 4357.900000
395.196200 140709.500000

>ms2peaks
67.054400 1298.500000
70.065100 2317.700000
79.054400 1176.500000
80.049400 1442.400000
81.070100 1485.400000
91.054200 1820.400000
93.057300 1408.200000
93.069800 1352.400000
94.065100 3527.300000
95.049200 2820.700000
95.085400 1092.700000
96.080800 3369.300000
106.065100 6111.600000
108.080700 17621.100000
122.060000 13717.700000
124.075700 13066.600000
148.075600 2593.100000
176.071200 1575.600000
177.077700 1189.900000
178.086000 8023.700000
185.083400 2507.900000
190.086200 7301.600000
192.065500 3754.500000
197.084200 2455.200000
204.101900 5587.400000
212.070100 1903.800000
213.078300 39029.700000
214.050800 1122.900000
216.101800 20830.600000
220.097200 2447.200000
226.085700 2390.300000
227.094000 8218.700000
228.065700 2698.300000
228.102000 6457.300000
229.073300 41546.500000
230.080600 2590.100000
240.101600 2763.700000
241.074000 1012.100000
243.089100 4396.300000
244.096700 194910.200000
246.112700 3023.900000
249.115500 2329.400000
251.094000 17547.000000
252.064600 1564.000000
254.081500 2664.600000
254.117400 16826.000000
256.096700 12903.400000
257.104700 1953.700000
258.075400 1363.700000
258.112400 7079.500000
260.091300 3389.200000
262.085400 2817.000000
263.094100 21158.100000
264.102500 2761.900000
265.073600 1610.200000
265.108800 1481.600000
266.118600 1954.200000
267.089000 21993.900000
270.112700 2365.300000
272.091600 2522.800000
277.110200 1283.800000
278.116900 4896.100000
279.125300 1192.200000
280.096700 18304.600000
280.132000 1691.900000
281.104500 3781.600000
282.112500 49007.300000
284.091100 1777.400000
289.109400 1136.400000
291.125900 4191.700000
294.112500 12106.000000
296.128200 2628.000000
297.099500 2001.700000
298.106800 4632.000000
301.110100 4836.100000
303.126000 1276.600000
306.112400 9153.500000
307.120700 3970.000000
308.126600 4580.600000
317.104200 2533.500000
319.120600 3908.400000
320.127500 2103.300000
321.135700 14225.800000
322.143600 21222.200000
323.138600 2022.000000
324.123000 97106.100000
326.137300 1444.900000
332.127800 10480.400000
335.114600 2754.000000
336.146800 2765.600000
338.138000 2270.600000
349.154700 7662.300000
350.138700 35850.600000
351.170500 2031.400000
352.142000 8091.800000
366.170400 2432.200000
367.165300 56873.300000
379.165200 5580.200000
380.172700 4113.500000
395.196300 103735.300000

>ms2peaks
67.054300 1350.600000
70.064900 2100.000000
79.054300 2746.100000
80.049400 2361.100000
81.069900 2468.600000
91.054300 1621.900000
93.057400 2830.600000
93.069800 2646.400000
94.065100 3743.900000
95.049100 3324.500000
96.080800 3426.000000
106.065200 10496.800000
107.073100 1621.900000
108.080800 22691.200000
120.081200 1250.700000
121.064500 1272.400000
122.060100 14860.800000
124.075800 13758.100000
144.080900 1614.400000
148.075700 3427.000000
176.070400 2304.500000
177.079100 1750.900000
178.086400 10037.200000
184.074900 1505.200000
185.083600 6547.500000
187.062700 1130.500000
190.086500 7992.300000
192.065600 5182.300000
197.083700 4804.700000
198.055000 1315.400000
200.070300 1446.000000
201.077900 1838.200000
202.086400 1532.000000
204.065800 1217.100000
204.102100 5747.800000
211.062700 2042.300000
212.070300 3111.300000
213.078500 65884.000000
214.050300 3386.600000
214.086800 3442.000000
216.101900 34103.800000
220.097400 1466.500000
221.084300 961.100000
224.070800 1120.100000
226.086100 3891.300000
227.094200 8805.000000
228.065800 3357.700000
228.101900 5906.200000
229.073400 61378.700000
230.082100 4582.400000
230.118000 2321.300000
236.071200 1273.200000
236.106700 1337.400000
240.064600 1099.600000
240.102400 2735.200000
241.109100 1639.900000
242.080800 2564.000000
243.089200 4876.900000
244.096800 211269.000000
246.112800 2482.900000
247.098100 1167.800000
248.071300 1303.300000
249.078500 2718.700000
249.115500 3103.500000
251.094100 21351.200000
252.065000 2819.000000
254.082000 1356.400000
254.117500 18806.500000
256.096900 12612.400000
257.104800 2015.000000
258.076200 1547.000000
258.112400 6883.600000
260.091900 3696.800000
262.085500 2326.600000
263.094100 25953.000000
264.065600 1095.700000
264.102600 3382.100000
265.073100 3716.600000
265.109800 2024.400000
266.080500 2135.600000
266.118000 3041.200000
267.089100 24360.900000
268.095900 1305.400000
270.112400 2287.400000
272.091200 3628.200000
276.102700 1234.700000
278.117800 6807.500000
279.089300 2245.500000
279.125800 1049.300000
280.096900 20393.100000
280.132800 2950.900000
281.104300 3784.300000
282.112600 34081.600000
284.093000 1844.500000
286.086300 1630.300000
288.100900 1793.200000
289.109400 1220.100000
290.117000 1819.200000
291.125200 5020.100000
292.095800 3000.200000
294.112500 10148.300000
296.127400 2425.100000
297.098500 1490.100000
298.108200 2043.300000
301.110000 6513.400000
303.124700 1012.800000
304.097000 2004.000000
306.112500 11818.200000
307.119400 3072.200000
308.127900 5184.500000
309.123700 1922.400000
317.103600 2473.900000
319.120100 5482.900000
320.129200 2416.700000
321.135900 14115.700000
322.143700 18636.700000
323.139300 2213.600000
324.123100 61046.900000
326.139100 1656.200000
332.128100 7150.500000
335.115200 1583.600000
336.147800 2836.600000
338.139600 2918.500000
349.155200 5891.400000
350.139000 22977.700000
351.169900 2179.700000
352.141800 5715.200000
366.169700 2112.000000
367.165300 31169.400000
379.164900 6378.600000
380.172700 3222.900000
395.196500 41013.100000

>ms2peaks
67.054300 1561.400000
68.049400 1996.600000
70.065100 2212.900000
79.054300 3145.000000
80.049600 2643.500000
81.069800 4509.100000
82.065100 1682.900000
91.054200 2196.400000
93.057400 2801.500000
93.070000 2775.900000
94.065200 3739.600000
95.049200 2824.200000
95.085800 1055.600000
96.080700 4102.800000
106.065200 11156.300000
107.073200 1055.900000
108.080800 21622.700000
120.080600 1283.500000
121.064700 1134.600000
122.060100 13867.200000
124.075800 13489.800000
144.080600 1437.200000
147.067800 1872.300000
148.075500 2459.100000
163.062600 1397.000000
170.060000 1367.500000
172.075300 1215.000000
173.083800 1615.900000
176.070700 1938.200000
177.079100 1920.700000
178.086400 8472.100000
183.067700 1206.000000
184.075800 4355.700000
185.083600 15384.100000
186.055100 1494.100000
186.091500 1224.700000
189.079200 1393.500000
190.086200 9252.400000
192.065400 7218.800000
197.083900 7627.000000
198.054900 5226.500000
200.070500 3033.800000
201.078800 5134.700000
202.086300 1650.500000
204.066000 1464.000000
204.101900 5370.200000
211.063000 1325.600000
212.070700 7222.000000
213.078400 87883.500000
214.050000 6928.200000
214.086600 3559.700000
216.101900 52368.700000
223.098900 2734.400000
226.086000 5349.400000
227.094100 9957.000000
228.065500 5578.600000
228.102000 8562.000000
229.073400 75859.900000
230.081300 4014.200000
230.116600 2342.600000
234.090500 1801.600000
235.099800 2073.900000
236.070800 4491.200000
236.106400 3576.900000
238.085800 2998.800000
240.065000 1602.900000
240.101400 2650.700000
241.073300 2340.100000
241.110600 1890.200000
242.081200 2229.400000
243.089300 6096.700000
244.096900 172796.400000
247.099400 1683.400000
248.069800 2007.200000
248.107300 2410.100000
249.079300 3075.700000
249.114400 2916.800000
250.086200 3282.600000
251.094100 23473.300000
252.065800 6480.400000
252.102000 3785.000000
254.081700 3529.600000
254.117600 16694.600000
256.096800 11281.300000
258.112200 6863.800000
260.091400 2789.700000
260.107600 1064.200000
262.086300 3615.100000
263.094200 25740.000000
264.065200 3911.700000
264.101700 5943.500000
265.073700 4810.200000
265.109900 3250.900000
266.080700 3313.900000
266.117700 3759.800000
267.089100 19823.200000
268.097400 1324.400000
272.091500 2413.800000
276.101800 2890.300000
277.111100 2715.100000
278.117300 7526.200000
279.090000 1671.400000
279.124700 1880.700000
280.096900 16961.200000
280.132500 3096.800000
281.105500 2628.600000
282.112600 21522.700000
286.085900 1374.000000
288.101800 1960.200000
289.110000 1611.200000
291.125200 4726.400000
292.097700 3414.200000
294.112400 9924.500000
296.128000 1582.200000
298.106500 1847.300000
301.109400 5171.200000
304.097700 1450.900000
306.112500 12736.300000
307.120800 3311.200000
308.128900 4389.600000
309.123600 1644.400000
317.105500 1364.600000
319.119800 3438.000000
321.135900 11001.000000
322.143700 11506.700000
324.123300 31392.600000
332.127800 4574.700000
336.148100 1491.900000
338.138200 1669.100000
349.155300 2182.700000
350.138800 11831.100000
352.141300 4369.500000
367.165200 13582.700000
379.165100 6465.200000
395.196700 15266.900000

>ms2peaks
68.049200 1123.300000
70.065100 1747.200000
79.054300 4386.700000
80.049400 4279.900000
81.069900 4266.200000
82.065000 1946.800000
91.054300 3753.400000
93.057300 5765.300000
93.069800 3026.200000
94.065200 4451.300000
95.049100 2267.400000
95.085700 1454.500000
96.080800 4815.700000
106.065100 10557.000000
107.073300 1178.700000
108.080800 16241.200000
120.081000 1228.400000
121.064700 1701.300000
122.060100 10167.800000
124.075600 8492.400000
144.080900 1377.900000
146.060000 1144.900000
147.068100 2648.600000
148.075700 4059.800000
160.075600 2229.300000
163.062900 2249.800000
170.060400 2293.200000
172.075500 3147.400000
176.070800 1851.900000
177.078100 1993.400000
178.086400 8687.000000
183.067600 1041.500000
184.075900 7339.200000
185.083500 20803.200000
186.055300 1613.600000
186.091300 2206.700000
188.070600 1816.600000
190.086200 7564.800000
192.065400 6093.700000
197.083900 6795.700000
198.054900 8913.900000
200.070800 4846.600000
201.078400 6893.400000
202.086100 2192.000000
203.093900 1081.400000
204.101800 3830.600000
209.084200 1128.600000
210.091000 2732.500000
212.070300 8583.100000
213.078400 87764.900000
214.049700 8577.200000
214.085900 4269.400000
216.101800 55066.300000
222.091300 1636.200000
223.098800 2818.400000
224.070700 1500.200000
224.107000 1182.800000
226.086500 6126.000000
227.093900 9888.900000
228.065700 7302.000000
228.101900 7544.900000
229.073300 70128.400000
230.081200 3293.000000
230.117900 2118.100000
234.091000 3707.500000
235.099200 3102.200000
236.070800 7904.900000
236.106800 4529.000000
238.086700 3554.100000
239.094400 2205.800000
240.065000 1660.700000
240.102500 3986.700000
241.110600 1208.300000
242.081000 2367.700000
243.088800 4624.700000
244.096800 111926.200000
246.112200 1325.900000
247.099400 1742.500000
248.069900 3459.200000
248.107600 3206.100000
249.078100 3086.300000
249.114800 2858.000000
250.086400 4363.900000
251.094100 22031.300000
252.065400 7487.000000
252.101600 1885.900000
254.082300 1925.500000
254.117600 17044.800000
256.096800 7608.900000
257.105500 1791.100000
258.112000 5131.700000
260.090900 1980.300000
260.108000 2314.200000
262.087400 2247.800000
263.094200 18628.300000
264.065300 2683.600000
264.102100 6923.900000
265.073900 4144.000000
265.109700 1789.800000
266.081300 2828.800000
266.117500 3857.600000
267.089100 15645.000000
270.113100 1259.400000
272.091300 1135.300000
276.101800 2524.600000
278.117500 8131.800000
279.088900 1921.000000
279.124500 1000.800000
280.096800 11359.000000
280.132400 3336.000000
281.105800 2005.200000
282.112500 11040.200000
288.100600 2798.000000
289.110300 1624.300000
290.117700 1510.300000
291.124800 3977.600000
292.096300 2951.300000
294.112700 5831.500000
296.127500 2365.900000
301.110100 3511.100000
304.096200 1260.400000
306.112700 9001.500000
307.120900 1936.300000
309.123900 1773.900000
319.120600 1393.400000
320.129400 1200.900000
321.136000 6888.400000
322.143500 6046.400000
324.123100 11617.700000
335.115800 1224.000000
350.138300 2925.300000
352.141400 2369.600000
367.165600 4868.400000
379.165100 5786.400000
395.197700 4084.400000

>ms2peaks
68.049400 2382.800000
70.065100 1707.500000
79.054200 4188.500000
80.049500 2838.100000
81.069900 3310.600000
82.065000 2397.600000
91.054300 4262.400000
93.057300 5191.500000
93.069900 2762.600000
94.065100 3851.000000
95.049200 1924.000000
96.081000 3515.500000
106.065200 10012.500000
107.073300 1180.900000
108.080900 10392.400000
120.081200 1256.500000
122.060000 7941.900000
124.075800 7283.900000
144.080400 1575.000000
146.060300 1927.400000
147.067800 1645.900000
148.075600 3036.200000
160.075500 1675.900000
163.062900 2033.800000
170.060400 5252.800000
172.075800 4105.000000
173.083800 1907.000000
176.070600 2659.000000
177.078300 2135.400000
178.086300 4811.700000
183.067600 2288.300000
184.076000 10100.000000
185.083600 31359.400000
186.055300 4572.100000
186.091700 1810.900000
187.062200 1624.900000
188.071200 1868.500000
189.077900 1249.200000
190.086400 7203.500000
192.065900 5101.300000
197.083800 7906.200000
198.055100 13381.900000
200.070600 7463.100000
201.078700 9265.000000
202.086700 2956.700000
203.095100 1127.100000
204.101900 2900.200000
209.083400 1437.400000
210.091600 2942.800000
211.063000 2438.600000
212.070900 11097.800000
213.078500 85024.100000
214.049800 16823.600000
214.086500 4229.100000
216.102000 48602.600000
221.084300 2476.200000
222.091000 2784.400000
223.099600 4459.700000
224.070200 2376.300000
224.106600 1422.200000
226.086400 7090.400000
227.094500 7752.000000
228.065700 8692.500000
228.101900 6470.900000
229.073500 56965.300000
230.080900 4498.200000
230.117400 1521.000000
234.091400 4588.200000
235.099300 3455.100000
236.070700 9460.700000
236.107200 6564.400000
238.086400 4610.000000
239.093700 2747.100000
240.102100 3414.200000
241.109000 1268.100000
242.081600 2543.600000
243.089500 2534.000000
244.097000 68625.400000
247.098900 2426.200000
248.070800 4848.500000
248.106600 4588.700000
249.078500 4308.400000
249.114100 2961.200000
250.086600 4554.900000
251.094200 17961.800000
252.065700 7527.600000
252.102400 3271.200000
254.081300 2109.100000
254.117700 10587.100000
256.096600 4774.600000
258.112300 2694.700000
260.091800 1164.000000
260.108200 1859.000000
262.086200 3291.700000
263.094300 14604.800000
264.065700 4239.300000
264.102200 8586.200000
265.074300 2964.600000
265.108900 2115.300000
266.081500 2503.200000
266.117700 3745.800000
267.089400 11356.000000
268.097200 2036.000000
276.101800 3610.200000
277.110200 2010.400000
278.118000 7497.700000
280.097100 9731.000000
280.134200 1900.200000
281.104800 1641.200000
282.112700 5091.100000
288.102600 2199.100000
290.116600 3112.800000
291.125000 2003.400000
292.096400 2960.100000
294.112700 4032.100000
301.109500 2304.400000
306.112800 9799.800000
309.124500 1310.200000
321.135400 3453.800000
322.144300 2676.900000
324.123800 3243.600000
379.164200 2519.400000

>ms2peaks
67.054200 1598.000000
79.054300 4466.500000
80.049600 4849.300000
81.069800 4878.100000
82.065300 1705.700000
91.054200 6584.300000
93.057300 9043.000000
93.070000 2698.200000
94.065100 5640.700000
95.049200 2966.600000
96.080700 4374.300000
105.070000 1935.100000
106.065200 14963.300000
107.073000 1231.700000
108.080800 11453.800000
120.081000 1800.800000
122.060100 8424.700000
124.075700 6892.400000
132.080900 1429.400000
144.080700 1897.500000
146.060100 3668.200000
147.068000 3867.200000
148.075800 2753.400000
154.064900 1596.700000
155.072800 1604.600000
156.080800 2978.200000
158.060100 3432.300000
159.068100 1428.100000
160.075900 5596.600000
162.054600 1802.800000
163.062900 2072.200000
170.060200 12838.900000
171.067700 1831.000000
172.075600 8827.800000
173.084000 3468.200000
174.066700 1902.000000
175.063100 1683.200000
176.070800 2886.300000
177.078400 2720.600000
178.086400 3809.400000
182.060100 3307.000000
183.067800 6377.000000
184.075700 13944.600000
185.083500 44609.100000
186.055000 12670.800000
186.091700 4031.900000
187.062500 2775.600000
188.070600 4305.800000
189.078500 1893.300000
189.090600 1662.600000
190.086300 7672.000000
192.065400 4777.700000
195.066900 1159.400000
196.075500 4320.200000
197.083700 11140.300000
198.055000 30726.400000
198.091400 2679.700000
199.062800 2494.800000
200.070600 13411.600000
201.078500 12610.500000
202.086300 3016.400000
204.101800 4065.700000
208.075500 3881.800000
209.083600 2860.300000
210.091100 5414.700000
211.062800 3921.100000
212.070500 15049.900000
213.078400 102732.600000
214.049900 26380.500000
214.086600 5889.400000
215.093300 1660.600000
216.101900 53938.400000
219.068400 1287.000000
220.075600 4605.000000
221.083100 2731.600000
222.091500 4848.200000
223.098900 5349.800000
224.070400 6046.100000
224.106700 1081.500000
225.078500 2941.500000
226.086200 7195.300000
227.093900 8241.400000
228.065500 9316.100000
228.101700 5665.300000
229.073400 61133.300000
230.081700 3333.500000
232.076800 2611.900000
233.082800 1790.400000
234.053900 1288.000000
234.091500 9035.200000
235.099200 5037.200000
236.070700 17269.300000
236.106900 8687.300000
237.078500 1318.700000
238.086300 7074.800000
238.122800 1406.300000
239.094800 2617.400000
240.065600 1947.800000
240.101800 4176.900000
241.073600 1209.500000
242.081300 3037.000000
243.088800 3771.100000
244.096800 51999.600000
246.091700 2391.100000
247.063500 1700.400000
247.099300 2839.200000
248.070900 6766.700000
248.106900 7009.800000
249.078400 5290.800000
249.115600 3539.300000
250.050700 1058.400000
250.086300 7662.100000
250.122900 2657.200000
251.093900 18089.600000
252.065500 12420.400000
252.102100 4316.000000
254.080800 2863.700000
254.117500 11471.000000
256.097000 3370.700000
260.107100 2533.100000
262.086800 4080.200000
262.122400 1905.000000
263.094100 14143.800000
264.065400 5466.500000
264.101800 8922.800000
265.073400 3321.100000
265.109000 1132.600000
266.080600 3205.600000
266.117900 3677.100000
267.089100 9342.300000
274.086400 1970.900000
276.101500 3273.500000
278.117400 7821.500000
279.088200 1424.700000
280.097100 7753.100000
282.112900 3180.300000
286.086300 1608.200000
288.102500 2411.800000
290.081400 1257.000000
290.117900 3185.800000
292.097200 3227.100000
294.112300 3050.200000
306.112600 10088.200000
337.155900 2131.400000
379.167100 2033.800000

>ms2peaks
67.054200 1656.900000
79.054300 4510.700000
80.049600 5419.800000
81.057200 1423.400000
81.069800 3956.000000
82.065300 1341.300000
91.054300 5435.900000
93.057300 8505.900000
93.069800 2678.600000
94.065200 4719.900000
95.049000 2230.100000
96.080600 3384.700000
105.045000 1319.000000
106.065200 14311.200000
108.080800 9769.000000
118.065200 1450.300000
120.081000 2169.500000
122.060000 6996.400000
124.075700 3117.300000
129.069600 1306.400000
142.065800 1339.700000
146.060400 3316.200000
147.067900 5014.200000
148.039600 1764.900000
148.075000 1971.300000
154.065100 4816.000000
155.073700 2421.600000
156.080800 2272.900000
158.060100 4655.200000
159.067800 1447.400000
160.075700 4936.300000
162.054500 2573.200000
163.062300 3111.400000
169.051500 1137.200000
170.060100 20659.000000
171.068000 3327.100000
172.075700 13672.000000
173.083500 4070.900000
174.055000 2981.300000
174.067700 2189.700000
176.070600 2289.600000
177.078800 1433.700000
178.085900 2350.300000
182.060200 5719.900000
183.067900 7843.000000
184.075800 18682.000000
185.083500 51790.800000
186.055000 16885.800000
186.091700 3100.700000
187.062700 2336.400000
188.070600 3396.600000
188.107800 947.300000
189.078400 1678.300000
189.091100 1738.300000
190.086300 6634.100000
192.065500 4865.500000
193.088700 1190.000000
194.060000 1938.600000
194.095900 1540.900000
196.075700 5935.600000
197.083600 9653.300000
198.054900 36711.400000
198.091300 2865.200000
199.062700 2717.900000
200.070600 16389.400000
201.078500 13928.500000
202.086100 3763.200000
204.102100 2267.000000
206.096600 2178.300000
208.075600 5840.200000
208.111700 1164.700000
209.083700 3346.700000
210.054200 1793.000000
210.091300 7258.800000
211.063100 2905.900000
212.070700 14407.400000
213.078300 89587.600000
214.049800 28082.000000
214.086500 5080.400000
215.094100 2367.100000
216.101800 42766.000000
217.089100 2021.200000
218.096500 1876.500000
219.067200 1715.200000
220.075600 6679.400000
221.083500 4812.600000
222.054000 1613.400000
222.091300 4905.900000
223.098900 5074.600000
224.070900 7328.900000
224.107600 2093.700000
225.078500 2259.700000
226.086400 7294.400000
227.094000 7206.400000
228.065500 9863.800000
228.101700 4307.600000
229.073400 44939.400000
230.081200 2365.300000
232.075600 2502.700000
233.083800 2589.300000
234.054400 2286.400000
234.091400 11175.800000
235.099400 4940.200000
236.070500 18107.200000
236.107000 9178.300000
238.086200 8083.800000
239.094000 3012.000000
240.065000 2523.900000
240.101500 2490.000000
241.074400 2003.900000
242.081500 2489.500000
243.090100 2242.100000
244.096800 27460.500000
246.055100 1718.900000
246.090800 3735.300000
247.063000 1835.600000
247.099900 2821.000000
248.070900 6821.400000
248.107100 6618.500000
249.078800 3778.800000
249.114300 1925.900000
250.049500 1577.900000
250.086300 6745.000000
250.122000 2211.600000
251.094000 12536.200000
252.065200 7760.800000
252.101600 4812.200000
254.081100 1782.700000
254.117700 7404.200000
256.096700 2000.700000
258.090700 2414.700000
260.106900 3403.600000
262.085800 4776.400000
262.122800 2326.100000
263.094000 8732.300000
264.065700 4107.500000
264.101900 9622.800000
265.072200 1976.500000
265.109500 1696.400000
266.080900 2402.700000
266.117400 2776.200000
267.088900 4911.400000
273.078400 958.600000
274.087400 2192.900000
276.102000 4323.700000
278.117800 7355.800000
279.088200 1349.300000
280.096400 4638.600000
282.112600 1902.200000
286.086300 1739.000000
288.101700 3405.600000
290.117600 2731.100000
292.097700 1778.100000
294.111700 1593.500000
306.112100 5059.800000
337.155600 2236.300000
379.166700 1495.800000

>ms2peaks
67.054300 2066.500000
77.038700 1565.700000
79.054300 4763.800000
80.049500 4389.700000
81.069900 3442.700000
82.065400 1119.700000
91.054200 5782.300000
93.057300 8101.100000
94.065100 4299.800000
95.049300 1661.400000
96.080900 4092.500000
106.065100 13657.100000
107.073100 1351.800000
108.080800 6354.900000
115.054300 1188.300000
117.070100 1382.800000
120.080900 1277.600000
122.059900 5002.900000
124.075700 2104.500000
129.070000 1682.000000
130.065200 3055.400000
132.081000 1346.300000
133.051700 1040.100000
142.065400 1988.600000
143.072200 1481.300000
144.080900 2621.900000
146.060000 6572.200000
147.067900 3945.700000
148.039100 3091.500000
148.075700 1661.700000
154.065000 4904.400000
155.073100 2009.600000
156.080800 4171.800000
158.060100 8193.400000
159.068100 2289.200000
160.075900 6561.100000
162.054900 1326.700000
163.063100 1399.300000
166.065400 1407.800000
167.073700 1030.900000
169.052400 2756.900000
170.060100 31010.900000
171.067900 2521.900000
172.075700 15083.800000
173.083300 2041.400000
174.054900 2839.300000
174.067500 2417.200000
175.063300 1255.400000
176.070400 2051.900000
177.077800 1116.000000
178.086100 2262.200000
180.080400 1760.200000
182.060100 8630.400000
183.067700 9618.700000
184.075800 19007.300000
185.083500 47747.400000
186.055000 17979.600000
186.091100 3903.200000
187.062800 1775.900000
188.070300 3814.900000
188.107800 1367.900000
189.078800 1104.000000
190.086100 4494.000000
191.073200 1074.300000
192.066000 1930.400000
192.080600 1217.500000
193.088700 1430.100000
194.060600 2157.200000
194.096300 1743.800000
196.075700 5977.500000
197.083700 8370.100000
198.054900 42875.500000
198.091300 3522.600000
199.062600 3740.700000
200.070600 14731.300000
201.078500 13274.800000
202.086200 2454.100000
204.080900 2171.400000
205.087900 1389.300000
206.059900 1282.100000
206.096200 3626.500000
207.068900 1652.500000
208.075600 6581.000000
209.083500 5712.400000
210.054900 1618.800000
210.091200 7942.700000
211.062900 2774.700000
212.070600 15354.500000
213.078300 64669.900000
214.049700 28146.100000
214.086100 4102.500000
215.094400 1256.500000
216.101800 28546.200000
217.088700 2440.800000
218.096700 2300.400000
220.075500 8064.500000
221.083900 4753.200000
222.055000 1766.700000
222.091000 6180.900000
223.099400 3991.500000
224.070200 6566.700000
224.107000 1294.800000
225.078400 3098.400000
226.086400 6470.900000
227.094500 3937.200000
228.065600 10019.700000
228.101700 3000.400000
229.073300 27904.300000
230.081000 1206.200000
232.075200 3941.900000
233.083200 3822.700000
234.055400 2119.200000
234.091200 10949.700000
235.099100 4598.300000
236.070500 16859.100000
236.107100 8650.200000
237.078600 2120.100000
238.085900 6139.800000
239.093800 2234.800000
240.065100 1879.400000
240.101900 2128.100000
241.073500 1220.100000
242.081200 1343.800000
243.088600 1388.000000
244.096700 13011.200000
246.054200 3031.500000
246.091000 3071.200000
247.099000 2846.600000
248.070500 5564.500000
248.106900 6426.200000
249.078500 3890.200000
249.114200 1887.700000
250.086400 5743.500000
250.123200 1940.400000
251.094000 7032.000000
252.065200 6015.000000
252.102400 3660.800000
254.082000 1931.000000
254.117500 5108.600000
258.090800 2000.300000
260.106800 2950.300000
262.086600 4076.100000
263.094200 5963.300000
264.065900 4329.300000
264.101900 8401.300000
265.072300 1814.600000
265.110000 1330.100000
266.118300 2127.800000
267.088500 2560.200000
274.087200 1898.100000
276.101900 3743.400000
278.116800 4929.100000
280.097200 2549.600000
288.102200 2143.500000
292.097800 1355.000000
306.112300 3056.700000
337.155100 1803.500000

>ms2peaks
67.054300 1116.600000
77.038700 1250.600000
79.054300 4280.900000
80.049500 5031.300000
81.057300 1261.900000
81.069900 2474.700000
82.065000 1425.700000
91.054200 5790.100000
93.057400 10320.300000
93.069900 1956.600000
94.065200 4726.600000
96.080800 2315.200000
105.044900 1225.800000
105.070100 1358.500000
106.065200 10536.000000
108.080900 4694.300000
115.054100 1700.500000
117.070000 1324.500000
118.065100 1119.600000
122.060000 3138.300000
129.069800 1560.200000
130.065100 2908.600000
132.080600 1201.800000
133.052700 1276.500000
134.060300 1578.100000
142.065400 3297.300000
143.072900 1274.000000
144.080800 2579.600000
145.064800 1976.700000
146.060300 6155.700000
147.067900 3556.400000
148.039400 2686.200000
148.075700 1554.100000
154.065300 7214.000000
155.060800 1429.200000
155.073000 3590.900000
156.080800 3772.000000
158.060100 10160.900000
158.073000 1580.300000
159.067500 2461.400000
160.075900 4920.800000
162.054900 1668.700000
163.063500 1709.900000
167.073300 2292.000000
168.081100 2839.700000
169.052500 2677.000000
170.060100 35323.900000
171.068000 2293.300000
172.075900 19219.700000
173.083600 2763.300000
174.054900 1914.300000
174.067800 1769.000000
176.070200 1246.900000
178.086000 1420.400000
180.080800 3325.100000
182.060200 9549.800000
183.067800 9401.500000
184.075800 20802.200000
185.083600 41433.100000
186.055000 19901.300000
186.091100 3048.200000
187.062400 1118.100000
188.070700 3464.000000
188.107500 1034.400000
190.086700 3269.500000
191.072400 1558.200000
192.065600 2088.700000
192.080600 1941.200000
193.088900 1860.200000
194.060000 2394.700000
194.096300 1381.600000
196.075700 7589.200000
197.083500 6661.400000
198.055100 41391.200000
198.091500 3645.600000
199.062900 2453.200000
200.070600 15090.100000
201.078500 9918.100000
202.086200 2071.800000
204.081200 2928.300000
205.088600 2320.000000
206.059600 2930.300000
206.096000 2747.200000
207.067800 1718.900000
208.075700 8335.400000
208.112100 1150.100000
209.083500 4513.400000
210.055400 1563.700000
210.091400 7071.500000
211.062700 2955.700000
212.070800 11161.900000
213.078400 41147.100000
214.049900 22335.700000
214.086600 3818.800000
216.101900 17880.700000
217.088700 3270.300000
218.096300 2405.300000
219.068100 2099.600000
220.075800 9547.800000
221.083400 4965.900000
222.055500 2261.900000
222.091300 5600.900000
223.100000 3791.900000
224.070600 6601.700000
224.106300 2073.200000
225.078300 2534.400000
226.085900 5450.800000
227.094300 2100.500000
228.065400 8535.500000
228.101600 1569.000000
229.073300 16670.700000
230.095800 1333.000000
232.075600 3369.600000
233.083400 4577.300000
234.055000 1497.500000
234.091400 10289.800000
235.099500 3884.500000
236.070500 12458.700000
236.107000 8606.100000
238.086200 6316.900000
240.065600 1989.000000
240.102300 2483.700000
244.096800 5469.700000
246.055700 1305.900000
246.091400 3142.500000
247.063700 1141.800000
247.098700 1800.700000
248.071100 4798.700000
248.106600 5054.300000
249.079100 3325.500000
250.086300 5162.500000
250.122400 2053.600000
251.094400 5369.100000
252.065700 4704.100000
252.101900 1789.100000
258.090800 2139.900000
260.106800 1550.800000
262.086100 3961.800000
262.122400 1329.900000
263.094400 3606.900000
264.066000 2303.700000
264.101700 5792.000000
266.118600 1951.100000
273.078500 1123.500000
274.086500 1603.300000
276.102300 2593.500000
278.117800 2575.800000
288.102400 1415.000000
290.082000 1148.800000
290.116900 1264.700000
306.113800 1983.200000

>ms2peaks
79.054300 4025.100000
80.049600 3581.800000
81.070000 1731.300000
82.065200 1834.600000
91.054200 5269.200000
93.057300 7223.800000
93.069800 1206.100000
94.065300 2227.300000
96.080800 2106.500000
105.044700 2415.300000
105.069900 1678.900000
106.065100 8719.700000
108.080800 1619.700000
115.054300 1518.100000
117.069900 1313.700000
118.065200 2494.600000
120.081000 1914.400000
122.060000 2662.400000
124.076000 1352.500000
129.070000 1959.600000
130.065200 3789.100000
133.051900 1056.000000
134.060100 1218.500000
142.065100 6143.100000
144.081100 2222.900000
145.064700 2324.300000
146.060100 6122.900000
147.068000 2164.600000
148.038600 2511.800000
154.065100 9591.600000
155.059700 1012.000000
155.073200 4421.900000
156.080800 4260.800000
158.060100 12689.200000
158.072500 1507.600000
159.067900 1982.000000
160.075600 4583.900000
162.055000 2069.900000
166.065700 2095.300000
167.072900 3208.800000
168.080300 1617.100000
169.052300 3876.700000
170.060100 40376.100000
171.067800 3506.800000
172.075700 17626.000000
173.083800 2774.600000
174.055000 2196.700000
175.062600 1778.000000
180.080900 3964.500000
182.060300 8026.900000
183.068000 8951.200000
184.075700 19268.900000
185.083500 32837.200000
186.054900 21482.100000
186.091200 2972.000000
187.062800 1236.000000
188.070800 2907.900000
190.086200 2736.800000
192.065300 1512.500000
192.080900 2118.900000
193.089300 1579.500000
194.060200 3515.100000
194.096500 1412.000000
195.067400 1231.200000
196.075700 7695.900000
197.083800 5245.400000
198.055000 39018.600000
198.091300 2345.500000
199.063000 3118.900000
200.070600 15705.700000
201.078500 6673.100000
204.080600 3943.400000
205.088200 2178.500000
206.060100 3007.700000
206.096300 3687.900000
207.067400 2075.300000
208.075600 7985.500000
209.083600 3318.100000
210.091100 6400.000000
211.062900 1649.600000
212.070300 8746.000000
213.078400 24893.300000
214.049800 18346.500000
214.086400 2130.800000
216.101900 8988.700000
217.088900 2250.500000
218.096200 2591.600000
219.067400 1490.100000
220.075500 8448.900000
221.083400 4832.500000
222.054700 1548.800000
222.091300 5350.300000
223.098800 2495.700000
224.070400 5246.000000
225.078100 1847.600000
226.086600 3320.000000
227.094200 1842.600000
228.065900 6065.300000
229.073300 7947.600000
230.095800 1831.500000
232.076100 3442.300000
233.083600 4058.800000
234.055600 1613.800000
234.091400 10729.900000
235.099300 1916.400000
236.070400 11182.700000
236.106900 4321.500000
238.086300 4525.000000
238.122900 1566.100000
244.096900 1922.200000
246.055400 1732.200000
246.090500 3192.000000
247.100200 1736.100000
248.070700 4414.800000
248.106900 4880.300000
249.078700 1737.900000
250.086600 4874.100000
251.094000 2201.000000
252.101200 1038.000000
258.090600 2040.000000
260.107900 1387.100000
262.085800 2823.800000
263.094000 2215.900000
264.064500 2135.200000
264.102500 3423.300000
274.086800 1314.400000
276.101600 1258.300000
278.118100 1588.500000

