>compound NA47959356
>parentmass 287.055
>ionization [M+H]+
>formula C15H10O6
>rt 624.015000
>profile orbitrap
#smiles_iso C1=CC(=CC=C1C2=C(C(=O)C3=C(C=C(C=C3O2)O)O)O)O
#smiles_can C1=CC(=CC=C1C2=C(C(=O)C3=C(C=C(C=C3O2)O)O)O)O
#inchikey IYRMWMYZSQPJKC-UHFFFAOYSA-N
#pubchem_id 5280863
#mb_accession NA002628,NA002629,NA002630,NA002631,NA002632,NA003011,NA003012,NA003013,NA003014,NA003015,NA003379,NA003380,NA003381,NA003382,NA003383,NA003752,NA003753,NA003754,NA003755,NA003756

>ms2
287.054900 21319.500000

>ms2
287.055000 83945.500000

>ms2
287.054900 87600.200000

>ms2
287.055000 91569.700000

>ms2
287.055000 98233.300000

>ms2
287.054900 113117.600000

>ms2
287.054800 110400.800000

>ms2
153.018000 1535.500000
165.017600 1425.600000
287.054900 98897.800000

>ms2
111.007800 1263.800000
121.028400 2014.100000
153.018200 5082.000000
165.018400 3778.700000
213.055200 2908.900000
231.065500 1319.700000
241.049700 1624.600000
258.053200 2502.800000
287.055000 88208.200000

>ms2
111.007800 1903.900000
121.028500 5378.700000
153.018200 10588.100000
165.018200 4984.800000
213.054600 3290.900000
231.065300 2039.000000
241.050000 1549.900000
258.051700 2870.500000
287.055000 69131.900000

>ms2
68.997100 1639.100000
105.033100 1249.800000
107.049100 1692.600000
111.007700 1517.400000
121.028500 9215.700000
133.028400 1073.200000
137.023200 2960.400000
147.044000 2739.300000
153.018300 20418.400000
157.064700 1632.400000
165.018400 9204.000000
185.059600 1679.200000
213.054700 5813.000000
231.065000 3175.700000
241.049600 3469.500000
258.052600 3794.000000
259.060600 1996.600000
287.055100 57375.800000

>ms2
68.997100 2958.700000
107.049200 3086.700000
111.007600 2173.900000
121.028400 12861.400000
133.028200 2263.600000
137.023400 3769.100000
147.044000 3207.400000
153.018200 23891.600000
157.064600 1703.800000
161.059600 1408.300000
165.018300 9843.500000
183.028900 1955.800000
185.059600 2954.300000
213.054800 5646.400000
231.065500 3027.800000
241.049800 2116.700000
258.052200 3527.000000
287.055100 30749.600000

>ms2
68.997000 3197.800000
105.033400 1605.200000
107.049100 2438.100000
111.007900 2068.400000
121.028400 11615.400000
137.023200 2847.400000
145.064700 1343.700000
147.044100 3970.900000
153.018200 30751.800000
157.065000 3695.300000
165.018200 6056.700000
171.043200 1401.400000
185.059000 2483.900000
213.054600 6823.600000
231.064900 2248.500000
241.049100 1745.200000
258.052100 4153.200000
259.060200 1411.500000
287.055000 17800.700000

>ms2
68.997000 4005.500000
79.054300 1883.800000
107.049100 3295.200000
121.028400 13684.600000
137.023200 2803.400000
145.065000 1155.800000
147.044200 3568.900000
153.018200 29173.400000
157.064800 4079.100000
161.059400 1205.900000
165.018300 5433.900000
185.059400 2316.500000
213.054400 6984.600000
231.065000 1363.400000
241.049600 1450.600000
258.052500 2061.200000
287.055100 8284.300000

>ms2
68.997100 4284.300000
79.054400 1754.200000
105.033600 1290.700000
107.049100 2824.300000
111.007900 1034.500000
121.028400 12792.400000
137.023400 3041.500000
147.043600 2000.700000
153.018200 27843.300000
157.064800 4139.700000
165.018200 3038.500000
171.043800 1113.000000
183.027900 1159.900000
185.059500 2065.300000
213.054400 4865.600000
258.052900 1521.500000
287.054100 3152.800000

>ms2
68.997100 5664.900000
93.033500 1277.800000
105.033900 1337.700000
107.049100 4011.900000
119.049400 1095.500000
121.028300 15182.900000
137.023400 3042.500000
147.043900 1882.500000
153.018200 26324.700000
157.064800 6268.000000
165.018200 4040.200000
213.054400 5089.900000
229.049000 1609.800000

>ms2
65.038500 1033.100000
67.018000 2025.100000
68.997100 6632.300000
79.054300 1723.700000
93.033500 1049.700000
105.033400 1894.000000
107.049200 3745.700000
115.053900 1678.800000
121.028400 13123.900000
128.062000 1510.000000
129.070100 1480.200000
137.023200 2530.600000
153.018200 22827.600000
157.065000 4707.800000
165.018100 1327.400000
213.054400 3278.900000
229.050100 1232.100000

>ms2
67.017600 976.800000
68.997000 5999.900000
69.033500 1074.100000
79.054300 1569.800000
93.033400 1938.400000
105.033900 1642.100000
107.049300 2900.700000
115.054200 2261.100000
119.049300 1406.200000
121.028300 10285.500000
128.061800 2618.400000
129.069400 1392.800000
153.018200 19989.300000
157.064800 3800.700000
213.054000 1984.600000

>ms2
65.038700 1432.200000
68.997100 5943.800000
69.033600 1175.400000
77.038600 1884.400000
79.054300 1625.900000
93.033600 2098.600000
105.033700 1398.200000
107.049000 2803.500000
115.054500 1939.700000
119.049200 1248.600000
121.028400 8094.600000
128.062200 3351.500000
147.043700 1480.900000
153.018300 13910.900000
157.064900 2574.500000
213.054200 1020.100000

>ms2
65.038300 1585.700000
68.997000 5484.800000
77.038700 1331.700000
79.054300 1690.500000
105.033400 1685.800000
107.049100 3111.800000
115.054400 1682.300000
121.028400 8066.800000
128.062000 3950.500000
153.018100 8983.800000
157.064800 1606.000000

