>compound NA48955367
>parentmass 300.1805000000001
>ionization [M+H]+
>formula C15H25NO5
>rt 62.475000
>profile orbitrap
#smiles_iso C[C@@H]([C@@](C(C)C)(C(=O)OCC1=CCN2[C@H]1[C@@H](CC2)O)O)O
#smiles_can CC(C)C(C(C)O)(C(=O)OCC1=CCN2C1C(CC2)O)O
#inchikey SFVVQRJOGUKCEG-ZGFBFQLVSA-N
#pubchem_id 107938
#mb_accession NA002339,NA002340,NA002341,NA002342,NA002343,NA002734,NA002735,NA002736,NA002737,NA002738,NA003114,NA003115,NA003116,NA003117,NA003118,NA003479,NA003480,NA003481,NA003482,NA003483

>ms2peaks
300.180700 52820.500000

>ms2peaks
300.180700 173905.500000

>ms2peaks
138.091700 2139.500000
300.180700 148873.700000

>ms2peaks
138.091400 4490.900000
300.180600 120819.200000

>ms2peaks
138.091300 12559.500000
300.180600 98091.100000

>ms2peaks
94.065100 33964.900000
120.080800 8704.000000
138.091400 101737.900000
139.099100 4296.000000
156.102000 21999.800000
210.147800 1412.700000
256.154600 3185.200000
300.180700 337796.500000

>ms2peaks
94.065100 59956.000000
120.080800 14608.300000
138.091300 109821.900000
139.099100 10436.000000
156.101900 41824.100000
210.148700 2183.400000
256.153400 2423.300000
300.180700 198586.900000

>ms2peaks
82.065000 1920.600000
94.065100 76969.400000
120.080800 18913.100000
138.091300 88984.900000
139.099200 12720.200000
156.101900 53800.200000
210.148300 2190.800000
256.154300 2884.800000
300.180600 98882.500000

>ms2peaks
82.065100 2200.200000
94.065100 81668.200000
96.080800 2551.900000
120.080800 16112.000000
138.091300 62256.500000
139.099100 16923.800000
156.101900 64381.400000
210.148900 1473.000000
300.180600 43372.700000

>ms2peaks
82.065000 2462.000000
94.065200 73788.600000
96.080900 3051.100000
120.080800 14847.600000
138.091400 39609.000000
139.099200 16932.700000
156.102000 68810.200000
300.180600 15386.200000

>ms2peaks
67.041500 2367.500000
67.054100 2535.900000
73.064900 1514.000000
80.049500 2070.500000
82.065100 10631.200000
86.060000 2496.000000
94.065100 172734.600000
95.072900 12522.700000
96.080700 12969.700000
108.080700 3583.100000
110.096200 1773.300000
112.075600 7504.700000
120.080700 34230.600000
138.091300 63626.200000
139.099100 40038.300000
156.101900 187513.300000
300.180700 15519.400000

>ms2peaks
67.041500 2116.100000
67.054200 3751.200000
73.064900 1717.000000
80.049200 2303.700000
82.065100 9600.300000
86.060300 2838.700000
94.065100 127262.900000
95.072900 16784.600000
96.080700 11127.900000
108.080800 5963.900000
110.096400 2874.100000
112.075700 12653.000000
120.080700 25481.800000
126.091100 1559.400000
138.091300 35994.000000
139.099100 27507.400000
156.101900 151174.500000
300.180500 3899.900000

>ms2peaks
67.041700 2678.000000
67.054300 2551.300000
80.049400 3265.500000
82.065200 10589.100000
86.060100 2557.700000
94.065100 94473.700000
95.072900 13745.600000
96.080800 10073.400000
108.080800 5718.000000
110.096500 1521.500000
112.075700 11970.300000
120.080700 15732.200000
126.091400 1459.100000
138.091300 20891.200000
139.099000 16342.900000
156.101900 114256.500000

>ms2peaks
67.041600 2710.500000
67.054200 2528.500000
80.049400 2403.400000
82.065100 8365.000000
86.060100 2756.000000
94.065100 63308.700000
95.073000 13268.100000
96.080700 7126.400000
108.080700 6707.700000
110.096300 1712.100000
112.075700 12692.100000
120.080700 11181.500000
138.091300 12870.500000
139.099100 9227.200000
156.101900 78407.700000

>ms2peaks
67.041500 2725.300000
67.054200 3028.500000
80.049400 2487.500000
82.065200 9086.800000
86.060000 3476.700000
94.065100 50327.100000
95.073000 13428.700000
96.080800 6490.700000
108.080700 6533.300000
110.096500 2105.000000
112.075700 13091.600000
120.080900 8250.600000
138.091300 10383.700000
139.099100 5759.900000
156.102000 52738.400000

>ms2peaks
67.041600 5404.200000
67.054200 7910.300000
68.049500 2211.600000
78.033800 1601.500000
79.054500 2449.200000
80.049500 10928.200000
81.057600 2189.400000
81.069900 3537.100000
82.065200 24357.800000
84.044200 1794.800000
85.052000 1341.200000
86.060100 8893.100000
91.054200 2559.100000
93.057300 1401.200000
94.065200 115542.300000
95.073000 34137.800000
96.044500 1336.800000
96.080800 14923.200000
108.080900 20891.100000
110.096400 3499.400000
112.075700 31314.600000
120.080900 16027.700000
126.091500 5237.700000
138.091400 17880.300000
139.099200 9863.800000
156.102000 99508.300000

>ms2peaks
67.041600 6641.200000
67.054200 8204.300000
68.049500 2087.200000
78.033900 1531.800000
79.054300 1420.400000
80.049500 10299.300000
81.057300 1997.000000
81.070100 2576.600000
82.065200 20935.000000
84.044400 1992.600000
85.052400 1662.000000
86.060100 8629.900000
91.054400 2236.500000
94.065200 88127.900000
95.073000 23253.200000
96.044200 1048.100000
96.080800 10309.500000
108.080800 14638.100000
109.064800 1323.100000
110.060100 1634.300000
110.096400 2026.000000
112.075700 28363.200000
120.080800 10334.700000
126.091400 4321.200000
138.091400 11339.100000
139.099200 5289.800000
156.102000 65039.900000

>ms2peaks
67.041600 6800.000000
67.054200 6481.200000
80.049500 10309.300000
81.057300 1952.900000
81.070000 1637.100000
82.065200 17867.500000
85.052200 1163.800000
86.060100 6367.200000
91.054500 1887.900000
93.057300 1468.600000
94.065200 62474.100000
95.073000 18528.000000
96.080800 6835.100000
108.080900 12201.400000
109.065000 1462.000000
110.059900 1371.800000
110.096200 1640.000000
112.075700 16774.200000
120.080700 6877.800000
126.091600 2635.300000
138.091300 7404.400000
139.099000 2508.200000
156.102000 37105.400000

>ms2peaks
67.041600 4639.600000
67.054100 5847.300000
79.054200 1509.900000
80.049500 7928.600000
81.057500 1881.900000
81.069700 1341.000000
82.065100 12860.900000
85.052400 1554.400000
86.060000 4460.700000
91.054300 1582.000000
93.057400 1323.200000
94.065100 47001.000000
95.072900 12198.200000
96.080700 4238.200000
108.080800 9333.000000
110.096400 2123.700000
112.075700 13503.200000
120.080800 3960.600000
126.091400 1891.500000
138.091300 5020.200000
156.101900 17401.600000

>ms2peaks
67.041600 3863.200000
67.054200 5434.700000
80.049500 6399.700000
81.057300 2640.800000
82.065200 10047.700000
85.052200 1287.600000
86.060000 3773.200000
91.054300 1246.500000
93.057500 1766.900000
94.065100 33263.500000
95.072900 7245.700000
96.080700 3937.700000
108.080800 6972.800000
112.075700 10040.600000
120.080600 2164.000000
126.091200 1466.300000
138.091500 2338.400000
139.098500 1156.700000
156.102000 11141.300000

