>compound NA49934058
>parentmass 366.1547
>ionization [M+H]+
>formula C18H23NO7
>rt 66.945000
>profile orbitrap
#smiles_iso C/C=C\1/C[C@@]2([C@@](O2)(C(=O)OCC3=CC[N+]4([C@H]3[C@@H](CC4)OC1=O)[O-])C)CO
#smiles_can CC=C1CC2(C(O2)(C(=O)OCC3=CC[N+]4(C3C(CC4)OC1=O)[O-])C)CO
#inchikey IJAULDQGSBFPPG-HHXOVEJCSA-N
#pubchem_id 132282054
#mb_accession NA002280,NA002281,NA002282,NA002283,NA002284,NA002677,NA002678,NA002679,NA002680,NA002681,NA003059,NA003060,NA003061,NA003062,NA003063,NA003424,NA003425,NA003426,NA003427,NA003428

>ms2peaks
366.154800 233512.900000

>ms2peaks
366.154700 782051.400000

>ms2peaks
366.154800 797013.100000

>ms2peaks
118.065200 1249.000000
119.072900 2805.400000
366.154900 703973.700000

>ms2peaks
118.065200 6711.400000
119.073000 8017.500000
366.155000 595892.600000

>ms2peaks
80.049500 1090.600000
93.057300 3827.100000
94.065200 6170.000000
95.073000 7799.400000
106.065100 2932.100000
107.073000 1360.800000
108.080700 4094.800000
109.064300 1351.100000
112.075700 2207.600000
118.065200 41136.100000
119.073000 47245.000000
120.080800 30382.100000
121.088600 5235.000000
122.096400 4326.000000
123.104400 1254.300000
125.059800 1556.100000
136.075700 24970.000000
137.059900 1356.700000
137.083500 5348.800000
138.091500 7964.200000
140.107200 2226.500000
154.086300 16189.800000
164.107000 2476.600000
165.054800 2611.600000
165.078700 1154.600000
183.065300 2053.400000
190.122400 1221.700000
218.117500 5936.900000
220.133500 1557.700000
262.143600 1484.600000
278.138900 4061.000000
288.159700 1486.300000
290.137800 1381.100000
304.155300 2194.000000
338.161100 3119.200000
366.154800 803876.600000

>ms2peaks
79.054100 1844.800000
80.049500 3185.800000
81.070200 1896.200000
91.054200 1955.400000
93.057300 9109.200000
94.065200 14109.700000
95.072900 16576.900000
98.060100 1572.500000
106.065200 5201.300000
107.073000 3650.100000
108.080800 8833.600000
109.064400 1772.000000
109.088600 3517.300000
112.075800 3287.500000
118.065100 71498.100000
119.073000 76773.100000
120.080800 56431.000000
121.088600 8153.800000
122.096400 11133.800000
123.044100 2660.200000
123.104300 1654.700000
124.075500 1575.100000
125.059700 1370.200000
136.075700 54718.600000
137.059600 2050.200000
137.083500 13554.700000
138.068100 2325.200000
138.091400 13510.500000
139.075600 1401.400000
140.107000 3774.900000
149.059500 1479.700000
151.038600 2273.500000
154.086300 25810.600000
160.112300 1293.500000
162.091500 1837.600000
164.107000 8615.400000
165.054300 6584.200000
165.078500 2065.400000
167.070600 2515.500000
176.107700 1154.800000
183.065000 3657.400000
190.122500 3305.700000
204.101700 2166.400000
218.117800 9563.300000
220.133400 2651.500000
244.132700 2990.800000
260.128600 1237.700000
262.143300 1681.200000
276.122000 1876.300000
278.138200 6568.600000
286.143400 1316.600000
288.160700 3617.200000
290.138500 1966.200000
304.154400 4416.000000
338.160400 4319.100000
366.154700 523551.500000

>ms2peaks
67.054200 1627.300000
79.054300 2200.300000
80.049500 4077.800000
81.057700 1018.700000
81.069800 2846.800000
82.065000 3350.600000
84.044200 1460.300000
91.054300 2712.400000
93.057300 14398.200000
93.069800 1756.600000
94.065100 21960.200000
95.049200 1849.700000
95.073000 19930.500000
98.060000 2678.700000
106.065100 7325.000000
107.072800 3626.000000
108.080800 13064.700000
109.064800 3372.800000
109.088600 3364.600000
110.059900 2007.100000
112.075700 7135.000000
118.065100 76591.800000
119.073000 92980.000000
120.080800 70177.100000
121.064600 2015.100000
121.088700 9084.500000
122.096400 14145.200000
123.044200 3287.000000
123.104200 1542.300000
124.075600 2254.700000
125.059600 2889.800000
126.091200 1662.300000
136.075700 80282.200000
137.059500 2731.500000
137.083500 18395.500000
138.067600 2978.000000
138.091300 17894.600000
139.075400 4200.300000
140.107100 4755.300000
141.055000 1336.800000
146.096300 1719.900000
148.112000 2128.900000
149.059900 1956.300000
151.038900 2028.000000
152.070500 1460.700000
154.086300 31682.400000
162.091500 2317.700000
164.107100 14515.900000
165.054600 9495.400000
167.070200 2773.000000
176.106700 1598.600000
183.065000 5503.300000
190.122600 5791.700000
204.101600 1669.600000
209.117400 1282.700000
218.117700 11354.100000
220.133500 4759.400000
244.133300 3331.100000
260.126900 1506.900000
262.143600 1545.800000
276.122500 1761.600000
278.138600 7468.100000
286.144000 1427.500000
288.159400 5183.700000
290.138600 1778.100000
304.155200 2834.200000
338.159900 4400.400000
366.154700 273855.500000

>ms2peaks
67.054100 3006.000000
79.054200 4602.900000
80.049400 4632.600000
81.057400 1682.100000
81.070100 3228.300000
82.065100 1552.200000
84.044800 1478.800000
91.054200 4166.700000
93.057400 23456.400000
93.069900 2963.200000
94.065200 31844.000000
95.049200 1600.600000
95.073000 17882.000000
98.059900 4625.600000
106.065200 7442.600000
107.073100 4449.000000
108.080800 15597.800000
109.064800 4013.700000
109.088700 3621.500000
112.075700 10597.400000
118.065200 72823.100000
119.073000 88728.500000
120.080800 68589.600000
121.064600 1860.900000
121.088600 7261.200000
122.096400 13408.600000
123.044100 3221.200000
123.080700 1352.300000
124.075600 3184.800000
125.059700 3188.600000
126.091200 1612.400000
136.075700 85548.000000
137.059500 2158.300000
137.083600 14311.400000
138.067600 1309.800000
138.091400 18826.200000
139.075200 5046.500000
140.107000 3524.400000
141.054300 2286.000000
146.096900 2545.000000
148.111900 2072.900000
149.059800 2989.000000
151.039100 1845.500000
151.075500 1636.200000
152.070300 1743.000000
154.086300 24311.100000
160.112600 1281.000000
162.091700 2432.700000
164.107000 14194.400000
165.054700 7455.100000
167.070400 1808.600000
176.107400 1538.200000
183.065300 4689.000000
190.122800 5956.200000
199.095600 1491.500000
202.122500 1445.200000
204.101600 1506.400000
209.116900 1692.500000
218.117600 8476.700000
220.133400 3414.900000
244.133400 2633.300000
278.138900 6935.400000
288.159500 3791.700000
304.155100 1635.300000
338.160700 2380.200000
366.154900 111610.600000

>ms2peaks
67.054000 2397.200000
79.054300 3513.100000
80.049500 4882.700000
81.069800 3314.200000
82.065100 2075.000000
91.054200 3964.100000
93.057300 24058.100000
93.070100 1928.100000
94.065100 36704.600000
95.049100 2018.400000
95.072900 12397.900000
98.060000 4544.600000
106.065100 8162.300000
107.072800 2498.700000
108.080700 13620.600000
109.064700 4282.200000
109.088500 3048.300000
110.060000 2102.900000
112.075500 7004.500000
118.065100 60617.900000
119.072900 73790.500000
120.080700 57730.600000
121.065000 2024.600000
121.088400 4288.900000
122.096300 11891.800000
123.043900 4076.700000
123.080000 1491.600000
124.075900 1760.200000
125.059100 1536.900000
136.075600 78092.100000
137.059700 2422.700000
137.083500 10466.100000
138.091300 16365.100000
139.075200 4892.700000
140.107000 2018.800000
141.054400 1620.500000
146.096300 1991.700000
148.111800 1383.100000
149.059700 2237.000000
151.075500 1407.300000
154.086200 17204.000000
162.091000 1458.800000
164.106900 12932.000000
165.054400 6036.500000
167.069900 1211.700000
183.065200 3264.900000
190.122700 5626.900000
199.096400 2200.700000
202.122500 1083.400000
204.101600 1503.200000
209.116800 3565.500000
218.117200 5206.300000
220.133200 3281.700000
244.134000 1647.400000
278.138300 4331.400000
366.154600 34059.600000

>ms2peaks
53.038500 3761.000000
67.041700 2256.300000
67.054200 7920.700000
68.049600 2791.900000
69.033500 1447.900000
77.038400 1870.900000
79.054300 9731.000000
80.049500 15724.600000
81.033500 1658.000000
81.057300 4372.300000
81.069900 8914.300000
82.065200 5703.200000
83.049200 3881.300000
84.044600 3684.800000
91.054200 11314.100000
92.049700 1665.100000
93.057400 67862.900000
93.070000 5973.900000
94.065200 122868.100000
95.049100 6619.200000
95.073000 27214.400000
96.044400 3298.500000
96.080600 1273.800000
97.064800 3357.400000
98.060100 12711.100000
99.044400 1008.000000
103.054500 1805.600000
105.069900 2528.700000
106.065200 18324.500000
107.049300 2145.900000
107.073000 8168.900000
107.085400 2764.900000
108.080800 39442.200000
109.064800 12543.400000
109.088700 10021.300000
110.060100 4007.800000
111.044300 4547.700000
112.075700 17050.200000
117.057200 1981.100000
118.065200 128716.200000
119.073000 137304.800000
120.080800 127415.500000
121.064900 5864.200000
121.088700 8394.800000
122.060000 1307.800000
122.096500 25000.400000
123.044000 9323.900000
123.068000 2203.100000
123.080300 3788.900000
124.075700 5340.300000
125.059700 7217.000000
126.091100 2892.000000
132.081000 2117.100000
134.060500 2059.900000
134.096400 3728.300000
135.044100 1988.000000
136.075800 193127.200000
137.060000 5145.300000
137.083600 19122.800000
138.091400 32332.400000
139.038900 3487.100000
139.075400 14171.900000
140.107100 3738.000000
141.054600 5209.000000
144.080900 1949.500000
146.096400 6223.800000
148.112200 3553.100000
149.059700 4754.100000
151.038900 2913.400000
151.075200 4814.300000
152.070800 3057.500000
154.086400 24478.100000
158.096400 2072.000000
160.112100 2005.200000
162.091400 4677.300000
164.107100 26868.700000
165.054700 13602.500000
167.070500 2240.700000
172.112100 2706.400000
176.107400 2668.800000
178.122100 1868.100000
183.065100 6959.600000
188.106400 1222.500000
190.086100 2505.700000
190.122500 11416.400000
199.096600 5528.800000
204.102800 1884.500000
209.117200 8729.400000
216.138100 2538.400000
218.117700 9514.900000
220.133500 5261.700000
232.133300 2350.700000
244.133400 2875.600000
278.138800 7982.200000
366.155000 26642.600000

>ms2peaks
53.038500 3485.200000
67.054200 6722.800000
68.049400 1937.100000
69.033500 1323.800000
70.065000 992.900000
77.038600 1953.200000
79.054300 9470.200000
80.049500 15109.200000
81.033500 2890.600000
81.057300 4673.900000
81.069800 8804.100000
82.065100 4348.100000
83.049100 3718.000000
84.044300 3508.400000
91.054200 11454.500000
92.049500 2002.500000
93.057300 68468.800000
93.069900 5824.600000
94.065100 142066.200000
95.049100 4611.800000
95.073000 21147.000000
95.085700 1978.700000
96.044500 2500.300000
96.080900 1139.600000
97.064800 3955.700000
98.060100 10643.500000
99.043900 1457.200000
105.069900 2910.700000
106.065100 19887.700000
107.049000 2556.300000
107.073100 4476.400000
107.085700 2358.900000
108.080800 38529.300000
109.052500 1457.500000
109.064800 14181.200000
109.088700 8030.300000
110.060000 4487.300000
111.044200 3909.500000
112.075800 11797.400000
117.057100 2478.800000
118.065100 112662.300000
119.073000 115669.400000
120.080800 111377.100000
121.064900 5672.400000
121.088500 5119.500000
122.060000 1655.900000
122.096400 18141.200000
123.044100 7967.000000
123.067700 1640.200000
123.080200 4351.200000
124.075600 3705.900000
125.059700 5859.600000
126.091000 1710.800000
132.080800 2698.900000
134.060200 1712.400000
134.096400 2957.700000
136.075700 161060.600000
137.059900 5217.400000
137.083500 13662.900000
138.091300 22163.100000
139.038900 2349.900000
139.075300 13191.200000
140.106900 2233.400000
141.054600 5967.000000
144.080600 2143.500000
146.096400 5551.100000
148.111900 2599.900000
149.059700 4132.300000
151.038800 1181.000000
151.075300 5738.300000
152.070700 2321.900000
154.086300 12672.500000
158.096700 1546.900000
160.112200 1689.100000
162.091400 4555.100000
164.107100 19473.700000
165.054600 7141.700000
167.070600 1388.200000
172.111700 2794.400000
176.107500 1756.500000
178.122800 1248.900000
183.065200 4116.900000
188.107100 2796.800000
190.086200 1609.200000
190.122700 8525.800000
199.096400 6019.000000
204.101600 1320.500000
209.117200 6602.300000
216.139000 1247.000000
218.117600 5617.300000
220.133400 3834.100000
232.133000 1328.300000
244.132900 1719.600000
278.138000 3978.100000
366.154300 5576.500000

>ms2peaks
53.038500 3613.300000
67.041700 1510.500000
67.054200 7072.600000
68.049400 2018.400000
70.065000 975.000000
77.038800 1919.200000
79.054200 9266.100000
80.049500 14373.100000
81.033500 3056.400000
81.057300 3598.800000
81.069900 8273.700000
82.065300 3719.800000
83.049200 3739.600000
84.044500 1664.900000
91.054300 9838.900000
92.049600 2537.100000
93.057400 66520.000000
93.069800 5027.200000
94.065200 146436.800000
95.049100 4910.100000
95.073000 13836.400000
95.085900 1575.500000
96.044400 1913.000000
96.080400 1112.200000
97.064900 3133.400000
98.060100 6824.300000
99.044400 1030.400000
105.070200 1488.100000
106.065200 16105.300000
107.049200 2063.700000
107.072900 5627.600000
107.085500 1473.300000
108.080800 29704.500000
109.064900 13512.200000
109.088600 4808.300000
110.059900 2471.700000
111.044400 1702.200000
112.075800 8310.400000
117.057300 3893.700000
118.065200 94912.600000
119.073000 81929.100000
120.080800 91786.900000
121.065200 3431.100000
121.088300 2244.900000
122.096500 11751.900000
123.044000 6202.700000
123.067900 1603.800000
123.080500 4109.100000
124.075600 3321.300000
125.059900 4141.400000
132.080800 2711.400000
134.096500 1770.600000
135.043900 1041.200000
136.075700 125211.400000
137.059900 2570.700000
137.083600 6088.000000
138.091300 13256.900000
139.038900 2255.500000
139.075400 9169.500000
141.054700 3316.600000
144.081100 1965.300000
146.096600 5952.800000
149.059900 2231.500000
151.075300 3120.900000
154.086400 6818.900000
160.112200 2203.700000
162.091200 1995.500000
164.107100 14368.000000
165.054800 4965.800000
167.070000 1411.800000
172.112200 1957.000000
176.107200 1682.900000
183.065500 2128.900000
190.122700 5459.600000
199.096800 3298.800000
209.117300 4415.200000
218.117600 2151.400000
220.133400 1845.300000
232.133100 1070.800000
278.137500 1601.000000

>ms2peaks
53.038500 2648.800000
67.041500 1319.700000
67.054200 7228.000000
68.049500 2513.100000
69.033400 1736.000000
70.065100 1142.100000
77.038700 1662.200000
79.054300 8864.200000
80.049600 14267.900000
81.033400 2374.600000
81.057400 4245.100000
81.069900 7456.100000
82.065200 2542.100000
83.049200 3391.600000
84.044300 2558.300000
91.054300 11957.300000
92.049600 1310.200000
93.057300 59729.000000
93.070000 3339.300000
94.065100 139418.300000
95.049300 5108.100000
95.072900 8421.500000
95.085300 1638.000000
96.044400 2297.000000
97.064700 2470.000000
98.060100 6408.500000
103.054000 1850.600000
105.069700 2976.400000
106.065100 12467.100000
107.049100 1532.100000
107.072800 3820.200000
108.080800 26440.300000
109.051700 1192.600000
109.064800 11202.300000
109.088700 2925.900000
110.059900 2860.900000
111.044100 3344.100000
112.075500 4790.600000
117.057300 4274.400000
118.065100 78141.000000
119.073000 56742.800000
120.080800 72877.100000
121.064700 3472.100000
121.089000 1236.900000
122.060300 1667.700000
122.096500 8538.800000
123.044100 4904.100000
123.067600 1117.700000
123.080400 3105.300000
124.075400 1463.400000
125.059800 3515.700000
130.065000 1439.800000
132.081200 2878.700000
134.096500 1606.200000
136.075700 92626.400000
137.059600 2088.800000
137.083600 2682.300000
138.091300 8282.400000
139.039400 1252.200000
139.075300 7443.500000
141.054600 2169.700000
144.080800 2607.100000
146.096400 4199.600000
149.059500 1847.600000
151.075200 2285.700000
154.086100 3275.000000
160.112000 1498.500000
162.091900 1457.100000
164.107100 8355.500000
165.054000 953.700000
176.107600 1462.300000
190.122800 2411.000000
199.096200 1842.000000
209.117200 2354.300000

>ms2peaks
53.038500 3515.600000
67.041500 1335.800000
67.054200 5536.500000
68.049700 1130.000000
69.033400 1286.300000
77.038600 1893.200000
79.054200 4929.400000
80.049500 15181.500000
81.033600 2923.500000
81.057300 2321.700000
81.070000 5179.200000
82.065300 2293.700000
83.049100 2098.000000
84.044500 1146.900000
91.054300 10555.800000
92.049600 2258.000000
93.057400 45713.100000
93.070000 3057.700000
94.065200 118520.900000
95.049200 2417.900000
95.072900 5479.600000
96.044200 1717.400000
96.080600 1297.700000
97.064900 1744.800000
98.060100 2788.200000
105.069700 2069.100000
106.065200 10034.500000
107.072900 2394.700000
108.080800 19881.300000
109.064700 7769.700000
109.088300 1351.700000
110.060200 1632.700000
111.043900 2171.600000
112.075700 3218.300000
117.057300 4192.700000
118.065200 61730.100000
119.073000 37812.200000
120.080800 51447.500000
121.064900 2356.500000
121.088800 1153.300000
122.096500 5368.900000
123.044200 3485.700000
123.080700 1699.000000
125.059700 2461.000000
130.065500 1511.900000
132.080800 2665.300000
134.096300 1290.200000
136.075800 60357.300000
138.091700 5155.200000
139.075200 3843.000000
141.055000 1827.200000
144.080900 1402.500000
146.096900 2792.600000
158.095800 1271.000000
164.107000 3314.200000
172.112700 1574.900000
190.122700 1194.800000
204.102200 992.500000

>ms2peaks
53.038500 4917.600000
65.038600 2343.100000
66.046300 2653.000000
67.041600 3790.900000
67.054200 12232.300000
68.049400 2850.100000
77.038700 4464.400000
78.034100 1804.200000
79.054300 15434.900000
80.049500 36222.400000
81.033500 4430.300000
81.057300 5786.200000
81.069900 9815.000000
82.065100 4193.300000
83.012900 1345.300000
83.049100 5361.600000
84.044500 3426.700000
91.054300 19597.600000
92.049500 6170.600000
93.057400 84717.600000
93.069900 6899.700000
94.065200 247218.400000
95.049200 6590.700000
95.073000 8196.900000
95.085600 2930.200000
96.044500 3071.300000
97.064800 3546.300000
98.060100 5085.800000
103.054000 2149.700000
105.069900 4605.600000
106.065200 20352.200000
107.049200 3444.900000
107.073100 5659.300000
107.085600 1422.300000
108.044400 3305.100000
108.080800 40001.500000
109.064800 18691.600000
109.088600 3126.800000
110.060100 3823.700000
111.044000 5210.500000
112.075600 3806.600000
117.057400 11617.900000
118.065200 120185.000000
119.073000 57205.700000
120.080800 89684.700000
121.064800 3535.800000
122.096500 5454.900000
123.044200 4439.700000
123.080600 2791.600000
124.075700 2013.800000
125.059800 3740.300000
130.065500 1673.000000
131.072800 3253.700000
132.080800 4720.800000
134.059600 1869.300000
134.096300 2072.900000
136.075800 100060.500000
138.091300 5419.500000
139.075400 5185.300000
144.080900 2805.400000
146.096600 4684.300000
158.096600 1836.000000
160.112500 1984.500000
164.107100 4153.400000

>ms2peaks
53.038500 3973.900000
65.038500 2091.900000
66.046400 2915.600000
67.041700 3459.800000
67.054300 10872.100000
68.049500 2169.400000
69.033500 1530.000000
77.038600 4397.300000
78.033900 1404.300000
79.054300 13558.500000
80.049500 34255.400000
81.033500 4469.700000
81.057500 4925.800000
81.069900 7124.600000
82.065300 3146.900000
83.012700 1823.400000
83.049100 4083.500000
84.044600 1972.700000
91.054300 18904.700000
92.049500 6581.100000
93.057400 65702.600000
93.069900 4895.200000
94.065200 203856.400000
95.049200 5666.600000
95.072900 6454.800000
95.085600 2356.800000
96.044700 1775.400000
97.064900 1778.200000
98.060100 4334.600000
103.054100 1852.400000
105.069800 2990.200000
106.065200 16714.300000
107.049100 2378.100000
107.072900 5427.200000
107.085100 857.300000
108.044500 2302.100000
108.080800 28548.900000
109.064900 11212.000000
109.088700 1727.600000
110.059900 2116.300000
111.044200 2583.900000
112.076000 1663.200000
117.057300 10685.300000
118.065200 95930.200000
119.073000 36069.500000
120.080800 69596.800000
121.064900 1935.500000
122.096500 4484.100000
123.044100 2961.200000
123.080400 1709.400000
124.075800 1385.000000
125.059800 2441.500000
130.065200 1959.700000
131.073000 1531.700000
132.080900 3841.800000
134.060600 1357.300000
134.096500 2281.900000
136.075800 64755.100000
138.091400 4280.100000
139.075300 2838.800000
144.080100 2387.900000
146.096500 3188.600000
158.096200 2271.100000
160.112600 1131.100000
164.107300 3578.900000
172.112700 1089.500000

>ms2peaks
53.038500 3180.500000
65.038500 2269.700000
66.046500 3378.800000
67.041700 3130.500000
67.054300 9322.800000
68.049400 1729.300000
69.033500 1377.600000
77.038600 5026.900000
79.054300 10392.500000
80.049600 29318.900000
81.033700 3730.300000
81.057500 3461.700000
81.069900 5615.300000
82.065200 2983.300000
83.049200 2803.400000
84.044500 1380.000000
91.054300 15628.700000
92.049500 6871.100000
93.057400 50482.200000
93.069900 3797.700000
94.065200 158932.300000
95.049300 3294.700000
95.073000 3064.100000
95.085400 1073.800000
96.044600 1472.900000
97.064700 1716.200000
98.060000 1691.200000
103.054400 2836.300000
105.070000 2368.100000
106.065200 15398.000000
107.073000 3237.400000
108.044200 2530.500000
108.080800 24339.200000
109.064900 8439.400000
110.059600 1887.800000
111.044200 2286.600000
117.057500 9158.600000
118.065200 79143.200000
119.073000 24726.400000
120.080900 50523.500000
121.065200 1588.500000
122.097000 1778.000000
123.044100 2245.300000
125.059700 1622.900000
131.073500 1417.300000
132.081100 2062.400000
134.096500 2028.700000
136.075800 45286.700000
138.091700 1793.000000
139.075200 1298.700000
144.081100 2798.800000
146.096200 2560.500000
164.106500 1477.300000
172.112600 1439.700000

>ms2peaks
53.038600 1530.000000
65.038600 2680.700000
66.046500 2729.600000
67.041700 3889.900000
67.054200 9657.000000
68.049500 1460.500000
77.038700 4138.000000
79.054200 8395.900000
80.049600 28415.800000
81.057200 2342.100000
81.070000 3461.100000
82.065000 1438.500000
83.049200 1733.900000
91.054300 15937.800000
92.049600 9078.600000
93.057400 39139.700000
93.069800 2279.700000
94.065200 126928.500000
95.049300 2414.700000
95.073000 2364.500000
96.044500 1546.600000
103.054400 1627.200000
105.069800 1827.100000
106.065200 9761.100000
107.073100 2697.900000
108.044400 1859.500000
108.080800 18438.200000
109.064800 5150.000000
110.060300 1946.900000
117.057400 9178.500000
118.065200 60651.900000
119.073100 15916.200000
120.080900 32625.300000
130.065000 1501.400000
131.073400 1313.500000
132.080500 1591.300000
136.075800 30069.400000
138.091600 1643.900000
144.081100 1343.000000

>ms2peaks
53.038400 1259.200000
65.038500 1125.700000
66.046400 3096.000000
67.041600 3332.500000
67.054300 6854.300000
68.049600 1518.100000
77.038600 2761.200000
78.034100 1218.800000
79.054300 5243.600000
80.049500 22448.300000
81.033600 1302.300000
81.070000 2219.100000
91.054300 11906.200000
92.049500 6136.500000
93.057400 27849.900000
93.069700 1857.200000
94.065200 86281.400000
95.049400 1484.900000
96.044200 1797.200000
103.054200 1163.700000
105.070000 1342.100000
106.065200 7108.200000
107.072900 2379.000000
108.044400 1404.700000
108.080900 10908.000000
109.064800 3647.400000
110.060300 1200.900000
117.057400 8319.200000
118.065200 40170.800000
119.073000 7611.100000
120.080900 21523.300000
136.075700 17195.500000
144.080600 1231.000000

