>compound NA50614640
>parentmass 414.21220000000005
>ionization [M+H]+
>formula C20H31NO8
>rt 393.945000
>profile orbitrap
#smiles_iso C/C=C(/C)\C(=O)O[C@@H]1CC[N+]2([C@@H]1C(=CC2)COC(=O)[C@@]([C@H](C)O)(C(C)(C)O)O)[O-]
#smiles_can CC=C(C)C(=O)OC1CC[N+]2(C1C(=CC2)COC(=O)C(C(C)O)(C(C)(C)O)O)[O-]
#inchikey KDJGEXAPDZNXSD-KCFAIRMISA-N
#pubchem_id 76334042
#mb_accession NA002469,NA002470,NA002471,NA002472,NA002473,NA002864,NA002865,NA002866,NA002867,NA002868,NA003244,NA003245,NA003246,NA003247,NA003248,NA003609,NA003610,NA003611,NA003612,NA003613

>ms2
414.212300 389305.600000

>ms2
414.212600 475068.500000

>ms2
396.201400 1707.600000
414.212200 493653.700000

>ms2
254.139200 5032.100000
338.159700 2914.100000
352.175500 11394.000000
356.172000 2068.700000
396.202000 12877.500000
414.212600 467723.400000

>ms2
254.138600 21100.600000
338.159900 11962.000000
352.175300 32140.300000
356.170600 7102.300000
396.201700 32996.700000
414.212500 342026.900000

>ms2
55.054100 2638.500000
83.049200 5021.500000
94.065500 1194.100000
108.080800 2103.800000
109.065000 1071.800000
118.065200 1828.600000
119.073000 5655.100000
120.080700 11121.500000
121.088800 2921.500000
136.075500 7580.500000
137.083400 17543.900000
154.086300 7917.100000
218.117400 9582.100000
219.124700 1643.600000
220.133100 33932.700000
236.128200 2467.300000
237.135900 27489.400000
238.107700 1244.600000
239.114300 1123.100000
254.138600 154430.400000
308.185300 1402.900000
310.164900 5984.000000
312.144700 3119.000000
338.159800 48848.600000
352.175300 123070.200000
356.170300 27609.600000
370.185500 3483.100000
396.201500 117768.500000
414.212200 413822.000000

>ms2
55.054100 6443.000000
83.049200 16379.400000
93.057400 3267.200000
94.065200 3171.300000
95.072700 1775.400000
106.065000 2422.800000
108.080700 4557.900000
109.064700 2812.700000
109.089000 1067.800000
118.065100 3827.400000
119.073000 14068.300000
120.080700 26442.800000
121.088700 5023.300000
124.076000 1778.200000
136.075700 16129.900000
137.083500 46815.700000
138.091700 2618.200000
141.090900 3154.200000
154.086200 17323.200000
190.122600 1871.200000
192.137600 2336.000000
218.117600 19845.500000
219.125500 3499.800000
220.133100 75370.200000
234.113100 1149.600000
236.128000 3747.200000
237.135900 48440.500000
238.144000 3520.100000
239.114500 1611.400000
252.123300 1483.700000
254.138600 281440.200000
256.116700 1716.400000
296.148300 1675.900000
308.184900 2086.900000
310.164600 9721.500000
312.143100 4175.200000
314.160200 2534.600000
338.159800 58165.900000
352.175400 143880.000000
356.170400 22982.600000
370.185200 3044.300000
396.201500 116018.000000
414.212300 204450.800000

>ms2
55.054100 13008.200000
68.049400 1526.500000
79.054300 1461.400000
80.049600 1337.500000
81.069800 3249.100000
82.065000 1514.300000
83.049100 33059.500000
84.044400 2593.100000
91.054100 1550.900000
93.057300 7032.200000
94.065100 5210.700000
95.073100 2543.800000
106.065100 7424.800000
107.073400 1270.300000
108.080800 8020.100000
109.064700 3778.500000
110.060200 1128.500000
111.067700 1526.200000
112.075800 1722.100000
118.065100 7156.900000
119.072900 24548.700000
120.080800 46484.200000
121.064600 1530.400000
121.088700 5856.200000
122.096300 1153.300000
124.075500 1918.400000
136.075700 33158.900000
137.083500 90427.100000
138.091200 5013.000000
141.091100 10575.700000
154.086200 31704.200000
174.127800 1676.100000
176.106900 2380.400000
190.122600 3898.600000
192.138400 6079.400000
218.117600 25843.800000
219.125500 2875.700000
220.133200 120267.700000
234.113300 1465.100000
236.127700 4138.900000
237.135900 51913.600000
238.107100 2684.400000
238.143700 3899.100000
254.138600 386759.000000
256.118100 1447.200000
296.149200 1603.900000
308.185000 1918.100000
310.165100 11352.200000
312.144500 3503.600000
338.159900 50008.900000
352.175400 107006.200000
356.170300 17780.600000
370.186900 1969.100000
396.201700 87840.200000
414.212300 80772.900000

>ms2
55.054100 15515.100000
68.049400 3415.500000
79.054200 1895.700000
80.049600 3676.200000
81.069900 6270.600000
82.065200 2027.900000
83.049200 52318.600000
84.044400 3777.500000
91.054300 2585.000000
93.057400 13636.600000
94.065100 10090.300000
95.073000 4875.100000
106.065200 14340.700000
108.080800 13153.000000
109.064900 4910.100000
109.088800 1996.000000
110.060000 3148.400000
111.068000 3658.200000
112.075600 2901.900000
118.065100 10189.800000
119.073000 36096.800000
120.080800 59934.400000
121.064700 2074.800000
121.088700 5401.800000
122.096500 1429.400000
124.075900 3093.000000
126.090900 2129.700000
136.075700 48488.800000
137.083600 117625.400000
138.091300 8950.200000
141.091100 27612.100000
152.107000 2716.900000
154.086300 43558.200000
172.097000 1446.800000
174.091500 1403.600000
174.127400 2975.500000
176.107100 2259.000000
182.118400 1277.100000
190.122800 4655.200000
192.138400 7519.400000
202.122700 2222.800000
218.117700 26889.800000
219.125300 3766.700000
220.133300 128291.900000
236.128300 3103.600000
237.136000 45000.100000
238.143600 3030.900000
252.122700 1459.300000
254.138700 411854.200000
256.117100 1208.300000
310.165000 7735.300000
312.143900 2297.600000
314.159200 1838.400000
338.160000 30600.700000
352.175600 58137.200000
356.170700 7781.800000
396.201900 40888.300000
414.212600 24739.000000

>ms2
55.054100 17573.000000
68.049400 3034.700000
79.054200 4287.400000
80.049500 4552.600000
81.069900 9140.400000
82.065300 2011.100000
83.049200 68677.900000
84.044500 4937.200000
91.054100 2755.300000
93.057300 17845.600000
94.065100 14471.000000
95.072900 4767.200000
106.065100 22163.200000
107.073000 2077.800000
108.080800 14790.700000
109.064700 4953.900000
109.088500 2876.900000
110.060000 2027.700000
111.067800 6899.600000
112.075700 4051.400000
118.065100 11445.500000
119.072900 34925.500000
120.080800 55112.100000
121.064500 1325.100000
121.088600 6781.700000
122.096400 2655.300000
124.075700 4592.600000
126.091200 1847.200000
136.075700 55146.300000
137.083500 118529.100000
138.091200 8088.800000
141.091000 42525.200000
152.107100 4267.700000
154.086300 45629.600000
172.096600 2215.900000
174.091900 1466.600000
174.127700 4871.700000
176.107600 2740.900000
182.117500 1099.400000
190.122600 5865.800000
192.138300 9035.200000
202.123400 2477.400000
218.117500 19226.100000
219.125300 3963.300000
220.133200 101901.600000
236.128200 2229.100000
237.136000 22543.800000
238.106900 1601.800000
252.123500 1467.400000
254.138600 310357.300000
296.148400 1676.700000
310.164500 4574.100000
314.158500 1392.200000
338.159900 14451.300000
352.175500 21075.100000
356.170500 2141.700000
396.201700 11900.100000
414.212500 5882.400000

>ms2
55.054100 27676.700000
67.054100 2013.000000
68.049400 5210.900000
79.054300 6884.900000
80.049500 8211.900000
81.057200 2322.300000
81.069800 10282.900000
82.041200 1219.300000
82.065100 4565.000000
83.049100 88346.800000
84.044300 7705.700000
91.054200 4953.400000
93.057300 30329.800000
93.069900 2433.200000
94.065100 31782.400000
95.049200 1307.100000
95.072800 10733.900000
96.044300 2711.600000
96.080800 1419.500000
97.064800 2727.700000
98.060300 1435.500000
106.065100 44988.800000
107.072900 4530.100000
107.085600 2406.700000
108.080800 23320.500000
109.064800 8706.600000
109.088600 4384.900000
110.060100 6272.600000
111.067900 16915.900000
112.075600 5215.600000
118.065100 20326.300000
119.072900 49007.000000
120.080700 77830.300000
121.064400 2429.200000
121.088600 8166.200000
122.096300 4286.500000
124.075600 6984.900000
126.091200 3819.400000
134.096200 1356.000000
136.075700 81017.400000
137.083500 131233.500000
138.091300 12447.900000
141.091000 76198.200000
146.096300 1764.800000
147.104100 1990.500000
148.112000 2316.700000
152.107000 5740.600000
154.086200 65180.700000
160.112200 2575.700000
161.083100 1224.000000
162.091200 1669.900000
169.073600 1181.300000
172.096600 3334.300000
174.091900 2243.900000
174.127600 5225.100000
176.106800 4487.200000
190.122600 9042.700000
191.130400 2345.100000
192.102300 2002.200000
192.138200 11240.200000
202.122500 3064.900000
218.117500 18879.200000
219.125300 7036.700000
220.133100 89421.800000
236.128000 2628.500000
237.135900 15513.100000
254.138500 284417.800000
338.160400 5582.400000

>ms2
53.038500 1593.600000
55.054100 31708.900000
67.041600 1277.800000
67.054200 3236.600000
68.049500 6683.200000
79.054300 7229.200000
80.049500 13013.200000
81.033500 1225.400000
81.057300 3161.700000
81.069900 11812.000000
82.041500 1693.900000
82.065300 4681.900000
83.049200 116083.800000
84.044400 11237.600000
91.054200 5943.100000
93.057400 34556.700000
93.069700 2649.700000
94.065200 40482.100000
95.049000 1802.600000
95.073000 10214.900000
97.064500 1497.600000
98.060300 2521.700000
106.065200 58940.600000
107.073100 7243.700000
107.085600 2503.800000
108.080800 25020.500000
109.064800 9551.200000
109.088600 5006.500000
110.060100 6310.600000
111.067900 24247.400000
112.075700 6399.500000
118.065200 22522.400000
119.073000 47578.000000
120.080800 81285.200000
121.088700 8101.500000
122.059500 1427.700000
122.096400 4522.000000
124.075800 11305.700000
126.091400 4414.900000
132.080800 1605.100000
134.096600 1719.300000
136.075700 89693.300000
137.083600 110221.100000
138.091300 11972.800000
140.070700 1335.400000
141.091100 82393.800000
146.096500 2483.700000
147.104400 3633.200000
148.112300 3657.500000
152.106800 4814.800000
154.086300 57963.900000
160.112400 3217.600000
161.083200 1815.000000
162.091400 1694.900000
164.107100 1573.900000
169.072800 1207.000000
172.096900 4039.900000
174.091500 1878.200000
174.127800 6871.500000
176.107600 4118.400000
190.122800 6615.800000
191.130200 1783.500000
192.101200 1257.000000
192.138400 8727.200000
202.122300 2432.700000
218.117600 12639.200000
219.125100 4183.300000
220.133300 54221.200000
236.128100 1161.700000
237.136200 9132.700000
254.138700 179746.300000
338.161300 1435.400000

>ms2
53.038600 1379.300000
55.054100 34285.300000
67.054200 2127.100000
68.049500 6939.000000
79.054200 11311.800000
80.049500 15798.800000
81.033800 1536.500000
81.057300 4874.200000
81.069900 13018.100000
82.041300 1429.500000
82.065100 5005.400000
83.049100 117587.200000
84.044400 11503.900000
91.054200 7142.300000
93.057300 40687.700000
93.069800 2168.600000
94.065100 53801.500000
95.049300 1461.300000
95.073000 11557.300000
96.044400 2482.200000
96.081000 1217.400000
97.064800 1644.700000
98.060100 3149.000000
106.065100 63102.400000
107.073000 5401.700000
107.085700 2651.600000
108.080800 31780.500000
109.064800 6868.100000
109.088600 4488.700000
110.060100 7099.200000
111.067900 30500.200000
112.075600 7576.000000
118.065200 25026.400000
119.073000 45654.300000
120.080800 76130.500000
121.064500 1252.200000
121.088600 6261.800000
122.059700 2011.100000
122.096500 3627.600000
124.075700 12525.400000
126.091300 4240.700000
136.075700 88385.600000
137.083500 81123.500000
138.091400 13439.000000
141.091000 76246.200000
146.096500 1339.000000
147.104500 2066.100000
148.112100 3890.700000
152.106900 3949.300000
154.086300 50342.100000
160.112000 2915.600000
172.096700 5208.800000
174.091300 1603.900000
174.127900 5540.400000
175.098400 1278.700000
176.106700 3081.100000
190.122700 4965.700000
192.138200 5615.900000
202.122100 1397.200000
218.117600 7085.400000
219.125800 2542.400000
220.133200 24575.200000
237.135400 3560.600000
254.138600 90708.200000

>ms2
55.054100 26942.800000
67.054200 1902.500000
68.049400 6970.900000
79.054200 10107.500000
80.049500 18600.200000
81.033600 1749.200000
81.057300 4702.200000
81.069900 12134.500000
82.041400 1920.900000
82.065200 5582.300000
83.049200 123606.100000
84.044400 11247.300000
91.054200 6745.700000
92.049500 1722.800000
93.057300 36079.600000
93.070100 2221.000000
94.065100 61239.800000
95.073000 9318.800000
96.044400 2442.900000
96.080700 1374.200000
97.064500 1163.500000
98.060100 2538.500000
106.065100 59430.200000
107.072900 4258.600000
107.085600 2567.200000
108.080800 26439.600000
109.064700 4618.100000
109.088600 4953.800000
110.060000 7255.800000
111.067900 28925.400000
112.075800 6267.900000
117.057200 1386.900000
118.065100 25603.200000
119.073000 37128.000000
120.080800 63389.600000
121.088600 5018.800000
122.059600 2600.200000
122.096200 3575.100000
124.075700 13158.000000
126.091300 4783.800000
132.080600 1270.600000
136.075700 76480.500000
137.083500 54943.700000
138.091400 11548.900000
140.070800 1591.000000
141.091000 61997.900000
146.096200 1983.400000
147.104100 2163.100000
148.112000 2274.600000
152.107200 2360.600000
154.086300 36466.500000
160.111900 2625.000000
161.083200 1191.000000
162.090800 1300.200000
164.107400 1342.600000
172.096700 4768.700000
174.091800 1747.400000
174.127700 3150.300000
175.099500 1464.300000
176.107300 2175.400000
190.122600 2567.400000
192.138300 3090.600000
218.117500 4093.800000
220.133300 12100.800000
237.135300 1950.200000
254.138700 39294.000000

>ms2
55.054100 18767.500000
67.041600 1532.100000
67.054200 2083.500000
68.049400 5062.600000
79.054200 9532.800000
80.049500 18582.700000
81.057300 4515.900000
81.069900 7931.500000
82.041300 1678.400000
82.065000 5489.600000
83.049100 96854.700000
84.044400 8573.500000
91.054200 6436.900000
92.049400 1087.300000
93.057300 28802.100000
93.069900 3380.500000
94.065100 58847.600000
95.072900 6708.100000
96.044400 1489.100000
97.064600 1350.400000
98.060100 2416.200000
106.065100 46418.300000
107.072900 3684.700000
107.085700 1645.400000
108.080800 20697.500000
109.064800 2240.700000
109.088400 3758.700000
110.060000 4647.400000
111.067800 23282.400000
112.075700 6599.600000
117.057100 1480.800000
118.065100 22585.900000
119.073000 26377.700000
120.080800 46370.400000
121.088300 2472.400000
122.059500 1780.400000
122.096500 1628.100000
124.075700 10665.100000
126.091400 2138.600000
136.075700 52690.500000
137.083500 27441.400000
138.091400 7505.200000
141.091000 34208.000000
146.096100 1648.400000
148.111900 1646.700000
154.086300 23950.200000
160.111500 1327.600000
172.096900 4391.500000
174.128100 1933.300000
176.106300 1858.200000
190.122200 1262.000000
192.138400 1754.200000
220.133400 3111.500000
254.138800 12904.500000

>ms2
55.054100 46104.500000
66.046300 1501.900000
67.041600 1965.300000
67.054200 7291.300000
68.049400 10020.900000
69.033300 1645.400000
70.065100 1436.200000
77.038600 2654.100000
79.054200 18392.300000
80.049500 43870.200000
81.057300 7522.300000
81.069900 16208.500000
82.041300 4583.300000
82.065100 9818.900000
83.049200 122180.200000
84.044400 13820.000000
91.054300 14744.500000
92.049600 3203.900000
93.057300 64401.500000
93.069900 6110.200000
94.065100 128215.000000
95.049100 2893.300000
95.072900 14763.500000
96.044300 3469.100000
96.080600 2090.400000
98.060100 5985.100000
103.054200 2446.500000
105.057200 1247.400000
105.070100 1983.600000
106.065100 83964.000000
107.073000 7254.300000
107.085600 3697.400000
108.080800 39917.700000
109.064800 4129.900000
109.088600 7228.800000
110.060100 11142.600000
111.067900 32704.900000
112.075600 10711.000000
117.057400 3238.200000
118.065200 47750.300000
119.073000 48601.600000
120.080800 90694.000000
121.088700 5104.800000
122.060100 3538.600000
122.096400 2774.800000
124.075700 22655.400000
126.091500 2906.300000
132.080700 2831.500000
134.096700 2756.800000
136.075700 86939.900000
137.083500 31344.100000
138.091300 10125.300000
140.083000 2038.600000
141.091000 50198.900000
146.096400 3154.500000
148.112200 4675.500000
154.086300 27479.000000
172.097100 2719.500000
176.107000 2757.200000
218.117800 2498.300000
254.138600 10354.900000

>ms2
55.054100 33652.900000
66.046300 2109.100000
67.041500 2766.600000
67.054200 6999.500000
68.049400 8821.400000
69.033400 1189.100000
70.065000 1134.500000
77.038600 3061.600000
79.054200 15575.600000
80.049500 49648.600000
81.057300 7871.100000
81.069800 11544.800000
82.041300 4195.600000
82.065200 8551.200000
83.049100 103978.500000
84.044400 10467.200000
91.054200 14359.800000
92.049500 4143.500000
93.057300 54970.000000
93.069800 6317.100000
94.065100 119205.300000
95.049400 1454.100000
95.072900 9326.200000
96.044200 2496.600000
96.080600 1532.200000
98.059900 4054.700000
103.054300 2164.700000
105.070200 1643.300000
106.065100 70846.400000
107.073000 4944.900000
107.085600 1964.800000
108.080700 33554.000000
109.064500 1859.700000
109.088600 4044.400000
110.060000 8391.800000
111.067800 27755.300000
112.075600 8839.600000
117.057300 2281.400000
118.065100 45428.900000
119.072900 33311.500000
120.080700 66035.600000
121.088500 3515.100000
122.060100 2483.700000
122.096500 2711.300000
124.075600 14628.400000
126.090800 2088.400000
132.080600 2588.700000
134.096800 1801.900000
136.075600 62811.800000
137.083400 16782.400000
138.091300 6512.500000
140.083500 2017.200000
141.091000 23563.000000
146.096500 2952.700000
148.111700 2986.900000
154.086200 16157.600000
172.096900 1382.200000
176.107200 2025.800000
254.139000 3716.100000

>ms2
55.054100 27298.200000
65.038600 1248.300000
66.046400 1948.300000
67.041700 3525.200000
67.054200 5586.600000
68.049500 8474.300000
77.038500 3202.300000
79.054200 14194.800000
80.049500 50013.500000
81.057200 5451.000000
81.069900 9111.300000
82.041300 3421.500000
82.065200 6776.400000
83.049100 86492.400000
84.044400 10029.900000
91.054200 14504.700000
92.049600 5830.000000
93.057300 45973.600000
93.069800 5062.300000
94.065100 106637.800000
95.049200 2036.400000
95.072900 6646.100000
96.044400 3032.000000
98.060100 2501.200000
103.054300 2242.100000
105.070000 1479.900000
106.065100 59492.300000
107.072800 3395.700000
107.085600 1678.700000
108.080800 30616.400000
109.065000 2396.500000
109.088600 3224.200000
110.060100 6608.000000
111.067800 19515.100000
112.075600 6909.800000
117.057300 3053.100000
118.065100 43736.800000
119.072900 26774.800000
120.080800 51901.000000
121.088600 1582.300000
122.060400 1215.200000
124.075700 11498.500000
126.091300 1497.100000
132.080700 2717.600000
136.075700 47307.000000
137.083500 9179.600000
138.091200 3547.200000
141.090900 13548.300000
146.096500 2876.200000
148.112400 1288.200000
154.086300 9790.000000
172.097100 1071.700000
218.118200 1596.000000

>ms2
55.054100 21049.400000
65.038400 1225.700000
66.046400 2045.000000
67.041700 3638.000000
67.054200 6999.600000
68.049400 6944.800000
69.033400 1282.300000
77.038500 3114.100000
79.054300 14745.400000
80.049500 53295.200000
81.057300 3997.000000
81.069800 7070.700000
82.041600 1653.700000
82.065200 7468.800000
83.049100 77235.400000
84.044500 7946.400000
91.054200 16389.700000
92.049500 5005.700000
93.057300 45231.100000
93.070000 3881.400000
94.065100 107315.000000
95.049300 1700.400000
95.073000 5507.300000
96.044300 2563.800000
96.080900 2202.200000
98.060200 2636.600000
103.054300 2279.500000
105.057400 2360.100000
105.070000 2130.700000
106.065100 51969.900000
107.072900 3646.400000
107.085600 1163.300000
108.080800 25488.200000
109.088400 1988.600000
110.060000 7925.600000
111.067900 13974.400000
112.075700 5012.800000
117.057400 4024.000000
118.065100 41990.300000
119.073000 19432.900000
120.080800 38675.400000
121.088800 1536.100000
122.060000 1769.000000
124.075700 8837.200000
132.081400 1324.500000
136.075700 35141.200000
137.083500 5067.400000
138.091400 3708.700000
141.091000 7771.200000
154.086200 6234.800000
172.096800 1227.700000

>ms2
55.054100 17773.500000
65.038600 1463.700000
66.046300 3193.000000
67.041600 3172.300000
67.054100 6891.400000
68.049500 5482.800000
77.038500 2521.800000
79.054200 11804.800000
80.049400 56497.700000
81.057200 3738.600000
81.069800 5160.000000
82.041300 2580.000000
82.065100 5964.700000
83.049100 65097.800000
84.044300 6256.100000
91.054200 16371.900000
92.049400 7221.400000
93.057300 33619.700000
93.069800 2974.500000
94.065100 96368.800000
95.049200 1389.400000
95.073000 3825.300000
96.044200 2781.100000
98.060200 2087.600000
103.054200 3115.800000
105.057100 1247.800000
105.069400 1043.300000
106.065000 44986.900000
107.072700 2891.400000
108.080700 19744.900000
109.088500 2137.100000
110.059900 5491.000000
111.067800 10902.400000
112.075600 3577.100000
117.057100 3609.200000
118.065000 39834.400000
119.072900 15477.400000
120.080700 32840.000000
122.060200 1125.500000
124.075600 6272.400000
132.080300 1273.000000
136.075600 25017.700000
137.083300 2745.600000
138.091100 1701.200000
141.091000 4074.800000
146.097100 1184.100000
154.086300 4139.200000
172.097000 1002.000000

