>compound NA55005825
>parentmass 609.2807
>ionization [M+H]+
>formula C33H40N2O9
>rt 605.640000
>profile orbitrap
#smiles_iso CO[C@H]1[C@@H](C[C@@H]2CN3CCC4=C([C@H]3C[C@@H]2[C@@H]1C(=O)OC)NC5=C4C=CC(=C5)OC)OC(=O)C6=CC(=C(C(=C6)OC)OC)OC
#smiles_can COC1C(CC2CN3CCC4=C(C3CC2C1C(=O)OC)NC5=C4C=CC(=C5)OC)OC(=O)C6=CC(=C(C(=C6)OC)OC)OC
#inchikey QEVHRUUCFGRFIF-MDEJGZGSSA-N
#pubchem_id 5770
#mb_accession NA002309,NA002310,NA002311,NA002312,NA002313

>ms2
609.282800 5794.600000

>ms2
522.085100 1426.100000
609.279600 3549.100000

>ms2
609.282600 3013.500000

>ms2
195.065700 2639.600000
397.213900 3972.500000
522.085600 2007.000000
609.281100 1865.500000

>ms2
195.065600 7095.400000
397.213800 4257.800000
522.085900 2663.500000

