>compound NA59763700
>parentmass 368.1704
>ionization [M+H]+
>formula C18H25NO7
>rt 124.860000
>profile orbitrap
#smiles_iso C/C=C\1/C[C@H]([C@@](C(=O)OCC2=CC[N@@+]3([C@H]2[C@@H](CC3)OC1=O)[O-])(CO)O)C
#smiles_can CC=C1CC(C(C(=O)OCC2=CC[N+]3(C2C(CC3)OC1=O)[O-])(CO)O)C
#inchikey IDIMIWQPUHURPV-BJODLBMNSA-N
#pubchem_id 76972338
#mb_accession NA002389,NA002390,NA002391,NA002392,NA002393,NA002784,NA002785,NA002786,NA002787,NA002788,NA003164,NA003165,NA003166,NA003167,NA003168,NA003529,NA003530,NA003531,NA003532,NA003533

>ms2
368.170600 164816.300000

>ms2
368.170700 382451.100000

>ms2
368.170600 369796.100000

>ms2
368.170600 376145.600000

>ms2
368.170800 347156.100000

>ms2
81.069900 1608.200000
93.057600 1241.100000
94.065200 1789.900000
95.073000 5640.400000
106.065200 2654.000000
118.065200 20046.300000
119.073100 16475.900000
120.080800 12920.600000
121.088700 14637.900000
122.096800 1735.100000
136.075800 9606.400000
137.083600 2847.600000
138.091400 7557.500000
154.086200 8910.200000
220.133500 12840.000000
246.149300 6669.200000
248.165300 2402.700000
338.161100 3344.600000
340.176000 3429.300000
368.170600 596778.800000

>ms2
80.049500 1618.100000
81.069800 4720.000000
93.057400 4513.000000
94.065100 7711.600000
95.073000 18269.900000
106.065000 3707.800000
108.080900 4908.100000
109.088100 1168.800000
112.075800 2136.000000
118.065200 46479.000000
119.073000 32720.300000
120.080800 32083.300000
121.088700 30449.300000
122.096600 4953.600000
123.081000 2455.700000
136.075700 28942.900000
137.083600 7596.700000
138.091400 20895.000000
139.075600 1156.500000
139.099100 1615.700000
151.075300 3791.700000
152.106500 1406.700000
154.086400 16960.800000
169.086100 3286.000000
178.123000 3120.300000
218.117400 2311.900000
218.154800 1900.100000
220.133300 23878.600000
246.149000 11602.900000
248.164600 4314.300000
320.150000 2755.600000
338.160000 3855.700000
340.175800 9924.000000
368.170500 466361.000000

>ms2
79.054300 1776.300000
80.049700 3075.300000
81.069900 7600.000000
91.054500 2217.600000
93.057400 11755.200000
93.070100 1305.500000
94.065200 15218.700000
95.073000 33799.600000
95.085800 2430.300000
98.060200 1975.100000
105.070400 1493.100000
106.065200 7709.300000
108.080800 7558.300000
109.064800 2763.400000
109.088700 2155.700000
112.075900 4397.500000
118.065200 64166.300000
119.073100 47360.800000
120.080900 53223.300000
121.088700 35505.600000
122.096500 11904.700000
123.080500 5689.400000
124.075900 1501.900000
125.096200 1763.600000
136.075800 51552.900000
137.083600 13716.600000
138.091400 33786.600000
139.075800 1883.100000
139.099000 1575.900000
140.107000 1698.300000
151.075400 4522.800000
152.107300 1596.700000
154.086300 22906.300000
169.085900 5418.100000
178.122500 3761.100000
218.117900 4651.700000
218.154000 2246.500000
220.133500 37353.300000
227.128500 2483.200000
246.149200 12502.800000
248.164600 5776.300000
270.134000 1491.500000
292.155200 1907.500000
306.170500 2458.700000
320.149400 2011.800000
338.160500 4867.600000
340.175500 14782.600000
368.170700 279821.200000

>ms2
53.038600 1238.900000
67.054100 1296.700000
79.054200 3124.100000
80.049600 4157.000000
81.069900 10949.700000
82.065200 1203.200000
83.048800 1135.800000
84.044500 1265.500000
91.054300 3306.000000
93.057300 21015.000000
94.065200 26031.600000
95.073000 35828.500000
95.085700 3274.700000
98.060200 2359.700000
106.065200 13589.500000
107.049000 2279.900000
107.085900 1278.700000
108.080800 9973.700000
109.064800 5003.600000
109.088600 3631.000000
110.060100 1577.300000
112.075800 6310.400000
118.065200 67352.800000
119.073000 59688.000000
120.080800 65928.000000
121.088600 32594.500000
122.096500 16794.900000
123.080400 8332.200000
124.076000 1832.000000
125.096300 1497.700000
136.075700 66501.900000
137.059700 2052.900000
137.083500 13647.700000
138.091400 42984.700000
139.075300 3745.300000
139.099100 1748.800000
140.107100 1982.000000
151.075400 5091.800000
152.106800 3305.900000
154.086300 23239.400000
169.085900 5532.800000
178.122700 6594.500000
218.117900 3439.100000
218.154500 1689.900000
220.133200 29782.600000
227.127700 4693.400000
236.127500 1090.100000
246.149000 9504.800000
248.164700 4354.900000
270.133300 1746.700000
292.154700 2667.500000
306.169800 2879.400000
320.150100 2119.800000
338.158700 2138.200000
340.176000 11634.000000
368.170600 127518.200000

>ms2
53.038500 1226.600000
67.054200 1829.900000
79.054300 3816.900000
80.049600 5258.400000
81.069900 11599.500000
82.065200 1866.100000
83.049100 1384.300000
84.044500 2096.100000
91.054200 4471.700000
93.057400 28007.400000
93.069900 1952.700000
94.065200 35600.200000
95.073000 32212.900000
95.085600 5695.800000
98.060100 3244.800000
105.069500 1061.800000
106.065200 13794.800000
107.049100 1699.400000
107.085900 1715.700000
108.080900 12952.000000
109.064900 4595.900000
109.088800 4149.900000
110.060100 2293.500000
112.075800 7366.100000
118.065200 63683.400000
119.073100 52837.400000
120.080900 69826.900000
121.088700 22588.500000
122.096500 17565.500000
123.080500 10747.900000
124.075700 1266.400000
125.096200 1714.800000
136.075800 82405.900000
137.060200 1453.700000
137.083700 13789.300000
138.091400 39786.100000
139.075400 5475.800000
140.107400 965.900000
151.075500 7653.100000
152.107100 2938.200000
154.086400 18946.300000
169.086300 3908.500000
178.122700 7911.400000
218.118000 4960.800000
218.153600 2147.200000
220.133300 22392.300000
227.128200 4828.200000
236.127800 1199.700000
246.149100 6963.900000
248.164900 3465.200000
292.154500 1569.100000
306.169600 1884.600000
320.148100 1812.700000
340.175700 8475.000000
368.170700 43172.800000

>ms2
53.038500 3497.400000
55.054200 1369.400000
67.054100 2757.300000
68.049400 1525.800000
79.054300 7631.700000
80.049500 9010.500000
81.033600 2465.100000
81.057400 1662.400000
81.069900 18495.700000
82.065200 3363.100000
83.049200 1365.200000
84.044500 2372.800000
91.054300 5252.500000
93.057400 47934.800000
93.070000 3766.600000
94.065200 63710.400000
95.073000 41309.000000
95.085500 11550.500000
96.080800 1468.200000
98.060100 4846.600000
99.044100 1840.800000
105.069900 3055.400000
106.065200 21634.000000
107.048900 1102.400000
107.073000 2834.800000
107.085600 3606.500000
108.080800 24005.100000
109.064900 5680.200000
109.088600 6733.900000
110.060200 2968.800000
111.044100 1483.600000
111.068400 2301.500000
112.075700 9250.000000
117.057400 983.100000
118.065200 80929.500000
119.073000 61841.900000
120.080800 103290.600000
121.065100 1217.500000
121.088700 16679.200000
122.096500 24508.400000
123.080500 14283.700000
124.076000 2954.200000
125.096300 1748.300000
136.075700 117079.200000
137.060100 2189.600000
137.083600 12366.100000
138.091400 53260.500000
139.075400 8738.300000
141.091200 1398.600000
146.097000 1538.100000
148.112300 1678.800000
151.075400 9484.100000
152.107100 4964.800000
154.086400 21668.600000
164.107100 3008.100000
167.106200 2128.800000
169.086100 4463.300000
176.107300 1741.500000
178.122700 7980.800000
190.123000 2248.800000
218.117400 5038.100000
218.154200 2717.500000
220.133400 17223.700000
227.127900 4045.000000
236.127700 1597.000000
246.148600 4950.400000
340.175500 5830.700000
368.170700 21843.200000

>ms2
53.038500 2722.900000
67.054300 3143.500000
68.049400 2178.800000
79.054300 6931.300000
80.049500 10759.700000
81.033500 1866.500000
81.057300 2208.400000
81.069900 17121.800000
82.065200 3087.000000
83.049100 2931.200000
84.044300 3322.700000
91.054300 6636.100000
93.057300 52725.200000
93.069900 3269.000000
94.065100 83539.500000
95.072900 35176.100000
95.085500 14446.300000
96.080600 1431.100000
98.060000 5931.700000
105.069600 2567.600000
106.065200 19069.300000
107.049100 2094.900000
107.073100 3228.800000
107.085200 2970.500000
108.080800 24355.800000
109.064800 5500.300000
109.088600 6776.900000
110.060100 2952.300000
111.044200 1338.500000
111.067900 3049.600000
112.075700 8662.800000
117.057400 1683.200000
118.065200 68989.000000
119.073000 56788.500000
120.080800 99932.300000
121.064900 1049.200000
121.088500 11903.300000
122.096400 21660.200000
123.080500 14608.500000
124.075800 3311.400000
125.096300 1743.900000
134.096300 1647.500000
136.075700 119244.300000
137.059700 1923.400000
137.083500 7947.300000
138.091400 44487.100000
139.075400 8545.500000
141.091600 1432.300000
148.112300 1939.900000
151.075400 9753.100000
152.107000 3199.000000
154.086300 13816.800000
164.107000 3198.400000
167.106900 2651.800000
169.085900 2946.400000
176.107400 1453.400000
178.122700 5893.500000
190.123000 2867.300000
218.118600 2472.600000
220.133100 7193.400000
227.127400 3903.100000
236.127900 2015.900000
246.148400 2164.700000
340.176200 3405.600000
368.170700 6747.900000

>ms2
53.038500 2427.100000
67.054300 3825.100000
79.054300 7315.500000
80.049500 10710.500000
81.033500 2687.100000
81.057300 2663.800000
81.069900 13655.100000
82.065300 2449.500000
83.049100 1622.500000
84.044400 2252.200000
91.054200 5728.400000
93.057400 55817.700000
93.070100 3810.700000
94.065200 92220.500000
95.073000 25815.700000
95.085600 13551.500000
96.080700 1924.500000
98.060000 5884.600000
99.044000 1406.400000
105.070000 3171.400000
106.065200 20159.300000
107.049100 1881.700000
107.072800 1514.000000
107.085500 1808.500000
108.080800 23061.900000
109.064700 3498.000000
109.088700 4448.700000
110.060200 3326.300000
111.067700 3005.400000
112.075700 5456.200000
117.057300 2581.600000
118.065200 62866.700000
119.073000 41402.600000
120.080800 88951.500000
121.065000 1123.100000
121.088700 6478.900000
122.096400 17167.900000
123.080400 12390.400000
124.075800 2914.700000
136.075700 111712.200000
137.059700 1526.800000
137.083500 4073.000000
138.091400 31899.500000
139.075500 7748.600000
141.090700 1551.300000
148.112500 1938.400000
151.075400 5829.100000
152.107100 1920.100000
154.086200 7576.800000
164.107300 2492.800000
167.107000 1877.200000
169.085800 2875.500000
178.122700 4323.600000
218.117400 2226.200000
218.153700 1440.700000
220.133400 2290.600000
227.128300 2135.800000

>ms2
53.038500 2504.800000
55.054100 1622.800000
67.054100 4551.100000
68.049300 1191.100000
79.054300 6890.500000
80.049500 12503.100000
81.033600 1985.600000
81.057300 2763.400000
81.069900 14466.700000
82.065200 2618.800000
83.049200 1978.400000
84.044500 2295.400000
91.054300 3686.100000
92.049300 2041.600000
93.057400 48034.000000
93.069900 2403.600000
94.065100 98076.300000
95.073000 18391.200000
95.085500 12820.000000
96.080700 2422.100000
98.060100 4727.300000
105.070000 2792.100000
106.065200 17164.500000
107.073100 2762.400000
107.085600 1241.700000
108.080800 24137.500000
109.064800 3883.000000
109.088800 3737.800000
110.059900 1464.100000
111.067900 1617.300000
112.075800 3875.200000
117.057200 1668.500000
118.065200 57563.700000
119.073000 30436.400000
120.080800 78531.600000
121.064900 1092.900000
121.088600 4111.800000
122.096500 11769.500000
123.080400 8372.000000
124.075600 3496.800000
134.096700 1580.300000
136.075700 90213.400000
137.083800 2698.400000
138.091400 20336.100000
139.075400 6054.600000
146.096900 1968.000000
148.112700 2015.700000
151.075600 3721.300000
154.086200 3442.800000
164.107400 1622.700000
178.122700 3478.100000
190.122800 1170.100000
220.133200 1356.700000

>ms2
53.038500 2311.600000
67.054300 4403.500000
79.054300 5539.700000
80.049500 14934.300000
81.033700 1374.800000
81.057200 2015.800000
81.069900 10576.300000
82.065100 3460.400000
83.049200 2534.700000
84.044500 1430.800000
91.054200 7182.400000
92.049300 2596.200000
93.057300 47663.100000
93.069900 3585.500000
94.065100 107260.600000
95.073000 14417.700000
95.085500 10917.700000
96.080800 1853.800000
98.060200 2832.600000
105.070200 3273.700000
106.065200 14227.800000
107.072700 1801.700000
107.085700 1616.700000
108.080800 20509.500000
109.064900 2700.000000
109.088500 2893.000000
111.068000 2092.300000
112.076100 2596.200000
117.057300 2670.600000
118.065200 45316.200000
119.073000 23584.600000
120.080800 68089.300000
121.088500 2548.000000
122.096500 8335.600000
123.080400 7131.400000
124.075600 2762.900000
136.075700 73937.800000
137.083800 1917.700000
138.091400 13303.000000
139.075300 4477.200000
148.112200 1714.600000
151.075500 3512.300000
154.086300 2358.700000
178.122200 1293.800000

>ms2
53.038500 2695.800000
65.038500 932.800000
67.041700 2262.000000
67.054300 7210.700000
68.049300 1325.000000
77.038700 2526.700000
79.054300 9254.700000
80.049600 22115.800000
81.033700 2611.600000
81.057400 3177.200000
81.069900 14643.900000
82.065100 2839.100000
83.049300 2230.700000
84.044600 2261.900000
91.054300 9134.300000
92.049500 3676.500000
93.057400 61091.200000
93.070100 3844.000000
94.065200 149547.100000
95.073100 14209.000000
95.085600 11378.800000
96.044500 1646.500000
96.080800 3938.900000
98.060200 3603.300000
105.070100 3177.000000
106.065200 17946.600000
107.073000 2647.800000
108.080900 27250.100000
109.065000 2198.800000
109.088800 2019.800000
110.060100 2996.700000
111.068000 1689.200000
117.057500 5399.100000
118.065200 60473.400000
119.073100 24537.000000
120.080900 82065.600000
122.096500 8121.600000
123.080500 6391.000000
124.075600 1612.500000
132.080700 2490.400000
134.096500 2319.400000
136.075800 87382.100000
138.091400 12591.400000
139.075500 4421.600000
146.096100 1184.300000
151.075600 2702.200000
154.086100 1168.700000

>ms2
53.038400 1937.400000
67.041700 3031.000000
67.054300 7160.100000
68.049600 1738.000000
77.038600 2276.400000
79.054300 8068.200000
80.049600 25342.500000
81.033500 2852.800000
81.057400 3737.800000
81.070000 14943.700000
82.065300 2270.000000
83.049100 2462.600000
84.044500 2413.500000
91.054300 10403.400000
92.049500 4304.800000
93.057400 54148.300000
93.070100 3722.600000
94.065200 143873.300000
95.073100 11071.700000
95.085600 9135.400000
96.081000 3925.100000
98.060300 2004.600000
105.069900 3107.500000
106.065200 18746.000000
107.073100 2991.900000
108.044400 1375.000000
108.080900 24772.700000
109.064900 2526.100000
109.088300 1657.300000
111.068100 1356.000000
117.057400 5256.500000
118.065200 54456.600000
119.073000 16882.000000
120.080900 70925.100000
122.096400 4993.400000
123.080600 3591.200000
124.075700 1763.800000
132.081200 2452.000000
134.096700 1797.500000
136.075800 66361.800000
138.091400 7306.100000
139.075400 3403.300000
146.096200 1706.400000
151.075300 2205.300000
154.086800 1225.800000

>ms2
53.038600 1762.000000
66.046300 2172.000000
67.041600 3002.600000
67.054200 8393.300000
68.049300 1634.100000
77.038600 2569.700000
78.033700 1077.600000
79.054300 10209.300000
80.049500 28390.300000
81.033700 1461.900000
81.057300 3279.400000
81.069900 12409.400000
82.065200 1962.600000
83.049300 2628.800000
84.044600 1399.500000
91.054200 11246.300000
92.049400 5541.200000
93.057300 50869.800000
93.069800 3869.600000
94.065100 143102.100000
95.072900 7246.300000
95.085600 8059.100000
96.044400 1307.900000
96.080800 2592.500000
98.060200 1566.700000
105.070000 3508.300000
106.065100 15474.600000
107.072900 2246.500000
108.044300 1496.200000
108.080800 21696.400000
109.064400 1984.600000
109.088300 1675.400000
110.060200 3439.000000
111.068000 1070.000000
117.057400 6597.100000
118.065200 48509.900000
119.073000 13688.000000
120.080800 60983.000000
122.096400 2824.200000
123.080600 2864.400000
132.081000 1522.500000
136.075700 48893.500000
138.091300 3438.800000
139.075200 2005.600000
146.096400 1192.300000
154.085700 1243.700000

>ms2
53.038500 1522.600000
65.038600 1356.300000
66.046300 2972.200000
67.041600 3153.300000
67.054200 8062.200000
68.049400 1458.700000
77.038700 2618.000000
79.054300 8262.400000
80.049500 27848.700000
81.033500 1402.100000
81.057400 3052.400000
81.069900 10923.700000
82.065100 1507.100000
83.049200 1962.300000
84.044200 1329.800000
91.054200 11550.800000
92.049500 7165.800000
93.057300 39103.800000
93.069900 2975.500000
94.065100 115259.800000
95.072900 4305.400000
95.085400 4555.900000
96.044200 1367.900000
96.080900 2487.000000
98.060300 1068.300000
105.070000 2134.400000
106.065200 13945.000000
107.073000 3006.700000
108.044300 1235.900000
108.080800 16661.500000
110.060100 2114.200000
111.067500 1616.900000
117.057400 6568.800000
118.065100 38099.900000
119.072900 10404.100000
120.080800 50402.600000
122.096400 2560.600000
123.080100 1770.800000
136.075700 37237.300000
138.091000 1281.900000
139.075100 1131.300000

>ms2
53.038500 1524.900000
65.038600 1251.600000
66.046300 3050.200000
67.041600 2643.700000
67.054200 6612.400000
77.038500 2583.600000
78.034100 1457.100000
79.054200 6543.400000
80.049500 27445.600000
81.033500 1191.600000
81.057200 2272.500000
81.069900 6918.200000
82.065400 976.700000
84.044400 1417.900000
91.054200 11081.200000
92.049500 7256.300000
93.057300 31729.500000
93.069800 1941.800000
94.065100 102341.600000
95.072900 3787.600000
95.085400 3045.400000
96.044700 1798.900000
96.080800 2723.000000
105.070000 2020.000000
106.065200 10801.000000
107.072900 1879.900000
108.080800 14253.100000
110.060000 3123.200000
117.057300 7182.200000
118.065100 33660.700000
119.072900 5176.000000
120.080800 38000.500000
136.075700 24960.200000
138.092000 1280.100000

