>compound NA59641061
>parentmass 139.11169999999998
>ionization [M+H]+
>formula C9H14O
>rt 521.820000
>profile orbitrap
#smiles_iso CC1=CC(=O)CC(C1)(C)C
#smiles_can CC1=CC(=O)CC(C1)(C)C
#inchikey HJOVHMDZYOCNQW-UHFFFAOYSA-N
#pubchem_id 6544
#mb_accession NA002581,NA002582,NA002583,NA002584,NA002585,NA002969,NA002970,NA002971,NA002972,NA002973,NA003344,NA003345,NA003346,NA003347,NA003348,NA003714,NA003715,NA003716,NA003717,NA003718

>ms2
139.111700 54921.400000

>ms2
139.111700 65556.800000

>ms2
139.111700 73590.900000

>ms2
139.111700 72260.400000

>ms2
139.111600 127608.200000

>ms2
69.033400 33992.900000
83.049100 3910.500000
93.069900 1605.100000
95.085400 2174.700000
97.064800 5740.600000
121.101200 8152.900000
139.111700 476781.800000

>ms2
69.033400 52542.300000
81.070000 1475.300000
83.049100 5718.900000
93.069800 2616.300000
95.085500 3804.700000
97.064800 7750.800000
111.080600 1729.400000
121.101100 12716.500000
139.111700 421536.200000

>ms2
69.033400 67973.700000
81.069800 1652.900000
83.049100 7909.500000
93.069900 4298.800000
95.085500 3795.800000
97.064800 11224.500000
111.080100 1801.300000
121.101100 13261.800000
139.111600 332871.000000

>ms2
69.033400 81549.600000
81.069700 1307.200000
83.049100 9236.900000
93.069800 7280.800000
95.085400 4650.100000
97.064800 14233.900000
105.069800 1615.200000
121.101100 17636.200000
139.111600 259181.100000

>ms2
69.033400 89708.800000
81.069900 1315.400000
83.049100 11088.300000
93.069800 9075.700000
95.085400 4417.000000
97.064700 20430.100000
105.069900 3223.800000
111.080000 1937.300000
121.101100 19857.500000
139.111600 199432.300000

>ms2
55.054200 1535.000000
67.054400 877.400000
69.033500 110999.500000
79.054100 4147.900000
81.070000 1816.900000
83.049200 12540.800000
93.069900 11330.100000
95.085500 6996.300000
97.064800 28203.900000
105.069800 6202.400000
111.080500 1522.700000
121.101200 22096.300000
139.111700 172603.900000

>ms2
55.054100 1292.400000
69.033400 112803.900000
79.054200 3606.000000
81.069800 2664.500000
83.049100 14219.500000
93.069800 13494.200000
95.085500 6401.700000
97.064800 26576.400000
105.069800 6688.600000
111.080500 1444.400000
121.101100 20786.700000
139.111700 114373.100000

>ms2
55.054000 1588.500000
69.033500 98917.900000
79.054200 5145.900000
81.069800 1958.700000
83.049100 12498.900000
91.054300 1401.700000
93.069900 14064.800000
95.085600 6047.700000
97.064800 29066.900000
105.069800 6846.100000
111.080300 1392.300000
121.101200 17684.400000
139.111700 70901.500000

>ms2
55.054100 1231.000000
69.033400 88674.000000
77.038600 1573.200000
79.054200 5557.000000
81.070000 1652.200000
83.049100 12045.500000
91.054100 2468.300000
93.069900 15660.100000
95.085600 6326.900000
96.056800 1142.600000
97.064700 26423.000000
105.069900 8379.900000
111.080400 1532.000000
121.101200 15847.200000
139.111700 43097.500000

>ms2
67.054300 1417.000000
69.033500 86583.600000
77.038500 2435.100000
79.054300 6463.200000
81.069900 1537.500000
83.049100 11547.100000
91.054300 2872.500000
93.069900 15066.600000
95.085600 4195.700000
96.057400 1345.400000
97.064800 20497.400000
105.070000 8941.100000
121.101200 13258.400000
139.111800 26414.900000

>ms2
55.054100 1368.800000
67.053900 1270.600000
69.033400 76982.400000
77.038500 2899.800000
79.054200 8349.300000
81.069800 1551.500000
83.049100 10347.300000
91.054100 6309.600000
93.069900 12805.800000
95.049200 1969.100000
95.085400 4157.900000
97.064700 27086.900000
103.054300 1494.500000
105.069800 8638.500000
106.077700 1425.800000
110.072400 1624.000000
119.085200 1899.700000
121.101100 10317.200000
139.111700 16814.200000

>ms2
67.054100 2297.800000
69.033500 68980.600000
77.038600 5574.500000
79.054200 8017.400000
81.069800 1379.000000
83.049100 8297.100000
91.054200 4825.800000
93.069900 11647.200000
95.049200 1607.000000
95.085500 2403.300000
96.057100 1305.500000
97.064800 19864.100000
105.069900 9989.100000
110.072500 1402.200000
121.101000 7296.800000
139.111700 10812.200000

>ms2
55.054300 1061.400000
67.054200 1917.300000
69.033500 55967.600000
77.038600 4772.600000
79.054300 8209.800000
81.069900 2244.500000
83.049100 7915.300000
91.054100 6138.200000
93.069800 10917.900000
95.048900 1795.500000
95.085800 2685.800000
96.057000 1476.800000
97.064700 14470.900000
103.054200 1593.900000
105.069800 9516.400000
106.077600 1269.000000
109.064500 1195.200000
119.085500 1325.400000
121.101200 5373.200000
139.111800 5682.500000

>ms2
67.054300 1952.700000
69.033500 49133.900000
77.038500 6677.400000
79.054200 7833.300000
81.069800 1852.500000
83.049100 5381.000000
91.054300 6598.000000
93.069900 8231.800000
95.049100 2496.100000
95.085300 1807.400000
96.056600 1786.500000
97.064700 12594.900000
103.054300 1824.400000
105.069900 5392.900000
106.077500 1472.000000
110.073000 1284.200000
121.101000 3139.500000
139.111600 2475.800000

>ms2
67.054300 2071.600000
69.033500 42127.800000
77.038500 7247.200000
79.054300 8989.400000
83.049100 4403.200000
91.054300 8388.700000
93.069800 5602.700000
95.049300 2546.600000
96.057100 1472.700000
97.064800 8644.700000
103.054200 1481.800000
105.069800 5574.000000
109.064700 1668.900000
121.101300 1577.400000

