>compound NA60091237
>parentmass 334.1648999999999
>ionization [M+H]+
>formula C18H23NO5
>rt 123.585000
>profile orbitrap
#smiles_iso C/C=C\1/CC(=C)[C@@](C(=O)OCC2=CCN3[C@H]2[C@@H](CC3)OC1=O)(C)O
#smiles_can CC=C1CC(=C)C(C(=O)OCC2=CCN3C2C(CC3)OC1=O)(C)O
#inchikey FCEVNJIUIMLVML-QPSVUOIXSA-N
#pubchem_id 5281750
#mb_accession NA002439,NA002440,NA002441,NA002442,NA002443,NA002834,NA002835,NA002836,NA002837,NA002838,NA003214,NA003215,NA003216,NA003217,NA003218,NA003579,NA003580,NA003581,NA003582,NA003583

>ms2
334.164900 100693.400000

>ms2
334.164900 418112.500000

>ms2
334.164900 457909.700000

>ms2
120.081300 1463.100000
334.164800 475413.300000

>ms2
120.080900 4796.100000
334.164900 483655.700000

>ms2
94.065100 2543.400000
120.080800 19043.500000
122.096700 2381.600000
138.091300 12940.100000
151.075300 1392.300000
290.175300 1938.600000
306.170200 12687.700000
334.164900 563711.000000

>ms2
91.054300 1422.100000
93.069800 3140.400000
94.065100 11632.800000
96.080800 1867.300000
103.054100 1478.000000
105.070100 1290.400000
108.081100 1887.400000
109.064900 2582.100000
118.065200 1158.600000
120.080800 43905.000000
122.096500 7977.700000
123.080100 2148.200000
138.091400 32871.200000
151.075500 4668.600000
288.159400 2217.600000
290.175600 2625.800000
306.170000 31294.500000
334.164900 490812.900000

>ms2
68.049500 1633.900000
79.054200 1628.900000
80.049400 3213.800000
81.069900 2528.500000
82.065200 1647.600000
91.054100 2953.800000
93.069900 8162.100000
94.065100 26715.600000
95.085600 1945.700000
96.080800 6037.300000
103.054300 2714.600000
105.069800 3606.800000
107.085500 1884.800000
108.080700 5957.100000
109.064700 4766.100000
110.060400 1881.800000
110.096300 2087.000000
118.065400 2514.200000
120.080800 79127.800000
121.088400 1460.300000
122.096400 15273.500000
123.080300 6871.100000
133.064500 1150.700000
138.091300 67870.700000
148.112100 1546.600000
151.075100 8259.000000
156.102000 1258.100000
246.148800 1161.500000
288.159400 4958.100000
290.175900 3273.400000
306.170000 47349.000000
334.164800 365011.100000

>ms2
67.054200 1871.800000
68.049300 2004.300000
79.054300 3983.000000
80.049500 4340.700000
81.070100 3214.400000
82.065100 4650.200000
91.054300 6130.900000
93.070000 13825.500000
94.065200 43708.000000
95.085500 3648.600000
96.080800 10635.500000
103.054200 5764.300000
105.069900 7392.100000
107.073200 2207.500000
107.085400 1620.500000
108.080900 10048.300000
109.064800 11530.800000
110.059900 1980.500000
110.096500 6235.800000
118.065100 4719.400000
119.072500 1217.800000
120.080800 94479.100000
121.064600 1668.700000
121.088500 2589.500000
122.096400 19059.200000
123.080400 10986.900000
133.065000 2587.700000
134.096100 1060.400000
136.076100 3412.000000
138.091400 89041.100000
151.075400 12994.100000
156.102200 1589.900000
246.149400 2415.100000
288.160100 5021.200000
290.174700 2913.100000
306.170100 57181.200000
334.164900 224510.500000

>ms2
67.054200 5048.500000
68.049400 5057.400000
79.054200 4460.600000
80.049500 8687.400000
81.069800 8402.400000
82.065100 7421.700000
91.054200 9401.200000
93.069900 19475.900000
94.065100 52647.900000
95.085500 4665.100000
96.080700 16806.000000
103.054200 6377.400000
105.069800 11686.500000
107.072700 2891.500000
107.085400 3130.000000
108.080700 14569.300000
109.064800 14593.700000
110.060100 3757.800000
110.096500 7261.800000
118.065000 6963.000000
119.072900 1354.600000
120.080800 102890.200000
121.064700 1639.300000
121.088700 4215.700000
122.096400 19407.700000
123.080400 13025.600000
133.064800 4198.300000
134.095800 1245.400000
136.075500 2585.500000
138.091300 96180.900000
148.111800 1183.300000
151.075300 12699.200000
156.102300 2466.200000
246.148400 3233.600000
306.170000 48809.000000
334.164800 105385.200000

>ms2
67.054200 8109.900000
68.049400 5612.100000
77.038600 3477.400000
79.054300 6863.100000
80.049500 11256.800000
81.057300 1614.500000
81.069900 8473.100000
82.065100 10216.800000
84.044500 1215.400000
91.054200 14113.400000
92.049300 2559.500000
93.069900 21472.700000
94.065100 61791.300000
95.049100 1488.100000
95.085500 6578.000000
96.080700 22083.400000
103.054200 9554.400000
105.069800 13587.300000
106.065300 1800.600000
107.072900 4258.700000
107.085700 2374.300000
108.080800 19754.000000
109.064800 18923.800000
109.088500 1867.200000
110.060200 3774.700000
110.096400 10426.400000
112.075600 1717.000000
118.065200 7537.100000
119.072900 2133.600000
120.080800 93525.300000
121.065100 1403.600000
121.088800 4155.100000
122.096400 20094.000000
123.080400 17598.400000
133.064800 3190.500000
136.075600 3358.900000
138.091300 93227.100000
140.106800 1622.000000
146.096100 1130.900000
148.112600 1790.300000
151.075400 14488.100000
156.102200 1887.000000
246.149100 2002.300000
306.170100 33616.000000
334.164800 48598.000000

>ms2
65.038700 1398.000000
67.054200 12871.800000
68.049400 6296.000000
77.038600 3918.700000
79.054200 10338.100000
80.049500 14347.400000
81.057300 3882.500000
81.069900 12986.100000
82.065100 11432.200000
84.044400 2002.400000
91.054200 19993.500000
92.049500 2576.400000
93.057300 1833.900000
93.069900 21530.800000
94.065100 68434.700000
95.049200 1746.400000
95.073000 2851.500000
95.085500 6778.500000
96.080800 27196.400000
103.054200 10925.700000
105.057400 1182.700000
105.069800 12435.700000
106.065300 3614.100000
107.073000 6659.500000
107.085500 3869.600000
108.080800 22976.400000
109.064800 20317.900000
109.088700 1951.800000
110.060000 3753.600000
110.096500 12378.700000
112.075300 1487.700000
117.069500 1536.000000
118.065000 9155.700000
119.072400 1636.900000
120.080800 79597.200000
121.065000 1738.200000
121.088600 4823.700000
122.096400 16973.400000
123.080400 15930.900000
133.064700 3878.600000
135.080300 1104.600000
136.075800 1656.600000
138.091300 80187.900000
140.107200 2183.700000
151.075400 10617.000000
156.101900 3507.400000
246.148800 2262.500000
306.169900 18478.000000
334.164900 18675.500000

>ms2
67.054200 13997.600000
68.049400 7634.500000
77.038600 6874.600000
79.054300 12185.700000
80.049500 16728.500000
81.057300 4513.600000
81.069900 12248.500000
82.065200 13397.600000
84.044200 2280.100000
86.060000 1615.500000
91.054200 20384.400000
92.049400 3554.200000
93.057400 1945.700000
93.069900 23386.000000
94.065100 73171.700000
95.049400 2080.100000
95.073000 3395.500000
95.085500 8428.000000
96.080800 25855.400000
103.054200 10464.900000
105.057200 2679.200000
105.069900 15136.100000
106.065200 4024.000000
107.072900 6853.100000
107.085400 2560.100000
108.080800 21839.000000
109.064700 19798.200000
109.088400 2079.200000
110.060100 3011.500000
110.096500 12444.200000
112.075800 1369.900000
117.070000 1317.600000
118.065100 10534.800000
119.072800 1873.800000
120.080800 67704.500000
121.064600 1313.400000
121.088600 3912.800000
122.096400 11790.000000
123.080400 12444.100000
133.064900 2513.100000
135.079800 1398.200000
136.076000 1557.100000
138.091300 53618.300000
140.107300 1875.400000
146.096300 1093.400000
148.111900 1545.700000
151.075400 6949.300000
156.102000 3562.600000
246.148500 1824.000000
306.169900 7704.200000
334.165400 5345.000000

>ms2
67.041700 1379.200000
67.054200 16793.400000
68.049400 6557.500000
77.038600 6895.700000
79.054200 11374.600000
80.049500 17549.500000
81.057400 5982.600000
81.069900 12455.900000
82.065100 13152.000000
84.044700 1063.900000
86.060100 1610.700000
91.054200 20916.900000
92.049500 3842.600000
93.057300 2594.300000
93.069900 16665.500000
94.065100 66755.800000
95.048900 1553.700000
95.073100 3005.800000
95.085500 8618.200000
96.080800 25604.300000
103.054200 9948.500000
105.057500 2126.300000
105.069900 13852.500000
106.065000 5002.000000
107.073000 6316.900000
107.085500 2662.100000
108.080800 19927.100000
109.064800 18829.700000
109.088400 1404.500000
110.060000 3830.500000
110.096400 7435.000000
112.075300 1452.800000
118.065100 9863.700000
119.072900 1748.600000
120.080800 49680.600000
121.088700 3153.500000
122.096400 9010.900000
123.080400 8649.500000
133.064700 2568.800000
136.075800 1207.200000
138.091300 36514.700000
140.106700 1374.600000
146.096400 1292.100000
148.111400 980.000000
151.075400 2418.500000
156.101900 3630.700000
246.149600 1648.300000
306.170300 3661.300000

>ms2
65.038400 1495.800000
67.041600 1415.100000
67.054200 20483.900000
68.049400 7814.900000
77.038600 7677.000000
79.054200 12609.400000
80.049500 18762.800000
81.057300 6469.700000
81.069900 12471.600000
82.065200 12640.000000
86.060000 993.800000
91.054200 24846.100000
92.049600 3301.300000
93.057300 3961.700000
93.069800 15387.800000
94.065100 65328.800000
95.049300 1893.000000
95.072900 2676.500000
95.085500 6725.800000
96.080700 22253.300000
103.054300 9396.600000
105.057200 2691.000000
105.069900 12282.000000
106.065100 5584.600000
107.073000 6508.700000
107.085600 1467.600000
108.080800 18124.000000
109.064800 14897.200000
110.059800 2801.600000
110.096400 8242.100000
112.076200 1230.000000
118.065100 9020.900000
119.072900 2355.500000
120.080800 39613.900000
121.088700 2196.500000
122.096300 5717.900000
123.080400 4804.100000
133.064600 1923.000000
138.091300 23104.300000
151.075400 1878.400000
156.101500 3197.400000

>ms2
65.038600 2066.400000
67.041600 2127.700000
67.054200 21127.100000
68.049500 8963.600000
77.038700 8008.700000
79.054300 12860.700000
80.049500 20050.500000
81.057300 6598.000000
81.069900 10867.300000
82.065200 11405.900000
84.044300 2008.900000
91.054300 25145.300000
92.049300 3415.000000
93.057300 4478.900000
93.069900 14273.800000
94.065200 55713.400000
95.049300 1700.500000
95.073000 2739.200000
95.085500 5407.500000
96.080800 16349.800000
103.054200 8375.500000
105.057100 1644.200000
105.070000 9406.800000
106.065200 5183.300000
107.073100 4493.100000
108.080800 14594.300000
109.064900 13588.300000
110.060300 2228.400000
110.096400 6486.400000
112.075900 1297.000000
118.065200 8882.400000
119.073000 2391.200000
120.080800 31090.400000
122.096300 5027.500000
123.080700 3018.600000
138.091400 14233.300000
156.101700 1788.400000

>ms2
65.038600 3305.700000
67.041700 2091.900000
67.054200 19941.100000
68.049500 7258.900000
77.038600 9063.500000
79.054300 12601.300000
80.049500 18653.000000
81.057400 4809.300000
81.069900 10234.400000
82.065200 12829.200000
84.044300 1416.300000
91.054200 24328.100000
92.049500 4718.700000
93.057300 4360.200000
93.069900 10945.900000
94.065200 51569.700000
95.049100 2520.400000
95.072800 2164.800000
95.085500 5173.600000
96.080800 12652.000000
103.054200 8175.800000
105.057300 3662.500000
105.069900 9684.600000
106.065200 4740.100000
107.048900 1133.500000
107.072900 5064.400000
108.080800 13903.100000
109.064800 12257.000000
110.059900 1871.000000
110.096500 4638.000000
112.075700 2134.900000
118.065200 8664.100000
119.072900 2412.800000
120.080800 23995.500000
122.096700 2632.900000
123.080500 2271.900000
129.070500 1087.200000
138.091400 8607.300000
156.102500 1633.700000

>ms2
65.038500 1917.900000
67.041700 2957.700000
67.054200 19307.600000
68.049500 6757.200000
77.038600 9385.700000
78.034100 1188.900000
79.054300 13224.800000
80.049600 16964.200000
81.057400 5579.600000
81.069900 10887.600000
82.065200 11609.900000
91.054300 23241.900000
92.049400 3438.500000
93.057300 5892.800000
93.069900 7691.000000
94.065200 43416.400000
95.049100 2466.100000
95.073100 2249.000000
95.085500 3987.100000
96.080800 9088.900000
103.054300 6672.000000
105.057300 1958.100000
105.069900 6622.000000
106.065200 6276.800000
107.049200 1464.000000
107.073100 2565.000000
108.080800 10911.400000
109.064800 8043.600000
110.060000 1569.100000
110.096300 1915.200000
118.065200 8008.900000
119.072700 1740.600000
120.080900 18346.700000
122.096300 2409.100000
129.069500 1071.100000
138.091300 4746.000000

>ms2
65.038600 2951.200000
67.041600 2545.300000
67.054200 19816.200000
68.049400 6191.700000
77.038500 8635.300000
79.054300 11877.900000
80.049500 16981.000000
81.057300 5345.800000
81.069900 9348.300000
82.065100 10812.100000
91.054200 23507.800000
92.049600 2915.300000
93.057300 5195.800000
93.069900 5622.100000
94.065100 36300.900000
95.049200 1882.600000
95.072800 1887.100000
95.085400 3435.400000
96.080800 7323.800000
103.054300 6080.500000
105.057200 3577.100000
105.069800 5706.100000
106.065100 6416.400000
107.073100 2996.700000
108.080800 9437.600000
109.065000 5763.100000
110.096500 2372.000000
118.065200 6316.200000
119.073500 1752.700000
120.080800 15388.200000
138.091600 1968.300000

>ms2
65.038500 3137.100000
67.041600 2678.600000
67.054200 16447.900000
68.049400 6248.800000
77.038600 10677.200000
78.033900 1585.700000
79.054200 9976.100000
80.049500 17492.400000
81.057300 5210.400000
81.069900 7691.500000
82.065200 7353.900000
91.054200 21515.400000
92.049600 3254.900000
93.057400 6378.200000
93.069900 4249.700000
94.065100 30609.300000
95.049300 1707.000000
95.072800 1231.100000
95.085500 2134.200000
96.080500 3626.600000
103.054200 3731.200000
105.057100 2803.900000
105.069800 4041.300000
106.065200 6700.400000
107.073400 2234.200000
108.080800 7015.100000
109.064800 4579.400000
110.060300 1181.400000
110.096500 1622.100000
118.065000 5183.700000
119.072800 1236.500000
120.080800 11363.700000

