>compound NA62857887
>parentmass 209.12849999999992
>ionization [M+H]+
>formula C11H16N2O2
>rt 37.620000
>profile orbitrap
#smiles_iso CC[C@H]1[C@H](COC1=O)CC2=CN=CN2C
#smiles_can CCC1C(COC1=O)CC2=CN=CN2C
#inchikey QCHFTSOMWOSFHM-WPRPVWTQSA-N
#pubchem_id 5910
#mb_accession NA002709,NA002710,NA002711,NA002712,NA002713,NA003089,NA003090,NA003091,NA003092,NA003093,NA003454,NA003455,NA003456,NA003457,NA003458

>ms2peaks
95.060400 5037.100000
96.068200 1633.200000
163.123000 12920.100000
191.117500 1543.800000
209.128400 1450816.400000

>ms2peaks
95.060500 14046.100000
96.068300 5353.100000
121.076000 3782.000000
163.123100 34534.900000
181.133700 2308.200000
182.118100 1390.200000
191.117800 2702.600000
209.128600 1281031.400000

>ms2peaks
95.060400 28858.900000
96.068200 14462.500000
97.075700 1111.500000
109.076100 1880.100000
121.076100 8573.200000
122.083800 1799.600000
122.096300 1899.700000
135.091800 1882.300000
151.122700 2297.100000
163.123100 47234.300000
181.133600 3552.300000
182.117600 1310.500000
191.117600 4203.000000
209.128500 906750.700000

>ms2peaks
94.065000 1709.500000
95.060400 38543.300000
96.068300 25090.800000
97.075900 2676.500000
109.076100 2565.500000
121.076100 9322.200000
122.083900 3971.600000
122.096600 3935.500000
134.084300 1122.000000
135.092000 3455.100000
136.112300 2250.800000
151.122600 2808.900000
163.123100 54152.000000
181.133800 3183.700000
182.117400 1620.900000
191.118100 4184.600000
209.128500 589028.700000

>ms2peaks
94.065100 1895.000000
95.060400 46125.600000
96.068300 39830.400000
97.076000 2557.200000
109.076100 3431.300000
121.076100 13017.700000
122.083900 3407.800000
122.096400 4076.600000
134.084300 1461.000000
135.091600 3764.800000
136.112000 2192.200000
151.123000 4293.400000
163.123100 55398.700000
181.133800 3181.000000
182.117400 1319.500000
191.118000 3965.900000
209.128500 365409.000000

>ms2peaks
81.070000 1714.400000
83.060400 2474.500000
94.065200 9413.700000
95.060400 176780.000000
95.073000 10379.100000
96.068200 178708.900000
97.076000 10332.600000
97.100700 1183.100000
107.060400 1111.700000
107.073100 2038.100000
109.076100 18005.800000
121.076100 54142.500000
122.083900 17257.600000
122.096500 18960.900000
123.091700 5375.000000
132.080900 2382.700000
133.076000 5587.900000
134.084000 8436.700000
135.091700 16765.800000
136.112100 9371.900000
138.127900 1326.800000
139.086600 2243.200000
147.091900 4393.700000
148.099500 6985.600000
149.107600 2369.100000
151.123100 16140.500000
161.107600 3976.900000
162.079100 2248.700000
163.123100 164553.300000
165.138600 3649.200000
181.096900 1569.000000
181.133700 10046.400000
182.117700 5384.300000
191.117900 12496.300000
209.128500 768997.400000

>ms2peaks
80.049700 1830.200000
81.069800 2954.800000
83.060500 3304.700000
94.065100 13499.900000
95.060400 191100.500000
95.073000 10754.000000
96.068200 233556.400000
97.076100 10085.000000
105.070100 1391.300000
107.060500 1397.500000
107.073000 1991.000000
108.080700 1555.200000
109.076100 22320.200000
121.076000 55747.800000
122.083900 18445.000000
122.096400 18399.100000
123.091700 7185.400000
132.080700 3128.400000
133.076100 7336.500000
134.084000 9850.000000
135.091700 18500.700000
136.112100 9343.000000
138.127900 2119.700000
139.086800 4561.800000
147.091800 5011.700000
148.099600 5554.000000
149.107100 2041.300000
151.123000 16360.600000
161.107700 4022.800000
162.079400 1643.600000
163.123100 136667.900000
165.138700 3289.700000
181.133700 7693.100000
182.117700 4047.200000
191.118200 11449.800000
209.128500 502876.100000

>ms2peaks
68.049300 1014.200000
80.049300 2035.100000
81.069700 1173.500000
83.060400 3754.200000
94.065200 10768.000000
95.060400 166027.700000
95.073000 9500.100000
96.068200 220125.600000
97.076000 7056.100000
97.101000 1299.400000
107.073100 2549.700000
108.081000 1421.600000
109.076000 16559.000000
121.076000 41107.800000
122.083900 15228.800000
122.096400 13314.400000
123.091700 8874.500000
132.081000 1657.100000
133.076000 6144.300000
134.083800 6387.100000
135.091700 15880.500000
136.112200 5360.600000
138.127200 1350.900000
139.086800 3762.800000
147.091700 5302.800000
148.099800 6035.100000
149.107200 2857.500000
151.123000 10369.900000
161.107400 2255.200000
162.079300 1359.600000
163.123000 84630.500000
165.138700 2991.800000
181.097300 1185.200000
181.133600 3881.900000
182.117400 1433.100000
191.117900 5647.500000
209.128400 239112.900000

>ms2peaks
68.049500 1679.900000
80.049500 1565.400000
81.069900 1572.300000
83.060500 2457.200000
94.065200 6953.200000
95.060400 119926.200000
95.073000 6260.400000
96.068200 200070.500000
97.076000 5908.900000
105.069800 1448.200000
107.072800 2437.800000
109.076000 12249.500000
121.076000 28860.300000
122.083900 8666.800000
122.096400 8004.200000
123.091700 7849.200000
133.076000 3947.600000
134.083900 5002.500000
135.091800 12883.200000
136.112100 2889.800000
139.086400 2010.600000
147.091300 3546.600000
148.099600 3998.500000
149.107500 1650.100000
151.122900 8614.900000
161.107300 1349.400000
163.123000 41355.100000
181.133600 1597.700000
182.117200 1700.900000
191.118400 1999.100000
209.128400 104522.600000

>ms2peaks
81.070100 1568.500000
83.060400 2695.000000
94.065100 5029.000000
95.060400 89753.200000
95.072800 4871.900000
96.068300 168357.200000
97.076100 3654.300000
107.073000 1479.900000
108.080900 1016.400000
109.076000 10129.600000
121.076000 21726.400000
122.083800 6393.900000
122.096500 5528.800000
123.091700 6796.500000
133.075900 5307.700000
134.083800 3771.000000
135.091800 9131.900000
136.112000 1600.500000
139.086800 1185.200000
147.091600 3210.700000
148.099500 4180.500000
151.123000 4644.600000
163.123100 22673.300000
209.128500 46731.100000

>ms2peaks
67.054300 1170.700000
68.049500 5503.200000
80.049600 3541.700000
81.044800 4357.300000
81.057300 2747.700000
81.069900 2710.400000
83.060500 6996.400000
94.065200 13642.500000
95.060500 238877.600000
96.068300 409228.200000
97.076000 7464.200000
105.070000 2990.600000
107.060500 2297.800000
107.073000 4361.200000
108.080700 1744.900000
109.076100 21961.000000
121.076100 51660.300000
122.083900 12924.800000
122.096500 11233.500000
123.091800 18157.100000
133.076200 10941.100000
134.083900 8018.000000
135.091800 20836.900000
136.112400 4233.300000
139.086600 3839.200000
147.091800 8307.800000
148.099700 4730.200000
149.107700 3882.800000
151.123200 11403.600000
163.123100 37294.200000
209.128500 60779.400000

>ms2peaks
68.049500 8731.100000
80.049500 3763.600000
81.044700 5419.900000
81.057400 2982.200000
81.069900 1941.600000
83.060500 5665.200000
94.065200 12214.800000
95.060500 210340.500000
96.068300 365762.200000
97.076100 6314.600000
105.070100 1954.200000
107.060600 2631.900000
107.073000 4859.300000
108.080800 1872.100000
109.076100 15866.900000
121.076100 39514.000000
122.083900 9342.500000
122.096400 6862.800000
123.091800 17373.300000
133.076000 9725.100000
134.084000 6174.800000
135.091700 16334.800000
136.111900 2804.600000
139.086500 1558.000000
147.091900 7888.600000
148.099500 3869.000000
149.107400 2584.700000
151.123200 7257.500000
163.123200 22110.300000
209.128400 26748.500000

>ms2peaks
67.054200 1806.300000
68.049500 7546.700000
80.049500 3341.300000
81.044700 5994.200000
81.057500 1557.200000
81.069900 1576.300000
83.060400 4195.500000
94.065200 9006.000000
95.060500 169172.100000
96.068300 270756.200000
97.076000 3850.700000
105.069900 2472.500000
107.060100 1990.300000
107.073100 2496.000000
109.076200 11412.300000
121.076100 25300.500000
122.084000 4436.100000
122.096300 3096.400000
123.091700 10844.600000
133.076000 7025.800000
134.083900 5088.400000
135.091800 11439.100000
136.112300 1429.600000
139.086900 2006.600000
147.091800 5065.700000
148.099400 2418.600000
149.107500 1693.300000
151.123100 4472.300000
163.123000 9627.200000
209.128400 11113.400000

>ms2peaks
68.049500 8058.300000
80.049600 2661.000000
81.044700 5077.300000
81.057000 2205.400000
81.069700 1206.100000
83.060400 3322.200000
94.065100 5887.000000
95.060400 124629.100000
96.068200 183849.600000
97.076100 2627.900000
107.060600 1313.700000
107.072900 2386.500000
109.076000 7533.500000
121.076000 15789.800000
122.084000 1848.700000
122.096200 1816.300000
123.091600 9114.000000
133.076000 5569.900000
134.084000 1954.800000
135.091600 6370.400000
147.091500 2502.200000
151.122900 1487.000000
163.123000 3452.500000
209.128500 3886.200000

>ms2peaks
68.049500 7186.600000
80.049500 2403.200000
81.044700 6126.600000
81.057300 1608.900000
83.060400 3748.500000
94.065100 3810.300000
95.060400 101264.400000
96.068200 129073.500000
97.076100 1259.000000
109.076200 4069.800000
121.076100 10898.100000
122.084000 1781.700000
122.096600 1179.200000
123.091700 6621.500000
133.075900 3353.700000
135.091700 5212.400000
147.091700 2176.100000
151.122700 1052.200000
163.122600 2294.200000

