>compound NA62508217
>parentmass 191.11790000000005
>ionization [M+H]+
>formula C11H14N2O
>rt 29.620000
>profile orbitrap
#smiles_iso C1[C@H]2CNC[C@@H]1C3=CC=CC(=O)N3C2
#smiles_can C1C2CNCC1C3=CC=CC(=O)N3C2
#inchikey ANJTVLIZGCUXLD-DTWKUNHWSA-N
#pubchem_id 10235
#mb_accession NA002633,NA002634,NA002635,NA002636,NA002637,NA003016,NA003017,NA003018,NA003019,NA003020,NA003384,NA003385,NA003386,NA003387,NA003388

>ms2peaks
148.075700 22622.300000
191.117900 540574.200000

>ms2peaks
148.075700 37209.500000
191.117900 488097.900000

>ms2peaks
148.075700 52971.500000
191.117800 378959.200000

>ms2peaks
148.075600 66953.600000
162.091600 1829.100000
191.117800 280637.400000

>ms2peaks
148.075700 69934.400000
162.091700 2007.600000
191.117900 181496.000000

>ms2peaks
148.075700 67410.600000
162.091100 2097.100000
191.117900 130358.800000

>ms2peaks
82.064900 1364.300000
148.075700 79098.100000
162.091100 2782.800000
191.117900 92153.200000

>ms2peaks
70.065100 1251.300000
82.065100 1507.200000
134.060000 1720.400000
148.075700 77036.400000
162.091400 4044.500000
191.117900 64440.600000

>ms2peaks
70.065000 969.300000
82.065200 2041.600000
133.051900 1279.300000
134.059800 1763.200000
147.067700 1358.000000
148.075700 73353.200000
162.091500 4329.800000
191.117900 44803.400000

>ms2peaks
70.065200 1045.400000
82.065200 2007.100000
133.052500 2927.000000
134.060100 3953.400000
147.068100 1770.700000
148.075700 94820.000000
162.091400 7319.100000
191.117900 37496.600000

>ms2peaks
82.065300 4161.900000
120.080800 4175.800000
133.052100 5625.700000
134.060000 5272.800000
134.096000 1412.500000
146.060000 2502.300000
147.067600 1852.600000
148.075700 98523.100000
160.075500 1254.600000
162.091400 8965.500000
191.117800 28522.100000

>ms2peaks
80.049500 1564.700000
82.065200 4431.400000
106.065100 2309.900000
109.052000 1276.200000
118.065300 1097.800000
120.080700 3879.100000
133.052300 7099.500000
134.060000 7822.700000
146.060100 2865.600000
147.067900 4301.100000
148.075700 86477.700000
160.075600 1376.300000
162.091600 8470.900000
191.118000 16253.300000

>ms2peaks
80.049600 1898.900000
82.065100 4936.400000
103.054100 1160.800000
104.049500 1979.200000
106.065400 1565.000000
117.069800 2419.900000
120.080700 3884.600000
122.060400 1358.600000
133.052100 9117.400000
134.060100 8715.800000
144.080500 2050.800000
146.060000 3508.300000
147.068000 5462.300000
148.075700 72408.900000
160.076100 1794.700000
162.091300 8361.600000
191.117800 10347.800000

>ms2peaks
79.054400 1348.400000
80.049500 2394.700000
82.065200 2899.500000
91.054100 1742.900000
103.054000 1215.200000
104.049600 1662.000000
106.065200 2910.500000
109.052400 1446.900000
117.069800 2296.400000
120.080700 5129.900000
122.060000 1380.900000
130.065000 2168.800000
133.052300 9865.700000
134.060200 9533.800000
134.096200 1178.300000
146.059900 4886.600000
147.068200 3906.600000
148.075700 58569.900000
162.091300 6478.000000
191.117800 6182.000000

>ms2peaks
79.054100 1376.100000
80.049500 2578.300000
82.065200 3799.400000
91.054500 1277.800000
103.054300 2386.200000
104.049400 2254.200000
106.065200 3637.900000
117.069800 2419.100000
118.065000 1249.600000
120.080900 4354.100000
122.060300 1841.900000
130.065100 1866.900000
133.052200 11050.000000
134.060000 8822.600000
144.081000 1868.300000
146.060100 6110.800000
147.068000 5181.600000
148.075700 45504.600000
162.091200 4808.100000
191.117500 3776.700000

