>compound NA63562047
>parentmass 249.14850000000018
>ionization [M+H]+
>formula C15H20O3
>rt 556.458000
>profile orbitrap
#smiles_iso CC1=CC2=C(C(=C1CCO)C)C(=O)[C@](C2)(C)CO
#smiles_can CC1=CC2=C(C(=C1CCO)C)C(=O)C(C2)(C)CO
#inchikey BDZJLPDYMKPKGC-HNNXBMFYSA-N
#pubchem_id 135017
#mb_accession NA000902,NA000904,NA000906,NA001033,NA001035,NA001037,NA001157,NA001159,NA001161,NA001279,NA001281,NA001283,NA001409,NA001411,NA001413,NA001534,NA001536,NA001538,NA001669,NA001671,NA001673,NA001789,NA001791,NA001793,NA001911,NA001913,NA002024,NA002026,NA002140,NA002142

>ms2
231.137900 2107.800000
249.148500 56227.700000

>ms2
203.143000 6122.300000
231.138200 7231.600000
249.148700 34734.300000

>ms2
185.132300 6138.300000
203.143000 36161.200000
213.127500 1234.200000
231.138000 26482.000000
249.148500 22357.000000

>ms2
203.142300 2922.700000
231.137300 5731.400000
249.148300 76547.500000

>ms2
185.132500 4273.200000
201.127100 1229.100000
203.143000 40582.300000
213.127200 2191.200000
231.138000 46075.200000
249.148500 78108.900000

>ms2
185.132600 17464.100000
201.126600 1632.100000
203.143000 64650.700000
213.127400 5166.000000
231.138000 42764.500000
249.148700 15418.400000

>ms2
133.100700 2662.900000
143.085300 1552.800000
145.100700 891.300000
156.093200 1540.000000
157.100700 12567.000000
159.116400 1056.200000
163.111300 8432.900000
170.108500 14103.600000
173.131900 1838.300000
183.116500 746.700000
185.132000 157421.600000
198.103600 2056.100000
201.126800 10198.600000
203.142500 354505.600000
213.126700 35259.600000
231.137200 169956.600000
249.147700 33699.300000

>ms2
133.101000 3620.700000
142.077500 2591.700000
143.085200 5210.700000
145.100900 1592.100000
155.085400 2296.300000
156.093100 5368.300000
157.100900 28524.300000
159.116600 2829.200000
163.111500 5911.400000
170.108800 41599.700000
172.087700 1714.800000
173.131900 2865.800000
183.116600 1105.600000
185.132100 158757.400000
195.117000 1170.700000
198.103600 3830.400000
201.127500 4473.900000
203.142700 149376.900000
213.127100 19445.500000
231.137500 39917.500000
249.147900 2413.500000

>ms2
133.100600 3720.000000
142.077300 5292.100000
143.085100 6754.100000
145.100600 1561.800000
155.085200 2543.600000
156.092800 6503.000000
157.100700 23802.100000
159.116100 1726.300000
170.108600 39362.900000
172.088000 1116.200000
173.131700 1786.200000
185.132000 59012.600000
201.126600 1437.500000
203.142500 24684.400000
213.127200 5194.600000
231.137400 4633.500000

>ms2
129.069700 1148.300000
133.100800 3833.100000
142.077100 1436.300000
143.085300 4764.600000
145.100900 2069.700000
156.092900 3823.400000
157.100600 28759.400000
159.116200 3323.200000
163.111300 10727.100000
169.101700 1220.900000
170.108500 29441.200000
173.131600 3276.900000
183.116800 1432.500000
184.088000 2211.300000
185.131900 220809.900000
198.103100 3376.400000
201.127000 8510.100000
203.142400 304012.600000
213.126700 36874.700000
231.137100 109401.700000

>ms2
129.069400 1202.400000
133.100900 6000.500000
142.077400 5930.700000
143.085200 9249.000000
145.100500 2014.800000
155.085000 3486.200000
156.093100 10649.200000
157.100900 43661.800000
159.116500 3526.900000
163.111600 5429.600000
169.101200 1575.300000
170.108700 65316.600000
173.132100 3493.200000
183.116200 1947.400000
184.088200 1638.100000
185.132100 153534.000000
198.103500 3839.400000
201.126500 2530.800000
203.142700 97433.500000
213.126900 16383.600000
231.137500 19061.300000

>ms2
129.070000 1760.100000
142.077500 5779.600000
143.085000 6515.400000
145.100500 2211.200000
155.085100 5549.400000
156.093200 9368.900000
157.100700 19634.400000
170.108700 36897.900000
173.132200 1737.500000
185.132000 39247.500000
203.142700 11365.900000
213.126800 3313.100000
231.137500 1184.700000

>ms2
79.054100 3950.800000
105.069700 4642.300000
119.085200 6277.500000
128.061600 4385.500000
129.069500 7328.800000
131.085100 1678.500000
133.100900 14255.100000
141.069500 8111.100000
142.077400 37313.800000
143.085200 26758.500000
144.093000 6591.100000
145.100800 7525.700000
154.077300 1756.800000
155.085300 39425.300000
156.093100 35826.700000
157.100900 81563.500000
158.108700 2755.600000
159.116600 6027.900000
163.111700 1537.600000
168.093100 2064.500000
169.100800 6779.200000
170.108700 160765.700000
171.116400 1141.000000
172.088000 2087.400000
172.124300 3388.000000
173.132000 4300.800000
183.080400 3689.400000
183.116400 4750.400000
184.087900 3803.900000
185.095800 5468.000000
185.132000 97094.700000
198.103600 5893.500000
200.120100 1148.600000
201.127600 1837.600000
203.142500 23620.400000
213.127200 6371.500000
231.137300 1249.300000

>ms2
79.054100 8226.700000
91.054100 4036.300000
105.069700 10700.500000
115.054000 3245.400000
117.069400 1628.900000
119.085300 15326.100000
128.061800 14803.900000
129.069600 23038.100000
130.077400 3328.500000
131.085300 5186.100000
133.100900 22080.500000
141.069600 27936.500000
142.077400 92481.300000
143.085200 40732.700000
144.093200 13836.400000
145.100900 15995.000000
153.069900 4046.700000
154.077500 4901.100000
155.085300 132032.100000
156.093100 63600.700000
157.100900 100053.900000
158.109000 6064.600000
159.079700 2134.800000
159.116600 6373.200000
163.111800 2134.200000
165.069800 4043.400000
168.093100 4495.800000
169.064400 3726.400000
169.100900 14050.200000
170.108700 226098.800000
171.080200 1688.800000
171.117200 1296.900000
172.087600 3222.400000
172.124300 4694.300000
173.096300 1407.100000
173.131800 3108.400000
183.080100 7500.100000
183.116500 5745.700000
184.087700 3181.300000
185.095800 11029.000000
185.132100 61335.300000
198.103300 5441.500000
200.118700 1672.600000
201.127200 1261.300000
203.142600 7558.800000
213.127300 2462.400000

>ms2
79.054100 4011.300000
91.053900 5306.800000
105.069600 11398.600000
115.054100 3879.400000
117.069400 2128.900000
119.085300 11801.600000
128.061800 16611.200000
129.069600 22754.000000
130.077600 4208.300000
131.085200 5844.100000
133.100900 14140.100000
141.069600 40997.000000
142.077400 82869.200000
143.085200 29892.600000
144.093100 9035.400000
145.100900 9753.600000
153.069400 6183.000000
154.077200 3752.100000
155.085300 145170.400000
156.093100 35377.300000
157.100900 49685.800000
158.108300 3763.100000
159.080700 1810.500000
159.116500 2772.800000
165.069500 2471.200000
168.093200 3899.700000
169.064300 3379.900000
169.100900 16865.600000
170.108800 109660.200000
171.079700 1900.800000
171.116500 1352.300000
172.124100 1858.000000
173.096800 1469.000000
173.133300 1548.200000
183.080100 6359.300000
183.116300 3032.000000
185.095600 9317.900000
185.132300 13327.600000
198.104200 1573.900000

>ms2
79.054100 3950.800000
105.069700 4642.300000
119.085200 6277.500000
128.061600 4385.500000
129.069500 7328.800000
131.085100 1678.500000
133.100900 14255.100000
141.069500 8111.100000
142.077400 37313.800000
143.085200 26758.500000
144.093000 6591.100000
145.100800 7525.700000
154.077300 1756.800000
155.085300 39425.300000
156.093100 35826.700000
157.100900 81563.500000
158.108700 2755.600000
159.116600 6027.900000
163.111700 1537.600000
168.093100 2064.500000
169.100800 6779.200000
170.108700 160765.700000
171.116400 1141.000000
172.088000 2087.400000
172.124300 3388.000000
173.132000 4300.800000
183.080400 3689.400000
183.116400 4750.400000
184.087900 3803.900000
185.095800 5468.000000
185.132000 97094.700000
198.103600 5893.500000
200.120100 1148.600000
201.127600 1837.600000
203.142500 23620.400000
213.127200 6371.500000
231.137300 1249.300000

>ms2
79.054100 8226.700000
91.054100 4036.300000
105.069700 10700.500000
115.054000 3245.400000
117.069400 1628.900000
119.085300 15326.100000
128.061800 14803.900000
129.069600 23038.100000
130.077400 3328.500000
131.085300 5186.100000
133.100900 22080.500000
141.069600 27936.500000
142.077400 92481.300000
143.085200 40732.700000
144.093200 13836.400000
145.100900 15995.000000
153.069900 4046.700000
154.077500 4901.100000
155.085300 132032.100000
156.093100 63600.700000
157.100900 100053.900000
158.109000 6064.600000
159.079700 2134.800000
159.116600 6373.200000
163.111800 2134.200000
165.069800 4043.400000
168.093100 4495.800000
169.064400 3726.400000
169.100900 14050.200000
170.108700 226098.800000
171.080200 1688.800000
171.117200 1296.900000
172.087600 3222.400000
172.124300 4694.300000
173.096300 1407.100000
173.131800 3108.400000
183.080100 7500.100000
183.116500 5745.700000
184.087700 3181.300000
185.095800 11029.000000
185.132100 61335.300000
198.103300 5441.500000
200.118700 1672.600000
201.127200 1261.300000
203.142600 7558.800000
213.127300 2462.400000

>ms2
79.054100 4011.300000
91.053900 5306.800000
105.069600 11398.600000
115.054100 3879.400000
117.069400 2128.900000
119.085300 11801.600000
128.061800 16611.200000
129.069600 22754.000000
130.077600 4208.300000
131.085200 5844.100000
133.100900 14140.100000
141.069600 40997.000000
142.077400 82869.200000
143.085200 29892.600000
144.093100 9035.400000
145.100900 9753.600000
153.069400 6183.000000
154.077200 3752.100000
155.085300 145170.400000
156.093100 35377.300000
157.100900 49685.800000
158.108300 3763.100000
159.080700 1810.500000
159.116500 2772.800000
165.069500 2471.200000
168.093200 3899.700000
169.064300 3379.900000
169.100900 16865.600000
170.108800 109660.200000
171.079700 1900.800000
171.116500 1352.300000
172.124100 1858.000000
173.096800 1469.000000
173.133300 1548.200000
183.080100 6359.300000
183.116300 3032.000000
185.095600 9317.900000
185.132300 13327.600000
198.104200 1573.900000

>ms2
77.038600 2158.200000
79.054000 5577.200000
91.053900 3557.000000
105.069700 8347.300000
115.054200 1279.000000
119.085200 10683.500000
128.061800 11303.600000
129.069600 15026.300000
130.077400 1717.400000
131.085200 5468.500000
133.100900 22809.300000
141.069500 19146.200000
142.077400 73831.100000
143.085200 40333.600000
144.093000 11947.100000
145.100900 13538.100000
153.069500 2175.300000
154.077500 3336.800000
155.085200 85618.700000
156.093100 64698.400000
157.100900 110377.400000
158.108600 7146.300000
159.080000 1234.400000
159.116600 7507.400000
165.069200 1349.200000
168.093000 3884.200000
169.063900 3068.300000
169.100800 11091.800000
170.108700 238138.000000
171.116500 2019.900000
172.088000 3876.200000
172.124300 5148.400000
173.131900 4082.100000
183.080000 5251.100000
183.116500 6967.800000
184.087800 4180.500000
185.095600 10889.900000
185.132100 97821.600000
198.103700 7477.200000
200.119400 1706.500000
201.126600 1740.500000
203.142600 17594.300000
213.126600 5597.300000

>ms2
77.038600 2076.500000
79.054100 6526.500000
91.054000 6314.900000
105.069700 12618.900000
115.054000 3104.000000
117.069600 3916.800000
119.085300 13617.500000
128.061700 16056.300000
129.069600 22436.600000
130.077400 3425.500000
131.085000 5024.700000
133.100900 20101.300000
141.069600 36064.200000
142.077400 84841.100000
143.085200 35472.100000
144.093000 13542.100000
145.100900 11906.500000
153.069600 4959.500000
154.077200 4529.800000
155.085200 147696.300000
156.093000 51052.500000
157.100800 77716.100000
158.108500 5124.000000
159.080300 2017.300000
159.116600 5758.900000
165.069400 2943.100000
167.085600 1342.000000
168.093000 5479.500000
169.064800 1330.900000
169.100800 14366.900000
170.108600 168527.600000
171.080000 1974.700000
171.116600 2270.100000
172.087600 1239.300000
172.124300 3311.300000
173.132100 2324.100000
183.079900 6445.100000
183.116600 4851.800000
184.088100 3182.500000
185.095700 11288.500000
185.132100 29626.900000
198.103600 2928.300000
200.119200 1314.500000
203.142900 2749.200000
213.126300 1283.500000

>ms2
79.054100 2380.500000
91.054000 5134.400000
105.069700 7498.100000
115.053800 3360.900000
117.069600 1619.900000
119.085300 7474.500000
128.061700 14867.100000
129.069600 18711.400000
130.077400 2792.300000
131.085400 2898.500000
133.100600 7344.300000
141.069600 32517.700000
142.077400 51493.800000
143.085200 17347.200000
144.092900 5760.700000
145.100700 4534.800000
153.069600 5759.300000
154.077500 3835.000000
155.085200 113764.800000
156.093000 22282.800000
157.100800 29797.100000
158.109000 1264.600000
165.069800 2292.600000
167.085000 1105.500000
168.093600 2019.100000
169.100800 10945.100000
170.108700 57850.900000
171.080200 2069.600000
183.080200 4171.300000
184.088700 1380.200000
185.095800 6134.900000
185.132400 3863.800000

>ms2
77.038500 4214.100000
79.054000 5409.500000
91.054100 10775.400000
103.054300 1383.200000
105.069700 13810.000000
115.054000 8743.200000
116.062000 1609.400000
117.069600 4155.500000
119.085300 11606.100000
128.061800 28135.900000
129.069700 33307.600000
130.077600 5504.800000
131.085500 3868.200000
132.093800 2202.400000
133.101100 9788.100000
141.069700 65290.300000
142.077500 86868.100000
143.085300 27878.100000
144.093200 7365.300000
145.100900 7175.700000
152.061600 1397.700000
153.069700 15149.800000
154.077600 9149.000000
155.085300 198362.400000
156.093100 28642.600000
157.101000 38818.300000
165.069600 4329.300000
167.085100 2436.800000
168.093000 4235.600000
169.100900 20129.900000
170.108800 61536.700000
171.079900 3133.900000
183.080300 5691.500000
185.095800 7021.900000
185.132900 3122.600000

>ms2
77.038400 2969.200000
79.054200 2098.500000
91.054100 9280.200000
103.053900 1600.800000
105.069600 10390.900000
115.053900 9675.100000
116.062100 2282.200000
117.069700 3248.900000
119.085300 7362.200000
128.061900 22499.700000
129.069600 29656.800000
130.077400 4119.800000
131.085300 3030.200000
132.093000 1225.300000
133.101000 4136.400000
141.069600 55761.500000
142.077400 56152.500000
143.085300 16928.400000
144.093300 3733.800000
145.100800 1648.200000
152.061400 2412.500000
153.069600 14734.600000
154.077400 10219.000000
155.085300 130951.600000
156.093100 9301.300000
157.100900 15015.700000
165.069400 3581.200000
167.085700 1669.000000
168.093100 1762.200000
169.100900 13525.200000
170.108800 16873.000000
171.080000 1816.300000
183.080200 2690.100000
185.095800 3672.000000

>ms2
91.054100 3877.800000
105.069700 3565.800000
115.053900 8403.500000
117.069500 2018.600000
119.085500 1799.800000
128.061800 15796.300000
129.069600 14663.300000
141.069600 28729.300000
142.077400 19896.300000
143.085300 5891.900000
152.062100 1648.900000
153.069500 10231.900000
154.077500 4946.000000
155.085300 49679.400000
156.093000 3159.700000
157.100600 4700.500000
167.085800 1970.600000
169.100800 4762.400000
170.108900 2334.600000

>ms2
155.085300 7106.400000

>ms2
155.085300 1922.900000

>ms2
155.085300 7106.400000

>ms2
155.085300 1922.900000

>ms2
155.085300 7106.400000

>ms2
155.085300 1922.900000

