>compound NA63609427
>parentmass 255.0652
>ionization [M+H]+
>formula C15H10O4
>rt 589.770000
>profile orbitrap
#smiles_iso C1=CC=C(C=C1)C2=CC(=O)OC3=CC(=CC(=C23)O)O
#smiles_can C1=CC=C(C=C1)C2=CC(=O)OC3=CC(=CC(=C23)O)O
#inchikey HUQKUJNSVHEHIH-UHFFFAOYSA-N
#pubchem_id 5398649
#mb_accession NA002601,NA002602,NA002603,NA002604,NA002605,NA002989,NA002990,NA002991,NA002992,NA002993,NA003364,NA003365,NA003366,NA003367,NA003368,NA003734,NA003735,NA003736,NA003737,NA003738

>ms2peaks
255.065300 108898.800000

>ms2peaks
255.065100 186602.900000

>ms2peaks
255.065200 385269.800000

>ms2peaks
255.065100 322661.500000

>ms2peaks
255.065100 291925.000000

>ms2peaks
111.007800 1091.000000
153.018100 1770.700000
165.070300 1668.400000
171.044000 6730.200000
193.064700 2741.700000
199.075200 1802.700000
211.075200 6942.400000
255.065100 647246.800000

>ms2peaks
105.033400 4446.600000
141.070200 1486.700000
145.064600 2066.000000
149.023500 2237.300000
153.018200 7226.600000
155.085400 2778.800000
165.070000 8796.500000
169.064600 2123.100000
171.044000 15571.100000
183.080400 1440.100000
193.064700 6571.500000
199.075300 8622.400000
211.075200 15578.800000
255.065100 597871.200000

>ms2peaks
105.033500 6949.300000
111.007500 4002.000000
115.054200 947.700000
141.069800 4088.000000
145.064900 4029.000000
149.023300 4625.700000
153.018300 13938.200000
153.070200 2513.600000
155.085700 4396.700000
165.069800 19452.100000
169.065000 3478.600000
171.044100 26700.900000
181.064600 2772.500000
183.080700 2683.400000
193.064900 10299.200000
199.075400 17383.600000
211.075300 22099.500000
255.065200 423221.400000

>ms2peaks
68.997000 3257.500000
105.033500 11634.500000
111.007700 4468.100000
129.070000 1199.500000
131.085600 2532.700000
141.069900 6872.900000
145.064600 4027.700000
149.023200 5887.500000
152.061700 1368.800000
153.018200 19466.900000
153.069900 4837.600000
155.085500 6097.300000
165.069900 32825.100000
169.064900 4932.200000
171.044000 31334.100000
181.064700 6067.000000
183.080500 1287.700000
193.064700 11443.500000
199.075300 28041.600000
211.075300 23608.900000
227.070100 1355.700000
255.065100 284130.600000

>ms2peaks
68.997000 5921.700000
105.033400 13412.000000
111.007600 4215.800000
115.054000 2169.900000
129.069600 2285.500000
131.085500 2842.300000
141.069700 8387.700000
145.064700 3446.300000
149.023300 7681.700000
152.061600 1155.300000
153.018100 21873.700000
153.069700 8720.100000
155.085400 7573.700000
165.069800 36292.200000
169.064700 5717.300000
171.043900 33949.800000
181.064600 6892.100000
183.080200 2839.100000
193.064700 10017.500000
199.075200 31213.100000
211.075100 17272.300000
227.069900 1195.500000
255.065000 157455.000000

>ms2peaks
68.997000 14736.300000
91.054100 3407.100000
105.033500 31195.300000
111.007600 9701.000000
115.054200 7116.200000
121.028500 3523.800000
128.062200 6667.300000
129.069900 7461.500000
131.049100 2676.900000
131.085500 6266.900000
141.069800 20451.500000
143.049100 2514.600000
143.085500 5301.100000
145.064700 5835.600000
149.023300 18665.500000
152.062000 4453.600000
153.018200 48691.300000
153.069800 32718.100000
154.077700 3311.100000
155.085500 15777.700000
157.064800 3911.700000
165.069800 96504.200000
168.056800 3262.500000
169.064700 12484.900000
171.044000 71717.000000
171.080200 6890.000000
181.064700 23411.700000
182.072500 4342.200000
183.080400 3739.000000
184.051700 1829.800000
193.064700 18754.000000
194.071800 1967.700000
197.059900 1825.800000
199.075200 71069.600000
210.067200 3736.400000
211.075300 29556.800000
227.069200 1937.600000
255.065000 186297.300000

>ms2peaks
68.997100 18075.800000
77.038600 1861.200000
91.054300 6490.600000
103.054300 2397.200000
105.033500 35499.800000
111.007700 10134.000000
115.054300 13109.600000
121.028400 6818.900000
128.062200 8872.600000
129.069900 12473.400000
131.049000 2835.000000
131.085600 10497.900000
141.069900 22997.400000
143.048500 1352.400000
143.085700 6331.700000
145.064800 5852.400000
149.023400 23898.900000
152.062200 7597.300000
153.018300 51247.100000
153.069900 46053.900000
154.077700 5176.700000
155.085600 15143.100000
157.065100 5728.600000
164.062100 1253.400000
165.069900 101962.000000
166.077600 1262.200000
168.057400 4213.100000
169.064800 10888.300000
171.044100 72100.000000
171.080300 5811.300000
181.064900 32482.500000
182.072700 3630.900000
183.080100 3454.100000
184.051600 3474.800000
193.064800 12799.100000
194.073400 1919.700000
197.059500 4450.300000
199.075400 66842.200000
210.067300 4628.700000
211.075300 18934.400000
227.070700 2131.400000
255.065200 98470.900000

>ms2peaks
68.997100 18930.900000
77.038500 2058.100000
91.054200 9828.000000
103.054100 3431.400000
105.033500 29466.900000
111.007700 7150.900000
115.054200 15663.000000
121.028400 7796.300000
128.062100 11781.300000
129.069900 13379.500000
131.049000 2209.900000
131.085500 8760.600000
141.069900 21342.000000
143.049500 2426.400000
143.085700 5343.000000
145.064900 3449.300000
149.023400 19273.800000
152.062100 11367.000000
153.018300 45230.100000
153.069900 48169.800000
154.077800 3476.400000
155.085500 11386.600000
157.064900 4716.000000
164.061800 2374.700000
165.069900 99706.800000
166.077700 1010.900000
168.056900 3676.500000
169.064800 9343.200000
171.044100 50949.400000
171.080600 5317.100000
181.064800 28089.400000
182.072600 4791.400000
183.080300 2753.300000
184.052000 3310.800000
193.064800 7518.500000
194.073500 2035.100000
197.059600 5215.600000
199.075300 44417.700000
210.067300 4368.900000
211.075200 10088.400000
227.070000 1524.100000
255.065200 42221.400000

>ms2peaks
68.997100 18354.300000
77.038600 3109.100000
91.054300 11721.800000
103.054200 4019.100000
105.033500 25618.300000
111.007600 4128.100000
115.054200 15182.900000
121.028500 8787.200000
128.062100 14437.600000
129.069900 12512.300000
131.049100 4133.100000
131.085500 6985.600000
139.053900 1151.500000
141.069900 16505.200000
143.049000 2746.400000
143.085500 3970.200000
145.064600 1931.900000
149.023400 12505.100000
152.062100 16571.200000
153.018200 29695.900000
153.069900 43444.900000
154.077800 3492.400000
155.085500 6093.700000
157.064600 3254.300000
164.061700 2402.600000
165.069900 72290.200000
166.077800 1510.000000
168.057100 3573.700000
169.064600 4330.700000
171.044100 38864.800000
171.080600 4946.800000
181.064800 27461.200000
182.072300 2042.500000
184.052000 2848.900000
193.064900 3272.900000
194.072600 1573.100000
197.059600 4702.500000
199.075300 29054.000000
210.067700 1926.800000
211.075300 3885.300000
255.065100 15568.200000

>ms2peaks
68.997100 15599.200000
77.038600 3114.500000
91.054200 11492.700000
103.054200 4759.800000
105.033500 17401.200000
111.007500 4378.800000
115.054200 16261.900000
121.028400 7605.300000
128.062100 15690.600000
129.069900 11490.800000
131.049400 1695.100000
131.085500 4197.500000
139.053800 1268.000000
141.069900 15635.600000
143.049100 1779.100000
143.085700 2068.900000
149.023300 9180.500000
152.062100 19869.500000
153.018300 21953.300000
153.069900 40777.500000
154.077600 1905.200000
155.085700 5027.700000
157.064700 1990.900000
164.062200 4228.600000
165.069900 52975.800000
166.078000 1290.800000
168.057400 1613.100000
169.065100 3328.700000
171.044100 29112.200000
171.080700 3022.300000
181.064800 19379.200000
182.072800 2474.100000
184.051900 4503.300000
193.064900 2801.900000
197.059800 4563.200000
199.075300 14622.000000
210.066700 2484.100000
255.064900 4426.700000

>ms2peaks
68.997100 19263.200000
77.038600 6053.000000
91.054200 17924.400000
103.054200 5812.100000
105.033500 17731.700000
111.007600 3210.600000
115.054200 21712.900000
121.028500 10407.900000
127.054100 1163.900000
128.062000 18457.900000
129.033700 1380.800000
129.069900 11915.500000
131.049400 3038.600000
131.085500 3427.800000
139.054300 2292.100000
141.069900 13874.600000
143.049400 1272.800000
143.085400 2006.400000
149.023300 8363.300000
151.054500 1255.400000
152.062100 31933.200000
153.018200 21443.300000
153.069900 41890.800000
154.077800 4150.300000
155.085700 3431.000000
157.064800 2451.600000
164.062100 6101.900000
165.069900 56074.000000
168.056800 2782.000000
169.065100 2899.800000
171.044100 21090.100000
171.080700 2159.700000
181.064800 19255.000000
182.072400 3028.000000
184.052200 4394.400000
197.059600 6513.500000
199.075300 8881.800000
210.067000 1845.900000

>ms2peaks
65.038600 1326.100000
68.997100 15507.600000
77.038600 5293.300000
91.054200 14494.000000
103.054300 5529.800000
105.033500 13087.800000
111.007500 2122.300000
115.054200 23037.400000
121.028500 9599.700000
128.062100 17036.300000
129.069900 9880.600000
131.049100 1529.100000
131.085600 1463.100000
139.053900 1823.000000
141.070000 9061.400000
143.049400 1738.700000
143.085700 1213.100000
149.023400 4402.100000
151.054300 2545.700000
152.062100 30422.700000
153.018300 13371.400000
153.069900 32357.900000
154.077700 2572.200000
155.086000 1222.400000
157.065000 1521.400000
164.062300 6319.200000
165.069900 37245.300000
168.057400 1422.700000
169.065400 2391.200000
171.044100 11848.100000
171.080200 2074.100000
181.064800 13694.100000
182.072500 2371.800000
184.052000 4739.200000
197.060000 5760.400000
199.075500 3982.000000
210.067800 2079.200000

>ms2peaks
65.038500 1750.300000
68.997100 11631.500000
77.038700 6476.000000
91.054300 13715.200000
103.054300 6574.700000
105.033500 10045.600000
115.054300 20742.300000
121.028400 6824.700000
128.062100 17449.100000
129.033300 1255.200000
129.069900 6498.000000
131.085500 1106.000000
139.054300 3936.400000
141.069900 8562.900000
143.049200 1213.100000
149.023200 2996.600000
151.054500 2032.800000
152.062100 35346.400000
153.018300 9683.400000
153.069900 22632.900000
154.078300 1344.900000
157.065100 1183.700000
164.062200 7305.400000
165.070000 26136.200000
169.065000 1742.600000
171.044100 9366.400000
181.064900 10871.000000
182.072800 1520.700000
184.052100 2617.800000
197.059500 3051.200000
199.074900 1864.900000

>ms2peaks
65.038500 2657.000000
68.997100 11175.500000
77.038600 6447.300000
91.054200 15129.700000
103.054300 5226.800000
105.033500 5969.100000
115.054200 21799.000000
121.028500 6920.300000
127.054000 1491.200000
128.062100 17752.500000
129.070000 4789.400000
131.049400 1673.500000
139.054400 3214.400000
141.070000 5518.400000
151.054200 2380.900000
152.062100 38714.800000
153.018100 6525.100000
153.069900 18515.700000
163.054500 1268.500000
164.062100 6944.100000
165.069900 21524.400000
171.044200 3780.700000
181.064900 8848.100000
184.051800 2106.100000
197.059700 4323.900000

>ms2peaks
65.038500 2418.800000
68.997100 13962.200000
77.038600 5035.900000
91.054300 15300.200000
103.054300 4911.400000
105.033400 3203.500000
115.054200 24448.800000
121.028500 5751.300000
127.054000 1789.500000
128.062100 18636.800000
129.033600 1715.700000
129.070000 4299.900000
131.048700 1514.700000
139.054000 4627.300000
141.069800 4530.100000
151.054000 3305.300000
152.062100 40523.500000
153.018200 5374.200000
153.069900 16064.400000
163.054800 1749.000000
164.062300 8253.800000
165.069900 17509.300000
169.065300 1593.500000
171.044000 2716.800000
181.064700 7523.200000
184.051600 2290.700000
197.060100 3443.600000

