>compound NA65675029
>parentmass 136.06179999999998
>ionization [M+H]+
>formula C5H5N5
>rt 42.495000
>profile orbitrap
#smiles_iso C1=NC2=NC=NC(=C2N1)N
#smiles_can C1=NC2=NC=NC(=C2N1)N
#inchikey GFFGJBXGBJISGV-UHFFFAOYSA-N
#pubchem_id 190
#mb_accession NA002623,NA002624,NA002625,NA002626,NA002627,NA003006,NA003007,NA003008,NA003009,NA003010,NA003374,NA003375,NA003376,NA003377,NA003378,NA003747,NA003748,NA003749,NA003750,NA003751

>ms2
136.061700 123243.500000

>ms2
136.061700 86804.900000

>ms2
136.061700 66458.200000

>ms2
136.061800 58851.400000

>ms2
136.061700 237041.700000

>ms2
119.034900 1445.700000
136.061800 1043785.800000

>ms2
119.035100 4014.100000
136.061800 953783.700000

>ms2
119.035200 4670.200000
136.061800 668594.400000

>ms2
94.040200 2069.200000
119.035300 6866.500000
136.061800 425765.800000

>ms2
94.040100 1553.600000
119.035200 11578.300000
136.061700 313503.800000

>ms2
94.040000 14949.400000
109.050900 2799.900000
119.035200 71678.000000
136.061800 953402.900000

>ms2
94.040000 16669.700000
109.050700 3584.300000
119.035200 81016.500000
136.061800 672539.600000

>ms2
94.040000 13155.700000
109.050900 3543.500000
119.035200 76694.800000
136.061800 381834.600000

>ms2
92.024200 1665.800000
94.040000 10496.100000
109.050700 2993.500000
119.035100 71221.100000
136.061700 234895.200000

>ms2
92.024600 1175.300000
94.040000 10164.200000
109.050900 3090.300000
119.035200 78795.400000
136.061700 155576.600000

>ms2
67.029000 4682.000000
82.039900 2088.200000
92.024300 13667.300000
94.040000 47538.300000
109.050900 19851.700000
119.035200 338296.500000
136.061800 473781.600000

>ms2
67.029000 5732.100000
82.040000 1370.400000
92.024300 15632.000000
94.040000 31434.200000
109.050800 15915.400000
119.035200 262209.000000
136.061700 253482.600000

>ms2
67.029000 4135.500000
82.039800 1491.800000
92.024200 14420.800000
94.040000 20107.400000
109.050900 10085.000000
119.035200 179124.800000
136.061700 128421.700000

>ms2
67.029100 3566.000000
82.040100 1649.800000
92.024300 15409.700000
94.039900 15054.800000
109.050800 8202.600000
119.035200 145820.600000
136.061800 67168.900000

>ms2
67.029100 2497.500000
82.040000 1692.000000
92.024300 18757.900000
94.040000 10543.700000
109.050800 6545.600000
119.035200 115853.300000
136.061800 41075.700000

