>compound NA65414537
>parentmass 130.03209999999996
>ionization [M+H]+
>formula C5H7NOS
>rt 72.285000
>profile orbitrap
#smiles_iso C=CC1CNC(=S)O1
#smiles_can C=CC1CNC(=S)O1
#inchikey UZQVYLOFLQICCT-UHFFFAOYSA-N
#pubchem_id 3034683
#mb_accession NA002576,NA002577,NA002578,NA002579,NA002580,NA002964,NA002965,NA002966,NA002967,NA002968,NA003339,NA003340,NA003341,NA003342,NA003343,NA003709,NA003710,NA003711,NA003712,NA003713

>ms2
70.064900 4878.200000
130.032000 12082.200000

>ms2
70.064800 4622.000000
130.032000 8767.600000

>ms2
70.064900 6194.800000
130.032100 6490.700000

>ms2
70.064800 5440.200000
130.032000 5376.800000

>ms2
70.064800 6772.400000
130.032000 4800.600000

>ms2
68.049300 1493.500000
70.065000 65394.300000
87.026300 1409.900000
96.044400 5038.600000
130.032100 24473.800000

>ms2
68.049400 1459.900000
70.065100 83042.600000
87.026400 1283.100000
96.044400 4023.800000
130.032100 16503.900000

>ms2
70.065000 71413.200000
87.026100 1544.300000
96.044400 3179.100000
130.032000 7867.900000

>ms2
70.065000 56159.600000
96.044200 3465.400000
130.032000 4813.200000

>ms2
70.065000 47652.300000
87.026000 1245.900000
96.044200 2204.800000
130.032100 2982.600000

>ms2
70.065100 54096.000000
96.044500 2494.200000

>ms2
70.065100 40142.400000
96.044000 1793.900000

>ms2
70.065000 29350.200000

>ms2
70.065100 19141.400000

>ms2
70.065100 14889.200000

>ms2
70.065100 16992.600000

>ms2
70.065100 11734.900000

>ms2
70.065100 8482.100000

>ms2
70.065100 5216.100000

>ms2
70.065100 4342.200000

