>compound NA66528333
>parentmass 247.18050000000002
>ionization [M+H]+
>formula C15H22N2O
>rt 50.355000
>profile orbitrap
#smiles_iso C1C[C@H]2CN3[C@H](CC=CC3=O)[C@@H]4[C@H]2N(C1)CCC4
#smiles_can C1CC2CN3C(CC=CC3=O)C4C2N(C1)CCC4
#inchikey AAGFPTSOPGCENQ-JLNYLFASSA-N
#pubchem_id 115269
#mb_accession NA002409,NA002410,NA002411,NA002412,NA002413,NA002804,NA002805,NA002806,NA002807,NA002808,NA003184,NA003185,NA003186,NA003187,NA003188,NA003549,NA003550,NA003551,NA003552,NA003553

>ms2peaks
247.180500 155890.800000

>ms2peaks
247.180500 219374.600000

>ms2peaks
245.165200 1612.600000
247.180500 868445.900000

>ms2peaks
245.165400 4116.900000
247.180600 829415.200000

>ms2peaks
245.164800 1979.100000
247.180500 681337.100000

>ms2peaks
179.154400 1320.900000
245.164900 6022.600000
247.180300 861552.600000

>ms2peaks
148.111700 1468.500000
150.127600 1686.000000
179.154000 7215.200000
245.165100 9503.000000
247.180400 955153.900000

>ms2peaks
136.112100 3815.200000
138.127600 1246.000000
150.127800 6051.900000
179.154300 25992.500000
229.169500 2618.000000
245.165100 20257.200000
247.180300 1022627.400000

>ms2peaks
96.081100 1523.600000
136.112000 13006.900000
138.127400 3130.400000
148.112200 4104.200000
150.127600 10496.300000
152.143500 1876.600000
179.154200 54591.200000
229.169900 1951.400000
245.165000 36916.200000
247.180300 918596.000000

>ms2peaks
96.080800 6221.700000
136.112100 28903.500000
138.127800 5426.400000
148.112000 7002.500000
150.127700 16100.300000
152.143100 2047.300000
179.154300 92544.000000
229.169900 3205.800000
245.165000 53754.700000
247.180400 727306.800000

>ms2peaks
81.033500 1585.900000
96.080800 12209.900000
98.096500 3141.100000
110.060200 2297.200000
110.096000 1240.400000
112.076100 1380.400000
136.112200 58636.200000
138.127700 8059.900000
148.076000 1703.100000
148.112100 9272.500000
150.091100 1483.200000
150.127900 26789.000000
152.143600 3677.500000
162.091300 1420.400000
164.107200 2666.200000
176.107000 2524.300000
179.154400 129414.400000
218.154700 1260.800000
227.154900 1459.600000
228.138000 1240.800000
229.170300 4905.200000
230.153800 2507.500000
245.165100 75576.500000
247.180500 595156.100000

>ms2peaks
82.065300 1035.600000
84.080700 2254.900000
96.044400 1950.000000
96.080800 27226.100000
98.096400 5558.200000
108.080700 4426.900000
110.060100 5553.000000
110.096500 2408.400000
112.075700 2705.100000
112.111900 1662.000000
122.096500 2595.000000
134.096400 1374.600000
136.112100 110646.600000
138.091300 1343.300000
138.127700 10073.700000
148.075700 2562.400000
148.112200 11250.000000
149.119600 3183.500000
150.091500 3509.800000
150.127800 42362.600000
152.143400 5902.000000
162.091300 2021.900000
164.106900 3044.500000
174.091600 1417.400000
176.107000 3783.500000
179.154300 177958.000000
216.138100 1916.100000
218.153500 1933.200000
227.153400 2061.300000
228.137800 1742.800000
229.170000 8059.900000
230.153900 2541.500000
245.165000 98424.300000
247.180500 505799.700000

>ms2peaks
70.065200 1488.900000
81.033500 2784.600000
82.065200 2419.100000
84.080800 3167.000000
96.044500 3372.900000
96.080800 62441.400000
98.096400 8473.600000
108.080800 7278.900000
110.060100 7159.100000
110.096400 2400.100000
112.075700 3073.700000
112.112000 2664.500000
122.059900 2589.100000
122.096400 4991.100000
124.112100 1188.200000
134.059700 1100.600000
134.096400 1342.000000
136.112100 163563.200000
137.120000 1090.700000
138.092000 1433.400000
138.127800 15729.700000
146.060200 1859.500000
148.076000 4192.800000
148.112100 15870.100000
149.083700 1558.900000
149.120000 3774.400000
150.091300 5294.900000
150.127800 51084.100000
152.143400 7929.500000
160.075700 1670.000000
162.091500 3989.700000
162.128000 2409.200000
164.107100 4370.400000
174.091600 2409.300000
174.128600 2426.200000
176.107100 4415.100000
179.154400 211048.300000
188.107400 3145.600000
202.123500 2170.800000
216.138200 1648.600000
218.153600 2660.100000
227.154800 3102.300000
228.138600 3375.500000
229.170200 5290.700000
230.154400 3958.600000
245.165000 122062.500000
247.180500 391300.000000

>ms2peaks
70.065100 2159.800000
81.033600 2214.400000
82.065200 3722.000000
84.080900 3468.000000
96.080800 99312.500000
98.096500 12600.800000
108.080800 13298.800000
110.060100 8777.500000
110.096500 4585.000000
112.075900 2346.200000
112.111900 2155.100000
122.060200 5267.300000
122.096500 7723.600000
124.112100 2354.800000
134.060400 1591.600000
134.096600 3541.800000
136.112100 187225.600000
137.120400 1485.400000
138.091400 1295.200000
138.127800 15451.700000
146.060400 1889.600000
148.075800 4580.300000
148.112200 15198.400000
149.083900 2069.700000
149.119900 3697.400000
150.091400 5478.800000
150.127800 56985.200000
152.143500 7316.000000
160.076100 2000.700000
162.091600 5319.000000
162.128000 2683.700000
164.107000 4303.700000
174.091400 3214.800000
174.128600 1514.100000
176.107000 3779.500000
179.154400 203977.000000
186.091600 1500.800000
188.106500 3236.600000
191.118800 1794.200000
202.122800 3001.000000
216.137700 2769.600000
218.154500 1732.500000
227.154400 4503.100000
228.138400 4678.100000
229.169900 6425.400000
230.153900 3769.700000
245.165000 112968.700000
247.180500 259793.800000

>ms2peaks
70.065200 3007.900000
82.065100 3461.700000
84.080800 4258.800000
96.080800 119760.900000
98.096400 13377.300000
108.080800 15594.700000
110.060000 8672.400000
110.096500 4586.800000
112.075400 1371.300000
112.112000 1745.400000
122.059900 4379.100000
122.096200 5651.100000
124.112200 1636.900000
134.059700 1743.400000
134.096500 3918.800000
136.112100 184502.800000
138.127800 12592.700000
146.059800 2635.400000
148.075500 7221.800000
148.112100 11975.200000
149.083400 2087.600000
149.120000 3743.900000
150.091600 4428.600000
150.127700 45757.700000
152.143400 6811.900000
160.075900 3176.400000
162.091400 3897.900000
162.127900 2877.900000
164.106800 2075.500000
174.090800 2767.600000
174.127600 1392.400000
176.107100 3575.200000
179.154300 158276.200000
186.091200 1156.300000
188.106700 1994.000000
191.117300 2752.000000
202.122800 2195.800000
216.137700 1631.400000
227.154100 4364.500000
228.138200 3470.800000
229.169900 3917.300000
230.154700 2671.600000
245.164900 77230.200000
247.180400 138034.200000

>ms2peaks
68.049300 1579.800000
70.065100 4760.800000
79.054400 2198.400000
80.049400 1928.500000
81.033400 1942.500000
82.065200 3249.500000
84.080900 4854.500000
91.054100 2264.300000
93.069800 1771.000000
94.065100 2263.400000
96.080800 155783.500000
98.096400 16275.800000
100.111900 1428.700000
105.070100 1070.600000
108.044200 1663.500000
108.080800 24711.100000
109.052200 1290.800000
110.060000 9006.600000
110.096400 6960.000000
112.112000 1868.000000
119.085400 1379.300000
120.080800 3146.300000
122.060200 6417.700000
122.096400 7826.300000
124.112400 2432.400000
134.060100 3703.900000
134.096700 2522.600000
136.112100 179028.700000
138.127800 13548.700000
146.060000 4283.600000
147.067800 1487.600000
148.075700 7379.500000
148.112100 12878.200000
149.120000 3143.600000
150.091200 5036.900000
150.127800 49317.700000
152.143500 6763.900000
160.075900 4119.500000
162.091400 6335.900000
162.127700 3914.000000
164.107200 3114.300000
174.091500 3015.800000
176.107200 3258.400000
179.154300 125908.100000
186.091600 1366.500000
187.099000 1128.200000
188.107500 2178.800000
191.118000 2968.400000
202.123000 2578.600000
227.154500 2853.200000
228.138200 2580.400000
229.169700 2772.800000
230.153500 1689.100000
245.164800 63329.900000
247.180400 80769.000000

>ms2peaks
67.054000 1550.200000
68.049400 3093.700000
70.065100 4889.400000
79.054200 4151.700000
80.049500 2092.600000
81.033400 2150.300000
81.057400 1964.800000
82.065200 3031.000000
84.080800 5410.600000
91.054300 1601.000000
93.070000 1713.900000
94.065000 2506.600000
96.080800 186758.700000
98.096400 20246.600000
100.111900 1680.300000
108.080800 25013.400000
109.052300 1533.600000
110.060000 7655.300000
110.096400 7093.600000
112.112000 2324.700000
119.085800 2174.900000
120.080700 2520.000000
122.060000 6810.900000
122.096400 12701.400000
124.112200 3184.200000
134.060000 3807.700000
134.096400 4261.700000
136.112100 165547.700000
138.127600 12471.800000
146.060100 4962.900000
148.075700 7806.100000
148.112000 11219.100000
149.120000 2732.000000
150.091200 3907.100000
150.127700 46619.900000
152.143300 5421.800000
160.075900 3979.000000
162.091400 4868.700000
162.127900 3179.600000
164.107100 3499.000000
174.091100 3069.300000
176.107200 1964.800000
179.154300 90856.800000
186.090900 1636.300000
188.107300 2126.700000
191.117700 2790.100000
202.122700 1673.700000
228.138100 1673.800000
229.169900 1662.300000
230.154900 993.400000
245.164700 43192.600000
247.180300 39345.200000

>ms2peaks
67.054300 2843.400000
68.049400 5621.200000
69.070000 1674.400000
70.065100 5683.900000
79.054300 4201.500000
80.049500 1617.800000
81.033400 1146.700000
81.057200 2026.900000
81.069800 1794.500000
82.065200 2992.200000
84.080700 4639.700000
91.054300 2666.500000
93.069800 1989.300000
94.065100 4321.800000
96.080800 193142.200000
98.096400 21416.400000
105.069800 1956.800000
106.065100 1846.500000
108.080800 28756.600000
109.052600 1806.000000
110.060100 6853.900000
110.096400 6814.200000
112.112100 1805.100000
119.085400 1405.400000
120.080900 3231.600000
122.060000 7439.500000
122.096400 10588.700000
124.112000 3727.100000
134.059900 3896.200000
134.096600 4522.600000
136.112100 133475.500000
138.127700 10730.800000
146.060200 3517.400000
146.096300 1371.800000
147.068300 2085.400000
148.075600 7972.200000
148.112100 10923.900000
149.119600 2455.400000
150.091500 3747.800000
150.127800 37751.600000
152.143300 4253.000000
160.075600 3327.000000
162.091500 4593.200000
162.128000 3470.400000
164.106900 2131.200000
174.091500 2765.400000
179.154300 60060.600000
186.091400 1441.100000
187.099400 1153.600000
188.106900 2133.500000
191.117500 2335.100000
202.122300 1066.100000
227.154600 1425.300000
228.138400 1223.800000
245.164900 28008.300000
247.180500 18195.200000

>ms2peaks
67.054200 3387.600000
68.049500 7187.400000
70.065100 5926.800000
79.054200 4657.700000
80.049400 1710.000000
81.057400 3409.400000
81.070000 1728.600000
82.065200 1832.500000
84.080900 4108.100000
91.054200 3636.600000
93.069800 1482.100000
94.065100 5640.600000
96.080800 182067.200000
98.096400 20913.200000
108.080800 26039.400000
109.052200 1881.300000
110.060100 4078.100000
110.096400 7665.100000
119.085600 1425.900000
120.080600 2906.500000
122.060000 5502.200000
122.096500 10587.800000
124.112000 2670.900000
134.060100 3028.000000
134.096500 3914.500000
136.112100 96772.100000
138.127800 7067.200000
146.059800 4989.500000
146.096600 1917.600000
147.067700 1714.800000
148.075700 6444.700000
148.112000 8369.100000
150.091600 1908.100000
150.127800 27630.700000
152.143500 3134.400000
160.075600 3939.900000
162.091300 3125.700000
162.128100 2311.600000
174.091000 1851.800000
179.154300 31668.700000
228.137700 1714.400000
245.164800 13558.500000
247.180400 7588.500000

>ms2peaks
67.054200 3216.900000
68.049500 8786.200000
69.069800 1869.200000
70.065100 6314.600000
79.054200 4477.700000
80.049600 2283.500000
81.033200 1287.100000
81.057300 3751.100000
81.069800 1572.900000
82.065100 2310.900000
84.080800 3318.600000
91.054300 3158.600000
93.069900 1305.300000
94.065100 6015.300000
96.080800 151537.200000
98.096400 19227.200000
106.065400 2347.200000
108.044500 1231.700000
108.080800 22635.300000
109.052300 1646.000000
110.060100 3700.600000
110.096400 6479.100000
120.081100 3348.000000
122.060200 5255.600000
122.096400 9749.700000
134.060100 3397.100000
134.096500 4762.400000
136.112100 70562.000000
138.127900 7422.700000
146.060300 4649.000000
146.096300 1364.400000
147.067800 1755.200000
148.075700 5804.400000
148.112200 5444.800000
150.127800 22064.900000
152.143500 2447.000000
160.075700 3135.600000
162.091100 2043.300000
162.127300 1269.900000
179.154400 18415.900000
186.091500 1409.900000
191.117400 1710.500000
245.164400 6595.400000
247.180500 2831.500000

