>compound NA66730992
>parentmass 223.0601
>ionization [M+H]+
>formula C11H10O5
>rt 456.330000
>profile orbitrap
#smiles_iso COC1=C(C(=C2C(=C1)C=CC(=O)O2)O)OC
#smiles_can COC1=C(C(=C2C(=C1)C=CC(=O)O2)O)OC
#inchikey QNFBKOHHLAWWTC-UHFFFAOYSA-N
#pubchem_id 3083616
#mb_accession NA002596,NA002597,NA002598,NA002599,NA002600,NA002984,NA002985,NA002986,NA002987,NA002988,NA003359,NA003360,NA003361,NA003362,NA003363,NA003729,NA003730,NA003731,NA003732,NA003733

>ms2
223.059900 315533.600000

>ms2
223.059900 361852.200000

>ms2
208.036600 2303.500000
223.060100 1111275.500000

>ms2
190.026600 2057.800000
195.065200 1859.200000
208.036500 13785.700000
223.060000 986555.500000

>ms2
190.026100 8872.200000
195.065400 4450.500000
208.036700 35545.600000
223.060100 815623.400000

>ms2
135.044100 5200.900000
162.031200 4871.400000
163.039000 34614.000000
179.033900 5092.500000
190.026100 54928.100000
191.034200 1584.100000
195.065100 16463.200000
207.028400 5970.000000
208.036600 151669.200000
223.060100 1147247.200000

>ms2
107.049000 1222.800000
134.036000 1323.000000
135.044100 10587.900000
162.031200 13738.000000
163.039000 59779.100000
167.070300 1977.700000
178.026100 1540.400000
179.034000 12195.700000
179.070600 2169.600000
190.026100 112072.300000
191.034100 2980.500000
195.065200 15608.800000
207.028800 19152.700000
208.036700 214506.000000
223.060100 808651.800000

>ms2
107.049000 2964.100000
134.035900 2242.200000
135.044100 17878.900000
162.031200 33406.200000
163.039000 63958.400000
167.069800 2752.400000
178.026000 4117.500000
179.033900 21430.500000
180.041000 2085.400000
190.026000 170044.400000
191.034000 3853.700000
193.014000 1135.500000
195.065100 14839.000000
207.028700 33525.100000
208.036600 221396.000000
223.060000 488408.900000

>ms2
107.049200 2410.100000
134.036300 5108.000000
135.044100 27940.200000
152.046600 1158.300000
162.031200 68045.500000
163.039000 63056.900000
167.070300 4870.200000
178.026100 8940.000000
179.033900 33499.200000
180.041800 3768.200000
190.026100 204571.600000
191.033600 3190.200000
193.013300 1446.700000
195.065100 10246.400000
207.028800 48779.100000
208.036600 186121.900000
223.060100 277112.500000

>ms2
107.049200 4041.800000
134.036200 9956.500000
135.044100 38348.500000
152.046400 2999.900000
162.031200 110819.400000
163.039000 53191.500000
167.070000 3979.900000
178.026000 11683.800000
179.033900 44947.900000
180.041800 5972.600000
190.026000 205124.500000
191.033800 1987.500000
193.013200 3943.100000
195.065300 5734.600000
207.028800 63261.100000
208.036600 145311.800000
223.060100 145402.400000

>ms2
78.046400 7029.800000
79.054400 2279.600000
105.033600 4781.200000
106.041400 12374.300000
107.049100 8499.100000
118.041500 3132.000000
121.028700 1733.000000
123.044300 1506.400000
133.028500 5037.900000
134.036300 40069.300000
135.044100 100538.900000
144.020800 3198.800000
146.036200 4693.700000
150.031200 1220.900000
151.039500 1446.000000
152.046800 10006.900000
161.023300 3806.400000
162.031300 319964.500000
163.039000 89581.200000
164.047000 3278.900000
165.018600 3241.100000
167.070400 12143.700000
172.015300 2006.100000
178.026200 38639.100000
179.034000 111160.900000
180.041900 15418.100000
190.026100 400087.100000
191.034100 3318.500000
193.013200 9824.300000
195.065200 6588.600000
207.028900 168125.900000
208.036700 211012.500000
223.060200 153163.300000

>ms2
78.046400 14893.200000
79.054200 1515.800000
105.033500 10564.900000
106.041300 20575.900000
107.049100 10606.100000
118.041400 6627.800000
120.020300 2576.500000
123.043700 2732.300000
124.052100 1786.500000
132.020300 1187.700000
133.028500 8585.300000
134.036200 64127.200000
135.044100 98054.900000
137.022900 2266.800000
144.020600 5508.200000
146.036100 5045.600000
150.031100 3154.700000
151.039000 2007.300000
152.046900 11732.300000
161.023200 6256.200000
162.031200 363200.500000
163.039000 56500.500000
164.046900 3222.400000
165.018400 5979.800000
167.070200 11404.900000
172.015300 1862.000000
178.026100 47758.800000
179.033900 118086.100000
180.041700 13787.200000
190.026100 299884.000000
191.033900 2607.500000
193.013100 10821.000000
195.064900 3084.300000
207.028800 165950.800000
208.036600 122159.900000
223.060100 60125.600000

>ms2
77.038600 2287.100000
78.046400 23982.600000
79.054200 2518.500000
90.046800 1925.100000
105.033500 13832.400000
106.041300 29388.900000
107.049100 10230.000000
117.033200 2029.000000
118.041200 7414.500000
120.020700 2777.600000
121.028500 1087.700000
122.036100 1260.700000
123.044100 5063.200000
124.051900 1164.900000
132.020500 1957.700000
133.028400 13500.400000
134.036200 73830.800000
135.044100 84580.800000
137.023100 2825.400000
144.020400 6874.600000
146.036300 2940.400000
149.022900 2267.600000
150.031300 5304.800000
151.039000 3008.400000
152.046800 11288.500000
161.023300 10049.700000
162.031200 322185.800000
163.038900 32339.600000
164.046800 2387.100000
165.018300 7674.800000
167.070300 7699.400000
172.015300 2716.700000
178.026000 46472.100000
179.033900 96260.500000
180.041900 10166.400000
190.026000 179417.300000
191.033600 2378.900000
193.013200 8409.600000
207.028800 140314.700000
208.036600 56644.800000
223.060200 21537.400000

>ms2
77.038600 2480.600000
78.046500 41041.200000
79.054300 3979.900000
92.025700 2345.600000
95.049000 1115.400000
105.033500 20857.600000
106.041400 35380.300000
107.049100 9348.900000
109.028500 1483.500000
116.025700 3659.000000
117.033700 2054.600000
118.041300 7161.300000
120.020600 3844.900000
122.036400 1199.200000
123.044000 8327.400000
124.052300 1321.800000
132.020800 3550.000000
133.028500 20898.300000
134.036300 83901.800000
135.044100 67660.300000
137.023400 3944.500000
144.020600 7041.500000
146.035800 2978.100000
150.031200 9009.300000
151.038700 4371.400000
152.046900 8497.100000
160.015100 1199.200000
161.023400 12371.900000
162.031300 262535.900000
163.039100 18509.300000
164.047400 1544.700000
165.018400 7554.400000
167.070200 5199.600000
172.015800 1536.100000
178.026100 44367.700000
179.033900 79613.600000
180.041800 7082.400000
190.026100 102797.900000
191.033100 1113.700000
193.013100 6998.500000
207.028900 111932.900000
208.036700 24191.100000
223.060200 8325.700000

>ms2
77.038600 3254.600000
78.046400 51248.900000
79.054100 2581.000000
90.046200 1738.800000
92.025900 2514.600000
95.048800 1216.200000
105.033500 21778.700000
106.041300 37631.200000
107.049100 10230.200000
109.028100 2257.600000
116.025600 3119.600000
117.033300 2006.700000
118.041300 6420.300000
120.020700 4349.000000
122.036200 2350.100000
123.044100 10600.400000
132.020600 4302.700000
133.028400 25207.000000
134.036200 79847.100000
135.044100 52034.600000
137.023500 3805.500000
144.020600 7678.100000
146.036500 2500.200000
149.023500 1219.700000
150.031100 11739.000000
151.038900 6255.600000
152.046900 6695.200000
160.015400 2738.000000
161.023400 14980.100000
162.031200 192775.100000
163.038900 8352.800000
164.047000 1098.500000
165.018300 6712.800000
167.070500 3724.900000
172.015400 1360.200000
178.026100 36613.700000
179.033900 61584.600000
180.041500 3289.300000
190.026000 54529.800000
193.013100 3474.800000
207.028800 82651.800000
208.036600 9333.100000
223.060300 2356.800000

>ms2
66.046300 4377.900000
76.030800 3292.000000
77.038600 7344.300000
78.046400 99358.800000
79.054200 6936.400000
81.033400 3765.100000
88.030700 2124.000000
89.038600 4585.500000
90.046400 2924.300000
92.025700 6199.300000
94.041300 4028.000000
95.049000 3154.200000
104.025600 3045.000000
105.033500 50306.800000
106.041300 59934.400000
107.049100 15077.400000
109.028200 4222.800000
116.025600 7148.900000
117.033500 4195.500000
118.041300 11297.400000
120.020600 9642.700000
121.028400 1911.500000
122.036400 3603.900000
123.044000 20514.500000
132.020600 11747.400000
133.028400 51217.500000
134.036200 120520.600000
135.044100 66843.300000
137.023200 5874.400000
144.020600 10566.700000
145.028500 2035.800000
146.035900 3048.000000
149.023700 1843.300000
150.031200 22176.700000
151.038900 10303.800000
152.046800 9619.100000
160.015500 5012.500000
161.023300 23209.300000
162.031200 232547.500000
163.038900 8311.600000
165.018200 11215.000000
167.070400 3201.100000
172.016000 2205.000000
178.026000 50006.600000
179.033800 79559.200000
180.041600 4139.500000
190.026000 47054.500000
193.012900 4281.400000
205.013200 2935.000000
207.028700 100913.800000
208.036600 6771.400000

>ms2
66.046300 4804.400000
76.030800 5524.900000
77.038600 8641.100000
78.046500 107084.800000
79.054200 5464.300000
81.033500 4489.600000
88.030900 2707.400000
89.038700 4642.100000
90.046300 4568.200000
92.025800 8680.400000
94.041400 5028.700000
95.049200 4112.600000
104.025700 5390.100000
105.033500 52717.300000
106.041400 52859.600000
107.049200 12399.200000
109.028400 3831.900000
116.025700 9024.300000
117.033300 3751.900000
118.041400 7828.800000
120.020600 7587.400000
121.028500 2175.300000
122.036500 4310.700000
123.044100 27185.000000
132.020700 12772.300000
133.028500 57755.400000
134.036300 101240.100000
135.044100 48397.900000
137.023500 6561.500000
144.020600 8492.800000
145.028200 1357.500000
147.007700 1500.300000
149.023400 1281.600000
150.031300 21699.200000
151.039100 9311.500000
152.046900 5666.800000
160.015500 4749.000000
161.023400 23354.000000
162.031300 147737.000000
163.039000 5075.000000
165.018400 9593.100000
167.070700 2309.500000
178.026100 36940.900000
179.034000 49908.600000
180.042000 2622.900000
190.026100 21001.000000
193.012800 1837.900000
205.012800 3188.900000
207.028800 63149.100000
208.035600 2077.400000

>ms2
66.046400 5544.300000
76.030700 9044.600000
77.038600 11266.100000
78.046400 103480.400000
79.054200 4632.200000
81.033500 4339.000000
88.030900 4231.300000
89.038600 7496.700000
90.046400 4268.500000
92.025600 9099.300000
94.041300 5509.500000
95.049100 4696.700000
104.025600 6063.800000
105.033500 49187.300000
106.041300 45220.100000
107.049200 11116.100000
108.020500 1266.100000
109.028500 3134.600000
116.025700 11004.800000
117.033300 3541.500000
118.041300 7816.200000
119.012300 1169.200000
120.020600 7710.500000
121.028200 2735.200000
122.036300 2843.200000
123.044100 27205.300000
132.020600 13318.300000
133.028400 53770.600000
134.036200 80464.400000
135.044100 34809.700000
137.023200 5680.400000
144.020600 6971.200000
146.036200 1110.900000
147.007900 2052.400000
149.023500 1503.000000
150.031200 19405.900000
151.039100 6812.500000
152.046900 3836.200000
160.015500 4203.800000
161.023400 19619.600000
162.031200 89277.000000
163.038900 2793.100000
165.018300 6696.700000
172.015900 1341.700000
178.026100 24905.500000
179.033800 33631.400000
190.026200 8647.900000
205.013100 3053.600000
207.028800 36507.200000

>ms2
65.038600 1210.800000
66.046400 7331.200000
76.030700 11138.000000
77.038700 14534.300000
78.046400 103167.300000
79.054200 4020.300000
81.033500 5254.500000
88.030700 5091.900000
89.038700 9116.000000
90.046500 2469.000000
92.025600 9471.400000
94.041300 5866.100000
95.049100 5161.000000
104.025700 6371.700000
105.033500 52189.600000
106.041300 31683.700000
107.049100 8994.500000
108.020700 1851.200000
109.028200 3817.600000
116.025700 9999.900000
117.033500 4865.200000
118.041400 5471.100000
119.012300 1119.800000
120.020500 8661.800000
121.028700 2441.400000
122.036200 2535.400000
123.044100 27284.800000
132.020600 13700.900000
133.028400 53260.000000
134.036200 57526.500000
135.044100 21633.900000
137.023400 5428.600000
144.020500 4260.400000
145.028900 1221.100000
149.023600 1979.600000
150.031200 17659.600000
151.039100 5408.900000
152.046600 2529.100000
160.015500 4369.200000
161.023300 15596.500000
162.031200 49260.900000
163.038900 1546.800000
165.018300 5010.900000
178.026200 15906.700000
179.033900 21766.400000
190.026700 2672.700000
205.013100 2606.900000
207.028700 20443.300000

>ms2
65.038400 2071.900000
66.046400 6845.600000
76.030800 14280.000000
77.038600 16438.500000
78.046400 96699.600000
79.054300 3751.900000
81.033500 5648.200000
88.030800 6612.400000
89.038600 7779.000000
90.046500 3317.000000
92.025700 10653.900000
94.041300 4975.500000
95.049200 4425.100000
104.025700 7974.200000
105.033500 53447.900000
106.041300 29922.900000
107.049100 6983.100000
109.028400 3671.400000
116.025700 11326.100000
117.033700 2175.600000
118.041400 6183.600000
119.012700 1452.800000
120.020600 4975.600000
121.028700 2168.800000
122.036000 2825.900000
123.044100 29317.900000
132.020600 9795.400000
133.028400 52798.600000
134.036200 43069.300000
135.044000 14575.500000
137.023200 3179.400000
144.020600 2641.200000
147.007800 1067.800000
149.023400 1821.600000
150.031100 15990.500000
151.039000 4520.100000
160.015400 4292.100000
161.023400 12487.100000
162.031200 29806.500000
165.018600 4136.700000
178.026000 12741.300000
179.033900 11950.000000
190.025900 1243.700000
205.013100 2376.600000
207.028800 13217.600000

