>compound NA68318972
>parentmass 300.1805000000001
>ionization [M+H]+
>formula C15H25NO5
>rt 62.760000
>profile orbitrap
#smiles_iso C[C@H]([C@@](C(C)C)(C(=O)OCC1=CCN2[C@H]1[C@@H](CC2)O)O)O
#smiles_can CC(C)C(C(C)O)(C(=O)OCC1=CCN2C1C(CC2)O)O
#inchikey SFVVQRJOGUKCEG-OPQSFPLASA-N
#pubchem_id 114843
#mb_accession NA002424,NA002425,NA002426,NA002427,NA002428,NA002819,NA002820,NA002821,NA002822,NA002823,NA003199,NA003200,NA003201,NA003202,NA003203,NA003564,NA003565,NA003566,NA003567,NA003568

>ms2
300.180500 63865.700000

>ms2
300.180600 254340.300000

>ms2
138.091300 5527.700000
300.180600 246669.200000

>ms2
138.091300 14326.200000
300.180600 207001.600000

>ms2
138.091400 36809.300000
300.180700 172715.400000

>ms2
94.065100 36085.300000
120.080700 9089.800000
138.091200 143909.700000
139.099000 4591.400000
156.101800 22584.400000
256.154200 2673.300000
300.180400 319887.700000

>ms2
94.065100 64985.300000
120.080800 15981.900000
138.091300 144632.000000
139.099200 9227.200000
156.101900 37712.900000
210.148400 2062.900000
256.154500 2993.800000
300.180600 174778.300000

>ms2
82.065000 1390.700000
94.065100 97620.900000
95.072900 1162.800000
96.080800 1390.700000
120.080800 22065.500000
138.091300 118275.200000
139.099200 14020.500000
156.101900 58385.600000
210.148700 2528.100000
300.180600 84343.600000

>ms2
82.065100 2841.000000
94.065100 104572.400000
95.073000 2247.200000
96.080700 2267.300000
120.080700 21525.100000
138.091300 79930.100000
139.099100 15802.400000
156.101900 74736.400000
256.154700 1510.500000
300.180600 38945.600000

>ms2
82.065000 4329.700000
94.065100 95949.300000
95.073100 2658.600000
96.080700 2572.800000
120.080700 17256.700000
138.091300 50728.400000
139.099100 15901.000000
156.101800 69287.900000
210.147900 1154.900000
300.180500 13448.600000

>ms2
67.041600 2001.600000
67.054200 1841.800000
82.065200 11508.200000
86.060100 1578.500000
94.065100 195890.500000
95.072900 10362.700000
96.080700 10644.900000
108.080800 5447.100000
110.096700 1813.500000
112.075600 6765.400000
120.080800 42031.500000
138.091300 73923.500000
139.099200 35913.900000
156.101900 181152.300000
210.149100 2438.300000
300.180700 10612.600000

>ms2
67.041700 1873.900000
67.054100 1829.400000
80.049500 1368.100000
82.065200 10058.400000
86.060100 2382.300000
94.065200 158121.100000
95.073000 14755.600000
96.080800 9933.200000
108.080800 5193.400000
110.096500 2410.100000
112.075700 10112.700000
120.080800 33530.200000
126.091500 1872.700000
138.091400 37734.800000
139.099200 23764.900000
156.102000 148989.500000
210.148700 1898.400000
300.180400 2902.800000

>ms2
67.041500 1171.200000
67.054200 2605.600000
80.049500 2080.900000
82.065100 10114.700000
86.059800 2773.400000
94.065100 110447.100000
95.072900 14594.000000
96.080700 8998.500000
108.080600 6695.000000
110.096100 1817.800000
112.075700 11004.300000
120.080700 22559.400000
126.091300 2120.400000
138.091300 22927.600000
139.099100 16116.400000
156.101900 118184.900000

>ms2
67.041500 2515.500000
67.054200 3507.800000
80.049400 3123.800000
82.065100 8321.300000
86.060100 3475.800000
94.065100 83957.000000
95.072900 14864.200000
96.080800 7980.800000
108.080600 7170.700000
110.096100 1365.100000
112.075600 11487.400000
120.080700 14592.600000
126.091000 2955.000000
138.091300 14603.600000
139.099100 10957.500000
156.101900 83501.500000

>ms2
67.041700 2921.800000
67.054200 2810.400000
80.049400 2276.000000
82.065100 8716.300000
86.060000 2861.500000
94.065100 60550.600000
95.072900 10759.500000
96.080700 6441.000000
108.080700 6910.100000
112.075600 13293.100000
120.080800 9868.700000
126.091300 2413.700000
138.091300 10402.300000
139.099000 7000.300000
156.101900 56312.100000

>ms2
67.041600 7077.700000
67.054200 9051.000000
79.054400 2156.400000
80.049500 9691.800000
81.057400 3405.700000
81.069900 1905.600000
82.065100 21237.800000
86.060000 9564.700000
91.054100 2605.000000
93.057400 1466.000000
93.070100 1221.300000
94.065100 120879.500000
95.072900 27602.700000
96.080700 15361.000000
108.080800 16088.600000
110.096600 3020.000000
112.075700 30753.200000
118.065100 1779.200000
120.080700 18140.400000
126.091300 6671.300000
138.091300 17367.300000
139.099200 10238.800000
156.101900 95698.100000

>ms2
67.041600 4970.800000
67.054200 6713.600000
68.049400 1785.800000
78.033900 1240.100000
80.049500 8448.800000
81.057100 1807.500000
81.069900 3024.000000
82.065100 18859.300000
84.044400 1701.600000
86.060100 6620.400000
92.049500 1173.400000
93.057300 2557.100000
93.069900 1210.800000
94.065100 84577.500000
95.072900 19900.600000
96.080700 10290.300000
108.080800 14416.600000
110.096400 3019.700000
112.075600 25425.200000
118.065100 1032.900000
120.080800 9387.100000
126.091400 4344.000000
138.091300 11363.900000
139.099100 4618.400000
156.101900 58748.000000

>ms2
67.041600 4591.100000
67.054100 7556.200000
68.049400 1894.900000
78.033800 1290.000000
79.054100 1554.900000
80.049500 8589.200000
81.057300 2620.000000
81.069800 1953.800000
82.065100 16635.900000
86.060000 6372.100000
91.054100 1324.000000
92.049600 1267.300000
93.057600 1449.300000
94.065100 70024.700000
95.072900 16845.200000
96.080700 7568.800000
108.080800 10716.600000
110.096300 1370.600000
112.075700 17581.200000
118.064900 1901.000000
120.080700 5825.500000
126.091200 3267.700000
138.091300 6227.300000
139.099500 2444.200000
156.101900 34890.400000

>ms2
67.041600 4359.900000
67.054200 5518.100000
68.049600 1747.200000
78.033700 1184.900000
79.054200 1668.300000
80.049500 8994.400000
81.057200 2447.400000
81.069900 1753.700000
82.065100 14496.900000
84.044600 1382.800000
86.060000 3865.500000
91.054200 1086.800000
93.057300 2571.900000
94.065100 49331.000000
95.073000 10687.400000
96.080700 5137.200000
108.080700 10976.000000
110.059800 1491.900000
112.075700 12750.200000
120.080700 4688.400000
126.091200 1975.600000
138.091400 4618.900000
139.098900 1030.400000
156.101900 20166.900000

>ms2
67.041600 2969.800000
67.054200 5223.600000
78.033900 1176.200000
80.049500 6699.400000
81.057200 1807.600000
81.070300 1172.700000
82.065100 10813.400000
86.060000 3424.400000
93.057400 1563.800000
94.065100 39333.300000
95.073000 7611.900000
96.080700 3600.200000
108.080800 7072.300000
110.060100 1015.700000
112.075700 8253.900000
118.065200 1219.500000
120.080800 3351.900000
126.091700 1553.100000
138.091500 2905.900000
156.102000 10169.200000

