>compound NA69858135
>parentmass 271.0965
>ionization [M+H]+
>formula C16H14O4
>rt 691.680000
>profile orbitrap
#smiles_iso CC(=CCOC1=C2C(=CC3=C1OC=C3)C=CC(=O)O2)C
#smiles_can CC(=CCOC1=C2C(=CC3=C1OC=C3)C=CC(=O)O2)C
#inchikey OLOOJGVNMBJLLR-UHFFFAOYSA-N
#pubchem_id 10212
#mb_accession NA002245,NA002246,NA002247,NA002248,NA002249,NA002643,NA002644,NA002645,NA002646,NA002647,NA003026,NA003027,NA003028,NA003029,NA003030,NA003394,NA003395,NA003396,NA003397,NA003398

>ms2
203.033900 46919.600000
271.096700 21283.500000

>ms2
69.069600 8813.100000
203.033900 227813.100000
215.033800 1622.500000
271.096600 40921.200000

>ms2
69.069600 20258.900000
203.034000 255196.300000
215.034000 3747.900000
271.096600 13054.200000

>ms2
69.069600 20621.000000
203.034000 218143.900000
215.034000 5179.600000
229.049900 1578.300000
271.096500 3765.100000

>ms2
69.069600 25370.700000
203.033900 230124.000000
215.033900 6167.300000
229.049000 1981.200000
271.097000 1416.100000

>ms2
69.069900 31342.800000
175.039000 3588.200000
185.023400 2883.800000
202.025500 2379.200000
203.034000 304461.800000
215.034100 9645.300000
229.049600 2243.000000

>ms2
69.069900 21087.500000
147.044200 4318.300000
157.028900 3194.300000
159.044500 2483.300000
175.039000 7418.100000
185.023300 4985.300000
202.026600 1704.300000
203.034000 257917.000000
215.034000 9219.700000

>ms2
69.069800 23091.200000
131.049400 2598.300000
147.044100 13672.300000
157.028400 3453.900000
159.044100 6556.700000
175.039100 17199.400000
185.023300 6664.300000
202.025500 1670.800000
203.033900 234861.200000
215.033900 5819.700000
229.049000 1218.700000

>ms2
69.069900 17883.000000
131.049100 6870.700000
147.044200 28636.500000
157.028400 7236.200000
159.044100 7834.100000
175.039000 25033.600000
185.023600 8396.300000
202.025500 2318.000000
203.033900 192670.600000
215.033500 2950.500000

>ms2
69.069800 14268.100000
131.049200 12553.000000
147.044100 51022.200000
157.028300 8117.100000
159.044100 10146.000000
175.039000 34191.800000
185.023200 7598.200000
202.026800 1893.900000
203.033900 138057.000000
215.033900 2442.000000

>ms2
69.069900 17480.800000
91.054400 1338.200000
103.054300 1810.000000
129.033500 3191.100000
131.049200 24399.000000
147.044100 100447.400000
157.028500 14884.800000
159.044300 14264.300000
175.039000 40755.700000
185.023500 10104.300000
202.026100 2834.400000
203.033900 130173.600000

>ms2
69.069900 13176.400000
91.054100 1585.000000
103.054300 1777.100000
119.049200 1478.000000
129.033400 4719.400000
131.049200 24470.400000
147.044100 117360.800000
157.028500 19076.900000
159.044200 11479.700000
174.030900 1255.300000
175.039100 34478.400000
185.023200 8760.200000
202.026400 1715.900000
203.033900 82287.900000

>ms2
69.069900 12133.800000
91.054200 4252.800000
103.054300 3965.500000
119.049300 1937.300000
129.033500 8645.800000
131.049200 26000.600000
147.044100 137627.900000
157.028500 17961.800000
159.044300 7857.500000
174.031300 2543.000000
175.039000 28578.200000
185.023400 4799.800000
203.033900 51910.100000

>ms2
69.069800 8561.800000
91.054200 5653.000000
103.054300 5617.400000
119.049300 2464.300000
129.033500 15689.300000
131.049100 25918.300000
147.044100 154295.800000
157.028400 16956.300000
159.044000 6459.300000
174.031300 2395.100000
175.038900 20208.600000
185.023100 4525.000000
203.033800 28171.500000

>ms2
69.069900 4967.900000
91.054300 11038.600000
103.054200 4212.800000
119.049200 1868.700000
129.033500 18824.400000
131.049200 20822.600000
147.044100 138115.000000
157.028400 14349.700000
159.043600 3265.600000
174.030700 2146.200000
175.039000 12359.200000
185.022900 1813.400000
203.033700 13269.000000

>ms2
65.038600 1726.300000
69.069900 14641.300000
77.038700 5512.100000
89.038700 2590.500000
90.046200 1128.200000
91.054300 45711.100000
101.038600 2911.000000
103.054300 14305.200000
105.033500 1700.100000
119.049200 8367.500000
129.033600 66759.400000
131.049300 52776.200000
145.028900 1171.600000
147.044200 381297.400000
157.028500 33744.100000
159.044500 5814.700000
174.031400 5660.400000
175.039100 27331.500000
185.023500 4807.600000
203.033800 23089.900000

>ms2
65.038500 2153.800000
69.069900 7890.700000
77.038600 7569.900000
89.038400 1317.400000
90.046200 1282.900000
91.054300 53084.500000
101.038500 4099.100000
103.054300 12868.900000
105.033400 1609.900000
118.041700 1372.500000
119.049300 8421.900000
129.033600 65738.700000
131.049200 36795.400000
147.044200 297546.200000
157.028500 23146.000000
159.044000 3207.400000
174.031500 4932.100000
175.039100 10998.600000
185.023500 3394.700000
203.033700 9612.400000

>ms2
65.038600 3890.700000
69.069900 5017.900000
75.023000 2393.800000
77.038600 6699.200000
89.038600 1905.700000
90.046600 1870.400000
91.054300 58041.700000
101.038600 4732.200000
103.054300 8526.000000
105.033800 1227.600000
118.041400 1300.700000
119.049300 7078.800000
129.033600 61978.400000
131.049200 22865.100000
147.044200 231110.000000
157.028500 15360.000000
159.044400 1644.400000
174.031600 4027.400000
175.039000 6637.200000
203.033800 3031.400000

>ms2
65.038500 4980.300000
69.069900 3285.700000
75.022800 2337.100000
77.038600 5259.700000
89.038400 1568.300000
90.046400 2210.000000
91.054300 55082.400000
101.038600 6153.300000
103.054200 6189.400000
105.033200 1338.600000
118.041300 1619.700000
119.049200 7869.600000
129.033500 55173.300000
131.049200 16965.100000
147.044100 150837.500000
157.028500 8833.800000
174.031100 2290.100000
175.039300 2523.000000
203.034200 1760.200000

>ms2
65.038500 6425.100000
69.069800 2334.100000
75.023100 4730.900000
77.038600 5743.800000
89.038700 3345.500000
90.046300 3060.200000
91.054300 55204.800000
101.038600 6713.600000
103.054400 4912.000000
105.033700 1768.400000
119.049100 4647.700000
129.033600 47265.100000
131.049200 8736.400000
145.028700 1616.800000
147.044200 110647.500000
157.028600 3904.600000
174.031100 2118.900000

