>compound NA69487833
>parentmass 366.1911
>ionization [M+H]+
>formula C19H27NO6
>rt 381.795000
>profile orbitrap
#smiles_iso C/C=C\1/C[C@H]([C@@](C(=O)OC/C/2=C/CN(CC[C@H](C2=O)OC1=O)C)(C)O)C
#smiles_can CC=C1CC(C(C(=O)OCC2=CCN(CCC(C2=O)OC1=O)C)(C)O)C
#inchikey HPDHKHMHQGCNPE-QLJRNOHWSA-N
#pubchem_id 5281752
#mb_accession NA002384,NA002385,NA002386,NA002387,NA002388,NA002779,NA002780,NA002781,NA002782,NA002783,NA003159,NA003160,NA003161,NA003162,NA003163,NA003524,NA003525,NA003526,NA003527,NA003528

>ms2peaks
366.190600 431710.400000

>ms2peaks
366.190700 1459261.500000

>ms2peaks
150.091200 1357.600000
168.101700 2113.300000
366.190600 1295404.500000

>ms2peaks
150.091300 6975.600000
153.090700 2214.000000
168.101800 17448.600000
366.190900 1295980.000000

>ms2peaks
150.091400 28592.000000
153.091000 11888.700000
168.101900 65313.300000
366.191100 1208762.400000

>ms2peaks
70.065000 1839.400000
79.054300 1544.900000
81.070100 1614.200000
83.049200 3890.100000
94.065300 1874.100000
101.059700 5482.900000
107.049100 13287.000000
107.085600 8710.900000
109.101300 4803.400000
116.070700 4702.600000
120.080700 1692.100000
122.060100 24438.400000
122.096500 9207.000000
124.075700 8575.200000
125.059700 11411.000000
125.096100 11203.600000
135.080400 16640.400000
137.095900 5267.100000
140.106900 2956.600000
150.091300 105734.900000
153.091000 56993.000000
163.075000 1903.800000
168.101900 263415.900000
181.085800 7207.400000
186.112700 1863.900000
199.096400 3894.400000
268.154100 3313.500000
304.190900 3965.800000
320.185300 3705.000000
338.196000 12333.500000
348.180700 9193.400000
366.191000 1431171.000000

>ms2peaks
55.054100 3993.700000
70.065100 8185.600000
79.054200 3254.200000
81.069900 6677.100000
83.049100 8478.000000
94.065000 5205.400000
96.080900 2101.300000
97.064800 3262.500000
98.060000 2169.000000
99.043900 2356.800000
101.059700 11765.400000
107.049100 37260.400000
107.085500 19134.800000
108.080700 1885.700000
109.064600 4871.100000
109.101100 9037.500000
110.059800 1629.600000
116.070600 9556.700000
120.080800 4541.200000
122.060000 66306.100000
122.096400 27545.900000
123.067900 5754.000000
124.075700 19602.000000
125.059700 25008.900000
125.083500 2143.300000
125.096100 27117.300000
128.070900 1642.700000
135.080400 37745.800000
137.059600 4827.300000
137.083100 2762.000000
137.096100 9372.800000
138.091100 3199.600000
140.070400 5214.400000
140.107000 6648.000000
150.091300 209733.800000
152.106700 1688.400000
153.091000 120743.800000
163.075200 3899.700000
168.101800 495370.800000
181.085800 13909.000000
186.112300 4691.300000
199.096400 5477.500000
250.145000 1808.600000
268.154300 4198.100000
304.191100 6565.400000
318.170900 1667.000000
320.185600 5075.000000
338.196200 18768.100000
348.180700 15341.400000
366.191000 1156447.200000

>ms2peaks
55.054100 6781.700000
67.054100 4221.300000
70.065100 28578.700000
79.054200 7525.200000
81.033800 3059.400000
81.069900 14232.100000
83.049200 16977.200000
91.054100 1948.800000
93.070100 3050.600000
94.065100 11312.600000
96.080900 7715.100000
97.064900 6883.400000
98.060000 4632.600000
99.044200 5569.500000
101.059800 23214.700000
107.049200 87755.200000
107.085600 45494.900000
108.080700 4473.600000
109.064800 9896.100000
109.101200 24112.000000
110.059800 3832.900000
116.070700 14804.500000
120.080700 8418.100000
122.060100 129326.300000
122.096500 52978.500000
123.068000 14260.000000
124.075700 41376.100000
125.059700 48614.900000
125.096100 54397.700000
126.090900 2686.100000
132.080900 3360.000000
135.080500 63576.300000
137.059800 6830.400000
137.083200 6074.600000
137.096100 13290.500000
138.091300 4274.600000
139.076000 1955.800000
140.070600 10871.500000
140.106900 11355.900000
150.091400 325972.500000
152.106800 4130.300000
153.091000 203822.700000
163.075600 4891.900000
168.101900 812574.800000
181.085900 18513.100000
186.112200 6817.800000
199.096500 4801.000000
220.133100 3371.700000
250.144400 3318.200000
268.154500 6222.400000
304.190400 7503.100000
318.168900 3831.200000
320.186000 8482.700000
338.196400 17544.700000
348.180700 19092.500000
366.191200 934633.400000

>ms2peaks
53.038600 1344.400000
55.054100 7616.400000
59.048900 2312.000000
67.054200 5014.700000
69.033600 1642.800000
70.065100 53188.400000
79.054300 12303.200000
81.033600 2617.700000
81.069900 15234.700000
83.049200 16944.500000
91.054300 3417.500000
93.070000 3734.800000
94.065200 16192.500000
95.049100 1618.400000
96.080800 9100.800000
97.064800 7386.200000
98.060100 5700.500000
99.044000 4316.000000
101.059800 27731.400000
105.069900 1382.600000
107.049200 102596.300000
107.085600 57066.900000
108.080700 4424.900000
109.064800 11276.900000
109.101200 22457.900000
110.060100 5179.100000
111.080700 3120.900000
112.075600 1626.700000
116.070700 16999.300000
120.080900 8442.200000
122.060100 168590.600000
122.096500 66272.600000
123.067900 21059.100000
124.075800 44844.400000
125.059800 44661.200000
125.083900 3552.300000
125.096100 70460.200000
126.091600 2517.500000
128.070300 1702.600000
132.080800 2999.200000
135.080500 63429.600000
136.075800 1327.900000
137.059700 7731.900000
137.083600 8091.100000
137.096200 12068.000000
138.091500 6936.000000
139.076000 2265.200000
140.070700 17606.600000
140.107100 13276.300000
150.091400 272059.800000
152.107000 3732.700000
153.091000 163954.500000
163.075300 4857.300000
166.085600 1518.600000
168.102000 752079.900000
181.086000 11319.900000
186.112700 6094.100000
199.095800 1413.000000
220.133400 2526.500000
250.143500 4013.500000
268.154700 5028.100000
304.190500 4946.000000
318.171300 1494.700000
320.185700 4733.600000
338.197200 7744.400000
348.180700 10443.100000
366.191300 387722.400000

>ms2peaks
53.038500 2392.200000
55.054100 6886.200000
59.049100 1529.100000
67.054200 4785.400000
69.033500 1792.600000
70.065100 82065.100000
79.054200 18145.400000
81.033500 3219.100000
81.069900 22054.500000
83.049100 19003.700000
91.054300 4373.600000
93.069900 5443.900000
94.065100 22892.200000
95.049300 4301.800000
96.080800 12934.100000
97.064900 11812.100000
98.060000 7301.200000
99.044100 6215.800000
101.059700 27637.000000
105.070200 1609.800000
107.049100 118721.100000
107.085500 69376.800000
108.080700 5791.700000
109.064800 14806.900000
109.101200 30345.300000
110.060100 6866.700000
111.080700 3023.400000
112.075800 1990.100000
116.070700 14327.700000
120.080900 11112.300000
122.060100 201367.500000
122.096400 65876.300000
123.067900 22625.800000
124.075700 44837.900000
125.059700 46799.100000
125.083500 5064.500000
125.096100 73874.800000
126.091500 3509.200000
132.080600 3026.000000
135.080400 61736.200000
136.076300 1639.400000
137.059600 6048.900000
137.083500 9487.000000
137.096000 10972.000000
138.091300 6702.600000
139.074900 2084.500000
140.070600 31935.900000
140.107000 12997.300000
150.091400 235039.600000
152.107000 3479.200000
153.091000 134391.100000
163.075500 4547.900000
166.085900 1570.700000
168.101900 772807.400000
181.085900 9305.100000
186.112700 5137.800000
250.143900 2607.400000
268.155200 2000.500000
304.190200 2304.200000
320.185200 3916.100000
338.196800 3473.200000
348.180400 5435.000000
366.191100 177493.200000

>ms2peaks
53.038400 3227.700000
55.054100 7296.800000
59.049100 1796.100000
67.054200 9274.500000
68.049300 1537.600000
69.033400 2926.900000
69.069900 1479.700000
70.065100 123714.800000
77.038800 2593.800000
79.054200 25078.700000
81.033500 4262.900000
81.069900 24635.100000
82.065200 2514.300000
83.049200 20387.000000
91.054300 7743.400000
93.069800 4900.300000
94.065100 31789.700000
95.049200 9739.400000
95.085700 1733.900000
96.080700 15954.500000
97.028300 1770.000000
97.064700 15575.500000
98.060000 10908.000000
99.044100 6778.200000
100.075900 1095.600000
101.059600 27377.900000
105.069700 3348.200000
107.049100 134848.400000
107.072900 9476.600000
107.085500 82166.600000
108.056800 3004.400000
108.080700 7264.300000
109.064800 14529.700000
109.101100 26603.000000
110.060000 11733.000000
111.044100 3711.200000
111.080200 5149.700000
112.075600 2260.000000
116.070600 12704.400000
117.057200 1378.500000
117.069600 1718.000000
120.080700 11340.500000
121.088900 3325.900000
122.060000 225167.300000
122.096400 67643.300000
123.067800 21891.700000
124.075700 42120.700000
125.059600 46347.500000
125.083500 5479.600000
125.096000 73935.400000
126.091200 3024.100000
132.080700 3184.400000
135.080400 62169.500000
136.075700 1461.600000
137.059600 4371.500000
137.083500 13099.800000
137.096000 9503.800000
138.091300 6650.400000
139.075000 2465.600000
140.070600 52573.800000
140.106900 9726.100000
148.075400 2400.600000
150.091300 168613.800000
152.106600 3511.200000
153.090900 90846.700000
166.087000 1783.400000
168.101800 714827.400000
181.086000 4576.900000
186.112500 2803.100000
250.143700 3080.300000
366.191000 64270.800000

>ms2peaks
53.038400 4831.000000
55.054100 6505.300000
59.049000 2672.700000
67.054200 9370.800000
69.033400 3271.100000
69.069700 1609.500000
70.065000 138083.500000
77.038400 2335.300000
79.054200 38067.800000
81.033400 4236.400000
81.057300 1468.500000
81.069900 28318.500000
82.065100 4557.900000
83.049100 18324.900000
84.080900 1289.900000
91.054200 9166.000000
93.069900 5957.300000
94.065100 39602.200000
95.049100 13253.900000
95.073200 1241.100000
95.085400 1691.500000
96.080700 19219.900000
97.028400 2367.600000
97.064700 16885.300000
98.060000 11606.400000
99.044000 4796.300000
100.075700 1413.100000
101.059600 25408.600000
105.069900 4359.400000
107.049100 119614.300000
107.072900 13050.800000
107.085400 82183.200000
108.056800 3417.600000
108.080700 7709.300000
109.064700 14602.400000
109.101000 24093.800000
110.060000 18497.800000
111.044100 3766.700000
111.080500 3747.200000
112.075500 3127.100000
116.070500 11817.300000
117.057200 1976.300000
117.069900 1667.700000
119.049100 1297.500000
120.080700 11236.500000
121.088900 1962.000000
122.060000 207692.500000
122.096300 59027.200000
123.067700 18366.600000
124.075600 27816.600000
125.059600 41382.900000
125.083200 4470.300000
125.096000 59667.700000
126.091200 2811.000000
132.080800 1810.200000
135.080400 44599.000000
137.059500 4722.000000
137.083400 10270.400000
137.095900 5957.800000
138.091300 5772.300000
139.075200 1289.100000
140.070500 67764.000000
140.106900 7712.200000
148.075600 2858.600000
150.091200 112005.100000
152.106700 1951.400000
153.090900 47017.400000
166.085500 1603.300000
168.101800 595640.100000
181.085200 1554.800000
186.112200 1513.500000
250.143400 2103.000000
366.190900 18086.500000

>ms2peaks
53.038400 3368.400000
55.054100 4191.800000
67.054100 8283.500000
68.049400 1162.300000
69.033500 3530.900000
69.069900 1940.000000
70.065000 143476.700000
77.038500 6214.400000
79.054200 41080.500000
80.049400 992.600000
81.033300 2659.300000
81.057300 1235.000000
81.069800 19997.700000
82.065000 4552.200000
83.049100 17485.800000
91.054200 11646.800000
93.069800 4729.800000
94.065100 50049.800000
95.049100 16894.500000
95.073000 1196.400000
95.085500 2242.800000
96.080700 20335.700000
97.064700 13308.400000
98.060000 11398.600000
99.044000 2967.900000
101.059600 17039.700000
105.069600 4421.100000
107.049100 94434.000000
107.072900 14085.900000
107.085500 68432.100000
108.057000 2430.200000
108.080700 6243.000000
109.064800 12044.800000
109.101100 15508.200000
110.060000 22895.200000
111.044200 2599.100000
111.080600 2971.100000
112.075600 3998.400000
116.070500 7815.700000
117.069600 2263.100000
119.048800 1275.000000
120.080700 11395.000000
121.088500 2600.100000
122.060000 174615.700000
122.096300 39841.300000
123.067800 13272.300000
124.075600 20013.700000
125.059600 33061.800000
125.083400 2949.600000
125.096000 43765.900000
126.091500 3127.100000
132.080600 3337.400000
135.080300 32716.800000
136.075900 1260.400000
137.059500 2686.600000
137.083400 9874.100000
137.095900 3898.500000
138.091400 3959.600000
140.070500 78083.500000
140.106900 6025.800000
150.091300 61942.900000
153.090900 21165.800000
168.101800 431866.300000
250.142600 1681.500000
366.191000 4410.600000

>ms2peaks
53.038400 3659.300000
55.054000 3086.400000
67.054100 10676.200000
69.033400 3965.200000
69.069700 1323.600000
70.065000 150631.600000
77.038500 7739.500000
79.054200 47699.700000
81.033400 3843.500000
81.069800 20274.000000
82.065100 5000.700000
83.049100 12855.600000
91.054200 15121.400000
93.057300 1165.400000
93.069800 4828.100000
94.065000 60142.000000
95.049100 21186.500000
95.073000 1825.700000
96.080700 18471.400000
97.028300 1734.000000
97.064700 14379.000000
98.060000 11315.100000
99.044000 2119.200000
100.075700 1517.800000
101.059600 11949.700000
105.069800 6364.800000
106.064900 1430.600000
107.049000 71698.200000
107.072800 13127.000000
107.085400 62579.600000
108.057000 2483.600000
108.080700 6206.700000
109.064700 10312.000000
109.101100 10791.400000
110.059900 31070.600000
111.044100 2434.100000
111.080400 2633.500000
112.075600 5147.100000
116.070700 6001.200000
117.057100 1737.300000
117.069800 2892.000000
120.080700 8831.300000
121.088700 1724.700000
122.059900 145356.100000
122.096300 32394.000000
123.067700 11659.800000
124.075600 15136.700000
125.059600 25442.300000
125.083400 2993.900000
125.096000 31263.200000
132.080500 3363.800000
135.080300 22115.200000
137.059600 1584.300000
137.083400 6316.100000
137.096100 1475.400000
138.091400 3847.200000
140.070500 82797.600000
148.075900 1854.900000
150.091200 38484.800000
151.098700 1949.400000
153.090800 9057.700000
168.101800 314261.700000

>ms2peaks
53.038400 3064.500000
55.054100 3823.600000
67.054200 11464.600000
69.033500 3538.600000
69.069800 2294.000000
70.065100 146655.300000
77.038600 9601.000000
79.054200 53430.500000
80.049400 1060.900000
81.033500 2812.200000
81.057300 2349.900000
81.069900 19281.600000
82.065200 6238.300000
83.049200 11433.800000
84.080900 1508.200000
91.054200 16416.100000
93.057400 1401.700000
93.069800 4876.100000
94.065100 65718.700000
95.049100 21189.100000
95.072700 1266.000000
95.085600 1300.500000
96.080800 19498.300000
97.028700 2004.000000
97.064800 12547.200000
98.060000 10009.600000
99.044100 1277.900000
101.059700 9853.000000
105.069900 6699.300000
106.065400 1592.100000
107.049100 59151.900000
107.072900 13206.100000
107.085500 50518.200000
108.057000 1516.200000
108.080700 4321.300000
109.064700 6354.200000
109.101100 6811.100000
110.060000 39827.700000
111.044200 1961.900000
111.080200 1905.600000
112.075800 4138.500000
116.070300 4060.600000
117.057400 2213.400000
117.069800 2393.400000
120.080800 9031.000000
121.088700 1518.400000
122.060000 111867.100000
122.096400 25991.500000
123.067800 8617.700000
124.075600 11589.200000
125.059700 19127.700000
125.083500 1697.700000
125.096100 19501.700000
126.091000 1264.100000
132.080900 2370.900000
135.080400 14858.600000
137.083400 5714.200000
138.091200 2616.500000
140.070600 81995.100000
150.091300 22902.300000
151.099000 1014.700000
153.090900 3290.100000
168.101900 207768.800000

>ms2peaks
53.038400 2256.900000
55.054100 4202.800000
57.992400 1054.400000
65.038500 1917.200000
67.054100 21764.000000
68.049300 2457.000000
69.033500 6599.300000
69.069800 4037.900000
70.065000 235611.500000
71.049100 1408.700000
73.064700 2257.800000
77.038500 23067.500000
79.054200 97872.400000
80.049400 1849.600000
81.033500 5139.700000
81.057200 3944.500000
81.069800 34690.400000
82.065100 13406.700000
83.013000 2129.400000
83.049100 18590.800000
83.072800 1551.300000
84.080700 1483.000000
91.054200 38703.400000
93.057200 2879.800000
93.069900 6182.800000
94.065000 140221.100000
95.049000 37261.500000
95.072800 3556.700000
96.080700 31461.600000
97.028300 3237.500000
97.064700 20963.200000
98.060000 16062.800000
99.043900 2247.500000
101.059600 12276.600000
105.069800 11461.300000
106.065100 3642.000000
107.049000 80379.800000
107.072900 25328.100000
107.085400 74762.900000
108.080700 8611.900000
109.064700 12770.700000
109.101000 9641.700000
110.059900 92091.100000
111.044000 3237.700000
111.080400 2946.200000
112.075500 8032.100000
115.054200 1948.800000
116.070800 4128.500000
117.057100 4009.700000
117.069600 3619.500000
120.080800 12286.800000
121.088400 2395.000000
122.059900 161547.500000
122.096300 39496.400000
123.067800 16713.100000
124.075500 16361.600000
125.059600 26378.800000
125.083500 4031.500000
125.096000 24518.800000
132.080500 3933.200000
135.067200 1630.800000
135.080300 17894.400000
137.083400 8722.000000
138.091100 3529.100000
140.070500 144568.700000
148.075500 3181.000000
150.091200 26920.900000
168.101800 256811.500000

>ms2peaks
53.038500 4362.900000
55.054100 3178.400000
57.992100 1130.700000
65.038500 3358.600000
67.054100 24560.600000
68.049400 3199.900000
69.033500 6311.300000
69.069800 3197.600000
70.065100 246294.600000
73.064500 2193.600000
77.038500 31893.900000
79.054200 106687.400000
80.049400 2603.500000
81.033400 4420.900000
81.057300 4645.500000
81.069800 32389.200000
82.065100 16504.400000
83.012700 1407.300000
83.049100 18058.300000
84.080700 3308.100000
91.054200 41059.300000
92.062300 1295.800000
93.057200 4784.500000
93.069900 6071.300000
94.065100 152719.000000
95.049100 42264.000000
95.072900 2548.200000
96.080700 28448.100000
97.028200 3005.600000
97.064700 15453.000000
98.060000 15711.900000
99.044100 2599.900000
101.059600 9124.500000
105.069800 14004.600000
106.065100 4502.100000
107.049000 64534.400000
107.072900 26824.200000
107.085400 58734.200000
108.080700 7690.900000
109.052700 1364.200000
109.064700 9296.400000
109.101100 5608.800000
110.059900 113538.000000
111.044000 1610.900000
111.079900 2121.500000
112.075600 9852.100000
115.054000 1272.500000
116.070600 3779.500000
117.057400 3265.900000
117.069800 3602.800000
120.080700 12438.500000
121.088600 3094.800000
122.059900 135766.100000
122.096300 31877.300000
123.067800 10874.700000
124.075500 13536.900000
125.059600 18571.900000
125.083200 3480.600000
125.096100 15562.000000
132.080600 4042.000000
134.060300 1884.500000
135.080300 10534.500000
137.083400 5593.400000
138.091200 2033.000000
140.070500 126378.800000
148.075700 2206.900000
150.091200 18513.000000
168.101800 173594.500000

>ms2peaks
53.038400 2497.600000
55.054100 3495.100000
65.038500 4885.900000
67.054100 24398.800000
68.049600 2110.600000
69.033400 6733.400000
69.069800 2979.500000
70.065000 230019.200000
73.064400 1374.800000
77.038500 30188.100000
79.054200 91787.800000
80.049400 3338.500000
81.033500 5417.900000
81.057300 4314.400000
81.069800 27836.100000
82.065100 13790.600000
83.012500 2018.500000
83.049100 11855.300000
84.080700 2541.200000
91.054200 46344.900000
92.062000 1988.400000
93.057300 4863.800000
93.069800 3681.200000
94.065100 159190.300000
95.049100 38454.000000
95.072700 3836.200000
96.080700 29414.300000
97.028400 3518.800000
97.064700 11768.100000
98.060000 14536.800000
101.059500 6860.400000
105.069900 12245.100000
106.064900 4475.500000
107.049000 49732.500000
107.072900 26067.600000
107.085500 42196.900000
108.080800 6988.500000
109.064700 7045.600000
109.101300 2859.900000
110.060000 115180.400000
111.044200 1710.600000
111.080800 1656.600000
112.075600 8589.900000
115.054100 1678.700000
116.070600 2368.000000
117.057000 2361.400000
117.069900 3174.400000
120.080800 10562.800000
121.088900 1810.900000
122.059900 97503.400000
122.096300 20619.300000
123.067800 9537.700000
124.075600 7014.300000
125.059600 12563.000000
125.083400 2261.500000
125.096100 8581.500000
132.080600 3175.500000
135.068100 1518.600000
135.080400 6240.700000
137.083800 3632.900000
140.070500 108036.000000
148.075900 1896.300000
150.091300 11773.700000
168.101800 104111.600000

>ms2peaks
53.038500 2634.500000
55.054200 2323.300000
65.038500 3269.300000
67.054100 22400.800000
68.049300 2761.900000
69.033500 7631.100000
69.069900 2122.000000
70.065000 191174.500000
71.049000 1365.700000
77.038500 29361.100000
79.054200 82055.600000
80.049400 2451.500000
81.033400 3730.700000
81.057300 4445.500000
81.069800 21972.800000
82.065100 15163.500000
83.049100 9895.500000
84.080700 3139.400000
91.054100 40711.500000
92.049300 2026.500000
93.057100 5666.500000
93.069900 3719.200000
94.065000 145462.600000
95.049000 33777.100000
95.073100 1993.100000
96.044600 2585.700000
96.080700 21360.100000
97.028400 1830.300000
97.064700 9983.600000
98.059900 10289.800000
101.059600 2862.900000
105.069800 12853.000000
106.065100 5017.300000
107.049000 30273.300000
107.072900 20308.700000
107.085400 27183.200000
108.080700 6819.100000
109.052100 1294.700000
109.064500 4488.800000
109.100800 2218.700000
110.059900 105870.200000
111.044000 1256.700000
112.075600 7193.100000
115.054000 2091.000000
117.057400 3771.800000
117.069800 1648.100000
120.080700 7544.300000
121.088300 2348.200000
122.059900 68592.800000
122.096300 13707.500000
123.067800 7087.100000
124.075600 5514.200000
125.059600 8956.400000
125.083500 965.600000
125.096100 4416.300000
132.080500 3089.700000
134.059600 1633.300000
135.080200 3978.600000
137.083200 2736.200000
140.070500 75683.800000
148.075700 1797.300000
150.091300 5237.700000
168.101800 52326.600000

>ms2peaks
55.054000 2435.200000
65.038500 4912.300000
67.054100 20604.300000
68.049200 1375.000000
69.033400 3969.500000
69.069800 2116.900000
70.065000 159309.000000
77.038500 28694.700000
79.054100 66053.800000
80.049200 2715.300000
81.033300 2746.100000
81.057300 6027.200000
81.069800 14889.000000
82.065000 13627.400000
83.049100 7612.600000
83.072700 1369.400000
84.080600 2056.000000
91.054100 38668.100000
92.049900 1073.500000
92.062000 1557.600000
93.057200 4054.100000
93.069700 3328.600000
94.065000 124924.900000
95.049000 26169.700000
95.073000 1908.200000
96.044400 2322.300000
96.080700 18666.800000
97.028200 1540.600000
97.064700 6557.700000
98.060000 6799.800000
101.059200 1270.400000
105.069700 10193.600000
106.064800 4868.400000
107.049000 22818.600000
107.072800 15399.300000
107.085400 18087.200000
108.080600 6329.100000
109.064700 3384.200000
109.101700 1360.600000
110.059900 96012.300000
112.075500 6233.800000
115.053900 1555.200000
116.070300 1436.700000
117.057200 2792.500000
117.069600 1422.300000
120.080700 7317.600000
121.088600 2015.300000
122.059900 45753.000000
122.096300 10733.900000
123.067700 4891.600000
124.075600 2860.000000
125.059500 4585.800000
125.096100 1838.800000
132.080600 1838.500000
137.083300 1917.900000
140.070400 49869.100000
150.090800 4237.600000
168.101700 27140.800000

