>compound NA70025746
>parentmass 426.3003
>ionization [M+H]+
>formula C27H39NO3
>rt 535.515000
>profile orbitrap
#smiles_iso C[C@H]1C[C@@H]2[C@H]([C@H]([C@]3(O2)CC[C@H]4[C@@H]5CC=C6C[C@H](CC[C@@]6([C@H]5C(=O)C4=C3C)C)O)C)NC1
#smiles_can CC1CC2C(C(C3(O2)CCC4C5CC=C6CC(CCC6(C5C(=O)C4=C3C)C)O)C)NC1
#inchikey CLEXYFLHGFJONT-DNMILWOZSA-N
#pubchem_id 10098
#mb_accession NA002561,NA002562,NA002563,NA002564,NA002565,NA002954,NA002955,NA002956,NA002957,NA002958,NA003329,NA003330,NA003331,NA003332,NA003333,NA003699,NA003700,NA003701,NA003702,NA003703

>ms2
426.299700 530668.600000

>ms2
426.300000 670399.200000

>ms2
426.299900 632897.600000

>ms2
426.300100 600954.100000

>ms2
426.300000 485454.000000

>ms2
67.054000 3045.800000
70.065300 1459.400000
81.069800 3456.100000
83.048900 1702.700000
84.080700 24496.500000
85.064700 6700.400000
95.085400 1854.400000
96.080800 1560.000000
98.096200 4261.000000
100.075600 2086.500000
102.091200 11064.000000
105.069600 1875.400000
107.085200 2676.800000
109.101000 46375.400000
112.075600 4242.300000
114.091100 81654.000000
119.085300 1811.600000
121.101100 3915.000000
124.111800 1859.200000
126.127500 25902.300000
131.084900 1382.800000
133.100800 1923.200000
140.107400 2446.800000
145.101100 8333.600000
147.116600 3824.700000
149.096000 6792.500000
157.101200 2975.200000
163.111500 2202.200000
173.096400 1567.900000
175.111200 3362.000000
199.148000 2051.200000
211.147300 1777.000000
213.162900 2011.300000
253.158400 1619.700000
265.193800 1957.500000
289.194600 1253.300000
293.190000 2198.700000
295.204700 4021.800000
311.199900 3394.800000
313.215800 47966.100000
349.216900 1554.600000
351.233400 1707.100000
379.264200 1783.100000
391.262200 7035.700000
408.289000 10516.200000
426.299400 964941.200000

>ms2
67.054200 12095.900000
70.065100 4157.700000
79.054200 2130.400000
81.069900 14153.000000
82.065100 1741.400000
83.049100 4393.600000
84.080800 45434.800000
85.064800 16284.500000
91.054200 1841.700000
93.069900 3495.300000
95.085600 5783.300000
96.080700 3716.700000
98.096400 9573.100000
99.080200 2194.400000
100.075700 4866.800000
102.091300 20875.700000
105.069800 5058.300000
107.085500 6009.800000
109.101100 109671.100000
112.075700 11644.600000
114.091300 155590.600000
119.085600 5191.500000
121.101100 11317.800000
123.081000 1342.600000
123.116900 1376.700000
124.112000 2927.100000
125.096000 3297.500000
126.127700 41940.000000
131.085500 3945.100000
133.101200 5368.400000
135.116700 3129.900000
137.096600 1355.000000
140.107100 3143.200000
143.085500 2595.200000
145.101100 23196.000000
147.080300 2372.600000
147.116800 8291.800000
149.096100 18083.300000
151.111400 1822.000000
157.101100 7372.900000
159.116900 6216.000000
161.096000 2214.600000
163.111800 3746.100000
169.100800 2045.200000
171.116800 4396.400000
173.096200 3789.500000
173.132400 4171.300000
175.111800 10041.900000
183.116600 2772.500000
185.132200 2899.300000
187.111700 2672.900000
189.127600 3547.800000
195.117300 1451.200000
197.131900 2318.400000
199.148100 5056.100000
201.163300 1658.100000
209.132200 2565.300000
211.148100 4560.300000
213.127800 1389.300000
213.163500 5718.000000
221.132200 1456.700000
223.148000 1602.200000
229.159000 1937.700000
235.148100 2682.100000
237.163200 2802.400000
249.162800 1453.500000
251.180000 1792.200000
253.158600 4082.200000
263.178500 1159.600000
265.195100 3221.900000
275.180100 2317.900000
277.195200 3654.500000
283.205000 1196.800000
289.195900 1575.900000
293.190200 4629.500000
295.205400 10549.600000
311.200500 7565.300000
313.216200 76122.300000
325.216200 2237.800000
335.200100 3399.700000
345.258300 1243.300000
349.216600 2820.400000
351.232100 3514.400000
379.262000 4455.000000
391.263400 8199.300000
408.289800 16619.300000
426.300100 604106.500000

>ms2
57.069800 1457.800000
67.054100 24603.600000
70.065000 6474.300000
79.054200 1985.000000
81.069900 24966.500000
82.065300 1207.400000
83.049200 8877.700000
84.080800 66559.400000
85.064800 25472.500000
91.054300 2515.500000
93.069900 7875.200000
95.085500 8408.200000
96.080700 8074.200000
97.064800 1918.700000
98.096400 12673.900000
99.080500 2788.200000
100.075700 6585.000000
101.059900 1974.600000
102.091300 26454.600000
105.069800 11183.800000
107.085500 14732.900000
109.101100 163353.800000
111.080400 1855.400000
112.075700 15196.600000
113.083300 1239.000000
114.091300 205583.900000
117.069900 1782.400000
119.085500 8934.000000
121.101100 18721.600000
123.080600 1672.500000
123.116700 2566.000000
124.112000 5561.200000
125.096000 3208.300000
126.127700 43953.900000
129.069700 1706.000000
131.085500 7303.300000
133.101100 11296.700000
135.080800 2062.700000
135.116800 3784.600000
137.096100 1321.900000
140.107000 5979.800000
143.085600 3575.100000
145.101200 36856.300000
147.080300 3776.900000
147.116700 16822.200000
149.096100 34908.400000
151.111500 2842.600000
152.143500 1106.300000
155.085500 1662.700000
157.101100 14652.200000
159.116800 10981.700000
161.095900 2114.800000
161.132600 2786.400000
163.111800 4133.300000
169.101300 3094.200000
171.116700 7465.500000
173.096000 7066.300000
173.132400 5708.000000
175.111700 16246.800000
183.116900 3816.100000
185.095800 1175.000000
185.132100 4602.000000
187.111800 4461.100000
187.148300 1232.900000
189.127500 4817.200000
195.116800 4197.300000
197.132700 4086.600000
199.111400 1856.400000
199.148200 9256.000000
201.127200 2471.100000
201.163900 2888.100000
207.116800 1568.200000
209.132500 5316.000000
211.111100 2387.000000
211.147900 5354.900000
213.127200 3733.700000
213.163900 8712.000000
215.142400 1151.700000
221.132800 2919.600000
223.147500 2104.500000
225.127500 1517.700000
225.162800 1557.500000
227.142500 2865.400000
229.158900 1658.300000
235.148200 3744.000000
237.163600 4448.900000
249.164400 2767.900000
253.158800 5932.800000
255.174600 1430.700000
263.180600 1154.700000
265.194700 4038.300000
275.179600 4694.700000
277.194900 7165.600000
283.206000 2048.300000
289.194800 2347.500000
293.190100 8055.900000
295.205600 15481.200000
311.200600 8549.300000
313.216200 79943.600000
325.216400 2382.500000
335.200500 3227.600000
336.208700 2502.900000
345.258800 1053.700000
349.216300 4286.500000
351.232800 2493.200000
379.263100 4619.000000
391.263600 7391.600000
408.289500 15133.500000
426.300000 318087.600000

>ms2
55.054100 1294.400000
57.069700 1309.500000
67.054200 32652.200000
69.069800 2066.500000
70.065100 7068.900000
79.054200 3524.800000
81.069900 30962.400000
82.065300 1789.300000
83.049200 10059.500000
84.080800 68309.100000
85.064800 28930.900000
91.054300 4068.700000
93.069800 9687.100000
95.085500 11413.800000
96.080800 10857.700000
97.064800 2142.400000
98.096500 9303.600000
99.080300 1464.700000
100.075700 6066.600000
101.059700 2669.600000
102.091300 23708.500000
105.069900 13077.700000
107.085500 18615.000000
109.101200 169734.200000
110.096200 1496.300000
111.080200 1978.800000
112.075700 18133.100000
114.091300 203849.100000
117.069900 2580.400000
119.085500 13786.600000
121.101200 27256.200000
123.080400 3230.800000
123.117200 2058.300000
124.112000 4709.200000
125.096200 2651.300000
126.127700 29931.400000
129.069500 1866.500000
131.085500 9714.700000
133.101200 14985.400000
135.080100 3953.000000
135.116800 5295.400000
137.095800 2674.600000
140.107000 5422.600000
143.085500 5495.700000
145.101200 46612.200000
147.080400 4451.200000
147.116800 13876.700000
149.096100 46365.800000
151.111600 3905.500000
152.144000 1327.300000
155.085200 2246.700000
157.101100 19906.400000
159.080300 1568.200000
159.116800 11723.800000
161.095900 3143.000000
161.132200 1655.800000
163.111800 5486.900000
169.101100 4500.800000
171.116900 9800.100000
173.096100 9122.400000
173.132400 7359.200000
175.111700 18560.100000
181.101300 3396.300000
183.116800 5067.300000
185.096500 1422.600000
185.132400 4675.700000
187.111800 6120.800000
187.148400 1998.000000
189.127600 5282.100000
193.101700 1963.400000
195.117300 4885.700000
197.132600 5071.100000
198.104200 1653.100000
199.111600 2657.500000
199.148100 7903.700000
201.127400 3068.200000
201.163700 2531.700000
207.116600 1519.200000
209.132400 6420.400000
211.112100 3405.000000
211.148000 7058.900000
213.127800 4317.900000
213.163900 8759.400000
215.142500 1475.900000
221.133000 1893.100000
223.148000 2951.600000
225.127800 1613.400000
225.164400 2638.800000
227.143300 3082.000000
233.132200 1738.300000
235.148200 4544.400000
237.163900 4292.100000
239.179100 2314.700000
247.148000 2501.800000
249.163300 2601.200000
251.179800 1954.000000
253.159200 5182.600000
255.174200 2244.700000
263.179700 1643.800000
265.195600 4132.200000
275.179300 4233.100000
277.195100 10689.200000
283.206200 1796.800000
289.195500 2481.800000
293.190200 5737.000000
295.205600 16215.700000
311.200600 7755.200000
313.216400 57251.200000
325.216700 1890.900000
335.202200 1703.300000
336.208900 1933.200000
349.215700 1756.800000
351.232400 3131.300000
379.263700 2609.200000
391.263200 3750.200000
408.289800 10357.600000
426.300200 130208.900000

>ms2
55.054100 1698.400000
57.069900 1387.100000
67.054200 34432.900000
69.069900 1762.500000
70.065100 7718.700000
79.054400 3571.200000
81.069900 29669.400000
82.065300 1537.400000
83.049100 8720.800000
84.080800 55173.800000
85.064800 25515.900000
91.054200 4182.100000
93.069900 10745.300000
95.085500 10674.200000
96.080800 10901.400000
97.064800 1762.800000
98.096500 8811.500000
99.080200 1424.100000
100.075700 4599.200000
101.059600 2085.200000
102.091400 14194.700000
105.069900 13284.100000
107.085600 19276.100000
109.101200 136017.800000
110.096300 1556.700000
111.080500 1893.800000
112.075700 15867.600000
113.083100 1340.900000
114.091300 154164.300000
117.069900 2394.100000
119.085600 14619.000000
121.101200 32781.600000
123.080100 1853.300000
123.116700 1408.300000
124.112000 3515.900000
125.096300 3578.100000
126.127700 16695.400000
129.070200 1841.900000
131.085600 9229.800000
133.101200 16699.900000
135.080200 2750.800000
135.117000 4373.400000
137.095800 1464.600000
140.107000 4233.700000
143.085500 6950.800000
145.101200 42591.200000
147.080500 4476.400000
147.116900 13507.200000
149.096100 36337.000000
151.111600 3710.800000
155.085600 3397.900000
157.101200 16801.700000
159.080800 2813.900000
159.116900 10114.400000
161.096200 3143.700000
161.132600 2007.300000
163.111900 3428.300000
169.101100 3955.900000
171.116800 10241.600000
173.096100 10019.100000
173.132400 6719.600000
175.111800 19540.000000
181.101400 2192.000000
183.116800 6650.100000
185.132500 4810.900000
187.111700 5415.700000
187.148600 1129.800000
189.127400 3732.100000
193.102100 1802.500000
195.116900 5607.900000
197.132400 4020.400000
198.104500 1297.300000
199.111900 2643.700000
199.148300 8004.100000
201.127400 1874.800000
207.116800 2747.000000
209.132500 5318.200000
211.112200 3963.100000
211.148300 6445.000000
213.127400 3130.000000
213.163800 5975.800000
215.142600 1178.700000
221.132600 2469.900000
223.148100 2653.200000
225.163700 2874.100000
227.143400 2033.400000
229.157900 1138.600000
233.132300 2002.800000
235.148600 2000.700000
237.163800 3272.400000
239.178600 1717.800000
247.147700 1480.600000
249.164100 2165.800000
253.158800 2782.500000
255.174200 1360.600000
265.194300 2590.200000
275.179900 3936.600000
277.195300 6873.200000
289.195800 1477.500000
293.189800 3455.500000
295.205600 10616.300000
311.200100 4052.200000
313.216300 24038.400000
335.201800 1444.300000
349.215700 1961.500000
379.262400 2530.500000
391.263800 2286.700000
408.289600 5830.700000
426.300300 38637.000000

>ms2
55.054100 2427.400000
57.069800 2952.900000
67.054200 68066.300000
69.033500 1041.200000
69.069900 4374.800000
70.065100 11187.000000
72.044300 1914.700000
79.054300 8653.000000
81.069900 60369.300000
82.065100 3264.200000
83.049200 16383.400000
84.080800 89533.300000
85.064800 45334.700000
91.054300 9891.300000
93.069900 26257.900000
95.085500 20737.000000
96.080800 22596.800000
97.064700 4049.200000
98.096400 11721.700000
99.044200 1748.500000
99.080600 1490.100000
100.075700 6430.900000
101.059600 3059.200000
102.091300 18175.600000
105.069900 32710.500000
107.085500 37548.000000
109.101200 187235.800000
110.096500 1981.300000
111.080300 1922.400000
112.075700 22984.100000
113.083700 1380.800000
114.091300 216863.600000
117.069900 5777.800000
119.085500 27718.500000
121.101200 53524.400000
123.080600 5912.900000
123.116700 3355.200000
124.112000 5522.200000
125.096000 3340.700000
126.127700 13595.900000
129.069800 4813.900000
130.077600 1306.000000
131.085500 18332.400000
133.064700 1435.800000
133.101200 27626.300000
135.080400 5803.200000
135.116900 5776.200000
137.096500 1794.600000
140.107000 5587.600000
141.069600 1138.800000
142.077500 2528.200000
143.085500 14276.700000
144.093000 1308.200000
145.101200 67017.700000
147.080600 9206.900000
147.116900 17640.600000
149.096100 53010.600000
151.111800 4197.600000
155.085600 5988.500000
156.093700 1951.100000
157.101200 32747.700000
159.080900 2123.900000
159.116900 18142.900000
161.096200 6880.900000
163.112100 3633.900000
167.085500 1409.700000
168.092600 1261.600000
169.101200 10171.600000
171.080300 2306.700000
171.116800 16308.500000
173.096200 15830.100000
173.132500 8370.900000
175.111800 32495.700000
181.101100 7555.200000
183.117000 9925.100000
185.096100 3644.600000
185.132600 5874.100000
187.111700 9383.300000
187.147900 1876.500000
189.127600 5557.700000
193.100900 3703.900000
195.116700 9774.500000
196.125300 1833.600000
197.095900 3561.600000
197.132500 6306.000000
198.103700 3576.000000
199.111800 4097.400000
199.148000 8922.800000
201.127700 3133.300000
201.163800 1645.500000
205.101800 1060.000000
207.116700 3205.000000
209.132400 7550.500000
211.111900 3712.200000
211.148100 8498.400000
213.127400 3665.000000
213.163800 9171.000000
219.117300 2458.600000
221.132600 5701.900000
223.148000 3850.300000
225.163700 3213.100000
227.142900 3398.500000
231.116300 1146.200000
233.132800 2395.200000
235.147700 6110.300000
237.163200 4567.800000
247.148000 1755.800000
249.164900 3038.700000
253.158700 3369.100000
260.156100 1640.900000
265.194500 3022.800000
275.179400 6102.300000
277.195000 8632.300000
293.190500 3918.900000
295.205700 8595.000000
313.216200 18470.000000
426.299900 16781.900000

>ms2
55.054100 2434.800000
57.069700 1774.300000
67.054200 62213.800000
69.033400 1599.400000
69.069800 4544.900000
70.065100 11328.400000
72.044500 2190.000000
79.054200 10549.500000
81.069900 50841.300000
82.065300 2862.200000
83.049200 14531.300000
84.080800 73059.000000
85.064800 39798.900000
91.054200 12110.100000
93.069900 24627.600000
95.085500 18756.800000
96.080800 20210.000000
97.064700 2645.700000
98.096400 7859.500000
99.043900 1688.500000
99.080500 1390.900000
100.075700 3248.800000
102.091300 9077.700000
105.069900 30602.100000
107.085500 32053.500000
109.101100 118869.500000
110.096600 1595.100000
111.080300 2150.100000
112.075700 17991.400000
113.083700 1201.600000
114.091300 148200.700000
117.069800 6607.800000
119.085500 28145.500000
121.064800 2828.000000
121.101100 45724.700000
123.080300 4672.300000
123.116800 1905.000000
124.112100 5800.300000
125.096400 1375.000000
126.127800 4891.000000
129.069600 4864.100000
130.077700 2251.700000
131.085500 17306.600000
133.064600 1411.000000
133.101200 22922.400000
135.080300 4221.600000
135.116700 3728.500000
137.096000 1511.100000
140.107100 3188.100000
142.078100 3556.100000
143.085600 13963.800000
145.101200 55202.200000
147.080400 7424.600000
147.116800 11139.900000
149.096100 33567.400000
151.111700 2755.600000
155.085500 6322.700000
156.093100 4088.700000
157.101200 29062.400000
159.080500 3254.600000
159.116800 13165.500000
161.096100 3755.000000
163.111800 2673.900000
167.085500 1881.800000
168.093700 1137.700000
169.101200 7786.800000
170.108300 1824.400000
171.080100 1346.600000
171.116900 14013.400000
173.096100 11372.700000
173.132300 6701.400000
175.111800 24589.400000
179.085900 1685.700000
180.093200 1104.900000
181.101100 4298.200000
183.117000 9099.800000
185.096300 2001.800000
185.132600 4663.600000
187.111800 5861.200000
187.148000 1291.400000
189.127400 5927.100000
193.101100 3471.700000
194.109100 1333.700000
195.116600 8068.400000
196.125100 1224.300000
197.096300 1537.200000
197.132800 5666.900000
198.104000 2855.500000
199.111800 2568.000000
199.148200 6820.800000
201.127300 1218.600000
201.163200 1181.000000
207.116600 2968.200000
209.132200 6701.700000
211.111500 2369.500000
211.148000 5111.200000
213.127300 2619.400000
213.164100 3368.800000
219.117800 1990.500000
220.125000 1427.100000
221.132800 4919.100000
223.148700 2845.600000
225.164200 1807.300000
227.144000 1306.200000
231.117000 1710.900000
233.132700 3047.000000
235.148100 3943.100000
237.163800 4203.700000
245.133300 1222.400000
246.140600 1283.300000
247.147500 3263.000000
249.164100 2527.600000
253.159200 1699.200000
260.157000 1424.000000
265.196000 1460.200000
275.179700 3939.700000
277.195100 4816.500000
293.189200 1487.100000
295.205400 5379.100000
313.216200 6584.100000
426.299300 2591.700000

>ms2
55.054100 2092.900000
57.069700 2105.000000
67.054200 48983.700000
69.069800 4301.400000
70.065100 9544.800000
72.044400 2041.100000
79.054200 10094.900000
81.069900 44256.200000
82.065000 1817.400000
83.049100 11028.100000
84.080800 54262.100000
85.064800 26102.000000
91.054200 10932.100000
93.069800 21453.400000
95.085500 12759.000000
96.080800 18368.800000
98.096400 5257.800000
100.075800 2821.800000
101.059600 1346.200000
102.091300 4517.200000
105.069800 31786.800000
107.085500 28692.200000
109.101100 67608.000000
112.075600 9514.200000
114.091300 91576.600000
117.069800 6560.900000
119.085500 20743.500000
121.064600 2467.800000
121.101100 31972.200000
123.080200 3955.400000
123.116600 1499.700000
124.112200 3296.200000
125.096100 1548.700000
129.070100 4684.000000
130.077600 2016.700000
131.085500 14185.000000
133.101200 15800.200000
135.080200 3050.600000
135.116800 2011.700000
140.106700 2393.800000
142.077700 5177.600000
143.085600 9902.400000
144.093300 2038.800000
145.101100 40278.200000
147.080300 4193.300000
147.116800 7606.800000
149.096000 19252.100000
151.111100 1518.400000
155.085500 5683.300000
156.092900 2560.800000
157.101100 22387.600000
159.116800 10696.000000
161.096200 2333.400000
163.112200 1658.600000
167.085400 2191.100000
169.101200 7486.500000
171.080900 1227.000000
171.116700 9731.900000
173.096100 7458.100000
173.132500 4004.900000
175.111600 12802.600000
179.085800 2555.700000
180.093800 1686.800000
181.101300 5976.100000
183.116600 5404.600000
185.095800 2179.600000
185.132400 2062.300000
187.111700 4308.900000
189.127400 3451.900000
193.100600 3093.300000
194.108700 2161.200000
195.116800 6629.500000
197.095600 1977.600000
197.132700 2248.100000
198.103800 1903.300000
199.148200 3005.500000
201.127300 1329.400000
207.117100 3064.500000
209.132100 4028.300000
211.111700 2188.900000
211.148100 2871.100000
213.163800 2741.900000
220.124800 1594.900000
221.132000 3103.600000
223.148700 2568.400000
225.164400 1126.600000
231.116900 1738.100000
233.132400 3395.200000
235.147800 3460.800000
237.163600 2061.900000
245.133000 2622.100000
246.139900 1391.000000
247.148500 2065.700000
249.163400 1802.700000
260.155000 1126.100000
277.194800 2229.900000
295.206800 2230.500000

>ms2
67.054200 43230.500000
69.069800 4024.000000
70.065100 6471.300000
72.044300 1349.700000
79.054200 10139.900000
81.057200 1747.900000
81.069900 31612.200000
82.064900 1569.600000
83.049200 8378.800000
84.080800 37548.900000
85.064800 16945.600000
91.054200 9543.900000
93.069900 15962.700000
95.085500 8395.800000
96.080800 14131.200000
98.096400 3123.700000
102.091300 2014.400000
105.069900 27854.400000
107.085600 19112.400000
109.101200 39027.000000
110.096000 1494.700000
112.075700 7989.400000
114.091400 58938.000000
117.070000 6596.000000
119.085500 15599.800000
121.101200 21694.400000
123.080300 2297.300000
123.116200 1154.500000
124.112000 1573.000000
129.069800 3822.900000
130.077500 2172.500000
131.085600 11072.700000
133.101200 11676.000000
135.080200 2481.900000
140.107300 1598.300000
141.070100 2392.600000
142.078000 4260.100000
143.085600 9338.200000
144.093200 1295.400000
145.101300 21870.200000
147.080500 2446.700000
147.116900 3682.600000
149.096200 9462.800000
155.085300 3938.900000
156.093300 2621.100000
157.101300 13324.900000
159.081000 1511.900000
159.116700 5702.600000
161.096800 1655.800000
169.101100 5186.500000
170.109700 1422.800000
171.116700 5791.600000
173.096400 4247.800000
173.132200 2349.700000
175.111800 8903.000000
179.085300 1931.200000
181.101400 3041.700000
183.116800 3553.400000
185.132300 1404.000000
187.111600 2114.200000
189.126400 2192.700000
193.101200 2324.200000
195.116400 2328.900000
196.125600 1477.100000
197.133100 1858.800000
205.101400 1314.000000
207.116800 2516.800000
209.132300 2063.300000
211.112000 1189.300000
213.163400 1347.900000
221.132700 1434.300000
233.132200 1857.100000
245.132900 1587.600000
246.140100 1058.800000

>ms2
67.054200 28830.400000
69.069700 2227.000000
70.065000 4220.000000
72.044400 1299.900000
79.054300 7573.800000
81.057200 1397.500000
81.069900 22377.100000
83.049200 5109.800000
84.080800 23764.100000
85.064800 10235.500000
91.054200 8313.500000
93.069900 12248.400000
95.085500 4831.100000
96.080700 8996.800000
98.096400 2015.600000
102.091300 1146.500000
105.069900 22182.600000
107.085500 11145.100000
109.101200 16744.300000
112.075700 3755.000000
114.091300 30785.400000
117.069900 3642.500000
119.085500 11494.800000
121.101200 10805.200000
124.112400 1311.100000
129.069800 4189.000000
130.077700 2745.500000
131.085600 8441.100000
133.101200 5834.800000
141.069800 1118.700000
142.077600 3040.300000
143.085600 4786.300000
145.101100 14239.300000
147.080500 1225.500000
147.116500 2462.700000
149.095900 3427.600000
155.085300 2900.000000
156.093100 1686.600000
157.101200 7517.000000
159.116800 2717.800000
167.085600 2456.400000
168.093200 1309.300000
169.101200 3064.300000
171.116700 3108.300000
173.095900 2333.200000
173.132300 1610.500000
175.111700 4022.100000
179.085800 1504.400000
181.101100 2322.400000
189.126600 1086.200000
193.101400 1365.900000
195.117400 2452.600000
205.101100 1152.200000
209.132100 1210.100000
233.133600 1257.800000

>ms2
55.054200 3378.800000
57.069800 4744.100000
67.054200 139856.400000
68.049400 2644.100000
69.033500 2930.500000
69.069800 16770.500000
70.065100 22988.400000
72.044300 6501.900000
77.038600 6546.300000
79.054200 55670.900000
80.049500 5616.300000
81.057300 9022.700000
81.069900 101940.300000
82.065100 6726.700000
83.049100 25931.800000
84.080700 126264.600000
85.064800 44333.600000
91.054200 63737.900000
93.069900 67026.900000
94.065100 4692.800000
94.077800 3306.400000
95.085500 24104.400000
96.080800 46753.100000
98.096400 7719.300000
100.075700 3002.700000
103.054400 4625.200000
105.069800 122579.600000
106.077700 2587.300000
107.049300 3005.900000
107.085500 51437.900000
109.064700 3475.700000
109.101100 67050.600000
110.096400 3253.900000
112.075700 21049.100000
114.091300 123015.300000
115.054100 4578.200000
116.061900 4212.100000
117.069800 32384.800000
119.085500 58380.800000
121.064700 7077.200000
121.101100 43771.300000
123.080300 7414.500000
124.111900 4600.800000
128.061900 11500.500000
129.069800 25482.100000
130.077700 21948.600000
131.085400 39165.400000
133.064500 2950.900000
133.101200 28606.000000
135.080300 4582.200000
140.107000 3439.000000
141.069700 9601.700000
142.077600 29192.200000
143.085400 30409.700000
144.092900 7082.800000
145.064600 6276.200000
145.101100 64483.000000
146.072000 1729.500000
147.080500 7716.100000
147.116800 4815.700000
149.096100 10553.000000
153.069800 5675.800000
154.077500 6781.400000
155.085400 17126.700000
156.093100 12601.300000
157.064700 2246.300000
157.101100 35146.400000
158.072300 6033.400000
159.080500 5233.800000
159.116800 10813.400000
160.088200 3735.100000
161.096400 1817.400000
165.069600 5822.500000
166.077600 2715.700000
167.085600 6357.800000
168.093000 6198.100000
169.101000 16647.100000
170.108200 4873.800000
171.079700 3106.400000
171.116700 11871.700000
173.096200 9444.000000
175.111700 15520.500000
178.077800 2927.000000
179.085700 10077.700000
180.093100 5476.100000
181.101100 12846.000000
182.109100 4058.900000
183.080800 3429.200000
183.116700 8563.600000
185.132100 4072.000000
191.085000 1582.500000
192.093000 3658.900000
193.101300 10104.200000
194.109000 6933.600000
195.116900 8864.600000
197.096500 3383.700000
197.132900 2565.800000
205.101200 4591.600000
206.109200 2724.900000
207.116900 5589.700000
208.125200 2584.200000
209.132700 3829.600000
217.101100 2884.200000
219.116900 7520.800000
221.132300 6436.700000
231.116600 4888.700000
233.132700 4244.900000
235.147500 2907.900000
245.132800 4279.600000
247.148300 6517.900000

>ms2
55.054100 3821.800000
57.069700 4886.800000
65.038400 1845.100000
67.054200 131468.700000
68.049400 2931.100000
69.033600 2700.700000
69.069800 14650.800000
70.065000 20233.900000
72.044400 8413.900000
77.038600 7944.000000
79.054200 60079.100000
80.049500 6808.200000
80.062200 1800.800000
81.057300 12168.200000
81.069800 92975.100000
82.065100 5871.200000
83.049100 21263.700000
84.080800 105997.300000
85.064800 33199.100000
91.054200 75702.700000
93.069900 65524.900000
94.064900 3589.400000
94.077600 2456.000000
95.048900 2383.800000
95.085500 19486.300000
96.080800 39246.800000
97.064900 2674.100000
98.096300 6348.100000
100.075700 1685.400000
103.054200 6063.100000
105.069800 121113.400000
106.077400 2534.500000
107.049300 3354.800000
107.085500 44417.300000
109.101100 42507.800000
110.095900 2237.400000
112.075700 13958.300000
114.091300 85195.900000
115.054100 7507.100000
116.061900 4568.300000
117.069800 32369.700000
118.077700 2763.600000
119.085500 47334.700000
121.064800 7141.600000
121.101200 27844.100000
123.080400 4597.800000
124.112100 2840.400000
128.062100 16177.700000
129.069900 27458.100000
130.077600 20834.100000
131.085500 31067.100000
133.064800 2207.300000
133.101200 21404.300000
135.080100 3086.400000
140.107000 2099.100000
141.069900 12668.400000
142.077600 31131.100000
143.085400 30108.000000
144.057000 2303.800000
144.093100 6390.400000
145.064800 4943.100000
145.101100 44644.200000
146.073100 2252.800000
147.080300 5468.400000
147.116900 5869.900000
149.096200 5835.100000
153.069800 4654.300000
154.077700 5767.200000
155.085500 18113.200000
156.093300 12539.600000
157.101000 28164.900000
158.072500 3798.200000
159.080400 4362.900000
159.116600 9073.800000
160.088400 3261.500000
161.095800 2885.300000
165.070000 9330.000000
166.077200 4660.200000
167.085300 9325.600000
168.093000 5051.100000
169.101000 15048.800000
170.108800 4434.300000
171.080500 3017.700000
171.116600 7248.600000
173.095800 6518.400000
175.111700 10718.000000
178.077800 3587.000000
179.085400 10772.500000
180.093300 6023.500000
181.101200 10615.100000
182.108800 3905.300000
183.080900 2372.300000
183.116600 7446.200000
185.132900 2102.500000
191.085600 2829.400000
192.093500 4134.000000
193.101200 10444.800000
194.109200 4242.500000
195.116800 7374.600000
197.095400 2040.700000
197.132000 3331.900000
204.094400 1823.600000
205.101100 6002.000000
206.109200 3159.800000
207.116900 6188.800000
208.124900 2607.400000
209.133500 3239.100000
217.101000 3668.100000
219.117200 4923.800000
221.132300 4456.500000
230.109700 1692.900000
231.116800 4516.300000
233.132300 4050.900000
235.148000 2826.400000
245.132100 5168.600000
247.149000 2223.500000

>ms2
55.054100 4148.900000
57.069700 3754.300000
65.038400 4004.900000
67.054100 107622.900000
68.049200 2739.300000
69.033400 2396.700000
69.069800 11368.200000
70.065100 15246.000000
72.044300 4752.300000
77.038600 8829.100000
79.054200 54465.700000
80.049400 6504.900000
80.062100 2112.000000
81.057200 12922.600000
81.069800 76104.200000
82.065200 3421.000000
83.049100 14572.900000
84.080700 83372.100000
85.064700 26545.200000
91.054200 74525.200000
93.069800 50001.300000
94.065200 3542.400000
94.077700 2750.700000
95.049300 2766.700000
95.085400 14449.900000
96.080700 29875.900000
98.096400 5251.900000
100.075800 1687.100000
103.054300 7744.700000
105.069800 110778.800000
106.077800 2027.500000
107.049000 2331.600000
107.085500 30317.500000
109.064600 4235.600000
109.101100 21928.200000
112.075700 9278.800000
114.091200 56099.800000
115.054100 8187.500000
116.062100 4684.300000
117.069800 26204.500000
119.085500 38973.900000
121.064800 6258.000000
121.101000 18553.500000
123.080700 3762.300000
124.112000 2714.800000
128.062000 17843.400000
129.069800 28235.100000
130.077600 23609.800000
131.085400 25083.800000
133.064200 2608.700000
133.101200 13642.600000
135.080100 2251.700000
140.107200 2324.000000
141.069800 15357.300000
142.077600 28042.100000
143.085400 22943.900000
144.056700 2500.800000
144.092900 5689.100000
145.064800 4478.200000
145.101000 26422.900000
146.072300 2676.600000
147.080200 5090.400000
149.096400 3495.300000
153.069700 7005.600000
154.077100 4909.700000
155.085400 16291.500000
156.093100 11423.300000
157.101000 16934.100000
158.072700 2749.200000
159.116500 3977.300000
160.087500 4091.800000
165.069800 9969.400000
166.077400 5204.000000
167.085600 7550.200000
168.093200 5077.300000
169.101200 12631.300000
171.116600 4276.200000
172.088100 2009.500000
173.096100 3692.700000
175.111500 6391.500000
178.077600 4932.700000
179.085500 9181.900000
180.093300 3963.000000
181.101100 9976.000000
182.109100 3118.100000
183.080600 1880.900000
183.116100 3909.100000
191.084700 2998.700000
192.093300 5349.500000
193.101000 7981.000000
194.109000 2433.500000
195.116500 6103.700000
197.132300 1985.200000
203.085700 2255.500000
205.101000 6017.600000
206.109000 2783.900000
207.116600 3897.300000
209.131900 2681.800000
217.101400 3594.600000
219.117200 3295.700000
230.109800 2204.800000
231.117000 3912.800000
233.132700 2393.500000
235.147500 1999.100000
247.147800 2821.900000

>ms2
55.054100 3730.800000
57.069800 2907.500000
65.038400 3289.700000
67.054200 80942.500000
69.033500 1578.800000
69.069800 10170.800000
70.065100 12844.900000
72.044300 4794.700000
77.038600 10158.900000
79.054200 44387.000000
80.049500 8124.500000
81.057300 10807.400000
81.069800 59532.900000
82.065100 4399.400000
83.049100 11009.600000
84.080700 66067.500000
85.064700 16058.400000
91.054200 68102.200000
93.069800 36479.900000
94.065100 3678.500000
94.077600 2269.800000
95.049000 1672.800000
95.085300 8853.700000
96.080700 22617.700000
98.096500 2620.100000
100.075600 1545.500000
103.054200 8022.100000
105.069800 91077.500000
106.077600 2815.900000
107.049000 2080.200000
107.085500 17619.000000
109.064700 1813.700000
109.101200 11219.100000
110.096400 1346.600000
112.075600 5571.600000
114.091300 32049.500000
115.054100 10035.500000
116.062100 5071.900000
117.069800 21685.000000
118.077700 1839.500000
119.085500 24860.400000
121.064600 3397.800000
121.101100 10400.200000
123.080600 1855.900000
124.111900 2779.400000
128.062000 16733.700000
129.069800 23336.800000
130.077500 16500.800000
131.049000 1490.400000
131.085400 17873.700000
133.064200 1790.200000
133.101100 9968.400000
135.080600 1700.500000
141.069800 13604.700000
142.077700 23858.200000
143.085300 17872.000000
144.056800 1877.200000
144.093000 3847.300000
145.064800 4915.500000
145.101100 16554.000000
146.072600 1892.000000
147.080500 2829.400000
147.117000 2036.000000
148.111800 1317.700000
149.096100 1337.600000
153.069700 6616.800000
154.077500 5655.900000
155.085400 13410.600000
156.093000 8326.700000
157.065300 1399.800000
157.101000 11188.000000
158.072500 2782.100000
159.080300 1910.800000
159.116400 2412.000000
160.087800 2324.600000
165.069700 9379.800000
166.077600 4059.700000
167.085500 8749.800000
168.093200 4950.100000
169.100900 7587.000000
171.116200 2022.500000
172.088000 1298.400000
173.095600 1785.200000
175.111800 3090.300000
178.077400 3409.600000
179.085400 10816.400000
180.093900 2791.100000
181.101000 6229.000000
183.080300 1613.900000
183.117100 3333.000000
191.085000 3391.700000
192.093300 3455.200000
193.101000 7412.200000
194.109800 1915.700000
195.116800 3008.000000
203.085300 1751.700000
204.092900 1448.300000
205.101300 5046.300000
206.109400 2534.100000
207.116300 3405.100000
217.101100 3985.700000
219.117700 2826.500000
221.132300 1387.500000
230.109900 1531.900000
231.117100 2272.300000
245.132400 3427.700000
247.147200 1974.500000

>ms2
55.054000 1655.000000
57.069800 1963.000000
65.038500 2247.400000
67.054200 58496.300000
69.033300 1792.700000
69.069900 8245.800000
70.065100 9672.700000
72.044400 3444.500000
77.038500 9602.300000
79.054200 38634.400000
80.049500 7026.400000
80.061800 1543.100000
81.057400 9032.600000
81.069800 40161.900000
82.065200 3321.500000
83.049100 9586.000000
84.080800 52587.400000
85.064700 11584.700000
91.054200 60371.000000
93.069900 26893.100000
94.065100 3144.700000
94.077500 1893.300000
95.049000 1513.400000
95.085500 6445.800000
96.080700 14130.000000
97.064600 1390.700000
98.096200 1661.600000
103.054100 5970.000000
105.069800 73259.400000
106.077800 2711.400000
107.049200 2264.000000
107.085400 13379.900000
109.101100 6138.500000
112.075500 3152.500000
114.091200 20038.000000
115.054100 11730.100000
116.062000 5131.500000
117.069800 18666.800000
118.077700 2616.100000
119.085500 20806.000000
121.064600 2743.200000
121.101100 4471.700000
123.080400 1436.700000
124.112600 1300.200000
128.062000 15513.100000
129.069800 20633.300000
130.077700 14036.000000
131.049500 1370.500000
131.085400 12839.100000
133.101300 5691.600000
141.069800 15504.600000
142.077600 20996.900000
143.085400 13175.900000
144.056600 1163.600000
144.093400 2694.400000
145.064900 3071.500000
145.101200 9445.800000
147.080500 2195.800000
148.111700 1227.800000
153.069900 6415.900000
154.077400 4489.500000
155.085500 10921.000000
156.092800 4714.500000
157.100800 6261.800000
158.072600 1538.400000
159.080500 1539.200000
159.117000 2148.200000
160.088100 2090.200000
165.069800 8371.600000
166.077600 3412.600000
167.085500 7070.900000
168.093400 3873.000000
169.101200 6657.200000
170.109100 1421.100000
175.112100 1673.200000
178.077600 3975.500000
179.085500 7678.100000
180.093100 3041.500000
181.101000 5489.200000
183.116400 1879.000000
191.085100 3591.100000
192.093100 3597.000000
193.101100 3830.900000
195.117200 2361.600000
203.084700 2183.400000
204.094000 1529.300000
205.100700 2807.900000
207.116600 2594.800000
217.101300 3030.300000
219.117100 1651.700000
231.116600 2033.800000

