>compound NA70865080
>parentmass 356.1855999999999
>ionization [M+H]+
>formula C21H25NO4
>rt 448.035000
>profile orbitrap
#smiles_iso COC1=C(C2=C(C[C@@H]3C4=CC(=C(C=C4CCN3C2)OC)OC)C=C1)OC
#smiles_can COC1=C(C2=C(CC3C4=CC(=C(C=C4CCN3C2)OC)OC)C=C1)OC
#inchikey AEQDJSLRWYMAQI-QGZVFWFLSA-N
#pubchem_id 969488
#mb_accession NA002459,NA002460,NA002461,NA002462,NA002463,NA002854,NA002855,NA002856,NA002857,NA002858,NA003234,NA003235,NA003236,NA003237,NA003238,NA003599,NA003600,NA003601,NA003602,NA003603

>ms2peaks
356.185000 456038.400000

>ms2peaks
192.101400 4921.100000
356.185200 1409154.600000

>ms2peaks
192.101500 27259.100000
356.185000 1339477.400000

>ms2peaks
165.091000 14838.200000
190.086200 3917.000000
192.101800 134291.200000
339.160200 1666.800000
341.161800 2321.000000
356.185500 1204198.000000

>ms2peaks
165.091000 60478.100000
190.086400 10079.500000
192.101800 348638.000000
339.159400 4696.500000
341.161600 4298.500000
356.185500 901595.400000

>ms2peaks
150.067500 16908.200000
151.075200 15748.400000
165.091000 359544.800000
175.075200 2530.500000
189.090800 6825.200000
190.086300 37046.100000
192.101800 1554853.000000
204.101800 10971.800000
205.109700 12626.200000
295.132800 2394.900000
296.141000 1746.700000
308.140300 17483.800000
309.113200 2144.000000
324.135800 4884.100000
324.158900 4858.300000
327.159200 9733.600000
339.159000 15275.000000
341.162200 23170.800000
356.185500 1415992.500000

>ms2peaks
133.065300 2042.900000
135.080500 2796.600000
136.052200 2572.500000
150.067500 39662.800000
151.075200 28665.000000
165.091000 496981.100000
175.075200 2562.300000
176.070500 3757.500000
177.078300 5784.700000
189.091100 12607.700000
190.086400 44839.700000
191.094800 3673.700000
192.101800 1951878.500000
204.101700 14342.400000
205.109700 19646.100000
293.117300 4370.000000
295.132000 3893.900000
296.139900 2311.400000
308.140500 19035.500000
309.111700 2661.900000
310.142800 2165.900000
312.136100 3627.000000
312.159900 2423.200000
322.144500 2606.100000
323.151500 2709.400000
324.136100 7403.300000
324.159400 7897.900000
326.138500 4706.500000
327.158700 9141.800000
339.159200 13327.200000
340.153200 13868.600000
341.162300 27105.600000
356.185600 748063.400000

>ms2peaks
105.069900 6270.100000
133.064800 5548.300000
135.080500 4482.100000
150.067600 63111.900000
151.075300 35108.500000
161.060000 2165.200000
165.091100 538517.500000
174.091200 2131.100000
175.075500 3676.800000
176.070800 6641.100000
177.078300 14139.600000
179.106700 2450.900000
189.091200 15571.500000
190.086500 46186.000000
191.094700 4105.600000
192.101900 2121536.500000
204.101800 15326.400000
205.109900 25580.600000
293.117500 10199.200000
296.141100 4072.300000
308.139400 18992.100000
309.112900 3667.900000
310.143600 4019.500000
311.150500 2499.600000
312.135200 3243.500000
312.159800 6816.200000
322.143800 7587.400000
323.151300 4565.300000
324.135800 7545.000000
324.159200 7615.900000
326.138400 7929.700000
327.158800 7749.900000
339.159200 8488.500000
340.154100 28452.400000
341.162300 21057.800000
356.185700 322681.200000

>ms2peaks
105.069800 12183.400000
133.064700 10883.600000
134.072500 6820.400000
135.080400 8720.700000
136.052100 4010.800000
148.075800 5526.500000
150.067500 100646.100000
151.075100 37453.100000
159.068200 2359.700000
165.091000 475965.900000
174.067100 3039.500000
175.075000 2970.900000
176.070800 12245.500000
177.078400 37169.000000
189.091100 15878.500000
190.086400 46068.800000
192.101800 2089482.600000
204.101800 14670.000000
205.109800 24883.600000
265.122500 2319.200000
281.117300 2697.300000
293.117400 12565.300000
295.133400 3693.100000
296.140100 5088.400000
298.143400 3102.400000
309.112100 5927.500000
310.143000 4328.200000
311.151100 2890.800000
312.136000 3473.900000
312.159400 9372.300000
322.143500 9598.900000
323.152000 4335.800000
324.134800 4881.700000
324.159200 8220.900000
326.138900 9527.600000
327.158000 2722.600000
339.158300 3181.700000
340.154100 33987.200000
341.161700 15410.600000
356.185500 113771.500000

>ms2peaks
105.069900 18716.200000
133.064900 14909.100000
134.072600 6604.300000
135.044100 3623.100000
135.080500 9611.800000
136.052000 4359.100000
148.075800 12569.800000
150.067600 102942.700000
151.075000 33623.600000
158.072500 1925.000000
159.068000 6290.300000
161.083300 2871.900000
164.083500 1933.200000
165.091100 338704.000000
174.067400 3190.200000
176.070700 29766.800000
177.078500 72329.700000
189.091300 11754.900000
190.086500 41739.900000
192.101900 1752779.100000
204.101800 8928.400000
205.109800 18636.000000
265.123000 3091.600000
281.117400 4435.200000
293.117500 11377.200000
296.140500 4066.900000
298.143700 4735.200000
309.112500 5528.700000
310.143500 3293.700000
311.151500 1862.400000
312.135100 2310.300000
312.159200 6531.800000
322.144000 10395.400000
324.135500 2762.000000
324.160200 5051.500000
326.139400 9666.300000
340.154400 34586.500000
356.185900 31940.800000

>ms2peaks
79.054200 3413.100000
103.054500 4053.300000
105.069900 30197.400000
107.049500 3206.900000
118.041500 2669.600000
120.057100 4985.400000
121.064700 7177.500000
122.072800 2220.000000
131.073000 11428.300000
133.064800 21764.900000
134.072500 16883.200000
135.044100 9530.000000
135.080400 16939.700000
136.051800 5617.000000
147.067800 3801.600000
148.075700 36733.600000
149.060100 2556.100000
150.067500 151248.800000
151.075000 38080.500000
158.073000 5841.900000
159.067800 18745.100000
160.075600 4533.600000
161.083300 5189.600000
164.083300 3885.000000
165.091000 326618.300000
174.067400 3945.500000
175.075000 2719.300000
176.070600 78176.200000
177.078400 175503.400000
189.079100 3188.200000
189.091200 9717.300000
190.086400 55341.600000
192.101800 2050362.400000
204.101800 10433.300000
205.110000 15376.800000
249.090300 2495.700000
264.115500 2472.200000
265.122500 4819.700000
280.133000 4286.000000
281.117600 5563.500000
293.116900 12821.600000
294.147700 2416.600000
297.112400 2425.300000
298.143800 7395.600000
308.129500 11602.600000
309.112500 5440.700000
310.144700 4139.100000
312.159700 8695.200000
322.143900 12911.900000
324.159900 5432.400000
326.139000 9558.100000
340.154500 37942.600000
356.185700 12385.100000

>ms2peaks
79.054200 6604.200000
91.054100 4101.100000
103.054100 8301.100000
105.069800 34817.700000
107.048900 5845.500000
118.041300 3851.600000
119.049300 2848.700000
120.057000 4765.500000
121.064700 10913.800000
122.072600 4135.400000
131.072900 24449.400000
133.064700 22708.300000
134.072500 21508.300000
135.044000 14450.300000
135.080300 14100.000000
136.051300 4318.300000
147.067900 8006.500000
148.075600 67906.400000
149.059700 4250.100000
150.067400 143233.100000
151.075100 31432.800000
158.072200 2056.200000
159.067800 31381.700000
160.075500 10551.400000
161.083300 9119.500000
164.106700 1866.400000
165.090900 220457.000000
174.055200 2073.500000
174.067800 5061.400000
174.091100 2600.100000
175.063000 2229.500000
175.074900 2714.300000
176.070500 141704.400000
177.078300 240547.600000
189.078600 2134.100000
189.090900 7006.400000
190.086300 53445.900000
192.101700 1780693.800000
204.101400 7610.100000
205.109800 11729.300000
250.097900 2106.200000
265.122200 4158.300000
275.130400 2228.000000
280.133000 5101.100000
281.117300 6197.800000
293.116900 10161.600000
294.148800 3494.800000
297.111900 2190.500000
298.143400 7300.000000
308.128600 10793.000000
309.112600 2442.700000
310.143700 4748.300000
312.159700 6408.100000
322.143400 11367.900000
326.138200 6256.600000
340.154000 28474.300000
356.186900 2424.000000

>ms2peaks
77.038700 1321.800000
79.054200 7197.500000
91.054300 4752.000000
103.054200 8762.700000
104.061900 2525.300000
105.069900 34270.000000
107.049100 5066.500000
118.041500 3712.100000
119.049000 3426.200000
120.056900 5489.600000
121.064700 11682.400000
122.072500 3216.800000
131.072900 45706.100000
132.057100 1289.600000
133.064700 19942.200000
134.072600 22181.700000
135.044100 15226.100000
135.080400 12251.000000
136.051800 3113.000000
137.059300 1639.200000
145.064700 1307.000000
146.060100 2600.200000
147.067900 12680.700000
148.075700 98486.000000
149.059500 5008.600000
150.067500 117522.700000
151.075000 22760.500000
158.072600 4341.400000
159.067900 40089.800000
160.075500 13402.300000
161.059100 1465.900000
161.083500 9239.000000
162.054700 2259.500000
164.082900 2276.900000
164.106800 1817.300000
165.091000 125254.200000
174.055200 2500.100000
174.067500 3721.100000
175.062800 2530.100000
175.075600 2666.300000
176.070600 176309.400000
177.078400 249996.900000
189.078400 2436.100000
189.090800 2414.400000
190.086400 37681.900000
192.101800 1148606.200000
204.102000 2136.200000
205.109800 4874.600000
221.096300 1247.800000
237.090800 1551.200000
249.090900 2055.700000
250.099300 2803.300000
263.107600 1275.300000
264.115200 1251.400000
265.121600 3482.000000
275.131400 1216.300000
278.116600 1267.100000
280.133600 3405.000000
281.117000 4924.500000
293.117000 5273.200000
294.148700 2385.900000
296.129300 2916.700000
297.111100 1924.900000
298.143900 4435.300000
306.111600 2012.300000
308.127900 4418.800000
309.112000 1517.700000
310.144600 3221.800000
312.159300 3819.800000
322.143500 7010.400000
324.123300 1943.400000
324.160700 1622.600000
325.131300 2252.600000
326.138400 4067.300000
340.154100 17060.900000

>ms2peaks
79.054300 8747.300000
91.054200 5146.700000
103.054200 7785.700000
104.062000 1782.700000
105.069800 31378.600000
107.049100 6991.400000
108.056900 1379.100000
118.041100 5549.800000
119.049200 3806.800000
120.057000 5847.200000
121.064700 12649.200000
122.072600 5535.500000
131.072900 65603.600000
133.064800 17046.400000
134.072600 19578.900000
135.044000 17205.100000
135.080200 7901.500000
136.051700 2706.300000
137.059900 1701.000000
146.060100 3550.400000
147.067900 16914.000000
148.051900 6251.400000
148.075700 124505.800000
149.059500 4063.100000
150.067500 92168.900000
151.075100 16650.700000
158.072700 3654.500000
159.067900 50097.700000
160.075500 16583.600000
161.083500 8047.900000
162.055100 1360.500000
164.084000 1412.500000
165.091000 80839.800000
174.054800 3028.500000
174.067100 1771.300000
174.091800 1351.100000
175.063000 3776.000000
175.075100 1536.100000
176.070600 213870.500000
177.078400 239464.000000
190.086300 30849.000000
192.101800 806120.900000
204.102000 1752.600000
249.091300 1488.300000
250.098900 1524.700000
251.106800 1662.600000
263.107600 1643.500000
265.121800 2802.100000
278.116600 1003.000000
280.133100 2885.200000
281.116800 2963.400000
293.115800 2405.700000
294.149900 1619.500000
296.128300 3002.200000
298.143900 3366.000000
306.111700 2893.800000
308.128000 2649.300000
310.106500 1943.200000
310.143700 2699.200000
312.160200 2671.700000
322.142600 3584.500000
324.122500 3486.100000
325.130300 2614.700000
326.138600 1083.700000
340.154300 8802.300000

>ms2peaks
77.038400 1228.100000
79.054300 8812.800000
91.054200 4964.200000
103.054300 9258.500000
104.062300 2911.900000
105.069900 23377.300000
107.049200 9836.200000
108.057300 1156.800000
118.041500 4695.600000
119.049200 4900.800000
120.057100 5512.400000
121.064800 13475.900000
122.072800 3909.900000
131.073000 84078.000000
132.057100 2019.400000
133.064900 11772.900000
134.072700 17391.000000
135.044200 15625.800000
135.080500 5324.900000
136.052200 2664.600000
145.065500 1775.300000
146.060300 4725.200000
147.068000 24926.700000
148.052100 7454.000000
148.075800 139212.000000
149.060000 4164.600000
150.067600 65394.100000
151.075400 9792.300000
158.073000 1873.000000
159.068000 53250.900000
160.075800 18472.400000
161.083600 7003.500000
162.055100 2572.100000
164.083200 1203.000000
165.091100 44620.600000
174.055200 4712.900000
174.067300 1757.100000
174.091500 1322.800000
175.063300 2599.800000
175.075800 1360.500000
176.070700 234767.700000
177.078500 206909.900000
189.078700 1966.800000
190.086400 24803.300000
192.102000 521712.800000
204.102300 1195.100000
221.096200 1154.500000
237.090800 2037.300000
250.099100 2376.300000
251.107500 1287.100000
275.131600 1135.200000
278.118500 1921.800000
280.133500 2130.300000
293.116400 1215.700000
294.113400 1684.100000
296.127900 2835.300000
298.143300 1739.000000
306.113900 1953.800000
308.129300 2072.900000
310.108300 1674.200000
322.144200 2045.800000
324.122500 4296.000000
326.139700 1198.800000
340.154300 3718.800000

>ms2peaks
77.038600 4440.000000
79.054200 21100.500000
90.046600 1685.500000
91.054100 12961.200000
93.069400 2019.300000
103.054100 22803.600000
104.061900 6180.400000
105.069800 43602.300000
107.049000 25121.300000
108.057100 2282.100000
115.053900 3337.500000
117.069900 1785.300000
118.041300 9460.200000
118.064800 5646.500000
119.049000 10480.100000
119.072800 3106.400000
120.056900 12758.500000
121.064700 33398.200000
122.072500 8560.300000
124.051600 2299.500000
130.065100 5896.800000
131.072900 249178.900000
132.056800 4591.000000
133.052300 2191.400000
133.064700 22733.200000
134.060000 3076.900000
134.072500 34489.600000
135.044000 41519.900000
135.080300 11137.700000
136.051300 4521.200000
137.060400 2576.000000
145.064300 2307.900000
146.060000 15095.100000
146.072700 2413.400000
147.067800 71904.100000
148.075600 347069.900000
149.047200 1989.400000
149.059500 13507.700000
150.067400 102601.000000
151.074900 19445.600000
158.072700 5002.700000
159.067800 105510.000000
160.075600 49005.100000
161.059700 2275.300000
161.083300 15895.500000
162.054700 6237.700000
162.091500 2895.500000
165.090900 66578.800000
174.054800 12085.100000
175.062500 6588.500000
175.075100 1690.300000
176.070500 560644.800000
177.078300 372314.500000
190.086100 39845.200000
192.101700 723287.500000
234.104000 2284.900000
235.074700 2218.700000
235.099200 2037.700000
236.106200 2724.300000
237.090500 2869.600000
249.091100 1783.500000
250.099200 3346.400000
252.101600 2717.800000
254.116900 2055.900000
264.101400 6939.000000
265.085800 2554.800000
278.118400 5118.300000
279.124300 2990.000000
280.097400 1850.300000
282.111300 3491.700000
294.111900 3047.600000
296.128400 5742.800000
306.113100 5724.500000
308.129100 2255.900000
324.122600 9259.800000

>ms2peaks
77.038700 5602.600000
78.046400 1688.500000
79.054200 22939.800000
90.046500 1928.800000
91.054200 17289.100000
92.062000 2890.700000
93.069900 2658.600000
95.049200 1853.000000
102.046500 1816.100000
103.054200 22633.400000
104.062000 8851.000000
105.069900 35389.600000
107.049100 29552.000000
108.057000 2375.100000
109.064500 2086.900000
115.054300 1963.000000
117.057600 1695.500000
118.041300 10553.600000
118.065100 9225.900000
119.049000 11190.700000
119.072900 7653.500000
120.056900 12342.200000
120.080800 2046.300000
121.064700 31874.700000
122.072600 7573.200000
130.065000 11198.300000
131.072900 271044.800000
132.057000 3954.900000
133.052400 2934.800000
133.064800 17395.300000
134.060200 5615.100000
134.072600 29749.900000
135.044000 40760.300000
135.080300 7042.900000
136.051700 3582.500000
137.059800 1362.500000
139.075300 1802.200000
145.065000 1669.700000
146.060200 13132.000000
146.073000 2255.500000
147.067900 74017.900000
148.075600 366648.800000
149.046700 2302.900000
149.059300 8852.900000
150.067400 87087.400000
151.074900 15892.500000
158.060400 3563.000000
158.072100 3014.700000
159.067900 85266.600000
160.075500 47992.400000
161.059400 3078.100000
161.083300 12461.900000
162.054900 7813.000000
162.091100 3704.500000
163.063100 3249.400000
165.090900 45596.700000
174.055000 12302.900000
175.062900 4594.000000
175.075300 1416.100000
176.070600 560643.600000
177.078300 280318.700000
179.086300 1694.900000
188.070900 1946.900000
190.086200 27342.300000
192.101800 444604.200000
195.080700 2597.600000
207.081100 2397.900000
219.080000 2937.700000
221.096300 1681.900000
223.075500 1750.600000
233.096200 1481.500000
234.104300 1767.900000
235.075800 3522.100000
236.107200 2834.900000
237.090800 2928.700000
238.099400 1467.100000
249.091000 2452.300000
250.099400 3251.600000
254.117700 1706.600000
264.102200 5857.000000
266.117700 3386.100000
278.116700 3952.900000
279.125000 1634.200000
282.113100 2115.000000
292.096800 2845.800000
296.127700 5059.800000
306.112100 4418.700000
308.128800 2512.000000
324.123300 4626.800000

>ms2peaks
77.038600 6305.000000
78.046400 3080.600000
79.054200 20012.500000
90.046400 3149.300000
91.054200 17076.200000
92.061900 1985.900000
93.069900 3242.300000
95.049000 1489.500000
102.046400 2354.800000
103.054200 20825.900000
104.062000 7541.900000
105.033500 2335.100000
105.069900 25413.800000
107.049100 30994.900000
108.057000 3053.100000
109.064700 1177.000000
115.054000 2781.200000
117.057200 1129.700000
118.041300 7718.900000
118.065100 12893.200000
119.049100 12000.800000
119.073000 8728.700000
120.057000 12906.200000
120.080700 2700.600000
121.064800 32386.000000
122.072600 5186.300000
124.051800 1983.000000
130.065100 14770.400000
131.072900 267448.900000
132.057000 2297.700000
133.052100 6690.400000
133.064600 11933.200000
134.060000 6597.200000
134.072600 22819.000000
135.044100 36707.300000
135.080300 5212.000000
139.075200 1154.400000
145.052300 1266.600000
145.064900 2052.300000
146.060000 16061.200000
146.073100 2022.000000
147.067900 74709.600000
148.051900 16087.500000
148.075600 319989.300000
149.046800 1921.400000
149.059500 9824.300000
150.067500 55608.900000
151.074800 9184.200000
158.059900 2468.700000
158.072800 3071.200000
159.067900 66171.900000
160.075600 41381.700000
161.059500 2199.800000
161.083300 9547.500000
162.055000 6304.500000
162.091100 1753.400000
163.063000 2697.300000
165.091000 26003.600000
174.055000 17500.600000
175.062700 4116.600000
176.070600 488512.400000
177.078300 193938.000000
179.086000 1850.200000
188.070500 1796.600000
190.086200 19451.200000
192.101800 241228.300000
195.080900 1399.000000
203.084900 1704.800000
207.080500 2608.900000
218.073000 1735.400000
219.080100 2199.800000
221.095900 3253.800000
223.076100 1694.400000
233.096100 1267.400000
235.075900 3505.200000
235.099000 1497.900000
236.107700 1834.900000
237.091000 2210.800000
249.090900 3248.800000
250.086100 2197.400000
250.098600 1983.600000
251.069900 1449.100000
252.102600 1379.000000
264.102100 4428.600000
265.085500 1057.900000
266.117200 1743.100000
278.117400 3197.600000
279.126100 1224.200000
292.095800 1934.900000
294.113500 2321.100000
296.128000 3387.200000
306.112500 3622.600000
324.123100 4047.300000

>ms2peaks
77.038600 5513.900000
79.054200 15106.600000
90.046200 2788.200000
91.054200 15396.300000
92.061800 2190.200000
93.069800 4237.800000
102.046300 2057.800000
103.054200 18238.100000
104.062000 7310.000000
105.033200 1757.500000
105.069900 21597.100000
107.049100 27342.200000
108.057200 1556.300000
109.064600 1780.700000
115.054200 3480.200000
117.056800 1426.000000
117.069800 1473.100000
118.041200 7766.300000
118.065100 19118.800000
119.049100 11220.200000
119.072900 9630.700000
120.056900 10113.200000
120.080500 2326.000000
121.064800 32554.700000
122.072500 4349.400000
124.051400 1768.200000
130.065100 20844.900000
131.072900 258398.100000
132.057000 2348.100000
133.052200 8592.200000
133.064700 7708.200000
134.060100 5590.000000
134.072500 17564.200000
135.044000 27641.100000
135.080200 2577.300000
136.051500 1565.300000
137.059300 1212.800000
145.065200 1380.800000
146.060000 18138.700000
146.072700 1442.200000
147.067800 68397.700000
148.051900 15400.000000
148.075600 280590.400000
149.046800 2006.500000
149.059500 10321.300000
150.067400 37506.000000
151.075000 5528.900000
158.060300 2630.600000
159.067800 46910.400000
160.075600 34084.000000
161.083400 8205.400000
162.054700 5833.300000
163.062500 1946.300000
165.090900 14816.600000
174.054900 23323.700000
175.063000 4188.800000
176.070500 429661.300000
177.078300 124039.900000
190.086300 10521.800000
191.085000 1749.500000
192.101700 133078.800000
195.080400 2093.200000
202.078200 1209.500000
203.084900 1448.800000
205.064700 1502.700000
207.080200 3207.400000
218.071700 1304.400000
219.080500 2014.600000
221.096600 1687.400000
223.074600 1347.100000
233.096700 2267.200000
235.075100 2176.400000
235.099300 1524.100000
236.106500 2543.100000
237.091500 2136.300000
249.091100 1536.500000
250.085600 1246.900000
251.070500 1517.000000
252.101400 1831.800000
263.094900 1155.200000
264.100600 2338.300000
278.116800 2083.800000
280.096200 1318.800000
282.112300 2557.600000
294.112000 1278.800000
296.129100 1624.500000
306.112700 3119.200000
324.122000 2882.600000

>ms2peaks
77.038600 5009.000000
78.046400 1870.900000
79.054200 12161.200000
90.046400 3299.900000
91.054100 15630.900000
92.062000 2071.300000
93.069800 3566.700000
102.046300 4954.400000
103.054100 16068.100000
104.062000 6767.800000
105.033300 1779.100000
105.069800 13361.600000
107.049000 24810.100000
108.056800 1415.700000
115.054200 3300.200000
117.057400 2021.200000
118.041200 4731.900000
118.065100 21945.800000
119.049200 10403.300000
119.072900 11821.100000
120.057000 6978.600000
120.080900 2174.900000
121.064700 26831.900000
122.072500 1434.700000
124.051700 1196.000000
130.065000 29792.800000
131.072900 217221.700000
132.056800 2318.400000
133.052200 10531.500000
133.064700 5997.700000
134.059900 5929.900000
134.072500 12243.600000
135.044000 19194.300000
135.080200 1808.600000
145.052500 1407.000000
146.060000 16183.500000
147.067800 57519.700000
148.075600 240470.900000
149.059700 7572.900000
150.067400 23604.500000
151.075100 3317.100000
158.059500 1629.600000
159.067800 25552.800000
160.075600 29389.000000
161.083400 3914.200000
162.054800 3049.300000
162.091900 1085.600000
163.062700 2034.300000
165.091000 9381.700000
174.054900 25159.000000
175.063000 2410.600000
176.070500 351141.900000
177.078200 73008.400000
190.085900 7074.800000
191.085000 1920.400000
192.101700 63906.000000
195.080000 1540.400000
202.076900 1562.400000
205.064900 1363.000000
207.080100 3105.100000
218.071800 2118.300000
219.080000 2397.100000
221.095700 1680.800000
223.075000 1384.700000
235.075300 2015.700000
235.099900 2031.500000
236.106400 2017.800000
237.091600 1218.200000
238.098300 1295.700000
252.101900 2015.600000
263.093800 1675.600000
264.101100 2639.200000
278.118100 1833.400000
280.095900 1420.600000

