>compound NA72121912
>parentmass 428.2279
>ionization [M+H]+
>formula C21H33NO8
>rt 478.650000
>profile orbitrap
#smiles_iso C/C=C(/C)\C(=O)O[C@H]1CC[N+]2([C@@H]1C(=CC2)COC(=O)[C@@]([C@H](C)OC)(C(C)(C)O)O)[O-]
#smiles_can CC=C(C)C(=O)OC1CC[N+]2(C1C(=CC2)COC(=O)C(C(C)OC)(C(C)(C)O)O)[O-]
#inchikey AABILZKQMVKFHP-LRBDFNDQSA-N
#pubchem_id 5458800
#mb_accession NA002474,NA002475,NA002476,NA002477,NA002478,NA002869,NA002870,NA002871,NA002872,NA002873,NA003249,NA003250,NA003251,NA003252,NA003253,NA003614,NA003615,NA003616,NA003617,NA003618

>ms2peaks
428.227200 448775.900000

>ms2peaks
428.227600 519222.000000

>ms2peaks
254.138600 2694.700000
338.160500 1781.200000
352.175000 2302.300000
410.216100 3609.000000
428.227400 431241.100000

>ms2peaks
119.073000 3245.900000
136.075600 4720.100000
138.091100 2432.000000
237.136000 1554.200000
254.138700 9833.900000
338.160100 6485.000000
352.175400 12870.900000
370.185800 2411.100000
410.217300 13955.500000
428.227900 318113.500000

>ms2peaks
119.072900 7589.200000
136.075600 13376.400000
138.091300 10437.600000
237.135400 5848.100000
254.138700 25112.200000
338.159800 13859.100000
352.175200 26000.900000
370.186100 3400.500000
410.217500 22563.000000
428.227900 155998.800000

>ms2peaks
55.054100 1531.700000
59.049000 1925.200000
83.048900 2297.400000
93.057300 7875.900000
94.065100 9889.500000
95.073400 1284.400000
106.065100 3261.000000
108.080700 4133.000000
111.067900 1157.000000
118.065100 6712.500000
119.072900 57121.000000
120.080700 47979.400000
121.088500 28469.900000
122.096300 9272.100000
134.096300 1622.300000
136.075600 81276.900000
137.083500 42242.300000
138.091300 77900.300000
152.106700 3085.900000
154.086300 5726.000000
178.250500 903.500000
218.117200 8919.900000
220.133100 6628.700000
222.112100 2074.400000
234.112900 4296.900000
237.135900 32561.100000
252.122600 3143.100000
253.130300 4445.200000
254.138500 188261.100000
270.134200 1072.900000
310.164500 2855.600000
324.181000 1670.000000
328.174500 4229.500000
338.159700 64689.200000
346.186000 4642.200000
352.175300 121006.100000
370.185600 15029.000000
410.217200 91128.100000
428.227600 263940.300000

>ms2peaks
55.054100 3428.200000
59.049000 2749.400000
80.049500 2884.800000
81.069700 1075.500000
83.049100 5049.500000
93.057300 16526.700000
94.065100 15799.000000
95.073000 1725.700000
106.065100 6547.900000
108.080600 5277.100000
109.088600 1372.700000
111.067900 3246.900000
118.065100 10422.700000
119.072900 76234.400000
120.080700 64856.600000
121.088500 27441.300000
122.096400 7535.900000
134.096300 1769.800000
136.075700 88246.200000
137.083500 73162.700000
138.091300 104839.300000
152.106800 2094.100000
154.086300 10665.100000
155.094500 1593.300000
156.101600 1409.200000
172.096700 2354.500000
178.250200 901.500000
190.123200 1752.700000
218.117300 12713.400000
220.133200 8590.100000
222.112400 3017.400000
234.112400 4508.900000
237.135900 31193.600000
252.122800 3283.400000
253.130600 3653.100000
254.138600 225903.800000
270.133500 3057.700000
310.164800 2278.100000
328.175000 4757.600000
338.159800 49630.600000
346.186200 6229.600000
352.175400 86694.400000
370.186100 8564.800000
410.217300 55283.200000
428.227800 84696.700000

>ms2peaks
55.054100 3404.600000
59.049000 3062.800000
80.049500 2122.200000
81.069700 1654.500000
83.049200 7623.000000
84.044400 1720.300000
93.057300 18266.300000
94.065200 18579.800000
95.072800 1230.700000
97.064900 1189.500000
106.065100 12499.000000
108.080800 6934.900000
109.064700 1624.700000
109.088600 1390.900000
111.067900 5785.700000
118.065300 6554.000000
119.073000 68811.200000
120.080800 59220.100000
121.088600 18908.100000
122.096600 4456.700000
124.075600 1079.300000
134.096800 1413.600000
136.075700 67950.200000
137.083500 81186.400000
138.091400 89692.700000
154.086300 12453.900000
155.094100 3128.100000
156.101700 1760.100000
172.097100 4517.800000
190.122300 2041.000000
218.117500 6662.200000
220.133300 8657.300000
222.112100 1285.000000
234.112100 3287.100000
237.136100 16984.100000
252.122100 2565.100000
254.138700 179768.800000
270.132600 2267.000000
324.181300 1094.100000
328.176000 3993.700000
338.160100 23574.900000
346.186200 3982.700000
352.175500 36482.500000
370.186800 1748.600000
410.217500 22035.800000
428.227900 18405.000000

>ms2peaks
55.054100 4079.600000
59.049000 2364.700000
80.049500 2619.400000
83.049200 6625.400000
84.044300 1262.900000
93.057300 15586.600000
94.065100 19503.500000
97.064500 1419.900000
106.065100 16176.500000
108.080800 6055.300000
109.064500 1172.400000
111.067800 10581.600000
118.065000 4838.100000
119.073000 53046.500000
120.080800 41525.400000
121.088700 12124.800000
122.096200 2446.000000
124.075700 1518.800000
136.075700 47496.200000
137.083600 61853.200000
138.091400 61795.200000
154.086300 10043.300000
155.094500 2352.600000
172.096800 7867.300000
218.117800 2982.600000
220.133300 5571.900000
234.112700 2043.000000
237.135900 8042.900000
252.121800 1486.200000
254.138700 93149.500000
270.133700 1609.700000
328.175300 2537.000000
338.159700 6912.300000
346.187200 1119.700000
352.175600 10653.700000
410.217400 5823.600000
428.227400 2778.000000

>ms2peaks
55.054000 2659.100000
80.049700 1810.100000
83.049200 4827.500000
93.057300 10695.300000
94.065100 16435.500000
106.065100 13801.300000
108.080700 4445.300000
111.067900 11022.600000
118.065200 2777.200000
119.073000 34447.800000
120.080800 27061.700000
121.088700 6177.600000
136.075700 27093.000000
137.083500 36675.500000
138.091300 34236.500000
154.086200 4948.200000
155.093700 1280.100000
172.097000 6284.400000
220.133400 3098.100000
254.138700 39454.100000
270.132500 1240.400000
338.160500 1478.600000
352.175700 1404.200000

>ms2peaks
55.054100 28204.100000
59.049000 9551.500000
67.054200 1305.500000
68.049400 7532.800000
69.069800 2561.300000
79.054200 6527.700000
80.049400 30230.500000
81.057200 4821.900000
81.069800 19918.200000
82.041300 2417.700000
82.065000 6255.500000
83.049100 58790.700000
84.044300 8529.700000
91.054100 4921.500000
92.049500 1960.300000
92.062000 1754.600000
93.057300 113237.900000
94.065000 201357.600000
95.072900 9087.700000
96.080600 5300.300000
97.064700 9031.700000
98.060000 1816.100000
106.065100 164045.700000
107.072700 2631.400000
107.085400 4330.300000
108.080700 49193.400000
109.064600 8041.000000
109.088400 5143.400000
110.059900 8227.400000
111.067800 120493.300000
112.075700 4854.700000
118.065000 40319.900000
119.072900 267214.400000
120.080700 209086.800000
121.088500 35465.600000
122.059600 2685.700000
122.096200 6184.600000
124.075600 12844.900000
126.091000 3358.600000
134.096600 3497.100000
136.075600 205164.000000
137.083400 278233.500000
138.091100 231382.400000
141.090900 20445.800000
148.111800 3333.900000
150.090600 1213.100000
152.106800 5021.000000
154.086200 52122.000000
155.093800 15874.600000
156.101500 4402.900000
172.096700 85664.400000
190.122400 5909.700000
192.139000 2347.900000
218.117400 8653.800000
220.133000 14792.600000
237.135600 6991.000000
254.138500 214021.100000
256.117700 8364.100000
270.133200 4515.200000
328.174700 3580.800000
338.158900 6561.800000

>ms2peaks
55.054100 24657.500000
59.049000 7766.400000
67.054100 2229.600000
68.049500 8462.400000
79.054200 6932.600000
80.049500 35783.300000
81.057300 4686.600000
81.069800 17546.400000
82.041200 1874.600000
82.065200 6709.800000
83.049100 58858.300000
84.044400 9715.200000
91.054200 6108.600000
92.049500 3335.200000
93.057300 108438.200000
94.065100 204891.100000
95.072900 6559.600000
96.044600 2260.200000
96.080800 5049.800000
97.064800 5186.300000
98.060200 1891.100000
106.065100 169075.000000
107.073000 3913.400000
107.085500 3330.500000
108.080700 51784.200000
109.064700 9109.100000
109.088400 3625.000000
110.060100 6352.600000
111.067800 119591.400000
112.075500 3027.500000
118.065100 45863.500000
119.072900 224408.700000
120.080700 178437.000000
121.088600 24916.800000
122.059500 2240.100000
122.096400 4197.100000
124.075600 11859.300000
126.091300 2452.100000
134.096100 2545.900000
136.075700 162904.700000
137.083400 194390.100000
138.091200 152687.100000
141.090900 20186.500000
148.111800 1762.400000
152.106900 3589.100000
154.086200 40744.600000
155.093900 11734.100000
156.102000 3386.300000
172.096800 83779.900000
190.122200 3168.600000
192.137900 1407.900000
218.117600 3458.600000
220.133000 7418.100000
237.136900 1690.200000
254.138500 97234.100000
256.117900 5446.100000
270.133300 2122.500000
328.175800 2103.200000
338.159700 1961.100000

>ms2peaks
55.054100 20672.200000
59.049000 5459.000000
67.054100 2356.200000
68.049400 8092.100000
69.069600 1847.000000
79.054200 5984.300000
80.049400 35004.800000
81.057300 4767.800000
81.069900 15930.400000
82.041500 1351.100000
82.065200 5592.600000
83.049100 44157.600000
84.044400 7911.900000
91.054200 6453.800000
92.049600 2563.700000
92.061800 1535.500000
93.057300 85859.300000
94.065100 183994.000000
95.049100 1892.400000
95.072800 5445.600000
96.044400 2648.000000
96.080700 3908.900000
97.064700 5209.200000
98.059900 1484.400000
103.053900 1652.400000
106.065100 150654.400000
107.072700 2621.600000
107.085600 3177.100000
108.080700 42478.000000
109.064700 6456.500000
109.088700 2941.900000
110.060000 7489.500000
111.067800 102255.200000
112.075700 3180.000000
118.065100 47121.000000
119.072900 167270.700000
120.080700 141644.700000
121.088600 11531.800000
122.060000 2748.900000
122.096400 2976.200000
124.075600 11520.000000
126.091100 1743.700000
136.075700 117116.400000
137.083400 119838.600000
138.091200 100928.600000
141.091000 15422.900000
148.112200 1546.900000
150.091500 1041.800000
152.106800 2096.900000
154.086200 26362.400000
155.093800 7161.600000
156.101700 1794.000000
172.096800 64319.000000
190.122700 1713.500000
218.116700 1697.700000
220.133500 3253.100000
254.138600 36922.000000
256.117400 2292.800000

>ms2peaks
55.054100 14744.600000
59.049000 4942.300000
67.054200 2092.600000
68.049400 8416.100000
69.069600 1375.700000
79.054200 6685.600000
80.049500 33106.900000
81.057300 4301.900000
81.069900 13033.900000
82.041400 1570.000000
82.065100 4562.700000
83.049100 36370.500000
84.044400 6055.600000
91.054200 6732.700000
92.049400 2998.700000
92.062500 1240.100000
93.057300 66343.200000
94.065100 151556.500000
95.048800 1114.800000
95.072900 4868.400000
96.080700 2929.200000
97.064800 2101.500000
103.054300 1612.000000
106.065100 128114.300000
107.073000 2334.300000
107.085500 2942.000000
108.080700 34996.500000
109.064800 4604.800000
109.088300 2479.500000
110.060000 5432.100000
111.067800 72581.300000
112.075400 3028.200000
118.065100 46502.500000
119.072900 116280.600000
120.080700 101269.000000
121.088500 6875.200000
122.096500 1869.500000
124.075600 9397.900000
136.075600 78157.900000
137.083500 66620.800000
138.091300 55387.800000
141.091000 9051.100000
154.086300 17363.400000
155.094200 3434.000000
172.096800 44982.100000
220.132100 1318.000000
254.138500 12737.900000

>ms2peaks
55.054100 11065.300000
59.049000 2797.100000
67.054200 1739.600000
68.049500 5476.400000
79.054300 6618.700000
80.049500 31712.500000
81.057200 3747.900000
81.069900 9040.600000
82.065100 4137.600000
83.049100 26572.200000
84.044400 5262.900000
91.054200 5881.500000
92.049500 2479.600000
93.057300 51662.500000
94.065100 118560.200000
95.072900 3273.300000
96.044800 1180.800000
96.080800 2354.000000
97.064700 1713.200000
98.060000 1293.700000
106.065100 87426.200000
107.073000 1347.300000
107.085600 2528.400000
108.080800 26290.100000
109.064900 1739.900000
109.089000 1385.300000
110.059900 4732.400000
111.067900 46433.100000
112.075600 2543.800000
118.065100 41391.900000
119.073000 79218.000000
120.080800 70341.100000
121.088500 2765.200000
122.059900 1312.100000
124.075700 5635.800000
136.075700 50897.700000
137.083500 30431.500000
138.091400 30058.500000
141.090700 4263.400000
154.086300 9453.200000
155.093800 1291.600000
172.096900 27657.600000
254.138800 3255.900000

>ms2peaks
55.054100 29984.200000
59.049000 7606.200000
65.038400 2520.400000
66.046300 3896.200000
67.041700 5464.200000
67.054200 6580.900000
68.049400 15250.800000
69.069700 3163.100000
77.038600 3294.600000
79.054200 19061.200000
80.049500 108307.100000
81.057200 9254.200000
81.069800 21569.000000
82.041200 3226.900000
82.065100 13930.100000
83.049100 57257.000000
84.044400 13237.700000
91.054200 19975.300000
92.049400 11826.900000
92.062000 2561.400000
93.057300 138092.600000
94.065100 296959.500000
95.049200 2991.100000
95.072900 6395.900000
96.044200 5319.600000
96.080800 4541.200000
97.064800 4395.000000
98.059900 2165.200000
102.054900 2796.700000
103.054300 3744.900000
106.065100 252547.100000
107.072900 4505.500000
107.085500 3756.600000
108.080700 64650.400000
109.064700 4207.000000
110.060000 13521.800000
111.067800 113204.200000
112.075600 4908.900000
117.057300 4273.800000
118.065100 139632.200000
119.072900 170932.200000
120.080700 178941.900000
121.088700 5008.900000
122.059800 5074.500000
122.096800 1538.000000
124.075600 14059.600000
126.091200 2026.200000
136.075600 115285.900000
137.083400 50553.600000
138.091300 52812.900000
141.091000 8157.100000
154.086200 19117.000000
155.094100 3306.300000
172.096800 64069.100000

>ms2peaks
55.054100 21381.200000
59.049000 8281.400000
66.046300 4716.800000
67.041500 5265.000000
67.054200 7752.600000
68.049400 15180.200000
69.069700 1458.300000
77.038600 3172.000000
78.033600 2488.200000
79.054200 17435.600000
80.049500 110327.000000
81.057300 8093.800000
81.069800 16933.200000
82.041200 1928.200000
82.065200 10800.000000
83.049100 44679.100000
84.044400 11829.200000
91.054200 20177.900000
92.049500 11599.100000
93.057300 112709.100000
93.070000 6290.300000
94.065100 246008.300000
95.049000 1915.700000
95.072900 4806.600000
96.044300 3678.300000
96.080800 4907.900000
97.064900 1631.700000
98.060000 1822.500000
102.054900 4137.300000
103.054200 4400.700000
104.049800 2612.000000
105.057500 1534.800000
105.069900 2221.500000
106.065100 209202.700000
107.072900 4077.900000
107.085600 2834.400000
108.080700 50656.500000
109.064500 3978.200000
110.060000 11840.100000
111.067800 79490.200000
112.075700 3458.900000
117.057300 3740.800000
118.065100 131976.500000
119.072900 126273.800000
120.080700 138676.700000
121.088600 3247.100000
122.060100 3028.400000
122.096100 1269.800000
124.075700 10665.400000
126.091600 1277.700000
136.075700 86821.800000
137.083400 22521.900000
138.091300 30994.800000
141.091000 4806.700000
154.086200 10382.100000
155.094300 1645.800000
172.096800 35340.000000

>ms2peaks
55.054100 15960.100000
59.049000 5352.900000
65.038500 2532.800000
66.046400 3851.000000
67.041600 3585.800000
67.054100 7921.100000
68.049400 10550.700000
69.069700 1425.700000
77.038600 4146.100000
78.033800 2101.400000
79.054200 15045.500000
80.049500 94179.600000
81.057400 7226.600000
81.069900 12084.700000
82.041300 2228.600000
82.065200 7408.500000
83.049100 28599.900000
84.044400 8040.700000
91.054200 16340.200000
92.049400 10715.200000
92.062100 1530.200000
93.057300 82246.500000
93.070000 5856.100000
94.065100 189054.700000
95.049200 1744.200000
95.073000 3973.300000
96.044300 3541.700000
96.080600 2987.600000
98.060000 1935.100000
102.055100 2095.500000
103.054100 3695.900000
104.049100 2203.900000
105.057100 1697.900000
105.069800 1301.000000
106.065100 160132.400000
107.072600 2737.300000
107.085800 1967.300000
108.044200 2281.000000
108.080700 39528.300000
109.064600 2088.300000
110.060100 8514.300000
111.067800 51908.600000
112.075500 2471.200000
117.057100 3816.500000
118.065100 120651.900000
119.072900 80662.800000
120.080700 99988.000000
121.088700 1226.900000
122.059800 1620.400000
124.075700 6439.200000
136.075700 59697.300000
137.083400 11423.700000
138.091200 16965.500000
141.091400 2472.000000
154.086300 5944.700000
155.093500 1711.700000
172.096800 19621.700000

>ms2peaks
55.054100 10449.400000
59.049000 3072.300000
65.038500 2134.200000
66.046300 3474.700000
67.041600 5270.200000
67.054200 5976.800000
68.049500 10306.700000
77.038600 3870.300000
78.033800 1852.000000
79.054200 13650.500000
80.049500 86660.600000
81.057300 5719.100000
81.069800 8064.400000
82.041400 1664.500000
82.065100 6273.700000
83.049100 20979.600000
84.044400 6467.500000
91.054200 16358.000000
92.049500 9588.400000
93.057300 65650.500000
94.065100 140897.200000
95.049100 2690.600000
95.072800 2658.800000
96.044100 3245.500000
96.080600 1733.400000
98.060200 982.500000
103.054100 3620.000000
104.049500 2131.300000
105.057300 1473.600000
106.065100 127917.900000
107.073000 2829.800000
107.085700 1102.400000
108.044000 2176.800000
108.080700 25971.800000
110.060000 6624.400000
111.067800 31456.700000
112.075600 2224.200000
117.057400 4117.600000
118.065100 103753.800000
119.072900 55447.500000
120.080800 70471.500000
121.088900 1091.100000
124.075600 4999.500000
136.075700 36724.300000
137.083400 6829.100000
138.091200 8952.300000
154.086500 3066.400000
172.096800 10942.800000

>ms2peaks
55.054100 8330.300000
59.049100 3313.200000
65.038600 1587.600000
66.046400 3234.600000
67.041600 3777.900000
67.054200 5674.600000
68.049500 5923.700000
77.038700 2385.300000
78.034000 2294.200000
79.054300 8419.500000
80.049500 61872.200000
81.057300 3616.900000
81.070000 4741.300000
82.065200 3824.600000
83.049200 11370.200000
84.044400 3119.900000
91.054300 14921.800000
92.049500 9980.200000
93.057400 38580.100000
93.069800 2347.300000
94.065200 82249.500000
95.049200 1300.000000
95.073000 1472.500000
96.044400 2569.200000
97.064700 1241.700000
102.054700 1654.200000
103.054300 2965.200000
106.065200 88350.300000
107.073200 2176.900000
108.080800 15760.600000
110.060200 4636.900000
111.067900 16786.400000
117.057500 3015.600000
118.065200 77889.900000
119.073000 27537.800000
120.080800 43309.400000
124.075500 2203.100000
136.075800 21285.600000
137.083400 2151.600000
138.091200 4097.400000
154.086500 2271.500000
172.096700 4287.600000

