>compound NA72684123
>parentmass 296.1644999999999
>ionization [M+H]+
>formula C19H21NO2
>rt 458.205000
>profile orbitrap
#smiles_iso CN1CCC2=CC(=C(C3=C2[C@H]1CC4=CC=CC=C43)OC)OC
#smiles_can CN1CCC2=CC(=C(C3=C2C1CC4=CC=CC=C43)OC)OC
#inchikey ORJVQPIHKOARKV-OAHLLOKOSA-N
#pubchem_id 10146
#mb_accession NA002506,NA002507,NA002508,NA002509,NA002510,NA002899,NA002900,NA002901,NA002902,NA002903,NA003274,NA003275,NA003276,NA003277,NA003278,NA003644,NA003645,NA003646,NA003647,NA003648

>ms2
265.122000 6069.700000
296.164500 323032.200000

>ms2
250.098600 3732.700000
265.122300 87315.900000
296.164500 989415.000000

>ms2
234.104200 3991.400000
250.098900 19106.800000
253.123100 3277.600000
265.122400 364141.800000
296.164600 894889.600000

>ms2
233.095900 1730.800000
234.104000 15244.400000
235.112600 2324.000000
236.083600 3459.000000
237.089900 1517.900000
250.098900 63874.000000
253.122100 8133.100000
265.122400 656279.100000
296.164700 551181.400000

>ms2
233.096300 3572.200000
234.104000 43198.600000
235.111900 2753.200000
236.083200 9022.600000
237.090900 4989.400000
250.099000 131636.000000
253.122300 7531.000000
265.122400 754936.400000
296.164700 236416.600000

>ms2
205.101600 1679.700000
221.096700 2988.800000
222.067500 2801.800000
222.103900 2037.400000
233.096000 15456.200000
234.103900 138768.300000
235.075100 5467.300000
235.111800 8122.300000
236.083200 29353.800000
237.090700 12726.000000
238.099400 2924.200000
249.091000 1245.100000
250.098800 335629.300000
253.122300 14213.100000
265.122200 1166435.400000
296.164500 139905.400000

>ms2
205.101400 6453.100000
206.072700 1807.200000
207.081000 1401.100000
218.072900 4282.600000
221.096200 5120.900000
222.067300 4732.200000
222.104100 4527.200000
233.096200 19970.700000
234.103900 192336.800000
235.075200 18030.600000
235.111800 10820.300000
236.083100 45116.800000
237.091000 11789.400000
238.098600 5703.400000
249.090900 2016.500000
250.098800 419968.900000
253.122000 12192.000000
265.122200 1015661.000000
296.164600 40185.000000

>ms2
190.077700 1909.700000
191.085100 3286.600000
202.077400 1719.600000
203.085400 4287.900000
205.065200 1637.500000
205.100800 11683.500000
206.072600 3578.500000
207.080500 4106.400000
218.072500 12059.900000
219.080400 7797.300000
220.087800 2397.100000
221.059700 2731.100000
221.096000 11984.100000
222.067200 5099.300000
222.103900 10549.500000
232.088900 2062.200000
233.096000 31225.900000
234.103700 251153.800000
235.075100 57445.400000
235.111600 12206.500000
236.082900 54876.400000
237.090700 12161.700000
238.098600 5671.900000
249.090700 3797.600000
250.098600 462465.800000
253.121700 7311.400000
265.122000 797570.100000
296.164300 9590.000000

>ms2
190.077700 3614.200000
191.085900 3814.100000
202.078100 3263.100000
203.085700 9534.600000
204.093600 3974.700000
205.064400 1628.500000
205.101300 16532.700000
206.072700 5714.900000
207.080800 7037.900000
218.072600 19019.000000
219.080500 16013.900000
220.088200 4097.400000
221.059800 7357.900000
221.096200 20798.300000
222.067700 4633.200000
222.104000 15428.100000
232.088100 4620.500000
233.096200 35163.600000
234.104000 277852.700000
235.075300 118598.600000
235.112000 11798.800000
236.083200 51736.700000
237.091000 9439.100000
238.098700 6053.900000
249.091200 8246.300000
250.098900 419362.900000
253.122400 4059.900000
265.122300 554350.200000
296.164300 1440.700000

>ms2
190.078000 5569.900000
191.085500 7942.500000
202.077900 4628.300000
203.085600 15918.600000
204.093400 5184.800000
205.064600 2359.500000
205.101300 23253.700000
206.072500 7052.100000
207.080500 14573.400000
218.072600 28359.000000
219.080500 34047.700000
220.088500 6360.600000
221.059500 13930.000000
221.096200 37520.100000
222.067100 4772.900000
222.104000 22138.700000
232.088900 4691.700000
233.096100 40272.200000
234.104000 282363.800000
235.075300 187105.800000
235.111800 9443.200000
236.083200 42924.000000
237.091000 5533.400000
238.098800 7439.300000
249.091200 17777.100000
250.098800 353016.200000
253.121300 2923.900000
265.122300 329298.500000

>ms2
128.061800 2819.400000
165.069700 2645.300000
178.077100 3720.400000
179.085500 16727.200000
189.069500 5243.800000
190.077600 18364.300000
191.085400 29502.400000
192.093400 4694.300000
193.064900 3434.500000
193.101100 4721.400000
194.072500 3124.400000
194.108600 4182.700000
195.080500 2566.500000
202.077500 10659.300000
203.085400 44523.100000
204.093200 14730.000000
205.064900 6436.100000
205.101100 39322.800000
206.072600 11845.400000
206.109300 2604.700000
207.080300 50360.100000
208.088600 4972.200000
215.085300 6683.100000
217.064600 13648.300000
218.072500 62258.700000
219.080300 100810.900000
220.088300 12857.700000
221.059500 39636.000000
221.096000 84827.700000
222.067200 7622.200000
222.103800 50711.300000
223.075700 5094.200000
231.080500 5630.400000
232.088300 13432.600000
233.096000 61448.400000
234.103800 447280.000000
235.075100 423356.600000
236.083000 53566.900000
237.091700 6061.100000
238.098600 10680.500000
249.090800 41428.400000
250.098600 459496.300000
265.122000 313847.300000

>ms2
128.062100 3331.100000
165.070000 3303.000000
178.077600 7701.200000
179.085600 32444.600000
189.069900 8884.700000
190.077700 26505.600000
191.085500 54294.700000
192.093400 7972.100000
193.065200 4130.500000
193.101100 8856.900000
194.072100 2154.000000
194.109000 5611.800000
195.080200 3576.800000
201.069000 1085.400000
202.077800 13538.400000
203.085500 59309.700000
204.093300 16039.500000
205.064600 10254.600000
205.101200 41665.100000
206.072600 11176.200000
207.080400 77806.100000
208.088300 4719.600000
214.077000 1879.100000
215.085400 8505.200000
217.064900 25523.000000
218.072600 66678.600000
219.080400 135422.600000
220.088400 14497.700000
221.059600 46052.900000
221.096000 93265.800000
222.067700 6111.300000
222.103900 46462.600000
223.075200 4401.700000
231.080700 10703.200000
232.088400 14661.400000
233.096100 55443.600000
234.103900 354422.600000
235.075200 461549.200000
236.083300 33991.600000
237.090900 4265.300000
238.098700 7790.900000
249.091000 50240.800000
250.098700 308749.300000
265.122200 147228.900000

>ms2
128.061900 5482.900000
165.069900 5970.800000
167.085400 1468.400000
177.069700 2463.200000
178.077600 12751.700000
179.085500 68206.300000
181.064000 1392.900000
189.069800 16666.500000
190.077700 34321.100000
191.085500 87895.100000
192.093200 8804.700000
193.064600 8265.800000
193.101200 16472.900000
194.072600 2205.200000
194.108900 6336.300000
195.080300 7068.800000
202.077700 18919.300000
203.085500 74321.900000
204.093300 20620.200000
205.064600 14977.400000
205.101100 38191.400000
206.072800 9582.100000
206.109500 2648.600000
207.080400 115439.300000
208.088600 5757.700000
215.085300 7861.900000
217.064800 35276.300000
218.072600 69042.700000
219.080400 179707.600000
220.088200 14798.300000
221.059600 54719.900000
221.096000 98700.500000
222.067600 4808.400000
222.103800 41804.100000
223.075300 7401.900000
231.080500 16715.400000
232.088300 9225.400000
233.096100 52668.800000
234.103800 276105.100000
235.075100 485827.100000
236.083300 20984.900000
237.091100 1665.100000
238.098500 6209.500000
249.090900 57511.900000
250.098700 194857.400000
265.122200 68278.200000

>ms2
128.062100 5548.500000
165.069900 10760.300000
167.085700 1987.200000
177.070000 2530.400000
178.077700 23243.800000
179.085600 111981.700000
180.093900 1521.800000
181.064700 2230.100000
189.070000 31085.500000
190.077800 43332.800000
191.085500 137880.500000
192.093600 11558.000000
193.064800 10985.900000
193.101200 24318.900000
194.072600 4213.500000
194.109000 6911.900000
195.080400 7001.200000
201.069700 1931.100000
202.077600 23449.400000
203.085500 92989.400000
204.093300 21861.600000
205.064800 20611.600000
205.101300 30197.200000
206.072600 8493.900000
206.109800 1897.500000
207.080500 156792.900000
208.088400 5017.500000
214.077700 2111.000000
215.085500 9636.400000
217.064900 48604.300000
218.072600 59365.500000
219.080500 193167.500000
220.088500 12412.000000
221.059700 52617.300000
221.096100 93061.600000
222.067600 4071.100000
222.103900 35907.400000
223.075400 7375.800000
231.080500 16795.800000
232.088300 7294.400000
233.059600 2670.300000
233.096200 50003.100000
234.103900 185214.800000
235.075300 446248.600000
236.083300 13360.000000
238.098500 4449.300000
249.091000 54088.600000
250.098800 116099.900000
265.122400 28473.700000

>ms2
128.062100 6270.300000
165.069900 17283.900000
167.086000 2213.200000
177.070000 3147.700000
178.077700 41035.000000
179.085500 153969.800000
180.093500 2401.200000
181.065000 2870.200000
189.069900 47848.000000
190.077700 46145.800000
191.085500 176367.800000
192.093300 13377.700000
193.064700 10598.800000
193.101200 28027.100000
194.072800 3208.400000
194.108500 4339.000000
195.080400 8882.600000
201.069800 2887.200000
202.077700 27212.000000
203.085500 100763.400000
204.093300 17611.400000
205.064600 20521.100000
205.101100 22555.400000
206.072600 7524.900000
206.108900 1946.600000
207.080400 168416.000000
208.088200 3501.100000
214.078000 3451.000000
215.085400 8030.000000
217.064700 50022.600000
218.072500 51198.900000
219.080400 174924.100000
220.088100 11332.900000
221.059600 49212.200000
221.096000 76783.300000
222.067400 2505.700000
222.103800 24622.400000
223.075300 6207.800000
231.080400 18707.100000
232.088100 6300.000000
233.060100 4362.100000
233.096000 42502.100000
234.103800 113370.400000
235.075200 348719.500000
236.082900 5192.000000
237.090700 1167.200000
238.098900 3141.100000
249.090900 45305.400000
250.098700 58061.600000
265.122000 9004.300000

>ms2
128.062200 6070.200000
153.069400 1792.000000
165.070000 29104.800000
166.077900 3918.000000
167.085700 4911.400000
177.070100 8943.700000
178.077900 82419.500000
179.085700 241459.200000
180.056900 1173.000000
181.064800 3250.500000
189.070100 87448.200000
190.077900 62345.000000
191.085600 262074.300000
192.093600 14685.400000
193.064800 19504.800000
193.101200 33744.600000
194.072800 4853.900000
194.109600 3658.800000
195.080500 12025.100000
201.069400 5060.100000
202.077800 50137.100000
203.085600 130219.500000
204.093500 16041.300000
205.064800 30549.400000
205.101300 22764.600000
206.072800 9851.600000
207.080500 199309.700000
208.088600 2416.000000
214.077800 2353.300000
215.085600 8887.000000
217.064900 60453.600000
218.072600 53538.700000
219.080500 180427.800000
220.052100 1779.800000
220.088600 10938.800000
221.059700 49944.700000
221.096100 71370.000000
222.104000 20334.800000
223.075500 5198.200000
231.080600 23685.400000
232.088700 4983.100000
233.060400 4623.700000
233.096200 42428.800000
234.104000 75919.900000
235.075400 310118.100000
249.091000 43073.900000
250.099000 35706.100000
265.122400 4906.200000

>ms2
128.062200 6750.100000
141.069400 1591.000000
152.062200 2454.300000
153.070300 1844.700000
165.069900 38764.700000
166.077600 3356.600000
167.085600 5571.800000
176.062300 1776.000000
177.070000 11758.900000
178.077700 118663.200000
179.085500 276075.900000
180.056800 1924.000000
180.092600 1544.800000
181.064800 3934.300000
189.069900 117723.400000
190.077700 66892.800000
191.085400 285097.100000
192.057800 1354.500000
192.093400 14239.200000
193.064700 22079.600000
193.101100 32827.000000
194.072300 3929.900000
194.109600 1753.700000
195.080200 9332.700000
201.069900 4432.000000
202.077600 59429.800000
203.085400 129369.300000
204.093400 15108.700000
205.064600 31254.000000
205.101100 18537.400000
206.072700 7587.300000
207.080300 178883.500000
208.088900 2264.800000
214.078200 2537.200000
215.085500 8404.500000
217.064700 50832.800000
218.072500 44074.200000
219.080300 136849.400000
220.052000 1796.300000
220.088400 7756.100000
221.059500 39848.200000
221.096000 54731.000000
222.104000 13038.800000
223.075400 4143.600000
231.080400 22630.600000
232.087700 2783.000000
233.059400 6818.500000
233.096000 32275.700000
234.067400 3519.000000
234.103800 40178.800000
235.075100 218128.200000
249.090800 31046.500000
250.098700 14664.000000
265.122400 1533.100000

>ms2
128.062100 6210.100000
141.070100 3062.800000
152.062300 4091.100000
153.070200 3717.600000
164.062200 1438.100000
165.070000 44348.300000
166.077400 4047.400000
167.085700 6075.700000
176.062600 2962.100000
177.070100 17583.100000
178.077800 169803.200000
179.085600 283520.000000
180.057100 2981.700000
180.094100 1709.200000
181.064900 2303.400000
189.070000 139497.000000
190.077800 77165.500000
191.085600 301232.200000
192.056600 1901.300000
192.093300 11186.300000
193.064800 20731.800000
193.101200 27742.700000
194.072800 2614.800000
194.109000 1299.800000
195.080600 8179.400000
201.070000 8623.400000
202.077800 75224.400000
203.085500 120774.600000
204.093400 11783.300000
205.064700 31868.100000
205.101200 13681.400000
206.072800 8052.600000
207.080400 143988.100000
208.089000 1396.500000
214.077200 3180.700000
215.085600 8703.700000
217.064800 42161.500000
218.072600 39687.700000
219.080500 92774.400000
220.052700 3242.200000
220.088300 7008.900000
221.059700 32264.200000
221.096100 35950.100000
222.103700 5188.300000
223.075800 3247.500000
231.080400 19699.900000
232.088300 2729.600000
233.060100 6152.800000
233.096000 25242.900000
234.067500 4210.900000
234.104000 18195.400000
235.075300 141258.100000
249.090900 19461.200000
250.099100 5553.200000

>ms2
128.062100 5446.600000
141.069800 3132.300000
152.062000 4609.500000
153.070000 4972.000000
164.062300 1465.500000
165.070000 55389.000000
166.077600 3203.200000
167.085700 5589.100000
176.062200 3334.200000
177.070000 20846.100000
178.077800 209062.600000
179.085600 261835.200000
180.057100 2957.800000
181.064800 4119.100000
189.069900 156252.900000
190.077800 83637.600000
191.085500 279989.000000
192.056900 2565.900000
192.093400 8797.400000
193.064800 20512.300000
193.101200 23989.300000
194.072200 3323.800000
195.080700 5933.800000
201.069900 8379.500000
202.077700 87973.100000
203.085500 106419.400000
204.093100 7654.200000
205.064700 31968.700000
205.101100 10327.600000
206.072400 8312.800000
207.080400 112760.700000
214.078000 1816.000000
215.085300 6920.900000
217.064700 32268.800000
218.072600 33835.300000
219.080400 57597.600000
220.051800 3939.100000
220.088000 4592.400000
221.059700 21450.200000
221.096000 22825.600000
222.103900 3719.500000
231.080500 15218.300000
232.088100 1491.900000
233.059500 4298.000000
233.095900 16765.500000
234.067400 3988.400000
234.103900 8652.600000
235.075200 80356.800000
249.090900 12202.300000
250.099200 1587.800000

>ms2
128.062100 4158.700000
141.070000 4608.600000
152.062200 8430.900000
153.070100 6076.600000
164.062200 3230.000000
165.070000 61389.500000
166.077600 3053.900000
167.085600 5138.300000
176.062500 5841.200000
177.070000 20587.300000
178.077700 254380.500000
179.085600 228609.200000
180.056800 2272.900000
181.064600 3416.700000
189.069900 168918.300000
190.077800 91012.900000
191.085500 244441.300000
192.056600 2105.300000
192.093300 8601.200000
193.064700 17589.400000
193.101100 21534.200000
194.072500 2636.100000
195.080300 5885.400000
201.070000 9782.000000
202.077700 101790.000000
203.085500 84560.300000
204.093300 8125.700000
205.064600 26921.300000
205.101300 6811.200000
206.072500 7972.200000
207.080400 76837.400000
215.085400 5981.600000
217.064700 21930.800000
218.072500 27590.400000
219.080400 39921.100000
220.051700 3193.700000
220.087700 5158.000000
221.059500 15145.700000
221.096000 12015.000000
222.103900 1517.200000
231.080200 11639.900000
233.059900 2598.100000
233.095800 9955.300000
234.067600 3496.900000
234.104200 2443.900000
235.075300 48535.600000
249.090900 5149.000000
250.098500 1020.800000

