>compound NA74404655
>parentmass 295.1904
>ionization [M+H]+
>formula C17H26O4
>rt 697.813846
>profile orbitrap
#smiles_iso CCCCCC(CC(=O)CCC1=CC(=C(C=C1)O)OC)O
#smiles_can CCCCCC(CC(=O)CCC1=CC(=C(C=C1)O)OC)O
#inchikey NLDDIKRKFXEWBK-UHFFFAOYSA-N
#pubchem_id 3473
#mb_accession NA002606,NA002607,NA002608,NA002609,NA002610,NA002994,NA002995,NA002996,NA002997,NA002998,NA003739,NA003740,NA003741

>ms2
295.190300 4859.400000

>ms2
85.028400 1195.600000
221.117100 3981.200000
295.190300 20714.400000

>ms2
85.028300 2106.900000
221.117400 4595.500000
239.127600 2552.200000
295.190000 11471.500000

>ms2
85.028400 3490.000000
221.117100 7123.500000
239.128300 2451.100000
295.190500 5182.600000

>ms2
85.028100 3281.200000
221.117200 7265.400000
239.127500 2159.100000

>ms2
85.028300 7001.100000
101.023300 5327.000000
133.101800 1355.500000
139.111700 3316.100000
175.111700 4455.500000
179.106000 1085.000000
193.122500 5942.400000
221.117100 14471.800000
239.127700 3216.500000

>ms2
85.028400 5034.300000
101.023400 5674.900000
121.101500 1989.800000
139.111900 3946.800000
165.054800 1402.200000
175.112000 4683.000000
179.106300 1202.000000
193.122300 5032.000000
221.117100 11804.500000
239.128000 2883.200000

>ms2
85.028500 3573.100000
101.023300 5791.400000
139.111900 2531.600000
175.111700 4636.400000
193.122000 4181.700000
221.117000 5027.300000

>ms2
85.028400 2989.400000
101.023300 4077.000000
121.100800 1371.500000
133.101100 1779.400000
137.059900 1577.700000
139.111300 1452.900000
175.112000 2584.800000
193.123000 2190.400000
221.117200 2412.700000

>ms2
85.028400 1340.300000
101.023200 3233.800000
137.059300 1058.900000
165.054400 1206.200000
175.111500 1814.800000
193.122100 1594.600000

>ms2
73.028400 2287.600000
101.023100 2032.000000

>ms2
73.028500 1630.900000
101.023200 1202.100000

>ms2
73.028500 1269.800000

