>compound NA78945962
>parentmass 784.4168
>ionization [M+H]+
>formula C45H57N3O9
>rt 873.360000
>profile orbitrap
#smiles_iso CC(C)[C@@H]1C(=O)N([C@H](C(=O)O[C@@H](C(=O)N([C@H](C(=O)O[C@@H](C(=O)N([C@H](C(=O)O1)CC2=CC=CC=C2)C)C(C)C)CC3=CC=CC=C3)C)C(C)C)CC4=CC=CC=C4)C
#smiles_can CC(C)C1C(=O)N(C(C(=O)OC(C(=O)N(C(C(=O)OC(C(=O)N(C(C(=O)O1)CC2=CC=CC=C2)C)C(C)C)CC3=CC=CC=C3)C)C(C)C)CC4=CC=CC=C4)C
#inchikey GYSCAQFHASJXRS-FFCOJMSVSA-N
#pubchem_id 3007984
#mb_accession NA002571,NA002572,NA002573,NA002574,NA002575

>ms2
244.133900 1523.800000
784.416900 42358.600000

>ms2
244.133200 23222.900000
262.143800 13196.100000
522.038900 2003.100000
623.335400 1265.100000
784.418300 33799.000000

>ms2
134.096400 2239.200000
244.133300 52000.800000
262.144000 33012.000000
362.195700 1517.700000
521.977800 2408.900000
522.037300 1670.900000
523.281400 3982.000000
623.334200 4030.200000
784.416800 7509.100000

>ms2
134.096400 6853.300000
234.149400 1983.800000
244.133100 40561.800000
262.143700 24772.900000
362.195000 2360.100000
521.978000 1846.800000
522.040200 2622.800000
523.279700 4083.700000
623.338600 1493.500000

>ms2
134.096300 10766.400000
234.149000 2144.100000
244.133100 23726.500000
262.143800 12989.700000
362.195700 3303.500000

