>compound NA80580637
>parentmass 175.1229999999999
>ionization [M+H]+
>formula C11H14N2
>rt 47.667273
>profile orbitrap
#smiles_iso CN(C)CC1=CNC2=CC=CC=C21
#smiles_can CN(C)CC1=CNC2=CC=CC=C21
#inchikey OCDGBSUVYYVKQZ-UHFFFAOYSA-N
#pubchem_id 6890
#mb_accession NA000787,NA000789,NA000791,NA000917,NA000919,NA000921,NA001045,NA001047,NA001049,NA001172,NA001174,NA001176,NA001294,NA001296,NA001298,NA001424,NA001426,NA001494,NA001554,NA001556,NA001558,NA001684,NA001686,NA001688,NA001804,NA001806,NA001808,NA001922,NA001924,NA001926,NA002038,NA002040,NA002042

>ms2peaks
130.065200 36656.300000
175.122800 1836.400000

>ms2peaks
130.065100 40737.900000

>ms2peaks
130.065200 47122.600000

>ms2peaks
130.065000 43921.500000

>ms2peaks
130.065100 54821.300000

>ms2peaks
130.065100 66509.200000

>ms2peaks
130.065100 420780.000000

>ms2peaks
130.065100 400262.200000

>ms2peaks
130.065100 306080.000000

>ms2peaks
130.065100 420780.000000

>ms2peaks
130.065100 400262.200000

>ms2peaks
130.065100 306080.000000

>ms2peaks
103.054200 2668.300000
130.065200 369876.000000

>ms2peaks
103.054300 7025.600000
130.065200 284297.900000

>ms2peaks
103.054400 16970.200000
130.065300 213432.400000

>ms2peaks
103.054200 2668.300000
130.065200 369876.000000

>ms2peaks
103.054300 7025.600000
130.065200 284297.900000

>ms2peaks
103.054400 16970.200000
130.065300 213432.400000

>ms2peaks
103.054300 4678.600000
130.065200 370537.200000

>ms2peaks
77.038700 1951.500000
103.054300 16808.200000
128.049800 3083.100000
130.065200 327171.800000

>ms2peaks
77.038700 7270.000000
103.054300 35060.300000
128.049800 3131.500000
130.065200 254783.500000

>ms2peaks
77.038700 13818.500000
103.054300 57989.600000
105.044700 3593.400000
128.049700 7008.800000
130.065200 296147.800000

>ms2peaks
77.038700 28404.200000
102.046900 2390.100000
103.054300 80290.900000
105.044900 5700.300000
128.049600 8982.800000
130.065200 212905.500000

>ms2peaks
77.038700 39319.700000
102.046500 3689.100000
103.054300 82652.900000
105.044800 11102.700000
128.049600 7208.300000
130.065200 130851.300000

>ms2peaks
77.038700 22940.400000
102.046600 2410.800000
103.054300 89020.000000
105.044900 5597.600000
128.049600 8281.100000
130.065200 286319.900000

>ms2peaks
77.038700 46901.700000
102.046600 3031.700000
103.054300 96828.200000
105.044800 9873.600000
128.049600 9656.200000
130.065200 198995.600000

>ms2peaks
77.038700 61983.000000
102.046400 3172.900000
103.054300 96343.600000
105.044800 13877.300000
128.049600 8942.100000
130.065200 121200.200000

>ms2peaks
77.038700 22940.400000
102.046600 2410.800000
103.054300 89020.000000
105.044900 5597.600000
128.049600 8281.100000
130.065200 286319.900000

>ms2peaks
77.038700 46901.700000
102.046600 3031.700000
103.054300 96828.200000
105.044800 9873.600000
128.049600 9656.200000
130.065200 198995.600000

>ms2peaks
77.038700 61983.000000
102.046400 3172.900000
103.054300 96343.600000
105.044800 13877.300000
128.049600 8942.100000
130.065200 121200.200000

>ms2peaks
77.038700 22940.400000
102.046600 2410.800000
103.054300 89020.000000
105.044900 5597.600000
128.049600 8281.100000
130.065200 286319.900000

>ms2peaks
77.038700 46901.700000
102.046600 3031.700000
103.054300 96828.200000
105.044800 9873.600000
128.049600 9656.200000
130.065200 198995.600000

>ms2peaks
77.038700 61983.000000
102.046400 3172.900000
103.054300 96343.600000
105.044800 13877.300000
128.049600 8942.100000
130.065200 121200.200000

