>compound NA81501871
>parentmass 412.23300000000006
>ionization [M+H]+
>formula C21H33NO7
>rt 445.440000
>profile orbitrap
#smiles_iso C/C=C(/C)\C(=O)O[C@H]1CCN2[C@@H]1C(=CC2)COC(=O)[C@@]([C@H](C)OC)(C(C)(C)O)O
#smiles_can CC=C(C)C(=O)OC1CCN2C1C(=CC2)COC(=O)C(C(C)OC)(C(C)(C)O)O
#inchikey QHOZSLCIKHUPSU-LPLKQDONSA-N
#pubchem_id 5281735
#mb_accession NA002295,NA002296,NA002297,NA002298,NA002299,NA002692,NA002693,NA002694,NA002695,NA002696,NA003074,NA003075,NA003076,NA003077,NA003078,NA003439,NA003440,NA003441,NA003442,NA003443

>ms2peaks
120.080400 2042.200000
220.133200 1725.600000
336.179300 963.100000
412.232900 229341.600000

>ms2peaks
120.080600 18638.900000
220.133000 50659.100000
238.143600 3263.300000
336.180600 30354.800000
394.222600 5629.900000
412.232800 563842.900000

>ms2peaks
120.080800 89175.700000
220.133200 218015.300000
238.143900 18710.900000
254.137900 1455.700000
322.165400 2361.200000
336.180600 111880.300000
394.222400 15072.000000
412.233200 459953.700000

>ms2peaks
120.080800 282109.700000
138.091200 3649.300000
157.085900 2331.200000
220.133200 419022.500000
238.143800 43850.100000
254.138200 4984.800000
312.180500 3334.700000
322.164900 6580.400000
336.180600 234780.100000
394.222700 17287.300000
412.233200 266677.100000

>ms2peaks
120.080800 481451.400000
138.091400 7290.000000
157.085700 1946.200000
220.133300 393926.200000
238.144000 57626.200000
254.138600 6917.000000
312.180400 4567.400000
322.164600 7390.800000
336.180900 200365.600000
394.222800 11056.800000
412.233500 83376.800000

>ms2peaks
55.054100 3061.600000
59.049000 10865.800000
83.049100 5264.000000
89.059700 1516.200000
93.070000 1926.900000
94.065200 2282.000000
97.064800 3147.800000
108.080900 2351.700000
120.080800 986848.400000
121.088900 4143.200000
136.075700 2275.600000
138.091300 22824.000000
152.106800 1809.100000
156.102200 1441.200000
157.086100 2601.800000
218.117900 2254.400000
220.133300 386725.900000
222.112000 2798.800000
236.128100 6833.300000
238.143900 106017.100000
252.159400 1519.800000
254.138700 14581.900000
294.170800 2075.300000
312.180600 4596.700000
322.165400 11031.200000
336.180600 198219.300000
394.223200 5422.500000
412.233300 35354.900000

>ms2peaks
55.054100 4769.200000
59.049000 14162.600000
83.049100 7629.000000
89.059600 1682.800000
93.069900 2442.600000
94.065200 7854.700000
97.064900 4348.100000
108.080700 4062.200000
118.064600 1535.400000
120.080700 1127811.500000
121.088600 11129.900000
136.075900 2162.700000
138.091300 44921.800000
152.107000 1625.200000
156.101800 3315.100000
157.085800 3583.700000
218.117800 2184.500000
220.133200 216828.400000
222.112300 2427.200000
236.128200 8043.900000
238.143700 108300.500000
252.159800 1194.300000
254.138500 11168.300000
294.169000 2245.800000
312.180800 3002.400000
322.164400 4799.800000
336.180600 96325.400000
394.222400 2669.500000
412.233600 6033.900000

>ms2peaks
55.054000 5533.000000
59.049000 15430.000000
80.049500 2435.700000
83.049200 10609.700000
89.059900 2056.900000
93.069900 4420.000000
94.065100 13343.800000
97.064700 5557.600000
103.054300 2757.100000
108.080800 9742.100000
118.065100 2540.700000
119.072800 2178.500000
120.080700 1118685.100000
121.088500 20338.200000
122.096300 1124.300000
136.075800 2771.500000
138.091300 57365.300000
152.106900 2005.900000
156.102000 6292.900000
157.086100 1493.400000
218.116600 1497.800000
220.133200 82383.600000
221.140900 15401.800000
222.112800 2583.600000
236.128000 6339.000000
238.143700 98459.200000
252.159800 1905.500000
254.138400 7234.400000
322.165900 4115.500000
336.180600 36116.300000

>ms2peaks
55.054100 6940.700000
59.049000 13011.500000
68.049500 1413.500000
79.054300 1807.400000
80.049400 2324.800000
83.049200 11522.900000
89.059800 1107.100000
91.054300 2590.000000
92.049400 1367.700000
93.069900 9106.400000
94.065200 17673.600000
97.064800 6153.300000
103.054300 5150.700000
108.080900 14072.500000
118.065100 4115.500000
119.073100 2161.500000
120.080800 963088.800000
121.088600 28457.400000
122.096500 2183.000000
136.075700 2703.100000
138.091400 63693.300000
152.106800 2820.700000
156.102000 6540.200000
220.133300 29416.700000
221.141300 8613.600000
222.111800 2113.700000
236.128400 4994.400000
238.143900 62878.300000
254.139000 3270.500000
336.181000 7626.800000

>ms2peaks
55.054100 4917.900000
59.049000 10190.500000
68.049600 1536.500000
79.054200 1402.600000
80.049600 3760.800000
83.049200 10629.100000
89.059600 1051.800000
91.054200 4826.800000
92.049200 1194.300000
93.069900 11888.600000
94.065200 20892.600000
97.064700 5686.600000
103.054300 6979.000000
108.080800 18423.900000
118.065200 6853.200000
119.072900 4889.500000
120.080800 723682.000000
121.088600 29869.800000
122.096500 1786.900000
136.075400 1525.500000
138.091400 52771.100000
156.101800 5340.000000
220.133200 7727.800000
221.141000 3406.400000
236.128200 1841.600000
238.143900 32295.300000

>ms2peaks
55.054100 9521.900000
59.049100 16647.300000
68.049400 5006.000000
69.069900 1562.200000
71.049200 1236.400000
77.038600 3307.300000
79.054200 4181.300000
80.049500 11285.800000
81.070000 1700.700000
82.065200 3063.500000
83.049100 17233.900000
91.054200 13203.600000
92.049400 4242.600000
93.069900 28594.800000
94.065100 43653.000000
95.072900 2645.800000
96.081000 2174.100000
97.064800 8711.100000
101.059800 2264.000000
103.054200 21395.200000
105.057400 3849.700000
106.065300 1452.600000
108.080800 39559.800000
110.060000 2910.800000
110.096600 1434.600000
118.065100 14021.200000
119.073000 10477.600000
120.080800 1112531.600000
121.088600 45953.100000
122.096500 2339.600000
136.075600 2659.700000
138.091300 112723.400000
152.106900 2131.600000
156.101900 10861.000000
168.101700 2467.500000
220.133500 3972.600000
238.143800 32854.300000

>ms2peaks
55.054100 8276.600000
59.049000 14703.800000
67.054400 1431.600000
68.049400 6300.100000
69.069900 3245.500000
71.049000 1143.600000
77.038500 5440.400000
79.054200 6107.400000
80.049500 18286.000000
82.065200 5095.700000
83.049100 16041.100000
91.054200 19231.900000
92.049400 6673.600000
93.057200 2906.100000
93.069900 34499.500000
94.065100 46734.100000
95.072900 3544.900000
96.080800 2217.500000
97.064700 7569.200000
101.059600 2023.300000
103.054200 29438.000000
105.057200 5856.100000
106.065100 3063.600000
108.080700 51310.300000
110.059900 3643.000000
118.065100 19999.200000
119.073000 13268.300000
120.080700 996392.500000
121.088500 38429.400000
122.096400 1590.600000
136.075800 3587.600000
138.091300 91136.000000
152.106300 1539.700000
156.101900 8440.200000
168.101800 2173.300000
220.132700 1779.700000
238.143600 14882.100000

>ms2peaks
55.054100 6041.100000
59.049000 14175.500000
67.054200 1838.200000
68.049400 9086.300000
69.069800 2024.600000
71.049000 852.400000
77.038600 9366.900000
79.054200 7461.800000
80.049500 21998.600000
81.070000 1642.800000
82.065200 5352.700000
83.049100 14901.600000
91.054200 24980.200000
92.049400 9277.400000
93.057400 2660.800000
93.069900 43066.700000
94.065100 48025.400000
95.073000 3861.000000
96.080700 4417.300000
97.064700 6247.300000
101.059600 2126.300000
103.054200 36163.100000
105.057200 7966.900000
106.065200 4033.600000
108.080800 50264.100000
110.060000 4189.500000
110.096500 2247.900000
118.065200 26012.100000
119.073000 16029.400000
120.080800 841551.300000
121.088600 29734.100000
122.096600 2510.900000
136.075400 2658.400000
138.091300 78578.800000
152.107200 1781.800000
156.101900 7508.700000
168.102200 1132.000000
238.143800 6749.200000

>ms2peaks
55.054200 5368.400000
59.049100 11625.900000
67.054100 3204.200000
68.049500 8749.400000
77.038600 9139.600000
79.054300 8362.300000
80.049500 25407.300000
81.070000 1589.400000
82.065200 5798.400000
83.049100 12099.000000
91.054300 27813.300000
92.049500 11572.200000
93.057300 4070.400000
93.069900 39554.200000
94.065100 41375.200000
95.072800 2843.600000
96.080800 3363.100000
97.065000 3978.600000
101.059800 1267.900000
103.054300 34790.600000
105.057300 10586.900000
106.065000 2641.200000
108.080800 50049.500000
110.060000 5845.000000
110.096400 2592.900000
118.065200 28217.200000
119.073000 18138.900000
120.080800 676723.900000
121.088600 24104.400000
122.096800 1547.600000
136.075900 2731.800000
138.091400 54088.200000
152.106500 1203.600000
156.102000 5084.400000
238.144300 3031.600000

>ms2peaks
55.054100 3961.800000
59.049000 8521.200000
67.054300 1565.700000
68.049500 7348.200000
69.070000 1374.800000
77.038600 11337.500000
79.054300 7021.500000
80.049500 24778.600000
81.070100 1950.700000
82.065200 4052.300000
83.049200 8163.300000
91.054300 27423.800000
92.049500 10396.400000
93.057300 4973.300000
93.069900 30519.500000
94.065200 31961.700000
95.073000 2105.000000
96.080600 2804.100000
97.064900 2828.400000
103.054200 31400.700000
105.057300 10235.800000
106.065200 3078.100000
108.080800 36704.400000
110.060000 5254.900000
110.096700 2554.600000
118.065200 24405.200000
119.073100 16966.800000
120.080800 486266.100000
121.088600 15113.900000
122.096600 1721.700000
138.091400 35910.600000
156.101900 2457.800000

>ms2peaks
55.054200 6923.500000
59.049100 14578.600000
65.038600 3262.100000
67.041600 1912.500000
67.054200 3824.000000
68.049400 17157.100000
69.069800 2568.600000
77.038600 27662.000000
78.033900 1537.000000
79.054300 14720.000000
80.049500 56590.200000
81.057200 2294.600000
81.069900 4188.200000
82.065100 9608.000000
83.049200 13081.800000
91.054200 59667.400000
92.049500 29404.900000
93.057300 14076.900000
93.069900 61209.600000
94.065100 60733.500000
95.049100 4373.400000
95.073000 4413.500000
96.044600 1668.700000
96.080700 6604.400000
97.064900 3949.600000
103.054200 68849.700000
104.049100 1683.000000
105.057300 24759.100000
106.065100 6092.600000
108.080800 65758.100000
110.060000 9784.600000
110.096400 3263.300000
117.057400 1146.500000
118.065100 55510.200000
119.073000 31199.100000
120.080800 721916.400000
121.088700 17722.300000
136.076000 2424.400000
138.091300 56603.000000
156.101900 3301.700000

>ms2peaks
55.054100 5658.500000
59.049100 12471.800000
65.038600 4289.700000
67.041600 1859.900000
67.054200 6898.000000
68.049500 13752.700000
69.069800 1137.400000
77.038600 31946.300000
79.054200 14767.600000
80.049500 62283.500000
81.057200 3356.900000
81.069900 4758.300000
82.065100 10453.200000
83.049200 8224.700000
91.054200 59936.900000
92.049500 28237.300000
93.057300 12066.200000
93.069900 55478.500000
94.065100 52278.400000
95.049100 4240.500000
95.072800 3503.400000
96.044200 1502.800000
96.080800 4270.900000
97.064700 2033.400000
103.054200 60062.500000
105.057300 24730.100000
106.065100 6817.400000
108.080800 55177.700000
110.060000 11086.000000
110.096300 2784.100000
118.065100 50647.400000
119.073000 27297.400000
120.080800 543977.800000
121.088700 11046.100000
122.096400 1910.300000
136.076100 1937.700000
138.091300 33253.100000
156.102200 1760.400000

>ms2peaks
55.054100 4160.000000
59.049100 12571.000000
65.038500 4335.500000
67.041600 2099.000000
67.054200 6542.600000
68.049500 14717.900000
69.070200 1529.000000
77.038600 28765.100000
78.034100 1685.900000
79.054200 14927.600000
80.049500 58267.200000
81.057400 3827.200000
81.070000 4105.100000
82.065200 8347.800000
83.049200 6255.000000
91.054300 58130.000000
92.049500 29413.500000
93.057300 12991.500000
93.069900 46071.400000
94.065100 42261.700000
95.049100 4587.400000
95.072800 2288.100000
96.044400 1597.400000
96.080700 3428.600000
97.065000 1292.000000
103.054200 55853.300000
104.049400 2204.800000
105.057300 25047.100000
106.065200 5819.000000
107.073200 1097.600000
108.080800 41386.100000
110.060100 9506.300000
110.096600 1907.700000
117.057400 2794.000000
118.065200 53934.600000
119.073000 23227.700000
120.080800 425538.400000
121.088600 7194.600000
122.096200 1166.900000
138.091300 22262.200000
156.102200 1171.900000

>ms2peaks
55.054100 4104.700000
59.049100 10210.000000
65.038500 5981.600000
67.041700 2853.800000
67.054300 5460.700000
68.049500 12411.700000
69.069900 1351.600000
77.038700 30574.000000
78.033900 1885.700000
79.054300 11209.600000
80.049600 63660.400000
81.057400 3783.100000
81.069900 4180.400000
82.065300 5147.300000
83.049200 4427.000000
91.054300 57981.600000
92.049500 28360.900000
93.057400 14427.500000
93.070000 39805.100000
94.065200 41074.200000
95.049100 4208.200000
96.044100 1417.800000
96.080900 4225.800000
103.054300 48635.500000
104.049500 1706.100000
105.057400 24350.800000
106.065200 5387.800000
107.073100 2402.400000
108.080900 35774.900000
110.060100 10909.200000
110.096800 2136.700000
117.057400 3464.500000
118.065200 49396.400000
119.073100 21840.100000
120.080900 317167.600000
121.088800 3488.900000
136.076000 1513.000000
138.091500 14198.300000

>ms2peaks
55.054200 2647.300000
59.049100 6230.300000
65.038600 5760.800000
67.041500 2101.100000
67.054300 6674.400000
68.049500 10243.200000
77.038600 25558.900000
78.034000 1948.700000
79.054300 10374.400000
80.049500 53194.100000
81.057300 2920.600000
81.069900 2830.600000
82.065100 6070.200000
83.049200 3585.000000
91.054300 48852.300000
92.049500 20500.500000
93.057300 12578.000000
93.069900 26057.500000
94.065200 28099.600000
95.049200 3281.300000
96.044500 1827.700000
96.080800 1676.800000
103.054300 36153.800000
104.049400 1588.700000
105.057300 20248.500000
106.065200 4927.800000
108.080800 21400.800000
110.060100 7369.200000
117.057600 1857.300000
118.065200 42575.800000
119.073000 15960.200000
120.080800 217924.100000
121.088700 2643.400000
136.076000 1299.600000
138.091300 7207.500000

