>compound NA81330124
>parentmass 325.0707000000001
>ionization [M+H]+
>formula C18H12O6
>rt 710.010000
>profile orbitrap
#smiles_iso COC1=C2C(=C3[C@@H]4C=CO[C@@H]4OC3=C1)OC5=CC=CC(=C5C2=O)O
#smiles_can COC1=C2C(=C3C4C=COC4OC3=C1)OC5=CC=CC(=C5C2=O)O
#inchikey UTSVPXMQSFGQTM-DCXZOGHSSA-N
#pubchem_id 5280389
#mb_accession NA002521,NA002522,NA002523,NA002524,NA002525,NA002914,NA002915,NA002916,NA002917,NA002918,NA003289,NA003290,NA003291,NA003292,NA003293,NA003659,NA003660,NA003661,NA003662,NA003663

>ms2
325.070700 40347.900000

>ms2
325.070600 135533.500000

>ms2
325.070700 124573.500000

>ms2
325.070700 116613.200000

>ms2
325.070700 98039.800000

>ms2
297.076300 1820.000000
310.047300 16437.300000
325.070700 90870.100000

>ms2
297.075900 3847.900000
310.047300 32250.800000
325.070600 60403.700000

>ms2
281.044300 7124.100000
282.052400 2727.300000
297.076000 3253.300000
310.047200 48061.800000
325.070600 39008.000000

>ms2
281.044600 11979.300000
282.052500 5353.500000
297.074600 2395.500000
309.039400 1297.700000
310.047300 53352.200000
325.070500 20083.500000

>ms2
281.044500 19826.200000
282.052800 6387.000000
297.076000 1602.500000
309.038400 1608.200000
310.047200 43387.800000
325.070800 7131.100000

>ms2
228.041600 1576.400000
254.057400 3910.100000
281.044600 43238.600000
282.052300 9596.900000
309.039500 3977.700000
310.047300 52982.800000

>ms2
228.041500 3303.900000
253.050000 3593.500000
254.057500 3827.000000
281.044600 56723.700000
282.052500 6856.500000
309.039900 4639.900000
310.047300 31367.400000

>ms2
226.062600 2087.100000
228.041900 2381.300000
253.049200 4057.800000
254.057900 4183.100000
265.050400 1317.000000
281.044500 61578.900000
282.052200 4957.300000
309.039100 3276.500000
310.047400 16930.900000

>ms2
228.041600 3248.900000
253.049500 7949.400000
254.057700 5170.800000
281.044600 69806.300000
282.052400 4478.000000
309.039700 2976.100000
310.047000 10072.700000

>ms2
226.061900 2747.100000
228.042100 3306.400000
253.049400 10918.300000
254.057200 3605.000000
265.050400 1691.100000
281.044600 60552.500000
282.052400 2678.500000
309.040200 1934.600000
310.047600 4045.500000

>ms2
169.064700 1464.500000
197.060000 2798.700000
225.054600 5320.900000
226.061900 3029.300000
228.042000 5946.800000
253.049600 15798.500000
254.057300 5710.900000
281.044600 77959.300000

>ms2
141.070000 1759.000000
169.065100 2506.900000
189.018300 1842.100000
197.059500 4937.500000
200.046300 1683.100000
225.054500 7942.700000
226.062100 2451.700000
228.041900 4600.000000
253.049600 16619.100000
254.057700 2721.200000
281.044400 59795.800000

>ms2
141.070000 2350.000000
169.065400 2415.200000
189.017900 2501.900000
197.059700 6903.800000
200.046900 2099.800000
225.054600 7733.900000
226.062500 2173.500000
228.041400 4187.200000
253.049600 18357.000000
254.056400 2018.600000
281.044500 48254.400000

>ms2
115.054200 1176.800000
117.033500 1323.900000
141.070000 5721.600000
145.028700 1149.400000
169.065000 4212.800000
179.048700 1748.300000
189.018700 3632.700000
197.059600 8286.500000
200.047300 1207.300000
225.054600 8809.000000
228.041400 3442.300000
253.049500 13475.200000
281.044500 32894.700000

>ms2
115.054500 1954.300000
117.033400 1463.300000
141.070200 5563.700000
145.028700 1629.000000
169.065100 3980.400000
179.049500 1894.500000
189.019200 2337.800000
197.059800 8967.200000
200.046800 1558.500000
225.054800 7059.800000
253.049800 9930.100000
254.058100 995.800000
281.044800 19934.500000

