>compound NA84730794
>parentmass 375.253
>ionization [M+H]+
>formula C23H34O4
>rt 662.400000
>profile orbitrap
#smiles_iso C[C@]12CC[C@@H](C[C@H]1CC[C@@H]3[C@@H]2CC[C@]4([C@@]3(CC[C@@H]4C5=CC(=O)OC5)O)C)O
#smiles_can CC12CCC(CC1CCC3C2CCC4(C3(CCC4C5=CC(=O)OC5)O)C)O
#inchikey XZTUSOXSLKTKJQ-CESUGQOBSA-N
#pubchem_id 4369270
#mb_accession NA001629,NA001631,NA001633

>ms2
79.054600 2768.400000
81.070000 1441.100000
91.054500 1991.200000
93.070000 3029.100000
105.070000 2975.000000
107.085600 1801.500000
119.085600 1561.400000
131.085800 1502.600000
133.101400 1457.600000
135.117200 1923.100000
145.101700 1790.700000

>ms2
81.070000 2154.600000
91.054200 2767.200000
93.069900 2210.100000
105.070200 2693.900000
107.085400 1337.700000
119.085200 1342.200000
131.085600 1535.000000
133.101500 1088.900000
145.101300 1392.900000

>ms2
79.054300 1353.200000
81.069900 1260.200000
91.054500 3155.800000
105.070100 2029.000000
107.085400 1068.900000
131.085400 1566.900000

