>compound NA84307742
>parentmass 352.17550000000006
>ionization [M+H]+
>formula C18H25NO6
>rt 324.390000
>profile orbitrap
#smiles_iso C/C=C\1/C[C@H]([C@@](C(=O)OCC2=CC[N+]3([C@H]2[C@@H](CC3)OC1=O)[O-])(C)O)C
#smiles_can CC=C1CC(C(C(=O)OCC2=CC[N+]3(C2C(CC3)OC1=O)[O-])(C)O)C
#inchikey PLGBHVNNYDZWGZ-GPUZEBNTSA-N
#pubchem_id 5380876
#mb_accession NA002454,NA002455,NA002456,NA002457,NA002458,NA002849,NA002850,NA002851,NA002852,NA002853,NA003229,NA003230,NA003231,NA003232,NA003233,NA003594,NA003595,NA003596,NA003597,NA003598

>ms2peaks
352.175400 201483.500000

>ms2peaks
352.175400 817852.200000

>ms2peaks
352.175500 843914.800000

>ms2peaks
118.064800 1374.700000
352.175300 867769.500000

>ms2peaks
118.065000 7980.100000
352.175600 856353.400000

>ms2peaks
81.069900 2011.600000
93.057200 1467.100000
94.065000 2749.700000
95.072900 7714.500000
106.065100 1683.300000
118.065100 22812.600000
119.073000 13785.400000
120.080700 11972.800000
121.088600 13238.500000
122.096600 1693.500000
136.075400 8838.600000
137.083400 2929.700000
138.091400 7382.800000
153.090900 2124.300000
154.086200 6776.700000
220.133200 16095.900000
246.148800 3812.000000
248.164600 4903.100000
324.181000 5312.800000
352.175400 723475.300000

>ms2peaks
80.049100 1474.000000
81.070000 5896.000000
93.057400 3597.700000
94.065200 6912.000000
95.073000 16524.900000
106.065100 3362.500000
107.085700 1490.200000
108.080700 3953.700000
109.064800 1658.100000
112.076000 1487.500000
118.065100 44269.700000
119.073000 27730.500000
120.080800 26821.100000
121.088600 23663.900000
122.096400 4256.200000
125.096000 2621.700000
136.075600 24511.300000
137.083400 6144.900000
138.091400 17712.400000
139.099400 1481.300000
153.091000 6805.800000
154.086400 14628.200000
178.123000 2704.300000
218.117500 1767.200000
218.154200 1257.500000
220.133200 32209.100000
246.148800 9715.800000
248.164500 7416.900000
254.139700 2963.700000
324.180400 10803.900000
352.175400 570228.200000

>ms2peaks
67.054400 1261.400000
79.054500 1592.300000
80.049300 2652.000000
81.069900 11581.100000
84.044300 1132.300000
91.054300 2141.600000
93.057300 11842.100000
94.065100 13949.200000
95.073000 30941.900000
98.060000 1506.000000
106.065100 9090.400000
107.085400 1999.900000
108.080800 6436.200000
109.064800 3835.200000
109.088700 3218.300000
110.059800 2325.500000
112.075600 4342.100000
118.065100 68809.100000
119.073000 46741.100000
120.080800 46695.500000
121.088600 32891.500000
122.096400 7455.300000
124.088400 1053.800000
125.096200 4941.300000
135.080700 1587.900000
136.075700 48286.000000
137.083600 10772.600000
138.091400 36705.400000
139.075600 1193.000000
139.099400 1591.900000
148.112000 955.500000
153.090900 10602.000000
154.086300 22519.000000
178.122500 5226.300000
192.137900 1277.500000
202.122500 1851.300000
211.132600 1736.800000
218.117600 2771.600000
218.153900 2499.100000
220.133300 42744.900000
246.148900 13515.700000
248.164400 8831.700000
254.139300 3707.000000
290.175400 3041.400000
324.180700 16487.000000
352.175600 350323.900000

>ms2peaks
53.038400 1039.200000
79.054300 2527.000000
80.049600 3474.800000
81.033300 1115.700000
81.070000 13241.100000
83.048800 1071.000000
91.054300 2298.800000
93.057400 18343.500000
94.065200 22413.700000
95.073000 36480.300000
98.060200 2867.900000
106.065200 13646.000000
107.049400 1488.200000
107.085600 4433.900000
108.080900 12728.900000
109.064900 3723.800000
109.088700 4074.900000
109.101200 1686.200000
110.060500 1795.700000
112.075800 6919.700000
118.065200 74241.500000
119.073000 60755.100000
120.080900 61180.000000
121.088700 30746.300000
122.096500 11424.800000
124.076000 1513.900000
125.096200 8593.500000
135.080700 2263.800000
136.075800 69682.400000
137.083600 14086.300000
138.091400 46082.200000
139.075500 2807.100000
139.099500 2748.700000
152.107200 3510.600000
153.091100 13868.900000
154.086400 23957.600000
178.122700 5299.500000
190.122100 1257.700000
211.132800 2377.400000
218.117700 3543.700000
218.154000 1892.200000
220.133300 40076.800000
246.149100 9944.100000
248.165000 7526.400000
254.138800 4947.700000
290.175300 2351.000000
324.180800 15885.000000
352.175800 180775.800000

>ms2peaks
53.038300 1839.200000
67.054200 2500.600000
79.054100 3193.500000
80.049500 5779.600000
81.033400 972.100000
81.069900 18028.200000
83.049100 2348.700000
84.044100 1795.100000
91.054200 4105.000000
93.057300 29984.100000
94.065100 35856.500000
95.072900 38165.000000
98.060000 2965.800000
106.065100 12718.500000
107.049000 1337.100000
107.085500 5837.700000
108.080800 15992.300000
109.064800 6756.100000
109.088600 5016.000000
109.101200 2106.500000
110.060100 1699.800000
112.075700 7364.900000
118.065100 76505.200000
119.073000 59591.200000
120.080700 67879.300000
121.088600 24129.600000
122.096400 14299.600000
124.076000 1574.900000
124.088400 1069.000000
125.096100 8113.600000
135.080600 1943.500000
136.075700 86474.800000
137.083500 12865.900000
138.091300 46883.700000
139.075400 3713.100000
139.099500 1297.200000
148.111900 1882.900000
152.107000 4205.800000
153.090900 12651.800000
154.086300 24340.700000
178.122600 6846.300000
190.122500 1782.500000
192.138000 1234.600000
202.122200 2110.200000
211.133000 3282.000000
218.117400 4711.700000
218.154100 3428.500000
220.133300 29896.800000
246.148800 7474.700000
248.164700 3927.900000
254.138700 3367.100000
290.175800 2544.600000
324.180800 10976.100000
352.175500 75703.700000

>ms2peaks
53.038400 3458.400000
55.054100 1381.700000
67.054200 3595.200000
68.049500 2575.600000
79.054300 10559.000000
80.049500 11369.800000
81.033400 2372.800000
81.057600 1814.700000
81.069900 29025.600000
82.065200 3831.000000
83.049100 3720.500000
84.044400 3275.200000
91.054300 6466.900000
93.057300 62190.200000
94.065100 85404.700000
95.073000 51927.000000
96.044200 1882.400000
98.060000 7431.800000
101.059800 1132.900000
106.065200 26370.000000
107.049100 2207.800000
107.073000 2223.300000
107.085600 12247.600000
108.080800 29237.000000
109.064800 6780.600000
109.088700 8975.200000
109.101300 4948.300000
110.060000 4309.600000
111.068000 3654.100000
112.075700 12139.500000
117.057500 1324.000000
118.065100 105956.700000
119.073000 88973.900000
120.080800 122586.900000
121.088600 27236.400000
122.096400 25565.400000
124.075600 2264.300000
125.096100 13999.100000
126.091200 2502.300000
134.097000 1387.700000
135.080400 3902.500000
136.075700 153767.800000
137.060200 1888.800000
137.083500 17617.300000
137.096300 2312.300000
138.091300 74845.600000
139.075400 12231.600000
146.096300 1134.600000
148.111700 3425.800000
152.107100 7692.600000
153.091100 16448.500000
154.086300 28913.700000
164.106900 3429.000000
167.106700 3401.500000
174.126900 1374.600000
178.122800 10656.400000
190.122700 2818.000000
192.138400 2833.500000
202.122400 3555.100000
211.132800 6027.900000
218.117600 6210.300000
218.154300 2817.800000
220.133300 26692.500000
246.148800 6518.600000
254.138400 4155.600000
324.180400 9931.900000
352.175600 41908.800000

>ms2peaks
53.038400 3898.500000
67.054200 3507.300000
68.049400 2064.500000
79.054200 10004.200000
80.049500 14941.500000
81.033500 3027.900000
81.057300 3966.200000
81.069900 29089.200000
82.065200 4880.200000
83.049200 3352.200000
84.044500 4121.700000
91.054300 7681.600000
92.049800 1658.000000
93.057300 75298.300000
94.065100 106700.400000
95.073000 47854.700000
96.044400 1410.600000
96.080700 2474.400000
98.060100 7110.600000
101.059900 1347.400000
106.065100 28474.700000
107.049000 2797.200000
107.073000 1946.800000
107.085500 14326.500000
108.080800 31958.800000
109.064700 6374.700000
109.088600 9715.600000
109.101200 4287.400000
110.060000 3939.600000
111.067900 3963.900000
112.075700 10655.300000
118.065200 105712.200000
119.073000 79865.000000
120.080800 124524.100000
121.088600 15442.000000
122.096400 24722.800000
124.075800 3969.900000
125.096200 12833.200000
126.091100 3429.100000
134.096300 1447.800000
135.080500 3762.100000
136.075700 161207.100000
137.059600 1226.700000
137.083500 11371.200000
137.095800 1745.000000
138.091400 57952.700000
139.075400 13450.800000
146.096300 1409.000000
148.112000 3380.400000
152.107100 5340.600000
153.091000 12790.800000
154.086300 19106.800000
164.106800 3678.000000
167.106800 3728.700000
178.122600 7177.400000
190.122400 3098.400000
192.138700 1536.100000
211.132500 3885.100000
218.117600 4718.600000
218.153800 1987.900000
220.133300 13541.800000
246.149100 3702.000000
254.137800 1851.700000
324.180900 4756.200000
352.175800 12853.700000

>ms2peaks
53.038400 2648.600000
55.054200 1286.400000
67.054100 4542.300000
68.049300 1753.200000
79.054300 10166.000000
80.049500 15665.200000
81.033400 2998.400000
81.057400 4137.800000
81.069900 23140.300000
82.065200 4262.800000
83.049200 4004.100000
84.044400 3789.000000
91.054200 8351.400000
92.049300 1211.500000
93.057300 77921.100000
94.065100 124551.000000
95.073000 34386.800000
96.080400 2141.500000
98.060100 6500.600000
106.065100 24837.000000
107.049300 1776.700000
107.072800 2497.300000
107.085600 12692.300000
108.080800 33513.400000
109.064800 4979.800000
109.088700 7615.400000
109.101100 2612.400000
110.060100 4039.800000
111.067600 3562.800000
112.075500 6770.100000
117.057300 2954.300000
118.065100 93216.300000
119.073000 64773.900000
120.080800 118491.200000
121.088600 9557.900000
122.096400 20089.700000
124.075600 3897.700000
125.096100 10935.100000
126.091300 2915.700000
132.080300 1250.500000
134.096500 1526.700000
135.080600 3671.000000
136.075700 152418.500000
137.059500 1151.400000
137.083600 8399.400000
138.091300 45016.900000
139.075400 11164.400000
146.096300 1754.700000
148.112200 3359.100000
152.107200 4319.700000
153.091200 8660.800000
154.086200 13173.200000
164.107000 3464.300000
167.106800 2813.100000
174.127000 1457.200000
178.122700 5530.800000
190.123300 2539.900000
202.122800 1089.500000
218.118000 1140.900000
218.154400 1514.800000
220.133300 4897.900000
352.176300 3454.600000

>ms2peaks
53.038500 2660.400000
67.041600 1702.800000
67.054200 4726.200000
68.049500 1362.600000
77.038500 1577.600000
79.054200 10031.300000
80.049500 18743.000000
81.033500 2820.400000
81.057400 3321.000000
81.069900 21522.900000
82.065100 3956.900000
83.049100 3609.100000
84.044500 3252.600000
91.054300 7668.300000
92.049700 1855.300000
93.057300 76369.900000
94.065100 139533.100000
95.073000 25609.000000
96.044400 1981.100000
96.080800 2604.000000
98.060000 5808.200000
106.065200 22003.600000
107.049100 1266.700000
107.072900 3757.300000
107.085600 11557.100000
108.080800 31000.200000
109.064800 3851.000000
109.088600 4777.000000
109.101200 2580.700000
110.059900 2919.100000
111.067800 3046.500000
112.075600 5731.200000
117.057400 3921.400000
118.065100 87158.200000
119.073000 47855.600000
120.080800 109544.800000
121.088600 5614.400000
122.096400 13635.100000
124.075600 2594.800000
125.096200 6144.000000
132.081200 1005.000000
134.096300 2114.100000
135.080600 2556.000000
136.075700 133523.500000
137.083700 3251.600000
138.091300 29044.000000
139.075400 12344.500000
146.096600 2126.100000
148.112400 3268.200000
152.106900 1890.200000
153.090900 4005.200000
154.086300 6739.900000
164.107200 1937.800000
167.106300 2432.900000
178.122300 3681.000000
190.122200 1149.200000
211.132800 1401.900000
220.132900 2273.900000

>ms2peaks
53.038400 2876.600000
67.041500 1603.900000
67.054100 4926.400000
68.049500 1995.400000
77.038500 1368.700000
79.054200 9502.500000
80.049500 19736.000000
81.033500 2746.100000
81.057300 3182.300000
81.069900 17372.300000
82.065200 3690.900000
83.049200 3682.200000
84.044400 3030.000000
91.054300 8581.000000
92.049500 2788.800000
93.057300 72874.500000
94.065100 146177.300000
95.072900 21924.000000
96.044200 1728.100000
96.080800 4351.800000
98.060000 4693.200000
106.065100 17649.900000
107.072800 1726.700000
107.085500 9340.600000
108.080800 29429.600000
109.064900 2828.700000
109.088600 3762.900000
109.101400 2174.600000
110.060100 2955.500000
111.067800 3050.700000
112.075500 2767.600000
117.057300 4525.800000
118.065100 69855.900000
119.073000 37034.500000
120.080800 97719.700000
121.088800 2937.200000
122.096400 11058.600000
124.075700 3377.300000
125.096100 4043.600000
126.091000 1350.100000
134.096300 2699.000000
135.080200 1195.500000
136.075700 115830.000000
137.083700 2245.500000
138.091400 18994.000000
139.075300 8353.600000
146.096000 1169.300000
148.112000 3227.500000
153.091200 1674.600000
154.086500 3296.200000
178.122200 3087.500000

>ms2peaks
53.038500 3850.500000
66.046400 1659.900000
67.041600 2424.700000
67.054200 8131.100000
68.049400 2419.500000
77.038600 1382.700000
79.054200 11554.700000
80.049500 30280.500000
81.033700 1570.300000
81.057300 4601.800000
81.069900 22006.300000
82.065100 4052.800000
83.049000 4347.300000
84.044600 2447.100000
91.054200 14626.800000
92.049500 4720.000000
93.057300 88506.000000
94.065100 193376.800000
95.072900 18841.400000
96.044400 1641.700000
96.080800 5150.900000
98.060100 4535.700000
105.069900 1609.700000
106.065100 27060.500000
107.073000 3442.600000
107.085500 10979.200000
108.080800 40890.100000
109.064700 4366.400000
109.088400 4513.500000
109.101200 1781.000000
110.060000 4059.700000
111.067800 2761.400000
112.075700 4092.900000
117.057400 5829.600000
118.065100 87180.100000
119.072900 40351.100000
120.080800 112962.700000
121.089000 1632.900000
122.096400 11561.000000
124.075700 2515.100000
125.096100 2738.100000
132.080500 1448.000000
134.096100 1296.300000
136.075700 129351.200000
137.083800 1775.600000
138.091400 17824.600000
139.075300 8022.000000
146.096100 2086.500000
148.112200 3460.300000

>ms2peaks
53.038400 2962.900000
65.038400 1870.900000
66.046300 2734.300000
67.041500 3625.400000
67.054200 8379.600000
68.049300 3216.300000
77.038400 2279.900000
79.054200 11945.200000
80.049400 36462.300000
81.033500 3312.700000
81.057300 4665.800000
81.069800 20705.100000
82.065100 4447.800000
83.049100 3199.200000
84.044500 2773.400000
91.054100 15097.300000
92.049500 7916.200000
93.057300 83120.300000
94.065000 207707.600000
95.072900 15674.500000
96.044200 2266.100000
96.080600 5763.800000
98.060100 3421.900000
105.069700 2197.600000
106.065000 25071.100000
107.072900 3157.500000
107.085500 9687.000000
108.080700 40584.000000
109.064700 2301.000000
109.088200 3068.400000
109.101300 1889.600000
110.059900 3373.300000
112.075500 2002.900000
117.057200 8722.100000
118.065000 82652.300000
119.072900 29141.200000
120.080700 103586.600000
121.088800 1049.800000
122.096300 6103.100000
124.075400 3038.300000
125.095900 3236.400000
132.080800 1975.400000
134.096000 2726.600000
136.075600 108292.000000
138.091200 12366.200000
139.075200 5129.200000
146.095900 1496.900000
148.111700 2520.400000

>ms2peaks
53.038500 1885.100000
65.038600 2444.900000
66.046300 2422.500000
67.041700 3762.300000
67.054100 8819.000000
68.049400 2017.700000
77.038300 2602.600000
78.033800 1410.300000
79.054200 13429.700000
80.049500 44404.000000
81.033500 2958.700000
81.057400 4361.100000
81.069900 18255.900000
82.065000 4566.800000
83.049400 1895.600000
84.044500 2961.200000
91.054200 18373.300000
92.049500 10411.300000
93.057300 82219.100000
94.065100 210027.000000
95.072900 12203.300000
96.044400 1851.200000
96.080600 5108.000000
98.059900 3092.900000
105.069800 3319.900000
106.065100 23381.900000
107.072700 2902.500000
107.085500 7185.900000
108.080700 35581.500000
109.064900 1361.400000
109.088500 1995.800000
109.101600 1522.900000
110.060000 4121.600000
111.067900 1161.600000
117.057300 11037.900000
118.065100 85830.900000
119.073000 23670.000000
120.080800 95276.500000
122.096200 4568.400000
124.075600 1114.600000
132.080700 2693.700000
134.096400 2396.900000
136.075700 88464.600000
137.083700 909.600000
138.091400 7676.100000
139.075400 2440.200000
146.095800 1580.800000
148.112200 2635.500000
158.096600 1128.300000

>ms2peaks
53.038400 2197.300000
65.038600 2785.800000
66.046400 5029.000000
67.041600 5091.200000
67.054200 9151.900000
68.049500 2919.800000
77.038600 3014.200000
78.033700 1728.300000
79.054200 13527.300000
80.049500 51267.500000
81.033500 1647.400000
81.057400 5039.100000
81.069900 16361.000000
82.065100 3727.700000
83.049100 2006.600000
84.044400 3103.600000
91.054200 17686.000000
92.049500 10153.400000
93.057300 74700.200000
94.065100 187905.700000
95.073000 8752.800000
96.044300 2420.900000
96.080800 6352.800000
98.059800 2001.100000
104.049600 1101.800000
105.069900 1799.600000
106.065100 22451.300000
107.072800 3935.900000
107.085500 3884.300000
108.044500 2372.500000
108.080800 33089.500000
109.088400 1918.000000
110.060100 4072.100000
117.057300 11051.300000
118.065100 70948.600000
119.073000 17174.100000
120.080800 83902.200000
122.096700 3711.200000
124.075600 1570.500000
132.080700 1864.100000
134.096800 1818.500000
136.075700 71801.700000
138.091300 5345.700000
139.075400 1929.800000
146.096700 1578.900000
148.111700 1097.100000

>ms2peaks
53.038400 1545.900000
65.038600 2397.700000
66.046400 5526.200000
67.041600 6107.200000
67.054200 10394.600000
68.049600 2176.900000
77.038700 2846.200000
78.034000 1718.400000
79.054300 13021.300000
80.049500 49565.300000
81.033400 1221.900000
81.057300 4744.400000
81.069900 11571.100000
82.065200 2862.500000
83.049200 1558.700000
84.044600 1227.700000
91.054300 16185.900000
92.049500 13854.500000
93.057300 61836.700000
94.065100 177374.100000
95.073000 7721.000000
96.044300 1517.200000
96.080900 6725.100000
98.060000 1477.900000
104.049400 1221.500000
105.069700 2755.000000
106.065200 20751.800000
107.072800 2666.100000
107.085500 3235.500000
108.044200 1972.300000
108.080800 25886.000000
110.059800 3822.600000
117.057300 14725.400000
118.065200 64285.200000
119.073000 11735.900000
120.080800 69648.300000
136.075800 49862.800000
138.091400 2682.100000
139.075900 1057.100000
148.112200 1405.600000
158.095700 1525.100000

