>compound NA86578354
>parentmass 414.33669999999995
>ionization [M+H]+
>formula C27H43NO2
>rt 650.580000
>profile orbitrap
#smiles_iso C[C@@H]1CC[C@@]2([C@H]([C@H]3[C@@H](O2)C[C@@H]4[C@@]3(CC[C@H]5[C@H]4CC=C6[C@@]5(CC[C@@H](C6)O)C)C)C)NC1
#smiles_can CC1CCC2(C(C3C(O2)CC4C3(CCC5C4CC=C6C5(CCC(C6)O)C)C)C)NC1
#inchikey KWVISVAMQJWJSZ-VKROHFNGSA-N
#pubchem_id 442985
#mb_accession NA002394,NA002395,NA002396,NA002397,NA002398,NA002789,NA002790,NA002791,NA002792,NA002793,NA003169,NA003170,NA003171,NA003172,NA003173,NA003534,NA003535,NA003536,NA003537,NA003538

>ms2peaks
414.336300 1131923.900000

>ms2peaks
414.336400 1285140.100000

>ms2peaks
414.336200 1344312.900000

>ms2peaks
114.091100 3674.400000
271.205500 11723.000000
396.324700 7397.000000
414.336200 1217011.800000

>ms2peaks
114.091100 13170.300000
271.205400 35503.000000
396.325900 27082.700000
414.336200 1124338.600000

>ms2peaks
70.065000 11083.400000
81.070200 1822.400000
95.085800 1455.600000
96.080800 2028.700000
105.070200 1467.700000
107.085500 5722.400000
109.101100 9152.800000
114.091200 36099.500000
119.085200 1817.300000
121.101100 11630.600000
124.112000 14221.600000
126.127600 27878.200000
127.111600 2453.300000
131.085400 2968.500000
133.101200 5958.500000
135.117200 1567.600000
143.085300 1511.900000
144.138200 3696.100000
145.101000 2694.800000
147.116800 10842.000000
151.111600 5214.800000
157.101000 12627.900000
159.116800 8854.800000
163.111100 1555.300000
171.116600 4406.300000
173.132100 2356.700000
175.111800 8963.100000
183.115900 1322.200000
197.132300 2922.400000
211.148400 2239.600000
213.163300 2476.700000
225.162800 2043.700000
253.194900 75042.800000
271.205400 110790.400000
396.325800 108192.500000
414.336200 1208614.000000

>ms2peaks
67.054100 2796.900000
70.065000 27170.300000
79.054200 2993.100000
81.069800 6112.500000
93.069800 4526.200000
95.085500 4735.900000
96.080800 4277.000000
105.070000 3048.400000
107.085400 13950.500000
109.101100 29547.800000
114.091300 62058.300000
119.085300 5754.000000
121.101100 31889.600000
123.116800 3303.500000
124.112000 37760.300000
126.127700 63282.900000
127.111600 6370.800000
131.085400 5745.700000
133.101200 20661.500000
135.116900 5289.800000
143.085300 5249.600000
144.138700 4134.700000
145.101000 12456.600000
147.116800 32769.700000
149.096200 3963.900000
151.111600 11075.800000
157.101100 47726.400000
159.116800 28591.700000
161.132300 3315.300000
163.111700 3872.000000
165.127000 2108.300000
171.116600 12311.400000
173.132500 4916.100000
175.111600 25373.100000
177.127600 4332.900000
183.117100 2754.300000
185.132400 4153.200000
197.132300 9138.100000
211.147900 7735.200000
213.163800 5061.400000
225.163400 6065.500000
253.195000 185977.200000
271.205500 165920.900000
396.325800 198887.100000
414.336300 936408.100000

>ms2peaks
67.054200 3917.900000
69.069800 2123.900000
70.065000 35240.000000
79.054200 4040.300000
81.069900 11573.700000
83.085600 1324.000000
86.096600 1359.100000
91.054000 2065.300000
93.069900 9445.200000
95.085500 10258.000000
96.080800 6460.400000
97.064900 3355.800000
98.096200 2370.000000
105.069800 5963.500000
107.085500 24949.100000
109.101100 53533.400000
114.091300 59101.500000
117.070000 1752.700000
119.085500 13535.300000
121.101100 51516.500000
123.116600 4705.700000
124.112000 61743.100000
126.127700 101309.500000
127.111700 3822.000000
131.085400 15488.500000
133.101100 42161.100000
135.116800 9743.800000
137.095600 1832.900000
143.085500 11087.700000
144.138100 3379.400000
145.101200 26468.300000
147.116800 60024.200000
149.096000 6162.500000
149.132300 3118.800000
151.111700 17942.700000
157.101100 81134.400000
159.116800 55707.500000
161.096100 2085.000000
161.132700 5980.900000
163.111600 8160.900000
164.143300 2499.200000
169.101300 1643.600000
171.116800 22504.600000
173.132300 13066.000000
175.111700 47834.400000
177.127200 6333.200000
183.116800 8087.600000
185.132300 8453.800000
187.148700 1980.200000
197.132200 17445.200000
199.148100 2212.400000
211.147900 18103.900000
213.163500 9470.500000
224.156200 3465.100000
225.163700 7672.100000
227.179400 1967.800000
253.194900 254759.500000
271.205500 151782.700000
396.325900 223981.800000
414.336400 505567.600000

>ms2peaks
55.054000 1607.800000
67.054200 8745.500000
69.069900 3968.300000
70.065100 45798.000000
79.054300 6913.600000
81.069900 19246.100000
86.096500 2432.500000
91.054200 4417.200000
93.070000 16112.600000
95.085600 19911.400000
96.080800 6916.200000
97.064800 3925.200000
98.096600 5704.100000
105.070000 9562.200000
107.085600 41131.000000
109.101200 71883.700000
114.091300 53553.900000
117.069900 2932.800000
119.085600 18766.500000
121.101200 66074.000000
123.116900 7717.500000
124.112100 82894.300000
125.096000 1181.500000
126.127800 108345.300000
127.111700 3782.500000
129.069800 2489.300000
131.085600 24066.800000
133.101200 58725.300000
135.116900 13653.600000
137.096100 2523.600000
143.085600 16889.500000
144.138700 2071.300000
145.101200 40930.600000
147.116900 86933.400000
149.096200 6843.400000
149.132400 4370.100000
151.111700 19990.800000
155.085500 2499.700000
157.101200 117633.100000
159.116900 81213.700000
161.095900 2690.000000
161.132500 7119.900000
163.111900 10386.500000
164.143300 3494.500000
165.127400 2872.200000
168.138300 2887.800000
169.101400 3878.200000
171.116900 32537.700000
173.132500 19151.900000
175.111800 64920.700000
177.127400 10158.000000
183.116900 10526.400000
185.132500 12175.700000
187.148300 5093.300000
197.132500 24405.400000
199.148400 3937.400000
211.148200 26794.800000
213.164000 13188.400000
224.156500 3862.800000
225.164100 11964.800000
227.179400 2074.600000
238.171600 4484.900000
242.166100 1684.900000
253.195100 279737.800000
271.205700 108612.700000
396.326200 199676.000000
414.336700 212014.100000

>ms2peaks
55.054200 1470.700000
67.054200 10451.000000
69.069800 4059.300000
70.065100 45585.100000
79.054200 9148.900000
81.069900 21084.000000
83.085500 1873.100000
86.096500 2035.900000
91.054200 4806.500000
93.069900 20944.500000
95.085600 24202.100000
96.080800 8180.900000
97.064900 2844.200000
98.096400 5990.400000
105.069900 14794.500000
107.085600 48807.800000
109.101200 75530.900000
114.091300 36673.100000
117.069900 5525.800000
119.085500 20706.800000
121.101200 69867.400000
123.116900 8155.200000
124.112100 82381.900000
125.096100 1396.100000
126.127700 93023.500000
127.111900 2124.000000
129.069900 4175.000000
131.085500 26302.700000
133.101200 75506.900000
135.116900 14531.500000
137.095700 2239.400000
143.085600 19222.100000
145.101200 51001.000000
147.116900 86757.900000
149.096100 6950.700000
149.132400 3552.200000
151.111800 19330.200000
155.085700 3542.000000
157.101200 136492.700000
159.116900 90249.600000
161.096200 4219.500000
161.132600 6020.300000
163.111900 8512.700000
164.143400 6649.900000
165.127600 1265.500000
168.138200 1179.700000
169.101100 6251.400000
171.116900 35325.600000
173.132500 22027.600000
175.111800 66703.600000
177.127500 8711.700000
183.116900 14771.000000
185.132600 14935.400000
187.148400 4835.700000
197.132500 28407.400000
199.148200 4586.400000
211.148300 27819.400000
213.163800 13519.600000
224.155800 7380.800000
225.164000 14045.800000
227.180200 3174.700000
238.171900 5476.400000
242.166700 2782.000000
253.195100 218257.400000
271.205700 58938.100000
396.326200 145167.200000
414.336700 79820.700000

>ms2peaks
55.054200 1413.800000
67.054200 15026.800000
69.069900 5725.100000
70.065100 57134.700000
79.054200 15035.600000
80.049400 936.700000
81.069900 32540.500000
83.085400 2618.000000
84.080800 1607.500000
86.096300 2491.100000
91.054200 9586.900000
93.069900 36610.600000
95.049100 2864.400000
95.085500 35386.200000
96.080800 9837.600000
97.064700 4527.800000
98.096400 8804.400000
105.069900 24412.800000
107.085500 62026.400000
109.101100 90772.200000
114.091300 28612.900000
117.069900 8339.800000
119.085500 30791.100000
121.101100 83210.100000
123.080300 2036.000000
123.116800 7148.600000
124.112100 103342.100000
125.119700 3602.600000
126.127700 98536.600000
129.069900 6354.500000
131.085500 37536.000000
133.101200 98439.600000
135.116700 16202.700000
136.112400 1388.600000
137.096000 2774.700000
138.127800 2149.800000
141.069700 2358.300000
142.077800 1402.800000
143.085500 22274.700000
145.101200 68093.400000
147.116800 109022.300000
149.096100 5692.600000
149.132500 3670.800000
150.127600 6709.000000
151.111700 17391.400000
152.143300 1949.800000
155.085600 6766.900000
157.101100 180920.200000
159.116800 120656.900000
161.095900 3938.200000
161.132500 9596.500000
162.127700 2821.900000
163.111900 9185.500000
164.143300 12371.400000
169.101100 8345.600000
171.116800 43262.500000
173.132500 28085.300000
175.111700 69267.300000
177.127300 8227.000000
178.159100 2351.000000
182.109700 1159.600000
183.116800 18249.000000
185.132400 23156.600000
187.147900 4912.800000
189.127700 1293.600000
196.125100 1474.200000
197.132400 33994.300000
199.148200 6073.900000
201.163900 1776.700000
209.132100 2046.400000
211.148100 34785.100000
213.163800 15987.700000
223.148400 2142.600000
224.156100 9123.100000
225.163800 15977.500000
238.171700 8310.400000
242.166300 2778.400000
253.195000 186090.600000
271.205500 35483.200000
380.295400 1256.500000
396.325900 116570.400000
414.336300 26666.800000

>ms2peaks
55.054100 1492.700000
58.065000 1142.000000
67.054200 16048.800000
69.069900 5163.600000
70.065100 51146.200000
79.054300 18196.500000
81.069900 35189.000000
82.065200 1860.400000
83.048900 1156.800000
83.085500 2868.700000
86.096500 1884.900000
91.054300 16235.000000
93.069900 39434.600000
95.049400 2413.800000
95.085600 38743.500000
96.080800 9075.800000
97.065000 3226.900000
98.096600 6808.500000
105.069900 27103.700000
107.085600 57965.400000
108.080600 1061.700000
109.101200 74177.500000
114.091400 18474.100000
117.069900 10803.300000
119.085600 29950.900000
121.101200 67532.500000
122.096300 2258.600000
123.080300 1558.000000
123.116900 7415.400000
124.112100 83380.600000
125.120200 2856.900000
126.127800 67970.700000
129.069800 8913.400000
131.085600 36265.200000
133.101200 88808.100000
135.116900 12937.000000
136.112000 1235.200000
137.096200 1384.300000
138.127600 2264.200000
141.070300 2208.000000
142.077900 5310.900000
143.085600 24836.600000
145.101200 62686.100000
147.116900 92256.500000
148.112500 1526.700000
149.096400 3313.400000
149.132700 2885.100000
150.127600 9616.500000
151.111700 11042.400000
152.143600 2102.100000
155.085700 6949.200000
157.101200 162783.000000
159.116900 108100.500000
161.096500 2824.100000
161.132600 6932.900000
162.127800 3684.900000
163.111800 5962.800000
164.143400 12339.100000
169.101200 9313.700000
171.116900 33041.000000
173.132500 22117.300000
175.111800 45261.100000
176.142900 1343.400000
177.127300 4605.500000
178.158600 1687.800000
182.109200 1703.200000
183.116900 19450.400000
185.132500 20849.600000
187.148500 3068.800000
189.127900 1315.200000
196.124600 2591.500000
197.132500 30869.400000
198.140500 2150.500000
199.148300 5689.800000
201.163500 1995.900000
209.132400 2880.800000
211.148200 31323.600000
213.163900 11492.100000
216.174200 1658.000000
223.147900 2573.600000
224.156100 7798.000000
225.163900 12981.400000
227.180000 1902.400000
238.171800 8044.900000
242.166800 2892.500000
253.195100 108262.300000
271.205500 15373.200000
380.295600 2374.200000
396.326100 60863.500000
414.335500 6211.000000

>ms2peaks
55.054300 2244.100000
67.054200 16731.400000
69.069900 5104.500000
70.065100 51779.400000
79.054300 15426.100000
80.049500 990.400000
81.069900 27243.200000
82.065100 1272.200000
83.049400 1264.900000
83.085500 2474.300000
84.081000 1130.600000
86.096500 3933.100000
91.054300 15046.100000
93.069900 33769.400000
95.049500 2026.900000
95.085600 32979.400000
96.080800 7198.400000
97.064900 2736.200000
98.096600 4715.000000
105.069900 31414.600000
107.085600 49606.100000
108.080800 1305.200000
109.088600 2508.800000
109.101200 49141.800000
114.091400 11415.800000
115.054000 1249.500000
117.069900 10907.700000
119.085600 24697.900000
121.101300 50650.400000
122.096300 1972.200000
123.116900 5035.700000
124.112200 52882.600000
125.119900 3028.800000
126.127800 36399.400000
129.070000 11202.100000
131.085600 34769.400000
133.101300 73669.600000
135.117000 8834.500000
141.069600 2760.000000
142.077900 6956.100000
143.085700 21408.700000
144.093300 2297.100000
145.101300 51708.600000
147.116900 70975.500000
148.112200 1830.500000
149.096400 1853.400000
149.132800 1442.200000
150.127900 7585.900000
151.111700 5772.300000
152.143100 2313.800000
155.085700 7816.200000
156.093700 950.400000
157.101300 135790.100000
159.117000 82633.500000
161.096800 1377.400000
161.132600 5155.700000
162.128000 2331.800000
163.111900 2140.400000
164.143500 9773.000000
169.101300 7861.300000
171.116900 25578.400000
173.132600 16193.100000
175.111900 30178.300000
176.143500 1393.100000
177.127400 2411.900000
178.158200 1785.600000
182.108800 1940.500000
183.117000 16230.400000
184.124800 1583.200000
185.132600 15404.200000
187.148400 1307.900000
196.124700 2243.500000
197.132500 25322.500000
198.140300 1663.400000
199.148300 5151.900000
209.132300 2762.400000
211.148200 23597.100000
212.156300 4230.100000
213.163900 5170.900000
216.174700 1377.600000
223.148400 4002.400000
224.155900 7032.700000
225.163900 9998.000000
227.180100 1643.400000
238.171500 7132.000000
242.166700 1425.500000
253.195200 52599.800000
271.205700 5017.400000
380.294900 2210.300000
396.326100 26837.800000

>ms2peaks
55.054100 1709.200000
58.064900 1426.800000
67.054200 14587.300000
69.069900 5363.400000
70.065100 51196.100000
79.054300 15411.200000
81.069900 22236.800000
82.065300 1600.100000
83.085300 1425.100000
86.096400 3328.700000
91.054300 17574.700000
93.069900 32188.500000
95.049400 1659.200000
95.085600 27709.300000
96.080900 5026.000000
97.064900 2684.700000
98.096400 2581.300000
105.069900 29201.300000
107.085600 34511.000000
108.080300 1699.500000
109.064800 1795.700000
109.101200 29825.500000
114.091400 7821.700000
117.069900 9667.100000
119.085600 19895.000000
121.101200 32566.000000
122.096300 2143.600000
123.116800 2500.100000
124.112200 27113.600000
126.127800 16089.100000
129.069900 10285.000000
131.085600 27847.000000
133.101200 51201.800000
135.116900 4684.000000
136.112300 2234.800000
138.128200 1154.400000
141.069700 2255.800000
142.077800 10863.000000
143.085600 18518.600000
144.093300 2925.400000
145.101300 37902.700000
147.116900 46975.600000
148.112300 1517.800000
150.127800 6371.800000
151.111900 2375.200000
152.143700 1380.900000
155.085700 6797.800000
156.093400 2083.100000
157.101300 93985.500000
159.117000 57407.500000
161.132400 3149.200000
162.127900 2472.000000
163.112100 1605.200000
164.143700 4873.800000
169.101200 8583.400000
171.116900 17767.400000
173.132600 11054.500000
175.111800 15374.300000
177.127500 1520.400000
178.159400 1216.500000
182.109300 1694.000000
183.116800 11848.800000
184.124600 2351.500000
185.132500 8854.500000
187.148200 1616.500000
196.124800 2488.100000
197.132600 13860.600000
198.140200 3442.800000
199.147800 3410.600000
209.132600 2769.600000
211.148200 13710.500000
212.156300 2669.500000
213.164000 2968.000000
223.148300 3990.200000
224.156000 4710.800000
225.163900 6110.100000
238.171900 5700.200000
253.195300 24812.300000
380.296400 2251.200000
396.326400 8081.800000

>ms2peaks
58.065200 1107.000000
67.054200 9588.600000
69.069800 3551.200000
70.065100 36503.800000
79.054300 13019.700000
81.069900 17123.500000
82.065300 1392.500000
86.096500 2569.900000
91.054300 14772.900000
93.070000 26264.600000
95.049100 2038.200000
95.085600 19286.800000
96.080800 3869.800000
97.064700 1885.300000
105.069900 25168.600000
107.085600 21130.400000
109.064700 1179.200000
109.089000 1285.700000
109.101200 17840.000000
114.091500 3415.400000
115.054600 1433.100000
117.069900 9026.200000
119.085700 16359.900000
121.101200 20533.500000
123.080100 1144.200000
123.117400 1905.200000
124.112100 15540.100000
125.119500 1733.100000
126.127800 9922.000000
129.070000 8449.100000
131.085600 20306.300000
133.101300 32424.400000
135.116900 2717.100000
141.069900 2662.500000
142.077800 11722.100000
143.085700 12840.200000
144.093900 2425.900000
145.101300 23284.600000
147.116900 27733.400000
150.127900 3656.700000
155.085700 5210.500000
156.093600 1740.100000
157.101300 61333.900000
159.117000 31383.900000
161.132600 1373.200000
162.127800 1381.100000
164.143300 2577.100000
169.101500 7208.500000
171.117000 12280.600000
173.132700 5453.100000
175.112000 6426.100000
182.109000 2515.900000
183.116900 9438.800000
185.132600 6328.000000
196.125000 2042.600000
197.132700 9192.700000
198.140300 1681.200000
199.148100 1377.800000
209.132600 1631.400000
211.148200 9363.800000
212.156400 2161.800000
223.148400 3606.900000
224.156000 2729.900000
225.163600 3548.600000
238.172300 3462.500000
253.195000 8105.000000
396.326900 3183.600000

>ms2peaks
55.054200 2695.400000
58.065000 1864.500000
65.038600 1685.800000
67.054200 54600.500000
68.049400 2770.800000
69.069900 15642.300000
70.065100 85183.800000
77.038700 3813.100000
79.054300 64109.300000
80.049500 4188.400000
81.069900 75731.200000
82.065100 8464.400000
83.049300 1539.600000
83.085300 2601.600000
84.080700 4913.900000
86.096400 4449.500000
91.054300 84465.600000
93.069900 109828.100000
94.065100 7420.000000
95.049300 4325.700000
95.073000 11049.300000
95.085500 73258.800000
96.080800 16256.300000
97.064900 4154.800000
98.096400 8777.300000
105.069900 132832.200000
107.085500 84596.700000
108.080700 8783.200000
109.064800 3656.000000
109.088600 7643.300000
109.101200 51981.200000
110.096500 7831.500000
111.104000 3167.600000
114.091300 7599.200000
115.054200 5073.600000
117.069900 49734.400000
118.077900 3707.000000
119.085600 66684.200000
120.081000 1686.200000
121.101200 54434.200000
122.096400 11333.600000
123.116800 3532.000000
124.112100 81516.000000
125.120000 7297.800000
126.127800 44019.300000
128.062200 10958.900000
129.069900 44655.300000
130.077600 12365.700000
131.085500 93081.100000
133.101200 119399.500000
134.096800 2297.900000
135.104400 1517.100000
135.116800 8004.900000
136.112000 7062.800000
138.127600 4310.000000
141.069800 14252.200000
142.077700 61486.500000
143.085500 56589.900000
144.093100 19398.900000
145.101200 80808.800000
147.116900 82524.000000
148.112100 15025.300000
149.119700 3010.700000
150.127800 29083.600000
152.143200 2806.500000
153.069800 1793.800000
154.077400 2671.000000
155.085600 23248.600000
156.093200 9978.900000
157.101200 190466.300000
159.116900 100687.100000
161.132800 4651.900000
162.127800 15604.800000
163.135300 2750.900000
164.143400 19998.200000
167.085500 4569.300000
168.093300 6290.700000
169.101200 30318.500000
171.116900 35287.200000
173.132500 15972.200000
174.127500 1781.800000
175.111900 12826.800000
176.143500 5500.000000
178.159200 2858.300000
181.101100 7709.900000
182.109100 10573.700000
183.116800 32439.900000
185.132500 17362.300000
188.143700 1459.000000
195.117000 7939.000000
196.124800 9784.200000
197.132500 29551.500000
198.140800 4851.000000
199.148200 6261.400000
202.158600 2525.200000
203.167300 2790.700000
204.174700 6007.000000
209.132400 9592.900000
210.140700 2162.500000
211.148100 23100.100000
213.163900 3046.900000
216.174600 3095.200000
218.190000 1577.000000
223.148200 13049.900000
224.156900 5703.200000
225.164400 5783.900000
238.171700 8055.300000
253.195000 13124.800000
366.278100 1645.000000
380.294400 8733.400000
396.325600 6458.000000

>ms2peaks
55.054100 3302.200000
58.065000 1348.100000
67.054200 50158.200000
68.049500 3078.700000
69.069800 11970.100000
70.065100 80543.500000
77.038600 6756.600000
79.054200 64780.200000
80.049400 7256.900000
81.069900 64141.900000
82.065100 9960.100000
83.049000 2051.200000
83.085500 2816.000000
84.080700 5335.200000
86.096400 3790.300000
91.054200 95586.800000
93.069800 98099.900000
94.065200 7335.900000
95.049100 3965.900000
95.072900 11834.600000
95.085500 58785.800000
96.080800 16089.500000
97.064700 2887.500000
98.096400 6962.800000
103.054100 2005.400000
105.069900 143385.000000
107.085500 66344.600000
108.080700 10683.100000
109.064700 2834.000000
109.088600 9656.700000
109.101100 37483.100000
110.096500 6332.400000
111.104100 3040.500000
114.091300 4545.400000
115.054200 5926.500000
116.062200 3851.700000
117.069800 47951.900000
118.077600 4395.900000
119.085500 59212.300000
121.101100 35666.700000
122.096400 11865.900000
123.116600 2790.500000
124.112000 60552.600000
125.119900 6814.800000
126.127700 31976.700000
128.062000 16940.700000
129.069800 49760.200000
130.077700 14951.800000
131.085500 85328.400000
133.101100 90206.800000
134.096500 2873.700000
135.116700 4195.600000
136.112000 6729.400000
138.127600 3214.700000
141.069900 16117.900000
142.077700 69703.200000
143.085400 49005.800000
144.093100 20789.400000
145.101100 64363.900000
147.116800 63244.700000
148.112000 14589.900000
149.119800 4112.000000
150.127700 29081.900000
152.143500 2424.200000
153.069300 2072.900000
154.077400 3869.900000
155.085500 25646.200000
156.092900 11282.000000
157.101100 137948.800000
159.116800 63745.300000
161.132500 2406.400000
162.127700 14208.900000
163.134800 2367.000000
164.143300 17939.800000
167.085500 7142.500000
168.093700 6465.400000
169.101100 27123.700000
171.116800 26074.600000
173.132600 9647.700000
174.127700 1642.300000
175.111800 4997.500000
176.143300 3377.700000
178.158900 2613.600000
181.101200 11102.300000
182.109000 9940.200000
183.116800 26489.900000
185.132500 11445.700000
188.143300 2427.800000
190.159200 2118.900000
195.116500 5559.500000
196.124700 8226.100000
197.132400 20575.600000
198.140500 2987.500000
199.147500 2126.700000
202.159300 4031.000000
203.167200 2905.000000
204.174900 5307.600000
209.132100 7989.600000
211.148100 12431.300000
212.156800 4541.900000
213.164300 1231.800000
216.175000 3594.200000
218.191100 1319.400000
223.148000 12623.500000
224.156800 4245.300000
225.163700 3918.700000
237.163900 2224.500000
238.171100 6084.900000
253.195000 3748.400000
366.280400 1232.900000
380.294800 5994.700000
396.327700 1659.500000

>ms2peaks
58.065000 1800.900000
65.038400 1356.100000
67.054200 51316.100000
68.049600 3539.100000
69.069800 13982.000000
70.065100 79883.300000
77.038600 7620.500000
79.054200 68930.700000
80.049500 7321.900000
81.069900 65477.100000
82.065100 11291.600000
83.085700 2360.200000
84.080900 4036.100000
86.096500 3812.500000
91.054200 106092.700000
93.069900 101328.800000
94.065100 9939.000000
95.049100 5731.700000
95.073000 12254.800000
95.085500 52758.000000
96.080800 16239.500000
97.064900 2463.600000
98.096500 8328.800000
103.054200 4198.900000
105.069900 153065.200000
107.085500 55704.300000
108.080700 12234.700000
109.064600 2398.400000
109.088400 7680.700000
109.101200 27233.800000
110.096400 9322.600000
111.104400 2280.900000
114.091300 3338.200000
115.054200 7921.000000
116.062100 7285.800000
117.069900 49014.100000
118.077800 4205.400000
119.085500 58482.900000
121.101100 23270.400000
122.096400 12330.000000
124.112100 43535.900000
125.119900 4504.100000
126.127700 19393.400000
128.062000 22190.300000
129.069800 55422.500000
130.077600 15382.600000
131.085500 77093.500000
133.101200 69780.100000
134.096200 3435.000000
135.116700 2883.300000
136.112000 6852.600000
138.127400 4042.500000
141.069800 23543.000000
142.077700 85423.500000
143.085400 45885.700000
144.093200 19928.800000
145.101100 53217.400000
147.116800 44481.300000
148.112000 14361.500000
149.119300 3195.300000
150.127700 30609.300000
152.143300 1767.000000
153.069600 3705.200000
154.077400 4202.000000
155.085500 25263.500000
156.093300 13085.100000
157.101100 100452.600000
159.116800 46356.300000
161.132300 1700.900000
162.127700 13451.500000
164.143400 14998.500000
167.085600 10411.000000
168.093100 7712.000000
169.101200 26019.500000
171.116700 18440.800000
173.132400 5274.600000
175.111600 1539.800000
176.143400 4510.100000
181.101200 13521.700000
182.108700 8965.200000
183.116900 24473.600000
185.132600 7317.300000
188.142500 2799.800000
190.158400 1983.400000
195.116900 4928.900000
196.124800 7056.500000
197.132400 16182.100000
199.148200 2797.400000
202.159000 3060.400000
204.174600 3939.800000
209.132700 7510.100000
211.148400 6687.800000
216.174400 3289.300000
223.148100 11839.000000
225.164500 1890.700000
237.162900 2549.200000
238.172000 2867.500000
253.195200 2011.900000
380.294700 4939.900000

>ms2peaks
55.054100 2157.200000
58.065000 1491.000000
65.038400 1639.800000
67.054200 47995.400000
68.049400 3016.800000
69.069800 9521.300000
70.065100 66381.900000
77.038600 9604.100000
79.054200 65595.600000
80.049500 7114.100000
81.069900 53769.300000
82.065100 10403.300000
83.085400 1185.300000
84.080800 4250.400000
86.096500 3132.600000
91.054200 101182.500000
92.061700 1457.300000
93.069800 74864.300000
94.065100 10887.500000
95.049100 4795.300000
95.072900 9131.200000
95.085500 39391.900000
96.080700 12145.600000
98.096400 5246.000000
103.054100 3815.800000
105.069800 136048.700000
107.072800 2365.600000
107.085500 37471.200000
108.080700 13108.200000
109.064900 1762.400000
109.088500 5274.000000
109.101100 16676.800000
110.096400 7046.300000
114.091500 1743.400000
115.054200 11813.300000
116.062100 5177.900000
117.069800 47533.800000
118.077700 5215.700000
119.085500 45274.100000
120.080600 1943.100000
121.101100 15821.100000
122.096300 8254.300000
124.112000 32625.300000
125.119700 3487.100000
126.127700 13321.000000
128.062000 24275.900000
129.069800 55042.900000
130.077600 17126.900000
131.085500 57810.200000
133.101100 44466.800000
134.096400 2987.100000
136.112100 6359.300000
138.127800 2418.700000
141.069900 21569.200000
142.077700 77261.600000
143.085300 36818.600000
144.093100 17381.100000
145.101100 33025.900000
147.116800 28969.200000
148.112000 13778.200000
149.119900 2495.200000
150.127600 22968.000000
153.069600 3837.800000
154.077700 4272.800000
155.085500 21542.300000
156.093000 9348.700000
157.101100 62630.600000
159.116800 26102.100000
162.127900 10732.500000
164.143400 10852.300000
167.085500 8768.900000
168.093200 6754.300000
169.101200 18831.000000
171.116700 12322.200000
173.132500 3316.400000
176.143300 3324.600000
178.159700 1275.700000
181.101100 11116.200000
182.109100 6345.400000
183.116800 18065.500000
185.132600 3248.600000
188.143600 2729.200000
195.116500 5574.500000
196.124600 4781.400000
197.132600 11723.500000
199.147500 2073.300000
202.159700 3183.800000
204.174900 3396.900000
209.132600 5957.900000
210.141100 1674.900000
211.148500 3541.300000
212.156200 1481.900000
216.174900 1705.000000
223.147900 9360.400000
225.163700 1329.800000
237.163900 1453.300000
238.171600 1850.400000
380.294900 2109.800000

>ms2peaks
55.054100 2057.600000
65.038500 1441.500000
67.054200 39019.900000
68.049300 2411.800000
69.069800 10951.700000
70.065100 53550.100000
77.038600 10494.800000
79.054200 58490.600000
80.049400 7949.000000
81.069800 44725.600000
82.065100 8518.100000
83.049300 1270.700000
84.080700 3782.600000
86.096300 2239.200000
91.054200 105282.500000
92.061700 1309.200000
93.069800 58516.400000
94.065100 12048.600000
95.049100 3666.400000
95.072800 9597.700000
95.085500 27118.200000
96.080800 11008.200000
98.096400 4223.500000
103.054200 4571.500000
105.069800 117372.600000
107.072600 1728.100000
107.085500 26778.900000
108.080800 11441.300000
109.065000 1270.600000
109.088600 6596.900000
109.101100 11290.200000
110.096400 7567.700000
111.104100 1650.400000
114.091300 1541.400000
115.054100 14222.400000
116.062000 6479.100000
117.069800 39224.900000
118.077600 4919.700000
119.085500 39136.300000
120.080700 2320.800000
121.101000 9550.200000
122.096400 8315.300000
124.112000 22406.100000
125.120200 2687.900000
126.127700 8869.900000
128.062000 25915.800000
129.069800 50444.800000
130.077600 15500.300000
131.085400 47716.800000
133.101100 32625.400000
134.096200 3421.800000
135.104200 1503.000000
135.116400 1271.800000
136.112000 5148.900000
138.127900 1288.600000
141.069800 26290.600000
142.077600 70340.700000
143.085200 28859.100000
144.093200 15472.700000
145.101100 23850.900000
147.116700 18273.100000
148.112000 11250.200000
149.119700 2046.500000
150.127700 21555.600000
153.069700 4381.800000
154.077500 4141.800000
155.085500 21328.500000
156.093100 9441.100000
157.101100 43310.600000
159.116800 13459.100000
162.127800 8798.300000
164.143200 5129.500000
167.085400 10230.100000
168.093200 6671.000000
169.101200 14515.800000
171.116500 6541.900000
173.132600 1975.000000
176.143600 2427.600000
181.101000 9459.500000
182.108700 5774.700000
183.116700 12749.400000
185.132100 2181.000000
188.143300 2776.100000
195.116600 4618.700000
196.124900 2952.100000
197.132200 7984.600000
202.159200 2938.000000
204.174800 2363.600000
209.132700 4701.000000
211.148500 2069.200000
223.148000 5800.600000

