>compound NA87690228
>parentmass 249.19610000000006
>ionization [M+H]+
>formula C15H24N2O
>rt 42.690000
>profile orbitrap
#smiles_iso C1C[C@@H]2[C@H]3CCCN4[C@H]3[C@@H](CCC4)CN2C(=O)C1
#smiles_can C1CC2C3CCCN4C3C(CCC4)CN2C(=O)C1
#inchikey ZSBXGIUJOOQZMP-JLNYLFASSA-N
#pubchem_id 91466
#mb_accession NA002329,NA002330,NA002331,NA002332,NA002333,NA002724,NA002725,NA002726,NA002727,NA002728,NA003104,NA003105,NA003106,NA003107,NA003108,NA003469,NA003470,NA003471,NA003472,NA003473

>ms2
249.196100 327197.200000

>ms2
249.196100 424253.200000

>ms2
249.196200 943393.700000

>ms2
249.196200 890770.900000

>ms2
249.196200 800678.100000

>ms2
249.196100 974761.700000

>ms2
249.196200 898590.200000

>ms2
247.180700 4596.700000
249.196200 840160.400000

>ms2
148.112200 3743.300000
150.128200 2892.300000
247.180600 9798.500000
249.196200 770364.400000

>ms2
148.112000 9841.000000
150.127600 6265.100000
247.180500 19988.200000
249.196100 705153.700000

>ms2
84.080500 1165.100000
98.060100 2249.100000
110.096600 2515.800000
112.075700 6712.200000
136.112300 3159.500000
138.127600 2514.100000
148.112200 32403.000000
150.091000 1039.700000
150.127800 14713.700000
152.143400 3405.600000
176.107300 6143.600000
190.122900 1789.400000
204.138800 1982.100000
218.153400 3757.600000
220.170500 1932.000000
230.152900 1227.600000
231.185300 3915.300000
232.169700 2603.800000
247.180800 44520.200000
249.196200 914410.100000

>ms2
84.080600 1305.500000
96.080800 2936.500000
98.060100 3879.700000
98.096000 1302.100000
110.096700 4919.800000
112.075700 12164.100000
133.101500 1367.800000
134.096900 1055.600000
136.112400 1807.700000
138.127800 3513.700000
148.112200 45619.800000
150.127900 23174.000000
152.143700 5307.100000
162.090900 1058.900000
164.106900 1360.100000
166.122900 2914.200000
176.107200 9022.500000
190.122800 3865.500000
204.137700 2391.200000
218.153900 4169.200000
220.169800 2183.300000
231.185500 3885.200000
232.170100 2639.300000
247.180700 51279.900000
249.196200 737591.400000

>ms2
70.065100 1753.500000
84.080800 2852.400000
93.070000 1821.000000
96.080800 4311.300000
98.060100 7665.300000
98.096400 3052.600000
107.085600 1298.800000
109.100800 1492.400000
110.096500 10142.300000
112.075700 17353.400000
114.091500 1733.400000
122.096700 3040.000000
134.096300 2144.600000
136.112000 5427.700000
138.091300 1157.900000
138.127700 4406.900000
148.112100 57105.500000
150.127800 29602.400000
152.143500 7089.000000
162.091000 1316.000000
166.122500 3328.500000
176.107100 14319.300000
188.143600 1638.700000
190.123000 6195.100000
190.159100 1234.300000
204.138100 3485.700000
204.175000 1197.600000
218.153800 4702.600000
220.169400 4074.500000
231.185500 4178.300000
232.169400 4093.100000
247.180600 58944.200000
249.196100 549781.600000

>ms2
70.065200 2556.000000
81.069700 1402.800000
82.065400 1582.600000
84.080900 5835.400000
93.070100 2109.000000
95.085600 2106.300000
96.080900 8496.700000
98.060100 12892.200000
98.096700 3820.800000
107.085600 1310.700000
110.096500 14645.800000
112.075700 17546.500000
114.091000 1384.800000
120.080600 1883.100000
122.096500 4161.600000
124.111700 2234.700000
134.096600 3700.100000
136.112200 8570.600000
138.091200 2087.100000
138.127900 5816.500000
148.112200 74935.500000
150.127900 37371.400000
152.107100 1495.200000
152.143400 10079.100000
162.091400 2869.500000
162.128100 3517.100000
164.107100 2648.100000
166.122800 3674.500000
176.107200 22347.800000
176.143500 3225.000000
178.122900 2336.400000
178.159200 1968.500000
190.122800 8354.800000
190.159200 3034.300000
204.138500 4411.600000
218.153900 7002.300000
220.169900 4476.600000
231.185700 4530.400000
232.170200 5053.400000
247.180700 56831.900000
249.196300 427919.100000

>ms2
70.065000 2891.700000
81.069800 1191.100000
82.065200 1159.200000
84.080800 7658.600000
93.069800 3408.200000
95.085600 1743.800000
96.080800 12035.900000
98.060100 19051.300000
98.096500 6526.900000
107.085400 1559.000000
109.101300 1321.500000
110.096500 20755.000000
112.075800 20751.500000
120.080900 4079.700000
122.096500 6871.700000
124.112300 2604.600000
133.101500 1459.200000
134.096500 6379.300000
136.112300 10444.000000
138.091300 2298.400000
138.127800 6730.700000
148.112200 80157.500000
150.091300 2258.100000
150.127800 39401.400000
152.106800 1928.600000
152.143400 12040.200000
162.091300 2141.800000
162.127600 3048.300000
164.107100 2836.400000
166.122800 4251.200000
176.107100 26950.600000
176.143400 4068.400000
178.123300 2177.100000
178.158700 1746.000000
188.142900 1247.500000
190.122800 11528.500000
190.159300 3103.900000
204.138100 4457.000000
204.174700 1900.900000
218.154200 6629.800000
220.169900 4950.600000
230.154000 1740.200000
231.185800 2485.300000
232.169700 5805.900000
247.180600 45813.300000
249.196200 299289.800000

>ms2
67.054100 1971.500000
69.069900 1147.400000
70.065100 6451.600000
79.054300 3595.700000
81.070000 3062.600000
82.065100 2729.500000
84.080800 13280.900000
91.054400 2968.800000
93.069900 5585.400000
94.065100 1242.000000
95.085500 3317.500000
96.080900 19409.800000
97.088500 1084.300000
98.060100 21249.800000
98.096500 11335.700000
100.075400 1200.100000
105.069900 1901.700000
106.065200 1646.400000
107.085500 3500.400000
108.080800 2942.000000
109.101400 2025.900000
110.060200 1581.100000
110.096500 31134.600000
112.075700 25968.700000
112.112400 1357.100000
119.085200 1994.600000
120.080900 7947.800000
121.101400 1651.700000
122.096400 11433.800000
123.104200 2306.800000
124.112200 5455.800000
131.085700 1755.200000
134.096500 8380.700000
136.075800 1899.900000
136.112300 14179.500000
137.120200 2168.800000
138.091900 3034.900000
138.127800 8966.900000
145.101300 1449.900000
148.075800 4950.700000
148.112200 95610.900000
149.120000 3438.200000
150.091700 4666.900000
150.127800 50810.600000
152.107200 1501.500000
152.143500 14549.800000
162.091000 3841.500000
162.128100 6144.400000
164.107000 4207.900000
166.123000 5105.600000
174.127400 1667.200000
176.107100 35506.800000
176.143500 7029.700000
178.122900 2902.000000
178.159300 2284.600000
188.142900 3081.900000
190.122700 13385.900000
190.159300 5554.600000
202.159300 1133.400000
204.138500 6068.700000
204.174900 1164.300000
218.154100 7765.900000
219.185700 2074.300000
220.169600 7755.800000
221.201400 2008.200000
229.169400 1494.200000
230.153800 2077.900000
231.185500 4109.400000
232.170300 5601.200000
247.180600 44548.600000
249.196100 248162.300000

>ms2
67.054200 4255.100000
70.065100 6272.700000
79.054300 3563.200000
81.070000 5320.300000
82.065300 2779.800000
84.080800 12601.000000
91.054300 2363.900000
93.069900 6211.100000
95.085700 4266.600000
96.080900 18477.300000
98.060100 22090.400000
98.096500 13204.800000
100.075400 1368.900000
105.069700 2557.000000
106.065200 1728.700000
107.085800 3320.100000
108.080900 4415.000000
110.096500 30356.600000
112.075700 20610.000000
119.085600 2034.700000
120.080900 9645.700000
122.096500 12491.300000
123.104100 1493.400000
124.112100 5093.100000
131.085400 2257.400000
134.096500 10251.500000
136.112100 14330.100000
137.120300 1851.300000
138.091300 3515.300000
138.127800 6543.100000
145.101800 1366.600000
148.075900 6352.900000
148.112200 85514.500000
149.120100 2496.500000
150.091500 4616.300000
150.127900 45650.500000
152.106700 1117.900000
152.143500 11354.200000
160.112300 1267.200000
162.091400 5039.300000
162.128000 7980.000000
164.107500 4292.700000
164.143400 2622.200000
166.122700 3533.500000
174.127300 2071.900000
176.107100 32189.100000
176.143600 7378.700000
178.122300 2550.500000
178.159400 2115.600000
188.144000 3169.000000
190.122500 12250.000000
190.159000 4479.700000
192.138500 1460.100000
204.138000 5068.900000
204.175200 1618.300000
218.154000 6045.400000
219.185700 2088.900000
220.169900 5554.500000
229.170400 2198.600000
230.154400 1866.500000
231.184700 1927.400000
232.169700 4348.800000
247.180600 28729.300000
249.196100 139321.500000

>ms2
55.054200 1211.300000
67.054200 3010.900000
69.069800 1864.700000
70.065100 7477.600000
79.054300 5406.300000
80.049600 1324.700000
81.069900 5002.600000
82.065300 2956.500000
84.080800 12541.400000
91.054200 4994.600000
93.069800 6362.900000
94.065300 2534.600000
95.085600 3997.500000
96.080800 22746.100000
98.060000 20789.600000
98.096400 11603.200000
105.069900 2979.100000
106.065200 2386.900000
107.085600 3349.500000
108.080800 5946.700000
109.101100 2181.400000
110.060000 1781.300000
110.096400 30695.500000
112.075700 16041.400000
119.085700 2868.400000
120.080800 11568.500000
121.101300 1175.700000
122.096400 14419.600000
123.104800 1482.100000
124.112000 5931.200000
131.085900 1956.600000
133.101600 1774.200000
134.096400 11781.600000
135.104900 1742.300000
136.112100 15071.600000
138.091400 3975.100000
138.127800 4471.900000
145.101500 2231.300000
146.096400 1359.800000
148.075700 5355.900000
148.112100 65467.100000
149.120000 2403.600000
150.091500 3811.900000
150.127700 35903.400000
152.143400 10008.200000
160.112700 2096.300000
162.091400 6552.200000
162.127800 8601.400000
164.107200 3520.800000
164.143800 1087.500000
166.123200 1949.100000
174.128400 3393.000000
176.107000 25805.900000
176.143300 8158.000000
178.122200 2394.400000
178.159200 2113.400000
188.143100 3453.300000
190.122600 7124.900000
190.159300 3658.700000
192.138500 1351.900000
202.158700 1216.600000
204.138100 3391.600000
204.174500 1957.700000
218.154300 3388.800000
220.169500 3351.700000
232.169500 3080.900000
247.180400 17759.600000
249.196000 71923.500000

>ms2
55.054000 1000.600000
67.054200 5124.700000
70.065100 7480.100000
79.054300 5271.800000
80.049600 1601.300000
81.069900 4376.100000
82.065200 4036.300000
84.080800 10477.000000
91.054300 5188.200000
93.069800 6427.800000
94.065200 3555.800000
95.085500 4190.000000
96.080800 24892.200000
97.088700 1387.500000
98.060100 20680.200000
98.096400 14087.700000
105.069900 3536.900000
106.065100 1969.000000
107.085300 2791.800000
108.080800 6555.000000
109.088400 2107.400000
110.096400 28485.500000
112.075700 12481.000000
112.111900 1509.400000
117.069500 1645.300000
119.085400 2517.300000
120.080800 11529.000000
122.096400 16911.800000
124.112100 6162.700000
131.085800 1971.100000
132.080900 1984.300000
133.088700 1676.600000
133.100900 1435.200000
134.096300 13438.900000
135.104400 2574.000000
136.076100 2510.700000
136.112100 15887.500000
137.120100 1179.100000
138.091700 3954.700000
138.127800 3873.400000
146.096500 1965.100000
148.075500 5459.200000
148.112100 60602.800000
149.120100 2711.600000
150.091500 3723.500000
150.127700 31828.400000
152.106800 1098.000000
152.143500 6699.300000
162.091400 5197.900000
162.127900 7351.100000
164.107100 3165.400000
164.143700 1694.700000
174.127800 1666.900000
176.107000 19020.500000
176.143400 9461.200000
178.122500 1286.000000
178.159500 1804.000000
188.143200 1822.500000
190.122400 7583.900000
190.158800 2637.300000
204.138200 2310.200000
204.175100 1515.800000
218.154600 2571.900000
220.169600 3018.900000
221.201900 1657.200000
230.154400 1175.800000
232.169000 1410.400000
247.180400 9367.100000
249.195900 41427.900000

>ms2
67.054300 4697.900000
70.065100 6574.300000
79.054200 5197.500000
80.049400 1950.400000
81.069900 6595.700000
82.065100 3531.900000
84.080800 13110.500000
91.054200 3997.700000
93.069900 7066.100000
94.065100 3289.200000
95.085500 4336.800000
96.080800 20964.700000
98.060000 15654.700000
98.096400 12432.100000
105.069800 3502.400000
106.065100 2747.800000
107.085700 3490.100000
108.080700 7419.900000
109.088500 1563.900000
110.060200 1430.200000
110.096400 27253.200000
112.075700 8196.000000
117.070200 1474.900000
119.085300 2515.300000
120.080700 13353.100000
122.096400 17718.900000
123.104000 1624.500000
124.112200 3555.500000
131.085100 1943.000000
132.080200 2422.800000
133.088700 2385.900000
134.096500 15670.600000
135.104300 1944.700000
136.076000 1690.800000
136.112100 13903.200000
138.091200 2336.200000
138.127800 3552.400000
148.075800 4289.900000
148.112100 46058.700000
149.119900 2718.200000
150.091500 1871.900000
150.127700 23714.400000
152.143600 4741.900000
160.111700 1861.800000
162.091200 4347.800000
162.127600 8033.300000
164.106800 2033.100000
174.127600 2208.400000
176.107000 13265.100000
176.143200 6687.300000
178.158700 1462.600000
188.143000 2306.100000
190.122400 4985.500000
190.158300 2191.100000
204.138000 2779.300000
218.153600 1992.600000
219.185700 1682.700000
220.169200 1593.300000
247.180400 5653.500000
249.195900 21004.400000

