>compound NA90303677
>parentmass 354.13360000000006
>ionization [M+H]+
>formula C20H19NO5
>rt 402.510000
>profile orbitrap
#smiles_iso CN1CCC2=CC3=C(C=C2C(=O)CC4=C(C1)C5=C(C=C4)OCO5)OCO3
#smiles_can CN1CCC2=CC3=C(C=C2C(=O)CC4=C(C1)C5=C(C=C4)OCO5)OCO3
#inchikey GPTFURBXHJWNHR-UHFFFAOYSA-N
#pubchem_id 4970
#mb_accession NA002374,NA002375,NA002376,NA002377,NA002378,NA002769,NA002770,NA002771,NA002772,NA002773,NA003149,NA003150,NA003151,NA003152,NA003153,NA003514,NA003515,NA003516,NA003517,NA003518

>ms2peaks
354.133300 472182.500000

>ms2peaks
188.069900 1890.100000
354.133400 1257342.800000

>ms2peaks
149.059700 3662.900000
188.070600 3356.500000
189.078000 2606.400000
206.081700 1362.700000
354.133500 1211028.200000

>ms2peaks
149.059600 19660.600000
165.054500 2975.900000
188.070500 18950.800000
189.078400 13443.100000
206.081000 5434.800000
305.081200 3080.600000
323.090000 2739.000000
336.122500 6804.000000
354.133500 1294238.100000

>ms2peaks
149.059700 63266.700000
165.054700 13528.100000
175.039300 3507.100000
188.070600 70210.400000
189.078400 60631.800000
206.081100 20016.300000
305.080700 7972.400000
323.091500 10299.600000
336.122900 21111.300000
354.133600 1147471.200000

>ms2peaks
135.044000 5548.800000
144.081000 4444.900000
149.059700 128103.000000
161.060300 1229.600000
165.054600 41129.500000
175.038900 11639.300000
176.070900 2139.900000
177.054700 1501.700000
177.078200 8222.800000
178.086300 11186.700000
188.070600 174851.300000
189.078400 156319.900000
190.086100 8394.800000
192.102000 4852.600000
204.065500 4517.800000
206.081100 46967.600000
212.128400 1717.100000
223.075500 2428.400000
225.091400 3832.900000
235.075500 2963.200000
247.075700 7520.900000
253.085900 7061.200000
265.085900 11066.200000
267.064700 5242.300000
275.070300 24064.500000
283.096600 5171.700000
293.080600 9542.700000
295.096700 8790.400000
305.080800 17185.800000
306.113300 4065.000000
307.096100 2801.500000
311.091000 3832.600000
321.099000 2512.100000
323.091400 20283.700000
336.123100 44632.800000
354.133600 960958.400000

>ms2peaks
91.054300 1544.200000
107.049100 1323.300000
119.048800 2490.600000
135.044100 13088.800000
144.080700 5453.200000
147.044300 1099.100000
149.059700 173462.000000
161.059600 2118.700000
163.038900 3018.500000
165.054600 73125.800000
175.039000 18051.800000
176.070800 4039.900000
177.054600 3791.600000
177.078500 15020.700000
178.086300 12913.200000
187.038900 2586.200000
188.070600 258882.200000
189.078400 276007.300000
190.086500 13033.500000
192.101800 6113.300000
195.080400 5876.100000
202.087000 1079.000000
204.065500 7548.400000
206.081100 73299.500000
212.127700 2684.100000
223.075400 5387.900000
225.091100 9895.400000
235.075300 6421.400000
237.055000 1290.300000
237.090500 2469.900000
247.075300 18628.200000
249.091900 1841.400000
251.069900 1442.200000
253.086100 10371.600000
263.070700 1946.800000
265.085900 19898.900000
267.065200 14866.900000
275.070300 46155.000000
277.085500 1266.100000
278.117300 3592.500000
281.081200 1454.900000
283.096300 8033.800000
293.080800 17089.500000
295.096400 12782.800000
305.080700 19441.000000
306.112100 5920.800000
307.096500 3346.200000
311.091400 5346.100000
321.100300 5276.400000
323.091500 25548.400000
336.123000 58951.000000
354.133600 622226.600000

>ms2peaks
91.054200 2261.300000
107.049300 3059.600000
119.049200 5114.500000
135.044100 20555.800000
144.081100 3492.900000
147.044100 2903.500000
149.059800 180106.900000
161.059800 4730.800000
163.039000 4839.100000
165.054800 91172.600000
173.059900 1662.900000
175.039200 24529.400000
176.070600 6082.500000
177.054600 4521.600000
177.078500 15587.200000
178.086500 16663.900000
187.039000 2727.200000
188.070700 305028.800000
189.078500 351703.600000
190.086500 16994.800000
192.101900 5367.900000
195.080700 12501.900000
204.065700 7079.500000
206.081300 81764.400000
223.075600 8029.200000
225.091100 12543.300000
235.075600 17099.800000
237.054900 3956.900000
237.091000 6076.000000
247.075500 29023.500000
253.086100 10484.300000
263.071200 5912.500000
265.086100 29550.600000
267.065300 19464.500000
275.070500 65946.000000
277.085300 2438.400000
278.117700 6192.500000
281.081800 1649.700000
283.096400 5952.300000
293.081100 20357.400000
295.096800 16177.100000
305.080900 18050.900000
306.112800 6898.700000
307.096700 4028.100000
311.092000 5755.600000
320.091000 3404.700000
321.100000 8581.300000
323.091500 26858.100000
334.108100 4369.400000
336.123400 52332.500000
354.133900 312046.400000

>ms2peaks
91.054200 4652.800000
107.049200 6494.100000
109.064700 1686.500000
119.049200 7366.600000
135.044100 24725.600000
147.044100 5604.800000
149.059700 161228.900000
159.044500 2168.900000
160.075700 1295.000000
161.059700 3261.100000
163.039100 8056.500000
165.054700 86835.000000
173.059900 3009.100000
175.039000 30078.000000
176.070700 9597.200000
177.054500 5093.400000
177.078400 14031.300000
178.086400 16420.400000
187.038800 4410.900000
188.070600 322998.600000
189.078400 361014.400000
190.086300 16223.900000
192.101100 3160.700000
195.080500 16888.200000
201.079200 1780.000000
204.065700 6142.500000
206.081200 85431.600000
207.080200 9561.000000
209.059400 1904.700000
217.064700 4325.100000
223.075400 11254.000000
225.090900 13596.600000
235.075400 26938.100000
237.054700 6049.700000
237.091200 11048.700000
245.060500 2880.100000
247.075400 47314.000000
249.090900 2667.400000
251.069400 1439.400000
253.085900 9158.200000
263.070500 10857.900000
265.085900 35921.200000
267.065300 21326.700000
275.070300 76220.600000
277.086600 2357.600000
278.117900 7534.300000
281.081700 2293.500000
283.097000 3024.400000
292.073800 1206.400000
293.080900 20984.800000
295.096600 16326.600000
305.080900 12565.500000
306.112800 8801.900000
307.097200 2911.000000
311.091400 5347.600000
320.091500 6058.200000
321.099700 10450.800000
323.091500 16065.300000
334.107600 6062.700000
336.123100 34409.300000
354.133800 139564.900000

>ms2peaks
91.054300 5642.500000
107.049200 11535.400000
109.065200 1678.100000
119.049200 12138.400000
135.044100 27511.700000
147.044100 9197.600000
149.059800 135678.800000
159.044200 3448.800000
160.075500 2668.300000
161.060100 3793.300000
163.039100 12177.300000
165.054700 69547.300000
173.060200 2950.900000
175.039000 26522.900000
176.070800 8648.000000
177.054600 3288.400000
177.078600 12117.000000
178.086400 11986.800000
187.039100 3711.600000
188.070700 310993.200000
189.078500 349825.800000
190.086400 12381.500000
192.102400 1946.900000
195.080500 26941.000000
201.078400 1267.900000
202.085900 1167.900000
204.065300 3752.000000
206.081200 73402.700000
207.080500 15128.200000
209.059700 3861.900000
217.064900 9016.300000
223.075400 11120.200000
225.091200 11789.500000
235.075400 35310.700000
237.054500 10218.600000
237.091000 15419.000000
245.059500 4455.600000
247.075500 56548.000000
249.090800 4942.800000
251.070100 1676.700000
253.086400 6029.600000
263.070500 12519.200000
265.086000 33132.000000
267.065300 20398.900000
275.070400 67412.700000
277.085900 2553.700000
278.117900 8323.400000
281.080900 1848.200000
283.097000 1529.600000
292.073000 1265.500000
293.081000 16817.500000
295.096600 12007.600000
305.081000 7202.600000
306.112900 6310.800000
307.095800 1874.300000
311.091800 3786.800000
320.091900 9083.400000
321.099500 9278.000000
323.091500 8506.600000
334.107500 7780.000000
336.123300 22526.400000
354.133900 50283.600000

>ms2peaks
79.054200 3546.000000
91.054200 18625.100000
107.049100 21581.700000
109.064700 4686.300000
115.054600 1215.700000
117.069600 971.000000
118.065000 1081.500000
119.049100 23065.500000
131.049000 4692.400000
131.073100 1897.800000
132.080800 3198.500000
135.044000 54767.400000
137.060100 2121.200000
144.080700 30902.500000
146.059900 3509.400000
147.044000 21557.800000
149.059700 187103.200000
159.044200 7672.200000
159.067800 13057.100000
160.075600 7339.000000
161.059800 7748.300000
163.038900 23855.300000
165.054600 78677.100000
167.085500 8649.400000
173.059700 7317.700000
174.054600 2829.200000
175.038900 37406.100000
176.070500 12638.800000
177.054600 3716.400000
177.078400 18719.000000
178.086300 12959.200000
179.085500 7551.400000
181.064900 1537.600000
187.039000 5634.100000
188.070600 468439.800000
189.078400 452948.600000
191.085300 1420.900000
195.080300 46064.600000
201.078900 2356.300000
204.065600 4965.900000
205.064400 5194.200000
206.081100 96886.600000
207.079800 31488.700000
209.059600 16823.000000
212.127800 2633.800000
217.064700 23428.500000
219.080400 7310.500000
222.067000 1504.000000
223.075400 17863.900000
225.090900 13695.000000
233.059600 3788.500000
235.075200 64067.100000
237.054600 18470.600000
237.090700 28097.100000
245.059600 9244.600000
247.075300 100518.600000
248.107200 1372.600000
249.091000 7798.600000
251.070800 3844.900000
253.085900 7305.900000
263.070300 20483.400000
265.085800 42535.700000
266.057400 2850.500000
267.065300 24817.600000
275.070300 91767.900000
277.085900 5124.600000
278.117500 11857.100000
279.065100 2063.100000
280.072300 1475.500000
292.073100 2837.700000
293.080800 19530.800000
295.096500 10571.700000
304.097000 1612.000000
305.080800 6785.900000
306.112700 7441.400000
311.091300 2432.800000
320.091500 17041.900000
321.099700 10364.500000
323.091500 6890.700000
334.107400 9279.500000
336.123200 14437.000000
354.133600 25561.300000

>ms2peaks
79.054200 5462.300000
91.054200 19361.700000
93.070300 1823.600000
103.054300 2172.700000
107.049100 27246.600000
109.064700 4093.600000
118.065000 3508.200000
119.049100 23905.900000
120.080900 1813.600000
121.064900 1457.900000
131.049100 6181.700000
131.072700 4197.100000
132.080800 4171.700000
135.044100 56735.000000
137.059700 1697.500000
143.049400 1979.200000
144.080800 21117.500000
146.060300 4320.700000
147.044100 28668.000000
149.059700 168015.200000
159.044300 9959.400000
159.067900 23985.700000
160.052100 1661.300000
160.075600 10616.500000
161.059800 7479.400000
161.083200 1185.300000
163.039000 29120.000000
165.054700 55665.300000
167.085500 13535.700000
173.059900 5325.400000
174.054900 6216.100000
175.039000 31180.300000
176.070600 12063.700000
177.054500 2366.600000
177.078500 14186.700000
178.086300 10131.500000
179.085400 15498.300000
181.065200 2862.100000
187.039000 4551.800000
188.070600 435715.000000
189.078400 377260.800000
191.084800 3650.500000
193.064700 2305.200000
195.080400 44339.300000
201.078400 2031.500000
204.065600 4880.000000
205.064500 9240.500000
206.081100 73833.000000
207.080100 46460.900000
209.059600 24406.100000
211.075600 1458.000000
212.128500 1339.200000
217.064700 36986.600000
219.080400 10591.500000
221.059400 1283.600000
222.067800 2316.700000
223.075400 15575.000000
225.091000 9607.600000
233.059000 3756.500000
235.075200 62474.700000
237.054400 20566.100000
237.090900 30780.500000
245.059500 7147.800000
247.075300 97673.200000
248.106900 1211.500000
249.091000 6076.700000
250.062900 1314.800000
251.070400 3159.500000
253.086300 4803.100000
262.061800 1367.700000
263.070200 17502.600000
263.094400 2469.800000
265.085900 32834.100000
266.057400 3130.100000
267.065400 15912.200000
275.070300 74799.000000
276.101700 1232.100000
277.086000 4103.000000
278.117300 11682.800000
279.064000 1312.400000
280.072200 2712.900000
291.089200 1660.800000
292.073900 3202.500000
293.080700 14802.500000
295.096100 5827.100000
304.096700 1880.900000
305.080500 4255.300000
306.112500 5441.900000
311.090200 1754.400000
320.091600 20030.500000
321.100000 7428.400000
323.090800 1897.500000
334.107300 7655.500000
336.122500 7191.400000
354.133800 9110.600000

>ms2peaks
77.038400 1461.200000
79.054300 7104.500000
91.054200 27393.500000
93.070100 1872.100000
103.054100 3939.200000
107.049100 29201.200000
109.064700 5627.300000
115.054200 1698.700000
118.065200 2800.800000
119.049200 28054.700000
120.080700 1929.700000
121.064500 1556.500000
130.065000 2890.700000
131.049000 6384.100000
131.072900 8063.800000
132.080600 3956.900000
135.044100 59154.500000
137.059700 2370.500000
143.049600 1375.500000
144.080800 13546.200000
146.060200 7116.800000
147.044100 33671.200000
148.075800 1654.400000
149.059700 144234.800000
158.060700 1092.200000
159.044100 10689.400000
159.067900 37068.800000
160.051200 1788.300000
160.075700 16119.400000
161.059900 8669.000000
161.083800 2731.900000
163.039000 29827.100000
165.054700 32416.000000
167.085500 21155.000000
173.059900 4917.500000
174.055000 10726.100000
175.039000 22218.200000
176.070500 9427.500000
177.055000 1532.000000
177.069900 4870.200000
177.078500 10758.800000
178.077000 1840.000000
178.086200 7585.200000
179.085500 26353.100000
181.065500 1750.200000
187.039400 3867.500000
188.070600 409014.600000
189.069300 29473.500000
189.078400 308383.000000
191.085300 6028.700000
193.064300 3491.300000
195.080400 38930.100000
204.065600 3526.200000
205.064600 13312.600000
206.081100 54462.400000
207.080300 55026.200000
209.059500 35190.300000
211.075000 1356.600000
217.064700 43970.500000
219.080400 11983.800000
220.112900 1676.600000
222.067300 3433.500000
223.075500 12504.900000
225.090900 6119.000000
233.059700 2481.500000
235.075300 59085.500000
237.054500 19145.900000
237.090800 29344.000000
245.059900 7208.100000
246.068100 1531.700000
247.075400 88639.800000
248.106800 2370.700000
249.090700 4446.500000
250.062100 2578.000000
251.070300 2533.600000
253.086400 1872.700000
263.070200 16431.800000
263.094200 3091.100000
265.085800 21880.100000
266.056800 3110.000000
267.065300 10333.000000
275.070300 55478.000000
276.102300 1412.600000
277.085000 2102.500000
278.057700 1747.100000
278.117500 8389.000000
279.066100 1485.300000
280.072800 2353.800000
292.072500 3332.400000
293.080900 10372.300000
295.096200 2997.400000
304.098100 2159.800000
305.079600 2440.500000
306.112500 3854.900000
311.091900 1152.500000
320.091600 19289.000000
321.099300 6063.600000
334.107600 6013.500000
336.123000 2390.200000
354.134300 1750.700000

>ms2peaks
77.038800 2555.500000
79.054200 9230.500000
91.054200 31312.100000
93.069900 2458.200000
103.054100 4681.200000
107.049100 32477.600000
109.064800 4706.400000
115.054200 1255.200000
117.069800 1082.400000
118.065000 4756.600000
119.049100 31306.700000
120.080700 2793.600000
121.064700 1566.300000
130.065100 4494.800000
131.049100 8221.400000
131.072900 16070.200000
132.080800 3790.800000
135.044100 52098.900000
137.059900 2147.300000
143.049300 2226.400000
144.080800 10389.300000
146.060100 5334.100000
147.044100 38676.500000
148.051700 1946.900000
148.076100 1664.900000
149.059700 129912.400000
159.044000 13347.800000
159.067800 45407.900000
160.051600 2184.800000
160.075700 22801.300000
161.059600 7162.600000
161.083100 3016.300000
163.038900 30294.400000
165.054600 20301.000000
165.069700 3179.500000
167.085500 26366.000000
173.059900 4846.100000
174.055000 14005.800000
175.038900 18539.600000
176.070600 9052.000000
177.069900 8357.000000
177.078400 9383.900000
178.077300 3411.600000
178.086300 5481.800000
179.085500 37950.900000
181.065100 3289.100000
187.039600 2370.900000
188.070600 363720.700000
189.069400 47190.700000
189.078400 246515.600000
190.086000 9572.900000
191.085200 10600.600000
193.064700 4201.600000
195.080400 36139.000000
204.065000 2506.400000
205.064600 21746.600000
206.081100 37278.000000
207.080300 55359.200000
209.059600 43734.300000
217.064700 51334.700000
219.080300 14753.200000
220.112800 2239.200000
221.059000 2120.300000
222.067300 6041.100000
223.075300 9526.000000
225.090800 4135.000000
233.059400 4230.600000
233.083000 1159.700000
235.075300 51046.000000
237.054400 15559.900000
237.090800 22239.400000
245.059700 5126.900000
246.067500 2915.100000
247.075300 81238.200000
248.107100 3065.800000
249.090900 3363.000000
250.062700 2894.600000
251.069500 2469.100000
262.062200 1234.500000
262.086300 1405.200000
263.070300 12457.500000
263.094000 3371.200000
265.085900 17776.500000
266.057100 4399.100000
267.064900 5159.300000
275.070200 37476.700000
276.101800 1903.300000
278.056800 1209.000000
278.117300 5851.300000
280.072800 2852.900000
290.082400 2534.200000
292.072800 1749.000000
293.080900 6094.900000
306.111900 2811.000000
320.091700 19330.700000
334.106500 5285.500000

>ms2peaks
77.038700 3837.100000
79.054200 10507.700000
91.054200 37506.100000
93.069800 3146.100000
103.054100 6234.700000
107.049100 37792.400000
109.064900 3207.400000
115.054200 2470.000000
118.065000 4262.700000
119.049200 29046.200000
120.080900 2412.000000
121.064800 1378.200000
130.065200 7417.400000
131.049100 9410.700000
131.072900 25175.300000
132.080600 4442.000000
135.044100 47798.100000
143.048900 2106.100000
144.080800 7859.900000
146.060000 7171.700000
147.044100 40997.600000
148.051600 1671.300000
148.075400 2581.500000
149.059700 112484.800000
158.060100 1414.500000
159.044100 12005.800000
159.067900 52923.600000
160.052400 1568.200000
160.075700 28958.700000
161.059500 5898.300000
161.082800 1885.800000
163.039100 27892.800000
165.054800 11730.100000
165.070000 7402.000000
167.085500 29307.500000
173.060000 3563.800000
174.055000 17034.700000
175.038900 12987.600000
176.070800 6282.500000
177.070100 12457.800000
177.078700 6087.200000
178.077800 8449.700000
178.086300 2160.800000
179.085600 49019.900000
181.064700 2145.600000
187.039800 1372.700000
188.070600 350214.200000
189.069600 72000.200000
189.078400 172323.100000
190.086600 7093.100000
191.085500 11238.100000
193.064700 3886.500000
195.080400 27690.700000
204.065100 2280.500000
205.064700 19562.900000
206.081100 22441.300000
207.080300 48493.900000
209.059600 48577.100000
217.064700 49564.200000
219.080500 14848.300000
220.112200 1854.000000
222.067500 6776.600000
223.075500 9183.100000
225.091400 1853.200000
233.059900 4159.500000
233.084100 1522.200000
235.075300 38326.500000
237.054500 12105.200000
237.090900 16577.000000
245.059800 3596.900000
246.067200 3414.400000
247.075300 62220.500000
248.107100 3347.800000
249.091300 1180.400000
250.062200 1889.100000
262.061700 1398.900000
262.086400 1631.400000
263.070500 9412.500000
263.094300 2980.000000
265.085900 9801.200000
266.057400 2886.700000
267.065000 2504.100000
275.070300 23368.500000
276.102000 2701.400000
278.117400 4888.400000
280.073300 1726.600000
290.081700 1442.600000
291.087600 1597.400000
292.072800 1604.200000
293.080800 3663.200000
304.097500 1266.800000
320.091600 15059.200000
334.107600 2662.500000

>ms2peaks
65.038700 1345.800000
77.038500 9796.600000
79.054200 18006.500000
81.069700 2081.700000
89.038600 2347.600000
91.054100 64642.800000
93.070000 3540.100000
94.041200 1356.100000
103.054100 12433.300000
105.033300 4035.100000
105.070000 1981.100000
107.049000 39719.700000
109.064700 4226.800000
115.054100 5517.800000
117.033400 1766.900000
117.057300 1878.000000
117.069600 5146.200000
118.065000 8818.700000
119.049100 41723.700000
120.080700 3404.900000
121.064800 2696.900000
130.065000 16796.400000
131.049100 15140.600000
131.072800 51756.400000
132.057000 1378.100000
132.080600 10844.200000
135.044000 62731.000000
137.060100 1541.100000
143.049200 2929.800000
143.072700 3697.500000
144.080600 35660.000000
146.059900 9256.600000
147.044000 56903.900000
148.075300 3828.200000
149.059600 133669.000000
152.062000 6502.400000
153.069700 5099.000000
158.060200 4410.000000
159.044000 15441.600000
159.067800 77023.100000
160.075500 48615.600000
161.059600 6755.300000
161.081500 4202.600000
163.038900 40422.000000
165.054400 7535.600000
165.069700 12285.900000
166.077500 3243.300000
167.085400 41122.000000
172.051800 1401.400000
172.075100 958.800000
173.059700 3616.100000
174.054800 26593.000000
175.038800 11448.800000
175.060800 2217.600000
176.062000 2828.100000
176.070400 6546.100000
177.069800 24728.500000
177.078300 7064.700000
178.077500 18936.900000
178.086500 3350.800000
179.085400 76811.100000
181.064800 3743.700000
185.059800 1297.100000
187.039500 1449.000000
188.070400 428274.000000
189.069300 120247.800000
189.078400 158560.600000
191.085300 18845.700000
192.056700 2908.100000
193.064600 4105.300000
194.072400 1751.700000
195.080100 29308.000000
201.069900 2691.100000
204.081100 1272.800000
205.064400 30335.800000
205.088100 1686.100000
206.080800 19655.700000
207.080200 57504.800000
209.059400 66334.900000
217.064500 63576.300000
219.080200 17086.100000
220.051700 2504.200000
220.112000 1618.700000
221.059700 2511.300000
222.067200 12051.300000
223.075300 7660.300000
225.090400 1587.700000
233.059200 4313.000000
234.067400 3139.300000
235.075000 40682.300000
237.054000 9731.300000
237.090600 17417.400000
245.059100 4375.000000
246.067500 4239.900000
247.075000 58307.100000
248.106300 2786.800000
250.061900 3664.700000
262.086200 4298.100000
263.069900 7698.100000
263.094600 4009.600000
265.085800 7875.000000
266.056700 2998.800000
275.070000 17499.800000
276.101200 3628.000000
278.116900 3503.300000
292.096500 4163.900000
293.081100 3588.800000
320.091100 17272.600000
334.107600 1688.800000

>ms2peaks
65.038500 1806.400000
77.038500 11784.900000
79.054200 25072.100000
89.038600 4681.300000
91.054100 83156.500000
93.069800 6955.600000
95.049000 1590.700000
103.054200 18498.900000
105.033300 4801.900000
107.049000 41096.500000
109.064500 3533.400000
115.054200 7802.600000
117.033400 4209.500000
117.057500 1577.900000
117.069800 5976.100000
118.064900 11064.400000
119.049000 48444.500000
120.080700 4901.600000
121.064800 3045.100000
130.065000 27981.400000
131.049000 17678.000000
131.072800 68659.500000
132.080600 11900.300000
135.044000 66058.900000
137.059800 1424.300000
143.048600 2174.200000
143.072700 3305.800000
144.080600 25213.600000
146.059900 8430.100000
147.044000 63910.300000
148.075400 5333.200000
149.059600 111390.300000
151.054200 2959.000000
152.061900 11794.100000
153.069600 5821.500000
158.059900 6387.600000
159.043900 14749.300000
159.067800 75878.600000
160.075500 59066.000000
161.059700 7421.300000
161.081000 4870.200000
163.038800 32616.600000
164.062400 1589.100000
165.054300 4450.700000
165.069800 20320.300000
166.077500 6272.900000
167.085400 42046.700000
172.052100 1385.300000
173.059300 3635.700000
174.054900 31031.800000
175.038800 8226.600000
176.061800 4497.200000
176.070400 3550.000000
177.069700 32551.700000
177.078400 4918.900000
178.077500 37700.400000
178.086400 1946.600000
179.085400 79596.400000
181.064700 4826.400000
185.059700 1737.100000
186.054800 1636.000000
187.038300 1998.000000
187.063200 1674.500000
188.070400 414319.800000
189.069400 144376.200000
189.078400 110430.700000
191.085300 18899.100000
192.056700 3130.000000
193.064700 4350.500000
194.073200 2579.700000
195.080100 21726.000000
201.069400 2902.000000
202.077800 2752.900000
204.081200 1377.500000
205.064500 31532.100000
206.080500 12298.100000
207.080200 49592.700000
209.059400 65430.400000
217.064500 57262.700000
219.080200 13974.100000
220.052400 1609.400000
221.059500 2659.900000
222.067200 14568.900000
223.075700 4768.600000
225.091100 1236.000000
233.059900 4196.900000
233.084100 2134.300000
234.067700 3072.200000
234.091500 1694.800000
235.075100 30226.900000
237.053800 6776.900000
237.090800 10089.900000
245.059200 3127.400000
246.067100 5848.000000
247.075100 39893.600000
248.107400 2653.000000
249.055000 1996.800000
250.062600 2598.600000
262.085800 6314.100000
263.070000 6000.400000
263.094200 3560.500000
265.086300 4023.300000
266.056400 3296.000000
275.069900 11009.400000
276.102000 3251.500000
278.116800 1948.500000
290.080600 5414.800000
292.096700 3741.600000
293.080900 2645.600000
304.096900 1867.200000
318.076600 1646.500000
320.091200 14304.900000
334.106400 2073.800000

>ms2peaks
65.038500 2852.600000
77.038500 17986.400000
79.054200 24901.700000
89.038500 6479.500000
91.054200 84378.000000
93.069700 4048.700000
94.041500 1326.100000
95.049000 2532.700000
103.054200 23200.300000
105.033400 7201.800000
107.049100 36818.200000
115.054100 7629.800000
116.049500 1862.800000
117.033400 4691.500000
117.057200 2925.900000
117.069900 3913.300000
118.065100 11084.200000
119.049100 42749.400000
120.080600 3780.900000
121.064700 3251.200000
130.065100 41929.700000
131.049100 16107.700000
131.072900 73930.300000
132.056500 1395.600000
132.080700 15739.700000
135.044000 49983.200000
136.051900 1606.000000
143.049300 2249.300000
143.072700 2846.100000
144.080700 14006.300000
146.060000 8864.200000
147.044000 60974.400000
148.075600 3990.800000
149.059600 88992.000000
151.054100 5549.100000
152.062000 17716.700000
153.069600 8268.200000
158.060200 6251.000000
159.044100 13149.700000
159.067800 62001.100000
160.075600 53356.500000
161.059800 5949.600000
161.080100 3621.100000
163.038900 24125.200000
164.062100 3226.600000
165.054600 2365.800000
165.069800 21984.400000
166.077300 8958.000000
167.085500 37850.400000
172.051400 2251.800000
172.076000 1497.400000
173.059600 2501.900000
174.054900 35049.200000
175.039000 5543.300000
176.062000 8797.800000
177.069800 38736.700000
177.078500 2342.900000
178.077700 50512.600000
179.085500 76265.400000
180.057000 1330.500000
181.064700 5257.100000
186.055100 1693.600000
188.070500 363458.900000
189.069600 173579.400000
189.078600 67355.500000
190.086900 3777.200000
191.085400 17538.400000
192.056700 4652.700000
193.065300 2536.700000
194.072400 3440.700000
195.080300 15801.500000
201.069600 2764.000000
202.077200 1574.300000
204.080900 2505.200000
205.064600 29143.500000
205.088700 2094.200000
206.080500 5610.400000
207.080300 40548.200000
208.052000 2619.600000
209.059500 61067.000000
217.064600 43879.100000
218.095900 1575.400000
219.080500 10720.800000
220.051800 1874.600000
220.111700 1642.800000
221.059400 2518.000000
222.067200 14204.500000
223.075900 3246.100000
232.076400 1413.500000
233.060000 2988.600000
233.084400 2607.300000
234.067400 2877.300000
234.092100 1975.300000
235.075200 18905.300000
237.054900 4663.400000
237.090500 7813.300000
245.059300 2448.100000
246.067700 5867.200000
247.075200 26342.000000
248.106800 1335.800000
249.054000 1626.900000
250.063600 1816.200000
262.086200 8067.100000
263.069200 2176.900000
263.094800 3034.300000
265.086200 2125.800000
266.057100 2360.800000
275.069200 4371.500000
276.101700 3313.600000
290.081600 3350.200000
292.095700 3374.000000
304.097600 1684.100000
320.091200 8456.800000

>ms2peaks
65.038600 4918.500000
77.038500 19734.400000
79.054200 29653.100000
81.069600 1336.900000
89.038500 9888.200000
91.054200 88800.800000
93.069900 4653.900000
94.041300 1397.700000
102.046300 4171.000000
103.054200 26709.900000
105.033400 7674.800000
107.049100 27135.500000
109.065100 1388.200000
115.054200 8148.600000
116.049100 2269.400000
117.033400 6405.600000
117.057400 3998.900000
117.069600 4849.800000
118.065000 10425.000000
119.049100 37985.300000
120.080900 4133.500000
121.064800 3172.700000
130.065100 48552.600000
131.049100 15337.700000
131.072900 73843.100000
132.080700 16814.400000
135.044000 43445.500000
136.051800 1253.700000
143.072500 2946.800000
144.080700 14755.400000
146.060000 7893.400000
147.044000 55193.900000
148.075800 4759.200000
149.059600 58904.200000
151.054100 8634.400000
152.061900 21563.400000
153.069700 10016.300000
158.060000 6773.700000
159.044000 10622.300000
159.067800 46509.700000
160.075600 49600.900000
161.059800 3862.600000
161.080800 3136.400000
163.039000 17785.400000
164.062100 3446.200000
165.069800 30346.800000
166.077200 8181.000000
167.049600 2270.800000
167.085500 30809.700000
173.059500 1842.900000
174.054900 25645.900000
175.038700 3290.000000
175.059400 1295.800000
175.062300 1282.200000
176.062000 11522.000000
176.070800 3138.400000
177.069800 39260.100000
178.077600 63269.900000
179.049200 4356.700000
179.085500 65065.400000
180.057200 2266.900000
181.064700 4284.000000
186.055200 1697.400000
188.070500 285266.200000
189.069600 171068.000000
189.078600 39520.100000
190.087000 2221.700000
191.085400 14312.900000
192.056700 4484.600000
193.064800 3299.600000
194.072500 3337.100000
195.080500 8980.200000
201.069800 2585.300000
202.077600 2265.600000
204.056200 1403.500000
204.081100 3196.900000
205.064600 21690.900000
205.088500 2925.300000
206.073400 5201.000000
206.096500 1454.200000
207.080300 27854.400000
209.059500 49051.300000
217.064600 26648.500000
218.073300 5358.000000
218.096800 1468.500000
219.080500 6363.000000
220.051200 2184.100000
220.111200 1591.700000
221.060200 2678.500000
222.067300 10918.800000
223.075900 1926.500000
233.059500 1342.000000
233.083000 1967.000000
234.067700 2674.800000
234.091300 1650.100000
235.075100 13160.400000
237.053800 2070.700000
237.091500 2819.100000
246.067600 6506.300000
247.075600 12951.000000
250.063500 1946.400000
262.086200 6239.900000
263.069800 2132.900000
263.095000 1433.400000
275.069200 2051.100000
276.103000 1718.200000
290.081400 3362.200000
292.097100 2017.100000
304.097900 1247.300000
318.075100 1704.800000
320.091600 4368.100000

>ms2peaks
65.038500 4287.300000
77.038600 21974.000000
79.054200 28957.400000
89.038500 14654.300000
91.054200 89680.000000
93.069800 4742.100000
94.041200 2180.700000
95.049000 2102.500000
102.046300 4485.700000
103.054200 28965.600000
105.033500 8050.000000
105.069900 1288.700000
107.049100 26048.700000
115.054200 8513.700000
116.049400 2945.100000
117.033600 5742.600000
117.057300 4167.000000
117.069900 3045.100000
118.065100 12787.900000
119.049100 35610.100000
120.080900 2817.800000
121.065000 2340.500000
130.065100 61713.300000
131.049000 13039.400000
131.072900 74046.200000
132.080700 18389.900000
135.044000 33891.200000
143.073100 3492.500000
144.080600 8264.100000
146.060100 6549.600000
147.044000 50896.400000
148.075800 3382.800000
149.059600 42744.300000
151.054200 13410.500000
152.062000 27628.400000
153.069700 13090.100000
158.060000 7306.300000
159.044100 7286.700000
159.067800 36294.700000
160.075700 48629.400000
161.059900 2254.300000
161.080200 1509.600000
163.039000 12270.200000
164.061900 5432.600000
165.069800 33732.400000
166.077500 9811.400000
167.049400 1658.000000
167.085400 23245.800000
173.059900 1595.400000
174.054900 24869.900000
175.039300 2416.300000
175.062500 1859.100000
176.062000 16574.700000
177.069900 38896.200000
178.077600 70142.600000
179.048800 3253.200000
179.085500 53838.600000
180.056500 2469.800000
181.064800 5516.100000
186.055300 2314.500000
187.063700 1492.900000
188.070500 247181.900000
189.069700 185102.600000
189.078600 18913.900000
190.086200 1988.600000
191.085300 12977.400000
192.056700 4920.200000
193.064700 2798.100000
194.072700 3071.100000
195.080600 7014.400000
202.077500 3456.900000
204.057800 2051.300000
204.080800 4528.000000
205.064500 19093.800000
205.088300 2024.500000
206.073200 5996.400000
206.096900 1383.500000
207.080300 17645.900000
208.052000 2709.300000
209.059500 43635.000000
217.064600 18761.600000
218.072800 6685.000000
218.096100 1136.800000
219.080200 5224.200000
220.050800 1435.800000
221.059500 2641.900000
222.067200 10401.900000
232.074600 2109.400000
233.083700 2411.200000
234.067800 1379.000000
234.090700 3777.600000
235.075100 8517.000000
237.054500 1317.800000
237.091400 1824.900000
246.067500 5867.600000
247.075200 8497.500000
250.061400 1451.700000
262.086100 5803.100000
290.080500 3302.900000
292.096600 2500.300000
320.091900 1863.900000

