>compound NA90895204
>parentmass 163.12300000000002
>ionization [M+H]+
>formula C10H14N2
>rt 30.435000
>profile orbitrap
#smiles_iso CN1CCC[C@H]1C2=CN=CC=C2
#smiles_can CN1CCCC1C2=CN=CC=C2
#inchikey SNICXCGAKADSCV-JTQLQIEISA-N
#pubchem_id 89594
#mb_accession NA002314,NA002315,NA002316,NA002317,NA002318,NA002704,NA002705,NA002706,NA002707,NA002708,NA003084,NA003085,NA003086,NA003087,NA003088,NA003449,NA003450,NA003451,NA003452,NA003453

>ms2
163.123100 173196.200000

>ms2
132.080300 1643.500000
163.123000 187649.400000

>ms2
106.064900 1491.900000
132.080900 3168.200000
163.123100 174935.900000

>ms2
84.080600 2023.000000
106.065100 8616.500000
120.080800 2893.600000
130.065100 7209.100000
132.080800 41317.200000
163.123100 683457.500000

>ms2
84.080700 4607.400000
106.065100 18758.700000
120.080900 6062.100000
130.065100 14393.200000
132.080800 80140.100000
163.123100 628514.900000

>ms2
106.065300 6296.600000
120.081000 1869.500000
130.065100 6803.000000
132.080800 33788.200000
163.123100 127670.600000

>ms2
84.080600 2042.300000
106.065200 7993.700000
120.080800 3377.300000
130.065100 9612.100000
132.080800 40382.700000
163.123000 90791.500000

>ms2
84.080800 2209.800000
106.065200 8432.700000
120.080800 4262.200000
130.065200 15372.000000
132.080800 42950.900000
163.123100 60388.700000

>ms2
84.080700 2614.300000
106.065200 10144.400000
117.057100 2080.200000
120.081000 5096.600000
130.065200 17234.900000
132.080900 44981.000000
163.123100 36739.500000

>ms2
84.080700 1175.200000
106.065200 10106.700000
117.057200 5897.700000
120.080900 6545.300000
130.065200 20650.700000
132.080800 42453.200000
163.123100 24767.900000

>ms2
84.080800 1881.100000
106.065100 15278.500000
117.057400 11157.400000
120.080800 8729.900000
130.065100 41549.500000
132.080800 62180.200000
163.123000 21753.000000

>ms2
77.038600 1287.400000
84.080800 1924.200000
106.065100 12213.900000
117.057300 17017.300000
120.080700 8083.500000
130.065100 41907.400000
132.080700 49289.300000
163.123000 13041.700000

>ms2
77.038500 1730.300000
84.080700 1451.900000
106.065200 11466.000000
117.057300 21279.200000
120.080700 7630.200000
130.065100 40325.000000
132.080800 40395.300000
163.122800 4893.500000

>ms2
77.038700 1246.100000
106.065100 8472.200000
117.057300 25241.100000
120.080600 4687.100000
130.065100 37080.400000
132.080700 29174.500000
163.122900 2720.600000

>ms2
106.065100 9179.100000
117.057300 27709.900000
120.080600 4608.400000
130.065100 36080.800000
132.080700 21317.300000

>ms2
77.038400 2438.100000
84.081000 1806.700000
92.049500 2455.600000
106.065100 20114.500000
115.054300 4318.100000
117.057300 68328.200000
120.080800 10511.800000
130.065100 70774.900000
131.072600 2076.700000
132.080800 33581.400000

>ms2
77.038700 2212.700000
79.054300 1420.000000
84.080800 2347.300000
92.049400 4083.000000
103.054400 1779.500000
105.070000 1865.900000
106.065100 15484.300000
115.054000 3348.300000
117.057300 69893.100000
118.065100 1141.000000
120.080800 9426.600000
130.065100 69661.100000
131.072800 1410.700000
132.080700 24130.300000

>ms2
77.038500 2171.200000
91.054100 1268.100000
92.049400 3501.000000
105.044400 1316.800000
105.069700 1558.000000
106.065100 13111.200000
115.054200 4297.400000
117.057300 62981.200000
120.080900 8474.700000
130.065100 60623.100000
131.073200 1228.900000
132.080800 13672.800000

>ms2
77.038500 1798.500000
84.081000 2072.200000
92.049400 3503.800000
103.054400 1572.300000
105.045000 1680.600000
106.065100 11893.100000
115.054300 4297.200000
117.057300 67860.300000
120.080900 3954.000000
130.065100 52819.400000
131.072800 1172.200000
132.080700 11218.800000

>ms2
77.038600 2044.700000
79.054300 1452.700000
84.080900 1620.700000
91.054200 1013.200000
92.049400 4559.900000
103.054000 2695.000000
106.065200 11475.800000
115.054200 3954.400000
117.057300 70886.300000
118.065700 1197.600000
120.080700 5670.000000
130.065100 52176.700000
131.073000 2224.300000
132.080800 6364.500000

