>compound NA91475206
>parentmass 288.12299999999993
>ionization [M+H]+
>formula C16H17NO4
>rt 37.590000
>profile orbitrap
#smiles_iso C1CN2CC3=CC4=C(C=C3[C@H]5[C@H]2C1=C[C@@H]([C@H]5O)O)OCO4
#smiles_can C1CN2CC3=CC4=C(C=C3C5C2C1=CC(C5O)O)OCO4
#inchikey XGVJWXAYKUHDOO-DANNLKNASA-N
#pubchem_id 72378
#mb_accession NA002501,NA002502,NA002503,NA002504,NA002505,NA002894,NA002895,NA002896,NA002897,NA002898,NA003269,NA003270,NA003271,NA003272,NA003273,NA003639,NA003640,NA003641,NA003642,NA003643

>ms2peaks
288.123100 234675.200000

>ms2peaks
288.123100 354890.300000

>ms2peaks
288.123000 666321.200000

>ms2peaks
112.075500 1529.300000
177.054000 2303.900000
270.111800 3164.000000
288.123100 514217.800000

>ms2peaks
112.075500 1651.200000
177.054700 7864.200000
270.112200 10420.500000
288.123200 448244.600000

>ms2peaks
82.065000 2176.700000
83.049200 3329.300000
95.049100 9495.500000
110.060100 1343.800000
111.068000 2208.500000
112.075600 20111.500000
119.049100 11513.600000
122.059800 1065.800000
124.075600 10187.900000
134.060100 3603.700000
135.044100 2513.700000
147.044100 50465.400000
152.070800 2451.800000
175.039100 1138.300000
177.054600 64806.000000
194.096200 1355.100000
199.075400 2625.600000
213.091100 1562.500000
222.091200 8150.200000
225.090800 3685.600000
228.102200 1626.900000
240.101000 1222.100000
241.086000 2198.600000
242.117700 4892.900000
252.101700 15152.500000
270.112400 68702.100000
288.123100 994316.100000

>ms2peaks
82.065200 4555.700000
83.049200 5283.700000
95.049200 15774.100000
106.065100 2995.500000
110.060100 2611.000000
111.067900 4091.500000
112.075700 26165.800000
119.049200 29684.700000
122.059900 2355.000000
124.075700 14545.100000
134.060100 6983.800000
135.044000 4244.000000
147.044100 100282.000000
149.059700 2462.600000
152.070600 2668.900000
173.059800 1763.800000
175.039200 1393.000000
177.054700 105575.300000
188.070600 1105.700000
194.096300 3165.500000
199.075300 3412.400000
212.107000 2076.000000
213.091700 2164.800000
222.091400 15219.000000
225.091300 3072.600000
228.101000 2456.800000
240.102500 4250.900000
241.085800 3379.800000
242.117800 8311.700000
250.086300 976.600000
252.101900 20512.300000
270.112500 85681.000000
288.123200 674321.400000

>ms2peaks
82.065100 4487.000000
83.049100 6911.900000
95.049100 18572.100000
106.064700 3032.000000
110.059900 2130.700000
111.067700 6170.100000
112.075600 33013.000000
119.049100 48024.200000
122.059800 1738.700000
124.075600 16723.700000
134.059900 9233.500000
135.044100 5273.500000
147.044000 145006.600000
149.060000 3806.400000
152.070500 3270.100000
173.059700 1503.200000
175.038600 3113.800000
177.054600 111312.100000
194.096200 3733.400000
195.080700 1202.500000
199.075700 4286.400000
212.106800 3376.000000
213.090500 2322.700000
222.091400 16421.600000
225.090700 3430.600000
240.101700 6369.600000
241.085100 2286.200000
242.117200 10657.600000
250.086200 1194.400000
252.101900 20179.900000
268.096800 1809.600000
270.112300 82085.000000
288.123000 359151.800000

>ms2peaks
82.065100 5283.300000
83.049100 7277.700000
95.049100 17869.600000
106.065100 4173.700000
110.060200 2094.700000
111.067800 7246.900000
112.075700 28656.800000
119.049100 60620.100000
122.059900 2125.600000
124.075700 14256.600000
134.060000 8836.400000
135.044000 3673.300000
147.044000 169448.800000
149.059700 4470.300000
152.070200 2113.500000
173.059500 1838.600000
175.038800 2524.700000
177.054600 89249.800000
188.071000 1663.300000
194.096400 4256.800000
199.075500 3867.600000
212.107100 3719.100000
213.091000 2168.500000
222.091200 13383.400000
225.090900 2566.300000
228.102100 1980.800000
240.101900 7119.400000
241.085900 2894.100000
242.117900 9061.700000
250.086100 1743.100000
252.102000 15475.800000
268.096700 1178.400000
270.112500 57623.000000
288.123100 166818.100000

>ms2peaks
82.065200 3178.600000
83.049200 8964.000000
95.049100 16791.700000
106.065200 4409.600000
110.060100 2077.500000
111.067900 8478.800000
112.075600 25311.800000
119.049100 84345.700000
122.060000 1349.600000
124.075700 14120.300000
134.060000 8507.000000
135.043900 4207.200000
147.044100 187838.500000
149.059600 4372.400000
152.070700 2055.600000
173.059500 2447.200000
175.038600 2820.000000
177.054600 64605.100000
188.070300 2207.500000
194.096300 5671.400000
195.080000 1561.000000
199.075100 2997.000000
212.107000 5609.500000
213.091700 1894.100000
222.091400 12729.900000
225.092000 2138.800000
228.102100 1044.300000
240.101800 6235.700000
241.086800 1506.400000
242.117600 7329.300000
250.085500 1787.500000
252.101700 10853.800000
270.112500 39850.700000
288.123100 66921.100000

>ms2peaks
67.054000 3389.500000
82.065100 11352.900000
83.049100 20080.400000
91.054400 1390.500000
95.049100 44429.500000
106.065100 11513.300000
110.059900 3898.400000
111.067800 20717.100000
112.075600 42237.500000
119.049100 248197.200000
122.060000 5519.200000
124.075700 28944.800000
132.044400 3030.900000
134.060000 18331.900000
135.044000 12817.400000
136.051900 4086.200000
145.064700 1548.800000
147.044000 469476.500000
149.059600 12653.200000
155.086000 1111.600000
167.085500 2645.500000
173.059900 5155.800000
175.039000 4168.800000
177.054600 113420.600000
183.080900 2745.600000
184.112300 3226.500000
188.070400 3557.200000
194.096300 14763.000000
195.080600 3120.500000
197.083800 2400.400000
198.091200 2006.500000
199.075200 6642.400000
211.075500 2178.500000
212.069900 1366.900000
212.106900 12533.100000
213.091300 3800.200000
214.085400 3460.400000
222.091300 31430.000000
223.075500 2831.600000
224.107100 3050.700000
225.078200 5332.600000
225.090900 3257.100000
226.086600 1483.500000
227.093400 2568.600000
228.101800 2860.100000
230.116800 1529.200000
238.086500 1925.000000
240.101800 15437.300000
241.086300 2918.500000
242.117500 13639.700000
250.086000 2977.300000
251.093600 1817.700000
252.101800 21806.700000
255.088400 2516.500000
268.095900 2466.100000
270.112300 64255.400000
288.123000 76486.000000

>ms2peaks
67.054100 2098.500000
82.065100 10601.500000
83.049100 18247.000000
91.054200 4221.100000
94.064900 981.800000
95.049200 38399.000000
106.065100 9501.200000
110.060200 2698.700000
111.067800 22005.500000
112.075700 32987.900000
119.049200 288802.500000
122.060100 5501.700000
124.075700 22534.200000
132.044000 2424.900000
134.060100 16347.300000
135.044100 12814.500000
136.051600 4612.600000
145.064400 1297.300000
147.044100 449455.600000
149.059700 14725.200000
155.085500 1916.800000
159.044500 2049.500000
165.069700 1025.800000
167.085300 2592.100000
173.059500 2808.800000
175.038800 2501.300000
177.054700 65832.600000
183.080300 2970.200000
184.111900 3892.400000
188.070800 3009.100000
194.096500 17023.900000
195.080000 2651.900000
197.084500 3012.600000
198.091100 2327.900000
199.075300 4787.200000
210.090800 1502.600000
211.074700 2423.100000
212.070600 2243.900000
212.107000 13439.400000
213.091300 2442.700000
214.085900 1780.000000
222.091400 22578.200000
223.075100 2810.700000
224.106200 2866.800000
225.078400 6651.700000
225.091200 1408.800000
226.085700 1699.300000
227.094800 2461.100000
228.101900 2133.700000
230.117400 1290.300000
237.078200 2310.000000
238.085800 2892.500000
240.101900 13584.900000
241.086200 2220.600000
242.117700 10203.800000
250.085400 3965.900000
252.101700 11782.700000
255.089100 1258.500000
268.096600 1960.100000
270.112500 33242.100000
288.123200 29265.100000

>ms2peaks
67.054300 2695.800000
82.065100 9913.600000
83.049100 13381.600000
91.054100 8298.000000
94.064900 1091.700000
95.049100 30432.800000
106.065100 8691.100000
107.049000 1710.700000
110.059800 1665.500000
111.067800 17793.200000
112.075600 20436.400000
119.049100 271514.800000
122.060100 2947.400000
124.075600 14057.400000
132.044400 2542.100000
134.059900 11460.500000
135.044000 10381.900000
136.051900 3952.800000
147.044000 354620.500000
149.059500 13680.200000
159.043900 1920.700000
165.069700 1089.000000
167.085200 2016.400000
169.089300 1481.400000
173.059400 2518.500000
175.038700 2404.200000
177.054600 27858.900000
183.080100 2072.700000
184.111800 2933.900000
188.071000 2485.000000
193.088400 1288.900000
194.096400 15621.800000
197.083700 3277.000000
198.091500 1164.000000
199.075000 3463.600000
210.091900 1481.100000
212.106900 10500.500000
213.090700 1534.700000
222.091400 14471.100000
224.106600 1116.800000
225.078500 4987.300000
227.093600 2162.400000
228.102500 1759.200000
237.078900 1186.000000
240.101600 7954.600000
242.117300 5568.400000
250.086600 3264.900000
252.101500 5101.000000
270.112000 13166.900000
288.123300 6585.900000

>ms2peaks
67.054100 1973.700000
82.065100 8955.500000
83.049100 10750.400000
91.054200 10672.600000
95.049100 20702.900000
106.065000 4879.000000
107.048900 1644.500000
111.067800 12735.800000
112.075600 10295.000000
119.049100 237066.800000
122.060300 1937.200000
124.075700 9515.700000
134.060000 8784.400000
135.044000 8166.700000
136.051900 2875.700000
147.044000 262631.500000
149.059700 10020.100000
159.043500 2484.200000
167.085600 2815.400000
169.088300 2430.800000
173.059300 1730.500000
177.054500 12019.700000
183.080800 1733.100000
184.112400 2884.700000
194.096500 11203.100000
195.080300 1797.900000
197.082600 2379.000000
198.091100 1382.400000
210.092300 1531.500000
212.106800 4838.800000
222.091200 8851.300000
225.078900 3770.300000
226.085100 1856.500000
237.078800 1779.000000
238.086000 1984.900000
240.102200 3525.700000
242.117200 2856.200000
250.085800 1908.700000
251.093000 1335.900000
252.101800 2122.700000
270.111700 4705.400000

>ms2peaks
67.054000 1862.200000
82.065200 8537.600000
83.049200 5837.200000
91.054200 14795.500000
95.049100 13555.100000
106.065100 4051.900000
107.048800 1268.000000
110.059700 1449.500000
111.067900 10066.700000
112.075700 6465.600000
119.049100 206792.200000
124.075700 6902.200000
132.044600 1262.300000
134.060100 5072.900000
135.043900 6515.800000
136.051500 1745.000000
147.044100 191735.800000
149.059600 8000.400000
159.044100 2086.200000
167.085100 1305.600000
177.054600 5772.800000
183.081200 1333.200000
184.111700 1904.300000
193.088600 1563.700000
194.096500 7866.200000
197.083300 1394.700000
212.106800 3622.900000
222.091700 4048.900000
225.078200 3168.400000
226.085300 1651.600000
240.102300 1276.200000
250.086100 1728.900000
270.112800 1665.300000

>ms2peaks
67.054200 2814.800000
79.054100 2534.500000
82.065200 9683.300000
83.049200 7710.900000
91.054300 37267.600000
95.049200 17934.600000
106.065100 6266.900000
111.067900 9578.500000
112.075600 5148.000000
115.054500 1203.300000
119.049200 302898.300000
124.075800 6205.600000
134.059900 4981.600000
135.044200 9736.200000
136.052000 1564.900000
141.069700 1734.900000
147.044200 233557.600000
149.059800 11546.700000
152.062100 1976.300000
153.070300 2233.500000
159.044200 3067.900000
165.069900 1854.400000
167.072300 1466.200000
167.085800 2753.700000
168.080500 1157.200000
169.089000 2262.400000
177.054400 4040.800000
184.112200 2104.300000
193.088900 3014.100000
194.096500 10776.400000
197.083500 4234.300000
212.070400 1829.500000
212.106900 4002.400000
222.091100 4142.400000
225.078300 2760.300000
226.086000 1973.700000
250.085900 2789.100000

>ms2peaks
67.054200 2967.700000
77.038600 1859.100000
79.054400 2483.600000
82.065100 10955.800000
83.049100 5461.100000
91.054300 51406.600000
95.049200 10249.200000
103.054100 1245.000000
106.065300 3915.600000
111.067800 7272.400000
112.075600 4196.300000
119.049200 244676.600000
124.075800 3398.300000
134.060200 3471.100000
135.044100 8029.400000
136.051700 1350.200000
141.070000 1315.600000
147.044100 170724.400000
149.059700 9115.000000
152.062400 1434.900000
159.043500 1896.900000
165.069500 2152.600000
167.073200 1728.900000
167.085300 1664.600000
168.080600 1930.900000
169.088800 2492.600000
177.054500 1581.700000
184.111700 1628.200000
192.081500 1730.900000
193.088400 2543.300000
194.096600 8128.000000
196.075400 1516.100000
197.083500 2813.400000
212.070500 1495.800000
212.106800 1995.300000
222.091500 2418.700000
225.078500 1909.300000
226.086300 2643.100000
250.085900 1408.400000

>ms2peaks
67.054200 2429.100000
79.054400 2164.900000
82.065200 9189.000000
83.049200 5744.600000
91.054300 61764.400000
95.049200 9662.100000
103.054600 1522.000000
106.065100 3794.800000
111.067900 6035.500000
112.075500 1722.900000
115.053900 2009.000000
119.049200 205114.600000
124.076000 2396.700000
129.069800 1134.600000
134.060000 1934.200000
135.044100 5795.900000
147.044100 113746.800000
149.059500 5993.500000
152.062400 1900.500000
153.069700 1214.600000
159.043900 1228.000000
165.070600 1893.700000
167.085500 2081.400000
168.080700 1556.700000
169.089000 1314.000000
192.081100 1441.300000
193.088800 2252.800000
194.096500 4619.800000
196.075700 2053.400000
197.083300 1860.800000
212.106900 1212.800000
222.092200 1320.100000
224.071100 1923.900000
226.086800 1504.100000

>ms2peaks
65.038400 1133.900000
67.054200 1960.300000
77.038600 1366.500000
79.054200 2099.000000
82.065100 7484.300000
83.049300 3309.800000
91.054200 69335.300000
95.049100 5272.700000
103.054400 1026.100000
106.065200 1986.000000
111.068000 3554.800000
115.054000 2026.700000
119.049100 156945.900000
129.070100 1268.000000
134.060000 3095.000000
135.043700 4966.700000
141.069900 1305.600000
147.044100 74299.300000
149.059200 3234.700000
152.062000 1449.300000
159.043800 1181.000000
167.072400 1373.700000
169.088000 1322.600000
192.081100 1768.200000
193.089200 1857.500000
194.096500 2725.700000
196.075700 1833.700000
224.070700 1057.800000
226.085600 1386.900000

>ms2peaks
65.038500 1415.300000
67.054000 1376.300000
79.054100 1656.700000
82.065100 7541.200000
83.049100 2938.500000
91.054200 71533.500000
95.049300 3694.400000
106.065200 1809.200000
111.067800 2663.600000
115.054400 1755.800000
119.049200 127653.500000
134.060200 1753.200000
135.044400 2729.500000
141.069600 1428.300000
147.044100 51364.400000
149.060100 3645.400000
152.061700 1599.400000
165.069800 1940.600000
168.081000 1521.700000
169.089100 1229.500000
192.080400 1541.600000
193.088700 1601.000000
194.097000 1317.800000
196.075600 1181.000000

