>compound NA91587235
>parentmass 326.1598000000001
>ionization [M+H]+
>formula C16H23NO6
>rt 42.225000
>profile orbitrap
#smiles_iso C[C@H]1C(=O)O[C@@H]2CCN3[C@@H]2C(=CC3)COC(=O)[C@]([C@]1(C)O)(C)O
#smiles_can CC1C(=O)OC2CCN3C2C(=CC3)COC(=O)C(C1(C)O)(C)O
#inchikey QVCMHGGNRFRMAD-XFGHUUIASA-N
#pubchem_id 9415
#mb_accession NA002255,NA002256,NA002257,NA002258,NA002259,NA002652,NA002653,NA002654,NA002655,NA002656,NA003034,NA003035,NA003036,NA003037,NA003038,NA003399,NA003400,NA003401,NA003402,NA003403

>ms2peaks
326.160000 50729.600000

>ms2peaks
326.160000 168767.300000

>ms2peaks
326.160000 146405.200000

>ms2peaks
326.160000 116727.100000

>ms2peaks
326.159800 85110.500000

>ms2peaks
94.065300 1210.100000
120.080800 4841.200000
121.088600 8628.700000
138.091400 3590.300000
194.117400 2997.300000
210.112500 1967.200000
237.136100 20959.000000
238.144000 2712.700000
280.154300 8491.800000
298.164800 1830.500000
326.160000 509472.700000

>ms2peaks
94.064700 1913.000000
95.072900 1319.200000
120.080800 8995.300000
121.088600 24075.700000
122.096500 3067.900000
138.091100 4840.700000
164.107200 5626.100000
194.117700 6668.500000
195.125300 1293.400000
210.113000 2771.800000
237.136000 33653.400000
238.144200 3905.500000
280.154600 12966.500000
298.164600 3361.100000
326.159900 340096.800000

>ms2peaks
94.065100 4649.600000
95.073100 4221.500000
106.065400 1016.400000
120.080800 14227.100000
121.088600 38256.900000
122.096600 4847.400000
138.091400 6864.500000
139.099200 1332.700000
164.107100 5404.100000
184.096700 1450.100000
194.117600 9483.600000
195.125100 2585.300000
210.112200 3437.700000
237.136000 32461.300000
238.144400 4842.000000
280.154700 12983.700000
298.165100 4812.500000
326.159900 193733.000000

>ms2peaks
94.065100 9039.600000
95.073000 6574.000000
120.080800 23614.800000
121.088600 51916.900000
122.096400 7158.800000
138.091200 9148.000000
139.099100 1328.900000
140.107000 1698.000000
164.107200 6988.900000
184.097100 2156.600000
194.117400 12150.500000
195.125300 2682.300000
210.112500 1966.200000
212.128400 1578.600000
237.136000 25018.800000
238.143800 5146.700000
280.154300 11532.600000
298.164900 3948.700000
326.159900 90451.000000

>ms2peaks
94.065200 8981.300000
95.073000 8510.300000
106.065100 1574.400000
120.080800 25270.500000
121.088600 57125.100000
122.096300 5394.000000
138.091300 10205.400000
139.098700 2156.800000
140.107400 1936.500000
164.106900 7299.200000
184.096700 3279.400000
194.117400 11438.800000
195.125800 2566.300000
210.112000 2638.300000
212.128100 1223.600000
237.135800 17152.500000
238.143900 2958.600000
280.154700 7457.000000
298.164200 3347.600000
326.159700 39477.500000

>ms2peaks
67.041700 7496.100000
68.049400 3853.200000
79.054200 2733.700000
80.049500 5734.800000
82.065100 2838.400000
91.054300 1267.800000
92.062000 1495.600000
93.057400 2389.700000
93.069900 5193.400000
94.065100 30536.700000
95.073000 43004.400000
96.080800 6141.700000
103.054500 1328.900000
106.065200 4218.300000
108.080700 6238.100000
110.060000 2440.300000
110.096500 2522.700000
120.080800 105043.700000
121.088600 171718.600000
122.096400 24945.100000
138.091400 37262.000000
139.099100 9068.500000
140.106900 6425.700000
146.096200 1190.400000
156.101800 7326.600000
164.107100 18882.600000
180.102800 1861.900000
182.117800 2018.500000
184.097100 11763.300000
194.117500 37672.200000
195.125400 8623.400000
210.112700 3088.700000
212.128000 4276.800000
228.122900 3078.900000
237.135900 30132.600000
238.143900 7733.800000
241.983700 966.900000
252.122800 2433.800000
254.138200 3007.200000
280.154600 11162.300000
298.164900 10383.300000
326.160000 50050.300000

>ms2peaks
67.041700 9100.500000
67.054200 2432.200000
68.049500 3827.100000
79.054300 2091.300000
80.049500 6251.700000
82.065300 3242.600000
91.054100 2421.600000
92.062100 1813.900000
93.057300 2385.600000
93.069900 6443.500000
94.065200 29851.200000
95.073000 39214.700000
96.080800 6642.000000
106.065300 4304.400000
108.080800 6412.600000
110.059900 2381.900000
110.096600 1539.200000
118.065000 1237.000000
119.072800 1244.600000
120.080900 97823.000000
121.088700 121544.100000
122.096500 20438.500000
138.091400 32792.400000
139.099300 8531.500000
140.107100 4963.400000
146.096300 982.300000
156.102100 7668.000000
164.107200 11750.500000
180.101100 1030.400000
182.117800 2249.600000
184.096900 10834.500000
194.117700 24742.300000
195.125300 3589.900000
210.112200 2081.200000
212.128500 2665.200000
228.122800 3001.200000
237.135800 13181.000000
238.143400 2449.800000
241.984300 1070.900000
252.122500 1771.700000
254.138500 1674.000000
280.154500 5198.000000
298.164700 4877.600000
326.160100 16801.200000

>ms2peaks
67.041600 8448.500000
67.054100 2258.100000
68.049500 3528.100000
79.054400 2731.100000
80.049500 8176.700000
82.065200 3598.900000
91.054300 3027.700000
93.057500 2064.700000
93.069800 5876.900000
94.065200 29331.000000
95.073000 33711.600000
96.080900 6883.600000
103.054000 1526.500000
106.065300 3540.000000
108.080800 4686.800000
110.096400 1802.500000
119.073300 987.200000
120.080800 78867.100000
121.088700 75381.100000
122.096500 13979.400000
138.091400 21463.600000
139.099100 5370.400000
140.106900 2224.600000
156.101900 6069.200000
164.107000 5959.100000
184.097000 8121.900000
194.117500 17321.500000
195.125200 2434.000000
212.128400 1430.800000
237.135800 3476.500000
238.144400 1229.400000
298.165400 1834.600000
326.160100 3550.200000

>ms2peaks
67.041600 6829.500000
67.054300 1299.300000
68.049500 2389.700000
79.054500 1840.800000
80.049600 5475.200000
82.065100 2965.500000
91.054200 2023.600000
93.057300 2336.000000
93.069900 4764.800000
94.065200 24637.900000
95.073000 23877.400000
96.080800 5161.100000
106.065300 2594.600000
108.080800 3156.700000
110.059600 1006.300000
118.065600 1457.700000
120.080800 59412.100000
121.088600 36833.200000
122.096500 10274.700000
138.091400 15534.100000
139.099100 4227.500000
140.107100 1842.800000
156.102200 3497.800000
164.106800 2084.700000
180.101000 1050.600000
184.097200 3642.600000
194.117600 8124.300000
237.134900 1124.200000

>ms2peaks
67.041600 4783.600000
67.054200 1812.800000
68.049600 2630.100000
79.054300 1207.600000
80.049500 5479.800000
82.065100 1958.000000
91.054300 1734.100000
93.057700 1986.700000
93.070000 3542.300000
94.065200 19846.500000
95.073000 15722.800000
96.080800 4563.400000
106.065100 3075.100000
108.080700 2354.600000
110.096500 1011.700000
118.065200 1477.700000
120.080900 39673.200000
121.088700 20348.600000
122.096400 6489.900000
138.091400 8080.500000
139.099200 1439.200000
140.107300 1157.100000
156.101900 2937.700000
184.097200 1966.000000
194.117400 5023.400000

>ms2peaks
67.041600 10833.600000
67.054200 4680.000000
68.049500 7706.800000
69.057300 1389.800000
79.054200 5557.600000
80.049500 13494.100000
81.057200 1730.800000
82.065200 7583.100000
86.060200 1226.400000
91.054200 5166.600000
92.049500 1419.400000
93.057400 4377.600000
93.069900 8087.100000
94.065200 49986.400000
95.073000 27997.800000
96.080800 9895.100000
103.054200 1965.300000
106.065100 5386.300000
108.080800 7982.400000
110.059800 1826.100000
110.096100 2580.100000
118.065300 2298.100000
120.080800 92056.300000
121.088600 29130.300000
122.096500 13472.300000
138.091400 16973.100000
139.099600 2706.900000
156.102100 6092.200000
184.096600 2626.300000
194.117700 6079.900000

>ms2peaks
67.041600 10086.800000
67.054200 4949.900000
68.049400 6513.100000
77.038800 1012.300000
79.054300 4361.800000
80.049500 11581.100000
81.057300 2959.100000
81.070200 1677.100000
82.065200 5597.600000
86.060100 2242.000000
91.054200 5236.000000
93.057400 4695.000000
93.069900 6354.100000
94.065200 43961.800000
95.073000 17869.500000
96.080800 8608.800000
103.054300 2205.200000
106.065300 5004.800000
108.080800 6578.100000
110.060000 1298.000000
110.096500 1591.700000
112.075400 1373.900000
118.065300 2388.800000
120.080900 66268.200000
121.088700 12682.500000
122.096500 9922.300000
138.091400 10333.000000
139.099400 2418.100000
156.102100 4009.200000
184.097500 1141.000000
194.117500 3007.700000

>ms2peaks
67.041700 7185.500000
67.054100 3729.800000
68.049500 5517.800000
69.057400 953.200000
77.038700 1774.500000
79.054200 3755.600000
80.049500 10674.800000
81.057600 1733.200000
82.065200 4556.800000
86.060100 1648.600000
91.054300 4055.600000
92.049600 2091.000000
93.057500 3180.500000
93.070000 4651.600000
94.065200 38165.800000
95.073000 11619.700000
96.080800 5712.900000
103.054300 1981.200000
106.065100 3607.500000
108.080800 4228.900000
110.060300 1701.300000
110.096400 1724.200000
112.075800 1492.800000
118.064800 1504.700000
120.080900 44844.600000
121.088800 6298.200000
122.096500 5958.400000
138.091300 5844.200000
139.099000 1195.200000
156.102200 2655.100000

>ms2peaks
67.041600 5128.800000
67.054200 3319.300000
68.049500 4523.200000
77.038700 1631.400000
79.054300 2340.500000
80.049500 7150.000000
81.070000 1600.400000
82.065300 3479.100000
91.054300 3061.100000
93.057300 2256.800000
93.069900 2948.500000
94.065200 26095.400000
95.072900 6603.500000
96.080900 3422.400000
103.054000 1188.500000
106.065200 2043.700000
108.080900 3889.900000
120.080900 29261.200000
121.088700 1936.900000
122.096600 2367.400000
138.091400 3849.600000

>ms2peaks
67.041600 3250.000000
67.054200 3897.300000
68.049400 2656.300000
77.038300 1257.500000
79.054400 2275.400000
80.049500 7453.100000
82.065100 2306.600000
91.054300 2686.500000
93.057400 1397.800000
94.065100 22941.600000
95.073000 3934.300000
96.080700 2569.900000
106.065000 2168.000000
108.080800 2290.400000
120.080800 22392.400000
122.096300 1882.600000

