>compound NA92768742
>parentmass 342.1911
>ionization [M+H]+
>formula C17H27NO6
>rt 153.390000
>profile orbitrap
#smiles_iso C[C@@H]([C@@](C(C)C)(C(=O)OCC1=CCN2[C@H]1[C@@H](CC2)OC(=O)C)O)O
#smiles_can CC(C)C(C(C)O)(C(=O)OCC1=CCN2C1C(CC2)OC(=O)C)O
#inchikey RKDOFSJTBIDAHX-OFSOMGBPSA-N
#pubchem_id 156006
#mb_accession NA002359,NA002360,NA002361,NA002362,NA002363,NA002754,NA002755,NA002756,NA002757,NA002758,NA003134,NA003135,NA003136,NA003137,NA003138,NA003499,NA003500,NA003501,NA003502,NA003503

>ms2
342.191400 109222.200000

>ms2
120.080700 3322.500000
180.102000 5070.400000
342.191300 440422.400000

>ms2
120.080900 18735.000000
180.102100 30978.200000
342.191400 485814.200000

>ms2
120.080900 74181.300000
162.092000 1401.900000
180.102100 89005.500000
198.112400 2116.100000
342.191500 443455.600000

>ms2
120.080900 186385.300000
162.091800 5205.500000
180.102100 133511.200000
198.112600 9746.200000
342.191600 338197.600000

>ms2
108.080800 1700.300000
120.080900 317391.700000
121.088800 1209.200000
124.075800 3096.300000
136.075900 2197.500000
138.091500 7329.900000
162.091400 8798.600000
180.102100 139156.000000
181.109700 3785.000000
198.112700 18076.400000
342.191500 190379.900000

>ms2
94.065200 5664.800000
108.080900 2358.400000
120.080800 439598.900000
121.088700 4096.400000
124.075700 3238.500000
136.075600 3968.600000
138.091400 15329.700000
162.091400 13127.600000
180.102000 106310.600000
181.109800 6956.900000
198.112500 31153.200000
252.160000 1439.800000
342.191300 96574.900000

>ms2
73.064800 1396.100000
93.070100 1963.600000
94.065200 9772.900000
95.073200 1119.300000
103.053900 1151.500000
108.080800 4022.600000
118.065300 1212.900000
119.073100 1268.000000
120.080800 468328.400000
121.088600 10464.400000
124.075900 3263.800000
136.075900 5585.500000
138.091400 23402.700000
162.091500 12826.900000
180.102000 64113.000000
181.109800 10109.000000
198.112600 45334.700000
252.159700 1402.700000
342.191400 33317.700000

>ms2
73.064800 2170.000000
80.049600 994.400000
91.054300 1503.200000
93.069900 2835.100000
94.065200 13772.300000
103.054300 2259.800000
108.080800 4881.200000
118.065000 2762.500000
119.073100 3191.100000
120.080800 457444.700000
121.088600 14489.500000
124.075600 2867.800000
128.070700 1536.800000
136.075700 5186.100000
138.091400 23192.700000
162.091500 12535.000000
180.102100 29792.400000
181.109800 10706.400000
198.112600 55888.400000
252.159400 1488.100000
342.191900 8997.400000

>ms2
73.064600 1704.400000
80.049400 1774.300000
91.054400 1859.200000
93.069900 7194.900000
94.065200 19211.600000
95.072900 1372.800000
103.054200 3940.900000
108.080800 6209.200000
118.065100 2567.200000
119.073100 3178.500000
120.080800 408469.300000
121.088600 21203.700000
124.075800 2489.000000
128.070400 2868.600000
136.075700 4539.000000
138.091400 21851.100000
162.091400 9504.900000
180.102000 12273.200000
181.109700 6763.700000
198.112500 59233.200000
342.192100 1335.500000

>ms2
67.041600 931.800000
73.064800 2865.300000
79.054200 2659.100000
80.049400 3409.200000
82.065300 2010.000000
86.060100 1068.800000
91.054300 4679.800000
92.049700 1997.400000
93.069900 10261.600000
94.065100 26895.500000
95.073000 4410.000000
103.054200 6293.300000
105.057200 3165.400000
106.065100 1494.700000
108.080800 9241.900000
112.075900 2118.400000
118.065200 5816.200000
119.073000 6262.000000
120.080800 432474.300000
121.088600 26241.600000
124.076100 1331.000000
128.070600 2885.100000
136.075900 5016.400000
138.091400 27233.900000
162.091300 5707.900000
180.102100 7948.800000
181.110000 6405.100000
198.112500 66448.500000

>ms2
67.041500 1492.000000
68.049400 1846.800000
73.064800 2035.100000
77.038700 1792.400000
79.054300 3739.000000
80.049500 6630.300000
81.069800 1234.100000
82.065300 1366.400000
86.060000 1471.600000
91.054300 6381.900000
92.049500 1798.000000
93.069900 14433.300000
94.065100 31910.700000
95.073000 6179.900000
96.080900 2896.800000
103.054200 8501.500000
105.057100 2654.700000
106.064900 2783.600000
108.080800 10454.100000
110.096600 2023.000000
112.075700 2188.000000
118.065200 7969.200000
119.073000 6106.300000
120.080800 369376.300000
121.088600 28220.800000
124.075200 1364.100000
128.070500 4944.600000
136.075600 3925.200000
138.091400 28782.700000
156.101700 2105.500000
162.091400 5187.400000
180.102100 3657.100000
181.109600 3102.800000
198.112500 56407.700000

>ms2
67.041500 1530.000000
68.049500 1785.400000
73.064600 1413.800000
77.038600 2857.800000
79.054300 4916.500000
80.049500 9824.300000
81.069700 1802.100000
82.065300 2056.100000
86.060200 1884.000000
91.054200 7767.600000
92.049500 2786.900000
93.057400 1507.500000
93.069900 14586.000000
94.065100 32470.500000
95.072900 7011.500000
96.080900 3502.100000
103.054200 10024.500000
105.057300 5992.300000
106.065200 1935.100000
108.080800 12328.800000
109.064800 1320.100000
110.060200 1502.900000
110.096600 1512.300000
112.075500 2872.700000
118.065200 8780.300000
119.073100 9105.600000
120.080800 322008.800000
121.088600 27171.800000
128.070500 5406.200000
136.075100 1207.400000
138.091400 25172.900000
156.101400 1102.400000
162.091600 2779.900000
180.102700 1796.600000
181.109600 1383.800000
198.112500 43613.900000

>ms2
67.041600 2200.600000
67.054400 1706.400000
68.049500 1718.700000
73.064700 2820.300000
77.038600 3768.300000
79.054300 5067.700000
80.049500 12863.900000
82.065300 4087.500000
86.060100 2734.600000
91.054300 11821.500000
92.049500 5645.500000
93.057300 1889.700000
93.069900 17411.900000
94.065200 35689.200000
95.072900 8339.100000
96.080800 4982.600000
103.054300 12491.800000
105.057400 4477.500000
106.065400 2069.100000
108.080800 12385.900000
109.065000 1176.200000
110.060000 1887.500000
110.096400 3010.600000
112.075800 3060.500000
118.065200 12333.100000
119.073000 8148.500000
120.080800 275837.800000
121.088600 22232.400000
128.070700 4893.500000
136.075700 2299.900000
138.091400 25109.100000
156.102100 3072.900000
180.101100 1187.300000
198.112600 34032.500000

>ms2
67.041600 1702.900000
67.054300 1814.500000
68.049400 3221.600000
73.064900 1342.200000
77.038600 5157.200000
79.054300 5422.700000
80.049500 11971.400000
81.070000 1310.700000
82.065100 4001.700000
86.060100 3601.400000
91.054200 14083.600000
92.049400 6360.200000
93.057100 2950.900000
93.069900 16495.600000
94.065100 33276.100000
95.073000 7434.200000
96.080700 3344.400000
103.054200 11034.600000
105.057400 8436.500000
106.064900 1918.700000
108.080800 12145.300000
110.060100 2984.800000
110.096700 2014.400000
112.075600 3103.400000
118.065200 12576.600000
119.073000 8006.900000
120.080800 206264.000000
121.088600 15075.400000
128.070700 4496.900000
136.076200 1389.400000
138.091400 20809.900000
156.101900 1336.200000
198.112400 17646.800000

>ms2
65.038500 1293.600000
67.041600 2722.700000
67.054200 3882.800000
68.049500 3283.400000
73.064900 1384.400000
77.038600 6517.800000
79.054300 5758.200000
80.049500 18678.300000
81.069900 2142.800000
82.065200 4018.400000
86.060000 4557.400000
91.054300 15655.700000
92.049500 8791.000000
93.057300 3381.000000
93.069900 17067.000000
94.065200 42167.300000
95.073000 8688.800000
96.080800 3154.000000
103.054200 12442.800000
104.049300 1232.000000
105.057300 10001.900000
106.065400 3123.700000
108.080800 15939.200000
110.060000 3728.600000
110.096400 2913.100000
112.075900 2482.900000
118.065200 14644.000000
119.073100 8907.800000
120.080800 193269.900000
121.088600 13324.800000
128.070500 5077.100000
138.091400 17959.100000
156.102100 2593.800000
198.112400 13684.800000

>ms2
65.038500 1374.700000
67.041600 3498.200000
67.054200 5289.300000
68.049500 4386.000000
73.064500 1465.200000
77.038600 8281.600000
79.054300 5249.200000
80.049500 20390.200000
81.069900 2605.800000
82.065200 4231.100000
86.060000 4451.700000
91.054300 17698.100000
92.049500 9067.000000
93.057300 3860.100000
93.069900 17884.400000
94.065200 41687.600000
95.073000 6437.400000
96.080700 4860.200000
103.054200 11716.600000
105.057300 9154.100000
106.065000 3025.100000
108.080800 13602.400000
110.060100 4331.200000
110.096500 2350.800000
112.075600 2853.400000
118.065200 15375.400000
119.073000 8621.800000
120.080800 153798.700000
121.088600 8946.100000
128.070800 4151.800000
138.091300 14089.500000
156.102100 2495.900000
198.112500 7501.400000

>ms2
65.038500 2026.800000
67.041600 2331.500000
67.054200 4619.300000
68.049400 3563.300000
77.038600 8606.900000
79.054300 5127.500000
80.049500 20163.400000
81.070000 2166.600000
82.065100 3808.800000
86.060100 4569.400000
91.054200 16680.300000
92.049500 10511.600000
93.057400 5500.200000
93.069900 15302.200000
94.065100 35699.000000
95.072900 5648.100000
96.080800 4790.900000
103.054200 12661.400000
104.049100 1327.700000
105.057300 11120.100000
106.065100 2563.300000
108.080800 12376.800000
110.060000 2480.100000
110.096600 2433.700000
112.075400 2953.000000
118.065100 15677.600000
119.073000 7227.000000
120.080800 123414.200000
121.088400 6253.500000
128.070700 2724.800000
138.091400 10440.000000
198.112900 4655.000000

>ms2
65.038400 2280.600000
67.041600 4004.400000
67.054300 5347.200000
68.049500 4985.900000
77.038600 10198.200000
79.054300 6106.600000
80.049500 20581.200000
81.069900 2043.200000
82.065200 3580.900000
86.060100 4872.700000
91.054200 18563.700000
92.049500 10282.800000
93.057300 5984.600000
93.069900 12170.500000
94.065200 35770.700000
95.073100 4325.600000
96.080900 3386.200000
103.054300 10083.100000
104.049700 1651.200000
105.057300 12616.100000
106.065400 3203.000000
108.080800 9432.900000
110.060200 4528.400000
110.096700 1067.300000
112.075600 1376.200000
118.065200 13466.100000
119.073000 7044.200000
120.080800 90408.800000
121.088800 3777.600000
128.070200 2297.500000
138.091400 6731.200000
198.112200 2350.100000

>ms2
65.038500 2971.300000
67.041700 3433.000000
67.054100 4537.700000
68.049400 5259.900000
77.038600 9205.100000
79.054200 4051.700000
80.049500 21226.700000
81.069900 2526.400000
82.065100 3933.200000
86.060200 3688.100000
91.054200 14304.000000
92.049400 8689.700000
93.057300 5033.000000
93.069800 10217.300000
94.065100 32279.900000
95.073000 3552.700000
96.080700 2695.900000
103.054200 6995.500000
104.049600 1812.600000
105.057300 9131.900000
106.065100 2205.600000
108.080700 7452.700000
110.060200 3542.800000
110.096300 1230.800000
112.075200 1508.700000
118.065100 12203.700000
119.073000 5080.600000
120.080800 70548.400000
138.091300 5191.900000

