>compound NA94582178
>parentmass 316.17550000000006
>ionization [M+H]+
>formula C15H25NO6
>rt 77.625000
>profile orbitrap
#smiles_iso C[C@@H]([C@@](C(C)C)(C(=O)OCC1=CC[N+]2([C@H]1[C@@H](CC2)O)[O-])O)O
#smiles_can CC(C)C(C(C)O)(C(=O)OCC1=CC[N+]2(C1C(CC2)O)[O-])O
#inchikey DNAWGBOKUFFVMB-FVZLBROTSA-N
#pubchem_id 340067
#mb_accession NA002429,NA002430,NA002431,NA002432,NA002433,NA002824,NA002825,NA002826,NA002827,NA002828,NA003204,NA003205,NA003206,NA003207,NA003208,NA003569,NA003570,NA003571,NA003572,NA003573

>ms2peaks
316.175600 171065.900000

>ms2peaks
316.175300 633592.400000

>ms2peaks
316.175400 669479.800000

>ms2peaks
172.097400 1153.300000
316.175400 685271.000000

>ms2peaks
172.096800 7047.400000
316.175500 647575.900000

>ms2peaks
93.057300 2115.700000
94.065000 2374.700000
136.075800 5707.400000
137.083200 1529.600000
138.091300 21884.600000
154.086200 6115.100000
155.094000 6627.200000
172.096900 40535.000000
226.143000 1762.400000
272.149500 5930.900000
316.175500 865418.200000

>ms2peaks
82.065100 1040.900000
93.057300 5131.600000
94.065200 6065.100000
108.080900 1768.200000
110.060000 1030.600000
111.067800 1238.800000
112.075600 2716.600000
136.075800 17330.500000
137.083700 4455.300000
138.091400 61722.300000
154.086300 18380.300000
155.094200 17183.700000
172.096900 99736.900000
226.144000 4617.300000
272.149300 8538.900000
298.163800 2095.900000
316.175600 684814.600000

>ms2peaks
67.054300 1009.000000
68.049500 2056.600000
80.049500 2085.500000
82.041400 2066.600000
82.065200 1936.600000
93.057300 13209.700000
94.065100 11741.100000
95.072900 2462.800000
98.060300 2556.300000
100.075400 1230.300000
108.080900 5281.300000
109.064400 1429.000000
109.088700 1756.800000
110.060000 2087.900000
111.067700 3032.300000
112.075600 4371.900000
118.065300 1204.300000
120.080800 1632.900000
126.090900 1156.700000
136.075800 28756.400000
137.083600 7487.100000
138.091400 106717.300000
139.099400 2289.900000
154.086300 25126.700000
155.094200 31679.600000
172.096900 175587.900000
226.143900 8487.200000
272.149500 7035.400000
298.164600 3672.700000
316.175600 473041.700000

>ms2peaks
68.049400 1849.900000
73.064800 2345.800000
80.049500 3310.900000
82.041400 4418.000000
82.065100 2349.800000
83.049100 4081.800000
93.057400 21824.000000
94.065200 18775.000000
95.073200 1532.300000
98.060300 3380.700000
100.075800 1785.400000
102.055000 1889.700000
108.080800 7061.000000
109.064900 1785.800000
110.060000 3321.500000
111.067900 7649.600000
112.075700 7678.200000
120.081000 1665.800000
126.091600 2147.800000
136.075800 36417.100000
137.083600 11979.100000
138.091400 147669.400000
139.099100 2404.100000
154.086300 31733.400000
155.094200 43352.600000
172.097000 233341.000000
226.143700 6999.900000
272.149200 6960.400000
298.166300 2374.200000
316.175700 267390.400000

>ms2peaks
67.054100 1507.000000
68.049300 2145.800000
73.064800 3116.600000
80.049500 4083.300000
82.041400 6660.400000
82.065100 3913.500000
83.049200 6456.300000
93.057400 30521.900000
94.065200 27035.300000
95.072800 1141.500000
98.060100 4912.200000
100.075400 1461.700000
102.054800 2489.600000
108.080800 9914.100000
109.064800 1651.600000
109.088600 1425.300000
110.060200 4917.300000
111.067900 11269.900000
112.075700 9236.500000
118.065200 1888.600000
120.080500 1383.000000
126.091400 2297.800000
136.075800 38965.500000
137.083600 11751.100000
138.091400 151850.700000
154.086300 28219.200000
155.094200 40051.700000
172.096900 253053.600000
226.143900 6141.700000
272.149200 3068.100000
298.164500 2181.700000
316.175600 136728.200000

>ms2peaks
55.054100 1770.800000
67.054300 2310.200000
68.049400 4665.700000
73.064800 4383.200000
80.049500 7401.100000
81.069800 2762.400000
82.041300 10218.800000
82.065200 7364.900000
83.049200 11264.100000
93.057300 59350.900000
94.065100 61135.100000
95.049200 1853.000000
95.072900 3937.200000
96.044300 2530.500000
96.081000 1736.600000
98.060100 8925.800000
100.075600 2589.700000
102.054800 4445.400000
106.065100 4550.200000
108.080800 15177.800000
109.064700 4274.200000
109.088700 2622.300000
110.060000 7244.400000
111.067800 30846.200000
112.075600 13356.500000
118.065000 2891.300000
120.080400 2598.700000
124.076100 1776.500000
126.091200 4529.200000
128.070800 2613.900000
136.075700 57066.300000
137.083500 17306.900000
138.091300 231621.800000
140.070600 1819.500000
154.086300 31789.700000
155.094100 50476.400000
172.096800 339115.100000
226.143900 6225.500000
316.175500 82304.200000

>ms2peaks
55.054100 1656.700000
67.054300 2878.700000
68.049500 5159.400000
73.064800 4819.600000
79.054300 1360.500000
80.049600 11181.900000
81.057300 2602.100000
81.069900 3785.100000
82.041300 11884.100000
82.065200 7976.900000
83.049200 14376.600000
84.081100 1214.500000
93.057400 69096.000000
94.065100 83215.200000
95.073000 5060.700000
96.044400 2266.000000
96.080800 2945.300000
98.060100 10150.500000
100.075700 1353.500000
102.054900 5895.100000
106.065200 7570.400000
108.080800 13966.200000
109.064900 3447.300000
109.088400 2135.200000
110.060100 6467.600000
111.067900 46726.600000
112.075700 13221.500000
118.065400 2974.500000
120.081100 2282.600000
124.075800 1185.900000
126.091300 4610.000000
128.070700 3969.400000
136.075800 53831.900000
137.083600 15889.400000
138.091400 198741.700000
140.071200 2540.600000
154.086400 26078.800000
155.094200 42940.200000
172.096900 301762.300000
226.143700 4328.200000
316.175600 30407.400000

>ms2peaks
55.054100 1539.800000
67.054300 4544.600000
68.049400 5475.000000
70.065200 1385.400000
73.064800 4072.800000
79.054200 2166.300000
80.049500 13178.000000
81.057400 1563.300000
81.069900 4779.700000
82.041300 11451.600000
82.065100 8365.600000
83.049200 15725.000000
91.054100 1203.600000
92.049400 1134.400000
93.057300 68827.400000
94.065100 93285.000000
95.048900 949.500000
95.072900 3583.300000
96.044400 3926.000000
96.080600 2594.500000
98.060000 8942.800000
102.054900 6811.300000
106.065100 7924.800000
108.080700 12782.000000
109.064900 3642.300000
109.088400 2739.400000
110.059900 7505.000000
111.067900 63758.900000
112.075700 10051.700000
118.064900 2294.800000
120.080600 1937.300000
124.075900 3594.500000
126.091300 3330.600000
128.070700 4105.800000
136.075700 44325.500000
137.083600 16210.900000
138.091300 149912.500000
140.071000 3185.600000
154.086300 16716.400000
155.094100 29772.300000
172.096900 233824.900000
226.143700 1344.300000
316.175500 8479.600000

>ms2peaks
67.054200 2498.400000
68.049400 5832.700000
70.064900 1179.400000
73.064700 4932.200000
79.054400 2033.200000
80.049500 13895.500000
81.057300 3686.700000
81.069900 3620.600000
82.041300 9315.800000
82.065100 8182.700000
83.049200 11288.300000
84.080800 1195.500000
91.054400 1741.100000
93.057300 66028.400000
94.065100 104250.500000
95.072900 3203.900000
96.044500 3024.800000
96.080800 3263.900000
98.060100 7327.000000
102.055000 6193.000000
106.065200 8935.700000
108.080800 11548.000000
109.064800 2337.700000
109.089000 2317.400000
110.060000 5740.100000
111.067900 71493.000000
112.075700 9066.500000
118.065400 1239.600000
120.081100 1340.300000
124.075800 3363.300000
126.091400 2932.400000
128.070600 4890.700000
136.075700 35456.600000
137.083500 14656.000000
138.091400 102875.300000
140.070600 3021.300000
154.086400 11029.000000
155.094100 22205.200000
172.096900 161800.500000
226.144000 1129.200000
316.175000 1643.500000

>ms2peaks
67.054300 3097.100000
68.049400 5515.800000
70.065000 1023.000000
73.064800 2990.000000
79.054200 1666.300000
80.049500 19219.800000
81.057300 2318.000000
81.069900 3138.000000
82.041300 5945.900000
82.065200 7420.000000
83.049100 12536.800000
91.054200 1619.200000
92.049400 1534.500000
93.057300 60241.300000
94.065100 106590.800000
95.072900 2700.200000
96.044600 3465.700000
96.080700 2875.000000
98.060000 4589.000000
102.054900 6726.600000
106.065100 9568.100000
108.080700 11092.500000
110.060100 5757.000000
111.067800 73747.300000
112.075600 5029.000000
118.065000 1110.700000
120.080400 2085.500000
124.075700 3843.300000
126.091300 3175.100000
128.070400 4373.200000
136.075700 26606.800000
137.083400 10025.600000
138.091300 70198.300000
140.070600 2003.000000
154.086200 8058.300000
155.094100 13937.900000
172.096800 100563.800000

>ms2peaks
66.046500 1374.400000
67.041500 1660.700000
67.054200 5164.000000
68.049400 10908.800000
70.065300 1424.100000
73.064800 4398.800000
79.054300 3258.400000
80.049500 35546.200000
81.057400 4008.100000
81.069800 4617.400000
82.041300 7195.300000
82.065100 11471.100000
83.049100 17375.900000
84.044000 1285.100000
84.081000 1474.100000
91.054400 2115.800000
92.049300 3152.200000
93.057300 97708.300000
94.065100 174238.800000
95.072900 3657.600000
96.044300 5082.400000
96.080800 3992.700000
98.060100 7776.300000
102.054900 10434.600000
106.065100 13668.200000
108.080800 16669.400000
109.064800 3496.500000
110.060000 9068.900000
111.067800 118959.600000
112.075600 7525.200000
118.065100 3262.500000
120.080900 2288.200000
124.075500 4979.800000
126.091200 2888.900000
128.070500 7208.000000
136.075700 34044.400000
137.083600 13389.100000
138.091300 76079.300000
140.071000 2070.900000
142.086300 1599.000000
154.086200 8758.300000
155.094100 17271.300000
172.096800 103519.400000

>ms2peaks
67.041600 1335.400000
67.054200 6332.100000
68.049400 8908.800000
70.064900 1310.600000
73.064900 3457.700000
79.054200 2145.500000
80.049500 46593.900000
81.057300 5121.500000
81.069800 5259.400000
82.041300 7730.300000
82.065100 10725.600000
83.049100 15267.700000
84.044400 1572.000000
84.080700 1288.500000
92.049500 3453.300000
93.057300 87797.300000
94.065100 162746.200000
95.072800 2486.200000
96.044400 4955.200000
96.080700 3261.100000
98.060100 6060.000000
102.054900 6880.500000
106.065100 16721.100000
108.080800 14678.900000
109.064800 1949.800000
110.060100 10588.900000
111.067900 118328.600000
112.075600 5842.500000
118.065100 2142.200000
120.080800 1561.400000
124.075800 5639.100000
126.091200 2070.600000
128.070700 6082.500000
136.075700 28837.700000
137.083600 10165.100000
138.091400 47545.200000
140.070400 2401.700000
142.086100 1536.100000
154.086400 7910.300000
155.094100 10696.000000
172.096900 70624.300000

>ms2peaks
66.046200 1022.400000
67.041700 3165.900000
67.054200 7219.300000
68.049400 8782.700000
70.065000 1691.500000
73.064800 1969.400000
79.054100 2802.500000
80.049500 49214.500000
81.057400 4264.100000
81.069900 3934.700000
82.041300 6684.100000
82.065100 10464.400000
83.049200 13088.200000
84.080700 1011.000000
91.054300 1996.900000
92.049400 4854.400000
93.057300 74139.700000
94.065100 137576.300000
95.072900 2466.000000
96.044500 4378.000000
96.080900 3194.700000
98.060200 3673.900000
102.055000 8072.300000
106.065200 11492.000000
108.080800 11054.600000
109.064700 1897.900000
110.060100 7732.200000
111.067900 95712.300000
112.075600 4008.900000
118.065200 2227.800000
124.075700 3835.100000
128.070600 5162.500000
136.075700 21189.200000
137.083500 7014.700000
138.091400 31668.800000
140.070600 1856.400000
154.086200 5238.300000
155.094200 6212.200000
172.096900 35713.800000

>ms2peaks
65.038500 1292.700000
66.046400 1520.500000
67.041600 3918.200000
67.054200 7094.900000
68.049400 7546.500000
73.064800 1892.300000
78.033900 1171.000000
79.054300 2068.900000
80.049500 52298.800000
81.057300 4469.500000
81.069900 2775.500000
82.041400 5330.800000
82.065200 9310.100000
83.049200 11047.200000
92.049400 5342.800000
93.057300 58273.600000
94.065100 117553.300000
95.073000 1707.200000
96.044400 4688.400000
96.080800 2527.500000
98.060200 3414.700000
102.055100 5643.500000
106.065100 9934.600000
108.080800 9419.400000
110.060100 9132.100000
111.067900 81620.800000
112.075900 3914.900000
118.064800 1587.700000
120.080800 1343.900000
124.075900 3107.200000
128.070600 3841.800000
136.075700 15612.500000
137.083800 3731.000000
138.091300 18013.200000
140.070700 1166.800000
154.086400 2801.900000
155.094100 4549.700000
172.096900 21748.100000

>ms2peaks
65.038500 1277.700000
66.046300 3188.100000
67.041500 5015.800000
67.054200 6267.600000
68.049500 8319.000000
78.033700 1176.600000
79.054300 2211.100000
80.049500 53500.600000
81.057300 4238.100000
81.069900 1344.900000
82.041300 3904.200000
82.065100 9543.900000
83.049200 7719.000000
84.044700 1023.400000
92.049400 6530.800000
93.057300 48954.100000
94.065100 97072.100000
95.072900 1334.500000
96.044200 3511.700000
96.081000 1998.500000
98.059800 1910.200000
102.054900 5304.500000
106.065100 7119.800000
108.080800 8168.800000
109.065200 1085.900000
110.060100 7077.400000
111.067800 60163.500000
112.076000 1522.900000
118.065000 1342.500000
124.075700 3530.600000
128.070500 2344.800000
136.075600 11153.100000
137.083300 3600.200000
138.091300 12124.600000
154.086500 2201.200000
155.094000 2641.700000
172.096800 12646.100000

