>compound NA95203933
>parentmass 307.0811999999999
>ionization [M+H]+
>formula C15H14O7
>rt 199.305517
>profile orbitrap
#smiles_iso C1[C@H]([C@H](OC2=CC(=CC(=C21)O)O)C3=CC(=C(C(=C3)O)O)O)O
#smiles_can C1C(C(OC2=CC(=CC(=C21)O)O)C3=CC(=C(C(=C3)O)O)O)O
#inchikey XMOCLSLCDHWDHP-IUODEOHRSA-N
#pubchem_id 72277
#mb_accession NA000884,NA000886,NA001013,NA001015,NA001017,NA001137,NA001139,NA001141,NA001259,NA001261,NA001263,NA001389,NA001391,NA001393,NA001514,NA001516,NA001518,NA001649,NA001651,NA001653,NA001769,NA001771,NA001773,NA001896,NA001898,NA001900,NA002125,NA002127,NA002129

>ms2peaks
139.038900 3667.200000

>ms2peaks
139.038900 23905.800000
181.049300 2088.200000

>ms2peaks
139.038800 1701.000000

>ms2peaks
139.038900 20268.700000
181.049400 1834.000000

>ms2peaks
139.038900 18406.600000

>ms2peaks
139.039100 20975.400000
163.039200 2715.700000

>ms2peaks
139.039100 14634.200000
163.039300 1400.200000

>ms2peaks
139.039000 13876.400000
163.039400 1619.800000

>ms2peaks
139.039100 20975.400000
163.039300 2715.700000

>ms2peaks
139.039100 14634.200000
163.039300 1400.200000

>ms2peaks
139.039100 13876.400000
163.039500 1619.800000

>ms2peaks
139.039000 21213.800000
163.039000 1512.700000

>ms2peaks
65.038700 1255.200000
139.039100 15423.100000

>ms2peaks
65.038600 1503.400000
139.039200 10270.000000

>ms2peaks
139.039000 21213.800000
163.039000 1512.700000

>ms2peaks
65.038700 1255.200000
139.039100 15423.100000

>ms2peaks
65.038600 1503.400000
139.039200 10270.000000

>ms2peaks
107.049000 1601.800000
139.039100 21373.300000

>ms2peaks
65.038600 1720.500000
77.038500 1124.000000
107.049200 1927.700000
111.044100 1291.400000
121.028800 1622.900000
131.049300 1758.500000
139.039100 19830.900000

>ms2peaks
65.038600 2006.000000
77.038400 1257.900000
107.049400 2303.000000
111.044100 2754.600000
121.028500 2562.300000
131.049000 2073.600000
139.039100 16365.400000

>ms2peaks
65.038500 1903.500000
121.028500 1570.100000
131.049700 1401.900000
139.039100 10160.900000

>ms2peaks
65.038600 1984.000000
68.997200 1171.600000
77.038600 1246.800000
121.028600 1920.500000
131.049200 1335.600000
139.039200 7215.800000

>ms2peaks
68.997000 1207.200000
77.038500 2177.200000
139.038800 3105.000000

>ms2peaks
65.038600 1130.000000
139.039100 5880.700000

>ms2peaks
65.038700 1603.300000
139.039400 2391.100000

>ms2peaks
139.039300 1212.500000

>ms2peaks
65.038600 1130.000000
139.039100 5880.700000

>ms2peaks
65.038700 1603.300000
139.039400 2391.100000

>ms2peaks
139.039300 1212.500000

