>compound NA95915803
>parentmass 592.348
>ionization [M+H]+
>formula C32H49NO9
>rt 556.575000
>profile orbitrap
#smiles_iso C/C=C(/C)\C(=O)O[C@H]1CC[C@]2([C@H]3[C@@]1(O[C@@]24C[C@]5([C@@H]6CN7C[C@H](CC[C@H]7[C@@]([C@]6([C@H](C[C@]5([C@@H]4CC3)O)O)O)(C)O)C)O)O)C
#smiles_can CC=C(C)C(=O)OC1CCC2(C3C1(OC24CC5(C6CN7CC(CCC7C(C6(C(CC5(C4CC3)O)O)O)(C)O)C)O)O)C
#inchikey DBUCFOVFALNEOO-HWBIYQLFSA-N
#pubchem_id 5380394
#mb_accession NA002566,NA002567,NA002568,NA002569,NA002570,NA002959,NA002960,NA002961,NA002962,NA002963,NA003334,NA003335,NA003336,NA003337,NA003338,NA003704,NA003705,NA003706,NA003707,NA003708

>ms2peaks
592.347000 345814.300000

>ms2peaks
592.347400 340308.900000

>ms2peaks
592.347400 299045.200000

>ms2peaks
592.347200 271435.200000

>ms2peaks
592.347500 247748.200000

>ms2peaks
110.096300 2216.400000
456.275000 3557.200000
474.282200 7182.400000
492.294300 20219.000000
556.326600 3816.300000
574.337000 19651.900000
592.347500 362783.800000

>ms2peaks
83.048900 9088.200000
98.096200 4980.100000
110.096100 4825.600000
128.106600 2394.400000
138.127400 3785.200000
154.122300 9867.000000
162.127100 3664.000000
163.134800 2329.200000
420.255300 4075.600000
438.263100 12080.800000
456.273000 28278.600000
474.284000 45989.300000
492.294300 53368.600000
520.304300 2100.900000
538.312300 3756.300000
556.325400 17254.400000
574.336500 55537.900000
592.346900 321078.600000

>ms2peaks
55.054000 14876.000000
83.049100 35659.300000
98.096300 14196.900000
109.064700 1742.100000
110.096300 15038.600000
112.112000 6104.300000
126.091100 3518.900000
126.127800 4455.900000
128.106900 6128.900000
136.112200 2180.500000
138.091300 2384.600000
138.127600 18135.800000
152.107400 1982.900000
154.122400 23225.600000
161.119900 2591.800000
162.127500 16201.700000
163.135300 3941.500000
164.143200 4603.800000
178.122500 3076.200000
182.117400 2203.000000
188.143400 4463.600000
189.150900 2561.900000
190.122400 3159.400000
192.138800 2162.300000
193.146700 2279.900000
208.169600 2889.100000
374.243600 1691.700000
402.242100 3973.000000
410.269600 3001.600000
420.252200 17963.600000
438.263200 32080.800000
456.273500 91064.900000
474.284100 109387.900000
492.294600 72415.300000
520.304300 5607.200000
538.316000 12196.400000
539.320800 3414.000000
556.326500 35007.200000
574.337000 76589.700000
592.347500 186820.400000

>ms2peaks
55.054000 32444.600000
83.049100 72262.500000
98.096300 31485.600000
109.064700 3992.300000
110.096300 22105.200000
112.111800 6413.800000
124.111600 3617.600000
126.091200 7946.400000
126.127600 14796.500000
128.106900 8800.000000
136.111900 3360.700000
137.120000 4300.200000
138.091400 4859.400000
138.127600 44607.700000
140.106800 1745.100000
148.112100 1611.300000
150.128100 3915.700000
152.106800 4415.500000
154.122500 35461.300000
161.119700 5433.700000
162.127500 37592.900000
163.135100 14954.600000
164.106700 4740.400000
164.143300 17990.700000
174.127700 7081.500000
178.122300 5392.300000
182.117700 1775.000000
188.143100 15893.300000
189.151200 3933.700000
190.122200 9737.500000
191.131000 2715.400000
192.137900 5380.200000
193.145900 8061.800000
206.117100 3282.700000
206.153700 4770.600000
208.169300 17830.600000
255.138800 2230.800000
281.162000 6210.800000
294.186500 2303.100000
392.258600 6557.800000
402.242300 6857.300000
408.250500 3520.100000
410.269200 3326.900000
420.252800 36731.000000
438.263300 69848.300000
456.273700 172755.600000
474.284100 137946.400000
492.294600 55697.300000
520.306300 7859.900000
521.308900 3733.800000
538.315400 15473.100000
556.326700 41547.900000
574.337100 65120.600000
592.347700 85519.400000

>ms2peaks
55.054000 36686.800000
83.049000 91883.800000
98.096300 38251.300000
109.064700 7305.000000
110.096200 23815.200000
112.111900 7741.500000
124.112100 6069.300000
126.091200 7926.600000
126.127500 22821.100000
128.106800 10697.400000
136.112000 5957.700000
137.119500 5841.600000
138.091000 5911.600000
138.127500 73934.500000
140.106900 2476.300000
148.111800 5243.100000
150.127700 8823.100000
152.107000 7270.200000
154.122400 43519.300000
161.119800 10822.600000
162.127500 61378.000000
163.135100 18778.500000
164.106700 9801.800000
164.143100 31874.500000
174.127500 14172.200000
178.122500 9299.500000
182.117200 4591.600000
188.143200 32140.400000
189.151200 5832.800000
190.122300 12918.100000
191.130300 6835.900000
192.138000 13620.900000
193.145800 14508.200000
206.117700 2037.800000
206.153900 7601.900000
208.169300 36399.700000
255.138400 1915.900000
281.162200 8935.500000
294.184500 2563.700000
374.246700 1803.600000
392.258300 9167.300000
402.242500 10054.900000
408.251900 3592.700000
410.269300 5954.900000
420.252800 50319.800000
438.263200 100927.400000
456.273700 213221.800000
474.284000 109657.200000
492.294300 29903.800000
520.304700 7213.700000
521.309500 2871.300000
538.315500 15289.200000
539.320100 5237.600000
556.326400 36738.800000
574.337000 36582.400000
592.348200 25099.400000

>ms2peaks
55.054100 55452.900000
81.069800 3415.100000
83.049100 121269.200000
84.080800 6626.700000
96.080600 2333.000000
98.096300 56004.400000
109.064700 13495.400000
110.096300 33154.100000
111.104500 3452.600000
112.112000 10840.600000
119.085800 2330.000000
120.080300 2339.900000
121.064500 2715.400000
122.096100 4270.600000
124.112000 15443.400000
125.119900 6787.900000
126.091300 12312.000000
126.127600 35832.400000
127.075500 1882.600000
128.107000 12304.000000
131.085500 3241.500000
133.101200 2499.000000
136.112100 11422.900000
137.119800 9394.400000
138.127600 137035.600000
140.107000 2602.500000
142.122600 2872.500000
143.085400 2878.000000
147.080100 2495.600000
148.111900 13188.900000
149.119800 8003.900000
150.127700 18657.600000
152.106900 12381.600000
154.122600 51542.700000
157.101200 3091.600000
158.096400 1756.800000
160.112300 5948.400000
161.119800 19120.100000
162.127700 109162.400000
163.135200 30576.700000
164.107000 15547.800000
164.143300 62725.700000
165.114300 1651.900000
166.122800 4217.400000
171.117300 2368.600000
173.095500 2969.900000
174.127700 27459.200000
175.135200 5855.100000
176.106800 3056.900000
176.143300 4315.800000
177.114900 2793.700000
178.122500 18845.100000
179.130200 3852.700000
180.138400 9932.000000
181.101000 1825.500000
182.117400 6611.000000
183.116200 1971.200000
186.127500 3140.600000
187.135300 7044.900000
188.143200 76209.200000
189.115100 6965.800000
189.151100 11900.400000
190.122600 23428.500000
190.158900 6267.800000
191.130600 15000.900000
192.138200 31174.800000
193.146200 23685.300000
199.111600 3830.500000
204.138200 8429.500000
206.117000 4038.700000
206.153900 17609.400000
208.169500 83934.000000
211.111400 2834.800000
212.143300 2817.400000
213.127600 3203.100000
216.137800 3101.400000
221.133400 2386.400000
227.130400 2359.800000
229.121300 2133.300000
234.148700 3920.600000
235.157100 2981.400000
260.164300 3765.900000
262.143100 4798.800000
263.151700 10105.700000
268.168500 2132.000000
280.154800 4462.100000
281.162100 14453.600000
294.184400 3428.900000
374.247400 2404.100000
376.227800 3257.200000
377.232400 2655.200000
378.243800 4049.900000
390.241600 4033.300000
392.257600 16871.900000
394.236200 3243.900000
396.253700 1924.800000
402.242300 16669.300000
408.253600 7056.900000
410.268200 10975.800000
420.252900 70457.400000
423.240300 2831.000000
438.263300 153680.500000
440.244200 3123.500000
441.248400 3910.600000
454.258100 5792.800000
456.273700 292387.400000
474.284000 90813.400000
492.293700 15309.800000
502.291000 3499.100000
520.304600 9140.700000
538.315100 15453.800000
556.326300 29863.400000
574.336600 16595.400000

>ms2peaks
55.054100 43181.600000
70.065000 1956.300000
81.069800 5863.900000
83.049100 115234.500000
84.080800 7322.800000
93.069700 2271.000000
95.085800 1881.100000
96.080600 4967.300000
98.096400 52905.900000
107.085400 2194.100000
108.080800 3494.500000
109.064700 12823.300000
110.096400 28756.700000
111.104200 4409.600000
112.111900 10847.400000
119.085500 2217.700000
121.064900 5128.200000
122.096500 5832.500000
124.112000 24403.700000
125.119700 8051.700000
126.091300 10747.800000
126.127600 39615.600000
127.074900 2612.200000
128.107000 8539.700000
131.085300 2655.200000
132.080700 3601.300000
133.064900 2494.400000
133.100800 3082.000000
135.080200 2145.800000
136.112100 14417.900000
137.120000 9108.900000
138.127600 154918.000000
140.106600 2893.000000
143.085400 4249.400000
145.064500 1667.900000
145.101300 4885.700000
146.096400 6071.600000
147.080400 2948.900000
147.103800 3276.900000
148.111900 16894.600000
149.119500 10796.300000
150.127500 22460.200000
152.106700 12995.300000
154.122500 39632.600000
155.085800 1551.000000
157.101500 4238.100000
159.080600 3081.100000
160.111900 10833.800000
161.095700 3032.000000
161.119800 18167.900000
162.127600 118344.100000
163.135000 26133.400000
164.107000 18624.400000
164.143200 80362.700000
166.122600 4301.800000
169.100900 2489.500000
171.081000 3494.200000
171.116800 2846.000000
173.095800 2570.500000
174.127600 40534.700000
175.135100 10397.800000
176.107400 5083.100000
176.143400 6335.300000
177.114900 2699.400000
178.122500 21645.000000
179.130500 4967.800000
180.137900 14581.300000
181.100400 2629.900000
182.117400 5145.600000
183.116800 2755.800000
185.095500 3020.200000
186.127700 4075.000000
187.111100 2071.400000
187.135400 4163.300000
188.143200 101464.900000
189.114300 5736.100000
189.150900 11840.200000
190.122400 32934.500000
190.159300 4107.000000
191.130600 21164.100000
192.138100 36427.500000
193.146000 31732.400000
195.116500 3689.000000
197.096300 3543.200000
199.111700 3136.300000
199.135700 2067.200000
200.143600 2662.200000
201.127200 2794.600000
204.138100 12622.200000
206.117100 2893.200000
206.153700 28635.800000
208.169300 104728.500000
211.111200 3259.000000
212.143300 1918.200000
213.127600 3068.300000
215.129800 2018.200000
216.137900 4253.200000
220.133200 2616.600000
221.131400 1857.200000
227.130500 2431.400000
229.122700 1785.500000
234.149100 5047.600000
242.153000 2014.600000
244.132300 3274.100000
245.141600 2054.000000
260.164400 6467.600000
262.143900 5983.800000
263.151300 7538.000000
268.170300 2452.200000
280.154600 2958.800000
280.170100 2050.500000
281.162100 13833.500000
362.208700 1588.600000
374.249500 2869.500000
376.228200 1675.500000
377.232700 2224.000000
378.242800 5382.400000
390.205200 2115.400000
390.241500 3691.400000
392.257700 16164.600000
393.262200 4130.800000
394.238600 3966.200000
402.242100 16516.700000
403.247000 4775.700000
405.230000 3673.200000
408.253000 5802.700000
410.268100 7344.600000
420.252800 59990.200000
436.249100 2003.400000
438.263300 118083.200000
440.241700 3638.200000
441.248500 1688.700000
454.258300 6739.500000
455.262600 2635.800000
456.273600 185846.300000
474.284000 38686.800000
492.295100 4663.800000
502.293000 2739.000000
520.301900 4718.600000
522.167300 2791.400000
556.327400 10478.300000
574.335300 5492.700000

>ms2peaks
55.054100 34426.300000
68.049300 1924.400000
81.069900 4231.700000
82.065200 2211.600000
83.049100 101709.900000
84.080700 8512.200000
91.054300 2050.300000
93.069700 4790.100000
94.065000 2716.600000
96.080700 9823.400000
98.096300 50905.900000
107.085400 2948.100000
108.080700 3305.600000
109.064600 11482.700000
110.096300 24100.000000
111.104400 5130.900000
112.111900 7237.100000
117.069900 2352.700000
119.085000 3668.300000
120.080800 2952.400000
121.064600 5094.400000
121.088700 1508.100000
122.096300 6948.600000
124.112000 28040.100000
125.119800 9397.200000
126.091200 6692.300000
126.127600 34354.300000
128.106900 6465.800000
129.069500 2666.200000
131.085600 4754.100000
132.080600 4711.300000
133.064600 2240.800000
133.101100 4576.200000
134.096500 2947.500000
135.080800 1896.400000
136.112100 15872.800000
137.119600 8280.800000
138.127600 163915.000000
140.106900 1851.100000
143.085400 7069.000000
145.064700 1446.800000
145.101100 4428.800000
146.096300 7169.000000
147.080500 2345.300000
147.104600 4379.400000
147.116300 2160.900000
148.111900 24112.200000
149.095700 3240.600000
149.119700 11945.600000
150.127600 31157.700000
152.106900 9185.400000
154.122500 35226.300000
155.085100 3579.400000
157.101000 5015.200000
159.080000 3891.700000
159.116500 2192.700000
160.112200 10542.400000
161.095800 2940.200000
161.119700 19631.600000
162.127600 110264.900000
164.107000 15050.100000
164.143300 91103.300000
166.122400 3504.800000
169.100300 4000.500000
171.080600 2291.200000
171.116700 2274.100000
173.119900 2275.700000
174.127600 49231.900000
175.135200 12752.800000
176.106900 6122.000000
176.143200 8550.900000
177.115000 4316.500000
178.122500 23914.200000
179.130100 4375.500000
180.138100 15205.700000
181.101000 3298.300000
182.117300 3064.700000
183.080700 1797.400000
183.116500 3528.500000
185.132700 2465.500000
186.127700 6423.300000
187.135300 4361.400000
188.143200 118070.200000
189.114700 3633.000000
189.150500 11216.400000
190.122500 31378.100000
190.158900 6922.700000
191.130400 26646.300000
192.138200 44274.300000
193.101300 2126.500000
193.146100 27956.400000
195.116600 1962.500000
197.096100 2548.900000
199.111400 1951.600000
204.138100 14571.400000
206.117700 2156.900000
206.153800 28914.000000
208.169400 107877.200000
209.095900 1917.600000
211.111300 3739.300000
212.144100 2866.600000
213.128100 2364.900000
216.137900 4168.100000
218.153900 3545.800000
223.112400 1946.000000
224.142900 2078.400000
225.127300 1844.900000
228.137900 3822.800000
229.121400 1712.000000
230.153500 2135.000000
234.148500 7541.100000
235.157000 2067.200000
242.153800 3775.500000
244.133100 3640.400000
245.141200 1727.900000
250.160100 1712.100000
260.164200 6741.800000
262.143300 4970.200000
263.151200 6888.500000
280.155100 1663.200000
280.169400 2974.100000
281.162200 9083.700000
294.185200 5132.400000
334.217600 2590.000000
366.242900 2437.000000
374.248000 2483.000000
376.226700 2318.000000
378.242200 5594.600000
390.204200 2288.200000
390.242500 3151.600000
392.258700 13471.300000
393.261900 2770.500000
394.237600 3120.800000
402.242300 11985.400000
403.243300 4114.700000
404.221200 2702.000000
405.229800 2349.400000
408.254600 2506.800000
410.267900 5330.700000
420.252600 39666.000000
423.240000 1695.800000
436.246600 2406.300000
438.263300 75704.300000
440.243100 6151.300000
454.257200 5818.500000
456.273500 102239.700000
474.283700 11425.900000
492.295600 2255.100000
522.167800 3592.500000
538.315100 2590.000000
556.328500 2495.200000

>ms2peaks
55.054100 25931.400000
68.049300 2156.000000
69.069700 1762.400000
70.065100 1758.000000
79.054100 3335.800000
81.033800 1215.600000
81.069800 6052.900000
82.065200 3684.000000
83.049100 61417.300000
84.080700 7461.300000
91.054100 1981.700000
93.069900 4644.300000
94.064900 2168.500000
95.085600 2066.900000
96.080700 12354.200000
97.064900 1441.500000
98.096400 43622.600000
105.069900 5850.000000
107.085300 3843.000000
108.080700 4142.300000
109.064800 9268.400000
110.096300 21367.900000
111.104200 4245.800000
112.112100 7104.300000
117.069700 1801.700000
119.085600 3656.000000
120.080700 3706.500000
121.064900 5008.900000
121.088700 1540.900000
122.059700 1528.500000
122.096400 10014.700000
124.112000 23659.600000
125.119900 12466.300000
126.091100 4277.000000
126.127600 30216.800000
128.107000 4486.200000
129.069700 1624.100000
131.085300 4056.800000
132.080900 6405.800000
133.088100 1663.200000
133.101100 4626.200000
134.096300 5538.200000
136.112000 15854.600000
137.119800 7660.200000
138.127600 146193.600000
140.106900 1840.000000
142.122400 2096.500000
143.085500 4665.600000
145.064700 2044.900000
145.101000 4137.000000
146.096300 10291.100000
147.080100 3272.200000
147.104100 5232.300000
147.116400 1704.000000
148.112000 25004.900000
149.096000 1449.300000
149.119800 11785.500000
150.127600 30782.400000
152.106800 8281.700000
154.122600 20577.100000
155.085400 2006.400000
157.101300 4426.600000
158.096500 2504.900000
159.080300 4152.000000
159.104500 1502.100000
159.116900 2184.100000
160.112100 16024.300000
161.096000 3303.900000
161.119800 14790.600000
162.127700 102042.500000
163.134800 17993.700000
164.106900 14110.500000
164.143300 95162.800000
166.122600 2477.600000
167.086100 1488.300000
169.101400 2703.600000
171.080200 1489.200000
171.117200 1921.100000
173.095900 2547.400000
173.120100 3053.900000
174.127600 56088.700000
175.135200 13005.800000
176.106900 8402.000000
176.143200 9349.700000
177.114700 4946.400000
177.148700 1554.100000
178.122500 22032.800000
179.130200 3880.300000
180.138200 19749.000000
181.101200 3216.400000
182.117600 3190.800000
183.080000 1468.600000
183.116100 3017.800000
185.096100 3481.700000
185.131900 2467.500000
186.127500 6339.700000
187.111500 2045.900000
187.135900 2606.800000
188.143200 114308.100000
189.115000 2758.700000
190.122400 32046.800000
190.159200 6037.800000
191.130500 25513.300000
192.138200 39714.600000
193.101000 1490.100000
193.146200 21925.600000
195.116800 2299.300000
197.095800 2044.800000
199.111600 3297.200000
199.136200 1612.400000
200.143300 4234.800000
201.126900 2338.700000
204.138100 16132.500000
206.118300 1493.100000
206.153800 24495.700000
208.169400 77636.500000
209.096000 1895.400000
211.111400 2782.200000
212.143000 2443.300000
213.127500 2877.800000
214.158800 1901.500000
215.130000 1472.900000
216.137900 2675.400000
218.154800 2607.900000
220.132500 2201.300000
224.144300 1640.300000
225.127000 1828.000000
227.130300 1808.400000
228.138900 2180.900000
234.148600 7720.900000
242.153900 1920.800000
244.132800 2771.600000
250.158900 1677.400000
260.164200 5210.000000
262.143600 5779.500000
263.151200 4364.100000
264.160300 2274.100000
264.175300 2296.300000
266.154400 2386.800000
266.191600 1390.300000
280.154600 2417.600000
280.168800 1883.300000
281.162400 5751.900000
294.184700 3492.200000
304.205000 1678.000000
334.217000 1940.000000
366.243100 1696.800000
374.248900 1858.400000
376.226800 2662.400000
378.243100 5013.400000
390.205000 3362.600000
390.241600 1690.100000
392.257900 7739.500000
393.263900 1913.800000
394.236600 3196.500000
402.243600 6714.100000
403.248200 1589.100000
404.221400 1470.200000
406.238400 1476.600000
408.252300 1670.000000
410.268700 2834.100000
420.252700 20244.200000
438.263500 39442.100000
440.243700 6294.800000
441.248000 1875.200000
454.258700 4596.700000
455.262500 1611.700000
456.274000 41972.500000
474.286400 2539.500000
522.166800 2572.300000

>ms2peaks
55.054000 18326.200000
69.069900 3074.600000
70.065000 1968.800000
79.054300 3401.300000
81.033400 1091.700000
81.069800 7498.500000
82.065100 4286.600000
83.049000 41212.000000
84.080700 6001.600000
91.054200 2621.300000
93.069800 4590.000000
94.065000 3148.400000
95.085400 3006.500000
96.080700 13160.400000
97.065000 1218.500000
98.096300 32723.300000
105.069800 5501.500000
107.085500 3114.400000
108.080700 4502.700000
109.064700 8568.200000
110.096400 16074.000000
111.104200 2893.900000
112.112000 5038.300000
117.069600 2049.600000
119.085500 4569.100000
120.080700 4282.800000
121.064700 4942.000000
121.088800 1249.600000
122.060300 1666.700000
122.096200 7227.000000
124.111900 24240.900000
125.119700 9308.200000
126.091200 2670.300000
126.127600 22699.400000
128.106700 2578.100000
129.069400 1033.300000
131.085500 5723.100000
132.080400 7463.100000
133.064500 2371.400000
133.088700 1449.500000
133.101100 4331.500000
134.096200 5853.800000
136.112000 16124.400000
137.119700 4262.100000
138.127600 125966.000000
140.106700 1460.000000
143.085400 4927.500000
145.064400 1707.200000
145.101300 3036.900000
146.096200 9826.500000
147.079900 1736.000000
147.103900 5332.200000
148.111800 25496.700000
149.096000 1633.400000
149.119400 8021.100000
150.127500 28425.300000
152.106900 5511.300000
154.122500 15068.800000
155.085400 4093.100000
157.101100 4357.800000
158.096200 1804.400000
159.079700 3410.800000
159.103500 1421.100000
160.111900 15129.100000
161.095700 3015.200000
161.119700 12186.700000
162.127600 84590.900000
164.106800 10421.800000
164.143200 74596.600000
165.114200 1920.200000
166.122200 1807.400000
167.085200 1170.300000
169.101400 3081.200000
171.079800 2764.200000
171.116700 1677.300000
173.096000 1638.300000
173.119200 1863.800000
174.127600 45129.700000
175.135000 10602.500000
176.106800 9144.800000
176.143100 8440.700000
177.114500 4548.400000
177.149000 900.800000
178.122400 17645.300000
179.130800 2346.800000
180.138100 15935.700000
181.101000 3272.700000
182.117100 1630.000000
183.080100 1325.200000
183.116600 2934.700000
185.096000 3099.400000
186.127400 6034.900000
187.111500 1254.400000
187.135100 2145.500000
188.143100 100184.500000
189.114700 1739.800000
190.122400 31800.500000
190.158700 5002.300000
191.130400 19781.400000
192.138100 33999.500000
193.100900 1161.800000
193.146000 16024.700000
195.116300 2267.300000
197.096100 1803.200000
199.111100 1331.500000
200.142900 2747.700000
204.138000 15669.700000
206.117800 1458.800000
206.153600 17925.100000
208.169300 52199.500000
211.111100 2038.100000
212.143200 3615.000000
214.159500 1432.000000
215.129500 1207.300000
216.138400 5108.600000
218.153400 2418.600000
220.133200 2071.100000
223.111200 1018.100000
228.138300 2459.300000
230.154200 1490.800000
234.148500 5462.400000
242.153900 2480.400000
244.133000 2610.600000
250.158700 2715.800000
260.164000 4509.800000
262.143900 3900.300000
263.151900 2293.800000
264.159600 1286.600000
264.174700 1864.400000
266.154200 1608.000000
266.190400 1879.000000
268.170100 1490.400000
280.153700 1365.100000
280.169200 2697.700000
281.161900 2628.100000
294.184900 2512.800000
304.205900 1900.900000
362.210100 1885.500000
378.242700 3319.000000
390.206200 1671.300000
392.258500 2991.200000
396.252400 1171.500000
402.243400 4513.400000
403.242500 1181.000000
404.222400 2453.200000
406.237300 1082.100000
410.269600 1720.200000
420.252800 11950.800000
438.263100 16311.900000
440.242300 4848.400000
441.246400 1757.600000
454.257600 3029.500000
456.273300 15153.500000

>ms2peaks
55.054100 15745.300000
67.054400 1761.300000
68.049500 2262.200000
69.069800 4822.400000
70.065200 2660.200000
79.054200 6879.300000
81.069800 10961.700000
82.065000 5659.000000
83.049100 42056.000000
84.080700 5277.800000
91.054200 4599.300000
93.069800 7558.200000
94.065200 6144.300000
95.048900 1596.100000
95.072900 3295.800000
95.085500 2520.100000
96.080700 26177.500000
98.096300 38847.200000
105.069800 11177.400000
106.065200 2795.200000
107.048900 2561.000000
107.072900 2225.400000
107.085600 4265.100000
108.080600 7962.300000
109.064700 7963.500000
109.088600 2131.800000
110.096400 24254.700000
111.104100 3774.700000
112.111900 6179.200000
117.069800 3240.200000
119.085300 4364.600000
120.080600 8093.500000
121.064700 7932.800000
121.088400 3374.000000
122.059800 2319.100000
122.096300 15436.200000
124.112000 32299.300000
125.119800 12857.800000
126.127600 24862.500000
128.107100 2732.000000
129.069900 2926.000000
131.073200 1592.000000
131.085700 8165.400000
132.080800 13428.800000
133.065000 3799.000000
133.088400 2189.600000
133.100900 5471.400000
134.096200 9802.700000
135.080400 2842.700000
135.104300 2667.400000
136.112000 20856.800000
137.119700 4477.600000
138.127600 163512.100000
141.070300 2402.000000
143.085400 8604.900000
144.080800 4004.700000
145.064600 3006.300000
145.089100 1614.900000
145.100800 5027.300000
146.096400 22756.300000
147.080100 2681.900000
147.104000 7997.600000
148.075900 2219.500000
148.112000 35592.900000
149.119500 13591.200000
150.127700 35701.900000
152.107000 8176.200000
154.122500 14816.600000
155.085200 2811.500000
157.101000 5595.300000
158.096300 5426.800000
159.080200 4770.200000
159.103900 2255.600000
159.117100 1751.500000
160.112000 22678.500000
161.096100 4045.300000
161.119700 15134.400000
162.127600 113994.000000
164.106800 13264.600000
164.143300 109746.100000
165.114200 1835.000000
166.122300 4609.800000
167.084800 3009.800000
169.101100 5296.700000
171.080300 2216.200000
172.111900 3317.900000
173.096400 2821.900000
173.120400 3062.100000
174.127600 70210.900000
175.098700 1641.700000
175.135100 14312.600000
176.106900 16167.400000
176.143000 13139.400000
177.114700 9321.200000
178.122500 25819.400000
179.085900 1873.100000
180.138100 22711.600000
181.100800 3678.100000
183.080700 2082.600000
183.116200 3205.800000
185.095900 2980.200000
186.127400 8554.400000
188.143200 128354.800000
190.122400 51661.500000
190.159000 7044.000000
191.130500 26570.400000
192.138200 42573.400000
193.101000 1618.400000
193.146000 17788.400000
197.096200 2120.300000
198.128000 2886.100000
200.142400 4360.800000
202.121800 2796.100000
204.138100 20606.000000
206.153700 23151.900000
208.169200 46906.500000
209.095300 1581.900000
212.143300 2917.500000
214.158200 3032.700000
216.138300 8217.700000
218.154500 1923.100000
224.143800 1814.000000
226.158900 2651.000000
228.137500 5158.200000
230.153800 2961.700000
234.148200 7127.700000
238.158300 2618.800000
242.153700 2807.100000
244.132700 3432.800000
248.127600 2376.900000
250.159100 2735.600000
252.174800 2570.300000
254.153800 1885.400000
260.163500 5578.400000
262.142900 5500.600000
262.158300 2782.900000
264.175300 2698.800000
266.153600 2619.600000
280.169200 3527.500000
290.189800 1418.000000
294.186600 2397.100000
304.205800 2502.100000
320.198200 2573.700000
332.199300 1857.500000
334.217100 2214.200000
390.206100 2578.500000
392.256800 3841.800000
394.235700 2471.400000
402.243300 3282.600000
404.221800 2989.300000
420.252300 6870.900000
438.264200 9356.900000
440.242400 5768.200000
454.259900 2173.500000
522.025100 2424.500000

>ms2peaks
55.054100 10728.200000
67.054200 3393.200000
68.049400 2810.100000
69.069900 5375.600000
70.065200 2965.700000
79.054200 6963.400000
80.049500 2412.600000
81.069900 9063.900000
82.065100 5903.800000
83.049100 26168.900000
84.080800 5618.800000
91.054200 7502.400000
93.069900 7140.200000
94.065000 8429.600000
95.072900 2764.000000
95.085500 3086.000000
96.080700 25194.800000
98.096300 30854.500000
105.069900 10717.800000
106.065000 4328.100000
107.049200 2353.500000
107.072800 3087.100000
107.085500 4859.400000
108.080800 10309.800000
109.064700 8417.800000
109.089000 2722.800000
110.096400 20674.400000
111.104300 3980.600000
112.112000 4430.000000
117.070000 3981.700000
118.065300 2334.500000
119.085600 5154.100000
120.080800 5279.300000
121.064800 6303.800000
121.088200 2196.100000
122.060100 3494.300000
122.096400 12589.600000
124.112000 28380.300000
125.119800 10388.400000
126.127600 20211.000000
128.062000 2143.900000
128.106900 1476.100000
129.069700 5585.700000
131.072800 1652.300000
131.085400 7421.200000
132.080700 14023.800000
133.064600 2218.300000
133.088400 4377.900000
133.101100 3364.800000
134.096300 9362.100000
135.080000 1806.600000
135.104300 2376.000000
136.112000 18243.600000
137.119500 2784.900000
138.127700 124261.300000
141.069800 2243.600000
142.077600 3726.400000
143.085400 7871.100000
144.080700 3303.300000
145.064700 2011.500000
145.088800 3692.200000
145.101500 4003.100000
146.096400 21888.700000
147.080400 2915.500000
147.104100 7663.100000
148.075800 1907.300000
148.112000 34865.600000
149.119400 10954.800000
150.091200 2389.900000
150.127600 31179.400000
152.107100 7229.100000
154.122500 9122.000000
155.085400 5241.100000
157.101100 3908.700000
158.096300 5765.300000
159.080300 2982.300000
159.104400 2998.700000
159.117000 1653.300000
160.076100 1498.800000
160.112000 26145.300000
161.096600 1716.100000
161.119600 12221.300000
162.127700 96322.000000
163.133200 13278.400000
164.106900 10999.600000
164.143300 86428.400000
165.070200 1552.500000
166.077300 1482.400000
166.122800 2769.100000
167.085100 1680.300000
168.093900 1855.000000
169.101000 3080.600000
172.112000 4243.600000
173.095900 2367.300000
173.119800 2828.800000
174.127600 62253.400000
175.099600 2424.700000
175.134800 9231.800000
176.107000 15216.600000
176.143300 11198.600000
177.114600 9314.000000
178.122500 24036.900000
179.085000 2635.400000
180.138000 14463.500000
181.100700 3900.200000
183.080000 1748.900000
183.116900 2354.800000
185.096100 3085.500000
186.127600 8964.400000
188.143200 104981.900000
190.122500 49123.800000
190.159000 3481.700000
191.130600 18928.600000
192.138200 29664.500000
193.101000 2100.600000
193.146100 12302.100000
197.096700 1843.200000
198.126900 4697.700000
200.143100 5008.600000
202.123300 2554.200000
204.137900 12268.800000
206.153800 16899.500000
208.169300 32049.000000
209.095900 1750.900000
212.143000 3122.400000
214.159400 2523.100000
216.138200 8507.400000
220.132700 2750.300000
224.144500 2021.200000
226.159000 1860.300000
228.138400 2951.100000
230.153800 2039.000000
234.148700 6586.900000
236.142900 2348.000000
238.159900 1865.400000
242.153300 2750.700000
244.133500 2653.500000
248.128200 2143.500000
250.158300 2120.300000
252.174600 2939.100000
254.154800 1306.600000
260.163700 3886.400000
262.143500 3281.300000
262.158500 1788.900000
264.174900 1937.400000
266.154000 2132.700000
280.169400 2209.100000
304.205500 2566.900000
334.216200 2121.900000
390.205300 2445.900000
392.258700 1635.900000
394.238300 1618.900000
402.243500 2444.500000
404.221000 3985.700000
420.255200 2351.000000
438.262300 3892.400000
440.243100 4434.600000
454.260900 1723.400000
522.037800 2444.500000

>ms2peaks
55.054100 8536.300000
67.054100 3079.700000
68.049400 3687.000000
69.069900 5390.900000
70.064800 2285.200000
79.054200 6343.100000
80.049400 1976.700000
81.069800 9419.100000
82.065100 6125.200000
83.049100 14742.200000
84.080700 5885.800000
91.054200 7748.700000
93.069700 6733.300000
94.065100 6587.300000
95.049300 1682.600000
95.073000 2449.000000
95.085500 2575.600000
96.080700 24590.500000
98.096400 23973.300000
105.069800 10867.400000
106.064800 3663.600000
107.072800 5068.000000
107.085500 4373.300000
108.080700 10416.700000
109.064800 4582.300000
109.088400 2897.800000
110.096300 15285.100000
111.104200 3993.000000
112.111800 3130.600000
117.069900 2618.000000
118.065100 2865.100000
119.072900 3018.700000
119.085500 5592.100000
120.080700 6765.600000
121.064800 4574.200000
121.088400 1795.000000
122.059900 3687.000000
122.096400 12527.900000
124.112000 21889.000000
125.119700 7220.000000
126.127600 12086.000000
128.061900 2657.100000
129.069700 4723.600000
130.065200 1492.000000
131.085500 5730.100000
132.080700 16701.900000
133.065100 2419.200000
133.088700 3625.400000
133.101000 3304.400000
134.096300 11559.400000
135.104100 1816.500000
136.075900 2193.700000
136.112000 13894.500000
137.119600 1724.200000
138.127600 93555.600000
141.069800 2391.700000
142.077500 2710.100000
143.085600 5684.200000
144.080600 4240.900000
145.064600 1487.500000
145.088300 3208.000000
145.101000 2921.400000
146.096300 18571.600000
147.080700 1762.400000
147.104200 7471.600000
148.075700 2209.800000
148.112000 34942.600000
149.119300 8278.800000
150.091000 2052.900000
150.127700 29021.700000
152.107100 5393.500000
154.122400 5842.000000
155.085300 3746.000000
157.101800 2496.300000
158.096600 4948.600000
159.080700 3166.100000
160.075500 1486.100000
160.112000 23912.500000
161.119700 9231.000000
162.127700 73877.600000
163.132800 7839.200000
164.106900 7468.200000
164.143300 66987.300000
165.069700 2083.700000
165.114400 1896.200000
166.077700 1416.100000
167.085600 2065.500000
168.092800 1339.100000
169.101200 3035.400000
171.081000 2241.800000
172.112100 4438.200000
173.095900 1633.600000
173.119700 3126.700000
174.127600 53244.300000
176.106900 18128.300000
176.143300 8575.600000
177.114600 7960.000000
178.122500 20313.200000
180.138000 10135.800000
181.100500 1885.400000
183.116100 1603.500000
186.127600 7485.600000
188.143200 75932.600000
190.122400 41550.600000
190.158900 4259.400000
191.130500 12542.400000
192.138300 23083.200000
193.146200 7188.000000
198.128000 2138.900000
200.143400 3953.500000
202.122600 2443.700000
204.138100 11513.500000
206.153800 9958.000000
208.169200 15944.700000
212.143200 3858.400000
214.159500 2398.800000
216.138200 6350.900000
218.153500 2287.200000
220.133000 1411.800000
226.158900 1418.100000
234.148400 5229.200000
236.143400 1350.100000
238.158500 2837.600000
242.154000 2363.500000
250.159600 2148.700000
252.174600 1798.700000
260.164200 2253.100000
262.144300 2491.500000
264.175400 1687.100000
290.190700 1620.000000
294.184200 1330.600000
314.188900 1790.400000
320.198200 2032.100000
332.201400 1371.000000
334.214300 1276.900000
390.206700 1823.800000
404.222300 1999.100000
440.242800 3064.500000

>ms2peaks
55.054200 5774.000000
67.054100 2732.600000
68.049400 3209.300000
69.069900 3339.400000
70.065000 2460.900000
79.054200 5056.100000
80.049400 1550.000000
81.069900 6291.700000
82.065200 6790.000000
83.049200 7599.200000
84.080800 4876.000000
91.054200 6044.200000
93.069800 4526.700000
94.065000 7776.100000
95.073000 2141.900000
95.085800 1446.700000
96.080700 19610.700000
98.096400 15047.200000
105.069800 7887.900000
106.064900 3542.000000
107.072800 4363.000000
107.085300 2626.100000
108.080800 6495.300000
109.064700 3556.500000
109.088500 2327.900000
110.096400 11221.800000
111.104100 1229.600000
112.112000 2240.900000
117.057400 2356.000000
117.069900 3044.100000
118.065300 3178.800000
119.072800 2527.900000
119.085400 3057.400000
120.080700 5491.500000
121.064900 3248.000000
121.088500 3101.000000
122.060200 2286.100000
122.096400 8573.600000
124.112100 14606.700000
125.119800 4021.100000
126.127700 8237.900000
128.062200 2946.500000
129.069800 4846.600000
130.065200 1424.100000
131.072800 2129.400000
131.085200 3339.300000
132.080700 18044.400000
133.064600 1155.500000
133.088200 3235.600000
133.101100 1437.500000
134.096300 7809.500000
135.103900 1301.300000
136.075900 1492.700000
136.112100 10612.800000
138.127700 60129.500000
141.070200 1868.700000
142.077600 2524.700000
143.085700 3436.500000
144.080500 3869.300000
145.088700 2188.400000
145.101000 1875.500000
146.096400 14804.000000
147.080400 1334.500000
147.103600 4545.800000
148.075500 2760.900000
148.112000 24653.000000
149.119400 3828.300000
150.091500 1571.500000
150.127700 16961.200000
152.106900 4318.800000
154.122700 2318.100000
155.085100 2596.300000
157.101400 1323.300000
158.096200 5267.700000
159.080700 1633.300000
159.104200 2530.700000
160.075700 1874.800000
160.112000 17702.000000
161.119600 6120.700000
162.127700 51925.300000
164.107300 4856.000000
164.143300 39611.400000
165.069600 1766.500000
165.114400 1050.000000
166.122400 1788.000000
167.084900 2276.700000
169.100700 1463.000000
171.080200 1318.500000
172.111900 4836.100000
173.119700 2537.600000
174.127700 32080.300000
175.098300 1131.600000
175.135000 4421.100000
176.106900 14323.400000
176.143400 5020.800000
177.114700 8129.400000
178.122500 13539.000000
180.138200 6208.400000
186.127400 4171.000000
188.143200 48215.500000
190.122500 31760.400000
190.158900 1625.100000
191.130800 6409.100000
192.138100 11749.000000
193.101300 1569.700000
193.145800 3409.600000
197.096200 1256.200000
200.143200 1979.900000
202.122600 2419.900000
204.138200 7674.900000
206.153600 5236.300000
208.169300 5683.800000
212.143900 1815.400000
216.137700 4311.600000
228.138500 1704.000000
234.148600 2309.500000
238.159400 2298.000000
244.132200 2063.600000
250.158500 1781.400000
266.154300 1419.200000
290.188900 1308.000000
314.189900 1538.600000
332.200300 1588.500000
334.214600 1647.200000
522.039500 2142.100000

>ms2peaks
55.054100 3629.700000
67.054200 2101.700000
68.049300 1140.600000
69.069700 2788.000000
79.054200 4408.100000
80.049300 2065.200000
81.070000 3501.600000
82.065200 3138.400000
83.049300 2291.700000
84.080700 2194.600000
91.054300 5262.300000
93.069900 1992.600000
94.065200 4501.500000
95.072700 1180.200000
95.085300 1368.300000
96.080800 12473.300000
98.096500 7641.000000
105.069900 5555.800000
106.065100 2791.400000
107.048900 1039.500000
107.073100 3933.000000
108.080800 5194.700000
109.064500 1330.200000
109.088500 1399.700000
110.096500 6183.600000
117.057500 1454.000000
117.069700 1307.100000
118.065200 2205.700000
119.072900 2534.500000
119.085300 2116.200000
120.080800 4133.400000
121.064700 1913.500000
122.059700 1547.600000
122.096300 4503.400000
124.112000 7813.200000
125.119900 1581.200000
126.127900 3497.300000
128.062300 2149.400000
129.070200 2827.500000
131.072500 2222.100000
131.085600 2081.300000
132.080900 12521.500000
133.088200 2302.300000
133.101600 1029.300000
134.096500 5321.000000
136.075300 2321.000000
136.112000 5458.300000
138.127800 32027.200000
141.070300 1226.800000
142.077400 1427.700000
143.085100 2374.600000
144.080700 2611.600000
145.064800 1205.300000
145.088700 2639.300000
146.096400 9984.600000
147.104400 3441.700000
148.076200 2015.800000
148.112100 16628.600000
149.119500 2301.800000
150.127600 9265.000000
152.107200 2184.900000
154.122900 2397.500000
155.085100 1538.800000
158.096700 4401.400000
159.103700 1074.800000
160.112200 8659.800000
161.119700 2741.300000
162.127800 33389.700000
163.132300 2047.200000
164.106900 2732.100000
164.143400 23722.800000
165.069700 1037.200000
165.115400 1095.500000
167.085300 1664.800000
172.111800 2638.800000
174.127700 19927.700000
175.135300 2475.800000
176.107100 10085.400000
176.143000 3875.600000
177.115100 4666.300000
178.122800 8533.200000
180.138000 2571.700000
186.127700 2401.200000
188.143300 25397.000000
190.122700 20232.000000
190.159000 1292.800000
191.130000 2523.200000
192.138500 5596.700000
200.142900 2657.700000
204.138200 3010.900000
206.154200 3279.000000
208.169100 1713.500000
216.137300 1991.500000
224.143800 1488.100000
226.159200 1211.500000
230.153700 1151.300000
522.026200 1936.900000

