>compound NA96676217
>parentmass 350.15980000000013
>ionization [M+H]+
>formula C18H23NO6
>rt 179.475000
>profile orbitrap
#smiles_iso C/C=C/1\CC(=C)[C@@](C(=O)OCC2=CC[N+]3([C@H]2[C@@H](CC3)OC1=O)[O-])(C)O
#smiles_can CC=C1CC(=C)C(C(=O)OCC2=CC[N+]3(C2C(CC3)OC1=O)[O-])(C)O
#inchikey COHUFMBRBUPZPA-HPHFTHPTSA-N
#pubchem_id 6442619
#mb_accession NA002364,NA002365,NA002366,NA002367,NA002368,NA002759,NA002760,NA002761,NA002762,NA002763,NA003139,NA003140,NA003141,NA003142,NA003143,NA003504,NA003505,NA003506,NA003507,NA003508

>ms2peaks
350.160100 130526.500000

>ms2peaks
350.160100 493185.500000

>ms2peaks
350.160100 509523.500000

>ms2peaks
350.159900 524922.200000

>ms2peaks
350.160100 512912.300000

>ms2peaks
80.049500 1228.000000
94.065100 4073.000000
95.072900 11367.400000
106.065100 2370.800000
107.049200 2234.900000
109.064800 1266.000000
112.075500 1116.400000
118.065100 20622.100000
119.073000 17500.900000
120.080800 20494.700000
121.088700 6172.800000
122.072800 1533.000000
122.096600 2181.500000
136.075700 9251.800000
137.083500 2153.200000
138.091400 11342.400000
139.099100 1942.600000
151.075500 2847.400000
154.086300 9861.600000
167.070600 1307.700000
246.148700 4196.100000
322.164200 7368.700000
350.159900 637169.100000

>ms2peaks
68.049200 1060.200000
79.054200 1285.400000
93.057200 3725.300000
94.065100 10566.200000
95.072900 25097.400000
96.080600 1149.000000
98.060000 1786.100000
106.065100 4885.200000
107.049100 5317.500000
108.080800 4581.600000
109.064800 2804.500000
109.088700 2131.700000
112.075700 3151.300000
118.065100 37305.100000
119.073000 39202.500000
120.080800 45270.800000
121.088600 14087.400000
122.072600 4530.800000
122.096300 4906.000000
123.080400 3951.500000
136.075700 24350.400000
137.083600 5503.400000
138.091300 23770.700000
139.099200 4137.400000
140.106400 1136.000000
150.067700 3038.500000
151.075300 4910.100000
154.086200 18409.800000
167.070500 2741.300000
178.122900 1559.400000
218.117300 1788.200000
246.148800 7797.800000
274.143100 1897.700000
288.159000 3459.800000
322.165000 13302.500000
350.159800 496296.900000

>ms2peaks
79.054300 3037.400000
80.049600 3465.000000
81.069800 1926.200000
82.065100 1652.800000
84.044400 1532.900000
91.054100 3267.400000
93.057300 9922.600000
93.069700 1367.700000
94.065100 23535.400000
95.073000 43486.900000
98.060200 2087.900000
105.070000 2285.600000
106.065200 12038.500000
107.049100 9150.800000
107.072500 1327.500000
107.085300 1476.600000
108.080700 9731.400000
109.064800 4744.700000
109.088800 2089.300000
111.068200 1298.200000
112.075800 6826.300000
118.065100 58742.600000
119.073000 58547.500000
120.080800 70883.700000
121.088600 19898.100000
122.072500 6083.400000
122.096500 8693.500000
123.080400 6111.200000
124.075800 1102.000000
132.080600 2318.900000
133.065100 1309.100000
134.096200 1510.800000
135.044400 1164.000000
136.075700 43700.500000
137.083600 10344.500000
138.091300 42286.300000
139.099100 4989.900000
150.067700 2872.800000
151.075400 9075.700000
154.086200 27351.500000
167.070300 2719.600000
178.122400 3660.800000
179.070100 1479.600000
197.079900 1654.600000
209.117700 1593.200000
218.117500 1710.200000
232.134400 1016.500000
246.148700 9060.100000
274.144100 1551.300000
288.159500 3821.700000
322.164900 19961.400000
350.159800 306452.000000

>ms2peaks
68.049300 2274.700000
79.054400 3929.300000
80.049500 4431.100000
81.069900 3486.900000
82.065100 1967.900000
84.044500 2035.700000
91.054200 4550.700000
93.057300 16779.100000
93.070100 1604.500000
94.065200 29257.700000
95.073000 46892.300000
96.080900 1268.700000
98.060000 3463.100000
105.070000 4009.300000
106.065100 16300.600000
107.049200 10840.200000
107.072700 1790.900000
107.085700 2266.700000
108.080800 12740.600000
109.064800 8379.500000
109.088600 4540.100000
110.060200 1819.100000
112.075700 9302.700000
118.065100 66306.200000
119.073000 72899.500000
120.080800 90998.800000
121.088600 20307.100000
122.072700 6348.800000
122.096400 11402.500000
123.080400 8575.600000
124.075700 1395.200000
132.081000 2081.200000
133.064800 2354.500000
135.044100 1834.300000
136.075700 59910.600000
137.083500 9551.500000
138.091400 51625.400000
139.098900 2770.600000
140.106900 2129.300000
149.059400 1776.600000
150.067400 4193.500000
151.075300 12027.400000
154.086300 29669.200000
167.070400 3042.100000
178.122800 2975.000000
197.081400 1182.400000
209.117300 4912.500000
218.117100 2551.100000
218.153800 2724.400000
232.133300 1655.900000
246.149000 8007.700000
288.159800 4182.700000
322.165100 18504.800000
350.160000 150160.600000

>ms2peaks
68.049400 1323.300000
79.054300 4212.900000
80.049500 6237.600000
81.069900 4830.800000
82.065200 2437.200000
84.044500 1524.000000
91.054300 5151.800000
93.057400 25258.100000
93.070000 2230.400000
94.065200 48705.900000
95.073000 44637.000000
98.060100 4259.400000
105.069900 5511.000000
106.065200 16872.100000
107.049100 13403.400000
107.072900 2570.900000
107.085600 2389.300000
108.080800 15679.400000
109.064800 10908.200000
109.088500 4492.700000
110.060100 3389.400000
111.067600 1882.100000
112.075800 8353.800000
118.065200 66012.300000
119.073000 74760.400000
120.080800 98671.400000
121.088700 14341.800000
122.072700 4815.700000
122.096400 12195.400000
123.080400 9608.300000
124.075600 1610.300000
132.080400 2256.300000
133.064700 3324.100000
134.096000 1353.500000
135.044100 2185.200000
136.075700 69302.900000
137.083600 9394.500000
138.091400 48668.700000
139.099000 2103.700000
140.106700 2269.200000
149.059800 1868.600000
150.067600 2587.000000
151.075300 9073.500000
154.086300 21064.400000
167.070200 2790.000000
178.122800 3293.300000
179.069800 1726.100000
197.080100 1471.900000
209.117400 5544.000000
218.153300 1076.400000
246.148800 5896.200000
322.165000 12840.600000
350.160000 62175.600000

>ms2peaks
67.041800 1238.700000
67.054200 2878.000000
68.049600 2673.700000
79.054300 8333.300000
80.049600 9729.700000
81.057300 2317.500000
81.069900 7343.400000
82.065300 4897.800000
84.044500 3428.300000
91.054300 6377.700000
93.057400 41952.800000
93.069900 2860.600000
94.065200 76631.200000
95.073000 46162.600000
95.085700 4127.200000
96.044300 1531.000000
96.080800 2625.100000
98.060100 6063.500000
105.070000 8970.400000
106.065200 23049.200000
107.049200 12240.500000
107.073000 2792.300000
107.085600 3721.000000
108.080900 21802.200000
109.064800 13581.300000
109.088700 5993.300000
110.060200 2447.200000
111.068000 2518.200000
112.075800 10633.600000
117.057400 1238.100000
118.065200 76457.500000
119.073100 81741.200000
120.080900 119734.600000
121.064900 2070.000000
121.088700 11632.900000
122.072700 4860.800000
122.096500 11795.900000
123.080500 10369.600000
124.076100 2231.000000
126.091000 1383.800000
132.080900 2838.300000
133.064900 3023.300000
134.096700 2111.600000
136.075800 88576.300000
137.083600 8895.300000
138.091500 53527.700000
140.107300 2452.400000
146.096500 1199.200000
149.059600 1607.600000
151.075600 9903.300000
154.086400 19616.100000
167.070500 1724.400000
178.123000 3204.000000
188.107100 2296.100000
209.117700 5562.000000
246.149100 2249.600000
322.165300 6901.200000
350.160200 24198.300000

>ms2peaks
67.054300 4057.100000
68.049300 2141.400000
79.054300 8236.700000
80.049500 12133.600000
81.057300 2416.500000
81.070000 7845.500000
82.065100 2877.700000
84.044400 2520.000000
91.054300 8989.500000
92.049200 1290.700000
93.057400 45286.600000
93.069800 2672.400000
94.065200 90124.000000
95.073000 35978.200000
95.085700 4185.000000
96.080800 1616.800000
98.060100 7022.700000
105.070000 6637.000000
106.065200 22906.600000
107.049200 11381.200000
107.072900 2007.200000
107.085700 2808.700000
108.080900 21207.300000
109.064900 16527.900000
109.088400 5666.600000
110.060100 3565.600000
111.067900 3538.100000
112.075800 8041.200000
117.057500 1288.300000
118.065200 72788.300000
119.073100 66165.200000
120.080900 115919.300000
121.088700 7988.600000
122.072500 3336.100000
122.096500 9694.400000
123.080600 9291.500000
124.075700 3421.800000
126.091400 1538.400000
132.080900 2687.800000
133.064800 2327.000000
136.075800 88648.100000
137.083600 6071.900000
138.091500 38338.800000
140.106800 1385.700000
146.096700 3179.000000
151.075500 7260.300000
154.086300 10036.000000
167.070500 1580.300000
178.122200 3036.800000
188.107300 1630.300000
209.117500 5185.500000
246.149100 1155.000000
322.166000 2526.400000
350.160600 7082.700000

>ms2peaks
67.041700 1359.600000
67.054200 2835.700000
68.049500 2740.500000
70.065100 1970.200000
77.038700 1347.000000
79.054300 7802.600000
80.049500 13418.700000
81.057400 2196.700000
81.070000 7025.200000
82.065200 3355.600000
84.044600 2167.100000
91.054300 9777.400000
93.057400 48418.900000
93.070000 2558.700000
94.065200 104232.000000
95.073000 28607.700000
95.085600 4569.700000
96.080900 2438.400000
98.060100 6552.900000
105.069900 7966.800000
106.065200 22918.200000
107.049200 7340.000000
107.073200 2182.600000
107.085500 3318.200000
108.080800 24126.700000
109.064800 13999.800000
109.088700 4361.700000
110.060100 1810.200000
111.068100 2815.900000
112.075800 6701.000000
117.057300 2674.100000
118.065200 63752.300000
119.073000 53407.600000
120.080900 110067.100000
121.064800 1565.300000
121.088700 4353.400000
122.072900 1015.000000
122.096500 7438.000000
123.080500 8791.300000
124.075700 2524.300000
126.091300 1292.300000
132.080500 2326.700000
133.065000 2409.000000
134.096500 1331.300000
136.075800 73079.100000
137.083800 3733.100000
138.091400 25205.100000
151.075500 6357.600000
154.086300 6637.300000
158.096800 1258.100000
178.122600 1840.300000
209.116900 2308.000000
350.160600 1704.400000

>ms2peaks
67.041500 1161.600000
67.054300 3151.500000
68.049500 2143.200000
70.065200 2909.500000
77.038600 2005.200000
79.054300 8737.400000
80.049500 17392.100000
81.057200 2819.600000
81.070000 6445.900000
82.065200 3659.900000
84.044600 3939.600000
91.054300 10777.900000
92.049800 1679.300000
93.057400 50246.700000
94.065200 111966.100000
95.073000 22526.600000
95.085700 3256.500000
96.080800 2526.500000
98.060300 4971.300000
105.070000 7992.600000
106.065200 23027.000000
107.049200 6852.100000
107.073200 2030.200000
107.085500 2098.300000
108.080900 20836.200000
109.064900 12758.600000
109.088700 4110.800000
110.060300 2829.000000
111.067800 2390.800000
112.075700 4177.400000
117.057700 2097.500000
118.065200 61475.900000
119.073100 43007.600000
120.080900 104296.800000
121.064700 1750.800000
121.088900 2777.300000
122.072500 1349.800000
122.096400 6159.700000
123.080600 7118.300000
124.075700 3075.800000
132.081000 2480.400000
133.065200 2536.600000
134.096400 1688.400000
136.075800 65590.400000
137.083700 1406.500000
138.091400 17756.200000
146.096500 1833.900000
149.059900 1228.500000
151.075300 3469.200000
154.086500 4054.400000
178.123400 1794.100000
209.117900 1833.500000

>ms2peaks
67.041700 1289.400000
67.054200 3537.200000
68.049400 2046.800000
70.065200 1181.000000
77.038600 1561.100000
79.054300 7073.000000
80.049500 16395.500000
81.057500 3547.100000
81.069900 5353.400000
82.065300 2918.600000
84.044400 3158.500000
91.054300 10958.000000
92.049400 2306.000000
93.057300 48471.500000
94.065100 110130.000000
95.073000 14152.600000
95.085600 4393.100000
96.044600 1304.300000
96.080600 1499.000000
98.060100 4116.800000
105.069900 5886.700000
106.065200 18837.000000
107.049200 6646.200000
107.073100 1295.900000
108.080800 19107.400000
109.064800 10317.900000
109.088600 2997.500000
110.060200 2262.900000
111.068300 2075.100000
112.075900 2278.900000
117.057400 3665.300000
118.065200 60498.600000
119.073000 33923.200000
120.080800 89590.200000
122.096300 4537.800000
123.080800 3285.000000
124.075500 1639.900000
132.080700 2858.700000
133.064600 1685.200000
134.096500 1871.400000
136.075800 57730.600000
138.091400 11689.000000
146.096200 1535.500000
151.075300 2046.700000
154.086600 2603.500000
158.096000 1095.200000

>ms2peaks
67.054200 4811.000000
68.049400 1197.100000
70.065300 1332.300000
77.038400 2967.000000
79.054300 10231.400000
80.049500 23983.300000
81.057400 2892.500000
81.069900 6335.500000
82.065200 3491.900000
84.044500 2616.900000
91.054300 12535.500000
92.049500 3261.400000
93.057300 52474.100000
94.065200 133830.400000
95.073000 12305.100000
95.085500 4246.700000
96.044600 1505.800000
96.081000 2984.900000
98.060000 3489.000000
103.054100 1409.000000
105.069900 7522.000000
106.065200 23171.300000
107.049200 5199.100000
107.072900 2738.200000
108.080800 22887.500000
109.064800 10458.500000
109.088600 2018.200000
110.059900 1766.500000
112.075700 2258.900000
117.057300 6137.900000
118.065200 66681.100000
119.073000 29257.700000
120.080800 96468.400000
121.064500 1626.300000
122.096400 3186.700000
123.080500 2978.000000
124.075800 1042.400000
132.080800 2899.100000
133.064600 1739.100000
134.096800 2171.100000
136.075700 56386.100000
138.091300 8848.000000

>ms2peaks
65.038500 1682.400000
66.046300 1240.200000
67.041600 2456.900000
67.054200 5928.800000
68.049600 1694.500000
70.065200 1332.600000
77.038600 2508.900000
79.054200 10413.200000
80.049500 27037.700000
81.057400 3972.000000
81.069900 8146.300000
82.065100 2588.300000
84.044400 2169.900000
91.054200 14267.100000
92.049500 5268.100000
93.057300 52745.400000
94.065100 130533.000000
95.048800 1273.800000
95.072900 11499.400000
95.085600 4451.000000
96.044300 2340.100000
96.080800 3116.100000
98.060200 2658.900000
103.054300 2094.300000
105.069800 7135.500000
106.065100 23543.400000
107.049100 3860.200000
107.073000 1921.100000
108.080800 22919.600000
109.064700 9590.500000
110.060000 1988.500000
112.075900 1533.300000
117.057300 7440.100000
118.065100 61683.800000
119.072900 24962.800000
120.080800 87572.300000
121.064700 1228.700000
122.096300 2355.200000
123.080400 2453.100000
124.075800 1556.400000
132.080700 2499.000000
133.064500 1893.700000
134.096300 1782.900000
136.075700 47871.600000
138.091300 5003.700000
144.080800 1422.300000
158.096700 926.700000

>ms2peaks
65.038300 1359.100000
66.046400 1881.100000
67.041700 4412.200000
67.054300 7532.600000
68.049400 1568.300000
77.038600 3165.300000
78.034100 1114.000000
79.054300 10181.900000
80.049500 31250.800000
81.057400 3826.800000
81.069900 6097.300000
82.065200 2878.900000
84.044600 2642.300000
91.054300 15273.600000
92.049500 8021.200000
93.057400 48880.400000
94.065200 137571.900000
95.073000 9089.000000
95.085500 3076.400000
96.044500 1456.900000
96.081000 1994.400000
98.060000 1178.500000
103.054400 3137.800000
105.070000 6685.500000
106.065200 20876.500000
107.049000 3085.800000
107.073100 2799.000000
108.044400 1493.100000
108.080800 21108.700000
109.064900 7680.400000
109.088700 1637.100000
110.060000 2622.600000
117.057300 8081.500000
118.065200 60929.800000
119.073000 17623.900000
120.080800 82122.300000
122.096300 1851.700000
132.080700 1776.600000
136.075700 40159.900000
138.091300 2528.300000

>ms2peaks
65.038600 1771.100000
66.046300 2520.600000
67.041600 3396.800000
67.054200 7955.900000
68.049500 1414.100000
77.038600 3681.700000
79.054300 11200.100000
80.049500 34624.500000
81.057300 2561.800000
81.069900 5437.200000
82.065200 2979.300000
91.054300 13866.000000
92.049500 8994.700000
93.057400 43550.700000
94.065200 119344.800000
95.049200 1236.300000
95.073100 4906.900000
95.085600 1785.500000
96.044300 1666.300000
96.080900 1856.900000
98.060100 1326.600000
103.054500 2298.300000
105.070000 4892.300000
106.065200 18510.800000
107.049300 2502.200000
107.073200 2285.200000
108.044600 1072.400000
108.080800 17747.800000
109.064800 4411.900000
110.060100 3411.300000
117.057400 9552.100000
118.065200 52020.100000
119.073100 13332.600000
120.080900 64337.200000
122.096100 1418.100000
123.080800 1037.900000
132.080300 1279.600000
136.075800 28394.900000
138.091600 2569.200000
144.081300 1484.500000

>ms2peaks
65.038500 2596.100000
66.046400 3404.700000
67.041700 3557.300000
67.054200 7478.500000
68.049500 1354.000000
77.038600 4193.200000
78.033800 2086.000000
79.054300 10486.100000
80.049500 36925.700000
81.057300 2613.700000
81.069900 4867.700000
82.065100 1591.200000
84.044600 1538.500000
91.054300 14704.400000
92.049500 10088.900000
93.057400 39689.600000
94.065200 100195.700000
95.072900 3451.000000
95.085800 1353.300000
96.044300 2188.600000
96.080700 1615.800000
103.054400 2369.700000
105.070000 5209.600000
106.065100 13598.000000
107.049400 2751.400000
108.044200 1826.700000
108.080800 15065.600000
109.064900 3957.000000
110.060000 3508.700000
117.057300 8571.100000
118.065200 49925.600000
119.073000 8843.100000
120.080800 51943.500000
132.081100 2195.600000
136.075700 24155.200000
158.095800 1121.600000

