>compound NA97882057
>parentmass 415.3207000000001
>ionization [M+H]+
>formula C27H42O3
>rt 916.425000
>profile orbitrap
#smiles_iso C[C@@H]1CC[C@@]2([C@H]([C@H]3[C@@H](O2)C[C@@H]4[C@@]3(CC[C@H]5[C@H]4CC=C6[C@@]5(CC[C@@H](C6)O)C)C)C)OC1
#smiles_can CC1CCC2(C(C3C(O2)CC4C3(CCC5C4CC=C6C5(CCC(C6)O)C)C)C)OC1
#inchikey WQLVFSAGQJTQCK-VKROHFNGSA-N
#pubchem_id 99474
#mb_accession NA002300,NA002301,NA002302,NA002303,NA002304,NA002697,NA002698,NA002699,NA002700,NA002701,NA003079,NA003080,NA003081,NA003082,NA003083,NA003444,NA003445,NA003446,NA003447,NA003448

>ms2
415.321000 14159.400000

>ms2
271.206000 3640.500000
415.321000 11652.400000

>ms2
271.205500 13472.900000
415.320500 9766.100000

>ms2
253.195100 2869.400000
271.205500 19654.300000
415.319600 4885.600000

>ms2
253.194900 5673.400000
271.205500 16819.500000

>ms2
69.069800 6198.900000
107.085600 2520.900000
109.100900 2853.200000
121.101000 2765.600000
133.101300 1611.800000
145.101600 1896.900000
147.117000 3535.900000
157.101200 6088.500000
159.116500 2378.200000
171.117200 1143.400000
173.132700 1106.000000
175.111600 2512.000000
253.195100 28103.100000
271.205600 39786.800000

>ms2
69.069800 7263.100000
95.086000 1520.200000
107.085000 2262.500000
109.101100 4069.400000
121.101400 3962.100000
133.101600 2577.900000
145.101300 2525.200000
147.116800 4586.300000
157.101100 8309.300000
159.116600 5050.600000
171.117100 2058.200000
175.111900 4801.700000
197.132500 1592.000000
253.194900 31733.100000
271.205500 21933.400000

>ms2
69.069700 4446.900000
107.085600 2251.200000
109.101200 3141.700000
121.101200 4233.600000
133.101200 3589.300000
145.101300 1470.500000
147.116900 4779.100000
157.101100 8057.500000
159.117100 4770.000000
171.117200 1965.700000
173.132200 1064.900000
175.111800 3287.800000
185.131900 1075.600000
197.132100 1297.100000
253.195100 21804.900000
271.205700 12020.700000

>ms2
69.069700 4363.600000
107.085400 2216.400000
109.100700 2433.200000
121.101100 3146.000000
133.101300 2477.900000
147.116700 4411.300000
157.101100 6497.400000
159.116700 3587.700000
171.117500 1776.200000
175.111900 1925.000000
185.132000 1099.800000
197.132300 1260.700000
253.195000 11803.300000
271.205500 3185.600000

>ms2
69.069800 3413.200000
95.085600 1180.700000
107.085500 1426.300000
109.101400 1964.800000
121.101000 1487.300000
133.101300 2391.900000
145.101000 2053.800000
147.116700 3654.100000
157.101200 5990.000000
159.116800 3393.400000
253.195200 7480.500000

>ms2
69.069800 4629.200000
81.070100 1184.800000
93.069800 2188.800000
95.085600 1348.400000
105.069700 1419.700000
107.085700 2870.200000
109.101100 3795.200000
119.085500 1382.000000
121.101100 3981.400000
131.085400 1729.500000
133.101200 5292.300000
143.085500 1464.100000
145.101300 3166.400000
147.116900 5016.800000
157.101100 10756.000000
159.117000 5487.600000
175.111900 2201.500000
197.132400 1280.000000
253.195100 7052.100000

>ms2
69.069900 5676.600000
73.064800 1730.000000
79.054200 1250.000000
81.070000 1663.800000
93.070000 2808.500000
95.085700 3004.200000
105.069800 1970.200000
107.085600 2530.500000
109.101300 3422.300000
119.085500 1459.000000
121.101200 4432.200000
131.085400 2962.600000
133.101300 5262.900000
143.085700 1313.200000
145.101400 3949.600000
147.117100 6109.500000
157.101300 12028.100000
159.117000 7691.400000
171.116800 2511.900000
175.111500 2006.100000
197.132000 1522.700000
253.195500 5490.300000

>ms2
69.069800 5111.100000
73.065100 1136.400000
81.069900 2098.300000
93.069900 4007.600000
95.085700 2806.300000
105.069900 2283.100000
107.085500 3752.300000
109.101300 3068.000000
119.085700 1822.600000
121.101000 3714.100000
131.085600 3727.200000
133.101100 5152.100000
142.077900 2194.400000
143.086200 1235.200000
145.101000 2729.500000
147.116700 3958.000000
157.101000 9333.200000
159.116900 6157.500000
171.116600 1950.300000
197.132300 1746.100000
253.194700 2517.300000

>ms2
69.069800 3786.500000
73.064500 1256.100000
81.069900 1419.400000
93.069800 2773.200000
95.085300 1269.900000
105.070000 2420.900000
107.085300 1782.700000
109.101100 1774.300000
121.101300 1918.900000
131.085700 2647.600000
133.101100 2931.200000
142.077700 2038.300000
143.085700 1035.900000
145.100900 2030.000000
147.116700 2325.900000
157.101100 6015.100000
159.116900 5047.700000

>ms2
69.070000 2526.400000
79.054300 1080.800000
81.070100 1243.200000
93.069700 2212.100000
95.085900 1508.100000
105.070000 3057.800000
107.085700 1710.500000
131.085000 1572.400000
133.101300 3027.100000
142.077200 1399.500000
143.085700 1500.600000
145.100800 2047.900000
147.117000 1660.800000
157.101100 3860.100000
159.116600 2728.900000

>ms2
67.054000 1056.800000
69.069900 3382.800000
79.054400 1377.100000
81.069900 2322.900000
91.054400 3476.300000
93.070000 3527.700000
95.085800 1379.000000
105.069900 4446.500000
107.085700 1916.700000
117.069900 1249.800000
119.085600 2240.800000
129.070000 2948.400000
131.085600 3276.600000
133.101400 2982.900000
142.077600 3865.000000
157.101500 6221.500000

>ms2
67.054200 1613.100000
69.069900 3977.000000
79.054400 2305.900000
81.070100 1824.700000
91.054100 3047.100000
93.070000 3705.300000
95.085500 2695.400000
105.069800 3488.800000
107.085400 1944.900000
117.069900 1799.400000
119.085400 1222.900000
129.069700 1879.600000
131.085500 3192.700000
133.101600 2409.400000
142.077700 3029.000000
143.085900 1016.100000
155.085600 1436.800000
157.101500 4379.700000

>ms2
67.054200 1514.400000
69.069900 2123.200000
79.054400 1378.500000
91.054200 3030.000000
93.069800 3112.200000
95.085300 1167.400000
105.069900 4559.400000
129.070500 1540.000000
131.085600 1862.300000
142.077700 2946.700000
143.085500 1280.500000
155.086100 1342.300000
157.101200 2914.800000

>ms2
67.054000 1453.100000
79.054200 1662.200000
81.069800 1805.600000
91.054100 2709.200000
93.069800 1627.200000
95.085300 1660.800000
105.069900 3064.200000
129.069800 1290.400000
142.077300 3051.100000
143.085000 1306.400000
157.100600 1201.700000

>ms2
69.070100 1437.900000
91.054300 1403.900000
93.070000 1686.600000
105.070200 1925.500000
129.069900 1156.200000
142.077600 1419.000000

