>compound NA98439535
>parentmass 314.19620000000003
>ionization [M+H]+
>formula C16H27NO5
>rt 110.535000
>profile orbitrap
#smiles_iso C[C@H]([C@@](C(C)C)(C(=O)OCC1=CCN2[C@H]1[C@H](CC2)O)O)OC
#smiles_can CC(C)C(C(C)OC)(C(=O)OCC1=CCN2C1C(CC2)O)O
#inchikey LMFKRLGHEKVMNT-UJDVCPFMSA-N
#pubchem_id 906426
#mb_accession NA002516,NA002517,NA002518,NA002519,NA002520,NA002909,NA002910,NA002911,NA002912,NA002913,NA003284,NA003285,NA003286,NA003287,NA003288,NA003654,NA003655,NA003656,NA003657,NA003658

>ms2peaks
314.196200 126905.600000

>ms2peaks
138.091500 7721.700000
314.196400 536352.600000

>ms2peaks
138.091400 48363.100000
156.102000 1521.500000
314.196300 565884.800000

>ms2peaks
120.080900 1364.800000
138.091400 142999.100000
156.102000 9428.300000
314.196300 516961.400000

>ms2peaks
120.080700 6345.300000
138.091400 307355.300000
156.101900 24729.200000
314.196300 410034.900000

>ms2peaks
94.065100 4718.800000
96.080800 7288.000000
120.080700 15915.500000
138.091300 525623.600000
139.099200 3049.800000
152.106400 1805.200000
156.102000 75112.600000
282.169800 2775.000000
296.185000 1972.300000
314.196300 302559.500000

>ms2peaks
82.065100 2581.600000
94.065200 12125.200000
96.080800 16826.200000
108.081000 1147.900000
110.059700 1481.200000
120.080800 35382.300000
131.106100 1313.900000
138.091300 622172.000000
139.099200 5207.400000
152.107300 2839.100000
156.101900 129164.500000
282.170200 2127.200000
314.196200 155106.600000

>ms2peaks
82.065100 5913.500000
94.065200 25506.100000
95.073000 1388.800000
96.080800 31211.900000
108.080900 2660.400000
109.065000 1060.900000
110.060000 3360.500000
120.080800 47902.500000
131.106700 2094.800000
138.091300 590288.200000
139.099100 12377.200000
152.107100 1539.100000
156.101900 187965.500000
282.169900 2144.900000
296.185400 1108.600000
314.196200 67362.100000

>ms2peaks
80.049500 2337.200000
81.069900 1632.500000
82.065200 11531.300000
94.065100 39625.200000
95.073100 2069.400000
96.080800 41770.600000
108.080800 5244.300000
109.064500 1790.000000
110.060100 5450.100000
120.080800 62369.800000
131.106600 1590.000000
138.091300 500966.500000
139.099100 15367.200000
156.101900 228075.900000
314.196300 21243.100000

>ms2peaks
80.049500 2595.100000
81.070000 2106.900000
82.065100 20124.500000
94.065100 55430.000000
95.073000 7244.400000
96.080800 47053.700000
108.080700 14012.600000
109.064800 1877.100000
110.060000 5931.000000
120.080800 72019.300000
138.091300 407704.300000
139.099100 16439.100000
156.101900 253540.400000
314.196800 6891.700000

>ms2peaks
67.041600 1551.900000
67.054300 2643.000000
68.049400 1398.300000
80.049400 5052.900000
81.070000 1851.000000
82.065100 28211.200000
86.060000 2564.900000
91.054200 1592.800000
93.069900 2684.600000
94.065100 73646.000000
95.072900 10703.600000
96.080700 53336.800000
103.053900 1322.600000
108.080700 25218.900000
109.064700 2235.600000
110.060000 9561.300000
110.096300 2005.300000
112.075600 4740.100000
118.065000 2709.500000
120.080700 90391.200000
126.091700 1776.600000
138.091300 321177.800000
139.099100 20029.300000
156.101900 266889.200000

>ms2peaks
67.041500 2659.800000
67.054100 3616.400000
68.049500 1320.300000
71.085900 920.600000
79.054200 2162.200000
80.049500 6850.300000
81.069900 2082.900000
82.065100 32848.300000
86.060000 4124.200000
91.054100 2402.800000
93.069600 2598.200000
94.065100 78602.100000
95.072900 15571.200000
96.080700 54580.000000
103.054100 2100.400000
108.080800 35690.000000
109.064800 2058.700000
110.060000 8417.000000
110.096300 2019.200000
112.075700 6303.400000
118.065100 2549.900000
120.080700 93029.200000
121.088500 944.600000
138.091300 244487.300000
139.099100 15206.800000
156.101900 228356.100000

>ms2peaks
67.041600 3635.100000
67.054200 4176.300000
68.049600 2311.400000
71.085300 1246.800000
79.054200 1339.400000
80.049500 9449.900000
81.057100 2470.900000
81.069900 3506.200000
82.065100 39121.000000
86.060000 4662.100000
91.054400 2573.700000
92.049400 1701.200000
93.069800 4242.000000
94.065100 85505.400000
95.072900 19577.600000
96.080800 48916.600000
103.054200 2295.800000
108.080800 47990.200000
109.064900 3988.600000
110.060000 8360.100000
110.096600 2481.300000
112.075700 9722.700000
118.065000 2572.200000
120.080800 94959.300000
126.091200 1315.700000
136.075200 1123.000000
138.091300 170657.200000
139.099100 13752.700000
156.101900 195660.200000

>ms2peaks
67.041500 3785.200000
67.054100 4453.100000
68.049300 2458.700000
79.054200 3220.200000
80.049500 12849.600000
81.057300 3903.500000
81.069800 4320.400000
82.065100 43573.700000
86.060100 5448.900000
91.054100 4972.400000
92.049400 3271.200000
93.069900 3460.000000
94.065100 84272.700000
95.072900 20684.300000
96.080700 42968.700000
103.054100 3356.300000
108.080700 53389.400000
109.065000 1990.300000
110.060000 7989.900000
110.096400 2788.200000
112.075600 11798.600000
118.064900 3382.200000
120.080700 96963.500000
121.088900 2056.800000
126.091100 1863.300000
136.075900 1228.300000
138.091300 120822.900000
139.099100 10521.300000
156.101800 148260.900000

>ms2peaks
67.041600 5738.400000
67.054100 5822.700000
68.049400 3956.800000
79.054100 2550.800000
80.049500 16288.000000
81.057300 4289.000000
81.069800 3944.500000
82.065100 41302.000000
86.060000 4871.100000
91.054200 5700.400000
92.049500 3427.400000
93.070000 4693.700000
94.065100 83816.000000
95.072900 20698.600000
96.080700 32854.400000
103.054100 2891.200000
108.080700 57711.100000
109.064800 2596.900000
110.060000 7661.800000
110.096500 2672.300000
112.075600 12252.800000
118.065100 4690.200000
120.080700 90257.900000
126.091300 2844.800000
138.091300 92612.400000
139.098800 5809.600000
156.101900 105512.200000

>ms2peaks
65.038700 1412.600000
67.041600 6715.300000
67.054200 7244.700000
68.049500 4370.600000
69.070000 1140.900000
79.054200 2827.300000
80.049500 23352.500000
81.057300 6628.900000
81.069900 4165.100000
82.065200 47653.900000
86.060000 6866.700000
91.054200 4885.800000
92.049600 4334.700000
93.057200 1777.300000
93.069900 2875.000000
94.065200 83776.900000
95.072900 19582.000000
96.080800 29576.000000
103.054300 4534.500000
105.057300 1491.700000
108.080800 65129.600000
109.064600 2421.800000
110.060100 7196.100000
110.096500 2371.600000
112.075700 13120.600000
118.065300 5059.600000
119.073100 1280.500000
120.080800 87957.700000
126.091400 2385.600000
138.091400 68110.700000
139.099200 4472.400000
156.102000 81051.200000

>ms2peaks
65.038600 1787.500000
67.041600 7717.200000
67.054200 8003.200000
68.049400 4223.700000
69.070000 1076.500000
77.038600 2310.600000
78.034000 1396.500000
79.054200 4341.900000
80.049500 27363.000000
81.057200 6538.700000
81.069800 5483.300000
82.065100 48166.300000
84.044400 1556.600000
86.060100 7429.200000
91.054200 6557.200000
92.049500 4133.000000
93.057500 2537.700000
93.069900 5130.600000
94.065100 79138.700000
95.072900 18742.100000
96.080800 24632.900000
103.054300 3967.100000
105.057000 2330.300000
108.080800 61971.700000
109.064800 3247.500000
110.060000 6547.800000
110.096400 3571.100000
112.075600 13758.300000
118.065100 5938.500000
119.073200 1273.200000
120.080800 80529.900000
126.091400 3004.300000
138.091400 48377.800000
139.099300 4272.200000
156.101900 53778.200000

>ms2peaks
65.038600 2439.900000
67.041600 6715.700000
67.054200 11226.100000
68.049500 5230.400000
77.038700 2720.500000
78.033800 1948.300000
79.054200 3026.200000
80.049500 32934.100000
81.057300 7579.400000
81.069900 5938.700000
82.065100 45354.600000
84.044500 1215.900000
85.052100 1804.100000
86.060000 6598.400000
91.054200 6450.100000
92.049500 5619.100000
93.057300 4123.000000
93.069800 4267.700000
94.065100 76579.700000
95.072900 15004.700000
96.044700 1734.500000
96.080700 19567.000000
103.054300 4054.500000
105.057400 1502.200000
106.065200 1560.000000
108.080800 59475.600000
109.064900 2420.600000
110.060000 4894.500000
110.096600 1507.400000
112.075700 12112.200000
118.065100 4266.500000
119.073300 1589.800000
120.080800 69842.000000
126.091200 1864.500000
138.091400 32452.900000
139.099200 2451.200000
156.101900 35868.800000

>ms2peaks
65.038500 1371.600000
67.041600 7871.500000
67.054200 8927.300000
68.049400 4729.500000
77.038600 2773.100000
78.033900 1417.500000
79.054300 2490.800000
80.049500 33459.300000
81.057300 7155.200000
81.069800 5190.300000
82.065200 37732.400000
85.052200 1579.400000
86.060100 5529.500000
91.054200 8684.000000
92.049700 4620.500000
93.057300 4708.100000
93.070000 3883.200000
94.065100 67249.600000
95.072900 13252.600000
96.080800 13595.700000
103.054200 2902.600000
105.057300 2555.500000
106.065400 1200.200000
108.080800 48878.800000
110.060000 4462.000000
110.096400 2253.700000
112.075700 8476.100000
118.065100 4676.300000
120.080800 55675.300000
126.091200 1728.700000
138.091300 24689.200000
156.102000 22797.100000

>ms2peaks
65.038500 2732.300000
67.041600 7997.500000
67.054200 9867.600000
68.049400 4664.600000
77.038600 3154.400000
78.033700 1699.100000
79.054200 3512.200000
80.049500 37921.300000
81.057400 6324.300000
81.069900 4923.200000
82.065100 36972.400000
85.052000 1720.400000
86.060000 5445.700000
91.054200 8751.500000
92.049500 5564.100000
93.057400 6056.100000
93.069900 4054.700000
94.065100 67410.000000
95.072900 11295.500000
96.044400 1389.900000
96.080700 10932.800000
103.054300 3763.600000
105.057000 1999.900000
108.080800 44112.800000
109.064800 1245.300000
110.060100 3623.500000
110.096400 1640.300000
112.075700 9596.600000
118.065200 5431.600000
119.073200 1222.100000
120.080800 47778.700000
126.091800 1243.500000
138.091300 15462.700000
156.102000 12651.500000

