>compound NA98206451
>parentmass 255.0652
>ionization [M+H]+
>formula C15H10O4
>rt 551.550000
>profile orbitrap
#smiles_iso C1=CC(=CC=C1C2=COC3=C(C2=O)C=CC(=C3)O)O
#smiles_can C1=CC(=CC=C1C2=COC3=C(C2=O)C=CC(=C3)O)O
#inchikey ZQSIJRDFPHDXIC-UHFFFAOYSA-N
#pubchem_id 5281708
#mb_accession NA002496,NA002497,NA002498,NA002499,NA002500,NA002889,NA002890,NA002891,NA002892,NA002893,NA003264,NA003265,NA003266,NA003267,NA003268,NA003634,NA003635,NA003636,NA003637,NA003638

>ms2peaks
255.065200 65665.000000

>ms2peaks
255.065100 140869.200000

>ms2peaks
255.065200 307987.500000

>ms2peaks
255.065100 267040.700000

>ms2peaks
255.065200 226412.300000

>ms2peaks
199.075200 1836.900000
255.065000 295386.900000

>ms2peaks
137.023300 2214.200000
199.075400 9485.400000
227.070500 4396.800000
255.065200 402049.300000

>ms2peaks
137.023400 10497.800000
145.029100 1642.400000
181.064400 1661.900000
199.075300 28880.900000
227.069900 16382.800000
237.054200 2348.100000
255.065100 397215.400000

>ms2peaks
91.054100 1116.400000
119.049400 2011.200000
133.028100 1501.900000
137.023300 20952.600000
145.028300 3378.900000
153.069800 1641.300000
157.064600 2224.900000
171.080800 2450.300000
181.064800 4771.900000
199.075300 48407.000000
227.070100 24295.200000
237.054400 5203.700000
255.065100 298266.100000

>ms2peaks
91.054300 2284.900000
119.049200 4053.300000
133.028700 1827.000000
137.023300 23537.300000
145.028700 3239.100000
153.070100 4129.400000
157.064900 3337.700000
171.080900 4502.900000
181.064900 8422.100000
199.075300 55701.600000
227.070200 27193.900000
237.054700 8602.800000
255.065200 183264.400000

>ms2peaks
91.054200 11250.600000
119.049100 7683.100000
121.028500 1592.300000
128.061900 1828.600000
129.069800 4192.700000
133.028300 5248.100000
137.023300 47172.900000
143.085500 3109.700000
145.028400 7887.000000
149.023300 3730.500000
153.069800 7370.300000
157.064800 7552.900000
165.069400 1296.900000
171.080400 9303.700000
181.064800 21280.300000
184.052600 1462.100000
185.060200 1948.100000
197.060700 1439.000000
199.075300 99562.200000
209.059300 4132.400000
210.067100 1627.600000
211.075300 2119.500000
226.061600 1413.200000
227.070100 45645.600000
237.054400 18666.800000
255.065100 179476.100000

>ms2peaks
68.997200 892.200000
91.054200 16206.500000
105.033600 1767.500000
119.049100 9281.100000
121.028700 2341.600000
128.062300 2939.500000
129.069800 4235.000000
131.048900 1838.500000
133.028400 3526.000000
134.036800 2395.400000
137.023300 49330.900000
143.085600 3911.300000
145.028500 7602.000000
149.023500 4874.100000
152.062400 1878.000000
153.069900 15199.000000
157.064900 8586.800000
165.069600 1072.200000
169.065200 1331.200000
171.080500 10033.000000
181.064800 29087.100000
182.073100 1645.900000
184.051800 3858.300000
185.060300 1835.800000
197.059500 2552.400000
198.068400 1665.500000
199.075300 93213.400000
209.059500 3736.700000
210.067400 1294.300000
211.075300 1566.300000
227.070200 40679.500000
237.054600 17104.900000
255.065200 98995.800000

>ms2peaks
68.997300 1452.900000
81.033500 1288.500000
91.054200 22889.900000
105.033400 1456.200000
119.049200 9523.300000
121.028400 2566.500000
128.062000 4815.000000
129.070000 4577.500000
131.048600 1265.600000
131.085400 1400.600000
133.028100 2469.800000
134.036500 1782.800000
137.023300 40660.300000
143.085600 3979.200000
145.028400 5462.500000
149.023300 2789.500000
152.062300 2744.700000
153.069900 14627.200000
157.064900 5547.100000
169.065300 1105.500000
171.080400 10804.700000
181.064800 31847.300000
182.072900 2128.400000
184.052300 3917.400000
197.060200 3447.700000
198.067500 1682.500000
199.075300 67962.200000
209.059300 3494.300000
226.061400 1284.500000
227.070200 27144.600000
237.054700 13166.000000
255.065200 42962.200000

>ms2peaks
81.033500 1142.600000
91.054200 20367.900000
119.049000 7315.000000
121.028700 1395.300000
128.061900 5732.200000
129.069900 4729.900000
131.049000 2062.300000
131.085500 1098.000000
133.028500 2053.700000
134.036100 2299.100000
137.023300 32012.100000
143.085700 3758.400000
145.028200 2563.000000
149.023400 2515.600000
152.061900 3555.600000
153.069800 13840.800000
157.064900 5230.500000
169.064900 1033.700000
171.080300 6613.700000
181.064600 25148.000000
182.073400 1356.300000
184.051700 3332.200000
197.059900 2490.800000
198.067300 2013.900000
199.075200 38693.800000
209.059700 1896.300000
227.070000 15347.400000
237.054300 7528.200000
255.065000 15626.700000

>ms2peaks
81.033700 1624.000000
91.054200 23978.400000
119.049200 6875.200000
121.028400 2170.100000
128.061900 4570.000000
129.069700 3054.300000
131.049300 2155.200000
134.036000 1543.800000
137.023400 24030.300000
143.085800 2463.700000
145.028200 2582.900000
149.023800 1353.100000
152.062100 7120.300000
153.069800 15203.100000
157.065100 3685.000000
171.080600 3736.600000
181.064800 23168.100000
182.073100 2074.300000
184.051500 2555.600000
197.059300 3036.200000
198.067600 1702.300000
199.075400 22749.000000
209.059100 1994.000000
227.070000 7234.900000
237.054500 4503.700000
255.065400 6383.600000

>ms2peaks
65.038600 3244.500000
68.997100 1558.800000
81.033500 3357.600000
89.038400 1487.400000
91.054200 50979.300000
105.033500 2343.100000
106.041500 2580.600000
115.054400 2426.500000
119.049200 12564.000000
121.028400 5185.100000
128.062100 13298.200000
129.069900 6735.900000
131.049100 5184.300000
134.036200 2638.200000
137.023300 41795.300000
141.069900 1400.100000
143.085600 4802.100000
145.028700 2525.100000
147.043900 1379.700000
151.054100 1735.000000
152.062100 17695.400000
153.069900 27093.900000
157.064900 5116.700000
169.064900 2168.500000
171.080400 6477.700000
181.064800 41697.700000
182.072200 2849.700000
184.051900 5791.300000
197.059600 6182.900000
198.067200 2913.000000
199.075300 26260.500000
226.062400 1607.900000
227.070100 9347.400000
237.054800 6740.300000
255.065100 4555.400000

>ms2peaks
65.038500 3621.700000
68.997300 2053.300000
81.033500 4829.700000
91.054200 45708.600000
105.033300 1707.700000
106.041400 2412.000000
115.054100 2543.500000
119.049200 7221.100000
121.028400 2816.200000
128.062100 10659.300000
129.070100 4374.700000
131.049300 4009.100000
134.036200 3129.800000
137.023400 28409.000000
141.069900 1957.800000
143.085700 2320.300000
145.028300 1271.900000
151.054100 1177.900000
152.062100 21756.300000
153.069900 19028.200000
157.065000 4134.500000
169.065200 1859.400000
171.080600 3857.300000
181.064800 28812.800000
182.072500 2420.200000
184.052000 4876.700000
197.059700 4436.900000
198.067500 2786.900000
199.075400 12929.200000
226.062600 1396.000000
227.070200 4225.500000
237.054900 2189.900000
255.064300 1812.200000

>ms2peaks
65.038500 4939.500000
77.038800 903.400000
81.033400 5331.700000
91.054200 37311.800000
105.033600 1949.700000
106.041400 2963.500000
115.054300 1903.200000
119.049100 5384.200000
121.028500 1353.800000
128.062000 10269.500000
129.069700 2053.900000
131.049100 2535.800000
134.035900 1595.300000
137.023300 19124.300000
141.069800 1354.100000
143.085300 1723.500000
145.028000 1570.500000
152.062000 20707.100000
153.069800 13140.100000
157.064600 2084.600000
169.064900 2353.800000
171.080200 1483.200000
181.064600 17198.000000
182.073200 2119.300000
184.052300 3489.400000
197.059600 3884.100000
198.067600 2144.100000
199.074900 5385.500000
227.070000 1065.300000
237.055400 1593.400000

>ms2peaks
65.038500 3935.600000
81.033400 3089.600000
91.054200 32624.800000
105.033700 2037.100000
106.041400 1564.400000
115.054300 2005.900000
119.049200 2904.500000
128.062200 9123.200000
131.049100 2921.100000
137.023300 12178.200000
141.069700 1424.500000
151.054400 2026.800000
152.062100 17166.100000
153.069800 8371.600000
169.064900 1568.200000
181.064800 12168.800000
184.052000 1921.400000
198.068000 1121.700000
199.075200 2213.300000

>ms2peaks
65.038500 5541.800000
77.038600 1076.400000
81.033500 5922.200000
89.038800 1084.200000
91.054300 24552.000000
106.041500 1325.800000
115.054300 1524.700000
119.049100 1852.200000
128.062100 8586.500000
131.049200 3059.400000
137.023300 9045.600000
141.070000 1477.100000
147.044200 1232.800000
152.062100 16713.200000
153.069900 5555.100000
169.065600 1461.600000
181.065000 9310.700000
197.059300 2495.400000
199.074700 1517.000000

