>compound AC01530346
>parentmass 806.3982
>ionization [M+Na]+
>formula C45H57N3O9
>rt 279.000000
>profile orbitrap
#smiles_iso CC(C)[C@@H]1C(=O)N([C@H](C(=O)O[C@@H](C(=O)N([C@H](C(=O)O[C@@H](C(=O)N([C@H](C(=O)O1)CC2=CC=CC=C2)C)C(C)C)CC3=CC=CC=C3)C)C(C)C)CC4=CC=CC=C4)C
#smiles_can CC(C)C1C(=O)N(C(C(=O)OC(C(=O)N(C(C(=O)OC(C(=O)N(C(C(=O)O1)CC2=CC=CC=C2)C)C(C)C)CC3=CC=CC=C3)C)C(C)C)CC4=CC=CC=C4)C
#inchikey GYSCAQFHASJXRS-FFCOJMSVSA-N
#pubchem_id 3007984
#mb_accession AC000579,AC000580,AC000581,AC000582

>ms2peaks
806.398700 594743360.000000

>ms2peaks
384.176500 37633016.000000
545.259500 10782674.000000
645.311500 40940816.000000
806.398700 208937632.000000

>ms2peaks
134.096400 7978047.000000
202.083600 5590373.500000
216.138300 5161433.500000
244.133200 7212874.500000
266.113500 28631676.000000
284.124100 15606461.000000
384.176500 139053216.000000
402.187100 8498558.000000
545.259500 16789170.000000
645.311500 48967876.000000
806.398700 87849120.000000

>ms2peaks
83.049100 66209.429688
123.041700 19384.152344
134.096400 403805.031250
141.050900 17834.279297
156.078100 82653.468750
202.083600 123328.007812
216.138300 82520.562500
244.130800 48646.609375
266.113500 252861.531250
284.125400 112725.054688
302.136000 19221.314453
384.176500 164497.296875

