>compound AC01111385
>parentmass 584.2838
>ionization [M+Na]+
>formula C31H39N5O5
>rt 164.400000
>profile orbitrap
#smiles_iso CC(C)[C@H]1C(=O)N2CCC[C@H]2[C@]3(N1C(=O)[C@](O3)(C(C)C)NC(=O)[C@H]4CN([C@@H]5CC6=CNC7=CC=CC(=C67)C5=C4)C)O
#smiles_can CC(C)C1C(=O)N2CCCC2C3(N1C(=O)C(O3)(C(C)C)NC(=O)C4CN(C5CC6=CNC7=CC=CC(=C67)C5=C4)C)O
#inchikey UJYGDMFEEDNVBF-OGGGUQDZSA-N
#pubchem_id 73453
#mb_accession AC000298,AC000299,AC000300,AC000301,AC000302

>ms2peaks
290.124800 12293068.000000
584.284300 26833976.000000

>ms2peaks
290.124800 22506184.000000
362.166500 1945318.875000
541.242100 1883810.375000
584.284300 9077309.000000

>ms2peaks
138.052300 449641.875000
247.082800 1566134.500000
290.124800 13697073.000000
334.171600 884697.187500
360.150900 748502.250000
362.166500 1180620.375000
444.189400 699471.062500
541.242100 3485151.000000
584.284300 1059836.750000

>ms2peaks
138.052300 691369.312500
237.119600 501386.125000
247.082800 1745092.250000
263.098900 232743.765625
265.114500 244287.250000
290.124800 6866184.000000
317.119900 343775.437500
326.124800 240890.671875
334.171600 676941.125000
346.135200 338270.656250
360.150900 380981.406250
362.166500 468440.656250
398.182300 508066.562500
444.189400 1063325.375000
541.242100 1884387.250000

>ms2peaks
70.065100 53036.136719
72.080800 19461.369141
114.055000 27404.953125
138.052300 441007.875000
140.067900 143545.328125
154.065100 32313.347656
167.073000 27390.951172
168.080800 23201.455078
180.080800 126991.507812
181.088600 19763.042969
189.099600 63893.507812
190.065100 22081.904297
191.073000 94376.007812
191.115200 137447.125000
192.080800 164018.734375
194.060000 22266.283203
194.096400 23729.142578
206.078800 54374.562500
207.067900 135195.796875
208.074300 596029.000000
210.091300 41484.269531
220.074300 43175.968750
221.107300 44083.464844
223.123000 57442.019531
236.094400 22573.259766
237.119600 221056.718750
247.082800 336184.000000
249.102200 89952.804688
251.116500 33416.148438
263.098900 20845.058594
277.132200 98975.023438
290.124800 232224.671875
302.164100 38828.648438
305.124700 39139.761719
317.124400 122808.234375
326.124800 180201.390625
327.109000 122076.093750
334.171600 57969.699219
344.136700 21343.697266
345.119600 162702.078125
346.137300 94468.343750
382.189000 19323.804688
398.182300 176883.671875
444.189400 117786.257812
513.247200 24991.890625
541.242100 23550.935547

