>compound AC02449922
>parentmass 381.1538
>ionization [M+H]+
>formula C19H24O8
>rt 192.000000
>profile orbitrap
#smiles_iso CC1=C[C@@H]2[C@](C(C1=O)O)([C@]3(C[C@H]([C@H]([C@@]34CO4)O2)OC(=O)C)C)COC(=O)C
#smiles_can CC1=CC2C(C(C1=O)O)(C3(CC(C(C34CO4)O2)OC(=O)C)C)COC(=O)C
#inchikey RANGFOQREJPKIH-QZQWDYNDSA-N
#pubchem_id 21120844
#mb_accession AC000115,AC000116,AC000117,AC000118,AC000119

>ms2
109.064800 308236.750000
125.059700 703404.250000
133.064800 294569.843750
137.059700 1207844.125000
173.096100 263544.062500
187.111800 242545.515625
189.091000 300158.093750
197.096100 242545.031250
203.106700 586568.625000
213.091000 1144651.000000
215.106700 1053233.500000
225.091000 247232.000000
231.101600 3469623.250000
243.101600 1537732.375000
261.112100 1197645.750000
273.112100 381382.718750
279.122700 2051445.125000
303.122700 353839.281250
321.133300 907140.750000
381.154400 7346065.000000

>ms2
79.054200 194028.078125
81.069900 291000.500000
95.049100 161077.562500
97.064800 208614.875000
107.049100 179978.109375
109.064800 532454.500000
113.059700 242840.531250
125.059700 945563.312500
133.064800 421873.687500
135.044100 214985.671875
137.059700 1660972.250000
143.070300 132003.359375
153.054600 314355.625000
159.080400 108222.726562
159.116800 119526.429688
163.075400 148984.093750
173.096100 511613.718750
175.075400 216985.515625
179.070300 193980.062500
185.096100 289897.375000
187.111800 431638.906250
189.091000 520766.343750
197.096100 388111.812500
201.091000 259033.875000
203.106700 1032266.562500
205.085900 156136.750000
213.091000 1423187.875000
215.106700 1244586.125000
217.085900 115814.765625
219.101600 180291.718750
225.091000 307637.781250
231.101600 3250211.250000
233.117200 216435.421875
243.101600 1254034.375000
249.112100 112972.343750
261.112100 1048131.375000
265.107000 122814.546875
273.112100 185574.109375
279.122700 1580136.625000
303.122700 149438.203125
321.133300 294489.218750
381.154400 1076556.500000

>ms2
69.033500 102901.953125
79.054200 339276.750000
81.069900 418651.187500
91.054200 71632.710938
93.069900 79120.265625
95.049100 208668.140625
97.064800 334100.281250
105.069900 110367.062500
107.049100 323599.437500
109.064800 728760.562500
113.059700 321706.406250
121.064800 153390.906250
123.044100 217112.843750
125.059700 1008560.000000
131.085500 95214.367188
133.064800 383323.156250
135.044100 277206.500000
135.080400 110448.203125
137.059700 1973510.625000
143.070300 99343.820312
143.085500 83002.437500
145.064800 90720.546875
145.101200 191796.406250
147.080400 82871.359375
149.059700 67442.976562
153.054600 365911.750000
157.101200 235848.171875
159.080400 245196.640625
159.116800 235895.937500
161.059700 113051.421875
161.096100 145526.500000
163.075400 317420.312500
167.085500 77715.289062
169.101200 255634.078125
171.080400 141699.390625
173.096100 741262.062500
175.075400 427119.656250
175.111800 146930.406250
177.091000 166992.765625
179.070300 135421.218750
185.096100 567200.000000
187.075400 115503.585938
187.111800 565904.062500
189.091000 724026.750000
191.106700 63708.121094
195.080400 121630.164062
197.096100 586575.125000
198.067500 148724.843750
201.091000 311007.281250
203.106700 1474932.375000
205.085900 190029.078125
213.091000 1605043.625000
215.106700 1113976.375000
217.085900 155198.812500
219.101600 205120.703125
225.091000 292398.062500
231.101600 1970352.250000
233.117200 149114.281250
243.101600 698349.687500
249.112100 78146.156250
261.112100 443587.093750
279.122700 406549.593750

>ms2
69.033500 136960.890625
79.054200 495382.562500
81.069900 486072.406250
91.054200 108250.250000
93.069900 114986.257812
95.049100 237568.421875
97.064800 362340.062500
105.069900 179528.109375
107.049100 362545.781250
109.064800 780831.125000
113.059700 319896.531250
117.069900 75953.507812
119.085500 77835.257812
121.064800 197391.640625
123.044100 252200.656250
125.059700 984658.500000
129.069900 102192.867188
131.085500 144084.765625
133.064800 354205.187500
135.044100 280891.218750
135.080400 138502.859375
136.051900 71191.023438
137.059700 2129805.750000
142.077700 109947.882812
143.085500 133416.703125
145.064800 137249.000000
145.101200 334442.218750
147.080400 114465.320312
149.096100 77473.117188
153.054600 384973.500000
154.077700 86535.890625
155.085500 84345.257812
157.101200 371353.843750
158.072600 80873.593750
159.080400 330098.000000
159.116800 299694.031250
161.059700 170232.000000
161.096100 170229.046875
163.075400 397729.312500
167.085500 115447.101562
169.101200 331062.718750
171.080400 164336.031250
173.096100 740326.562500
174.067500 108166.296875
175.075400 556165.375000
175.111800 179346.578125
177.091000 175075.531250
179.070300 110060.351562
179.085500 86999.242188
182.072600 99711.664062
185.096100 722659.250000
187.075400 113952.562500
187.111800 546698.500000
188.083200 72996.484375
189.091000 693040.375000
191.106700 73706.851562
195.080400 150729.062500
197.096100 533240.937500
198.067500 212010.390625
201.091000 318306.031250
203.106700 1459254.625000
205.085900 138186.765625
213.091000 1386149.500000
215.106700 970449.437500
217.085900 143912.421875
219.101600 180370.531250
225.091000 270367.218750
231.101600 1269174.000000
233.117200 99669.726562
243.101600 442682.937500
261.112100 212149.250000
279.122700 155320.375000

>ms2
67.054200 94986.554688
69.033500 178006.703125
79.054200 648721.375000
81.069900 544635.750000
83.049100 68563.007812
91.054200 235056.484375
93.069900 128809.625000
95.049100 293233.531250
97.064800 324537.000000
105.069900 358632.937500
107.049100 415040.781250
107.085500 79495.648438
109.064800 542759.625000
111.044100 50953.738281
113.059700 221417.890625
115.054200 77695.718750
117.069900 161763.890625
119.049100 56841.921875
119.085500 155774.046875
121.064800 216609.812500
123.044100 229704.906250
124.051900 90780.835938
125.059700 551604.875000
128.062100 103726.046875
129.069900 267588.875000
130.077700 54798.652344
131.085500 234463.609375
133.064800 212113.828125
133.101200 77682.421875
135.044100 177319.750000
135.080400 218877.125000
136.051900 66518.367188
137.059700 1499225.625000
141.069900 174552.796875
142.077700 333560.937500
143.085500 185418.906250
144.093400 80063.195312
145.064800 176857.562500
145.101200 375634.062500
147.080400 123037.304688
149.059700 53244.980469
149.096100 50639.527344
151.039000 71245.203125
152.062100 71589.085938
153.054600 165207.046875
153.069900 52484.492188
154.077700 196892.468750
155.085500 133773.953125
157.064800 83097.367188
157.101200 450930.312500
158.072600 201715.937500
159.080400 304725.281250
159.116800 185022.671875
161.059700 198247.765625
161.096100 164824.843750
162.067500 70259.171875
163.075400 205632.031250
165.069900 49658.238281
167.085500 164829.468750
169.101200 291003.750000
170.072600 92521.523438
171.080400 161889.171875
172.088300 129734.304688
173.096100 354522.468750
174.067500 168818.937500
175.075400 553970.750000
175.111800 142748.734375
177.091000 101851.554688
179.085500 92531.312500
182.072600 150518.968750
185.096100 480432.031250
187.075400 93117.382812
187.111800 191318.359375
188.083200 131360.328125
189.091000 301476.843750
195.080400 116166.164062
197.096100 242699.578125
198.067500 340899.093750
200.083200 66193.296875
201.091000 116686.914062
203.106700 433168.125000
213.091000 430849.531250
215.106700 187938.687500
219.101600 59209.882812
225.091000 62679.589844
231.101600 157550.359375

