>compound AC05894154
>parentmass 676.4138
>ionization [M+Na]+
>formula C34H59N3O9
>rt 310.800000
>profile orbitrap
#smiles_iso CC[C@H](C)[C@H]1C(=O)O[C@@H](C(=O)N([C@H](C(=O)O[C@@H](C(=O)N([C@H](C(=O)O[C@@H](C(=O)N1C)C(C)C)C(C)C)C)C(C)C)C(C)C)C)C(C)C
#smiles_can CCC(C)C1C(=O)OC(C(=O)N(C(C(=O)OC(C(=O)N(C(C(=O)OC(C(=O)N1C)C(C)C)C(C)C)C)C(C)C)C(C)C)C)C(C)C
#inchikey UQCSETXJXJTMKO-UMURLBKASA-N
#pubchem_id 11262300
#mb_accession AC000467,AC000468,AC000469,AC000470

>ms2
676.414400 1267234944.000000

>ms2
563.330300 41614684.000000
676.414400 1029854976.000000

>ms2
218.113500 19242446.000000
336.176500 94577008.000000
350.192200 45196060.000000
463.275200 17280250.000000
549.314600 33358476.000000
563.330300 70000024.000000
676.414400 539216512.000000

>ms2
83.049100 29038266.000000
86.096400 98670304.000000
98.096400 6878741.000000
100.112100 70877720.000000
123.041700 24181914.000000
141.050900 26269100.000000
154.083600 11840213.000000
168.138300 58063116.000000
182.154000 30955690.000000
196.133200 61925368.000000
210.148900 29717414.000000
218.113500 173349152.000000
232.129200 92089544.000000
236.124100 45132648.000000
250.139700 19066608.000000
254.134600 8526541.000000
322.160900 8541765.000000
336.176500 138977600.000000
350.192200 60422776.000000
354.187100 8010489.000000

