>compound AC06673648
>parentmass 313.0701
>ionization [M+H]+
>formula C17H12O6
>rt 186.000000
>profile orbitrap
#smiles_iso COC1=C2C3=C(C(=O)CC3)C(=O)OC2=C4[C@@H]5C=CO[C@@H]5OC4=C1
#smiles_can COC1=C2C3=C(C(=O)CC3)C(=O)OC2=C4C5C=COC5OC4=C1
#inchikey OQIQSTLJSLGHID-WNWIJWBNSA-N
#pubchem_id 186907
#mb_accession AC000016,AC000017,AC000018,AC000019,AC000020

>ms2peaks
313.070700 16903524.000000

>ms2peaks
313.070700 20700296.000000

>ms2peaks
284.067900 807104.875000
285.075700 2892121.000000
313.070700 19087014.000000

>ms2peaks
257.080800 860851.250000
270.052300 1108981.750000
284.067900 1551995.625000
285.075700 5107072.000000
298.047200 1045913.812500
313.070700 15964698.000000

>ms2peaks
173.096100 145709.968750
186.067500 156881.718750
187.075400 256237.046875
197.059700 146371.875000
201.091000 791420.625000
213.054600 279577.593750
214.062400 1212351.750000
215.070300 299082.937500
224.046800 175842.984375
225.054600 160688.906250
227.033900 210460.062500
229.049500 181774.812500
229.085900 743231.812500
241.049500 2040365.000000
242.057400 1713734.625000
243.065200 687863.125000
252.041700 458900.593750
253.049500 454290.937500
257.080800 952699.562500
269.044400 2547995.500000
270.052300 2770389.500000
280.036600 185588.671875
281.044400 139973.171875
284.067900 1392432.625000
285.075700 3912771.000000
298.047200 957693.437500
313.070700 2162258.500000

