>compound AC07174100
>parentmass 322.1293
>ionization [M+H]+
>formula C17H15N5O2
>rt 130.200000
>profile orbitrap
#smiles_iso C1=CC=C2C(=C1)C(=CN2)CC3C(=O)N/C(=C/C4=CN=CN4)/C(=O)N3
#smiles_can C1=CC=C2C(=C1)C(=CN2)CC3C(=O)NC(=CC4=CN=CN4)C(=O)N3
#inchikey ITXQTTPWGBFRNK-GIDUJCDVSA-N
#pubchem_id 51136281
#mb_accession AC000771,AC000772,AC000773,AC000774,AC000775

>ms2peaks
322.129800 538715.875000

>ms2peaks
193.072000 51045.824219
322.129800 465030.812500

>ms2peaks
130.065100 13538.309570
162.029800 14312.383789
191.056300 15251.473633
192.064200 25257.078125
193.072000 230376.609375
322.129800 197878.000000

>ms2peaks
130.065100 27077.511719
162.029800 22538.779297
163.061400 9857.544922
165.077100 16915.349609
191.056300 11765.795898
192.064200 52061.593750
193.072000 219640.156250
322.129800 27479.021484

>ms2peaks
69.045500 24933.617188
81.044700 29982.921875
82.052500 4317.949219
85.039600 16283.462891
97.039600 8335.567383
106.040000 12023.302734
108.055600 47851.640625
109.063400 47555.941406
110.071300 11249.030273
120.055600 18939.279297
130.065100 68878.648438
137.082200 12271.155273
162.029800 17107.386719
163.061400 18420.136719
165.077100 35565.550781
192.064200 50678.363281
193.072000 132735.703125

