>compound AC07742317
>parentmass 305.1742
>ionization [M-H2O+H]+
>formula C18H26O5
>rt 195.000000
>profile orbitrap
#smiles_iso C[C@H]1CCC[C@@H](CCCCCC2=C(C(=CC(=C2)O)O)C(=O)O1)O
#smiles_can CC1CCCC(CCCCCC2=C(C(=CC(=C2)O)O)C(=O)O1)O
#inchikey DWTTZBARDOXEAM-GXTWGEPZSA-N
#pubchem_id 2999413
#mb_accession AC000642,AC000643,AC000644,AC000645,AC000646

>ms2
167.033900 287502.187500
277.179800 283415.125000
287.164200 660943.062500
305.174700 7705586.000000

>ms2
123.044100 313197.000000
167.033900 514156.843750
277.179800 304908.625000
287.164200 1231784.625000
305.174700 8051995.500000

>ms2
81.070800 223056.312500
87.044100 121426.742188
95.085500 168812.718750
109.101200 253648.281250
123.044100 1397105.000000
123.116800 237528.484375
149.059700 725414.500000
161.059700 145908.656250
163.075400 728116.750000
167.033900 243058.703125
175.075400 229229.531250
177.054600 203617.359375
177.091000 142935.500000
189.091000 238131.796875
203.106700 120743.117188
207.065200 151948.437500
269.153600 262269.562500
278.174200 127477.000000
287.164200 840953.562500
305.174700 3746766.500000

>ms2
53.818100 115879.515625
65.249500 104445.945312
67.055300 135980.906250
68.553600 109935.070312
69.709400 118461.695312
71.124300 108991.492188
71.522800 103809.164062
75.732700 111299.937500
78.613300 106045.984375
81.070900 818082.250000
81.457200 119120.546875
83.086400 112305.835938
84.536200 102184.343750
95.085500 283879.906250
99.869000 127213.109375
123.044100 2708644.000000
137.059700 225397.578125
149.059700 1068726.875000
151.040500 115971.843750
161.059700 739726.625000
163.075400 1125227.125000
165.054600 186810.625000
167.033900 268259.812500
175.075400 577434.500000
177.054600 271382.125000
189.091000 487346.093750
191.070300 221719.515625
193.049500 212062.578125
203.106700 131804.046875
217.085900 120508.328125
242.323100 119962.796875
287.164200 250642.765625
305.174700 1117410.750000

>ms2
50.053800 127264.039062
55.055300 220815.828125
56.509800 134989.734375
67.055300 620370.500000
69.027500 168819.140625
69.071000 177867.828125
79.055300 137552.421875
81.070700 697003.500000
88.265400 154657.734375
109.101200 173578.171875
121.066100 176660.921875
123.044100 2237043.000000
137.059700 163032.562500
149.059700 1005739.187500
161.059700 1288932.375000
163.075400 303492.531250
175.075400 341563.625000
177.054600 383830.593750
193.049500 241358.687500
243.469500 169959.218750
263.712600 165924.203125

