>compound AC07193091
>parentmass 335.052
>ionization [M+Na]+
>formula C17H12O6
>rt 186.000000
>profile orbitrap
#smiles_iso COC1=C2C3=C(C(=O)CC3)C(=O)OC2=C4[C@@H]5C=CO[C@@H]5OC4=C1
#smiles_can COC1=C2C3=C(C(=O)CC3)C(=O)OC2=C4C5C=COC5OC4=C1
#inchikey OQIQSTLJSLGHID-WNWIJWBNSA-N
#pubchem_id 186907
#mb_accession AC000021,AC000022,AC000023,AC000024,AC000025

>ms2
335.052600 20670816.000000

>ms2
335.052600 20266838.000000

>ms2
335.052600 9006384.000000

>ms2
306.049900 221640.968750
335.052600 4284011.500000

>ms2
129.686900 4765.274414
291.026400 135577.718750
306.049900 30576.654297
307.057700 6400.090332
320.029100 20568.988281
335.052600 135133.390625

