>compound AC07159006
>parentmass 143.0333
>ionization [M+H]+
>formula C6H6O4
>rt 93.000000
>profile orbitrap
#smiles_iso C1=C(OC=C(C1=O)O)CO
#smiles_can C1=C(OC=C(C1=O)O)CO
#inchikey BEJNERDRQOWKJM-UHFFFAOYSA-N
#pubchem_id 3840
#mb_accession AC000690,AC000691,AC000692,AC000693,AC000694

>ms2
69.033500 19308542.000000
97.028400 17548328.000000
143.033900 223934976.000000

>ms2
69.033500 19970590.000000
97.028400 18047088.000000
143.033900 242415680.000000

>ms2
69.033500 18383928.000000
97.028400 15599828.000000
143.033900 215284000.000000

>ms2
69.033500 26172460.000000
97.028400 22680034.000000
143.033900 198280864.000000

>ms2
69.033500 38856244.000000
83.012800 5335508.500000
97.028400 34512776.000000
113.023300 4911610.000000
143.033900 95098352.000000

