>compound AC08161453
>parentmass 529.2427
>ionization [M+H]+
>formula C29H36O9
>rt 195.000000
>profile orbitrap
#smiles_iso CC1=C[C@@H]2[C@@]3(CC1)COC(=O)/C=C/4\CCO[C@@]([C@@H]4O)(/C=C/C=C/C(=O)OC5[C@]3([C@]6(CO6)[C@@H](C5)O2)C)[C@H](C)O
#smiles_can CC1=CC2C3(CC1)COC(=O)C=C4CCOC(C4O)(C=CC=CC(=O)OC5C3(C6(CO6)C(C5)O2)C)C(C)O
#inchikey MUACSCLQRGEGOE-MOCAONITSA-N
#pubchem_id 56928155
#mb_accession AC000601,AC000602,AC000603,AC000604,AC000605

>ms2peaks
231.138000 163356.718750
249.148500 139856.109375
529.243200 2386250.250000

>ms2peaks
68.031600 23427.365234
76.745000 24303.386719
81.069900 26959.992188
93.070900 26796.224609
105.069900 151386.906250
107.085500 119763.640625
109.064800 27238.523438
111.045200 33076.859375
112.196700 23553.669922
123.080400 37843.101562
127.039000 128727.046875
136.977200 22813.546875
143.085500 35662.476562
149.059700 29235.884766
161.096100 115795.500000
165.054600 27197.013672
171.116800 40194.042969
173.059700 56692.816406
175.075400 100355.234375
183.116800 28596.558594
185.132500 201937.453125
187.111800 36480.007812
189.127400 35655.582031
191.070300 135079.921875
193.122300 148617.562500
195.065200 45309.210938
195.116800 104123.625000
201.054600 48181.582031
201.127400 53030.238281
203.070300 25443.328125
203.143100 46792.593750
213.127400 185680.703125
217.085900 132174.375000
219.065200 265867.750000
219.140300 36496.441406
227.070300 39135.640625
231.138000 665339.937500
237.075700 28910.449219
245.080800 200734.265625
247.132900 52585.882812
249.148500 461045.250000
263.091400 120575.078125
281.102000 99131.734375
467.206400 31041.931641
485.217000 116748.117188
511.232600 40820.910156
529.243200 628401.875000

>ms2peaks
59.172800 21369.101562
60.775600 20278.742188
64.064600 18719.103516
69.183400 23536.908203
75.076300 22143.453125
76.666800 22575.669922
79.054200 26146.669922
81.070800 29153.507812
84.995900 20696.505859
93.069900 26745.927734
103.282700 26831.644531
105.069900 158155.656250
107.085500 29760.664062
108.189900 23274.935547
123.080400 36388.171875
127.039000 48977.148438
143.085500 24885.330078
157.101200 24322.876953
159.116800 39719.722656
161.096100 40887.203125
161.261200 25419.972656
173.059700 34106.625000
175.075400 33831.656250
183.116800 33917.050781
185.132500 48546.949219
186.146200 25165.201172
191.070300 47169.632812
195.065200 42959.113281
199.075400 24242.066406
199.990200 25634.738281
201.127400 45906.179688
208.233200 27599.359375
212.043300 29080.187500
213.127400 50142.714844
217.085900 39573.816406
219.065200 143877.734375
219.138000 23783.718750
231.138000 188148.812500
249.151300 75499.125000
407.411900 26269.607422
452.930500 26183.353516

>ms2peaks
60.582800 13187.310547
79.055500 17332.558594
81.070800 75214.156250
83.050200 24520.148438
91.054200 20953.337891
93.069900 27552.621094
95.049100 28419.001953
105.069900 138939.500000
106.543000 17329.962891
107.050400 15504.710938
107.085500 26169.085938
109.064800 30427.781250
115.304500 17021.933594
117.069900 23238.521484
121.064800 18255.689453
123.080400 25120.667969
125.059700 13960.946289
127.039000 31032.453125
133.064800 28473.937500
133.101200 17365.634766
139.039000 18935.298828
143.085500 77394.820312
145.064800 34644.597656
147.080400 31210.406250
149.059700 26791.339844
157.101200 30921.158203
161.096100 59603.187500
175.075400 66348.390625
183.116800 34322.570312
185.132500 29462.660156
189.091000 18195.585938
191.070300 26475.759766
195.116800 19191.271484
199.075400 19686.796875
199.111800 27724.677734
201.054600 34548.992188
201.127400 20429.957031
217.088100 22037.767578
219.065200 20692.388672
231.138000 25954.375000

>ms2peaks
55.055400 20743.089844
58.960400 15277.794922
65.097900 16858.083984
69.034200 16107.479492
79.055200 78850.648438
81.070800 30414.412109
83.050300 23503.724609
91.054200 124974.265625
93.069900 73825.757812
94.983200 19838.134766
95.049100 36233.773438
105.069900 161496.859375
107.049100 21728.423828
109.064800 22953.064453
111.821100 19558.201172
117.069900 27465.265625
119.085500 33996.750000
129.069900 19966.527344
133.064800 43482.820312
142.077700 20731.304688
143.085500 26340.417969
144.681200 17026.130859
145.101200 22588.265625
148.286300 18743.562500
173.059700 81557.468750
246.998500 17856.429688
271.939800 18169.281250

