>compound AC08693160
>parentmass 421.2215
>ionization [M+H]+
>formula C23H32O7
>rt 198.000000
>profile orbitrap
#smiles_iso CC1=C[C@@H]2[C@](CC1)([C@]3([C@@H](C[C@H]([C@@]34CO4)O2)OC(=O)/C=C\C=C\[C@@H]([C@H](C)O)O)C)CO
#smiles_can CC1=CC2C(CC1)(C3(C(CC(C34CO4)O2)OC(=O)C=CC=CC(C(C)O)O)C)CO
#inchikey QFKRKMXPKBHGGO-OYWHZMLYSA-N
#pubchem_id 101649339
#mb_accession AC000248,AC000249,AC000250,AC000251,AC000252

>ms2
105.069900 15747.216797
107.085500 16309.385742
109.064800 22053.201172
137.059700 24478.539062
161.096100 15266.083984
185.132500 16309.365234
193.122300 17429.800781
213.127400 24539.335938
231.138000 152646.968750
249.148500 464493.812500
403.211500 32340.914062
421.222100 60284.683594

>ms2
81.069900 23504.289062
83.049100 12622.201172
105.069900 19853.035156
107.085500 36783.726562
109.064800 43972.363281
123.080400 18023.234375
125.059700 18689.212891
137.059700 22129.951172
157.101200 9862.046875
161.096100 18387.806641
185.132500 34131.554688
189.127400 6728.220215
193.122300 54699.812500
195.116800 17889.091797
201.127400 18970.207031
203.143100 17147.644531
213.127400 28083.656250
219.138000 15234.333984
231.138000 135354.296875
249.148500 207969.500000

>ms2
66.366700 2541.385986
67.054200 3306.262695
69.034200 3075.177246
69.387500 2491.278564
77.728600 2376.594727
78.665700 2334.006592
79.054200 3815.117676
80.948000 2388.710449
81.069900 49141.457031
83.049100 15643.595703
85.094800 2902.214355
93.069900 13916.191406
95.049100 6171.678223
95.085500 3447.123535
95.336500 2401.362793
105.069900 29111.388672
107.085500 52315.179688
109.064800 38739.128906
111.044100 4867.376465
113.059700 3437.102295
119.085500 3323.295898
121.064800 4538.659668
123.080400 33910.675781
125.059700 11421.383789
127.075400 3354.464600
131.085500 11819.945312
133.101200 10763.895508
137.059700 5241.453125
143.085500 11982.546875
145.101200 3616.440186
147.116800 3500.549316
157.101200 18746.404297
159.116800 4676.150879
161.096100 19812.765625
163.111800 3143.603027
171.116800 13345.916992
175.111800 10238.511719
183.116800 5075.680664
185.132500 24037.560547
187.111800 3683.126953
188.161800 3211.258057
188.530800 3231.479248
189.127400 17132.509766
193.122300 38534.437500
195.116800 12524.583984
201.127400 18632.363281
203.143100 21050.378906
213.127400 23231.070312
215.937300 2724.987549
219.138000 5822.599609
231.138000 64039.242188
233.962100 3056.568604
249.148500 42978.679688
254.032100 2546.779541
276.383200 3496.647217

>ms2
53.230100 2375.273438
69.033500 4519.281250
79.054200 2585.058838
81.033500 3514.744629
81.069900 44696.566406
83.049100 17466.046875
93.069900 13197.690430
95.049100 5409.306152
95.085500 3567.312256
105.069900 21177.333984
107.085500 47675.320312
109.064800 26774.066406
113.059700 4013.441895
119.049100 3462.925781
119.085500 4760.996582
121.064800 11063.380859
123.080400 16733.980469
125.059700 4342.695801
129.069900 3093.252197
131.085500 10005.050781
133.101200 3114.380371
135.080400 3043.839355
141.905900 2898.247314
143.085500 17571.755859
145.101200 6337.222168
147.116800 5177.589355
149.096100 3558.950928
157.101200 16995.250000
159.116800 10525.713867
161.096100 12391.888672
169.101200 3079.552979
171.116800 6692.843750
173.132500 3541.724854
175.111800 11156.220703
183.116800 4324.869629
185.132500 21245.404297
187.111800 2947.291260
189.127400 3629.263428
193.122300 18461.046875
195.116800 13428.248047
201.127400 12026.623047
203.143100 4797.401855
210.987300 3133.435547
213.127400 11620.554688
231.138000 32066.232422
242.114900 2855.410156
249.148500 6782.137207
292.954000 2717.458008
398.848300 2865.436523
410.094400 2852.436523

>ms2
55.054900 5525.457520
63.128000 2391.620850
67.054200 4539.473633
69.033500 3484.782227
79.054200 12769.831055
81.069900 55990.558594
83.049100 18567.808594
90.977000 3993.857666
91.054200 6812.285156
93.069900 24614.339844
95.049100 11116.954102
95.085500 11689.194336
105.069900 35596.867188
106.735300 2435.839111
107.085500 37959.730469
109.064800 14475.556641
117.069900 3851.992920
119.085500 5212.162598
121.064800 4982.449707
123.080400 21456.662109
125.059700 4890.888672
129.069900 4114.322754
129.165200 2655.129150
131.085500 6120.054688
133.101200 10578.349609
139.839900 2762.891113
143.085500 16856.710938
145.101200 9389.911133
147.116800 5215.113770
155.085500 3969.587891
156.093400 3734.794678
157.101200 4348.128906
161.096100 17071.320312
170.109000 3541.563477
175.111800 4079.734863
175.712200 3053.876953
183.116800 2623.332275
201.127400 3639.738037
222.318200 3111.795654
295.442800 3208.032715
353.410900 2858.832520

