>compound AC09459598
>parentmass 285.2055
>ionization [M+H]+
>formula C16H28O4
>rt 210.000000
>profile orbitrap
#smiles_iso CCCCCC[C@H]1[C@@H]2CC[C@H]3[C@H](CC[C@H]([C@]3(O2)O1)O)O
#smiles_can CCCCCCC1C2CCC3C(CCC(C3(O2)O1)O)O
#inchikey GBDGOAVPCDIMFE-SBOZNWLOSA-N
#pubchem_id 10934979
#mb_accession AC000165,AC000166,AC000167,AC000168,AC000169

>ms2peaks
81.069900 4517.021973
95.085500 4070.060547
107.049100 16683.457031
113.096100 16586.537109
119.085500 22762.839844
123.080400 4385.147461
125.096100 5418.994141
127.111800 14973.858398
133.064800 9955.811523
135.080400 4961.316406
147.080400 15180.716797
155.143100 11574.549805
189.163800 19070.345703
203.179500 17655.865234
213.163800 9584.307617
221.190000 18108.574219
231.174400 39794.734375
249.184900 104231.296875
267.195500 108387.539062

>ms2peaks
57.070600 2487.483398
81.069900 4636.537109
85.101200 3387.286621
95.085500 3128.946777
107.049100 17940.244141
113.059700 4558.772949
113.096100 16548.498047
119.085500 20990.500000
121.263200 2320.447510
123.080400 4902.996582
125.096100 3303.447021
127.111800 12032.322266
133.064800 11406.757812
135.080400 4133.519531
137.096100 4262.423828
147.080400 13175.785156
151.075400 2939.857178
155.143100 10343.745117
167.143100 2824.550781
189.163800 11203.962891
203.179500 17253.566406
213.163800 10621.256836
221.190000 12773.662109
231.174400 31816.347656
249.184900 69831.546875
267.195500 67742.757812
279.693200 2921.558350

>ms2peaks
57.070500 13109.390625
67.054200 8055.876465
71.049100 3376.384033
79.054200 10016.814453
79.981800 2118.964111
81.069900 5132.527344
83.284700 2133.180664
85.101200 14570.945312
86.645800 2074.447754
86.996200 2012.071899
91.054200 3342.389648
93.069900 4270.333008
95.085500 14302.164062
97.064800 2385.541748
99.044100 3431.244873
105.069900 4186.315918
107.049100 27825.160156
109.064800 2371.080566
109.101200 9635.474609
113.059700 4079.089844
113.096100 11027.938477
119.085500 20469.734375
119.907200 2198.739502
121.064800 2317.057861
123.080400 13420.276367
123.116800 3434.216553
125.059700 2609.570068
125.096100 11236.523438
127.111800 11280.548828
133.064800 18117.810547
133.101200 3001.541260
135.080400 4378.128418
137.096100 4135.952148
147.080400 5231.837402
151.075400 4123.684082
155.143100 7389.794434
155.999000 2160.308594
161.096100 2550.434082
172.722100 2255.159424
189.163800 12976.664062
203.179500 9945.448242
205.158700 3767.865234
221.190000 5518.275391
231.174400 12769.647461
249.184900 23291.908203
267.195500 4986.492676

>ms2peaks
54.105800 1765.397217
54.357700 1888.285645
54.762900 1766.384644
57.070600 15082.168945
67.054200 8134.266113
69.069900 5058.795410
70.722700 2544.191406
71.049100 3651.716309
73.285900 2125.650146
75.693200 1895.160767
79.054200 7556.535645
81.069900 5441.819824
84.959100 2116.751709
85.064800 2476.271240
85.101200 10171.229492
91.054200 10860.781250
93.069900 3523.070068
95.085500 9041.806641
97.064800 2193.821289
105.069900 3887.419922
107.049100 24552.648438
109.064800 3918.130127
109.101200 2589.419922
113.096100 4029.351562
117.069900 2097.000000
119.085500 15986.398438
121.064800 2711.897949
123.080400 8875.544922
125.059700 2732.850586
125.096100 9526.287109
127.111800 4046.402832
129.360500 2232.407227
133.064800 10361.045898
133.101200 2895.543213
137.096100 2298.142822
147.080400 9716.951172
155.143100 3503.445312
189.163800 5200.347168
205.158700 3958.252197
221.190000 2820.120361
249.184900 14680.824219

>ms2peaks
55.018600 1908.291016
57.070600 14238.579102
67.054200 9081.419922
71.049100 3952.906738
72.728800 2377.637695
75.631800 2251.890869
79.054200 10553.685547
79.946800 1978.489746
81.069900 10163.003906
83.085500 1988.004883
84.300500 2165.467529
85.101200 4827.029785
91.054200 9259.876953
93.069900 4185.604004
94.494800 2344.008057
95.085500 8371.134766
97.064800 2672.652832
105.069900 4393.993164
107.049100 19527.943359
109.064800 2147.691406
119.085500 9890.228516
121.702900 2104.739014
123.080400 3538.869141
125.059700 2409.894043
128.633900 2135.698242
131.826700 2227.335693
133.064800 11874.977539
133.101200 2477.275879
135.787200 2865.955566
147.080400 4912.418945
205.158700 3875.586182
242.074500 2372.017578
249.182400 2601.806396
251.622500 2115.875244

