>compound AC11446538
>parentmass 329.065
>ionization [M+H]+
>formula C17H12O7
>rt 182.400000
>profile orbitrap
#smiles_iso COC1=C2C3=C(C(=O)OCC3)C(=O)OC2=C4[C@@H]5C=CO[C@@H]5OC4=C1
#smiles_can COC1=C2C3=C(C(=O)OCC3)C(=O)OC2=C4C5C=COC5OC4=C1
#inchikey XWIYFDMXXLINPU-WNWIJWBNSA-N
#pubchem_id 2724361
#mb_accession AC000032,AC000033,AC000034

>ms2
243.065200 1247760.125000
283.060100 872827.687500
311.055000 2833422.000000
329.065600 15571289.000000

>ms2
215.070300 392450.718750
243.065200 2964219.250000
283.060100 1813701.250000
301.070700 717735.937500
311.055000 4027059.250000
329.065600 11518751.000000

>ms2
185.059700 180244.406250
197.059700 164367.593750
199.075400 215133.984375
200.046800 881640.000000
205.085900 187203.343750
213.054600 244756.781250
214.062400 1664977.625000
215.070300 2484275.000000
225.054600 242849.765625
227.070300 441702.031250
233.080800 252155.078125
240.041700 219345.312500
241.049500 423249.812500
242.057400 357791.343750
243.065200 4833965.500000
253.049500 197697.312500
255.065200 835889.562500
268.036600 593518.500000
270.052300 242474.312500
282.052300 172278.984375
283.060100 1759240.375000
296.031500 156692.375000
301.070700 282560.250000
311.055000 1208994.375000
329.065600 1038671.062500

