>compound AC11296739
>parentmass 551.2511
>ionization [M+Na]+
>formula C32H36N2O5
>rt 220.800000
>profile orbitrap
#smiles_iso C[C@H]\1C/C=C/[C@H]2[C@H]3[C@](O3)([C@H]([C@@H]4[C@@]2(C(=O)/C=C/C(=O)[C@@H](/C(=C1)/C)O)C(=O)N[C@H]4CC5=CNC6=CC=CC=C65)C)C
#smiles_can CC1CC=CC2C3C(O3)(C(C4C2(C(=O)C=CC(=O)C(C(=C1)C)O)C(=O)NC4CC5=CNC6=CC=CC=C65)C)C
#inchikey OUMWCYMRLMEZJH-VOXRAUTJSA-N
#pubchem_id 6438437
#mb_accession AC000086,AC000087,AC000088,AC000089

>ms2peaks
551.251700 26467524.000000

>ms2peaks
523.256700 1437116.000000
551.251700 7228028.000000

>ms2peaks
160.036600 61574.210938
240.099200 60572.304688
287.115200 75768.242188
289.094500 67213.414062
317.089700 54137.765625
352.154300 66177.757812
371.172700 66217.093750
375.180500 64255.265625
422.193800 81750.804688
505.246200 117754.507812
523.256700 681868.500000
551.251700 1549019.500000

>ms2peaks
57.453600 2670.120361
57.574400 2495.716309
64.978000 3366.649170
65.032900 2968.936768
67.398200 2680.712158
68.267300 2814.313965
69.315900 3345.246338
69.895300 2630.482666
121.064800 3981.921387
130.065100 26815.220703
132.005300 6530.315430
152.047100 6286.944336
156.041700 5646.760742
160.036600 77759.250000
168.576600 3127.242432
186.016200 15666.726562
187.024000 4162.997559
188.031800 16394.029297
222.088900 12945.562500
240.099500 28407.587891
240.123300 2659.021240
263.352100 3494.622070
287.117900 5353.125488
289.094500 18232.431641
315.110100 5324.104004
317.089700 13522.736328
327.149200 4117.541992
351.146500 5714.951172
352.154300 4977.324707
355.141700 5696.220703
361.164800 4080.433350
375.180500 16401.455078
378.167600 7116.502441
430.325000 3299.720947
504.074100 3723.688232

