>compound AC12358989
>parentmass 299.1484
>ionization [M+H]+
>formula C15H22O6
>rt 135.600000
>profile orbitrap
#smiles_iso CC1=C[C@@H]2[C@](C[C@@H]1O)([C@]3([C@@H]([C@H]([C@H](C34CO4)O2)O)O)C)CO
#smiles_can CC1=CC2C(CC1O)(C3(C(C(C(C34CO4)O2)O)O)C)CO
#inchikey ZAXZBJSXSOISTF-ZSTBYQRGSA-N
#pubchem_id 3034745
#mb_accession AC000627,AC000628,AC000629,AC000630,AC000631

>ms2
80.107800 2049.193604
90.969800 2054.554443
97.064800 3110.225098
105.069900 9231.622070
109.526600 2432.574219
121.064800 10285.401367
121.101200 2568.885742
123.080400 2916.081055
125.059700 2370.074463
141.054600 4825.157715
173.096100 3907.861572
175.111800 9756.394531
175.925500 2221.773193
177.983700 2940.605713
185.096100 3315.384277
189.870600 2341.630859
191.106700 33846.285156
193.122300 5565.321777
203.106700 7630.692871
215.106700 4072.186279
217.122300 9360.191406
221.117200 2798.629639
233.117200 4891.352051
235.132900 3821.519043
245.117200 13696.067383
251.127800 2727.270020
263.127800 30750.173828
281.138400 28221.167969
299.148900 63849.359375

>ms2
97.064800 2643.528809
105.069900 8933.606445
109.064800 2757.659424
121.064800 13583.307617
125.059700 3667.190674
126.629000 2214.005371
133.101200 2782.181885
135.080400 2318.093506
161.096100 3571.525146
163.111800 2829.527344
173.096100 4516.183594
175.111800 3520.963379
185.096100 3606.256592
187.111800 2857.352783
191.106700 22675.875000
193.122300 11600.548828
199.111800 3492.973633
203.106700 4692.082031
204.423800 2234.015137
217.122300 5123.859863
221.117200 4651.346191
233.117200 2688.379150
235.132900 2967.413330
245.117200 16570.425781
263.127800 19502.878906
280.380100 2318.112305
281.138400 19056.470703
299.148900 27253.505859

>ms2
51.270000 1741.006592
53.651400 1717.356445
57.251100 1704.543945
57.274300 2001.839722
59.991900 1737.487305
64.484200 1954.004517
68.774600 1937.283081
94.669800 2130.549561
95.049100 4472.815430
97.064800 11133.976562
105.069900 3028.187256
109.064800 4760.830078
110.657500 2452.410889
119.085500 2403.282715
121.064800 14259.430664
123.007700 2359.038330
125.059700 5205.952637
145.101200 5000.847168
149.096100 4007.523438
157.101200 2583.289062
163.111800 4531.039062
173.096100 3732.708008
175.111800 11092.833008
179.106700 2291.430908
185.096100 2776.473633
191.106700 20815.275391
199.111800 3455.850586
217.122300 5154.968262
222.543400 2437.425537
245.117200 9463.823242
263.127800 2646.945312
266.510300 2557.944092

>ms2
54.681100 2008.077148
65.513100 1788.575073
68.695500 2036.320190
82.754500 1858.222534
95.049100 2979.206299
97.064800 9872.957031
105.069900 5318.166504
107.085500 3092.865723
109.064800 3600.285889
118.793500 2256.138184
121.064800 14702.198242
124.381400 2182.230957
131.085500 2576.909424
142.391800 1995.329956
145.101200 8781.991211
149.096100 4795.523438
161.096100 4670.885742
163.111800 3934.448486
171.116800 3317.301025
173.096100 4225.500977
175.111800 3975.822510
185.096100 2619.273438
187.111800 2654.783691
191.106700 10615.064453
199.111800 2948.706055
203.106700 4871.109375
215.106700 2351.222656
227.109200 2766.274170
245.117200 2676.066650
263.127800 3927.693115

>ms2
64.749700 1887.467407
71.076800 1888.369385
91.054200 2456.910400
93.069900 2954.279297
95.049100 2985.488037
97.064800 4264.543945
105.069900 2458.185547
107.085500 2408.839600
109.064800 2947.834717
121.064800 11615.082031
129.069900 2278.925781
133.101200 2540.174316
140.421900 2512.074707
145.101200 10062.625977
149.096100 2320.524658
175.111800 3049.230713

