>compound AC13479080
>parentmass 662.3982
>ionization [M+Na]+
>formula C33H57N3O9
>rt 286.800000
>profile orbitrap
#smiles_iso CC(C)[C@H]1C(=O)O[C@@H](C(=O)N([C@H](C(=O)O[C@@H](C(=O)N([C@H](C(=O)O[C@@H](C(=O)N1C)C(C)C)C(C)C)C)C(C)C)C(C)C)C)C(C)C
#smiles_can CC(C)C1C(=O)OC(C(=O)N(C(C(=O)OC(C(=O)N(C(C(=O)OC(C(=O)N1C)C(C)C)C(C)C)C)C(C)C)C(C)C)C)C(C)C
#inchikey MIZMDSVSLSIMSC-VYLWARHZSA-N
#pubchem_id 164754
#mb_accession AC000458,AC000459,AC000460,AC000461

>ms2peaks
662.398700 551754240.000000

>ms2peaks
549.314600 26963184.000000
662.398700 467348384.000000

>ms2peaks
218.113500 13331802.000000
336.176500 62011280.000000
354.187100 7774617.000000
449.259500 13110150.000000
549.314600 49174240.000000
662.398700 242054576.000000

>ms2peaks
83.049100 13617823.000000
86.096400 67542632.000000
123.041700 10292911.000000
141.052200 11872029.000000
154.083600 7510172.500000
168.138300 40801068.000000
196.133200 45306096.000000
218.113500 119875776.000000
236.124100 30296526.000000
254.134600 6564056.500000
336.176500 98809456.000000
354.187100 5958164.500000

