>compound AC13669275
>parentmass 353.0781
>ionization [M+H]+
>formula C17H17ClO6
>rt 199.200000
>profile orbitrap
#smiles_iso C[C@@H]1CC(=O)C=C([C@]12C(=O)C3=C(O2)C(=C(C=C3OC)OC)Cl)OC
#smiles_can CC1CC(=O)C=C(C12C(=O)C3=C(O2)C(=C(C=C3OC)OC)Cl)OC
#inchikey DDUHZTYCFQRHIY-RBHXEPJQSA-N
#pubchem_id 441140
#mb_accession AC000508,AC000509,AC000510,AC000511,AC000512

>ms2peaks
165.054600 107834168.000000
215.010600 93142632.000000
285.052400 71001872.000000
353.078600 621775488.000000

>ms2peaks
69.033500 72750280.000000
165.054600 205992512.000000
215.010600 187956416.000000
285.052400 160078896.000000
321.052400 27904574.000000
353.078600 289079456.000000

>ms2peaks
69.033500 193082224.000000
165.054600 243884192.000000
215.010600 209951840.000000
253.026200 7918731.000000
257.057500 9263803.000000
285.052400 150284144.000000
293.057500 13675433.000000
311.068100 11516018.000000
321.052400 16620368.000000
353.078600 21574662.000000

>ms2peaks
69.033500 226284368.000000
165.054600 241629968.000000
215.010600 198950400.000000
257.057500 9870004.000000
285.052400 110434576.000000
293.057500 10441061.000000
311.068100 8482392.000000
321.052400 10114477.000000

>ms2peaks
69.033500 210731680.000000
122.036200 12093553.000000
150.031100 7269326.500000
165.054600 164493488.000000
171.992200 9697872.000000
199.987100 14287430.000000
215.010600 110819504.000000
217.997600 22934426.000000
224.023500 12508022.000000
270.028900 20356166.000000
285.052400 22504382.000000

