>compound AC15837123
>parentmass 784.4162
>ionization [M+H]+
>formula C45H57N3O9
>rt 279.000000
>profile orbitrap
#smiles_iso CC(C)[C@@H]1C(=O)N([C@H](C(=O)O[C@@H](C(=O)N([C@H](C(=O)O[C@@H](C(=O)N([C@H](C(=O)O1)CC2=CC=CC=C2)C)C(C)C)CC3=CC=CC=C3)C)C(C)C)CC4=CC=CC=C4)C
#smiles_can CC(C)C1C(=O)N(C(C(=O)OC(C(=O)N(C(C(=O)OC(C(=O)N(C(C(=O)O1)CC2=CC=CC=C2)C)C(C)C)CC3=CC=CC=C3)C)C(C)C)CC4=CC=CC=C4)C
#inchikey GYSCAQFHASJXRS-FFCOJMSVSA-N
#pubchem_id 3007984
#mb_accession AC000574,AC000575,AC000576,AC000577,AC000578

>ms2
244.133200 28343028.000000
262.141100 14946138.000000
541.289000 4721221.000000
784.416800 54591612.000000

>ms2
134.096400 26046156.000000
234.146200 14303886.000000
244.130500 125043712.000000
262.141100 86653872.000000
362.193500 6900465.500000
523.277600 5990464.000000
623.329500 4578064.500000

>ms2
134.096400 140870576.000000
216.135600 5400618.000000
234.146200 22179844.000000
244.130500 100266288.000000
262.141100 35820288.000000
362.193500 9803617.000000

>ms2
134.096400 183702256.000000
234.146200 14813091.000000
244.130500 68802560.000000
262.141100 18945158.000000

>ms2
91.054200 10154545.000000
134.096400 226711264.000000
244.130500 11286086.000000

