>compound AC15909794
>parentmass 448.1974
>ionization [M+H]+
>formula C24H25N5O4
>rt 163.800000
>profile orbitrap
#smiles_iso CC(C)(C=C)[C@@]12C=C(C(=O)N\3[C@]1(NC(=O)/C3=C\C4=CN=CN4)N(C5=CC=CC=C25)OC)OC
#smiles_can CC(C)(C=C)C12C=C(C(=O)N3C1(NC(=O)C3=CC4=CN=CN4)N(C5=CC=CC=C25)OC)OC
#inchikey SOHAVULMGIITDH-ZXPSTKSJSA-N
#pubchem_id 70698220
#mb_accession AC000742,AC000743,AC000744,AC000745,AC000746

>ms2
417.179500 17277276.000000
448.197900 31924254.000000

>ms2
332.090400 831623.062500
348.109100 7506994.000000
349.116900 3936626.250000
374.161100 939862.187500
386.161100 1790251.125000
416.171700 1310166.250000
417.179500 25444462.000000
448.197900 2685199.750000

>ms2
204.051600 374554.031250
256.131900 752186.562500
277.108400 389761.343750
289.072000 592843.312500
305.103300 892822.687500
316.082900 805111.000000
317.090700 606645.687500
330.098500 381902.812500
332.090400 3115035.500000
333.098200 544601.625000
348.109100 11328801.000000
349.116900 2758780.250000
358.166200 697436.187500
374.161100 1716154.250000
385.153300 516939.187500
386.161100 2157066.750000
402.156100 845760.375000
417.179500 2327157.250000

>ms2
108.055600 141920.828125
111.055300 113649.000000
119.024000 147684.703125
161.045800 162029.921875
162.029800 106258.171875
197.070900 298827.625000
204.051600 438228.343750
214.073700 210553.203125
214.122600 497189.468750
256.133200 346484.125000
260.093100 129000.812500
261.077100 431112.375000
263.092700 260913.640625
274.084900 683893.750000
275.092700 114042.781250
277.108400 662853.000000
281.128500 124477.976562
288.088000 299552.687500
289.072000 1840821.750000
305.103300 653451.625000
306.098500 178714.046875
316.082900 1443716.875000
317.090700 1226020.500000
318.098500 203818.531250
320.114200 285508.843750
330.098500 192025.000000
332.090400 1266468.750000
333.087000 302513.500000
334.093400 139666.406250
342.134900 163325.359375
344.150600 132654.562500
348.109100 3212631.250000
349.116900 313008.687500
358.166200 445403.062500
370.129800 215511.843750
374.161100 804999.562500
386.161100 719905.250000
402.156100 223829.375000

>ms2
69.069900 369942.156250
81.044700 1406985.375000
93.044700 217303.375000
106.040000 673189.437500
107.047800 1274417.000000
108.055600 1406129.750000
111.055300 342599.593750
118.040000 472532.625000
119.024000 1118675.375000
121.039600 282796.437500
133.050900 356174.343750
161.045800 408034.375000
162.029800 305639.562500
169.076000 551471.750000
171.055300 367000.718750
181.088600 639504.000000
185.070900 253793.578125
196.112100 348979.156250
197.070900 996970.187500
198.066200 244120.671875
199.048800 280245.812500
204.051600 876718.625000
214.073700 515530.531250
214.122600 1181298.750000
219.079100 308651.468750
233.082200 352573.593750
234.066200 360275.906250
234.090000 856313.687500
235.097800 362777.593750
245.080800 491978.125000
246.088700 976317.375000
260.093100 1207178.750000
261.077100 6619550.500000
262.084900 489544.062500
263.092700 890964.062500
274.084900 1618265.375000
275.092700 313309.312500
277.109700 778718.562500
288.088000 1016027.750000
289.072000 2551781.250000
289.095800 616759.375000
290.079800 370592.125000
301.072000 513527.687500
305.092100 321542.468750
316.082900 1820269.500000
317.090700 2048107.250000
318.098500 218833.515625
320.114200 216832.484375
333.085600 240734.218750
342.134900 368927.281250
344.150600 241189.515625
348.109100 385002.437500
358.166200 299256.906250
374.161100 238847.765625

