>compound AC16100217
>parentmass 319.1535
>ionization [M+H]+
>formula C18H22O5
>rt 219.000000
>profile orbitrap
#smiles_iso C[C@H]1CCCC(=O)CCC/C=C/C2=C(C(=CC(=C2)O)O)C(=O)O1
#smiles_can CC1CCCC(=O)CCCC=CC2=C(C(=CC(=C2)O)O)C(=O)O1
#inchikey MBMQEIFVQACCCH-QBODLPLBSA-N
#pubchem_id 5281576
#mb_accession AC000288,AC000289,AC000290,AC000291,AC000292

>ms2
85.064800 1395813.750000
97.064800 1541570.875000
165.018200 399550.312500
187.075400 1098126.375000
217.085900 706216.250000
231.065200 1319541.250000
249.075700 514054.125000
255.138000 506579.437500
257.153600 598059.062500
265.122300 981930.187500
267.085100 1431555.375000
283.132900 7275819.500000
301.143400 9740450.000000
319.154000 11323530.000000

>ms2
69.069900 779675.437500
85.064800 1398823.500000
97.064800 2629319.250000
125.096100 377126.843750
165.018200 443736.250000
185.059700 314530.718750
187.075400 2022455.875000
189.054600 426660.250000
203.070300 751701.000000
205.085900 509302.187500
215.070300 508144.031250
217.085900 866113.125000
229.085900 464899.343750
231.065200 2095468.875000
241.085900 313578.656250
249.075700 557841.500000
255.138000 769603.375000
257.153600 470170.843750
265.122300 1254672.750000
267.085100 1239773.875000
283.132900 7766969.000000
301.143400 7211077.500000
319.154000 4345566.000000

>ms2
69.069900 1813288.875000
85.064800 874674.500000
95.085500 137896.125000
97.064800 2643862.750000
107.085500 118577.250000
119.085500 120178.757812
123.044100 148599.468750
125.096100 320592.593750
157.064800 112953.132812
161.059700 245430.843750
163.075400 124846.046875
165.018200 304337.312500
175.075400 175672.406250
177.054600 297066.406250
185.059700 1318562.625000
187.075400 3484843.000000
189.054600 949062.500000
199.075400 222915.453125
201.091000 179438.750000
203.070300 1778998.750000
205.049500 189779.437500
205.085900 720610.312500
213.054600 414878.875000
213.091000 262844.875000
215.070300 630131.812500
215.103400 145703.031250
217.085900 462059.187500
221.080800 280320.531250
225.091000 218089.656250
227.070300 392663.843750
229.085900 599604.500000
231.065200 1754721.375000
231.097800 146621.125000
239.106700 153389.421875
241.085900 535044.125000
241.122300 218709.171875
243.101600 170661.906250
249.075700 224343.578125
255.138000 607811.875000
257.153600 112962.687500
259.096500 120284.625000
265.122300 1103967.000000
267.085200 135620.562500
283.132900 3421832.750000
301.143400 1446237.250000
319.154000 146808.453125

>ms2
69.069900 2144506.000000
81.069900 126998.812500
85.064800 726841.562500
95.085500 142059.468750
97.064800 2049170.000000
107.085500 160192.390625
119.085500 131983.312500
123.044100 182473.953125
125.096100 300962.187500
131.085500 129937.156250
157.064800 213803.578125
161.059700 354016.750000
163.075400 136253.031250
165.018200 309411.250000
173.059700 149211.062500
175.039000 179834.890625
175.075400 365396.375000
177.054600 358471.500000
177.091000 161150.156250
185.059700 1994447.750000
187.075400 3818543.250000
189.054600 1203906.625000
199.075400 279222.468750
201.091000 198308.593750
203.070300 2441112.250000
205.049500 245967.687500
205.085900 727688.812500
213.054600 514787.375000
213.091000 344953.281250
215.070300 583689.437500
215.106700 171473.843750
217.085900 342563.125000
221.080800 232808.140625
225.091000 240462.984375
227.070300 466081.843750
229.085900 516761.562500
231.065200 1142475.750000
239.106700 145391.015625
241.085900 593753.437500
241.122300 259584.093750
243.101600 184558.906250
249.075700 142826.343750
255.138000 509230.875000
265.122300 822539.812500
283.132900 1785779.375000
301.143400 590626.750000

>ms2
55.018500 271807.281250
67.054200 182020.687500
68.997100 98984.078125
69.069900 1981164.375000
71.049100 78678.328125
79.054200 150142.843750
81.069900 132927.000000
83.049100 97777.117188
85.064800 290671.875000
91.054200 225303.671875
93.069900 123108.164062
95.049100 78146.992188
95.085500 136119.359375
97.064800 563430.187500
105.069900 188985.296875
107.085500 114046.835938
115.054200 128189.054688
117.069900 194562.500000
119.085500 142407.281250
123.044100 246228.546875
125.096100 110869.437500
129.069900 265243.437500
131.085500 316454.031250
133.064800 97277.554688
141.069900 491052.000000
145.064800 95271.796875
147.044100 167991.093750
147.080400 154564.312500
149.059700 163382.515625
157.064800 1072506.625000
159.080400 187712.546875
160.051900 162983.703125
161.059700 744410.562500
163.039000 144723.671875
163.075400 134602.656250
165.018200 310648.656250
169.064800 283235.687500
173.059700 234703.125000
175.039000 508607.750000
175.075400 842876.062500
177.054600 306042.125000
177.091000 257526.359375
185.059700 2359925.000000
187.075400 2116099.750000
189.054600 1139775.250000
197.059700 153058.281250
199.075400 253815.437500
201.091000 184722.187500
203.070300 1895310.500000
205.049500 181325.843750
205.085900 291407.312500
211.075400 102879.468750
213.054600 378189.375000
213.091000 293031.062500
214.062400 90710.203125
215.070300 267657.500000
215.106700 106193.265625
217.085900 100202.406250
223.075400 131791.156250
225.091000 176717.703125
226.062400 80507.679688
227.070300 288499.937500
228.078100 89639.320312
229.085900 218058.375000
231.065200 134109.093750
241.085900 212610.906250
241.122300 87375.023438
243.101600 99770.179688
250.098800 113001.023438
255.138000 94680.820312
265.122300 206529.171875
283.132900 106777.593750

