>compound AC16823035
>parentmass 722.3952
>ionization [M+H]+
>formula C34H59NO15
>rt 162.600000
>profile orbitrap
#smiles_iso CCCC[C@@H](C)[C@H]([C@H](C[C@@H](C)C[C@@H](CCCC[C@H](C[C@@H]([C@H](C)N)O)O)O)OC(=O)C[C@@H](CC(=O)O)C(=O)O)OC(=O)C[C@@H](CC(=O)O)C(=O)O
#smiles_can CCCCC(C)C(C(CC(C)CC(CCCCC(CC(C(C)N)O)O)O)OC(=O)CC(CC(=O)O)C(=O)O)OC(=O)CC(CC(=O)O)C(=O)O
#inchikey UVBUBMSSQKOIBE-DSLOAKGESA-N
#pubchem_id 2733487
#mb_accession AC000471,AC000472,AC000473,AC000474,AC000475

>ms2peaks
722.395700 66727820.000000

>ms2peaks
334.307800 1056244.625000
352.318300 2418086.000000
370.328900 1378897.625000
528.350400 1523149.375000
546.361000 1631601.750000
686.374600 1823336.875000
704.385200 7380133.500000
722.395700 26349356.000000

>ms2peaks
57.070500 367054.500000
67.054200 275372.531250
69.069900 548448.875000
70.065100 1005854.437500
74.060000 2441506.750000
81.069900 1270868.500000
83.085500 421424.281250
85.101200 690838.500000
93.069900 540307.937500
95.085500 1523551.375000
97.101200 365545.031250
100.075700 392595.843750
105.069900 397121.781250
107.085500 776212.375000
109.101200 1086051.625000
119.085500 350305.343750
121.101200 678000.750000
123.116800 672037.437500
127.111800 366393.812500
133.101200 697916.500000
135.116800 884196.312500
137.132500 272787.906250
145.101200 335263.562500
147.116800 704216.750000
149.132500 548035.187500
151.148100 606482.375000
159.028800 1210222.000000
159.116800 264970.156250
161.132500 552954.437500
163.148100 407122.343750
165.163800 306364.812500
168.138300 480846.562500
175.148100 507296.687500
177.163800 265666.125000
186.148900 1169418.500000
189.163800 290922.937500
201.163800 459216.843750
210.185300 292099.906250
236.200900 400671.281250
254.208800 528085.062500
316.297200 1988885.250000
334.307800 7787777.000000
352.318300 7227361.500000
370.328900 1276848.375000
492.329300 308831.593750
510.339900 1078622.125000
528.350400 956226.500000
546.361000 262838.875000
668.361400 295459.718750
686.374600 830890.000000
704.385200 929042.375000
722.395700 295933.562500

>ms2peaks
57.070500 476839.281250
67.054200 439519.250000
69.069900 911518.937500
70.065100 1367055.500000
72.080800 211543.484375
74.060000 2235174.000000
79.054200 378382.312500
81.069900 1778947.750000
83.085500 476349.812500
85.064800 245081.937500
85.101200 793980.812500
91.054200 215682.546875
93.069900 847737.562500
94.065100 221858.312500
95.085500 2030734.125000
96.080800 300904.593750
97.101200 348979.718750
100.075700 558993.187500
105.069900 584838.687500
107.085500 1065724.625000
109.101200 1271185.625000
111.116800 198293.203125
119.085500 475704.250000
121.101200 789777.812500
123.116800 674236.812500
127.111800 273844.062500
133.101200 755243.250000
135.116800 937242.937500
137.132500 262936.781250
145.101200 387365.531250
147.116800 717045.750000
149.132500 519782.562500
151.148100 471547.750000
159.028800 1439591.500000
159.116800 264591.312500
161.132500 531487.000000
163.148100 322889.437500
168.138300 564996.000000
175.148100 426086.031250
177.163800 196132.578125
186.148900 958815.312500
189.163800 225308.593750
192.174700 228462.046875
201.163800 296313.968750
210.185300 285792.812500
236.200900 452776.312500
254.211500 351508.437500
316.297200 1575657.625000
334.307800 6097963.000000
352.318300 3483101.000000
370.328900 373753.031250
510.339900 217407.812500

>ms2peaks
56.050200 191202.453125
57.034200 182619.953125
57.070500 598530.125000
58.065100 148952.515625
67.054200 1145610.000000
69.069900 1388957.250000
70.065100 1547613.000000
72.080800 125903.828125
74.060000 1547962.250000
79.054200 988740.062500
81.069900 2639095.000000
82.065100 570928.625000
83.049100 95268.273438
83.085500 448953.031250
84.080800 265299.500000
85.028400 293562.156250
85.064800 176628.609375
85.101200 604786.500000
91.054200 675218.375000
93.069900 1629152.625000
94.065100 492182.531250
95.049100 192402.734375
95.085500 2396494.500000
96.080800 465035.843750
97.064800 114136.937500
97.101200 214458.968750
98.096400 104357.937500
99.007700 86392.632812
100.075700 521736.437500
105.069900 1036026.812500
107.085500 1287988.375000
108.080800 157736.234375
109.064800 100419.429688
109.101200 1103152.625000
110.096400 268827.500000
111.080400 104364.976562
113.023300 806261.937500
119.085500 655048.562500
121.101200 603153.125000
122.096400 121320.351562
123.116800 317742.937500
124.112100 196317.187500
126.091300 134742.953125
131.085500 210831.750000
133.101200 635898.562500
135.116800 448078.656250
136.112100 107785.273438
138.127700 144013.921875
145.101200 310235.125000
147.116800 377312.000000
149.132500 164606.406250
150.127700 119131.882812
151.148100 90563.953125
159.028800 1029004.812500
159.116800 178090.812500
161.132500 175764.343750
168.138300 328648.062500
173.132500 86224.476562
175.148100 112834.500000
186.148900 175875.718750
192.174700 146106.656250
236.200900 157092.500000
316.297200 178169.234375
334.307800 699196.625000
352.318300 89108.906250

