>compound AC17865014
>parentmass 433.14070000000004
>ionization [M+H]+
>formula C23H25ClO6
>rt 252.600000
>profile orbitrap
#smiles_iso CC[C@H](C)/C=C/C1=CC2=C(C(=O)[C@@]3(C(=C(C(=O)O3)C(=O)[C@@H](C)[C@@H](C)O)C2=CO1)C)Cl
#smiles_can CCC(C)C=CC1=CC2=C(C(=O)C3(C(=C(C(=O)O3)C(=O)C(C)C(C)O)C2=CO1)C)Cl
#inchikey HWSQVPGTQUYLEQ-CCBHEJLASA-N
#pubchem_id 6450533
#mb_accession AC000545,AC000546,AC000547,AC000548,AC000549

>ms2
333.088800 124769.609375
405.146300 46841.269531
433.141200 828509.500000

>ms2
83.049100 110322.453125
195.020700 23204.015625
253.062600 33242.300781
263.083300 45673.320312
305.093900 88849.429688
333.088800 494329.281250
349.083700 24133.500000
359.068100 115237.843750
361.156500 28004.287109
387.135800 34472.937500
405.146300 84601.773438
415.130700 91194.046875
433.141200 347124.687500

>ms2
55.055000 49787.746094
69.069900 34320.304688
81.069900 23796.234375
83.049100 176130.515625
101.059700 16840.826172
111.080400 20604.369141
163.075400 18329.923828
195.020700 138653.203125
207.020700 22903.167969
225.031300 35074.425781
229.026200 99624.171875
235.015600 17317.058594
249.031300 17088.830078
253.062600 54101.804688
263.046900 24981.121094
263.083300 77594.679688
275.010600 21101.210938
287.083300 42020.152344
305.093900 89827.226562
331.073200 20473.833984
333.088800 523325.406250
359.068100 152666.500000
387.135800 26155.535156
415.130700 37514.617188
433.141200 26448.470703

>ms2
55.054900 70158.625000
69.069900 58811.425781
81.069900 22906.041016
83.049100 197491.187500
111.080400 25052.261719
163.075400 30349.429688
183.020700 19287.236328
195.020700 237506.218750
207.020700 36002.253906
211.015600 21884.724609
225.031300 50638.128906
229.026200 174195.578125
235.015600 32695.183594
237.031300 20423.646484
249.031300 24265.537109
253.062600 58402.664062
263.010600 22925.660156
263.046900 33327.527344
263.083300 58105.601562
275.010600 27564.238281
277.026200 13599.350586
287.083300 42382.636719
295.060100 13225.755859
304.049700 17241.833984
305.093900 55208.882812
315.078300 18282.734375
333.088800 413248.750000
359.068100 126190.320312
415.130700 18495.751953

>ms2
55.054900 118947.492188
57.034300 12294.607422
69.069900 80700.648438
73.064800 19053.164062
79.054200 19164.847656
81.069900 32292.361328
83.049100 104518.718750
91.054200 18465.238281
135.080400 28549.853516
143.085500 15063.196289
145.064800 13204.955078
146.072600 10217.342773
155.025800 17547.652344
171.080400 10964.693359
174.067500 11734.639648
179.025800 19618.726562
183.020700 142109.125000
183.080400 12739.321289
193.041500 13817.983398
195.020700 302120.093750
195.080400 11967.258789
207.020700 40823.472656
209.096100 13690.166992
210.103900 12045.807617
211.015600 49155.695312
221.036400 12000.996094
223.015600 11408.375977
223.075400 13536.207031
223.111800 15327.829102
225.031300 27806.660156
229.026200 164013.984375
229.043800 11011.823242
235.015600 33930.960938
237.031300 17218.572266
237.091000 12439.777344
245.036400 11033.822266
247.015600 25509.433594
249.031300 21160.753906
258.044200 27362.322266
263.010600 12127.238281
263.046900 13849.232422
272.059900 13985.992188
275.010600 21605.355469
295.060100 12101.125977
304.049700 10205.791016
333.088800 36045.347656

