>compound AC19565407
>parentmass 238.0857
>ionization [M+H]+
>formula C15H11NO2
>rt 203.400000
>profile orbitrap
#smiles_iso C1=CC=C(C=C1)C2=C(C(=O)NC3=CC=CC=C32)O
#smiles_can C1=CC=C(C=C1)C2=C(C(=O)NC3=CC=CC=C32)O
#inchikey QSRVMXWVVMILDI-UHFFFAOYSA-N
#pubchem_id 67206
#mb_accession AC000273,AC000274,AC000275,AC000276,AC000277

>ms2peaks
238.086300 1176156928.000000

>ms2peaks
238.086300 1210572288.000000

>ms2peaks
238.086300 979040832.000000

>ms2peaks
132.044400 30448296.000000
192.080800 43744564.000000
238.086300 878856512.000000

>ms2peaks
105.033500 34453796.000000
132.044400 124516120.000000
165.069900 82192128.000000
182.096400 19146848.000000
192.080800 291952480.000000
220.075700 57531596.000000
238.086300 436249312.000000

