>compound AC19003858
>parentmass 351.047
>ionization [M+Na]+
>formula C17H12O7
>rt 168.000000
>profile orbitrap
#smiles_iso COC1=C2C3=C(C(=O)CC3)C(=O)OC2=C4C(=C1)O[C@@H]5[C@]4(C=CO5)O
#smiles_can COC1=C2C3=C(C(=O)CC3)C(=O)OC2=C4C(=C1)OC5C4(C=CO5)O
#inchikey MJBWDEQAUQTVKK-IAGOWNOFSA-N
#pubchem_id 15558498
#mb_accession AC000047,AC000048,AC000049

>ms2
351.047500 10215730.000000

>ms2
323.052600 190340.421875
351.047500 4197275.000000

>ms2
55.986700 3566.204590
56.688500 3342.199463
63.663300 2846.394043
90.977100 5242.992676
94.495000 3747.638428
143.126100 3539.946289
179.336100 3342.482178
209.979500 4453.765625
218.892900 3700.687988
221.902400 3730.939209
261.900800 4981.480469
295.057700 4643.192383
323.052600 6380.227539
351.047500 86731.515625

