>compound AC19918297
>parentmass 352.2014
>ionization [M+H]+
>formula C21H25N3O2
>rt 203.400000
>profile orbitrap
#smiles_iso CC(=CCC1=C(C2=CC=CC=C2N1)C[C@H]3C(=O)N4CCC[C@H]4C(=O)N3)C
#smiles_can CC(=CCC1=C(C2=CC=CC=C2N1)CC3C(=O)N4CCCC4C(=O)N3)C
#inchikey GLWYBXPXOSKQAW-OALUTQOASA-N
#pubchem_id 9863281
#mb_accession AC000862,AC000863,AC000864,AC000865,AC000866

>ms2
69.070700 19878.658203
90.977200 8362.287109
107.049100 5450.939941
130.065100 24646.103516
198.127700 169499.781250
283.909900 5542.942383
284.139400 123202.609375
296.139400 135915.875000
352.202000 165176.078125

>ms2
69.070700 27905.888672
130.065100 63128.855469
198.127700 243646.250000
268.144400 9723.778320
284.139400 149018.031250
296.139400 152539.796875
352.202000 49293.261719

>ms2
69.070700 38594.019531
107.049100 13411.553711
130.065100 164440.359375
132.080800 13389.879883
144.080800 9157.995117
170.060000 9909.208008
198.127700 209515.546875
268.144400 12639.983398
284.139400 52007.484375
296.139400 71711.203125

>ms2
69.070700 41050.789062
70.065100 11328.664062
107.049100 11681.852539
130.065100 219505.031250
156.080800 19543.507812
170.060000 16620.048828
171.091700 11095.574219
183.104300 9211.170898
198.127700 167835.953125
199.086600 17433.208984
284.139400 14117.869141
296.139400 16756.318359

>ms2
56.965600 9952.800781
69.070700 45104.257812
70.065100 16071.448242
84.960300 10650.791016
107.049100 20004.203125
130.065100 233912.781250
144.080800 10649.730469
155.073000 9538.220703
156.080800 21861.615234
168.080800 15247.891602
169.088600 13876.373047
170.060000 15425.309570
171.091700 18171.541016
183.104300 24419.746094
198.127700 68670.515625
199.086600 9256.458984
232.989700 9848.746094

