>compound AC21513458
>parentmass 295.1535
>ionization [M+H]+
>formula C16H22O5
>rt 242.400000
>profile orbitrap
#smiles_iso CCCCCCCCC(=O)C1=C(OC(=CC1=O)C=O)OC
#smiles_can CCCCCCCCC(=O)C1=C(OC(=CC1=O)C=O)OC
#inchikey YTVPBUCDNKECDB-UHFFFAOYSA-N
#pubchem_id 122734
#mb_accession AC000695,AC000696,AC000697,AC000698,AC000699

>ms2
141.127400 3237626.000000
267.159100 4266314.500000
295.154000 58649692.000000

>ms2
71.086600 3038014.250000
141.127400 8971585.000000
267.159100 12114331.000000
295.154000 75097576.000000

>ms2
57.071000 6775449.500000
67.055300 2506176.500000
71.086600 12389689.000000
81.070900 5868404.500000
123.116800 3614038.250000
127.039000 3528605.750000
141.127400 10530500.000000
155.033900 989466.187500
169.049500 2749518.750000
197.044400 3011035.250000
267.159100 27023402.000000
295.154000 18296254.000000

>ms2
57.071000 13802833.000000
67.055300 4340836.000000
71.086600 22290716.000000
81.070900 9910185.000000
95.012800 795518.062500
99.044100 849010.312500
123.116800 2308555.250000
125.023300 936656.312500
127.039000 10818725.000000
141.127400 3351784.750000
155.033900 1167330.250000
165.018200 723511.750000
169.049500 9359564.000000
197.044400 1672408.000000
239.164200 1545799.375000
267.159100 21892652.000000
295.154000 1673010.750000

>ms2
53.003300 563737.812500
55.055300 622527.375000
57.071000 12851049.000000
67.018900 2098748.750000
67.055300 3250095.500000
69.070900 587446.000000
71.050200 1587269.125000
71.086600 13999561.000000
79.055200 630204.125000
81.070900 7144022.000000
95.012800 2906327.250000
99.044100 3148977.750000
125.023300 713412.625000
127.039000 16715841.000000
155.033900 858335.437500
169.049500 8246529.000000
267.159100 2194539.000000

