>compound AC21373543
>parentmass 299.1749
>ionization [M+H]+
>formula C18H22N2O2
>rt 147.600000
>profile orbitrap
#smiles_iso C[C@H]1CN([C@@H]2CC3=CNC4=CC=CC(=C34)[C@H]2[C@@H]1OC(=O)C)C
#smiles_can CC1CN(C2CC3=CNC4=CC=CC(=C34)C2C1OC(=O)C)C
#inchikey GJSSYQDXZLZOLR-QMHBMSAFSA-N
#pubchem_id 101286186
#mb_accession AC000550,AC000551,AC000552,AC000553,AC000554

>ms2peaks
239.154300 23479478.000000
299.175400 127264536.000000

>ms2peaks
239.154300 34839180.000000
299.175400 115948048.000000

>ms2peaks
144.080800 2060678.500000
168.080800 1790017.750000
196.112100 4471582.500000
208.112100 2985086.500000
239.154300 47253632.000000
299.175400 53788612.000000

>ms2peaks
144.080800 3672534.250000
156.101900 1102685.000000
168.080800 4430440.000000
182.096400 1467063.375000
183.091700 2425621.000000
196.112100 6318390.500000
197.107300 5064692.500000
198.127700 1725615.625000
208.112100 7458146.000000
210.127700 1054941.500000
239.154300 31718322.000000
299.175400 16261112.000000

>ms2peaks
72.081800 370070.031250
84.081700 429433.937500
96.080800 416294.375000
108.080800 546164.937500
114.091300 285831.875000
129.069900 361720.593750
130.065100 645235.812500
144.080800 4302042.500000
154.065100 1967463.000000
155.073000 671188.937500
156.080800 1028891.625000
156.101900 737110.937500
167.073000 2622620.500000
168.080800 5889300.500000
169.088600 570304.000000
170.096400 723168.250000
179.085500 409848.156250
180.080800 564358.562500
181.088600 1234939.375000
181.101200 337703.875000
182.083900 649556.687500
182.096400 1587044.875000
183.091700 2500656.500000
183.104300 471949.031250
184.099500 530777.062500
192.080800 1128137.375000
193.088600 2602864.750000
194.096400 620588.125000
196.112100 3540948.000000
197.107300 5933057.000000
198.127700 1965164.875000
207.104300 324692.625000
208.112100 5774357.500000
209.107300 457314.687500
210.130700 599356.000000
223.123000 1094203.375000
224.130800 1358594.000000
237.138600 282641.687500
238.146500 374339.437500
239.154300 6654782.000000
299.175400 747304.437500

