>compound AC21896320
>parentmass 297.1327
>ionization [M+H]+
>formula C15H20O6
>rt 138.000000
>profile orbitrap
#smiles_iso CC1=C[C@@H]2[C@]([C@@H](C1=O)O)([C@]3(C[C@H]([C@H]([C@@]34CO4)O2)O)C)CO
#smiles_can CC1=CC2C(C(C1=O)O)(C3(CC(C(C34CO4)O2)O)C)CO
#inchikey LINOMUASTDIRTM-QGRHZQQGSA-N
#pubchem_id 40024
#mb_accession AC000110,AC000111,AC000112,AC000113,AC000114

>ms2
69.033500 16779.261719
95.049100 12771.752930
97.064800 11303.950195
103.039000 10345.148438
109.064800 10485.490234
125.059700 36099.574219
135.080400 10244.736328
137.059700 31621.294922
159.080400 16778.937500
159.116800 13079.076172
161.059700 11099.924805
161.096100 11547.762695
163.075400 10650.840820
165.091000 10921.767578
173.096100 16983.048828
175.075400 42286.128906
175.111800 10282.218750
177.091000 24641.548828
185.096100 14178.882812
187.111800 30357.431641
189.091000 38938.367188
191.106700 11581.854492
201.091000 26219.382812
203.106700 118148.945312
205.085900 8947.659180
213.091000 33446.988281
214.916500 14574.506836
215.106700 22843.621094
219.101600 63216.417969
231.101600 109857.265625
232.927400 109094.687500
233.117200 26929.527344
249.112100 208510.578125
250.937900 119228.062500
251.127800 67209.843750
261.112100 71250.031250
267.122700 26178.691406
279.122700 44464.675781
297.133300 229299.984375

>ms2
69.033500 20006.007812
83.049100 10373.832031
95.049100 13721.996094
97.064800 11250.646484
103.039000 5544.263184
109.064800 16475.535156
121.064800 12004.059570
123.044100 13721.893555
125.059700 47837.734375
137.059700 31286.521484
157.101200 9002.969727
159.080400 15239.677734
159.116800 13715.099609
161.059700 11582.708984
161.096100 12275.112305
163.075400 9313.258789
165.091000 11097.676758
169.101200 5658.106445
173.096100 24058.441406
175.075400 48297.589844
175.111800 21663.478516
177.091000 28065.373047
185.096100 27121.919922
187.111800 32227.873047
189.091000 40605.921875
191.106700 9722.170898
197.096100 12982.455078
201.091000 33178.183594
203.106700 126677.250000
205.085900 11921.875000
213.091000 32166.003906
214.917400 14389.748047
215.106700 29359.630859
219.101600 58212.167969
231.101600 116182.242188
232.927200 89138.625000
233.117200 29081.109375
243.101600 11930.871094
249.112100 171270.671875
250.937900 103283.765625
251.127800 73034.359375
261.112100 51137.578125
267.122700 20392.349609
279.122700 47393.621094
297.133300 121042.382812

>ms2
69.033500 31778.005859
79.054200 20370.388672
81.069900 19878.882812
83.049100 13005.751953
84.960100 4602.241211
85.028400 10304.622070
91.054200 5177.119629
93.069900 13787.690430
95.049100 22102.824219
97.064800 29117.058594
103.039000 12193.227539
105.069900 17207.843750
107.049100 14695.019531
107.085500 5404.845703
109.064800 24835.460938
111.044100 6089.329102
113.059700 4168.037598
119.085500 5585.670410
121.064800 27780.187500
123.044100 11973.932617
123.080400 8662.583008
125.059700 63499.386719
127.075400 4955.837891
131.085500 11189.456055
133.064800 13816.451172
133.101200 8592.248047
135.080400 10626.258789
137.059700 46025.324219
142.077700 4242.199219
143.085500 11505.715820
145.064800 5591.132324
145.101200 23263.585938
147.080400 12072.889648
149.059700 10810.310547
149.096100 12968.020508
151.039000 4885.093262
151.075400 5046.136230
153.054600 5977.546875
155.070300 4235.875000
157.101200 26796.632812
159.080400 36037.457031
159.116800 21217.830078
161.059700 26726.064453
161.096100 29788.716797
163.075400 14525.047852
165.091000 12279.044922
169.101200 12192.750977
173.096100 38904.136719
175.075400 52969.363281
175.111800 32172.158203
176.938000 5111.149414
177.091000 31661.763672
185.096100 29294.656250
187.075400 9580.732422
187.111800 29048.236328
189.091000 55506.523438
191.106700 14847.001953
197.096100 9327.958008
201.091000 35048.503906
203.106700 117532.703125
204.932600 19364.306641
205.085900 5863.372559
213.091000 30837.765625
214.917100 10854.651367
215.106700 17878.724609
219.101600 29487.404297
222.943400 17223.884766
231.101600 77548.445312
231.122700 4046.075439
232.927200 78064.617188
233.117200 12649.133789
249.112100 58158.738281
250.937900 94337.031250
251.127800 26685.291016
261.112100 21728.992188
279.122700 11554.295898
297.133300 4983.117676

>ms2
55.018500 9714.398438
55.054900 5738.682129
57.034100 3093.038086
67.054200 10252.801758
69.033500 37330.460938
69.070600 3902.717041
71.049100 4333.032715
79.054200 29594.111328
81.069900 18512.193359
83.049100 15728.459961
84.960000 15931.855469
85.028400 14510.975586
89.059700 4292.586914
91.054200 14921.165039
93.069900 17080.597656
95.049100 30963.601562
97.064800 36384.636719
99.044100 3402.896484
102.970300 4296.668457
103.039000 5621.403320
105.069900 27952.216797
107.049100 19711.861328
107.085500 11168.471680
109.028400 10183.537109
109.064800 30867.453125
117.069900 12533.995117
119.049100 3043.035400
119.085500 15344.794922
121.064800 30425.396484
123.044100 23807.076172
123.080400 10467.639648
125.059700 67405.632812
127.075400 5941.248535
128.062100 2951.188965
129.069900 4581.655762
131.085500 24280.164062
133.064800 23474.873047
133.101200 5572.957031
135.044100 4459.489746
135.080400 15355.455078
137.059700 42747.523438
141.069900 3149.175781
142.077700 12168.257812
143.085500 13484.876953
145.064800 14248.741211
145.101200 18536.822266
146.072600 2965.447754
147.080400 24897.802734
147.116800 5218.077148
149.059700 16247.890625
149.096100 14401.092773
151.039000 3505.538574
151.075400 3870.462158
153.054600 3166.760010
154.077700 4498.579590
155.085500 5013.526855
157.101200 22852.332031
158.072600 9964.984375
158.926700 3062.000488
159.080400 39767.902344
159.116800 22027.384766
161.059700 41244.527344
161.096100 34480.894531
163.075400 18065.363281
165.091000 14522.787109
167.085500 3069.975098
169.101200 12223.684570
171.080400 5779.023438
172.088300 10036.763672
173.096100 34298.117188
174.067500 10196.291992
175.075400 71893.343750
175.111800 40321.199219
176.938000 14020.790039
177.091000 34944.351562
185.096100 36525.656250
186.922500 3177.902832
187.075400 10341.048828
187.111800 23850.009766
188.083200 12136.175781
189.091000 46386.750000
191.106700 5876.477051
194.948600 5003.636719
195.080400 4064.108398
197.096100 11879.576172
198.067500 12298.356445
201.091000 35915.121094
203.070300 4430.386719
203.106700 85812.804688
203.123700 4639.567871
204.932800 32791.105469
205.085900 9329.352539
213.091000 26909.160156
214.917800 5677.458984
215.106700 11659.760742
219.101600 20835.437500
222.942800 24265.759766
231.101600 56901.414062
232.927600 65637.789062
233.117200 10133.411133
249.112100 27471.121094
250.937900 65909.718750
251.127800 5611.822266
261.112100 12673.299805
267.122700 3835.040771
279.122700 7920.896973
297.133300 2996.941406

>ms2
55.018600 14357.436523
55.054900 11364.471680
57.034200 5241.548828
65.038600 3729.055664
67.054200 28890.994141
69.033500 41049.042969
69.070600 2940.107910
71.049100 4798.919922
75.822600 2418.904785
77.038600 2472.097168
79.054200 60779.812500
81.033500 3236.693359
81.069900 32742.322266
83.049100 16135.045898
84.960100 63173.574219
85.028400 14789.654297
91.054200 48909.300781
93.069900 29105.458984
95.049100 41924.472656
95.085500 2836.140381
97.028400 3173.412842
97.064800 40049.113281
102.970400 18519.376953
103.039000 11823.327148
103.054200 2963.396729
105.045000 3509.188232
105.069900 50392.074219
107.049100 25667.052734
107.085500 14300.674805
109.028400 3268.812256
109.064800 38076.914062
109.101200 2508.849121
111.044100 5642.577637
113.059700 3255.417480
115.054200 10478.271484
117.069900 20853.265625
119.049100 4033.011719
119.085500 23595.613281
120.981200 3181.804932
121.064800 52525.367188
121.101200 4434.950195
123.044100 20532.421875
123.080400 5761.975098
124.051900 2745.683350
125.059700 40026.019531
128.062100 20955.919922
129.069900 32106.041016
130.077700 3098.933350
131.085500 31542.384766
133.064800 20796.052734
133.101200 15603.539062
135.044100 5207.760254
135.080400 23430.949219
137.059700 43228.195312
141.069900 17101.447266
142.077700 32443.224609
143.085500 19918.123047
144.093400 3655.915527
145.064800 23680.845703
145.101200 31850.689453
146.072600 10975.167969
147.080400 26729.390625
147.116800 3551.999023
149.059700 5422.457520
149.096100 15913.842773
151.039000 5507.888184
153.069900 4348.881836
154.077700 11228.198242
155.085500 10365.670898
156.093400 3863.866211
157.064800 10645.954102
157.101200 31209.603516
158.072600 19896.779297
158.927500 19771.025391
159.080400 41365.105469
159.116800 4615.494629
160.088300 11363.736328
161.059700 42139.652344
161.096100 30126.310547
162.067500 11338.280273
163.075400 11383.985352
167.085500 4863.291504
169.101200 5448.237793
170.072600 3489.041016
171.080400 5152.225586
172.088300 13807.085938
173.059700 4113.937012
173.096100 27073.767578
174.067500 19037.427734
175.075400 75161.890625
175.111800 15881.895508
176.937700 58996.445312
177.091000 12415.506836
181.064800 3173.784424
182.072600 4729.642578
185.096100 16492.298828
187.075400 5285.574707
187.111800 4403.121094
188.083200 11923.198242
189.091000 17500.261719
194.948400 36542.019531
198.067500 5262.387695
201.091000 14209.262695
203.070300 5157.290527
203.106700 14684.021484
204.932600 23151.777344
213.091000 9839.451172
219.203400 2953.314697
222.943100 14347.016602
231.101600 15841.099609
232.927300 5384.433105
250.938700 5492.982910

