>compound AC22288944
>parentmass 425.2164000000001
>ionization [M+H]+
>formula C22H32O8
>rt 188.400000
>profile orbitrap
#smiles_iso CC1=C[C@@H]2[C@](C[C@@H]1OC(=O)CC(C)C)([C@]3([C@@H]([C@H]([C@H]([C@@]34CO4)O2)O)O)C)COC(=O)C
#smiles_can CC1=CC2C(CC1OC(=O)CC(C)C)(C3(C(C(C(C34CO4)O2)O)O)C)COC(=O)C
#inchikey PNKLMTPXERFKEN-MLXHEQMXSA-N
#pubchem_id 10093830
#mb_accession AC000150,AC000151,AC000152,AC000153,AC000154

>ms2
57.070600 345770.718750
85.064800 1541854.125000
105.069900 968911.375000
121.064800 1304455.250000
125.059700 360848.375000
143.085500 236932.531250
145.101200 303434.750000
157.101200 625846.437500
159.080400 351183.250000
159.116800 237139.500000
161.096100 437161.375000
169.101200 234943.671875
171.116800 504060.125000
173.096100 610798.250000
175.111800 550770.500000
177.091000 248718.859375
181.101200 333184.031250
185.096100 632514.250000
187.111800 596695.812500
189.127400 249025.625000
197.096100 715279.437500
199.111800 1492838.750000
203.106700 750314.437500
205.122300 262283.062500
209.096100 253578.156250
215.106700 1773280.625000
217.122300 1161329.625000
227.106700 2225505.000000
233.117200 683205.062500
235.132900 244934.734375
245.117200 4056771.000000
263.127800 4541313.000000
281.138400 1116843.625000
287.127800 543095.187500
305.138400 996717.250000
323.148900 1140216.375000
329.174700 331980.250000
347.185300 582744.062500
365.195900 559545.062500
407.206400 1020418.187500
425.217000 7330563.000000

>ms2
57.070500 988926.062500
71.012800 105500.523438
85.064800 3227902.250000
93.069900 354603.656250
95.049100 369394.750000
95.085500 104275.156250
97.064800 234264.734375
105.069900 1385884.875000
107.049100 172694.875000
109.064800 317380.843750
119.085500 245225.078125
121.064800 1968983.625000
123.044100 145663.125000
123.080400 199137.437500
125.059700 387811.625000
131.085500 268832.468750
133.064800 141215.250000
133.101200 193861.703125
135.080400 121799.789062
137.059700 200998.781250
141.054600 108606.546875
143.085500 464182.343750
145.064800 124657.140625
145.101200 535896.875000
147.080400 220299.718750
147.116800 164077.437500
149.096100 137959.609375
155.085500 144292.343750
157.101200 1111629.250000
159.080400 505741.125000
159.116800 501307.625000
161.096100 592201.250000
163.075400 193351.125000
169.101200 439818.125000
171.080400 229540.109375
171.116800 817104.562500
173.096100 1021778.937500
175.075400 136274.734375
175.111800 926695.500000
177.091000 277978.562500
181.101200 561041.812500
185.096100 859371.625000
186.103900 209055.031250
187.111800 847590.000000
189.091000 175360.375000
189.127400 403647.031250
191.106700 122457.101562
197.096100 840050.125000
199.111800 1948575.125000
201.091000 189612.218750
203.106700 844024.750000
204.114500 106127.726562
205.122300 321657.750000
209.096100 412311.000000
215.106700 1500104.250000
217.122300 1217146.875000
221.117200 134063.156250
227.106700 1804085.875000
233.117200 644097.625000
235.132900 299710.343750
245.117200 3178761.750000
263.127800 3187532.250000
281.138400 676666.625000
287.127800 246136.515625
305.138400 492594.187500
323.148900 403085.218750
329.174700 147730.703125
347.185300 208519.265625
365.195900 163709.359375
407.206400 371034.437500
425.217000 693079.375000

>ms2
57.070500 1995321.750000
69.033500 157339.890625
71.012800 187392.375000
79.054200 190590.750000
81.069900 166078.890625
83.049100 182032.421875
85.028400 116308.062500
85.064800 3259997.000000
91.054200 186324.968750
93.069900 551323.375000
95.049100 618157.937500
95.085500 152882.031250
97.064800 365282.312500
105.069900 2124704.500000
107.049100 252007.140625
107.085500 162320.406250
109.064800 467931.656250
111.044100 118354.109375
117.069900 150796.953125
119.049100 162030.562500
119.085500 499828.500000
121.064800 2610632.000000
123.044100 247595.875000
123.080400 244208.468750
125.059700 451266.000000
129.069900 251635.671875
131.085500 573511.312500
133.064800 231368.531250
133.101200 368469.250000
135.080400 243855.843750
137.059700 240501.750000
141.054600 111649.484375
141.069900 131343.671875
142.077700 213805.593750
143.085500 1106745.875000
145.064800 264491.406250
145.101200 998349.375000
147.080400 392393.093750
147.116800 329507.093750
149.059700 162795.500000
149.096100 165088.843750
155.085500 229504.406250
156.093400 344699.125000
157.101200 1650666.000000
158.072600 152654.265625
159.080400 682390.187500
159.116800 791441.375000
161.096100 694477.187500
161.132500 139160.640625
163.075400 197307.546875
166.077700 236512.406250
167.085500 119976.085938
169.101200 666793.312500
171.080400 354331.687500
171.116800 1094966.500000
172.088300 107925.390625
173.096100 1148603.750000
175.075400 164018.515625
175.111800 1105693.000000
177.091000 328682.968750
179.085500 120109.054688
181.101200 715267.875000
184.088300 195337.171875
185.096100 990497.500000
186.103900 162225.062500
187.111800 809204.250000
189.091000 212027.312500
189.127400 450334.406250
191.106700 155208.734375
197.096100 822987.000000
199.111800 1796520.000000
201.091000 175541.921875
203.106700 678279.562500
204.114500 156994.109375
205.122300 199224.968750
209.096100 446509.281250
212.083200 131827.906250
215.106700 939390.687500
217.122300 1006562.312500
227.106700 1138602.500000
233.117200 307297.156250
235.132900 176150.671875
245.117200 1429883.625000
263.127800 1192043.125000
281.138400 222084.984375
305.138400 109965.375000

>ms2
57.070500 1943392.875000
67.054200 133904.359375
69.033500 164080.500000
71.012800 173321.343750
79.054200 214572.406250
81.069900 175669.484375
83.049100 177455.828125
85.028400 110616.039062
85.064800 2142954.250000
90.976900 115775.515625
91.054200 239361.171875
93.069900 641294.062500
95.049100 570349.937500
95.085500 117761.164062
97.064800 343835.968750
105.069900 2092165.125000
107.049100 252642.515625
107.085500 157185.375000
109.064800 451506.718750
111.044100 107253.093750
113.059700 80221.671875
117.069900 178723.203125
119.049100 134742.656250
119.085500 501762.937500
121.064800 2335704.000000
123.044100 204197.234375
123.080400 214489.765625
125.059700 271816.656250
128.062100 113648.156250
129.069900 320337.312500
131.085500 642300.625000
133.064800 275122.156250
133.101200 394455.375000
135.080400 181906.906250
137.059700 227177.703125
139.075400 83819.281250
141.069900 118607.921875
142.077700 375852.843750
143.085500 1103463.875000
145.064800 286369.187500
145.101200 970260.687500
147.080400 391497.031250
147.116800 339165.187500
149.059700 139845.718750
149.096100 156977.265625
154.077700 113047.453125
155.085500 275600.750000
156.093400 428149.687500
157.064800 81703.539062
157.101200 1440311.750000
158.072600 140386.484375
159.080400 617491.625000
159.116800 764856.500000
161.059700 96100.875000
161.096100 594549.187500
161.132500 119824.578125
163.075400 181654.765625
165.069900 100015.687500
166.077700 255113.031250
167.085500 127070.765625
169.101200 666450.062500
171.080400 335234.000000
171.116800 846610.562500
172.088300 149267.546875
173.096100 1040046.375000
175.075400 142887.140625
175.111800 901264.937500
177.091000 246737.328125
179.085500 126193.117188
181.101200 575180.937500
182.072600 133917.765625
183.080400 86055.664062
184.088300 245843.203125
185.096100 731711.625000
186.103900 119676.054688
187.111800 636348.437500
189.091000 161021.828125
189.127400 287953.312500
191.106700 146866.125000
197.096100 641640.750000
199.111800 1319620.375000
201.091000 144977.750000
203.106700 440469.437500
204.114500 142208.921875
205.122300 133802.656250
209.096100 297576.343750
212.083200 121935.765625
215.106700 551813.500000
217.122300 584106.312500
227.106700 528615.625000
233.117200 156396.765625
235.132900 104503.687500
245.117200 728267.000000
263.127800 589939.125000
281.138400 93990.171875

>ms2
57.070500 2138333.750000
67.054200 250652.390625
69.033500 192113.156250
71.012800 171557.984375
79.054200 401216.562500
81.069900 257128.140625
83.049100 178862.171875
85.028400 80814.484375
85.064800 677890.937500
91.054200 621605.687500
93.069900 710866.750000
95.049100 671064.500000
95.085500 139405.765625
97.064800 281117.281250
103.054200 130231.804688
105.069900 2448079.500000
107.049100 212471.328125
107.085500 203823.578125
109.064800 396924.531250
111.044100 78551.687500
115.054200 143967.265625
117.069900 366324.718750
119.049100 136522.484375
119.085500 753519.062500
121.064800 1904452.250000
121.101200 81901.242188
123.044100 134375.171875
123.080400 162963.109375
125.059700 158184.171875
128.062100 450621.875000
129.069900 600857.750000
130.077700 186318.265625
131.085500 755855.062500
133.064800 248796.562500
133.101200 386222.031250
135.080400 166684.890625
137.059700 119717.429688
141.069900 350159.718750
142.077700 894531.687500
143.085500 1026856.937500
144.093400 148131.093750
145.064800 268576.093750
145.101200 907523.250000
147.080400 318047.031250
147.116800 256429.593750
149.059700 97315.687500
149.096100 103523.992188
153.069900 158334.875000
154.077700 321379.062500
155.085500 328610.031250
156.093400 610652.375000
157.064800 108139.476562
157.101200 931336.500000
158.072600 255498.265625
159.080400 442495.093750
159.116800 392769.000000
160.088300 113796.656250
161.096100 329223.656250
165.069900 266924.937500
166.077700 352926.843750
167.085500 95848.765625
169.101200 459986.062500
171.080400 209361.093750
171.116800 391094.843750
172.088300 205279.703125
173.096100 465740.843750
175.111800 380236.093750
177.091000 85047.617188
179.085500 129323.500000
181.101200 216061.390625
182.072600 191993.125000
184.088300 223278.843750
185.096100 320941.531250
187.111800 191962.500000
189.091000 105171.953125
189.127400 94853.851562
197.096100 195819.859375
199.111800 323388.156250
203.106700 104359.367188
209.096100 115351.234375
217.122300 90668.093750
245.117200 86246.406250

