>compound AC22532876
>parentmass 529.2692
>ionization [M+H]+
>formula C32H36N2O5
>rt 229.200000
>profile orbitrap
#smiles_iso C[C@H]/1C/C=C\[C@H]2[C@H]3[C@](O3)([C@H]([C@@H]4[C@@]2(C(=O)CCC(=O)C(=O)/C(=C1)/C)C(=O)N[C@H]4CC5=CNC6=CC=CC=C65)C)C
#smiles_can CC1CC=CC2C3C(O3)(C(C4C2(C(=O)CCC(=O)C(=O)C(=C1)C)C(=O)NC4CC5=CNC6=CC=CC=C65)C)C
#inchikey RIZAHVBYKWUPHQ-MASOQXDXSA-N
#pubchem_id 102093917
#mb_accession AC000090,AC000091,AC000092,AC000093,AC000094

>ms2peaks
511.259100 29474.789062
529.269700 743203.312500

>ms2peaks
130.065100 132788.781250
132.080800 18240.388672
185.070900 7380.358887
245.117200 18453.955078
310.143800 15578.691406
328.154300 31551.587891
331.177800 5013.380371
333.193500 5456.583984
382.201300 21741.792969
400.211900 27037.945312
493.248600 5836.291016
511.259100 28920.822266
529.269700 109933.445312

>ms2peaks
130.065100 251941.187500
132.080800 18428.128906
185.070900 13858.740234
245.117200 13660.595703

>ms2peaks
130.065100 228480.296875
132.080800 16979.560547
139.075400 7639.364746
185.070900 13502.239258

>ms2peaks
130.065100 208717.578125
132.080800 12185.210938

