>compound AC23877897
>parentmass 405.1514
>ionization [M+Na]+
>formula C19H26O8
>rt 170.400000
>profile orbitrap
#smiles_iso CC1=C[C@@H]2[C@](C[C@@H]1O)([C@]3([C@@H]([C@H]([C@H]([C@@]34CO4)O2)O)OC(=O)C)C)COC(=O)C
#smiles_can CC1=CC2C(CC1O)(C3(C(C(C(C34CO4)O2)O)OC(=O)C)C)COC(=O)C
#inchikey TVZHDVCTOCZDNE-WVJYZQHISA-N
#pubchem_id 13818797
#mb_accession AC000199,AC000200,AC000201,AC000202,AC000203

>ms2peaks
405.152000 109654840.000000

>ms2peaks
405.152000 96420456.000000

>ms2peaks
345.130900 1757457.500000
405.152000 32921246.000000

>ms2peaks
345.130900 716112.687500
405.152000 9991105.000000

>ms2peaks
50.837700 9559.623047
55.976500 9015.479492
59.550800 8542.230469
67.054200 14901.252930
79.054200 21097.859375
81.069900 15720.692383
83.010300 23248.822266
83.049100 13112.534180
83.125100 9456.237305
91.054200 20768.582031
93.069900 22918.613281
95.049100 48947.671875
97.064800 10653.709961
102.286300 11133.567383
105.069900 126670.382812
107.085500 25815.724609
109.064800 13928.390625
111.044100 13832.876953
117.069900 13458.690430
119.085500 57923.523438
121.064800 20107.263672
123.080400 16235.730469
129.067500 18070.541016
129.563500 13843.886719
131.085500 21123.769531
135.080400 56693.570312
143.085500 17115.007812
147.080400 17534.730469
156.093400 14205.083008
157.098800 11267.088867
158.072600 10062.834961
159.080400 13113.718750
159.116800 12091.414062
163.075400 11782.175781
172.088300 16238.323242
176.599800 11504.924805
184.088300 10871.478516
362.944900 11533.587891
397.539400 11359.831055
405.152000 100573.835938

