>compound AC24669996
>parentmass 337.1541
>ionization [M+H]+
>formula C20H20N2O3
>rt 232.200000
>profile orbitrap
#smiles_iso CC(=O)C1=C([C@@H]2[C@@H]3[C@@H](CC4=C5C3=CNC5=CC=C4)C(N2C1=O)(C)C)O
#smiles_can CC(=O)C1=C(C2C3C(CC4=C5C3=CNC5=CC=C4)C(N2C1=O)(C)C)O
#inchikey SZINUGQCTHLQAZ-DQYPLSBCSA-N
#pubchem_id 54682463
#mb_accession AC000050,AC000051,AC000052,AC000053,AC000054

>ms2
182.081200 4674217.000000
196.112100 4425348.000000
337.154700 21785334.000000

>ms2
182.081200 16654153.000000
196.112100 15849018.000000
337.154700 19969222.000000

>ms2
98.060000 2054710.625000
140.070600 1358445.125000
182.081200 33752428.000000
196.112100 41006072.000000
337.154700 3998962.000000

>ms2
98.060000 5122927.000000
140.070600 3981207.000000
182.081200 45358220.000000
196.112100 66150684.000000

>ms2
70.065100 3885586.750000
98.060000 11351392.000000
125.023300 3774716.750000
136.075700 2254034.000000
140.070600 11552796.000000
143.033300 3159451.750000
154.065100 3555760.000000
164.070600 2135041.000000
167.073000 3808551.000000
168.080800 2515146.000000
181.088600 4753244.000000
182.081200 15830305.000000
196.112100 56967236.000000

