>compound AC25958538
>parentmass 377.0861
>ionization [M+H]+
>formula C18H16O9
>rt 196.800000
>profile orbitrap
#smiles_iso CC12CC3=C(C(O1)CC(O2)C(=O)O)C(=C4C(=O)C=C(C(=O)C4=C3O)OC)O
#smiles_can CC12CC3=C(C(O1)CC(O2)C(=O)O)C(=C4C(=O)C=C(C(=O)C4=C3O)OC)O
#inchikey HNMWDXUKPJZOQD-UHFFFAOYSA-N
#pubchem_id 3084307
#mb_accession AC000535,AC000536,AC000537,AC000538,AC000539

>ms2
287.055000 119419.875000
302.078500 127426.656250
303.086300 333974.062500
313.070700 112799.953125
331.081200 167255.218750
359.076100 524495.875000
377.086700 3385788.000000

>ms2
245.044400 182550.953125
271.060100 175094.421875
285.075700 238103.562500
287.055000 263463.406250
289.070700 65726.179688
299.055000 69340.570312
302.078500 308001.718750
303.086300 260750.015625
313.070700 477520.312500
315.086300 116432.718750
317.065600 229712.093750
331.081200 466378.156250
341.065600 372777.687500
359.076100 918770.687500
377.086700 2017407.375000

>ms2
245.044400 206961.250000
253.049500 93429.140625
259.060100 154124.812500
261.075700 47796.984375
271.060100 476507.281250
285.075700 308933.406250
287.055000 359447.187500
288.062800 42459.714844
289.070700 171680.265625
295.060100 46426.363281
299.055000 167486.515625
302.078500 359935.843750
303.086300 35970.664062
313.070700 973521.375000
315.086300 119141.132812
317.065600 247133.937500
331.081200 503203.562500
335.076100 48741.687500
341.065600 423961.718750
359.076100 526248.312500
377.086700 229361.875000

>ms2
94.289800 23024.185547
123.960000 24859.234375
211.039000 25272.863281
227.070300 29160.429688
229.049500 37641.800781
233.294700 23701.611328
243.065200 108236.078125
245.044400 168568.156250
253.049500 168442.265625
255.065200 27696.583984
257.044400 43315.261719
257.080800 27279.679688
259.060100 303567.750000
261.075700 112884.406250
270.052300 37248.816406
271.060100 678706.500000
273.075700 25999.406250
285.075700 330736.812500
287.055000 475317.562500
288.062800 137509.062500
289.070700 212888.609375
295.060100 54385.398438
298.047200 108191.492188
299.055000 223344.968750
301.034300 40260.640625
301.525800 25509.769531
302.078500 329466.750000
313.070700 703680.687500
315.086300 29737.322266
316.057700 52165.960938
317.065600 48830.273438
331.081200 56908.324219
341.065600 143786.718750
359.076100 32593.732422

>ms2
50.074400 17213.443359
61.412800 16047.737305
69.479300 19374.675781
83.562700 15978.007812
94.732600 16877.167969
94.739200 16877.546875
167.033900 31159.613281
169.064800 32874.812500
183.044100 29324.460938
185.059700 26561.369141
187.039000 22565.599609
189.056700 20608.539062
191.336900 23004.417969
197.059700 69349.687500
199.039000 28156.238281
211.039000 86201.671875
215.070300 30116.738281
216.041700 27175.832031
217.049500 37424.917969
219.065200 22272.607422
225.054600 100577.625000
227.033900 27900.091797
228.041700 168327.984375
229.049500 121224.765625
231.065200 82122.734375
239.033900 35365.578125
241.049500 44849.792969
242.057400 97205.421875
243.065200 181291.796875
244.036600 81738.781250
245.044400 135226.984375
253.049500 116044.054688
255.028800 27157.984375
256.036600 111964.179688
257.044400 45363.582031
257.080800 26971.228516
259.060100 332494.625000
261.075700 26361.484375
269.044400 36481.250000
270.052300 231484.484375
271.060100 360679.937500
273.039300 119808.757812
284.071800 21782.861328
285.075700 140013.093750
287.055000 378562.718750
288.065800 38082.457031
289.070700 34948.750000
295.060100 36148.628906
298.047200 218084.203125
299.055000 168955.015625
302.078500 41463.984375
313.070700 175057.828125

