>compound AC25010572
>parentmass 728.3822
>ionization [M+Na]+
>formula C34H59NO14
>rt 172.800000
>profile orbitrap
#smiles_iso CCCC[C@@H](C)[C@H]([C@H](C[C@@H](C)CCCCCC[C@H](C[C@@H]([C@H](C)N)O)O)OC(=O)C[C@@H](CC(=O)O)C(=O)O)OC(=O)C[C@@H](CC(=O)O)C(=O)O
#smiles_can CCCCC(C)C(C(CC(C)CCCCCCC(CC(C(C)N)O)O)OC(=O)CC(CC(=O)O)C(=O)O)OC(=O)CC(CC(=O)O)C(=O)O
#inchikey UXDPXZQHTDAXOZ-STOIETHLSA-N
#pubchem_id 2733489
#mb_accession AC000485,AC000486,AC000487,AC000488

>ms2
728.382800 16313861.000000

>ms2
376.315900 453587.343750
552.348000 1344281.875000
728.382800 10303401.000000

>ms2
199.021300 514084.093750
296.219300 109232.226562
376.315900 3106779.500000
394.328900 1729295.000000
534.337500 112810.015625
552.348000 2547263.750000
570.358600 130379.070312
728.382800 861253.125000

>ms2
199.021300 498301.031250
296.219300 112225.867188
318.315600 123703.195312
336.323700 100131.335938
376.315900 1629807.125000
394.328900 1303944.500000
462.355100 56284.238281
534.334000 71706.734375
552.348000 593773.250000

