>compound AC26614941
>parentmass 392.2076
>ionization [M+H]+
>formula C22H25N5O2
>rt 155.400000
>profile orbitrap
#smiles_iso CC(C)(C=C)C12CC3C(=O)NC(C(=O)N3C1NC4=CC=CC=C24)CC5=CN=CN5
#smiles_can CC(C)(C=C)C12CC3C(=O)NC(C(=O)N3C1NC4=CC=CC=C24)CC5=CN=CN5
#inchikey IQVNREJWRXOHEO-UHFFFAOYSA-N
#pubchem_id 15386782
#mb_accession AC000806,AC000807,AC000808,AC000809,AC000810

>ms2peaks
324.145500 3333745.000000
392.208100 7127425.000000

>ms2peaks
195.087600 842141.437500
198.127700 542028.375000
324.145500 6262369.500000
336.145500 531399.187500
392.208100 3666461.000000

>ms2peaks
69.070700 196261.671875
110.071300 304115.718750
130.065100 352333.875000
159.091700 300662.781250
166.061100 171823.125000
167.092700 283098.812500
195.087600 2397961.000000
198.127700 1263804.375000
224.118200 364904.343750
296.150600 171539.468750
307.118900 157790.218750
324.145500 4237491.000000
336.145500 439710.187500
392.208100 387808.593750

>ms2peaks
69.070700 304110.343750
83.060400 80029.429688
110.071300 759919.437500
122.071300 331409.593750
130.065100 1075400.500000
150.066200 263890.937500
156.080800 126924.851562
159.091700 489492.125000
165.077100 111163.171875
166.061100 206567.546875
167.092700 718462.687500
169.076000 82204.078125
170.060000 258603.078125
178.061100 231222.468750
183.104300 79332.390625
193.072000 123628.500000
195.087600 2155554.500000
198.127700 1243263.875000
224.118200 468006.250000
296.150600 79977.757812
307.118900 85860.421875
324.145500 800422.812500
336.145500 83177.921875

>ms2peaks
69.070700 401846.843750
81.044700 98732.078125
82.052500 179170.093750
83.060400 160119.921875
95.060400 132639.703125
108.055600 121343.242188
110.071300 1569006.125000
122.071300 1084288.750000
130.065100 2065939.125000
132.080800 125398.109375
134.071300 70017.734375
136.050500 73858.250000
142.065100 141698.796875
144.080800 74323.203125
150.066200 326553.906250
156.080800 167360.765625
159.091700 395615.593750
165.077100 106175.289062
166.061100 78128.179688
167.092700 530488.875000
168.080800 121522.664062
169.076000 94460.039062
169.088600 102761.742188
170.060000 307833.875000
171.091700 68348.140625
178.061100 191909.656250
182.096400 83856.156250
183.104300 210224.140625
193.072000 67994.203125
195.087600 479514.593750
196.112100 66371.070312
198.127700 728044.062500
224.118200 213324.140625
234.102600 67674.742188

