>compound AC27664613
>parentmass 567.2195
>ionization [M+Na]+
>formula C29H36O10
>rt 190.800000
>profile orbitrap
#smiles_iso CC1=CC2C3(CC1)COC(=O)C4C5(O4)CCOC(C5O)(/C=C/C=C\C(=O)OC6C3(C7(CO7)C(C6)O2)C)C(C)O
#smiles_can CC1=CC2C3(CC1)COC(=O)C4C5(O4)CCOC(C5O)(C=CC=CC(=O)OC6C3(C7(CO7)C(C6)O2)C)C(C)O
#inchikey GTONGKBINDTWOM-QXMOYCCXSA-N
#pubchem_id 6437354
#mb_accession AC000597,AC000598,AC000599,AC000600

>ms2
567.220100 12908081.000000

>ms2
219.062800 144847.640625
231.138000 545739.125000
263.089000 546204.750000
275.055000 78896.960938
293.099600 76297.234375
337.089400 107269.398438
493.222100 141388.937500
523.196300 454048.000000
567.220100 1940222.500000

>ms2
67.055100 11914.750000
69.034500 10664.296875
79.055300 28531.490234
81.070800 58553.179688
91.055200 13053.825195
93.069900 46752.421875
95.050200 57895.695312
95.086500 42866.093750
105.069900 64905.500000
107.085500 32876.398438
109.064800 11075.619141
117.069900 12059.644531
119.085500 73814.664062
121.064800 42989.855469
121.101200 13840.889648
123.080400 11311.655273
131.085500 37322.414062
133.101200 29690.164062
135.080400 12280.888672
143.085500 50736.960938
145.101200 24259.384766
147.080400 40111.378906
147.116800 28205.902344
149.096100 26880.419922
157.101200 29205.439453
159.116800 67420.460938
161.096100 27274.257812
161.132500 13516.936523
167.031500 11518.204102
175.148100 31494.894531
185.132500 34526.210938
187.111800 11096.241211
189.127400 10878.153320
193.047100 26456.533203
203.143100 37866.996094
219.062800 71199.171875
231.138000 291286.281250
245.078400 11031.250000
249.073300 12937.027344
253.122300 21371.708984
263.089000 196928.203125
271.130500 9624.296875
275.052600 79573.218750
293.063200 25542.896484
293.099600 12573.880859
319.078800 22744.697266
523.196300 79211.593750
567.220100 53374.027344

>ms2
58.263600 3886.318848
64.241100 4212.402832
65.039300 5389.736816
67.055300 30244.599609
69.034600 11064.332031
71.608400 4520.255371
79.055200 32964.082031
81.071000 43914.601562
91.054200 40153.312500
93.069900 57847.644531
95.049100 63762.144531
95.085500 20218.492188
105.069900 78602.414062
107.049100 6520.022949
107.085500 23011.017578
109.064800 5824.350098
115.054200 5656.018066
117.069900 12207.333008
119.085500 64694.855469
121.064800 11668.538086
123.080400 8015.294922
128.062100 8923.276367
129.069900 11688.766602
131.085500 24066.021484
133.064800 8041.697266
133.101200 21493.732422
135.080400 11554.200195
136.015500 5033.682129
142.077700 6761.339355
143.085500 32863.421875
145.101200 8478.795898
147.080400 19699.701172
149.096100 8950.094727
157.101200 8001.495605
159.078000 5409.955566
159.116800 28523.152344
171.116800 6886.628906
231.138000 10418.631836
273.018200 4833.833496
326.063200 6072.752930
353.093700 6414.007812
382.784100 5570.202148

