>compound AC28805052
>parentmass 489.20889999999997
>ionization [M+Na]+
>formula C24H34O9
>rt 213.600000
>profile orbitrap
#smiles_iso CC1=C[C@@H]2[C@](C[C@@H]1OC(=O)CC(C)C)([C@]3([C@@H]([C@H]([C@H]([C@@]34CO4)O2)O)OC(=O)C)C)COC(=O)C
#smiles_can CC1=CC2C(CC1OC(=O)CC(C)C)(C3(C(C(C(C34CO4)O2)O)OC(=O)C)C)COC(=O)C
#inchikey BXFOFFBJRFZBQZ-QYWOHJEZSA-N
#pubchem_id 5284461
#mb_accession AC000238,AC000239,AC000240,AC000241,AC000242

>ms2peaks
489.209500 219521568.000000

>ms2peaks
245.117200 18102922.000000
267.099200 6938599.000000
327.120300 23624850.000000
387.141400 34971516.000000
489.209500 157553872.000000

>ms2peaks
143.085500 1354519.000000
157.101200 1433519.125000
171.116800 1503482.125000
199.111800 1782909.875000
215.106700 1366825.750000
245.117200 38080368.000000
267.099200 5318905.000000
327.120300 21033976.000000
387.141400 15159588.000000
489.209500 13784825.000000

>ms2peaks
93.069900 1035480.125000
105.069900 1400049.375000
121.064800 1357036.250000
143.085500 2242336.250000
145.101200 1076339.875000
157.101200 1966541.000000
159.080400 909123.250000
169.101200 978615.437500
171.116800 2341782.250000
173.096100 955281.625000
181.101200 919315.687500
185.096100 1342047.000000
187.111800 1257517.750000
199.111800 2180555.750000
203.106700 925548.437500
215.106700 1425946.500000
227.106700 1020963.625000
245.117200 28116602.000000
267.099200 1897362.000000
327.120300 9030655.000000
387.141400 4208023.500000
489.209500 2067515.500000

>ms2peaks
55.018600 193193.921875
67.054200 529934.187500
69.033500 539791.937500
79.054200 1551743.125000
81.033500 189898.718750
81.069900 903323.000000
83.049100 683173.937500
85.028400 259049.000000
91.054200 1576891.125000
93.069900 2040103.375000
95.049100 1894349.125000
95.085500 214815.156250
97.064800 538685.500000
105.069900 4167040.500000
107.049100 999515.312500
107.085500 404279.437500
109.064800 1144699.500000
111.044100 343651.250000
115.054200 367311.343750
117.069900 991246.625000
119.049100 663601.437500
119.085500 1618164.750000
121.064800 1785591.750000
123.044100 643474.062500
123.080400 205962.843750
125.059700 294221.312500
128.062100 1333652.625000
129.069900 2073615.625000
130.077700 398898.000000
131.085500 1927126.500000
133.064800 822855.062500
133.101200 570274.687500
135.044100 156168.453125
135.080400 464385.843750
137.059700 768376.375000
141.054600 197807.375000
141.069900 985127.125000
142.077700 2216926.000000
143.085500 4686065.500000
144.057000 154570.046875
144.093400 594916.937500
145.064800 791659.125000
145.101200 2147048.000000
146.072600 208998.500000
147.080400 869206.812500
147.116800 294731.625000
149.059700 251818.265625
153.069900 368376.718750
154.077700 805433.062500
155.085500 844094.500000
156.093400 2738019.250000
157.064800 418103.968750
157.101200 2667779.500000
158.072600 973701.500000
158.109000 158952.000000
159.080400 1687206.375000
159.116800 1316381.500000
160.088300 211819.140625
161.059700 183421.125000
161.096100 579073.750000
165.069900 736788.187500
166.077700 1200076.500000
167.085500 326259.937500
168.093400 181330.015625
169.064800 269060.718750
169.101200 1513315.875000
170.072600 231544.343750
171.080400 930317.312500
171.116800 2050637.750000
172.088300 667265.375000
173.096100 1507729.875000
175.075400 153259.000000
175.111800 615228.750000
179.085500 304900.906250
181.101200 1130440.125000
182.072600 472665.343750
183.080400 242414.343750
184.088300 952621.812500
185.096100 1160709.500000
186.103900 534787.250000
187.111800 1114836.500000
189.091000 389854.000000
189.127400 330679.625000
197.096100 735947.750000
199.111800 1433525.625000
201.091000 183711.250000
203.106700 477426.937500
209.096100 404694.250000
212.083200 291601.156250
215.106700 1100765.625000
227.106700 635775.687500
245.117200 4373971.000000
327.120300 176437.734375

