>compound AC28554257
>parentmass 406.1868
>ionization [M+H]+
>formula C22H23N5O3
>rt 159.600000
>profile orbitrap
#smiles_iso CC(C)(C=C)C12CC3C(=O)N/C(=C/C4=CN=CN4)/C(=O)N3C1N(C5=CC=CC=C25)O
#smiles_can CC(C)(C=C)C12CC3C(=O)NC(=CC4=CN=CN4)C(=O)N3C1N(C5=CC=CC=C25)O
#inchikey NNCYWYKIMLRIRQ-OQLLNIDSSA-N
#pubchem_id 91820316
#mb_accession AC000781,AC000782,AC000783,AC000784,AC000785

>ms2peaks
338.124800 19822.582031
388.180900 9094.967773
406.187400 217197.859375

>ms2peaks
184.112100 3831.365967
193.073300 10350.165039
320.115500 12365.712891
321.089700 11043.888672
337.108400 4261.555664
338.124800 58202.390625
388.176800 12801.209961
406.187400 109283.914062

>ms2peaks
63.201600 2491.646973
69.069900 3405.582275
75.792300 2238.407471
76.767200 2464.017578
108.055600 2882.990479
129.572700 2322.836182
130.065100 2941.618408
146.060000 2852.549072
162.029800 5410.260742
184.112100 5939.485840
192.065500 5911.036133
193.072000 39100.511719
198.127700 3227.060303
205.073300 3549.257324
214.122600 4281.452148
244.861700 2427.531250
245.160800 2668.760742
272.199600 2407.582031
293.103300 3827.624512
310.131200 2751.885742
320.115500 23209.226562
321.098200 17799.972656
332.115500 3438.504639
338.124800 64932.289062
350.124800 4681.692383
388.176800 9861.967773
406.187400 15400.647461

>ms2peaks
58.577800 1983.279663
69.070700 4112.996582
79.425900 2222.275879
84.385900 2181.462646
108.055600 4484.962402
110.071300 2581.601318
130.065100 5425.429688
136.050500 3989.850830
162.029800 14407.872070
168.128800 2671.370117
175.061400 2498.486572
184.112100 4958.228027
185.070900 2710.432617
191.056300 2539.857422
192.064200 5673.417969
193.072000 42421.031250
198.127700 5524.363770
207.051200 5292.972168
214.122600 3660.403076
280.930500 2933.713867
320.114200 11800.082031
321.098200 3213.664795
338.124800 11782.697266

>ms2peaks
55.323400 2035.401489
66.675500 2518.133301
69.045600 3318.060059
69.070700 4004.887695
76.517100 2334.706055
81.044700 9268.330078
96.487700 3062.960693
106.040000 15759.692383
108.055600 32595.115234
109.063400 2418.897217
112.787600 2120.744141
130.065100 23586.818359
132.255800 2710.248291
136.050500 4286.978027
143.172300 2813.886963
146.060000 5599.187988
162.029800 11290.594727
163.061400 3569.065186
165.077100 5606.696777
169.076000 3165.732178
192.064200 10882.460938
193.072000 26000.410156
207.051200 4035.481689
281.238300 3047.828613
288.337600 2606.664062

