>compound AC30031415
>parentmass 365.1589
>ionization [M-H2O+H]+
>formula C19H26O8
>rt 174.000000
>profile orbitrap
#smiles_iso CC1=CC2C(C(C1O)O)(C3(CC(C(C34CO4)O2)OC(=O)C)C)COC(=O)C
#smiles_can CC1=CC2C(C(C1O)O)(C3(CC(C(C34CO4)O2)OC(=O)C)C)COC(=O)C
#inchikey JSKXQQKSUOVSKS-UHFFFAOYSA-N
#pubchem_id 557474
#mb_accession AC000402,AC000403,AC000404,AC000405,AC000406

>ms2peaks
365.159500 9192898.000000

>ms2peaks
109.064800 428840.281250
127.075400 207256.171875
137.059700 259294.265625
171.116800 182990.953125
187.111800 681922.000000
199.111800 406466.062500
215.106700 204429.734375
217.122300 297266.312500
227.106700 233812.890625
245.117200 362666.906250
263.127800 238232.625000
305.138400 193268.906250
365.159500 5484277.500000

>ms2peaks
63.192900 38720.355469
65.299700 27234.480469
70.864200 33034.808594
73.420700 36888.765625
79.055100 70501.687500
81.070800 136171.359375
90.071600 33384.605469
91.055200 62068.320312
93.069900 68502.851562
95.050400 130006.492188
97.064800 32818.269531
107.049100 65113.324219
107.120900 33356.906250
109.064800 660415.812500
117.069900 180389.921875
119.085500 80410.679688
121.064800 231496.671875
125.059700 184992.765625
127.075400 375831.187500
129.069900 44161.097656
131.085500 85778.101562
133.101200 45341.421875
135.082000 42805.839844
137.059700 366851.093750
143.085500 251395.937500
145.101200 179531.937500
145.688500 33160.144531
147.080400 77430.710938
154.210600 46113.742188
157.064800 42356.257812
157.101200 161223.750000
159.080400 77974.281250
159.116800 495630.406250
161.096100 63981.398438
161.132500 48833.175781
169.101200 75601.640625
171.080400 46757.839844
171.116800 440600.281250
173.096100 207028.906250
173.656400 34841.460938
175.075400 36147.000000
181.101200 115880.359375
185.096100 86976.820312
187.111800 847732.375000
189.091000 64266.421875
189.127400 155322.750000
192.499600 38042.355469
197.096100 219554.078125
199.111800 570799.750000
201.129600 41197.042969
203.106700 58504.214844
209.096100 70743.375000
215.106700 314654.593750
217.122300 337934.312500
227.106700 333190.093750
233.117200 50103.339844
245.117200 275359.968750
263.127800 137213.765625
289.570300 40163.800781

>ms2peaks
51.673800 32587.472656
60.719200 30025.800781
67.055100 32177.087891
69.034700 33515.867188
75.434600 30557.984375
78.041200 30709.656250
79.055300 188228.234375
81.071000 397306.968750
83.050800 35892.156250
86.430700 34352.175781
91.055200 176715.859375
93.070900 157263.078125
94.417200 32635.841797
95.049100 69831.820312
97.563600 32517.326172
105.069900 277433.531250
105.768000 40163.156250
107.049100 142713.218750
109.064800 896327.000000
113.059700 58050.476562
117.069900 425252.187500
119.085500 199059.218750
121.064800 291785.437500
125.059700 147483.390625
127.075400 363453.625000
129.069900 195365.875000
131.085500 391342.312500
133.064800 51186.460938
133.101200 47994.308594
133.535200 35408.312500
135.080400 40245.191406
137.059700 508630.437500
139.075400 46660.992188
142.077700 42912.082031
143.085500 364731.781250
144.093400 58307.566406
145.064800 80371.148438
145.101200 235942.468750
147.080400 136196.343750
147.118900 52387.875000
154.077700 47422.230469
155.085500 54300.277344
156.093400 60703.792969
157.101200 308898.031250
158.072600 44493.773438
159.080400 188400.718750
159.116800 493414.687500
161.096100 152333.640625
161.132500 44438.421875
165.069900 51567.367188
169.101200 187659.406250
171.116800 428201.562500
173.096100 218454.156250
175.111800 72191.914062
181.101200 75959.789062
184.088300 81609.546875
185.096100 82809.664062
187.111800 598311.875000
189.127400 72959.992188
197.096100 156849.937500
199.111800 390128.093750
201.112100 46403.699219
203.106700 44837.207031
209.096100 68397.031250
212.083200 40529.371094
215.106700 223714.796875
217.122300 141786.078125
227.106700 77517.921875
238.414900 39013.167969
245.117200 65718.296875
251.854000 42413.312500
331.060900 42235.000000

>ms2peaks
56.732100 30193.791016
59.133000 29426.935547
67.055300 55843.386719
69.034300 34170.347656
79.055200 397367.718750
81.070900 591778.312500
90.576300 37812.269531
91.055400 331010.218750
93.070900 151529.890625
95.050200 162826.375000
97.065900 41204.554688
105.069900 496485.750000
107.050400 85174.593750
109.064800 527966.750000
113.059700 59279.816406
115.054200 79931.414062
117.069900 373497.062500
119.085500 220237.984375
121.064800 317763.781250
125.059700 88517.367188
127.075400 74936.953125
128.062100 192799.703125
129.069900 309690.906250
130.077700 65571.718750
131.085500 461805.437500
133.101200 159777.031250
137.059700 239626.515625
141.069900 210105.187500
142.077700 208632.312500
143.085500 311025.250000
144.093400 184495.750000
145.064800 73841.031250
145.101200 176317.625000
147.080400 72781.875000
154.077700 92769.546875
155.085500 52503.792969
156.093400 171627.843750
157.101200 193207.515625
158.072600 50898.015625
159.080400 180434.109375
159.116800 172577.156250
161.096100 84523.304688
163.567000 38702.398438
165.069900 66410.476562
166.077700 64537.566406
175.075400 47678.484375
187.111800 76648.953125
197.096100 49011.097656
286.890100 38413.542969
287.219900 49779.738281

