>compound AC31000099
>parentmass 899.5046999999998
>ionization [M+H]+
>formula C52H70N2O11
>rt 244.200000
>profile orbitrap
#smiles_iso C[C@@H]1CCC2[C@@]([C@@]13CC4=C(C=C5C(=C4O3)CN(C5=O)CCCC[C@@H](C(=O)O)N6CC7=C8C(=C(C=C7C6=O)O)C[C@@]9(O8)[C@@H](CCC1[C@@]9(C[C@H]([C@H](C1(C)C)O)O)C)C)O)(CC[C@H](C2(C)C)O)C
#smiles_can CC1CCC2C(C(CCC2(C13CC4=C(C=C5C(=C4O3)CN(C5=O)CCCCC(C(=O)O)N6CC7=C8C(=C(C=C7C6=O)O)CC9(O8)C(CCC1C9(CC(C(C1(C)C)O)O)C)C)O)C)O)(C)C
#inchikey ZRTGPZGAMCJZNA-CRDDFVEESA-N
#pubchem_id 10509958
#mb_accession AC000610,AC000611,AC000612,AC000613,AC000614

>ms2peaks
899.505300 828474368.000000

>ms2peaks
817.476000 38251584.000000
835.486500 68042304.000000
853.499800 33421076.000000
863.484100 75543672.000000
881.494700 292090336.000000
882.492600 11015737.000000
899.505300 233228272.000000

>ms2peaks
244.096800 10882491.000000
384.214300 19617048.000000
434.266300 30709296.000000
450.261200 22226778.000000
611.308900 12158881.000000
627.303800 46511016.000000
645.314400 13055628.000000
673.310100 10137200.000000
799.465400 30319108.000000
817.476000 274821536.000000
818.475300 10355034.000000
835.486500 108366432.000000
853.499800 8921851.000000
863.484100 36464852.000000
881.494700 24185594.000000

>ms2peaks
178.049900 7165585.500000
189.163800 5294766.000000
244.096800 36567364.000000
246.112500 5292900.000000
368.222000 15607138.000000
380.222000 12598364.000000
384.214300 41947852.000000
396.216900 12926549.000000
421.136700 11127922.000000
432.250700 6737790.000000
434.266300 48121664.000000
450.261200 34136704.000000
468.274500 6947393.000000
609.293200 8841597.000000
611.308900 19085090.000000
627.303800 49505120.000000
645.314400 7204422.000000
799.465400 21586360.000000
817.476000 149694704.000000
818.475300 6168371.500000
835.486500 22357722.000000

>ms2peaks
67.054200 3768648.000000
81.069900 5941154.000000
82.065100 5380232.500000
84.080800 6080476.000000
93.069900 5135854.000000
95.085500 12044770.000000
107.085500 10665694.000000
109.101200 9599806.000000
119.085500 8187858.000000
121.101200 11107904.000000
133.101200 16289749.000000
135.116800 6369132.000000
147.116800 5327778.000000
149.132500 7366982.000000
175.148100 4020769.000000
178.049900 41133724.000000
180.065500 8011427.000000
187.148100 5853049.000000
189.163800 19736216.000000
190.049900 27209298.000000
191.057700 6680614.000000
192.065500 39870584.000000
205.158700 4048057.500000
216.065500 8627505.000000
216.101900 8658150.000000
218.081200 9605906.000000
226.086300 7235711.500000
228.099200 4661979.000000
230.081200 14208228.000000
232.096800 8339492.500000
242.081200 10325720.000000
243.089000 13203778.000000
244.096800 117219944.000000
245.104600 11094426.000000
246.112500 13930764.000000
256.096800 4351348.500000
296.128100 4701770.000000
366.203700 4600609.000000
368.219300 25687192.000000
380.219300 32922998.000000
384.214300 14510384.000000
396.214300 41581928.000000
398.229900 5391848.500000
408.250700 4804210.500000
414.224800 7066194.500000
421.136700 14954639.000000
432.250700 6480468.500000
434.266300 15961921.000000
448.245600 4213237.500000
450.261200 7239214.500000

