>compound AC32181713
>parentmass 598.2994
>ionization [M+Na]+
>formula C32H41N5O5
>rt 168.000000
>profile orbitrap
#smiles_iso CC(C)C[C@H]1C(=O)N2CCC[C@H]2[C@]3(N1C(=O)[C@](O3)(C(C)C)NC(=O)[C@@H]4CN([C@@H]5CC6=CNC7=CC=CC(=C67)C5=C4)C)O
#smiles_can CC(C)CC1C(=O)N2CCCC2C3(N1C(=O)C(O3)(C(C)C)NC(=O)C4CN(C5CC6=CNC7=CC=CC(=C67)C5=C4)C)O
#inchikey YDOTUXAWKBPQJW-JJANYQHSSA-N
#pubchem_id 10875520
#mb_accession AC000308,AC000309,AC000310,AC000311,AC000312

>ms2
290.124800 7703995.500000
598.300000 23090918.000000

>ms2
290.124800 18438240.000000
376.182200 1386466.750000
555.257800 1478084.000000
598.300000 8195870.500000

>ms2
247.082800 1434001.500000
290.124800 12676064.000000
348.187300 718106.812500
360.150900 413037.281250
374.166500 655639.250000
376.182200 943508.812500
458.205000 706180.375000
555.257800 3036347.000000
598.300000 981278.000000

>ms2
138.052300 446541.156250
247.082800 1502498.000000
251.136600 379132.718750
277.114500 205848.812500
279.130200 208607.250000
290.124800 6193875.500000
317.124700 348583.031250
326.124800 202302.671875
348.187300 551347.500000
360.150900 447349.312500
374.166500 343431.468750
376.182200 391539.843750
412.197900 276380.281250
458.205000 988670.375000
555.257800 1679877.375000

>ms2
70.065100 55610.914062
116.070600 19651.824219
138.052300 287327.593750
154.065100 22789.878906
154.083600 117652.828125
180.080800 81425.257812
181.088600 14837.937500
190.065100 13520.915039
191.073000 61463.566406
192.063100 47824.988281
192.080800 129928.976562
194.060000 16051.012695
203.115200 37500.710938
205.130900 75164.273438
207.066500 78554.304688
208.074300 406095.937500
209.083500 20683.746094
210.090000 28956.669922
220.075700 37135.058594
221.107300 29983.515625
223.123000 32701.761719
233.125800 14067.965820
236.094400 19621.501953
247.082800 283623.093750
249.100900 66841.265625
249.138600 13543.963867
251.116500 14903.134766
251.136600 156020.921875
263.098900 38957.097656
277.135600 71829.007812
290.124800 223920.718750
302.164100 27015.398438
305.128500 19127.527344
317.125800 77107.562500
326.124800 147904.984375
327.109000 57562.195312
344.136900 20967.160156
345.119600 136488.484375
348.187300 52076.796875
360.150900 124412.265625
396.203000 15501.540039
412.197900 76484.250000
458.205000 110775.015625
527.262900 23535.169922
555.257800 19557.384766

