>compound AC33207679
>parentmass 926.6419
>ionization [M+NH4]+
>formula C48H84N4O12
>rt 297.600000
>profile orbitrap
#smiles_iso CC(C)C[C@H]1C(=O)O[C@@H](C(=O)N([C@H](C(=O)O[C@@H](C(=O)N([C@H](C(=O)O[C@@H](C(=O)N([C@H](C(=O)O[C@@H](C(=O)N1C)C(C)C)CC(C)C)C)C(C)C)CC(C)C)C)C(C)C)CC(C)C)C)C(C)C
#smiles_can CC(C)CC1C(=O)OC(C(=O)N(C(C(=O)OC(C(=O)N(C(C(=O)OC(C(=O)N(C(C(=O)OC(C(=O)N1C)C(C)C)CC(C)C)C)C(C)C)CC(C)C)C)C(C)C)CC(C)C)C)C(C)C
#inchikey QVZZPLDJERFENQ-NKTUOASPSA-N
#pubchem_id 89254632
#mb_accession AC000415,AC000416,AC000417,AC000418,AC000419

>ms2peaks
909.615900 34732340.000000
926.642400 66856276.000000

>ms2peaks
200.164500 2285207.000000
210.148900 66232988.000000
228.159400 29894748.000000
455.312900 9254641.000000
473.323500 2595219.250000
682.466400 5938799.000000
700.477000 3153378.500000
782.518800 2998222.250000
909.615900 11388938.000000

>ms2peaks
100.112100 16682741.000000
126.091300 1987138.375000
168.101900 2193823.250000
200.164500 12374905.000000
210.148900 61020948.000000
228.159400 25805520.000000
328.213200 7629296.000000
455.312900 2261515.500000

>ms2peaks
100.112100 61465356.000000
126.055000 6521891.500000
126.091300 3848991.500000
168.101900 9779473.000000
200.164500 15827592.000000
210.148900 46936528.000000
228.159400 15313517.000000
328.213200 5057565.000000

>ms2peaks
100.112100 55538700.000000
126.055000 9138499.000000
168.101900 5351290.000000
200.164500 2634762.250000
210.148900 5590736.000000

