>compound AC33533866
>parentmass 422.1817
>ionization [M+H]+
>formula C22H23N5O4
>rt 150.000000
>profile orbitrap
#smiles_iso CC(C)(C=C)C1(C2=CC=CC=C2N(C1=O)O)CC3C(=O)N/C(=C/C4=CN=CN4)/C(=O)N3
#smiles_can CC(C)(C=C)C1(C2=CC=CC=C2N(C1=O)O)CC3C(=O)NC(=CC4=CN=CN4)C(=O)N3
#inchikey GIYROBMIPLLHQE-OQLLNIDSSA-N
#pubchem_id 137628390
#mb_accession AC000926,AC000927,AC000928,AC000929,AC000930

>ms2peaks
192.064200 104116.414062
353.111800 113203.890625
422.182300 831227.937500

>ms2peaks
192.064200 686585.375000
353.111800 167779.109375
422.182300 282438.312500

>ms2peaks
192.064200 1002798.750000

>ms2peaks
109.063400 50986.464844
192.064200 1148051.875000

>ms2peaks
82.052500 25914.658203
107.047800 41039.960938
108.055600 38598.238281
109.063400 309528.218750
137.058400 36139.394531
163.061400 17653.660156
164.069300 41237.093750
192.064200 511558.625000

