>compound AC34438561
>parentmass 447.19840000000005
>ionization [M+Na]+
>formula C22H32O8
>rt 188.400000
>profile orbitrap
#smiles_iso CC1=C[C@@H]2[C@](C[C@@H]1OC(=O)CC(C)C)([C@]3([C@@H]([C@H]([C@H]([C@@]34CO4)O2)O)O)C)COC(=O)C
#smiles_can CC1=CC2C(CC1OC(=O)CC(C)C)(C3(C(C(C(C34CO4)O2)O)O)C)COC(=O)C
#inchikey PNKLMTPXERFKEN-MLXHEQMXSA-N
#pubchem_id 10093830
#mb_accession AC000155,AC000156,AC000157,AC000158,AC000159

>ms2peaks
345.130900 191259.218750
447.198900 3184261.250000

>ms2peaks
285.109700 589846.750000
345.130900 993604.812500
447.198900 2283701.750000

>ms2peaks
157.101200 33824.000000
185.096100 29917.638672
213.088600 30785.773438
255.099200 32185.636719
263.125400 29513.523438
285.109700 580769.125000
303.120300 44945.851562
327.120300 76295.484375
345.130900 900701.687500
429.188400 44750.359375
447.198900 790984.937500

>ms2peaks
83.010300 47737.511719
95.049100 35340.902344
105.069900 95343.046875
119.085500 82313.484375
121.064800 36220.726562
131.085500 39270.402344
143.085500 50196.066406
145.101200 60158.304688
157.101200 100426.757812
159.080400 44020.238281
159.116800 41368.535156
169.101200 38251.621094
171.116800 47914.269531
173.096100 48514.843750
175.111800 47133.988281
185.096100 50383.953125
187.111800 45570.496094
197.093700 44843.671875
199.111800 35405.792969
203.106700 74083.695312
204.114500 41182.226562
205.122300 44048.898438
213.088600 77980.062500
227.104300 66769.226562
255.099200 37883.914062
263.127800 48773.750000
267.099200 48375.011719
285.109700 708459.312500
303.120300 89493.859375
327.120300 181694.031250
345.130900 1095799.375000
429.188400 56373.980469
447.198900 521516.968750

>ms2peaks
67.054200 24258.019531
69.033500 7245.463379
71.012800 12478.567383
79.054200 21683.701172
81.069900 24215.103516
83.010300 16020.265625
83.049100 19247.435547
85.028400 19334.179688
91.054200 54748.320312
93.069900 46788.242188
95.049100 79952.656250
95.085500 13244.881836
97.064800 14778.535156
105.069900 169641.343750
107.049100 15447.445312
107.085500 19280.072266
109.064800 26537.076172
111.044100 6221.300293
115.054200 15074.874023
117.069900 40866.332031
119.049100 15512.767578
119.077000 5822.300293
119.085500 113462.375000
121.064800 50957.921875
123.044100 16791.394531
123.080400 15830.002930
125.059700 13276.437500
128.062100 32331.859375
129.069900 51724.828125
131.085500 85198.804688
133.064800 17282.556641
133.101200 27886.662109
135.080400 14918.491211
141.069900 25826.611328
142.077700 102249.953125
143.085500 92950.625000
143.095400 5449.441895
144.093400 14108.624023
145.064800 19109.099609
145.101200 97870.007812
147.080400 24462.119141
147.116800 20068.978516
154.077700 15875.774414
155.085500 20205.724609
156.093400 54033.468750
157.101200 108407.015625
158.072600 18700.599609
159.080400 39365.281250
159.116800 49214.195312
161.096100 20355.982422
165.069900 17657.675781
166.077700 12041.809570
167.085500 5797.869141
169.101200 48038.964844
171.080400 24855.468750
171.116800 26531.013672
172.088300 15005.172852
173.096100 47723.820312
174.103900 5594.598145
175.109300 29652.443359
179.085500 6847.519043
181.101200 17384.560547
182.072600 15962.863281
184.088300 11093.146484
185.096100 50837.984375
186.101500 11919.332031
187.073000 7146.619629
187.111800 35857.453125
189.088600 25644.388672
191.106700 6941.542480
197.096100 17132.658203
199.111800 22915.679688
203.106700 49165.027344
204.114500 13444.080078
205.122300 28173.474609
209.096100 14529.166992
213.088600 36337.066406
215.106700 7425.358887
227.104300 17348.726562
267.099200 20031.505859
285.109700 43231.984375
303.120300 13378.555664
327.120300 28267.716797
345.130900 70045.617188

