>compound AC34318169
>parentmass 537.2453
>ionization [M+Na]+
>formula C29H38O8
>rt 226.800000
>profile orbitrap
#smiles_iso CC1=C[C@@H]2[C@@]3(CC1)COC(=O)/C=C(/CCO[C@@H](/C=C/C=C\C(=O)O[C@H]4[C@]3([C@]5(CO5)[C@@H](C4)O2)C)[C@H](C)O)\C
#smiles_can CC1=CC2C3(CC1)COC(=O)C=C(CCOC(C=CC=CC(=O)OC4C3(C5(CO5)C(C4)O2)C)C(C)O)C
#inchikey KEEQQEKLEZRLDS-JULYGXFESA-N
#pubchem_id 5458516
#mb_accession AC000525,AC000526,AC000527,AC000528,AC000529

>ms2
537.245900 7675071.500000

>ms2
537.245900 7467008.500000

>ms2
135.041700 347016.156250
177.052200 206610.812500
289.104600 270904.031250
307.115200 250401.968750
537.245900 3380188.000000

>ms2
135.041700 387818.125000
177.052200 241935.125000
231.135600 54466.238281
289.104600 223605.171875
307.115200 337074.875000
537.245900 1342196.625000

>ms2
51.346700 2039.146484
61.935400 2826.497559
79.054200 3226.305176
81.069900 6721.691895
81.726500 2799.104736
91.054200 3158.249756
95.049100 6706.843262
97.354000 2871.973633
105.069900 5288.207520
119.085500 5378.992188
131.085500 3883.882324
133.101200 3065.663330
135.041700 59078.601562
139.100100 3787.145020
143.085500 5068.035645
159.116800 4184.080566
174.853100 3567.760010
177.052200 33782.066406
231.138000 6429.911621
307.115200 34573.468750

