>compound AC34926468
>parentmass 395.11089999999996
>ionization [M+Na]+
>formula C21H16N4O3
>rt 164.400000
>profile orbitrap
#smiles_iso C[C@]12C3=NC4=CC=CC=C4C(=O)N3[C@H](C[C@@]15C6=CC=CC=C6NC5=O)C(=O)N2
#smiles_can CC12C3=NC4=CC=CC=C4C(=O)N3C(CC15C6=CC=CC=C6NC5=O)C(=O)N2
#inchikey COXWNIZQNAMTQL-NQERJWCQSA-N
#pubchem_id 10666980
#mb_accession AC000412,AC000413,AC000414

>ms2peaks
250.060000 37040.425781
395.111500 876690.875000

>ms2peaks
250.060000 93015.273438
395.111500 303808.937500

>ms2peaks
50.057100 2002.563110
63.518100 2078.541748
65.304600 1988.804565
68.569300 2125.583008
73.231500 2153.557861
84.834300 2613.885986
84.960500 2739.792480
106.858400 2412.856934
111.683600 2379.844238
127.177600 2335.382324
130.500900 2861.663086
153.586700 2345.436523
250.060000 53201.578125
331.037600 2868.414062
395.111500 38726.175781

