>compound AC34511416
>parentmass 571.0865
>ionization [M+H]+
>formula C30H18O12
>rt 220.800000
>profile orbitrap
#smiles_iso CC1=CC(=O)C2=C(O1)C=C3C(=C2O)C(=O)C(=C(C3=O)OC)C4=C(C(=O)C5=CC6=C(C(=O)C=C(O6)C)C(=C5C4=O)O)OC
#smiles_can CC1=CC(=O)C2=C(O1)C=C3C(=C2O)C(=O)C(=C(C3=O)OC)C4=C(C(=O)C5=CC6=C(C(=O)C=C(O6)C)C(=C5C4=O)O)OC
#inchikey VSWWTKVILIZDGX-UHFFFAOYSA-N
#pubchem_id 99586
#mb_accession AC000700,AC000701,AC000702,AC000703,AC000704

>ms2
571.087100 6205822.500000

>ms2
511.065900 235729.984375
539.060900 134947.453125
541.040100 146838.281250
556.063600 1435132.500000
571.087100 3412637.250000

>ms2
231.028800 52007.910156
286.310100 39009.535156
456.084000 92448.992188
457.055400 50334.929688
482.063200 38580.210938
483.071000 40028.792969
484.078900 269565.031250
485.050300 574101.687500
496.042500 221139.093750
497.050300 156726.281250
500.073800 118560.132812
510.058100 92631.320312
511.065900 249465.312500
512.073800 47044.519531
513.045200 231714.187500
516.068700 177615.531250
524.037400 60849.992188
525.045200 176700.796875
528.068700 366399.093750
539.060900 97989.179688
541.040100 642144.062500
556.063600 1189135.375000
571.087100 173314.296875

>ms2
203.033900 48844.792969
221.044400 44605.398438
231.028800 44555.839844
244.036600 45853.816406
257.044400 45580.632812
297.039300 47347.246094
399.086300 27546.513672
413.065600 37441.117188
426.073400 32110.167969
427.081200 37262.132812
429.060500 62033.785156
439.038100 35631.359375
441.060500 176823.406250
454.068300 54232.199219
455.076100 60057.265625
456.084000 180588.250000
457.055400 387035.250000
468.047600 62935.675781
469.055400 103697.046875
471.071000 31174.384766
482.063200 84078.414062
483.071000 53227.359375
484.078900 117915.945312
485.050300 793266.875000
496.042500 170138.609375
497.050300 155214.109375
500.079100 47542.761719
510.058100 70446.820312
511.065900 62446.445312
513.045200 120725.289062
516.068700 45337.015625
525.045200 145285.078125
528.068700 55268.039062
541.040100 79688.031250
556.063600 37922.167969

>ms2
107.012800 15276.364258
174.031100 29643.646484
175.039000 22319.052734
192.041700 21046.498047
193.049500 23148.052734
201.054600 15930.489258
203.033900 75427.828125
213.054600 18261.583984
221.044400 65363.187500
231.028800 26566.929688
242.057400 17493.843750
257.044400 29823.503906
260.031500 15925.976562
269.044400 17715.804688
297.039300 29232.601562
373.028400 32557.044922
384.062800 15141.572266
385.070700 39225.406250
389.029200 25101.531250
398.078500 31849.570312
399.086300 37751.593750
401.023300 20535.337891
401.071400 45636.722656
413.065600 119853.335938
416.052600 18760.064453
423.049900 66514.203125
426.073400 30077.462891
427.081200 58835.078125
429.060500 414506.031250
439.039700 33061.941406
440.052600 28833.513672
441.060500 113917.875000
443.076100 16997.646484
453.060500 25328.044922
454.068300 27078.859375
455.076100 35783.871094
456.084000 22495.750000
457.055400 461458.468750
468.047600 17676.931641
469.055400 55626.285156
481.055400 20426.494141
482.063200 16887.216797
485.050300 77996.046875
497.050300 68480.234375
525.045200 23149.375000

