>compound AC35570195
>parentmass 329.1014
>ionization [M+H]+
>formula C18H16O6
>rt 272.400000
>profile orbitrap
#smiles_iso C[C@H]1C(C2=C(O1)C3=C4C(=C2O)C(=O)C(=O)OC4=C(C=C3C)O)(C)C
#smiles_can CC1C(C2=C(O1)C3=C4C(=C2O)C(=O)C(=O)OC4=C(C=C3C)O)(C)C
#inchikey MYDJDVOVZVSVIE-ZETCQYMHSA-N
#pubchem_id 13786694
#mb_accession AC000671,AC000672,AC000673,AC000674,AC000675

>ms2
329.102000 17582790.000000

>ms2
329.102000 19162992.000000

>ms2
273.039300 2482477.000000
287.055000 1128285.625000
311.091400 764561.312500
329.102000 15074035.000000

>ms2
245.044400 218654.296875
255.028800 537870.437500
269.044400 382448.687500
273.039300 6307758.500000
287.055000 2755900.000000
311.091400 2598920.000000
329.102000 5724323.000000

>ms2
199.039000 257589.359375
211.039000 152169.937500
213.054600 147494.890625
217.049500 131881.125000
225.054600 157899.546875
227.033900 419942.031250
241.049500 989632.312500
245.044400 908750.812500
255.028800 2603110.500000
267.101600 531743.437500
268.073000 772768.375000
269.044400 1446430.000000
273.039300 4084969.500000
283.096500 308931.531250
287.055000 1284009.750000
296.067900 443446.031250
311.091400 1642931.250000
329.102000 344175.062500

