>compound AC35790299
>parentmass 404.089
>ionization [M+H]+
>formula C20H18ClNO6
>rt 216.000000
>profile orbitrap
#smiles_iso C[C@@H]1CC2=C(C=C(C(=C2C(=O)O1)O)C(=O)N[C@@H](CC3=CC=CC=C3)C(=O)O)Cl
#smiles_can CC1CC2=C(C=C(C(=C2C(=O)O1)O)C(=O)NC(CC3=CC=CC=C3)C(=O)O)Cl
#inchikey RWQKHEORZBHNRI-BMIGLBTASA-N
#pubchem_id 442530
#mb_accession AC000204,AC000205,AC000206,AC000207,AC000208

>ms2
120.080800 9312475.000000
239.010600 18185070.000000
257.021100 17091946.000000
341.057500 6165605.000000
358.084100 93946560.000000
386.079000 13886938.000000
404.089500 84511392.000000

>ms2
120.080800 14812853.000000
239.010600 69600512.000000
257.021100 73130648.000000
341.057500 30817538.000000
358.084100 94478496.000000
404.089500 8880950.000000

>ms2
120.080800 13262095.000000
239.010600 141938512.000000
257.021100 141809392.000000
341.057500 24867846.000000
358.084100 11131173.000000

>ms2
120.080800 14628246.000000
239.010600 188086032.000000
257.021100 166174864.000000
341.057500 17288938.000000

>ms2
120.080800 10274263.000000
137.015300 8401282.000000
165.010200 10735313.000000
193.005100 31668700.000000
211.015600 35035384.000000
221.000000 17312892.000000
239.010600 186117328.000000
257.021100 67617200.000000

