>compound AC36109059
>parentmass 420.16610000000003
>ionization [M+H]+
>formula C22H21N5O4
>rt 156.000000
>profile orbitrap
#smiles_iso CC(C)(C=C)[C@]12C=C(C(=O)N\3[C@@]1(NC(=O)/C3=C\C4=CN=CN4)N(C5=CC=CC=C25)O)O
#smiles_can CC(C)(C=C)C12C=C(C(=O)N3C1(NC(=O)C3=CC4=CN=CN4)N(C5=CC=CC=C25)O)O
#inchikey YEVSOYBNHBOQJZ-GCTRCSCRSA-N
#pubchem_id 124079399
#mb_accession AC000776,AC000777,AC000778,AC000779,AC000780

>ms2
289.072000 254866.187500
334.093400 442673.437500
335.102600 114482.976562
351.096200 121484.476562
403.163900 50143.824219
420.166600 1494102.125000

>ms2
261.077100 39327.121094
289.072000 965909.812500
306.098500 50039.773438
317.066900 36763.687500
334.093400 409654.937500
335.102600 365069.062500
351.096200 337914.812500
403.163900 71487.609375
420.166600 238649.343750

>ms2
234.090000 86528.218750
261.077100 350007.343750
262.084900 82659.898438
263.092700 59501.207031
289.072000 993790.187500
290.079800 50237.511719
306.099900 50034.085938
307.082600 53613.941406
318.074700 208604.828125
334.094800 245931.734375
335.102600 286342.000000
351.096200 96075.320312

>ms2
233.082200 32581.974609
234.066200 41102.777344
234.090000 204844.453125
235.074000 43233.890625
261.077100 877685.125000
262.084900 105512.929688
263.092700 119556.835938
277.072000 52268.273438
289.072000 538192.500000
290.079800 138813.109375
306.098500 40090.617188
307.082600 30845.673828
318.074700 218305.265625
334.093400 70199.601562
335.102600 55245.691406

>ms2
106.040000 32882.925781
107.047800 32697.310547
108.055600 46898.828125
162.029800 37628.523438
206.071300 99288.875000
207.079100 79098.656250
233.082200 120330.742188
234.066200 89897.507812
234.090000 177720.234375
235.074000 38411.148438
235.097800 35764.371094
261.077100 928190.500000
262.084900 88581.312500
263.092700 113420.492188
277.072000 51521.492188
289.072000 109446.234375
290.079800 32461.253906
294.074700 86294.000000

