>compound AC36424478
>parentmass 433.1236
>ionization [M+H]+
>formula C20H20N2O9
>rt 168.000000
>profile orbitrap
#smiles_iso COC1=C(C2=C(C=C1)C=C(C(=O)O2)NC(=O)C3=NO[C@H]4[C@@H](C=C[C@H]([C@]4(C3)O)O)O)OC
#smiles_can COC1=C(C2=C(C=C1)C=C(C(=O)O2)NC(=O)C3=NOC4C(C=CC(C4(C3)O)O)O)OC
#inchikey ZQOKLOPATOTAEE-OVCSSCHWSA-N
#pubchem_id 10982906
#mb_accession AC000837,AC000838,AC000839,AC000840,AC000841

>ms2peaks
56.216900 2082.980713
56.800000 2058.092285
81.063000 2684.107422
84.670200 2283.162354
91.806000 2555.046875
105.477900 2243.837402
136.015500 2356.979004
155.384600 3046.249268
199.041700 3551.390869
225.993800 2522.963867
248.055300 37965.585938
284.993600 2482.190430
287.622100 2615.223145
404.851100 18842.777344
415.108200 2937.144531
433.124100 30708.888672

>ms2peaks
51.148200 2200.229980
54.610100 2102.023438
63.305400 2478.057373
64.903500 2276.883301
74.548200 2523.826660
112.579300 2662.547119
199.044800 3052.069580
213.488100 2631.066650
225.102200 2387.165283
248.055300 63910.300781
297.135900 2613.658447
315.155900 2708.019043
404.851500 23009.433594
430.245300 2510.707275

>ms2peaks
67.606600 2597.745117
74.321900 1939.517090
76.429400 2101.336914
80.855700 2187.200684
81.633000 2235.511475
89.080400 2327.205322
90.977000 2280.979736
91.207700 2373.701904
138.003300 2323.681396
140.194000 2678.381592
159.314000 2690.541260
161.779100 2267.093018
176.662800 2801.807861
192.065500 13063.743164
197.107300 6052.116211
199.041700 4473.182129
220.060400 12226.784180
248.055300 44307.449219
298.221500 2672.918945
298.978400 2713.644287
336.865000 2808.804443
404.851200 11932.744141
427.449200 2610.791260

>ms2peaks
55.064300 1985.491821
55.605900 2069.737061
60.348700 2578.406250
74.144400 2484.524414
84.933200 2365.917725
89.275900 2326.405273
90.977200 3260.413574
108.965500 2372.055908
123.044100 2578.113525
192.065500 30881.937500
192.656300 2400.006104
197.026000 3056.261719
205.859400 2477.931885
215.560500 2526.090088
220.060400 11448.582031
221.068300 3063.686523
248.055300 23608.830078
256.471900 2720.884033
259.685200 2641.507568
354.873600 5504.271973
376.854100 5138.740723
407.485700 3017.423584

>ms2peaks
50.919200 1880.668335
53.526400 2027.006348
54.464500 2272.038574
56.965700 5147.549316
65.575100 2145.389648
67.684900 2076.763184
94.086300 2349.980957
123.044100 3725.835938
137.289200 2505.861816
142.597600 2622.812256
151.346100 2792.737305
156.080800 2827.395752
177.042000 5528.253418
192.065500 30317.193359
192.080800 3144.605469
204.705000 2578.775146
206.157100 2865.926514

