>compound AC36420713
>parentmass 285.0752
>ionization [M+H]+
>formula C16H12O5
>rt 227.400000
>profile orbitrap
#smiles_iso CC1=CC2=C(C=C1O)C(=O)C3=C(C2=O)C=C(C=C3O)OC
#smiles_can CC1=CC2=C(C=C1O)C(=O)C3=C(C2=O)C=C(C=C3O)OC
#inchikey FKTPLNFTYJEAAB-UHFFFAOYSA-N
#pubchem_id 159926
#mb_accession AC000185,AC000186,AC000187,AC000188

>ms2
285.075700 9845336.000000

>ms2
285.075700 7588008.500000

>ms2
253.049500 193021.437500
257.080800 235359.265625
285.075700 5884414.500000

>ms2
91.054200 78333.648438
95.049100 128375.609375
125.059700 99196.562500
135.044100 168823.765625
151.039000 198278.281250
197.059700 154089.359375
211.075400 124232.890625
213.054600 176543.953125
225.054600 179760.859375
229.085900 86706.437500
239.070300 109848.273438
242.057400 199327.671875
253.049500 383106.500000
257.080800 364323.343750
267.065200 142433.062500
270.052300 293465.656250
285.075700 2380847.500000

