>compound AC37102433
>parentmass 351.047
>ionization [M+Na]+
>formula C17H12O7
>rt 182.400000
>profile orbitrap
#smiles_iso COC1=C2C3=C(C(=O)OCC3)C(=O)OC2=C4[C@@H]5C=CO[C@@H]5OC4=C1
#smiles_can COC1=C2C3=C(C(=O)OCC3)C(=O)OC2=C4C5C=COC5OC4=C1
#inchikey XWIYFDMXXLINPU-WNWIJWBNSA-N
#pubchem_id 2724361
#mb_accession AC000035,AC000036,AC000037

>ms2peaks
351.047500 7088734.500000

>ms2peaks
307.021300 131841.156250
322.044800 156966.734375
336.024000 136655.046875
351.047500 3286150.500000

>ms2peaks
90.976800 4473.932617
209.044400 3067.189453
263.031500 47500.183594
286.574700 3369.730225
292.034200 42668.035156
307.021300 95160.382812
322.044800 12984.580078
336.024000 18558.544922
351.047500 80211.437500

