>compound AC37798046
>parentmass 235.1687
>ionization [M-H2O+H]+
>formula C15H24O3
>rt 206.400000
>profile orbitrap
#smiles_iso C[C@H]1[C@@H]([C@@H](CC(=C)[C@@H]2CC([C@@H]2CC1=O)(C)C)O)O
#smiles_can CC1C(C(CC(=C)C2CC(C2CC1=O)(C)C)O)O
#inchikey NGQXJSTYWWTPOG-VGYDOTAVSA-N
#pubchem_id 15431312
#mb_accession AC000283,AC000284,AC000285,AC000286,AC000287

>ms2
95.085500 2964393.500000
105.069900 2430918.250000
107.085500 7445637.500000
109.064800 4799880.500000
109.101200 2868578.750000
119.085500 6597711.500000
121.101200 6777606.000000
133.101200 8845379.000000
135.116800 3063290.500000
143.085500 2808930.000000
145.101200 2904530.500000
147.116800 2976800.250000
159.116800 4289589.000000
161.096100 9635970.000000
161.132500 46319228.000000
163.111800 4442164.500000
173.132500 7656000.500000
175.111800 3427920.250000
175.148100 14026764.000000
177.127400 6478650.500000
179.106700 2370894.750000
189.163800 7683489.500000
199.148100 6404275.500000
217.158700 23805928.000000
235.169300 71140824.000000

>ms2
95.085500 4633663.500000
105.069900 4105767.250000
107.085500 11620019.000000
109.064800 7581732.000000
109.101200 4057074.000000
119.085500 10164474.000000
121.101200 11052472.000000
133.101200 14460465.000000
135.116800 5047523.500000
143.085500 4667046.500000
145.101200 4992657.500000
147.116800 4449873.000000
159.116800 6768967.500000
161.096100 15277643.000000
161.132500 72067368.000000
163.111800 7600099.000000
173.132500 12313550.000000
175.111800 6119372.500000
175.148100 24204638.000000
177.127400 11309372.000000
179.106700 3922591.250000
189.163800 12344995.000000
199.148100 10306354.000000
217.158700 39759504.000000
235.169300 118433576.000000

>ms2
69.070600 5279191.500000
81.069900 6819294.500000
91.054200 3691780.250000
93.069900 6426977.000000
95.085500 10596225.000000
105.069900 12308216.000000
107.085500 21754198.000000
109.064800 12569910.000000
109.101200 7859216.000000
119.085500 28438646.000000
121.064800 7418670.000000
121.101200 22530456.000000
123.080400 5581266.000000
123.116800 3354018.500000
127.075400 4328699.000000
131.085500 3576770.500000
133.101200 34022140.000000
135.116800 9022160.000000
143.085500 10277618.000000
145.101200 9802197.000000
147.116800 9273428.000000
157.101200 7217651.000000
159.116800 11812590.000000
161.096100 24927894.000000
161.132500 97996064.000000
163.111800 9125703.000000
163.148100 3162650.000000
165.091000 4206518.000000
171.116800 3684125.750000
173.132500 20165068.000000
175.111800 8389032.000000
175.148100 33639044.000000
177.127400 22879438.000000
179.106700 4891232.500000
189.163800 16101574.000000
191.143100 3353084.750000
199.148100 12843751.000000
217.158700 34240108.000000
235.169300 57158564.000000

>ms2
67.054200 4502186.500000
69.070600 9962733.000000
81.069900 11990190.000000
83.049100 4466686.000000
83.085500 4856932.000000
91.054200 7158270.500000
93.069900 14023436.000000
95.085500 19395618.000000
105.069900 26779146.000000
107.085500 37909424.000000
109.064800 19165698.000000
109.101200 12335375.000000
117.069900 4623143.500000
119.085500 57317984.000000
121.064800 14681977.000000
121.101200 31431036.000000
123.080400 8456766.000000
123.116800 4545453.500000
127.075400 5565687.500000
131.085500 8344175.500000
133.101200 57319892.000000
135.080400 4963985.500000
135.116800 12341126.000000
143.085500 16276165.000000
145.101200 17269020.000000
147.080400 4864041.000000
147.116800 15925578.000000
157.101200 11330469.000000
159.116800 17968708.000000
161.096100 35530036.000000
161.132500 135479808.000000
163.111800 9476126.000000
165.091000 5039211.500000
171.116800 5953415.500000
173.132500 31590410.000000
175.111800 10097412.000000
175.148100 46490836.000000
177.127400 30662436.000000
179.106700 5593045.000000
189.163800 18077296.000000
199.148100 14365492.000000
217.158700 33882776.000000
235.169300 43133940.000000

>ms2
67.054200 2186676.750000
69.069900 5698107.500000
79.054200 2510118.500000
81.069900 6141443.500000
83.049100 2420049.000000
83.085500 2260056.750000
91.054200 4303816.000000
93.069900 7942508.000000
95.085500 9406479.000000
105.069900 16527164.000000
107.085500 19222856.000000
109.064800 9280275.000000
109.101200 6158330.000000
111.080400 1821206.500000
117.069900 2314445.250000
119.085500 29722470.000000
121.064800 6258656.500000
121.101200 16779592.000000
123.080400 3875572.750000
123.116800 2103906.750000
127.075400 2393922.750000
131.085500 4867799.500000
133.101200 29259504.000000
135.080400 2054043.625000
135.116800 6359210.000000
137.096100 2014998.625000
143.085500 6719798.500000
145.101200 8471293.000000
147.080400 2249537.750000
147.116800 7677536.500000
157.101200 5527234.500000
159.116800 8372467.000000
161.096100 13623369.000000
161.132500 55631456.000000
163.111800 4004445.250000
165.091000 2015622.500000
171.116800 2381451.750000
173.132500 12207462.000000
175.111800 3637829.250000
175.148100 18904548.000000
177.127400 10104932.000000
189.163800 6523200.500000
191.143100 1804600.125000
199.148100 5323755.000000
217.158700 9033930.000000
235.169300 9955261.000000

