>compound AC37222804
>parentmass 545.2376
>ionization [M+H]+
>formula C29H36O10
>rt 190.800000
>profile orbitrap
#smiles_iso CC1=CC2C3(CC1)COC(=O)C4C5(O4)CCOC(C5O)(/C=C/C=C\C(=O)OC6C3(C7(CO7)C(C6)O2)C)C(C)O
#smiles_can CC1=CC2C3(CC1)COC(=O)C4C5(O4)CCOC(C5O)(C=CC=CC(=O)OC6C3(C7(CO7)C(C6)O2)C)C(C)O
#inchikey GTONGKBINDTWOM-QXMOYCCXSA-N
#pubchem_id 6437354
#mb_accession AC000592,AC000593,AC000594,AC000595,AC000596

>ms2
231.138000 184026.031250
249.148500 115964.289062
545.238100 3050084.000000

>ms2
81.071100 28559.894531
93.069900 33262.996094
105.069900 129409.132812
109.064800 40414.406250
121.064800 42966.355469
123.080400 92783.984375
145.101200 32108.355469
157.102900 27581.171875
161.096100 25025.312500
171.116800 30618.255859
185.132500 89175.523438
191.070300 25946.875000
195.116800 33277.613281
201.127400 107840.554688
213.127400 135266.171875
231.138000 535087.937500
235.060100 38512.988281
249.148500 300532.750000
375.180200 41074.304688
483.201300 27048.548828
527.227600 31616.359375
545.238100 780908.250000

>ms2
58.873700 12332.004883
59.732000 13826.179688
60.638300 14242.604492
78.285800 15200.137695
79.055400 15399.136719
81.070900 101380.695312
93.070900 134478.046875
95.050200 23404.962891
95.085500 36651.519531
97.064800 16391.843750
99.044100 29909.775391
105.069900 374662.187500
107.085500 61686.605469
109.064800 133545.359375
111.044100 14640.999023
117.069900 18984.679688
119.085500 25699.224609
121.064800 133028.281250
123.080400 178131.828125
125.059700 23264.869141
131.085500 50688.746094
133.064800 22911.634766
133.101200 16608.357422
135.080400 20894.310547
139.075400 18671.751953
143.085500 73335.812500
145.101200 28227.890625
149.096100 16491.908203
157.101200 75030.031250
159.080400 18893.046875
159.116800 33371.308594
161.059700 29444.820312
161.096100 25695.498047
162.407400 15784.002930
165.904500 15665.150391
171.116800 75592.117188
175.111800 34144.433594
177.630100 17881.015625
183.116800 73737.929688
185.132500 133910.921875
189.054600 20516.931641
189.127400 20332.554688
195.116800 61322.242188
201.127400 139787.218750
203.143100 33373.289062
213.127400 104436.539062
219.138000 21469.203125
231.138000 379868.187500
233.083500 30196.132812
235.060100 23592.654297
249.148500 161001.390625
311.908900 16519.728516
403.565700 17916.867188
404.283200 16970.804688
502.045600 15513.023438
545.238100 24355.091797

>ms2
61.093800 13992.961914
62.045100 16964.486328
67.055400 21406.201172
69.034400 23110.826172
71.367100 16267.846680
78.028100 18554.011719
79.055300 35070.707031
81.070900 133775.656250
91.054200 39152.765625
93.033500 19042.027344
93.069900 154206.359375
95.049100 37982.402344
95.085500 74836.765625
97.028400 30270.681641
97.064800 18455.533203
97.171900 19431.029297
99.044100 29811.320312
105.069900 361201.437500
107.049100 30787.878906
107.085500 40444.324219
109.064800 104699.429688
118.860400 16979.167969
119.085500 27182.732422
121.064800 102065.507812
123.080400 145970.140625
125.059700 26320.951172
131.085500 23365.322266
133.064800 21642.429688
135.080400 21461.876953
142.077700 24298.396484
143.085500 103705.515625
145.064800 26111.875000
147.116800 19884.099609
151.403800 18671.109375
156.093400 26968.939453
157.101200 38097.269531
159.080400 19601.035156
159.116800 44158.332031
161.059700 22871.964844
161.096100 18266.248047
165.054600 19326.685547
170.109000 22578.298828
171.116800 29749.753906
173.132500 37391.214844
183.116800 28601.464844
185.132500 84506.085938
201.127400 43488.261719
203.143100 31738.089844
213.127400 20726.333984
231.138000 93315.203125
249.148500 18166.220703

>ms2
50.233700 15703.864258
51.033900 13883.420898
53.039800 17025.566406
67.055300 74373.617188
69.034500 20962.843750
73.221500 14212.887695
79.055300 120838.882812
80.877200 14027.647461
81.070800 178338.484375
82.384200 14883.395508
91.055200 177996.218750
93.070900 144338.781250
95.050200 134379.609375
95.085500 117490.468750
97.028400 38399.871094
97.064800 18168.507812
99.044100 27469.623047
105.069900 431724.843750
107.085500 36892.835938
109.064800 76025.484375
117.069900 38353.335938
119.085500 80663.359375
121.064800 95079.179688
123.080400 113236.210938
128.062100 21029.707031
129.069900 27478.734375
131.085500 111995.437500
133.064800 28887.048828
141.069900 27927.244141
142.077700 38513.589844
143.085500 115356.210938
144.093400 16695.908203
145.064800 33296.605469
145.101200 27732.792969
147.080400 22536.855469
155.085500 25125.771484
157.101200 34766.812500
159.116800 17507.019531
161.059700 26487.658203
161.096100 25956.605469
165.069900 31540.537109
168.093400 21015.820312
171.116800 23709.306641
340.646400 18883.152344

