>compound AC37165523
>parentmass 180.1014
>ionization [M+H]+
>formula C10H13NO2
>rt 151.800000
>profile orbitrap
#smiles_iso CCCCC1=CN=C(C=C1)C(=O)O
#smiles_can CCCCC1=CN=C(C=C1)C(=O)O
#inchikey DGMPVYSXXIOGJY-UHFFFAOYSA-N
#pubchem_id 3442
#mb_accession AC000888,AC000889,AC000890,AC000891,AC000892

>ms2
63.105900 37056.546875
64.388400 28584.763672
71.129400 32293.906250
84.559000 34126.187500
86.736400 32848.605469
95.781200 41731.437500
152.107000 522904.781250
180.101900 505567.125000

>ms2
62.873900 25658.716797
79.543500 24213.718750
116.014600 27680.226562
117.009300 27097.660156
152.107000 562624.312500
180.101900 580259.312500

>ms2
52.888500 24987.279297
63.755900 23365.369141
66.555300 23321.535156
68.307400 23537.169922
73.386200 28216.958984
83.509400 29219.015625
86.339100 27111.392578
108.702300 25836.501953
114.561800 30178.548828
152.107000 716771.437500
152.118600 44182.937500
153.275000 24540.750000
158.591600 25358.925781
180.101900 685273.562500

>ms2
92.049500 40085.867188
152.107000 1055089.500000
180.101900 155892.328125

>ms2
92.049500 200829.781250
107.085500 27371.707031
115.054200 28789.740234
117.069900 35251.679688
119.073000 31588.226562
152.107000 845849.437500

