>compound AC37596256
>parentmass 445.2116
>ionization [M+H]+
>formula C27H28N2O4
>rt 225.000000
>profile orbitrap
#smiles_iso CC(=O)OC[C@H](CC1=CC=CC=C1)NC(=O)C(CC2=CC=CC=C2)NC(=O)C3=CC=CC=C3
#smiles_can CC(=O)OCC(CC1=CC=CC=C1)NC(=O)C(CC2=CC=CC=C2)NC(=O)C3=CC=CC=C3
#inchikey VZPAURMDJZOGHU-SKCDSABHSA-N
#pubchem_id 124319
#mb_accession AC000709,AC000710,AC000711,AC000712,AC000713

>ms2
194.117600 21818032.000000
224.107000 1138159.000000
252.101900 2541849.250000
445.212200 2997591.500000

>ms2
105.033500 1075354.250000
117.069900 600421.687500
134.096400 1845565.000000
177.091000 802917.687500
194.117600 8908848.000000
224.107000 5129976.000000
252.101900 1276497.000000

>ms2
91.054200 900058.312500
105.033500 7557210.500000
117.069900 3265166.000000
134.096400 3551963.750000
177.091000 1412970.875000
194.117600 3090374.000000
224.107000 5257696.500000

>ms2
91.054200 1677679.000000
105.033500 13016999.000000
117.069900 4516791.500000
134.096400 1783778.875000
224.107000 1136536.250000

>ms2
91.054200 3190978.250000
95.049100 735390.812500
105.033500 12282870.000000
117.069900 2691211.500000

