>compound AC38270756
>parentmass 640.4162
>ionization [M+H]+
>formula C33H57N3O9
>rt 286.800000
>profile orbitrap
#smiles_iso CC(C)[C@H]1C(=O)O[C@@H](C(=O)N([C@H](C(=O)O[C@@H](C(=O)N([C@H](C(=O)O[C@@H](C(=O)N1C)C(C)C)C(C)C)C)C(C)C)C(C)C)C)C(C)C
#smiles_can CC(C)C1C(=O)OC(C(=O)N(C(C(=O)OC(C(=O)N(C(C(=O)OC(C(=O)N1C)C(C)C)C(C)C)C)C(C)C)C(C)C)C)C(C)C
#inchikey MIZMDSVSLSIMSC-VYLWARHZSA-N
#pubchem_id 164754
#mb_accession AC000453,AC000454,AC000455,AC000456,AC000457

>ms2
196.133200 66225920.000000
214.143800 23703436.000000
640.416800 263245056.000000

>ms2
86.096400 9645992.000000
186.148900 11714496.000000
196.133200 209999120.000000
214.143800 119356552.000000
314.193500 11067216.000000
427.277600 19422812.000000
527.332700 37391168.000000
640.416800 12237806.000000

>ms2
86.096400 65330620.000000
168.138300 5016563.000000
186.148900 46294564.000000
196.133200 155129104.000000
214.143800 94552528.000000
314.193500 40408700.000000
427.277600 5996823.500000

>ms2
86.096400 99589672.000000
168.138300 4632274.000000
186.148900 46451512.000000
196.133200 98892192.000000
214.143800 64605820.000000
314.193500 28031608.000000

>ms2
84.080800 7101418.500000
86.096400 202806592.000000
186.148900 24392622.000000
196.133200 23559416.000000
214.143800 12385261.000000

