>compound AC38662015
>parentmass 634.2925
>ionization [M+H]+
>formula C37H44ClNO6
>rt 252.600000
>profile orbitrap
#smiles_iso CC(=C)[C@@H]1[C@@H]([C@@H]2[C@@]3(O2)[C@@H](O1)CC[C@]4([C@]3(CC[C@@H]5[C@@]4(C6=C7[C@H]5OC([C@H]8C[C@H]9[C@@]8(C1=C7C(=CC(=C1CC9=C)Cl)N6)O)(C)C)C)O)C)O
#smiles_can CC(=C)C1C(C2C3(O2)C(O1)CCC4(C3(CCC5C4(C6=C7C5OC(C8CC9C8(C1=C7C(=CC(=C1CC9=C)Cl)N6)O)(C)C)C)O)C)O
#inchikey JDUWHZOLEDOQSR-JKPSMKLGSA-N
#pubchem_id 6610243
#mb_accession AC000499,AC000500,AC000501,AC000502

>ms2peaks
558.240100 22190820.000000
616.282400 8808684.000000
634.293000 29286428.000000

>ms2peaks
540.227300 2784023.250000
548.219300 1152855.375000
558.240100 21341632.000000
598.271900 1691829.625000
616.282400 2828597.500000
634.293000 1224568.750000

>ms2peaks
83.049600 297547.312500
85.065300 212666.484375
93.069900 193964.718750
121.064800 156871.968750
135.080400 175879.140625
147.080400 145358.687500
161.096100 226692.390625
173.096100 190508.281250
175.111800 148874.453125
242.036200 445531.343750
244.051900 222738.640625
254.072600 341805.656250
282.065300 174665.765625
284.046800 476233.562500
294.067500 221469.515625
295.075400 207239.203125
296.083200 1088299.500000
304.088300 191270.453125
306.101700 478895.562500
308.083200 239303.671875
309.091000 269749.125000
310.096600 189753.859375
312.112300 209983.218750
318.103900 231332.093750
320.117400 241244.859375
332.119600 2512987.500000
334.159000 286443.343750
335.164700 639073.750000
336.112300 155605.156250
344.117400 360362.468750
346.135200 221336.562500
348.112300 147714.906250
355.109600 165711.437500
356.117400 174804.984375
358.096600 162912.218750
358.135200 184974.656250
360.112300 161426.468750
364.143600 497211.312500
368.117400 742669.812500
370.135200 1179681.375000
382.135700 147759.953125
394.135700 147919.531250
397.120100 183727.968750
398.127900 217623.968750
400.146300 155464.625000
409.159200 217107.312500
410.172400 395875.593750
412.143600 471321.343750
416.132700 204384.234375
427.175600 147626.546875
428.183400 423232.062500
438.161400 302668.187500
440.185600 302300.156250
444.133400 176224.640625
452.174900 251717.031250
456.169800 435064.031250
470.185500 210904.312500
510.170000 158700.656250
522.216800 324690.500000
528.193100 517346.625000
529.201000 315355.062500
530.208800 492720.000000
540.227300 2774650.000000
546.203700 415030.250000
547.211500 397631.531250
548.219300 331821.406250
558.240100 4397593.500000
580.258600 144177.890625
598.271900 615654.187500
616.282400 203212.562500

>ms2peaks
67.054200 84603.054688
69.033500 83006.320312
69.069900 158883.046875
79.054200 82959.031250
81.069900 102809.679688
83.049600 322291.468750
85.065300 250701.765625
91.054200 106651.875000
93.069900 264919.250000
95.049100 125085.601562
95.085500 119734.398438
97.064800 127040.484375
105.069900 145538.984375
107.085500 87290.265625
109.064800 120602.039062
119.085500 189556.390625
121.064800 150451.421875
123.080400 130096.468750
131.085500 148802.437500
133.064800 84797.625000
133.101200 115368.914062
135.080400 179198.843750
137.059700 103245.281250
143.085500 104818.101562
145.101200 169845.500000
147.080400 119635.460938
157.101200 107934.031250
159.080400 106007.484375
161.096100 221279.328125
165.054600 82230.117188
173.096100 170981.421875
175.111800 95236.429688
185.096100 115788.945312
187.111800 129556.281250
199.111800 109402.164062
213.127400 80635.265625
216.057000 87779.812500
228.057000 82210.601562
242.036200 467563.156250
244.051900 286444.687500
252.057000 129630.859375
253.064800 142152.000000
254.072600 322592.968750
256.051900 117671.335938
258.067500 127265.468750
266.072600 120075.242188
268.086100 104348.328125
270.067500 160400.937500
271.133400 112083.335938
280.088300 158456.828125
282.067500 207895.968750
282.101700 86101.945312
283.073200 86219.640625
284.046800 434490.812500
284.081000 98309.195312
286.062400 146467.640625
291.080500 82815.562500
292.086100 147182.953125
293.093900 89437.007812
294.067500 316308.593750
294.101700 130250.312500
295.075400 296560.187500
296.083200 949827.562500
304.088300 255425.515625
306.101700 520145.625000
308.083200 264544.156250
309.091000 298053.031250
309.149000 91755.476562
310.096600 198217.046875
312.114500 136255.265625
318.101700 277873.125000
320.117400 187266.406250
320.143400 173435.953125
321.091500 79913.156250
321.151200 118223.312500
322.096600 131457.250000
330.103900 119177.257812
331.109600 127451.578125
332.089500 88696.429688
332.117400 2463845.000000
334.098800 80540.437500
334.159000 338979.875000
335.164700 820301.937500
336.112300 99347.218750
342.101700 142796.265625
343.109600 98514.187500
344.117400 379865.125000
346.096600 112229.578125
346.135200 166979.640625
347.104500 87706.828125
348.112300 154231.671875
349.182500 119801.054688
355.111800 256500.859375
356.117400 234195.093750
357.127400 121798.718750
358.096600 180581.656250
358.135200 175398.765625
359.106700 133500.531250
360.112300 167094.828125
364.143600 354725.718750
368.119600 578793.562500
369.127400 90288.820312
370.135200 1060045.500000
371.143100 83799.765625
372.112300 169509.312500
374.190300 105915.000000
375.198200 84803.445312
382.135700 166354.656250
384.106900 113356.304688
384.151400 144483.812500
385.120100 99821.820312
386.127900 113488.851562
388.145800 92591.750000
390.159200 82492.015625
393.206500 95625.015625
394.135700 145922.000000
395.143500 106709.671875
396.156700 106458.093750
397.120100 185424.359375
398.127900 224821.125000
399.138000 138595.343750
400.146300 149097.562500
402.117000 87088.773438
409.159200 137233.015625
410.127900 79404.453125
410.172400 329291.906250
412.143600 408905.500000
414.112500 140188.796875
416.138500 208640.859375
417.146300 86984.601562
421.203600 120623.554688
424.143600 91335.250000
426.167800 141751.640625
427.177800 84581.968750
428.132700 100393.664062
428.185600 268653.093750
430.156800 81184.796875
438.161400 228928.062500
440.183400 243713.875000
444.133400 153567.500000
452.177100 154586.812500
456.169800 203562.281250
470.187700 115701.023438
510.174500 96649.484375
514.169400 103847.531250
522.219000 90939.632812
528.193100 356977.718750
529.201000 194449.421875
530.208800 245129.781250
540.227300 1024128.375000
546.203700 220545.546875
547.211500 164177.656250
548.211300 79655.703125
558.240100 1203472.750000
564.206200 84929.148438
598.271900 165971.984375

