>compound AC39571484
>parentmass 267.1585
>ionization [M+H]+
>formula C15H22O4
>rt 174.600000
>profile orbitrap
#smiles_iso CC1=C[C@]23[C@](CC1)([C@]4(C[C@@H]([C@H]([C@]4(O2)CO)O3)O)C)C
#smiles_can CC1=CC23C(CC1)(C4(CC(C(C4(O2)CO)O3)O)C)C
#inchikey GFLMBFRNOPTZDK-CMBQYIQPSA-N
#pubchem_id 5459101
#mb_accession AC000569,AC000570,AC000571,AC000572,AC000573

>ms2peaks
95.085500 16259296.000000
249.148500 19114426.000000
267.159100 194824320.000000

>ms2peaks
95.086500 19930934.000000
249.148500 23354382.000000
267.159100 183668176.000000

>ms2peaks
81.070900 11933554.000000
95.086500 54315460.000000
97.064800 17889114.000000
107.085500 3844960.750000
109.064800 9605349.000000
123.080400 17758102.000000
124.088300 5669884.000000
125.059700 4127887.000000
159.116800 5329365.000000
231.138000 4272649.000000
249.148500 24562410.000000
267.159100 80211968.000000

>ms2peaks
79.055200 4457256.500000
81.070900 21197902.000000
91.054200 2488038.750000
93.069900 2892888.500000
95.086500 67287664.000000
97.064800 31368430.000000
107.085500 9114760.000000
109.064800 14600022.000000
119.085500 2767016.750000
121.101200 2844103.250000
123.080400 34745032.000000
124.088300 14591542.000000
125.059700 6268628.000000
135.080400 4026844.250000
145.101200 2522943.500000
159.116800 9104538.000000
171.116800 2590679.750000
185.132500 3002774.250000
231.138000 3043247.000000
249.148500 11964506.000000
267.159100 19873814.000000

>ms2peaks
67.055400 5867233.000000
69.070900 1866052.750000
79.055300 9692994.000000
81.070900 20062506.000000
83.050200 1674491.625000
91.055200 4279673.500000
93.069900 5057159.500000
95.049100 2820103.500000
95.085500 49830904.000000
97.064800 27742336.000000
105.069900 5235448.500000
107.049100 1905823.500000
107.085500 9953568.000000
109.064800 22269244.000000
119.085500 5028808.000000
121.101200 3326180.000000
123.080400 24598544.000000
124.088300 15910864.000000
125.059700 3886362.000000
131.085500 2757513.250000
133.101200 2691214.000000
135.080400 1904913.125000
145.101200 2567351.000000
157.101200 2167333.000000
159.116800 5894450.500000
161.096100 1682926.875000

