>compound AC39038379
>parentmass 543.128
>ionization [M+H]+
>formula C30H22O10
>rt 225.000000
>profile orbitrap
#smiles_iso CC1=CC2=C(C(=C1)O)C(=C3C(=O)[C@H]4C(C5[C@]3(C2=O)[C@@H]6C(C5[C@@]47C(=C(C8=C(C7=O)C=C(C=C8O)C)O)C6=O)O)O)O
#smiles_can CC1=CC2=C(C(=C1)O)C(=C3C(=O)C4C(C5C3(C2=O)C6C(C5C47C(=C(C8=C(C7=O)C=C(C=C8O)C)O)C6=O)O)O)O
#inchikey QFDPVUTXKUGISP-NVWQCAADSA-N
#pubchem_id 10053075
#mb_accession AC000564,AC000565,AC000566,AC000567,AC000568

>ms2peaks
255.065200 252824.640625
271.060100 163699.484375
273.075700 1250005.375000
543.128600 3554066.500000

>ms2peaks
255.065200 1414519.375000
271.060100 487385.656250
273.075700 5283579.500000
507.107400 438871.812500
525.118000 173625.984375
543.128600 308128.968750

>ms2peaks
213.054600 211976.281250
217.049500 207606.250000
255.065200 4775734.500000
258.052300 229180.375000
271.060100 685859.187500
273.075700 5864876.500000
507.107400 523920.531250

>ms2peaks
213.054600 452840.625000
217.049500 211695.421875
227.070300 415299.062500
255.065200 6367526.500000
256.073000 239107.406250
258.052300 417805.937500
271.060100 602246.125000
273.075700 3955002.000000
507.107400 282562.937500

>ms2peaks
135.044100 226050.515625
153.069900 222159.500000
181.064800 386564.031250
185.059700 242227.281250
199.075400 209476.171875
209.059700 556457.312500
213.054600 990519.062500
227.070300 1349141.750000
255.065200 5961880.500000
256.073000 539376.062500
258.052300 686149.312500
271.060100 348255.562500
273.075700 377913.437500

