>compound AC39187554
>parentmass 555.2559
>ionization [M+Na]+
>formula C29H40O9
>rt 207.600000
>profile orbitrap
#smiles_iso C[C@@H]1CCO[C@H](/C=C/C=C\C(=O)O[C@@H]2C[C@@H]3[C@]4([C@]2([C@]5(CCC(=C[C@H]5O3)C)COC(=O)[C@H]1O)C)CO4)[C@@H](C)O
#smiles_can CC1CCOC(C=CC=CC(=O)OC2CC3C4(C2(C5(CCC(=CC5O3)C)COC(=O)C1O)C)CO4)C(C)O
#inchikey NSFWWJIQIKBZMJ-PAGWOCKZSA-N
#pubchem_id 9915017
#mb_accession AC000560,AC000561,AC000562,AC000563

>ms2
555.256500 247886272.000000

>ms2
279.120300 7094305.500000
325.125800 8921894.000000
555.256500 152634720.000000

>ms2
171.062800 2928256.750000
177.052200 7258472.500000
231.138000 6817568.000000
279.120300 11214694.000000
325.125800 12094705.000000
555.256500 70824632.000000

>ms2
67.054200 934106.062500
69.033500 158689.093750
69.069900 127206.320312
79.054200 886863.437500
81.069900 1384902.625000
91.054200 841535.812500
93.069900 1269573.125000
95.049100 2571848.000000
95.085500 1112126.000000
105.069900 1859870.500000
107.049100 190346.937500
107.085500 649665.750000
109.064800 382647.312500
109.101200 188598.125000
117.069900 371756.875000
119.085500 1882201.500000
121.064800 523834.093750
121.101200 360502.781250
123.080400 383798.250000
125.057300 201586.515625
128.062100 163978.125000
129.069900 305524.687500
131.085500 1251766.250000
133.064800 136981.671875
133.101200 786566.562500
135.080400 404197.250000
142.077700 236373.281250
143.085500 860609.187500
144.093400 129399.757812
145.101200 687994.437500
147.080400 431091.531250
147.116800 420180.937500
149.096100 834624.937500
153.052200 499328.093750
155.085500 125846.000000
156.093400 186412.812500
157.101200 648056.187500
159.116800 814358.125000
161.096100 441133.625000
161.132500 206237.687500
162.103900 165027.359375
169.101200 135375.015625
170.109000 228390.875000
171.062800 1250046.125000
171.116800 201316.781250
173.132500 192359.062500
175.111800 192061.156250
175.148100 327050.656250
177.052200 3057542.000000
177.088600 287575.781250
180.093400 106425.742188
185.132500 315313.875000
187.111800 134606.343750
189.127400 214091.968750
195.062800 136915.343750
203.143100 203370.859375
231.138000 1696355.500000
263.125400 177510.203125
279.120300 3168471.500000
325.125800 1612632.875000
555.256500 841603.875000

