>compound AC39167986
>parentmass 326.1858
>ionization [M+H]+
>formula C19H23N3O2
>rt 141.600000
>profile orbitrap
#smiles_iso C[C@@H](CO)NC(=O)[C@@H]1CN([C@@H]2CC3=CNC4=CC=CC(=C34)C2=C1)C
#smiles_can CC(CO)NC(=O)C1CN(C2CC3=CNC4=CC=CC(=C34)C2=C1)C
#inchikey WVVSZNPYNCNODU-PLQHRBFRSA-N
#pubchem_id 5486180
#mb_accession AC000318,AC000319,AC000320,AC000321,AC000322

>ms2peaks
326.186300 13291177.000000

>ms2peaks
265.133500 398983.500000
326.186300 11899055.000000

>ms2peaks
197.107300 243861.343750
208.075700 2155534.000000
223.123000 1625777.500000
251.117900 396496.625000
265.133500 799778.187500
283.144100 750032.437500
326.186300 7392912.000000

>ms2peaks
168.080800 212807.187500
180.080800 270145.093750
192.080800 197386.765625
197.107300 515883.437500
208.075700 5176206.500000
208.099500 417075.875000
221.107300 221331.453125
223.123000 3055106.750000
251.117900 528907.750000
265.133500 534120.937500
283.144100 404682.781250
311.162800 209486.828125
326.186300 1906159.750000

>ms2peaks
168.080800 267401.093750
180.080800 774056.937500
182.083900 141180.156250
191.073000 363903.281250
192.080800 421234.500000
193.076000 174945.328125
194.096400 184762.359375
197.107300 519978.312500
207.067900 581245.500000
207.091700 565938.250000
208.075700 4318201.500000
208.099500 1299176.375000
220.099500 165865.890625
221.107300 363257.000000
222.115200 220235.640625
223.123000 1680204.625000

