>compound AC40642095
>parentmass 253.1793
>ionization [M+H]+
>formula C15H24O3
>rt 206.400000
>profile orbitrap
#smiles_iso C[C@H]1[C@@H]([C@@H](CC(=C)[C@@H]2CC([C@@H]2CC1=O)(C)C)O)O
#smiles_can CC1C(C(CC(=C)C2CC(C2CC1=O)(C)C)O)O
#inchikey NGQXJSTYWWTPOG-VGYDOTAVSA-N
#pubchem_id 15431312
#mb_accession AC000278,AC000279,AC000280,AC000281,AC000282

>ms2
95.085500 3134582.500000
109.064800 2909063.000000
109.101200 2670094.000000
119.085500 2488150.750000
121.101200 5049810.000000
123.116800 3521898.500000
125.059700 3103829.500000
133.101200 2800095.750000
135.116800 2882712.750000
137.096100 3762154.250000
151.148100 2635399.250000
155.070300 5082378.500000
161.132500 3709979.750000
163.111800 4103669.250000
167.106700 2653704.500000
175.148100 6673682.000000
179.106700 8861141.000000
179.143100 5888501.500000
181.122300 5476173.500000
197.117200 2676406.500000
217.158700 5392578.000000
235.169300 13654197.000000
253.179800 76429048.000000

>ms2
95.085500 5149427.000000
109.064800 4287949.000000
109.101200 4421760.500000
119.085500 3943990.750000
121.101200 7512217.000000
123.116800 5271250.500000
125.059700 4704445.000000
133.101200 5290244.500000
135.116800 3830761.500000
137.096100 5725165.500000
151.148100 4377793.000000
155.070300 8391060.000000
161.132500 6244167.000000
163.111800 6374813.500000
167.106700 4514826.000000
175.148100 10016278.000000
179.106700 15518430.000000
179.143100 8597803.000000
181.122300 7983223.500000
197.117200 3837800.250000
217.158700 7793237.000000
235.169300 20837246.000000
253.179800 116781472.000000

>ms2
57.034100 1109563.875000
57.070500 1223620.500000
67.054200 3228283.250000
69.033500 1184380.875000
69.069900 3826823.250000
71.049100 1361835.500000
81.069900 4618014.500000
83.049100 3815214.750000
83.085500 6070190.500000
85.028400 1632783.500000
85.064800 2511895.000000
91.054200 1247837.875000
93.069900 5433846.000000
95.049100 3871567.500000
95.085500 10504610.000000
97.064800 2286240.000000
99.044100 1732836.125000
103.039000 1636705.000000
105.069900 4126104.000000
107.085500 8621594.000000
109.064800 8160647.000000
109.101200 9036335.000000
111.080400 1663542.500000
113.059700 1412482.500000
119.085500 10473457.000000
121.064800 1007646.437500
121.101200 17537866.000000
123.080400 4135216.750000
123.116800 8346038.500000
125.059700 8302124.000000
125.096100 1902938.250000
127.075400 1461339.375000
133.101200 12072017.000000
135.116800 9549429.000000
137.096100 8950247.000000
137.132500 1901014.125000
139.111800 1480569.125000
141.091000 1144177.750000
145.101200 2892187.500000
147.116800 5698263.000000
149.096100 2409306.000000
149.132500 1532607.375000
151.111800 3128666.750000
151.148100 4226711.000000
153.091000 1808839.000000
153.127400 1458180.500000
155.070300 8187447.500000
155.106700 2680786.500000
159.116800 1526483.125000
161.096100 4474387.500000
161.132500 8980773.000000
163.111800 7481014.500000
165.091000 2267339.250000
167.106700 4575491.500000
173.132500 1590568.375000
175.111800 1797718.750000
175.148100 13713715.000000
177.127400 1247161.750000
179.106700 17137794.000000
179.143100 6094753.500000
181.122300 7894769.500000
189.163800 3956148.750000
193.122300 1229049.250000
193.158700 1893011.125000
197.117200 2739065.500000
199.148100 1508837.250000
217.158700 5007444.500000
235.169300 10330623.000000
253.179800 31459460.000000

>ms2
57.034100 1537705.000000
57.070500 1825021.500000
67.054200 3937425.000000
69.033500 1427768.375000
69.069900 4819915.000000
71.049100 1658969.750000
79.054200 1564504.000000
81.069900 6209796.000000
83.049100 4073329.000000
83.085500 6031981.500000
85.028400 1951350.625000
85.064800 2870717.250000
91.054200 1779743.375000
93.069900 6896932.500000
95.049100 4422735.000000
95.085500 13361683.000000
97.064800 3014904.250000
97.101200 782011.750000
99.044100 1875110.375000
99.080400 712607.937500
103.039000 1365191.750000
105.069900 5389249.000000
107.085500 11364025.000000
109.064800 8098325.000000
109.101200 10216832.000000
111.080400 2117047.500000
113.059700 1616314.375000
119.085500 14607567.000000
121.064800 1223602.125000
121.101200 21406644.000000
123.080400 4396056.500000
123.116800 8202976.500000
125.059700 8808488.000000
125.096100 2163659.500000
127.075400 1374025.250000
133.101200 14594022.000000
135.080400 967386.437500
135.116800 9884907.000000
137.096100 8134754.000000
137.132500 1587008.375000
139.111800 1381613.250000
141.091000 1080314.000000
143.085500 890848.687500
145.101200 2970423.000000
147.080400 833648.312500
147.116800 5821452.500000
149.096100 2517663.250000
149.132500 1204472.250000
151.111800 3164038.250000
151.148100 2849532.000000
153.091000 1266069.500000
153.127400 1137134.250000
155.070300 6178406.500000
155.106700 1934950.250000
157.101200 794856.250000
159.116800 1377212.375000
161.096100 4652608.000000
161.132500 8877000.000000
163.111800 6794169.000000
165.091000 1918341.250000
167.106700 3477617.000000
173.132500 1309504.750000
175.111800 1377725.875000
175.148100 13283091.000000
177.127400 996182.937500
179.106700 12939383.000000
179.143100 3884031.750000
180.114500 890376.125000
181.122300 5170555.500000
189.163800 2966094.000000
193.122300 1077669.625000
193.158700 1412847.000000
197.117200 1393006.250000
199.148100 1111708.750000
217.158700 3403519.750000
235.169300 5529799.500000
253.179800 13453805.000000

>ms2
55.055000 355297.625000
57.034200 869025.187500
57.070500 850234.312500
67.054200 2124557.750000
69.033500 667919.312500
69.069900 2306915.000000
71.049100 836543.125000
79.054200 795802.562500
81.069900 3193060.250000
83.049100 1766612.625000
83.085500 2399405.000000
85.028400 841056.500000
85.064800 1285904.625000
91.054200 985340.625000
93.069900 3651502.500000
95.049100 2022549.875000
95.085500 5762324.500000
97.064800 1506709.375000
99.044100 680008.750000
99.080400 335358.156250
103.039000 366056.062500
105.069900 2885158.000000
107.085500 5610771.500000
109.064800 3357834.500000
109.101200 4684173.000000
111.080400 786357.750000
113.059700 833041.437500
119.085500 6944832.500000
121.064800 521813.937500
121.101200 9495905.000000
123.080400 1870925.875000
123.116800 3059204.250000
125.059700 3101666.500000
125.096100 994430.250000
127.075400 386523.343750
133.101200 6729806.500000
135.080400 357442.375000
135.116800 4488645.500000
137.096100 2738910.250000
137.132500 650167.500000
139.111800 467723.843750
143.085500 346263.562500
145.101200 1293242.000000
147.080400 391550.750000
147.116800 2488398.000000
149.096100 759401.687500
149.132500 394902.000000
151.111800 978796.375000
151.148100 849692.875000
153.091000 314652.156250
153.127400 460899.281250
155.070300 1605246.375000
155.106700 662090.125000
157.101200 337026.500000
159.116800 598828.562500
161.096100 1552477.000000
161.132500 3362332.000000
163.111800 2421815.750000
165.091000 520439.062500
167.106700 1036117.812500
173.132500 548320.937500
175.111800 509249.687500
175.148100 4100912.500000
177.127400 313496.062500
179.106700 3631623.000000
179.143100 991419.625000
180.114500 329474.968750
181.122300 1459993.500000
189.163800 905903.250000
193.122300 330322.968750
193.158700 390866.437500
199.148100 350114.656250
217.158700 923224.000000
235.169300 1211599.625000
253.179800 2394424.750000

