>compound AC42693847
>parentmass 899.5046999999998
>ionization [M+H]+
>formula C52H70N2O11
>rt 244.200000
>profile orbitrap
#smiles_iso C[C@@H]1CCC2[C@@]([C@@]13CC4=C(C=C5C(=C4O3)CN(C5=O)[C@@H](CCCCN6CC7=C8C(=C(C=C7C6=O)O)C[C@@]9(O8)[C@@H](CCC1[C@@]9(C[C@H]([C@H](C1(C)C)O)O)C)C)C(=O)O)O)(CC[C@H](C2(C)C)O)C
#smiles_can CC1CCC2C(C(CCC2(C13CC4=C(C=C5C(=C4O3)CN(C5=O)C(CCCCN6CC7=C8C(=C(C=C7C6=O)O)CC9(O8)C(CCC1C9(CC(C(C1(C)C)O)O)C)C)C(=O)O)O)C)O)(C)C
#inchikey GBUQOBUNFQDAQG-CRDDFVEESA-N
#pubchem_id 10677176
#mb_accession AC000618,AC000619,AC000620,AC000621,AC000622

>ms2
899.505300 79640576.000000

>ms2
817.476000 5162611.000000
835.486500 5703385.000000
853.499800 4449640.000000
863.484100 11545064.000000
881.494700 22826234.000000
882.492100 1146970.625000
899.505300 27507566.000000

>ms2
244.096800 879872.812500
384.214300 1475954.000000
434.266300 2225704.250000
450.261200 1951202.000000
611.308900 825553.312500
627.303800 3721229.000000
673.310100 1795563.125000
799.465400 2276977.000000
817.476000 23812028.000000
818.475300 997016.250000
835.486500 6176752.000000
853.499800 809943.812500
863.484100 3154197.750000
881.494700 984271.187500

>ms2
178.049900 535369.875000
244.096800 2978906.000000
368.219300 1208336.750000
380.219300 903975.687500
384.214300 3268406.250000
396.214300 1108476.750000
421.136700 840902.312500
423.152400 458267.500000
432.250700 545521.000000
434.266300 3584496.500000
450.261200 3039675.000000
468.271800 503885.343750
609.293200 709678.687500
611.308900 1482405.750000
627.303800 4080940.000000
673.310100 493418.656250
799.465400 1708772.625000
817.476000 13115545.000000
818.475300 613504.187500
835.486500 1394528.250000

>ms2
81.069900 454592.968750
82.065100 364130.125000
84.080800 432223.031250
93.069900 346585.687500
95.085500 836223.125000
107.085500 729736.750000
109.101200 677496.312500
119.085500 562681.125000
121.101200 802062.875000
133.101200 1180926.000000
135.116800 441212.468750
147.116800 378036.812500
149.132500 519543.375000
175.148100 289392.875000
178.049900 2890030.500000
180.065500 547243.687500
187.148100 370222.562500
189.163800 1345373.875000
190.049900 1998501.375000
191.057700 520432.843750
192.065500 2883582.000000
205.158700 321347.593750
216.065500 587270.625000
216.099200 650771.000000
218.081200 662309.812500
226.083600 562961.562500
228.099200 380088.281250
230.081200 960995.000000
232.096800 636497.750000
242.081200 798725.562500
243.086300 950914.062500
244.096800 8835382.000000
245.102000 756746.187500
246.109800 1020580.937500
256.096800 397428.875000
282.112500 283004.218750
296.125400 356814.437500
366.206400 311346.843750
368.219300 2179722.750000
380.219300 2362297.000000
384.214300 1018331.375000
396.214300 3267903.250000
398.229900 310055.750000
408.250700 336502.968750
414.224800 672535.687500
421.136700 1125579.625000
432.250700 499587.062500
434.266300 1230422.125000
448.245600 296575.875000
450.261200 601642.812500

