>compound AC43510560
>parentmass 389.1565
>ionization [M+Na]+
>formula C19H26O7
>rt 183.000000
>profile orbitrap
#smiles_iso CC1=C[C@@H]2[C@](CC1)([C@]3([C@@H]([C@H]([C@H]([C@]34CO4)O2)O)OC(=O)C)C)COC(=O)C
#smiles_can CC1=CC2C(CC1)(C3(C(C(C(C34CO4)O2)O)OC(=O)C)C)COC(=O)C
#inchikey AUGQEEXBDZWUJY-ZLJUKNTDSA-N
#pubchem_id 91518
#mb_accession AC000125,AC000126,AC000127,AC000128,AC000129

>ms2peaks
389.157100 385440736.000000

>ms2peaks
389.157100 316425344.000000

>ms2peaks
389.157100 106230648.000000

>ms2peaks
389.157100 32271342.000000

>ms2peaks
52.451900 32160.203125
66.953800 36075.460938
67.054200 50868.902344
77.326900 34734.792969
78.303600 33104.750000
79.054200 50665.792969
81.069900 44209.714844
83.146400 32866.796875
91.054200 83524.539062
93.069900 66861.218750
95.049100 240028.281250
95.085500 181980.531250
105.069900 184939.578125
106.824400 38516.472656
107.085500 146080.703125
117.069900 44990.382812
119.085500 74781.515625
121.064800 48362.027344
130.454800 41323.550781
131.085500 70911.523438
142.705100 43524.023438
147.080400 90945.515625
159.080400 47929.957031
159.116800 71545.828125
175.111800 74949.789062
206.908900 43452.859375
212.513500 38740.109375
247.132900 166493.359375
281.819700 51506.839844
389.157100 193420.812500

