>compound AC43213291
>parentmass 704.4451
>ionization [M+Na]+
>formula C36H63N3O9
>rt 400.200000
>profile orbitrap
#smiles_iso CC[C@H](C)[C@H]1C(=O)O[C@@H](C(=O)N([C@H](C(=O)O[C@@H](C(=O)N([C@H](C(=O)O[C@@H](C(=O)N1C)C(C)C)[C@@H](C)CC)C)C(C)C)[C@@H](C)CC)C)C(C)C
#smiles_can CCC(C)C1C(=O)OC(C(=O)N(C(C(=O)OC(C(=O)N(C(C(=O)OC(C(=O)N1C)C(C)C)C(C)CC)C)C(C)C)C(C)CC)C)C(C)C
#inchikey TWHBYJSVDCWICV-BHZTXFQCSA-N
#pubchem_id 57339252
#mb_accession AC000449,AC000450,AC000451,AC000452

>ms2peaks
704.445700 1072745984.000000

>ms2peaks
350.193500 38584968.000000
577.345900 64405976.000000
704.445700 1080048768.000000

>ms2peaks
210.148900 22961100.000000
232.130500 46827680.000000
350.193500 193557632.000000
368.204100 25981468.000000
477.293200 26963370.000000
577.345900 127439584.000000
704.445700 664030016.000000

>ms2peaks
83.049100 34688540.000000
100.112100 259689280.000000
122.094000 12174449.000000
123.041700 30197046.000000
141.052200 36429652.000000
168.099200 19949230.000000
182.154000 116097240.000000
210.148900 115466440.000000
232.130500 337255360.000000
250.141100 69949624.000000
268.151600 14440077.000000
350.192200 203466960.000000
368.204100 11751177.000000

