>compound AC44520935
>parentmass 197.0803
>ionization [M+H]+
>formula C10H12O4
>rt 148.800000
>profile orbitrap
#smiles_iso C[C@@H]1C[C@H]2[C@H](O2)/C=C\C(=O)CC(=O)O1
#smiles_can CC1CC2C(O2)C=CC(=O)CC(=O)O1
#inchikey MXRJZFNJVFPSQN-NQRYBKARSA-N
#pubchem_id 101635652
#mb_accession AC000767,AC000768,AC000769,AC000770

>ms2
85.028400 723397.812500
137.059700 714723.937500
155.070300 12981486.000000
197.080800 4218970.000000

>ms2
85.028400 752826.312500
137.059700 686413.687500
155.070300 12674579.000000
197.080800 4145458.750000

>ms2
85.028400 1214143.000000
137.059700 1117822.125000
155.070300 13723171.000000
197.080800 2390085.000000

>ms2
81.033500 729542.625000
83.012800 524171.250000
83.049100 496777.906250
85.028400 2072730.375000
137.059700 2094507.375000
155.070300 10230213.000000
197.080800 435100.937500

