>compound AC44491669
>parentmass 381.1316
>ionization [M+Na]+
>formula C21H18N4O2
>rt 193.800000
>profile orbitrap
#smiles_iso C[C@H]1C2=NC3=CC=CC=C3C(=O)N2[C@@H](C(=O)N1)CC4=CNC5=CC=CC=C54
#smiles_can CC1C2=NC3=CC=CC=C3C(=O)N2C(C(=O)N1)CC4=CNC5=CC=CC=C54
#inchikey SUVZUTHVKIBYOH-KPZWWZAWSA-N
#pubchem_id 10089772
#mb_accession AC000912,AC000913,AC000914,AC000915

>ms2peaks
363.167000 18284.240234
381.132200 346828.750000

>ms2peaks
363.166700 19520.333984
379.180400 10277.843750
381.132200 240491.171875

>ms2peaks
340.152100 8622.086914
358.163600 20059.484375
363.167400 10257.789062
379.182500 42398.289062
381.132200 19183.832031

>ms2peaks
53.787500 2280.922852
71.556900 2176.542236
100.970100 2398.452881
178.861000 2408.161377
244.953500 2463.114258
267.738100 2823.732666
340.151400 13552.797852
358.161300 45400.277344
363.166300 3858.920898
379.020700 3012.700439
379.138200 4239.953125
379.182300 67323.343750
381.132200 3605.048340

