>compound AC44421745
>parentmass 317.2106
>ionization [M+H]+
>formula C20H28O3
>rt 273.000000
>profile orbitrap
#smiles_iso C[C@@H]1CC(=O)[C@]/2([C@@H]1C[C@]3(CC[C@@H]([C@@H]3C/C=C2/C=O)C(=C)C)C)O
#smiles_can CC1CC(=O)C2(C1CC3(CCC(C3CC=C2C=O)C(=C)C)C)O
#inchikey QXVAWAHULUVLPT-FHIBGDQLSA-N
#pubchem_id 6442110
#mb_accession AC000243,AC000244,AC000245,AC000246,AC000247

>ms2peaks
173.132500 34588.066406
175.148100 44236.781250
183.116800 36346.441406
185.132500 62837.023438
187.148100 26768.939453
217.122300 55761.949219
237.163800 33682.558594
239.179500 65115.835938
253.195100 61173.671875
263.179500 38373.128906
271.205700 125137.609375
281.190000 446636.000000
299.200600 799137.125000
317.211100 815580.500000

>ms2peaks
121.101200 28793.882812
173.132500 43588.917969
175.148100 82062.578125
183.116800 48131.343750
185.132500 92424.398438
187.148100 40709.160156
197.132500 30071.324219
211.148100 30581.388672
217.122300 86480.750000
237.163800 47614.214844
239.143100 31852.841797
239.179500 115212.984375
253.195100 94521.929688
263.179500 50797.410156
271.205700 143049.203125
281.190000 419550.656250
299.200600 852859.375000
317.211100 516400.406250

>ms2peaks
69.033500 50771.054688
69.069900 26639.748047
81.069900 47672.695312
83.085500 19791.427734
93.069900 42561.128906
95.085500 53612.769531
105.069900 35124.347656
107.085500 62547.859375
109.101200 30043.578125
113.059700 29128.121094
119.085500 70041.703125
121.101200 55498.171875
131.085500 28669.156250
133.101200 48669.574219
135.116800 44418.878906
141.054600 22695.884766
143.085500 24580.097656
145.101200 55484.281250
147.116800 35120.144531
149.132500 21832.675781
157.101200 45448.144531
159.116800 46766.023438
161.132500 31547.902344
163.148100 21968.462891
169.101200 36648.191406
171.116800 46663.246094
173.096100 26001.136719
173.132500 93536.796875
175.111800 49567.097656
175.148100 169812.109375
183.116800 78279.453125
185.132500 164190.578125
187.111800 29482.457031
187.148100 49345.453125
189.127400 26996.394531
195.116800 25971.642578
197.132500 59941.593750
199.111800 26428.677734
201.127400 27330.720703
211.111800 24056.109375
211.148100 63323.289062
215.106700 19672.535156
215.143100 27486.617188
217.122300 118277.093750
221.132500 22438.490234
225.127400 36412.578125
229.122300 37908.109375
229.158700 21843.322266
229.195100 29347.707031
231.138000 30888.384766
237.163800 64058.722656
239.143100 48295.359375
239.179500 206792.843750
243.138000 22608.335938
243.210800 20276.095703
253.195100 111619.054688
255.174400 43252.132812
257.153600 46791.078125
263.179500 63622.593750
271.205700 161607.437500
281.190000 229248.234375
299.200600 605873.562500
317.211100 100813.156250

>ms2peaks
67.054200 15597.597656
69.033500 96582.171875
69.069900 41134.742188
81.069900 74774.593750
83.085500 27748.515625
91.054200 20447.289062
93.069900 77260.406250
95.085500 91801.421875
97.064800 20451.587891
105.069900 68454.687500
107.085500 102017.437500
109.064800 22657.990234
109.101200 46511.406250
113.059700 47297.234375
119.085500 115363.648438
121.101200 81654.304688
123.080400 19403.156250
123.116800 24683.169922
125.059700 20658.351562
127.075400 17296.281250
131.085500 53887.183594
133.101200 76482.609375
135.116800 67544.835938
137.096100 16768.875000
141.054600 36025.957031
143.085500 43714.847656
145.101200 86806.445312
147.116800 69415.210938
149.096100 15509.050781
149.132500 21731.425781
155.070300 20372.656250
155.085500 25266.011719
157.101200 77499.656250
159.080400 17180.849609
159.116800 76055.601562
161.096100 16908.804688
161.132500 46328.289062
163.111800 15320.108398
163.148100 25037.572266
165.091000 18058.589844
169.101200 66317.078125
171.116800 69637.359375
173.096100 24660.228516
173.132500 112116.664062
175.111800 53592.226562
175.148100 212456.968750
177.091000 20299.140625
177.163800 16968.734375
183.116800 98497.796875
185.132500 192189.109375
187.111800 41370.328125
187.148100 45117.816406
189.127400 37274.472656
195.116800 23322.908203
197.132500 88786.328125
199.111800 31081.576172
201.127400 39946.914062
203.143100 15205.371094
207.116800 27448.115234
211.111800 19546.699219
211.148100 80875.601562
213.127400 27796.628906
213.163800 15459.553711
215.106700 25564.765625
215.143100 23021.615234
217.122300 117124.195312
221.132500 29258.351562
225.127400 34091.351562
229.122300 45322.207031
229.158700 31571.412109
229.195100 27626.880859
231.138000 44869.246094
237.163800 81973.773438
239.143100 54877.929688
239.179500 226575.312500
243.138000 24456.070312
243.210800 18856.621094
253.195100 106855.726562
255.174400 53244.296875
257.153600 56883.933594
257.190000 26935.929688
263.179500 37345.796875
271.169300 17429.335938
271.205700 180256.562500
281.190000 178249.703125
299.200600 465335.625000
317.211100 50221.390625

>ms2peaks
55.054900 26745.660156
57.070500 13211.199219
67.054200 59109.667969
69.033500 253528.656250
69.069900 87287.257812
71.049100 16369.104492
79.054200 63523.476562
81.069900 176163.453125
83.049100 13591.305664
83.085500 28122.898438
91.054200 71216.023438
93.069900 194806.484375
95.049100 31508.671875
95.085500 142443.546875
97.064800 41839.382812
105.069900 253610.031250
107.085500 190549.328125
109.064800 46849.675781
109.101200 60715.128906
111.080400 14584.325195
113.059700 111790.945312
117.069900 41085.390625
119.085500 273610.250000
121.064800 25869.009766
121.101200 121024.187500
123.080400 34815.535156
123.116800 25561.933594
125.059700 26866.816406
127.075400 12414.538086
128.062100 11446.340820
129.069900 37252.496094
131.085500 148940.515625
133.064800 21797.097656
133.101200 178275.156250
135.080400 20980.804688
135.116800 72659.437500
137.059700 13116.941406
137.096100 13238.685547
141.054600 42379.355469
141.069900 21092.824219
142.077700 32657.244141
143.085500 139519.328125
144.093400 15325.668945
145.064800 19464.273438
145.101200 174883.250000
147.080400 26407.341797
147.116800 127511.445312
149.096100 21538.638672
149.132500 22168.337891
155.085500 77155.601562
156.093400 29460.285156
157.101200 185711.328125
158.109000 12339.864258
159.080400 25447.265625
159.116800 140464.515625
161.096100 27949.066406
161.132500 46043.242188
163.075400 11704.578125
163.111800 14562.919922
167.085500 14475.832031
168.093400 17781.580078
169.101200 145169.890625
170.109000 39219.312500
171.080400 12842.569336
171.116800 109032.507812
173.096100 42854.398438
173.132500 105202.593750
175.111800 68279.835938
175.148100 129318.992188
177.091000 12145.682617
181.101200 29118.306641
182.109000 24054.898438
183.116800 148388.140625
185.096100 26427.548828
185.132500 145615.140625
187.111800 38012.949219
187.148100 44140.753906
189.127400 47215.617188
193.101200 17337.296875
195.116800 51326.449219
196.124700 23299.375000
197.096100 15585.982422
197.132500 109539.976562
199.111800 40528.140625
199.148100 12470.587891
201.127400 33620.531250
201.163800 13777.010742
203.143100 19154.623047
206.109000 10898.434570
207.116800 30636.964844
209.132500 24611.375000
210.140300 12412.005859
211.111800 17789.482422
211.148100 79451.781250
213.127400 18403.353516
213.163800 11992.418945
215.106700 19196.484375
215.143100 15841.297852
217.122300 48362.472656
221.132500 22759.185547
223.148100 13407.830078
224.156000 15824.344727
225.127400 15484.428711
225.163800 16393.861328
227.143100 12093.167969
229.122300 19408.714844
229.158700 75226.414062
229.192700 21478.378906
231.138000 19057.468750
233.132500 10733.720703
237.163800 57845.484375
239.143100 28006.845703
239.179500 131895.781250
243.138000 12124.804688
243.210800 12257.660156
248.156000 12714.388672
253.195100 30824.130859
255.174400 42771.871094
257.153600 59181.574219
271.205700 121096.218750
281.190000 30126.224609
299.200600 63816.750000

