>compound AC44576878
>parentmass 237.1844
>ionization [M-H2O+H]+
>formula C15H26O3
>rt 153.600000
>profile orbitrap
#smiles_iso C[C@@]12CC[C@H](C([C@H]3[C@@H]1[C@@H](C[C@@]2(C3O)C)O)(C)C)O
#smiles_can CC1(C(CCC2(C3C1C(C2(CC3O)C)O)C)O)C
#inchikey XFKGEQRMYJCXFK-YTAGIEBCSA-N
#pubchem_id 122706895
#mb_accession AC000100,AC000101,AC000102,AC000103,AC000104

>ms2
95.085500 28292.597656
107.085500 15282.190430
109.101200 16377.666992
119.085500 14012.595703
121.101200 12300.881836
123.116800 9402.001953
135.116800 11897.193359
137.096100 35031.019531
145.101200 18230.445312
147.116800 8567.399414
159.116800 21183.476562
161.132500 12895.556641
163.111800 8580.545898
175.148100 53777.250000
177.163800 25197.164062
191.179500 20033.375000
201.163800 89003.203125
219.174400 145944.421875
237.184900 217434.750000

>ms2
95.085500 81537.875000
107.085500 47283.375000
109.101200 60261.414062
119.085500 46158.792969
121.101200 52793.171875
133.101200 29307.087891
135.116800 38962.445312
137.096100 120122.562500
145.101200 47356.050781
147.116800 35366.187500
159.116800 78344.007812
161.132500 49724.175781
163.111800 27096.449219
173.132500 43059.156250
175.148100 198992.328125
177.163800 91728.476562
191.179500 89539.843750
201.163800 304924.687500
219.174400 528093.250000
237.184900 782178.500000

>ms2
69.069900 53861.949219
81.069900 75993.593750
83.085500 33703.492188
85.064800 28783.888672
93.069900 94894.476562
95.049100 19172.183594
95.085500 301776.218750
97.101200 19086.103516
99.080400 22497.519531
105.069900 69311.359375
107.085500 189663.718750
109.101200 211521.781250
111.080400 41887.746094
117.069900 24426.613281
119.085500 169392.843750
121.101200 210838.703125
123.080400 30314.382812
123.116800 81494.945312
125.096100 24212.736328
131.085500 47865.089844
133.101200 101573.679688
135.080400 34120.218750
135.116800 155293.828125
137.096100 320697.968750
137.132500 19931.775391
145.101200 170619.468750
147.116800 90830.898438
149.096100 77132.984375
149.132500 51015.195312
159.116800 242329.453125
161.132500 138325.968750
163.111800 62344.019531
173.132500 114745.421875
175.148100 591903.375000
177.163800 208243.578125
191.179500 172383.281250
193.158700 23153.593750
201.163800 578893.937500
219.174400 587144.062500
237.184900 407688.468750

>ms2
59.049800 53589.660156
67.054200 57710.804688
69.069900 171832.250000
81.069900 194991.484375
83.085500 97069.500000
85.064800 65919.226562
91.054200 49166.027344
93.069900 286416.531250
95.049100 47452.582031
95.085500 862593.562500
97.064800 61606.796875
97.101200 46192.128906
105.069900 176374.015625
107.085500 535119.687500
109.064800 43337.449219
109.101200 575767.937500
111.080400 97440.335938
117.069900 66749.789062
119.085500 533823.625000
121.101200 560887.062500
123.080400 75032.820312
123.116800 204867.578125
125.096100 57445.308594
131.085500 138570.312500
133.101200 339565.375000
135.080400 99215.820312
135.116800 376202.093750
137.096100 606303.875000
137.132500 53770.488281
145.101200 450482.750000
147.116800 218130.578125
149.096100 168739.109375
149.132500 114506.203125
159.116800 595248.625000
161.132500 319740.187500
163.111800 145637.453125
173.132500 263436.812500
175.148100 1317587.750000
177.127400 46676.457031
177.163800 467801.593750
191.179500 279173.937500
201.163800 944519.250000
219.174400 786935.687500
237.184900 330928.500000

>ms2
59.049800 64254.664062
67.054200 115816.601562
69.069900 320921.593750
79.054200 59640.261719
81.069900 311358.031250
83.085500 173628.015625
85.064800 100964.203125
91.054200 86056.335938
93.069900 463903.718750
95.049100 68044.359375
95.085500 1219297.875000
97.064800 88010.203125
97.101200 67598.187500
99.080400 50461.359375
105.069900 303227.812500
107.085500 821366.437500
109.064800 65162.546875
109.101200 794622.562500
111.080400 143386.703125
117.069900 108313.054688
119.085500 791413.125000
121.101200 868457.375000
123.080400 84819.625000
123.116800 266863.125000
125.096100 47424.679688
131.085500 227752.796875
133.101200 501543.906250
135.080400 132200.171875
135.116800 475106.062500
137.096100 615515.562500
137.132500 60647.363281
145.101200 616133.187500
147.116800 261743.734375
149.096100 208927.281250
149.132500 142720.453125
159.116800 773395.562500
161.132500 348787.531250
163.111800 149193.531250
173.132500 357667.687500
175.148100 1452351.125000
177.163800 436434.500000
191.179500 245153.843750
201.163800 788298.500000
219.174400 561030.125000
237.184900 144554.390625

