>compound AC45081637
>parentmass 565.2039
>ionization [M+Na]+
>formula C29H34O10
>rt 207.000000
>profile orbitrap
#smiles_iso CC1=CC2C3(CC1)COC(=O)C4C5(O4)CCOC(C5O)(/C=C\C=C/C(=O)OC6C3(C7(CO7)C(C6)O2)C)C(=O)C
#smiles_can CC1=CC2C3(CC1)COC(=O)C4C5(O4)CCOC(C5O)(C=CC=CC(=O)OC6C3(C7(CO7)C(C6)O2)C)C(=O)C
#inchikey SJCPVUVBUQDGKN-VXWIUBPCSA-N
#pubchem_id 101307900
#mb_accession AC000588,AC000589,AC000590,AC000591

>ms2peaks
565.204400 1707585.125000

>ms2peaks
231.138000 192070.296875
261.075700 38206.812500
291.086300 27139.482422
307.081200 42854.320312
335.073700 141567.328125
537.209500 42622.593750
565.204400 676086.062500

>ms2peaks
67.055200 6708.516602
79.055300 5389.829590
81.070900 22101.722656
85.527900 3364.944824
93.069900 15997.882812
95.050200 31696.402344
95.086500 15053.370117
105.069900 33753.390625
107.085500 5913.841797
109.064800 11685.200195
119.085500 24862.548828
120.338400 3738.810791
121.064800 6365.871094
121.101200 6626.770020
123.080400 5459.549805
131.085500 14641.875977
133.101200 17376.181641
135.041700 3297.706787
143.085500 11995.407227
145.101200 14132.061523
147.080400 13468.283203
147.116800 11509.991211
149.096100 12639.539062
157.101200 14110.245117
159.116800 14598.252930
161.096100 13717.630859
161.132500 3554.838623
170.109000 3496.535400
171.116800 4231.706055
173.132500 4318.451660
175.148100 13363.958008
177.015800 3983.702393
185.132500 12465.664062
189.127400 3822.357910
191.031500 4936.694336
193.047100 3881.332520
203.143100 10945.319336
217.049500 6766.074219
218.054900 5526.202637
219.062800 4397.075195
231.138000 100368.312500
249.075700 3828.123291
261.073300 28807.175781
271.130500 3616.957520
289.068200 6630.747559
291.083900 4356.245605
307.081200 21145.953125
332.086600 3409.621826
335.073700 37112.515625
383.143100 3464.013672
511.775700 3480.968018
565.204400 21012.355469

>ms2peaks
54.931600 3609.300781
55.055300 4191.266113
55.713200 2944.936035
55.949000 3087.933594
62.753700 3846.110596
67.055300 30859.312500
71.050100 3572.866699
79.055200 21604.496094
81.070800 28715.378906
88.166600 3895.401611
91.054200 27445.078125
93.069900 21266.177734
95.050100 46109.406250
95.085500 19210.794922
105.069900 42733.082031
107.085500 8329.872070
109.064800 4725.232422
117.069900 8127.069336
119.085500 37096.039062
121.064800 14487.646484
121.101200 5561.368652
128.062100 4596.079590
129.069900 3874.072510
131.085500 29206.468750
133.101200 6337.612305
142.077700 8927.201172
143.085500 18289.748047
144.093400 3967.673584
145.101200 6172.463379
149.096100 8724.440430
155.085500 4613.515625
159.116800 7160.520996
161.096100 6385.875000
185.135900 4059.605713
201.586200 4306.370117
204.264400 3636.744629
221.422700 4663.433594
222.813400 4368.036621
226.557800 4428.030762
231.138000 5197.418945
303.648800 4073.587891
476.457600 4457.460449
498.307700 4044.548096

