>compound AC45165095
>parentmass 383.1695
>ionization [M+H]+
>formula C19H26O8
>rt 170.400000
>profile orbitrap
#smiles_iso CC1=C[C@@H]2[C@](C[C@@H]1O)([C@]3([C@@H]([C@H]([C@H]([C@@]34CO4)O2)O)OC(=O)C)C)COC(=O)C
#smiles_can CC1=CC2C(CC1O)(C3(C(C(C(C34CO4)O2)O)OC(=O)C)C)COC(=O)C
#inchikey TVZHDVCTOCZDNE-WVJYZQHISA-N
#pubchem_id 13818797
#mb_accession AC000194,AC000195,AC000196,AC000197,AC000198

>ms2
109.064800 4887.691895
121.064800 42520.386719
125.059700 11800.987305
157.101200 4249.041992
171.116800 4165.702148
173.096100 4613.017090
175.111800 5073.438477
185.096100 5846.843262
187.111800 11237.929688
197.096100 11143.561523
199.111800 20057.150391
203.106700 14478.067383
209.096100 3403.655518
215.106700 42948.472656
217.122300 21591.437500
227.106700 31497.705078
233.117200 20530.277344
245.117200 72882.585938
263.127800 41665.675781
275.127800 13289.395508
281.138400 4100.282227
287.127800 5895.278320
305.138400 41337.937500
306.140100 5124.695801
323.148900 57801.289062
341.155100 8436.473633
365.159500 105285.406250
383.170000 94680.453125

>ms2
75.957400 2175.517822
83.688600 2464.816406
87.970300 2286.845947
95.049100 3493.429199
97.064800 4996.860352
105.069900 2940.109863
107.049100 3034.603027
109.064800 6007.197754
115.207900 3082.249268
121.064800 51674.687500
125.059700 17441.314453
131.085500 3681.335449
137.059700 4137.661621
145.101200 4358.791016
157.101200 6221.388184
159.080400 5358.189941
159.116800 3460.695801
163.075400 3494.177246
171.116800 10952.306641
173.096100 23330.093750
175.111800 5910.185059
179.106700 2574.451172
181.101200 3778.470459
185.096100 16975.031250
187.111800 23514.699219
189.127400 3610.060059
191.106700 5545.053711
197.096100 22230.570312
199.111800 30102.480469
203.106700 11144.197266
205.122300 2585.217773
209.096100 4748.280273
215.106700 45819.917969
217.122300 22279.900391
227.106700 41197.000000
233.117200 16969.015625
235.132900 4177.985352
245.117200 62864.335938
245.138300 4502.595215
263.127800 29067.621094
275.127800 3876.348145
280.265000 3118.248047
281.138400 4510.693359
287.127800 3981.907959
305.138400 26750.648438
306.141700 2959.898438
323.148900 21178.912109
365.159500 31921.193359
383.170000 17184.423828

>ms2
66.181500 2192.399658
69.033500 2683.863037
70.217900 2404.917236
84.073300 2230.253906
93.069900 11708.965820
95.049100 9823.833984
97.064800 10754.271484
105.069900 5349.502930
107.049100 5520.130859
109.064800 5422.049316
117.069900 2627.672363
119.085500 3262.380127
121.064800 54652.667969
123.044100 2566.723389
125.059700 10969.333008
131.085500 4555.574219
135.080400 3607.153809
139.075400 3503.489990
143.085500 10632.034180
145.101200 10293.546875
147.080400 3962.229248
157.101200 11185.823242
159.080400 5429.487305
159.116800 6327.402832
161.096100 9634.222656
163.075400 3019.266846
169.101200 5878.753906
171.080400 2610.363037
171.116800 9800.949219
173.096100 19169.285156
175.075400 2820.537109
175.111800 4212.124512
177.089100 2531.255859
181.101200 4607.558594
185.096100 16142.497070
187.111800 16603.048828
189.127400 6015.655273
191.106700 10421.713867
197.096100 24082.847656
199.111800 26712.021484
203.106700 12957.571289
209.096100 5339.781250
215.106700 28146.037109
215.741800 2713.199707
217.122300 14477.133789
227.106700 21814.335938
233.117200 6125.331055
245.117200 24861.941406
263.127800 21102.566406
323.148900 3870.902100
324.177900 2709.328125

>ms2
50.009100 1952.841797
50.236700 2031.585693
53.786800 2168.372070
57.439200 2228.955078
59.556100 2155.618164
69.034200 3119.033203
72.115000 2224.667480
77.683000 2231.992676
79.054200 5229.057617
91.054200 2918.939453
93.069900 8677.761719
95.049100 6213.005859
97.064800 12532.434570
105.069900 3224.548096
106.334500 2589.317871
107.049100 5615.085938
109.064800 5655.410156
115.510500 2496.109131
119.085500 4658.374512
121.064800 45606.730469
123.044100 2639.637207
125.059700 14754.069336
133.064800 2788.119141
137.443000 3085.914062
143.085500 11732.025391
145.101200 11427.967773
147.080400 5882.909668
149.059700 3244.639404
156.093400 3574.658691
157.101200 11032.078125
159.080400 6176.954102
159.116800 11524.439453
161.096100 4298.858887
162.256700 2345.957520
163.075400 3529.918457
169.101200 11382.101562
171.080400 6001.297852
171.116800 5247.507324
173.096100 20509.925781
173.560800 2590.163818
175.111800 5807.808105
181.101200 3562.625732
185.096100 12288.060547
187.111800 22611.304688
189.127400 3893.300049
191.106700 3247.080322
197.096100 20969.779297
199.111800 20337.515625
203.106700 5744.499023
209.096100 4087.246826
215.106700 21726.949219
217.122300 10411.819336
227.106700 11096.653320
245.117200 17433.107422
263.127800 10552.517578
301.320700 2558.074219
338.454900 3166.170410

>ms2
60.885500 2110.836670
66.395400 2263.540039
67.054200 3974.595703
79.054200 5367.310059
81.069900 3368.890869
91.054200 3230.598877
93.069900 10807.470703
95.049100 9899.905273
97.064800 11593.842773
105.069900 15126.198242
107.049100 4305.986328
109.064800 11359.412109
119.085500 6433.728516
121.064800 43889.378906
123.044100 3768.095459
123.080400 3755.876465
125.059700 4364.899414
128.062100 6201.840332
131.085500 10339.440430
133.064800 4594.944824
133.101200 3140.492432
135.080400 2705.411133
141.069900 2828.279541
142.077700 4813.975098
143.085500 15232.761719
145.064800 3943.198975
145.101200 14891.511719
147.080400 3556.659180
156.093400 4834.162598
157.101200 12322.995117
158.072600 5271.327148
159.080400 10070.089844
159.116800 6058.299805
169.101200 5235.107910
171.116800 3497.249268
173.096100 12167.785156
175.111800 5354.541504
184.088300 4697.460449
185.096100 3653.236084
187.111800 5558.211426
197.096100 4306.747070
199.111800 3388.569580
216.448600 2909.419434
240.824100 3130.948486

