>compound AC46979222
>parentmass 329.065
>ionization [M+H]+
>formula C17H12O7
>rt 168.000000
>profile orbitrap
#smiles_iso COC1=C2C3=C(C(=O)CC3)C(=O)OC2=C4C(=C1)O[C@@H]5[C@]4(C=CO5)O
#smiles_can COC1=C2C3=C(C(=O)CC3)C(=O)OC2=C4C(=C1)OC5C4(C=CO5)O
#inchikey MJBWDEQAUQTVKK-IAGOWNOFSA-N
#pubchem_id 15558498
#mb_accession AC000044,AC000045,AC000046

>ms2peaks
257.080800 752702.250000
259.060100 3224458.250000
273.075700 7826783.500000
283.060100 893865.312500
285.039300 557980.875000
287.055000 694416.687500
301.070700 4070867.500000
329.065600 9329841.000000

>ms2peaks
255.065200 455362.562500
257.080800 1105899.500000
258.052300 438811.593750
259.060100 4423051.000000
273.075700 11381348.000000
283.060100 1142120.500000
285.039300 676930.187500
287.055000 507426.281250
301.070700 3290765.500000
329.065600 4280785.000000

>ms2peaks
202.062400 454268.750000
203.070300 616000.750000
213.054600 404924.562500
217.085900 594428.750000
227.070300 762694.187500
229.049500 2302242.000000
230.057400 763274.500000
231.065200 605858.375000
241.049500 306573.312500
245.080800 322068.093750
255.065200 1076671.875000
257.044400 620409.187500
257.080800 747522.375000
258.052300 2299233.250000
259.060100 3671244.250000
273.075700 8826995.000000
283.060100 523549.531250
301.070700 418150.625000

