>compound AC46750657
>parentmass 369.0963
>ionization [M+H]+
>formula C20H16O7
>rt 256.200000
>profile orbitrap
#smiles_iso C[C@]12CCC[C@H](O1)C3=C(O2)C=C4C(=C3O)C(=O)C5=C(C4=O)C=C(C=C5O)O
#smiles_can CC12CCCC(O1)C3=C(O2)C=C4C(=C3O)C(=O)C5=C(C4=O)C=C(C=C5O)O
#inchikey RYFFZJHGQCKWMV-YUNKPMOVSA-N
#pubchem_id 638296
#mb_accession AC000071,AC000072,AC000073,AC000074,AC000075

>ms2
285.039300 1034816.500000
299.055000 1316984.375000
311.055000 3873053.000000
327.086300 700003.000000
351.086300 1636368.375000
369.096900 12380009.000000

>ms2
285.039300 4138707.500000
299.055000 3106955.500000
309.039300 635517.875000
311.055000 12450356.000000
327.086300 1981287.250000
351.086300 2593377.500000
369.096900 6554260.000000

>ms2
285.039300 8575943.000000
299.055000 2949492.750000
311.055000 21685776.000000
327.086300 1678014.375000
351.086300 1201133.625000

>ms2
285.039300 9843563.000000
299.055000 2399446.500000
311.055000 23054624.000000
327.086300 973789.187500

>ms2
71.049100 459715.500000
95.012800 459884.218750
213.054600 1552374.250000
229.049500 419097.718750
231.028800 658323.750000
237.054600 502992.656250
241.049500 3022228.750000
255.065200 538761.187500
257.044400 855707.875000
265.049500 1024667.062500
269.044400 3002128.500000
283.060100 1791668.250000
285.039300 7725434.500000
286.047200 396009.343750
293.044400 405788.906250
299.055000 793082.500000
311.055000 11348415.000000

