>compound AC46435536
>parentmass 562.3018
>ionization [M+H]+
>formula C31H39N5O5
>rt 164.400000
>profile orbitrap
#smiles_iso CC(C)[C@H]1C(=O)N2CCC[C@H]2[C@]3(N1C(=O)[C@](O3)(C(C)C)NC(=O)[C@H]4CN([C@@H]5CC6=CNC7=CC=CC(=C67)C5=C4)C)O
#smiles_can CC(C)C1C(=O)N2CCCC2C3(N1C(=O)C(O3)(C(C)C)NC(=O)C4CN(C5CC6=CNC7=CC=CC(=C67)C5=C4)C)O
#inchikey UJYGDMFEEDNVBF-OGGGUQDZSA-N
#pubchem_id 73453
#mb_accession AC000293,AC000294,AC000295,AC000296,AC000297

>ms2peaks
544.291800 211510144.000000
562.302400 110580248.000000

>ms2peaks
223.123000 34466640.000000
225.100900 4181901.750000
261.138600 4031093.250000
268.141800 23208602.000000
277.153300 62040356.000000
305.127100 71503736.000000
348.168000 44292444.000000
544.291800 103351640.000000
562.302400 4460614.500000

>ms2peaks
83.049100 4674986.000000
167.116500 9982284.000000
191.073000 4974913.000000
192.080800 3155106.000000
195.111500 14058322.000000
208.074300 12121721.000000
221.107300 6040773.000000
223.123000 88564792.000000
225.100900 5825376.500000
261.138600 12766718.000000
268.141800 19504646.000000
277.154700 60801580.000000
305.127100 78652752.000000
348.168000 15009309.000000
544.291800 3005375.500000

>ms2peaks
83.049100 6956549.500000
153.064500 4275177.000000
167.116500 16157329.000000
191.073000 6447518.000000
192.080800 6854166.500000
195.111500 18800244.000000
208.074300 18079986.000000
221.107300 11935683.000000
223.123000 86765968.000000
225.100900 4944469.500000
261.138600 10587315.000000
268.144400 12265452.000000
277.130900 16922250.000000
277.153300 26017520.000000
305.127100 45771592.000000
320.173100 2793074.250000
348.168000 5137122.500000

>ms2peaks
70.065100 2035667.375000
83.049100 7436622.500000
139.123000 10838314.000000
153.064500 9409198.000000
154.065100 2614635.500000
167.073000 4483612.000000
167.116500 15742757.000000
168.080800 2454874.500000
178.065100 1834202.500000
180.080800 12829035.000000
181.088600 3767822.250000
182.096400 2929891.750000
191.073000 10104164.000000
192.080800 24099622.000000
194.096400 4991285.000000
195.111500 6466768.500000
197.127100 1829305.375000
207.066500 3980519.000000
207.089000 2650901.500000
208.074300 29879680.000000
208.096800 7452436.500000
209.082200 2066562.625000
220.096800 1546211.500000
221.107300 23832380.000000
223.123000 47543544.000000
224.130800 3643574.500000
225.100900 2121006.000000
249.138600 3054386.000000
259.120300 1598302.375000
261.138600 2208215.250000
268.141800 1633294.875000
277.130900 10741633.000000
305.127100 3376218.250000

