>compound AC47663723
>parentmass 293.1014
>ionization [M+H]+
>formula C15H16O6
>rt 172.800000
>profile orbitrap
#smiles_iso C[C@]12C[C@@H]([C@H](C=C1C3=C(C(=CC(=C3)OC)O)C(=O)O2)O)O
#smiles_can CC12CC(C(C=C1C3=C(C(=CC(=C3)OC)O)C(=O)O2)O)O
#inchikey MMHTXEATDNFMMY-WBIUFABUSA-N
#pubchem_id 34687
#mb_accession AC000055,AC000056,AC000057,AC000058,AC000059

>ms2
213.091000 1357616.500000
229.085900 3025981.250000
231.101600 1806449.875000
239.070300 2198842.500000
247.096500 1549263.875000
257.080800 33110150.000000
275.091400 15298241.000000
293.102000 4380681.000000

>ms2
213.091000 1786891.750000
229.085900 4575833.000000
231.101600 2237959.500000
239.070300 3039812.500000
247.096500 1668076.125000
257.080800 40564424.000000
275.091400 12063551.000000
293.102000 2178714.500000

>ms2
69.033500 1155300.250000
201.091000 2389385.500000
203.106700 1135955.000000
211.075400 1156632.750000
213.091000 2230700.250000
229.085900 8486134.000000
231.101600 1858079.875000
239.070300 4508086.500000
257.080800 31512998.000000
275.091400 3474118.000000

>ms2
69.033500 1014521.812500
169.064800 847700.312500
191.106700 1153358.875000
197.059700 1436141.500000
198.067500 1519181.875000
201.091000 4161069.250000
203.106700 987403.812500
211.075400 2272169.250000
213.091000 2106806.500000
215.070300 985708.562500
225.054600 1098036.625000
229.085900 10006059.000000
231.101600 1506729.750000
239.070300 6053905.000000
257.080800 24885026.000000
275.091400 1975100.875000

>ms2
69.033500 615082.875000
141.069900 478441.156250
152.062100 340459.593750
153.069900 373951.125000
157.064800 447960.250000
169.064800 2728634.250000
170.072600 393756.843750
171.044100 376154.187500
171.080400 680537.812500
173.096100 468265.875000
180.057000 412346.187500
181.064800 625595.687500
183.080400 1097078.750000
186.067500 568216.500000
187.075400 867125.500000
188.083200 569088.750000
191.106700 1028378.312500
195.080400 606102.375000
196.051900 495569.156250
197.059700 2727636.250000
198.067500 2566264.250000
201.091000 5365831.500000
203.070300 430271.531250
203.106700 378474.062500
211.075400 4786398.500000
213.091000 1350589.250000
214.062400 1486563.250000
215.070300 1127730.125000
224.046800 366293.437500
225.054600 1229349.500000
229.085900 6326107.000000
231.101600 571282.687500
239.070300 4743404.500000
242.057400 1277430.250000
243.065200 417907.218750
257.080800 9616684.000000
275.091400 362516.156250

