>compound AC47040593
>parentmass 271.0595
>ionization [M+H]+
>formula C15H10O5
>rt 229.200000
>profile orbitrap
#smiles_iso CC1=CC2=C(C(=C1)O)C(=O)C3=C(C2=O)C=C(C=C3O)O
#smiles_can CC1=CC2=C(C(=C1)O)C(=O)C3=C(C2=O)C=C(C=C3O)O
#inchikey RHMXXJGYXNZAPX-UHFFFAOYSA-N
#pubchem_id 3220
#mb_accession AC000130,AC000131,AC000132,AC000133,AC000134

>ms2
271.060100 7434153.000000

>ms2
271.060100 8251004.000000

>ms2
229.049500 573064.437500
271.060100 8161470.500000

>ms2
201.054600 288329.375000
229.049500 1006600.562500
271.060100 7141186.500000

>ms2
197.059700 245971.328125
201.054600 504175.093750
229.049500 1147640.750000
271.060100 5400638.500000

