>compound AC47092794
>parentmass 313.1276
>ionization [M+H]+
>formula C15H20O7
>rt 129.000000
>profile orbitrap
#smiles_iso CC1=C[C@@H]2[C@]([C@@H](C1=O)O)([C@]3([C@@H]([C@H]([C@H]([C@@]34CO4)O2)O)O)C)CO
#smiles_can CC1=CC2C(C(C1=O)O)(C3(C(C(C(C34CO4)O2)O)O)C)CO
#inchikey UKOTXHQERFPCBU-XBXCNEFVSA-N
#pubchem_id 5284433
#mb_accession AC000513,AC000514,AC000515,AC000516

>ms2peaks
109.064800 3803.614746
125.059700 15894.632812
137.059700 8757.101562
153.054600 4364.989258
159.080400 5233.558105
161.096100 4214.603027
163.075400 3198.076172
173.096100 8451.481445
175.075400 29696.744141
177.091000 5323.950684
179.070300 10279.546875
181.085900 2766.102783
185.096100 5449.132324
189.091000 11679.942383
201.091000 19137.271484
203.106700 4946.158691
205.085900 15891.509766
213.091000 9623.303711
219.101600 3925.568359
229.085900 11054.545898
231.101600 20731.615234
247.096500 23853.021484
248.898900 22554.433594
249.112100 12425.889648
259.096500 12939.714844
265.107000 13162.786133
266.910100 19250.437500
267.122700 3122.103271
277.107000 21030.986328
283.117600 4876.429199
295.117600 41714.699219
296.122200 3736.825195
313.128200 83553.265625

>ms2peaks
52.383100 1812.242920
58.527700 1877.817993
58.656700 1926.255371
84.926600 1920.263672
91.258800 2196.982422
91.303300 2575.936035
95.049100 3336.855469
107.049100 2574.015625
109.064800 3427.920166
123.044100 3071.233643
125.059700 15054.237305
137.059700 9207.255859
139.075400 2456.890869
145.064800 2921.914062
157.101200 2360.789795
159.080400 4674.632324
161.059700 2574.371582
161.096100 5205.281738
161.701100 2503.419434
163.075400 9287.088867
173.096100 5572.918945
175.075400 33864.125000
175.111800 2397.905762
177.091000 14752.516602
179.070300 3558.130127
185.096100 12851.815430
187.075400 4484.446289
189.091000 13125.916992
191.070300 2675.361816
191.106700 3641.887451
201.091000 17890.292969
203.106700 12265.609375
205.085900 13280.409180
207.101600 3683.369385
211.075400 2757.145752
213.091000 12706.126953
217.085900 3469.862793
219.101600 4071.483887
229.085900 11694.904297
231.101600 19131.234375
235.096500 2563.109863
247.096500 16568.556641
248.899100 22752.400391
249.112100 15689.750000
259.096500 5116.056641
265.107000 9585.740234
266.910100 22267.134766
277.107000 21761.302734
295.117600 35537.960938
313.128200 40313.320312

>ms2peaks
51.197300 2009.830933
52.253000 1626.147461
64.577700 2498.140381
70.395200 2089.890625
83.049100 3852.196533
84.960200 2939.616211
85.028400 2542.429932
95.049100 5266.004395
95.452900 2361.418213
106.041300 2425.763428
107.049100 2723.491211
109.064800 4684.687988
123.044100 4486.069824
125.059700 13629.569336
137.059700 11338.013672
145.101200 4038.868896
147.080400 4982.196777
151.075400 4047.064453
153.054600 2245.714600
157.101200 4549.134277
159.080400 15783.332031
161.096100 5651.339355
161.314300 2377.441406
163.075400 9781.062500
173.096100 9884.976562
175.075400 34643.019531
175.111800 3304.502930
177.091000 10635.528320
179.070300 2682.624512
183.080400 2690.560303
185.096100 14464.177734
187.075400 3618.916504
189.091000 16374.046875
192.910300 3474.040283
201.091000 18314.000000
203.070300 2875.468750
203.106700 11945.421875
205.085900 9238.292969
207.101600 3209.193115
211.075400 3070.717041
213.091000 5707.321777
217.085900 3253.782959
219.101600 5170.126465
220.905400 4505.666992
229.085900 3041.807617
231.101600 9747.173828
235.096500 4294.203125
238.916000 4077.670166
247.096500 3417.992432
248.899800 8464.180664
249.112100 2745.832031
259.093800 3256.096924
265.107000 3174.639404
266.910200 11581.602539
277.107000 9065.435547
293.659400 2432.872070
295.117600 4257.539062
301.491600 2322.438477

>ms2peaks
59.274300 1882.001465
69.922900 1955.208740
84.960000 4364.968750
95.049100 5158.591309
109.064800 8756.960938
119.085500 3021.741211
119.257400 2411.399170
121.087600 2243.507812
123.044100 2956.227783
125.059700 3696.388916
131.085500 2482.406494
135.080400 4357.169434
136.978300 2221.003174
137.059700 11703.085938
137.618400 2332.140625
145.064800 3508.933350
145.101200 5527.798340
147.080400 2233.290771
149.096100 3301.041504
157.101200 3516.401123
159.080400 16941.365234
161.059700 2956.027832
161.096100 12533.726562
163.075400 4840.808105
173.096100 12777.936523
175.075400 29736.595703
177.091000 11955.727539
185.096100 11314.314453
187.075400 3266.216797
189.091000 3975.826416
191.070300 3163.835205
192.910600 4669.859863
194.428900 2410.941650
201.091000 13280.989258
203.106700 5286.628906
205.085900 4286.158691
210.919200 2520.283203
213.091000 5011.418457
217.085900 3347.448486
219.101600 3439.229248
220.904900 3808.947998
229.085900 3285.547119
231.101600 4514.598145
238.915600 4310.675781
247.096500 2533.262695
248.899200 3760.766846
266.912400 3357.677979
277.107000 3024.722168

