>compound AC48109204
>parentmass 390.1919
>ionization [M+H]+
>formula C22H23N5O2
>rt 166.200000
>profile orbitrap
#smiles_iso CC(C)(C=C)[C@@]12C[C@H]3C(=O)N/C(=C/C4=CN=CN4)/C(=O)N3[C@@H]1NC5=CC=CC=C25
#smiles_can CC(C)(C=C)C12CC3C(=O)NC(=CC4=CN=CN4)C(=O)N3C1NC5=CC=CC=C25
#inchikey SPWSUFUPTSJWNG-JJUKSXGLSA-N
#pubchem_id 21608802
#mb_accession AC000214,AC000215,AC000216,AC000217,AC000218

>ms2
322.129800 24348436.000000
390.192400 271385280.000000

>ms2
193.072000 26336134.000000
322.129800 79565888.000000
390.192400 195249920.000000

>ms2
191.056300 5825746.000000
192.064200 5220839.500000
193.072000 115344848.000000
198.127700 15754137.000000
322.129800 98667560.000000
334.129800 6625493.500000
390.192400 49352864.000000

>ms2
130.065100 6946439.000000
162.029800 5983042.000000
191.056300 7592888.000000
192.064200 11429837.000000
193.072000 147591008.000000
198.127700 19958506.000000
322.129800 68233472.000000
390.192400 15279509.000000

>ms2
69.044700 7993591.000000
69.069900 5050702.000000
81.044700 8165079.000000
85.039600 7379821.500000
108.055600 14362516.000000
109.063400 6532108.500000
120.055600 4591159.500000
130.065100 17391688.000000
137.082200 4724680.000000
162.029800 7582047.000000
163.061400 9100089.000000
165.077100 19827074.000000
183.104300 5838511.000000
191.056300 4914651.500000
192.064200 24615372.000000
193.072000 112323720.000000
198.127700 18324124.000000
322.129800 4771126.500000

