>compound AC50968541
>parentmass 488.2651
>ionization [M+H]+
>formula C28H33N5O3
>rt 207.000000
>profile orbitrap
#smiles_iso CC(=O)CC(C)(C)N1C=C(N=C1)/C=C\2/C(=O)N3[C@H](C[C@@]4([C@H]3NC5=CC=CC=C54)C(C)(C)C=C)C(=O)N2
#smiles_can CC(=O)CC(C)(C)N1C=C(N=C1)C=C2C(=O)N3C(CC4(C3NC5=CC=CC=C54)C(C)(C)C=C)C(=O)N2
#inchikey IOMOQUZQAXSJJI-MOLGQSPVSA-N
#pubchem_id 102041046
#mb_accession AC000811,AC000812,AC000813

>ms2
173.022000 69160.179688
174.024300 25077.931641
205.048200 34732.320312
206.050400 14443.381836
213.102200 12459.559570
217.045900 5749.270508
247.057800 5467.172363
248.064800 32126.029297
249.069900 24137.552734
250.073700 4814.260742
428.245800 5572.868652
456.239400 17008.960938

>ms2
173.022000 168092.171875
174.024400 83374.242188
185.107300 16104.766602
205.048200 20637.943359
206.051300 12909.454102
213.102200 14247.193359
248.065000 10932.958984

>ms2
144.080800 3632.395264
159.091700 4131.068359
173.022000 101265.898438
174.024400 49509.042969
185.107300 23176.869141
231.781300 3353.017822

