>compound AC50869723
>parentmass 398.1593
>ionization [M+H]+
>formula C22H23NO6
>rt 192.000000
>profile orbitrap
#smiles_iso CCOC(=O)C(CC1=CC=CC=C1)NC(=O)C2=C(C3=C(CC(OC3=O)C)C=C2)O
#smiles_can CCOC(=O)C(CC1=CC=CC=C1)NC(=O)C2=C(C3=C(CC(OC3=O)C)C=C2)O
#inchikey XXAVUHHKDMGGBR-UHFFFAOYSA-N
#pubchem_id 609665
#mb_accession AC000796,AC000797,AC000798,AC000799,AC000800

>ms2peaks
370.164900 13032.855469
398.159800 189062.312500

>ms2peaks
370.164900 77007.679688
380.149200 19642.298828
398.159800 107993.210938

>ms2peaks
120.080800 15713.019531
217.085900 3222.565674
324.159400 12932.020508
327.146500 4720.040527
328.154300 12977.413086
352.154300 4721.458496
370.164900 94602.484375
380.149200 22619.960938
398.159800 15460.513672

>ms2peaks
51.509900 2245.867188
57.177400 2094.052734
59.477600 1893.644287
63.629400 1921.657471
67.464000 1998.167847
68.509900 2215.758789
106.065100 5070.925781
107.783100 2133.305420
110.089800 2194.984131
120.080800 23972.742188
130.065100 4191.607422
179.094100 2634.191895
217.085900 9215.250977
235.448000 2859.648193
236.091700 3706.698486
268.826400 2242.934326
298.951400 2634.275391
307.132900 5192.761230
324.159400 11289.082031
327.146500 4680.621094
328.154300 4287.028320
361.754100 2695.383057
370.164900 28014.712891
380.149200 3694.210449

>ms2peaks
56.113200 2125.555176
56.424700 1897.395996
74.651100 3024.641846
78.414500 2056.417969
90.735700 2145.255615
99.055800 2201.552002
103.054200 5495.080566
106.065100 9791.296875
111.731400 2385.933838
120.080800 19193.500000
130.065100 10385.694336
131.073000 3071.397217
148.664600 2684.988525
163.075400 3739.968506
164.083200 3094.503906
172.075700 3430.336670
179.094100 5193.538086
186.749300 2185.416748
190.086300 26715.939453
201.783600 2423.340576
208.096800 3267.862793
210.209500 2737.170410
217.085900 4188.210449
236.091700 11651.878906
257.031900 2676.052246
264.114500 3910.484375

