>compound AC53571829
>parentmass 690.4295
>ionization [M+Na]+
>formula C35H61N3O9
>rt 351.000000
>profile orbitrap
#smiles_iso CC[C@H](C)[C@H]1C(=O)O[C@@H](C(=O)N([C@H](C(=O)O[C@@H](C(=O)N([C@H](C(=O)O[C@@H](C(=O)N1C)C(C)C)[C@@H](C)CC)C)C(C)C)C(C)C)C)C(C)C
#smiles_can CCC(C)C1C(=O)OC(C(=O)N(C(C(=O)OC(C(=O)N(C(C(=O)OC(C(=O)N1C)C(C)C)C(C)C)C)C(C)C)C(C)CC)C)C(C)C
#inchikey OWUREPXBPJFMOK-CIRFPNLUSA-N
#pubchem_id 57339253
#mb_accession AC000440,AC000441,AC000442,AC000443

>ms2
690.430000 857121024.000000

>ms2
563.330300 23420616.000000
690.430000 610485568.000000

>ms2
232.129200 19626588.000000
336.176500 41229588.000000
350.192200 80121840.000000
463.275200 13465719.000000
563.330300 51984496.000000
577.345900 25523092.000000
690.430000 420749504.000000

>ms2
83.049100 13658337.000000
86.096400 25426222.000000
98.096400 3526255.500000
100.112100 70987616.000000
122.093700 3386060.250000
123.041700 12195561.000000
141.052200 14428735.000000
154.083600 3302590.750000
168.099200 6321464.000000
168.138300 15812798.000000
182.154000 32437930.000000
196.133200 18089042.000000
210.148900 32398754.000000
218.113500 48252364.000000
232.129200 95472760.000000
236.124100 12637763.000000
250.139700 20948018.000000
268.150300 4369662.000000
322.160900 3959119.250000
336.176500 37112024.000000
350.192200 59923652.000000
368.202700 3902454.750000

