>compound AC54599775
>parentmass 447.13919999999996
>ionization [M+H]+
>formula C21H22N2O9
>rt 156.000000
>profile orbitrap
#smiles_iso CN(C1=CC2=C(C(=C(C=C2)OC)OC)OC1=O)C(=O)C3=NO[C@H]4[C@@H](C=C[C@H]([C@]4(C3)O)O)O
#smiles_can CN(C1=CC2=C(C(=C(C=C2)OC)OC)OC1=O)C(=O)C3=NOC4C(C=CC(C4(C3)O)O)O
#inchikey PCMUPOUDXMFDRE-NYGSYELISA-N
#pubchem_id 25067253
#mb_accession AC000897,AC000898,AC000899,AC000900,AC000901

>ms2
262.071000 5280713.500000
303.097500 1034182.875000
429.129200 934934.250000
447.139800 17035866.000000

>ms2
186.076100 1284655.625000
193.049500 849744.125000
234.076100 732038.687500
251.102600 268043.750000
262.071000 4937201.000000
303.097500 4391461.500000
383.123700 539021.187500
411.118700 1028116.937500
429.129200 1735266.625000
447.139800 7011495.500000

>ms2
99.044100 346271.781250
109.028400 316452.937500
123.044100 628217.500000
151.039000 635353.562500
168.065500 333269.093750
186.076100 1034986.375000
193.049500 3645071.250000
206.081200 411215.656250
234.076100 2538733.750000
243.076400 451338.000000
251.102600 429272.562500
262.071000 2851790.250000
275.102600 1204169.125000
303.097500 5656963.500000
383.123700 723310.000000
411.118700 587408.750000
429.129200 315110.312500
447.139800 865795.562500

>ms2
81.034500 343453.562500
99.044100 312771.531250
109.028400 291075.468750
123.044100 935728.062500
151.039000 419548.406250
163.039000 292070.250000
186.076100 300839.750000
193.049500 5942394.500000
206.081200 1940583.375000
234.076100 2598995.250000
243.076400 950970.437500
262.071000 726506.375000
275.102600 938293.500000
303.097500 1749328.125000

>ms2
81.034500 367679.312500
95.049100 520825.687500
105.033500 273160.281250
109.028400 404930.968750
123.044100 1118406.625000
165.054600 548727.000000
193.049500 6168570.500000
206.081200 964018.500000
215.081500 343139.562500
234.076100 438327.031250
243.076400 689385.375000
244.084200 307132.000000

