>compound AC54391886
>parentmass 508.195
>ionization [M+Na]+
>formula C27H27N5O4
>rt 199.200000
>profile orbitrap
#smiles_iso CC(C)C[C@H]1C(=O)N2C(N1)[C@@]3(C[C@@H]4C(=O)N[C@](O3)(C5=NC6=CC=CC=C6C(=O)N45)C)C7=CC=CC=C72
#smiles_can CC(C)CC1C(=O)N2C(N1)C3(CC4C(=O)NC(O3)(C5=NC6=CC=CC=C6C(=O)N45)C)C7=CC=CC=C72
#inchikey SJNRYASCJOVKHZ-MBLBISRUSA-N
#pubchem_id 101027374
#mb_accession AC000662,AC000663,AC000664,AC000665

>ms2
508.195500 14928307.000000

>ms2
490.185000 627826.500000
508.195500 14402862.000000

>ms2
405.133500 228047.296875
423.145200 240720.296875
490.185000 520587.062500
508.195500 2674959.000000

>ms2
53.355300 4406.472168
53.367600 4821.743652
55.754300 5401.318359
55.930800 4852.161133
57.404600 4489.501465
58.066400 5518.471191
65.664000 4685.117188
136.649000 5466.695312
153.229900 4834.400391
276.076700 10183.853516
278.092400 9739.639648
315.849700 5709.896484
324.275800 6635.586914
342.810200 6143.840332
405.132200 52761.074219
423.142800 35506.726562
463.163900 7053.059082
483.377300 6233.221191
490.192100 19244.277344
508.195500 45410.601562

