>compound AC54090945
>parentmass 313.067
>ionization [M+H]+
>formula C13H16N2O3S2
>rt 229.200000
>profile orbitrap
#smiles_iso CS[C@H]1C(=O)N[C@@](C(=O)N1)(CC2=CC=C(C=C2)O)SC
#smiles_can CSC1C(=O)NC(C(=O)N1)(CC2=CC=C(C=C2)O)SC
#inchikey ALVTZOKFXMRGEB-AAEUAGOBSA-N
#pubchem_id 10267534
#mb_accession AC000757,AC000758,AC000759,AC000760,AC000761

>ms2
285.123400 30885.296875
295.107300 101298.570312
303.133600 119604.992188

>ms2
199.086600 22567.546875
227.081500 83385.218750
267.112500 58521.957031
285.122900 32269.929688
295.107400 160647.859375
303.133500 206516.656250

>ms2
172.075700 20394.546875
199.086600 177342.390625
217.097200 14834.274414
227.081500 370050.062500
239.117800 28701.652344
240.101200 14246.239258
244.049500 15472.580078
245.092100 15609.535156
252.087500 71762.625000
257.053900 15143.166992
267.112400 260692.375000
285.122900 40258.863281
295.107300 152979.218750
303.133400 227199.406250

>ms2
59.049900 19580.259766
172.075700 79687.468750
184.063100 30597.324219
199.086600 493253.718750
213.114000 16801.640625
227.081500 292710.218750
239.117700 61247.730469
252.087500 202687.156250
267.112600 177282.625000
295.107600 35290.363281
303.134300 36588.523438

>ms2
59.050000 33522.656250
156.068200 38044.968750
172.075700 143491.765625
173.083500 14448.174805
184.063100 182502.156250
198.091300 31194.146484
199.086600 407330.062500
200.070600 14638.874023
209.070900 17274.779297
212.058000 25858.150391
212.106600 16343.589844
213.114400 13222.377930
223.085900 14494.078125
224.094100 43227.429688
227.081500 41845.933594
237.064100 79747.296875
239.117500 34599.722656
251.079700 14549.718750
252.087500 213105.875000
267.112100 20663.947266

