>compound AC55676563
>parentmass 367.1746
>ionization [M+H]+
>formula C19H26O7
>rt 183.000000
>profile orbitrap
#smiles_iso CC1=C[C@@H]2[C@](CC1)([C@]3([C@@H]([C@H]([C@H]([C@]34CO4)O2)O)OC(=O)C)C)COC(=O)C
#smiles_can CC1=CC2C(CC1)(C3(C(C(C(C34CO4)O2)O)OC(=O)C)C)COC(=O)C
#inchikey AUGQEEXBDZWUJY-ZLJUKNTDSA-N
#pubchem_id 91518
#mb_accession AC000120,AC000121,AC000122,AC000123,AC000124

>ms2
105.069900 485785.531250
107.085500 131772.500000
109.064800 90626.437500
123.080400 176482.546875
125.059700 215043.359375
157.101200 134431.734375
159.116800 99805.812500
161.096100 127346.226562
171.116800 100401.890625
173.132500 125748.351562
175.111800 118828.992188
183.116800 202909.687500
185.080800 188668.796875
187.111800 136730.750000
199.111800 289461.875000
201.127400 588679.500000
211.111800 294153.781250
217.122300 254218.156250
219.138000 190783.390625
229.122300 1005894.937500
247.132900 1093871.625000
265.143400 269892.406250
277.143400 85709.648438
289.143400 691361.812500
307.154000 2382598.250000
325.164600 121610.351562
349.164600 1111415.875000
367.175100 2311445.250000

>ms2
81.069900 152874.609375
93.069900 162644.484375
95.049100 145719.500000
97.064800 143513.890625
105.069900 927632.500000
107.049100 74556.343750
107.085500 289301.937500
109.064800 218358.125000
113.059700 187947.750000
119.085500 99095.289062
121.064800 265271.156250
123.080400 486733.937500
125.059700 432954.031250
131.085500 122648.210938
137.059700 85564.664062
141.054600 75294.304688
143.070300 121126.101562
143.085500 152017.640625
145.101200 132714.328125
147.080400 75588.421875
155.070300 118053.890625
157.101200 317167.312500
159.080400 103717.593750
159.116800 239141.421875
161.096100 258924.843750
163.111800 131912.109375
167.070300 109235.242188
169.101200 109650.906250
171.116800 204814.203125
173.096100 136426.187500
173.132500 288115.031250
175.111800 285574.000000
181.101200 111361.492188
183.116800 505346.843750
185.080800 113218.914062
187.111800 264872.312500
189.127400 102546.703125
193.101200 81588.632812
193.122300 89558.984375
199.111800 577142.562500
201.127400 1086274.625000
205.122300 100059.000000
211.111800 512761.093750
217.122300 464541.500000
219.138000 307896.593750
229.122300 1514568.750000
235.132900 79185.679688
247.132900 1569309.000000
259.132900 81228.375000
265.143400 371822.406250
277.143400 79023.554688
289.143400 651692.250000
307.154000 2126679.500000
325.164600 122369.437500
349.164600 518856.875000
367.175100 1128309.250000

>ms2
69.033500 72678.617188
79.054200 112897.578125
81.069900 355549.468750
83.049100 62772.441406
91.054200 90610.000000
93.069900 338892.468750
95.049100 315272.531250
95.085500 176624.765625
97.064800 336637.250000
105.069900 1371039.375000
107.049100 128408.468750
107.085500 438803.375000
109.064800 371406.718750
111.044100 56028.921875
113.059700 302480.000000
117.069900 65106.859375
119.049100 57503.093750
119.085500 206697.578125
121.064800 457555.375000
123.044100 84835.523438
123.080400 797840.187500
125.059700 587250.937500
129.069900 91349.937500
131.085500 291308.406250
133.064800 83420.234375
133.101200 161390.046875
135.080400 77340.976562
137.059700 122690.218750
139.075400 76666.023438
141.054600 75296.875000
141.069900 66198.265625
142.077700 67977.468750
143.070300 94086.140625
143.085500 365583.625000
145.064800 82329.367188
145.101200 326009.281250
147.080400 162128.531250
147.116800 117661.023438
149.059700 71776.968750
149.096100 80168.593750
151.075400 53813.433594
155.070300 48351.152344
155.085500 144792.687500
156.093400 48735.031250
157.101200 514764.250000
159.080400 209929.140625
159.116800 454347.937500
161.096100 321033.656250
161.132500 56471.847656
163.111800 155926.328125
167.070300 68029.601562
168.093400 120473.539062
169.101200 185872.125000
171.080400 45732.027344
171.116800 309011.312500
173.096100 189843.062500
173.132500 458735.062500
175.111800 404574.125000
177.127400 70221.726562
181.101200 145293.343750
183.116800 656357.250000
185.096100 80355.632812
185.132500 57283.511719
187.111800 332040.468750
189.127400 147485.484375
191.143100 47769.683594
193.101200 119447.367188
193.122300 90948.976562
196.088300 83023.125000
199.111800 758807.187500
201.127400 1035474.312500
203.106700 75631.570312
205.122300 128329.664062
211.111800 451827.687500
217.122300 429949.062500
219.138000 270606.156250
229.122300 1026535.375000
235.132900 62490.460938
247.132900 897146.625000
265.143400 226131.125000
289.143400 170725.937500
307.154000 556846.062500
367.175100 95134.625000

>ms2
67.054200 71311.546875
69.033500 107260.992188
79.054200 195484.015625
81.069900 467309.437500
83.049100 58340.007812
85.028400 59515.414062
91.054200 115117.093750
93.069900 413808.343750
95.049100 440986.031250
95.085500 232289.390625
97.064800 390836.031250
105.069900 1552034.875000
107.049100 194525.640625
107.085500 527089.062500
109.064800 436876.031250
111.044100 65097.562500
113.059700 354076.812500
117.069900 105647.484375
119.049100 67956.148438
119.085500 265709.687500
121.064800 538071.812500
123.044100 102527.273438
123.080400 803103.125000
125.059700 629797.750000
129.069900 142248.968750
131.085500 411991.531250
133.064800 107294.921875
133.101200 212515.515625
135.080400 107326.046875
137.059700 137142.609375
139.075400 80201.656250
141.054600 77398.687500
141.069900 97186.328125
142.077700 129799.023438
143.070300 92402.937500
143.085500 460226.437500
145.064800 101162.195312
145.101200 428009.312500
147.080400 196908.500000
147.116800 163776.390625
149.059700 67303.781250
149.096100 73030.859375
155.085500 220196.343750
156.093400 83290.867188
157.101200 581016.000000
159.080400 256980.375000
159.116800 560622.812500
161.096100 318194.406250
161.132500 54696.089844
163.111800 155829.171875
167.070300 49862.480469
168.093400 210062.843750
169.101200 208373.375000
171.080400 68674.742188
171.116800 378028.093750
173.096100 237106.656250
173.132500 464618.281250
175.111800 393819.531250
177.127400 70646.703125
181.101200 153549.125000
183.116800 687048.750000
185.096100 87058.703125
187.075400 53235.257812
187.111800 354677.562500
189.127400 165550.531250
193.101200 140355.765625
193.122300 61303.171875
196.088300 111029.992188
199.111800 738650.250000
201.127400 832194.562500
203.106700 65039.949219
205.122300 105857.070312
211.111800 357784.281250
217.122300 345566.906250
219.138000 222084.890625
229.122300 763834.812500
247.132900 600691.687500
265.143400 148405.484375
289.143400 102980.960938
307.154000 241617.750000

>ms2
67.054200 199765.765625
69.033500 146735.000000
69.069900 64481.664062
79.054200 481944.187500
81.069900 648132.937500
83.049100 112316.148438
85.028400 72549.843750
91.054200 423994.375000
93.069900 612996.750000
95.049100 596605.187500
95.085500 451843.281250
97.064800 480244.437500
105.069900 1965540.750000
107.049100 238418.062500
107.085500 527759.875000
109.064800 475257.968750
113.059700 240324.484375
117.069900 238075.312500
119.049100 64889.906250
119.085500 459477.750000
121.064800 537874.250000
123.044100 99105.000000
123.080400 561929.375000
125.059700 425584.312500
128.062100 166330.421875
129.069900 282362.343750
130.077700 64264.894531
131.085500 692537.375000
133.064800 110637.359375
133.101200 243317.953125
135.080400 97562.476562
137.059700 123634.414062
139.075400 65438.269531
141.069900 163575.609375
142.077700 344224.875000
143.085500 591779.875000
144.093400 97617.820312
145.064800 177043.062500
145.101200 511639.843750
147.080400 221611.546875
147.116800 164916.593750
153.069900 105320.343750
154.077700 71036.679688
155.085500 339810.562500
156.093400 191445.015625
157.101200 435063.093750
158.109000 88066.335938
159.080400 234090.171875
159.116800 423479.625000
161.096100 209325.203125
163.111800 63816.414062
166.077700 87025.429688
168.093400 316047.281250
169.101200 154154.625000
171.080400 70466.117188
171.116800 226889.984375
173.096100 140294.625000
173.132500 219565.750000
175.111800 247331.062500
178.077700 89050.281250
181.064800 64016.437500
181.101200 119215.632812
183.116800 320114.718750
187.111800 163966.125000
189.127400 83365.101562
193.101200 113114.101562
196.088300 120370.679688
199.111800 384561.062500
201.127400 251154.265625
211.111800 102329.460938
217.122300 96757.390625
219.138000 68259.335938
229.122300 120432.390625
247.132900 90203.687500

