>compound AC55923776
>parentmass 447.2371999999999
>ionization [M+H]+
>formula C25H34O7
>rt 243.000000
>profile orbitrap
#smiles_iso C/C/1=C\2/[C@H]3[C@@H](C(=O)O2)[C@@](O[C@H]3/C(=C\C[C@H]4C(=C(C(=O)O[C@@]4(CC1)C)OC)C(C)C)/C)(C)O
#smiles_can CC1=C2C3C(C(=O)O2)C(OC3C(=CCC4C(=C(C(=O)OC4(CC1)C)OC)C(C)C)C)(C)O
#inchikey BDGOANHBKYFDGC-KTGRICDKSA-N
#pubchem_id 137628342
#mb_accession AC000916,AC000917,AC000918,AC000919,AC000920

>ms2peaks
163.075400 543449.562500
181.085900 512363.250000
195.101600 2126533.250000
205.122300 465163.718750
223.132900 546492.562500
237.148500 1180283.250000
263.164200 594834.187500
281.174700 561285.125000
313.179800 512569.062500
327.195500 550185.500000
337.179800 402254.656250
345.206000 882967.250000
351.195500 452348.375000
355.190400 381353.187500
359.221700 426635.062500
363.180200 465039.812500
367.226800 991105.562500
369.206000 1530133.250000
379.190400 496735.156250
383.221700 397450.437500
385.237400 1341427.375000
387.216600 2649955.250000
393.206000 865852.250000
397.201000 1114882.000000
401.232300 751848.437500
403.247900 673956.062500
411.216600 4660203.500000
415.211500 544075.562500
419.242800 1101591.875000
429.227200 11909454.000000
447.237700 9867604.000000

>ms2peaks
73.064800 149888.125000
83.049100 195606.234375
93.069900 130472.117188
95.085500 330327.312500
99.080400 126982.585938
107.085500 311981.593750
109.064800 197768.375000
109.101200 128733.031250
111.080400 137118.015625
119.085500 258458.609375
121.064800 311126.687500
121.101200 178459.078125
123.080400 178473.859375
125.059700 150310.671875
125.096100 130984.687500
127.075400 147781.015625
133.101200 190784.671875
135.080400 291742.125000
135.116800 134999.468750
137.096100 142431.500000
139.075400 177034.078125
145.101200 313260.843750
147.080400 208387.796875
147.116800 185776.687500
149.059700 316846.437500
149.096100 224842.046875
151.075400 167938.468750
151.111800 127252.765625
153.054600 310281.187500
153.091000 234523.890625
155.070300 713071.625000
155.106700 156064.953125
157.085900 456083.093750
157.101200 142456.468750
159.116800 399223.718750
161.096100 305797.000000
161.132500 185582.125000
163.075400 546404.687500
163.111800 219839.890625
165.091000 306913.625000
167.070300 631717.875000
167.106700 657726.437500
169.085900 544658.875000
171.116800 164019.046875
173.059700 122885.273438
173.096100 348502.562500
173.132500 141719.765625
175.075400 198423.062500
175.111800 212335.843750
177.091000 203445.843750
177.127400 175885.718750
179.070300 858505.500000
179.106700 203571.187500
181.085900 1063847.750000
181.119900 120731.023438
183.101600 318509.000000
185.096100 186692.218750
185.132500 283156.531250
187.111800 341591.656250
187.148100 124944.132812
189.091000 503619.781250
189.127400 242880.531250
191.070300 604361.000000
191.106700 483311.750000
193.085900 222755.781250
193.122300 180755.875000
195.101600 3538446.750000
197.117200 673676.687500
197.132500 118138.132812
199.111800 190826.000000
201.091000 196442.171875
201.127400 296205.093750
203.106700 290307.062500
203.143100 336495.218750
205.122300 1117025.875000
207.101600 309476.437500
207.138000 144591.796875
209.117200 397819.375000
211.111800 113605.515625
213.091000 155221.031250
213.127400 325542.156250
215.106700 203880.125000
215.143100 293223.656250
216.114500 275687.375000
217.122300 263143.718750
219.101600 160601.906250
219.138000 361424.500000
221.117200 247740.703125
221.153600 317633.593750
223.132900 793271.250000
225.127400 174028.296875
227.106700 254787.531250
227.143100 115129.562500
229.122300 405208.968750
231.101600 120609.718750
231.138000 434381.843750
233.153600 153131.984375
235.132900 245844.250000
235.169300 275361.812500
237.148500 869849.062500
241.122300 166392.421875
243.138000 170150.171875
245.153600 433963.593750
247.169300 343198.937500
249.143400 172906.156250
253.122300 146380.875000
255.138000 196819.046875
263.164200 481465.218750
267.133900 124779.343750
267.174400 139557.718750
273.148500 135668.234375
285.151600 144004.562500
285.180200 159945.718750
291.174400 162440.171875
293.190000 118172.742188
295.132900 165442.578125
295.169300 217531.171875
299.200600 129844.859375
307.205700 114557.429688
309.184900 493208.437500
311.200600 194470.718750
313.143400 130066.500000
313.179800 242448.062500
319.169300 220413.593750
323.200600 211574.078125
325.216200 222645.687500
327.195500 555842.937500
333.184900 269274.625000
335.200600 254032.515625
337.179800 426578.312500
341.174700 199902.625000
341.211100 338347.156250
343.226800 158560.734375
345.206000 549736.125000
351.195500 559252.187500
353.211100 150490.859375
355.190400 283076.906250
359.221700 314405.312500
361.179800 223621.281250
363.180200 280242.375000
365.211100 171824.640625
367.226800 451080.468750
369.206000 1100709.625000
371.221700 131100.343750
373.201000 121188.210938
375.195500 120579.945312
379.190400 351843.781250
383.221700 371171.562500
385.237400 457250.250000
387.216600 1728422.000000
393.206000 660043.500000
397.201000 434372.218750
401.232300 436180.656250
403.247900 328007.750000
405.227200 158102.281250
411.216600 1512702.125000
419.242800 211443.718750
429.227200 2287554.500000
447.237700 569155.812500

>ms2peaks
59.049100 106838.218750
67.054200 129308.046875
69.033500 119007.179688
69.069900 164783.593750
73.064800 257024.906250
79.054200 108960.789062
81.069900 232054.453125
83.049100 215094.875000
83.085500 103393.015625
85.064800 100110.171875
91.054200 88356.156250
93.069900 380170.281250
95.049100 190242.421875
95.085500 417675.656250
97.028400 84935.515625
97.064800 146772.765625
99.044100 104655.796875
99.080400 146669.515625
105.069900 265562.593750
107.049100 93177.257812
107.085500 518664.156250
109.064800 289309.781250
109.101200 178735.062500
111.080400 199580.218750
113.059700 95561.085938
113.096100 70545.710938
115.039000 118130.929688
117.069900 67882.929688
119.085500 522855.968750
121.064800 479906.937500
121.101200 376998.562500
123.044100 86325.757812
123.080400 292823.843750
125.059700 291061.968750
125.096100 215552.312500
127.075400 194286.343750
131.085500 177436.187500
133.064800 96753.203125
133.101200 405106.968750
135.044100 75960.789062
135.080400 519904.250000
135.116800 172661.640625
137.059700 296525.906250
137.096100 238377.531250
139.075400 270886.343750
139.111800 174226.953125
143.085500 217635.156250
145.101200 727266.062500
147.080400 406377.843750
147.116800 298832.562500
149.059700 540157.437500
149.096100 319786.093750
149.132500 95393.671875
151.075400 235405.031250
151.111800 152163.109375
153.054600 398964.343750
153.091000 236514.453125
155.070300 557078.000000
155.106700 103310.109375
157.085900 468200.750000
157.101200 349130.187500
159.080400 203083.578125
159.116800 516665.968750
161.059700 105228.703125
161.096100 433503.125000
161.132500 232267.234375
163.075400 436951.906250
163.111800 279331.125000
165.091000 279289.437500
165.127400 108863.804688
167.070300 440126.625000
167.106700 1267900.500000
169.085900 568371.750000
169.101200 121668.203125
169.122300 89604.976562
170.109000 77625.851562
171.080400 175074.796875
171.101600 93685.710938
171.116800 257680.328125
173.059700 87513.031250
173.096100 493539.750000
173.132500 208195.953125
175.075400 301917.000000
175.111800 327521.062500
175.148100 169657.187500
177.091000 213115.843750
177.127400 282848.218750
179.070300 678580.500000
179.106700 202076.000000
181.085900 976514.875000
181.122300 130497.882812
183.101600 247642.359375
183.116800 155765.062500
185.096100 268907.718750
185.132500 420323.375000
187.075400 67879.468750
187.111800 464835.343750
187.148100 187056.781250
189.091000 420132.531250
189.127400 271359.375000
190.135200 95453.453125
191.070300 371688.125000
191.106700 457248.281250
191.143100 94820.851562
193.085900 106855.289062
193.122300 237482.921875
195.101600 2116093.500000
197.096100 95351.796875
197.117200 565538.625000
197.132500 175584.968750
199.111800 274853.718750
199.148100 71961.445312
201.091000 247609.671875
201.127400 227776.968750
203.106700 283412.687500
203.143100 304216.656250
205.085900 116441.210938
205.122300 1002985.937500
207.101600 154012.687500
207.116800 80514.406250
207.138000 69458.437500
207.174400 69019.179688
209.096100 85053.109375
209.117200 190821.375000
209.132500 124144.242188
211.111800 175423.375000
213.091000 144964.015625
213.127400 314365.875000
215.106700 246202.484375
215.143100 221291.703125
216.114500 166966.703125
217.085900 106454.812500
217.122300 221862.015625
217.158700 121832.796875
219.098900 91589.781250
219.138000 301682.031250
221.113700 117829.054688
221.149900 135929.078125
223.111800 91297.632812
223.132900 234324.234375
223.148100 73489.406250
225.127400 213782.968750
227.106700 286479.906250
227.143100 100171.023438
229.122300 245754.109375
231.101600 97131.695312
231.138000 255892.937500
233.153600 109444.531250
235.132900 95286.929688
235.169300 116345.007812
237.145700 204953.281250
239.143100 117349.562500
239.179500 69335.523438
241.122300 117500.390625
243.101600 67781.578125
243.138000 154014.125000
245.153600 381406.625000
247.169300 157786.203125
249.127400 110813.937500
251.143100 117820.664062
253.122300 147351.218750
253.158700 76792.578125
255.138000 178609.828125
257.153600 95835.382812
259.132900 81365.875000
267.138000 190271.093750
267.174400 139514.281250
269.153600 76471.304688
271.132900 104272.546875
271.165800 83935.640625
277.122300 105828.585938
281.190000 106072.359375
283.169300 70841.242188
285.148500 104552.523438
291.174400 148875.765625
295.132900 106663.179688
295.169300 115318.007812
299.164200 71278.210938
299.200600 97399.515625
309.148500 74801.023438
309.184900 269970.062500
313.179800 69730.976562
319.169300 105326.187500
323.200600 105099.039062
327.195500 181137.843750
333.184900 133001.609375
335.200600 70601.078125
337.179800 174524.828125
341.211100 163063.781250
345.206000 136732.046875
351.195500 164435.296875
355.190400 97915.609375
359.221700 199603.390625
365.211100 71925.101562
369.206000 331105.468750
383.221700 69886.054688
385.237400 83243.562500
387.216600 321446.750000
393.206000 87734.585938
401.232300 68471.265625
411.216600 130333.859375
429.227200 214643.109375

>ms2peaks
59.049800 136953.781250
67.054200 201509.078125
69.033500 190995.921875
69.069900 227818.250000
71.049100 125299.382812
73.064800 350137.375000
79.054200 257693.703125
81.069900 437138.875000
83.049100 262868.125000
83.085500 118461.359375
85.064800 130177.109375
91.054200 219844.125000
93.069900 588084.062500
95.049100 351010.625000
95.085500 548197.375000
97.028400 155830.937500
97.064800 243820.375000
99.044100 116694.914062
99.080400 151941.484375
105.069900 518761.843750
107.049100 148721.343750
107.085500 819830.500000
109.064800 478073.437500
109.101200 401048.375000
111.044100 77007.507812
111.080400 312276.000000
113.059700 112620.328125
113.096100 108022.585938
115.039000 120604.210938
117.069900 143388.062500
119.049100 92150.273438
119.085500 935882.062500
121.064800 633229.875000
121.101200 480174.187500
123.044100 135371.390625
123.080400 355940.125000
123.116800 82946.656250
125.059700 394485.468750
125.096100 298232.656250
127.075400 243062.984375
129.069900 61589.136719
131.085500 314296.625000
133.064800 202969.171875
133.101200 597190.937500
135.044100 122098.585938
135.080400 638951.875000
135.116800 219422.937500
137.059700 484936.687500
137.096100 290862.656250
139.039000 62367.066406
139.075400 303963.062500
139.111800 271269.718750
143.085500 350512.156250
144.093400 64180.117188
145.064800 112141.734375
145.101200 1202669.250000
147.080400 448167.343750
147.116800 461030.750000
149.059700 636918.625000
149.096100 425244.656250
149.132500 82794.835938
151.075400 299860.375000
151.111800 181458.312500
153.054600 479409.812500
153.091000 366114.250000
155.070300 601011.250000
155.085500 81924.875000
155.105100 83230.578125
156.093400 59427.847656
157.085900 458915.968750
157.101200 468055.343750
159.080400 337046.625000
159.116800 731435.187500
161.059700 167466.375000
161.096100 606625.562500
161.132500 265191.031250
162.103900 90555.164062
163.075400 490208.031250
163.111800 274602.375000
164.119600 97177.007812
165.091000 321831.281250
165.127400 129865.242188
167.070300 335180.187500
167.106700 1648478.000000
169.085900 592125.625000
169.101200 183411.515625
169.122300 163320.062500
170.109000 131667.687500
171.080400 208468.000000
171.101600 106183.304688
171.116800 404153.218750
172.124700 91573.500000
173.059700 80890.101562
173.096100 582063.625000
173.132500 273225.437500
174.103900 74380.281250
175.075400 346476.468750
175.111800 473512.500000
175.148100 233065.140625
177.091000 229889.328125
177.127400 337118.062500
178.135200 67684.898438
179.070300 528679.125000
179.106700 221510.296875
179.143100 64039.109375
181.085900 911222.750000
181.101200 92726.046875
181.120400 141907.140625
183.101600 317456.625000
183.116800 262616.843750
185.096100 350229.718750
185.132500 406716.656250
186.103900 67841.882812
187.075400 106956.843750
187.111800 532672.437500
187.148100 179839.781250
189.091000 496422.062500
189.127400 291064.093750
190.135200 94624.187500
191.070300 330262.718750
191.106700 410368.468750
191.143100 141193.625000
193.085900 105924.898438
193.101200 89486.132812
193.122300 186089.375000
193.158700 70894.679688
195.101600 1689034.375000
195.116800 135970.250000
197.096100 137052.437500
197.117200 506692.593750
197.132500 195049.328125
199.111800 263411.343750
199.145500 81919.765625
201.091000 224034.562500
201.127400 234335.265625
203.070300 60421.859375
203.106700 243829.046875
203.143100 294329.031250
205.085900 71020.015625
205.122300 855952.437500
207.099200 124491.679688
207.116800 106614.421875
207.138000 69008.164062
207.174400 65043.398438
209.096100 115443.898438
209.117200 149942.875000
209.132500 131927.921875
211.111800 218469.453125
211.148100 129987.773438
213.091000 211062.156250
213.127400 341107.781250
215.106700 237434.031250
215.143100 160628.515625
216.114500 185579.703125
217.085900 92875.421875
217.122300 202898.562500
217.156200 99197.804688
219.101600 61840.300781
219.138000 268493.125000
219.174400 56362.382812
221.112500 84833.828125
221.132500 67005.507812
221.149300 129375.554688
223.111800 128490.210938
223.132900 90883.492188
223.150800 89694.132812
225.091000 105128.468750
225.127400 244678.828125
225.163800 61568.019531
227.106700 266737.312500
227.143100 149709.109375
229.122300 214458.531250
229.158700 58353.507812
231.101600 90916.156250
231.138000 225195.843750
233.153600 101084.898438
235.111800 60704.621094
235.132900 61266.851562
235.169300 81120.312500
237.127400 75735.500000
237.148500 87010.054688
238.135200 61121.031250
239.106700 90667.671875
239.143100 170367.203125
241.122300 148916.218750
241.158700 88865.093750
243.138000 134208.312500
245.117200 54969.125000
245.153600 269707.156250
247.169300 105469.367188
249.127400 166535.093750
249.163800 57357.660156
251.143100 93692.250000
253.122300 144436.734375
253.158700 83936.281250
255.138000 148083.796875
257.153600 90813.375000
259.132900 56149.996094
265.158700 55994.847656
267.138000 174834.453125
267.171500 119321.796875
269.153600 97950.609375
271.169300 60878.691406
275.143100 55853.218750
277.122300 99035.117188
277.151600 80771.468750
281.156600 74026.703125
281.186100 81819.351562
285.148500 56717.406250
285.184900 69944.632812
291.138000 62536.542969
291.174400 157114.265625
295.137100 81243.265625
295.165700 87915.312500
309.148500 63799.273438
309.184900 167631.703125
319.169300 90733.179688
323.197100 91578.343750
327.195500 121096.328125
333.184900 94819.460938
337.179800 92313.914062
341.211100 96242.101562
345.206000 73044.390625
351.195500 86227.125000
359.221700 117880.054688
369.206000 143384.687500
387.216600 96519.226562

>ms2peaks
57.070600 48121.042969
59.049100 174550.640625
65.038600 69844.031250
67.054200 610654.875000
69.033500 256987.390625
69.069900 288355.906250
71.049100 130710.585938
73.064800 446671.937500
79.054200 638795.125000
81.033500 44845.925781
81.069900 785155.187500
83.049100 172901.703125
83.085500 110340.828125
85.028400 71251.843750
85.064800 172068.265625
91.054200 756540.687500
93.069900 947127.812500
95.049100 516351.062500
95.085500 620997.062500
97.028400 149695.125000
97.064800 302775.843750
99.044100 133742.046875
99.080400 176674.250000
103.054200 78472.437500
105.045000 44844.464844
105.069900 1227622.250000
107.049100 184578.468750
107.085500 1110025.250000
108.057000 55176.699219
109.064800 585644.062500
109.101200 706664.187500
111.044100 97492.265625
111.080400 321573.000000
113.059700 131052.804688
115.039000 73489.187500
115.054200 104439.414062
117.069900 429660.312500
119.049100 152220.125000
119.085500 1360106.750000
121.064800 707253.250000
121.101200 496533.343750
122.072600 72170.453125
123.044100 103929.320312
123.080400 415269.125000
125.059700 273881.156250
125.096100 247843.531250
127.075400 140874.515625
128.062100 130257.648438
129.069900 199785.546875
130.077700 180486.328125
131.049100 48848.953125
131.085500 535610.625000
133.064800 198788.390625
133.101200 632976.062500
135.044100 219330.796875
135.080400 604844.875000
135.116800 137195.406250
136.088300 69537.468750
137.059700 329189.593750
137.096100 287597.406250
138.103900 47589.445312
139.039000 46475.753906
139.075400 157259.062500
139.111800 236936.234375
141.069900 91223.765625
141.091000 92944.820312
142.077700 218580.031250
143.085500 614114.937500
144.093400 154873.625000
145.064800 211974.328125
145.101200 1243643.750000
146.072600 64466.792969
147.080400 415944.093750
147.116800 300885.781250
149.059700 426510.406250
149.096100 294575.750000
151.075400 170046.937500
151.111800 126567.804688
153.054600 322050.437500
153.091000 176564.031250
153.127400 45043.609375
154.077700 53278.433594
155.070300 131072.812500
155.085500 191363.218750
156.093400 218440.109375
157.064800 65132.871094
157.085900 148870.828125
157.101200 522972.125000
158.072600 58613.464844
158.109000 59096.429688
159.080400 313141.250000
159.116800 468404.750000
160.088300 90276.429688
161.059700 107273.718750
161.096100 460018.406250
161.132500 123683.906250
162.103900 121399.804688
163.075400 223774.875000
163.111800 173861.515625
165.069900 58569.128906
165.091000 159388.062500
165.127400 52824.417969
167.070300 84201.664062
167.085500 95594.679688
167.106700 798285.000000
168.093400 67804.328125
169.085900 277049.812500
169.101200 225609.875000
169.122300 86138.460938
170.109000 260505.281250
171.080400 209397.421875
171.116800 273687.656250
172.088300 108298.945312
173.059700 54277.238281
173.096100 461786.500000
173.132500 138658.109375
174.103900 76071.289062
175.075400 186436.500000
175.111800 300158.843750
175.148100 98637.242188
177.091000 125795.546875
177.127400 162827.718750
179.070300 112167.437500
179.085500 75260.726562
179.106700 74202.648438
180.093400 46468.007812
181.085900 246412.453125
181.101200 134367.484375
182.109000 74468.187500
183.080400 117251.195312
183.101600 131913.406250
183.116800 190995.828125
184.088300 50316.265625
185.096100 238779.078125
185.132500 238600.921875
186.103900 50562.816406
187.075400 75893.953125
187.111800 212007.500000
187.148100 55812.605469
188.119600 49098.972656
189.091000 216253.046875
189.127400 160361.500000
191.070300 125082.421875
191.106700 101132.382812
192.093400 46018.355469
193.101200 118461.507812
193.122300 53508.832031
194.109000 67415.507812
195.080400 45715.710938
195.101600 252122.671875
195.116800 120783.359375
196.088300 58916.203125
197.096100 153388.140625
197.117200 55905.648438
197.132500 95657.039062
198.103900 62023.820312
199.075400 53087.824219
199.111800 167236.734375
201.091000 127200.445312
201.127400 122300.687500
203.106700 118754.195312
203.143100 91411.890625
205.122300 196101.468750
207.116800 152026.703125
208.124700 49233.515625
209.096100 147801.156250
209.132500 93528.523438
210.103900 61336.437500
211.111800 110888.820312
213.091000 98773.937500
213.127400 160835.484375
215.106700 71781.257812
215.143100 60067.703125
216.114500 104951.218750
217.122300 62385.613281
217.158700 45100.394531
221.132500 102282.359375
223.111800 71898.046875
223.148100 51354.621094
224.119600 56560.187500
225.091000 58749.644531
225.127400 150515.890625
227.106700 111541.859375
227.143100 50424.476562
229.122300 57555.601562
235.111800 49353.371094
237.127400 55892.031250
239.106700 63950.628906
239.143100 77915.476562
241.122300 45599.621094
243.138000 44785.968750
249.127400 74588.992188
261.127400 57924.156250

