>compound AC56210258
>parentmass 668.4475
>ionization [M+H]+
>formula C35H61N3O9
>rt 351.000000
>profile orbitrap
#smiles_iso CC[C@H](C)[C@H]1C(=O)O[C@@H](C(=O)N([C@H](C(=O)O[C@@H](C(=O)N([C@H](C(=O)O[C@@H](C(=O)N1C)C(C)C)[C@@H](C)CC)C)C(C)C)C(C)C)C)C(C)C
#smiles_can CCC(C)C1C(=O)OC(C(=O)N(C(C(=O)OC(C(=O)N(C(C(=O)OC(C(=O)N1C)C(C)C)C(C)C)C)C(C)C)C(C)CC)C)C(C)C
#inchikey OWUREPXBPJFMOK-CIRFPNLUSA-N
#pubchem_id 57339253
#mb_accession AC000435,AC000436,AC000437,AC000438,AC000439

>ms2peaks
196.133200 15612803.000000
210.148900 49968904.000000
228.159400 13104908.000000
668.448100 192162080.000000

>ms2peaks
100.112100 6825462.000000
196.133200 59363164.000000
200.164500 8022224.000000
210.148900 150133392.000000
214.143800 31254494.000000
228.159400 66115876.000000
328.209200 6605629.000000
441.293200 11063714.000000
541.348300 23567708.000000
555.364000 7826468.000000
668.448100 6860353.000000

>ms2peaks
86.096400 25109726.000000
100.112100 60491232.000000
186.148900 17746590.000000
196.133200 56433292.000000
200.164500 38819824.000000
210.148900 132210256.000000
214.143800 35567728.000000
228.159400 62362132.000000
314.193500 19483214.000000
328.209200 27703884.000000

>ms2peaks
86.096400 34805512.000000
100.112100 82020032.000000
186.148900 16446728.000000
196.133200 32087626.000000
200.164500 33149632.000000
210.148900 72254856.000000
214.143800 23771942.000000
228.159400 35467612.000000
314.193500 11126667.000000
328.209200 13919733.000000

>ms2peaks
86.096400 82590288.000000
98.096400 5266241.500000
100.112100 162465792.000000
166.086300 8423878.000000
186.148900 10320457.000000
196.133200 9235164.000000
200.164500 14217493.000000
210.148900 18138744.000000
214.143800 5331200.500000
228.159400 5231998.500000

