>compound AC56828293
>parentmass 654.4319
>ionization [M+H]+
>formula C34H59N3O9
>rt 310.800000
>profile orbitrap
#smiles_iso CC[C@H](C)[C@H]1C(=O)O[C@@H](C(=O)N([C@H](C(=O)O[C@@H](C(=O)N([C@H](C(=O)O[C@@H](C(=O)N1C)C(C)C)C(C)C)C)C(C)C)C(C)C)C)C(C)C
#smiles_can CCC(C)C1C(=O)OC(C(=O)N(C(C(=O)OC(C(=O)N(C(C(=O)OC(C(=O)N1C)C(C)C)C(C)C)C)C(C)C)C(C)C)C)C(C)C
#inchikey UQCSETXJXJTMKO-UMURLBKASA-N
#pubchem_id 11262300
#mb_accession AC000462,AC000463,AC000464,AC000465,AC000466

>ms2
196.133200 44410768.000000
210.148900 36059236.000000
214.143800 16960994.000000
228.159400 8529578.000000
654.432400 253789024.000000

>ms2
86.096400 10480785.000000
186.148900 11734646.000000
196.133200 207994960.000000
210.148900 134298000.000000
214.141100 113263552.000000
228.156700 60143652.000000
314.193500 12496298.000000
427.277600 10239689.000000
441.293200 15930572.000000
527.332700 21789938.000000
541.348300 30730218.000000
654.432400 13610132.000000

>ms2
86.096400 80656056.000000
100.112100 50646756.000000
168.138300 5915399.500000
186.148900 54422460.000000
196.133200 183632304.000000
200.164500 30084750.000000
210.146200 105803864.000000
214.141100 112619520.000000
228.156700 49701692.000000
314.193500 56027368.000000
328.209200 18943816.000000

>ms2
86.096400 140421760.000000
100.112100 81916768.000000
168.138300 5784583.500000
186.148900 64899024.000000
196.133200 131076120.000000
200.164500 31231564.000000
210.148900 74418528.000000
214.141100 90011440.000000
228.156700 33963728.000000
314.193500 38835592.000000
328.209200 12827486.000000

>ms2
86.096400 425943040.000000
100.112100 212573968.000000
166.086300 15496116.000000
186.148900 52834592.000000
196.133200 47307272.000000
200.164500 18031530.000000
210.146200 23114136.000000
214.141100 25890284.000000

