>compound AC56410961
>parentmass 341.065
>ionization [M+H]+
>formula C18H12O7
>rt 202.200000
>profile orbitrap
#smiles_iso C1CO[C@H]2[C@@]1(C3=C(O2)C=C4C(=C3O)C(=O)C5=C(C4=O)C=CC=C5O)O
#smiles_can C1COC2C1(C3=C(O2)C=C4C(=C3O)C(=O)C5=C(C4=O)C=CC=C5O)O
#inchikey MFMARNFPIVNIHS-QZTJIDSGSA-N
#pubchem_id 137628450
#mb_accession AC000921,AC000922,AC000923,AC000924,AC000925

>ms2
269.044400 2909957.000000
279.065200 2160799.500000
283.060100 3112334.250000
295.023700 12013473.000000
295.060100 22114762.000000
323.055000 67143504.000000
341.065600 29153932.000000

>ms2
269.044400 5165888.000000
279.065200 5186390.500000
283.060100 4449341.500000
295.023700 19692514.000000
295.060100 37058404.000000
323.055000 62302272.000000
341.065600 9928429.000000

>ms2
269.044400 13277443.000000
279.065200 12332467.000000
283.060100 9159030.000000
295.023700 34014880.000000
295.060100 88847936.000000
323.055000 41468728.000000

>ms2
251.070300 3166100.000000
267.065200 5569802.000000
269.044400 14260204.000000
279.065200 9573620.000000
283.060100 8969293.000000
285.039300 2839608.750000
295.023700 30381400.000000
295.060100 85172296.000000
323.055000 22450426.000000

>ms2
115.054200 1680265.875000
121.028400 2499964.000000
159.044100 1191473.250000
165.069900 2274953.750000
175.039000 1793490.500000
183.080400 1331484.500000
193.064800 1626882.000000
195.080400 1504529.750000
197.059700 1209039.500000
205.064800 2223112.500000
211.039000 1173885.250000
211.075400 3996336.750000
215.033900 1731830.875000
221.059700 4473247.500000
223.075400 1704594.625000
225.054600 1810162.125000
233.059700 2358837.750000
237.054600 1048215.500000
239.033900 9435244.000000
239.070300 5476815.500000
241.049500 1795894.375000
249.054600 7279470.000000
251.070300 1710562.875000
253.049500 6072341.500000
267.028800 5809921.500000
267.065200 11990252.000000
269.044400 12595753.000000
277.049500 1710078.875000
279.065200 1327561.375000
283.023700 1790553.750000
283.060100 4862218.000000
285.039300 1566052.625000
295.023700 11458131.000000
295.060100 30982726.000000
323.055000 2867113.250000

