>compound AC57971906
>parentmass 921.4865999999998
>ionization [M+Na]+
>formula C52H70N2O11
>rt 244.200000
>profile orbitrap
#smiles_iso C[C@@H]1CCC2[C@@]([C@@]13CC4=C(C=C5C(=C4O3)CN(C5=O)CCCC[C@@H](C(=O)O)N6CC7=C8C(=C(C=C7C6=O)O)C[C@@]9(O8)[C@@H](CCC1[C@@]9(C[C@H]([C@H](C1(C)C)O)O)C)C)O)(CC[C@H](C2(C)C)O)C
#smiles_can CC1CCC2C(C(CCC2(C13CC4=C(C=C5C(=C4O3)CN(C5=O)CCCCC(C(=O)O)N6CC7=C8C(=C(C=C7C6=O)O)CC9(O8)C(CCC1C9(CC(C(C1(C)C)O)O)C)C)O)C)O)(C)C
#inchikey ZRTGPZGAMCJZNA-CRDDFVEESA-N
#pubchem_id 10509958
#mb_accession AC000615,AC000616,AC000617

>ms2peaks
921.487200 46426460.000000

>ms2peaks
492.271800 1950059.375000
877.497400 3036345.750000
921.487200 31432340.000000

>ms2peaks
474.261200 148269.484375
486.173400 160922.312500
491.287800 765270.687500
492.271800 2531289.500000
499.183700 131450.906250
520.266700 334529.812500
637.321400 154457.968750
653.317900 481273.593750
669.312800 348549.812500
859.484100 601778.875000
875.481700 634293.375000
877.497400 3392561.250000
878.496600 217668.687500
903.476600 259590.765625
921.487200 1285859.875000

