>compound AC57257512
>parentmass 361.1575
>ionization [M+H]+
>formula C19H24N2O3S
>rt 234.600000
>profile orbitrap
#smiles_iso CC(=CCOC1=CC=C(C=C1)/C=C\2/C(=O)N(C(C(=O)N2C)SC)C)C
#smiles_can CC(=CCOC1=CC=C(C=C1)C=C2C(=O)N(C(C(=O)N2C)SC)C)C
#inchikey QXYMNBLAEDQYLV-VBKFSLOCSA-N
#pubchem_id 101520130
#mb_accession AC000747,AC000748,AC000749,AC000750,AC000751

>ms2peaks
69.069900 4023266.250000
153.036900 6754352.500000
187.053600 2217774.750000
245.092100 29398726.000000
293.095400 58941356.000000
313.154700 2330189.250000
361.158000 16104609.000000

>ms2peaks
69.069900 7665223.500000
107.049100 3244063.750000
141.065800 2604525.250000
153.036900 11264118.000000
159.058700 1861917.375000
187.053600 4213563.500000
188.070600 3184394.250000
217.097200 5365088.500000
218.105000 3398539.000000
245.092100 47324300.000000
246.099900 2808194.000000
265.100500 3176969.250000
293.095400 38953244.000000
361.158000 2234213.000000

>ms2peaks
69.069900 10749653.000000
107.049100 4670707.000000
141.065800 2852527.250000
148.075700 1217409.125000
153.036900 11900180.000000
159.058700 3379835.000000
160.075700 2317769.250000
176.070600 1489654.250000
179.052500 1082324.750000
187.053600 4323256.000000
188.070600 4913668.000000
217.097200 22096720.000000
218.105000 10430048.000000
234.058300 1528552.125000
245.092100 29217868.000000
246.099900 5704314.000000
265.100500 1764828.875000
293.095400 4646359.000000

>ms2peaks
69.069900 10997954.000000
107.049100 6761368.000000
112.063100 1614654.375000
113.070900 1435737.250000
125.070900 1055779.125000
141.065800 1638922.625000
148.075700 4017322.250000
153.036900 11067825.000000
159.058700 3328578.250000
160.075700 4440847.500000
176.070600 2408168.500000
187.053600 2087182.500000
188.070600 4808412.500000
189.102200 1245940.625000
217.097200 29449182.000000
218.105000 12138892.000000
245.092100 6521043.000000
246.099900 3536604.250000

>ms2peaks
61.011300 640400.750000
69.069900 7787140.000000
90.037200 1688091.125000
97.076000 558286.437500
107.049100 10764141.000000
111.055300 2010199.250000
112.063100 3685142.000000
113.070900 1484466.250000
119.049100 1187625.875000
120.080800 454092.218750
125.070900 3438474.750000
131.049100 1677454.125000
132.057000 436921.562500
133.052200 930409.562500
138.013400 405634.718750
141.065800 416830.656250
144.035200 591340.625000
145.064800 437406.031250
146.060000 1217827.250000
147.044100 1371503.375000
147.067900 1962747.625000
148.075700 7302494.000000
149.083500 431475.187500
153.036900 8258923.000000
159.058700 1384511.750000
160.075700 5808238.500000
176.070600 3408728.250000
186.055000 489134.593750
188.070600 1867536.750000
189.078400 738561.875000
189.102200 2428243.250000
200.094400 430422.718750
201.078400 407311.906250
201.102200 754095.000000
202.073700 499399.031250
203.081500 1741752.125000
217.097200 11599293.000000
218.105000 4531188.500000

