>compound AC58852624
>parentmass 273.0752
>ionization [M+H]+
>formula C15H12O5
>rt 151.200000
>profile orbitrap
#smiles_iso CC1=CC(=O)C2=C(C3=C(C=C(C=C3C=C2O1)OC)O)O
#smiles_can CC1=CC(=O)C2=C(C3=C(C=C(C=C3C=C2O1)OC)O)O
#inchikey FPNKCZKRICBAKG-UHFFFAOYSA-N
#pubchem_id 72537
#mb_accession AC000705,AC000706,AC000707,AC000708

>ms2
273.075700 87348344.000000

>ms2
273.075700 82416592.000000

>ms2
227.070300 2438148.500000
230.057400 5635929.000000
255.065200 2431824.250000
258.052300 6197041.500000
273.075700 61409612.000000

>ms2
185.059700 1075815.875000
187.039000 1049305.625000
199.075400 931799.500000
212.046800 2507276.500000
225.054600 1234654.250000
227.070300 7153107.500000
229.049500 1538242.375000
230.057400 28805420.000000
240.041700 1463161.000000
255.065200 3401230.000000
258.052300 8189780.500000
273.075700 19276658.000000

