>compound AC58931296
>parentmass 337.0912
>ionization [M+H]+
>formula C16H16O8
>rt 155.400000
>profile orbitrap
#smiles_iso C[C@@]1(CC2=C([C@H]([C@H]1O)O)C(=C3C(=O)C=C(C(=O)C3=C2O)OC)O)O
#smiles_can CC1(CC2=C(C(C1O)O)C(=C3C(=O)C=C(C(=O)C3=C2O)OC)O)O
#inchikey ZQNOLGRKZRDRQO-OAGGEKHMSA-N
#pubchem_id 30839
#mb_accession AC000503,AC000504,AC000505,AC000506,AC000507

>ms2peaks
56.755000 2061.045898
73.487700 2849.575928
86.627900 2196.664062
98.069700 2224.373535
158.145700 3444.569336
158.694900 2576.601562
245.892100 2376.509521
259.060100 3345.315918
273.075700 13034.682617
282.259400 2869.985840
301.070700 56125.687500
319.081200 33749.093750

>ms2peaks
89.222900 2715.865723
259.060100 11106.786133
273.075700 55124.445312
301.070700 82768.500000
319.081200 18358.960938

>ms2peaks
167.033900 17004.681641
245.080800 8501.402344
255.065200 8779.797852
259.060100 26483.386719
273.075700 147021.281250
301.070700 39973.417969

>ms2peaks
167.033900 37974.429688
245.080800 19484.849609
255.065200 13976.540039
259.060100 38742.664062
273.075700 168359.187500
301.070700 17848.759766

>ms2peaks
167.033900 105170.468750
185.059700 3938.973389
213.054600 12762.385742
227.070300 19234.019531
230.057400 5214.783691
231.065200 4450.621582
245.080800 28714.740234
255.065200 13603.307617
258.052300 16503.726562
259.060100 21600.425781
273.075700 41902.406250

