>compound AC59753463
>parentmass 403.2011
>ionization [M+H]+
>formula C25H26N2O3
>rt 207.000000
>profile orbitrap
#smiles_iso C1=CC=C(C=C1)C[C@@H](CO)NC(=O)[C@H](CC2=CC=CC=C2)NC(=O)C3=CC=CC=C3
#smiles_can C1=CC=C(C=C1)CC(CO)NC(=O)C(CC2=CC=CC=C2)NC(=O)C3=CC=CC=C3
#inchikey KSVKECXWDNCRTM-GOTSBHOMSA-N
#pubchem_id 185904
#mb_accession AC000714,AC000715,AC000716,AC000717,AC000718

>ms2
134.096400 1795084.625000
152.107000 4303654.000000
224.107000 440268.031250
252.101900 628500.750000
281.164900 354621.343750
385.191100 10673535.000000
403.201600 7227467.500000

>ms2
91.054200 675306.000000
105.033500 951262.562500
117.069900 1850031.250000
134.096400 4335486.000000
152.107000 6028950.000000
162.091300 374202.906250
224.107000 3567605.500000
252.101900 824473.750000
281.164900 353317.656250
385.191100 10795691.000000
403.201600 694038.687500

>ms2
91.054200 3592257.000000
105.033500 6689182.000000
117.069900 4906256.500000
134.096400 3893184.500000
152.107000 3357587.000000
162.091300 712299.437500
224.107000 6298805.500000
385.191100 2596887.500000

>ms2
91.054200 6454292.500000
105.033500 11406642.000000
117.069900 5761590.500000
120.080800 466644.781250
134.096400 1616604.750000
152.107000 697791.062500
162.091300 415204.656250
224.107000 1138094.875000

>ms2
91.054200 11010211.000000
95.049100 501660.687500
105.033500 11810812.000000
117.069900 4142188.500000
134.096400 531912.312500

