>compound AC59762832
>parentmass 507.19840000000005
>ionization [M+Na]+
>formula C27H32O8
>rt 238.200000
>profile orbitrap
#smiles_iso CC1=C[C@@H]2[C@@]3(CC1)COC(=O)/C=C(/CCOC(=O)/C=C/C=C/C(=O)O[C@H]4[C@]3([C@]5(CO5)[C@@H](C4)O2)C)\C
#smiles_can CC1=CC2C3(CC1)COC(=O)C=C(CCOC(=O)C=CC=CC(=O)OC4C3(C5(CO5)C(C4)O2)C)C
#inchikey GXCGYHWSYNQVHU-UGAPSZEOSA-N
#pubchem_id 6437363
#mb_accession AC000263,AC000264,AC000265,AC000266,AC000267

>ms2peaks
507.198900 145908720.000000

>ms2peaks
135.041700 3788504.750000
507.198900 116457328.000000

>ms2peaks
135.041700 19057472.000000
147.005300 1599335.875000
165.015800 1247847.000000
259.057700 7670315.500000
271.130500 2549903.000000
277.068200 4907964.500000
507.198900 34467088.000000

>ms2peaks
135.041700 16030198.000000
147.005300 974121.750000
165.015800 1210359.375000
259.057700 3532849.000000
271.130500 1285247.125000
277.068200 3774519.250000
507.198900 8252598.000000

>ms2peaks
67.054200 111945.531250
79.054200 75245.273438
93.069900 77590.281250
95.049100 155226.718750
105.069900 130714.054688
119.085500 72546.179688
135.041700 2096194.375000
165.015800 155028.984375
231.138000 74336.515625
277.068200 171418.812500

