>compound AC60078463
>parentmass 529.2692
>ionization [M+H]+
>formula C32H36N2O5
>rt 220.800000
>profile orbitrap
#smiles_iso C[C@H]\1C/C=C/[C@H]2[C@H]3[C@](O3)([C@H]([C@@H]4[C@@]2(C(=O)/C=C/C(=O)[C@@H](/C(=C1)/C)O)C(=O)N[C@H]4CC5=CNC6=CC=CC=C65)C)C
#smiles_can CC1CC=CC2C3C(O3)(C(C4C2(C(=O)C=CC(=O)C(C(=C1)C)O)C(=O)NC4CC5=CNC6=CC=CC=C65)C)C
#inchikey OUMWCYMRLMEZJH-VOXRAUTJSA-N
#pubchem_id 6438437
#mb_accession AC000081,AC000082,AC000083,AC000084,AC000085

>ms2peaks
130.065100 4122608.250000
185.070900 1037483.562500
493.248600 2533625.500000
511.259100 13064719.000000
529.269700 26226698.000000

>ms2peaks
107.085500 710433.375000
109.064800 1687748.500000
130.065100 12424489.000000
132.080800 1381811.250000
135.080400 433389.000000
163.075400 742976.000000
181.085900 440944.281250
185.070900 2633474.750000
200.107000 753127.750000
329.162200 402046.437500
331.177800 617719.687500
347.172700 560214.625000
349.188400 578134.062500
380.185600 416600.218750
382.201300 423293.625000
483.264200 713751.687500
493.248600 1087213.125000
511.259100 2813086.000000
529.269700 2082235.375000

>ms2peaks
107.085500 1244789.000000
109.064800 1568158.250000
130.065100 18446148.000000
132.080800 1818468.250000
135.080400 795035.125000
185.070900 3177378.250000
200.107000 1018451.625000

>ms2peaks
81.069900 628898.875000
107.085500 1119661.375000
109.064800 1172601.125000
130.065100 15839300.000000
132.080800 1456766.625000
135.080400 761959.437500
157.101200 524611.437500
185.070900 2477221.500000
200.107000 781558.812500

>ms2peaks
81.069900 736080.625000
107.085500 799824.312500
109.064800 555692.187500
130.065100 14698169.000000
132.080800 1154725.000000
135.080400 536486.562500
157.101200 527938.000000
185.070900 1702856.375000

