>compound AC60675425
>parentmass 219.17379999999997
>ionization [M-2H2O+H]+
>formula C15H26O3
>rt 153.600000
>profile orbitrap
#smiles_iso C[C@@]12CC[C@H](C([C@H]3[C@@H]1[C@@H](C[C@@]2(C3O)C)O)(C)C)O
#smiles_can CC1(C(CCC2(C3C1C(C2(CC3O)C)O)C)O)C
#inchikey XFKGEQRMYJCXFK-YTAGIEBCSA-N
#pubchem_id 122706895
#mb_accession AC000105,AC000106,AC000107,AC000108,AC000109

>ms2peaks
95.085500 999133.875000
107.085500 1225080.375000
109.101200 1088357.500000
119.085500 806301.437500
121.101200 895431.250000
133.101200 691205.312500
135.116800 674046.312500
145.101200 889047.812500
147.116800 496112.031250
159.116800 1200359.750000
161.132500 1175059.250000
173.132500 559849.687500
175.148100 4764823.500000
177.163800 2027348.000000
191.179500 522685.218750
201.163800 3747045.500000
219.174400 15423429.000000

>ms2peaks
95.085500 1032519.437500
107.085500 1191879.000000
109.101200 1045976.875000
119.085500 823258.187500
121.101200 817776.562500
133.101200 687493.437500
135.116800 619693.937500
145.101200 819443.750000
147.116800 547049.937500
159.116800 1196179.500000
161.132500 1161440.375000
173.132500 566594.562500
175.148100 4688467.000000
177.163800 2096588.875000
191.179500 566882.250000
201.163800 3549079.000000
219.174400 14719953.000000

>ms2peaks
81.069900 458359.062500
83.085500 308438.281250
93.069900 659201.562500
95.085500 1311560.500000
105.069900 616131.312500
107.085500 1800289.750000
109.101200 1390322.625000
111.080400 469092.187500
119.085500 1306759.125000
121.101200 1438377.000000
123.116800 420971.156250
125.096100 341652.531250
131.085500 300967.781250
133.101200 1104240.500000
135.080400 285540.125000
135.116800 847545.187500
145.101200 1226302.625000
147.116800 659097.687500
149.096100 471052.718750
159.116800 1646373.625000
161.132500 1323390.000000
163.111800 513401.593750
173.132500 749918.437500
175.148100 4796436.000000
177.163800 1674427.500000
191.179500 486393.500000
201.163800 3427308.250000
219.174400 8849369.000000

>ms2peaks
69.069900 241954.484375
81.069900 309624.281250
83.049100 113637.882812
83.085500 223150.890625
85.064800 166243.234375
91.054200 110798.507812
93.069900 481680.437500
95.085500 907862.125000
97.064800 159078.578125
105.069900 475490.468750
107.085500 1274295.250000
109.064800 135722.828125
109.101200 940745.312500
111.080400 262227.718750
119.085500 903238.562500
121.101200 942159.750000
123.080400 142212.578125
123.116800 288235.187500
125.096100 189642.359375
131.085500 198349.765625
133.101200 812317.562500
135.080400 161965.625000
135.116800 611102.937500
137.096100 121406.460938
137.132500 186568.437500
145.101200 909927.875000
147.116800 475049.125000
149.096100 246577.687500
149.132500 127812.804688
159.116800 1085211.500000
161.132500 804545.937500
163.111800 238716.343750
173.132500 482305.750000
175.148100 2549528.250000
177.127400 112101.765625
177.163800 863584.312500
191.179500 234742.546875
201.163800 1644283.500000
219.174400 3289352.500000

>ms2peaks
67.054200 196249.093750
69.069900 426756.875000
71.049100 103556.906250
79.054200 149705.406250
81.069900 540751.000000
83.049100 136451.781250
83.085500 331876.593750
85.064800 238829.484375
91.054200 230426.765625
93.069900 735451.375000
95.085500 1338638.250000
97.064800 203005.953125
99.080400 131746.859375
105.069900 778643.000000
107.085500 1896279.625000
109.064800 204900.421875
109.101200 1166651.375000
111.080400 401046.718750
117.069900 173322.656250
119.085500 1647369.750000
121.064800 101225.828125
121.101200 1485102.125000
123.080400 213919.312500
123.116800 388399.000000
125.096100 220565.468750
131.085500 355463.781250
133.101200 1322030.000000
135.080400 224142.656250
135.116800 740067.125000
137.096100 141136.312500
137.132500 182093.062500
145.101200 1105527.875000
147.116800 572332.875000
149.096100 307784.031250
149.132500 145773.515625
159.116800 1472986.125000
161.132500 946962.250000
163.111800 302763.593750
173.132500 673476.375000
175.148100 2931262.500000
177.127400 138576.843750
177.163800 864182.937500
191.179500 192214.734375
201.163800 1521301.000000
219.174400 2398878.750000

