>compound AC60856569
>parentmass 337.0677
>ionization [M+Na]+
>formula C17H14O6
>rt 180.000000
>profile orbitrap
#smiles_iso COC1=C2C3=C(C(=O)CC3)C(=O)OC2=C4[C@@H]5CCO[C@@H]5OC4=C1
#smiles_can COC1=C2C3=C(C(=O)CC3)C(=O)OC2=C4C5CCOC5OC4=C1
#inchikey WWSYXEZEXMQWHT-WNWIJWBNSA-N
#pubchem_id 2724360
#mb_accession AC000030,AC000031

>ms2peaks
337.068200 1078816.625000

>ms2peaks
54.953600 1987.338379
64.977800 2855.907227
73.926500 2245.185059
80.463600 2053.120361
100.708300 2280.326172
104.367700 2602.251221
114.681700 2554.112793
174.074500 2777.100098
213.533400 2427.788330
292.190600 2384.504395
337.068200 52834.371094

