>compound AC61940481
>parentmass 501.2114
>ionization [M+H]+
>formula C27H32O9
>rt 210.000000
>profile orbitrap
#smiles_iso C[C@H]1[C@@]2(C(=O)O[C@]3([C@@H](C4=C([C@]5(CC[C@]4([C@@]2(C3=C)C(=O)O1)C)C=CC(=O)OC5(C)C)C)OC(=O)C)C)O
#smiles_can CC1C2(C(=O)OC3(C(C4=C(C5(CCC4(C2(C3=C)C(=O)O1)C)C=CC(=O)OC5(C)C)C)OC(=O)C)C)O
#inchikey DEMDOYQPCDXCEB-WLEVADLXSA-N
#pubchem_id 38353601
#mb_accession AC000827,AC000828,AC000829,AC000830,AC000831

>ms2
381.206000 1834779.250000
397.237400 809302.437500
409.201000 2720107.500000
441.227200 24867232.000000

>ms2
173.132500 421007.156250
179.070300 471816.343750
183.065200 308539.343750
187.148100 519790.218750
205.122300 315543.593750
211.096500 541671.375000
211.148100 823719.875000
213.163800 765536.187500
217.122300 697451.750000
225.112100 385144.406250
325.179800 323953.156250
335.200600 599186.625000
337.216200 832228.937500
347.200600 517517.125000
353.211100 596383.125000
363.195500 2355495.250000
365.211100 1610028.750000
381.206000 9125375.000000
391.190400 1071207.250000
395.221700 697072.562500
409.201000 5459976.000000
423.216600 396302.031250
427.211500 333519.312500
441.227200 5389160.000000

>ms2
83.012800 280344.218750
107.085500 160423.187500
119.085500 520202.125000
121.101200 222753.703125
131.085500 120057.351562
133.101200 190289.515625
135.080400 101871.515625
143.085500 122885.273438
145.101200 300005.875000
151.039000 628128.812500
153.054600 338764.125000
157.101200 268243.937500
159.116800 447050.906250
161.096100 112461.882812
161.132500 156450.546875
163.075400 414474.593750
165.091000 257932.312500
169.049500 172355.625000
171.116800 440229.687500
173.132500 813032.625000
175.075400 144286.140625
177.091000 635043.187500
179.070300 1084128.250000
183.065200 209525.156250
183.116800 382455.656250
185.132500 467131.843750
187.111800 243555.500000
187.148100 531448.000000
189.091000 117149.773438
189.127400 115192.031250
191.070300 128766.687500
191.106700 110092.242188
193.085900 270898.687500
195.101600 274533.375000
197.132500 179117.000000
199.111800 151328.859375
199.148100 170896.750000
201.127400 142153.421875
203.106700 795271.437500
205.085900 136487.515625
205.122300 735623.750000
209.132500 206556.703125
211.096500 458933.250000
211.148100 1484659.000000
213.127400 128404.210938
213.163800 1140457.625000
215.106700 121300.164062
217.122300 1907299.125000
221.080800 178724.421875
221.132500 463426.687500
223.148100 248620.703125
229.122300 149085.312500
231.101600 148060.218750
231.138000 200186.984375
239.143100 345619.875000
241.158700 110330.171875
245.117200 164204.843750
253.195100 121098.148438
257.117200 113945.765625
257.153600 128693.328125
263.179500 127309.406250
267.138000 130386.578125
279.174400 336863.687500
281.153600 103463.695312
289.158700 132802.343750
291.174400 238060.546875
291.210800 116524.601562
307.169300 321597.093750
307.205700 198253.093750
309.184900 169909.781250
309.221300 116968.867188
317.190000 252524.812500
319.205700 273588.437500
321.184900 162178.718750
325.179800 771369.375000
325.216200 128816.492188
335.164200 136227.031250
335.200600 1407730.500000
337.216200 970753.750000
345.184900 545156.500000
347.200600 366310.406250
353.211100 1015533.000000
363.195500 3176807.500000
365.211100 821913.375000
373.179800 320764.281250
381.206000 2662059.000000
391.190400 1149321.625000
395.221700 141248.093750
409.201000 1259033.625000
441.227200 157912.078125

>ms2
67.055200 84637.578125
69.034200 73393.937500
69.070700 120189.070312
79.054200 46975.132812
81.070800 90373.835938
83.012800 975240.875000
83.049100 75117.828125
85.028400 117702.320312
91.054200 84804.953125
93.069900 134706.812500
95.049100 116981.781250
95.085500 261168.890625
97.064800 64977.140625
99.044100 56264.394531
105.069900 113371.671875
107.085500 431657.937500
109.064800 105374.257812
109.101200 112289.070312
111.080400 49178.078125
117.069900 55186.906250
119.085500 923120.875000
121.064800 108039.640625
121.101200 410333.312500
123.044100 51201.636719
123.080400 87582.179688
125.059700 158210.156250
125.096100 58829.417969
131.085500 404713.875000
133.064800 68877.664062
133.101200 351023.937500
135.044100 118670.648438
135.080400 163525.125000
135.116800 79212.218750
137.059700 105205.914062
137.096100 101639.984375
139.075400 55149.878906
143.085500 285827.062500
145.101200 621798.937500
147.044100 58035.937500
147.080400 147571.125000
147.116800 85337.687500
149.096100 186424.171875
151.039000 698385.937500
151.075400 155888.875000
153.054600 461346.250000
155.070300 65583.726562
155.085500 115303.656250
156.093400 92641.398438
157.101200 595522.437500
159.080400 102267.671875
159.116800 768110.562500
161.059700 95176.546875
161.096100 166968.796875
161.132500 271059.812500
163.075400 615698.062500
163.111800 51797.582031
165.091000 450433.437500
167.106700 49034.941406
169.049500 147151.718750
169.101200 292804.500000
170.109000 124392.632812
171.080400 70685.398438
171.116800 889269.562500
172.124700 68512.117188
173.096100 95505.304688
173.132500 756644.812500
175.075400 330987.843750
175.111800 178350.484375
175.148100 54112.195312
177.091000 672326.250000
177.127400 104828.421875
179.070300 956938.750000
179.106700 49866.347656
181.101200 88339.968750
183.065200 47230.214844
183.116800 575082.937500
185.096100 136406.500000
185.132500 580060.125000
187.075400 70778.578125
187.111800 338867.750000
187.148100 345391.593750
189.091000 140905.203125
189.127400 231604.281250
191.070300 130418.375000
191.106700 114231.242188
193.085900 129226.523438
193.101200 44691.593750
195.101600 85286.843750
195.116800 136838.656250
196.124700 239946.125000
197.096100 54031.140625
197.132500 336845.812500
199.111800 235785.953125
199.148100 247387.984375
201.091000 172856.718750
201.127400 166915.906250
201.163800 52213.031250
202.098800 81920.304688
203.070300 64034.812500
203.106700 798530.000000
203.143100 75608.109375
205.085900 105288.406250
205.122300 405458.062500
207.116800 147023.578125
208.124700 47757.187500
209.132500 310983.718750
211.093900 113601.156250
211.111800 119282.671875
211.148100 1360183.375000
212.156000 100298.593750
213.130400 114145.250000
213.163800 670377.750000
215.106700 172325.250000
215.143100 62143.445312
217.122300 1354680.000000
221.080800 216048.156250
221.132500 558237.125000
223.114200 94556.859375
223.148100 280292.968750
225.127400 173821.125000
225.163800 53018.703125
227.106700 91000.351562
227.143100 62974.042969
229.122300 221310.953125
229.158700 83134.054688
231.101600 135681.000000
231.138000 69208.015625
235.148100 144735.500000
237.127400 178526.343750
237.163800 118051.351562
239.106700 140073.828125
239.143100 404564.906250
239.179500 75960.921875
241.122300 153168.453125
241.158700 128777.484375
243.138000 69129.773438
245.117200 95761.078125
247.148100 74491.367188
249.127400 115144.664062
249.163800 65450.613281
251.143100 57534.851562
251.179500 166967.687500
253.122300 126028.789062
253.158700 60701.406250
253.195100 112794.953125
255.138000 153179.484375
257.117200 76616.000000
257.153600 50590.000000
261.163800 207343.437500
263.143100 97705.875000
263.179500 144172.828125
265.122300 150593.625000
265.158700 77110.484375
265.195100 50750.070312
267.138000 166155.390625
269.117200 79339.453125
271.132900 101683.695312
274.171600 61746.230469
275.143100 61868.675781
275.179500 51105.195312
276.150900 58769.296875
277.158700 73088.898438
277.195100 53679.449219
279.138000 77350.078125
279.174400 578462.250000
281.153600 93715.210938
281.190000 85116.812500
283.132900 111399.210938
289.158700 199482.687500
289.195100 130801.195312
290.166500 44655.597656
291.174400 218241.875000
291.210800 84174.437500
293.117200 46776.738281
293.153600 126263.789062
293.190000 108652.562500
295.132900 103671.796875
295.169300 63736.621094
295.205700 46109.171875
297.184900 61838.859375
299.179500 48668.664062
301.195100 51752.082031
302.166500 73953.679688
307.132900 60359.089844
307.169300 405820.562500
307.205700 207747.500000
309.184900 142225.015625
309.221300 59997.187500
311.200600 110971.890625
314.166500 44425.476562
317.153600 69791.515625
317.190000 226331.203125
319.205700 118145.703125
320.177100 70525.320312
321.148500 69611.062500
321.184900 134032.453125
325.179800 221484.000000
325.216200 69498.921875
327.174400 47482.828125
330.161400 84006.492188
335.164200 165887.484375
335.200600 694316.562500
337.216200 295305.375000
339.195500 48658.640625
345.184900 352357.687500
347.200600 125750.343750
348.172000 100950.710938
353.211100 256592.546875
358.156400 46645.144531
363.195500 797536.312500
365.211100 134509.875000
373.179800 132011.484375
381.206000 248237.359375
391.190400 302428.781250
409.201000 111614.109375

>ms2
67.055000 277702.781250
69.034300 144898.562500
69.070600 252429.640625
79.054200 284460.968750
81.069900 258124.765625
83.012800 2664038.750000
83.049100 125199.804688
85.028400 187776.453125
91.054200 407381.937500
93.069900 360955.718750
95.049100 369564.750000
95.085500 351526.093750
97.064800 128118.859375
105.069900 622234.187500
107.085500 970873.312500
109.064800 209248.593750
109.101200 186489.640625
117.069900 242437.234375
119.085500 1639620.625000
121.064800 198990.953125
121.101200 525835.687500
123.044100 138219.062500
123.080400 191799.625000
125.059700 210922.250000
128.062100 124003.851562
129.069900 190401.609375
131.085500 849854.562500
133.064800 150264.234375
133.101200 632644.937500
135.044100 205152.421875
135.080400 324382.062500
137.059700 128394.429688
137.096100 140349.093750
141.069900 112890.335938
142.077700 313839.062500
143.085500 595666.000000
144.093400 143029.078125
145.101200 861696.562500
147.080400 330577.218750
147.116800 125830.953125
149.059700 89335.640625
149.096100 220110.875000
151.039000 523197.000000
151.075400 169949.718750
153.054600 307217.968750
155.085500 338924.125000
156.093400 623322.375000
157.101200 941451.687500
158.109000 212296.296875
159.080400 193077.796875
159.116800 743505.062500
161.059700 132771.265625
161.096100 250619.687500
161.132500 382362.093750
163.075400 430399.187500
165.091000 283317.125000
167.085500 103379.382812
168.093400 120909.867188
169.049500 112919.648438
169.101200 600592.250000
170.109000 482041.250000
171.116800 1102257.875000
173.096100 174982.187500
173.132500 462760.968750
175.075400 488476.187500
175.111800 260478.546875
177.091000 405039.531250
177.127400 88269.929688
179.070300 860527.937500
179.085500 107520.757812
181.101200 383362.687500
182.109000 168440.328125
183.116800 832275.062500
184.124700 89601.156250
185.096100 212455.859375
185.132500 383842.937500
187.075400 92221.656250
187.111800 317898.812500
187.148100 130333.734375
189.091000 190941.500000
189.127400 273602.781250
191.070300 118878.164062
193.101200 222761.562500
194.109000 169098.734375
195.116800 276288.312500
196.124700 664349.250000
197.096100 160678.000000
197.132500 472121.218750
199.111800 293195.562500
199.148100 139714.781250
201.091000 166936.906250
202.098800 144752.062500
203.106700 431854.656250
206.109000 243025.750000
207.116800 306653.937500
208.124700 116404.070312
209.096100 142924.812500
209.132500 433509.562500
211.111800 179948.562500
211.148100 529636.250000
213.127400 106772.445312
213.163800 169472.546875
215.106700 134114.125000
217.122300 334091.593750
219.116800 88931.007812
220.124700 101026.742188
221.080800 94523.585938
221.132500 563966.500000
223.111800 176928.890625
223.148100 203069.984375
224.119600 115142.898438
225.127400 178858.125000
233.132500 115110.085938
235.148100 147062.437500
237.127400 273677.093750
237.163800 131751.500000
239.106700 92484.625000
239.143100 260288.609375
241.122300 102192.750000
245.132500 87597.906250
246.140300 133124.781250
247.148100 136260.625000
249.127400 138798.078125
251.143100 92499.171875
251.179500 122942.281250
253.122300 86660.460938
259.148100 109176.593750
261.127400 99684.703125
261.163800 171738.937500
263.143100 92302.445312
264.150900 93641.742188
265.122300 162193.921875
274.138200 87234.359375
275.143100 163756.656250
279.174400 323765.812500
287.143100 139417.156250
289.158700 143256.031250
291.174400 87329.757812
302.166500 92576.031250
307.169300 196097.625000

