>compound AC61001410
>parentmass 551.2246
>ionization [M+Na]+
>formula C29H36O9
>rt 195.000000
>profile orbitrap
#smiles_iso CC1=C[C@@H]2[C@@]3(CC1)COC(=O)/C=C/4\CCO[C@@]([C@@H]4O)(/C=C/C=C/C(=O)OC5[C@]3([C@]6(CO6)[C@@H](C5)O2)C)[C@H](C)O
#smiles_can CC1=CC2C3(CC1)COC(=O)C=C4CCOC(C4O)(C=CC=CC(=O)OC5C3(C6(CO6)C(C5)O2)C)C(C)O
#inchikey MUACSCLQRGEGOE-MOCAONITSA-N
#pubchem_id 56928155
#mb_accession AC000606,AC000607,AC000608,AC000609

>ms2
303.083900 1210987.875000
551.225200 10666246.000000

>ms2
193.047100 111414.359375
241.047100 160810.343750
259.057700 106460.890625
271.132900 228774.828125
303.083900 802077.187500
321.094500 453880.875000
523.230200 101500.085938
551.225200 2948671.000000

>ms2
55.364000 7017.880859
66.555100 7350.397949
73.287600 6409.351562
79.055400 12148.113281
93.071000 40808.105469
95.050300 11298.016602
105.069900 30126.119141
115.361300 6521.605469
119.085500 38755.476562
121.064800 12305.400391
121.101200 11292.784180
137.456200 8033.403320
143.087000 11949.035156
145.101200 9252.510742
157.101200 9471.261719
159.116800 8687.824219
193.047100 43238.113281
231.065200 10835.661133
231.138000 9420.547852
241.047100 15350.005859
259.057700 13161.190430
259.094100 9748.586914
271.130500 43801.566406
275.091400 16873.210938
303.083900 118866.789062
321.094500 107828.929688
546.212800 8169.682129
551.225200 125033.750000

>ms2
64.975700 8123.050293
67.055200 15320.396484
67.400400 7416.437988
68.482200 6309.845215
79.055200 42588.351562
81.070800 11308.540039
83.050300 16193.098633
91.054200 20458.343750
93.071000 34502.886719
95.050100 12860.698242
95.085500 8952.452148
105.069900 61534.652344
109.028400 7884.275879
110.835300 7319.771484
117.069900 12497.386719
119.085500 72248.367188
131.085500 11316.772461
141.125000 7797.757324
143.085500 30075.601562
151.791600 8942.922852
159.116800 10297.514648
187.577700 8714.045898
218.330900 9058.036133
274.645900 11720.713867
310.268800 8269.746094
416.023700 8768.935547

