>compound AC62905724
>parentmass 535.1593
>ionization [M+H]+
>formula C29H26O10
>rt 217.800000
>profile orbitrap
#smiles_iso C[C@H](CC1=C2C3=C(C(=C(C4=C3C5=C6C2=C(C(=O)C=C6OCOC5=CC4=O)C(=C1OC)O)O)OC)C[C@@H](C)O)O
#smiles_can CC(CC1=C2C3=C(C(=C(C4=C3C5=C6C2=C(C(=O)C=C6OCOC5=CC4=O)C(=C1OC)O)O)OC)CC(C)O)O
#inchikey MXLWQNCWIIZUQT-GHMZBOCLSA-N
#pubchem_id 91617
#mb_accession AC000540,AC000541,AC000542,AC000543,AC000544

>ms2peaks
535.159900 210301776.000000

>ms2peaks
383.055000 1764864.125000
415.081200 54919060.000000
425.102000 6474376.000000
427.081200 4190751.250000
429.096900 4988277.000000
429.133300 4476933.500000
441.096900 3835850.250000
443.064100 8698973.000000
443.119700 2667845.250000
453.096900 4649747.500000
457.128200 9319097.000000
459.107400 5810588.000000
467.112500 5666359.500000
469.128200 1865813.875000
475.102300 4917475.500000
485.123100 29290268.000000
499.138700 6980653.000000
503.133600 7978413.000000
517.149300 5272069.500000
535.159900 34407420.000000

>ms2peaks
383.055000 5441735.500000
384.062800 1587155.125000
396.062800 1810164.500000
397.070700 2206763.750000
399.086300 1418596.000000
400.057700 2564143.000000
401.065600 2479642.000000
411.086300 1643520.250000
412.057700 1860070.750000
413.058900 2068554.625000
415.081200 44091928.000000
425.102000 4071796.500000
426.068800 1501047.375000
427.081200 3863727.500000
429.096900 4870188.000000
429.138800 1562792.875000
441.060500 3246330.250000
441.096900 2117488.250000
443.076100 5325186.500000
443.117800 2506081.250000
452.089000 1597944.000000
453.096900 3203811.750000
456.084000 2106071.500000
457.128200 2447042.250000
459.107400 3752133.000000
467.112500 2506625.500000
475.102300 1866426.125000
485.123100 7590311.000000

>ms2peaks
355.060100 1297573.500000
368.067900 905028.375000
369.075700 987595.687500
373.070700 1033300.125000
381.075700 878079.250000
383.055000 5080592.500000
384.062800 2136043.000000
385.070700 1324054.500000
396.062800 1463319.000000
397.066200 2374824.000000
398.078500 1231317.875000
399.049900 1375926.750000
399.086300 898015.500000
400.057700 3107153.750000
401.065600 2558859.500000
409.070700 883651.687500
410.078500 899991.187500
411.049900 956316.000000
411.086300 1166537.250000
412.057700 2003782.875000
413.061200 2530060.000000
415.081200 25449768.000000
425.109300 1667494.875000
426.073400 1383955.375000
427.081200 2376220.750000
428.047900 817078.562500
428.089000 1029152.562500
429.096900 2545230.000000
437.065600 1074239.250000
441.052300 3734209.250000
443.076100 2953103.500000
443.119200 1044102.000000
452.089000 892793.937500
453.096900 1770048.750000
455.071000 944243.375000
459.107400 1662671.500000
485.123100 1996363.625000

>ms2peaks
55.018600 283326.718750
59.049800 321527.750000
69.033500 252597.250000
71.049100 181409.421875
85.064800 227308.671875
285.091000 222182.890625
286.062400 224881.921875
295.075400 205593.750000
299.070300 253585.390625
300.078100 178224.921875
301.085900 284621.062500
302.057400 250400.406250
310.062400 213879.203125
311.070300 549641.750000
312.078100 197412.000000
313.049500 198781.953125
313.085900 269992.093750
314.057400 577267.312500
315.065200 394065.156250
316.073000 624274.625000
317.080800 218716.312500
323.070300 361596.187500
324.078100 242115.703125
325.049500 336653.125000
325.085900 459172.312500
326.057400 363225.281250
327.065200 916338.625000
328.073000 474779.687500
329.044400 354060.062500
329.080800 405467.875000
330.052300 307430.531250
330.088700 179896.984375
337.049500 183801.062500
337.085900 166945.671875
338.057400 183986.062500
339.065200 1000574.187500
339.101600 193826.343750
340.073000 420155.375000
341.044400 481156.125000
341.080800 818951.250000
342.052300 735073.375000
342.088700 288567.968750
343.060100 834296.437500
344.067900 3382113.500000
345.075700 526203.250000
351.065200 456307.031250
352.073000 537525.500000
353.038600 416663.968750
353.080800 819094.062500
354.052300 987367.000000
354.088700 193767.796875
355.060100 5214743.000000
355.092700 279146.031250
356.067900 718180.937500
357.039300 746433.062500
357.075700 913490.312500
358.047200 297463.468750
358.083600 423840.062500
359.049100 489635.718750
359.091400 317099.906250
360.062800 167184.343750
365.040100 247730.156250
365.080800 237398.156250
366.052300 241042.328125
367.060100 1604157.750000
367.096500 174196.234375
368.067900 2252866.250000
369.033500 582127.625000
369.075700 1694858.750000
370.047200 1593081.500000
370.083600 366015.687500
371.055000 1994417.875000
371.091400 243792.812500
372.062800 2400607.750000
373.070700 1126080.125000
377.080800 174640.375000
379.060100 375878.812500
380.067900 429452.062500
381.075700 1049902.625000
382.047200 979204.250000
382.083600 549800.812500
383.055000 4541185.000000
383.091400 416979.531250
384.062800 3499025.250000
385.034300 2622729.000000
385.070700 2040134.875000
386.042100 1305050.375000
386.078500 673008.187500
387.049900 1355212.250000
387.086300 420474.281250
389.059700 229502.437500
391.054400 315602.906250
392.067900 223226.750000
393.075700 304857.562500
395.050500 1191214.625000
395.091400 184660.578125
396.062800 1045997.812500
397.034300 188607.140625
397.070700 1627171.375000
398.042100 824569.125000
398.078500 804912.375000
399.049900 3380341.500000
399.086300 577366.187500
400.057700 3230590.250000
401.065600 1871482.250000
402.031100 604339.250000
405.075700 167361.375000
407.044600 216945.359375
407.097200 221337.890625
408.062800 382259.843750
409.070700 1083826.250000
410.037900 284913.000000
410.084800 536136.937500
411.041200 1214922.250000
411.086300 427801.687500
412.057700 1696512.625000
413.065600 3508072.500000
414.030900 765677.312500
415.081200 4077674.000000
416.046200 186695.046875
417.060500 884237.062500
419.076100 302254.375000
423.039800 502513.531250
424.051900 181375.703125
424.094100 249669.828125
425.061200 568520.562500
426.073400 459168.687500
427.038800 540521.750000
427.081200 909637.125000
428.043400 744548.437500
429.060500 447318.968750
429.096900 249614.468750
435.086300 172159.921875
437.065600 926967.062500
439.081200 303118.625000
440.045200 208476.640625
441.060500 1626099.750000
443.070400 441011.250000
453.096900 308263.875000
455.076100 219539.328125

