>compound AC62359370
>parentmass 337.0912
>ionization [M+H]+
>formula C16H16O8
>rt 151.200000
>profile orbitrap
#smiles_iso C[C@]1([C@@H]([C@H](C2=C([C@H]1O)C(=O)C3=C(C2=O)C(=CC(=C3)OC)O)O)O)O
#smiles_can CC1(C(C(C2=C(C1O)C(=O)C3=C(C2=O)C(=CC(=C3)OC)O)O)O)O
#inchikey VSMBLBOUQJNJIL-JJXSEGSLSA-N
#pubchem_id 89644
#mb_accession AC000066,AC000067,AC000068,AC000069,AC000070

>ms2peaks
245.080800 149331.687500
257.080800 121049.023438
259.060100 539341.687500
273.075700 1519391.125000
291.086300 313705.500000
301.070700 2161871.500000
319.081200 389059.562500
337.091800 194788.140625

>ms2peaks
245.080800 296328.000000
255.065200 49091.148438
257.080800 107594.062500
259.060100 597264.437500
273.075700 1250194.750000
283.060100 50196.417969
291.086300 144416.265625
301.070700 1438891.500000
319.081200 92828.695312

>ms2peaks
151.039000 35179.218750
203.070300 48795.164062
217.085900 51332.808594
227.070300 35499.812500
230.057400 55111.605469
231.065200 150139.875000
233.044400 45682.230469
245.044400 61934.882812
245.080800 677486.875000
255.065200 128348.757812
257.080800 93469.000000
259.060100 754894.687500
263.055000 30663.562500
273.075700 914123.750000
283.060100 95686.296875
301.070700 767874.000000

>ms2peaks
151.039000 50957.242188
203.070300 50084.734375
205.049500 23505.421875
217.049500 24878.927734
217.085900 96640.859375
227.070300 45011.636719
230.057400 66644.710938
231.065200 181201.109375
233.044400 38083.187500
245.044400 45084.039062
245.080800 569322.750000
255.065200 111125.671875
257.080800 68617.851562
259.060100 489976.625000
273.075700 517086.312500
283.060100 79094.765625
301.070700 414065.781250

>ms2peaks
95.049100 14685.987305
129.069900 10783.251953
151.039000 116642.484375
157.064800 21228.515625
160.051900 11172.773438
168.057000 10803.190430
171.044100 13835.083008
171.080400 16487.617188
173.023300 12439.406250
174.067500 20549.003906
175.075400 69734.671875
177.054600 15819.984375
184.051900 14426.231445
185.059700 55629.898438
186.067500 21263.695312
189.054600 24278.818359
189.091000 37301.449219
195.028800 10044.974609
199.039000 14021.913086
199.075400 48642.875000
200.046800 20852.697266
202.062400 25913.789062
203.070300 191096.937500
205.049500 30552.859375
207.065200 12684.652344
212.046800 15293.987305
213.054600 53351.152344
214.062400 66291.093750
216.041700 19804.216797
217.049500 52459.332031
217.085900 173742.296875
227.033900 11351.636719
227.070300 119094.023438
230.057400 153443.890625
231.065200 191231.843750
233.044400 19568.027344
241.049500 33443.277344
245.044400 22559.691406
245.080800 224636.562500
255.065200 85433.625000
257.080800 11823.980469
258.052300 27907.437500
259.060100 158422.406250
273.075700 112417.859375
283.060100 35839.664062
286.047200 9977.209961
301.070700 45130.355469

