>compound AC63768908
>parentmass 512.2386
>ionization [M+H]+
>formula C27H33N3O7
>rt 226.200000
>profile orbitrap
#smiles_iso CC(=C[C@@H]1N2C3=C(C=CC(=C3)OC)C4=C2[C@H](CC(OO1)(C)C)N5C(=O)[C@@H]6CCCN6C(=O)[C@@]5([C@H]4O)O)C
#smiles_can CC(=CC1N2C3=C(C=CC(=C3)OC)C4=C2C(CC(OO1)(C)C)N5C(=O)C6CCCN6C(=O)C5(C4O)O)C
#inchikey LRXYHMMJJCTUMY-GWXUGYLUSA-N
#pubchem_id 13887805
#mb_accession AC000752,AC000753,AC000754,AC000755,AC000756

>ms2peaks
198.091300 618416.312500
230.117600 225861.687500
240.101900 103098.781250
313.118300 135154.859375
314.175100 74170.867188
324.131600 58232.394531
331.128800 48357.179688
338.113500 70309.289062
352.129200 503928.281250
356.124100 77615.101562
364.165600 92395.546875
370.139700 1346987.250000
378.142100 47885.328125
382.173400 184905.015625
392.160500 128006.367188
394.176100 53997.878906
396.155400 121024.843750
410.171000 206433.125000
428.181600 343114.437500
429.189400 91447.976562
436.186700 47087.792969
448.220400 44400.738281
476.218000 136057.437500
494.147200 58099.980469
494.228600 522825.781250
512.239100 1336812.250000

>ms2peaks
70.065100 250378.750000
153.065800 38257.882812
169.060800 47307.199219
172.075700 38312.156250
181.060800 41622.085938
188.070600 46327.121094
191.057700 38210.226562
198.091300 914668.625000
199.086600 71429.632812
201.078400 56120.449219
202.086300 114875.648438
202.122600 46469.308594
210.091300 63898.917969
227.081500 104487.945312
228.101900 58731.863281
230.117600 356410.187500
240.101900 189745.343750
242.117600 83774.062500
255.076400 239786.437500
258.112500 38634.710938
259.120300 46850.949219
260.124100 64477.007812
295.107700 115051.125000
296.136700 41259.472656
310.118600 210813.453125
313.118300 204010.343750
322.110100 87122.195312
323.126400 138309.312500
324.134300 245659.781250
331.128800 59344.566406
336.134300 40867.843750
338.113500 168888.203125
342.142100 65895.687500
350.147200 45828.632812
352.129200 812405.437500
356.124100 80025.281250
364.162900 89644.671875
370.139700 1190510.500000
372.119000 75417.484375
378.144800 64276.863281
392.157800 91776.351562
410.171000 79548.171875
428.181600 85783.257812
448.220400 52801.726562
476.218000 58407.453125
477.117100 87690.671875
494.228600 49628.996094

>ms2peaks
70.065100 713812.937500
125.070900 41639.183594
141.065800 48022.500000
148.075700 48402.800781
153.065800 69546.265625
154.049900 32928.070312
160.075700 76437.718750
169.060800 54181.054688
172.075700 132201.093750
174.091300 110522.335938
176.070600 79821.062500
184.075700 67495.492188
188.070600 102609.906250
189.102200 39252.824219
190.086300 35251.128906
191.057700 61467.253906
192.061500 38170.238281
197.083500 60543.511719
198.091300 980568.187500
199.086600 384762.437500
200.070600 68538.046875
200.107000 60632.058594
201.078400 42042.425781
202.049900 35830.398438
202.086300 168878.343750
202.122600 186981.718750
210.091300 76339.609375
211.083900 58198.015625
212.107000 40167.476562
213.065800 96767.398438
217.097200 92077.218750
227.081500 428496.625000
228.101900 68379.398438
230.083900 35820.320312
230.117600 251508.984375
231.076400 34318.566406
240.101900 207774.750000
241.060800 76043.710938
242.117600 73294.085938
245.092100 87709.234375
253.097200 53112.835938
255.076400 590433.750000
259.071300 129313.570312
267.112800 111169.742188
273.087000 53290.140625
281.092100 42501.519531
285.123400 52222.449219
294.123700 32226.841797
295.105000 103164.023438
296.139400 92062.609375
297.120700 39668.058594
303.133900 39017.589844
306.123700 61283.507812
310.118600 232633.281250
313.118300 112513.195312
321.108100 37911.714844
322.110100 86323.007812
323.126400 189689.500000
324.134300 225990.656250
338.113500 79616.593750
352.129200 288786.781250
370.139700 256810.078125
372.119000 55509.742188
379.043500 59670.710938
397.058100 47179.605469

>ms2peaks
70.065100 1171716.000000
98.060000 44476.671875
125.070900 53326.234375
126.055000 60052.855469
141.065800 78905.195312
148.075700 93078.250000
153.065800 91157.695312
158.060000 48630.277344
160.075700 136139.500000
172.075700 176542.562500
174.091300 172042.359375
176.070600 101882.421875
183.067900 67201.296875
184.075700 114130.546875
186.055000 58826.265625
188.070600 119559.406250
189.102200 64291.410156
191.057700 51916.031250
197.083500 79568.226562
198.091300 866562.062500
199.086600 800160.875000
200.070600 116683.492188
200.107000 67249.671875
202.049900 38596.300781
202.086300 121556.882812
202.122600 210597.828125
209.070900 59569.269531
210.091300 77896.257812
211.083900 78703.742188
212.107000 52594.304688
213.065800 232721.609375
215.078800 60591.628906
217.097200 86518.390625
227.081500 660501.875000
228.101900 57607.429688
230.117600 157955.343750
231.076400 117818.570312
239.081500 46893.230469
240.101900 209265.312500
241.060800 87167.703125
243.076400 40001.378906
245.092100 90052.031250
252.089300 68964.500000
253.094500 77041.812500
255.076400 443403.031250
259.071300 175514.812500
267.112800 127967.218750
279.112800 50548.917969
283.060100 56781.250000
295.135600 48020.523438
296.139400 51955.519531
310.118600 113640.023438
322.110100 45972.023438
323.126400 79527.828125
324.131600 59193.097656
352.130500 44691.753906
379.043500 45450.195312

>ms2peaks
70.065100 1549316.750000
98.060000 56467.312500
125.070900 53316.398438
141.065800 69407.468750
146.060000 51474.550781
147.067900 97156.820312
148.075700 140947.546875
153.065800 53930.949219
156.068200 59586.886719
158.060000 128692.007812
159.067900 102948.992188
160.075700 235870.843750
167.073000 67102.023438
172.075700 227750.281250
173.083500 53367.527344
174.091300 160870.734375
176.070600 72986.351562
182.060000 58027.101562
183.067900 334282.468750
184.063100 336625.406250
184.075700 139240.546875
185.070900 133159.953125
186.055000 94124.109375
187.099200 63494.167969
188.070600 103305.929688
197.083500 129605.132812
198.091300 613319.125000
199.086600 991950.687500
200.070600 229080.718750
202.122600 87582.289062
209.070900 86317.539062
210.091300 79752.320312
211.083900 80228.320312
212.055300 87977.085938
213.065800 348531.593750
215.078800 93457.703125
227.081500 485344.468750
230.065900 61421.816406
231.076400 270956.468750
235.086600 55685.746094
240.101900 93689.960938
252.086600 101055.523438
253.097200 62962.109375
255.073700 70162.601562
259.071300 88286.554688

