>compound AC63050049
>parentmass 433.1827
>ionization [M+Na]+
>formula C21H30O8
>rt 210.600000
>profile orbitrap
#smiles_iso CC[C@H](C)[C@H]([C@@](/C=C/CC(=C)CCC(=O)C1C(=O)C[C@H](OC1=O)C)(C(=O)O)O)O
#smiles_can CCC(C)C(C(C=CCC(=C)CCC(=O)C1C(=O)CC(OC1=O)C)(C(=O)O)O)O
#inchikey OFVHHCDOMZQVQV-ZICDYRIUSA-N
#pubchem_id 101297698
#mb_accession AC000647,AC000648,AC000649

>ms2
371.182900 101665.804688
415.172700 56108.906250
433.183300 238452.156250

>ms2
353.172300 52089.414062
371.182900 1133646.250000
415.172700 545954.062500
433.183300 183809.750000

>ms2
151.036600 35296.773438
285.148500 115099.179688
329.099600 29979.205078
329.138400 129548.953125
353.172300 140679.375000
371.182900 742827.750000
397.162200 70786.367188
415.172700 482002.625000
433.183300 27473.488281

