>compound AC63685527
>parentmass 488.2287
>ionization [M+H]+
>formula C27H29N5O4
>rt 207.600000
>profile orbitrap
#smiles_iso CC(C)[C@H]1C2=NC3=CC=CC=C3C(=O)N2[C@@H](C(=O)N1)C[C@@]4([C@@H]5NC(C(=O)N5C6=CC=CC=C64)(C)C)O
#smiles_can CC(C)C1C2=NC3=CC=CC=C3C(=O)N2C(C(=O)N1)CC4(C5NC(C(=O)N5C6=CC=CC=C64)(C)C)O
#inchikey VHQZIMAMLQIPDR-KLGADWMXSA-N
#pubchem_id 101651022
#mb_accession AC000832,AC000833,AC000834,AC000835,AC000836

>ms2peaks
213.102200 13564000.000000
258.123700 10131253.000000
470.218700 214662368.000000
488.229200 32571270.000000

>ms2peaks
185.107300 9512016.000000
213.102200 173676000.000000
258.123700 75360896.000000
452.208100 8120268.500000
470.218700 89926720.000000

>ms2peaks
185.107300 73653728.000000
213.102200 235010720.000000
258.123700 52446636.000000

>ms2peaks
185.107300 197913664.000000
213.102200 124408416.000000
215.068900 7708836.500000
258.123700 22071284.000000

>ms2peaks
144.080800 36084776.000000
168.080800 48244132.000000
185.107300 245763600.000000
213.102200 17297908.000000
215.068900 13489088.000000

