>compound AC63184299
>parentmass 485.2164000000001
>ionization [M+H]+
>formula C27H32O8
>rt 238.200000
>profile orbitrap
#smiles_iso CC1=C[C@@H]2[C@@]3(CC1)COC(=O)/C=C(/CCOC(=O)/C=C/C=C/C(=O)O[C@H]4[C@]3([C@]5(CO5)[C@@H](C4)O2)C)\C
#smiles_can CC1=CC2C3(CC1)COC(=O)C=C(CCOC(=O)C=CC=CC(=O)OC4C3(C5(CO5)C(C4)O2)C)C
#inchikey GXCGYHWSYNQVHU-UGAPSZEOSA-N
#pubchem_id 6437363
#mb_accession AC000258,AC000259,AC000260,AC000261,AC000262

>ms2peaks
95.049100 3779502.750000
113.059700 19718876.000000
231.138000 13716043.000000
249.148500 3285624.750000
343.190400 29302274.000000
373.164600 5850565.500000
485.217000 52298768.000000

>ms2peaks
67.054200 2924067.000000
95.049100 44006880.000000
97.028400 3294629.000000
105.069900 1716740.000000
113.059700 48184252.000000
125.023300 2459902.000000
185.132500 3356144.000000
187.111800 3529726.500000
201.127400 1844818.750000
203.143100 2317650.500000
213.127400 3702559.000000
231.138000 24403106.000000
249.148500 8394693.000000
343.190400 44165448.000000
373.164600 3016648.750000
485.217000 4925846.000000

>ms2peaks
67.054200 13037773.000000
95.049100 85335216.000000
97.028400 10208624.000000
105.069900 4238175.500000
113.059700 62890940.000000
143.085500 2793280.000000
159.116800 2964585.250000
185.132500 5687797.000000
187.111800 4762600.000000
203.143100 2873811.000000
213.127400 3917609.250000
231.138000 14205029.000000
249.148500 3706061.000000
343.190400 9108357.000000

>ms2peaks
67.054200 19248100.000000
81.069900 4232443.000000
93.069900 3721735.500000
95.049100 90055464.000000
97.028400 15513817.000000
105.069900 5932702.500000
107.085500 3387761.250000
109.064800 3313670.750000
113.059700 68288464.000000
143.085500 4218813.500000
157.101200 3539443.500000
159.116800 3853075.000000
185.132500 5616040.500000
187.111800 4766092.000000
195.116800 2941620.750000
213.127400 3228371.000000
231.138000 8791636.000000
343.190400 2917053.500000

>ms2peaks
65.038600 3503980.000000
67.054200 35634556.000000
71.049100 2056636.000000
79.054200 2000320.250000
81.069900 5902916.000000
85.064800 2388399.500000
91.054200 2546870.750000
93.069900 5292150.000000
95.049100 53108404.000000
95.085500 2591607.750000
97.028400 17876564.000000
105.069900 9014392.000000
107.085500 3934703.000000
109.064800 3590572.500000
113.059700 50405812.000000
119.085500 3144905.750000
121.064800 2013977.000000
123.080400 2851493.500000
131.085500 3306819.500000
133.101200 2389473.000000
143.085500 5755173.500000
145.101200 2582656.750000
157.101200 3736290.000000
159.080400 2015909.500000
159.116800 3071672.000000
161.096100 2260218.750000
185.132500 2072369.375000
187.111800 1779810.625000

