>compound AC66124102
>parentmass 251.0908
>ionization [M+H]+
>formula C13H14O5
>rt 139.200000
>profile orbitrap
#smiles_iso C[C@@H]1[C@H](OC=C2C1=C(C(=C(C2=O)C(=O)O)O)C)C
#smiles_can CC1C(OC=C2C1=C(C(=C(C2=O)C(=O)O)O)C)C
#inchikey CBGDIJWINPWWJW-IYSWYEEDSA-N
#pubchem_id 54680783
#mb_accession AC000430,AC000431,AC000432,AC000433,AC000434

>ms2peaks
233.080800 11880098.000000
251.091400 13656832.000000

>ms2peaks
233.080800 22103348.000000
251.091400 24380752.000000

>ms2peaks
233.080800 31175928.000000
251.091400 18603988.000000

>ms2peaks
147.080400 1625606.125000
191.070300 1542583.125000
205.085900 3519483.000000
209.080800 1512009.375000
215.070300 1455550.000000
233.080800 40084984.000000
251.091400 17208466.000000

>ms2peaks
91.054200 1354362.125000
95.086500 1200687.375000
107.050300 1093771.250000
119.085500 2450668.500000
131.085500 1181678.000000
135.080400 673414.125000
147.080400 2846454.250000
191.070300 2618007.500000
195.028800 1142389.625000
203.033900 2581689.000000
205.085900 7483134.500000
209.080800 2135725.250000
215.070300 2482085.750000
218.057400 1745197.500000
233.080800 20791006.000000
251.091400 4837354.500000

