>compound AC66895471
>parentmass 921.4866
>ionization [M+Na]+
>formula C52H70N2O11
>rt 244.200000
>profile orbitrap
#smiles_iso C[C@@H]1CCC2[C@@]([C@@]13CC4=C(C=C5C(=C4O3)CN(C5=O)[C@@H](CCCCN6CC7=C8C(=C(C=C7C6=O)O)C[C@@]9(O8)[C@@H](CCC1[C@@]9(C[C@H]([C@H](C1(C)C)O)O)C)C)C(=O)O)O)(CC[C@H](C2(C)C)O)C
#smiles_can CC1CCC2C(C(CCC2(C13CC4=C(C=C5C(=C4O3)CN(C5=O)C(CCCCN6CC7=C8C(=C(C=C7C6=O)O)CC9(O8)C(CCC1C9(CC(C(C1(C)C)O)O)C)C)C(=O)O)O)C)O)(C)C
#inchikey GBUQOBUNFQDAQG-CRDDFVEESA-N
#pubchem_id 10677176
#mb_accession AC000623,AC000624,AC000625,AC000626

>ms2peaks
921.487200 16879092.000000

>ms2peaks
921.487200 11274544.000000

>ms2peaks
877.497400 241294.718750
921.487200 7076721.500000

>ms2peaks
486.178500 11298.322266
490.259100 20458.189453
507.280300 174974.484375
508.266700 201101.562500
536.261600 75344.742188
637.319000 22505.359375
651.306500 24176.972656
653.319400 55008.562500
669.314600 44520.726562
681.311200 19835.472656
697.307700 18660.556641
859.484100 89960.757812
875.470500 92949.812500
877.497400 346343.031250
878.502500 20733.052734
903.476600 81467.179688
921.487200 314976.625000

