>compound AC70834771
>parentmass 257.1643
>ionization [M+H]+
>formula C16H20N2O
>rt 142.200000
>profile orbitrap
#smiles_iso C/C(=C\[C@H]1[C@@H](CC2=CNC3=CC=CC1=C23)NC)/CO
#smiles_can CC(=CC1C(CC2=CNC3=CC=CC1=C23)NC)CO
#inchikey SAHHMCVYMGARBT-HEESEWQSSA-N
#pubchem_id 5281381
#mb_accession AC000323,AC000324,AC000325,AC000326

>ms2peaks
208.112100 9951.533203
226.122600 7051.513184
239.154300 16319.520508
257.164900 147432.578125

>ms2peaks
208.112100 8855.583008
226.122600 6518.167480
239.154300 10510.910156
257.164900 140152.343750

>ms2peaks
156.080800 3757.312744
168.080800 11442.984375
183.091700 3340.087891
185.107300 10244.657227
198.127700 4811.828125
208.112100 25150.345703
226.122600 4477.951660
239.154300 21938.994141
257.164900 80102.046875

>ms2peaks
54.808700 1584.005371
57.027800 1541.986572
58.570400 1632.874390
61.708200 1897.584839
67.900800 1753.404053
70.341000 1835.801514
72.973600 1755.001831
144.080800 2509.627930
156.080800 11704.780273
168.080800 16393.339844
184.099500 2662.799316
185.107300 12825.448242
193.088600 2565.804443
198.127700 9871.175781
201.981000 1817.918213
206.631500 2071.310547
208.112100 21687.527344
210.127700 3560.139893
226.122600 4034.821533
239.154300 11510.252930
249.347100 2034.354248
257.164900 31047.261719

