>compound AC70418511
>parentmass 253.1429
>ionization [M+H]+
>formula C14H20O4
>rt 220.800000
>profile orbitrap
#smiles_iso CCC/C=C/C=C/[C@@H]1C[C@H]([C@H](C(=O)[C@H]1C=O)O)O
#smiles_can CCCC=CC=CC1CC(C(C(=O)C1C=O)O)O
#inchikey MHZVWXOKIRZLCJ-XZQMCIKJSA-N
#pubchem_id 23748522
#mb_accession AC000135,AC000136,AC000137,AC000138,AC000139

>ms2peaks
83.049100 53320.734375
95.085500 53762.843750
97.028400 144802.812500
97.101200 97569.750000
111.044100 571173.875000
121.101200 60954.773438
123.116800 54292.343750
133.064800 114241.539062
133.101200 56997.472656
139.039000 357709.687500
147.116800 64978.257812
149.096100 59911.054688
157.049500 1641053.375000
161.132500 104094.757812
171.116800 61550.187500
175.148100 53398.847656
177.091000 67292.937500
179.106700 80460.265625
179.143100 62793.949219
189.127400 288850.437500
193.122300 121774.085938
207.138000 302830.718750
217.122300 182507.656250
217.156300 54064.253906
235.132900 188624.984375
235.168100 119507.171875
253.143400 669874.812500

>ms2peaks
97.028400 148019.562500
97.101200 87124.476562
111.044100 502172.562500
121.101200 51914.902344
133.064800 114831.015625
133.101200 55250.675781
139.039000 331181.156250
147.080400 49188.460938
147.116800 69806.656250
149.096100 52422.492188
151.075400 52285.273438
157.049500 1505677.250000
161.132500 99474.523438
175.148100 49795.843750
177.091000 66550.992188
179.106700 72656.500000
179.143100 54231.468750
189.127400 248233.296875
193.122300 109716.523438
207.138000 282854.843750
217.122300 174068.750000
235.132900 158105.562500
235.167900 102305.492188
253.143400 602308.062500

>ms2peaks
81.069900 51920.027344
83.049100 145228.937500
93.069900 56525.488281
95.085500 86336.835938
97.028400 442003.250000
97.101200 55961.820312
105.069900 55125.589844
107.049100 61593.390625
107.085500 72269.320312
109.064800 56155.718750
109.101200 51944.347656
111.044100 1532263.250000
119.085500 88328.226562
121.101200 127103.359375
123.116800 66897.117188
133.064800 146486.218750
133.101200 88743.828125
139.039000 504963.281250
147.080400 71372.093750
147.116800 92005.968750
149.096100 87145.179688
151.075400 52858.871094
157.049500 1016868.250000
161.132500 96287.718750
163.111800 53324.359375
175.148100 63592.035156
179.106700 87606.656250
189.127400 110158.726562
193.122300 71617.914062
207.138000 113176.328125
217.122300 72733.125000
235.168000 51447.417969
253.143400 63427.316406

>ms2peaks
81.069900 72929.500000
83.049100 259774.203125
95.085500 91075.898438
97.028400 571945.312500
105.069900 83897.906250
107.085500 97531.132812
109.101200 68904.992188
111.044100 2052881.375000
119.085500 119306.828125
121.101200 123967.156250
133.064800 157178.531250
133.101200 104432.304688
139.039000 479762.093750
147.080400 81369.937500
147.116800 97989.000000
149.096100 90768.812500
157.049500 669695.375000
161.132500 80325.093750
179.106700 71391.945312
189.127400 81054.625000
207.138000 67540.304688

>ms2peaks
67.054200 70165.546875
81.069900 72402.968750
83.049100 323247.000000
93.069900 70532.000000
95.085500 87601.195312
97.028400 490236.781250
105.069900 74490.648438
107.049100 70915.976562
107.085500 88670.617188
109.064800 58721.203125
109.101200 65275.515625
111.044100 1827089.000000
119.085500 111205.187500
121.101200 120892.914062
133.064800 119679.484375
133.101200 83965.585938
139.039000 288861.218750
147.116800 68706.414062
157.049500 277771.375000

