>compound AC71357652
>parentmass 198.1119
>ionization [M+H]+
>formula C10H15NO3
>rt 189.600000
>profile orbitrap
#smiles_iso CC[C@H](C)[C@H]1C(=C(C(=O)N1)C(=O)C)O
#smiles_can CCC(C)C1C(=C(C(=O)N1)C(=O)C)O
#inchikey CEIZFXOZIQNICU-XNCJUZBTSA-N
#pubchem_id 54683011
#mb_accession AC000637,AC000638,AC000639,AC000640,AC000641

>ms2
83.085500 21923.091797
97.101200 15117.917969
100.075700 11297.470703
125.096100 8456.695312
128.107000 8479.767578
139.148800 8701.396484
163.148700 38339.636719
181.159600 25494.794922
198.112500 43680.046875

>ms2
83.086500 17233.919922
97.101200 13431.289062
114.091300 8981.375977
153.091000 15556.077148
163.148500 31988.195312
181.085900 11877.395508
181.159100 26368.191406
198.112500 110650.281250

>ms2
57.071000 8307.836914
69.070900 7425.237793
83.086400 22222.880859
97.101200 14882.039062
107.085500 9514.250977
111.080400 11304.291992
115.039000 14827.534180
121.101200 9685.880859
125.023300 18708.039062
125.059700 20940.304688
125.096100 7979.554199
139.039000 19985.066406
139.075400 17799.412109
142.049900 24789.923828
153.091000 54406.734375
163.148500 21331.527344
180.101900 16759.269531
181.085900 26334.498047
181.159000 15280.869141
198.112500 162518.890625

>ms2
55.018800 3087.972656
55.055400 8269.882812
57.070900 16153.270508
69.070800 12659.608398
71.086600 3750.882568
81.070800 9099.751953
83.013800 23763.816406
83.086500 31900.835938
86.097400 10265.615234
93.069900 11139.843750
95.085500 7536.403809
96.045400 2912.030273
97.028400 23046.300781
97.064800 12832.340820
97.101200 17207.527344
100.039300 20489.324219
107.085500 13688.072266
109.101200 2998.861328
111.080400 20089.582031
113.023300 3673.390137
115.039000 59917.796875
121.064800 2833.526855
121.101200 7822.228027
124.039300 12485.456055
125.023300 60918.355469
125.059700 35067.613281
125.096100 15214.340820
127.039000 4413.977051
128.107000 3284.800537
135.080400 14424.540039
138.091300 11723.655273
139.039000 44183.421875
139.075400 27908.501953
142.049900 46274.113281
143.034300 12473.383789
152.107000 3104.032227
153.091000 81811.242188
156.101900 8780.935547
163.075400 3492.440186
163.148700 6826.153809
171.101600 6584.937500
180.101900 26151.898438
180.174500 3359.485352
181.085900 25116.091797
181.159400 4562.460449
198.112500 80605.289062

>ms2
55.019000 17700.921875
55.055200 12594.852539
57.034500 2926.574463
57.070900 29087.628906
67.018800 3100.169922
67.055400 6917.828125
69.070800 14697.787109
71.013800 3146.053955
71.086500 2559.182373
72.045400 9333.665039
79.055100 8085.711914
81.070900 4743.242676
83.013700 79031.882812
83.050000 3656.376953
83.085500 18909.714844
86.061100 2858.066895
86.097300 20466.966797
91.054200 8134.007812
93.069900 13685.414062
95.085500 8989.478516
96.044400 15632.294922
97.028400 53655.792969
97.064800 13960.337891
97.101200 9669.875000
100.039300 31500.095703
107.049100 4677.834961
107.085500 8348.385742
109.064800 2588.634766
111.080400 33799.015625
114.055000 4305.875977
115.039000 63428.679688
121.064800 9653.801758
123.031500 2748.222900
124.039300 21447.341797
125.023300 57538.855469
125.059700 18349.716797
125.096100 11461.761719
127.039000 4103.590332
135.080400 14465.764648
138.091300 11995.750977
139.039000 25220.291016
139.075400 13546.940430
141.042000 4855.100586
142.049900 49946.031250
143.034200 18691.636719
152.107000 3160.196533
153.091000 24827.681641
156.101900 8098.028320
163.075400 2715.511230
180.101900 8364.994141
181.085900 4081.133057
198.112500 9158.795898

