>compound AC71249749
>parentmass 343.1147
>ionization [M+Na]+
>formula C17H20O6
>rt 201.600000
>profile orbitrap
#smiles_iso CC1=C2COC(=O)C2=C(C(=C1OC)C/C=C(\C)/CCC(=O)O)O
#smiles_can CC1=C2COC(=O)C2=C(C(=C1OC)CC=C(C)CCC(=O)O)O
#inchikey HPNSFSBZBAHARI-RUDMXATFSA-N
#pubchem_id 446541
#mb_accession AC000681,AC000682,AC000683,AC000684,AC000685

>ms2
343.115200 27212490.000000

>ms2
229.047100 3225922.500000
343.115200 64020492.000000

>ms2
229.047100 9432359.000000
343.115200 27127828.000000

>ms2
199.036600 308318.812500
229.047100 6679891.500000
343.115200 2857501.000000

>ms2
54.562400 55309.792969
61.299000 50727.597656
70.379000 51251.390625
93.402600 56688.000000
105.482400 56235.472656
186.800000 69760.914062
199.039000 71937.921875
200.140700 73135.789062
229.047100 726455.625000

