>compound AC71328518
>parentmass 493.2804
>ionization [M+H]+
>formula C28H36N4O4
>rt 228.000000
>profile orbitrap
#smiles_iso CC(C)C1C(=O)NC(C(=O)NC(C(=O)NC(C(=O)N1)CC2=CC=CC=C2)CC3=CC=CC=C3)C(C)C
#smiles_can CC(C)C1C(=O)NC(C(=O)NC(C(=O)NC(C(=O)N1)CC2=CC=CC=C2)CC3=CC=CC=C3)C(C)C
#inchikey OWKLJRMFTXDULF-UHFFFAOYSA-N
#pubchem_id 424453
#mb_accession AC000946,AC000947,AC000948,AC000949,AC000950

>ms2
72.104200 2631.886719
85.343900 2423.685303
95.226000 2805.001465
99.039600 2567.234863
129.598600 3271.244873
171.538600 2691.270264
192.142700 2707.861816
226.951600 3890.979980
249.805200 2745.224365
278.547000 2763.047607
288.921800 48234.082031
295.144100 3436.686768
319.046200 3064.523682
346.212500 18476.179688
356.908900 22776.447266
370.615000 3098.000488
393.528300 3135.600830
394.212500 32926.304688
424.898200 44937.710938
446.813700 5072.116211
464.816000 5496.818359
465.286000 28073.140625
465.346600 2589.899170
493.280900 45207.292969

>ms2
72.081600 5503.581055
90.977200 4706.622070
120.080800 15142.956055
199.144100 13340.798828
219.149200 13050.497070
220.934300 18119.279297
247.144100 36800.511719
267.149200 6643.799805
288.921700 111810.000000
295.144100 25607.468750
301.191100 6518.771973
346.212500 17714.357422
394.212500 13633.836914
446.804700 4971.501465
448.259500 3747.758545

>ms2
58.068900 2416.276367
60.448100 2319.262695
72.081600 18645.628906
90.977200 42424.265625
98.246100 2519.363037
120.080800 42645.253906
120.815100 3125.202881
131.765100 2715.058350
136.506700 2996.746338
150.443100 2603.145508
152.196200 2534.760498
163.031500 2594.178711
168.865000 2886.797607
171.149200 5800.918457
199.144100 5774.187012
202.496500 2933.849365
219.149200 26894.449219
220.934700 63407.625000
247.144100 17931.455078
267.149200 19297.445312
288.921800 25648.960938
295.144100 4520.804199

>ms2
72.081600 30137.388672
90.977200 77966.132812
117.087000 2701.934326
120.080800 81891.953125
171.149200 5999.378418
206.083900 2783.808105
219.149200 22326.642578
220.935100 21535.382812
267.149200 4239.287109
307.856200 3276.458008
356.512400 2754.175049

>ms2
72.081600 56929.531250
90.977300 70269.015625
120.080800 121230.679688
120.089300 3917.160645

