>compound AC73183794
>parentmass 576.3175
>ionization [M+H]+
>formula C32H41N5O5
>rt 168.000000
>profile orbitrap
#smiles_iso CC(C)C[C@H]1C(=O)N2CCC[C@H]2[C@]3(N1C(=O)[C@](O3)(C(C)C)NC(=O)[C@@H]4CN([C@@H]5CC6=CNC7=CC=CC(=C67)C5=C4)C)O
#smiles_can CC(C)CC1C(=O)N2CCCC2C3(N1C(=O)C(O3)(C(C)C)NC(=O)C4CN(C5CC6=CNC7=CC=CC(=C67)C5=C4)C)O
#inchikey YDOTUXAWKBPQJW-JJANYQHSSA-N
#pubchem_id 10875520
#mb_accession AC000303,AC000304,AC000305,AC000306,AC000307

>ms2peaks
558.307500 206933184.000000
576.318000 101110016.000000

>ms2peaks
223.123000 37772860.000000
225.100900 4449034.500000
261.135900 3079843.000000
268.141800 16033777.000000
291.169000 40198020.000000
305.127100 67315872.000000
348.168000 49791084.000000
530.312600 4359674.000000
558.307500 92521784.000000

>ms2peaks
83.049100 4302572.500000
181.132200 9367889.000000
191.073000 4438422.000000
192.080800 3745681.000000
208.074300 14989042.000000
209.127100 10747314.000000
221.107300 6876480.000000
223.123000 106730984.000000
225.100900 6572423.000000
261.138600 11456986.000000
268.141800 14813988.000000
277.132200 18535300.000000
291.169000 45746572.000000
305.127100 86255208.000000
348.168000 19142460.000000

>ms2peaks
83.049100 5757470.500000
181.132200 13436784.000000
191.073000 5106677.500000
192.080800 7180861.000000
208.074300 19024542.000000
209.127100 11179402.000000
221.107300 12432908.000000
223.123000 91900040.000000
225.100900 4332815.500000
261.135900 8013150.000000
268.141800 8576686.000000
277.132200 23097046.000000
291.169000 19164268.000000
305.127100 43568028.000000
320.173100 3214387.250000
348.168000 5629774.000000

>ms2peaks
70.065100 1823127.250000
83.049100 6402346.000000
153.138600 8977197.000000
154.065100 3119952.750000
167.073000 4901592.000000
168.080800 2871814.000000
178.065100 1897589.000000
180.080800 12230661.000000
181.088600 3803078.250000
181.132200 12108938.000000
182.096400 2939721.250000
191.073000 10073806.000000
192.080800 26660838.000000
194.096400 5892884.000000
207.066500 3657818.750000
207.091700 2890511.000000
208.074300 31651440.000000
208.096800 8016081.500000
209.082200 2327243.000000
209.127100 3554900.000000
211.142800 1761540.375000
221.107300 27131202.000000
223.123000 51988280.000000
224.130800 4216146.000000
249.138600 3349526.500000
277.132200 11543034.000000
305.127100 3459214.250000

