>compound AC73520498
>parentmass 728.3822
>ionization [M+Na]+
>formula C34H59NO14
>rt 169.800000
>profile orbitrap
#smiles_iso CCCC[C@@H](C)[C@H]([C@H](C[C@@H](C)C[C@@H](CCCCCC[C@@H]([C@@H](C)N)O)O)OC(=O)CC(CC(=O)O)C(=O)O)OC(=O)CC(CC(=O)O)C(=O)O
#smiles_can CCCCC(C)C(C(CC(C)CC(CCCCCCC(C(C)N)O)O)OC(=O)CC(CC(=O)O)C(=O)O)OC(=O)CC(CC(=O)O)C(=O)O
#inchikey CPCRJSQNWHCGOP-ZBUYIUKQSA-N
#pubchem_id 71312439
#mb_accession AC000494,AC000495,AC000496,AC000497,AC000498

>ms2peaks
728.382800 20393610.000000

>ms2peaks
376.315900 547621.250000
552.348000 1208745.500000
728.382800 15260655.000000

>ms2peaks
199.021300 656351.937500
376.315900 4506750.500000
394.326500 2137521.500000
534.337500 278406.500000
552.348000 3019269.750000
570.358600 233000.328125
710.372200 220669.031250
728.382800 1755432.250000

>ms2peaks
199.021300 872441.375000
210.146200 107570.359375
296.219300 107716.093750
336.326100 167509.281250
376.315900 3112126.000000
394.326500 1822223.625000
534.337500 148125.750000
552.348000 847112.312500
728.382800 157095.312500

>ms2peaks
55.055000 35750.781250
57.070500 41090.105469
67.054200 70505.414062
69.069900 88938.343750
70.065100 47547.968750
79.054200 33212.464844
81.069900 152385.578125
83.085500 28692.515625
84.080800 6785.376953
85.064800 5508.149414
85.101200 7771.832031
91.054200 16222.058594
93.069900 40226.886719
95.085500 145943.687500
97.101200 21984.183594
105.069900 24715.613281
107.085500 37353.625000
109.101200 70333.242188
113.023300 7832.540039
119.085500 8270.439453
121.101200 25991.923828
123.116800 33908.007812
133.101200 15877.990234
135.116800 15143.664062
147.116800 15762.968750
151.148100 5374.984375
159.028800 8394.580078
170.154000 39670.992188
199.021300 96161.335938
210.146200 6286.746582
238.214200 15462.504883
296.219300 5737.990723
336.326100 8233.375000
376.318300 20730.591797
394.328900 19687.458984

