>compound AC74377700
>parentmass 528.3138
>ionization [M+Na]+
>formula C25H47NO9
>rt 161.400000
>profile orbitrap
#smiles_iso CC[C@@H](C)[C@H]([C@H](C[C@@H](C)CCCCCC[C@H](C[C@@H](CN)O)O)OC(=O)CC(CC(=O)O)C(=O)O)O
#smiles_can CCC(C)C(C(CC(C)CCCCCCC(CC(CN)O)O)OC(=O)CC(CC(=O)O)C(=O)O)O
#inchikey CTXQVLLVFBNZKL-YVEDVMJTSA-N
#pubchem_id 102004382
#mb_accession AC000011,AC000012,AC000013,AC000014,AC000015

>ms2peaks
528.314300 19265032.000000

>ms2peaks
352.282000 4078127.500000
528.314300 12224209.000000

>ms2peaks
199.021300 762984.875000
352.282000 8063475.000000
528.314300 1264366.625000

>ms2peaks
199.021300 627775.187500
282.203700 179821.937500
352.282000 4127012.500000
370.292500 141200.984375
528.314300 176366.937500

>ms2peaks
60.045000 3055.633301
64.978100 2850.240967
81.069900 6102.240234
95.085500 3946.953369
100.024300 3643.577881
118.035000 21303.042969
119.908400 3035.781006
199.021300 49608.785156
280.760000 3249.116455
282.203700 6604.712402
334.256400 30544.037109
352.282000 45159.617188
437.676600 3329.678711
444.235700 3479.006836
460.233000 3385.171875

