>compound AC75596518
>parentmass 436.1974
>ionization [M+H]+
>formula C23H25N5O4
>rt 160.800000
>profile orbitrap
#smiles_iso CC(C)(C=C)C12CC(C(=O)N\3C1(NC(=O)/C3=C\C4=CN=CN4)N(C5=CC=CC=C25)OC)O
#smiles_can CC(C)(C=C)C12CC(C(=O)N3C1(NC(=O)C3=CC4=CN=CN4)N(C5=CC=CC=C25)OC)O
#inchikey HHLNXXASUKFCCX-LICLKQGHSA-N
#pubchem_id 6440491
#mb_accession AC000786,AC000787,AC000788,AC000789,AC000790

>ms2
403.163900 86818.992188
404.165900 171798.171875
405.168300 1466307.625000

>ms2
335.094100 280981.281250
336.100600 533288.312500
337.108400 274996.593750
403.163900 113039.539062
404.166900 206985.984375
405.168300 2336001.500000

>ms2
166.097500 34367.117188
203.080100 29102.341797
204.085300 32200.166016
214.122600 38740.000000
215.126400 50978.003906
216.129700 33067.679688
262.082200 33271.804688
263.085500 43348.847656
264.093400 37008.117188
278.103600 29658.201172
279.108800 41753.238281
280.109400 45918.417969
289.072000 107162.117188
290.072600 219372.562500
291.079100 330427.625000
292.082900 36209.652344
308.107000 43527.550781
318.074700 35179.609375
319.075400 113365.937500
320.081800 214763.640625
321.089700 37519.050781
334.093400 129072.945312
335.094100 461570.875000
336.100600 902201.375000
337.108400 259528.015625
374.186300 33498.828125
376.202000 42545.242188
388.165600 36828.347656
404.165900 43547.355469
405.168300 305347.125000

>ms2
108.057000 24590.601562
162.031100 22524.183594
163.061400 46874.539062
164.066600 24783.017578
166.097500 62732.203125
214.122600 23166.064453
215.126400 35384.851562
216.130000 24031.253906
235.095100 27325.437500
236.097300 23632.220703
261.077100 127825.781250
262.082200 220149.484375
263.085500 231404.796875
264.093400 105599.687500
265.101200 84689.968750
277.072000 24080.642578
278.072600 37402.078125
278.103600 24796.244141
279.079100 31457.578125
279.108800 57973.867188
280.109400 51791.062500
281.087200 24950.345703
282.090000 23722.876953
289.072000 201036.500000
290.075600 473434.062500
291.079100 662470.875000
292.084200 77275.593750
306.098500 22458.082031
307.106400 45400.835938
308.107000 60927.542969
318.074700 28595.175781
319.075400 80373.687500
320.081800 137059.593750
334.093400 49695.699219
335.094100 162414.687500
336.100600 314432.125000
337.108400 43616.089844
376.202000 21835.830078
388.165600 38606.539062

>ms2
81.044700 50032.324219
106.040000 27680.865234
107.049100 67066.921875
108.057000 70711.109375
109.059500 33197.347656
119.024000 24079.837891
162.029800 23685.777344
163.033600 21710.433594
163.061400 32338.074219
166.097500 56569.503906
207.076400 20859.101562
233.082200 22318.648438
234.066200 23640.021484
234.088700 64791.539062
235.070000 44501.628906
235.095100 74069.851562
236.074700 30471.953125
236.099200 72143.367188
237.102200 23578.652344
261.077100 375970.968750
262.082200 635588.875000
263.085500 597222.187500
264.093400 92409.468750
265.101200 58851.558594
278.072600 25992.167969
278.103600 21371.617188
279.079100 28624.294922
279.108800 37858.566406
280.109400 36008.488281
289.072000 35857.375000
290.072600 82069.875000
291.079100 122682.351562
294.074700 29121.058594
295.075400 54200.242188
296.081800 52181.277344

