>compound AC75551395
>parentmass 295.1072
>ionization [M+H]+
>formula C17H14N2O3
>rt 183.600000
>profile orbitrap
#smiles_iso CN1C(=O)C2=CC=CC=C2NC(=O)C13[C@H](O3)C4=CC=CC=C4
#smiles_can CN1C(=O)C2=CC=CC=C2NC(=O)C13C(O3)C4=CC=CC=C4
#inchikey APLKWZASYUZSBL-XPCCGILXSA-N
#pubchem_id 354160
#mb_accession AC000867,AC000868,AC000869,AC000870,AC000871

>ms2
120.044400 567423.937500
146.023600 964965.625000
177.065800 3061523.750000
210.091300 117943.328125
236.070600 292578.718750
239.117900 145435.828125
264.065500 151153.218750
295.107700 827978.750000

>ms2
120.044400 711288.375000
146.023600 1647578.875000
177.065800 3212849.000000
208.075700 135516.781250
210.091300 108274.007812
236.070600 347123.656250
239.117900 116597.929688
264.065500 123886.914062
295.107700 388948.062500

>ms2
120.044400 586027.500000
132.044400 142796.515625
146.023600 3632600.000000
177.065800 1489046.875000
208.075700 236514.921875
236.070600 344664.687500

>ms2
120.044400 513680.750000
146.023600 5122048.000000
177.065800 452502.843750
208.075700 302289.843750
236.070600 318741.687500

>ms2
90.033800 487275.812500
120.044400 351115.500000
146.023600 4529972.500000
208.075700 189027.812500
236.070600 152557.359375

