>compound AC75700547
>parentmass 377.1201
>ionization [M+Na]+
>formula C17H22O8
>rt 147.600000
>profile orbitrap
#smiles_iso CC1=C[C@@H]2[C@]([C@@H](C1=O)O)([C@]3([C@@H]([C@H]([C@H]([C@@]34CO4)O2)O)OC(=O)C)C)CO
#smiles_can CC1=CC2C(C(C1=O)O)(C3(C(C(C(C34CO4)O2)O)OC(=O)C)C)CO
#inchikey XGCUCFKWVIWWNW-CAYGJDLQSA-N
#pubchem_id 304599
#mb_accession AC000145,AC000146,AC000147,AC000148,AC000149

>ms2peaks
377.120700 857988544.000000

>ms2peaks
377.120700 541148352.000000

>ms2peaks
377.120700 84628688.000000

>ms2peaks
287.089000 1059213.500000
377.120700 23343428.000000

>ms2peaks
56.709600 83638.976562
64.308600 81144.125000
77.399300 89204.843750
105.607000 118483.031250
110.436700 120743.078125
133.626600 104868.742188
158.033800 123185.515625
188.482100 119225.070312
217.083500 130307.328125
244.984500 129417.835938
262.717200 100287.968750
282.664800 103546.460938
290.221400 102167.023438

