>compound AC75264043
>parentmass 415.23339999999996
>ionization [M+H]+
>formula C22H30N4O4
>rt 189.000000
>profile orbitrap
#smiles_iso C[C@H]1C(=O)N[C@H](C(=O)N(/C(=C\C2=CC=CC=C2)/C(=O)NCC(=O)N1C)C)CC(C)C
#smiles_can CC1C(=O)NC(C(=O)N(C(=CC2=CC=CC=C2)C(=O)NCC(=O)N1C)C)CC(C)C
#inchikey SIIRBDOFKDACOK-LFXZBHHUSA-N
#pubchem_id 5281143
#mb_accession AC000632,AC000633,AC000634,AC000635,AC000636

>ms2
312.172000 8038384.500000
415.234000 78599072.000000

>ms2
238.156400 11049859.000000
256.180800 1232002.000000
312.172000 35881328.000000
330.182600 2437314.500000
397.223400 1230158.875000
415.234000 37493908.000000

>ms2
210.161400 4819535.000000
238.156400 12585055.000000
256.182200 14761821.000000
284.177100 2888775.750000
312.172000 57032208.000000
330.182600 4253679.000000
415.234000 3747582.500000

>ms2
58.066200 1303062.750000
98.096400 1553067.875000
113.070900 1995639.875000
132.080800 4852104.500000
171.091700 1574018.000000
188.118200 1807591.875000
200.119600 1456918.875000
210.160100 5733915.500000
238.155000 3712336.500000
239.154300 1960190.875000
256.180800 37493300.000000
284.177100 4370396.500000
312.172000 20724858.000000
330.182600 2209871.000000

>ms2
56.050500 620392.375000
58.066200 2255165.750000
86.096400 824410.937500
91.054200 6661340.500000
97.076000 836500.625000
98.096400 1199763.000000
108.080800 596271.250000
113.070900 4498133.500000
115.054200 581285.375000
117.057300 562381.750000
125.070900 971711.437500
126.078800 1218551.625000
129.069900 1141620.875000
130.065100 1814042.750000
132.080800 16994160.000000
144.080800 2055621.625000
146.096400 1315704.875000
157.076000 696121.437500
159.091700 972056.625000
171.091700 3361280.500000
173.107300 1199715.375000
183.091700 676327.625000
186.102600 714401.687500
188.118200 4161962.500000
196.099500 590372.000000
198.103900 812009.625000
200.118200 3338502.250000
210.160100 1338433.750000
213.126100 724992.000000
214.133900 1116840.125000
227.154300 1084541.750000
239.154300 2645188.500000
256.180800 16516112.000000
284.177100 725805.937500
312.172000 803585.250000

