>compound AC76268969
>parentmass 267.1585
>ionization [M+H]+
>formula C15H22O4
>rt 151.200000
>profile orbitrap
#smiles_iso CC1=C[C@@H]2[C@](CC1)([C@]3([C@@H](C[C@H]([C@@]34CO4)O2)O)C)CO
#smiles_can CC1=CC2C(CC1)(C3(C(CC(C34CO4)O2)O)C)CO
#inchikey ZSRVBNXAPSQDFY-OJVARPOJSA-N
#pubchem_id 10038552
#mb_accession AC000268,AC000269,AC000270,AC000271,AC000272

>ms2peaks
81.069900 67968.695312
93.069900 45699.132812
95.085500 40120.355469
97.064800 41521.054688
105.069900 101210.382812
107.085500 92746.765625
109.064800 29329.779297
109.101200 64853.117188
119.085500 35272.113281
121.064800 57655.687500
123.080400 38966.359375
127.075400 67979.015625
133.101200 48056.613281
135.080400 46879.937500
137.096100 29132.744141
143.085500 44329.113281
145.101200 55237.589844
157.101200 53351.703125
159.116800 162941.062500
161.096100 41281.230469
161.132500 62899.710938
171.116800 95155.140625
173.096100 28850.197266
175.111800 38058.214844
175.148100 40926.089844
177.127400 46656.808594
185.132500 252462.937500
187.111800 40762.597656
187.148100 47194.007812
189.127400 83969.968750
195.116800 67805.046875
201.127400 66240.796875
203.143100 308518.093750
205.122300 40138.355469
213.127400 282757.906250
219.138000 167893.109375
231.138000 657280.125000
237.148500 46682.781250
249.148500 895590.250000
267.159100 767493.875000

>ms2peaks
81.069900 59694.015625
93.069900 36070.621094
95.085500 47715.234375
97.064800 41669.691406
105.069900 89410.054688
107.085500 89433.921875
109.064800 29011.306641
109.101200 51745.324219
119.085500 35677.179688
121.064800 47392.589844
121.101200 27765.976562
123.080400 27905.234375
127.075400 69774.453125
131.085500 29063.626953
133.101200 44029.058594
135.080400 40043.792969
137.096100 27300.875000
143.085500 45735.945312
145.101200 51741.976562
147.116800 25353.013672
157.101200 54053.449219
159.116800 146114.796875
161.096100 35929.144531
161.132500 66475.757812
171.116800 75559.515625
175.111800 28527.435547
175.148100 41784.925781
177.127400 55216.277344
185.132500 247254.703125
187.111800 31245.929688
187.148100 29512.380859
189.127400 60033.351562
195.116800 58320.285156
201.127400 63649.964844
203.143100 251055.765625
205.122300 34829.382812
213.127400 252297.609375
219.138000 142898.062500
221.153600 29681.429688
231.138000 553771.437500
237.148500 36657.156250
249.148500 724433.500000
267.159100 553672.687500

>ms2peaks
67.054200 17050.367188
79.054200 18896.289062
81.069900 84651.140625
83.049100 11205.195312
85.028400 11469.889648
85.064800 11657.071289
91.054200 15981.048828
93.069900 81367.843750
95.049100 34324.304688
95.085500 66845.093750
97.064800 48854.000000
105.069900 122445.031250
107.085500 119791.789062
109.064800 45968.277344
109.101200 60511.875000
111.080400 13824.120117
115.039000 16318.755859
117.069900 14139.823242
119.085500 57499.828125
121.064800 89053.023438
121.101200 31747.382812
123.080400 39285.964844
125.059700 23901.025391
127.075400 52007.265625
129.069900 23443.101562
131.085500 47917.683594
133.064800 23541.576172
133.101200 66836.117188
135.080400 39223.871094
135.116800 17830.060547
137.059700 15952.286133
137.096100 19585.119141
139.075400 10027.947266
143.085500 85654.882812
145.101200 84566.515625
147.080400 27268.007812
147.116800 31518.115234
149.096100 13132.307617
149.132500 27983.232422
155.085500 12322.049805
157.101200 82960.468750
159.080400 10773.365234
159.116800 172196.484375
161.096100 39705.234375
161.132500 71863.453125
163.075400 11890.191406
163.111800 18027.800781
165.127400 9965.971680
169.101200 29361.027344
171.080400 22268.169922
171.116800 103890.914062
173.096100 31710.925781
173.132500 24129.058594
175.111800 48214.781250
175.148100 34668.007812
177.127400 56069.792969
181.085900 10187.710938
183.116800 25233.515625
185.096100 11256.426758
185.132500 212819.187500
187.111800 43508.996094
187.148100 17981.099609
189.127400 60229.300781
195.116800 62435.976562
201.127400 62293.074219
203.143100 143774.609375
205.122300 29033.236328
207.138000 10647.451172
213.127400 160717.984375
219.138000 70111.148438
221.153600 21815.996094
231.138000 244567.984375
249.148500 209568.937500
267.159100 79386.703125

>ms2peaks
67.054200 26154.277344
69.033500 11098.314453
69.069900 5676.812988
71.049100 5542.236328
79.054200 26958.939453
81.069900 106071.039062
83.049100 12082.466797
85.028400 15811.150391
85.064800 5557.169434
91.054200 21754.210938
93.069900 100605.398438
95.049100 45370.558594
95.085500 80392.531250
97.064800 74970.195312
105.069900 144672.578125
107.049100 12321.488281
107.085500 150490.968750
109.064800 50823.113281
109.101200 48590.902344
111.080400 17191.164062
115.039000 16829.181641
117.069900 22099.357422
119.085500 73911.523438
121.064800 85302.203125
121.101200 34570.835938
123.080400 47827.789062
125.059700 23518.226562
125.096100 11146.236328
127.075400 55183.988281
129.069900 31406.529297
131.085500 57753.070312
133.064800 22817.236328
133.101200 69414.578125
135.080400 39100.234375
135.116800 17974.972656
137.059700 16650.873047
137.096100 18324.837891
139.075400 10894.455078
141.054600 9899.914062
143.085500 125985.578125
145.064800 15064.380859
145.101200 97152.148438
147.080400 29749.253906
147.116800 35520.074219
149.096100 14947.217773
149.132500 23326.638672
151.075400 11342.559570
155.085500 18786.144531
156.093400 8847.291992
157.101200 98423.406250
159.080400 14170.735352
159.116800 166524.312500
161.096100 41537.914062
161.132500 64255.417969
163.075400 11107.686523
163.111800 20589.873047
165.069900 5385.005859
165.127400 10584.959961
169.101200 28004.501953
171.080400 23516.347656
171.116800 102067.398438
173.096100 32869.250000
173.132500 27289.666016
175.111800 52358.082031
175.148100 34320.500000
177.127400 52270.554688
180.093400 12043.416016
181.085900 6173.055664
183.116800 26490.107422
185.096100 12292.041016
185.132500 166232.468750
187.111800 40932.492188
189.127400 66807.312500
195.116800 47452.976562
198.103900 9858.795898
201.127400 64298.656250
203.143100 119600.085938
205.122300 26480.576172
213.127400 99264.875000
219.138000 39200.625000
221.153600 5523.776855
231.138000 151515.015625
237.148500 5628.874023
249.148500 105040.648438
267.159100 35380.925781

>ms2peaks
67.054200 32319.714844
69.033500 11450.592773
69.069900 13929.059570
71.049100 10569.806641
79.054200 40740.468750
81.069900 116939.000000
83.049100 9908.786133
85.028400 16101.372070
91.054200 30360.488281
93.069900 105693.882812
95.049100 40365.929688
95.085500 78790.312500
97.064800 52559.906250
97.101200 6002.929199
105.069900 156627.109375
107.049100 11587.745117
107.085500 121976.812500
109.064800 50111.582031
109.101200 46678.699219
111.080400 9883.565430
115.039000 12508.581055
117.069900 19213.832031
119.085500 79359.585938
121.064800 93866.078125
121.101200 29525.091797
123.044100 5109.704102
123.080400 34595.210938
125.059700 19026.029297
125.096100 10306.890625
127.075400 30982.169922
129.069900 36530.953125
131.085500 60475.425781
133.064800 20850.156250
133.101200 73362.335938
135.080400 38073.769531
135.116800 16857.371094
137.059700 10889.107422
137.096100 17114.119141
142.077700 5273.977539
143.085500 105274.117188
145.064800 9949.420898
145.101200 87888.265625
147.080400 31123.812500
147.116800 38946.945312
149.096100 10285.015625
149.132500 25786.458984
155.085500 21390.466797
156.093400 16191.798828
157.101200 77295.875000
159.080400 14438.449219
159.116800 138704.453125
161.096100 38152.457031
161.132500 58290.792969
163.075400 6072.983887
163.111800 14031.082031
165.069900 5932.292480
165.127400 5589.776367
169.101200 26991.544922
170.109000 5737.793457
171.080400 13983.133789
171.116800 90301.414062
173.096100 27682.757812
173.132500 19311.769531
175.111800 39947.882812
175.148100 19996.771484
177.127400 38109.023438
180.093400 14413.378906
181.085900 9064.924805
183.116800 17471.082031
185.096100 9457.426758
185.132500 127322.125000
187.111800 27978.927734
189.127400 37700.500000
195.116800 28976.125000
198.103900 5990.691895
201.127400 34423.500000
203.143100 56430.738281
205.122300 13091.959961
213.127400 52209.394531
219.138000 24000.207031
231.138000 70661.710938
249.148500 44269.957031
267.159100 9083.751953

