>compound AC77837615
>parentmass 582.2705
>ionization [M+H]+
>formula C33H35N5O5
>rt 162.000000
>profile orbitrap
#smiles_iso C[C@@]1(C(=O)N2[C@H](C(=O)N3CCC[C@H]3[C@@]2(O1)O)CC4=CC=CC=C4)NC(=O)[C@H]5CN([C@@H]6CC7=CNC8=CC=CC(=C78)C6=C5)C
#smiles_can CC1(C(=O)N2C(C(=O)N3CCCC3C2(O1)O)CC4=CC=CC=C4)NC(=O)C5CN(C6CC7=CNC8=CC=CC(=C78)C6=C5)C
#inchikey XCGSFFUVFURLIX-VFGNJEKYSA-N
#pubchem_id 8223
#mb_accession AC000342,AC000343,AC000344,AC000345,AC000346

>ms2
564.260500 2562629.250000
582.271100 34801644.000000

>ms2
208.075700 2181289.500000
223.123000 3305750.000000
225.102200 1919236.250000
251.117900 1057548.250000
268.144400 7619270.000000
277.097200 1946600.000000
297.123400 1089435.875000
320.139400 1816601.750000
536.265600 566702.500000
564.260500 3409176.750000
582.271100 15086589.000000

>ms2
70.065900 483498.312500
180.080800 593574.625000
197.107300 378196.906250
208.075700 9869481.000000
221.107300 616899.437500
223.123000 11569441.000000
225.102200 5115545.500000
233.107300 591449.125000
245.128500 621402.000000
249.102200 859968.312500
251.117900 1152612.875000
268.144400 7481892.500000
277.097200 1900215.500000
292.144400 1047418.000000
297.123400 1825436.500000
314.151300 395825.625000
320.139400 1061868.000000
536.265600 424022.468750
582.271100 498053.875000

>ms2
70.065100 935500.062500
180.080800 1755587.750000
192.080800 935787.500000
197.107300 517580.218750
208.075700 14002178.000000
208.096800 754364.312500
221.107300 1236656.625000
223.123000 10648478.000000
225.102200 3847491.750000
245.128500 927369.312500
249.102200 836772.062500
251.117900 571215.875000
268.144400 1668179.750000
277.097200 599560.875000
297.123400 861239.062500

>ms2
70.065900 1009797.125000
120.080800 919078.750000
167.073000 456643.437500
180.080800 4450462.500000
182.096400 548093.437500
190.065100 468059.468750
191.073000 1835005.875000
192.080800 2069001.250000
194.096400 576677.000000
197.107300 486447.937500
207.067900 2206033.500000
207.091700 1266919.500000
208.075700 11221585.000000
208.099500 2172841.250000
221.107300 1575817.000000
223.123000 4401680.000000
225.102200 913020.812500

