>compound AC77391134
>parentmass 931.5973
>ionization [M+Na]+
>formula C48H84N4O12
>rt 297.600000
>profile orbitrap
#smiles_iso CC(C)C[C@H]1C(=O)O[C@@H](C(=O)N([C@H](C(=O)O[C@@H](C(=O)N([C@H](C(=O)O[C@@H](C(=O)N([C@H](C(=O)O[C@@H](C(=O)N1C)C(C)C)CC(C)C)C)C(C)C)CC(C)C)C)C(C)C)CC(C)C)C)C(C)C
#smiles_can CC(C)CC1C(=O)OC(C(=O)N(C(C(=O)OC(C(=O)N(C(C(=O)OC(C(=O)N(C(C(=O)OC(C(=O)N1C)C(C)C)CC(C)C)C)C(C)C)CC(C)C)C)C(C)C)CC(C)C)C)C(C)C
#inchikey QVZZPLDJERFENQ-NKTUOASPSA-N
#pubchem_id 89254632
#mb_accession AC000420,AC000421,AC000422,AC000423,AC000424

>ms2peaks
931.597800 47279132.000000

>ms2peaks
931.597800 53378424.000000

>ms2peaks
577.348600 1893239.000000
804.500800 3084010.750000
931.597800 28435952.000000

>ms2peaks
100.112100 973813.812500
182.154000 548352.437500
210.148900 896744.750000
232.131900 2416934.250000
250.142400 1348078.375000
350.194900 11119526.000000
368.206800 2101201.000000
477.295900 2570928.750000
495.306500 1113987.375000
577.348300 15721889.000000
595.358900 1458319.125000
704.448100 815522.562500
804.500800 1543014.125000
931.597800 2151178.750000

>ms2peaks
83.050100 2122155.250000
100.112100 13912607.000000
122.094000 708639.437500
123.042700 1798123.375000
126.091300 820297.062500
141.053300 2161605.750000
168.100600 1983118.000000
182.154000 4127426.250000
210.148900 3443968.500000
232.131900 13241927.000000
250.142400 5982763.000000
268.153000 1494097.750000
308.147900 999859.562500
350.194900 15323737.000000
368.205400 1835498.875000
577.348600 585541.312500

