>compound AC77655420
>parentmass 171.0646
>ionization [M+H]+
>formula C8H10O4
>rt 156.600000
>profile orbitrap
#smiles_iso CC(=C)C(=O)/C(=C/C(=O)O)/OC
#smiles_can CC(=C)C(=O)C(=CC(=O)O)OC
#inchikey VOUGEZYPVGAPBB-XQRVVYSFSA-N
#pubchem_id 1268111
#mb_accession AC000666,AC000667,AC000668,AC000669,AC000670

>ms2
97.064800 27533.255859
111.044100 83381.039062
112.051900 36981.656250
125.059700 381002.375000
139.039000 17812.505859
153.054600 27852.296875
171.065200 235765.000000

>ms2
97.064800 16288.844727
111.044100 42014.093750
112.051900 24112.191406
125.059700 240001.453125
146.962100 15747.051758
147.963100 15787.624023
153.054600 18594.326172
171.065200 130232.820312

>ms2
97.065800 16950.632812
111.044100 50689.437500
112.051900 31012.746094
125.059700 267637.500000
146.962600 13799.579102
153.054600 20659.509766
171.065200 139987.250000

>ms2
65.039600 7642.950684
67.055200 11182.177734
69.034600 9227.026367
83.050100 10170.348633
97.064800 23555.494141
110.036200 11792.883789
111.044100 42567.335938
112.051900 30535.552734
125.059700 222777.765625
129.952900 8115.505371
146.962100 9068.224609
147.963800 16626.984375
153.054600 13559.707031
171.065200 33906.031250

>ms2
55.935700 3748.819580
65.039600 14993.044922
67.055300 14937.131836
69.034600 4781.214355
82.042200 11586.143555
83.050000 8764.111328
93.034600 14089.491211
94.042400 13234.311523
97.065800 18873.742188
110.036200 17034.019531
111.044100 26186.222656
112.051900 15198.112305
121.028400 8888.847656
125.059700 94470.664062
146.962200 3915.299072
147.964300 5066.251953

