>compound AC77241662
>parentmass 335.1096
>ionization [M+Na]+
>formula C15H20O7
>rt 129.000000
>profile orbitrap
#smiles_iso CC1=C[C@@H]2[C@]([C@@H](C1=O)O)([C@]3([C@@H]([C@H]([C@H]([C@@]34CO4)O2)O)O)C)CO
#smiles_can CC1=CC2C(C(C1=O)O)(C3(C(C(C(C34CO4)O2)O)O)C)CO
#inchikey UKOTXHQERFPCBU-XBXCNEFVSA-N
#pubchem_id 5284433
#mb_accession AC000517,AC000518,AC000519

>ms2peaks
335.110100 1158184.500000

>ms2peaks
335.110100 735967.750000

>ms2peaks
57.070600 2411.419678
63.929800 2053.337158
68.358500 2108.139160
78.130400 2055.104980
91.920200 3064.288818
300.442300 3011.133301
335.110100 62850.460938

