>compound AC77658936
>parentmass 533.274
>ionization [M+H]+
>formula C29H40O9
>rt 207.600000
>profile orbitrap
#smiles_iso C[C@@H]1CCO[C@H](/C=C/C=C\C(=O)O[C@@H]2C[C@@H]3[C@]4([C@]2([C@]5(CCC(=C[C@H]5O3)C)COC(=O)[C@H]1O)C)CO4)[C@@H](C)O
#smiles_can CC1CCOC(C=CC=CC(=O)OC2CC3C4(C2(C5(CCC(=CC5O3)C)COC(=O)C1O)C)CO4)C(C)O
#inchikey NSFWWJIQIKBZMJ-PAGWOCKZSA-N
#pubchem_id 9915017
#mb_accession AC000555,AC000556,AC000557,AC000558,AC000559

>ms2peaks
85.064800 2417021.000000
137.059700 1869959.875000
231.138000 5115648.000000
249.148500 30411060.000000
333.206000 3598403.500000
385.201000 1176141.500000
403.211500 5183861.500000
533.274500 11101842.000000

>ms2peaks
81.069900 1471251.500000
85.064800 5615023.000000
105.069900 1511648.750000
107.085500 2010879.250000
109.064800 2110925.250000
123.080400 1506514.250000
125.059700 1570975.250000
133.101200 2914487.750000
137.059700 2447287.250000
161.096100 1545371.250000
185.132500 3009445.250000
193.122300 5193340.000000
195.116800 1777620.750000
201.127400 1147420.125000
203.143100 2094152.750000
213.127400 2771531.250000
219.138000 854297.562500
231.138000 13203252.000000
249.148500 26251542.000000

>ms2peaks
79.054200 351846.312500
81.069900 4360397.500000
85.064800 6117300.000000
91.054200 295442.062500
93.069900 1513122.375000
95.049100 1186128.875000
95.085500 870868.937500
97.064800 324020.718750
105.069900 3228355.250000
107.085500 3295699.250000
109.064800 2618807.000000
111.080400 325513.625000
119.049100 293639.562500
119.085500 661041.687500
121.064800 837446.250000
123.080400 3380111.250000
125.059700 1626178.125000
127.075400 363015.281250
131.070300 340690.750000
131.085500 976526.437500
133.101200 3589625.250000
137.059700 1722900.250000
139.075400 390929.375000
141.091000 491622.781250
143.085500 1818568.000000
145.101200 1006366.562500
147.116800 711387.187500
149.096100 307918.187500
157.101200 1675054.250000
159.116800 1023656.000000
161.096100 2103944.000000
163.111800 626421.125000
169.101200 691412.062500
171.116800 1009819.250000
173.132500 481502.187500
175.111800 1340152.250000
175.148100 303012.562500
183.116800 707079.750000
185.132500 3842636.000000
187.111800 559062.437500
189.127400 1293637.875000
193.122300 5177399.000000
195.116800 2274651.750000
201.127400 1847585.625000
203.143100 1969189.625000
213.127400 2341527.500000
219.138000 637848.625000
231.138000 8920468.000000
249.148500 6045123.500000

>ms2peaks
67.054200 264124.656250
79.054200 544793.500000
81.069900 5709634.000000
85.064800 6062222.500000
91.054200 407824.093750
93.069900 1948488.000000
95.049100 1515664.375000
95.085500 1096899.250000
97.064800 426099.843750
105.069900 4048493.500000
107.049100 286880.968750
107.085500 3732757.750000
109.064800 2784453.750000
111.080400 349480.843750
117.069900 260357.421875
119.049100 409440.968750
119.085500 887424.500000
121.064800 982665.750000
121.101200 248445.906250
123.080400 4116922.250000
125.059700 1531628.375000
127.075400 240073.812500
129.069900 311809.343750
131.070300 333343.656250
131.085500 1194496.125000
133.064800 261648.109375
133.101200 3893932.000000
135.080400 349436.156250
135.116800 261706.656250
137.059700 1231428.625000
139.075400 469812.937500
141.091000 443715.375000
143.085500 2256401.250000
145.101200 1302857.875000
147.080400 283511.312500
147.116800 1041340.312500
149.096100 357558.062500
157.101200 2179678.250000
159.080400 200257.437500
159.116800 1210757.875000
161.096100 2421532.500000
161.132500 362714.500000
163.111800 614337.812500
165.069900 229011.718750
169.101200 739450.625000
170.109000 256135.000000
171.116800 1113319.375000
173.096100 241030.421875
173.132500 625751.687500
175.111800 1511428.625000
175.148100 272913.312500
180.093400 396331.500000
183.116800 934694.125000
185.132500 3448283.500000
187.111800 570629.000000
189.127400 1329427.625000
193.122300 3509273.000000
195.116800 2147107.500000
201.127400 1772619.375000
203.143100 1626928.625000
213.127400 1897345.375000
219.138000 352624.500000
231.138000 6052766.500000
249.148500 2714611.000000

>ms2peaks
67.054200 561460.937500
69.033500 257290.906250
79.054200 1417721.625000
81.069900 5911696.000000
83.049100 219531.218750
85.064800 4162932.000000
91.054200 1314100.250000
93.069900 2808288.250000
95.049100 1844005.125000
95.085500 1834458.375000
97.064800 602541.000000
105.069900 5500142.000000
107.049100 504098.312500
107.085500 3093821.500000
109.064800 2084096.375000
111.080400 276891.531250
117.069900 562973.000000
119.049100 472996.062500
119.085500 1566159.625000
121.064800 1017420.375000
121.101200 269249.281250
123.080400 3066552.750000
125.059700 1080127.000000
128.062100 389408.468750
129.069900 618349.750000
131.085500 1754589.750000
133.064800 276858.343750
133.101200 3522944.750000
135.080400 274891.093750
135.116800 263753.500000
137.059700 280386.562500
139.075400 350546.968750
141.069900 210495.078125
142.077700 870593.562500
143.085500 2596624.250000
145.101200 1397822.500000
147.080400 353156.968750
147.116800 1040587.750000
149.096100 423439.625000
155.085500 450868.812500
156.093400 636308.437500
157.101200 2211679.500000
159.080400 239559.390625
159.116800 1178818.625000
161.096100 2157750.750000
161.132500 260873.234375
163.111800 358672.937500
165.069900 586109.937500
168.093400 361196.187500
169.101200 578590.125000
170.109000 580360.312500
171.080400 212202.593750
171.116800 777594.375000
173.096100 255301.968750
173.132500 562769.750000
175.111800 687902.500000
180.093400 721302.687500
183.116800 573413.250000
185.132500 1071766.250000
187.111800 263385.250000
189.127400 470533.750000
193.122300 579944.875000
195.116800 797175.250000
201.127400 697282.062500
203.143100 379806.968750
213.127400 367390.968750
231.138000 585379.875000

