>compound AC78006692
>parentmass 690.4054
>ionization [M+H]+
>formula C34H59NO13
>rt 181.200000
>profile orbitrap
#smiles_iso CCCC[C@@H](C)[C@H]([C@H](C[C@@H](C)CCCCCCCC[C@@H]([C@H](C)N)O)OC(=O)C[C@@H](CC(=O)O)C(=O)O)OC(=O)C[C@@H](CC(=O)O)C(=O)O
#smiles_can CCCCC(C)C(C(CC(C)CCCCCCCCC(C(C)N)O)OC(=O)CC(CC(=O)O)C(=O)O)OC(=O)CC(CC(=O)O)C(=O)O
#inchikey WYYKRDVIBOEORL-JLCKPESSSA-N
#pubchem_id 42608359
#mb_accession AC000658,AC000659,AC000660,AC000661

>ms2
690.405900 209466.765625

>ms2
250.380600 4105.630371
320.334400 13608.605469
338.341800 22001.013672
514.379700 12729.432617
672.395400 22791.472656
690.405900 119877.742188

>ms2
69.070900 7529.388184
88.167900 3052.532471
90.192300 3330.563965
97.101200 3368.790039
99.258900 3147.336914
109.101200 4697.160156
153.828600 3260.438232
159.028800 7289.876953
187.780900 3819.111328
210.221700 5484.214844
238.164900 4104.276855
320.331200 63728.906250
338.341800 56230.261719
345.567200 3664.385986
356.352300 5362.591797
363.274100 3600.507568

>ms2
50.711800 2771.509521
58.079300 2628.564209
69.070900 7017.683105
81.070900 6287.974609
83.086700 3701.912109
95.086500 6208.307129
97.101200 4024.806396
105.994100 3546.645020
159.028800 7890.923340
181.919900 3891.735352
184.832600 3565.903320
222.221700 5062.114746
248.956200 4225.127441
320.331200 16348.349609
338.341800 19492.771484
350.818100 3798.935547

