>compound AC79351964
>parentmass 373.129
>ionization [M+H]+
>formula C21H16N4O3
>rt 164.400000
>profile orbitrap
#smiles_iso C[C@]12C3=NC4=CC=CC=C4C(=O)N3[C@H](C[C@@]15C6=CC=CC=C6NC5=O)C(=O)N2
#smiles_can CC12C3=NC4=CC=CC=C4C(=O)N3C(CC15C6=CC=CC=C6NC5=O)C(=O)N2
#inchikey COXWNIZQNAMTQL-NQERJWCQSA-N
#pubchem_id 10666980
#mb_accession AC000407,AC000408,AC000409,AC000410,AC000411

>ms2
228.076700 13256765.000000
373.129500 68830296.000000

>ms2
228.076700 56140984.000000
373.129500 50260096.000000

>ms2
200.081800 6617600.000000
228.076700 122383280.000000
373.129500 8090386.500000

>ms2
173.070900 9270774.000000
200.081800 37408080.000000
228.076700 116488288.000000

>ms2
130.065100 3194027.250000
146.060000 2122193.750000
173.070900 58457860.000000
199.075400 3310569.250000
200.081800 56912172.000000
228.076700 30470842.000000

