>compound AC81603083
>parentmass 516.2303
>ionization [M+H]+
>formula C22H37N5O5S2
>rt 195.600000
>profile orbitrap
#smiles_iso CC(C)C[C@@H]1C(=O)N[C@H](C(=O)N[C@@H]2CSSC[C@H](C(=O)N[C@H](C(=O)N1)C(C)C)NC2=O)C(C)C
#smiles_can CC(C)CC1C(=O)NC(C(=O)NC2CSSCC(C(=O)NC(C(=O)N1)C(C)C)NC2=O)C(C)C
#inchikey KRQRRZFXHYYNSO-MTSZKFMLSA-N
#pubchem_id 14759319
#mb_accession AC000872,AC000873,AC000874,AC000875,AC000876

>ms2
91.054200 12904.379883
417.160400 28504.966797
471.209400 19560.416016
474.835600 13400.599609
488.236000 7047.580078
516.230900 170903.671875

>ms2
59.050100 4770.406250
62.994800 2453.381592
72.081600 18684.337891
85.396000 2543.369141
86.096400 27636.839844
91.054200 22873.179688
91.269100 2401.413086
93.126100 2870.859131
105.031000 3171.732910
108.702400 3039.918213
126.228900 2734.739746
132.592700 2763.442627
148.193400 3088.889160
153.672000 3019.901611
185.164800 30011.390625
213.160400 25796.972656
226.343000 2834.680420
232.246900 2807.627441
259.055600 11125.961914
304.078400 28510.300781
344.143400 4139.291016
358.123300 5256.142578
372.141000 30332.451172
389.165500 3288.112793
403.146100 12072.814453
417.162500 36387.574219
443.214500 3158.135742
471.209400 16766.906250
474.834800 4033.437500
488.236000 15050.745117

>ms2
51.493200 2779.424316
55.055000 2786.593018
59.050000 3317.173096
72.080800 77206.507812
86.096400 74147.375000
91.054200 29051.080078
109.976100 2970.194092
140.143400 3117.104004
165.097800 2777.378906
185.164800 44988.949219
213.159800 18822.550781
231.063200 22770.130859
232.928400 14048.759766
250.938000 3781.256592
259.057600 32885.519531
287.776900 3140.161133
304.077700 26214.177734
344.146100 3651.681641
372.140300 5539.526367
514.387400 4046.594482

>ms2
55.055100 4004.981445
59.049900 5826.361328
72.080800 110215.421875
86.096400 107459.218750
91.054200 26629.267578
185.164800 22316.525391
205.010000 4183.263672
231.062000 45917.921875
259.056900 13198.648438

>ms2
55.055100 10620.709961
59.049900 4993.258789
72.080800 132825.593750
84.960300 6575.160645
86.092200 4382.237305
86.096400 88053.343750
91.054200 30751.929688
131.993600 14210.712891
158.928300 6935.707031
231.062000 24839.910156

