>compound AC81206694
>parentmass 325.0701
>ionization [M+H]+
>formula C18H12O6
>rt 224.400000
>profile orbitrap
#smiles_iso COC1=C2C(=C3[C@@H]4C=CO[C@@H]4OC3=C1)OC5=CC=CC(=C5C2=O)O
#smiles_can COC1=C2C(=C3C4C=COC4OC3=C1)OC5=CC=CC(=C5C2=O)O
#inchikey UTSVPXMQSFGQTM-DCXZOGHSSA-N
#pubchem_id 5280389
#mb_accession AC000224,AC000225,AC000226,AC000227,AC000228

>ms2
325.070700 1793098624.000000

>ms2
310.047200 60106332.000000
325.070700 1722423680.000000

>ms2
281.044400 40964048.000000
297.075700 48007384.000000
310.047200 389241952.000000
325.070700 1182259712.000000

>ms2
281.044400 81328952.000000
282.052300 48119236.000000
297.075700 53623940.000000
310.047200 595074944.000000
325.070700 692823296.000000

>ms2
254.057400 221073.281250
281.044400 3807371.750000
282.052300 937604.437500
309.039300 353037.625000
310.047200 4688002.000000
325.070700 520654.187500

