>compound AC83080544
>parentmass 439.1382
>ionization [M+H]+
>formula C24H22O8
>rt 214.800000
>profile orbitrap
#smiles_iso CC1=CC(=C(C2=C1C(=CC(=O)O2)OC)C3=C(C=C(C4=C3OC(=O)C=C4OC)C)OC)OC
#smiles_can CC1=CC(=C(C2=C1C(=CC(=O)O2)OC)C3=C(C=C(C4=C3OC(=O)C=C4OC)C)OC)OC
#inchikey CSJOUDOXDHMIAH-UHFFFAOYSA-N
#pubchem_id 34059
#mb_accession AC000175,AC000176,AC000177,AC000178,AC000179

>ms2
439.138700 234570240.000000

>ms2
397.128200 8789050.000000
439.138700 225974160.000000

>ms2
365.102000 10429750.000000
383.112500 12018903.000000
397.128200 76077928.000000
407.112500 7239586.500000
439.138700 133701488.000000

>ms2
294.125100 2750351.500000
321.112100 4233603.500000
338.114900 5552020.500000
348.099200 4321210.500000
351.086300 2719675.250000
365.102000 23757254.000000
367.117600 8025804.500000
383.112500 17551668.000000
393.096900 4045400.750000
397.128200 77103992.000000
407.112500 5823484.000000
439.138700 54212148.000000

>ms2
221.096100 546407.812500
223.111800 1533063.250000
232.088300 567943.562500
233.096100 992251.187500
234.067500 579631.812500
235.075400 2315446.750000
236.083200 4449716.000000
237.091000 981395.312500
247.075400 758185.000000
248.083200 808920.562500
249.091000 3427720.750000
250.098800 1814655.875000
251.070300 1284504.625000
251.106700 3658536.500000
259.075400 597747.375000
260.083200 1599310.125000
261.091000 1076531.000000
262.062400 733809.812500
262.098800 1365037.125000
263.070300 3329014.000000
263.106700 2314154.250000
264.078100 2471679.250000
264.111500 765133.875000
265.085900 1661249.875000
266.093700 1442374.750000
275.067400 544571.250000
276.078100 556143.625000
277.085900 2129431.000000
278.093700 4451981.000000
279.065200 2447547.000000
279.101600 4744879.500000
280.109400 1718098.750000
281.080800 623521.687500
283.096500 519616.250000
284.067900 833126.500000
288.078100 630221.500000
289.085900 1323529.750000
290.093700 1020814.562500
291.065200 1117513.125000
291.101600 1091156.625000
292.073000 1611933.625000
292.109400 616519.875000
293.080800 3577566.500000
293.117200 1088291.500000
294.088700 3416112.000000
294.125100 2130834.000000
295.060100 537866.125000
295.096500 2069778.000000
297.112100 787349.125000
304.073000 575490.562500
304.109400 761047.062500
305.080800 1875110.500000
306.088700 2606296.000000
307.060100 1659491.000000
307.096500 9772344.000000
308.104300 1029677.000000
309.075700 626372.000000
309.112100 1037762.250000
310.083600 975507.312500
311.091400 753600.312500
319.096500 2812417.250000
320.104300 625895.437500
321.075700 1389007.750000
321.112100 3755252.500000
322.083600 6602546.000000
322.120000 921145.625000
323.091400 3342920.000000
323.127800 491589.343750
324.099200 661013.375000
333.075700 1903122.125000
334.083600 814619.625000
335.091400 6834187.000000
337.070700 2033662.375000
337.107000 3510416.250000
338.114900 7529271.500000
339.086300 633769.187500
341.102000 2129230.250000
347.091400 648017.000000
348.099200 1150597.000000
349.070700 516907.375000
349.107000 899027.187500
350.078500 959519.375000
351.086300 8115731.000000
353.102000 2080808.875000
354.073400 969834.500000
354.109800 559833.687500
359.112500 1654275.875000
361.070700 712060.687500
363.086300 577439.500000
364.094100 584590.000000
365.102000 15229755.000000
367.117600 2688741.000000
368.089000 1083456.750000
383.112500 7641039.500000
393.096900 3025890.500000
397.128200 4985530.000000
439.138700 562346.062500

