>compound AC84083646
>parentmass 434.1817
>ionization [M+H]+
>formula C23H23N5O4
>rt 160.800000
>profile orbitrap
#smiles_iso CC(C)(C=C)[C@@]12C=C(C(=O)N\3[C@]1(NC(=O)/C3=C\C4=CN=CN4)N(C5=CC=CC=C25)OC)O
#smiles_can CC(C)(C=C)C12C=C(C(=O)N3C1(NC(=O)C3=CC4=CN=CN4)N(C5=CC=CC=C25)OC)O
#inchikey JTJJJLSLKZFEPJ-ZAYCRUKZSA-N
#pubchem_id 23728435
#mb_accession AC000189,AC000190,AC000191,AC000192,AC000193

>ms2peaks
334.093400 20925670.000000
335.101300 14156977.000000
403.163900 318188320.000000
434.182300 400071488.000000

>ms2peaks
214.121300 19677892.000000
278.103600 18842586.000000
289.072000 25438410.000000
318.074700 13820714.000000
334.093400 126064952.000000
335.101300 74535440.000000
403.163900 387116800.000000
434.182300 33782328.000000

>ms2peaks
162.053600 5873566.000000
163.061400 5938872.000000
203.080100 10270212.000000
214.121300 15009016.000000
261.077100 11632381.000000
263.092700 8163529.000000
278.103600 16328504.000000
280.082900 6561505.500000
289.072000 82197176.000000
290.079800 11376241.000000
306.098500 11953796.000000
318.074700 45236848.000000
319.082600 7331535.500000
334.093400 174238112.000000
335.101300 50795972.000000
386.161100 6695265.500000
403.163900 39207184.000000

>ms2peaks
162.053600 6089512.500000
163.061400 7273258.500000
203.080100 6788841.500000
214.121300 13103768.000000
261.077100 28978650.000000
262.082200 14080680.000000
263.092700 16444658.000000
264.100600 6544614.000000
278.103600 16283803.000000
280.082900 7491392.000000
289.072000 129779304.000000
290.079800 18559194.000000
290.103600 5140851.500000
306.098500 15352380.000000
318.074700 41969928.000000
319.082600 5521645.500000
334.093400 117895192.000000
335.101300 24405720.000000
386.161100 6973814.000000
403.163900 7029257.500000

>ms2peaks
81.044700 4264870.000000
107.047800 6693736.000000
108.055600 9573209.000000
162.029800 5864606.500000
163.061400 6387774.500000
214.121300 4827303.500000
233.080800 4843175.500000
234.066200 7332380.000000
234.088700 12218216.000000
235.096500 7078730.000000
261.077100 130856328.000000
262.084900 24139550.000000
263.092700 17216170.000000
277.072000 5216542.500000
278.103600 12797406.000000
289.072000 48995556.000000
290.079800 5726454.000000
294.074700 6189480.000000
306.098500 7742207.000000
334.093400 5552122.500000

