>compound AC85199698
>parentmass 370.128
>ionization [M+H]+
>formula C20H19NO6
>rt 201.000000
>profile orbitrap
#smiles_iso C[C@@H]1CC2=C(C(=C(C=C2)C(=O)N[C@@H](CC3=CC=CC=C3)C(=O)O)O)C(=O)O1
#smiles_can CC1CC2=C(C(=C(C=C2)C(=O)NC(CC3=CC=CC=C3)C(=O)O)O)C(=O)O1
#inchikey DAEYIVCTQUFNTM-ABAIWWIYSA-N
#pubchem_id 20966
#mb_accession AC000791,AC000792,AC000793,AC000794,AC000795

>ms2peaks
50.068500 2009.850586
55.476400 1870.384155
56.173900 1907.771362
62.927500 1910.889648
65.568600 1862.534668
68.412100 2197.684814
73.120600 1834.180420
73.752700 1896.930908
79.535700 2144.317139
80.565500 2397.657959
86.096400 3274.065918
95.502400 2322.869873
111.980800 2119.564453
189.670900 2280.600342
205.052200 4361.815918
211.144500 11483.916016
239.136300 8291.954102
306.814900 2476.112305
324.228000 5421.749512
329.138400 3076.494629
340.117900 13533.909180
370.128500 25702.867188

>ms2peaks
51.809400 2131.975098
75.581200 1920.841309
86.096400 5708.410645
91.096400 2167.782227
109.753400 2308.330322
111.777800 2108.785400
123.120800 2384.492432
172.458600 2800.072998
205.049500 15040.851562
211.144400 30213.322266
223.060100 5619.498047
225.159900 5667.870117
239.136300 10173.559570
286.071000 3088.299805
295.909400 2270.787598
324.123000 2882.867676
324.229100 4381.985840
340.117900 12191.817383

>ms2peaks
55.845000 1860.394165
75.026600 2281.937744
82.797700 2194.443848
86.096400 15135.332031
105.460600 2193.791748
120.813200 2577.605469
121.066300 3058.474365
143.081500 3165.974365
157.097000 4357.626953
179.849900 2710.173096
202.745500 2526.434326
205.049500 15039.665039
211.144700 33938.179688
216.101900 9764.629883
223.060100 5234.984375
225.160300 9973.358398
286.071000 3029.089844
345.602400 2139.966309
351.310400 2390.568115
352.156300 3707.479248

>ms2peaks
59.556100 2283.619873
62.608900 2273.927002
63.139300 2034.266235
72.081600 2540.738281
80.829600 2070.106689
84.021900 2127.397705
86.096400 10782.430664
99.844700 2284.084717
120.090100 2188.933594
141.102600 2533.017822
142.071000 2241.645020
143.081600 11014.809570
146.822500 2542.358398
157.097100 12375.789062
205.049500 18029.650391
211.144000 21000.318359
216.101900 4518.342285
223.060100 3472.020752
231.065200 2506.911621
337.997100 2769.094238

>ms2peaks
55.055000 1998.180054
57.886200 1918.639282
69.070700 2381.383057
72.080800 2201.934814
74.214800 2720.051025
75.026700 3457.701172
81.070700 3532.588135
86.096400 16696.601562
97.768500 1915.055176
98.060000 4300.916016
127.087500 2356.687012
143.081900 9722.595703
157.096700 4225.944824
176.049500 2355.277588
176.625200 2392.574951
183.148800 2401.288330
204.101900 3387.700928
205.049500 11398.701172
216.101900 5344.367188
285.548600 2477.638672
321.472500 2766.852295
335.879400 2378.936768
357.368200 2663.534424
363.364600 2438.781250

