>compound AC87966355
>parentmass 594.3069
>ionization [M+H]+
>formula C35H39N5O4
>rt 167.400000
>profile orbitrap
#smiles_iso CC(C)[C@@H](C(=O)N1[C@H](C(=O)N2CCC[C@@H]2C1=O)CC3=CC=CC=C3)NC(=O)[C@H]4CN([C@@H]5CC6=CNC7=CC=CC(=C67)C5=C4)C
#smiles_can CC(C)C(C(=O)N1C(C(=O)N2CCCC2C1=O)CC3=CC=CC=C3)NC(=O)C4CN(C5CC6=CNC7=CC=CC(=C67)C5=C4)C
#inchikey KMDKLWZQLMBIBS-HVWSGMRBSA-N
#pubchem_id 101428704
#mb_accession AC000347,AC000348,AC000349,AC000350,AC000351

>ms2peaks
350.186300 1384491.000000
594.307500 34784948.000000

>ms2peaks
197.107300 472227.875000
208.075700 945417.500000
223.123000 1690220.125000
224.126800 439218.218750
251.117900 429557.031250
279.149200 2950331.250000
306.132200 621271.187500
307.144100 5289280.000000
322.191400 10539346.000000
326.157800 541770.750000
327.161800 390609.500000
350.186300 9711401.000000
594.307500 11407687.000000

>ms2peaks
197.107300 1208088.500000
208.075700 6446816.500000
221.107300 563038.937500
223.123000 8974253.000000
224.126800 647081.750000
251.117900 1861909.250000
279.149200 7047269.000000
307.142800 2448236.750000
322.191400 13748725.000000
350.186300 1424356.000000

>ms2peaks
180.080800 863659.687500
192.080800 539449.500000
197.107300 1201548.500000
208.075700 10562226.000000
208.096800 754944.312500
221.107300 1518513.875000
223.123000 15011501.000000
251.117900 1042270.062500
251.154300 497065.875000
279.149200 3903029.000000
322.191400 3292055.750000

>ms2peaks
72.080800 579906.937500
91.054200 448681.000000
120.080800 328847.750000
167.073000 338619.218750
180.080800 2427820.000000
182.096400 801049.375000
191.073000 1184148.375000
192.080800 1456539.125000
194.096400 510752.718750
197.107300 816319.375000
207.067900 1678973.750000
207.091700 1516605.375000
208.075700 10049531.000000
208.099500 3440079.500000
209.107300 481058.750000
221.107300 2272271.500000
222.115200 447406.687500
223.123000 10111916.000000
251.154300 395796.531250
279.149200 614202.875000

