>compound AC88170709
>parentmass 429.26300000000003
>ionization [M+H]+
>formula C26H36O5
>rt 237.000000
>profile orbitrap
#smiles_iso CC1=C[C@H]2[C@@]3(CCC(=O)C([C@H]3CC[C@@]2([C@]4([C@@]1(C(=C(C4=O)C)O)C)C(=O)OC)C)(C)C)C
#smiles_can CC1=CC2C3(CCC(=O)C(C3CCC2(C4(C1(C(=C(C4=O)C)O)C)C(=O)OC)C)(C)C)C
#inchikey SMUNNMAWNRFDPB-UWWAQUNASA-N
#pubchem_id 10477690
#mb_accession AC000819,AC000820,AC000821,AC000822,AC000823

>ms2
211.096500 395185.312500
369.242400 497015.625000
397.237400 768720.500000
429.263600 8527961.000000

>ms2
121.101200 129644.726562
133.101200 114560.664062
159.116800 91594.851562
165.127400 117133.343750
179.070300 90417.343750
183.065200 240924.078125
187.148100 123128.453125
205.122300 123457.359375
205.158700 472753.937500
211.096500 612956.937500
217.122300 104976.828125
219.174400 139283.125000
221.117200 150399.031250
225.112100 178802.187500
227.179500 253896.671875
237.112100 84681.710938
245.190000 588112.250000
251.127800 160121.281250
351.231900 172916.078125
369.242400 1166062.875000
379.226800 422280.656250
397.237400 1471292.000000
411.253000 180131.953125
429.263600 2641996.500000

>ms2
67.055000 18515.695312
69.070700 61686.726562
79.054200 17091.277344
81.069900 50152.050781
83.012800 55224.402344
83.049100 27467.691406
83.085500 57896.484375
93.069900 49749.457031
95.085500 119894.843750
97.064800 34379.523438
97.101200 39674.875000
99.080400 34626.296875
105.069900 46727.738281
107.085500 255835.671875
109.064800 17416.472656
109.101200 175504.000000
111.080400 22615.537109
111.116800 35476.828125
113.096100 20636.953125
119.085500 126023.734375
121.064800 28585.919922
121.101200 327675.562500
123.080400 42846.199219
123.116800 122679.828125
125.096100 34801.878906
127.111800 22981.912109
131.085500 24273.302734
133.101200 273233.906250
135.080400 78776.304688
135.116800 140915.765625
137.096100 99589.828125
139.111800 23528.455078
145.076500 24758.990234
145.101200 104153.765625
147.080400 29588.859375
147.116800 150140.656250
149.096100 141546.093750
149.132500 58694.933594
151.039000 275531.031250
151.111800 86120.007812
153.054600 28437.667969
157.101200 39657.781250
159.116800 237762.031250
161.096100 51728.882812
161.132500 141774.156250
163.075400 19331.173828
163.111800 265890.406250
163.148100 71084.414062
165.091000 31603.730469
165.127400 271050.343750
169.017400 28580.310547
169.049500 120683.601562
171.116800 94933.023438
173.096100 20122.289062
173.132500 154043.531250
175.111800 72915.289062
175.148100 53793.937500
177.091000 123389.179688
177.127400 135633.625000
177.163800 40563.789062
179.070300 263143.468750
179.106700 18727.173828
179.143100 27049.431641
183.065200 171320.984375
184.096700 20210.730469
185.132500 70746.484375
187.111800 20681.884766
187.148100 199684.671875
189.091000 73889.242188
189.127400 86618.367188
191.070300 24888.884766
191.106700 110058.648438
191.143100 127405.359375
191.179500 16858.544922
193.085900 88349.210938
193.122300 24147.275391
193.158700 61233.121094
195.101600 27131.529297
199.111800 20021.324219
199.148100 28239.472656
201.127400 23210.031250
201.163800 85187.882812
203.106700 57749.648438
203.143100 55167.121094
203.179500 55458.031250
205.085900 36107.996094
205.122300 192406.468750
205.158700 381449.000000
207.065200 66061.570312
207.101600 97501.343750
207.138000 16514.261719
209.153600 32186.904297
211.096500 268185.000000
213.163800 20604.550781
215.106700 19276.070312
217.122300 273863.406250
217.158700 17601.070312
217.195100 21186.392578
219.101600 89040.367188
219.138000 57424.933594
219.174400 51004.402344
221.117200 57690.578125
223.096500 44872.605469
225.112100 83898.109375
225.163800 34580.933594
226.216600 19094.832031
227.179500 312087.906250
229.122300 28011.730469
231.101600 24716.369141
231.138000 93502.179688
233.117200 27579.111328
233.153600 58078.453125
237.112100 128003.164062
241.122300 28739.183594
243.138000 56151.101562
243.174400 41666.296875
245.117200 69637.523438
245.190000 467000.625000
247.132900 43548.437500
247.205700 26202.724609
251.127800 77196.554688
257.153600 63026.828125
259.132900 63547.710938
261.148500 26955.416016
271.132900 23864.828125
271.169300 27323.167969
277.143400 33269.746094
281.190000 17768.140625
282.173300 25595.484375
283.169300 52344.246094
285.148500 16936.500000
295.169300 22262.865234
295.205700 24731.673828
299.164200 25673.451172
300.183500 22019.546875
309.184900 28159.828125
311.164200 20475.070312
313.216200 28958.527344
323.200600 26327.953125
323.237000 25978.820312
327.231900 33110.644531
329.101100 17147.583984
333.221300 23755.507812
337.216200 27135.109375
341.247500 23801.376953
351.231900 199654.953125
355.226800 46703.933594
361.216200 70795.343750
369.242400 449076.000000
376.214700 18677.402344
379.226800 274300.343750
397.237400 511564.218750
411.253000 26383.759766

>ms2
56.965600 20864.953125
57.070800 25623.884766
67.055000 63655.273438
69.034200 21699.941406
69.070600 151645.125000
71.049900 28061.695312
79.054200 41166.867188
81.069900 147902.093750
83.012800 251984.015625
83.049100 62299.687500
83.085500 86461.960938
85.028400 19817.367188
85.064800 22137.369141
91.054200 43413.539062
93.069900 169227.562500
95.049100 58779.304688
95.085500 230373.718750
97.064800 70148.585938
97.101200 43829.023438
99.080400 41770.757812
105.069900 123905.812500
107.085500 488030.906250
109.064800 56685.085938
109.101200 283215.656250
111.080400 40421.074219
111.116800 18373.363281
117.069900 20501.048828
119.085500 300835.812500
121.064800 62987.378906
121.101200 527790.812500
123.080400 100242.835938
123.116800 183707.890625
125.059700 28778.759766
125.096100 43976.921875
127.111800 17859.992188
131.085500 91070.570312
133.101200 464050.343750
135.080400 146733.718750
135.116800 302209.531250
137.059700 21186.619141
137.096100 150481.656250
137.132500 34509.730469
139.075400 18132.498047
139.111800 18380.160156
143.085500 30550.689453
145.101200 238235.984375
147.080400 77255.445312
147.116800 231665.921875
149.059700 24704.244141
149.096100 185568.078125
149.132500 79253.781250
151.039000 410734.687500
151.075400 37920.898438
151.111800 140701.828125
153.054600 45797.398438
157.101200 92896.226562
159.080400 17025.472656
159.116800 396955.906250
161.096100 98136.437500
161.132500 220807.187500
163.075400 37885.878906
163.111800 440237.031250
163.148100 121960.125000
165.091000 69905.367188
165.127400 248679.328125
169.017700 31279.222656
169.049500 168789.968750
169.101200 17039.832031
171.116800 186389.734375
173.096100 41529.558594
173.132500 221030.468750
175.075400 51768.847656
175.111800 125635.046875
175.148100 75182.203125
177.054600 31143.160156
177.091000 147617.812500
177.127400 131736.390625
177.163800 30446.804688
179.070300 331965.281250
179.106700 24236.597656
179.143100 28086.183594
183.065200 60856.199219
183.116800 27004.804688
185.096100 18778.128906
185.132500 135338.531250
187.111800 53883.343750
187.148100 205700.906250
189.091000 103641.640625
189.127400 141712.453125
191.070300 28017.328125
191.106700 150321.046875
191.143100 91261.320312
193.085900 98761.406250
193.158700 37651.035156
197.080800 18354.232422
197.132500 23552.759766
199.111800 42043.710938
199.148100 43853.402344
201.091000 26886.597656
201.127400 45512.117188
201.163800 51283.542969
202.098800 40547.753906
203.106700 76809.210938
203.143100 79109.703125
203.179500 49435.890625
205.085900 45912.878906
205.122300 212763.734375
205.158700 151840.390625
207.065200 84959.203125
207.101600 54530.363281
211.096500 79952.390625
211.148100 24247.369141
213.127400 30939.904297
215.106700 37591.753906
215.143100 27122.687500
217.122300 292673.125000
217.158700 21028.839844
217.195100 18134.751953
219.101600 69963.171875
219.138000 68790.851562
219.174400 18760.769531
221.117200 19861.017578
223.096500 23146.826172
225.127400 20680.511719
225.163800 31692.650391
227.106700 24722.828125
227.143100 21647.826172
227.179500 200964.359375
229.122300 47265.285156
231.101600 25403.226562
231.138000 87346.273438
233.117200 19176.447266
233.153600 36393.921875
237.112100 56475.261719
241.122300 34606.570312
243.138000 63049.437500
245.117200 70080.687500
245.190000 169232.500000
247.132900 35329.902344
253.158700 19251.804688
255.138000 20036.132812
257.153600 52582.363281
259.132900 38328.101562
265.158700 18686.433594
271.169300 19341.833984
282.174000 21428.148438
283.169300 53725.019531
295.169300 22307.910156
295.205700 21564.044922
300.187300 27634.962891
323.200600 22719.148438
323.237000 19925.761719
327.231900 21567.945312
337.216200 20982.300781
351.231900 54117.910156
355.226800 17233.169922
361.216200 22358.654297
369.242400 70562.546875
379.226800 51342.722656
397.237400 43334.296875

>ms2
55.055100 39210.613281
56.965700 62529.648438
57.070800 25041.179688
67.055000 175479.781250
69.034300 48241.792969
69.070600 192457.093750
79.054200 137599.750000
81.069900 269271.406250
83.012800 716083.500000
83.049100 78839.875000
83.085500 83212.632812
85.028400 40637.402344
85.064800 24707.742188
91.054200 199242.296875
93.069900 324911.781250
95.049100 227959.984375
95.085500 301896.218750
97.064800 58141.277344
105.069900 367282.812500
107.085500 594783.187500
109.064800 94533.031250
109.101200 290420.875000
111.080400 39055.468750
117.069900 67631.289062
119.085500 575797.000000
121.064800 89358.984375
121.101200 563048.125000
123.044100 54948.898438
123.080400 133211.000000
123.116800 175536.171875
125.059700 31364.535156
125.096100 26193.013672
129.069900 38972.781250
130.077700 31594.074219
131.085500 172520.640625
133.064800 23885.591797
133.101200 553868.625000
135.044100 27754.111328
135.080400 169514.296875
135.116800 298594.500000
137.096100 128730.632812
139.006900 27433.599609
142.077700 30400.515625
143.085500 97389.234375
144.093400 41984.316406
145.101200 298125.125000
147.080400 104923.085938
147.116800 213761.218750
149.059700 49387.847656
149.096100 186984.734375
149.132500 65314.437500
151.039000 294609.218750
151.075400 67876.328125
151.111800 96418.593750
153.054600 29764.478516
156.093400 71063.007812
157.017400 24876.367188
157.101200 157009.500000
158.109000 44778.785156
159.080400 33682.550781
159.116800 328432.968750
161.059700 23333.105469
161.096100 104843.039062
161.132500 186505.015625
163.075400 38182.804688
163.111800 313534.062500
163.148100 44425.054688
165.091000 56241.937500
165.127400 98823.843750
169.049500 114878.835938
169.101200 34835.988281
170.109000 43093.546875
171.080400 25078.136719
171.116800 193481.453125
173.096100 61653.894531
173.132500 149006.468750
174.103900 31464.783203
175.075400 63744.777344
175.111800 118520.882812
175.148100 39723.261719
177.054600 37624.449219
177.091000 66894.335938
177.127400 77559.437500
179.070300 295784.750000
183.116800 42945.269531
185.096100 24772.406250
185.132500 104920.976562
187.111800 40163.464844
187.148100 79503.867188
189.091000 66587.523438
189.127400 122585.445312
191.106700 43902.925781
191.143100 29581.695312
193.085900 33115.191406
197.132500 50258.367188
199.111800 34793.535156
199.148100 36924.238281
201.091000 28230.730469
201.127400 32417.628906
202.098800 80097.562500
203.106700 44135.250000
203.143100 32940.917969
205.122300 55104.097656
207.065200 32732.984375
213.127400 26214.158203
215.106700 30532.015625
217.122300 80326.585938
227.179500 35638.433594
245.190000 24170.974609

