>compound AC89579533
>parentmass 610.3018
>ionization [M+H]+
>formula C35H39N5O5
>rt 171.000000
>profile orbitrap
#smiles_iso CC(C)[C@@]1(C(=O)N2[C@H](C(=O)N3CCC[C@H]3[C@@]2(O1)O)CC4=CC=CC=C4)NC(=O)[C@@H]5CN([C@@H]6CC7=CNC8=CC=CC(=C78)C6=C5)C
#smiles_can CC(C)C1(C(=O)N2C(C(=O)N3CCCC3C2(O1)O)CC4=CC=CC=C4)NC(=O)C5CN(C6CC7=CNC8=CC=CC(=C78)C6=C5)C
#inchikey HEFIYUQVAZFDEE-NASJTFDLSA-N
#pubchem_id 7067483
#mb_accession AC000357,AC000358,AC000359,AC000360,AC000361

>ms2
592.291800 4530485.500000
610.302400 11617580.000000

>ms2
208.075700 451326.093750
223.123000 1439461.000000
225.102200 1147056.375000
251.117900 215523.109375
261.138600 496759.937500
268.144400 2480684.750000
277.133500 226536.578125
295.144100 356164.875000
305.128500 5273520.000000
325.154700 1696052.000000
343.165200 379671.593750
348.170700 1980957.250000
567.260200 373733.843750
592.291800 2821555.000000
610.302400 2398564.250000

>ms2
70.065900 344195.500000
191.073000 574310.312500
208.075700 2932173.250000
215.117900 248323.593750
221.107300 242964.671875
223.123000 3445458.000000
225.102200 1868423.125000
243.112800 593719.687500
245.128500 1009583.937500
259.123000 269917.750000
261.138600 1345628.750000
268.144400 1790054.125000
277.133500 1132740.625000
295.144100 332175.687500
305.128500 4176986.750000
325.154700 1395794.000000
348.170700 792353.375000

>ms2
70.065100 445095.937500
83.049100 200013.890625
91.054200 323632.125000
180.080800 682443.500000
191.073000 879578.687500
192.080800 694179.812500
208.075700 4520805.500000
208.096800 267307.687500
215.117900 496460.312500
221.107300 669423.312500
223.123000 3880509.500000
225.102200 1229286.875000
243.112800 718582.625000
245.128500 955745.812500
251.117900 276201.593750
259.123000 240132.296875
261.138600 498796.000000
268.144400 427843.312500
277.133500 1678542.625000
305.128500 1172072.000000
325.154700 277218.906250

>ms2
70.065900 534073.250000
91.054200 427258.187500
98.060000 126502.132812
120.080800 589675.625000
167.073000 289735.031250
180.080800 1937775.750000
181.088600 108351.375000
182.096400 232414.453125
187.123000 242524.765625
190.065100 105280.507812
191.073000 1049319.625000
192.080800 951895.312500
194.096400 225310.937500
207.067900 905974.937500
207.091700 293539.875000
208.075700 3145367.000000
208.099500 451265.437500
221.107300 604084.625000
223.123000 1276147.750000
224.128100 101099.632812
225.102200 123818.289062
277.132200 209413.593750

