>compound AC89986831
>parentmass 357.1327
>ionization [M+H]+
>formula C20H20O6
>rt 261.000000
>profile orbitrap
#smiles_iso CC1C(C2=C(O1)C3=C4C(=C2O)C(=CC(=O)C4=C(C(=C3O)O)OC)C)(C)C
#smiles_can CC1C(C2=C(O1)C3=C4C(=C2O)C(=CC(=O)C4=C(C(=C3O)O)OC)C)(C)C
#inchikey RFUGLBPILINWDW-UHFFFAOYSA-N
#pubchem_id 304248
#mb_accession AC000686,AC000687,AC000688,AC000689

>ms2
357.133300 63937804.000000

>ms2
327.086300 7490770.000000
342.109800 5430508.500000
357.133300 76696320.000000

>ms2
286.047200 1359706.125000
301.070700 9283846.000000
313.070700 4763265.500000
315.086300 3019336.500000
327.086300 40142940.000000
342.109800 9860930.000000
357.133300 38619360.000000

>ms2
258.052300 1944357.250000
286.047200 6454801.500000
299.055000 4048004.250000
299.091400 7769582.000000
300.062800 1958183.875000
301.070700 5212242.500000
309.075700 2290745.750000
313.070700 8650555.000000
327.086300 59186640.000000
357.133300 1986888.000000

