>compound AC90587176
>parentmass 515.2634
>ionization [M+H]+
>formula C29H38O8
>rt 226.800000
>profile orbitrap
#smiles_iso CC1=C[C@@H]2[C@@]3(CC1)COC(=O)/C=C(/CCO[C@@H](/C=C/C=C\C(=O)O[C@H]4[C@]3([C@]5(CO5)[C@@H](C4)O2)C)[C@H](C)O)\C
#smiles_can CC1=CC2C3(CC1)COC(=O)C=C(CCOC(C=CC=CC(=O)OC4C3(C5(CO5)C(C4)O2)C)C(C)O)C
#inchikey KEEQQEKLEZRLDS-JULYGXFESA-N
#pubchem_id 5458516
#mb_accession AC000520,AC000521,AC000522,AC000523,AC000524

>ms2
113.059700 1777692.875000
137.059700 496164.000000
231.138000 956776.312500
285.133300 390005.937500
361.201000 6579217.000000
515.263900 10242726.000000

>ms2
67.054200 523137.562500
83.049100 1094154.750000
85.064800 560539.250000
95.049100 2817601.250000
113.059700 15385582.000000
137.059700 3618726.500000
185.132500 507691.000000
187.111800 686787.750000
195.101600 1155378.625000
231.138000 3495923.500000
331.190400 647777.937500
361.201000 4801863.500000
515.263900 2326670.250000

>ms2
67.054200 2559797.750000
71.049100 1346962.125000
83.049100 2896678.000000
85.064800 2147251.500000
95.049100 7599628.500000
105.069900 826218.750000
109.064800 886829.187500
113.059700 22437766.000000
137.059700 3968947.500000
141.054600 800755.812500
159.080400 829135.437500
185.132500 880697.312500
187.111800 1032534.812500
231.138000 2142732.750000

>ms2
67.054200 4640474.500000
71.049100 2431005.000000
81.069900 1005383.562500
83.049100 3910640.750000
85.064800 3520280.500000
93.069900 856269.750000
95.049100 10876103.000000
105.069900 1379538.375000
109.064800 1275878.625000
113.059700 23079026.000000
119.049100 951868.125000
131.085500 870580.312500
137.059700 3543060.500000
141.054600 962544.750000
143.085500 849774.437500
157.101200 781558.812500
159.080400 1044961.375000
159.116800 846637.187500
185.132500 1030165.625000
187.111800 1108284.000000
231.138000 1371677.250000

>ms2
55.018700 2847.754639
56.859600 2604.976318
57.070800 3194.757080
66.100900 3067.068848
67.054200 56212.941406
67.057900 3691.526611
69.034200 3129.079590
70.158800 2837.753906
71.049900 16921.705078
79.054200 4597.520508
81.069900 12760.330078
83.049100 22227.283203
85.064800 20543.644531
88.856000 2887.034424
89.387300 2633.299316
91.054200 3684.988770
95.049100 66563.523438
105.069900 4965.206055
110.715700 2650.423828
111.938700 2957.896240
113.059700 48246.781250
113.066100 2710.370361
120.882900 3074.913574
121.498400 2846.156494
137.059700 3385.655273
159.080400 4980.699707
208.720400 3308.440918
233.501000 3269.172607
316.405000 4273.892090
337.883900 3014.339111
399.587700 3554.570312

