>compound AC90335864
>parentmass 506.33180000000004
>ionization [M+H]+
>formula C25H47NO9
>rt 161.400000
>profile orbitrap
#smiles_iso CC[C@@H](C)[C@H]([C@H](C[C@@H](C)CCCCCC[C@H](C[C@@H](CN)O)O)OC(=O)CC(CC(=O)O)C(=O)O)O
#smiles_can CCC(C)C(C(CC(C)CCCCCCC(CC(CN)O)O)OC(=O)CC(CC(=O)O)C(=O)O)O
#inchikey CTXQVLLVFBNZKL-YVEDVMJTSA-N
#pubchem_id 102004382
#mb_accession AC000006,AC000007,AC000008,AC000009,AC000010

>ms2peaks
506.332400 266140832.000000

>ms2peaks
276.268600 4465970.500000
294.279200 31451782.000000
312.287000 53441896.000000
330.297600 22487042.000000
470.311200 6890149.500000
488.321800 33783868.000000
506.332400 127406280.000000

>ms2peaks
56.050200 2933545.000000
57.070600 3416372.500000
60.045000 6733043.500000
69.069900 2470270.000000
81.069900 7558888.500000
83.085500 4784115.000000
95.085500 8920961.000000
97.101200 3225560.750000
107.085500 3179020.500000
109.101200 6293358.000000
121.101200 4372762.000000
123.116800 4804162.000000
135.116800 2819126.250000
159.028800 10993838.000000
163.148100 2358845.750000
224.200900 4598660.500000
242.211500 5098056.500000
276.268600 10537445.000000
294.279200 67969256.000000
312.287000 53019500.000000
330.297600 4801395.500000
488.321800 4500557.500000
506.332400 3508852.750000

>ms2peaks
56.050200 3791589.250000
57.070600 4948451.000000
60.045000 7149668.000000
67.054200 3777510.250000
69.069900 3743558.000000
70.065100 1746579.000000
71.085500 3046695.750000
81.069900 9671219.000000
83.085500 6611509.000000
85.064800 2114067.500000
93.069900 3819848.250000
95.085500 13072268.000000
97.101200 3445587.000000
99.080400 2214715.000000
107.085500 4342067.000000
109.101200 7815441.000000
121.101200 5046348.500000
123.116800 5100674.000000
133.101200 2180928.250000
135.116800 3057623.000000
137.132500 2158009.500000
141.018200 2314966.000000
149.132500 1880910.250000
159.028800 11435894.000000
163.148100 1908203.875000
224.200900 4612628.500000
242.211500 3170313.000000
276.268600 7813514.500000
294.279200 46486648.000000
312.287000 22552960.000000

>ms2peaks
56.050200 6392471.500000
57.070600 6542143.000000
60.045000 7746541.500000
67.054200 9569973.000000
69.069900 6810646.000000
70.065100 2907760.500000
71.049100 653180.687500
71.085500 3673745.250000
79.054200 5066663.000000
80.049500 862784.187500
81.069900 17154144.000000
82.065100 1441796.000000
83.085500 6365405.000000
84.080800 1528093.750000
85.028400 1447379.125000
85.064800 946529.062500
91.054200 2287822.250000
93.069900 7077182.500000
95.085500 16968318.000000
96.080800 1275312.625000
97.101200 2306054.000000
99.080400 1031162.062500
105.069900 1891419.000000
107.085500 5666313.500000
109.101200 7178097.000000
110.096400 686543.812500
113.023300 5214236.500000
119.085500 1379092.625000
121.101200 4025146.250000
123.116800 3018820.750000
124.112100 728502.125000
133.101200 1428108.500000
135.116800 1700640.250000
137.132500 802446.062500
141.018200 2549643.750000
147.116800 910456.250000
149.132500 822409.062500
159.028800 8391930.000000
224.200900 1432436.500000
276.268600 1082556.250000
294.279200 4211661.000000

