>compound AC91188350
>parentmass 404.1712
>ionization [M+H]+
>formula C22H21N5O3
>rt 150.000000
>profile orbitrap
#smiles_iso CC(C)(C=C)C12CC3C(=O)N/C(=C/C4=CN=CN4)/C(=O)N3C1=[N+](C5=CC=CC=C25)[O-]
#smiles_can CC(C)(C=C)C12CC3C(=O)NC(=CC4=CN=CN4)C(=O)N3C1=[N+](C5=CC=CC=C25)[O-]
#inchikey JKXUAFUJOVITSU-OQLLNIDSSA-N
#pubchem_id 91820590
#mb_accession AC000814,AC000815,AC000816,AC000817,AC000818

>ms2
162.029800 19005.988281
191.056300 33179.000000
205.072000 29406.699219
214.122600 40677.097656
252.101900 19000.984375
319.107700 76909.843750
320.114200 13694.762695
334.093400 35798.460938
336.109100 96190.093750
348.109100 13323.974609
386.161100 13435.593750
387.169000 21555.050781
404.171700 393862.468750

>ms2
69.070900 26528.857422
108.055600 5389.371582
136.050500 12838.757812
155.060400 10922.710938
157.076000 9080.421875
162.029800 67367.132812
163.061400 28027.273438
163.074000 6257.932129
191.056300 71240.601562
192.064200 18817.595703
193.073300 22443.310547
196.112100 5675.813965
198.091300 5487.981934
205.072000 44537.246094
212.107000 9925.232422
214.122600 42950.304688
241.133500 5413.146484
252.101900 30193.638672
318.098500 16145.316406
319.106400 163778.109375
320.114200 6218.122070
334.093400 18829.937500
335.101300 58064.679688
336.109100 79563.398438
348.109100 11024.108398
387.169000 38901.664062
404.171700 161725.750000

>ms2
69.070800 50281.054688
108.055600 26331.787109
136.050500 12100.786133
147.055300 5183.804199
155.060400 5204.884277
156.068200 9975.327148
157.076000 24905.925781
158.083900 12684.208008
162.029800 120193.085938
163.061400 66914.203125
163.074000 7533.981445
173.070900 19384.082031
177.077100 9584.478516
184.063100 5253.677734
191.056300 51097.507812
192.064200 22397.626953
193.072000 14355.845703
196.112100 5504.895508
198.091300 14252.475586
205.072000 34063.515625
212.107000 5088.863281
214.122600 27354.763672
223.123000 5355.332520
241.133500 10266.808594
252.101900 17884.347656
275.116500 5521.282715
291.111500 6243.646484
297.064500 10956.962891
302.103600 11040.235352
318.098500 43897.753906
319.107700 145799.843750
335.101300 71300.531250
336.109100 26561.576172
387.169000 10514.056641
404.171700 32817.687500

>ms2
69.070800 60330.535156
81.044700 15140.246094
82.052500 11583.361328
106.040000 37061.339844
107.047800 43653.160156
108.055600 55788.035156
108.063400 4134.224609
109.063400 19223.517578
130.065100 6260.916504
136.050500 16375.223633
146.060000 11956.344727
147.055300 5507.728027
155.060400 12259.974609
156.068200 37862.214844
157.076000 38400.207031
158.083900 15976.269531
162.029800 126180.054688
163.061400 84008.531250
163.075400 5391.446777
173.070900 35775.226562
177.077100 10509.746094
183.055300 11393.164062
184.063100 15615.812500
185.070900 16857.662109
191.056300 20182.949219
192.064200 13720.613281
198.091300 10698.863281
201.065800 4418.619141
205.072000 20510.064453
214.122600 18115.740234
252.101900 5877.041016
274.108700 14177.347656
290.103600 14997.229492
291.111500 9734.055664
302.105000 26664.660156
318.098500 44192.921875
319.106400 50908.023438
335.101300 33596.308594
336.109100 10894.460938

>ms2
69.045500 3859.024658
69.070800 46957.281250
81.044700 41290.289062
82.053400 11382.720703
93.044700 3804.533447
106.040000 106340.265625
107.047800 77374.859375
108.049000 5280.150879
108.055600 116722.203125
109.063400 29606.019531
110.071300 5858.501465
130.065100 26641.746094
134.071300 5285.765137
136.050500 13173.344727
145.076000 4012.341553
146.060000 20083.566406
147.055300 10426.778320
155.060400 16821.203125
156.068200 77342.968750
157.064800 4581.180176
157.076000 77775.195312
162.029800 73673.585938
163.061400 55508.941406
172.063100 4543.063965
173.070900 40954.191406
177.077100 4194.210938
181.088600 3944.615967
183.055300 17272.468750
184.063100 21960.101562
185.070900 14686.650391
198.091300 15080.483398
205.073300 3864.738525
220.086900 4228.054199
235.097800 4641.434570
247.097800 5383.184082
263.092700 5759.885254
274.110100 17458.208984
290.103600 4427.427734
302.103600 11539.551758
318.098500 11834.958984

