>compound AC92898733
>parentmass 254.0806
>ionization [M+H]+
>formula C15H11NO3
>rt 178.800000
>profile orbitrap
#smiles_iso C1=CC=C2C(=C1)C(=C(C(=O)N2)O)C3=CC(=CC=C3)O
#smiles_can C1=CC=C2C(=C1)C(=C(C(=O)N2)O)C3=CC(=CC=C3)O
#inchikey QIJIOTTYIGBOQA-UHFFFAOYSA-N
#pubchem_id 115033
#mb_accession AC000847,AC000848,AC000849,AC000850,AC000851

>ms2peaks
84.960400 8907.483398
125.986400 20238.457031
219.928700 10476.691406
254.081200 263493.718750

>ms2peaks
125.986000 14251.100586
219.928500 13827.284180
254.081200 290713.875000

>ms2peaks
84.960200 20385.917969
125.986500 10183.392578
143.996800 9061.503906
254.081200 249399.062500

>ms2peaks
84.960300 36264.812500
132.044400 25760.767578
208.075700 28748.416016
236.070600 19511.146484
254.081200 182036.593750

>ms2peaks
84.955500 3085.990723
84.960300 52190.984375
120.044400 2872.157715
121.028400 12041.066406
130.907000 2456.901123
132.044400 44206.488281
153.069900 2336.890381
180.080800 26200.855469
181.064800 14873.976562
198.091300 4165.851562
205.930200 4384.059082
208.075700 72048.601562
225.473700 2712.097168
236.070600 24939.484375
254.081200 39048.121094

