>compound AC93886112
>parentmass 682.4632
>ionization [M+H]+
>formula C36H63N3O9
>rt 400.200000
>profile orbitrap
#smiles_iso CC[C@H](C)[C@H]1C(=O)O[C@@H](C(=O)N([C@H](C(=O)O[C@@H](C(=O)N([C@H](C(=O)O[C@@H](C(=O)N1C)C(C)C)[C@@H](C)CC)C)C(C)C)[C@@H](C)CC)C)C(C)C
#smiles_can CCC(C)C1C(=O)OC(C(=O)N(C(C(=O)OC(C(=O)N(C(C(=O)OC(C(=O)N1C)C(C)C)C(C)CC)C)C(C)C)C(C)CC)C)C(C)C
#inchikey TWHBYJSVDCWICV-BHZTXFQCSA-N
#pubchem_id 57339252
#mb_accession AC000444,AC000445,AC000446,AC000447,AC000448

>ms2peaks
210.148900 209544208.000000
228.159400 57944348.000000
555.364000 22457382.000000
682.463700 603790912.000000

>ms2peaks
100.112100 25891262.000000
200.164500 31240128.000000
210.148900 595875904.000000
228.159400 270167584.000000
328.211900 30616422.000000
455.308900 40207112.000000
555.364000 86453800.000000

>ms2peaks
100.112100 204178096.000000
200.164500 126573944.000000
210.148900 432364352.000000
228.159400 213513792.000000
328.211900 106249608.000000

>ms2peaks
100.112100 384981472.000000
200.164500 151052560.000000
210.148900 332147936.000000
228.159400 170373376.000000
328.211900 72911216.000000

>ms2peaks
98.096400 33183634.000000
100.112100 980019584.000000
166.086300 42661080.000000
200.164500 85817984.000000
210.148900 100407904.000000
228.159400 31666350.000000

