>compound AC93776806
>parentmass 744.3771
>ionization [M+Na]+
>formula C34H59NO15
>rt 162.600000
>profile orbitrap
#smiles_iso CCCC[C@@H](C)[C@H]([C@H](C[C@@H](C)C[C@@H](CCCC[C@H](C[C@@H]([C@H](C)N)O)O)O)OC(=O)C[C@@H](CC(=O)O)C(=O)O)OC(=O)C[C@@H](CC(=O)O)C(=O)O
#smiles_can CCCCC(C)C(C(CC(C)CC(CCCCC(CC(C(C)N)O)O)O)OC(=O)CC(CC(=O)O)C(=O)O)OC(=O)CC(CC(=O)O)C(=O)O
#inchikey UVBUBMSSQKOIBE-DSLOAKGESA-N
#pubchem_id 2733487
#mb_accession AC000476,AC000477,AC000478,AC000479

>ms2
744.377700 2841581.750000

>ms2
568.342900 133657.593750
744.377700 1784599.750000

>ms2
199.021300 30903.925781
392.313300 684185.500000
410.323800 274836.218750
550.337500 34431.542969
568.342900 413411.937500
586.356200 27067.107422
726.367100 24570.029297
744.377700 269425.906250

>ms2
199.021300 44185.644531
226.141100 16629.222656
312.214500 22281.578125
334.310500 18375.474609
374.300300 17602.746094
392.310900 502134.843750
410.323800 253923.656250
568.342900 133569.796875
744.377700 17413.591797

