>compound AC95072545
>parentmass 543.2219
>ionization [M+H]+
>formula C29H34O10
>rt 207.000000
>profile orbitrap
#smiles_iso CC1=CC2C3(CC1)COC(=O)C4C5(O4)CCOC(C5O)(/C=C\C=C/C(=O)OC6C3(C7(CO7)C(C6)O2)C)C(=O)C
#smiles_can CC1=CC2C3(CC1)COC(=O)C4C5(O4)CCOC(C5O)(C=CC=CC(=O)OC6C3(C7(CO7)C(C6)O2)C)C(=O)C
#inchikey SJCPVUVBUQDGKN-VXWIUBPCSA-N
#pubchem_id 101307900
#mb_accession AC000583,AC000584,AC000585,AC000586,AC000587

>ms2peaks
231.138000 81216.546875
543.222500 1860205.375000

>ms2peaks
99.044100 21480.710938
105.069900 81939.515625
109.064800 42225.765625
121.064800 40868.285156
123.080400 57282.718750
125.059700 20877.960938
151.039000 70357.851562
185.132500 60784.687500
201.127400 58204.484375
203.143100 18768.572266
213.127400 110776.125000
231.138000 308753.593750
247.132900 49025.324219
249.075700 181223.531250
249.148500 145786.031250
525.211900 68736.289062
543.222500 571492.562500

>ms2peaks
51.335400 7813.279297
53.205800 7788.476074
54.525900 8270.282227
79.055300 17491.101562
81.071100 103236.242188
83.050400 9418.935547
91.054200 10880.833984
93.069900 100821.164062
95.050100 17102.990234
95.086500 42334.089844
97.028400 14407.380859
99.044100 70008.171875
101.210400 8372.279297
105.069900 151716.546875
105.932700 8561.248047
107.049100 16905.466797
107.085500 43001.914062
107.365000 8913.832031
109.031700 9175.475586
109.064800 88801.234375
115.040500 10722.473633
117.069900 10625.058594
119.049100 14225.111328
119.085500 20607.291016
121.064800 103273.546875
121.101200 9106.115234
123.080400 106522.234375
125.059700 37694.074219
129.069900 13769.732422
131.085500 20754.480469
133.064800 19643.953125
133.101200 14418.560547
135.044100 14779.555664
135.080400 13500.554688
139.075400 15055.783203
143.085500 74547.703125
149.059700 12503.852539
151.039000 177120.281250
151.075400 10330.112305
153.054600 13513.596680
157.101200 53167.519531
159.116800 46619.835938
161.059700 19189.619141
161.096100 15704.042969
165.054600 10631.648438
169.049500 17217.414062
169.101200 15320.358398
171.116800 18952.853516
173.132500 11637.701172
183.116800 41108.183594
185.096100 12464.560547
185.132500 125282.718750
187.111800 12757.989258
189.054600 22993.679688
192.601400 10340.869141
193.122300 11250.389648
195.116800 55643.695312
201.127400 83996.101562
203.072500 13767.406250
203.143100 18047.009766
213.127400 98957.937500
229.122300 10608.294922
231.138000 231247.984375
247.132900 17766.912109
249.075700 79800.765625
249.148500 53583.765625
277.038200 11577.734375
522.837500 10269.029297
543.222500 18331.046875

>ms2peaks
60.652300 10848.068359
65.829900 8789.503906
69.034400 18011.636719
73.495300 12173.796875
79.055300 56872.324219
81.070800 143272.500000
91.055200 44028.031250
93.069900 118830.640625
95.049100 22974.716797
95.085500 52623.750000
97.028400 23577.789062
99.044100 57303.875000
105.069900 231472.031250
107.049100 16851.820312
107.085500 16197.104492
109.064800 53918.980469
117.069900 12950.672852
119.049100 20914.646484
119.085500 24876.023438
121.064800 85513.531250
123.044100 15011.749023
123.080400 123742.640625
123.309200 13941.822266
125.059700 15257.125000
129.069900 22672.539062
131.085500 85756.054688
133.064800 11585.092773
133.101200 19640.619141
139.075400 14067.053711
142.077700 14395.912109
143.085500 107859.148438
145.101200 25291.349609
147.080400 16440.871094
147.118400 15295.529297
151.039000 172763.171875
157.101200 90178.781250
159.116800 57752.304688
161.059700 24004.308594
161.096100 21003.029297
165.069900 11567.224609
170.109000 15545.128906
171.116800 25192.396484
175.075400 16217.941406
183.116800 24955.082031
185.132500 50574.125000
189.054600 15388.912109
189.127400 16702.910156
195.116800 27914.783203
201.127400 46283.792969
203.070300 16241.125977
203.143100 18128.048828
213.127400 21500.080078
231.138000 47203.816406
249.151700 12822.642578
262.877200 12589.259766
460.078900 11666.230469

>ms2peaks
52.546400 8448.195312
53.039700 16821.890625
62.132700 8738.522461
67.055200 39252.289062
69.034400 14054.930664
75.438500 10414.660156
79.055100 85340.507812
81.034700 23164.724609
81.070900 134896.531250
81.967800 10065.161133
83.050100 11593.272461
91.054200 102321.468750
93.069900 110814.093750
95.049100 87603.250000
95.085500 109288.687500
97.029500 16131.727539
99.044100 71946.289062
100.064800 10430.539062
105.069900 251548.093750
107.049100 17725.886719
107.085500 51670.644531
109.064800 26007.275391
115.054200 16996.701172
116.591000 9341.337891
117.069900 20051.421875
119.085500 48551.726562
121.064800 61521.828125
123.044100 21384.402344
123.080400 82641.757812
125.059700 11870.766602
125.486300 10037.005859
128.062100 12699.206055
129.071400 31437.396484
131.085500 69263.312500
133.101200 21624.953125
142.077700 63142.812500
143.085500 82517.312500
145.064800 13181.439453
145.101200 17109.578125
147.080400 18816.326172
149.059700 11896.349609
149.096100 16363.438477
151.039000 75335.265625
155.085500 22805.326172
157.101200 26365.744141
159.116800 17374.429688
161.059700 22089.828125
161.096100 14872.329102
168.093400 23781.472656
170.110800 19384.074219
171.116800 13236.756836
231.800400 11747.487305
257.668200 9478.884766
526.161600 11169.903320

