>compound AC95807142
>parentmass 366.1807
>ionization [M+H]+
>formula C21H23N3O3
>rt 175.200000
>profile orbitrap
#smiles_iso CC1([C@@H]2C[C@@]34CCCN3C(=O)[C@]2(C[C@]15C(=O)C6=CC=CC=C6N5)NC4=O)C
#smiles_can CC1(C2CC34CCCN3C(=O)C2(CC15C(=O)C6=CC=CC=C6N5)NC4=O)C
#inchikey MWOFPQAPILIIPR-DJJZHVJBSA-N
#pubchem_id 25163935
#mb_accession AC000076,AC000077,AC000078,AC000079,AC000080

>ms2
235.144100 1291571.250000
321.159800 2908595.500000
338.186300 5568906.500000
348.170700 1494706.000000
366.181200 21664854.000000

>ms2
176.107000 3255351.750000
235.144100 8599320.000000
280.108000 1538242.375000
298.118600 1058774.375000
303.149200 1144381.250000
310.191400 3254479.750000
320.175700 963308.500000
321.159800 17383842.000000
338.186300 15003741.000000
348.170700 5761767.500000
366.181200 21996946.000000

>ms2
132.044400 1955719.375000
146.060000 1427227.000000
165.065800 4434858.500000
167.081500 10681341.000000
176.107000 27407564.000000
179.154300 1971337.500000
188.107000 1576084.000000
207.149200 3255511.500000
235.144100 26384206.000000
280.108000 8446473.000000
297.110800 2348261.750000
298.118600 3087705.250000
303.149200 4949204.500000
310.191400 10497837.000000
320.175700 3560064.000000
321.159800 38558524.000000
338.186300 7724421.000000
348.170700 6625198.500000
366.181200 7120067.500000

>ms2
120.044400 3143403.500000
132.044400 4747993.000000
138.127700 2260534.250000
139.086600 2751148.000000
146.060000 3968779.000000
165.065800 11846756.000000
167.081500 31487014.000000
176.107000 57126620.000000
177.138600 3565579.500000
179.154300 6446597.500000
188.107000 5117441.500000
207.149200 7726696.000000
235.144100 33832000.000000
252.113100 2010149.750000
280.108000 15436851.000000
297.110800 3432305.750000
298.118600 4080463.250000
303.149200 8119798.000000
310.191400 14748973.000000
320.175700 5053329.500000
321.159800 48066088.000000
338.186300 4323145.500000
348.170700 5169533.000000
366.181200 4023538.750000

>ms2
111.091700 3572204.250000
114.055000 2275127.500000
120.044400 5494346.500000
132.044400 13346074.000000
134.096400 2897728.500000
137.070900 4758875.500000
138.127700 15292205.000000
139.086600 14459609.000000
146.060000 6685254.000000
148.075700 3419167.500000
148.112100 7302801.000000
152.058000 2902054.250000
160.112100 7550056.000000
165.065800 22034884.000000
166.073700 4940932.000000
167.081500 56190104.000000
176.107000 63672100.000000
177.138600 7737006.000000
179.154300 14690306.000000
186.091300 2652933.250000
188.107000 16147438.000000
190.122600 2671287.750000
207.149200 5365536.500000
235.144100 4768326.500000
252.113100 7894259.000000
275.117900 3923237.750000
280.108000 8945049.000000
293.164900 2711717.250000
303.149200 3185528.250000
310.191400 3284387.500000
321.159800 14367732.000000

