>compound AC96651883
>parentmass 412.1738
>ionization [M+Na]+
>formula C22H23N5O2
>rt 166.200000
>profile orbitrap
#smiles_iso CC(C)(C=C)[C@@]12C[C@H]3C(=O)N/C(=C/C4=CN=CN4)/C(=O)N3[C@@H]1NC5=CC=CC=C25
#smiles_can CC(C)(C=C)C12CC3C(=O)NC(=CC4=CN=CN4)C(=O)N3C1NC5=CC=CC=C25
#inchikey SPWSUFUPTSJWNG-JJUKSXGLSA-N
#pubchem_id 21608802
#mb_accession AC000219,AC000220,AC000221,AC000222,AC000223

>ms2
412.174400 17641018.000000

>ms2
412.174400 14715454.000000

>ms2
213.038300 480100.250000
214.046100 882583.687500
344.111800 461398.937500
412.174400 6132597.500000

>ms2
213.038300 538039.375000
214.046100 1041466.750000
344.111800 324940.343750
412.174400 2366094.500000

>ms2
130.065100 15373.234375
213.038300 151255.359375
214.046100 231298.703125
344.111800 12360.196289
412.174400 13490.869141

