>compound AC96226057
>parentmass 359.1497
>ionization [M+H]+
>formula C21H18N4O2
>rt 193.800000
>profile orbitrap
#smiles_iso C[C@H]1C2=NC3=CC=CC=C3C(=O)N2[C@@H](C(=O)N1)CC4=CNC5=CC=CC=C54
#smiles_can CC1C2=NC3=CC=CC=C3C(=O)N2C(C(=O)N1)CC4=CNC5=CC=CC=C54
#inchikey SUVZUTHVKIBYOH-KPZWWZAWSA-N
#pubchem_id 10089772
#mb_accession AC000907,AC000908,AC000909,AC000910,AC000911

>ms2
130.065100 163216.781250
228.076700 342170.718750
230.092400 298751.718750
359.150200 2896759.500000

>ms2
130.065100 339557.468750
170.060000 51110.296875
228.076700 770214.687500
230.092400 503853.031250
359.150200 1096672.500000

>ms2
130.065100 433737.437500
170.060000 80037.625000
188.081800 51124.980469
200.081800 36118.972656
228.076700 875730.500000
230.092400 497816.343750
359.150200 85046.398438

>ms2
130.065100 347048.843750
170.060000 81460.046875
173.070900 98975.046875
188.083200 144314.312500
200.083200 129702.070312
228.076700 479068.250000
229.084600 19914.144531
230.092400 293366.687500

>ms2
115.054200 11674.868164
130.065100 241917.609375
132.044400 9159.799805
142.065100 13912.287109
147.055300 46527.074219
170.060000 49589.597656
173.070900 206429.734375
185.070900 10795.564453
188.083200 190800.593750
200.083200 116812.390625
214.061100 14878.291992
215.068900 12132.803711
228.076700 140725.296875
230.092400 46121.261719

