>compound AC97504475
>parentmass 706.4003
>ionization [M+H]+
>formula C34H59NO14
>rt 169.800000
>profile orbitrap
#smiles_iso CCCC[C@@H](C)[C@H]([C@H](C[C@@H](C)C[C@@H](CCCCCC[C@@H]([C@@H](C)N)O)O)OC(=O)CC(CC(=O)O)C(=O)O)OC(=O)CC(CC(=O)O)C(=O)O
#smiles_can CCCCC(C)C(C(CC(C)CC(CCCCCCC(C(C)N)O)O)OC(=O)CC(CC(=O)O)C(=O)O)OC(=O)CC(CC(=O)O)C(=O)O
#inchikey CPCRJSQNWHCGOP-ZBUYIUKQSA-N
#pubchem_id 71312439
#mb_accession AC000489,AC000490,AC000491,AC000492,AC000493

>ms2
706.400800 216678720.000000

>ms2
336.323400 20979200.000000
354.334000 21549372.000000
512.355500 8986734.000000
530.366100 17162102.000000
670.379700 6219063.000000
688.390300 38246208.000000
706.400800 184457488.000000

>ms2
57.070500 3560190.000000
67.054200 2998775.750000
69.069900 6813497.500000
70.065100 3000081.500000
81.069900 14743021.000000
83.085500 4503196.500000
85.101200 5795486.500000
93.069900 3997094.000000
95.085500 18646070.000000
97.101200 5436415.000000
107.085500 7176407.000000
109.101200 14549038.000000
111.116800 2915213.500000
121.101200 7079896.500000
123.116800 9842369.000000
127.111800 3731925.500000
133.101200 4061663.750000
135.116800 7224406.500000
137.132500 4151670.500000
147.116800 3996710.750000
149.132500 4937271.500000
151.148100 4966526.500000
159.028800 11185618.000000
161.132500 3137244.250000
163.148100 2867039.500000
170.154000 8583593.000000
177.163800 3564628.250000
188.164500 7884098.500000
194.190300 5467043.000000
203.179500 4946647.000000
212.200900 3638706.000000
220.206000 4014224.250000
238.213900 10133256.000000
256.224400 5760461.500000
301.289000 4411022.500000
318.312900 37478564.000000
336.323400 84711472.000000
354.334000 23765930.000000
494.344900 3846061.750000
512.355500 5504725.000000
530.366100 3163712.500000
670.379700 3658691.000000
688.390300 6318434.500000
706.400800 3341504.250000

>ms2
57.070500 5936309.000000
67.054200 6511217.000000
69.069900 12621726.000000
70.065100 6573385.000000
79.054200 2934419.000000
81.069900 26446430.000000
83.085500 6965056.500000
85.064800 2137705.000000
85.101200 9603261.000000
93.069900 8543364.000000
95.085500 28910784.000000
97.101200 6817014.000000
105.069900 4320612.000000
107.085500 11289735.000000
109.101200 21032814.000000
111.116800 3442312.750000
113.023300 2062666.000000
119.085500 3762633.750000
121.101200 10172968.000000
123.116800 12763064.000000
127.111800 3430059.250000
133.101200 5189956.500000
135.116800 9375287.000000
137.132500 4166178.250000
141.018200 3752732.750000
147.116800 5940054.000000
149.132500 5794506.500000
151.148100 4990017.500000
159.028800 14903147.000000
161.132500 3485041.750000
163.148100 2889232.750000
165.163800 2396774.750000
170.154000 10332956.000000
175.148100 2812878.500000
177.163800 3155946.750000
188.164500 4214014.500000
189.163800 2068650.000000
191.179500 2038597.625000
194.190300 7466486.000000
203.179500 3768944.000000
208.206000 2089980.000000
210.221700 3490010.000000
212.200900 2345811.500000
220.206000 4600357.000000
224.200900 2506821.500000
238.213900 9901615.000000
256.224400 2828639.000000
301.289000 2861973.500000
318.312900 27100592.000000
336.323400 62607080.000000
354.334000 6082829.000000

>ms2
57.070500 7857742.000000
58.065100 1536212.500000
67.054200 18538446.000000
69.069900 19041770.000000
70.065100 16281423.000000
79.054200 9736190.000000
81.069900 39554492.000000
83.085500 6789030.000000
84.080800 2872556.500000
85.028400 3380242.250000
85.064800 2398411.250000
85.101200 8021831.000000
91.054200 4122209.750000
93.069900 14884921.000000
95.085500 35888704.000000
96.080800 1345073.125000
97.101200 3979992.500000
98.096400 1775504.250000
105.069900 6314230.000000
107.085500 13636328.000000
109.101200 18343124.000000
110.096400 1576148.375000
113.023300 9567727.000000
119.085500 4698499.500000
121.101200 7528929.500000
123.116800 6153851.500000
133.101200 4186704.000000
135.116800 4529406.000000
137.132500 1290139.375000
141.018200 3149406.750000
147.116800 3355572.500000
149.132500 1684198.875000
159.028800 10352273.000000
161.132500 1462955.500000
170.154000 5760974.000000
194.190300 2119638.000000
210.219000 1512368.250000
238.216600 2313018.750000
318.312900 1548385.500000
336.323400 5036125.000000

