>compound AC97469243
>parentmass 326.1858
>ionization [M+H]+
>formula C19H23N3O2
>rt 135.600000
>profile orbitrap
#smiles_iso C[C@@H](CO)NC(=O)[C@H]1CN([C@@H]2CC3=CNC4=CC=CC(=C34)C2=C1)C
#smiles_can CC(CO)NC(=O)C1CN(C2CC3=CNC4=CC=CC(=C34)C2=C1)C
#inchikey WVVSZNPYNCNODU-XTQGRXLLSA-N
#pubchem_id 443884
#mb_accession AC000313,AC000314,AC000315,AC000316,AC000317

>ms2peaks
326.186300 37997928.000000

>ms2peaks
223.123000 2037871.500000
283.144100 1447942.875000
326.186300 34089224.000000

>ms2peaks
197.107300 2494293.250000
208.075700 2801798.000000
223.123000 12319966.000000
251.117900 1076965.000000
265.133500 593338.250000
269.128500 789266.875000
283.144100 2302441.000000
308.175700 582772.437500
326.186300 18163768.000000

>ms2peaks
180.080800 935727.812500
192.080800 780467.000000
197.107300 3297011.000000
208.075700 4893128.000000
208.099500 2441152.500000
223.123000 19871346.000000
251.117900 904648.000000
283.144100 1018451.937500
311.162800 661534.750000
326.186300 3626899.000000

>ms2peaks
167.073000 488310.812500
168.080800 509745.125000
180.080800 2289624.750000
181.088600 410242.375000
182.083900 767305.125000
182.096400 1065964.375000
191.073000 654147.500000
192.080800 1884218.125000
193.076000 491297.562500
194.096400 986652.687500
196.112100 502479.875000
197.107300 2697542.500000
207.067900 836404.187500
207.091700 3447753.250000
208.075700 4810215.000000
208.099500 7333713.000000
221.107300 1249860.875000
222.115200 509451.437500
223.123000 10792904.000000

