>compound AC97054718
>parentmass 179.0697
>ionization [M+H]+
>formula C10H10O3
>rt 206.400000
>profile orbitrap
#smiles_iso CC1CC2=C(C(=CC=C2)O)C(=O)O1
#smiles_can CC1CC2=C(C(=CC=C2)O)C(=O)O1
#inchikey KWILGNNWGSNMPA-UHFFFAOYSA-N
#pubchem_id 28516
#mb_accession AC000001,AC000002,AC000003,AC000004,AC000005

>ms2peaks
133.064800 21905.332031
151.075400 9239.897461
155.974300 10980.889648
161.059700 96508.437500
179.070300 72563.875000

>ms2peaks
133.064800 46563.636719
151.075400 20681.710938
155.974500 8681.309570
161.059700 239234.562500
179.070300 181936.171875

>ms2peaks
105.069900 22225.443359
133.064800 155144.656250
151.075400 51027.031250
161.059700 645843.312500
179.070300 373608.250000

>ms2peaks
105.069900 145065.750000
133.064800 897854.187500
151.075400 157199.953125
161.059700 2226461.750000
179.070300 737398.312500

>ms2peaks
105.069900 1513707.125000
115.054200 134276.656250
133.064800 3576966.750000
151.075400 143513.875000
161.059700 2536772.250000
179.070300 204606.656250

