>compound AC98219449
>parentmass 469.12119999999993
>ionization [M+Na]+
>formula C21H22N2O9
>rt 156.000000
>profile orbitrap
#smiles_iso CN(C1=CC2=C(C(=C(C=C2)OC)OC)OC1=O)C(=O)C3=NO[C@H]4[C@@H](C=C[C@H]([C@]4(C3)O)O)O
#smiles_can CN(C1=CC2=C(C(=C(C=C2)OC)OC)OC1=O)C(=O)C3=NOC4C(C=CC(C4(C3)O)O)O
#inchikey PCMUPOUDXMFDRE-NYGSYELISA-N
#pubchem_id 25067253
#mb_accession AC000902,AC000903,AC000904,AC000905,AC000906

>ms2peaks
469.121700 44851120.000000

>ms2peaks
469.121700 33355080.000000

>ms2peaks
257.065800 987786.750000
262.071300 277469.593750
311.063800 745255.875000
327.095100 824897.500000
469.121700 8381972.500000

>ms2peaks
206.081400 101787.359375
234.076400 198947.625000
242.042100 75699.859375
257.065800 588448.312500
258.073700 30366.832031
262.071300 211804.421875
311.063800 82424.000000
327.095100 163817.156250
469.121700 334262.156250

>ms2peaks
50.733000 7591.619141
79.583000 8130.940430
93.863300 7620.074219
151.075400 7520.660156
165.054900 17157.855469
178.062700 52103.312500
191.058000 46220.929688
206.081400 228338.796875
234.076400 128748.320312
242.044800 14003.703125
247.047800 33260.140625
255.298000 9852.010742
257.065800 37242.976562
262.071000 13711.381836
294.571900 7896.033691
296.538200 7835.388672
301.094700 8511.324219
404.068300 9011.369141

