>compound AC98876347
>parentmass 239.2
>ionization [M+H]+
>formula C15H26O2
>rt 211.800000
>profile orbitrap
#smiles_iso C[C@@]12CCCC([C@H]3[C@@H]1[C@@H](C[C@@]2(C3O)C)O)(C)C
#smiles_can CC1(CCCC2(C3C1C(C2(CC3O)C)O)C)C
#inchikey VWMGBHVRRNKOAE-PDMNRUCYSA-N
#pubchem_id 115285
#mb_accession AC000095,AC000096,AC000097,AC000098,AC000099

>ms2peaks
81.069900 3353.638916
95.085500 9114.361328
107.085500 8753.036133
121.101200 8031.646973
133.101200 3750.649658
137.132500 3399.563477
147.116800 4505.313965
149.132500 12053.426758
161.132500 7849.008301
163.148100 32389.666016
177.163800 31976.314453
198.183900 20772.541016
203.179500 24687.927734
221.190000 86988.046875
239.200600 18336.408203

>ms2peaks
81.069900 3181.936768
89.059700 8999.107422
95.085500 8701.997070
107.085500 3518.152100
109.101200 4166.854004
121.101200 3191.970215
123.116800 3667.314453
133.085700 2847.574219
149.132500 8668.420898
163.148100 30107.716797
177.163800 35454.058594
198.184700 19289.328125
203.179500 18319.480469
221.190000 86070.179688
239.200600 18112.521484

>ms2peaks
75.517200 1802.638794
81.069900 8933.935547
81.625300 1920.989258
84.702800 1749.683594
85.064800 2857.057373
85.207800 2045.151978
89.059700 3614.544922
93.069900 7931.047363
95.085500 16163.425781
107.085500 13018.345703
109.101200 12589.860352
119.085500 3279.124023
121.101200 15981.080078
123.116800 4104.196777
133.101200 2653.651367
133.858600 1993.985596
135.116800 7873.887207
137.132500 2862.323730
147.116800 4664.569336
148.443900 1887.086182
149.132500 14333.985352
161.132500 3255.154297
163.148100 22124.728516
177.163800 38508.589844
198.184200 21037.957031
203.179500 9057.627930
221.190000 31856.316406
239.200600 2755.325928

>ms2peaks
51.679900 1834.182129
61.713400 1977.683350
69.069900 3748.500488
81.069900 7817.295898
81.443500 1777.933960
83.085500 2851.905029
83.322800 2315.645752
89.059700 3864.020752
93.069900 3976.315674
95.085500 13086.416016
97.064800 2623.694580
105.069900 2363.935547
107.085500 17510.583984
109.101200 10822.794922
119.085500 3004.283447
121.101200 19545.312500
123.116800 4432.516113
133.101200 2457.294434
135.116800 4160.455566
137.132500 2295.332031
147.116800 7885.398926
149.132500 9194.958984
161.132500 3443.420654
163.148100 18706.687500
165.127400 3422.396729
177.163800 22861.769531
190.722800 1740.208740
198.185000 23114.798828
203.179500 8780.734375
221.190000 15997.129883

>ms2peaks
51.864500 1653.360962
69.069900 3437.386963
81.069900 8905.909180
83.085500 3399.732178
85.064800 2512.440674
89.059700 3554.825195
93.069900 4653.437500
95.085500 12397.783203
105.069900 2378.802002
107.085500 21124.183594
109.101200 9490.549805
111.080400 1957.369629
119.085500 5043.909668
121.101200 13317.651367
123.116800 3332.957764
133.101200 4053.046875
135.116800 2938.832031
137.132500 3619.275879
147.116800 8990.219727
149.132500 3086.599121
151.111800 2633.972168
163.148100 12866.447266
177.163800 16538.804688
183.190800 2062.028809
185.723300 2003.967651
198.184500 18790.214844
203.179500 3551.378662
221.190000 5042.186523

