>compound AC99336272
>parentmass 467.227
>ionization [M+H]+
>formula C24H34O9
>rt 213.600000
>profile orbitrap
#smiles_iso CC1=C[C@@H]2[C@](C[C@@H]1OC(=O)CC(C)C)([C@]3([C@@H]([C@H]([C@H]([C@@]34CO4)O2)O)OC(=O)C)C)COC(=O)C
#smiles_can CC1=CC2C(CC1OC(=O)CC(C)C)(C3(C(C(C(C34CO4)O2)O)OC(=O)C)C)COC(=O)C
#inchikey BXFOFFBJRFZBQZ-QYWOHJEZSA-N
#pubchem_id 5284461
#mb_accession AC000233,AC000234,AC000235,AC000236,AC000237

>ms2
57.070700 35333.148438
85.064800 126290.640625
105.069900 71413.851562
121.064800 78119.781250
125.059700 35537.792969
157.101200 40131.769531
169.101200 69084.031250
173.096100 54750.589844
185.096100 164879.046875
187.111800 54455.656250
197.096100 178388.359375
199.111800 104065.882812
203.106700 67889.195312
215.106700 317463.750000
217.122300 101161.117188
227.106700 236587.234375
233.117200 87801.984375
245.117200 475680.218750
257.117200 88282.171875
263.127800 185931.046875
275.127800 77829.593750
287.127800 187495.265625
305.138400 637078.687500
323.148900 107140.804688
347.148900 59725.484375
347.185300 45162.531250
365.159500 299520.281250
389.195900 58256.488281
407.206400 215072.343750
425.217000 47032.757812
449.217000 244118.218750
467.227600 1042317.625000

>ms2
57.070500 92145.062500
85.064800 288472.562500
93.069900 22521.152344
95.049100 26150.361328
97.064800 15070.833008
105.069900 85961.375000
107.049100 26725.414062
109.064800 20535.464844
121.064800 158691.531250
123.044100 31013.736328
123.080400 23193.402344
125.059700 72467.492188
133.101200 16767.933594
137.059700 22271.544922
141.054600 19003.232422
143.085500 44820.257812
145.101200 33252.652344
157.101200 88506.289062
159.080400 24630.460938
159.116800 35270.121094
161.096100 24737.355469
167.070300 15540.400391
169.101200 107248.382812
171.116800 104624.156250
173.096100 87215.343750
175.111800 26457.640625
181.101200 50706.207031
183.116800 16182.662109
185.096100 264491.687500
187.111800 97273.382812
189.127400 23127.125000
191.106700 36525.476562
197.096100 181550.890625
199.111800 233899.625000
203.106700 95238.218750
205.122300 19692.556641
209.096100 53811.449219
215.106700 321588.343750
217.122300 187215.031250
227.106700 275382.093750
233.117200 98266.085938
235.132900 33825.070312
245.117200 454690.843750
257.117200 26769.166016
262.922400 17257.742188
263.127800 229583.062500
275.127800 39022.496094
277.143400 28521.154297
287.127800 109801.132812
305.138400 270077.687500
323.148900 79879.992188
329.174700 15422.326172
341.159500 21208.861328
347.148900 22522.404297
365.159500 58274.964844
389.195900 25400.595703
407.206400 74724.851562
449.217000 29571.691406
467.227600 48594.558594

>ms2
57.070600 209454.875000
69.033500 13108.829102
85.064800 288057.656250
93.069900 49275.625000
95.049100 66684.796875
95.085500 16808.921875
97.064800 30915.384766
105.069900 125223.570312
107.049100 42951.519531
109.064800 37439.269531
119.049100 18541.904297
119.085500 24583.132812
121.064800 246380.453125
123.044100 43212.730469
123.080400 38385.769531
125.059700 78559.710938
129.069900 23713.562500
131.085500 31400.789062
133.064800 16785.148438
133.101200 25917.636719
135.080400 18549.937500
137.059700 27465.947266
139.075400 13942.987305
141.054600 22858.765625
141.069900 17223.197266
142.077700 19496.375000
143.085500 90635.039062
145.064800 24017.060547
145.101200 75249.890625
147.080400 19770.523438
147.116800 19179.703125
149.059700 15121.417969
149.096100 13404.353516
155.085500 27638.751953
156.093400 28932.039062
157.101200 134798.453125
159.080400 49736.273438
159.116800 73925.250000
161.096100 50671.281250
163.075400 14410.987305
166.077700 17254.730469
167.083600 9547.938477
169.101200 135628.453125
171.080400 23588.072266
171.116800 139919.078125
173.096100 102131.164062
175.111800 50817.937500
179.085500 15843.684570
181.101200 84638.671875
183.080400 13345.276367
185.096100 233462.812500
187.111800 132387.437500
189.127400 43920.203125
191.106700 45248.273438
197.096100 131451.031250
199.111800 267836.218750
203.106700 85735.703125
205.122300 16528.742188
209.096100 61300.007812
215.106700 207072.171875
217.122300 138049.281250
227.106700 184810.093750
233.117200 68202.445312
235.132900 33757.855469
245.117200 254825.328125
263.127800 126158.210938
287.127800 18367.869141
305.138400 68279.234375
323.148900 25665.566406

>ms2
57.070600 235069.578125
69.033500 21153.687500
79.054200 20899.302734
81.069900 16954.025391
83.049100 18285.191406
85.064800 177120.484375
91.054200 24080.058594
93.069900 61694.613281
95.049100 59916.617188
95.085500 17833.642578
97.064800 38060.312500
105.069900 123352.539062
107.049100 45172.191406
109.064800 48228.078125
117.069900 8063.608398
119.049100 28125.572266
119.085500 23978.277344
121.064800 251094.968750
123.044100 28526.316406
123.080400 30558.824219
125.059700 56690.734375
128.062100 13612.981445
129.069900 28907.050781
131.085500 34824.132812
133.064800 13269.586914
133.101200 29345.785156
135.080400 17032.033203
137.059700 20566.976562
139.075400 13714.250000
141.054600 16350.564453
141.069900 16924.218750
142.077700 27353.710938
143.085500 119499.390625
145.064800 27235.837891
145.101200 75807.945312
147.080400 32908.996094
147.116800 23096.291016
154.077700 18121.605469
155.085500 25220.304688
156.093400 40565.421875
157.101200 132150.562500
158.072600 14952.761719
159.080400 60112.542969
159.116800 73332.703125
161.096100 43138.296875
166.077700 26507.859375
169.101200 133932.656250
171.080400 32360.916016
171.116800 124781.726562
173.096100 97012.085938
175.111800 47356.636719
179.085500 8067.489746
181.101200 70493.234375
182.072600 16583.390625
184.088300 19426.269531
185.096100 182032.921875
187.111800 106117.382812
189.127400 32741.525391
191.106700 25204.130859
197.096100 98988.250000
199.111800 190735.562500
201.091000 16318.945312
203.106700 60175.300781
209.096100 35796.957031
212.083200 14282.503906
215.106700 160920.890625
217.122300 93263.812500
227.106700 87928.875000
233.117200 41244.339844
235.132900 19291.134766
245.117200 140668.046875
263.127800 67258.265625
305.138400 24946.087891

>ms2
57.070600 240935.593750
64.978000 22216.271484
67.054200 20358.853516
69.033500 16231.832031
79.054200 44458.527344
81.069900 30415.486328
83.049100 13885.715820
85.064800 60036.753906
91.054200 53290.222656
93.069900 81470.906250
95.049100 81102.929688
95.085500 17427.646484
97.064800 46192.992188
105.069900 136916.296875
107.049100 35079.281250
107.085500 16981.412109
109.064800 40453.523438
115.054200 16944.513672
117.069900 29911.839844
119.049100 21014.455078
119.085500 40744.480469
121.064800 188268.765625
123.044100 32277.679688
123.080400 15923.120117
125.059700 27729.181641
128.062100 28873.154297
129.069900 65714.234375
130.077700 7899.129395
131.085500 56310.250000
133.064800 22988.484375
133.101200 29152.158203
137.059700 13296.716797
141.069900 45545.238281
142.077700 89731.093750
143.085500 119538.062500
144.093400 13653.416992
145.064800 26427.332031
145.101200 84832.468750
147.080400 21251.044922
147.116800 17490.832031
153.069900 13734.051758
154.077700 61259.226562
155.085500 26216.072266
156.093400 68457.781250
157.101200 111803.757812
158.072600 29117.660156
159.080400 42547.867188
159.116800 49660.359375
161.096100 27894.587891
165.069900 26944.767578
166.077700 39494.558594
167.085500 12800.636719
169.101200 92845.039062
171.080400 23577.919922
171.116800 49736.390625
172.088300 21619.359375
173.096100 48451.699219
175.111800 28975.718750
179.085500 17083.132812
181.101200 34049.785156
182.072600 30374.529297
184.088300 25562.380859
185.096100 77549.484375
187.111800 40823.347656
189.127400 13201.741211
191.106700 12932.150391
197.096100 35900.097656
199.111800 63889.921875
203.106700 13125.354492
209.096100 15865.217773
215.106700 26401.648438
217.122300 21147.335938
227.106700 16764.560547
245.117200 15580.427734

