>compound AC99162705
>parentmass 283.1899
>ionization [M+H]+
>formula C16H26O4
>rt 214.200000
>profile orbitrap
#smiles_iso CCCCCC[C@@H]([C@@H]1CCC2=C(O1)[C@@H](CCC2=O)O)O
#smiles_can CCCCCCC(C1CCC2=C(O1)C(CCC2=O)O)O
#inchikey INHVGPIPHZJQOP-ZNMIVQPWSA-N
#pubchem_id 11426065
#mb_accession AC000170,AC000171,AC000172,AC000173,AC000174

>ms2peaks
85.101200 116994.109375
113.096100 340410.625000
135.080400 1103206.125000
137.059700 108305.242188
153.091000 1242767.250000
155.143100 120989.406250
237.184900 135352.343750
247.169300 664676.687500
265.179800 1381038.375000
283.190400 2390368.000000

>ms2peaks
85.101200 152249.218750
107.049100 45486.179688
113.096100 410423.218750
115.039000 49090.937500
131.106700 71017.437500
135.080400 1029803.000000
137.059700 111325.109375
153.091000 1363986.750000
155.143100 135499.406250
219.174400 81837.820312
229.158700 50555.519531
237.184900 125415.914062
247.169300 548608.562500
265.179800 1036077.187500
283.190400 1291676.375000

>ms2peaks
57.070500 60785.675781
79.054200 51488.355469
85.101200 440635.531250
87.044100 57688.105469
95.085500 80033.437500
107.049100 68340.945312
107.085500 56636.476562
113.096100 539034.250000
123.044100 63640.187500
125.059700 63529.902344
131.106700 80010.406250
135.080400 825576.375000
137.059700 194815.625000
153.091000 1560865.875000
155.143100 119878.148438
219.174400 88577.140625
237.184900 61037.613281
247.169300 235346.671875
265.179800 169378.578125
283.190400 87182.343750

>ms2peaks
57.070600 65552.492188
79.054200 61410.937500
81.069900 45225.937500
85.101200 452875.750000
87.044100 55981.582031
93.069900 44432.937500
95.085500 86455.726562
107.049100 44495.894531
107.085500 50761.750000
109.064800 45351.039062
113.096100 389891.500000
117.069900 52448.937500
123.044100 50779.554688
125.059700 77914.632812
131.106700 53714.761719
135.080400 539379.250000
137.059700 166285.390625
149.059700 37964.019531
153.091000 1185575.625000
155.143100 83134.468750
219.174400 72253.976562
247.169300 85760.695312
265.179800 42340.445312

>ms2peaks
53.002900 15173.635742
55.018600 59786.886719
55.054900 15420.970703
57.070500 98837.937500
67.054200 40440.046875
69.069900 39469.085938
71.049100 20698.087891
79.054200 109246.570312
81.033500 18548.910156
81.069900 72739.210938
83.049100 16985.972656
85.101200 199684.546875
87.044100 33522.074219
89.059700 25328.683594
91.054200 36623.156250
93.069900 68772.000000
95.012800 17190.464844
95.049100 69962.539062
95.085500 64664.617188
97.064800 23202.726562
105.069900 18172.802734
107.049100 63270.589844
107.085500 53766.136719
109.064800 67454.750000
113.096100 72474.781250
117.069900 50610.191406
119.049100 22606.015625
121.064800 17772.550781
121.101200 14434.942383
123.044100 36410.328125
125.059700 132550.687500
131.085500 21765.449219
135.080400 160312.546875
137.059700 79657.750000
143.070300 38946.265625
149.096100 16292.196289
153.091000 440430.468750

