>compound AC99094847
>parentmass 355.1382
>ionization [M+H]+
>formula C17H22O8
>rt 147.600000
>profile orbitrap
#smiles_iso CC1=C[C@@H]2[C@]([C@@H](C1=O)O)([C@]3([C@@H]([C@H]([C@H]([C@@]34CO4)O2)O)OC(=O)C)C)CO
#smiles_can CC1=CC2C(C(C1=O)O)(C3(C(C(C(C34CO4)O2)O)OC(=O)C)C)CO
#inchikey XGCUCFKWVIWWNW-CAYGJDLQSA-N
#pubchem_id 304599
#mb_accession AC000140,AC000141,AC000142,AC000143,AC000144

>ms2
99.044100 6794117.000000
125.059700 3021742.750000
137.059700 20685466.000000
153.054600 3506499.000000
163.075400 3731721.000000
165.091000 4342909.000000
175.075400 24569316.000000
177.091000 7868878.500000
189.091000 6991376.500000
191.070300 6055243.500000
193.085900 7087348.500000
201.091000 9684728.000000
203.106700 3090248.500000
205.085900 23530940.000000
213.091000 4898149.000000
217.085900 13007935.000000
219.101600 8589837.000000
223.096500 14137700.000000
229.085900 29712762.000000
231.101600 10758784.000000
235.096500 2770550.500000
241.085900 3319437.000000
247.096500 50190356.000000
259.096500 20245678.000000
277.107000 36309216.000000
289.107000 3406003.000000
295.117600 20285644.000000
307.117600 3202110.500000
319.117600 2934869.000000
337.128200 32404246.000000
355.138700 81079416.000000

>ms2
85.028400 2771480.750000
99.044100 15373063.000000
109.064800 2720759.250000
123.044100 6679869.500000
125.059700 8343643.000000
137.059700 44489328.000000
141.054600 2192235.750000
147.080400 5458798.500000
149.059700 3693189.500000
153.054600 8091216.000000
159.080400 4292474.000000
161.059700 4983797.000000
163.075400 9263155.000000
165.091000 14298986.000000
171.080400 3580228.250000
173.096100 3560201.750000
175.075400 49273832.000000
177.091000 19161048.000000
179.070300 4551647.500000
185.096100 5282540.000000
187.075400 5477142.500000
189.091000 13040447.000000
191.070300 12136335.000000
191.106700 2421373.500000
193.085900 9976473.000000
199.075400 2767769.750000
201.091000 22493672.000000
203.106700 6307715.500000
205.085900 47725976.000000
207.101600 2389389.500000
209.080800 2490454.500000
211.075400 2455156.500000
213.091000 10568641.000000
217.085900 25342248.000000
219.101600 14358931.000000
223.096500 15783229.000000
229.085900 58625028.000000
231.101600 15873550.000000
233.080800 2215076.750000
235.096500 4759761.000000
241.085900 4384140.500000
247.096500 68295672.000000
249.112100 3286717.750000
259.096500 21522554.000000
277.107000 31843228.000000
289.107000 2741351.500000
295.117600 13546838.000000
307.117600 2446212.500000
313.128200 4188492.000000
319.117600 2740304.000000
337.128200 22830018.000000
355.138700 22971336.000000

>ms2
69.033500 3887456.250000
71.049100 5823527.000000
85.028400 4895429.000000
95.049100 3893557.750000
97.064800 2955467.250000
99.044100 21085182.000000
107.049100 5260575.000000
109.064800 7349346.000000
119.085500 3962528.750000
121.064800 4249891.500000
123.044100 10644858.000000
125.059700 13563649.000000
131.085500 4365417.000000
135.080400 3077361.250000
137.059700 75612056.000000
141.054600 4450653.000000
145.101200 3605087.250000
147.080400 14177618.000000
149.059700 7691799.500000
149.096100 4022080.250000
151.039000 3984897.750000
151.075400 3158380.500000
153.054600 9800989.000000
157.101200 3159460.500000
159.080400 14721344.000000
161.059700 9381517.000000
161.096100 4938826.000000
163.075400 16616033.000000
165.091000 23452764.000000
171.080400 5670264.500000
173.096100 10940060.000000
175.075400 69412936.000000
175.108200 3162769.500000
177.054600 3186605.250000
177.091000 31946246.000000
179.070300 4980045.500000
183.080400 4469293.500000
185.096100 8973147.000000
187.075400 12708413.000000
189.091000 19973134.000000
191.070300 14917630.000000
191.106700 4520968.500000
193.085900 7112761.000000
199.075400 7078547.000000
201.091000 41155152.000000
203.070300 3192985.750000
203.106700 7091235.000000
205.085900 48759168.000000
211.075400 7223720.500000
213.091000 13679315.000000
214.062400 2956911.750000
217.085900 24837074.000000
219.101600 12293559.000000
223.096500 3685018.000000
229.085900 65754472.000000
231.101600 10388869.000000
235.096500 3945850.250000
241.085900 3943842.750000
247.096500 34339468.000000
259.096500 10347030.000000
277.107000 8609034.000000
337.128200 3967015.500000

>ms2
69.033500 5734857.500000
71.049100 7495691.000000
79.054200 3030623.750000
83.049100 2873324.750000
85.028400 4747456.500000
95.049100 5174496.500000
97.064800 4279050.000000
99.044100 17794974.000000
107.049100 6584010.000000
109.064800 9905108.000000
119.085500 7463707.500000
121.064800 6245605.000000
123.044100 13300978.000000
125.059700 13422435.000000
131.085500 6735924.000000
135.080400 3831381.000000
137.059700 81704392.000000
141.054600 4725634.000000
143.085500 3613505.250000
145.064800 2857733.750000
145.101200 4894676.000000
147.080400 15652221.000000
149.059700 7433014.000000
149.096100 5362066.500000
151.039000 3759466.500000
151.075400 3579538.750000
153.054600 8087813.000000
155.085500 2835540.750000
157.101200 3662917.000000
159.080400 20481498.000000
161.059700 9960054.000000
161.096100 5555089.000000
163.075400 17829612.000000
165.091000 18579076.000000
171.080400 5004495.500000
173.096100 12315652.000000
175.075400 70743568.000000
175.107900 2638559.500000
177.054600 3186600.750000
177.091000 28390140.000000
179.070300 4563784.000000
183.080400 5816403.500000
185.096100 8876583.000000
187.075400 14665681.000000
188.083200 2921353.000000
189.091000 19816892.000000
191.070300 12193465.000000
191.106700 3807575.500000
193.085900 4195935.500000
199.075400 6818283.500000
201.091000 38674884.000000
203.070300 2977860.500000
203.106700 5808787.000000
205.085900 35869116.000000
211.075400 8872402.000000
213.091000 11368434.000000
214.062400 4519685.500000
217.085900 18042300.000000
219.101600 7772435.000000
229.085900 48602284.000000
231.101600 7016248.000000
241.085900 2964267.750000
247.096500 18061132.000000
259.096500 5668578.500000
277.107000 3070212.000000

>ms2
67.054200 4079012.750000
69.033500 9046030.000000
71.049100 7600936.500000
79.054200 7969125.500000
81.069900 6553515.000000
83.049100 3793436.500000
85.028400 4990949.500000
91.054200 11379793.000000
95.049100 8702758.000000
97.064800 4441577.500000
99.044100 9009655.000000
105.069900 6632584.000000
107.049100 9605067.000000
109.064800 15495413.000000
117.069900 5919233.000000
119.085500 17615244.000000
121.064800 15057905.000000
123.044100 10728816.000000
125.059700 10477818.000000
128.062100 3228514.250000
129.069900 6952000.000000
131.085500 15979841.000000
133.064800 4861637.500000
135.080400 9561029.000000
137.059700 81257800.000000
141.054600 3412600.250000
141.069900 3235570.500000
142.077700 5097551.000000
143.085500 7152040.000000
144.057000 2707163.250000
145.064800 6869417.000000
145.101200 10156871.000000
147.080400 19119368.000000
149.059700 5703007.500000
149.096100 6859234.500000
151.039000 2665823.250000
151.075400 3964627.000000
153.054600 4241290.500000
155.085500 8246960.000000
157.101200 4109684.250000
158.072600 8622636.000000
159.080400 28532056.000000
161.059700 11555469.000000
161.096100 6950552.500000
163.075400 10920166.000000
165.091000 5341848.500000
171.080400 5993040.000000
173.096100 12845424.000000
174.067500 3659234.750000
175.075400 60254616.000000
177.091000 11082029.000000
183.080400 7421481.000000
185.096100 5043202.500000
186.067500 4812700.000000
187.075400 16180118.000000
188.083200 3230756.000000
189.091000 11645902.000000
191.070300 4992543.500000
198.067500 3842163.750000
199.075400 4697246.000000
201.091000 24859800.000000
205.085900 11892314.000000
211.075400 9043054.000000
213.091000 3381188.500000
214.062400 7734900.000000
217.085900 5648774.000000
229.085900 11821904.000000

