>compound EQ01756062
>parentmass 245.08800000000002
>ionization [M+H]+
>formula C8H12N4O5
>rt 54.000000
>profile orbitrap
#smiles_iso C1=NC(=NN1[C@H]2[C@@H]([C@@H]([C@H](O2)CO)O)O)C(=O)N
#smiles_can C1=NC(=NN1C2C(C(C(O2)CO)O)O)C(=O)N
#inchikey IWUCXVSUMQZMFG-AFCXAGJDSA-N
#pubchem_id 37542
#mb_accession EQ286001,EQ286002,EQ286003,EQ286005,EQ286006

>ms2
57.033500 16023.900000
61.028400 5092.200000
69.033500 8021.100000
70.039900 22062.300000
73.028400 25753.300000
85.028400 37791.700000
87.044000 9345.400000
95.035300 9770.500000
96.019200 11380.700000
97.028400 16807.000000
103.039000 11261.400000
113.045800 4094067.600000
114.029600 135291.000000
115.038900 76989.200000
133.049500 238970.800000
233.026600 8599.000000

>ms2
57.033500 37574.700000
59.049200 5178.100000
61.028400 11758.600000
69.008300 4975.200000
69.033500 21741.500000
70.040000 41314.100000
71.012800 10307.300000
73.028400 52818.700000
85.028400 68515.200000
87.044000 16413.500000
95.035200 16772.400000
96.019100 19095.100000
97.028400 28503.400000
103.039000 19590.700000
113.045800 3489960.400000
114.029600 335978.300000
115.038800 93044.300000
133.049500 135917.000000
144.008100 5295.600000
167.005000 6798.800000

>ms2
57.033500 57263.200000
59.049200 13635.500000
61.028400 17371.700000
69.008300 15173.600000
69.033500 64004.100000
70.040000 141648.000000
71.012700 30702.400000
73.028400 62426.100000
85.028400 72229.300000
87.044000 15533.500000
95.035200 45078.500000
96.019200 28117.300000
97.028400 37032.700000
103.038900 13071.300000
113.045800 2251960.400000
114.029700 1018710.300000
115.038800 43130.600000
116.033700 2543.400000
125.997400 11299.100000
133.049600 20317.400000
144.002600 2346.700000
144.008000 30197.600000
162.018400 9482.400000

>ms2
55.017900 7925.200000
57.033500 65960.600000
59.049100 8196.000000
61.028400 26725.000000
69.008300 56147.100000
69.033500 78358.400000
70.040000 313169.900000
71.012700 69915.500000
73.028400 46875.200000
85.028400 49479.100000
87.044100 6378.800000
95.035200 47039.300000
96.019200 41209.300000
97.028400 16821.100000
113.045800 627878.900000
114.029700 2087173.500000
116.033900 6731.900000
125.997400 18327.100000
139.999900 4393.900000
144.008100 60377.600000
162.018500 13407.400000

>ms2
55.017900 9651.800000
57.033500 58009.200000
59.049200 5608.400000
61.028400 22884.300000
69.008300 120323.700000
69.033500 62498.200000
70.040000 326364.100000
71.012700 80126.400000
73.028400 30655.700000
85.028400 33099.900000
95.035200 31571.400000
96.019200 33108.000000
97.028300 2508.200000
113.045800 195549.300000
114.029700 2016916.400000
116.033900 5589.000000
125.997400 16863.600000
144.008100 47765.400000
162.018600 12434.100000

