>compound EQ02619647
>parentmass 165.1022
>ionization [M+H]+
>formula C9H12N2O
>rt 294.000000
>profile orbitrap
#smiles_iso CN(C)C(=O)NC1=CC=CC=C1
#smiles_can CN(C)C(=O)NC1=CC=CC=C1
#inchikey XXOYNJXVWVNOOJ-UHFFFAOYSA-N
#pubchem_id 7560
#mb_accession EQ311101,EQ311102,EQ311103,EQ311104,EQ311105,EQ311106

>ms2
72.044200 387829793.700000
92.049300 1182431.000000
120.044200 10394895.000000
165.102000 357926933.200000

>ms2
72.044300 378264786.300000
92.049300 961212.000000
120.044200 8973886.300000
165.102000 332727544.900000

>ms2
72.044300 502529042.200000
92.049300 9526576.200000
95.049000 2338338.100000
120.044200 26844210.600000
165.102000 61181368.100000

>ms2
72.044300 547458672.100000
77.038500 964002.900000
92.049300 17246731.400000
95.049000 6410770.500000
105.044500 1261392.200000
120.044200 27790918.400000
165.102100 18038249.400000

>ms2
56.013100 1097707.700000
72.044300 510894394.300000
77.038500 1346801.400000
92.049300 25218902.400000
95.049000 13980367.600000
105.044600 3437373.400000
120.044200 16670737.200000
165.102200 1767521.500000

>ms2
56.013000 2083433.400000
65.038500 2367469.200000
72.044300 474032615.600000
77.038500 3339356.600000
92.049300 25376768.200000
95.049000 22418154.500000
105.044500 5735659.000000
120.044200 7130306.700000

