>compound EQ02902998
>parentmass 338.1511
>ionization [M+H]+
>formula C16H20FN3O4
>rt 336.000000
>profile orbitrap
#smiles_iso CC(=O)NC[C@H]1CN(C(=O)O1)C2=CC(=C(C=C2)N3CCOCC3)F
#smiles_can CC(=O)NCC1CN(C(=O)O1)C2=CC(=C(C=C2)N3CCOCC3)F
#inchikey TYZROVQLWOKYKF-ZDUSSCGKSA-N
#pubchem_id 441401
#mb_accession EQ329101,EQ329102,EQ329103,EQ329104,EQ329105,EQ329106

>ms2peaks
195.092700 2804589.800000
235.124000 5086909.000000
294.160700 4521648.000000
296.140400 30481912.000000
338.150800 838805568.000000

>ms2peaks
56.049500 9891856.000000
60.044400 1214744.100000
84.044400 619636.900000
86.060000 747908.500000
98.060000 4326266.000000
116.070500 702574.900000
124.055600 660573.700000
148.055600 4916666.000000
149.050800 666034.200000
149.063600 3286445.000000
150.071400 342045.400000
151.066500 2861848.500000
152.074100 378666.900000
162.071000 1947347.500000
163.066500 5566747.500000
165.082300 1750960.200000
169.075900 3377731.000000
171.091500 1557944.800000
172.055300 316152.900000
174.058800 1480401.100000
176.074500 714127.100000
177.045900 687545.000000
177.082300 1976804.600000
179.097500 1332941.500000
181.089300 1721396.100000
185.107400 1317140.100000
187.066700 672673.100000
189.082200 16905994.000000
190.089900 1756036.100000
191.097800 7949144.500000
192.105600 993918.200000
195.092700 56594612.000000
196.100500 8926949.000000
197.072100 1812330.400000
197.108400 4660074.500000
203.118200 1666368.600000
205.077600 292195.600000
205.113500 383605.200000
206.085200 700471.600000
206.108200 315674.900000
207.093000 356847.400000
208.124700 557868.400000
209.108400 14060620.000000
210.112400 585723.400000
215.117800 12256132.000000
217.113200 2484400.000000
218.097400 683933.900000
221.108400 2296511.800000
222.103600 4662164.000000
223.087300 692521.900000
223.123900 3219096.200000
233.108200 962988.800000
235.124000 79345952.000000
241.098200 25750288.000000
244.144300 1028268.200000
248.119100 631294.200000
249.126800 2075388.200000
250.098600 5948564.500000
250.134700 604776.200000
251.106000 373134.000000
251.143200 1270474.500000
252.114200 5761127.000000
252.150700 1791630.100000
253.098400 1059332.900000
276.150500 381121.400000
277.135200 588646.600000
278.130200 2672815.800000
279.114300 2608542.200000
294.161000 19389444.000000
296.140400 197187424.000000
297.124100 2025287.000000
338.150800 286491840.000000

>ms2peaks
56.049500 19849114.000000
60.044400 2033473.000000
70.065100 214270.600000
72.044300 1303336.900000
74.060000 305445.500000
84.044300 1985032.400000
85.052100 926096.900000
86.059900 1795314.200000
88.075600 626101.200000
98.060000 3942903.800000
116.070500 939250.400000
122.039700 247391.000000
124.055600 3435367.800000
125.050700 818253.100000
130.065000 601566.100000
131.060400 809093.100000
133.075900 800559.100000
134.039700 202276.000000
135.047800 4778914.500000
136.055600 2970551.800000
137.050900 1370711.400000
137.063400 2704221.800000
138.059000 271836.100000
138.071200 773141.800000
139.066400 862471.900000
142.065300 745968.800000
143.060300 248139.300000
144.080800 848412.800000
145.075700 257820.700000
147.091600 289544.500000
148.055600 24900924.000000
149.051000 5742729.000000
149.063500 15881185.000000
150.058800 1398314.200000
150.071200 3767560.000000
151.066500 11786322.000000
152.074300 4982392.500000
153.082100 6615153.000000
154.065000 192459.200000
154.089900 212759.400000
156.068400 682498.100000
157.075800 1697046.600000
158.083700 285326.400000
159.091600 1517776.200000
161.050800 795035.300000
161.064000 463635.800000
162.071300 12330402.000000
163.066500 27050690.000000
164.074300 1804750.200000
164.086800 891142.400000
165.082200 13625086.000000
166.089900 667976.600000
167.097700 1909623.200000
168.068700 228876.600000
168.081500 199224.600000
169.075900 18517952.000000
170.083700 2308153.800000
171.091500 6047546.000000
172.055600 3071932.500000
173.063500 560283.100000
173.107300 261312.800000
174.058700 12061919.000000
175.066900 1308956.600000
175.079000 197537.100000
176.074400 3144336.000000
176.086800 270170.100000
177.045900 2732440.800000
177.082200 11262897.000000
178.090000 1364971.100000
179.061400 951297.300000
179.097800 6653055.500000
180.081500 706562.600000
180.093000 1887818.600000
181.077300 2063892.500000
181.089500 7345392.000000
182.083800 293364.300000
183.056300 164468.000000
185.107300 4280547.500000
187.066600 3951115.000000
187.086300 285168.900000
187.099300 259470.700000
187.122700 352197.400000
188.074500 1354870.200000
189.082200 30340170.000000
190.090000 9690656.000000
191.097800 27900256.000000
192.082200 626223.600000
192.105500 2433008.200000
194.084600 636530.800000
194.097700 241534.900000
195.092700 56930500.000000
196.100500 13746258.000000
197.071900 5831260.000000
197.108100 8104366.500000
198.079800 364257.700000
200.094400 311766.900000
201.082000 677111.100000
202.089800 734739.200000
202.133800 187847.700000
203.097800 273990.200000
203.117800 1547080.400000
204.105500 286983.100000
205.077000 1704587.600000
205.113300 1693339.200000
206.085000 1088796.500000
206.108500 354571.100000
207.092300 1053277.100000
208.100900 209316.900000
208.114100 409998.000000
208.124300 945074.800000
209.108400 21488610.000000
210.112000 605271.800000
215.117800 14720384.000000
217.113500 5223312.500000
221.108400 4331406.000000
222.103600 5648393.000000
223.087700 2152972.800000
223.124000 5932474.500000
233.108500 1529732.000000
234.103500 597866.000000
235.124000 46152760.000000
236.118900 1075750.400000
238.098500 2875790.000000
239.083200 221582.500000
239.118500 317457.800000
241.098100 19140156.000000
244.144100 1643982.900000
246.123000 1188468.600000
248.119400 314079.700000
249.127000 4044884.800000
250.098600 3354268.000000
250.135000 640605.100000
251.106200 1290100.500000
251.142700 803945.600000
252.114200 11553566.000000
252.150200 638672.200000
253.098300 523429.800000
253.122100 548162.900000
276.151000 327746.400000
278.129900 3916316.000000
279.113500 1207086.600000
280.109100 262047.500000
288.133600 178950.800000
294.161100 4951234.000000
296.140300 38822472.000000
297.124200 881928.100000
338.150900 11975498.000000

>ms2peaks
56.049500 19949692.000000
60.044400 1685753.200000
68.049500 164604.900000
70.065100 224237.100000
72.044300 1181877.200000
74.060000 690556.000000
83.029000 193891.700000
84.044300 1808601.900000
85.052100 1892627.400000
86.060000 590846.000000
91.054400 191364.200000
92.049800 167217.400000
97.044700 238024.800000
98.060000 1387077.900000
103.054100 239336.500000
104.049500 1070444.800000
105.044600 192175.200000
106.065000 354743.800000
107.028800 156230.200000
109.044700 1457275.400000
110.040000 294815.800000
110.052600 278379.500000
111.047800 1823600.600000
112.055700 282326.800000
115.054100 2083324.600000
116.049500 1215489.200000
116.070300 263294.500000
117.057100 1828169.200000
118.065000 1286065.900000
122.039900 1783257.400000
122.052700 147689.100000
123.035600 195666.900000
123.047800 2102655.500000
123.060300 230740.500000
124.055600 6525611.500000
125.050900 2828036.000000
125.063300 308685.800000
126.058700 669852.200000
126.071300 724375.900000
128.049400 234817.600000
129.057400 194780.100000
130.065100 2462838.800000
131.060300 2997311.200000
131.073200 187637.200000
132.068300 294566.100000
132.080700 234795.000000
133.044900 217976.900000
133.076000 1540990.900000
134.040100 193818.800000
134.060100 1783386.900000
135.047800 26286500.000000
136.055600 11891971.000000
137.051000 4820738.000000
137.063400 12405821.000000
138.058700 1733208.500000
138.071300 3064857.000000
139.066400 3511064.200000
140.049400 154617.400000
140.074100 276900.900000
142.052800 277047.200000
142.065200 4850727.500000
143.060400 2304583.200000
143.073000 624777.800000
144.055400 167266.500000
144.080800 1928716.600000
145.076100 1094626.500000
146.039900 1534075.800000
146.052900 193864.100000
147.048100 228194.500000
147.060200 254099.100000
147.091600 903262.200000
148.055600 64452748.000000
149.051000 13610129.000000
149.063500 20500112.000000
150.058800 4460740.000000
150.071300 9890471.000000
151.066600 22825920.000000
152.074400 10273582.000000
153.082200 13544502.000000
154.065100 1807559.100000
154.090000 808784.000000
155.060200 380178.400000
156.068100 3600587.800000
156.080800 219680.100000
157.076100 2712703.200000
158.083900 604530.600000
158.096800 203364.100000
159.091600 1925017.500000
160.043400 209508.700000
161.051100 1366144.900000
161.063300 2859985.200000
162.071300 22286382.000000
163.066500 39410540.000000
163.078900 2770529.200000
164.050500 1087223.600000
164.074300 3458310.500000
164.086800 1435108.900000
165.082200 29227638.000000
166.089900 1256321.200000
167.097800 2980439.500000
168.068600 1018094.800000
168.080800 274117.100000
169.075900 24771072.000000
170.083700 2312095.000000
170.096100 203122.800000
171.091600 6668406.000000
172.055600 6140395.000000
173.063400 954222.100000
173.107400 363663.700000
174.058700 24330740.000000
174.071300 2149519.200000
175.066600 4164977.500000
175.079200 603785.300000
175.086400 224759.600000
176.074500 5472325.000000
176.086900 796061.400000
177.045700 1742469.600000
177.082200 14181051.000000
178.090100 2245698.500000
179.061400 3237337.800000
179.097800 9778063.000000
180.081500 1569619.800000
180.093100 1508045.100000
181.077600 2431364.800000
181.089600 8272540.000000
182.083500 622565.800000
183.056300 364720.600000
183.091700 749285.400000
184.099600 252307.300000
185.107500 3007234.500000
187.066500 7611057.000000
188.074400 1974376.100000
188.087300 313899.200000
189.082200 19331168.000000
190.090000 6910703.000000
190.102500 443826.500000
191.097800 30296660.000000
192.081900 607959.600000
192.105400 1112086.500000
194.084800 580540.900000
195.092700 27256384.000000
196.064100 1175239.000000
196.100500 8702064.000000
197.071900 4751314.500000
197.108000 4077085.800000
201.082000 899757.100000
202.089900 577893.600000
203.097800 751047.400000
203.117800 732160.200000
204.106100 194758.100000
205.077300 1378103.800000
205.113600 757814.000000
206.085400 218070.100000
206.108700 191239.000000
207.092900 733006.500000
208.113300 254600.400000
208.124600 196836.400000
209.108400 9854294.000000
210.111600 617139.000000
215.117900 7056174.000000
217.113500 2845925.800000
221.108500 2169045.000000
222.103500 1065839.900000
222.115700 296030.300000
223.087200 1501044.000000
223.124200 2013051.100000
233.108600 317926.900000
235.124000 7339129.000000
238.098400 2223640.000000
239.119200 366918.300000
241.098300 3434111.500000
244.144100 336381.400000
246.123500 626261.600000
249.127300 941950.900000
250.098600 792537.500000
251.106200 1505199.200000
252.114200 4286691.500000
278.129800 888072.600000
296.140500 2597038.800000

>ms2peaks
56.049500 17283904.000000
60.044400 1358874.500000
65.038500 183581.000000
68.049300 175471.000000
72.044300 574199.600000
74.059900 253842.600000
80.049300 174000.200000
83.029000 347305.600000
84.044300 2146622.800000
85.052100 788342.800000
86.059900 151037.300000
89.038500 625279.100000
90.033800 203721.000000
91.054100 1135319.200000
92.049400 722628.300000
96.037100 184405.500000
96.044400 334478.400000
97.044800 1035722.700000
98.040000 571205.400000
98.060000 335988.300000
103.054200 1033863.400000
104.049500 2543714.800000
105.044600 594688.800000
106.065200 762351.500000
107.029200 547098.200000
108.037000 274412.500000
109.032000 267067.300000
109.044700 3981844.800000
110.040000 971345.900000
110.052500 1778596.800000
111.047800 4908285.500000
112.055700 676087.000000
113.039800 191827.000000
115.054100 5195867.500000
116.049400 3595418.500000
117.057200 4502186.500000
118.065000 3738034.800000
121.044900 311907.500000
122.040000 4152961.000000
122.052500 216036.500000
123.035200 712532.500000
123.047700 5959268.000000
123.060300 894031.800000
124.055600 8596688.000000
125.050900 3337310.000000
125.063500 900011.000000
126.058900 585461.800000
126.071300 935771.100000
128.049300 950720.400000
129.044700 604182.000000
129.057200 989306.400000
130.065100 5264525.000000
131.060300 4455986.500000
131.072900 707428.800000
132.068100 1037247.000000
132.080800 313106.400000
133.044700 210573.200000
133.075900 2014109.800000
134.039900 780468.400000
134.059900 4352071.500000
135.047800 37872084.000000
136.055600 21833086.000000
137.050900 8943563.000000
137.063400 16559657.000000
138.058700 2791661.500000
138.071300 4266732.500000
139.066500 4866328.000000
140.049500 244919.300000
140.074400 213644.300000
141.057100 904611.200000
142.052600 1108660.900000
142.065100 5327647.000000
143.060400 3845143.000000
143.072700 1373503.400000
144.055700 830523.300000
144.068300 584080.300000
144.080700 2300909.500000
145.064600 244088.500000
145.076000 932947.500000
146.040100 2943962.800000
146.083600 229899.600000
147.047800 2223245.000000
147.091800 358881.500000
148.055600 74979040.000000
149.050900 11969180.000000
149.063500 10541107.000000
150.058700 4903152.000000
150.071300 9932286.000000
151.066500 19855226.000000
151.079100 1003687.900000
152.050500 1459622.500000
152.074300 6955210.000000
153.082100 8944704.000000
154.040000 204720.000000
154.065100 2161548.500000
154.089900 202659.800000
155.060200 1274709.500000
156.068000 3507710.800000
156.080600 293896.600000
157.076000 3065102.800000
158.083900 620256.100000
159.091600 1163978.400000
160.042900 176296.300000
160.055800 678519.100000
160.075800 354359.100000
161.051100 933564.400000
161.063400 5119553.500000
162.046600 1210717.100000
162.059500 1979179.600000
162.071200 15405426.000000
163.066500 21247856.000000
163.079100 2174980.800000
164.050600 1106371.900000
164.074400 3310094.500000
164.086400 1038494.800000
165.082200 21538344.000000
166.089900 971940.600000
167.097900 1515993.600000
168.068100 1142262.600000
169.075900 14920081.000000
170.083900 1988822.800000
170.095800 180502.300000
171.091500 3452767.200000
172.055500 4987254.000000
173.050900 727984.000000
173.063500 359675.200000
174.058700 19856464.000000
174.071200 1168016.100000
175.066500 3423979.500000
176.074500 3010020.500000
176.087100 581182.100000
177.082100 10132408.000000
178.090000 1475943.900000
179.037800 363483.600000
179.061400 3226755.000000
179.097700 3526263.800000
180.081600 1221864.400000
181.077400 1765867.900000
181.089500 2660342.800000
182.083900 590009.700000
183.091600 606757.200000
185.107500 1035079.400000
187.066500 5186015.500000
188.074300 1324999.000000
189.082200 9855553.000000
190.090000 1638709.100000
191.097800 11238465.000000
192.082000 206187.200000
192.105200 268341.100000
194.084100 167169.800000
195.092600 6936539.000000
196.064200 192492.100000
196.100400 2988491.000000
197.071900 842058.400000
197.107600 937742.500000
201.082200 888958.800000
203.098000 294012.200000
205.077100 823722.100000
205.114400 224077.900000
207.092500 246527.800000
208.112700 151178.000000
209.108600 2083058.600000
210.112100 188215.400000
215.118100 1722261.900000
221.108200 227254.600000
223.124000 250190.800000
235.124200 333450.200000
238.098500 341802.900000
251.106500 218931.200000
252.114600 282433.900000

>ms2peaks
56.049500 14800585.000000
60.044400 1096629.500000
65.038600 734864.100000
68.049400 207182.800000
72.044400 327867.500000
75.022900 673116.200000
77.038600 579860.900000
78.033800 246671.500000
79.029200 258830.300000
79.054200 206101.200000
80.049500 151432.000000
83.029100 2067212.100000
84.037000 540226.000000
84.044400 1296101.200000
85.052200 208522.600000
89.038500 3034387.000000
90.033800 827711.600000
91.054100 2754197.200000
92.049400 1116341.800000
95.049100 1866056.200000
96.036900 1096501.500000
96.044300 903703.800000
97.044800 2212673.000000
98.039900 1224938.500000
103.054200 3201155.200000
104.049500 3435777.500000
105.044500 1180553.100000
105.057300 179734.800000
106.065100 1502365.400000
107.029100 2701094.500000
108.024300 677874.400000
108.036900 3098518.000000
109.032200 1336889.100000
109.044800 10655289.000000
110.039900 2656708.800000
110.052600 3129033.000000
111.047800 8387111.500000
112.055800 1244985.500000
113.039700 776676.300000
115.054100 10898598.000000
116.049400 5676074.000000
117.044700 880331.200000
117.057200 8977913.000000
118.065000 4563780.000000
119.072900 167346.600000
120.037000 223898.900000
121.044800 876189.900000
122.040000 11390348.000000
122.052400 1049578.500000
123.035400 674998.100000
123.047700 8257407.000000
123.060100 1035704.500000
124.055600 12557746.000000
125.050900 5519822.500000
125.063400 1143391.600000
126.034000 182814.200000
126.058800 807932.900000
126.071200 336082.600000
128.049500 2913198.000000
129.044600 1823682.600000
129.057300 2004123.800000
130.065100 7216461.500000
131.060300 4329937.500000
131.072800 724649.200000
132.044200 567987.500000
132.068000 2014724.100000
132.080800 620077.900000
133.044700 1352388.100000
133.052300 208123.300000
133.075900 1745143.500000
134.039900 2480869.200000
134.059900 6266720.000000
135.047800 51406256.000000
136.055600 27826020.000000
137.050900 10017859.000000
137.063400 14106238.000000
138.058700 3641097.800000
138.071300 4400312.500000
139.066500 3938555.000000
140.026900 303360.900000
140.049600 1124321.800000
141.057200 1985955.100000
142.052600 2221184.800000
142.065100 5911227.000000
143.060400 2934274.800000
143.072900 2106087.000000
144.044500 210210.100000
144.055800 841228.600000
144.068300 771775.900000
144.080700 1626688.800000
145.044400 204840.700000
145.064500 148651.400000
145.076100 1308157.800000
146.039900 3458406.500000
146.052300 210319.200000
146.060000 839661.500000
147.047900 4912033.000000
148.055600 84419632.000000
149.050900 8585985.000000
149.063600 5655635.500000
150.058800 6060749.000000
150.071300 9737059.000000
151.066500 15122354.000000
151.079200 825690.300000
152.050400 1937348.400000
152.074300 5780728.500000
153.058300 177999.000000
153.082100 3090257.500000
154.040000 971828.200000
154.065000 1408576.500000
155.037500 616041.700000
155.060300 1658084.800000
155.072800 174796.800000
156.068100 4057713.200000
157.075900 2449710.200000
158.084000 153202.200000
159.091800 735206.100000
160.043200 145014.500000
160.055500 1736221.400000
160.075800 246642.100000
161.051000 958829.900000
161.063400 6578837.000000
162.046300 1473216.600000
162.058900 2597589.500000
162.071200 9488385.000000
163.066500 12886432.000000
163.078800 678076.200000
164.050400 1425059.400000
164.074300 1752653.400000
164.086900 682433.400000
165.082200 13185954.000000
166.090200 764845.100000
167.061000 246885.200000
167.097700 805315.100000
168.068100 2495878.200000
169.075900 10976243.000000
170.083800 957484.900000
171.091400 1730662.100000
172.055600 3648290.500000
173.051000 2681230.500000
173.063500 588734.100000
174.058700 14777757.000000
174.071400 1231927.100000
175.066600 3887936.000000
176.074700 1791971.100000
176.086600 211251.200000
177.082200 6189581.500000
178.090100 751750.800000
179.037500 1077803.100000
179.061500 2139395.500000
179.097900 1212769.100000
180.081700 311850.800000
181.077000 1320690.400000
181.089700 325253.800000
183.091600 670612.700000
187.066600 5532932.500000
188.074500 553808.600000
188.086900 187633.300000
189.082200 6221027.500000
190.089800 285531.900000
191.097600 2703185.500000
195.092500 1835334.400000
196.100400 357425.200000
201.081900 951109.100000
203.097800 251805.600000
209.108300 212198.400000
215.118000 259774.000000

