>compound EQ02815714
>parentmass 329.153
>ionization [M+H]+
>formula C15H24N2O4S
>rt 156.000000
>profile orbitrap
#smiles_iso CCN(CC)CCNC(=O)C1=C(C=CC(=C1)S(=O)(=O)C)OC
#smiles_can CCN(CC)CCNC(=O)C1=C(C=CC(=C1)S(=O)(=O)C)OC
#inchikey JTVPZMFULRWINT-UHFFFAOYSA-N
#pubchem_id 5467
#mb_accession EQ302801,EQ302802,EQ302803,EQ302804,EQ302805,EQ302806

>ms2peaks
74.096400 1303558.900000
212.037900 333536.200000
250.166300 893047.200000
256.063700 32225162.700000
329.152800 308102434.800000

>ms2peaks
74.096400 6986006.000000
100.112000 3272021.200000
212.037600 1598898.000000
213.021600 4229363.400000
241.039700 465677.500000
256.063700 254917963.800000
329.152800 53451054.900000

>ms2peaks
72.080700 636976.300000
74.096400 5470821.100000
100.112000 5868683.700000
133.052100 3082185.000000
134.060000 1161660.800000
177.078000 5150804.800000
185.026700 557084.000000
209.068300 1951545.400000
212.037500 32534543.000000
213.021500 48135663.100000
226.017100 432497.000000
230.048000 2243174.400000
241.040200 3536312.200000
256.063700 229939270.300000
329.153400 527869.200000

>ms2peaks
72.080700 878606.200000
74.096400 3613992.200000
76.030500 155212.200000
78.046400 442642.700000
78.984800 176872.600000
100.112000 5042661.200000
104.049500 406479.100000
105.057200 583898.100000
106.041200 185141.500000
107.049100 155745.200000
123.007400 305875.700000
132.044300 624810.100000
133.052200 8768003.100000
134.036000 2418998.700000
134.060000 3227159.900000
148.075700 346403.200000
162.054800 951296.600000
165.042200 123403.800000
166.025900 1032527.100000
177.078300 12360417.500000
178.049600 777802.400000
180.065800 413713.900000
183.022000 643767.800000
185.026600 2099508.800000
197.013600 108286.300000
209.068300 6008757.200000
212.037600 47425883.000000
213.021400 93564990.700000
226.016700 2313559.300000
230.048100 3427080.600000
241.040100 6753422.800000
256.063700 106258492.300000

>ms2peaks
65.038600 1230858.400000
66.046400 127211.700000
67.054200 327322.100000
72.080700 2016387.600000
74.096300 2584956.300000
77.038500 120444.700000
78.046300 2719334.900000
78.984800 1383246.200000
79.054100 771729.400000
81.033500 299699.800000
86.096400 349012.400000
91.054200 730113.400000
93.033600 106194.000000
94.041300 808687.500000
95.049100 681334.500000
99.026300 301132.500000
100.112000 3540540.400000
104.049500 1399923.700000
105.033500 1020092.800000
105.057200 3590479.000000
106.041200 1554604.600000
106.065000 394158.500000
107.012700 430492.400000
107.049100 1703268.800000
108.020500 313106.600000
109.010500 1018912.800000
109.028400 177290.700000
110.018300 148554.000000
121.064600 372557.300000
122.023500 516891.900000
122.036000 947257.900000
123.007600 1674270.900000
123.043900 831505.300000
124.051600 536425.800000
132.044300 1429990.000000
133.052100 25199984.100000
134.036100 12719386.300000
134.059900 5644308.400000
136.039500 138459.100000
137.023400 414072.700000
148.039200 174092.500000
148.075500 698254.000000
150.031100 459149.000000
153.000300 139597.100000
154.008100 189096.000000
154.979500 357443.000000
162.054800 5657558.700000
165.042000 1789385.500000
166.025900 8201513.600000
170.003000 323464.300000
173.026400 1137888.000000
177.078300 23300671.600000
178.049700 4479821.400000
180.065400 638926.900000
181.990300 357276.700000
183.022300 3424654.300000
185.026600 4902470.700000
197.013800 325513.600000
209.068200 12724552.900000
212.037500 31548830.500000
213.021400 104046337.100000
216.008600 443438.800000
226.016700 4040488.000000
230.048000 2277580.000000
241.040100 5947148.200000
256.063600 19327318.600000

>ms2peaks
62.990000 164755.900000
65.038500 4224787.000000
66.046400 798945.800000
67.054200 558829.600000
72.080700 2376800.100000
74.096300 1376474.000000
76.030600 2097792.900000
77.038500 477668.600000
78.046400 10536800.100000
78.984700 1930914.800000
79.017900 580561.300000
79.041700 536546.200000
79.054100 2236290.400000
81.033400 995549.500000
86.096500 141998.400000
91.054100 1566416.100000
93.033300 336765.800000
94.041300 1741402.100000
95.049100 2239230.700000
99.026300 546160.400000
100.112000 2224844.200000
104.025600 967424.801900
104.049400 4759431.000000
105.033400 3195556.100000
105.057200 8634349.000000
106.041300 3443351.800000
106.065100 1129647.100000
107.012700 1116650.900000
107.049100 2849799.800000
108.020600 403785.400000
109.010600 2244672.200000
109.028300 1069691.200000
110.018400 598595.100000
110.036300 97341.200000
120.044300 294810.100000
121.064800 296487.300000
122.023500 995441.700000
122.036200 1465286.000000
123.007500 3991090.500000
123.043900 893826.800000
124.051700 789170.000000
125.005500 320340.200000
132.044400 2056196.200000
133.052200 26682938.900000
134.036100 26000053.300000
134.059900 4985043.400000
135.043800 142612.700000
136.039200 654499.100000
137.023300 1335607.300000
141.018300 143947.100000
148.039200 139351.300000
148.075700 987077.900000
149.046900 98623.000000
150.031000 573047.900000
153.000600 332671.000000
153.018100 701874.100000
154.008200 361676.400000
154.979600 1365053.200000
162.054800 11058552.800000
165.042000 4825207.400000
166.026000 19520651.400000
170.003100 1089688.100000
173.026600 1608033.300000
177.078300 20280447.200000
178.049700 6843042.000000
180.065500 489572.300000
181.990500 989468.200000
183.022200 3498434.400000
185.026600 3265608.800000
197.014600 77737.800000
209.068100 12363286.600000
212.037500 8000360.900000
213.021400 51232925.200000
216.008700 667208.100000
226.016800 1919352.800000
230.048200 434502.500000
241.040300 1632115.300000
256.064100 1327032.800000

