>compound EQ02508409
>parentmass 452.1928
>ionization [M+H]+
>formula C23H25N5O5
>rt 432.000000
>profile orbitrap
#smiles_iso COC1=C(C=C2C(=C1)C(=NC(=N2)N3CCN(CC3)C(=O)C4COC5=CC=CC=C5O4)N)OC
#smiles_can COC1=C(C=C2C(=C1)C(=NC(=N2)N3CCN(CC3)C(=O)C4COC5=CC=CC=C5O4)N)OC
#inchikey RUZYUOTYCVRMRZ-UHFFFAOYSA-N
#pubchem_id 3157
#mb_accession EQ329301,EQ329302,EQ329303,EQ329304,EQ329305,EQ329306

>ms2peaks
344.172000 5466729.500000
452.193000 1481673856.000000

>ms2peaks
98.060100 2526782.200000
135.044100 2700324.000000
206.081500 2024294.000000
221.103300 3618363.200000
233.103600 3430161.800000
247.119200 30737302.000000
288.145600 3890102.500000
290.161400 36877724.000000
301.129400 1915671.600000
326.161500 2948828.200000
344.172000 244833824.000000
434.182100 1285908.100000
436.160600 1370669.100000
437.168700 4132604.800000
452.193000 1062669952.000000

>ms2peaks
55.018000 1033531.800000
70.065200 3861140.000000
79.054300 1041904.200000
82.065200 1936402.900000
98.060100 45424360.000000
107.049300 3838231.800000
123.091800 989814.600000
124.075800 12294153.000000
135.044100 23322684.000000
141.101800 906938.300000
163.039200 3200505.200000
203.092800 2528866.000000
204.077000 1415788.000000
205.071800 2223650.000000
206.081300 5853881.500000
217.072400 1027593.600000
219.087500 1241908.900000
220.095800 8965384.000000
221.103600 43416744.000000
222.087300 2061735.500000
231.087700 13934206.000000
232.095800 15681655.000000
233.103600 24429186.000000
234.111800 644908.200000
245.103500 8534921.000000
246.111500 1571111.600000
247.119300 257390464.000000
257.103700 1149083.400000
259.119000 2748790.800000
271.118900 1436830.400000
273.134700 5944952.000000
274.129900 4906802.000000
275.114600 3645491.500000
275.137500 1164244.800000
282.135400 1414998.500000
288.145900 25223952.000000
290.161400 134456352.000000
300.145700 5040227.500000
301.129900 20180682.000000
302.161900 2575796.200000
310.130200 10168142.000000
311.138100 4160791.800000
314.161100 1120694.400000
324.145200 1916807.800000
326.161500 41140188.000000
328.140800 13137530.000000
329.148600 11579663.000000
344.172100 541808448.000000
408.167400 1460583.100000
434.183100 935447.100000
436.161900 10579500.000000
437.169200 3974425.000000
452.193200 84274808.000000

>ms2peaks
55.017900 4445355.000000
56.049600 595009.700000
65.038700 440295.400000
68.049500 443820.600000
69.033600 1957051.400000
70.065200 10635076.000000
71.060400 328669.700000
79.054300 5294561.500000
80.049600 1997011.000000
81.033600 396682.600000
81.057500 507960.300000
82.065200 6509164.500000
85.076000 345080.200000
87.091800 1235686.900000
94.065200 366843.300000
95.049200 2743788.500000
96.044400 611718.800000
96.080800 3006429.500000
98.060100 66414096.000000
105.044800 363238.700000
106.065500 256942.000000
107.049300 7906494.500000
109.028500 373483.900000
121.028400 546714.200000
123.091800 298576.600000
124.075800 15163748.000000
135.044200 24150650.000000
141.102000 301825.900000
163.039400 2972266.000000
174.090400 339044.500000
177.065800 1603328.900000
177.077100 1906923.400000
186.066100 291773.300000
186.090200 1555558.200000
189.066200 291526.200000
189.077000 1076449.000000
191.081700 1619317.000000
201.077200 1311511.900000
202.085000 3136582.200000
203.092900 21925148.000000
204.077100 8279633.500000
205.072300 16019710.000000
205.097400 1532517.100000
206.080300 7438993.500000
206.092000 538524.600000
214.061500 329193.200000
214.085700 293734.000000
215.093100 361238.800000
217.072500 4445147.500000
218.080400 1660505.400000
219.088700 2140614.500000
220.095900 9545507.000000
221.103600 68750944.000000
222.087400 3489748.800000
229.072200 3633418.800000
229.108600 1252197.400000
230.080400 1499372.100000
230.092400 1037928.900000
231.088000 84254792.000000
232.095800 47790484.000000
233.103600 38734336.000000
234.111500 1320204.800000
243.088100 2108246.200000
244.096000 1050171.800000
244.119200 554818.900000
245.103700 19696330.000000
246.111900 365025.000000
246.135200 2371365.000000
247.119300 232920688.000000
253.132500 1690587.100000
255.087800 508649.500000
256.094400 295128.100000
257.103600 5787271.000000
258.099300 325396.100000
258.111500 1726626.500000
259.119400 8281155.500000
260.114500 2223387.800000
261.122300 331817.300000
271.119000 2546831.800000
272.114400 2853571.200000
273.122000 1027662.400000
273.134900 5404008.000000
274.130200 11307465.000000
275.114200 958351.900000
275.137800 1952410.500000
281.127800 2419048.800000
282.135300 5220642.500000
283.142300 428514.900000
284.114700 465706.400000
285.098000 1896824.900000
286.107900 300342.500000
286.129400 420541.000000
287.138100 1170418.200000
288.145900 12976925.000000
290.161500 56767312.000000
296.114200 2386497.800000
299.137800 1715823.600000
300.145700 5191977.000000
301.130000 6861629.000000
302.162200 473872.900000
308.114100 311168.000000
310.130200 39504916.000000
311.138100 2985844.200000
314.125100 298938.700000
324.144900 473403.000000
326.161600 14616984.000000
328.140800 32315946.000000
329.148800 5024422.500000
342.156200 316683.700000
344.172100 45440992.000000
436.163400 2834992.800000

>ms2peaks
53.038800 280259.000000
54.033900 254156.200000
55.018000 9745482.000000
56.049600 1841954.400000
65.038500 304034.400000
67.054300 546338.600000
68.049500 2072157.800000
69.033600 1899415.200000
70.065200 9658330.000000
71.060400 342475.200000
77.038600 972088.900000
79.054300 6935111.500000
80.049500 2345086.800000
81.033500 1983964.900000
81.057300 939055.800000
82.065200 6127027.500000
85.076200 415861.500000
87.091800 917433.000000
94.065200 1563461.400000
95.049300 4767872.500000
96.044500 376610.300000
96.080700 2193019.800000
98.060100 45025624.000000
105.044800 1520975.000000
106.052600 297529.800000
107.049300 6140424.000000
109.028500 500341.700000
121.028400 595521.500000
122.060100 250121.000000
124.075800 5594612.500000
135.044200 14803993.000000
135.055200 1206106.600000
146.023200 319413.500000
147.031700 459262.900000
147.055400 1389594.000000
150.055200 1064907.600000
159.055700 289365.400000
160.051100 529007.100000
160.074200 275921.000000
161.071100 1605321.200000
161.082200 342381.500000
163.039100 1477867.400000
163.050400 605904.600000
173.082600 354353.800000
174.090200 6032212.000000
175.050700 368726.100000
175.061700 1143433.000000
175.097700 498776.200000
176.069600 1116301.900000
177.066000 5880873.000000
177.077300 6399202.000000
178.061200 588442.900000
179.081500 500476.600000
185.082300 557422.800000
186.066500 1509578.200000
186.090300 3573858.800000
187.050500 286768.400000
187.097700 842703.600000
188.045700 1010313.400000
188.069700 369160.500000
189.066000 3103846.800000
189.077300 2536894.500000
190.061600 2521713.800000
190.073800 568184.200000
191.081600 4212966.000000
201.077300 3504852.500000
202.085000 5743993.500000
203.092900 42733784.000000
204.077100 15884922.000000
205.072300 35128124.000000
206.056300 1036596.500000
206.080100 9341855.000000
206.092000 474323.500000
213.077500 460216.900000
214.061100 1584379.800000
214.084700 389079.600000
215.092700 1983794.600000
216.077300 557344.900000
216.087800 374781.500000
217.072300 11622921.000000
218.080200 7131028.500000
219.087900 3781755.000000
220.095800 2647400.500000
221.103600 30905768.000000
222.087500 2371053.800000
227.093200 474832.900000
229.072400 10004606.000000
229.108600 1734880.600000
230.079900 1803021.100000
230.091300 777216.600000
231.088000 174426624.000000
232.095800 33255422.000000
233.103500 32065656.000000
234.111900 441360.400000
243.088100 4515500.000000
244.083300 539369.600000
244.096100 1181822.100000
244.119800 1490791.800000
245.103700 13163661.000000
246.135100 2076675.400000
247.119300 67823808.000000
253.132100 2281531.800000
255.087800 1532119.000000
257.103700 7574530.000000
258.099300 319980.500000
258.111100 288807.500000
259.119300 5224311.000000
260.114100 1269388.600000
271.119000 391182.300000
272.114700 4795037.000000
273.134900 1212052.800000
274.130200 9818852.000000
275.138000 462645.800000
281.127500 349196.800000
282.135000 3667744.200000
284.116000 293541.800000
285.098300 587723.800000
288.146000 1455765.000000
290.161200 3931571.800000
300.145800 1233321.900000
308.114800 585266.600000
310.130200 28382800.000000
328.140900 9013477.000000

>ms2peaks
53.038700 351931.400000
54.034000 196000.700000
55.018000 12975121.000000
56.049600 2728543.200000
57.044800 280374.800000
65.038600 1560874.000000
67.041700 320117.300000
67.054300 262927.800000
68.049600 3017220.500000
69.033600 1462791.800000
69.044800 541753.100000
70.065200 9167934.000000
71.012800 449250.400000
71.060400 458901.600000
77.038700 2143617.200000
79.054300 8249004.500000
80.049500 2583510.800000
81.033500 3726352.000000
81.057300 1001682.400000
82.065200 5676575.500000
85.076100 1068132.500000
87.091800 908473.800000
90.033700 301305.000000
91.041700 518254.400000
94.065200 1381275.500000
95.049200 7265467.000000
96.044400 1491668.600000
96.080800 1227815.100000
98.060100 26364884.000000
105.044800 4806222.500000
106.052700 4266563.000000
106.065200 403041.800000
107.049300 4771550.000000
109.028500 1635433.500000
118.052600 296560.000000
119.036700 477626.200000
120.044600 421145.900000
120.055700 361667.800000
121.028400 894356.200000
121.076000 555025.900000
122.060100 266691.800000
123.091600 497663.800000
124.075800 2206484.800000
131.048200 260696.500000
131.060500 341382.000000
132.068100 883409.400000
133.039700 3466090.200000
133.063500 538667.500000
133.076000 394177.400000
134.047500 448044.400000
134.060000 500106.200000
135.044200 8313037.500000
135.055400 3889060.000000
144.055900 334239.200000
145.039700 305417.800000
146.023500 383482.900000
147.031600 1773605.900000
147.055500 4608414.500000
147.066800 1472023.600000
148.039600 366883.200000
148.074600 1046603.200000
149.071100 554845.900000
149.082300 343752.800000
150.055100 4780647.000000
158.071600 571876.300000
159.055700 1788711.100000
159.066500 1053679.000000
160.050700 6238089.000000
160.074400 1711915.000000
161.034900 2575517.200000
161.058400 281999.600000
161.071100 5544541.000000
161.081900 520798.700000
162.042500 545765.900000
162.053900 428929.900000
162.066300 1040041.600000
163.039200 304262.000000
163.050200 1430087.600000
172.074600 1063907.900000
173.034700 940521.600000
173.058700 519410.000000
173.082600 1799505.200000
174.066200 1154636.200000
174.090200 16899744.000000
175.050500 2928432.200000
175.061700 2762393.000000
175.098000 975114.100000
176.058100 1548765.600000
176.069500 1935152.500000
176.081700 603577.300000
177.066000 15414654.000000
177.077200 8862671.000000
178.061500 2072307.100000
184.050600 272993.300000
185.082400 5474136.500000
186.066500 3930530.800000
186.090200 6156245.000000
187.050600 1944450.100000
187.098000 1291000.000000
188.045600 9430245.000000
188.069700 1014223.200000
189.053900 771751.300000
189.066100 9463155.000000
189.077200 7801137.000000
190.061400 5206038.500000
190.074100 315431.700000
190.084900 518075.600000
191.081700 6404898.500000
191.091600 413665.800000
199.098200 288649.300000
200.070000 883035.100000
200.106000 448292.200000
201.077200 6074965.500000
202.061200 462082.300000
202.085100 5438116.000000
203.092800 40711036.000000
204.077100 20717258.000000
205.072300 45693280.000000
206.056300 4122046.500000
206.080200 6227491.500000
206.092700 357954.400000
211.097800 565794.800000
212.045000 333441.400000
213.077900 408179.900000
214.061300 3706788.800000
214.085000 451787.800000
215.056600 340219.300000
215.092800 2710999.800000
216.077400 576811.000000
216.089000 460308.300000
217.072300 23847856.000000
218.080200 8746144.000000
219.088000 2318336.200000
221.103600 9395360.000000
222.087500 1223987.600000
227.056700 1083123.000000
227.092900 1150399.400000
229.072300 19508378.000000
229.109100 1442617.400000
230.080200 1558730.400000
230.091400 283077.800000
231.087900 194989584.000000
232.095800 10644964.000000
233.103500 14313663.000000
243.088000 6499570.000000
244.083500 2359082.500000
244.094700 392813.900000
244.119600 487424.600000
245.103500 7119418.000000
247.082900 2101896.000000
247.119300 11414872.000000
252.124800 1346019.400000
253.132400 1738453.800000
255.087700 2041719.900000
256.083500 487902.500000
257.103600 8343376.500000
258.099000 316517.300000
259.120000 2221127.200000
267.087900 332186.800000
272.114800 2436576.000000
274.130200 3744193.500000
282.135000 1136955.200000
285.098600 306124.200000
308.114100 320551.900000
310.130100 9142724.000000
328.141900 997773.100000

