>compound EQ02275137
>parentmass 251.16419999999997
>ionization [M+H]+
>formula C15H22O3
>rt 894.000000
>profile orbitrap
#smiles_iso CC1=CC(=C(C=C1)C)OCCCC(C)(C)C(=O)O
#smiles_can CC1=CC(=C(C=C1)C)OCCCC(C)(C)C(=O)O
#inchikey HEMJJKBWTPKOJG-UHFFFAOYSA-N
#pubchem_id 3463
#mb_accession EQ307101,EQ307102,EQ307103,EQ307104,EQ307105,EQ307106

>ms2peaks
53.038600 56018.800000
55.054300 537523.100000
57.033600 15440.900000
57.069900 187102.800000
59.049200 290492.200000
69.069900 19297.900000
71.049100 90394.000000
73.064800 184196.100000
83.085500 10688844.000000
87.044100 15431.100000
101.096100 84296.400000
111.080400 63922.900000
123.080400 2335738.000000
129.091000 13352077.300000
135.080300 109348.600000
161.096200 197039.800000
191.179500 21418.700000
205.158800 1315103.800000
233.153600 986077.300000

>ms2peaks
53.038700 62771.800000
55.054300 818816.000000
57.033500 23477.400000
57.069900 420237.300000
59.049200 568082.900000
69.069900 144706.200000
71.049100 253423.000000
73.064800 577859.300000
83.085500 9690054.300000
87.044100 86710.900000
95.085600 19061.100000
101.096200 222457.800000
105.070100 11929.100000
108.057100 21640.300000
111.080400 138476.800000
123.080400 2560838.600000
129.091000 10435780.700000
135.080500 89700.100000
161.096100 295261.400000
191.179700 24074.800000
205.159000 109388.400000
233.153900 21363.100000

>ms2peaks
53.038700 80168.300000
55.054300 1565394.300000
57.033600 78823.400000
57.069900 792342.100000
59.049200 854226.200000
67.054200 28883.800000
69.033500 15995.700000
69.069900 256051.000000
71.049100 269433.800000
73.064800 1352212.600000
79.054300 17910.300000
81.070000 15990.600000
83.085500 5112038.300000
87.044100 172394.900000
93.070000 27110.200000
95.085600 132853.900000
101.096100 145812.200000
105.070000 25116.900000
107.049100 13770.600000
108.057000 68124.800000
111.080500 159337.800000
119.085700 14051.900000
121.064800 16848.300000
123.080400 1982589.500000
129.091000 3260902.500000
133.101400 62372.600000
135.080500 59686.200000
161.096200 150855.400000

>ms2peaks
53.038700 135020.000000
55.054300 2252141.400000
57.069900 862435.900000
59.049200 1245330.100000
67.054300 68185.100000
69.033600 54440.300000
69.069900 269807.400000
71.049100 243267.800000
73.064800 1875584.800000
79.054200 25233.400000
81.069900 17216.100000
83.085500 4178339.600000
87.044100 248987.400000
91.054100 17510.200000
93.069900 46853.200000
95.049100 20292.500000
95.085600 241349.000000
101.096200 124929.500000
105.070000 145897.600000
107.049400 23083.600000
108.057000 167938.300000
111.080500 161633.700000
119.085400 26813.400000
121.064700 48693.800000
123.080400 1842331.100000
129.091000 1580363.200000
131.085800 18550.500000
133.101100 100751.100000
135.080300 58249.300000
146.072700 45622.500000
161.096100 70708.200000

>ms2peaks
53.002300 53352.000000
53.038700 154330.200000
55.054300 2720291.400000
57.069900 852594.700000
59.049200 1497851.100000
67.054200 135233.400000
69.033500 111544.800000
69.069900 272025.100000
71.049100 138324.900000
73.064800 2081631.000000
79.054200 81618.200000
81.069900 11574.700000
83.085500 2178813.800000
87.044000 233495.200000
91.054200 24721.300000
93.069700 92099.000000
95.049100 61206.200000
95.085500 378055.800000
101.096100 27364.500000
103.054300 16729.400000
105.069900 270931.000000
107.049100 71233.300000
108.057000 501791.700000
111.080400 148089.100000
121.064800 78687.800000
123.080400 1177301.300000
129.091000 361486.800000
131.085400 23575.400000
133.101000 29559.200000
135.080200 39829.300000
146.072700 61118.400000

>ms2peaks
53.002300 93452.900000
53.038700 130116.800000
55.054300 2350495.100000
57.069900 546115.300000
59.049200 1266025.100000
67.054300 142518.600000
69.033500 136870.800000
69.069900 143144.700000
71.049100 23859.200000
73.064800 1116519.100000
79.054200 166718.700000
81.069900 23719.900000
83.085500 737878.800000
87.044100 170723.200000
91.054200 24463.900000
93.069900 64294.100000
95.049300 122183.500000
95.085600 274163.000000
103.054300 25288.300000
105.069900 200777.400000
107.049100 160988.600000
108.057000 629372.100000
111.080600 27866.100000
121.064800 90663.900000
123.080400 492584.400000
129.091000 26803.800000

