>compound EQ02876129
>parentmass 393.2072
>ionization [M+H]+
>formula C22H29FO5
>rt 552.000000
>profile orbitrap
#smiles_iso C[C@H]1C[C@H]2[C@@H]3CCC4=CC(=O)C=C[C@@]4([C@]3([C@H](C[C@@]2([C@]1(C(=O)CO)O)C)O)F)C
#smiles_can CC1CC2C3CCC4=CC(=O)C=CC4(C3(C(CC2(C1(C(=O)CO)O)C)O)F)C
#inchikey UREBDLICKHMUKA-DVTGEIKXSA-N
#pubchem_id 9782
#mb_accession EQ324201,EQ324205

>ms2peaks
77.023300 61862.600000
91.006500 202386.200000
95.049000 417473.300000
95.085300 361967.000000
97.064700 199193.800000
107.085400 666569.300000
109.064800 175721.400000
109.101100 420859.600000
111.080400 148035.000000
113.059600 71893.900000
115.075300 694170.000000
119.085400 272806.600000
121.064600 355926.500000
121.101100 289959.600000
123.080300 599536.800000
123.116600 61294.800000
125.059800 324053.100000
125.096000 199670.900000
131.085600 195717.600000
133.064500 66336.700000
133.101000 249967.400000
135.080200 1048081.400000
137.059600 82733.900000
137.095900 638941.000000
139.075400 53750.500000
145.064600 46132.400000
145.100800 50801.100000
147.080300 3878503.700000
149.096000 837839.800000
151.075300 185511.800000
151.111500 228180.400000
153.090800 1967285.300000
155.070100 253784.600000
159.080300 568591.500000
161.095900 1201375.600000
163.074900 150864.800000
165.090800 285531.200000
167.106500 779550.200000
169.064600 157666.300000
169.085700 393667.800000
171.080100 1890991.900000
173.095800 1691875.400000
175.111600 156940.300000
177.090700 1271919.300000
179.106400 168823.300000
183.080200 66183.400000
185.095900 1647744.700000
187.075100 874796.200000
187.111400 473228.300000
189.090900 152510.200000
191.106600 86425.600000
193.085500 55636.800000
195.101200 829063.800000
197.095600 709129.800000
199.111200 849194.400000
201.090400 93639.700000
201.126900 87169.700000
203.106400 551362.500000
209.095700 152068.300000
211.111500 1094438.200000
213.090400 170252.600000
213.111300 43375.300000
213.127000 770230.900000
215.106400 2068606.000000
221.095700 380436.400000
223.111500 645268.100000
225.127100 870655.000000
227.106000 83687.700000
227.142700 239690.700000
235.111600 837805.800000
237.127100 3039488.100000
239.106300 419258.800000
239.142700 829842.200000
241.121900 285712.500000
241.158100 184153.000000
249.093300 42699.700000
249.127200 253586.500000
251.142800 292044.800000
253.121900 834791.600000
253.158400 700136.800000
255.137500 619642.900000
257.132900 44419.000000
261.126500 386747.000000
262.134700 43079.500000
263.142700 966800.800000
265.122300 92590.500000
265.158200 339095.700000
267.137700 812502.300000
267.174200 385958.100000
269.189900 391133.800000
273.126400 65498.900000
275.142800 1358801.700000
277.121800 176670.500000
277.158400 2811827.700000
278.166300 432949.000000
279.174000 11160427.300000
281.153400 259065.000000
281.189200 510143.000000
283.168300 64505.300000
289.158400 1077772.900000
291.174100 4130221.200000
293.153000 466591.200000
295.133300 496449.800000
295.168800 2679073.600000
296.177300 64630.900000
297.165800 150206.800000
297.184500 1829171.700000
301.158400 2117147.400000
307.168900 2415305.300000
309.184500 5741174.700000
311.163700 4159521.200000
319.169000 8486017.000000
325.179400 2543951.400000
327.175800 130995.300000
327.194900 1743101.400000
337.179500 14822732.000000
339.175200 233319.400000
343.190300 292505.600000
355.190100 38874069.000000
357.185400 270130.300000
373.200700 34044218.500000
375.196800 315207.100000
393.206900 5334094.700000

>ms2peaks
57.033500 45558.800000
59.049200 81568.600000
65.038600 611952.000000
67.054200 2313192.900000
69.033400 601769.300000
69.069900 397912.100000
71.012700 80690.200000
71.049100 163957.800000
77.038600 192204.500000
79.054200 2568194.700000
81.033500 210156.300000
81.069900 992027.900000
83.049100 214427.100000
83.085400 42424.800000
91.054200 8139252.000000
93.069800 2401892.600000
95.049100 2284090.900000
95.085400 1560950.500000
97.064800 214817.800000
103.054200 957634.000000
104.062000 203041.000000
105.044700 337300.800000
105.069800 4645055.200000
106.077800 67105.700000
107.049100 1033962.900000
107.085500 1954205.600000
108.057000 154732.600000
109.064800 913375.700000
109.101100 635292.900000
111.080400 82473.900000
115.054200 2194272.700000
116.061900 809537.100000
117.069800 1816418.500000
118.077600 39853.600000
119.085500 4438265.500000
121.064700 6614133.200000
121.101000 525968.200000
123.080400 627517.500000
125.059600 232754.100000
125.096200 43131.000000
127.053900 72740.300000
128.062000 4577096.200000
129.069800 1865475.200000
130.077700 652282.000000
131.049200 547271.400000
131.085500 1819076.800000
132.056900 1701633.100000
133.064500 437945.100000
133.101100 555050.700000
135.080300 1176257.900000
137.095900 73294.100000
141.069600 1962760.300000
142.077600 1173326.900000
143.085500 2251113.400000
144.057000 1173594.500000
144.093100 84744.700000
145.064700 2795435.500000
145.101100 763302.200000
146.072600 756404.000000
147.080300 5341103.300000
149.095900 177204.500000
151.075600 65669.500000
152.061800 455654.400000
153.069700 602939.900000
154.077400 404274.800000
155.060000 266225.900000
155.085500 1223217.800000
156.056900 417610.900000
156.093200 365085.100000
157.064800 424165.000000
157.101200 353106.800000
158.072500 2138722.000000
159.080300 2454230.100000
160.087800 70820.100000
161.095900 765167.100000
163.075600 77775.600000
165.069700 1222047.700000
166.077500 665077.300000
167.085300 814536.900000
168.056900 87659.400000
168.093200 168990.400000
169.064600 876066.900000
169.101000 409621.000000
170.072400 451876.600000
171.080200 3105191.700000
172.087900 304811.800000
173.096000 695570.900000
175.112400 41316.200000
177.069600 64503.900000
178.077500 1772095.400000
179.085300 2277132.700000
180.093100 604334.400000
181.064700 1141928.500000
181.100900 517442.400000
182.072500 895716.300000
182.109000 53673.800000
183.080500 666196.900000
183.116800 61408.900000
184.088300 254299.300000
185.095900 810089.800000
187.075400 91120.000000
187.112100 45204.400000
189.069700 874192.300000
190.077500 658617.700000
191.085400 924073.300000
192.093200 931043.200000
193.100900 1049736.300000
194.072200 507428.500000
194.108600 464302.700000
195.080000 1452498.900000
195.116500 224161.900000
196.088000 971713.600000
197.095800 990831.500000
198.103700 232054.000000
199.111800 80488.500000
202.077200 508554.400000
203.085100 840256.000000
204.093300 658664.900000
205.064600 293065.700000
205.101000 648001.400000
206.072600 246135.300000
206.108800 474915.700000
207.080300 1117194.400000
207.116900 407712.600000
208.088000 1431128.100000
209.095900 1470340.600000
210.103600 590317.400000
211.111600 356155.800000
212.120000 45011.400000
215.085200 813306.900000
215.106500 48024.800000
216.093300 555327.800000
217.101200 513640.100000
218.072500 222043.400000
218.108900 198522.600000
219.080400 944648.300000
219.116600 303430.700000
220.088100 373104.600000
220.124700 77806.300000
221.095800 1558823.500000
221.132400 261280.000000
222.103600 1318714.400000
223.111600 705929.900000
224.119000 204622.700000
225.090800 40643.800000
225.127600 79121.400000
227.085900 60521.500000
228.092900 355949.900000
229.101000 918078.600000
230.108800 479522.000000
231.080500 573582.000000
231.116800 405219.300000
232.088100 484093.600000
232.125000 62438.400000
233.095900 1294853.900000
234.103800 647847.300000
235.111400 1005828.700000
235.147900 82528.300000
236.119500 197384.000000
237.126900 340976.700000
239.086000 57006.900000
239.142500 49401.800000
241.100700 176394.600000
242.109000 222032.400000
243.116500 537738.300000
244.088300 77997.100000
244.124600 206464.600000
245.096000 699458.400000
245.132100 263309.600000
246.103700 597366.100000
247.111400 1102146.600000
248.119200 844012.100000
249.091700 41421.600000
249.127000 402819.300000
251.143000 88212.300000
256.087900 86588.900000
257.096000 65868.800000
257.132300 50428.700000
258.103800 253357.200000
259.111900 475522.700000
260.119600 63956.800000
261.090800 81306.500000
261.127400 587190.500000
262.135300 213582.000000
263.106600 85215.500000
263.142500 746366.700000
270.104000 41811.600000
271.111700 220158.400000
277.122500 48195.200000
291.137900 40145.600000

