>compound EQ02416447
>parentmass 170.0964
>ionization [M+H]+
>formula C12H11N
>rt 678.000000
>profile orbitrap
#smiles_iso C1=CC=C(C=C1)NC2=CC=CC=C2
#smiles_can C1=CC=C(C=C1)NC2=CC=CC=C2
#inchikey DMBHHRLKUKUOEG-UHFFFAOYSA-N
#pubchem_id 11487
#mb_accession EQ309201,EQ309202,EQ309203,EQ309204,EQ309205,EQ309206

>ms2peaks
65.038500 941354.700000
77.038500 1069915.100000
92.049400 20566009.900000
93.057100 19529434.400000
153.070300 1337573.800000
169.088500 1148514.800000
170.096500 909897463.800000

>ms2peaks
92.049400 22803820.100000
93.057100 24866205.600000
153.070100 1886428.300000
169.088600 1353096.900000
170.096500 933476924.000000

>ms2peaks
65.038500 4055247.800000
66.046400 1086390.800000
77.038300 809201.500000
92.049500 129259166.200000
93.057200 138036968.000000
95.049100 1026199.600000
110.060000 857835.900000
128.062000 1497432.100000
129.070000 688758.600000
143.085600 4569405.800000
152.062200 2305301.700000
153.069900 13207409.300000
155.072800 3930351.500000
168.081000 1622544.200000
169.089200 4202964.300000
170.096400 675270195.600000

>ms2peaks
65.038600 10880457.800000
66.046400 1615204.000000
77.038500 991072.900000
92.049500 200273787.300000
93.057200 282372925.300000
95.049000 2530448.600000
110.060100 1327127.900000
128.062000 4019695.200000
129.069900 1382920.600000
143.085600 6792006.200000
152.062100 7605494.100000
153.069800 21316201.700000
154.065000 1761149.200000
155.072900 5168236.700000
168.081000 2464415.500000
169.065000 815257.100000
169.089100 7452150.500000
170.096400 431758506.200000

>ms2peaks
65.038600 33964563.900000
66.046400 4571392.800000
77.038500 1250111.800000
92.049500 213370124.200000
93.057200 497265994.000000
94.065000 791560.400000
95.049100 6292360.700000
105.044800 1252161.600000
110.060000 1806388.900000
115.054200 1022346.900000
128.062000 6087183.300000
129.069800 1131342.200000
143.085600 5580209.700000
145.064700 816773.800000
152.062100 17161752.700000
153.069800 23200767.900000
154.065000 2725662.000000
155.072900 4868646.400000
168.080800 3349627.400000
169.064900 1318256.100000
169.088800 11357742.200000
170.096300 137500644.400000

>ms2peaks
65.038600 61035206.500000
66.046400 13656468.100000
77.038400 1644883.200000
92.049500 135203440.300000
93.057200 566710637.900000
95.049100 7751104.900000
105.044600 1359019.800000
110.060100 1322370.100000
115.054100 1118508.000000
128.062000 7357517.300000
129.069800 1065369.600000
143.085600 1937360.800000
152.062000 27815231.200000
153.069800 12037316.600000
154.065100 2734310.800000
154.077900 879074.700000
155.060400 1100319.300000
155.073000 1742037.900000
168.080900 4281002.700000
169.064900 2985355.100000
169.088900 8092874.500000
170.096400 30344564.200000

