>compound EQ02233743
>parentmass 368.04660000000007
>ionization [M+H]+
>formula C15H14ClN3O4S
>rt 246.000000
>profile orbitrap
#smiles_iso C1C(=C(N2[C@H](S1)[C@@H](C2=O)NC(=O)[C@@H](C3=CC=CC=C3)N)C(=O)O)Cl
#smiles_can C1C(=C(N2C(S1)C(C2=O)NC(=O)C(C3=CC=CC=C3)N)C(=O)O)Cl
#inchikey QYIYFLOTGYLRGG-GPCCPHFNSA-N
#pubchem_id 51039
#mb_accession EQ306901,EQ306902,EQ306903,EQ306904,EQ306905,EQ306906

>ms2peaks
79.054200 61973.400000
91.053900 268467.800000
106.065100 30606924.700000
114.000700 614304.700000
118.040900 261759.100000
118.064900 274966.800000
119.049100 150178.300000
121.010600 171626.800000
127.032400 158701.300000
128.049200 69766.500000
134.000200 162901.000000
134.060300 154302.800000
144.011500 330621.900000
145.982500 81080.600000
146.060000 360374.400000
159.979500 223593.000000
160.993900 52278.000000
161.070900 379213.900000
162.037200 76611.100000
163.086700 148373.600000
164.052900 459537.000000
174.055000 47453869.300000
177.972300 6295403.900000
178.032000 1243240.000000
189.972200 254815.200000
190.032000 66392.200000
190.097500 375748.700000
191.039900 5569173.700000
191.081500 3240432.943000
192.047700 10711896.800000
200.053000 119850.100000
201.006100 152726.900000
205.991300 474026.400000
207.058700 250687.500000
215.063600 203887.100000
218.027100 52738.200000
225.048200 368670.000000
232.978300 680080.400000
243.058500 634460.200000
251.040400 147107.400000
259.053600 144227.400000
260.085300 1371095.458000
277.020600 160371.000000
279.035800 262129.200000
295.030700 138595.700000
305.014700 235295.500000
305.998300 193991.400000
307.030500 179143.600000
323.025400 1313068.800000
351.019900 738571.300000

>ms2peaks
70.028700 269445.000000
72.998100 56955.700000
74.005900 322724.200000
79.054200 793330.800000
86.005800 208530.100000
87.994900 656712.300000
90.046400 75815.000000
91.054200 1666662.600000
102.010600 51710.100000
106.065100 46185969.000000
114.000800 4575868.100000
117.057200 152646.300000
118.041300 3787465.800000
118.065100 2760958.900000
119.049100 981008.900000
120.080800 47064.500000
121.010500 334220.500000
123.026100 357941.200000
127.032500 326072.000000
129.021400 352429.800000
132.080800 80837.900000
133.076100 62013.700000
134.000400 307772.400000
134.060000 364276.400000
137.041900 70797.200000
144.011300 171685.800000
145.982700 171744.800000
146.060100 1836899.500000
147.026300 221277.400000
150.037300 1387183.600000
155.000500 204156.700000
156.080800 54250.700000
157.016400 61675.500000
158.060100 214209.300000
159.979600 596752.200000
160.993500 220302.700000
161.071000 233904.400000
162.037200 880609.300000
163.045000 283888.000000
163.086600 52298.900000
164.052800 2722444.300000
174.055000 31970696.000000
177.972400 6944899.700000
178.032100 3295626.200000
189.972300 520521.300000
190.032100 527403.700000
190.097300 166577.400000
191.039900 14437266.400000
192.047700 7877626.500000
198.037300 57861.400000
200.053000 148262.300000
201.006100 182106.300000
204.983100 315658.200000
205.991300 742719.400000
207.058600 143032.000000
213.047900 57881.500000
215.063500 780282.900000
218.027000 88581.700000
225.048000 210240.200000
226.031700 141933.800000
232.978300 260806.100000
243.058500 357193.300000
249.024600 85315.300000
251.040800 139564.300000
259.053500 146881.900000
277.019700 342950.500000
279.035000 135199.700000
295.030100 220448.700000
305.014600 311446.400000
305.998500 83730.900000
307.030100 444848.700000
323.025800 364896.200000
351.019700 57006.800000

>ms2peaks
58.995100 170049.500000
66.046500 80904.500000
70.028700 731741.700000
72.998100 439017.200000
74.005900 1144451.000000
77.038500 69942.000000
79.054200 3338041.000000
86.005900 954233.500000
87.994800 1699694.200000
89.038300 68598.900000
90.010500 57380.000000
90.046300 380730.400000
91.054200 5070401.300000
93.044700 52742.800000
95.049100 152071.600000
100.021600 57004.100000
102.010500 89024.100000
103.054300 324207.200000
106.065200 46500433.300000
114.000800 7241611.300000
115.054200 174479.400000
117.057300 1890108.200000
118.041300 16576580.900000
118.065000 11406182.700000
119.049100 1837041.400000
120.080500 50984.900000
121.010500 975307.400000
123.026300 1314941.700000
125.016700 73101.800000
127.032400 186451.100000
128.049300 153634.500000
129.021400 492790.800000
130.065200 599485.900000
131.049300 63844.300000
131.072800 79810.100000
132.044500 72257.100000
132.080700 194793.300000
133.075900 52817.100000
134.000400 77000.300000
134.060100 349492.000000
135.026400 195123.400000
137.042300 256776.700000
143.967000 60195.000000
146.060100 3926106.000000
147.026300 862612.100000
150.037300 3519257.500000
155.000700 62548.800000
156.080800 82756.300000
157.016600 62363.200000
158.000300 289411.700000
158.060200 568322.000000
159.067800 83544.800000
159.961900 70853.200000
159.979700 204299.700000
160.993300 325226.800000
162.037200 1327923.200000
163.045000 205137.600000
164.052900 2407465.100000
171.961800 161390.300000
174.037900 985156.400000
174.055000 10633190.100000
177.972400 6265773.800000
178.032200 1355486.900000
181.075900 77217.700000
182.084200 139268.000000
188.052900 69962.700000
189.972400 224675.800000
190.032200 364279.000000
191.040000 5433491.200000
192.047800 1176915.100000
198.037000 174193.000000
204.983500 198083.300000
205.991200 171711.100000
209.070900 51197.400000
213.048300 60302.000000
215.064200 349262.000000
226.031800 77433.900000
249.024900 72136.400000
307.029800 81449.900000

>ms2peaks
58.995100 277600.500000
60.984000 155780.600000
65.038400 63696.000000
66.046400 338611.900000
70.028700 812526.000000
72.998100 416771.400000
74.005900 1250740.400000
77.038400 42504.700000
79.054200 5876229.500000
86.005900 1753457.400000
87.994900 2163817.900000
89.038400 214789.600000
90.010500 213975.400000
90.046400 735837.900000
91.054200 5843707.000000
93.044700 178062.400000
95.049100 217012.000000
100.021700 52906.500000
102.010500 54258.800000
103.054300 564654.100000
104.049400 87719.900000
106.065200 41898868.200000
108.057000 57629.600000
110.005700 44826.100000
114.000800 5918302.800000
115.054300 260860.800000
116.049400 43797.300000
117.057300 3020853.100000
118.041300 19806329.300000
118.065100 13890255.800000
119.049100 1683275.400000
120.081000 44413.600000
121.010600 1009649.500000
123.026300 2292367.000000
125.016600 46246.500000
127.032400 141880.700000
128.049400 195551.900000
129.021500 353126.300000
130.065200 756590.500000
131.049200 167937.900000
131.073400 103756.900000
132.044600 43701.600000
132.080800 151990.300000
134.060200 214454.000000
135.026500 163185.300000
137.017000 65068.100000
137.042100 353122.800000
144.011200 43819.500000
145.982600 191272.100000
146.060100 3599070.300000
147.026400 1101590.000000
150.037300 2237795.100000
155.000500 64595.800000
158.000300 302209.700000
158.060100 530892.300000
159.068000 143792.700000
159.979700 55121.800000
160.993600 243098.800000
162.037200 1530316.500000
163.045000 80305.700000
164.052800 1206745.400000
171.962100 78866.500000
174.037300 1043990.900000
174.055000 3552658.300000
177.972400 4541613.900000
178.032200 459863.400000
182.084000 86371.600000
189.972600 86152.700000
190.032200 220148.200000
191.039900 1549232.300000
198.037700 76559.200000
215.063900 79341.100000
225.048500 71948.600000

>ms2peaks
57.987300 142440.900000
58.995100 530196.400000
60.984000 353970.600000
63.022800 42866.900000
65.038600 155267.400000
66.046400 1239256.400000
67.041700 51812.900000
68.025700 64407.700000
70.028700 715756.600000
72.998100 520541.200000
74.005900 932844.800000
79.054300 11337910.700000
86.005900 2890943.900000
87.994900 1746090.700000
89.038600 558403.300000
90.010500 200744.600000
90.046400 2656313.900000
91.054200 7709787.200000
93.044700 410425.300000
94.041300 78493.500000
95.049100 449459.700000
98.006000 58071.700000
99.985300 260974.400000
100.021500 69961.900000
102.010500 107588.900000
103.054300 748117.900000
104.049500 81808.400000
104.956100 132811.300000
105.044900 75884.900000
106.065200 29712024.100000
107.049200 201441.500000
108.056900 270498.500000
110.006000 179086.000000
114.000800 3714815.800000
115.054200 217709.700000
116.049500 67439.400000
117.057300 5184555.200000
118.041300 17377843.700000
118.065100 11451598.400000
119.049100 1091096.200000
120.080800 68935.400000
121.010600 1334340.400000
122.036400 84204.800000
123.026300 2675887.400000
128.049600 420618.500000
129.021400 336346.400000
130.065200 817282.000000
131.049200 87757.000000
132.044500 47612.100000
132.080700 41460.600000
134.060100 76470.800000
135.026300 296231.900000
136.021800 152100.200000
137.017000 68617.500000
137.042100 329104.600000
143.966900 43149.400000
146.060100 2709421.800000
147.026400 730283.800000
150.037400 900627.500000
155.000800 70783.600000
158.000400 224882.400000
158.059900 259043.700000
159.068000 153365.600000
162.037200 1551842.900000
164.053100 268041.800000
173.029700 184522.200000
174.037200 1018001.900000
174.054900 367880.600000
177.972500 1999725.300000
181.076100 50599.400000
182.084100 79644.200000
190.032200 214105.400000
191.040100 171788.400000
198.037500 56878.100000
209.072600 42636.300000

>ms2peaks
57.987300 138314.000000
58.995000 1035540.900000
60.984000 635575.200000
62.006000 27882.500000
64.030700 33394.700000
65.038600 457016.000000
66.046400 2223507.000000
67.041700 75747.600000
68.025700 189528.600000
70.028700 835441.700000
72.998100 292931.000000
74.005900 687754.800000
77.038500 65310.400000
79.054200 13340332.500000
86.005900 3628153.300000
87.994900 1789311.000000
89.038500 927492.800000
90.046400 6143485.300000
91.054200 9842180.200000
93.044700 380068.000000
94.041300 373989.500000
95.049100 990685.800000
98.005700 39984.600000
99.985200 198990.600000
102.010500 67808.800000
102.046300 47285.200000
103.054200 1134114.200000
104.049600 66556.700000
104.956000 59905.700000
105.033600 60611.100000
105.044800 287330.200000
106.065100 19521443.000000
107.049100 227607.000000
108.057100 264368.300000
110.006000 180988.800000
114.000800 1985233.400000
115.054300 285618.600000
116.049500 79783.200000
117.057300 6215541.600000
118.041300 11105808.200000
118.065000 7201347.900000
119.049100 600165.100000
120.080800 74026.000000
121.010600 1501904.700000
122.036000 292394.400000
123.026200 2262284.400000
125.016500 38065.200000
128.049400 721763.300000
129.021400 205474.400000
130.065200 907607.000000
131.049100 60096.500000
135.026400 74631.400000
136.021700 147952.900000
137.016900 49804.700000
137.042100 214502.900000
143.967100 32934.800000
146.060100 1789639.800000
147.026300 542860.400000
150.037400 142475.100000
162.037200 1316841.600000
173.029500 387008.600000
174.037200 613892.800000
177.972600 546218.700000
190.031900 58556.800000

