>compound EQ03744472
>parentmass 163.12300000000002
>ionization [M+H]+
>formula C10H14N2
>rt 54.000000
>profile orbitrap
#smiles_iso CN1CCC[C@H]1C2=CN=CC=C2
#smiles_can CN1CCCC1C2=CN=CC=C2
#inchikey SNICXCGAKADSCV-JTQLQIEISA-N
#pubchem_id 89594
#mb_accession EQ300801,EQ300802,EQ300803,EQ300804,EQ300805,EQ300806

>ms2peaks
80.049400 6261028.700000
84.080700 13197924.100000
94.065000 967625.900000
106.065000 24640249.300000
117.057200 3192413.500000
120.080700 8648923.700000
130.065100 24669353.900000
132.080700 80112590.700000
163.122900 263120223.600000

>ms2peaks
80.049400 5781917.700000
84.080700 12177435.400000
94.064900 831909.700000
106.065000 25224760.300000
115.054100 353754.000000
117.057200 3285525.200000
120.080600 8220305.400000
130.065000 24674121.100000
132.080600 78957315.400000
163.122800 249540414.900000

>ms2peaks
70.065100 506065.500000
77.038200 177551.200000
78.033600 143026.200000
80.049400 12085808.500000
84.080700 20593034.400000
92.049400 359027.700000
94.065000 1698897.000000
105.069800 389564.700000
106.065000 42798616.800000
115.054200 1470188.700000
117.057100 18096250.300000
120.080700 18590455.200000
130.065100 84137095.900000
131.072800 500072.100000
132.080600 135609409.100000
134.096500 171765.100000
163.122700 96566667.300000

>ms2peaks
70.065000 454569.900000
78.033400 160392.500000
80.049400 14365987.500000
82.065000 352108.200000
84.080700 21553065.200000
91.054100 243012.200000
92.049400 1173136.600000
93.057100 190301.400000
94.065000 1842197.300000
103.054000 194746.700000
105.069800 991130.400000
106.065000 43816128.600000
110.059800 348436.900000
115.054100 3367681.500000
117.057100 43503063.000000
118.064900 392125.000000
119.072600 230767.300000
120.080600 21877380.100000
130.065000 116905175.000000
131.073000 880898.800000
132.080600 124509966.100000
134.096200 389380.400000
146.096100 136376.500000
163.122700 38578752.800000

>ms2peaks
70.065100 403515.300000
78.033600 148316.800000
79.054200 394458.500000
80.049400 15334775.100000
82.065100 649204.100000
84.080700 19341415.300000
89.038500 201223.000000
90.046300 385304.000000
91.054100 847311.100000
92.049400 2950792.300000
93.057100 639147.500000
93.069700 200798.700000
94.065000 1080819.800000
95.049100 439558.500000
96.044300 768296.900000
103.054100 1034126.000000
104.049400 335408.000000
105.069800 1916542.000000
106.065000 38578074.100000
110.060000 897306.600000
115.054100 6114819.900000
117.057100 87838537.600000
118.065000 1030790.900000
119.072700 148445.400000
120.080600 19734414.000000
130.065000 137239755.200000
131.072800 2479117.200000
132.080600 74006235.600000
134.096200 174837.700000
163.122700 6943189.000000

>ms2peaks
70.065100 483603.700000
77.038400 550901.900000
78.033700 464788.700000
79.054200 1799986.300000
80.049400 15370090.200000
82.065000 1206992.400000
84.080700 17461599.600000
89.038400 640094.900000
90.046300 1014553.300000
91.054100 1923255.600000
92.049400 5925087.300000
93.057200 1419007.500000
93.069800 550607.500000
94.065000 952986.600000
95.049000 1406911.000000
96.044300 2337574.000000
103.054100 3803715.700000
104.049400 392369.800000
105.044700 405478.900000
105.069700 2802743.700000
106.065000 33381602.600000
110.060000 1465187.400000
115.054100 7684500.300000
116.049300 205046.700000
117.057200 129115384.200000
118.065000 1772923.800000
119.072600 147598.600000
120.080600 16528479.400000
129.057300 175888.300000
130.065100 132897769.700000
131.072800 3438007.100000
132.080600 33697333.700000
134.096400 155435.700000
163.122500 1172042.100000

