>compound EQ03400267
>parentmass 504.0853
>ionization [M+H]+
>formula C17H21N5O9S2
>rt 534.000000
>profile orbitrap
#smiles_iso COC1=CC(=NC(=N1)NC(=O)NS(=O)(=O)C2=C(C=CC(=C2)CNS(=O)(=O)C)C(=O)OC)OC
#smiles_can COC1=CC(=NC(=N1)NC(=O)NS(=O)(=O)C2=C(C=CC(=C2)CNS(=O)(=O)C)C(=O)OC)OC
#inchikey NIFKBBMCXCMCAO-UHFFFAOYSA-N
#pubchem_id 11409499
#mb_accession EQ317001,EQ317002,EQ317003,EQ317004,EQ317005,EQ317006

>ms2
83.023800 580253.500000
156.076600 9369478.200000
182.055900 210604481.500000
306.009800 22247323.600000
472.059300 11837807.650000
504.085200 266550466.200000

>ms2
83.023800 3821999.800000
100.039300 645350.900000
139.049900 1331565.200000
156.076700 29484114.800000
157.060700 2758567.600000
162.054800 7264856.300000
167.031800 696790.900000
182.056000 410135671.900000
226.016900 1034400.400000
242.048000 6543640.400000
291.010400 2177047.500000
306.009900 49294092.300000
316.989800 1031136.600000
504.085000 652509.900000

>ms2
57.044900 799118.900000
71.060400 702880.300000
78.984800 526975.100000
82.028600 795704.200000
83.023900 40020265.000000
93.008200 395294.500000
100.039300 6411488.300000
104.049500 511638.400000
106.065100 502709.300000
107.023900 370024.200000
124.050500 609726.500000
125.034500 692572.700000
126.018600 679862.200000
132.044500 994420.700000
134.059900 656374.600000
135.043900 542427.800000
138.065900 588378.000000
139.050100 12992573.400000
141.053000 659693.000000
147.055100 746160.400000
150.029600 1032514.200000
156.076700 26742245.000000
157.060700 34947418.800000
162.054800 48774779.300000
167.032200 550001.800000
173.034600 1319228.500000
182.056000 335665328.500000
196.005900 469409.500000
211.017300 753879.800000
226.016600 3090744.500000
242.048100 8650100.800000
291.010400 1587117.500000
306.009900 8904989.500000
316.990100 403286.100000

>ms2
56.013300 406970.900000
57.044900 1744265.600000
58.028800 666331.000000
68.013100 1412417.400000
68.997100 1674133.300000
69.008000 145143.600000
71.060400 3945646.200000
72.044400 713678.400000
77.038600 517949.300000
78.984800 488170.700000
79.054200 2260422.800000
81.044700 1058629.400000
82.028700 3222459.000000
83.023900 103432045.400000
89.038500 161742.200000
91.054000 265500.800000
92.025500 137042.100000
93.008200 2440138.900000
95.049200 502097.500000
100.039300 13001452.900000
104.049400 5448613.500000
105.033400 515238.700000
105.044700 466597.800000
106.039900 189277.100000
106.065000 2143757.100000
107.024000 861757.200000
107.049100 840086.700000
109.039600 803994.500000
110.023700 130948.000000
111.042600 204744.500000
112.050500 197356.300000
113.058400 211095.900000
114.055000 412877.700000
117.044500 365988.700000
118.028600 466797.400000
119.036500 1063734.100000
119.060400 368300.700000
124.050400 2125352.700000
125.034500 623792.300000
126.018600 1033944.400000
127.050100 576505.100000
132.044400 2060359.600000
133.052300 152910.300000
134.059900 1420085.800000
135.044000 3429989.400000
138.029900 162590.900000
138.066300 906602.700000
139.050100 37567031.800000
140.045400 446767.000000
141.053100 1400925.800000
145.039600 151650.100000
146.023400 343470.800000
147.030800 170882.700000
147.055200 2142683.200000
148.039100 786228.400000
150.029700 1346554.500000
156.076700 12799723.500000
157.060700 73231678.400000
162.054800 46558913.200000
166.024600 340721.500000
167.032200 1152512.900000
173.034400 2205366.500000
182.056000 127861529.500000
196.005800 301636.500000
196.989900 437648.000000
211.017500 422970.800000
226.016900 630207.100000
242.048100 507644.500000

>ms2
56.013300 706558.100000
57.044900 3243933.400000
58.028900 1334271.800000
65.038600 208652.900000
68.013100 3019212.800000
68.997100 5233580.600000
69.008300 625330.100000
70.028700 218628.900000
71.060300 9678207.500000
72.044300 1365427.800000
77.038500 1819761.000000
78.984800 485588.700000
79.054200 4129430.700000
81.044700 2885096.500000
82.028700 6316720.700000
83.023900 137392006.600000
89.038500 511595.100000
90.033600 716288.100000
91.054200 405627.000000
92.025700 1530534.600000
92.049400 683360.500000
93.008300 8883291.200000
95.049100 2700311.700000
100.039200 11257194.400000
104.049400 13463851.600000
105.033600 943058.600000
105.044700 1973500.800000
106.039800 213989.100000
106.065100 2780136.100000
107.024200 628254.600000
107.049200 921340.600000
109.027100 199059.700000
109.039600 2317504.900000
110.023600 573488.700000
111.042700 483515.400000
112.050400 548989.400000
113.058300 377493.000000
114.054900 528258.500000
117.044500 1124169.400000
118.028700 1668926.200000
119.036500 2884235.700000
119.060400 820911.500000
120.044400 442837.000000
124.050500 2766339.000000
125.034500 216439.200000
126.018500 584859.500000
127.050100 1575445.000000
129.044700 349119.600000
132.044400 1850604.400000
133.052200 365260.800000
134.059900 1952308.200000
135.043900 5731192.400000
138.029800 975098.800000
138.066100 401903.300000
139.050100 51542981.700000
140.045300 1379839.800000
141.053100 1349178.300000
145.039600 219479.300000
146.023500 576779.900000
147.031300 191408.200000
147.055300 1513171.500000
148.039300 450717.800000
150.029800 630127.400000
156.076700 3343671.000000
157.060600 53233571.600000
162.054800 19961874.600000
165.041900 686619.700000
166.024600 809703.800000
167.032300 947288.500000
173.034500 941158.200000
182.056000 26756785.600000

>ms2
53.002300 267844.400000
56.013200 1404534.700000
57.044900 3936419.600000
58.028900 908219.400000
65.038600 902167.000000
67.029100 404930.300000
68.013100 4536207.900000
68.997100 7534269.600000
69.008300 1228545.600000
70.028700 706339.300000
71.060300 9541924.300000
72.044300 1021921.400000
77.038500 3440493.300000
79.054200 4232809.900000
80.036800 252086.300000
81.044700 3158656.500000
82.028700 7863233.300000
83.023900 123689371.600000
89.038500 499410.000000
90.033800 1849282.200000
91.054200 398413.400000
92.025700 3701130.500000
92.049400 786843.100000
93.008300 18965751.600000
94.016100 494302.300000
95.049100 5620715.700000
96.044300 375960.100000
100.039300 6788441.500000
104.049400 13845908.700000
105.033500 1319288.900000
105.044700 3387584.100000
105.057300 179734.500000
106.065100 1948201.700000
107.024000 759750.800000
107.049000 716805.400000
109.027100 674656.600000
109.039600 2083821.700000
110.023600 397585.200000
111.042700 648257.900000
112.050600 828796.200000
113.058200 431158.800000
114.054900 185047.000000
117.044600 824453.600000
118.028600 4092069.400000
119.036500 3431754.900000
119.060400 667931.100000
120.044400 422780.100000
124.050400 1048656.800000
125.034500 213771.400000
127.050100 2133503.600000
129.044600 358983.300000
132.044400 839577.400000
133.052100 440760.100000
134.060000 1953970.200000
135.043900 4221807.200000
137.022100 216321.700000
138.029700 1915543.500000
139.050100 31212173.300000
140.045400 1971315.800000
141.053000 789998.700000
145.039800 164631.800000
146.023600 387771.500000
147.055300 360617.900000
150.029600 132082.300000
156.076500 751680.200000
157.060700 18794696.500000
162.054800 5600531.300000
165.041900 522769.700000
166.024600 1236610.900000
167.032200 394103.200000
182.056000 3722552.400000

