>compound EQ05752711
>parentmass 300.1594
>ionization [M+H]+
>formula C18H21NO3
>rt 192.000000
>profile orbitrap
#smiles_iso CN1CC[C@]23[C@@H]4[C@H]1CC5=C2C(=C(C=C5)OC)O[C@H]3C(=O)CC4
#smiles_can CN1CCC23C4C1CC5=C2C(=C(C=C5)OC)OC3C(=O)CC4
#inchikey LLPOLZWFYMWNKH-CMKMFDCUSA-N
#pubchem_id 5284569
#mb_accession EQ333201,EQ333202,EQ333203,EQ333204,EQ333205,EQ333206

>ms2
199.074700 1391639.400000
285.134900 781046.800000
300.159200 570953408.000000

>ms2
58.065200 767067.100000
183.080500 2457984.500000
185.059300 683419.800000
199.075200 15612631.000000
211.075100 938782.500000
213.090900 1857578.900000
225.091400 1415225.200000
241.085800 4821944.000000
243.101500 7953268.000000
257.117400 2763765.800000
269.117600 847833.000000
285.135600 961159.300000
300.159300 525851168.000000

>ms2
58.065200 2994992.500000
84.080800 636128.900000
86.060000 396828.900000
100.075600 891061.100000
110.059900 868760.400000
128.061500 431599.900000
137.059700 1680157.500000
141.069800 403836.300000
150.091400 949194.300000
153.069700 914097.000000
159.080200 398185.600000
161.059600 731316.800000
162.091100 770411.400000
163.075200 443613.100000
165.069700 1533293.200000
169.064500 426525.300000
170.072200 461636.800000
171.080400 4136922.000000
175.075400 1034395.000000
181.064800 6408572.500000
183.080500 19671734.000000
185.059600 3923569.200000
185.096200 988768.400000
186.067400 611394.000000
187.075400 3372917.000000
189.090900 1182066.800000
193.064600 1537732.100000
195.080300 560389.900000
197.096200 1869799.600000
198.067300 810106.100000
199.075200 129463304.000000
200.083000 486585.300000
201.090800 2407350.500000
203.094400 423071.000000
203.106300 577769.800000
207.080000 457935.000000
209.096200 555221.600000
211.075300 5348854.000000
212.083300 612073.100000
213.091000 17947376.000000
215.106700 2295828.500000
217.085700 572812.600000
225.091000 9765943.000000
227.106600 599568.100000
229.121800 1015331.200000
239.106400 1354726.900000
241.085900 36675028.000000
242.093700 530049.500000
243.101600 26190114.000000
251.107300 835028.800000
255.101600 561281.200000
257.117200 7557727.500000
257.139800 379085.500000
267.125400 432956.400000
269.117700 1362452.000000
269.140200 388204.200000
271.132100 767446.700000
272.127800 658322.900000
272.164600 469527.500000
282.148600 1626041.400000
285.135800 5521457.000000
300.159300 265965648.000000

>ms2
55.017900 233968.000000
58.065200 3053489.800000
70.065100 498027.600000
79.054300 202562.200000
82.065200 372814.600000
83.049100 210807.400000
84.080700 1361087.000000
86.060000 459351.800000
91.054100 226073.400000
94.065100 393165.100000
96.080700 228604.600000
100.075600 1072411.900000
110.060100 1654250.900000
112.075600 222809.400000
115.054000 969033.900000
128.061800 2332546.200000
129.069900 1126871.000000
131.049100 200915.400000
131.085500 374168.400000
134.096400 450322.000000
137.059600 2445871.000000
141.069800 5225325.000000
142.077700 389292.600000
143.049400 736443.900000
143.085600 1358053.200000
144.057100 644730.300000
145.064700 478331.200000
148.075700 659466.500000
149.083400 235759.600000
150.091300 1229935.600000
151.075300 397390.200000
152.061900 727224.200000
153.069800 8286857.000000
154.077800 977405.500000
155.049300 248911.800000
155.085500 3741601.500000
156.056900 2035911.100000
157.064900 1100477.100000
158.072700 925928.200000
159.080400 2419862.000000
161.059600 1215774.900000
162.091200 1085671.900000
163.075300 433742.800000
163.099100 868447.700000
165.069900 8301920.000000
166.077700 410673.600000
167.085700 1022031.500000
168.057000 868727.800000
169.064500 1276871.000000
169.075900 669087.000000
169.101100 620804.100000
170.072600 2916658.500000
171.080400 34361972.000000
172.051900 556456.400000
172.088300 225819.200000
173.096200 916736.400000
174.067800 865780.600000
175.075200 1231776.000000
176.107400 208559.400000
179.085500 574976.300000
181.064700 19780130.000000
182.072700 2046146.100000
183.080500 20616626.000000
184.051900 1161774.000000
184.088200 511091.800000
185.059700 11781226.000000
185.096000 5914247.500000
186.067600 2187525.000000
187.075400 5099379.500000
187.111700 746895.900000
188.083200 246186.400000
189.090800 1404676.500000
191.085500 562173.400000
193.064800 2514889.800000
194.072600 1433978.400000
195.080500 1866813.000000
197.059900 711307.500000
197.096000 3023782.800000
198.067600 4265782.500000
198.104300 218630.300000
199.075200 189700960.000000
200.082600 1334467.900000
201.090700 2918586.000000
203.094200 762500.100000
203.106100 938521.400000
207.080400 659383.400000
208.088500 538656.600000
209.060500 704640.600000
209.096100 1188657.100000
210.067800 1274355.500000
211.075400 4231095.500000
211.112100 408041.200000
212.083000 1121012.000000
213.091000 31548846.000000
214.062500 442324.800000
214.085900 243288.000000
214.098900 470585.300000
215.106800 2396988.000000
217.086000 243465.000000
223.075300 782118.900000
225.091000 8797833.000000
226.086800 224289.100000
226.098800 448821.400000
227.070300 200136.600000
227.106400 902008.600000
228.077600 700819.200000
228.102000 876171.300000
229.122300 771099.100000
237.091300 189903.200000
239.106800 539119.900000
241.085800 31383994.000000
242.093700 563027.500000
242.117500 516807.900000
243.101600 11026946.000000
251.106800 240457.300000
254.117600 201099.500000
255.101900 857079.600000
256.132700 753559.100000
257.117400 3265480.800000
257.141200 528393.200000
266.117500 450303.300000
267.125700 547923.900000
268.133500 711694.800000
269.117300 481057.600000
270.111400 286388.200000
272.128400 249209.600000
272.164900 372335.400000
282.148300 619163.900000
284.127700 413854.100000
285.136100 3313230.200000
300.159400 40847276.000000

>ms2
55.018000 198265.200000
58.028800 131604.800000
58.065100 1793833.600000
65.038500 201302.500000
68.049500 162445.800000
70.065200 195691.900000
79.054200 411006.900000
82.065100 751521.600000
83.049200 410451.600000
84.080800 1183509.000000
86.060000 245515.300000
91.054200 640456.600000
94.065000 193605.100000
95.049100 117796.700000
100.075700 652090.600000
103.054200 566762.800000
105.069800 141046.200000
107.049200 152390.700000
108.080800 203890.100000
110.060100 1519799.200000
115.054200 5854095.500000
116.062000 209740.500000
117.069800 452072.500000
119.049000 143807.500000
121.064700 160490.800000
122.036400 237425.600000
122.096200 175746.800000
126.045800 149003.800000
128.062000 15795962.000000
129.069900 3416644.000000
131.049100 910405.400000
131.085500 179284.100000
132.080500 225283.900000
134.096300 611448.000000
137.059700 2093508.500000
139.053900 237117.200000
141.069800 23891976.000000
142.077800 1250414.400000
143.049300 738553.800000
143.085500 3061052.000000
144.056900 3341204.800000
145.064900 1677476.900000
146.036300 129714.900000
146.060200 145217.300000
146.072300 161544.300000
146.096200 120806.300000
147.044200 133406.100000
148.075700 823157.500000
150.091500 742847.200000
152.061900 4110424.500000
153.069800 24898186.000000
154.077700 4562288.000000
155.049200 1574580.200000
155.060100 1052248.200000
155.085500 7548232.000000
156.056900 11061728.000000
157.064900 1690322.000000
157.101100 125397.400000
158.072600 2740793.000000
159.044100 438568.500000
159.080400 4978718.000000
160.051800 166613.300000
160.075800 160733.300000
161.059700 1719706.400000
162.091300 883135.000000
163.099100 244551.200000
165.069900 14452089.000000
166.077600 1405516.200000
167.085500 1630878.900000
168.057000 3547704.500000
169.064700 2694076.500000
169.075900 1717609.100000
169.101200 443857.600000
170.036100 1581157.500000
170.072600 8636408.000000
171.080400 76355696.000000
172.051800 1371068.500000
172.088100 985920.600000
173.059500 409611.600000
173.096000 1041418.100000
174.067500 445685.100000
175.075500 923899.000000
177.069600 600117.700000
178.077500 463629.500000
179.085300 1009710.900000
180.056700 607010.100000
181.064700 22649026.000000
182.072600 4063082.200000
183.044100 4046113.000000
183.080500 9331564.000000
184.051900 4778390.500000
184.088000 924103.100000
185.059700 17556334.000000
185.096000 6958391.000000
186.067600 2356849.200000
187.075400 3349563.200000
187.111700 438095.100000
188.083300 233759.900000
189.090900 809560.800000
190.077800 131358.200000
191.085300 931496.800000
193.064900 1879618.800000
193.075900 406117.400000
194.072600 2886717.000000
195.080400 2071745.500000
196.051900 436114.800000
196.075700 138843.500000
196.088400 247175.500000
197.059800 2102574.500000
197.096100 1602671.000000
198.067500 13160843.000000
199.075200 114670784.000000
200.082900 1824345.200000
201.054800 122139.700000
201.091000 1168153.500000
202.086200 129301.200000
203.094200 524320.100000
203.106100 152996.200000
207.080900 206013.600000
208.088300 202111.500000
209.059900 645822.700000
209.096200 374624.300000
210.067600 1711106.800000
211.075300 1842371.600000
212.083100 1291025.800000
213.090900 15272604.000000
214.085900 456746.800000
214.098600 176074.600000
215.106800 835838.200000
219.080600 417000.600000
223.075400 904336.400000
224.107000 163001.500000
225.090900 3799928.800000
226.062300 455799.300000
226.086100 507172.000000
226.098500 121188.300000
227.070500 220666.200000
227.107000 226294.300000
228.078000 669856.700000
228.102000 1076875.600000
239.106400 119676.600000
240.101600 134164.500000
241.085800 8343756.500000
242.117500 550628.900000
243.101700 1437976.000000
250.123100 177919.500000
251.106600 117647.800000
252.102400 121577.900000
255.102300 211781.600000
256.133700 689870.000000
257.117100 510629.700000
266.118200 245368.800000
268.133100 243090.300000
270.112700 177470.500000
284.127900 680949.000000
285.136000 1056654.000000
300.159300 2460697.000000

>ms2
55.017900 152985.900000
58.028800 116596.100000
58.065200 1534822.400000
65.038500 249964.400000
67.054200 389644.200000
68.049600 94743.000000
70.065100 241235.800000
77.038400 183187.100000
79.054200 562660.400000
80.049500 175873.100000
82.065100 584479.800000
83.049000 123421.500000
84.080700 744399.300000
86.060000 176424.600000
91.054100 1503521.800000
94.041100 139852.700000
94.065100 606225.700000
95.049100 480476.100000
96.080800 183315.800000
100.075800 148822.100000
102.046300 224135.500000
103.054200 1384730.000000
104.062300 94784.700000
105.069900 418990.600000
106.064900 239304.500000
110.060000 948817.600000
114.046000 138614.000000
115.054200 19494190.000000
116.061900 1056783.400000
117.069700 665420.100000
118.065000 175295.600000
120.080900 247361.100000
121.064800 95782.400000
122.036200 220000.600000
124.075400 122827.500000
126.046000 124753.800000
127.054000 1251359.900000
128.062000 49737468.000000
129.069700 6364052.000000
130.077700 209971.100000
131.049200 1351864.800000
131.085600 249962.500000
132.057000 448107.900000
133.064800 120003.900000
133.088600 175675.600000
134.096300 648059.000000
137.059700 1349687.800000
139.054300 986908.400000
140.061900 983447.600000
141.069800 43020376.000000
142.041200 648772.800000
142.077700 3504030.000000
143.049100 1263866.000000
143.085600 2472542.500000
144.057000 5408881.000000
145.064800 3360063.200000
146.036300 136342.400000
146.060100 121148.900000
146.072800 230546.500000
148.075700 406718.700000
151.054100 186491.500000
152.062000 16167048.000000
153.069800 40133476.000000
154.077600 6784161.000000
155.049100 6176067.000000
155.060000 2955792.000000
155.085500 6491703.000000
156.056900 19358620.000000
157.064800 2485598.000000
157.101300 164339.300000
158.072600 2938782.800000
159.043800 803566.200000
159.080400 4081470.500000
160.051800 155414.400000
161.059800 1368375.900000
162.091400 613505.100000
164.062100 236421.900000
165.069800 17706150.000000
166.077700 1995033.500000
167.085600 1539990.000000
168.056900 5510530.000000
169.064800 9105194.000000
169.075400 1581258.900000
170.036200 6229964.500000
170.072500 10253507.000000
171.080300 59847992.000000
172.051900 1477136.000000
172.088100 689322.000000
173.059400 228294.500000
173.096100 419580.200000
174.067200 219510.900000
175.075300 445919.500000
176.061800 217855.600000
177.070000 484393.400000
178.077800 952320.200000
179.060200 423602.800000
179.085400 629880.100000
180.056700 1124841.800000
181.064700 13295270.000000
182.072600 5549074.500000
183.044000 18913900.000000
183.080400 2622378.500000
184.051900 8678277.000000
184.088400 716171.800000
185.059700 19047140.000000
185.096000 3433093.000000
186.067600 1412698.100000
187.075500 1392242.400000
188.082800 127242.500000
189.070000 510386.600000
189.090600 148019.500000
190.077600 199460.000000
191.085300 489953.800000
193.064700 1585132.600000
193.075400 242100.800000
194.072600 1769746.800000
195.080400 1662782.400000
196.051500 425354.400000
196.076200 173583.100000
196.088100 203362.300000
197.059700 3771621.000000
197.095900 623875.900000
198.067400 14028219.000000
199.075200 37452104.000000
200.083200 643967.100000
201.078900 136045.500000
201.090700 192525.300000
202.086100 169062.100000
207.080500 195562.100000
208.052000 588668.200000
208.088200 181592.100000
209.059700 638366.700000
209.095800 165578.600000
210.067700 1241806.500000
210.090700 144334.200000
211.075400 794244.900000
212.083200 593505.200000
213.090900 4019700.800000
214.086200 169348.700000
223.075300 425581.300000
225.091200 732224.200000
226.061800 237430.800000
226.085700 143859.700000
227.070400 155199.200000
228.078200 235173.100000
228.101700 647414.000000
240.101800 183722.900000
241.085500 969577.800000
256.133000 119802.800000

