>compound EQ06266622
>parentmass 191.9881
>ionization [M+H]+
>formula C6H6ClNO2S
>rt 264.000000
>profile orbitrap
#smiles_iso C1=CC=C(C(=C1)S(=O)(=O)N)Cl
#smiles_can C1=CC=C(C(=C1)S(=O)(=O)N)Cl
#inchikey JCCBZCMSYUSCFM-UHFFFAOYSA-N
#pubchem_id 81410
#mb_accession EQ326001,EQ326002,EQ326003,EQ326004,EQ326005,EQ326006

>ms2
65.038400 15300.100000
74.015000 10527.000000
86.999500 61240.800000
93.033400 135777.300000
94.041200 191649.600000
99.043900 16149.900000
101.015200 17208.600000
110.999000 180253.234000
111.043900 591722.200000
121.039500 152387.200000
126.994400 46509.400000
129.010000 353156.800000
130.971600 38393.000000
139.005600 2463342.900000
145.966600 20095.300000
174.961300 8293804.300000
191.987800 288541.800000

>ms2
50.015200 10983.900000
59.049100 9924.500000
65.038500 34226.000000
75.022700 52834.000000
86.999600 85384.700000
93.033400 212799.600000
94.041300 278383.900000
101.015200 17984.100000
110.999200 163361.700000
111.044000 871767.500000
121.039600 221040.300000
126.994500 70421.900000
129.010100 558560.500000
130.971800 27747.400000
139.005700 3555631.500000
145.966800 22632.400000
174.961400 6426400.400000
191.987800 102571.300000

>ms2
50.015200 16464.800000
65.038500 61325.900000
74.015000 16167.200000
75.022800 149924.000000
79.017800 25105.500000
84.983800 12436.400000
86.999600 229981.600000
93.033400 334207.600000
94.041300 408524.700000
98.036100 12987.600000
101.015300 26134.500000
110.999400 208495.600000
111.044000 1327878.000000
114.994400 13277.700000
121.039600 324095.800000
126.994500 62233.500000
128.002100 8751.200000
129.010100 2058758.200000
130.971600 23239.600000
132.958900 9007.100000
139.005800 6026863.700000
174.961300 1200472.300000

>ms2
50.015100 16132.700000
53.002200 15265.200000
59.049100 4806.400000
65.038500 70926.600000
74.015000 42438.400000
75.022900 554700.500000
79.017800 31563.800000
80.025600 12381.400000
84.983900 23403.600000
86.999600 245914.800000
93.033400 231605.700000
94.041300 269041.000000
98.036300 12430.300000
98.999500 25018.600000
101.015200 17104.500000
110.999500 432837.000000
111.044000 836580.700000
114.994500 23000.600000
121.039600 184524.800000
126.994600 23683.100000
129.010100 3176970.400000
130.971800 12629.000000
131.014300 4864.800000
139.005800 4708336.500000
174.961400 85667.500000

>ms2
50.015100 20520.900000
53.002200 38814.900000
59.049100 4095.600000
65.038500 99727.500000
74.015000 107312.400000
75.022900 1759261.000000
76.030600 15034.400000
79.017800 28424.900000
80.025600 4967.000000
84.983900 87689.600000
86.999600 237387.000000
93.033400 159962.100000
94.041300 121399.100000
98.036200 9151.100000
98.999600 29372.300000
101.015300 9350.200000
108.020600 3473.300000
110.999500 763294.800000
111.044000 513619.800000
114.994300 20018.800000
121.039500 81250.900000
126.994500 8982.100000
128.002100 4278.500000
129.010100 3020296.600000
130.013700 4146.100000
130.971600 3922.500000
139.005700 3449503.300000

>ms2
50.015200 12065.600000
53.002200 54828.900000
60.983900 3466.500000
65.038500 114254.700000
74.015100 255741.400000
75.022900 3408182.300000
76.030700 48398.900000
79.017800 13954.000000
80.025700 3903.100000
84.983900 257546.000000
86.999600 143948.900000
93.033400 68688.500000
94.041200 75104.700000
98.036200 4859.400000
98.999600 28137.000000
101.015400 5114.100000
110.999500 826638.700000
111.044000 257809.600000
114.994300 15336.400000
121.039600 40045.200000
126.994300 4516.800000
129.010100 1969097.700000
139.005700 2100135.600000

