>compound EQ08266419
>parentmass 412.1309999999999
>ionization [M+H]+
>formula C23H22ClNO4
>rt 642.000000
>profile orbitrap
#smiles_iso COC1=C(C=CC(=C1)CCNC(=O)C(C2=CC=C(C=C2)Cl)OCC#C)OCC#C
#smiles_can COC1=C(C=CC(=C1)CCNC(=O)C(C2=CC=C(C=C2)Cl)OCC#C)OCC#C
#inchikey KWLVWJPJKJMCSH-UHFFFAOYSA-N
#pubchem_id 11292824
#mb_accession EQ306101,EQ306102,EQ306103,EQ306104,EQ306105,EQ306106

>ms2
125.014700 3711444.300000
163.030500 698528.100000
187.075400 391575.900000
189.090900 1487255.700000
194.081500 535377.900000
203.093900 639485.500000
204.101900 13899383.400000
216.101800 2075277.100000
271.052100 409000.800000
283.088500 419951.000000
289.087100 819847.300000
297.068000 264592.000000
299.084800 710185.100000
311.083300 3473755.000000
317.081900 930305.400000
327.077600 807370.900000
328.109800 240807369.900000
338.095700 709271.700000
356.104600 60296560.600000

>ms2
80.049400 88810.400000
83.049200 76838.100000
89.038300 80869.800000
90.046400 85129.700000
91.054100 640650.900000
95.048900 118100.200000
105.069800 457881.400000
111.043900 136794.300000
115.054100 398637.500000
116.061900 97485.100000
117.069900 434377.400000
119.072600 112655.000000
121.064500 675109.100000
124.075500 142002.800000
125.015200 55044613.100000
128.061900 457177.300000
129.069800 1437284.400000
130.065000 152501.700000
131.049000 139157.300000
131.072600 93087.500000
131.085600 609370.500000
133.064600 198759.200000
135.080300 368731.800000
136.075800 132991.300000
137.059600 534702.300000
138.994500 1069610.700000
139.030900 191956.300000
140.026100 3941376.100000
143.073200 328070.900000
144.057100 251982.600000
144.080900 1356575.000000
145.064800 1360511.300000
146.060000 434853.900000
146.072500 806051.700000
147.043600 108055.700000
147.067800 605865.700000
147.080200 139022.900000
148.052000 1044190.400000
148.075600 353789.800000
149.015100 328255.000000
149.059600 168915.100000
149.096200 106993.400000
150.067500 1309165.500000
151.031000 461290.900000
151.075300 642863.500000
152.002200 214749.600000
152.026300 1406192.800000
153.010300 105197.400000
153.034100 196797.000000
154.041700 760916.800000
155.049100 108076.000000
156.080900 97511.000000
157.064800 898476.400000
158.072500 933330.400000
159.067600 108557.900000
159.080200 930301.400000
160.051800 346674.600000
160.075800 178282.500000
161.059700 1090531.700000
161.083600 437174.600000
161.095900 1608488.700000
162.054900 86531.100000
162.067700 140190.000000
162.091100 87476.600000
163.030600 854641.600000
163.062600 175933.100000
164.070500 5742626.600000
165.078300 2727999.400000
171.067800 521215.500000
171.080400 112872.900000
172.075600 1078480.700000
173.083700 593685.500000
174.067400 707263.600000
175.030900 176840.300000
175.075300 1216286.100000
176.070500 736276.400000
176.082700 94197.300000
176.106600 196945.400000
177.078300 2250621.700000
178.086300 462440.400000
179.025600 364081.900000
180.020900 131437.200000
184.075900 352667.500000
185.083300 505499.800000
187.075400 978917.500000
188.070400 128542.000000
188.106900 1654673.700000
189.090900 9144085.700000
194.080800 369856.500000
202.085800 331819.900000
203.093900 6037567.900000
204.101900 26766068.400000
206.081200 174833.500000
207.080400 124519.600000
208.088200 362105.400000
213.046500 104799.000000
215.085600 544999.400000
216.093000 1393705.400000
216.102100 7634434.800000
217.100900 153510.200000
218.109100 479955.000000
221.095300 165434.800000
225.046400 202033.100000
225.091100 596966.700000
228.033400 117137.900000
229.041800 132915.100000
231.080100 179378.800000
232.088300 1292491.300000
233.096100 590115.500000
237.090700 370739.800000
239.062400 901566.800000
240.033400 137366.200000
242.049200 381857.500000
243.057100 1132086.700000
243.080000 126002.000000
244.087500 771616.200000
245.095700 181887.500000
247.111300 392007.100000
248.083500 152709.400000
248.119700 1012473.400000
251.062400 1296288.800000
253.065300 111117.000000
253.078200 402284.800000
254.048800 107195.800000
254.117700 116135.400000
255.057300 379142.400000
256.064800 562275.600000
257.036000 384522.900000
257.072900 410682.300000
259.052000 448005.700000
260.060200 1474422.800000
260.106300 95845.500000
261.091000 495836.100000
264.101600 488153.000000
264.114600 676623.000000
267.057100 899874.800000
268.064600 706914.500000
269.073100 720463.700000
270.043900 454730.400000
270.067700 368295.900000
271.052000 5189918.000000
271.075500 712831.700000
271.088300 1363360.200000
272.059800 4276672.400000
276.114300 1321775.500000
279.057100 1941097.400000
280.064700 1772180.000000
281.059600 525859.700000
281.073100 209249.700000
283.088300 5066547.300000
285.067600 997988.100000
287.045800 93066.500000
288.078900 894957.300000
289.086300 7524849.000000
296.059500 1047640.900000
296.083700 778947.200000
297.067500 990176.100000
298.063300 394539.900000
299.069800 1370140.700000
299.083500 4343773.300000
300.079000 523420.600000
311.083200 10441124.400000
316.074200 190064.900000
317.081600 1615596.400000
327.078800 148069.500000
328.109800 73711445.600000
338.092700 112877.200000
356.104700 2459091.700000

>ms2
63.022600 150690.700000
68.049500 128232.900000
79.054100 145581.100000
80.049300 119823.400000
83.049000 356218.400000
89.038400 507182.200000
91.054200 3395095.900000
93.069900 351351.000000
95.049000 356265.100000
103.054200 506394.500000
105.069800 1139746.900000
107.049100 545199.200000
109.064800 190858.000000
111.044000 188935.100000
115.054200 1481973.400000
116.062100 988748.100000
117.069800 2245509.800000
118.041200 133689.900000
118.065000 1401400.200000
118.077600 327871.900000
119.049200 807209.500000
119.072900 1013601.300000
119.085400 464253.300000
120.056900 353146.900000
121.064700 2150512.300000
122.036000 144648.400000
122.060200 150286.800000
122.072500 125038.900000
123.044200 631552.700000
124.075600 538149.900000
125.015200 107433429.600000
128.061900 2770547.300000
129.069800 4718591.900000
130.065100 405460.300000
130.077800 150718.200000
131.049200 1677951.700000
131.073100 441425.600000
131.085500 1459053.300000
132.056900 376193.000000
132.080700 169890.100000
133.052100 145314.900000
133.064600 737464.500000
134.060000 573517.500000
135.044100 1067019.200000
135.080400 411322.800000
136.051900 409776.900000
136.075600 1154076.800000
137.059700 1287828.400000
138.994600 1757875.200000
139.030800 209239.200000
140.026100 4036675.100000
143.073000 585604.300000
144.056900 1194853.600000
144.080800 2439688.700000
145.064800 4225955.300000
145.088700 412902.500000
146.060000 2104850.300000
146.072600 3288175.200000
147.044100 731909.300000
147.067800 1853348.600000
147.080400 551151.600000
148.051800 6103097.700000
148.075600 1282067.300000
149.015300 1131495.600000
149.059700 1074745.800000
150.054900 1248252.900000
150.067500 2384694.500000
151.031100 198893.200000
151.075300 562694.400000
152.002400 415129.500000
152.026100 1799627.700000
153.034400 624906.400000
154.041600 683118.600000
154.065100 119433.400000
155.060200 441097.800000
156.056900 117346.600000
156.080700 487545.800000
157.064800 1305192.600000
158.072600 1035148.500000
158.096400 146661.200000
159.067800 1108096.700000
159.080500 967957.000000
160.051600 710865.700000
160.075700 1009235.300000
161.059700 1384647.700000
161.083600 436062.500000
161.096000 2462398.800000
162.054800 861345.100000
162.067500 470927.600000
162.091000 124161.400000
163.030800 370333.100000
163.062600 393658.500000
164.070500 12280128.500000
165.078400 6181908.900000
170.059700 178649.200000
171.067800 391013.900000
171.080400 388882.000000
172.051700 202868.400000
172.075600 1155923.100000
173.059300 124842.000000
173.083500 1053439.100000
174.067500 1059485.100000
174.091800 175920.200000
175.031100 388815.700000
175.075200 691261.500000
176.070500 1915217.800000
176.083000 128005.000000
176.107300 144166.300000
177.078400 3023880.900000
178.077800 376017.500000
178.086100 573134.400000
179.085800 322723.800000
180.020900 172425.600000
184.075900 372621.200000
185.083500 544344.700000
187.075500 1198809.400000
188.070700 464788.300000
188.107000 1597815.300000
189.078100 395117.800000
189.090900 2786909.600000
190.077700 169008.100000
191.085500 343476.300000
192.093600 166854.000000
193.064800 151222.000000
193.101000 358492.100000
194.072700 334825.700000
195.080300 158357.000000
199.030500 334813.100000
201.046600 135350.900000
202.077300 401093.100000
202.086300 196436.300000
203.085300 872339.500000
203.094100 1487682.500000
204.093400 1212573.200000
204.101800 6844699.700000
205.100900 681284.500000
206.081400 144064.400000
206.109100 429381.500000
207.080600 811875.600000
208.088200 1555038.100000
209.096100 363749.100000
212.038900 363978.900000
213.046600 407828.300000
215.085500 1547737.000000
216.093300 2039367.200000
216.102300 1127010.200000
217.101200 566286.700000
218.072900 195173.400000
218.109100 873736.600000
219.080500 456949.100000
221.096100 863117.500000
224.083100 137556.200000
225.046400 697584.200000
225.090800 1908934.600000
226.054100 364574.200000
228.033700 646903.700000
229.041600 1340867.000000
230.049500 113359.500000
231.057500 196455.100000
231.080500 593397.500000
232.088200 1328326.300000
233.096100 1358271.000000
235.099000 317790.800000
236.107000 370731.200000
237.090900 1220070.500000
239.062200 810172.700000
240.033500 496209.400000
241.041600 552797.600000
242.049700 723818.600000
242.073100 167195.500000
243.057100 2148071.600000
243.080800 392949.600000
244.088200 804300.700000
245.095600 716950.800000
247.111800 383334.600000
248.119600 178471.900000
251.062400 863095.500000
253.042300 190559.900000
253.065400 179912.100000
253.077700 112001.600000
254.049500 451798.000000
254.117800 355257.200000
255.057300 409675.700000
256.052700 163125.700000
256.064500 996290.400000
257.036000 990180.600000
257.072800 150333.700000
258.068200 439948.300000
259.052300 133993.400000
260.059900 542111.000000
260.107800 111861.400000
261.091000 558274.700000
264.102000 952290.400000
264.114100 146879.400000
267.057100 567572.700000
268.064800 607050.600000
269.073000 386672.600000
270.044300 572659.500000
270.067100 740601.100000
271.051700 1218458.900000
271.075500 291939.800000
271.088400 493066.000000
272.059800 3482535.000000
279.057100 1504034.100000
280.065200 848013.100000
281.059800 161294.400000
281.073400 112064.300000
283.088200 1244456.700000
288.078500 1749784.200000
289.086200 1536930.300000
296.060300 465329.100000
298.062700 616738.500000
299.069300 205827.800000
299.084200 659582.500000
307.051800 134480.200000
311.083200 452030.100000
316.074000 365495.700000
328.110000 1232161.800000

>ms2
68.049400 445908.000000
69.033500 133580.800000
77.038500 142548.100000
79.054300 437201.300000
83.049000 175874.600000
89.038400 1071974.300000
90.046200 164361.600000
91.054200 6258447.500000
93.069800 410646.200000
94.065000 129686.800000
95.049100 626330.500000
98.999500 366566.400000
103.054200 1121316.700000
104.062000 151593.300000
105.033400 141987.800000
105.069800 1476530.600000
106.065100 153365.400000
107.049000 1084315.100000
109.064700 192226.700000
113.015100 149260.500000
115.054100 2424955.400000
116.061900 1907609.900000
117.057100 364938.500000
117.069700 2650264.200000
118.041200 197482.700000
118.065000 2899810.800000
118.077400 744567.000000
119.049100 1067772.600000
119.072800 1355735.700000
119.085500 470501.200000
120.056700 687714.000000
121.064700 3044074.000000
122.060100 496946.200000
122.072500 137590.500000
123.044000 545246.700000
124.075900 213934.600000
125.015200 112240187.400000
127.054000 145998.400000
128.061900 3734705.600000
129.069800 3934688.100000
130.065200 627937.700000
130.077700 241007.700000
131.049200 2832614.800000
131.072800 426203.000000
131.085600 1081808.000000
132.044500 461344.300000
132.057100 751430.400000
132.080700 360021.400000
133.052100 541629.000000
133.065000 666899.900000
134.060000 867079.000000
135.044000 2518628.300000
135.080300 204254.800000
136.051900 357556.800000
136.075700 2036972.300000
137.059600 1225108.500000
138.067600 132710.900000
138.994500 1678117.900000
139.031200 114151.500000
140.026000 3572276.500000
141.069700 149339.600000
143.072800 689862.300000
144.057000 1440977.200000
144.080800 1895743.700000
145.064700 4098174.500000
145.088500 508524.500000
146.060000 2336103.500000
146.072500 2696991.200000
147.044100 1382747.700000
147.067800 1848485.000000
147.080300 141800.900000
148.051800 7356800.400000
148.075600 1668631.500000
149.015200 962604.500000
149.059600 1685951.300000
149.083800 149364.600000
149.096000 165131.400000
150.054800 2790161.700000
150.067500 2286453.900000
151.075300 802458.100000
152.002300 210905.500000
152.026000 1807879.700000
153.034100 412196.800000
155.049300 119287.300000
155.060300 695024.100000
156.057100 116380.900000
156.080500 174931.300000
157.064600 1173239.400000
158.059900 142950.100000
158.072700 1018622.700000
159.044200 421885.300000
159.067800 624442.100000
159.080400 477276.300000
160.051900 503384.300000
160.075800 1314391.900000
161.059700 1248178.700000
161.083500 489147.100000
161.096000 1127547.500000
162.054800 1516829.300000
163.031000 124819.200000
163.062700 405254.200000
164.070500 8202886.900000
165.070200 506228.500000
165.078300 4585988.300000
166.077500 132931.000000
170.059900 353842.100000
172.051700 240197.900000
172.075600 1026163.800000
173.059800 127863.500000
173.083600 1189611.900000
174.067400 662423.600000
174.091200 142795.500000
175.031000 146874.000000
175.075400 514575.300000
176.070500 2063549.700000
177.078300 1651334.800000
178.077800 678451.800000
178.085800 159929.800000
179.085400 772309.900000
180.021000 355677.300000
180.093400 163928.900000
184.075700 357743.400000
185.083500 133009.800000
187.075400 641553.700000
188.070500 355515.300000
188.107000 914540.600000
189.069700 365031.400000
189.078000 189025.200000
189.091100 566382.400000
190.077700 542438.400000
191.085500 1062212.500000
192.093100 360330.300000
193.065000 124697.400000
193.101600 373656.800000
194.072500 428247.600000
195.080100 365590.700000
197.095700 395681.100000
199.030800 202343.800000
200.038000 134223.900000
201.046900 344469.400000
202.077800 755871.700000
202.086200 143611.100000
203.085300 1635777.900000
203.093600 150888.300000
204.093300 1150636.500000
204.102300 1049499.800000
205.101100 1070344.300000
206.081500 197097.800000
206.109200 435102.100000
207.080400 1319377.800000
208.088200 1855718.800000
209.096100 497607.400000
212.038800 443288.800000
213.046000 880676.000000
215.026000 121135.600000
215.085500 1392671.200000
216.093100 1281117.000000
216.102200 135119.900000
217.101400 812690.500000
218.073500 115849.200000
218.097200 123268.600000
218.109400 462725.400000
219.080500 524614.200000
220.087900 157776.500000
221.096100 1049561.500000
224.083200 170197.000000
225.046800 753829.500000
225.090900 2108942.400000
226.053900 587054.700000
228.033800 546244.100000
228.057500 184883.800000
229.041500 1702517.900000
230.049700 134167.800000
231.056800 193666.700000
231.080600 592715.900000
232.088100 600579.900000
233.096100 1035969.500000
235.099200 409061.100000
236.107100 825232.400000
237.091300 770434.600000
239.062100 367798.500000
240.033900 343609.500000
241.041100 770032.300000
242.049100 424126.900000
242.073700 341857.300000
243.056900 1437473.000000
243.081000 154677.600000
244.088100 627998.600000
248.119000 152940.700000
251.062500 485477.700000
253.042000 142586.500000
253.065200 118548.300000
254.050000 126665.200000
255.056500 591236.500000
256.052800 162683.700000
256.065100 634404.600000
257.036200 1209035.300000
258.068500 362881.600000
259.051600 246710.200000
260.059600 173195.400000
261.090800 463355.900000
264.102400 177100.500000
267.056400 236103.500000
268.065000 159483.000000
270.067800 399206.700000
271.051900 664537.800000
272.059600 799860.200000
279.057200 793118.600000
280.064700 127830.400000
283.089100 190924.500000
288.078800 997882.900000
298.063100 416286.700000
300.078600 1150969.100000

>ms2
63.022700 111101.400000
65.038500 349464.800000
69.033500 112902.500000
77.038400 163305.400000
78.046400 247148.000000
79.054200 584984.000000
89.038500 3107311.900000
90.046300 745829.100000
91.054200 7979348.900000
92.061900 181841.100000
93.069800 796556.800000
94.041300 137166.700000
94.065100 514976.300000
95.049100 1196821.400000
98.999500 1289646.200000
102.046500 243975.600000
103.054200 2090008.000000
104.049400 190506.100000
104.062000 754363.600000
105.033400 171544.600000
105.069900 1200673.900000
106.065200 343331.700000
107.049100 1764304.400000
108.080800 140174.700000
109.064800 422371.800000
113.015200 471790.200000
115.054200 4133298.700000
116.061900 2313757.400000
117.057100 419774.900000
117.069700 2748391.300000
118.041300 507560.200000
118.065000 3541169.100000
118.077600 672077.300000
119.049000 1737675.700000
119.072900 575558.600000
119.085600 187526.400000
120.044200 99142.700000
120.056900 594131.500000
121.064700 4160257.800000
122.036100 335923.400000
122.060000 1682807.400000
122.072200 112968.000000
123.044000 637361.200000
124.075700 125390.900000
125.015200 93050838.800000
127.054100 521360.000000
128.062000 4319929.000000
129.069900 2085138.000000
130.041600 98576.800000
130.065100 932690.900000
131.049200 3750153.400000
131.072800 454629.300000
132.044400 173417.100000
132.057000 880629.300000
132.080700 343411.200000
133.051900 585790.000000
133.064900 880381.500000
134.060000 2059734.300000
135.044000 3423560.800000
136.051900 422756.600000
136.075700 2136256.300000
137.059700 983557.600000
138.010800 127381.600000
138.067600 308813.200000
138.994600 1006607.900000
139.005500 139510.800000
140.026200 1968970.500000
141.069700 106882.900000
142.065100 110976.900000
143.073100 399751.400000
144.056800 1222325.700000
144.080800 871454.600000
145.064800 3198666.600000
146.060000 2609282.700000
146.072500 1340391.500000
147.044000 3049180.700000
147.068000 787415.400000
148.051900 4845964.200000
148.075500 1744415.700000
149.015300 692062.400000
149.059700 1268961.000000
149.083500 186070.000000
150.055000 2718459.500000
150.067700 1230609.400000
151.075300 496118.500000
152.002400 364447.900000
152.026200 1686293.300000
153.069700 100483.400000
155.060400 507177.400000
156.080900 157106.000000
157.064800 533295.100000
159.044200 239876.000000
159.068000 202097.900000
159.080600 176482.900000
160.051700 109044.200000
160.075500 904521.400000
161.059700 554163.400000
161.083500 140909.600000
162.054700 758704.700000
163.062700 390767.100000
164.070500 3474970.500000
165.070000 1238233.700000
165.078400 1074148.100000
166.077800 498822.900000
167.085500 202682.500000
170.060100 347600.600000
172.076000 540853.800000
173.083900 158295.200000
175.030900 136630.700000
175.075500 124694.100000
176.070500 1444641.200000
177.070200 107728.800000
177.078400 550229.600000
178.077500 1673041.000000
179.085300 1331024.100000
180.021400 142462.300000
181.064400 155144.900000
182.072700 201746.100000
184.075900 98829.900000
187.075300 147251.500000
188.070500 100796.200000
189.069500 614466.300000
190.077900 472844.100000
191.085400 1728961.100000
192.093600 112933.300000
193.088300 136738.900000
193.101300 411902.600000
194.072400 1538373.500000
195.080500 367542.400000
196.088200 104284.800000
199.031400 361079.700000
200.039100 94842.500000
201.046600 729005.000000
202.077700 977819.800000
202.085600 122684.600000
203.085500 1853828.000000
204.093700 866979.900000
205.064800 104459.600000
205.101400 813933.300000
206.072300 293612.200000
207.080400 843591.400000
208.088000 1328451.400000
212.038600 604388.900000
213.047000 590966.600000
215.026100 139100.300000
215.085600 2091815.800000
216.093300 782510.400000
217.088600 129211.400000
217.101600 180233.000000
218.095800 130609.800000
219.080400 366877.400000
220.088300 337489.100000
221.096100 348573.400000
225.046600 403486.400000
225.090700 859412.800000
228.033500 325346.900000
228.057900 151640.900000
228.069300 115336.600000
229.041400 1546589.400000
231.056900 125763.500000
234.091200 119459.300000
235.099300 366464.800000
236.107500 204959.300000
237.091400 106586.700000
241.041700 668992.300000
242.049200 165268.900000
242.073600 179545.400000
243.057300 706771.600000
243.079700 139495.800000
244.088200 121222.700000
245.096300 176826.100000
251.062300 144839.500000
253.041000 95932.100000
255.057400 359685.800000
257.036500 118994.900000
263.094600 116537.600000
267.057700 138445.500000
270.068000 128739.700000
271.052700 145999.600000
279.058000 352695.500000
288.078600 120220.700000

>ms2
63.022900 202704.700000
65.038500 709681.100000
69.033500 115273.500000
77.038600 159655.000000
78.046400 615107.000000
79.054200 1283868.200000
80.049500 150336.900000
89.038500 8139550.300000
90.046300 1976046.000000
91.054200 13879213.700000
92.062000 347529.600000
93.069900 1260137.700000
94.041200 405322.200000
94.065100 1348472.000000
95.049100 2764520.500000
98.999600 3359221.100000
102.046400 811784.600000
103.054200 3961633.800000
104.049500 633344.700000
104.062000 773789.800000
105.033500 352634.300000
105.069900 922772.500000
106.065200 777872.500000
107.049100 3122830.100000
108.080800 135142.500000
109.064900 507135.600000
113.015200 154228.100000
115.054200 6251132.400000
116.062000 1905412.400000
117.057300 1301229.400000
117.069800 2855164.400000
118.041200 649600.100000
118.065000 4681550.100000
118.077700 337079.300000
119.049200 1950844.800000
119.073000 184560.500000
120.044400 192995.500000
120.056800 627247.300000
120.080700 128102.900000
121.064800 4544287.900000
122.036200 325838.100000
122.060000 2743107.600000
123.043900 848512.000000
125.015200 83570432.300000
127.054200 514011.700000
128.062000 5146796.700000
129.069900 1390505.200000
130.041500 114075.400000
130.065100 1195150.800000
130.077800 99037.400000
131.049200 4420076.200000
131.073100 347159.000000
132.044100 140267.600000
132.057100 495933.400000
132.081000 709161.000000
133.052200 1032481.600000
133.064800 477328.500000
134.060000 2430276.000000
135.044000 3478645.100000
135.067900 597039.800000
136.051900 439471.700000
136.075700 1971712.100000
137.015300 118252.600000
137.059600 946080.300000
138.067500 95254.600000
138.994500 549130.400000
139.005700 350704.600000
140.026100 1089558.300000
141.069600 137925.300000
142.065700 110873.800000
143.073000 456623.600000
144.057000 1139885.100000
144.080800 510391.600000
145.064800 2315063.600000
146.060000 2594590.400000
146.072600 381639.000000
147.044000 4503442.000000
147.067900 352309.300000
148.051900 1785825.900000
148.075700 1594837.000000
149.015200 660542.900000
149.059800 937226.500000
150.055000 1910983.400000
150.067600 571790.500000
151.075500 517908.000000
152.002200 101699.200000
152.026200 1990570.800000
152.062000 331183.000000
153.069800 318773.600000
154.064700 99115.400000
155.060400 924607.500000
157.064900 785978.400000
158.060100 162168.300000
159.043900 135831.300000
159.067900 89929.100000
160.075600 630009.500000
161.059800 373757.300000
162.054600 184058.900000
163.062600 186809.700000
164.070500 1556880.700000
165.070000 3259789.700000
166.077700 1218723.100000
167.085500 405288.800000
170.060200 176326.400000
172.075600 171979.100000
175.030700 122309.700000
176.070400 1287474.900000
177.070100 434817.300000
177.077900 154511.700000
178.077700 2719270.100000
179.085500 1543122.500000
180.021400 87634.400000
181.064900 471033.500000
182.072800 573340.800000
184.075500 107295.200000
189.070100 1006930.900000
190.077900 847410.000000
191.085400 1712062.800000
192.093400 411435.100000
193.088300 152429.300000
194.072600 1723329.900000
195.080300 165584.300000
196.087900 116959.100000
199.030800 497071.000000
201.046500 475404.500000
202.077600 1549380.200000
203.085500 1599602.500000
204.093400 526237.600000
205.064700 115707.600000
205.101700 413361.800000
206.072700 205585.600000
208.088100 1117373.800000
212.039000 458045.200000
213.046600 469260.500000
215.085700 1571613.600000
216.093600 120242.000000
217.088800 386325.400000
217.101500 94549.800000
218.072900 185080.400000
218.096800 128846.800000
221.095200 93146.800000
225.046700 373790.900000
225.091100 146630.300000
226.054200 144957.900000
228.033500 182125.200000
229.042000 513351.100000
231.080500 425964.800000
234.091600 450457.100000
235.099300 443691.000000
241.041900 382083.700000
255.057400 195427.700000
263.094600 129135.900000

