>compound EQ09683004
>parentmass 412.1919
>ionization [M+H]+
>formula C24H26FNO4
>rt 810.000000
>profile orbitrap
#smiles_iso CC(C)N1C2=CC=CC=C2C(=C1/C=C/[C@H](C[C@H](CC(=O)O)O)O)C3=CC=C(C=C3)F
#smiles_can CC(C)N1C2=CC=CC=C2C(=C1C=CC(CC(CC(=O)O)O)O)C3=CC=C(C=C3)F
#inchikey FJLGEFLZQAZZCD-MCBHFWOFSA-N
#pubchem_id 446155
#mb_accession EQ313601,EQ313602,EQ313603,EQ313604,EQ313605,EQ313606

>ms2
123.043900 1485407.200000
141.054500 2178553.600000
159.065000 720272.500000
212.087500 729045.100000
222.070900 160602.500000
223.079000 363280.700000
224.086900 18057725.500000
238.102500 203631.800000
254.133900 2512294.100000
264.118700 223570.200000
266.134000 103027885.900000
280.149600 5689066.500000
290.133600 547332.900000
292.149900 157976.600000
306.165000 467374.600000
334.123400 339497.900000
352.134400 4132611.100000
369.136800 212407.700000
370.144900 9369855.200000
376.170700 2517629.900000
394.181100 33139242.800000
412.191700 143749326.700000

>ms2
55.017900 386676.800000
71.049100 370995.200000
81.033500 654962.100000
89.023300 494051.200000
95.049100 2668481.200000
97.028300 1361417.900000
115.038900 435271.700000
123.043900 8731230.000000
141.054500 5628332.600000
159.065200 394534.100000
196.067700 558282.400000
197.076100 740122.900000
204.080200 470296.800000
211.079300 159678.900000
212.087000 2716700.600000
222.070500 777293.000000
223.079200 4080526.200000
224.087000 128908481.400000
238.102600 3602067.200000
248.086400 182417.200000
250.102700 194790.300000
253.126500 1575162.100000
254.133900 2736502.200000
264.118400 2608282.800000
266.133900 136755445.300000
267.137500 161947.000000
274.101600 651050.400000
280.149500 6428855.000000
281.153500 693317.600000
288.118300 199022.800000
290.133200 809519.600000
292.149700 721005.800000
306.165000 3578940.700000
334.123600 1473156.900000
351.126800 781191.500000
352.133900 1130821.300000
369.136600 1048365.900000
370.145400 662940.700000
376.170700 3056765.500000
394.181300 3853324.900000
412.191500 627521.600000

>ms2
55.017900 1180297.000000
67.054200 1642791.900000
69.033400 660917.600000
71.012700 648797.700000
71.049100 807862.400000
81.033500 1167989.600000
89.023300 659681.100000
95.049100 6282383.400000
97.028400 2175301.500000
122.039800 502971.800000
123.043900 8302418.100000
141.054500 1191202.200000
168.080700 362564.700000
177.069800 864889.400000
196.068200 3470845.000000
197.076000 20342941.000000
204.080800 3116446.500000
209.076100 532874.800000
211.079300 1911875.400000
212.087000 4068146.900000
222.071200 3949755.800000
223.079300 19280568.400000
224.086900 261201562.900000
235.078800 728092.500000
236.087200 1125853.500000
238.102600 12489587.900000
239.105500 495930.300000
248.086800 974306.700000
249.095000 615609.400000
250.102900 1024777.800000
251.111100 666366.600000
253.126100 1378290.800000
262.102500 557466.400000
264.118400 4552055.000000
266.133900 35259616.800000
274.102600 1939485.100000
275.111200 436526.100000
280.149000 790670.700000
288.118000 1538242.000000
290.133500 532013.600000
306.165100 566647.000000
334.123600 743934.700000
351.126500 407872.700000

>ms2
67.054200 1891897.000000
69.033500 800568.900000
71.012600 1261261.800000
71.049100 781368.500000
81.033400 1370457.600000
89.023300 353698.800000
95.049000 6536424.100000
97.028400 1549389.600000
122.039800 905940.700000
123.043900 4613062.300000
141.054600 213257.900000
143.085400 235140.500000
168.080600 533321.300000
177.069700 4371688.800000
196.068200 11350693.400000
197.076000 55673491.200000
204.080800 10949140.300000
209.063400 678935.800000
211.079300 2398338.200000
212.087000 3947912.600000
218.096500 388402.300000
222.071400 9935735.700000
223.079300 29971459.300000
224.086900 211534009.300000
225.090800 365791.000000
235.079300 1189542.600000
236.087100 1491986.000000
237.094300 585099.800000
238.102500 10494019.600000
248.087000 2369966.700000
249.095000 1137001.700000
250.103000 889647.400000
251.111000 663888.900000
253.126000 449543.000000
261.094700 489110.700000
262.102900 877563.600000
264.118100 1893817.100000
266.134000 6110730.700000
274.102300 1808022.300000
288.118000 1036554.100000

>ms2
67.054200 1687231.800000
69.033400 895417.600000
71.012700 881435.900000
71.049100 953819.900000
73.028400 204683.700000
77.038400 117416.900000
81.033500 1284949.100000
85.028400 128822.400000
91.054200 221826.100000
95.049100 4268857.100000
97.028400 643660.600000
99.043800 144868.600000
109.044800 210587.600000
115.054300 141416.100000
121.044700 230208.800000
122.039900 1250041.600000
123.043900 550756.200000
128.049400 612757.900000
128.061800 163037.700000
130.065400 109584.600000
133.044800 180618.900000
142.077800 107237.500000
146.040100 363696.500000
146.059900 670403.200000
153.070100 170305.200000
154.065200 199462.500000
164.050300 1092467.700000
165.069800 984466.600000
168.080700 415305.900000
169.064400 91042.800000
176.061800 1313697.600000
177.069700 20535867.600000
181.064500 103835.800000
183.060400 351545.300000
185.076100 431105.700000
191.073200 193929.000000
192.081400 139857.600000
195.060300 222823.400000
195.080400 579255.600000
196.068200 40167211.400000
197.076000 78652263.000000
198.071400 341916.300000
203.072600 464252.200000
204.080800 21053733.100000
205.088400 118023.800000
207.060700 385410.000000
209.063600 1969752.000000
211.079200 2992044.200000
212.087000 2166561.400000
217.088800 509950.300000
218.096600 508307.500000
220.068300 369959.100000
221.076000 199308.000000
222.071300 26462455.200000
223.079100 31389120.100000
224.086900 77591507.000000
225.095000 393970.300000
233.076300 107136.700000
235.079400 1774913.200000
236.086900 2131428.400000
237.094900 687343.300000
238.102600 4495939.000000
239.106000 107544.300000
248.087100 3122159.600000
249.094900 995309.700000
250.102600 1070786.600000
251.110300 756394.000000
254.096100 174562.800000
260.086200 134673.200000
261.095100 523646.800000
262.102200 1250711.500000
264.119100 146096.600000
266.134100 542381.700000
272.087100 472524.300000
273.095000 225700.300000
274.102600 1201810.300000
288.117900 203413.800000

>ms2
65.038500 367048.300000
67.054200 1925447.500000
69.033500 1013563.700000
71.012600 912163.200000
71.049100 788206.200000
73.028400 150796.000000
77.038600 142781.000000
81.033400 933937.000000
85.028400 172651.600000
91.054200 460849.400000
95.049100 3241405.500000
97.028500 227795.600000
99.044100 147828.600000
105.044700 409777.100000
109.044800 596167.700000
115.054000 1097366.900000
121.044700 435028.900000
122.040000 1573252.000000
123.043800 130765.200000
128.049400 2372631.400000
128.062100 142314.100000
130.065100 121996.600000
133.044700 440700.900000
146.040000 1589745.600000
146.059900 1948235.700000
153.069800 390232.800000
154.065100 399697.300000
164.050500 2911258.700000
165.069900 1496295.500000
168.080900 494314.100000
169.064700 846793.600000
176.062000 5832931.400000
177.069800 30431758.900000
181.064500 232871.800000
183.060500 1162098.000000
185.076100 219622.600000
191.072800 369778.000000
192.080700 117861.200000
194.052800 425890.600000
195.060700 1360836.900000
195.080600 703563.800000
196.068200 80194544.900000
197.076000 48799287.200000
198.071100 520677.800000
203.072700 1695168.800000
204.080800 21316564.000000
205.089200 155656.600000
207.060300 509021.300000
209.063500 2804228.600000
211.079100 3457447.900000
212.086800 891932.700000
217.088600 792183.200000
218.096500 463838.900000
220.068100 816179.900000
221.076400 453539.200000
222.071300 52176841.500000
223.079100 24035189.700000
224.086900 23214365.600000
233.076900 97917.000000
235.079300 2478566.700000
236.087000 2089891.800000
237.094700 650812.100000
238.102500 1578713.500000
248.086900 3514021.600000
249.094800 749158.400000
250.102800 1711484.200000
251.110900 229395.900000
254.095900 145647.800000
260.086500 162547.300000
261.094800 759239.900000
262.102600 845581.500000
264.082900 105766.200000
272.086800 728502.800000
274.102300 562516.000000
288.118300 113783.800000

