>compound EQ10072224
>parentmass 160.1808
>ionization [M+H]+
>formula C8H21N3
>rt 42.000000
>profile orbitrap
#smiles_iso CN(C)CCCNCCCN
#smiles_can CN(C)CCCNCCCN
#inchikey OMKZWUPRGQMQJC-UHFFFAOYSA-N
#pubchem_id 82728
#mb_accession EQ300701,EQ300702,EQ300703,EQ300704,EQ300705,EQ300706

>ms2
58.065200 3069950.900000
70.065000 188745.500000
86.096500 49534045.700000
87.091700 305206.900000
98.096500 4874242.100000
103.123000 297500.000000
115.123000 18504636.800000
143.154300 1233070.300000
160.180900 46207424.700000

>ms2
58.065200 2976120.400000
70.065000 172398.700000
86.096500 47011432.700000
87.091700 223639.700000
98.096500 4932071.700000
103.123000 240661.100000
115.123000 17794182.700000
143.154300 1072200.700000
160.180900 44820574.200000

>ms2
58.065300 8882287.000000
70.065200 727741.800000
86.096500 58930146.000000
87.091700 339065.200000
98.096500 14164194.200000
103.123100 319142.900000
115.123100 15426219.200000
143.154500 708185.600000
160.180900 7609840.900000

>ms2
58.065300 14587445.500000
70.065200 1399281.600000
72.080800 90460.600000
86.096500 56365063.200000
87.091700 248702.500000
98.096500 18827949.500000
103.123000 157603.300000
115.123100 9543187.500000
143.154400 267710.000000
160.181000 1777747.800000

>ms2
58.065200 22549780.100000
70.065200 3739328.500000
71.073000 159875.300000
72.080800 95534.300000
86.096500 41061215.600000
87.091700 79247.000000
98.096500 18654665.700000
115.123000 2933530.400000
160.181300 116057.700000

>ms2
56.049600 43672.800000
58.065200 29037888.700000
70.065200 6112171.900000
71.073000 426245.900000
72.080800 84057.900000
84.080900 113318.200000
86.096500 25342444.400000
98.096500 13252899.300000
115.123000 575159.100000

