>compound EQ13672857
>parentmass 358.2377000000001
>ionization [M+H]+
>formula C22H31NO3
>rt 534.000000
>profile orbitrap
#smiles_iso CCN(CC)CC#CCOC(=O)C(C1CCCCC1)(C2=CC=CC=C2)O
#smiles_can CCN(CC)CC#CCOC(=O)C(C1CCCCC1)(C2=CC=CC=C2)O
#inchikey XIQVNETUBQGFHX-UHFFFAOYSA-N
#pubchem_id 4634
#mb_accession EQ302501,EQ302502,EQ302503,EQ302504,EQ302505,EQ302506

>ms2
72.080600 2394632.800000
96.080800 1912007.500000
97.028400 1922393.300000
105.033100 2419548.500000
124.112200 23828526.600000
142.122800 10427800.900000
258.149500 3348112.400000
340.227500 21786039.700000
358.238000 1509665814.300000

>ms2
54.034000 11169599.700000
55.054400 1295818.300000
56.049600 943035.400000
58.065200 7383379.300000
59.049300 385822.700000
67.054300 2447933.400000
68.049500 14211888.400000
69.033600 7860373.200000
69.069800 3644910.600000
70.065200 6164815.400000
71.049100 422311.400000
72.080800 35039082.300000
73.088600 801456.700000
74.096500 475846.900000
77.038500 493195.600000
79.054300 13883616.200000
80.049600 2596440.000000
81.057400 2139404.800000
81.070000 11481748.700000
82.065200 40184454.700000
83.073000 772023.100000
83.085600 7206612.000000
84.080900 4312796.400000
86.096500 3583720.100000
91.054200 6529371.200000
94.065200 13701264.700000
95.049100 591755.200000
95.073000 9438492.900000
95.085600 2017112.200000
96.080900 32649350.800000
97.028500 53171392.800000
98.096500 490130.200000
105.033600 36868055.200000
107.049200 6114112.700000
107.085600 3395441.000000
108.080900 4723004.800000
109.064800 609840.600000
109.088700 11763985.300000
113.023400 499468.100000
117.069800 471371.000000
122.096500 12683128.600000
124.112200 163887827.700000
125.119800 3490066.000000
129.070000 5974474.500000
142.122800 115727349.900000
143.085600 1438034.400000
157.064900 1885103.700000
169.101300 498684.700000
171.116900 15684908.500000
173.059900 2221590.800000
181.101400 1502833.400000
185.059800 2820664.100000
187.075900 3545029.000000
189.127600 23869878.800000
199.111900 9831152.600000
203.070300 3713331.900000
257.142200 423175.400000
258.149100 9135823.700000
267.138400 5824464.800000
340.227500 58478050.100000
358.238100 380194934.400000

>ms2
51.023000 347645.400000
53.038700 561365.500000
54.034000 14602728.000000
55.054400 672442.100000
56.049600 1294165.800000
58.065200 42654797.300000
59.049200 414709.400000
63.007800 704459.300000
65.038700 1806277.700000
67.041800 507519.600000
67.054300 6950954.700000
68.049500 33132925.100000
69.033500 32687759.800000
69.070000 6501270.600000
70.065200 6469432.300000
71.049200 533145.200000
72.080800 120326612.300000
73.088600 4176112.100000
74.096500 2001591.000000
77.038600 1836080.300000
79.054300 27323668.300000
80.049500 7998362.700000
81.057400 9739192.300000
81.070000 14262668.600000
82.065200 29152829.900000
83.073000 1548148.300000
83.085600 9527871.200000
84.080900 6056973.200000
86.096500 6316975.200000
91.054300 22298124.500000
93.057200 292262.000000
93.070000 2070597.700000
94.065200 33968689.300000
95.049200 5268128.400000
95.073000 10149459.200000
95.085700 1934704.100000
96.080900 35276887.100000
97.028500 78495999.900000
98.096500 1340497.300000
99.080500 819500.200000
103.054400 612240.100000
105.033600 89872943.000000
107.049300 39989957.300000
108.080900 15355556.400000
109.064900 1369150.000000
109.088700 12861244.500000
110.096500 317980.200000
111.080400 578932.000000
113.023200 2431936.300000
114.091600 540635.300000
115.054300 1158908.500000
117.069900 2059358.500000
119.060400 488370.900000
121.064900 1838694.100000
122.096500 8207589.100000
124.112200 35817662.100000
125.120000 4230966.400000
128.062200 2053262.700000
129.070000 25601195.300000
131.085700 491757.900000
141.070000 1614389.200000
142.122900 154575901.500000
143.085600 4600088.000000
145.065100 616814.300000
155.048700 378658.400000
155.085500 531782.500000
157.065100 3274303.700000
165.070400 442523.700000
166.077900 366485.400000
169.101500 771806.100000
171.117000 20694677.700000
173.060000 2985572.500000
181.101400 2681017.400000
183.103900 425841.200000
185.060400 1500056.700000
187.075900 1378608.700000
189.127600 29638068.100000
199.111900 10488850.100000
203.070600 595031.400000
267.138900 543683.200000
340.228500 2156438.600000
358.238200 6892031.300000

>ms2
51.023100 399058.300000
53.038800 632753.900000
54.034000 16125469.200000
55.054400 1292870.600000
56.049600 1344756.600000
58.065200 58289165.900000
59.049200 780932.700000
63.007800 1946415.200000
65.038700 706235.200000
67.041700 1320579.400000
67.054300 8850692.500000
68.049500 31150242.100000
69.033500 31480504.200000
69.069900 5058117.900000
70.065100 3980559.700000
71.049200 1339772.100000
72.080800 159701352.700000
73.088600 3408522.700000
74.096500 2920258.100000
77.038600 1973280.300000
79.054300 33974261.600000
80.049600 10273357.500000
81.057400 11280340.700000
81.070000 8960074.100000
82.065200 14212366.400000
83.073100 470223.000000
83.085600 7847465.900000
84.080900 3222096.700000
86.096500 5481968.800000
91.054300 34967475.000000
93.057300 395870.900000
93.070000 2439317.400000
94.065200 31663001.600000
95.049200 11399399.700000
95.073000 5796872.000000
95.085600 794430.600000
96.080900 16583419.000000
97.028500 44948340.600000
98.096400 576296.800000
99.080500 566445.300000
103.054300 691042.600000
105.033600 87589473.500000
107.049300 56181286.800000
108.080900 13129921.600000
109.088800 6420340.600000
110.096400 410981.200000
111.080600 398605.000000
113.023300 653153.500000
114.091300 431728.900000
115.054200 1761570.900000
117.069900 4555704.400000
121.064900 2311349.200000
122.096500 4139078.700000
124.112300 5185553.000000
125.120100 344745.700000
128.062100 2134181.300000
129.070000 23421226.300000
131.085700 387356.000000
141.069900 1837546.300000
142.122900 114902297.800000
143.085800 5742970.500000
145.065100 428293.300000
155.049100 424002.900000
155.060700 474227.300000
155.086100 637182.200000
157.065000 4377426.900000
165.069900 409987.900000
166.077300 585041.800000
169.101200 405007.400000
171.116900 10917452.700000
173.060000 1517435.200000
181.101000 1389376.400000
183.104500 491223.000000
185.059700 705506.700000
189.127600 13444693.100000
199.111900 4841345.800000

>ms2
50.015300 1293822.900000
51.023100 559878.700000
53.002300 662869.000000
54.034000 12797699.900000
55.054400 786164.200000
56.049600 496497.800000
58.065200 78700774.900000
59.049300 764233.000000
63.007800 1747023.700000
65.038700 2466913.600000
67.041700 2207709.000000
67.054300 9736019.300000
68.049500 27283233.700000
69.033600 21377530.800000
69.069900 3273585.300000
70.065200 1348827.200000
71.049200 479517.500000
72.080800 168790217.000000
73.088700 1857294.500000
74.096500 4967168.600000
77.038700 2086030.000000
79.054300 48088519.900000
80.049600 13704586.800000
81.057400 10118244.800000
81.070000 5256135.800000
82.065200 5311082.700000
83.085600 6397189.500000
84.080900 1418664.500000
86.096500 6388313.900000
91.054300 40928925.300000
93.069900 1953989.900000
94.065200 25289871.400000
95.049200 20912051.100000
95.073000 2682085.500000
96.044500 464761.900000
96.080900 6481412.900000
97.028500 16611019.800000
103.054400 2132322.200000
105.033600 69296931.100000
105.044800 4730975.100000
107.049300 48917063.100000
108.080900 9865106.500000
109.088700 1867505.900000
110.097000 325628.900000
115.054300 3479373.600000
117.070000 4606676.500000
121.065000 1299084.200000
122.096500 760270.300000
124.112100 517707.000000
128.062200 6824490.400000
129.070000 27128667.400000
141.070300 752811.600000
142.122900 47653258.800000
143.085800 5537746.600000
145.064900 1581645.600000
155.060900 508195.400000
155.085800 395994.500000
157.065300 2497639.500000
165.070000 677079.200000
166.077900 2414764.400000
171.116900 4275588.400000
173.060000 387277.100000
189.128000 1593100.600000

>ms2
50.015300 1355249.600000
51.023100 609550.500000
53.002400 744685.300000
53.038700 2761786.300000
54.034000 11282820.000000
55.054400 1931305.500000
56.049500 257472.900000
58.065200 84528919.900000
63.007800 1434820.900000
65.038700 2183392.200000
67.041700 2845335.200000
67.054300 7179197.500000
68.049600 18249803.500000
69.033600 10906776.400000
69.069900 3858004.100000
70.065200 666363.900000
72.080800 120497472.600000
74.096500 6109250.700000
77.038500 3080779.200000
79.054300 60507243.400000
80.049600 12397884.300000
81.057400 7793250.900000
81.070000 3660250.400000
82.065100 2349820.700000
83.085700 3150856.000000
86.096500 4095831.400000
91.054300 42571990.300000
93.057300 433127.000000
93.070100 1050786.400000
94.065200 19465877.600000
95.049200 28726910.300000
96.044600 538810.100000
96.081000 1955430.300000
97.028500 3627998.700000
103.054400 3193117.200000
105.033600 43498412.100000
105.044800 7640429.000000
107.049300 26641653.400000
108.081000 7173287.500000
115.054400 4055581.900000
117.070000 5637261.500000
121.065000 634430.400000
128.062200 7342067.700000
129.070000 21042652.000000
141.070200 1738592.100000
142.122900 14124057.200000
143.085600 2787908.200000
145.065100 1514087.600000
155.060900 767296.200000
157.065200 1243766.700000
165.070300 1473102.500000

