>compound EQ14525429
>parentmass 339.0201
>ionization [M+H]+
>formula C14H11ClN2O4S
>rt 336.000000
>profile orbitrap
#smiles_iso C1=CC=C2C(=C1)C(=O)NC2(C3=CC(=C(C=C3)Cl)S(=O)(=O)N)O
#smiles_can C1=CC=C2C(=C1)C(=O)NC2(C3=CC(=C(C=C3)Cl)S(=O)(=O)N)O
#inchikey JIVPVXMEBJLZRO-UHFFFAOYSA-N
#pubchem_id 2732
#mb_accession EQ313401,EQ313402,EQ313403,EQ313404,EQ313405,EQ313406

>ms2
241.005400 147382.900000
242.011800 145207.100000
243.020900 193427.000000
304.968500 74808.100000
321.993600 60570659.000000

>ms2
79.980000 272296.900000
148.039400 68882.400000
152.061900 53130.600000
185.015500 83581.300000
222.054800 70202.900000
223.062600 165235.000000
231.020600 240506.400000
241.005200 3955220.400000
241.016000 229798.100000
242.011600 145766.300000
243.020900 5299861.200000
258.031500 326533.600000
259.015800 1893033.500000
269.011300 112740.600000
286.016700 50486.200000
303.983100 58792.700000
304.967100 2454448.200000
321.993600 49895388.900000

>ms2
63.985200 20341.700000
79.980100 2757723.900000
105.033400 272340.400000
126.046300 147031.400000
130.028800 57009.300000
139.054100 63928.300000
144.008000 90529.800000
148.039300 506523.600000
150.045700 147845.000000
151.054200 61147.800000
152.062000 375849.800000
153.033500 130468.700000
161.015300 543647.600000
166.065200 25441.300000
167.049300 188722.900000
167.072700 52612.400000
168.057000 74499.400000
177.057200 57583.500000
179.025800 135728.800000
179.048900 60436.700000
180.056900 16874.500000
182.036100 133066.400000
185.015300 2074419.800000
186.023000 91790.300000
187.031000 42668.200000
189.010200 343970.400000
189.021300 346524.000000
194.060200 80084.500000
195.044000 151630.800000
196.051800 88211.400000
197.059600 57217.700000
203.025900 261061.900000
207.044300 173599.600000
207.054600 26483.200000
213.010200 1333712.100000
214.017800 116600.600000
215.025600 52896.100000
217.005200 45569.700000
222.054900 318232.000000
223.062800 855470.900000
224.046600 126412.300000
226.049800 47111.900000
229.005800 21661.700000
230.036400 49570.300000
231.020800 2823199.300000
238.050200 74591.400000
240.011400 44893.600000
240.021600 49351.700000
241.005300 13354129.100000
241.016100 2145208.300000
242.012800 180545.500000
243.020800 15998279.600000
258.031800 1099096.400000
259.015800 3361937.600000
269.010900 184752.100000
274.002500 80158.200000
286.016600 60095.700000
303.983500 127340.600000
304.967100 2289435.000000
321.993600 7728196.200000

>ms2
63.985200 126023.600000
77.038400 18774.500000
79.980100 4601566.400000
95.049300 23053.100000
97.990600 15242.000000
105.033500 587421.000000
115.054100 24119.300000
126.046400 335966.800000
127.054200 42924.700000
130.028800 135832.800000
138.994500 47834.700000
139.054100 312333.300000
140.049500 20600.400000
143.049400 51146.300000
144.008100 187032.500000
144.057000 22013.100000
145.064900 50317.400000
148.039300 618675.400000
149.039000 20527.000000
150.046300 472939.000000
151.054300 288007.700000
152.062100 1626570.800000
153.033500 349093.600000
154.041300 18666.200000
154.989400 16726.100000
155.060300 89034.400000
161.015300 1358230.700000
166.065500 80762.200000
167.049200 486880.500000
167.073000 133169.200000
168.057000 303224.100000
169.064500 85306.000000
175.030700 87501.400000
177.057400 130358.200000
179.026000 292286.900000
179.049200 281345.200000
179.984600 53382.000000
180.057100 172168.300000
182.036300 288610.300000
183.044200 30425.000000
185.015400 5634951.900000
186.023100 348488.500000
187.030800 176413.600000
189.010300 874287.600000
189.021400 828070.800000
194.060000 98064.700000
195.044200 506760.100000
195.068000 220658.300000
196.051800 360286.600000
197.059800 344865.000000
201.010400 15534.100000
203.025800 1314127.700000
207.044400 605020.200000
207.055500 161758.400000
213.010500 2260243.000000
213.021300 423074.600000
214.018000 575599.900000
215.025600 147074.500000
217.005800 41220.200000
222.055000 314838.300000
223.040300 90412.300000
223.062800 1288552.200000
224.047000 276056.800000
226.050000 25706.200000
229.005400 44415.200000
230.036700 63950.200000
231.020900 3571743.100000
238.050500 61187.600000
240.011300 43625.900000
240.021900 47904.500000
241.005400 7805050.800000
241.016400 2344236.400000
242.013000 350295.100000
243.020800 14192555.200000
258.031800 768745.000000
259.015800 1778018.500000
269.012200 45702.600000
274.002600 151115.000000
303.982900 43632.200000
304.967000 551040.200000
321.993700 1062227.400000

>ms2
63.985200 217347.600000
75.022800 18076.100000
77.038400 21532.700000
79.980100 5376206.700000
95.049100 195245.700000
97.990500 22623.400000
98.999600 8686.400000
99.022200 11279.700000
105.033500 925003.300000
105.044700 48839.200000
115.054000 52201.700000
119.012700 24865.100000
120.044200 11737.200000
125.038400 46749.500000
126.046300 416544.100000
127.054300 200764.100000
129.010200 18926.400000
130.028800 215406.400000
138.994500 260275.200000
139.054200 1108347.100000
140.049400 68851.100000
140.062200 30636.100000
143.049200 61009.200000
144.008100 208233.400000
144.056900 40789.000000
145.064900 204707.600000
148.039300 428549.900000
149.038600 114628.100000
150.046500 3027557.400000
151.054300 1065893.700000
152.062100 5541352.400000
152.974000 20769.500000
153.033500 404544.000000
154.005400 53330.900000
154.041300 77822.300000
154.064800 11179.400000
154.989300 117431.900000
155.049300 141289.000000
155.060300 268640.300000
161.015300 1365188.500000
166.065200 170382.100000
167.049200 765617.200000
167.072900 467292.900000
168.057000 885332.900000
169.064800 341772.500000
173.015300 53856.300000
175.030900 248723.000000
177.033400 20637.800000
177.057300 330986.900000
179.025800 333884.300000
179.049100 612334.800000
179.060600 73403.000000
179.984800 45523.700000
180.057000 314373.500000
181.028400 132561.400000
182.036300 255882.400000
183.044100 67265.600000
185.015400 6456961.200000
186.023100 1825101.500000
187.031000 219054.400000
189.010300 1133590.100000
189.021300 1021897.800000
194.060000 136697.400000
195.044200 725432.300000
195.067900 588795.600000
196.051900 620419.000000
197.059800 505691.900000
201.010300 49389.500000
202.018100 70929.300000
203.025800 3814384.200000
205.028700 39914.900000
207.044200 843643.100000
207.055300 257193.000000
213.010200 1146235.400000
213.021400 1540736.900000
214.018000 1257281.300000
215.025800 165146.000000
217.005400 41799.400000
217.967400 44163.500000
218.012900 66113.200000
222.055000 251105.000000
223.039500 105088.400000
223.062800 914169.100000
224.047000 206643.100000
225.054500 60184.500000
230.037100 14147.700000
231.020800 1781535.500000
241.005200 1049974.700000
241.016600 574933.100000
242.013100 202806.500000
243.020900 4923257.400000
258.031700 189253.800000
259.015800 418688.300000
274.003100 107512.200000
304.968200 10679.000000

>ms2
63.985200 292231.400000
75.022700 21261.800000
77.038500 100013.500000
79.980100 5233702.600000
95.049100 356305.200000
98.999600 57965.800000
99.022600 11279.700000
105.033500 900298.100000
105.044800 124675.400000
115.054300 82328.400000
119.012700 100097.400000
120.044400 44185.200000
125.038600 57394.900000
126.046300 193345.000000
127.054300 284448.500000
129.010200 44030.600000
130.028800 409087.800000
138.994600 541662.900000
139.005800 112755.974500
139.054200 2242894.200000
140.049600 156027.900000
140.062000 310636.500000
143.049100 14475.400000
144.008200 165225.200000
144.057200 21854.300000
145.064900 238234.000000
148.039400 281070.500000
149.038700 334324.200000
150.046500 9811232.100000
151.054300 1614639.500000
152.062100 7934256.100000
152.973800 50149.600000
153.033400 216075.000000
154.005400 104534.800000
154.041500 30377.700000
154.065300 22908.700000
154.989400 196583.200000
155.049300 237400.300000
155.060300 327150.800000
161.015300 588854.600000
166.065200 318408.100000
167.049200 537627.500000
167.073000 745634.900000
168.057000 1360101.700000
169.064800 1326108.700000
175.030900 174982.600000
177.057300 378636.600000
179.025800 178341.900000
179.049200 824585.300000
179.060500 308261.800000
179.984400 12195.100000
180.057000 242551.500000
181.028400 75674.000000
182.036100 105019.900000
185.015400 3059988.000000
186.023100 4064080.100000
187.031200 58875.900000
189.010300 515234.400000
189.021500 508053.300000
194.060200 122659.000000
195.044200 536493.900000
195.067900 519657.700000
196.052000 404577.500000
197.059700 193716.900000
201.010100 24526.800000
202.018200 50307.600000
203.025800 3695462.300000
205.029100 15295.000000
207.044400 525741.100000
207.055400 100153.300000
213.010400 305345.400000
213.021500 1611916.732000
214.018000 1053004.000000
215.025900 54891.700000
217.005200 16074.300000
217.967200 18165.100000
218.013400 20047.700000
222.055300 212807.823300
223.039600 76090.100000
223.062800 318691.300000
224.047000 40386.400000
231.020800 347654.400000
241.006300 111734.791200
241.016000 102255.200000
242.013100 70138.500000
243.021000 818720.900000
259.015900 76788.800000

