>compound EQ15234284
>parentmass 441.03809999999993
>ionization [M+H]+
>formula C17H16ClF3O6S
>rt 594.000000
>profile orbitrap
#smiles_iso CS(=O)(=O)C1=C(C(=C(C=C1)C(=O)C2C(=O)CCCC2=O)Cl)COCC(F)(F)F
#smiles_can CS(=O)(=O)C1=C(C(=C(C=C1)C(=O)C2C(=O)CCCC2=O)Cl)COCC(F)(F)F
#inchikey IUQAXCIUEPFPSF-UHFFFAOYSA-N
#pubchem_id 11556911
#mb_accession EQ317701,EQ317702,EQ317703,EQ317704,EQ317705,EQ317706

>ms2peaks
241.085700 400955.700000
245.078300 188067.600000
259.060100 76858.300000
261.031200 16929988.000000
262.038900 18231829.000000
277.026300 245542.000000
290.024200 116253.100000
305.047600 13879539.700000
341.024300 32556172.600000

>ms2peaks
184.999900 93339.200000
230.057300 628153.000000
233.036200 206362.300000
241.085700 2864920.800000
242.057200 191877.600000
242.093300 307169.100000
243.065000 609447.700000
245.044400 522599.500000
245.078400 37032.700000
246.034300 876731.200000
259.060200 358116.400000
260.023400 199654.200000
261.031200 16367407.700000
262.038900 33099753.600000
277.026100 842863.600000
289.016000 35481.400000
290.024100 684338.600000
305.047500 17609774.600000
306.055000 88494.500000
341.024200 6845247.100000

>ms2peaks
121.028300 132522.500000
147.044200 68512.000000
149.023000 178836.500000
166.989100 854625.600000
178.017600 113542.600000
184.999900 884963.000000
197.059300 78250.000000
198.067100 43933.600000
199.075200 97803.900000
202.062100 601799.400000
205.041100 221504.100000
211.005700 130323.000000
213.054300 78259.700000
213.091000 319631.300000
214.062200 261142.900000
215.025500 42854.100000
219.020600 126231.800000
220.028500 172272.300000
227.070100 311601.400000
230.057200 541659.600000
232.026800 39905.500000
232.037700 143175.500000
233.036300 1152285.500000
240.077900 452004.300000
241.049500 488908.325500
241.085700 4141270.000000
242.057100 1954019.400000
242.093400 816274.100000
243.065000 2149153.500000
245.044500 368147.100000
246.034300 1700395.800000
246.052400 93679.600000
259.060100 148972.900000
260.023400 1857877.300000
261.031200 5632818.000000
262.038800 38003908.200000
272.013600 85813.200000
277.026100 1141362.900000
287.037200 91178.500000
289.016300 681685.300000
290.024000 3082589.000000
291.031500 172041.800000
305.047500 6990960.500000
341.024100 1196239.100000

>ms2peaks
55.018000 112531.300000
62.990000 33087.700000
65.038600 119138.500000
66.010000 130532.500000
66.046400 78398.200000
77.038300 25789.600000
93.033400 119758.700000
94.041300 94856.500000
95.049000 98281.300000
105.033300 74065.300000
109.028400 82723.000000
110.999300 32652.200000
112.007300 39084.800000
115.054000 166578.600000
117.069800 27589.600000
119.048900 118871.500000
121.028300 307172.400000
122.036000 80119.400000
124.007400 30138.000000
126.994300 238387.200000
128.062000 182905.500000
129.069600 210623.400000
131.012500 25941.900000
131.048900 31523.600000
133.028100 78957.100000
138.994400 293788.400000
140.002100 221935.700000
141.010000 226991.100000
141.069700 227624.200000
142.077700 222400.400000
143.049200 41733.100000
143.085500 196323.800000
147.043700 219843.300000
149.023200 397475.800000
151.038800 72579.400000
152.002300 40189.400000
152.061800 84840.900000
153.010200 41420.000000
153.069800 222337.900000
155.048900 33734.300000
157.064700 631947.400000
159.080100 33084.100000
163.030200 26064.800000
165.010000 164455.300000
165.054300 169561.400000
166.018200 36128.600000
166.989200 1474848.500000
167.033600 164800.100000
167.997000 244002.300000
168.057200 27498.800000
169.005000 200162.200000
169.064500 233449.300000
170.035900 32584.100000
170.072400 187384.500000
171.044100 84570.300000
171.080300 570851.000000
173.059800 70135.000000
177.046200 70874.700000
178.017800 1003566.000000
179.025500 145404.400000
181.064700 573411.500000
184.051100 27052.300000
184.999800 1721187.700000
185.059600 689313.300000
186.007700 27057.300000
186.031100 27421.600000
186.067600 42139.000000
187.030500 31651.500000
187.075000 83985.800000
188.046600 26397.800000
191.025700 330299.400000
192.033600 250785.100000
195.080200 38872.100000
197.059400 398791.900000
198.067500 208610.500000
199.038800 202155.900000
199.075200 706530.800000
201.054300 70587.400000
202.062200 1551295.100000
203.025800 39984.200000
204.041800 25950.400000
205.004800 34914.700000
205.041300 344335.200000
206.012800 344872.400000
206.049300 36089.100000
207.020500 173441.700000
209.059600 197376.200000
211.005700 88499.200000
211.075400 82162.100000
212.083000 143851.700000
213.054500 564074.300000
213.090800 291917.200000
214.062200 880277.000000
215.025400 212747.000000
215.070100 275602.900000
216.033500 82276.300000
217.041300 94488.200000
219.020700 320946.900000
220.028300 1024273.200000
223.074900 120731.800000
225.054300 1132829.200000
226.062200 293410.600000
227.070000 2118440.800000
230.057400 97075.000000
231.020700 65570.100000
232.027000 388345.900000
233.036300 869949.400000
234.044100 107329.200000
239.070700 35285.400000
240.077800 684734.500000
241.049300 2094713.700000
241.085700 2023361.100000
242.057100 3299213.300000
242.093300 991362.100000
243.065100 2038493.000000
246.034300 1056241.100000
246.052200 203960.300000
259.015600 89716.600000
260.023400 1502127.800000
261.031300 859792.300000
262.038900 25445527.100000
271.005700 175779.800000
272.013400 106277.900000
273.021300 110420.300000
275.000500 39380.700000
277.026400 438507.100000
287.037400 99496.400000
289.016200 1484171.800000
290.024000 1016783.800000
291.032000 110689.800000
305.047500 747195.400000

>ms2peaks
51.022700 15936.500000
55.018000 137993.200000
62.990000 67817.000000
63.022700 19340.600000
65.038600 396537.400000
66.010000 474769.600000
66.046400 300102.200000
67.017800 104262.200000
67.054200 70577.400000
68.997000 70832.900000
75.022800 73890.400000
77.038500 72322.700000
79.017800 96698.900000
79.053900 19580.500000
81.033400 98513.800000
89.038400 183402.500000
91.054100 221551.200000
92.025600 99155.100000
93.033400 274732.400000
94.041300 224347.900000
95.012700 18717.900000
95.049100 274559.800000
98.999600 42684.800000
102.046300 32948.800000
103.054100 110486.400000
105.033400 370392.900000
105.044400 24463.900000
107.049100 98797.200000
108.020600 31987.200000
109.028300 93476.400000
110.999700 148930.700000
111.043900 70821.100000
112.007400 143005.900000
113.015200 37249.700000
115.054100 862095.300000
116.061900 113569.300000
117.069700 133431.000000
118.041000 18781.600000
119.049000 243886.600000
120.020300 106025.200000
121.028200 395965.400000
122.036100 77735.500000
124.007300 96577.600000
125.015200 69421.400000
126.994400 644714.600000
128.061900 1111617.700000
129.069700 750714.600000
131.012600 40484.300000
131.049000 167684.700000
131.085400 76266.300000
132.020500 106169.800000
133.028300 440284.600000
137.015200 24423.200000
138.023000 19270.800000
138.031000 26060.200000
138.994300 973851.200000
139.005500 183753.100000
139.054000 155617.400000
140.002100 525253.600000
141.010000 366045.900000
141.069700 681375.700000
142.077600 469583.800000
143.049100 212165.000000
143.085500 440643.600000
144.056800 166327.500000
145.064700 184584.300000
146.035900 36898.200000
147.043900 342849.200000
149.023200 638694.000000
150.023000 140842.600000
151.038800 486934.100000
152.002200 88105.900000
152.061800 409678.500000
153.010000 75704.300000
153.069700 619091.300000
154.077600 63843.000000
154.989100 83906.200000
155.049000 96783.200000
155.060000 136814.100000
156.056700 79491.900000
157.064700 1805757.000000
158.036000 102473.600000
158.072400 105821.400000
159.043900 37010.900000
159.080200 33786.700000
163.030800 99770.200000
164.002100 88509.300000
165.010100 446928.000000
165.054300 165470.100000
166.017900 101198.400000
166.025800 74073.600000
166.989200 1681101.000000
167.033600 203344.400000
167.996900 386758.500000
168.056700 115768.600000
169.004800 370423.800000
169.064700 428013.900000
170.036300 38994.000000
170.072400 241514.000000
171.043900 287061.400000
171.080300 821163.100000
172.051500 69379.800000
173.059400 187208.200000
174.031000 101252.133800
175.030600 127072.600000
175.038200 28040.500000
177.010100 35223.300000
177.046400 34436.700000
178.017800 2358016.500000
178.989100 42715.400000
179.025700 375921.800000
181.064600 782259.500000
182.072600 94430.100000
182.984100 74979.300000
183.044300 24019.700000
183.080200 21256.300000
184.051800 186994.900000
184.999900 1982036.600000
185.059600 1530841.000000
186.008000 68717.300000
186.031100 32328.600000
186.067300 39574.600000
187.031000 37095.800000
187.039100 70944.100000
187.075700 42426.400000
188.046500 107247.800000
191.025700 544838.600000
191.034000 63406.900000
191.997200 38458.600000
192.033500 465364.600000
195.044300 81250.300000
195.080400 86095.200000
196.051700 85055.600000
197.059500 907805.300000
198.067400 322969.200000
199.038800 401583.800000
199.075200 748753.400000
200.046800 24230.700000
201.054300 81171.800000
202.062300 1493022.100000
203.025400 76410.100000
204.024400 25605.600000
204.042000 80796.100000
205.005000 137773.700000
205.041600 348499.400000
206.012800 382659.900000
206.049600 27044.000000
207.020700 169496.300000
209.059700 368397.700000
210.007000 33311.800000
211.075000 151934.200000
212.083100 153916.900000
213.054500 1404831.400000
214.062400 998347.823400
215.025700 427185.700000
215.070200 344959.800000
216.033800 61553.200000
217.041300 69357.400000
219.020600 504277.700000
220.028500 858234.600000
223.075100 111707.700000
224.047100 23605.200000
225.054400 1774035.800000
226.062300 189997.600000
227.033900 158063.900000
227.070100 2096951.600000
230.057100 19397.900000
231.020800 158500.100000
232.027100 288387.700000
232.038000 99550.500000
233.036300 809093.900000
234.044100 109567.100000
239.070300 75578.000000
240.077800 310802.800000
241.049300 3232934.300000
241.085500 832079.000000
242.057200 906016.500000
242.093500 531929.200000
243.021400 168524.000000
243.065100 988205.942800
245.026400 117559.000000
246.034300 320220.500000
246.052200 308460.500000
259.015800 116813.600000
260.023400 433053.200000
261.031600 427697.200000
262.039000 7239611.700000
271.005500 246663.300000
273.022200 32175.300000
274.999900 22766.600000
277.026100 92505.400000
287.037600 23038.400000
289.016300 518732.300000
290.024100 48853.900000

>ms2peaks
51.023000 18622.800000
55.018000 146577.900000
62.989900 69370.400000
63.022800 42469.900000
65.038600 868578.900000
66.010000 625019.900000
66.046400 376790.200000
67.017800 220882.500000
67.054200 116393.000000
68.997100 97683.900000
75.022800 400706.700000
77.038500 229283.300000
79.017700 187804.300000
79.054200 42936.400000
81.033400 114592.800000
89.038400 647178.300000
91.054100 485760.000000
92.025500 230096.400000
93.033400 265055.500000
94.041200 184633.300000
95.012700 25029.400000
95.049000 462409.000000
98.999500 114546.600000
102.046300 167405.500000
103.054100 293533.000000
105.033400 815815.000000
105.044600 232646.500000
107.049200 59610.500000
108.020300 139926.200000
109.028200 70411.700000
110.999500 445301.400000
111.043900 105172.100000
112.007300 420004.800000
113.015100 90033.900000
115.054100 2814278.300000
116.061900 165148.700000
117.069600 173855.500000
118.041100 143028.700000
119.049000 247353.000000
120.020300 140536.400000
121.028300 445486.300000
122.036000 20578.600000
124.007300 90366.900000
125.015100 81086.200000
126.994400 635259.100000
128.061900 2525589.800000
129.010000 148971.915400
129.069700 1320266.300000
131.012600 146122.400000
131.049000 350397.200000
131.085400 28679.000000
132.020400 119262.600000
133.028200 584394.100000
137.015100 38185.100000
138.022900 29389.500000
138.030900 67798.000000
138.994300 2114050.000000
139.005500 489351.000000
139.054100 344313.600000
140.002100 582776.600000
141.010000 343482.800000
141.069600 1409318.900000
142.077600 562713.500000
143.049000 375794.300000
143.085300 196042.700000
144.056800 242605.000000
145.064600 429894.300000
146.036000 105051.000000
147.043800 400963.000000
149.023100 479878.200000
150.022900 199578.500000
151.038800 749072.100000
152.002200 90228.900000
152.061800 1092028.700000
153.010100 87548.700000
153.069700 592705.700000
154.077600 54799.400000
154.989200 36176.300000
155.049500 140100.100000
155.060100 421066.600000
156.056700 130009.900000
157.064600 1864507.800000
158.036300 121732.400000
158.072500 105867.200000
159.043900 94307.100000
159.080000 41824.700000
163.030800 69194.900000
164.002100 38111.200000
165.010000 427583.100000
165.054300 93926.400000
166.018200 66305.500000
166.025900 107623.000000
166.989200 1454268.700000
167.033500 125832.900000
167.997000 211077.100000
168.056700 203472.500000
169.004900 308651.100000
169.064600 679469.800000
170.035700 19583.400000
170.072500 162987.700000
171.043800 355749.700000
171.080200 548514.700000
172.051500 84325.300000
173.059400 210323.800000
174.030900 117852.571600
175.030700 28309.700000
175.038400 24395.600000
177.010000 86964.400000
177.046400 31819.800000
178.017800 1944384.300000
178.989100 67015.200000
179.025700 338474.000000
181.064600 818050.200000
182.072400 69466.100000
182.983800 31343.500000
183.044100 69978.300000
183.080300 20365.700000
184.051700 210732.800000
184.999900 2094209.400000
185.059600 1227570.300000
186.007900 34076.400000
186.067600 111991.300000
187.031200 20829.100000
187.039000 90578.000000
188.046700 228192.584900
191.025800 593252.900000
191.034100 61907.800000
191.996900 20522.400000
192.033600 173783.700000
195.043600 124621.600000
195.080000 20943.800000
196.051400 103411.800000
197.059500 1127444.600000
198.067400 252578.100000
199.038700 390101.500000
199.075100 320734.800000
200.047100 23446.600000
201.053900 67031.400000
202.062200 696241.300000
203.025700 112017.600000
204.024200 19814.000000
204.041800 83234.600000
205.004900 77503.900000
205.041300 205112.300000
206.012500 198365.300000
207.020500 92781.800000
209.059600 221991.300000
210.007700 42510.000000
211.075200 110679.700000
212.083000 106637.400000
213.054400 1813514.000000
214.062100 499445.200000
215.025600 421320.500000
215.070000 234988.000000
219.020700 263607.900000
220.028300 235883.900000
223.075100 111493.800000
224.046700 26102.200000
225.054300 1174834.500000
226.062200 103990.800000
227.034000 129314.200000
227.070100 780494.500000
231.020700 138730.900000
232.028400 192916.057200
233.036200 344376.400000
239.070200 39327.000000
240.077700 77108.100000
241.049300 1787956.800000
241.085500 422728.000000
242.057000 105005.500000
242.093400 109948.200000
243.021300 39047.000000
243.064900 410613.200000
245.026600 71764.700000
246.034000 74091.800000
246.052300 195487.100000
259.015400 115481.936400
260.023200 108009.300000
261.031300 148251.000000
262.038800 907351.700000
271.005800 155872.400000
289.016200 31438.700000

