>compound EQ15746628
>parentmass 129.01019999999997
>ionization [M+H]+
>formula C6H5ClO
>rt 438.000000
>profile orbitrap
#smiles_iso C1=CC(=CC=C1O)Cl
#smiles_can C1=CC(=CC=C1O)Cl
#inchikey WXNZTHHGJRFXKQ-UHFFFAOYSA-N
#pubchem_id 4684
#mb_accession EQ306601,EQ306602,EQ306603,EQ306604,EQ306605,EQ306606

>ms2
53.002400 421.300000
53.038600 589.700000
55.017900 2683.000000
57.033500 2187.700000
58.028700 403.800000
61.039600 663.600000
65.038500 909.800000
84.044300 990.600000
85.028300 2932.400000
94.041300 1080.700000
97.028400 3730.800000
121.039400 620.200000
129.010200 11297.100000

>ms2
53.038700 676.100000
55.017900 4499.500000
57.033500 2028.600000
61.039600 587.600000
65.038600 838.700000
69.033500 6294.200000
73.028300 2015.200000
85.028400 3465.900000
94.041300 3356.100000
97.028400 2515.200000
121.039600 1139.100000
129.010300 11320.000000

>ms2
53.002300 606.300000
53.038700 1994.600000
55.017900 3864.100000
57.033600 3603.400000
58.028700 547.400000
61.039700 776.000000
65.038600 1076.600000
69.033500 7436.200000
73.028400 1112.400000
84.044400 2053.800000
85.028500 3619.100000
94.041300 5021.100000
97.028400 2563.200000
121.039500 437.600000
129.010300 7917.500000

>ms2
53.002300 1015.000000
53.038700 2503.100000
55.017900 4080.400000
57.033600 2836.500000
61.039700 541.000000
65.038600 4513.900000
69.033500 6826.200000
70.028900 559.900000
73.028400 908.100000
84.044400 593.000000
85.028400 3241.200000
94.041300 5654.400000
97.028500 1336.900000
129.010300 6389.700000

>ms2
53.002300 2650.400000
53.038700 1973.200000
55.017900 3508.500000
56.013000 506.000000
57.033500 2168.800000
65.038600 4573.200000
69.033500 7242.000000
70.028600 641.000000
73.028400 750.300000
85.028400 1050.400000
94.041300 6783.100000
97.028300 677.700000
121.039900 606.900000
129.010300 2627.000000

>ms2
53.002300 5517.400000
53.038700 2822.800000
55.017900 4582.600000
56.013200 673.100000
57.033600 1082.900000
65.038600 6798.100000
69.033400 5739.400000
70.028700 683.100000
73.028500 474.900000
85.028500 1798.000000
94.041300 8241.000000

