>compound EQ15307880
>parentmass 286.1914
>ionization [M+H]+
>formula C17H23N3O
>rt 312.000000
>profile orbitrap
#smiles_iso CN(C)CCN(CC1=CC=C(C=C1)OC)C2=CC=CC=N2
#smiles_can CN(C)CCN(CC1=CC=C(C=C1)OC)C2=CC=CC=N2
#inchikey YECBIJXISLIIDS-UHFFFAOYSA-N
#pubchem_id 4992
#mb_accession EQ300601,EQ300602,EQ300603,EQ300604,EQ300605,EQ300606

>ms2peaks
72.080800 2148948.800000
78.046400 931954.600000
121.065000 180506956.500000
164.118600 2745209.800000
241.133900 341383131.500000
286.191700 221011104.000000

>ms2peaks
72.080800 3130267.300000
78.046200 1567827.300000
91.054300 599419.000000
95.049300 721937.600000
119.060600 2922340.100000
121.065000 471477003.300000
164.118300 1925175.500000
241.133800 203646665.000000
286.191600 7183683.800000

>ms2peaks
72.080800 3836147.800000
78.046300 2412531.300000
91.054300 3515711.600000
95.049300 2912919.200000
106.041400 765876.300000
119.060600 3260837.700000
121.065000 675481275.900000
241.133700 21897777.100000

>ms2peaks
72.080800 4304474.500000
77.038500 981755.100000
78.046400 3742236.700000
91.054300 8131108.600000
93.069900 844134.800000
95.049300 5934905.900000
105.044800 1774300.800000
106.041600 1503563.000000
119.060700 2349398.900000
121.065000 641399020.700000
241.133700 3219485.000000

>ms2peaks
65.038700 1694405.800000
72.080800 3282266.300000
77.038600 3436843.800000
78.046400 10452507.700000
91.054300 25804092.400000
93.070000 2654322.400000
95.049300 20798846.200000
103.054300 786489.600000
105.044800 4337907.600000
106.041500 4576396.800000
119.060600 1990145.700000
121.065000 572511613.100000

>ms2peaks
65.038700 4478930.800000
70.065200 623648.500000
72.080900 3393460.500000
77.038700 7053528.700000
78.046500 30166509.500000
79.018000 704305.700000
81.033600 1026142.400000
91.054400 55451325.300000
93.070000 3881526.000000
95.049300 43898221.200000
96.044600 928015.000000
103.054500 860553.000000
105.044900 12624410.200000
106.041500 10827390.900000
107.049200 956523.400000
119.060600 1327279.800000
121.065000 430936071.400000

