>compound EQ15861504
>parentmass 312.17250000000007
>ionization [M+H]+
>formula C17H26ClNO2
>rt 864.000000
>profile orbitrap
#smiles_iso CCCOCCN(C1=C(C=CC=C1CC)CC)C(=O)CCl
#smiles_can CCCOCCN(C1=C(C=CC=C1CC)CC)C(=O)CCl
#inchikey YLPGTOIOYRQOHV-UHFFFAOYSA-N
#pubchem_id 91644
#mb_accession EQ311701,EQ311702,EQ311703,EQ311704,EQ311705,EQ311706

>ms2peaks
176.143600 1088167.900000
252.115200 663209018.100000
312.172600 131074701.900000

>ms2peaks
105.069500 1177228.800000
118.065100 1300130.700000
146.096600 2941628.100000
147.104500 1014207.300000
174.127800 1256133.900000
176.143500 15478013.500000
252.115200 726457969.300000
312.172100 3712653.600000

>ms2peaks
76.978900 5950644.800000
91.054200 1918299.800000
103.054100 460800.000000
105.069900 10954947.400000
117.057300 1043794.900000
118.065100 18020880.100000
120.080700 2217240.500000
130.065400 1188065.300000
131.085500 924607.700000
132.081000 2529563.000000
133.101300 1293208.900000
134.096500 840261.100000
144.080800 1979588.100000
145.088700 5005331.600000
146.096500 24688985.500000
147.104300 17470803.700000
148.112100 11138655.800000
149.096300 694100.000000
158.096400 690296.900000
159.104300 696433.300000
160.112200 12542665.500000
161.119900 643984.000000
172.112200 1909127.200000
174.127900 5223537.500000
175.135600 1246374.900000
176.143500 169472750.800000
182.073100 825537.300000
188.107000 3261142.400000
196.052500 688849.100000
202.123400 1203084.900000
224.083700 1269667.800000
224.120300 4048328.800000
234.104500 927703.500000
252.115100 440546144.800000

>ms2peaks
62.999700 321278.800000
75.994900 1004180.900000
76.978900 12838578.900000
79.054200 1982382.500000
91.054200 5431862.200000
93.069900 892134.700000
95.049100 827199.200000
103.054100 1739418.600000
104.026200 833557.200000
105.069900 32464628.500000
106.065300 669775.200000
117.057300 3441427.500000
117.069800 838420.700000
118.065100 34664113.400000
119.072900 1956701.700000
119.085500 684343.200000
120.080800 11007116.200000
121.064800 1758124.100000
129.069900 632416.200000
130.065200 3864979.900000
131.073200 1757721.300000
131.085700 2165113.500000
132.080900 8783411.900000
133.101300 2069475.300000
134.096500 2321593.300000
143.072900 621562.500000
144.080900 5074534.200000
145.088700 10558470.700000
146.096500 28391506.900000
147.104300 60078078.400000
148.112100 29133665.600000
157.088400 210593.500000
158.096600 1839338.600000
159.104400 1651393.600000
160.112200 27990863.300000
161.120000 886811.000000
170.036700 389591.800000
170.096600 249987.400000
171.103900 240049.600000
172.112100 3613617.900000
173.120100 648163.500000
174.091300 1066731.600000
174.127900 5771451.000000
175.135400 1413278.600000
176.143500 203563970.000000
180.057400 680254.700000
182.073500 1261937.900000
188.107100 7648552.200000
188.143100 397695.500000
196.052600 941507.400000
198.067800 1471154.600000
202.122700 3004836.600000
206.073300 668657.000000
208.089000 734925.100000
210.104700 270659.000000
216.138600 995481.400000
224.083900 1633536.200000
224.120300 3873028.300000
234.105000 332391.700000
252.115100 187103192.500000

>ms2peaks
62.999800 312339.300000
65.038600 288036.400000
75.994900 1142250.500000
76.978900 15262832.000000
77.038500 833802.300000
79.054300 9361714.500000
90.010600 333623.500000
91.054300 14743254.400000
93.069900 1990616.000000
94.065200 731777.500000
95.049200 3347809.700000
103.054300 6220531.200000
104.026400 182181.500000
104.062200 227629.400000
105.070000 60958360.600000
106.065200 1701264.800000
115.054200 371274.500000
116.062000 286914.000000
117.057300 7972050.900000
117.069900 1820827.600000
118.065100 38356144.800000
119.073000 6175941.600000
119.085600 709188.600000
120.080800 23993854.800000
121.064800 2581614.500000
122.096500 254058.000000
128.062000 159314.800000
129.069800 810460.700000
130.065300 10555150.000000
131.073100 6997570.800000
131.085600 2658632.700000
132.080800 48925651.200000
133.088500 303346.000000
133.101100 1787153.900000
134.096400 4186915.400000
143.073100 1021507.200000
144.080900 10157363.400000
145.088800 9667196.400000
146.060100 975456.800000
146.096600 18914611.900000
147.104300 115560383.500000
148.112100 31956742.900000
149.096200 313708.100000
153.046600 712962.300000
156.081000 683429.600000
157.088600 966429.000000
158.096600 3405035.100000
159.104300 1398415.700000
160.112200 39847762.000000
161.083400 206301.200000
161.119900 701521.000000
162.127700 187222.900000
170.036800 1418623.000000
170.096700 353628.500000
171.104300 177578.300000
172.112100 2999859.600000
173.120100 848943.100000
174.091300 1837429.200000
174.127900 4354823.500000
175.135600 380397.200000
176.143500 92927758.400000
178.041700 368312.300000
180.058000 287668.500000
182.073100 810233.000000
188.107100 9601143.700000
196.052600 1099842.100000
198.068000 1842266.600000
202.122700 3063452.700000
206.073500 706111.500000
216.138500 221908.200000
224.083900 386319.000000
224.120400 1050210.900000
234.104400 200201.700000
252.115200 26833150.900000

>ms2peaks
62.999700 288608.200000
65.038600 1151419.900000
75.994900 1264873.700000
76.978900 9269312.000000
77.038400 1117196.300000
79.054300 20155168.400000
90.010400 269217.300000
90.046300 178402.700000
91.054300 23722198.800000
93.069900 2810815.700000
94.065100 1867468.900000
95.049200 10188432.300000
103.054300 16046466.600000
104.062100 1007075.900000
105.070000 60073968.800000
106.065100 3028566.900000
115.054300 1807056.400000
116.062100 1042896.900000
117.057400 12968445.800000
117.069900 3018578.900000
118.065200 28978724.400000
119.073000 11948414.900000
119.085500 1258758.100000
120.080800 23239166.100000
121.064800 1602448.100000
122.096400 237018.300000
128.062000 732956.100000
129.069800 1416005.900000
130.065300 16176754.000000
131.073100 15894463.500000
131.085700 1935071.000000
132.080800 104931223.000000
133.088700 840450.900000
133.101200 585803.900000
134.096500 3045590.900000
143.073200 1422387.200000
144.080900 11520266.500000
145.088700 8053657.800000
146.060000 1230031.600000
146.096500 11659159.800000
147.104400 79207062.900000
148.112100 14355463.800000
149.096300 182783.200000
153.046900 283000.800000
156.080600 674485.200000
157.088700 1732922.200000
158.096600 4006721.000000
159.104800 679005.000000
160.112200 25897056.100000
161.083500 704959.700000
170.036700 1586629.500000
171.104000 191225.700000
172.112200 1534758.200000
173.120300 201471.600000
174.091300 967881.600000
174.127800 2401150.200000
176.143500 16327167.600000
178.041600 278933.700000
180.057600 186401.300000
182.073400 195870.800000
188.107200 4183793.700000
196.052500 680640.000000
198.068200 214077.500000
202.123100 1485630.100000
252.115500 1692601.500000

