>compound EQ15394378
>parentmass 289.2162
>ionization [M+H]+
>formula C19H28O2
>rt 672.000000
>profile orbitrap
#smiles_iso C[C@]12CC[C@H]3[C@H]([C@@H]1CCC2=O)CC=C4[C@@]3(CC[C@@H](C4)O)C
#smiles_can CC12CCC3C(C1CCC2=O)CC=C4C3(CCC(C4)O)C
#inchikey FMGSKLZLMKYGDP-USOAJAOKSA-N
#pubchem_id 5881
#mb_accession EQ308501,EQ308502,EQ308503,EQ308504,EQ308505,EQ308506

>ms2
71.049000 17619.400000
81.069900 368547.900000
83.049100 21757.200000
83.085500 187866.500000
85.064800 28976.400000
91.053900 23148.800000
93.069900 45393.200000
95.085400 86637.400000
97.064800 318875.600000
105.069800 56569.700000
107.085500 171871.100000
109.064800 16269.700000
109.101200 142158.800000
117.069900 68631.500000
119.085300 79859.700000
121.101100 133435.100000
123.116800 67112.700000
125.096400 20906.000000
131.085500 252929.600000
133.101100 441925.600000
135.116800 187307.000000
137.096400 77777.000000
139.111700 63079.700000
143.085500 220903.000000
145.101100 354841.100000
147.116900 256380.300000
149.132500 90847.600000
151.111600 269986.100000
155.085300 44081.700000
157.101100 382599.900000
159.116800 507575.500000
161.132600 59678.300000
163.111800 248768.300000
169.101100 134535.600000
171.116800 847754.700000
173.132500 303160.900000
175.111800 87585.100000
175.148100 365631.300000
177.127600 50175.200000
183.116900 196912.000000
185.132500 204929.900000
187.148300 110060.900000
189.127600 84912.500000
189.163700 167228.200000
191.143000 85189.500000
197.132500 1242904.300000
199.148100 53997.000000
201.163800 174686.200000
203.143200 19770.200000
205.159000 24971.200000
211.148100 574531.700000
213.163800 3469046.300000
215.142900 229627.600000
225.163800 1130013.700000
227.179500 127456.700000
229.158700 323683.800000
229.194700 43407.900000
231.174400 3444283.800000
243.210600 19905.500000
253.195100 14779078.800000
271.205600 15304377.300000
272.209200 20642.700000
289.216200 4844326.700000

>ms2
53.038500 11218.900000
55.054000 11174.900000
67.054200 183563.700000
69.069900 77457.600000
71.049200 44007.900000
71.085600 11743.500000
77.038300 12848.400000
79.054200 118014.000000
81.069800 1072628.200000
83.049100 57904.600000
83.085500 330987.400000
85.064800 119065.600000
91.054000 117889.600000
93.069800 262580.800000
95.085500 375734.200000
97.064800 678468.900000
99.080500 49564.100000
105.069900 345706.600000
107.085500 391581.100000
109.064800 49211.400000
109.101100 288020.900000
111.080500 15733.700000
113.096000 11241.100000
117.069800 188152.000000
119.085400 322540.700000
121.064600 47094.500000
121.101100 437748.000000
123.080400 78084.300000
123.116800 118444.000000
125.096000 77854.500000
128.061800 15404.700000
129.069800 105700.100000
131.085500 698618.000000
133.101100 1556434.700000
135.116800 912397.100000
137.096100 137519.900000
139.111500 65649.700000
141.069500 95673.700000
143.085500 450583.400000
145.101200 1264143.000000
147.116800 769787.900000
149.096200 76664.400000
149.132500 176799.700000
151.111700 284404.900000
155.085500 183076.300000
157.101200 1278270.400000
159.116800 1462034.900000
161.096000 93470.000000
161.132400 184927.500000
163.111600 446617.500000
169.101100 400759.700000
171.116800 1473144.600000
173.132400 747062.500000
175.111700 164968.600000
175.148100 325321.600000
177.127100 84330.100000
183.116900 729555.700000
185.132500 639344.900000
187.148100 287159.900000
189.127400 127260.700000
189.163800 179836.100000
191.143300 71304.700000
197.132400 3373025.400000
198.140200 44454.400000
199.147900 173325.700000
201.127000 16696.500000
201.163700 282073.500000
203.142800 93366.800000
205.159700 10270.800000
211.148200 1313068.700000
212.156500 11792.500000
213.163700 8355625.600000
215.143100 264485.600000
223.148200 13645.700000
224.155900 64796.700000
225.163700 1501637.100000
227.179500 153131.200000
229.158700 316994.700000
229.195000 44283.400000
231.174300 3186621.500000
238.171300 81169.900000
243.174700 21187.400000
243.210800 12386.200000
251.179200 17886.600000
253.195000 9918276.300000
271.205600 4641714.300000
272.210100 11881.000000
289.216100 417622.800000

>ms2
53.038400 9609.500000
65.038500 9750.600000
67.054200 530138.400000
69.069800 278122.800000
71.049100 165342.400000
71.085500 9387.900000
77.038300 18727.500000
79.054200 485077.900000
81.069900 2158069.500000
83.049100 137283.800000
83.085500 278248.300000
85.064700 73509.400000
91.054200 716581.900000
93.069800 801578.000000
95.049100 54840.800000
95.085500 746193.600000
97.064800 785754.800000
99.080400 45133.400000
103.054300 8331.000000
105.069900 1092916.400000
107.085500 864787.800000
109.064800 85963.800000
109.101200 331710.300000
111.080400 59556.800000
115.054000 48572.000000
117.069800 544814.800000
119.085500 849771.600000
121.064800 44226.700000
121.101100 619817.300000
123.080300 114292.800000
123.116600 72717.000000
125.095700 21010.000000
128.062000 79214.400000
129.069900 358997.100000
130.077700 21353.800000
131.085500 1505916.600000
133.101100 2703377.900000
135.116800 1108207.600000
137.096000 100214.200000
139.111700 12931.100000
141.069900 238611.500000
142.077700 96475.500000
143.085600 865996.800000
144.093700 20183.100000
145.101200 2625963.100000
147.116800 1255521.500000
149.096000 84641.900000
149.132600 113289.600000
151.111700 138802.600000
155.085500 573376.200000
156.093600 86620.000000
157.101200 2747999.500000
158.109000 16450.000000
159.116800 2320031.800000
161.096100 112513.300000
161.132500 197255.500000
163.111600 295851.800000
167.085400 15953.900000
168.093600 67589.200000
169.101100 768387.500000
170.109200 22224.700000
171.116700 2345656.300000
172.124100 10024.300000
173.132400 1072900.200000
175.111700 162572.900000
175.148100 147207.500000
177.127300 66223.800000
181.101500 26365.400000
182.109200 219729.600000
183.116900 1330140.900000
184.124300 92201.400000
185.132500 1072667.900000
186.140100 55817.100000
187.148200 215108.800000
189.127700 64897.100000
189.163500 94595.800000
191.143400 15991.300000
195.116500 47022.400000
196.124600 110751.600000
197.132400 3650469.100000
198.140200 228465.200000
199.148100 177514.300000
201.127200 18399.500000
201.163700 210074.300000
203.143000 40140.900000
209.132400 63306.300000
210.140300 19363.700000
211.148100 1410290.000000
212.156300 64283.700000
213.163700 7430606.700000
215.143100 118129.200000
223.148300 64660.600000
224.156100 146644.700000
225.163700 957422.100000
227.179200 99802.400000
229.158700 220929.100000
229.195000 14501.000000
231.174300 508011.600000
237.162900 10705.500000
238.171500 218883.900000
251.178900 14392.700000
253.195000 2555273.200000
271.205600 439364.600000

>ms2
57.070000 10220.700000
65.038600 48441.000000
67.054200 844207.000000
69.069900 308975.200000
71.049100 128788.600000
77.038400 36225.900000
79.054200 909951.400000
81.069900 2443856.500000
83.049100 116120.200000
83.085500 229345.900000
85.064800 49024.500000
91.054200 1428304.000000
93.069900 1133630.300000
95.049300 72727.800000
95.085500 849713.800000
97.064800 699156.600000
99.080600 12972.800000
103.054200 36693.700000
105.069900 1728705.100000
107.085500 769563.700000
109.064800 88919.200000
109.101200 296626.000000
111.080300 43415.300000
115.054100 93040.000000
116.061900 36754.200000
117.069800 800569.800000
119.085500 935712.800000
121.101100 481169.100000
123.080400 78067.600000
123.116900 22149.300000
125.096200 17118.400000
128.062100 123111.900000
129.069900 720146.000000
130.077800 119180.700000
131.085600 1888223.300000
133.101200 2363184.600000
135.116800 754968.400000
137.096300 69697.700000
141.069800 304825.100000
142.077800 295449.700000
143.085600 1165233.700000
144.093400 110753.200000
145.101200 2694141.800000
147.116800 1163932.300000
149.096100 54094.400000
149.132300 63362.800000
151.111700 46570.800000
153.069500 15532.300000
154.077600 38702.200000
155.085500 827735.300000
156.093400 232234.200000
157.101200 2895638.900000
158.109000 58046.900000
159.116800 1756320.300000
161.096200 79946.100000
161.132400 120209.000000
163.111700 98952.300000
167.085500 97746.700000
168.093200 147255.100000
169.101100 1001759.000000
170.109200 87823.400000
171.116800 2123486.200000
172.124700 67086.000000
173.132500 796197.200000
175.111600 75187.300000
175.148300 62972.700000
177.127400 14433.000000
181.101300 59169.600000
182.109100 381919.600000
183.116900 1322722.500000
184.124700 137148.300000
185.132500 906722.200000
186.140300 13849.400000
187.148200 170354.400000
189.127300 18455.000000
189.163900 12016.300000
195.116700 86352.200000
196.124800 166835.900000
197.132400 2266711.700000
198.140300 325996.000000
199.148300 121707.200000
201.127600 13972.100000
201.163600 50080.500000
203.143200 16966.100000
209.132800 120158.600000
210.140300 45329.200000
211.148100 842400.100000
212.156100 47373.900000
213.163800 3465101.000000
215.142900 46336.800000
223.148200 130284.600000
224.156200 110060.100000
225.163800 480552.300000
227.179600 40812.300000
229.158800 77590.500000
231.173900 70528.900000
238.171700 182596.500000
251.178700 10111.400000
253.195100 683824.200000
271.206000 41166.900000

>ms2
51.022800 11392.400000
57.069900 10614.600000
65.038600 93637.700000
67.054200 1258206.500000
69.069900 336295.500000
71.049100 104873.700000
77.038300 19380.400000
78.046200 12739.100000
79.054200 1678737.700000
81.069900 2840931.500000
83.049200 77590.600000
83.085500 132475.300000
85.064800 22818.600000
91.054200 2818456.800000
93.069800 1495367.500000
95.049100 337369.900000
95.085500 853265.500000
97.064800 547124.800000
103.054200 115164.000000
105.069900 2813101.300000
107.085500 763184.300000
109.064800 124353.500000
109.101200 207275.200000
111.080400 15427.500000
115.054200 300132.100000
116.062100 129093.800000
117.069800 1316675.000000
118.077700 38480.300000
119.085500 1117144.400000
121.064800 21386.600000
121.101200 321689.300000
123.080400 83582.200000
128.062000 458717.600000
129.069900 1331706.200000
130.077700 384377.700000
131.085500 2155580.500000
132.093300 21646.900000
133.101100 1451836.800000
135.116800 291226.900000
141.069800 591118.000000
142.077800 983815.300000
143.085600 1616479.400000
144.093400 338005.400000
145.101200 2213222.500000
146.073000 12041.700000
147.116800 786887.200000
149.095700 13527.600000
149.133000 9721.500000
152.061300 14933.800000
153.069800 159882.600000
154.077900 199352.400000
155.085500 1124884.900000
156.093400 540725.800000
157.101200 2449124.800000
158.109200 95139.700000
159.116800 1153613.200000
161.096000 41851.900000
161.132600 57314.900000
163.111500 20213.900000
165.069600 12404.800000
167.085500 369458.000000
168.093400 353297.000000
169.101100 1155745.200000
170.108900 167616.300000
171.116700 1694842.600000
172.124400 115234.900000
173.132400 389958.700000
175.148100 15359.100000
181.101200 239540.300000
182.109000 629363.000000
183.116900 1229018.000000
184.124600 181358.100000
185.132500 626873.600000
187.148100 59528.800000
195.116900 132009.100000
196.124500 195917.500000
197.132400 988545.300000
198.140300 356861.100000
199.148600 64680.100000
209.132400 138242.400000
210.140200 48855.800000
211.148100 343623.400000
212.156000 12544.200000
213.163700 800677.100000
223.148300 183739.000000
224.155900 49075.300000
225.163800 161189.000000
237.163900 21327.700000
238.172100 81832.300000
253.195100 82315.700000

>ms2
51.022700 17226.800000
53.038600 7367.400000
57.069900 12035.000000
65.038500 203545.000000
67.054200 1401653.500000
69.069800 260613.100000
71.049100 116803.400000
77.038500 57846.100000
78.046200 9004.800000
79.054200 2301080.900000
81.069900 2338562.900000
83.049100 78070.000000
83.085500 59306.100000
91.054200 4026131.000000
93.069800 1201630.600000
95.049100 638610.300000
95.085500 486721.200000
97.064800 366850.700000
103.054200 202148.900000
105.069900 3107007.900000
107.085500 439306.400000
109.064800 92979.100000
109.101100 47491.300000
115.054200 559037.900000
116.062000 283768.100000
117.069800 1503404.400000
118.077700 60385.000000
119.085500 951333.000000
121.065100 9054.300000
121.101100 147829.500000
123.080400 37322.000000
128.062000 974730.300000
129.069800 1833147.500000
130.077700 565137.800000
131.085500 1683553.400000
132.093400 38332.400000
133.101100 599130.300000
135.116700 96723.500000
141.069800 936952.600000
142.077800 1578258.300000
143.085500 1488786.100000
144.093300 319975.000000
145.101100 1226788.400000
146.072800 17772.800000
147.116800 283178.800000
149.096100 15308.700000
152.062400 20269.900000
153.069800 392549.700000
154.077600 263646.700000
155.085500 1074741.000000
156.093400 703752.700000
157.101200 1276757.700000
158.109100 96821.100000
159.116800 443901.800000
161.096000 12429.800000
165.070000 66093.100000
167.085500 669460.200000
168.093300 406409.200000
169.101100 889283.800000
170.108900 154542.500000
171.116700 703184.600000
172.124500 86592.800000
173.132400 160752.700000
181.101100 363008.900000
182.109000 454319.800000
183.116800 717286.200000
184.124500 84184.700000
185.132500 220735.500000
195.117000 130625.800000
196.124500 115114.300000
197.132400 306758.900000
198.140200 217767.600000
199.148100 16302.100000
209.132600 110350.900000
211.148100 60452.600000
213.163800 101702.700000
223.148200 136604.500000
225.163700 16881.700000
237.163600 10498.700000

