>compound EQ16728110
>parentmass 299.0914
>ionization [M+H]+
>formula C17H14O5
>rt 540.000000
>profile orbitrap
#smiles_iso CC(=O)CC(C1=CC=CO1)C2=C(C3=CC=CC=C3OC2=O)O
#smiles_can CC(=O)CC(C1=CC=CO1)C2=C(C3=CC=CC=C3OC2=O)O
#inchikey JFIXKFSJCQNGEK-UHFFFAOYSA-N
#pubchem_id 54689800
#mb_accession EQ309101,EQ309102,EQ309103,EQ309104,EQ309105,EQ309106

>ms2peaks
65.038300 49584.400000
95.049100 558428.400000
121.027900 273367.200000
137.059700 40719584.400000
155.033800 71734.400000
163.038900 24081862.100000
189.054600 7464837.800000
205.049500 53401.100000
213.053900 293972.300000
231.065200 9188744.400000
241.049500 39865182.800000
243.064800 258091.700000
253.085300 83476.600000
255.065100 613482.000000
281.080700 1133598.800000
299.091300 21722520.400000

>ms2peaks
95.049100 805138.300000
121.028300 2832709.100000
137.059700 16602163.100000
141.069700 185670.700000
155.033800 507805.500000
161.059200 206894.400000
163.038900 13595875.400000
189.054600 18727280.000000
201.054600 186369.000000
213.054500 1738266.400000
231.065200 2221555.500000
239.070300 181418.800000
241.049500 64323388.500000
243.065000 162258.700000
253.086000 373236.200000
255.065000 727912.400000
281.081000 217328.300000
299.090400 271797.700000

>ms2peaks
55.017900 283480.800000
65.038600 177757.500000
69.033500 179083.400000
77.038200 57003.400000
81.069900 143401.300000
91.054200 158050.800000
93.033300 296021.300000
95.012800 159996.400000
95.049100 868330.800000
109.064700 283823.700000
111.044000 69726.200000
115.054200 301883.700000
119.049100 69266.600000
121.028400 18787836.400000
128.061900 46906.200000
129.069900 159519.900000
133.028200 40645.500000
137.059700 3758987.200000
141.069800 2998239.700000
145.065000 40193.600000
153.069700 47443.100000
155.033700 448477.700000
157.065000 210116.300000
161.059700 248660.500000
163.038900 8285163.400000
165.018300 69236.700000
169.064800 427735.700000
173.059700 478959.800000
175.038700 138932.900000
185.059800 413892.400000
187.039100 153530.900000
189.054600 19617807.000000
191.034000 47280.800000
197.059500 378797.200000
199.038900 46130.800000
201.054500 334503.200000
212.046500 240925.900000
213.054600 14479346.400000
223.038600 43376.000000
231.065800 57667.800000
237.054500 141365.100000
239.070100 138908.200000
241.049500 38856368.000000
253.086100 165067.100000
255.065300 211882.300000

>ms2peaks
55.017900 413739.400000
65.038500 680426.200000
68.997100 120082.400000
69.033400 582846.600000
79.054200 55848.400000
81.069900 166535.100000
91.054100 208801.500000
93.033400 920915.100000
95.012700 278769.100000
95.049100 1071084.800000
105.044700 36351.900000
105.069900 52569.000000
109.064600 321620.400000
111.044100 192949.500000
115.054100 1381851.300000
117.069800 146414.400000
119.049000 129828.700000
121.028300 27738569.800000
128.062000 127624.400000
129.069900 634491.900000
133.028100 48647.600000
133.064700 139385.500000
137.059700 2006236.800000
139.039200 116003.700000
139.054100 258911.300000
141.069800 6934988.300000
145.064800 172138.700000
152.061800 65473.000000
153.069700 37433.200000
155.033700 266803.200000
155.060300 46780.400000
157.064700 779006.300000
161.059800 144541.200000
163.038900 6460811.000000
165.018200 150648.600000
168.057100 109714.900000
169.064700 629693.500000
173.059600 667939.200000
175.038900 264963.400000
185.059700 1188811.000000
187.038600 210771.000000
189.054600 16201113.300000
191.033800 228425.100000
195.044200 131949.000000
195.055300 66230.100000
197.059600 507600.100000
199.039000 63411.100000
201.054400 227855.300000
212.046900 632077.200000
213.054600 18624774.100000
223.038900 166880.800000
227.069700 48994.500000
237.054800 54878.300000
239.070900 40692.400000
241.049500 16548825.900000

>ms2peaks
53.002200 50128.400000
55.017900 374371.900000
63.022900 33010.500000
65.038600 2887360.200000
67.054300 37304.500000
68.997100 164107.700000
69.033500 1370164.900000
77.038400 39807.900000
79.054200 174351.300000
81.069900 221061.700000
89.038500 109201.100000
91.054200 681589.500000
92.025700 162058.900000
93.033400 2179723.800000
95.012700 920142.200000
95.049100 1833884.900000
103.054300 50531.700000
105.033500 137184.900000
105.044800 111707.200000
105.069900 149377.600000
107.049000 81400.800000
109.028200 32255.900000
109.064700 295455.300000
111.044100 646762.100000
115.054200 6469336.900000
117.069800 528079.700000
119.012700 107600.400000
119.049100 117708.100000
120.020700 41015.600000
121.028400 31232423.300000
127.053700 99097.600000
128.062000 907534.800000
129.069800 2226555.100000
131.049400 59016.900000
133.028200 38728.900000
133.064700 61680.800000
137.059700 514436.500000
139.038900 160618.500000
139.054200 1077625.700000
141.069800 10402286.600000
145.064800 562804.300000
152.062200 125296.600000
153.069600 33970.000000
155.033800 231263.100000
155.060300 185049.700000
157.064800 1643746.200000
163.038900 3323684.800000
165.018400 210580.900000
165.069700 64670.800000
168.057100 265340.300000
169.064700 340488.800000
171.044000 50541.600000
173.059700 384346.400000
175.038900 300436.700000
184.051900 151877.700000
185.059800 1547156.300000
187.038900 110181.500000
189.054600 8219755.000000
191.033900 210338.800000
195.044000 455635.300000
195.055200 212333.600000
197.059900 387324.200000
199.039100 120734.700000
201.054800 31373.200000
212.046800 1403652.900000
213.054500 12491285.700000
223.039200 59722.000000
241.049500 2693811.100000

>ms2peaks
51.022900 28199.700000
53.002300 203497.600000
55.017900 296379.200000
63.022800 114227.700000
65.038600 6783026.700000
67.054200 115487.300000
68.997100 321206.800000
69.033500 1645287.400000
77.038600 110934.100000
79.054100 266594.900000
81.033500 31364.500000
81.069900 110716.800000
89.038500 307736.300000
91.054200 1501264.400000
92.025600 577726.600000
93.033400 2584402.100000
95.012700 1102135.400000
95.049100 2670504.200000
103.054200 270779.300000
105.033600 208919.700000
105.044700 241326.300000
105.069700 211980.000000
107.049000 230458.600000
109.028300 51721.100000
109.064700 171722.400000
111.044000 1508699.300000
115.054200 13184544.300000
117.069800 441170.900000
119.012700 57388.000000
119.049100 123165.700000
120.020500 66672.100000
121.028400 27783159.100000
127.054200 273792.000000
128.062000 3374909.700000
129.069800 2937190.500000
131.049100 158227.800000
133.028000 41669.900000
133.064900 53754.200000
137.059700 45834.800000
139.039200 235660.000000
139.054200 2048243.100000
140.061700 56477.900000
141.069800 7516820.400000
145.064800 880349.600000
152.062200 166348.100000
153.069600 29050.200000
155.033900 121222.100000
155.060300 483100.700000
157.064800 1360971.000000
163.038900 1279283.400000
165.018300 179995.700000
165.069600 51688.200000
168.057000 316401.900000
169.064700 179399.300000
171.044100 165714.900000
173.059800 112149.600000
175.039000 188155.300000
184.051600 327058.400000
185.059700 994006.100000
187.038800 57914.700000
189.054600 2233030.000000
191.033800 110894.400000
195.044200 302631.700000
195.055100 181789.400000
197.059800 188881.400000
199.038500 64339.300000
212.046800 1327383.800000
213.054500 4234261.900000
241.049500 251011.900000

