>compound EQ16277186
>parentmass 391.1936
>ionization [M+H]+
>formula C25H27ClN2
>rt 678.000000
>profile orbitrap
#smiles_iso CC1=CC(=CC=C1)CN2CCN(CC2)C(C3=CC=CC=C3)C4=CC=C(C=C4)Cl
#smiles_can CC1=CC(=CC=C1)CN2CCN(CC2)C(C3=CC=CC=C3)C4=CC=C(C=C4)Cl
#inchikey OCJYIGYOJCODJL-UHFFFAOYSA-N
#pubchem_id 4034
#mb_accession EQ308401,EQ308402,EQ308403,EQ308404,EQ308405,EQ308406

>ms2peaks
71.085900 454563.800000
165.070200 2597272.600000
189.139400 17641742.100000
201.047200 409172129.900000

>ms2peaks
105.070200 1262333.300000
165.070500 6264944.300000
166.078400 12038880.700000
183.081400 1154035.000000
189.139500 6454607.400000
193.076800 736995.900000
201.047300 438440027.800000

>ms2peaks
105.070300 4546562.700000
165.070600 43780518.000000
166.078300 144847757.400000
183.081300 12958260.500000
189.139600 1766970.100000
193.076800 6679124.900000
199.031800 1628756.900000
201.047200 351700088.400000

>ms2peaks
105.070300 3843580.800000
163.054900 512194.000000
165.070700 69091932.400000
166.078400 205384975.300000
183.081200 14974754.800000
189.139200 244819.500000
193.076800 7552806.100000
199.031800 2375881.000000
201.047300 151316954.800000

>ms2peaks
105.070400 3590556.700000
115.054300 493932.400000
163.054600 498627.800000
164.062800 737837.700000
166.078400 286433843.600000
183.081300 9030005.900000
193.076900 4976414.800000
199.031700 4647518.500000
201.047300 41335141.900000

>ms2peaks
65.038800 454422.700000
105.070300 3594629.800000
115.054400 916283.500000
121.028700 482029.800000
139.054400 904286.000000
163.054900 764499.200000
164.062700 2677649.400000
165.070600 293933491.200000
166.078200 235412982.700000
183.081200 3256920.200000
193.076700 1661789.600000
199.031500 5538869.400000
201.047400 7384944.100000

