>compound EQ17125647
>parentmass 204.1019
>ionization [M+H]+
>formula C12H13NO2
>rt 408.000000
>profile orbitrap
#smiles_iso CC1(CC(=O)N(C1=O)C)C2=CC=CC=C2
#smiles_can CC1(CC(=O)N(C1=O)C)C2=CC=CC=C2
#inchikey AJXPJJZHWIXJCJ-UHFFFAOYSA-N
#pubchem_id 6476
#mb_accession EQ328501,EQ328502,EQ328503,EQ328504,EQ328505,EQ328506

>ms2peaks
58.028700 4318702.500000
69.033400 9902507.000000
79.054200 12346151.000000
91.054200 2093888.500000
119.085500 73745232.000000
121.064700 1404406.500000
126.054900 19890088.000000
134.096400 1795293.500000
145.064900 11342315.000000
147.080500 2236448.800000
158.096600 686610.500000
162.091200 854911.600000
163.075500 683077.100000
176.107000 8243123.500000
186.091400 1263498.800000
204.102000 354256736.000000

>ms2peaks
58.028700 6715648.000000
69.033500 16761593.000000
79.054200 17615406.000000
91.054200 3373670.200000
117.069700 520901.200000
119.085500 104677032.000000
121.064800 2518458.800000
126.054900 27300616.000000
129.069800 634553.600000
134.096400 1908487.800000
145.064900 18776786.000000
147.080500 4396282.500000
158.096400 1545175.900000
162.091300 798723.800000
163.075300 631365.100000
173.059800 667727.300000
176.107100 7037252.000000
186.091300 2515041.500000
204.102000 226937472.000000

>ms2peaks
58.028800 26026450.000000
69.033500 37324668.000000
77.038400 445821.600000
79.054200 25592002.000000
91.054200 23764340.000000
95.048900 704074.900000
98.060100 988111.700000
103.054200 478491.400000
105.033700 149507.800000
105.044600 386356.600000
115.054100 181577.800000
117.069900 2281726.200000
119.085500 141707984.000000
120.080800 177179.200000
121.064800 6427037.500000
126.055000 27157262.000000
129.069900 2242406.800000
134.096400 5108308.500000
144.080800 215644.100000
145.064900 24808848.000000
147.080500 4580364.000000
158.096500 3927535.800000
160.112000 494192.500000
162.091400 2344211.200000
163.075100 199772.300000
171.067800 507386.000000
173.060000 438312.100000
176.107100 2608618.000000
186.091500 5005400.000000
204.102000 39235516.000000

>ms2peaks
53.002300 452919.000000
53.997500 157066.700000
56.049600 390160.400000
58.028800 40965164.000000
67.989300 137479.400000
69.033500 31929194.000000
77.038500 561201.200000
79.054200 23347508.000000
80.049500 146463.100000
90.046400 116350.800000
91.054200 57206512.000000
95.049200 956510.500000
98.060000 1378896.800000
103.054300 1234425.000000
105.033400 592981.200000
105.044800 395803.000000
105.069900 174184.600000
107.049100 223551.000000
115.054200 1107336.000000
117.069900 6373598.500000
119.085500 74920432.000000
120.080600 166680.100000
121.064800 5025574.500000
126.055000 12476993.000000
128.061900 214124.200000
129.069900 3633789.800000
134.096400 6967244.000000
143.073100 1234220.100000
144.080800 635917.000000
145.064900 16954386.000000
147.068100 404285.800000
147.080500 1660045.800000
148.112100 112721.100000
155.060200 175896.300000
158.096500 4552785.000000
160.075300 105887.700000
160.112500 357062.500000
162.091400 1279360.900000
171.067700 904711.500000
173.060000 421552.900000
176.107100 177525.000000
186.091400 2172846.500000
189.078600 208235.300000
204.102000 3107510.800000

>ms2peaks
53.002300 642117.100000
53.997600 114640.900000
56.049600 1177502.000000
58.028800 39929656.000000
65.038600 680237.800000
67.017900 160135.200000
69.033500 15995962.000000
77.038600 751579.600000
79.054300 16117741.000000
80.049500 525362.800000
85.028500 115360.400000
91.054200 71384128.000000
95.049200 1650515.800000
97.028600 107612.400000
98.060100 1080527.100000
103.054300 2215766.800000
105.033600 1898650.400000
105.044700 882478.900000
105.069800 194331.500000
107.049300 377746.800000
115.054200 3548533.200000
117.069900 7960051.500000
118.065300 175161.300000
119.085600 24739172.000000
120.080600 348083.600000
121.064800 3197344.500000
126.055000 4200757.500000
127.054200 140506.000000
128.062100 1238124.600000
129.069900 2671438.000000
131.049400 161785.600000
134.096500 7016803.000000
143.073300 1734411.200000
144.081000 548433.300000
145.064900 7832664.000000
145.088800 449150.800000
147.067800 733490.100000
147.080300 360340.700000
155.060600 432485.500000
157.088900 143428.000000
158.096600 2868560.200000
160.075600 173409.200000
162.091400 468696.500000
171.067900 804525.900000
175.063300 109156.500000
186.091600 588079.900000

>ms2peaks
53.002300 911638.400000
53.038700 171473.300000
53.997600 387322.900000
56.049600 2819345.000000
58.028800 40832776.000000
65.038600 1548277.400000
67.017800 79148.100000
67.989300 127804.000000
69.033500 6807061.000000
77.038600 1025736.900000
79.054300 11871027.000000
80.049500 659990.300000
91.054200 73083408.000000
95.049100 3075983.500000
98.060100 348621.300000
103.054300 3685343.200000
104.062100 176002.000000
105.033500 1827811.500000
105.044800 1453007.600000
105.069900 199646.500000
107.049200 178985.900000
115.054200 7065872.000000
116.062000 502450.200000
117.069900 6638384.000000
118.065100 557478.100000
119.085600 5867408.000000
120.080900 121671.900000
121.064800 931655.900000
126.055000 948619.900000
127.054300 178296.000000
128.062100 1489619.200000
129.070000 1447404.500000
131.049200 489926.100000
134.096500 4736235.000000
142.065500 210891.200000
143.073100 2496963.200000
144.080800 977077.500000
145.064900 2951168.500000
145.088800 380013.500000
146.059900 125877.100000
147.067800 634884.900000
155.060500 580501.100000
157.088700 147704.300000
158.096500 1536493.800000
160.075900 437653.400000
171.068400 102896.100000

