>compound EQ17144910
>parentmass 282.1448
>ionization [M+H]+
>formula C13H19N3O4
>rt 960.000000
>profile orbitrap
#smiles_iso CCC(CC)NC1=C(C=C(C(=C1[N+](=O)[O-])C)C)[N+](=O)[O-]
#smiles_can CCC(CC)NC1=C(C=C(C(=C1[N+](=O)[O-])C)C)[N+](=O)[O-]
#inchikey CHIFOSRWCNZCFN-UHFFFAOYSA-N
#pubchem_id 38479
#mb_accession EQ311601,EQ311602,EQ311603,EQ311604,EQ311605,EQ311606

>ms2
71.085500 7153890.700000
118.052500 739016.100000
148.062900 300994.000000
149.058500 287074.200000
194.056100 7190792.500000
195.063800 956286.900000
212.066600 268874911.600000
230.077800 413844.400000

>ms2
65.038700 191735.400000
66.033700 430404.200000
67.041700 311524.700000
68.049500 782598.800000
71.085500 7402073.000000
78.033800 1411104.000000
80.049500 2125789.800000
81.057300 445202.300000
91.041600 2214086.900000
92.049500 380029.300000
93.044700 712042.900000
93.057200 249868.500000
94.028800 299951.900000
94.052600 338612.200000
96.044400 1114872.200000
103.029200 424498.400000
105.044700 390408.200000
106.028900 181806.900000
107.024200 230199.400000
107.060500 601965.400000
108.044400 1196970.000000
108.068300 264576.800000
109.052200 437288.300000
117.044800 279019.400000
118.052500 6751548.200000
119.060300 1195295.400000
120.044300 521969.800000
121.003200 349775.100000
121.039600 907043.200000
124.039300 198399.500000
126.055000 382027.000000
130.052600 316043.200000
131.024000 344299.000000
131.047900 343172.000000
131.060600 242580.300000
133.039800 723804.400000
134.060300 424813.400000
135.055300 1354364.400000
136.063200 1010192.000000
145.039700 463560.400000
146.047400 228574.200000
147.055400 1232039.800000
148.050800 464327.500000
148.063100 2477079.600000
149.058400 3128507.000000
150.042600 235669.500000
160.050600 203576.900000
163.049900 346212.700000
164.058100 907588.000000
165.065900 854288.600000
166.061100 1021772.600000
176.045300 425966.400000
177.053300 1976642.400000
178.061200 1327172.100000
179.045300 579085.600000
194.056100 40972282.600000
195.063900 7294300.600000
212.066600 144858051.500000

>ms2
50.015200 35331.800000
51.022800 40710.600000
52.018300 108443.700000
53.002400 229166.500000
53.038700 94351.700000
53.997600 58638.600000
54.033900 69290.100000
63.022900 79042.800000
64.018300 49141.400000
64.030700 107130.300000
65.026100 305699.300000
65.038600 886784.800000
66.033900 1328627.200000
66.046500 867908.700000
67.017800 83470.600000
67.029100 114939.800000
67.041700 1118650.600000
68.013100 81730.800000
68.049500 857121.100000
69.008400 100113.500000
69.033500 92458.400000
69.992400 198930.300000
70.065100 54608.000000
71.085500 3652928.400000
76.018200 206827.500000
77.026000 341246.400000
78.033900 3119778.900000
79.029100 338753.000000
79.041600 357341.800000
79.054200 351244.700000
80.049500 4826803.700000
81.033500 430572.300000
81.057300 978404.000000
82.028800 69355.000000
82.041300 210819.000000
84.044400 67303.200000
90.033900 219676.900000
91.041700 9535718.200000
92.036800 561963.800000
92.049500 2781605.800000
93.008400 81225.900000
93.044700 1089145.200000
93.057300 554113.200000
94.028800 364899.000000
94.041400 330294.600000
94.052600 740175.800000
94.065100 104484.700000
95.036600 176134.700000
95.049100 271677.400000
95.060400 99426.700000
96.044400 1824444.600000
96.057000 327228.900000
97.052100 44788.800000
98.060100 282451.100000
103.029200 941942.100000
103.041700 1320724.800000
104.036800 391903.700000
104.049500 377652.100000
105.044800 1411888.700000
106.028700 510097.900000
106.041100 97278.500000
106.052800 460844.700000
106.065200 834696.300000
107.024000 422282.700000
107.036600 269027.400000
107.060400 1236504.000000
108.044400 2212069.900000
108.068300 469818.900000
109.039700 194400.600000
109.052200 1263363.600000
110.060000 605051.500000
112.039400 108229.500000
116.049600 57760.000000
117.044700 1419235.900000
117.057400 196190.800000
118.052500 10722360.500000
119.060400 6938493.700000
120.019300 315456.300000
120.044400 1271096.900000
120.055700 381700.000000
120.068300 498465.500000
121.003200 531631.000000
121.039700 1696111.800000
121.052100 100718.600000
121.063500 99483.500000
122.047400 718205.200000
122.059900 81072.500000
123.055400 179627.300000
124.039300 340243.300000
126.054900 1594239.800000
129.044800 494721.100000
130.040000 419255.600000
130.052600 1894413.500000
131.023900 402910.300000
131.047900 1146977.800000
131.060400 1533601.400000
132.031900 301030.900000
132.055700 598527.900000
133.039700 1211186.700000
134.047500 88860.900000
134.060100 919305.000000
135.055300 2766605.000000
136.039400 184822.500000
136.063200 1080642.800000
137.070800 184214.100000
138.029700 213961.900000
138.055100 49916.700000
139.050300 283111.400000
145.039800 708829.000000
146.047800 373621.500000
147.055400 5988660.300000
148.050800 641255.800000
148.063200 8985370.700000
149.058500 5798432.400000
149.070900 564847.600000
150.042300 533767.900000
150.066500 352574.700000
151.050000 230763.200000
159.042500 294476.300000
160.050600 1883194.400000
163.050300 1852791.200000
164.058100 1633537.900000
165.065900 2099430.300000
166.061400 504456.800000
166.073600 543308.300000
176.045500 772003.100000
177.053400 7176433.800000
178.061200 6398587.800000
179.045200 1245648.900000
181.060800 77595.800000
194.056100 25447653.500000
195.063900 10371591.600000
212.066700 18528214.600000

>ms2
50.015300 62643.200000
51.023000 47888.800000
52.018300 102932.900000
53.002300 345505.400000
53.038700 238763.400000
54.033900 59833.000000
56.049700 62379.200000
63.023000 219161.500000
64.018200 64760.400000
64.030800 418562.000000
65.026100 315281.700000
65.038600 1823177.300000
66.033900 1881129.200000
66.046400 1379589.000000
67.017900 93689.400000
67.029200 242358.600000
67.041700 1442256.800000
67.054200 72539.500000
68.013100 263001.400000
68.049500 893894.200000
69.008300 192232.200000
69.033500 127680.700000
69.992300 331779.500000
71.085600 1870661.900000
76.018200 375593.800000
76.030800 68449.400000
77.026000 621544.100000
77.038500 55987.500000
78.033900 3422750.200000
78.046400 351913.600000
79.029100 471179.300000
79.041700 538159.700000
79.054300 835308.000000
80.049500 4458274.800000
81.033500 398642.500000
81.057400 953835.300000
82.028800 94311.900000
82.041500 134075.200000
82.065200 59286.500000
83.036500 45107.000000
83.049200 62377.900000
90.033900 516669.600000
90.046400 55477.600000
91.041700 12074025.900000
92.036900 762746.300000
92.049500 4875215.100000
93.008300 178756.900000
93.044700 903302.900000
93.057300 1010352.400000
94.028700 539526.700000
94.041400 300503.900000
94.052600 748454.300000
94.065200 64859.300000
95.036500 69457.300000
95.049300 504511.000000
95.060500 241203.600000
96.044400 1902698.300000
96.057000 671600.900000
97.052300 76178.700000
98.060100 315627.700000
103.029200 630886.000000
103.041700 2390605.400000
104.037000 603041.500000
104.049500 1041504.800000
105.044800 2743682.200000
106.028800 677810.100000
106.041300 74413.400000
106.052700 553049.100000
106.065100 1237315.800000
107.024100 259821.700000
107.036600 307278.900000
107.060400 1294498.100000
108.044400 1707500.400000
108.068200 228779.500000
109.039700 522414.300000
109.052200 1270484.900000
110.060100 1041555.200000
112.039200 63109.900000
116.049400 108781.000000
117.044800 2102507.500000
117.057200 404040.600000
118.052500 7068055.800000
118.064900 653747.500000
119.060400 10166680.000000
120.019200 516718.700000
120.044400 2252394.200000
120.055500 523495.700000
120.068300 700611.000000
121.003300 535163.200000
121.039700 1419336.300000
121.052200 232359.900000
122.047500 1144999.300000
122.060000 188851.700000
123.055200 246108.400000
124.039500 344109.800000
126.055000 1492587.800000
129.044800 1235302.800000
130.040100 678771.700000
130.052700 2365322.800000
131.024100 288017.100000
131.047900 925884.500000
131.060500 2751748.300000
132.031900 213335.600000
132.055600 1116630.000000
133.039700 1032477.500000
133.063900 91101.900000
134.035100 67232.700000
134.047500 250283.800000
134.060000 714783.500000
134.071400 64146.900000
135.055300 2248168.300000
136.026800 60829.400000
136.039600 221627.900000
136.063200 653068.200000
137.071000 306036.000000
138.029700 519124.000000
138.055000 69032.800000
139.050300 82643.200000
145.039800 621212.400000
146.047500 207108.300000
147.055400 6230190.100000
148.050900 590954.000000
148.063200 10191730.400000
149.058500 4716664.500000
149.071000 415239.000000
150.042400 279274.400000
150.066100 584975.500000
151.050400 426680.300000
159.042800 64179.400000
160.050600 2147377.700000
162.030000 102982.800000
163.050300 2778567.500000
164.058100 1225948.400000
165.066000 1579337.200000
166.061200 449299.000000
166.073500 496043.300000
176.045600 1118652.300000
177.053400 6073172.900000
178.061200 6718141.300000
179.045300 1203836.900000
181.060600 189252.300000
194.056100 9064838.400000
195.064000 5754777.600000
212.066800 3184779.000000

>ms2
50.015300 194920.300000
51.023000 84740.000000
52.018300 255805.800000
53.002300 340332.900000
53.038700 339722.300000
53.997600 59993.700000
54.033900 67516.900000
56.049600 65681.400000
63.023000 664013.700000
64.018200 216541.200000
64.030800 681629.900000
65.026100 298326.500000
65.038600 4654974.400000
66.021300 202304.800000
66.033900 1845481.800000
66.046400 1900906.100000
67.017900 175829.700000
67.029100 266676.700000
67.041700 1269289.500000
67.054300 288401.800000
68.013200 249600.700000
68.049500 623742.400000
69.008300 65811.200000
69.033500 67960.200000
69.992400 277583.900000
70.065200 47951.100000
71.085500 633487.400000
76.018200 402095.200000
76.030700 166885.300000
77.026000 1029390.200000
77.038700 225052.800000
78.033900 3821649.400000
78.046400 435712.000000
79.029100 443786.200000
79.041700 591136.200000
79.054300 1118957.800000
80.049500 3944624.700000
81.033500 594876.500000
81.044800 71917.900000
81.057400 622918.500000
82.028900 52151.500000
82.041300 177335.400000
82.065300 74346.700000
83.036600 42881.700000
83.049200 73866.100000
84.044600 53270.800000
89.038500 419426.900000
90.033900 1195283.100000
90.046400 356628.400000
91.041700 9544539.500000
91.054300 890767.100000
92.036900 657440.400000
92.049500 8063964.900000
93.008500 310715.200000
93.033400 100135.200000
93.044700 1001483.000000
93.057300 1178654.800000
94.028800 721243.200000
94.041300 269725.100000
94.052500 372103.000000
94.065100 513972.000000
95.036400 95022.600000
95.049200 1457869.900000
95.060400 288900.100000
96.044400 1466657.500000
96.057000 671742.500000
98.060100 184431.600000
102.033900 102190.900000
103.029200 397112.500000
103.041700 3814551.100000
104.036900 842366.400000
104.049500 2224509.100000
105.044800 3993216.300000
106.028800 720254.000000
106.041400 68974.600000
106.052500 583419.800000
106.065200 846063.600000
107.024000 61209.500000
107.036600 253731.300000
107.060500 821095.900000
108.044400 912452.400000
108.068100 92847.600000
109.039600 480288.900000
109.052200 823015.300000
110.060100 1489209.800000
116.049500 382901.300000
117.044800 1850790.300000
117.057400 549686.500000
118.052500 2538403.100000
118.065000 1205469.000000
119.060400 10321276.000000
120.019400 627106.100000
120.044400 2187102.600000
120.055700 341495.400000
120.068200 1484151.900000
121.003300 93964.400000
121.039600 1012170.400000
121.052100 274092.400000
121.063800 57960.000000
121.076000 70597.900000
122.047400 986735.600000
122.060100 274815.000000
123.055200 105985.000000
124.039100 74135.000000
126.055000 611563.000000
129.044800 2072777.300000
130.040100 922558.800000
130.052600 1501330.400000
131.047800 481174.000000
131.060400 3580383.100000
132.031700 129632.300000
132.055600 1464614.100000
133.039600 1002382.000000
133.063400 344578.200000
134.035100 60137.100000
134.047500 78094.500000
134.060200 290466.700000
134.071300 77103.300000
135.055300 1550650.200000
136.026800 95208.000000
136.039400 502022.800000
136.063200 191702.100000
137.071100 221916.600000
138.029900 802608.600000
138.055200 56871.200000
145.039600 328299.800000
146.047100 73862.100000
147.055400 3917348.000000
148.050900 375808.700000
148.063100 7514379.300000
149.058500 1824988.500000
149.071000 545692.900000
150.042700 328300.900000
150.066200 450709.900000
151.050200 611692.900000
160.050600 1512894.800000
162.029900 218720.400000
163.050300 3237423.700000
164.057900 397114.900000
165.066000 444107.200000
166.061000 101701.700000
166.073700 48823.600000
176.045600 771397.300000
177.053400 2111968.400000
178.061200 3279020.700000
179.045300 389608.300000
194.056100 1395414.600000
195.064100 1162127.800000
212.066700 77552.900000

>ms2
50.015300 276016.700000
51.023000 203644.600000
52.018300 361749.200000
53.002300 423941.300000
53.038700 454278.700000
53.997500 176900.200000
54.033900 175509.900000
56.049600 85243.400000
63.023000 1053189.500000
64.018200 308828.700000
64.030800 889968.700000
65.026000 560873.400000
65.038600 8556762.000000
66.021200 252632.200000
66.033900 1897847.000000
66.046400 2410617.700000
67.017800 192709.100000
67.029100 181963.800000
67.041700 1448998.200000
67.054200 330436.000000
68.013100 321161.300000
68.049500 483811.500000
69.008300 125823.500000
69.033600 76150.400000
69.992400 187159.200000
71.085500 85897.300000
76.018200 539060.000000
76.030800 426649.800000
77.026000 1209363.800000
77.038600 332681.700000
78.033900 3797137.500000
78.046400 467810.100000
79.029100 296813.100000
79.041700 637860.400000
79.054300 1369734.100000
80.049500 3809191.100000
81.033500 843038.800000
81.044800 62981.600000
81.057300 602656.100000
82.028800 100619.900000
82.041300 68637.300000
83.036600 84688.500000
83.049200 73679.200000
89.038600 799956.300000
90.033800 1707505.800000
90.046400 656333.300000
91.041700 6728382.700000
91.054200 1769299.000000
92.037000 723858.600000
92.049500 8626902.700000
93.008300 287073.100000
93.033500 95894.600000
93.044800 1321459.000000
93.057300 1635634.100000
94.028800 495556.700000
94.041300 271566.100000
94.052700 101440.800000
94.065200 927613.300000
95.049200 2979798.700000
95.060300 218533.500000
96.044400 1572565.600000
96.057000 542013.400000
97.052200 60818.200000
98.059900 69400.600000
102.033900 238618.000000
103.029300 396102.400000
103.041700 3579657.200000
104.037100 537353.400000
104.049500 3381872.800000
105.044700 5307610.900000
106.028700 429752.600000
106.041100 69189.500000
106.052600 526053.400000
106.065200 651422.000000
107.036500 201155.700000
107.060400 473892.700000
108.044400 769902.000000
109.039700 384843.500000
109.052200 436105.000000
110.060100 1634629.600000
116.049500 636955.800000
117.044700 1517326.800000
117.057300 515205.600000
118.052500 1409532.700000
118.065100 1696150.900000
119.060400 8578544.400000
120.019100 654441.900000
120.044400 1300593.000000
120.055800 319124.100000
120.068200 1865456.000000
121.003400 48369.400000
121.039600 888910.700000
121.052100 228877.300000
121.076100 47070.400000
122.047500 656615.000000
122.060100 230503.800000
123.055400 101230.300000
126.055000 100298.300000
129.044800 1965802.100000
130.040100 864818.900000
130.052600 388709.800000
131.060400 2236371.400000
132.032000 86965.000000
132.055600 913196.100000
133.039700 682900.500000
133.063400 315129.900000
134.047600 179512.900000
134.060000 207604.000000
135.055300 1085856.500000
136.039200 533932.800000
136.063200 196445.600000
137.071000 72276.400000
138.029700 749366.400000
145.040000 189478.700000
147.055400 2053390.400000
148.050500 229811.700000
148.063100 4192771.600000
149.058500 321466.200000
149.071100 248877.100000
150.042500 100667.700000
150.066400 168135.500000
151.050000 506951.100000
159.042800 57996.700000
160.050500 526850.000000
162.030000 82686.300000
163.050200 1784655.900000
164.058600 69802.300000
165.066200 99381.200000
176.045700 362137.800000
177.053200 322532.000000
178.061200 839719.100000
179.045500 65749.100000
194.056000 88410.300000
195.063900 48271.900000

