>compound EQ18510981
>parentmass 266.1751
>ionization [M+H]+
>formula C15H23NO3
>rt 348.000000
>profile orbitrap
#smiles_iso CC(C)NCC(COC1=CC=CC=C1OCC=C)O
#smiles_can CC(C)NCC(COC1=CC=CC=C1OCC=C)O
#inchikey CEMAWMOMDPGJMB-UHFFFAOYSA-N
#pubchem_id 4631
#mb_accession EQ312801,EQ312802,EQ312803,EQ312804,EQ312805,EQ312806

>ms2
56.049600 700172.500000
58.065300 1350127.300000
72.080800 8888083.900000
116.107100 2610229.900000
225.136300 2954495.900000
266.175600 22007375.100000

>ms2
56.049600 5513858.900000
58.065200 4631730.300000
60.044500 567008.800000
72.080800 39394134.000000
74.060000 2352116.000000
98.096400 1681724.900000
116.107100 6209492.300000
225.136600 2261005.700000
266.175400 4439496.600000

>ms2
56.049600 13704608.400000
58.065200 5051012.500000
60.044600 406534.000000
72.080800 45077290.900000
74.060100 4447535.100000
98.096600 935439.000000
116.107000 3645762.900000

>ms2
56.049600 17521505.700000
58.065200 5690140.000000
72.080800 39207122.700000
74.060100 5369474.300000
98.096500 1487726.200000
116.107200 2623681.900000

>ms2
56.049600 17347910.800000
58.065300 5292408.300000
72.080800 23336917.000000
74.060200 3540760.900000
116.107000 498050.700000

>ms2
56.049600 11132955.500000
58.065200 2656894.400000
72.080800 8306000.400000
74.060100 762341.000000

