>compound EQ18610490
>parentmass 254.12480000000002
>ionization [M+H]+
>formula C10H15N5O3
>rt 66.000000
>profile orbitrap
#smiles_iso C1=NC2=C(N1CCC(CO)CO)N=C(NC2=O)N
#smiles_can C1=NC2=C(N1CCC(CO)CO)N=C(NC2=O)N
#inchikey JNTOCHDNEULJHD-UHFFFAOYSA-N
#pubchem_id 135398748
#mb_accession EQ328801,EQ328802,EQ328803,EQ328804,EQ328805,EQ328806

>ms2
55.054200 566170.900000
57.069900 634612.400000
67.054200 3161840.500000
85.064700 7335803.000000
103.075300 3762780.200000
135.029900 1223992.900000
152.056600 267463648.000000
153.040000 851609.400000
254.124600 558099200.000000

>ms2
57.069900 2774099.000000
67.054200 15496794.000000
85.064700 19860564.000000
103.075300 4020831.200000
110.034600 1170979.200000
135.030000 2180022.500000
152.056700 537313984.000000
153.040200 1674866.500000
254.124700 157518192.000000

>ms2
57.033500 931610.000000
57.069900 6851285.500000
65.038500 1135276.900000
67.054200 35253872.000000
85.064700 15989246.000000
103.075300 1030264.600000
109.050800 1880518.200000
110.034700 5654727.000000
128.045400 3087363.500000
135.030000 21208950.000000
152.056700 559765184.000000
153.040400 18036540.000000
254.124600 6008995.000000

>ms2
57.033500 915420.000000
57.069900 6641549.500000
65.038600 2075523.000000
67.054200 35383628.000000
85.064700 5520888.500000
109.050800 5899708.500000
110.034800 27917752.000000
128.045300 10100947.000000
134.046000 3070475.000000
135.030000 74542776.000000
136.013900 1424020.200000
152.056700 332106304.000000
153.040500 77789408.000000
154.024900 1082346.400000

>ms2
53.002300 702089.300000
55.029200 997780.400000
55.054200 694332.500000
57.033500 1042591.900000
57.069900 3545028.800000
65.038500 3318349.000000
67.054200 23658988.000000
67.989300 210804.900000
80.024200 2004139.900000
82.039900 2330320.000000
83.023900 203453.800000
85.064700 1273136.800000
93.008200 987139.800000
107.035200 2974477.500000
109.050800 7389406.000000
110.034800 60215388.000000
128.045300 17355952.000000
134.046000 6116199.000000
135.030000 109738736.000000
136.014100 2697986.800000
152.056600 140745920.000000
153.040500 118962344.000000
154.024600 2210691.200000
155.044500 263512.700000
167.056800 200463.900000

>ms2
53.002300 585443.800000
55.029100 3511782.800000
55.054300 1267046.000000
57.033500 920941.200000
57.069900 1591057.000000
65.013400 612938.400000
65.038500 3259605.800000
67.054200 17911750.000000
67.989300 193709.500000
68.013100 1072521.900000
80.024300 5655693.500000
82.039900 7412239.500000
83.024000 939725.900000
85.064700 261232.500000
92.024300 573232.400000
93.008300 3451504.800000
97.027200 155828.800000
98.034900 243102.900000
107.035200 8516542.000000
109.050800 7423448.500000
110.034800 61496620.000000
128.045400 18525786.000000
134.046100 5914521.000000
135.030000 103968832.000000
136.014000 2596614.200000
152.056700 39887252.000000
153.040600 122545176.000000
154.024600 2105007.200000
155.044800 167176.300000
167.056000 147275.000000

