>compound EQ18423899
>parentmass 330.0407
>ionization [M+H]+
>formula C13H13Cl2N3O3
>rt 738.000000
>profile orbitrap
#smiles_iso CC(C)NC(=O)N1CC(=O)N(C1=O)C2=CC(=CC(=C2)Cl)Cl
#smiles_can CC(C)NC(=O)N1CC(=O)N(C1=O)C2=CC(=CC(=C2)Cl)Cl
#inchikey ONUFESLQCSAYKA-UHFFFAOYSA-N
#pubchem_id 37517
#mb_accession EQ306001,EQ306002,EQ306003,EQ306004,EQ306005,EQ306006

>ms2peaks
56.013200 10857.500000
98.984000 64903.000000
144.960100 11947.500000
161.987200 9079.100000
174.992000 49385.600000
175.995700 21651.300000
216.992900 17844.000000
244.987900 7216755.100000
262.998800 18032.100000
287.993600 1424572.000000
330.040500 2657402.700000

>ms2peaks
56.013000 83410.200000
74.023600 13773.300000
98.984100 257061.300000
161.987200 222238.000000
166.029200 87468.800000
167.013100 10032.200000
171.971400 98322.800000
173.987200 106814.100000
174.992000 12920.100000
187.966300 201657.500000
199.966300 8796.800000
201.982000 37066.900000
216.993000 419361.600000
226.977500 20737.800000
244.987900 8590028.100000
262.998500 36679.700000
287.993700 359404.800000
330.040200 14394.300000

>ms2peaks
56.013100 494909.300000
58.028700 3164.400000
74.023600 72112.700000
86.060000 4814.100000
98.984200 269740.800000
139.018200 4150.100000
144.960100 4676.800000
152.997400 10479.500000
159.971400 2850.600000
160.979300 19746.300000
161.987200 727536.300000
166.029200 132129.600000
167.013200 71031.800000
171.971500 288386.100000
173.987200 563454.500000
187.966400 501223.300000
191.997700 13064.400000
198.982300 2708.800000
199.966300 33537.500000
201.982000 91512.800000
213.945600 3525.900000
216.993000 485812.100000
226.977300 71132.900000
244.988000 2032518.300000
262.997900 3258.300000
287.994000 9391.800000

>ms2peaks
56.013200 726882.700000
74.023600 63436.800000
86.060100 3433.500000
98.984200 318310.000000
125.002000 2316.700000
127.018200 22183.200000
138.010500 13274.200000
139.005700 2313.200000
139.018600 14125.800000
144.960500 2962.400000
145.968300 3435.400000
146.976400 8267.700000
152.997600 32969.100000
159.971500 10995.600000
160.979300 31063.800000
161.987200 697548.900000
162.971100 9512.200000
165.021400 4794.900000
166.029200 73361.400000
167.013200 130176.600000
171.971500 317298.300000
172.967000 13520.600000
173.987200 788464.100000
181.016400 7727.900000
187.966400 535254.700000
191.997900 17544.700000
199.966400 42753.100000
200.997700 2797.300000
201.982000 57787.900000
213.945300 8263.300000
216.993000 199721.900000
226.977300 64092.200000
244.988000 483619.100000

>ms2peaks
53.002300 1732.300000
56.013200 833010.700000
58.028800 3744.900000
61.979200 2427.300000
74.023600 47552.800000
84.983900 3891.200000
98.984200 321737.700000
104.049200 2328.500000
108.983800 3115.900000
120.044200 8077.400000
123.994800 8901.000000
125.002400 3021.600000
126.994300 8871.300000
127.018300 109891.700000
128.002200 9761.100000
129.010100 12361.200000
130.040000 8553.600000
132.960600 4802.500000
138.010500 69202.900000
139.006000 17353.900000
139.018300 85945.500000
144.960200 3061.800000
145.968500 14632.300000
146.976400 23509.500000
152.997500 149306.700000
157.029100 3193.400000
158.976100 2934.300000
159.971600 53703.200000
160.979300 65201.100000
161.987200 521886.000000
162.971200 29941.800000
166.029300 41979.700000
167.013200 151536.100000
171.971500 216708.300000
172.966800 67956.700000
173.987200 851141.600000
177.982000 4604.400000
179.996300 16219.900000
181.016400 12573.300000
187.966400 421954.300000
191.997800 9665.900000
199.966400 40532.300000
201.982000 11752.400000
213.945800 2914.500000
216.993200 14358.900000
226.977400 17078.900000
244.987900 26349.200000

>ms2peaks
53.002300 3370.100000
56.013100 707798.000000
58.028800 2329.300000
61.979200 8093.500000
74.023700 21305.400000
84.983900 13433.100000
98.984200 310366.900000
104.049500 13922.900000
108.983900 11397.900000
120.044500 15863.900000
123.994800 35630.800000
125.002600 9472.900000
126.994500 16466.000000
127.018300 222907.900000
128.002400 20330.000000
129.010100 43049.000000
130.039900 22848.700000
132.960600 29802.900000
138.010500 168347.700000
139.006000 43877.600000
139.018300 183100.100000
144.960700 12949.800000
145.968500 46575.600000
146.976300 45171.000000
152.997600 268431.300000
157.029000 9625.300000
158.976300 5007.900000
159.971500 72260.900000
160.979400 77756.100000
161.987200 247623.100000
162.971100 48688.900000
166.029200 20565.100000
167.013200 77800.400000
171.971500 76279.900000
172.966800 138501.400000
173.987200 588835.200000
177.981900 3471.700000
179.995900 13129.100000
181.016300 4907.400000
187.966500 193900.500000
198.982800 3119.400000
199.966500 24920.300000

