>compound EQ19941521
>parentmass 203.11390000000003
>ionization [M+H]+
>formula C7H14N4O3
>rt 162.000000
>profile orbitrap
#smiles_iso CN=C(NCC1CCOC1)N[N+](=O)[O-]
#smiles_can CN=C(NCC1CCOC1)N[N+](=O)[O-]
#inchikey YKBZOVFACRVRJN-UHFFFAOYSA-N
#pubchem_id 197701
#mb_accession EQ310801,EQ310802,EQ310803,EQ310804,EQ310805,EQ310806

>ms2
56.049300 28392.500000
57.044500 178697.100000
58.052500 159487.900000
71.060300 265856.600000
72.044300 214421.400000
72.055500 84817.800000
72.080700 217431.600000
73.063400 3449195.200000
74.071200 646973.700000
83.049100 73180.300000
86.071200 484130.900000
87.079000 9396305.000000
98.071200 108402.100000
99.079100 134085.900000
99.091600 108246.400000
100.086800 4625309.100000
101.094700 456900.800000
112.086900 2283988.900000
113.094700 11585926.000000
114.102400 12456231.900000
119.068800 97556.000000
126.102500 72207.800000
127.086700 132860.600000
127.110300 1178183.300000
128.081800 301204.900000
128.118200 1656040.100000
129.089600 23850880.400000
129.125700 2431374.600000
141.102100 168011.100000
144.113100 54649.400000
145.084500 602152.100000
145.121200 83932.400000
156.113100 770311.200000
157.120900 4416307.700000
161.115800 158321.000000
172.107900 116064.000000
173.115800 610193.600000
203.113700 4100884.900000

>ms2
57.044500 187842.400000
58.052500 255579.500000
58.065200 45188.700000
59.060400 27023.200000
67.054100 46286.300000
71.060300 222027.000000
72.044300 355339.400000
72.055500 144211.400000
72.080700 247623.100000
73.063400 4630847.700000
74.071200 814337.800000
83.049100 71827.700000
85.064600 21691.500000
86.071200 511973.200000
87.079000 9977945.200000
96.068000 52000.200000
97.075900 23505.700000
98.071300 205451.400000
99.079100 123195.100000
99.091600 80298.400000
100.086900 5707853.600000
101.094700 619872.300000
112.086800 2925403.400000
113.094700 8744427.100000
114.102400 11198238.500000
119.069000 123593.100000
126.102500 62809.700000
127.086500 192957.600000
127.110300 828648.800000
128.081900 307420.000000
128.118200 1467832.400000
129.089600 21229597.500000
129.125800 1272640.800000
141.102100 136742.700000
145.084500 494537.000000
145.120800 25164.800000
156.113000 340788.900000
157.120900 1506153.200000
161.115900 122372.300000
173.115700 283055.900000
203.113700 1090872.400000

>ms2
56.036900 45339.300000
56.049500 53670.700000
57.044700 495699.300000
58.052500 693646.100000
58.065100 216336.400000
59.036600 13702.600000
59.060400 106086.200000
67.054200 88145.500000
69.044600 13909.700000
70.052500 163921.000000
70.065100 54594.200000
71.060300 176648.700000
72.044300 2183817.600000
72.055500 392788.500000
72.080700 484722.900000
73.063400 9683182.200000
74.071200 1007180.100000
83.049100 80581.900000
83.060300 118591.900000
84.055600 54806.200000
84.068200 77217.800000
85.064800 19804.300000
85.076000 58588.000000
86.071200 613518.700000
87.079000 10750216.800000
96.068200 60896.800000
97.076000 99320.500000
98.071200 628269.500000
99.055300 16784.500000
99.079100 188361.900000
99.091700 48228.200000
100.086800 8158041.200000
101.094700 589627.200000
105.053300 27005.800000
111.091400 17457.900000
112.086800 5166428.400000
113.094600 4602372.500000
114.102400 9554243.500000
117.089600 21321.500000
119.068800 108289.300000
125.094900 11568.200000
126.102500 148698.000000
127.086400 180514.900000
127.110300 454567.200000
128.081800 382658.100000
128.118100 1099475.300000
129.089500 10544436.400000
141.102100 91234.800000
142.097500 14099.100000
145.084500 260780.600000
156.113100 76028.500000
157.121000 93723.900000
173.116200 21274.900000
203.113500 14035.000000

>ms2
56.036900 70136.600000
56.049500 99800.000000
57.044700 863551.800000
57.057300 56123.700000
58.052600 1140894.300000
58.065100 383508.600000
59.036600 14210.400000
59.060400 194556.800000
67.054200 119922.000000
68.049400 47248.800000
69.044700 25872.200000
70.052500 258144.300000
70.065100 148270.100000
71.060300 145926.600000
71.073000 48708.500000
72.044300 3822743.800000
72.055500 596687.700000
72.080700 633660.100000
73.063400 10984775.600000
74.071200 974385.700000
80.049500 11154.500000
81.044700 17857.300000
82.064900 14176.000000
83.049100 118217.600000
83.060300 216390.600000
84.055400 85530.200000
84.068200 78029.400000
85.076000 55471.600000
86.071200 615319.200000
87.079000 9498407.500000
95.060400 46110.100000
96.068200 123298.600000
97.039800 17567.600000
97.076000 223864.100000
98.071200 880785.300000
99.079000 152066.000000
99.091700 52981.800000
100.086900 7551448.000000
101.094700 460259.100000
105.053300 14458.100000
111.055200 14627.900000
111.091600 20952.900000
112.086800 5567256.200000
113.094700 2898164.300000
114.102500 8135608.800000
117.089700 14191.400000
119.068900 92399.500000
125.095200 14122.800000
126.102500 157937.000000
127.086400 194137.700000
127.110400 254052.000000
128.081700 367555.400000
128.118100 807749.400000
129.089600 5370217.600000
133.084300 19720.900000
141.102000 45010.600000
144.113500 11407.600000
145.084700 122405.500000
156.113200 27641.600000

>ms2
56.036900 121859.600000
56.049500 254465.100000
57.044800 1735968.100000
57.057300 120953.200000
58.052600 1507728.500000
58.065100 613859.900000
59.060400 205389.500000
67.054200 114090.600000
68.049500 53732.700000
69.044700 77925.600000
70.052500 282952.200000
70.065100 373757.300000
71.060300 129227.700000
71.072900 45402.600000
72.044400 5522323.800000
72.055600 649611.700000
72.080700 650401.100000
73.063400 8224746.100000
74.071200 656366.400000
80.049400 16989.100000
81.044600 18404.300000
82.052500 45673.900000
83.049100 128039.800000
83.060300 366662.300000
84.055600 126026.500000
84.068200 47201.800000
85.075900 68205.900000
86.071200 411183.900000
87.079000 5001725.900000
91.054100 11218.000000
95.060400 44272.800000
96.068100 93335.700000
97.039600 30707.000000
97.076000 328135.300000
98.071300 776497.800000
99.079100 56154.700000
99.091700 24433.600000
100.086900 3855028.600000
101.094700 153881.500000
105.053200 18720.700000
111.055200 11384.500000
111.091600 20640.100000
112.086900 4012584.300000
113.094700 794842.200000
114.102500 4116475.700000
119.068800 70022.000000
126.102500 147447.800000
127.086500 159626.300000
127.110400 50339.600000
128.081800 204367.200000
128.118200 302780.900000
129.089600 986999.900000
141.102100 17296.800000
145.084400 17076.600000

>ms2
56.036900 182681.600000
56.049500 498395.500000
57.044800 2729066.500000
58.052600 1702254.200000
58.065200 598210.800000
59.047700 10423.500000
59.060400 101978.000000
67.054200 130714.800000
68.049500 72468.500000
69.044700 84002.300000
70.052600 231188.900000
70.065100 578992.900000
71.060300 126388.300000
71.073000 25393.900000
72.044300 5521579.500000
72.055600 537161.600000
72.080700 466465.200000
73.063400 4974272.000000
74.071200 441752.500000
80.049500 53266.600000
81.044700 50732.500000
82.052500 42008.400000
82.065100 24925.800000
83.049200 111544.500000
83.060300 356512.700000
84.055600 96119.000000
84.068300 29038.700000
85.075900 67432.500000
86.071200 208141.200000
87.055000 115985.684600
87.079000 2306515.200000
91.054100 15185.200000
95.060300 110910.000000
96.068100 44051.000000
97.039600 23564.700000
97.076000 313452.500000
98.071300 719239.100000
99.091600 40419.100000
100.086900 1784284.400000
101.094800 24100.600000
110.071500 10476.700000
111.091500 17691.400000
112.086800 2550147.600000
113.094700 301645.100000
114.102500 1805981.400000
119.069000 11334.700000
126.102500 97537.600000
127.086600 131143.500000
128.081800 99288.700000
128.118100 93890.400000
129.089600 216423.100000

