>compound EQ19244594
>parentmass 245.2012
>ionization [M+H]+
>formula C16H24N2
>rt 480.000000
>profile orbitrap
#smiles_iso CC1=CC(=CC(=C1CC2=NCCN2)C)C(C)(C)C
#smiles_can CC1=CC(=CC(=C1CC2=NCCN2)C)C(C)(C)C
#inchikey HUCJFAOMUPXHDK-UHFFFAOYSA-N
#pubchem_id 5709
#mb_accession EQ303101,EQ303102,EQ303103,EQ303104,EQ303105,EQ303106

>ms2peaks
115.054400 2996285.900000
145.100800 2594225.700000
189.138700 3952695.200000
245.201200 2144211591.800000

>ms2peaks
175.147900 2726964.700000
189.138700 12558048.200000
229.168800 4376156.600000
230.177200 2128257.100000
245.201300 1820756233.800000

>ms2peaks
57.069900 12209951.000000
84.068000 3260400.500000
119.085600 3930469.300000
133.101300 3508481.700000
145.100600 3123765.700000
146.096400 2364180.100000
160.124400 1945806.700000
161.132500 27301995.600000
175.148100 39146272.600000
188.131000 2425422.100000
189.138600 179581782.200000
215.153900 2124797.300000
229.169700 12131085.400000
230.177900 33060099.000000
245.201300 1752067793.200000

>ms2peaks
57.069900 26626485.600000
69.069900 2588441.900000
71.060300 2148888.000000
83.060400 2303933.300000
84.068200 11781932.600000
105.069900 6973000.400000
119.085500 17277426.700000
121.101200 3600288.000000
133.101300 17490025.800000
135.116800 2664623.700000
143.085500 1823826.600000
145.101100 3700122.200000
146.096500 5504898.600000
146.109000 1834814.200000
147.116700 7980250.200000
160.124700 10644523.900000
161.132400 75963523.900000
173.107400 2776168.600000
175.148100 98918023.300000
188.130800 7117968.000000
189.138600 336947355.300000
202.146400 2718487.900000
215.154100 7948957.300000
229.170000 49952450.800000
230.177900 79038410.100000
245.201200 1200119867.700000

>ms2peaks
55.054300 820967.300000
57.069900 36889255.400000
67.054100 464461.400000
69.069800 10017289.800000
71.060300 5589909.000000
77.038300 412622.700000
79.054200 878505.000000
81.069800 499719.800000
83.060400 2225334.800000
83.085500 1869694.800000
84.068100 27781481.600000
91.054100 4050196.300000
93.069800 1831780.300000
95.085500 713218.600000
105.069800 21277867.700000
107.085500 4604366.400000
115.054200 808036.700000
117.069700 1011586.600000
118.077400 504478.000000
119.085400 65008485.500000
121.101100 11302048.900000
128.061800 663572.200000
129.069900 737288.200000
131.085500 5806931.000000
132.093200 703117.100000
133.101100 69511185.500000
134.108900 561793.100000
135.116600 8282454.800000
143.085500 1750894.900000
144.080500 823542.000000
144.093400 518054.300000
145.101100 20496886.200000
146.096400 6535370.500000
146.108900 11552743.200000
147.116700 31092245.200000
157.088400 872859.900000
158.096200 1038260.700000
159.116600 765240.800000
160.124600 47655498.500000
161.132300 118691888.700000
172.111700 1672983.200000
173.107400 6418638.400000
173.132400 2243401.200000
174.114700 1788432.100000
175.148000 120163821.700000
186.127700 2124263.200000
187.122800 2514874.100000
188.130800 7794153.600000
189.138500 251905814.100000
202.146100 4508707.300000
215.154300 25409698.300000
229.169900 144618385.200000
230.177700 66940339.000000
245.201100 271078409.900000

>ms2peaks
55.054300 3658144.700000
57.069900 25652976.900000
67.054300 809190.400000
69.069800 10770098.100000
71.060400 7992195.400000
77.038400 528353.700000
79.054300 3492642.000000
81.069900 2358154.400000
83.085500 2053462.600000
84.068200 31115814.000000
91.054200 12898800.200000
93.069800 4576975.700000
95.085500 1680947.100000
103.054300 2089803.650000
105.069900 48781651.700000
107.085500 9211742.900000
115.054100 2173526.200000
117.069800 5411760.500000
118.077800 4159329.200000
119.085500 115333217.500000
120.093400 2044036.221000
121.101200 17187026.200000
128.061900 514695.100000
129.069800 2900953.100000
130.077600 3244480.500000
131.085600 21167139.400000
132.093300 2884410.100000
133.101200 113765466.800000
134.108900 829536.500000
135.116800 13357781.200000
143.085600 1851525.800000
144.080800 2051802.300000
144.093300 1012196.500000
145.101200 101287272.800000
146.096600 4599200.500000
146.109000 14890338.400000
147.116900 42783520.500000
157.088900 606014.700000
158.096300 1866263.100000
159.103900 834018.400000
159.116800 11056563.700000
160.124700 98188652.900000
161.132400 72968235.200000
172.111900 793260.800000
173.107300 7307702.800000
173.132200 3169419.500000
174.115100 2599407.700000
175.148100 65341856.600000
186.127900 2309151.800000
187.122800 4450343.500000
188.130900 7166350.100000
189.138700 96495538.800000
202.146200 3848320.200000
215.154400 28605867.300000
229.170000 202926717.300000
230.177800 23247003.600000
245.201300 32954427.700000

