>compound EQ20850185
>parentmass 384.14170000000007
>ionization [M+H]+
>formula C19H20F3NO4
>rt 906.000000
>profile orbitrap
#smiles_iso CCCCOC(=O)C(C)OC1=CC=C(C=C1)OC2=NC=C(C=C2)C(F)(F)F
#smiles_can CCCCOC(=O)C(C)OC1=CC=C(C=C1)OC2=NC=C(C=C2)C(F)(F)F
#inchikey VAIZTNZGPYBOGF-UHFFFAOYSA-N
#pubchem_id 50897
#mb_accession EQ309301,EQ309302,EQ309303,EQ309304,EQ309305,EQ309306

>ms2
91.054300 917470.200000
254.079800 698362.900000
255.050600 961557.100000
256.058800 583110.900000
282.074200 121082961.400000
310.069000 1581495.300000
328.079600 151363603.700000
384.142300 563131809.100000

>ms2
57.070000 6637283.400000
73.028500 1333860.700000
91.054400 38153162.100000
119.049300 13441632.600000
121.028600 2427928.500000
146.021300 1103284.700000
164.031900 2336061.600000
226.084200 1013923.400000
238.047800 8462117.800000
254.043100 4636134.400000
254.079300 67304906.500000
255.050700 34360125.900000
256.058600 25236971.000000
264.063800 1358354.600000
282.074200 731829202.900000
310.069400 4298337.600000
328.079700 306708684.400000
338.136900 1860082.900000
384.142400 22770919.600000

>ms2
57.070000 9529274.500000
65.038600 6960432.700000
73.028600 1630478.200000
91.054400 213789803.400000
93.033600 1431885.900000
95.049400 356245.500000
107.049300 315863.900000
109.064900 2554922.800000
111.044300 3471956.500000
118.065200 415244.800000
119.049400 41068149.800000
120.057300 593121.900000
121.028600 10253965.300000
121.065000 1376330.900000
137.060200 292744.300000
146.021300 1186191.900000
147.029400 1386636.500000
164.032000 11662639.800000
167.073100 445698.300000
179.019300 2112523.000000
185.083900 295904.300000
186.053200 2017152.700000
198.052900 1859209.600000
200.031900 526550.400000
211.060600 1012717.800000
213.079100 5000692.300000
214.047600 1539664.200000
214.066100 444072.700000
226.047300 1120211.700000
226.084200 6300147.200000
227.055700 20140341.400000
228.063500 440409.600000
235.061400 557206.100000
236.068700 5390350.200000
238.047900 77541108.600000
239.056000 2166300.400000
240.063000 2430321.800000
253.034900 457262.900000
253.072100 552168.800000
254.043100 44651803.700000
254.079200 151240462.800000
255.050700 58000730.400000
256.058500 41372749.100000
262.069000 369861.900000
264.063700 5657068.800000
267.050900 1515529.600000
268.058700 543932.200000
282.074200 269707219.300000
310.068300 462042.200000
328.079600 11869782.300000

>ms2
57.070000 7384085.400000
65.038700 19312187.900000
73.028500 1833286.100000
75.023100 375110.600000
91.054400 268424616.800000
92.025600 320289.300000
92.062100 271298.800000
93.033600 4987515.200000
94.041500 1112037.200000
95.049100 545287.900000
103.054400 514580.400000
107.049300 578922.200000
109.028800 317659.100000
109.065100 5769255.900000
111.044300 7299315.100000
118.065300 1714025.800000
119.049400 35989344.400000
119.060500 2026790.600000
120.044400 459533.900000
120.057300 2432655.400000
121.028700 10489532.400000
121.065000 2398611.900000
135.044500 336984.000000
137.060100 442417.700000
141.057500 1146192.500000
144.025900 958108.500000
146.021100 274864.700000
147.029300 3740578.800000
148.037400 349352.900000
157.089100 1223739.900000
158.060500 389472.000000
161.044800 393880.000000
163.024000 1156089.400000
164.032100 20093648.900000
167.073300 2401807.900000
172.036700 280200.600000
176.032400 466993.900000
178.047500 521153.300000
179.019200 7340997.300000
185.045500 1055667.000000
185.084100 1158672.400000
186.053200 2474521.200000
186.071800 953946.100000
190.046800 1134098.000000
198.052800 5176387.800000
199.060600 429675.700000
200.031800 471122.700000
210.052700 1092432.000000
211.060900 3790462.600000
213.079000 5460346.049000
214.048200 1346302.100000
214.066500 1802916.800000
216.046400 476233.400000
216.062400 1265600.300000
218.041600 4052561.800000
226.047800 1707339.400000
226.084300 8555694.400000
227.055700 49600536.300000
228.063400 562479.000000
234.072600 1447628.500000
235.061100 1354140.800000
236.068800 8422717.900000
238.048000 150858044.400000
239.055600 2296788.000000
240.063400 3295854.500000
253.034900 1179344.500000
253.071500 1016928.800000
254.043000 68536350.100000
254.079200 91988877.100000
255.050700 27319626.700000
256.058500 31265984.800000
262.067600 363786.800000
264.063500 4822734.800000
267.051100 1975069.500000
268.058400 477996.200000
282.074300 82999180.600000
328.080500 468462.500000

>ms2
53.997600 261866.500000
55.018000 357607.700000
57.070000 3862511.900000
63.023100 253622.400000
64.030800 315899.300000
65.038700 41172280.800000
73.028500 1125344.600000
75.022900 2124469.000000
79.054300 533381.700000
81.033800 272866.100000
91.054400 200525337.900000
92.025800 1154859.800000
92.062200 429598.700000
93.033600 4260468.700000
93.070300 303666.000000
94.041500 1810671.200000
95.049400 2260093.400000
103.054400 1025870.900000
104.013000 369165.400000
107.049300 1097251.000000
109.028700 393586.300000
109.065000 3742596.000000
110.036100 455679.100000
111.044300 7327956.200000
117.057400 474263.600000
118.065200 1154322.300000
119.049300 11080343.400000
119.060500 1037208.400000
120.044500 578558.700000
120.057100 1870028.100000
121.028600 4319289.000000
121.039800 305986.500000
121.065000 1726628.600000
130.065600 715771.100000
131.049300 2171541.400000
135.044500 248303.100000
140.049600 301634.600000
141.057500 12467505.300000
144.026100 980037.400000
145.033600 420887.800000
146.021600 2335402.400000
147.029300 5788348.100000
148.037200 1118241.100000
152.043300 286469.500000
157.088900 1641047.400000
158.060300 4243006.600000
159.048200 421282.200000
161.045200 546549.100000
163.024400 2041913.200000
164.032000 29764323.900000
167.073300 3880862.700000
168.044600 1561395.100000
169.052300 3411964.100000
170.060300 519790.600000
172.037300 1417232.000000
178.047500 446430.400000
179.019100 11082153.600000
180.038400 1643097.000000
181.046000 324860.000000
183.042100 706469.600000
185.045000 2121492.000000
185.083900 347650.900000
186.052700 2234701.300000
186.071500 1229771.000000
188.043200 306992.500000
188.050900 3496854.500000
190.046700 6958634.200000
196.056300 311084.800000
198.052900 7795224.200000
199.060900 558820.000000
200.032100 374934.900000
200.044300 368556.500000
201.041000 497553.300000
202.047400 426235.100000
207.049400 1601392.200000
208.057600 880929.400000
209.045100 2053306.500000
210.052900 4581834.100000
211.060700 6554144.800000
212.069900 2050044.000000
213.079100 1341546.700000
214.048200 380980.500000
214.066900 995238.100000
216.046200 393401.800000
218.041700 16413609.800000
222.053300 291416.400000
226.047600 3651286.400000
226.084200 3965209.400000
227.055700 47262824.600000
228.063800 442045.700000
234.035700 280766.900000
234.072700 262255.200000
235.060800 3431361.000000
236.068500 4073887.600000
237.039500 363834.600000
238.047900 143245706.400000
239.055600 1134828.800000
240.063300 1158408.400000
254.042800 64739206.700000
254.078900 14609095.500000
255.050600 3695259.500000
256.058400 10903942.900000
264.063500 1154126.600000
267.050700 1016329.000000
282.074200 5462889.800000

>ms2
53.997700 258111.000000
55.017900 323818.100000
57.070000 2587094.800000
63.023000 1790778.000000
64.030900 606540.100000
65.038700 80731406.700000
73.028500 386392.800000
75.023000 6562064.900000
79.054400 1185289.900000
81.033600 1762694.300000
91.054400 173904673.600000
92.025800 3932999.400000
92.062200 1384280.800000
93.033600 1575047.600000
93.070000 577237.200000
94.041400 3299987.400000
95.049300 5328203.500000
103.054400 1493688.200000
104.013400 4031214.100000
107.049300 573498.600000
109.028600 1236709.900000
109.064900 1072208.000000
110.036400 1069187.800000
111.044300 4973914.300000
117.057300 1382511.700000
118.065100 443617.400000
119.049300 4112185.900000
120.044500 1311034.500000
120.057100 1469261.600000
121.028600 3257923.800000
121.039700 401638.600000
121.065000 445625.500000
130.065400 4471445.900000
131.049400 11023013.700000
133.045000 2345683.979000
140.049700 3296711.000000
141.057500 36945643.800000
144.025900 400695.400000
145.033600 2322619.900000
146.021500 7788258.000000
147.029300 8728267.500000
148.037000 1826645.000000
152.043500 1797085.900000
157.088700 1195819.400000
158.060400 11262889.600000
159.048100 1623814.100000
161.045300 1032762.900000
163.024400 1841841.800000
164.032000 58410521.900000
167.073300 3884614.000000
168.044600 8106495.300000
169.052500 6602387.000000
170.060400 587190.100000
172.037000 1232022.600000
176.032200 503769.800000
178.047100 1152609.500000
179.019200 15925877.900000
180.038400 3988329.900000
181.046300 2053410.000000
183.042200 2002558.700000
185.045300 4445013.300000
186.054100 2182834.733000
186.071500 449319.500000
188.043100 458106.500000
188.051100 6717474.800000
190.046600 16882007.800000
196.056500 983111.100000
198.053000 12323872.300000
199.060500 598533.000000
200.031800 1113041.000000
200.044600 1439647.300000
201.041800 2237342.100000
202.047500 1862768.400000
207.049400 4025146.800000
208.057400 2249792.400000
209.045100 6860533.700000
210.053000 7062753.500000
211.060700 7012507.700000
212.070200 2269125.000000
214.066900 618750.700000
216.062200 946086.000000
218.041700 30438789.700000
222.053000 348546.300000
226.047900 6163141.700000
226.084200 947652.000000
227.055700 32534424.000000
234.036500 1424669.300000
235.060900 4148295.600000
236.068200 1362616.700000
237.039800 964286.300000
238.047900 87551192.700000
239.056300 585055.100000
254.042800 59578943.500000
255.050900 286349.700000
256.058400 2159249.500000
282.074500 490848.900000

