>compound EQ21385299
>parentmass 278.1903
>ionization [M+H]+
>formula C20H23N
>rt 510.000000
>profile orbitrap
#smiles_iso CNCCCC12CCC(C3=CC=CC=C31)C4=CC=CC=C24
#smiles_can CNCCCC12CCC(C3=CC=CC=C31)C4=CC=CC=C24
#inchikey QSLMDECMDJKHMQ-UHFFFAOYSA-N
#pubchem_id 4011
#mb_accession EQ331701,EQ331702,EQ331703,EQ331704,EQ331705,EQ331706

>ms2peaks
91.053900 3346822.000000
117.069800 15228507.000000
131.085300 3396673.000000
143.085700 2718353.000000
169.101200 9772918.000000
191.085000 5406295.500000
219.116600 7056803.500000
247.148600 10963770.000000
250.159100 101001504.000000
278.190400 1980300928.000000

>ms2peaks
91.054200 27330612.000000
105.069700 3726583.800000
117.069800 109895304.000000
119.085500 8634747.000000
129.069800 7547372.000000
131.085500 25827434.000000
141.069700 7237557.500000
143.085600 17884082.000000
155.085400 4491795.000000
169.101200 83147024.000000
178.077500 4628701.000000
179.085300 2010546.500000
191.085000 13991961.000000
193.101100 3757611.800000
205.101200 5427687.500000
219.116900 72189296.000000
247.148300 39588576.000000
250.159100 581475968.000000
278.190300 978025600.000000

>ms2peaks
65.038400 533827.200000
69.069900 1889178.800000
70.065100 9894391.000000
72.080800 7435793.000000
91.054200 120479680.000000
105.069900 12121423.000000
115.054200 4539467.500000
117.069800 246319888.000000
119.085500 10266136.000000
128.062100 1623196.900000
129.069900 19226946.000000
131.085500 73360912.000000
141.069800 51018864.000000
143.085600 36555252.000000
154.077500 1186510.000000
155.085500 10427127.000000
169.101200 126051344.000000
178.077700 61139040.000000
179.085500 9018396.000000
189.069800 854070.600000
190.077500 630979.100000
191.085500 113077576.000000
193.101200 36903244.000000
203.084600 2806661.000000
204.093400 10409728.000000
205.101300 35077676.000000
217.101500 1814775.200000
218.109400 4082165.000000
219.116900 392713984.000000
232.125400 1695964.900000
247.148200 12517155.000000
250.159100 521031232.000000
278.190400 118023776.000000

>ms2peaks
58.065200 857468.100000
65.038600 1716690.200000
67.054300 571759.100000
69.069900 2128439.500000
70.065100 17973064.000000
72.080700 10136755.000000
79.054300 1443400.200000
91.054200 196730368.000000
103.054300 1700413.600000
105.069900 18667084.000000
115.054200 24642964.000000
116.062000 1323506.800000
117.069900 247117728.000000
119.085400 5389730.500000
128.062000 10578977.000000
129.069800 24800796.000000
131.085600 75070888.000000
141.069800 92993968.000000
143.085600 26911154.000000
153.069900 840613.700000
154.077800 5629136.500000
155.061000 527706.500000
155.085500 9296975.000000
156.093400 449584.700000
165.069900 1940899.200000
167.085500 1652022.000000
169.101200 53273396.000000
176.062300 552192.800000
178.077700 206592288.000000
179.085500 18954292.000000
189.069500 3120759.200000
190.077500 6582713.000000
191.085600 356753120.000000
192.093500 618407.100000
193.101200 53740500.000000
202.077100 3020644.200000
203.085400 12882061.000000
204.093500 67311744.000000
205.101300 41963024.000000
206.109300 684329.100000
215.085400 488783.000000
217.101300 8107501.500000
218.109200 9963968.000000
219.116900 324388640.000000
232.124800 2289236.800000
247.148200 745152.100000
250.159100 89679784.000000
278.190900 4471449.500000

>ms2peaks
58.065200 818859.500000
65.038600 4868756.500000
69.069800 833117.500000
70.065100 14061402.000000
72.080700 6642055.000000
79.054300 2784400.000000
91.054200 212082880.000000
95.049200 640763.000000
103.054200 2735118.500000
105.069900 13798555.000000
115.054200 57074092.000000
116.062000 4876846.500000
117.069900 192083024.000000
119.085400 2967083.800000
127.054200 723325.400000
128.062000 23611980.000000
129.069800 23658186.000000
131.085600 53855784.000000
141.069800 102372096.000000
143.085600 12599613.000000
145.064900 2110949.800000
152.061800 696511.700000
153.069900 2057729.600000
154.077700 9852306.000000
155.060300 3577954.800000
155.085500 6861342.000000
165.070000 7886444.000000
167.085400 1550354.100000
169.101200 13577277.000000
176.061500 1454345.400000
177.069500 635037.400000
178.077700 293902464.000000
179.085500 26137610.000000
189.069900 11007035.000000
190.077800 28159588.000000
191.085500 506434240.000000
192.093100 1537120.100000
193.101200 23171900.000000
202.077600 9248491.000000
203.085400 43600184.000000
204.093500 126334984.000000
205.101200 20524742.000000
206.109700 617457.800000
216.093800 651698.400000
217.101200 14443769.000000
218.109100 12441108.000000
219.116900 93894008.000000
232.125000 802820.200000
250.159000 6526068.500000

>ms2peaks
58.065200 574923.900000
65.038600 5741111.500000
70.065100 10090115.000000
72.080700 2876644.200000
77.038600 436847.800000
79.054300 3454995.200000
91.054200 175580944.000000
95.049100 1778733.500000
103.054200 5358482.500000
105.044600 513016.600000
105.069900 9930595.000000
115.054200 78235408.000000
116.062000 6840483.500000
117.069800 102075096.000000
127.054100 2281420.800000
128.062000 27440852.000000
129.069900 14799820.000000
131.085600 21655524.000000
141.069800 74083808.000000
143.085700 4176053.800000
145.064800 4592902.000000
152.062200 2612225.500000
153.069900 4823743.000000
154.077800 7414318.000000
155.060500 4885988.500000
155.085300 2864711.200000
165.069900 19902640.000000
167.085300 583902.100000
169.101200 2088201.800000
176.062200 647760.200000
177.070400 1575844.100000
178.077700 250596848.000000
179.085500 18042862.000000
189.069900 37970900.000000
190.077800 65102904.000000
191.085500 381416256.000000
192.092800 1332530.000000
193.101200 5079698.000000
202.077600 19757146.000000
203.085400 82732912.000000
204.093400 86619696.000000
205.101100 4257269.500000
215.085600 2312060.200000
216.093700 634849.900000
217.101300 11627315.000000
218.109000 7153992.000000
219.116900 12253062.000000

