>compound EQ22375871
>parentmass 308.1856
>ionization [M+H]+
>formula C17H25NO4
>rt 288.000000
>profile orbitrap
#smiles_iso COC1=CC(=C(C(=C1)OC)C(=O)CCCN2CCCC2)OC
#smiles_can COC1=CC(=C(C(=C1)OC)C(=O)CCCN2CCCC2)OC
#inchikey OWYLAEYXIQKAOL-UHFFFAOYSA-N
#pubchem_id 2467
#mb_accession EQ306801,EQ306802,EQ306803,EQ306804,EQ306805,EQ306806

>ms2peaks
98.059900 1422920.200000
140.106800 219171862.200000
195.064700 3212757.100000
237.111900 136498749.800000
290.174900 4019416.400000
308.185300 658051371.400000

>ms2peaks
69.033300 2928633.500000
70.065000 13703332.100000
71.049000 4767618.800000
72.080600 2927056.400000
98.059900 20956086.500000
140.106900 440782485.600000
177.090700 3603532.900000
181.085700 5247941.000000
195.065100 21349139.400000
195.101400 3307178.000000
209.117000 1437900.500000
221.117300 4120573.000000
222.088100 1603871.100000
237.111900 626598693.300000
290.174700 14502278.700000
308.185300 53741279.000000

>ms2peaks
69.033400 15259442.000000
70.065000 34274761.000000
71.049000 15337646.400000
72.080700 5822013.400000
84.080600 1171913.700000
86.060000 3556187.500000
98.059900 45944086.300000
105.069800 563579.500000
112.111900 1252591.800000
121.064700 1550707.300000
123.080300 1504793.600000
136.051700 1435007.700000
137.059400 1564996.000000
139.075100 2418696.200000
140.106800 175009500.100000
147.080200 1533818.800000
151.075400 3223931.800000
152.046600 528514.500000
165.054700 637091.500000
165.090600 2521239.500000
167.070200 5682542.300000
168.078000 1751684.700000
169.085600 1719618.800000
175.075300 503760.600000
177.090800 13809888.100000
178.062200 6653602.200000
178.098600 4722396.700000
179.070300 2227699.400000
179.106500 2087133.000000
180.041800 2395024.700000
180.078400 482106.800000
181.085700 66779896.700000
189.091300 503863.200000
191.070000 7113740.600000
191.106400 1211117.400000
193.085600 531901.600000
194.093500 1210661.600000
195.065000 217608955.800000
195.101200 30915248.400000
204.078000 6269126.200000
207.101200 3081005.600000
209.117000 11398313.100000
219.101300 2189447.800000
221.116800 4387593.000000
222.088400 6275892.600000
237.111900 475801416.800000
290.174400 3172286.200000

>ms2peaks
68.049400 574820.100000
69.033400 25086729.500000
70.065000 41575069.900000
71.049000 19580167.400000
72.080700 8461651.400000
79.054200 664197.000000
83.049100 1165929.800000
84.080700 3210412.800000
86.059900 4125517.900000
91.054000 2575161.000000
95.049000 474946.300000
96.080700 500974.800000
97.088700 1223465.400000
98.059900 44628187.400000
103.054200 599342.700000
105.069800 3982312.400000
107.049000 423091.100000
108.080700 470648.700000
109.064700 1378407.500000
112.112000 1236925.200000
114.091300 645063.600000
115.054200 516349.500000
117.069800 521216.000000
119.048900 1151875.800000
121.064600 7637166.900000
122.036000 460038.400000
123.080300 5464932.400000
125.059600 377516.800000
133.064600 386742.400000
135.043700 1293307.600000
135.080300 2828060.600000
136.051700 5756364.200000
137.059600 2900322.000000
138.067400 494387.000000
139.075300 10315698.400000
140.106800 86769118.200000
145.064700 475714.500000
146.072400 1566003.500000
147.080400 1990880.500000
149.059600 1430283.100000
149.070800 590418.200000
149.096000 518623.100000
150.067400 1382104.200000
151.075200 7898952.500000
152.046600 4187215.500000
153.054500 606953.300000
153.090900 678642.000000
155.070100 1276252.700000
159.080100 702751.400000
160.088100 355314.800000
161.059700 647435.000000
162.067400 1203094.800000
163.038900 1238857.700000
163.075100 1628968.400000
165.054500 2224322.900000
165.090900 7807484.800000
166.062300 449216.200000
167.070100 7057220.600000
168.077900 3609002.500000
169.085800 4253783.000000
175.075300 2486408.300000
176.083100 1097570.500000
177.054600 1178946.600000
177.090900 14231929.000000
178.062200 13349601.000000
178.098600 6720680.000000
179.070200 3521596.700000
179.106600 3258753.000000
180.041400 10432318.700000
180.077900 1593063.700000
181.085700 95480729.500000
189.054300 2119291.400000
189.090600 393966.700000
191.070100 19572359.100000
191.106500 1754860.500000
192.077800 660963.200000
193.085600 1346145.500000
194.093600 3352893.100000
195.065000 350631873.100000
195.101100 45108613.000000
198.051900 2549746.200000
204.077900 12940457.000000
207.101600 2582914.300000
209.117000 11983703.700000
219.101300 1625368.700000
221.117500 651374.600000
222.088400 6206166.100000
237.111900 210239454.500000
290.174600 396398.500000

>ms2peaks
65.038400 691139.700000
67.054100 630649.600000
68.049400 1201524.800000
69.033400 34103175.600000
70.065000 36275082.900000
71.049000 15455863.000000
72.080700 9558048.300000
77.038300 571387.200000
78.046300 502745.500000
79.054200 5474253.900000
81.033300 674641.600000
81.069700 457388.000000
83.049100 816060.500000
84.080700 5124560.300000
86.059900 4901964.700000
91.054100 13515423.100000
93.033100 530519.200000
93.069800 1397807.300000
95.049000 4647130.000000
96.056800 1960123.700000
96.080500 660162.600000
97.088400 1417857.100000
98.059900 31259261.500000
103.054100 4744284.800000
105.044500 700350.500000
105.069800 13329438.600000
106.041300 377283.700000
107.049000 1641789.400000
108.056800 3569240.100000
108.080400 806657.200000
109.028200 425858.200000
109.064700 7000940.900000
110.096200 518733.400000
112.111900 1347926.300000
115.053900 1917145.100000
117.069800 2528603.400000
119.049100 3011847.400000
120.056900 2986129.000000
121.064600 23621825.500000
122.035900 1926801.900000
122.096200 633561.100000
123.043700 1793061.300000
123.080300 11967690.000000
124.051500 1490501.500000
125.059600 2147701.300000
129.069900 447380.300000
131.049000 1110307.200000
133.028400 457804.100000
133.064700 2654043.200000
134.072400 1286529.300000
135.044000 4569512.600000
135.080400 6737338.600000
136.051800 20575790.900000
137.023300 2448073.800000
137.059600 7818963.400000
138.067400 2040919.800000
139.075200 29297952.800000
140.106800 24295002.600000
144.056700 415783.500000
145.064600 2232385.300000
146.072300 2691767.400000
147.043800 1645790.800000
147.080400 3917849.600000
148.051500 682546.700000
148.088100 1130503.000000
149.059700 2627921.500000
149.070800 1714822.500000
149.096000 664876.600000
150.031300 667079.300000
150.067500 4797012.200000
151.039000 3577376.500000
151.075300 15213626.400000
152.046600 27836714.200000
153.054500 1716021.600000
153.090700 1698557.700000
154.062300 685511.300000
155.033700 5254226.500000
155.070100 2611271.700000
159.080400 442746.900000
161.059400 3408646.300000
162.067300 2284602.800000
163.038800 4901916.800000
163.075100 4149310.600000
164.082900 1518153.800000
165.054400 8066011.800000
165.090800 10951703.300000
166.062300 507967.600000
167.070100 5624208.000000
168.041500 632009.900000
168.077900 3528968.200000
169.049500 671644.100000
169.085700 4493737.900000
175.075400 3652492.500000
176.046500 1586305.700000
176.082900 571098.700000
177.054400 4076730.400000
177.090900 8081993.100000
178.062200 16188919.000000
178.098700 4220781.300000
179.070000 5053983.200000
179.106600 1374495.400000
180.041500 44680902.600000
180.077800 3249067.300000
181.085700 69754968.800000
189.054500 8203738.700000
191.070100 41292217.700000
192.077900 585320.700000
193.085300 839320.000000
194.093700 2489662.800000
195.065000 338670037.600000
195.101000 25624609.600000
198.052100 11994521.900000
204.077900 13146597.700000
207.101400 485815.000000
209.117100 2390348.900000
219.101500 645031.700000
222.088500 2406929.000000
237.111900 28869089.300000

>ms2peaks
53.002200 395724.500000
53.038600 457653.900000
65.038500 2989567.900000
66.046300 1814173.139000
67.054100 2474187.200000
68.049300 2362917.400000
69.033400 28602398.100000
70.065000 28013730.400000
71.049000 9214522.000000
72.080700 7833530.700000
77.038500 2157974.400000
78.046300 2428486.200000
79.054200 12981806.700000
80.049400 316108.200000
81.033400 3772014.900000
81.069800 1571990.200000
83.049000 538913.200000
84.080700 5744243.600000
86.059900 3360375.400000
91.054100 26689811.300000
92.025400 2354684.248000
93.033400 2571152.200000
93.069700 2359742.700000
94.041200 2646556.400000
95.049000 15761978.800000
96.056800 10145871.600000
97.088500 2816580.700000
98.059900 15415607.300000
103.054100 9098583.800000
105.044600 3346342.700000
105.069800 18296034.200000
106.041300 2634545.300000
107.012600 1702094.089000
107.049100 4570558.700000
108.056900 5649184.200000
108.080700 1258835.700000
109.028200 3855025.000000
109.064700 12829118.700000
110.096100 304387.100000
112.112100 559918.000000
115.054100 4787218.000000
117.069800 2723982.200000
118.041100 2127699.953000
119.049100 5311160.700000
120.056800 3275276.800000
121.028300 3575448.076000
121.064600 36045464.500000
122.036100 7516250.200000
123.043900 3318264.600000
123.080300 9670603.400000
124.051700 2544057.200000
125.059600 3417242.000000
129.069600 486878.100000
131.049000 2516017.200000
133.028400 1086788.600000
133.064700 4753571.600000
134.072700 1427144.900000
135.043900 9303478.600000
135.080400 5120963.800000
136.051800 29399025.100000
137.023200 9636390.600000
137.059600 10663852.400000
138.067500 2158349.100000
139.075200 27606814.800000
140.106800 6691729.700000
144.057000 1145631.400000
145.064800 2226322.100000
146.036000 2114056.971000
146.072600 2189477.300000
147.043900 4584952.600000
147.080400 3544718.700000
148.051900 2151794.100000
148.088300 328961.700000
149.059600 5664456.000000
149.070900 653174.800000
150.031100 4654284.800000
150.067500 5632424.300000
151.038900 8486808.500000
151.075300 11555534.000000
152.046700 73652034.800000
153.054400 524567.000000
153.090800 388246.400000
154.062400 607244.100000
155.033700 22149082.800000
155.070200 1736451.000000
159.080000 400488.100000
160.051600 665120.100000
160.087900 314826.300000
161.059400 7807152.600000
162.067600 1251846.500000
163.038700 7892776.900000
163.075200 6473564.800000
164.083100 1153412.100000
165.054500 10515113.300000
165.090800 4102164.300000
166.062500 400488.200000
167.070000 3131362.500000
168.041700 1555779.900000
168.077900 1899740.300000
169.049500 3658707.900000
169.085600 1816027.400000
175.075400 4267524.000000
176.046700 4213566.900000
176.082900 601601.100000
177.054400 8130955.700000
177.090800 3468099.900000
178.062300 7877830.000000
178.098700 624893.600000
179.070200 5768521.700000
180.041500 61324438.200000
181.085600 19539999.500000
189.054500 13923192.200000
191.070100 43277038.300000
193.086000 466195.800000
194.093800 525377.900000
195.065000 164928082.000000
198.052000 16950386.500000
203.070000 2173639.789000
204.078000 5431280.200000
237.112300 2057965.000000

