>compound EQ22974534
>parentmass 362.1511
>ionization [M+H]+
>formula C18H20FN3O4
>rt 258.000000
>profile orbitrap
#smiles_iso C[C@H]1COC2=C3N1C=C(C(=O)C3=CC(=C2N4CCN(CC4)C)F)C(=O)O
#smiles_can CC1COC2=C3N1C=C(C(=O)C3=CC(=C2N4CCN(CC4)C)F)C(=O)O
#inchikey GSDSWSVVBLHKDQ-JTQLQIEISA-N
#pubchem_id 149096
#mb_accession EQ323901,EQ323902,EQ323904,EQ323905,EQ323906

>ms2peaks
261.103300 1836171.800000
318.161000 36621557.700000
344.139700 380661.000000
362.150700 349408054.800000

>ms2peaks
58.065100 1664709.800000
70.065000 1064501.500000
72.080800 432342.900000
84.080700 1256208.600000
99.091700 279132.600000
221.071900 425673.600000
233.071800 977456.200000
233.084000 262514.800000
241.096800 390943.200000
247.087700 1379351.900000
259.087700 281555.300000
261.103100 58000161.000000
270.123500 902889.900000
273.102700 471414.800000
298.154900 1741810.100000
316.145800 8349177.200000
318.160900 229652747.500000
344.139900 699285.000000
362.150800 68809459.900000

>ms2peaks
56.049600 355163.200000
58.065200 12035445.300000
67.054300 292368.100000
69.069900 523971.400000
70.065100 8671522.300000
71.073000 128097.900000
72.080700 4342865.900000
82.065100 1173371.000000
83.060300 133093.500000
84.080800 1796106.200000
85.088600 823631.200000
97.076000 127731.300000
104.049400 121840.800000
122.040000 1258579.500000
132.044400 148573.000000
144.080700 125396.800000
146.059600 146745.100000
148.039300 192182.900000
148.055600 318016.400000
149.051000 300418.900000
150.034900 1745950.100000
151.042600 331245.400000
152.050500 149755.700000
156.068000 85056.200000
157.039500 275032.200000
157.076000 92671.500000
158.023700 1187307.500000
160.039600 158461.000000
160.055600 447740.800000
162.071200 88274.300000
163.042600 335650.900000
164.050400 631674.400000
165.045600 568960.300000
170.060300 99143.800000
171.055100 1740193.400000
173.070700 302133.000000
174.071100 256957.700000
175.049700 111749.400000
175.066600 278116.200000
176.034100 323057.400000
176.050400 337064.500000
176.074000 137751.700000
177.045900 123809.900000
177.058100 154695.100000
178.029700 4402016.700000
179.037500 5465123.700000
179.061200 406670.500000
180.045300 2123028.100000
184.063100 331155.000000
185.033800 89311.700000
185.070900 290660.500000
187.066700 88263.100000
188.050600 1555610.800000
189.045900 302000.900000
190.029400 110474.600000
190.053600 121531.600000
190.066200 369234.500000
191.037500 810593.600000
191.061500 1036165.100000
192.045300 3069145.400000
193.016500 465148.200000
193.040500 5289682.500000
194.024500 4487441.300000
194.048300 2090692.800000
194.060900 2624530.400000
195.056100 838818.800000
196.040200 97187.400000
197.071100 151965.100000
198.055100 90131.200000
198.078300 268766.100000
199.049800 4391215.800000
200.057600 1113527.500000
201.057600 325917.600000
201.065500 1385936.100000
202.065900 2023598.800000
203.037600 632108.700000
203.061000 1901216.400000
204.045500 2649735.200000
204.069400 511869.700000
204.081900 138022.100000
205.040700 14326993.100000
205.077000 8387620.800000
206.048500 689448.300000
206.061100 490770.500000
207.056700 715326.200000
211.049900 82309.700000
211.086300 89254.300000
213.065800 508312.900000
213.101900 131427.600000
214.053300 138598.300000
214.085400 102847.600000
215.061500 616788.600000
216.045400 276205.500000
216.069900 142280.900000
216.081600 157295.900000
217.040500 1252288.000000
217.076900 436859.800000
218.048600 1367589.300000
218.061100 1114525.500000
218.085500 111785.100000
219.056300 22231404.100000
219.068300 1600309.200000
220.064000 2911862.200000
220.076500 1032359.500000
221.071900 30691880.500000
223.085800 248539.300000
224.070500 136973.600000
225.064700 97960.300000
226.073400 350555.100000
226.097800 156021.800000
227.081100 146111.500000
228.068600 110028.700000
229.076900 119613.600000
231.020700 91866.600000
231.056200 1476749.200000
231.092500 340397.200000
232.064100 691383.000000
232.076800 629848.700000
233.071800 3830152.100000
233.084400 1218728.300000
233.108400 292035.700000
234.079700 945194.900000
234.092300 723109.400000
235.087400 413026.200000
240.076800 275310.100000
241.096700 2538905.400000
243.092800 647140.500000
244.076600 960915.200000
245.071800 3064868.300000
246.079500 587373.800000
247.087400 5687464.300000
253.097000 144391.600000
253.120400 706359.500000
254.092300 328267.600000
255.100100 1180761.700000
255.112600 217194.500000
256.108100 136541.600000
261.103100 81782999.500000
268.107800 578593.500000
268.143900 457065.700000
269.115400 295456.800000
270.123400 806610.400000
273.089500 157954.600000
273.103000 1750370.700000
275.118400 662418.400000
286.062200 103386.700000
286.081900 364672.400000
286.097500 145658.600000
286.117700 504523.400000
296.102400 119153.800000
296.139600 185120.200000
298.155100 274439.500000
301.085600 1141186.800000
301.121900 3288586.300000
305.093100 272366.800000
313.081200 105432.100000
314.113500 319067.600000
314.150200 138695.900000
316.108900 440283.900000
316.145400 646173.000000
318.160800 1456156.400000
344.140100 90787.600000
362.151100 1138738.600000

>ms2peaks
56.049500 470267.500000
58.065200 10917852.500000
67.041600 149070.100000
67.054200 134936.500000
69.069800 458082.100000
70.065100 6244276.300000
71.072900 76107.800000
72.080700 3703867.300000
82.065100 1173507.200000
83.060400 121743.400000
83.072900 75031.900000
84.080700 668054.100000
85.088500 110427.700000
97.076000 160582.600000
102.033600 278553.700000
104.049500 697072.700000
115.054200 273128.300000
116.049400 404512.400000
120.044200 146267.000000
122.040000 6577977.000000
123.035200 131057.700000
123.047700 355559.000000
128.049500 147438.500000
129.044800 386066.600000
130.028500 420112.200000
130.065200 451660.600000
132.044300 1025102.400000
133.044800 160476.900000
134.059900 286355.700000
136.055600 474320.700000
137.050600 266242.400000
138.034700 499723.200000
142.065300 80900.800000
143.060400 487763.600000
143.072900 99352.400000
144.044400 130016.500000
144.080700 279331.400000
145.039500 413185.000000
145.075900 156208.100000
146.060000 920859.200000
148.039100 721083.200000
148.055700 1238028.300000
149.050800 649504.100000
150.034900 7141081.000000
151.042700 2749638.500000
152.037900 81572.400000
152.050500 763087.400000
154.065200 95696.100000
155.060100 390890.800000
156.068200 564041.200000
157.039500 1018751.700000
157.076000 494508.500000
158.023500 2933929.200000
158.059900 392024.000000
159.055100 264895.400000
160.039200 736026.900000
160.055500 1964851.300000
161.050600 301117.800000
162.034800 442941.400000
162.058400 338010.100000
162.071200 388337.900000
163.029800 421637.400000
163.042600 436694.400000
163.066400 364338.700000
164.050500 1534428.000000
165.021800 402825.200000
165.045700 2971250.600000
166.030000 623984.800000
168.045600 146144.800000
168.080600 80482.800000
170.060000 373905.100000
171.055100 4457585.700000
172.062900 494383.900000
172.075600 117179.600000
173.070800 674852.400000
174.071000 310099.400000
175.030100 288352.800000
175.042700 105783.600000
175.050100 138871.300000
175.066300 526535.300000
176.034300 291555.200000
176.050500 982314.700000
176.074300 363560.500000
177.046200 494269.400000
177.058200 677060.300000
178.029700 7656460.500000
178.053500 619541.000000
179.037500 11936778.900000
179.061200 1686583.000000
180.045300 3595284.900000
184.062900 462820.300000
185.034500 437650.100000
185.047000 109288.200000
185.070800 563487.000000
186.090800 160491.000000
187.066800 296609.700000
188.050400 4388137.800000
189.045800 698846.500000
190.030000 118956.500000
190.053600 874810.300000
190.066100 593218.200000
191.037600 1169220.600000
191.061300 1100731.200000
191.074000 131884.300000
192.045300 4823961.100000
193.016900 524047.300000
193.040500 7959753.300000
194.024500 5117869.600000
194.048300 6361729.900000
194.060800 3343939.800000
195.056100 1676918.200000
196.040500 276335.300000
196.075800 105434.300000
197.070800 398288.300000
198.078500 378713.600000
199.049900 4106101.000000
200.057800 1253195.400000
201.057700 429772.600000
201.065500 1511327.300000
202.066100 928911.300000
203.024500 533370.600000
203.037400 1117638.200000
203.061100 3931191.400000
204.033200 564416.400000
204.045400 4085721.500000
204.069100 449944.400000
204.081900 288322.100000
205.040600 20033445.600000
205.077000 5822082.200000
206.048600 1525137.600000
206.060900 665301.100000
207.056200 2012714.400000
211.050000 271316.000000
213.065900 355371.600000
214.086800 79178.400000
215.061400 636226.000000
216.045600 292140.300000
216.069400 353593.200000
217.040700 1719625.800000
217.077000 452640.400000
218.048500 1592578.500000
218.061100 1113590.700000
218.084900 127497.400000
219.056300 16550500.700000
219.068300 973769.000000
220.064000 1726393.000000
220.076500 406964.100000
221.071900 21064176.100000
223.086400 103443.800000
225.066000 117879.900000
226.073700 274506.900000
227.081200 93907.800000
228.068300 100356.100000
229.076800 256896.700000
231.019100 142779.800000
231.056200 2803041.600000
231.092900 285032.500000
232.063800 661011.100000
232.076800 504622.400000
233.071800 1223792.800000
233.084500 665572.800000
233.108700 90110.800000
234.079800 909325.300000
234.090900 187193.500000
235.087100 139286.900000
240.076600 241680.800000
241.096900 835935.100000
243.093000 140219.700000
244.076800 295005.100000
245.071800 2485542.400000
246.079500 330077.000000
247.087500 2146266.900000
249.030100 109730.900000
253.096800 181412.600000
253.120500 821658.400000
254.092400 140013.100000
255.099700 131170.400000
259.087300 132320.300000
261.103100 12761393.300000
268.107700 159608.900000
273.103800 249725.900000
286.062200 160093.300000
286.083200 109188.400000
286.098400 550417.800000
286.119300 66309.500000
301.084000 236946.600000
301.121900 786736.300000

>ms2peaks
56.049600 70675.000000
58.065200 1347114.500000
70.065100 881536.100000
72.080700 489402.900000
82.065200 109514.400000
102.034000 121586.800000
104.049400 362935.000000
115.054100 82697.100000
116.049500 217682.000000
120.044600 102991.200000
122.040000 2155231.500000
123.035500 76336.400000
123.047800 225324.800000
128.049800 76392.900000
129.044900 227848.300000
130.028900 115531.900000
130.065200 96355.900000
132.044600 128121.000000
133.044900 78136.500000
134.059900 53405.200000
136.055700 210892.400000
137.050700 80240.500000
138.035000 306972.400000
142.065400 68370.200000
143.060600 209167.500000
144.044600 70188.300000
145.039500 80891.000000
146.059900 211698.500000
148.055700 325095.400000
149.051200 125718.100000
150.035000 1712711.000000
151.042800 914322.800000
152.038000 66767.400000
152.050700 94158.600000
155.060400 94655.500000
156.068200 84748.400000
157.039600 450339.900000
157.076100 61223.100000
158.023600 638873.400000
160.039000 66184.600000
160.055800 615306.100000
161.051100 104667.700000
162.034800 96486.900000
162.058500 103615.100000
163.030300 104317.600000
163.042800 109870.600000
163.066300 57639.000000
164.050700 201390.700000
165.045800 710698.900000
166.030100 109848.200000
168.045200 61262.000000
171.055100 525812.900000
172.063300 72562.400000
175.030100 57008.000000
176.050500 118755.100000
177.046100 87191.700000
178.029800 965295.300000
178.053700 97304.300000
179.037600 1568814.300000
179.061400 325324.600000
180.045100 512395.000000
184.063400 75426.700000
185.034600 122779.200000
187.066700 58005.900000
188.050400 637923.800000
189.045800 127646.800000
190.053800 203664.900000
191.038000 251816.700000
191.061600 82112.300000
192.045700 635962.900000
193.040600 997903.000000
194.024800 299901.500000
194.048500 1298620.000000
194.061100 234409.900000
195.056200 71948.900000
199.049900 125855.200000
200.057900 104831.800000
201.057800 75324.300000
203.025100 74417.500000
203.037500 239785.000000
203.061000 566559.600000
204.033100 83670.300000
204.045500 645432.800000
205.040800 2367835.700000
205.076800 237694.400000
206.048700 105825.300000
207.056200 99840.600000
217.040600 60120.800000
218.049000 121844.300000
219.056300 1068222.500000
221.071900 926747.700000
229.077300 58643.500000
231.056200 381032.300000
245.072900 82854.700000
261.103100 228076.900000

