>compound EQ23811960
>parentmass 234.18519999999998
>ionization [M+H]+
>formula C15H23NO
>rt 294.000000
>profile orbitrap
#smiles_iso CCC1(CCCCN(C1)C)C2=CC(=CC=C2)O
#smiles_can CCC1(CCCCN(C1)C)C2=CC(=CC=C2)O
#inchikey JLICHNCFTLFZJN-UHFFFAOYSA-N
#pubchem_id 41049
#mb_accession EQ329001,EQ329002,EQ329003,EQ329004,EQ329005,EQ329006

>ms2peaks
107.048800 24558302.000000
121.064500 4983720.000000
126.127400 3948698.800000
133.064700 4258999.500000
147.080300 3103583.200000
161.095800 4305240.000000
234.185100 2302747904.000000

>ms2peaks
67.054100 3212823.200000
83.085400 6799317.000000
84.080600 3686460.200000
86.096300 2640703.500000
95.085400 9676728.000000
98.096300 2369009.200000
107.049000 116427432.000000
109.101100 12732998.000000
121.064700 24773606.000000
126.127600 17067380.000000
133.064600 19161972.000000
135.080300 12682356.000000
140.143100 3425873.000000
147.080300 21648536.000000
161.096000 19477200.000000
203.143000 6640258.500000
234.185100 2317859328.000000

>ms2peaks
58.065100 6579096.000000
67.054200 19359450.000000
69.069800 6009859.000000
70.065000 7213580.000000
79.054200 2254167.200000
81.069800 4215654.000000
83.085400 26779976.000000
84.080700 17324086.000000
86.096400 11631960.000000
91.054100 2737985.800000
93.069900 1639593.100000
95.049000 2506317.000000
95.085400 31408718.000000
98.096400 6806302.500000
105.069900 4505906.000000
107.049100 506504768.000000
109.101100 36218504.000000
119.048900 2483146.000000
119.085400 2913485.000000
121.064700 80649424.000000
126.127600 36464532.000000
133.064700 113186000.000000
135.080300 32451032.000000
140.143200 6143183.000000
146.072600 2760436.500000
147.080300 104363408.000000
149.096000 2724666.800000
159.080400 1763980.000000
161.096000 106572424.000000
175.111800 7232686.000000
177.127400 4997710.500000
203.143000 9026709.000000
234.185100 845603840.000000

>ms2peaks
58.065100 11831943.000000
65.038600 777385.200000
67.054200 37915736.000000
69.069800 8208665.000000
70.065100 13169835.000000
72.080600 1429925.400000
77.038400 5621023.500000
79.054200 15694661.000000
81.069800 10843681.000000
83.085500 17768176.000000
84.080700 20625274.000000
86.096400 10805789.000000
91.054200 16953220.000000
93.069800 8759056.000000
95.049000 8982023.000000
95.085500 28987532.000000
98.096400 5739815.000000
103.054200 5002519.000000
105.044800 2508605.200000
105.069900 29556556.000000
107.049100 756855808.000000
109.101100 21030280.000000
115.054000 2148534.000000
117.069800 1536948.200000
119.049100 5683967.000000
119.085500 13159487.000000
121.064700 81297760.000000
126.127700 21498704.000000
128.061900 2258735.200000
129.069700 2142730.000000
131.049000 796505.900000
132.056900 6908850.000000
133.064700 154705008.000000
135.080300 19520068.000000
140.143300 2700642.000000
143.085400 2416846.200000
145.064500 3139333.200000
146.072600 13885998.000000
147.080400 101171160.000000
157.075700 966818.400000
159.080600 3701390.800000
160.088200 920679.500000
161.096000 92860272.000000
175.111500 5668396.500000
177.127200 1742027.600000
203.143200 2334312.200000
234.185200 102844784.000000

>ms2peaks
53.038600 1467927.200000
58.065200 9231696.000000
65.038500 2596574.200000
67.054200 39946548.000000
69.069900 6391423.000000
70.065100 21273822.000000
72.080700 1803357.900000
77.038400 11414880.000000
79.054200 57085172.000000
81.069900 10214277.000000
83.085500 7340347.500000
84.080800 15878973.000000
86.096400 6712999.000000
91.054200 42551988.000000
93.069800 15375035.000000
95.049100 33297184.000000
95.085500 16636146.000000
96.080800 1825435.800000
98.096500 3906721.000000
103.054200 14604840.000000
105.044800 14662106.000000
105.069900 73615696.000000
107.049100 808327488.000000
109.101100 5936575.500000
111.104100 967864.100000
115.054200 4651834.500000
117.069800 4979943.500000
119.049100 5721468.000000
119.085400 16174615.000000
121.064700 58983620.000000
126.127700 10571773.000000
128.061900 7564577.000000
129.069600 3138676.800000
131.049000 5781132.000000
131.085500 3173051.500000
132.057000 21462386.000000
133.064700 129670304.000000
133.101200 9021988.000000
135.080400 4497683.000000
143.085500 1911216.500000
144.056800 857110.800000
145.064900 10619134.000000
146.072600 24900462.000000
147.080400 55376076.000000
159.080400 4082972.500000
160.088100 958512.100000
161.096000 39671092.000000
175.111400 866983.800000
234.185100 6485482.500000

>ms2peaks
50.015200 867633.900000
53.038600 2409626.200000
55.017800 739733.500000
55.054300 1723692.400000
58.065100 6942557.500000
65.038500 4627654.500000
67.054200 31005064.000000
69.069800 2912399.200000
70.065000 16517095.000000
72.080700 734976.800000
77.038500 26368422.000000
79.054200 93742272.000000
81.033400 3236563.800000
81.069800 6931863.000000
82.065100 953453.200000
83.085500 1380615.400000
84.080700 9753266.000000
86.096400 1835342.600000
91.054100 54089436.000000
93.069800 14545645.000000
95.049100 74214024.000000
95.085400 6606355.500000
96.080700 1963479.900000
97.088600 649275.500000
98.096400 3748798.000000
103.054200 27417642.000000
104.061900 1700145.400000
105.044700 32062432.000000
105.069800 95609936.000000
107.049100 579171712.000000
109.101000 742299.600000
115.054200 8928531.000000
116.061900 1594693.400000
117.069700 7320813.500000
119.049100 4748942.000000
119.085400 10787441.000000
121.064700 25682356.000000
126.127700 3681717.800000
128.061900 8963775.000000
129.069700 2947478.500000
131.049100 12510872.000000
131.085500 3018574.200000
132.056900 26295292.000000
133.064700 64317076.000000
141.069700 1804835.500000
143.060200 592525.800000
143.085400 680530.400000
144.056800 897592.100000
145.064700 16769721.000000
146.072600 18445668.000000
147.080300 14268626.000000
155.060200 3317053.000000
159.080500 2507496.200000
161.095900 7697313.000000

