>compound EQ23766407
>parentmass 284.02399999999994
>ionization [M+H]+
>formula C13H11Cl2NO2
>rt 690.000000
>profile orbitrap
#smiles_iso CC12CC1(C(=O)N(C2=O)C3=CC(=CC(=C3)Cl)Cl)C
#smiles_can CC12CC1(C(=O)N(C2=O)C3=CC(=CC(=C3)Cl)Cl)C
#inchikey QXJKBPAVAHBARF-UHFFFAOYSA-N
#pubchem_id 36242
#mb_accession EQ310201,EQ310202,EQ310203,EQ310204,EQ310205,EQ310206

>ms2
67.054300 79750.000000
95.049000 144697.300000
113.059700 148853.600000
228.034300 103855.700000
256.029000 4180410.800000
284.023900 49561541.400000

>ms2
67.054200 781441.500000
69.069800 421456.500000
85.064800 50375.300000
95.049100 2062378.600000
113.059700 1633138.900000
123.044000 182768.800000
161.987100 242765.000000
171.971400 262652.300000
173.987300 40260.700000
178.041900 102391.100000
185.987200 385004.300000
187.966200 85407.700000
192.057500 95045.800000
193.065400 67210.000000
197.987100 234035.500000
199.966600 112792.700000
202.041600 41930.900000
203.049500 124660.500000
212.002900 400734.700000
213.981900 287849.500000
214.018500 312603.400000
220.052600 116867.600000
221.060300 258890.700000
227.997700 239836.200000
228.034100 1417021.700000
238.018500 541228.700000
239.026400 48650.200000
240.034100 56605.800000
241.005700 76803.500000
256.029100 21530096.300000
266.013200 82883.100000
284.023900 20909938.900000

>ms2
55.017800 10828.600000
57.069800 9101.900000
65.038600 312702.100000
67.054200 4607814.600000
69.069800 1148098.300000
71.049100 13544.300000
85.064800 401480.100000
94.065100 11055.400000
95.049100 5528244.000000
96.056900 201844.900000
97.064700 13063.100000
113.059700 1986669.500000
123.044000 125457.700000
126.995000 10288.200000
127.018400 59692.600000
144.959900 35535.300000
151.018400 123217.500000
152.997500 12551.900000
157.088700 57465.600000
158.096500 44347.600000
158.976700 11293.100000
159.971400 117707.900000
160.979400 68739.200000
161.987100 333519.600000
162.971100 42769.600000
164.026400 78623.100000
165.034000 139767.400000
167.073000 24767.100000
168.080800 81302.300000
171.971500 1404977.200000
172.966800 71309.000000
173.987200 201561.100000
176.039000 21664.800000
178.041700 690848.300000
179.013200 44314.600000
179.049600 194295.200000
180.020900 17570.400000
185.083500 45844.800000
185.987200 2172920.800000
187.966400 354153.600000
188.002800 23940.900000
188.026100 56256.300000
192.057400 425070.100000
193.065300 526417.400000
197.987100 562279.500000
198.995000 151761.300000
199.966500 227851.700000
200.002700 276557.700000
202.018400 63539.500000
202.041700 198382.500000
203.049600 528995.300000
206.036600 108529.000000
210.995100 10610.800000
212.002800 1328965.200000
213.010300 122336.501700
213.982100 407523.800000
214.018400 506272.800000
214.989800 18370.300000
220.052400 151072.700000
221.060200 461236.900000
224.003000 15699.000000
225.982400 13642.800000
227.997800 888293.700000
228.034000 2608754.900000
231.044700 38460.000000
238.018400 1788939.800000
239.026200 378743.500000
240.034100 85504.500000
241.005600 409451.200000
256.029000 8505627.300000
266.013400 70996.800000
284.023900 2056307.000000

>ms2
53.002300 44452.300000
57.033500 12013.000000
57.069900 10367.700000
65.038600 720194.300000
67.054200 6927532.800000
68.062100 15389.900000
69.033400 50996.100000
69.069900 932893.300000
71.049100 22089.000000
81.033400 21468.700000
83.049100 15300.100000
85.064800 523800.900000
94.064900 15548.800000
95.049100 4559949.200000
96.057000 290032.700000
113.059700 1143993.200000
123.044000 56811.500000
126.994400 42970.200000
127.018400 100101.800000
128.002300 42270.200000
143.072900 16590.200000
144.960400 46457.300000
145.005100 13083.200000
145.968000 23105.200000
151.018300 231042.200000
157.088500 101935.000000
158.096400 172935.500000
158.976300 17399.400000
159.971500 275633.900000
160.979300 148084.900000
161.987200 260389.700000
162.971100 157998.700000
164.026000 237712.600000
165.034000 281970.200000
167.072900 57951.700000
168.080700 165726.900000
171.971500 1831739.300000
172.966800 351744.800000
173.987200 271566.500000
176.038600 59982.700000
177.034000 50082.000000
178.041700 1073731.900000
179.013600 83521.900000
179.049400 223252.900000
184.979400 13864.800000
185.083500 22450.400000
185.987200 2567610.500000
187.966500 302199.800000
188.002800 75988.800000
188.025900 71785.600000
189.033700 13786.600000
192.057400 511935.200000
193.065300 430732.000000
195.971900 17791.200000
197.987100 708479.300000
198.995000 247344.600000
199.966400 145034.300000
200.002700 270887.900000
201.034100 11000.900000
202.018500 102007.200000
202.041600 323833.700000
203.049500 526034.700000
204.057500 21963.400000
206.036800 212370.400000
212.002800 1239295.200000
213.010600 122587.600000
213.982100 304646.100000
214.018500 259138.700000
214.989900 19809.200000
220.052200 154698.000000
221.060200 302186.400000
222.995200 37625.400000
224.002800 46032.100000
225.982200 22184.700000
227.997800 894067.000000
228.034100 1287598.400000
231.044500 17562.300000
238.018500 2256576.000000
239.026200 278138.500000
239.998000 74286.800000
240.033300 14309.000000
241.005500 505017.600000
256.029100 2139406.000000
266.013000 22039.100000
284.023900 365476.400000

>ms2
53.002300 69991.600000
55.017800 8479.400000
57.033500 22314.700000
57.070000 16954.400000
62.963100 10403.900000
65.038600 1229713.600000
67.054200 7729777.300000
68.062000 41866.800000
69.033500 51573.500000
69.069900 390213.100000
71.049100 42587.700000
79.054300 18535.100000
81.033500 48153.800000
84.983900 77202.200000
85.064800 366602.900000
86.963200 19098.700000
94.065200 13411.700000
95.049100 1786175.500000
96.057000 239087.700000
98.036300 10665.500000
98.999500 13075.500000
108.983800 85207.400000
110.060000 49237.400000
113.059700 327644.400000
120.960800 22129.400000
123.044000 11685.700000
123.994700 16940.000000
126.994500 210619.400000
127.018300 193964.300000
128.002400 165817.800000
130.065100 39767.700000
132.960700 76046.200000
138.010300 11178.300000
141.057200 11974.000000
141.069600 14992.500000
143.072900 104936.900000
144.080800 21548.100000
144.960500 93959.600000
145.005200 40139.900000
145.968500 78481.600000
151.018400 504414.300000
152.026200 18427.700000
152.997600 81588.000000
153.034000 14507.600000
154.065200 17506.000000
157.088800 86906.700000
158.096500 238352.700000
158.976200 24048.100000
159.971600 440963.000000
160.979500 155322.500000
161.987000 91746.000000
162.023000 15329.500000
162.971200 565933.300000
164.026200 459531.500000
165.034000 357555.900000
167.072900 143614.300000
168.080800 226059.700000
171.068000 14497.700000
171.971500 1312047.100000
172.966800 1176960.400000
173.987200 287054.000000
175.018300 53596.300000
176.038700 59602.400000
177.034300 93147.400000
178.041800 1334822.900000
179.013200 52676.800000
179.049600 128512.200000
184.979600 53462.500000
185.987200 1804771.000000
187.966400 143659.100000
188.002700 65990.700000
188.026300 126624.800000
189.033700 20513.400000
192.057500 489190.100000
193.065400 234966.100000
195.971400 78818.300000
197.987200 883437.500000
198.995000 265896.000000
199.966600 83919.600000
200.002700 193261.000000
201.034000 14086.800000
202.041800 400776.300000
203.049500 310873.100000
204.057700 18675.200000
206.036900 188424.100000
210.994900 15972.200000
212.002800 1133110.400000
213.010700 77759.100000
213.982200 145858.900000
214.018600 47292.200000
220.052400 87942.800000
221.060100 72076.100000
222.995100 21837.300000
224.002800 108319.100000
225.982400 41037.400000
227.997700 315244.400000
228.034100 232694.300000
236.002600 17021.900000
238.018500 2488662.700000
239.026600 61660.200000
239.997700 146209.000000
241.005600 167238.700000
256.029300 134225.800000
266.012900 10026.700000
284.024800 12150.000000

>ms2
53.002300 96386.500000
53.997500 9879.900000
55.018000 12289.800000
57.033500 13848.600000
57.070000 16333.900000
62.963100 9670.900000
65.038600 1503329.700000
67.054200 6395182.500000
68.062000 49410.300000
69.033500 38842.200000
69.069800 144596.400000
71.049200 42242.300000
79.054200 15408.700000
81.033500 76146.500000
83.048900 8529.800000
84.983900 103428.900000
85.064800 225154.800000
86.963200 146164.700000
94.065200 17230.100000
95.049100 701043.400000
96.057000 122370.600000
98.036200 16375.100000
98.999700 27455.300000
108.983900 357016.700000
110.060100 153941.100000
113.059600 66715.700000
120.960800 23085.100000
123.994800 40392.700000
126.994500 295328.400000
127.018300 203482.600000
128.002400 325366.400000
130.065300 50962.700000
132.960700 275884.700000
138.010500 44285.100000
141.057400 21073.000000
141.070000 73952.700000
143.073000 200098.200000
144.080800 45640.100000
144.960700 231838.800000
145.005100 80555.000000
145.968800 86396.800000
151.018400 382646.800000
152.026200 42616.900000
152.997600 142038.900000
153.033800 20838.100000
154.065300 50588.600000
157.088800 93689.400000
158.096500 171744.600000
158.976500 42729.900000
159.971600 305181.100000
160.979400 132360.500000
161.987300 21985.900000
162.023200 16267.100000
162.971200 936830.000000
164.026100 615282.800000
165.034000 246250.700000
167.073000 224993.100000
168.080800 275666.400000
171.068200 12865.600000
171.971600 642901.200000
172.966800 1835615.100000
173.987200 281770.300000
175.018400 42959.500000
176.039100 22760.700000
177.033900 139876.000000
178.041800 1176293.500000
179.013400 17748.800000
179.049400 17019.500000
180.021000 17601.500000
184.979800 67760.000000
185.987300 789790.700000
187.966400 19609.600000
188.002900 20311.500000
188.026200 159791.100000
189.034200 39601.500000
192.057500 328597.600000
193.065700 45312.900000
195.971400 49151.400000
197.987200 850892.000000
198.994900 114881.600000
199.966800 21461.000000
200.003100 64967.900000
202.041700 320317.400000
203.049600 188212.100000
204.058100 18023.100000
206.037000 110362.500000
210.995200 42144.900000
212.002900 890862.400000
213.982100 62096.000000
220.052700 43444.500000
222.995200 23415.700000
224.002700 101281.200000
225.982500 13745.800000
227.997900 87680.300000
236.002700 11101.700000
238.018500 1842810.900000
239.997700 130219.100000
241.005800 20647.800000

