>compound EQ24092851
>parentmass 373.0716
>ionization [M+H]+
>formula C16H18Cl2N2O4
>rt 810.000000
>profile orbitrap
#smiles_iso CCOC(=O)C1=NN(C(C1)(C)C(=O)OCC)C2=C(C=C(C=C2)Cl)Cl
#smiles_can CCOC(=O)C1=NN(C(C1)(C)C(=O)OCC)C2=C(C=C(C=C2)Cl)Cl
#inchikey OPGCOAPTHCZZIW-UHFFFAOYSA-N
#pubchem_id 10937610
#mb_accession EQ316901,EQ316902,EQ316903,EQ316904,EQ316905,EQ316906

>ms2
144.960700 934102.100000
185.986000 1579684.800000
252.993400 1394196.500000
271.003800 597762.400000
280.988400 605627.300000
298.998900 1678205.700000
327.030100 350225492.200000
359.056000 1148951.300000

>ms2
132.960100 1027195.700000
144.960600 955525.800000
159.971700 22834407.300000
160.979500 1892146.900000
172.966900 5968799.900000
185.987000 5870558.800000
224.998400 698304.900000
226.006100 1281452.500000
227.013900 2362980.600000
252.993300 6269311.800000
254.001500 323001.200000
271.003900 8110732.900000
280.988600 787687.800000
298.998900 34466600.100000
327.030100 318879216.300000
359.056100 1433041.700000

>ms2
84.983900 927226.700000
94.028800 667659.100000
98.999700 171434.700000
108.983900 518174.700000
112.039400 169705.400000
120.960700 525734.900000
123.994800 595764.600000
125.002800 327679.200000
126.994600 1046434.200000
128.002500 1115407.600000
132.960700 8542185.100000
142.005600 155469.900000
144.960200 1080647.200000
145.005500 342074.200000
151.018400 325575.600000
155.000700 132722.000000
159.971700 107770390.100000
160.955300 641194.700000
160.979400 4165502.600000
162.023100 373218.100000
162.971300 911075.500000
163.018300 149775.100000
164.026300 639968.900000
165.034000 1314443.600000
171.971600 119588.900000
172.967000 45756622.200000
173.964200 178545.500000
173.987300 1952104.300000
177.982200 121941.200000
183.972300 113260.100000
184.967000 1142507.300000
185.987400 38722360.200000
186.982600 147992.100000
189.021400 300305.600000
190.029300 1352800.400000
191.037400 449730.600000
192.045300 1336530.100000
196.992300 146811.500000
197.987200 364516.300000
200.998200 406336.300000
209.987400 315564.600000
212.962100 130665.400000
218.024500 522470.600000
219.032700 335798.000000
224.998400 2444688.600000
226.006300 3108930.400000
227.014000 8330130.300000
230.973200 130593.700000
240.022000 275706.300000
243.009000 2203942.500000
252.993300 13250544.400000
254.001600 541997.200000
271.003900 30527466.000000
280.988700 329743.200000
298.998800 62801116.700000
327.030100 49242601.700000
359.056700 159996.500000

>ms2
62.963400 135684.400000
66.034000 220051.400000
69.033600 304966.800000
72.983900 351965.000000
82.945000 111069.700000
84.984000 2519841.200000
86.963300 915563.200000
94.028900 519040.200000
98.036200 355454.600000
98.999700 2136933.000000
108.984000 2434417.700000
112.039500 111176.400000
112.979100 440227.700000
120.960800 1076012.000000
123.995000 2805195.200000
125.002700 1940083.400000
126.994600 2240443.600000
128.002500 3217751.300000
132.960800 50615936.300000
136.007500 390498.800000
142.005600 1110966.600000
144.960600 3566514.100000
151.018400 1092625.000000
155.000800 446209.500000
155.060500 917105.300000
156.068300 379464.200000
158.976500 459926.300000
159.971700 108219495.000000
160.955700 555744.300000
160.979400 5954362.500000
162.010600 179777.500000
162.023100 409115.300000
162.971300 2895045.100000
163.018300 1169861.100000
164.026300 1996565.700000
165.034100 3002024.200000
171.971600 580328.500000
172.966900 68029718.000000
173.964000 361003.700000
173.987300 2722487.100000
177.982200 867473.700000
179.037300 354189.800000
183.971800 1296219.100000
184.967100 2022947.600000
184.980000 208009.000000
185.987400 63917431.400000
186.982500 692111.800000
189.021600 4211721.700000
190.029400 9520823.500000
191.037200 741399.300000
192.045000 1564250.200000
196.992200 176036.300000
197.987500 1041582.700000
198.982700 152835.700000
199.990800 153398.000000
200.998200 902117.600000
209.974900 122401.200000
209.988000 114691.100000
218.024500 1458481.600000
219.032600 325325.900000
223.990700 155971.300000
224.998300 2584357.800000
225.982300 320459.600000
226.006300 922183.300000
227.014000 3195072.800000
243.009300 888295.800000
252.993200 7766063.000000
271.003800 22305555.500000
298.998800 8661217.300000
327.030200 1250555.000000

>ms2
62.963500 326450.100000
63.023000 147425.500000
66.034000 164066.500000
69.033600 543426.500000
72.983900 1150948.400000
74.015100 1180150.200000
82.944900 652444.300000
84.984000 2970833.400000
86.963300 4629230.200000
90.034000 103664.900000
94.028900 158074.800000
96.984000 110935.300000
98.036500 121985.600000
98.999800 5457689.900000
106.945100 342004.600000
108.984100 11356920.300000
112.979000 486064.900000
113.986900 101154.100000
120.960800 1213316.900000
122.999700 177781.500000
123.995000 4365681.700000
125.002800 5543313.200000
126.010700 155546.600000
126.994700 2226026.200000
127.041800 320902.900000
128.002500 2914190.100000
128.049600 182058.000000
130.065500 539994.700000
132.960800 100204208.200000
136.007600 598059.700000
138.010400 168414.500000
139.005700 121996.000000
142.005700 949532.300000
144.960800 7840176.100000
145.005300 630619.300000
147.995200 495509.400000
149.002800 145493.600000
151.018500 2409724.300000
152.013700 505131.700000
155.000700 172860.700000
155.060500 2733518.100000
156.068300 433835.700000
156.960700 577194.700000
158.976400 1078104.000000
159.971700 49056221.100000
160.979500 5783864.500000
162.010600 535437.400000
162.023200 348048.700000
162.971300 4900146.900000
163.018500 4089223.300000
164.026300 3900052.700000
165.021900 323784.100000
165.034100 2638214.300000
166.029500 396478.400000
171.055200 120619.700000
171.971700 914586.400000
172.967000 62338302.200000
173.987300 1661579.800000
177.982300 1019738.200000
179.037200 367635.500000
180.021800 105653.600000
183.971800 2293031.500000
184.966900 870084.100000
184.979800 429406.200000
185.987500 55448923.100000
186.983000 415040.700000
189.021600 11627795.800000
190.029500 10045573.700000
191.037100 609938.900000
192.045100 989399.400000
195.008300 168477.100000
197.987300 1191819.300000
199.990400 126011.400000
200.998100 387217.500000
209.975000 488649.400000
210.982300 111607.900000
217.016900 278311.500000
218.024300 1079451.800000
223.990700 297534.900000
224.998400 1299620.400000
225.982300 118709.200000
227.014100 411583.800000
252.993200 1438276.400000
271.004000 4763710.100000
298.998900 294645.400000

>ms2
62.963400 147616.800000
63.023000 523408.900000
66.034000 340770.200000
69.033600 394554.400000
72.984000 3760817.400000
74.015200 4407144.900000
75.023000 423202.900000
82.945100 3869121.400000
84.984100 2470010.100000
86.963300 9897838.300000
90.033900 494690.800000
94.028900 122474.700000
96.984000 811071.400000
98.999700 5417980.300000
106.945100 1182847.500000
108.984100 30273874.600000
112.979000 379827.100000
113.986800 137345.700000
120.960700 1168354.200000
122.999800 296631.200000
123.995000 4219499.300000
125.002800 9006687.200000
126.010700 367719.400000
126.994700 2175641.700000
127.041800 881657.000000
128.002500 1952607.600000
128.049600 1280998.100000
129.045000 151347.200000
130.065300 570723.100000
132.960800 115184382.200000
136.007600 614367.400000
138.010600 256453.400000
139.006000 395062.700000
139.018300 124381.500000
142.005700 641879.800000
144.960800 9941330.400000
147.995000 894169.800000
149.003100 480257.100000
151.018500 3011667.200000
152.013600 339011.000000
155.000900 314708.600000
155.060500 3921019.500000
156.068400 384885.600000
156.960800 1302417.600000
158.976400 1429741.600000
159.971700 15369585.800000
160.979500 3869648.900000
162.010900 588606.500000
162.023100 166398.400000
162.971300 4772365.400000
163.018400 4071812.600000
164.026300 5146471.100000
165.021900 116689.100000
165.034000 894199.300000
166.029400 312416.800000
171.055300 176833.800000
171.971900 555045.200000
172.967000 47657044.200000
173.964100 125763.400000
173.987800 740132.500000
175.005700 146261.900000
177.982100 632443.200000
180.021300 118212.800000
183.971800 1706703.900000
184.966600 129089.500000
184.979600 347584.700000
185.987500 29649424.800000
189.021600 13745217.300000
190.029500 3983374.000000
191.037300 418128.800000
192.045300 175519.900000
195.008400 138205.600000
197.987500 683923.500000
209.975300 363367.800000
217.016700 265758.000000
218.024400 402022.600000
223.990600 152918.600000
224.998400 381194.700000
271.003800 435820.500000

