>compound EQ24160731
>parentmass 400.1359
>ionization [M+H]+
>formula C17H25N3O4S2
>rt 768.000000
>profile orbitrap
#smiles_iso CCOC(=O)CCN(CC1=CC=CC=C1)SN(C)C(=O)O/N=C(/C)\SC
#smiles_can CCOC(=O)CCN(CC1=CC=CC=C1)SN(C)C(=O)ON=C(C)SC
#inchikey GMAUQNJOSOMMHI-JXAWBTAJSA-N
#pubchem_id 9576091
#mb_accession EQ303301,EQ303302,EQ303303,EQ303304,EQ303305,EQ303306

>ms2
65.005600 61969.300000
73.028200 364794.500000
88.021500 176972.800000
91.054200 6467292.900000
94.962000 50543.500000
101.059700 1045120.300000
106.032100 81863.300000
106.065100 125426.800000
107.993700 133551.200000
115.054200 55966.800000
116.070600 339216.900000
117.069900 101310.800000
123.026200 1048147.400000
135.988600 339386.200000
136.020900 44901.200000
138.037200 6721117.600000
145.101200 71596.300000
150.037300 3943706.100000
164.052700 132950.200000
189.091200 271912.800000
192.047700 1641395.100000
206.117600 1553865.100000
208.133200 2034774.400000
209.063000 112355.000000
210.058400 132778.100000
238.089600 33819284.300000

>ms2
55.017900 30193.200000
59.990200 105467.100000
62.006000 24901.200000
65.005700 16273.700000
65.038600 103930.500000
73.028400 2399878.900000
74.060100 16267.900000
78.967100 65698.700000
88.021600 243773.100000
91.054200 15743602.100000
94.962000 177016.900000
101.059700 3393657.200000
102.000900 47781.000000
104.049500 63488.400000
106.032200 137246.500000
106.065200 150695.700000
107.993700 178445.400000
109.010500 21999.700000
111.026200 63556.000000
115.054200 72436.300000
116.070600 335287.100000
117.069800 150793.800000
118.064800 61767.700000
120.080900 181094.400000
121.010400 30878.700000
122.018100 22893.300000
123.026200 4681258.500000
130.065200 22025.900000
135.026100 60049.500000
135.080500 16904.700000
135.988600 89992.200000
136.021800 58163.500000
137.029000 18760.200000
137.042100 78337.400000
138.037200 10916487.000000
145.101400 57298.200000
147.026400 23920.700000
149.042100 33641.100000
150.037300 9612249.500000
159.067900 119204.600000
160.075800 55165.900000
163.020900 19895.300000
164.052900 706632.400000
189.091500 29130.200000
192.047800 1928262.400000
206.117700 420347.000000
208.133300 369418.700000
209.063200 92521.300000
210.058700 32306.100000
238.089700 2551700.900000

>ms2
55.017900 112338.800000
59.990300 557730.000000
62.005900 71970.400000
65.038600 223071.300000
73.028400 4873833.300000
74.005800 24062.400000
74.060000 56363.300000
78.967000 112536.800000
88.021500 261533.500000
88.039200 53781.400000
91.054200 18773633.600000
94.962000 133340.400000
95.049100 69521.400000
101.059700 1445173.400000
104.049500 122656.600000
105.070000 23498.600000
106.032100 110192.900000
106.065200 161335.600000
107.993600 109262.500000
109.010600 62554.200000
111.026300 367463.900000
115.054200 24473.400000
116.070700 82412.500000
117.057100 27026.400000
117.069700 74287.100000
118.065200 167212.400000
120.080700 65480.500000
121.010500 76521.200000
122.018400 31802.000000
123.026300 4249385.500000
130.065200 30124.300000
131.073000 21481.400000
135.026400 21768.100000
136.021700 75323.300000
137.029600 32701.400000
137.042100 165424.500000
138.037200 6524553.800000
147.026500 22869.200000
150.037300 7140470.100000
159.067700 91533.600000
160.075800 31070.700000
163.021400 22856.400000
164.052900 281378.200000
192.047800 485595.800000
206.117600 77598.400000
238.089600 24680.500000

>ms2
59.990300 993719.800000
62.005900 110185.700000
65.038600 333334.800000
73.028400 4879232.100000
77.038300 20823.400000
78.967000 110320.700000
79.054300 27964.100000
88.021500 205174.300000
88.039500 51332.300000
90.046300 22062.000000
91.054200 18208708.800000
94.961900 101968.200000
95.049000 106575.400000
101.059700 544297.700000
104.049500 268446.000000
105.070000 24285.100000
106.032100 37724.500000
106.065200 107235.800000
107.993500 51844.900000
109.010700 104222.500000
111.026300 429314.000000
116.070600 26986.100000
117.057200 31225.900000
117.070200 20425.200000
118.065000 149161.400000
121.010700 132897.000000
122.018300 145998.600000
123.026300 4151345.700000
130.065100 55072.000000
131.072900 31587.500000
135.026400 68234.200000
136.021700 124988.300000
137.029300 19236.000000
137.042100 114198.100000
138.037200 3841190.800000
150.037300 4831845.100000
159.067800 92991.600000
164.052900 80037.700000
192.048000 134199.700000

>ms2
59.990300 1580321.400000
62.005900 141869.900000
63.022900 55344.800000
65.038600 882107.700000
73.028400 4576763.500000
74.005900 50516.200000
77.038400 23360.700000
78.046600 25032.200000
78.967000 105856.000000
79.054300 132531.500000
88.021600 132912.400000
88.039500 25385.200000
91.054200 20408562.800000
94.962000 76059.900000
95.049100 267991.900000
101.059700 126210.200000
104.049500 379241.000000
105.044800 58550.100000
105.070000 29766.800000
106.032300 29982.000000
106.065100 108624.600000
109.010700 241305.400000
111.026300 412661.000000
117.057300 85464.100000
118.064900 124895.500000
121.010700 311680.900000
122.018500 530692.900000
123.026300 3784715.000000
130.065100 95512.800000
131.073200 22749.700000
136.021500 143244.100000
137.041900 104748.800000
138.037200 1689235.100000
150.037300 2091152.800000
159.067900 23375.600000

>ms2
59.990300 1574526.500000
62.005900 153134.300000
63.022900 89428.600000
65.038600 1822525.400000
73.028400 3341694.700000
74.005900 20951.000000
78.046400 79035.700000
78.967000 68887.300000
79.054300 208361.900000
88.021600 98351.600000
89.038700 23753.600000
91.054200 20216618.400000
95.049100 463730.400000
104.049500 460913.200000
105.044700 149320.100000
105.070000 30700.400000
106.065100 131682.900000
109.010700 307638.600000
111.026300 276003.600000
117.057300 134555.600000
118.065100 64457.700000
121.010600 539509.900000
122.018500 809987.600000
123.026200 2405443.700000
130.065200 83197.600000
134.006100 22470.900000
136.021700 223960.400000
138.037300 515677.800000
150.037300 653921.700000

