>compound EQ25089497
>parentmass 326.2326
>ionization [M+H]+
>formula C18H31NO4
>rt 366.000000
>profile orbitrap
#smiles_iso CC(C)NCC(COC1=CC=C(C=C1)COCCOC(C)C)O
#smiles_can CC(C)NCC(COC1=CC=C(C=C1)COCCOC(C)C)O
#inchikey VHYCDWMUTMEGQY-UHFFFAOYSA-N
#pubchem_id 2405
#mb_accession EQ301301,EQ301302,EQ301303,EQ301304,EQ301305,EQ301306

>ms2peaks
72.080600 3696682.700000
74.059800 5955486.200000
98.096400 1595309.900000
116.106900 188579610.600000
204.138200 2513637.700000
222.148900 23865512.900000
308.221000 1303578.600000
326.232600 1299801234.900000

>ms2peaks
56.049400 3861810.800000
58.065200 2768726.300000
72.080700 53224344.000000
74.060000 139591560.200000
75.044000 4403535.600000
91.054200 11636008.500000
98.096400 49425445.100000
107.049100 9632577.100000
116.106900 768329136.300000
119.049100 2516037.700000
121.064700 2312740.400000
133.064700 7990506.300000
145.064800 11170139.700000
147.080400 25968412.400000
162.091300 15626693.100000
163.075300 5694044.000000
204.138300 26951209.200000
222.148900 17869859.100000
308.221500 2992910.900000
326.232600 334128365.900000

>ms2peaks
56.049600 19117912.700000
58.065200 8603427.000000
60.080800 684747.000000
69.069900 1098266.900000
70.065100 303621.000000
72.080800 85390643.000000
73.028400 1228707.700000
74.060000 230197781.900000
75.044000 5392237.500000
79.054300 1571869.400000
81.033700 283722.300000
84.080900 2056414.300000
86.096400 342482.900000
89.038600 2443389.200000
91.054200 11998475.400000
95.049200 283779.000000
98.096500 59659802.600000
100.112300 2464735.100000
105.070000 4938573.200000
107.049200 34185823.000000
116.107000 232322930.800000
117.069900 1575922.500000
119.049200 13678941.800000
119.085500 2181182.600000
121.064800 8481472.700000
129.070000 1583658.000000
133.064800 30309313.500000
134.060200 1329103.500000
137.059800 6558555.400000
144.080900 557533.000000
145.064900 13947087.900000
147.080500 25117668.000000
149.096300 1030892.500000
162.091300 17477159.000000
163.075400 5840170.000000
204.138500 5893858.700000
222.149800 269656.100000
308.222500 284557.500000
326.232900 6322726.500000

>ms2peaks
56.049600 33129336.300000
58.065200 13033629.700000
60.080800 1432342.800000
63.023000 447920.000000
65.038500 486000.700000
69.069900 1346790.600000
70.065100 249070.200000
72.080800 75859851.600000
73.028400 1723028.100000
74.060000 216861376.000000
75.044000 4768893.700000
79.054200 5048764.800000
84.080700 4163009.300000
89.038600 12598375.500000
91.054200 22882457.200000
93.070000 601851.900000
95.049100 1214248.300000
98.096400 40544242.800000
100.112100 3818311.700000
103.054200 1164136.200000
105.069900 10401773.800000
107.049200 49535329.200000
115.054100 339002.800000
116.107000 115539331.700000
117.069800 2508363.400000
119.049200 18123254.700000
119.085400 3607508.000000
121.064700 11862352.000000
129.070000 1530477.100000
133.064800 36921870.300000
134.060000 1419822.500000
137.059800 8142797.000000
144.081000 573029.400000
145.064800 14220031.200000
147.080500 16143842.700000
149.096100 680659.300000
162.091400 8385253.400000
163.075400 3417127.700000
204.138600 495605.900000

>ms2peaks
53.002300 413592.500000
56.049500 43938822.500000
58.065200 9496000.100000
63.023000 1676959.600000
65.038600 617648.000000
69.069900 510060.900000
72.080700 35783850.000000
73.028400 1431085.900000
74.060000 134202380.300000
75.044000 2358192.700000
79.054200 9744227.400000
81.033800 334929.200000
81.070000 404329.700000
84.080800 4235022.600000
89.038600 30984381.300000
91.054200 32897199.700000
93.069900 1203556.100000
95.049100 4033639.900000
98.096400 12474457.900000
100.112100 3968419.800000
103.054300 2008911.000000
105.044700 1417599.800000
105.069900 16687392.000000
107.049200 59585814.000000
115.054200 2678772.500000
116.106900 32666541.300000
117.069800 3455250.800000
119.049100 12607955.700000
119.085500 1964869.000000
121.064700 10431602.500000
129.070100 346978.500000
133.064800 22860287.400000
134.060100 562208.000000
137.059800 5031340.300000
144.080600 342713.400000
145.064900 8779062.700000
147.080500 5473129.700000
149.096200 347947.200000
162.091300 1201738.900000
163.075000 638518.300000

>ms2peaks
53.002300 1034456.500000
56.049600 42983065.600000
58.065200 8263526.800000
63.022900 4270281.700000
65.038600 3097430.700000
72.080700 14091526.100000
73.028400 399150.900000
74.060000 67444755.900000
79.054200 13011340.200000
81.069700 490409.100000
84.080800 2779328.300000
89.038600 41601406.000000
91.054200 32673796.600000
93.069900 349351.000000
95.049100 7314062.100000
98.096400 2682265.100000
100.112100 2175101.300000
103.054200 2405914.000000
105.044700 1325718.700000
105.069900 12464120.000000
107.049200 58244657.900000
115.054200 3036110.700000
116.107000 8179938.700000
117.070000 2056453.300000
119.049100 5354741.600000
119.085500 362793.600000
121.064800 6755116.000000
133.064900 6998066.700000
134.060200 1115938.300000
137.059800 2393337.000000
145.064800 3590167.400000
147.080500 1182029.400000

