>compound EQ25621472
>parentmass 380.2544
>ionization [M+H]+
>formula C20H33N3O4
>rt 336.000000
>profile orbitrap
#smiles_iso CCN(CC)C(=O)NC1=CC(=C(C=C1)OCC(CNC(C)(C)C)O)C(=O)C
#smiles_can CCN(CC)C(=O)NC1=CC(=C(C=C1)OCC(CNC(C)(C)C)O)C(=O)C
#inchikey JOATXPAWOHTVSZ-UHFFFAOYSA-N
#pubchem_id 2663
#mb_accession EQ301501,EQ301502,EQ301503,EQ301504,EQ301505,EQ301506

>ms2peaks
74.059900 2100683.300000
74.096400 1006975.200000
130.122600 1583452.500000
233.092000 1018481.700000
251.102900 5288178.800000
251.139100 2724515.300000
306.181300 13733469.000000
307.165400 45245544.900000
324.191900 26804948.800000
362.243700 5833656.800000
380.254600 876921784.400000

>ms2peaks
56.049500 13491366.500000
57.070000 1164237.400000
72.044200 502127.600000
72.080700 303093.000000
74.060100 61207033.600000
74.096400 26689765.800000
86.096400 455431.800000
100.075700 9340077.400000
112.112100 1227795.200000
130.122700 11520921.300000
178.049800 258232.500000
186.055200 240629.800000
189.065700 462040.000000
204.065700 11190443.900000
216.065700 10937877.100000
233.092200 41917018.400000
234.076200 304685.500000
247.144200 1864002.700000
251.102900 127772578.100000
251.139000 92543648.400000
262.155200 2903027.228000
263.139100 7380463.900000
264.171000 1262795.500000
277.154800 16091764.900000
282.181300 3665159.700000
289.154800 20346625.500000
306.181400 109960847.700000
307.165300 126616802.400000
324.191900 102124644.400000
362.243200 3198180.600000
380.254700 84375852.800000

>ms2peaks
56.049600 37708904.500000
57.069900 4790668.100000
72.044400 8660694.900000
72.080800 1769842.000000
74.060100 176553158.600000
74.096400 101630844.900000
86.096500 308028.500000
100.075700 46991852.200000
112.112300 375590.200000
130.122700 3331214.800000
132.044400 314256.800000
146.059900 319015.500000
148.039300 2940615.100000
150.055300 927928.000000
160.039300 355758.800000
160.075300 560499.800000
172.039500 330781.800000
174.054900 2036830.400000
176.070600 6498606.500000
178.049800 3658431.500000
186.055200 5701427.800000
188.070600 658865.200000
189.066300 1823738.600000
190.050000 813809.500000
198.054800 529977.200000
204.065700 39723389.200000
209.128600 1342414.100000
216.065700 42421232.800000
233.092300 48062659.800000
234.076500 982994.100000
247.144600 1558665.800000
251.102800 60168763.000000
251.139100 50656888.200000
263.139300 2501371.900000
264.170700 295837.200000
277.154800 6343366.000000
282.181500 1461410.800000
289.154600 5167299.800000
306.181400 5671002.900000
307.165400 7127405.900000
324.191700 2249315.200000
380.255000 315117.100000

>ms2peaks
56.049600 41468616.100000
57.070000 5485770.000000
72.044400 18291351.500000
72.080700 1173287.900000
74.060100 170288906.100000
74.096400 102885796.100000
100.075700 50191254.800000
130.122700 1347352.500000
132.044500 902266.600000
134.059800 254284.300000
142.065200 305489.200000
146.060300 545602.900000
148.039300 12312281.700000
150.055200 2312181.800000
158.060000 342287.100000
160.039400 507847.200000
160.075800 380958.400000
162.018600 270986.900000
162.055000 359842.900000
170.059900 1000525.000000
172.039400 887694.300000
174.055100 2667675.500000
176.070700 12392866.000000
178.049900 4421734.900000
186.055100 10387925.400000
188.070600 1398757.400000
189.066100 348808.100000
190.049700 1210996.200000
198.054700 402852.000000
204.065600 26208393.900000
209.128400 861528.500000
216.065600 28053570.800000
233.092200 13769013.700000
247.144200 300860.900000
251.102800 12229788.200000
251.139100 10698880.300000
263.139300 285236.000000
277.155000 1245588.400000
282.181100 250769.600000
306.181500 277511.100000

>ms2peaks
56.049600 42573970.300000
57.069900 6102912.200000
72.044400 26163452.900000
74.060000 92756709.600000
74.096400 64212974.900000
100.075700 23637332.200000
115.054000 816283.900000
120.080900 406652.600000
130.065200 1291822.000000
132.044400 2646563.000000
134.060000 496718.600000
136.039500 509823.600000
142.065200 302478.700000
146.060100 2084395.000000
148.039400 23515712.700000
150.055000 3455431.300000
158.060300 1434575.800000
160.039400 952391.600000
160.075800 451899.200000
162.018400 413249.100000
162.055000 1246595.600000
170.060400 393921.500000
172.039400 953029.100000
174.054800 1691395.900000
176.070600 5998388.900000
178.050000 1512752.200000
186.055100 7850786.500000
188.070300 317819.500000
190.049600 1156782.800000
198.055600 377751.800000
204.065700 4090956.700000
216.065600 3591519.300000
233.092200 972500.100000
251.140000 316604.500000

>ms2peaks
56.049600 40587561.000000
57.069900 5831917.600000
72.044400 24334291.700000
74.060100 58339580.300000
74.096400 40003902.700000
100.075700 8627225.500000
110.059900 895509.812700
115.054200 1584356.800000
120.044300 2695392.464000
120.080900 421682.300000
130.065200 2277135.600000
132.044500 5506081.200000
134.060100 468340.800000
136.039400 940234.700000
142.065200 246172.800000
146.060100 2278950.500000
148.039300 25056336.700000
150.055100 3326930.800000
158.060200 1229326.500000
160.039400 464092.400000
160.076100 288732.300000
162.018500 854680.600000
162.055100 381764.400000
170.060200 298708.800000
172.039600 853332.000000
174.054900 228822.200000
176.070700 1668094.200000
186.055100 4292032.500000
204.065400 397845.400000

