>compound EQ27901503
>parentmass 391.0862
>ionization [M+H]+
>formula C21H20Cl2O3
>rt 1080.000000
>profile orbitrap
#smiles_iso CC1(C(C1C(=O)OCC2=CC(=CC=C2)OC3=CC=CC=C3)C=C(Cl)Cl)C
#smiles_can CC1(C(C1C(=O)OCC2=CC(=CC=C2)OC3=CC=CC=C3)C=C(Cl)Cl)C
#inchikey RLLPVAHGXHCWKJ-UHFFFAOYSA-N
#pubchem_id 40326
#mb_accession EQ307401,EQ307402,EQ307403,EQ307404,EQ307405,EQ307406

>ms2
57.069900 402466.600000
71.085400 1892330.600000
77.015200 9845.200000
113.059500 18815.100000
113.132400 326545.700000
149.023300 7874083.600000
167.033800 3631994.400000
181.049000 8379.700000
183.080300 423592.700000
219.080300 15428.900000
226.098300 11107.200000
255.057000 156991.100000
261.090800 91040.200000
268.064600 9137.100000
273.127300 30748.300000
275.142900 120162.200000
277.085800 17742.500000
279.101500 230338.400000
301.122000 24605.200000
309.103800 22112.900000
319.132700 348730.400000
355.109300 436338.860100

>ms2
57.069900 493890.300000
65.038300 32511.300000
71.085500 1354909.600000
77.015200 31662.000000
113.132400 22480.000000
149.023400 11303566.500000
155.085500 18700.700000
165.070100 21268.200000
167.033900 887981.300000
168.056800 42554.300000
180.093300 139835.000000
181.101100 29906.900000
182.109100 104472.300000
183.080500 476309.000000
226.099000 28374.600000
233.096100 25521.800000
237.089900 13991.900000
255.057300 106181.700000
261.091100 258630.300000
268.065100 46078.100000
273.127100 80348.100000
275.143100 127096.900000
279.101500 46651.400000
301.122600 18029.800000
309.104200 12468.600000
319.133200 55522.700000

>ms2
57.069900 396756.300000
65.038500 46621.800000
67.054300 16696.000000
71.085500 718013.500000
77.015300 44122.000000
95.049100 18378.500000
111.044200 9143.900000
115.054100 10238.700000
121.028400 117024.000000
121.039600 10087.400000
149.023400 9015282.400000
153.069800 46148.100000
154.077800 18636.800000
155.085400 56253.400000
162.023200 26730.500000
165.070000 65573.100000
166.077600 9578.100000
167.034000 124380.800000
167.085500 115170.100000
168.057000 152660.200000
175.030900 31330.100000
179.085700 19084.300000
180.093300 158485.300000
181.101000 52646.400000
182.072800 9837.500000
182.109000 41390.400000
183.080600 243873.900000
207.080600 12740.600000
219.080700 9099.300000
220.088200 18376.700000
221.096000 9277.100000
233.095800 41721.100000
255.057300 62571.000000
261.090800 53095.000000
275.142900 18618.900000

>ms2
57.069900 395675.900000
65.038500 87466.300000
67.054200 9369.600000
71.085500 562893.700000
77.015200 35629.600000
93.033400 37961.300000
95.049100 22559.200000
111.044100 43483.500000
115.054200 34739.000000
121.028400 380254.500000
121.039600 61216.800000
128.062000 25664.900000
129.069800 32572.300000
139.054300 18804.200000
140.062100 19794.600000
141.069700 9082.400000
149.023400 8929279.400000
152.062100 10063.100000
153.069900 68590.200000
154.077800 32997.000000
155.085500 58675.100000
162.022800 32098.700000
165.069900 151395.900000
166.077700 23397.700000
167.034000 90130.300000
167.085500 126033.000000
168.057000 183896.500000
175.030800 33492.000000
179.085600 22933.300000
180.093400 108393.200000
181.049000 17387.300000
181.065000 21866.200000
181.101000 61880.400000
182.072900 18265.800000
182.109000 24491.700000
183.080600 144595.200000
207.080600 17423.300000
218.072700 16671.700000
219.080700 9013.800000
233.095800 42203.300000
237.091200 10622.700000
255.057200 25015.300000
261.091500 18905.400000

>ms2
57.069900 318996.800000
65.038600 336731.100000
67.054200 21340.200000
71.085500 252198.500000
77.015300 19178.800000
93.033400 173268.900000
95.049100 33331.800000
98.036200 9473.900000
111.044000 169048.600000
115.054300 48593.200000
116.062100 9792.700000
121.028400 1185586.300000
121.039600 257715.900000
128.062000 44183.700000
129.070100 32997.100000
139.054400 46480.700000
140.062100 43176.200000
141.069800 20733.400000
142.078100 7543.700000
145.064700 12358.300000
149.023400 6781364.800000
152.062000 31423.400000
153.069900 62314.300000
154.077700 37609.200000
155.085400 40483.000000
162.023100 33300.000000
165.070000 217706.200000
166.077800 53810.600000
167.034000 64688.000000
167.085500 149990.300000
168.056900 151834.000000
175.031100 26389.200000
178.077800 22162.600000
179.085600 36847.100000
180.093100 38453.000000
181.049600 8567.300000
181.064800 29086.200000
181.101000 36609.400000
182.072500 23991.000000
183.080600 45309.300000
191.085700 10548.500000
203.085400 8027.000000
205.064800 8500.100000
207.080300 6869.200000
218.072700 24089.300000
231.081200 7194.700000
233.095800 16377.100000

>ms2
57.069900 246131.000000
59.049100 4452.300000
65.038600 1315594.500000
67.054200 23069.300000
71.085500 112638.400000
77.015200 19228.200000
77.038500 8436.400000
89.038600 12427.200000
90.046300 5082.800000
93.033500 400588.500000
95.049200 68579.700000
98.036200 31838.000000
111.044100 404810.300000
115.054200 98938.800000
116.062100 8086.500000
121.028400 2058296.900000
121.039500 614587.600000
128.062100 80398.500000
129.069700 37034.600000
139.054300 80688.900000
140.062000 74156.000000
141.070000 30161.500000
144.057100 4241.500000
145.064800 25378.000000
149.023400 4105364.200000
152.062000 66206.900000
153.070000 84895.200000
154.077600 27302.800000
155.060300 27993.000000
155.085500 18096.800000
157.064900 21839.200000
162.023100 31151.900000
165.069900 283793.500000
166.077600 63296.800000
167.034000 24172.600000
167.085500 99635.900000
168.057000 94108.400000
175.031000 7312.200000
178.077900 24726.300000
179.085300 34174.100000
180.093100 8739.100000
181.049700 6155.900000
181.064500 52272.400000
181.101200 19331.200000
182.072600 18664.400000
189.070000 9344.000000
191.085600 16247.900000
205.065100 10156.700000
207.080100 6521.300000
215.086100 5149.000000
218.072500 17782.000000
219.080200 4374.500000
231.080500 6630.400000

