>compound EQ28263165
>parentmass 320.1524
>ionization [M+H]+
>formula C17H22ClN3O
>rt 828.000000
>profile orbitrap
#smiles_iso CC1(CCC(C1(CN2C=NC=N2)O)CC3=CC=C(C=C3)Cl)C
#smiles_can CC1(CCC(C1(CN2C=NC=N2)O)CC3=CC=C(C=C3)Cl)C
#inchikey XWPZUHJBOLQNMN-UHFFFAOYSA-N
#pubchem_id 86210
#mb_accession EQ317101,EQ317102,EQ317103,EQ317104,EQ317105,EQ317106

>ms2peaks
70.039900 61401802.900000
125.015100 3235627.100000
233.108800 865376.000000
320.152400 836786127.500000

>ms2peaks
69.070000 805941.800000
70.040000 526749391.200000
81.069900 821774.700000
95.085500 5085571.700000
107.085500 1546669.500000
125.015200 15533652.100000
139.031000 1849801.800000
151.031100 1188953.300000
163.031000 2061637.200000
177.046500 8792922.800000
191.062100 1493269.100000
233.109300 8659769.200000
320.152400 296483679.600000

>ms2peaks
59.049300 1981885.800000
69.070100 1818781.300000
70.040000 684798449.100000
81.069900 1777980.400000
95.085600 9104873.800000
107.085700 3292748.800000
109.101200 1297045.400000
125.015300 58433300.400000
139.030900 4966905.800000
142.077700 1335056.300000
151.030900 3878234.600000
163.030800 3923000.700000
165.046600 794513.600000
177.046600 13720601.700000
191.062400 3240119.900000
233.109500 2372891.000000
320.152500 8692413.700000

>ms2peaks
59.049300 2563671.300000
67.054400 1471856.800000
69.070100 1896737.400000
70.040000 600470721.000000
79.054300 1040933.300000
81.069800 1941824.100000
89.038400 945645.800000
91.054100 1085514.900000
93.069900 1097747.500000
95.085500 9259522.700000
107.085500 1846207.600000
125.015300 86775438.900000
128.061800 1329004.400000
139.030800 4529202.600000
142.077700 3474815.300000
151.030900 3351561.400000
156.093300 897848.300000
163.030900 3146562.400000
165.046400 941812.000000
177.046600 4727192.000000
191.062500 1385769.200000

>ms2peaks
59.049300 3642691.900000
67.054300 3056228.900000
69.070000 1089272.600000
70.040000 537500516.500000
81.070000 975247.900000
89.038600 3874791.400000
91.054200 1085493.600000
93.069900 1192380.600000
95.085600 5767243.600000
98.999700 1510372.100000
103.054300 2319055.500000
107.085600 949078.800000
115.054200 2747326.800000
116.062100 2507689.600000
125.015300 100881237.100000
128.062000 2211545.800000
129.070000 787858.200000
139.030900 2642918.500000
141.069800 1526068.100000
142.077800 6113200.500000
151.030900 2470068.500000
155.060300 830553.900000
156.093500 900837.300000
163.030700 1954698.500000
177.046700 2168480.500000

>ms2peaks
59.049300 3263573.500000
63.023000 904959.500000
67.054300 3280023.000000
70.040000 484495478.000000
79.054200 1047551.500000
89.038600 11682907.000000
90.046400 2890663.300000
91.054200 2304920.300000
93.069800 1046515.500000
95.085500 2742004.000000
98.999600 5564666.700000
103.054100 2329177.900000
115.054300 3691441.200000
116.062000 3273766.900000
125.015300 92238669.400000
128.062100 3189492.200000
129.069800 1297661.400000
130.077800 721113.100000
139.030900 830836.500000
141.069800 3343541.400000
142.077800 4305789.200000
149.015400 762682.900000
151.031100 896205.400000
155.060400 973590.000000
162.023000 911055.800000

