>compound EQ28417394
>parentmass 222.11249999999998
>ionization [M+H]+
>formula C12H15NO3
>rt 486.000000
>profile orbitrap
#smiles_iso CC1=CC(=CC(=C1)OCC2CNC(=O)O2)C
#smiles_can CC1=CC(=CC(=C1)OCC2CNC(=O)O2)C
#inchikey IMWZZHHPURKASS-UHFFFAOYSA-N
#pubchem_id 15459
#mb_accession EQ312701,EQ312702,EQ312703,EQ312704,EQ312705,EQ312706

>ms2
56.049600 4571426.200000
74.023700 1082790.200000
100.039300 589108.900000
105.069800 89201.900000
119.085500 158107.700000
123.080400 697597.100000
133.101200 444968.500000
135.080600 1950743.900000
146.072900 117237.200000
149.096100 225634.300000
161.096200 6133558.300000

>ms2
55.017900 451676.600000
56.049600 5498958.100000
74.023700 1418095.800000
100.039200 507640.700000
119.085400 392520.400000
123.080500 734569.100000
133.101300 827159.400000
135.080500 1590955.400000
143.085700 130627.700000
146.072900 214978.300000
149.096400 385345.400000
161.096200 5672049.000000

>ms2
55.017900 1017780.900000
56.049600 4861996.200000
74.023700 1297858.300000
79.054200 373819.000000
91.054200 528419.900000
105.069900 1612845.100000
107.085700 104689.600000
119.085500 519506.500000
123.080500 1225740.300000
131.085800 310922.800000
133.101300 1810514.900000
135.080500 1224053.100000
143.085500 418343.700000
146.072700 1110282.300000
161.096200 2425391.900000

>ms2
55.018000 1033452.300000
55.054400 121166.500000
56.049600 4227034.800000
74.023700 963137.500000
79.054200 589964.600000
91.054200 634113.500000
93.069900 122122.700000
100.039600 103028.400000
105.070000 2071111.300000
107.085500 152218.500000
119.085400 431071.800000
123.080400 820110.600000
128.061700 158935.700000
131.085500 393031.800000
133.101300 1488121.400000
135.080600 715476.400000
143.085600 354894.800000
146.072800 1165846.600000
161.096400 657799.600000

>ms2
53.038700 191370.300000
55.018000 755221.800000
55.054300 219797.700000
56.049600 3174445.400000
67.054300 120751.500000
74.023600 220061.400000
79.054300 1486810.400000
91.054300 810559.800000
93.070000 137289.000000
95.049100 422913.100000
103.054200 427171.000000
105.070000 2638866.100000
115.054500 166968.800000
117.070000 148242.000000
119.085600 373749.900000
123.080400 228072.900000
131.049400 143830.000000
131.085700 562475.000000
133.101300 629477.100000
135.080300 347274.400000
146.072700 682117.700000

>ms2
53.038700 367947.100000
55.018000 436738.800000
56.049600 2635350.700000
65.038600 142043.218400
67.054200 441692.500000
74.023700 105625.900000
77.038600 110267.849700
79.054300 2683748.900000
91.054200 1634080.700000
93.070000 142920.000000
95.049100 773118.400000
103.054200 445104.600000
105.070000 2794649.000000
115.054200 458412.100000
117.069800 193505.600000
119.085700 130324.500000
128.062200 115189.100000
131.049100 418919.600000
131.085300 264686.800000
133.101300 158622.700000
135.080400 94791.900000
145.064900 117392.979400
146.072900 457601.000000

