>compound EQ28889996
>parentmass 152.1434
>ionization [M+H]+
>formula C10H17N
>rt 276.000000
>profile orbitrap
#smiles_iso C1C2CC3CC1CC(C2)(C3)N
#smiles_can C1C2CC3CC1CC(C2)(C3)N
#inchikey DKNWSYNQZKUICI-UHFFFAOYSA-N
#pubchem_id 2130
#mb_accession EQ312401,EQ312402,EQ312403,EQ312404,EQ312405,EQ312406

>ms2peaks
67.054200 157316.200000
81.070000 167614.100000
135.116900 26588414.000000
152.143500 21924410.800000

>ms2peaks
135.116900 26224257.800000
152.143500 21080245.800000

>ms2peaks
79.054300 347933.800000
93.069900 303589.400000
135.116900 37575682.500000
152.143600 9066152.300000

>ms2peaks
67.054200 380634.300000
79.054200 763762.900000
81.069900 335653.600000
93.069900 991494.700000
107.085500 320609.600000
135.116900 40949008.600000
152.143500 4588159.400000

>ms2peaks
55.054300 274788.900000
67.054300 2948588.900000
69.070000 205848.600000
79.054300 4477054.100000
81.070000 1039565.300000
93.070000 3598753.200000
107.085600 2351312.000000
135.116900 43237433.800000
152.143700 1817076.900000

>ms2peaks
55.054300 1295290.800000
67.054200 5160927.700000
69.069900 445818.200000
79.054300 9391745.000000
81.070000 2482772.000000
91.054100 820199.219300
93.069900 7268389.800000
107.085600 3354109.000000
135.116900 30298183.300000
152.143500 334889.500000

