>compound EQ29091479
>parentmass 247.18049999999997
>ionization [M+H]+
>formula C15H22N2O
>rt 270.000000
>profile orbitrap
#smiles_iso CC1=C(C(=CC=C1)C)NC(=O)C2CCCCN2C
#smiles_can CC1=C(C(=CC=C1)C)NC(=O)C2CCCCN2C
#inchikey INWLQCZOYSRPNW-UHFFFAOYSA-N
#pubchem_id 4062
#mb_accession EQ312601,EQ312602,EQ312603,EQ312604,EQ312605,EQ312606

>ms2
98.096500 26648388.800000
247.180900 11932083.900000

>ms2
70.065200 1218661.400000
98.096500 55265659.100000
247.181200 3335757.500000

>ms2
70.065100 2982925.300000
98.096600 51311731.800000

>ms2
70.065200 5354588.700000
98.096500 49774632.700000

>ms2
68.049400 358387.600000
70.065200 14693530.700000
98.096500 46576053.700000

>ms2
68.049600 626817.400000
70.065200 21285828.800000
98.096500 34231250.700000

