>compound EQ29342945
>parentmass 370.0486
>ionization [M+H]+
>formula C9H15N5O7S2
>rt 504.000000
>profile orbitrap
#smiles_iso CN(S(=O)(=O)C)S(=O)(=O)NC(=O)NC1=NC(=CC(=N1)OC)OC
#smiles_can CN(S(=O)(=O)C)S(=O)(=O)NC(=O)NC1=NC(=CC(=N1)OC)OC
#inchikey CTTHWASMBLQOFR-UHFFFAOYSA-N
#pubchem_id 91777
#mb_accession EQ316501,EQ316502,EQ316503,EQ316504,EQ316505,EQ316506

>ms2
139.037700 795579.500000
154.060600 1161418.200000
156.076200 2516633.800000
182.056000 7546069.500000
199.082700 69700805.800000
218.023300 6281099.331000
236.033900 9836944.000000
261.029200 81025100.700000
279.039700 372615936.200000

>ms2
69.008300 1056752.900000
69.044900 221527.500000
83.024000 1035632.800000
97.039800 1331588.300000
124.050700 5843795.100000
126.066300 1678400.800000
127.037900 700621.800000
127.050300 4768744.500000
139.037800 6533635.100000
142.061400 6791496.400000
154.061300 23153499.900000
155.068500 976392.300000
156.076800 1901321.300000
157.061300 202962.600000
181.072200 2258309.100000
182.056300 11979152.100000
199.082800 14056287.200000
202.999200 246016.400000
218.023300 117211897.300000
236.034000 187848638.300000
238.038100 262180.200000
250.049700 295774.000000
261.029200 199609769.700000
279.039800 76082599.400000

>ms2
69.008400 7011981.500000
69.044800 1868706.400000
70.028800 1232592.900000
71.060500 1697970.000000
72.044500 240868.200000
82.028800 276451.300000
82.040100 315510.100000
83.024100 5345833.100000
84.031900 1395473.200000
84.044500 817529.000000
86.023800 523177.400000
94.040100 562873.900000
97.039800 11927070.800000
99.055400 306502.300000
100.039400 1824757.300000
109.027200 891659.100000
111.042900 2738697.200000
112.039400 735913.900000
118.991100 471843.300000
124.050700 36468383.100000
125.034800 671732.800000
126.066300 6299000.900000
127.037800 2130579.600000
127.050300 30816815.800000
139.037800 80219278.300000
142.061300 28098101.000000
154.061300 72007094.500000
155.068800 1820888.200000
156.076900 2128112.800000
157.061000 5843203.400000
161.985600 484654.900000
181.072200 9179325.600000
182.056300 27127824.500000
218.023300 83007482.900000
236.033900 186629115.200000
238.038300 496985.300000
250.049700 247624.400000
261.029200 16022677.800000
279.039700 845786.900000

>ms2
57.045000 1021851.800000
58.029000 779931.500000
67.029200 956086.100000
68.013200 686265.500000
69.008500 44830270.000000
69.992500 217545.900000
70.028900 971244.300000
71.024100 194959.700000
71.060500 2587907.300000
72.044500 1283472.800000
81.008400 288627.100000
81.044800 298945.500000
82.028900 1076980.200000
82.040100 1972365.900000
83.024100 18602383.400000
84.031900 7451747.500000
84.044600 1260357.600000
85.039800 203797.600000
86.023800 1797692.500000
87.019000 191507.300000
93.008400 558672.600000
94.040100 1424534.800000
97.039800 23883787.200000
99.055500 831045.400000
100.039500 5597360.300000
109.027300 3277772.800000
109.039700 520600.800000
111.042900 14899416.600000
112.039300 856810.000000
118.991000 1372822.800000
122.035300 273665.900000
124.014200 1805612.900000
124.050700 30505485.200000
125.034700 1009152.100000
126.066400 4788376.900000
127.050400 37404690.500000
138.030000 1362348.100000
139.037800 170067676.600000
139.049400 10567697.500000
140.045400 598377.100000
141.065800 542143.300000
142.061300 9551133.400000
154.061300 42296383.800000
155.069000 722971.400000
156.077100 1186302.900000
157.061000 18242371.900000
161.985600 243073.300000
181.072300 8911475.400000
182.056300 21262316.000000
218.023300 11495359.700000
236.034000 37499678.700000

>ms2
57.045000 1303904.400000
58.029000 1825737.800000
59.013000 302638.800000
67.029200 2478582.800000
68.013200 2553864.700000
69.008500 128521217.800000
69.992500 268460.400000
70.028900 1580752.100000
71.024100 1290743.900000
71.060500 4437883.500000
72.044500 1703224.800000
81.008400 720014.900000
81.032200 1285309.900000
81.044800 1395660.700000
82.028900 2953794.100000
82.040100 4447524.300000
83.024100 33200605.800000
84.031900 13323267.000000
85.039800 234686.200000
86.023800 2578076.300000
87.019100 472273.700000
93.008400 3218110.300000
94.040100 1757550.000000
96.019500 146973.600000
96.055800 135106.200000
97.039800 16563237.300000
98.023800 551623.400000
99.055400 742067.500000
100.039400 5932256.400000
107.011500 154845.300000
107.024200 252006.300000
109.027200 3971873.400000
109.039600 1187786.100000
110.023900 132995.900000
110.035000 162351.800000
111.042900 19677293.500000
112.039400 159578.600000
118.991100 1681042.900000
124.014300 3702302.000000
124.050700 7969891.300000
125.034400 943724.500000
125.058500 212284.600000
126.066400 2382611.400000
127.050300 18221305.700000
137.034800 705374.400000
138.029900 1383813.900000
138.066400 141896.700000
139.037800 101794108.600000
139.049900 18769538.300000
140.045500 569662.000000
142.061300 1300294.200000
154.061300 13847389.000000
155.069300 157516.100000
156.076800 200592.700000
157.060900 18685401.300000
165.040900 206901.700000
181.072100 3610487.600000
182.056300 8491056.800000
218.023300 1121799.900000
236.033800 3096924.400000

>ms2
57.045000 2151241.300000
58.029000 2450548.500000
67.029300 3075539.000000
68.013200 4247013.900000
69.008500 179106099.000000
69.992300 199459.800000
70.028900 2149041.400000
71.024100 2049349.500000
71.060500 5103352.600000
72.044500 1496609.500000
81.008400 741838.200000
81.032200 2299607.300000
81.044800 2641247.500000
82.028900 4380796.500000
82.040100 4957311.400000
83.024100 37401503.400000
84.031900 6975027.200000
85.039800 226234.200000
86.023800 1246908.700000
93.008400 7925038.200000
94.040100 1470617.900000
95.024100 623228.900000
96.019300 694427.000000
96.055700 260780.700000
97.039800 6161647.800000
98.023800 1485053.500000
99.055600 182879.400000
100.039400 3937890.600000
107.011600 196447.600000
107.024200 512665.600000
109.027300 2469871.900000
109.039800 2262891.900000
110.023800 196255.100000
110.035200 250334.200000
111.042900 10597599.600000
118.991100 925175.100000
124.014300 2586727.100000
124.050700 1570230.100000
125.034700 259080.500000
125.058400 209618.900000
126.066600 962204.800000
127.050300 6035357.500000
137.034800 918777.600000
138.029900 1206079.900000
139.037800 26677197.600000
139.050200 13627662.700000
140.045400 861399.500000
154.061300 5845601.600000
157.060900 7810372.700000
165.040800 207617.800000
181.072400 721636.900000
182.056500 1997087.554000

