>compound EQ29665996
>parentmass 321.0192
>ionization [M+H]+
>formula C15H10Cl2N2O2
>rt 534.000000
>profile orbitrap
#smiles_iso C1=CC=C(C(=C1)C2=NC(C(=O)NC3=C2C=C(C=C3)Cl)O)Cl
#smiles_can C1=CC=C(C(=C1)C2=NC(C(=O)NC3=C2C=C(C=C3)Cl)O)Cl
#inchikey DIWRORZWFLOCLC-UHFFFAOYSA-N
#pubchem_id 3958
#mb_accession EQ313801,EQ313802,EQ313803,EQ313804,EQ313805,EQ313806

>ms2peaks
138.010300 621477.900000
229.052700 1712244.100000
263.013800 653583.300000
265.029600 1037267.100000
275.013800 36386135.700000
303.008700 129915190.300000
321.019200 523009167.900000

>ms2peaks
128.026000 2472454.500000
138.010500 2784645.700000
156.021100 1483568.700000
163.005500 1050797.000000
166.005300 3595698.500000
229.052800 28897934.700000
250.018600 3282531.300000
265.029500 20621531.400000
275.013700 389375515.000000
275.997800 2515876.800000
285.043000 624035.600000
292.016400 1616483.700000
303.008600 211720050.200000
321.019100 67536629.700000

>ms2peaks
93.057200 3561780.900000
128.026000 12431869.400000
130.040000 674218.500000
138.010500 22417958.500000
153.021400 2783907.300000
156.021100 2262297.000000
163.005700 19048243.900000
166.005400 5219671.000000
177.056700 632920.300000
181.016100 995292.900000
194.083900 3261189.000000
205.076000 1799653.100000
213.034500 623747.700000
214.042000 1435625.800000
229.052800 159442951.100000
239.037100 4061963.000000
241.028900 2536512.800000
248.003000 747366.200000
250.018600 2306676.800000
257.047500 2907063.900000
263.014000 1571805.800000
265.029500 15498847.000000
275.013700 462671680.600000
275.997700 1671742.700000
285.043000 749585.800000
291.008700 3941325.000000
292.016400 2364326.000000
303.008600 40291088.400000
321.019900 1025185.500000

>ms2peaks
93.057200 8272368.400000
118.052500 846495.800000
120.044300 683108.200000
128.026000 14579023.600000
129.010000 568604.600000
130.039900 2398664.400000
138.010400 45086449.600000
153.021400 5253501.200000
156.021100 1365818.600000
163.005700 47897710.700000
164.000800 1464131.600000
166.005300 5046256.300000
177.056700 1350657.800000
181.016300 3478598.300000
193.075800 620253.500000
194.083900 15049379.500000
204.067800 1049654.700000
205.076100 5463889.800000
206.060100 627665.900000
213.034000 727360.900000
214.041700 1635181.200000
221.070800 639550.600000
229.052700 202174723.100000
230.036700 515626.500000
239.036900 15020709.700000
240.044800 808948.100000
241.028800 2697575.900000
248.002500 1725705.600000
250.018500 1441262.900000
255.032600 577074.700000
257.047600 3521112.100000
263.013700 2905954.000000
265.029500 4718176.100000
272.998400 659208.800000
275.013700 347745330.400000
275.997700 870811.400000
291.008700 4666178.100000
292.017000 599547.700000
303.008600 8795530.700000

>ms2peaks
65.038600 209424.200000
66.046400 640128.800000
75.022800 1365146.800000
76.018100 173738.200000
77.038400 376069.600000
78.033800 267173.800000
86.999500 185299.300000
90.033900 680520.100000
92.049400 825220.700000
93.057200 20563909.800000
95.049000 929867.800000
98.999700 266249.700000
100.018100 819927.800000
102.033600 1786714.400000
105.044700 209476.700000
110.999400 277412.800000
113.015100 257308.000000
117.044600 899442.200000
118.052400 3149004.000000
120.044300 4305341.700000
126.010300 1669164.900000
127.017900 248929.400000
128.026100 11839756.300000
129.010000 2722688.600000
130.039900 13366732.300000
135.994700 871259.200000
138.010400 66986880.500000
139.005700 7969869.000000
145.050900 801239.600000
151.005900 702021.100000
152.013700 636813.100000
153.021400 6469391.800000
154.005400 1627489.600000
156.021000 875015.000000
163.005700 79056747.700000
164.000900 9611351.800000
166.005300 3521949.800000
166.065100 2350816.100000
167.072800 1403981.900000
177.057200 5738195.200000
178.065000 556686.100000
179.000600 778961.700000
181.016300 7236326.800000
186.023000 1181014.300000
192.068300 515220.200000
193.076100 3981988.600000
194.083800 70111172.300000
195.092000 625064.400000
203.060100 757665.700000
204.068200 3317752.800000
205.076100 15644836.000000
206.059700 1217804.000000
212.025900 646763.200000
213.033700 2605566.400000
214.042000 1254627.700000
221.070800 1763210.500000
228.044700 1114047.800000
229.052700 171812899.900000
230.036200 542713.700000
239.037000 36702769.000000
240.044900 2013803.600000
241.028800 2109262.500000
248.003000 2562757.600000
255.032000 718739.900000
257.047700 2596753.200000
263.013700 7101490.000000
272.997800 1750800.200000
275.013700 157709071.100000
275.997400 226758.800000
291.008600 4755959.000000
303.008200 680550.400000

>ms2peaks
51.023000 160573.000000
65.038600 624124.700000
66.046400 2248238.500000
74.015000 285062.000000
75.022800 3857952.300000
76.018100 917113.800000
77.038500 803342.200000
78.033800 778946.700000
86.999600 700991.700000
90.033800 1711515.000000
92.049400 1720358.100000
93.057200 27722305.200000
95.049100 1687608.200000
98.999600 1259492.500000
100.018100 3360901.500000
102.033700 5303436.300000
105.044800 702923.800000
110.999500 1055269.800000
111.044000 164543.400000
117.044700 1442420.000000
118.052400 7275878.600000
120.044300 9932577.100000
126.010500 3564772.800000
128.026000 5609591.900000
129.010100 7349658.000000
130.040000 28025480.000000
135.994800 2929158.500000
138.010400 53975454.100000
139.005700 15690166.200000
145.050800 962575.200000
151.005700 2155183.200000
152.013500 841889.600000
153.021300 3501875.400000
154.005400 3076084.700000
155.035100 734808.200000
156.021100 217326.900000
163.005700 65282352.100000
164.000900 24439216.600000
166.005200 1326247.200000
166.065100 4234804.500000
167.072800 4810438.500000
168.068200 1956502.300000
176.049300 278578.400000
177.057200 17053949.100000
178.065000 2027591.800000
179.000700 1464681.100000
181.016200 5421599.300000
183.055300 583347.300000
186.023200 2991239.900000
192.068500 1492892.900000
193.076100 15542101.000000
194.083800 111881109.000000
195.091700 660065.400000
203.060100 1437695.600000
204.068300 5079251.900000
205.076100 17664223.100000
206.059900 1515831.000000
212.026300 1260610.200000
213.033900 3892219.900000
214.041600 1216844.000000
221.070800 1520889.100000
228.045000 3886549.600000
229.052700 75076803.600000
230.037000 969171.700000
239.037000 39854912.700000
240.044800 1670791.600000
241.028800 592849.100000
248.002600 2295873.900000
255.032400 1049971.100000
257.047600 1321444.800000
263.013700 7099440.900000
272.997700 1741552.300000
275.013700 43696159.100000
291.008700 2196800.400000

