>compound EQ30683603
>parentmass 229.0859
>ionization [M+H]+
>formula C14H12O3
>rt 366.000000
>profile orbitrap
#smiles_iso C1=CC(=CC=C1/C=C/C2=CC(=CC(=C2)O)O)O
#smiles_can C1=CC(=CC=C1C=CC2=CC(=CC(=C2)O)O)O
#inchikey LUKBXSAWLPMMSZ-OWOJBTEDSA-N
#pubchem_id 445154
#mb_accession EQ324101,EQ324103,EQ324105,EQ324106

>ms2peaks
85.028400 26994.100000
91.054200 260701.400000
95.049100 103636.000000
107.049100 826066.500000
111.044000 337441.300000
119.049100 1600219.400000
120.056700 60994.200000
121.028300 54043.600000
123.044000 58284.200000
135.044000 5172427.200000
136.051600 65132.800000
141.069800 51721.700000
145.064800 176082.500000
157.064800 33999.900000
159.080100 74659.400000
165.069700 121616.100000
169.064600 28386.800000
171.043900 37374.300000
173.059900 27443.900000
183.080400 489316.200000
187.075300 105735.800000
193.064500 138019.300000
201.090500 112967.000000
211.075300 923021.600000
229.085700 26709591.900000

>ms2peaks
65.038500 50048.000000
67.054200 29149.100000
68.997100 209625.400000
69.033500 17157.500000
71.012700 50506.900000
77.038300 11446.900000
79.054200 216127.200000
81.033500 63296.300000
83.049200 9274.700000
85.028400 41184.700000
91.054200 3226040.900000
95.049100 323620.200000
101.059600 12068.300000
105.033600 12866.700000
105.044800 12053.400000
105.069800 12441.600000
107.049100 8687815.900000
109.028400 336893.100000
110.036200 69082.900000
111.044100 436950.200000
115.054300 46262.500000
117.033200 10314.900000
117.069900 33406.000000
119.049200 2698528.300000
120.057000 954998.700000
121.028400 516585.500000
121.064800 59063.400000
123.044000 386856.100000
128.061700 10719.300000
129.069900 35803.200000
131.049400 80229.400000
131.085400 53529.500000
133.064800 71740.500000
135.044000 5292244.000000
136.051800 680688.700000
137.023400 34432.900000
141.069700 351878.100000
143.085500 31380.200000
144.057100 41909.300000
145.064800 461372.000000
147.044100 95973.100000
152.061800 11486.300000
153.069900 270769.000000
154.077700 26816.500000
155.085500 469968.500000
157.064800 112271.700000
158.072900 13057.900000
159.080400 193974.700000
160.051800 66759.600000
161.059700 54083.000000
161.096100 46187.600000
165.069900 1394816.800000
168.057100 55327.800000
169.064700 77518.100000
171.044000 85289.100000
171.080500 10472.900000
173.059500 102896.000000
173.096000 68341.000000
181.064800 70917.100000
182.072600 35130.100000
183.080400 1290548.600000
185.058900 11719.800000
187.038800 11430.500000
187.075500 154309.900000
193.064700 428337.500000
193.075700 65386.000000
194.072600 15728.400000
197.059800 35794.900000
199.075100 56695.300000
201.090700 167021.600000
210.067600 39578.100000
211.075300 685348.100000
212.083300 46564.600000
214.062500 72803.100000
227.070200 33435.100000
229.085800 1101398.800000

>ms2peaks
63.022800 20340.500000
65.038600 540099.500000
67.054200 120608.100000
68.997100 546920.500000
71.012700 47833.800000
77.038500 136884.000000
78.046400 12679.800000
79.054200 927525.800000
80.062100 19530.500000
81.033500 406681.400000
83.049100 10097.800000
89.038600 80907.300000
90.046400 10708.200000
91.054200 4164557.600000
92.062000 72835.100000
93.033400 14305.200000
93.069900 25943.200000
94.041200 59487.400000
95.049100 1577341.900000
103.054200 100455.400000
105.033600 45534.000000
105.044700 248938.300000
105.070000 106001.300000
106.041000 8057.800000
107.049100 7947070.200000
108.057000 16944.100000
109.028400 231722.000000
110.036200 104719.800000
111.044000 197904.700000
115.054200 555877.500000
116.062000 51557.900000
117.033400 29415.800000
117.069800 123247.300000
118.041300 62090.300000
119.049100 578236.200000
120.057000 1247523.600000
121.028400 542994.200000
121.039400 65298.000000
121.064800 28742.800000
123.044000 275275.200000
127.054200 37134.800000
128.062000 202281.600000
129.069800 292583.000000
131.049200 177996.800000
131.085600 37233.100000
132.057000 15967.600000
133.064900 53587.500000
134.036100 11048.100000
135.044000 345350.200000
136.051800 291693.600000
137.023100 14273.300000
139.054000 42811.600000
140.061900 37637.400000
141.069700 420020.500000
144.057000 179745.900000
145.064800 332263.600000
147.044200 62969.400000
152.062000 217234.700000
153.069900 940867.500000
154.077700 307735.100000
155.060400 106011.300000
155.085500 447727.600000
157.064700 158822.900000
158.073000 60526.400000
159.080800 47454.200000
160.051800 44679.500000
161.059800 29263.100000
163.053600 8079.400000
164.061800 91038.900000
165.069800 3518192.500000
166.078300 54210.600000
167.085700 9281.600000
168.056800 370236.200000
169.064600 85486.400000
171.044000 16270.200000
171.055100 9385.200000
171.080300 12831.100000
173.059600 40813.700000
181.064600 583138.900000
182.072800 269102.600000
183.080400 281132.600000
185.059700 39073.700000
186.068200 10902.800000
187.075200 10957.800000
192.056900 12190.100000
193.065100 50365.700000
193.075800 28412.300000
194.072500 104159.600000
195.080900 11395.900000
196.051400 27356.200000
197.059300 58768.600000
199.074900 54796.200000
210.067600 170721.600000
211.075300 99590.900000
212.083100 38494.700000
213.054900 29333.000000
227.070200 28336.400000

>ms2peaks
50.015300 13708.700000
51.022900 10522.200000
53.038700 29315.100000
55.017900 12008.700000
63.023000 38854.300000
65.038600 972936.000000
66.046400 15900.600000
67.017800 6012.900000
67.054200 116710.400000
68.997100 613340.900000
71.012700 16441.400000
77.038500 234404.000000
78.046300 33601.800000
79.054200 1041161.200000
80.062000 15359.600000
81.033500 409044.600000
83.049200 9055.700000
89.038600 139353.600000
90.046500 10040.900000
91.054200 3390814.000000
92.062000 85565.100000
93.033300 9804.600000
93.069900 8026.000000
94.041200 113011.100000
95.049100 2489343.600000
103.054200 132712.400000
104.061700 8074.900000
105.033600 52044.000000
105.044700 365445.800000
105.069900 86859.300000
107.049100 4910244.500000
109.028400 86554.000000
110.036100 56559.600000
111.044100 148386.500000
115.054200 935083.400000
116.062000 108987.200000
117.033100 8578.900000
117.069800 84675.000000
118.041200 99873.400000
119.049100 487366.300000
120.057000 723799.300000
121.028400 391942.400000
121.039600 52109.900000
123.044000 128141.000000
126.046100 6368.800000
127.054100 81739.400000
128.062000 394619.800000
129.069900 274781.700000
131.049200 214769.900000
131.085500 14443.600000
132.057200 12578.500000
133.064800 15881.700000
135.044200 90717.800000
136.051800 85935.300000
139.054100 226672.700000
140.061800 121745.100000
141.069700 300776.600000
144.057100 171004.600000
145.064800 302244.000000
147.044000 15967.200000
152.062000 471423.000000
153.069900 853628.400000
154.077700 245682.100000
155.049100 11471.000000
155.060300 140106.600000
155.085400 145862.000000
157.064700 119335.500000
158.072700 30753.400000
159.080400 8136.800000
160.051800 8833.200000
161.059500 9568.200000
163.054000 82194.200000
164.061900 236591.400000
165.069800 2855144.900000
166.077600 40417.400000
168.056900 458660.500000
169.064600 114357.900000
171.043700 12750.400000
171.055200 11631.300000
171.079800 10667.500000
173.059700 12339.800000
176.061800 8877.500000
179.060000 11872.100000
181.064700 737098.900000
182.072900 169822.100000
183.080500 85664.100000
185.059900 35363.900000
192.057000 30176.100000
193.064600 25559.300000
193.076100 11936.500000
194.072500 89983.200000
196.051900 70078.900000
197.059300 73142.900000
199.075400 13203.600000
210.067600 136300.300000
211.075200 39742.500000
213.054500 14836.400000

