>compound EQ30671206
>parentmass 227.1754
>ionization [M+H]+
>formula C12H22N2O2
>rt 384.000000
>profile orbitrap
#smiles_iso CCC(C(=O)N(C)C)N(CC)C(=O)/C=C/C
#smiles_can CCC(C(=O)N(C)C)N(CC)C(=O)C=CC
#inchikey LSAMUAYPDHUBQD-RMKNXTFCSA-N
#pubchem_id 5368010
#mb_accession EQ318701,EQ318702,EQ318703,EQ318704,EQ318705,EQ318706

>ms2peaks
69.033200 806534.500000
86.096400 4373759.800000
154.122500 11360528.300000
182.117500 22694650.900000

>ms2peaks
58.065300 20343.800000
69.033400 1558716.600000
86.096400 10489869.800000
154.122600 14288512.800000
182.117500 8772926.900000

>ms2peaks
58.065300 81851.500000
69.033500 5286881.700000
86.096400 21063876.600000
154.122500 4601623.400000
182.117600 619252.600000

>ms2peaks
58.065300 215880.300000
69.033500 9196267.200000
86.096400 19492741.600000
154.122500 447545.100000

>ms2peaks
58.065300 483250.600000
69.033500 9573162.700000
86.096400 14767693.800000
154.122500 19677.100000

>ms2peaks
58.065300 803623.500000
69.033500 7485873.000000
84.080900 13621.800000
86.096400 9844795.200000
91.054100 11852.000000

