>compound EQ30058043
>parentmass 302.0709
>ionization [M+H]+
>formula C14H17Cl2NO2
>rt 702.000000
>profile orbitrap
#smiles_iso CC1(CCCCC1)C(=O)NC2=C(C(=C(C=C2)O)Cl)Cl
#smiles_can CC1(CCCCC1)C(=O)NC2=C(C(=C(C=C2)O)Cl)Cl
#inchikey VDLGAVXLJYLFDH-UHFFFAOYSA-N
#pubchem_id 213031
#mb_accession EQ305701,EQ305702,EQ305703,EQ305704,EQ305705,EQ305706

>ms2
55.054300 614983.200000
97.100800 4587924.200000
177.981800 387276.900000
302.070800 369634016.300000

>ms2
55.054300 1402524.100000
69.069900 911076.800000
97.101100 82153386.800000
125.096000 655604.900000
142.005500 4756593.800000
143.013100 1861354.200000
177.982100 5066597.000000
284.060500 338601.400000
302.070800 251477457.000000

>ms2
53.038700 364394.500000
55.054200 3190824.900000
69.069900 4584534.100000
97.101200 211045887.100000
125.096100 450124.500000
142.005500 9810161.400000
143.013300 11051651.300000
177.982100 8743413.400000
284.060700 530616.600000
302.070900 39158390.200000

>ms2
53.038700 1006815.200000
55.054300 8408952.200000
67.054100 181265.300000
69.069900 7232353.500000
97.101200 153046094.400000
142.005600 7688106.600000
143.013300 13500707.800000
176.974100 162958.200000
177.982100 4190081.800000
284.060500 166177.500000
302.071000 4961976.500000

>ms2
53.002400 118953.200000
53.038700 1811500.800000
55.054300 22948783.100000
69.069900 9590962.200000
79.054200 135594.000000
81.069900 177386.400000
97.101200 77674303.900000
106.028900 179041.100000
114.010500 333661.300000
142.005600 6191598.000000
143.013400 16628981.600000
176.974600 168475.000000
177.982300 1350445.100000
201.982000 296498.500000

>ms2
53.002300 184249.400000
53.038700 2130462.400000
55.054300 34952088.600000
67.054300 146146.400000
69.069900 7018631.400000
79.054300 105107.400000
97.101200 24974157.600000
106.028800 389765.300000
114.010600 942059.300000
114.994600 86999.400000
142.005600 3210316.200000
143.013400 14043323.100000
175.966300 84897.800000
177.982500 176716.300000
201.982400 90034.400000

