>compound EQ31920075
>parentmass 268.104
>ionization [M+H]+
>formula C10H13N5O4
>rt 66.000000
>profile orbitrap
#smiles_iso C1=NC(=C2C(=N1)N(C=N2)[C@H]3[C@@H]([C@@H]([C@H](O3)CO)O)O)N
#smiles_can C1=NC(=C2C(=N1)N(C=N2)C3C(C(C(O3)CO)O)O)N
#inchikey OIRDTQYFTABQOQ-KQYNXXCUSA-N
#pubchem_id 60961
#mb_accession EQ330401,EQ330402,EQ330403,EQ330404,EQ330405,EQ330406

>ms2peaks
85.028300 178923.900000
119.034800 198807.500000
133.049600 445230.700000
136.061800 146806960.000000
268.104000 75057136.000000

>ms2peaks
73.028400 282213.700000
85.028400 522095.500000
115.039000 685306.800000
119.034900 215756.000000
133.049600 954383.100000
136.061800 208586752.000000
268.104000 9126446.000000

>ms2peaks
57.033500 730479.400000
61.028400 223601.400000
69.033400 498155.500000
71.012700 361748.200000
73.028400 744824.600000
85.028300 1087952.000000
97.028300 346233.800000
115.038900 691912.400000
119.035200 648376.000000
133.049600 299704.100000
136.061800 207267552.000000
137.045600 285382.100000

>ms2peaks
57.033500 1008512.600000
61.028400 325812.700000
69.033500 987203.200000
71.012800 668683.300000
73.028400 777617.100000
85.028300 924388.600000
94.040000 1260846.200000
97.028400 358009.000000
109.050800 213207.400000
119.035200 3785759.200000
136.061800 193655696.000000
137.045600 1961679.400000

>ms2peaks
57.033500 1067663.500000
61.028400 410540.500000
65.013400 166448.100000
67.028900 416135.900000
69.033500 1000260.200000
71.012700 1102857.000000
73.028400 632773.700000
85.028400 737485.700000
92.024300 629969.000000
94.039900 4465075.000000
97.028400 155556.100000
109.050900 1089048.500000
112.050600 277356.800000
119.035200 12654533.000000
136.061800 143815616.000000
137.045600 6697735.000000

>ms2peaks
55.017900 87772.900000
57.033500 774178.000000
61.028400 339226.500000
65.013300 319529.500000
67.029000 1558547.500000
69.033400 817773.300000
71.012700 1184443.400000
73.028400 436715.200000
82.039900 533362.200000
85.028400 456000.300000
92.024200 2451972.000000
94.039900 7875480.500000
109.050800 2251068.200000
112.050500 628326.100000
119.035200 29312092.000000
136.061800 83266616.000000
137.045600 12573088.000000

