>compound EQ31299646
>parentmass 289.2274
>ionization [M+H]+
>formula C18H28N2O
>rt 372.000000
>profile orbitrap
#smiles_iso CCCCN1CCCCC1C(=O)NC2=C(C=CC=C2C)C
#smiles_can CCCCN1CCCCC1C(=O)NC2=C(C=CC=C2C)C
#inchikey LEBVLXFERQHONN-UHFFFAOYSA-N
#pubchem_id 2474
#mb_accession EQ330501,EQ330502,EQ330503,EQ330504,EQ330505,EQ330506

>ms2
84.080800 2500560.200000
140.143300 654410560.000000
289.227400 2379604736.000000

>ms2
84.080700 6774672.500000
98.096400 8538730.000000
140.143400 2156303616.000000
150.091300 10903807.000000
289.227500 422892704.000000

>ms2
84.080800 47690892.000000
98.096500 73223992.000000
112.112100 5722636.000000
140.143500 2542920448.000000
150.091300 14324674.000000
289.227400 9176895.000000

>ms2
56.049500 2500521.000000
57.069900 8746113.000000
67.054200 2653567.000000
70.065100 12276312.000000
84.080800 268269728.000000
98.096400 270835360.000000
112.112100 24140822.000000
132.080800 2744586.500000
140.143500 2163235584.000000
150.091400 8342501.500000

>ms2
56.049500 5129758.500000
57.069900 16402941.000000
67.054300 8675661.000000
70.065100 31746100.000000
82.065100 3415297.000000
83.072900 2031983.500000
84.080800 480074048.000000
96.080700 1992584.900000
98.096400 336239680.000000
105.069900 1993096.400000
107.073000 3219663.500000
112.112100 32376990.000000
132.080700 1895550.100000
138.127900 2679719.500000
140.143400 1057472064.000000
150.091500 1866463.900000

>ms2
53.002300 1880187.000000
55.054300 736618.100000
56.049600 16787458.000000
57.070000 22127202.000000
67.054300 15515421.000000
67.989400 784113.500000
69.069900 546350.900000
70.065100 45809864.000000
82.065200 6650056.000000
83.073000 761315.600000
84.080800 503842080.000000
96.080800 1931208.000000
98.096500 244202976.000000
105.070000 1501957.400000
106.065400 529391.000000
107.073000 3777154.500000
112.112100 19528822.000000
123.080600 539223.000000
138.127800 2241243.800000
140.143400 366795232.000000

