>compound EQ32719849
>parentmass 288.1594
>ionization [M+H]+
>formula C17H21NO3
>rt 750.000000
>profile orbitrap
#smiles_iso CCC1=C2C(=CC=C1)C3=C(N2)C(OCC3)(CC)CC(=O)O
#smiles_can CCC1=C2C(=CC=C1)C3=C(N2)C(OCC3)(CC)CC(=O)O
#inchikey NNYBQONXHNTVIJ-UHFFFAOYSA-N
#pubchem_id 3308
#mb_accession EQ330801,EQ330802,EQ330803,EQ330804,EQ330805,EQ330806

>ms2
143.073100 2444512.500000
144.080900 949902.600000
156.080600 645738.100000
172.112100 626913600.000000
210.127800 5029337.000000
224.143100 2489341.200000
228.138400 6059018.000000
229.141800 4286326.000000
252.138400 3446668.000000
270.148900 67682184.000000
288.159400 43536568.000000

>ms2
143.073100 6830137.000000
144.080900 7264262.500000
156.080900 624601.600000
157.088700 952897.500000
168.080600 625320.700000
172.112100 602216640.000000
181.088200 616622.800000
182.096600 3507303.200000
195.104000 1744984.800000
196.112200 3087040.500000
197.120000 908718.000000
198.127500 744341.100000
200.143200 836294.400000
209.120200 728886.200000
210.127800 31488338.000000
211.135600 3519729.000000
223.099900 1436310.600000
224.143400 22184170.000000
226.122900 962409.400000
226.158900 4555095.500000
228.138400 10168798.000000
229.141800 4545069.000000
241.109600 1113861.200000
242.154100 1803334.900000
252.138400 16845512.000000
270.148900 54491724.000000
288.159400 2081959.500000

>ms2
79.054300 722343.200000
115.054000 553382.400000
117.057100 583121.100000
117.069900 2255584.200000
130.065100 2291526.800000
143.073000 52835064.000000
144.080800 66013160.000000
145.088700 777806.800000
145.101300 956653.000000
146.096500 545633.500000
155.085600 705426.900000
156.080800 1110465.400000
157.088600 6121393.000000
158.096300 2030678.600000
160.075700 574454.400000
167.072800 1175942.900000
168.080900 4945060.000000
170.096200 1037198.800000
171.104500 900316.100000
172.112100 490157184.000000
180.081000 2276065.200000
181.088600 8630107.000000
182.096500 14250549.000000
183.104400 647080.200000
184.111600 1050015.600000
185.119900 552025.800000
186.127800 746550.900000
194.096700 2090359.400000
195.104200 15593435.000000
196.112000 13411509.000000
197.119700 3592433.800000
198.091400 599578.400000
198.127600 2069385.100000
200.143400 2559577.200000
208.075800 794830.400000
208.112600 2044013.900000
209.120000 7143871.000000
210.127700 38394512.000000
211.099300 573683.200000
211.135700 8128848.000000
215.126700 956042.400000
222.127800 874815.500000
223.099100 3951037.200000
224.143400 36450968.000000
225.151100 781880.600000
226.086000 570628.600000
226.122800 1505104.200000
226.159000 2488869.000000
228.138300 9416605.000000
229.141800 4339322.000000
237.114600 1229109.400000
239.130200 647987.100000
241.109800 1454151.800000
242.154300 506439.700000
252.138300 7969639.000000
255.124900 1004657.300000
270.148800 5614180.500000

>ms2
79.054200 619627.600000
83.049200 341130.500000
90.046400 231694.000000
91.054000 289145.800000
115.053900 2032401.000000
116.049100 244806.700000
116.062100 1278133.900000
117.057300 2149752.500000
117.069800 10302797.000000
118.065100 888577.300000
128.062000 720466.800000
129.069700 740003.600000
130.065100 7004094.000000
131.073000 249809.900000
142.065300 1678901.800000
143.073000 188077232.000000
144.080800 151290656.000000
145.064700 896853.800000
145.088600 1052677.200000
145.101000 1522903.500000
146.060200 276414.700000
146.096300 743535.500000
153.069800 586027.400000
154.064900 975395.900000
155.060400 1456521.000000
155.073000 682206.800000
155.085500 1376414.000000
156.080800 4319146.500000
157.088600 24353184.000000
158.096500 3716742.500000
160.075500 603108.900000
167.073000 5469486.500000
168.080800 10159427.000000
169.088400 1502104.100000
170.096500 1891285.400000
171.104400 2283622.500000
172.112000 221916208.000000
173.115300 556865.200000
179.085500 504525.800000
180.080800 15770369.000000
181.088600 18495952.000000
182.096500 17703130.000000
183.067800 242177.400000
183.104300 897474.100000
184.112000 811655.300000
185.120100 1549251.500000
186.127600 1207826.800000
193.088600 594174.400000
194.096500 11460184.000000
195.104300 27344620.000000
196.112100 18144272.000000
197.119900 2678431.800000
198.091200 931016.100000
198.127900 1106314.000000
200.143400 1554525.900000
208.075900 1442878.600000
208.112200 4500824.000000
209.120000 11242057.000000
210.127800 22039570.000000
211.099300 699017.000000
211.136000 2993343.000000
215.126100 543358.900000
222.091400 1323470.200000
222.127800 1591566.200000
223.099300 2163010.500000
224.107000 1090177.800000
224.143300 10324766.000000
226.086300 854496.700000
226.122700 703225.200000
226.158900 229025.500000
228.138400 2916185.000000
229.141500 736411.000000
236.106500 227034.500000
237.114400 1316789.400000
238.122700 642298.900000
239.130400 666176.800000
241.109200 255807.500000
252.138300 1046024.200000

>ms2
79.054300 613198.700000
89.038300 982863.100000
90.046300 799135.400000
91.054100 1821363.600000
103.054200 1291381.500000
105.069800 329802.300000
115.054200 7750478.000000
116.062000 6171833.500000
117.057200 8481658.000000
117.069800 19084786.000000
118.065000 975725.900000
127.054200 656342.500000
128.049500 1113816.800000
128.061900 1611679.000000
129.069800 937375.200000
130.065100 8291819.500000
131.072900 661738.500000
142.065200 7208063.000000
143.073000 272900768.000000
144.080700 108930504.000000
145.064600 2764032.200000
145.088500 318223.200000
145.101000 871028.900000
146.060100 981848.100000
153.069800 773341.500000
154.065100 1880693.400000
154.077700 523399.500000
155.060400 4053487.800000
155.072800 1206803.900000
155.085600 1188195.900000
156.080800 14490582.000000
157.088600 34425828.000000
158.096400 4151384.500000
167.073000 13155823.000000
168.080800 12466832.000000
169.088500 1529310.500000
170.096200 2993676.500000
171.104600 2348638.000000
172.112000 52184684.000000
180.080700 33707724.000000
181.088500 21728406.000000
182.096500 12177167.000000
183.067800 642485.300000
183.104100 1063926.200000
184.112000 1440848.000000
185.120000 1084160.100000
186.127600 643130.400000
193.088400 1795677.600000
194.096400 24265956.000000
195.104200 16602935.000000
196.112000 11900806.000000
197.120300 963697.900000
198.091400 961631.200000
198.127700 765398.100000
199.094200 1085038.400000
200.143400 293841.400000
207.104200 633958.100000
208.075900 1479630.000000
208.112200 5978931.500000
209.119900 6534814.000000
210.127700 11831036.000000
211.099600 280494.100000
211.135100 761663.900000
222.091300 1535538.500000
222.127600 763323.000000
223.099000 778560.300000
224.107100 550510.900000
224.143300 1496106.900000
236.107000 649989.600000
238.122300 622216.200000

>ms2
66.046400 320478.700000
79.054300 1175600.500000
89.038500 1859364.000000
90.046400 3725646.200000
91.054200 3906655.800000
95.049200 1103405.000000
102.046400 522875.200000
103.054200 2884987.500000
104.049400 647679.200000
105.044700 306220.100000
115.054200 23842688.000000
116.049500 938804.200000
116.062000 17585206.000000
117.057300 25786246.000000
117.069800 21117848.000000
118.065000 1480395.800000
127.054300 1393292.600000
128.049400 3313660.000000
128.062000 2737688.500000
129.057200 766033.000000
129.069900 2959898.200000
130.065100 9375271.000000
131.072900 833518.300000
141.057200 684956.900000
141.069800 700073.500000
142.065300 24604498.000000
143.073100 277545600.000000
144.080700 51540088.000000
145.064700 3922738.500000
145.088500 486745.600000
146.060100 2716724.200000
152.061800 1206860.100000
153.069800 1916212.000000
154.065100 4104159.500000
154.077600 326975.000000
155.060400 5547744.500000
155.073000 1937944.900000
155.085500 578631.400000
156.080800 31964912.000000
157.088600 25953702.000000
158.096400 3491204.000000
160.075700 591615.900000
165.069900 1118689.200000
166.065200 1203777.100000
167.073000 23825148.000000
168.080800 10432575.000000
169.088800 1104255.400000
170.096400 2482471.000000
171.104700 1414157.600000
172.112000 7925619.000000
178.077600 559159.200000
179.072800 1817477.100000
179.085500 301863.900000
180.080700 53680216.000000
181.088600 18998642.000000
182.096500 8512327.000000
183.067800 291330.800000
183.104300 566581.000000
184.112300 1206614.900000
192.080800 1331005.400000
193.088700 4782212.500000
194.096400 30203442.000000
195.104200 8531851.000000
196.075500 791140.400000
196.112100 4913166.500000
198.127900 524455.600000
207.067700 600870.100000
207.104100 933355.800000
208.075700 691743.100000
208.112100 6081199.000000
209.119700 1533963.000000
210.127700 3757153.800000
222.091100 1021285.700000

