>compound EQ32263743
>parentmass 292.0968
>ionization [M+H]+
>formula C18H13NO3
>rt 432.000000
>profile orbitrap
#smiles_iso C1=CC=C2C(=C1)C=CC=C2NC(=O)C3=CC=CC=C3C(=O)O
#smiles_can C1=CC=C2C(=C1)C=CC=C2NC(=O)C3=CC=CC=C3C(=O)O
#inchikey JXTHEWSKYLZVJC-UHFFFAOYSA-N
#pubchem_id 8594
#mb_accession EQ309701,EQ309702,EQ309703,EQ309704,EQ309705,EQ309706

>ms2peaks
127.053800 1031502.900000
143.072700 614829.300000
144.080900 328619582.900000
149.023300 123557618.000000
167.033700 956877.000000
256.075600 754352.700000
274.086100 36313512.500000

>ms2peaks
65.038500 457768.000000
121.028400 769031.200000
143.072900 716826.700000
144.080800 232464389.800000
145.064600 568912.400000
149.023300 190958166.600000
155.060100 352734.600000
167.033900 1593062.100000
246.090900 1248937.300000
256.075600 11924736.900000
274.086100 50523894.600000

>ms2peaks
65.038500 2129822.800000
93.033400 991634.400000
103.054200 510261.900000
105.033500 1011629.600000
111.044000 641795.400000
117.069700 2087282.700000
121.028400 10359828.500000
121.039600 1174724.900000
127.054100 831831.600000
130.028800 1481463.200000
143.073000 2996548.500000
144.080700 190722395.700000
145.064700 5180633.400000
149.023300 214914199.500000
155.060200 3537063.700000
167.033800 1515325.900000
196.039700 316751.300000
227.072100 400010.500000
228.080300 686976.900000
246.091200 3651627.300000
256.075600 62422017.900000
274.086100 21035120.800000

>ms2peaks
65.038500 4807773.200000
93.033400 2856184.900000
95.049200 362209.000000
103.054200 1012578.200000
105.033400 1630043.300000
111.044000 2151859.900000
115.054100 503008.100000
117.069800 4524864.400000
121.028300 24856481.000000
121.039500 3442008.600000
127.054100 1974748.500000
128.062200 358181.700000
130.028700 3413252.200000
143.073000 6086932.500000
144.080700 137221549.600000
145.064700 15091634.100000
149.023300 169021510.900000
155.060300 8954034.700000
167.033800 1302134.700000
196.039100 236963.800000
201.069300 355925.200000
219.080700 600740.900000
227.072800 1358176.000000
228.080700 2186588.500000
246.091300 2991631.500000
256.075600 63600070.000000
274.086100 4951233.300000

>ms2peaks
65.038500 22023049.600000
77.038400 175073.300000
91.054100 206213.000000
93.033400 9211704.500000
95.049100 1228651.000000
98.036100 544956.600000
103.054200 2926788.200000
105.033500 1556794.700000
105.044800 432314.700000
111.044000 9221847.800000
115.054100 1288960.700000
116.049300 133240.700000
117.069800 10670695.500000
120.044300 386659.500000
121.028300 51306747.600000
121.039500 12109988.400000
126.046300 353980.800000
127.054200 7191589.800000
128.061900 1251259.700000
130.028700 4959889.800000
130.039900 824574.400000
140.049300 349618.900000
143.073000 14455874.900000
144.080700 88101376.900000
145.064700 39935543.000000
149.023300 115276422.800000
155.060200 24344789.900000
156.057300 152868.700000
167.033800 950972.200000
191.085400 331016.000000
200.061500 151938.100000
201.069800 1642914.000000
202.077200 635877.900000
205.064900 497515.100000
217.088500 993530.700000
218.096100 210232.800000
219.080400 4011598.200000
227.072800 8626953.600000
228.080700 7066139.100000
229.076100 1267961.900000
244.075700 415305.900000
245.083200 203646.800000
246.091200 1491347.100000
256.075600 39528481.100000
274.086500 683395.800000

>ms2peaks
51.022700 124930.700000
65.038500 49561544.400000
75.022800 207243.800000
77.038400 554906.800000
91.054100 710874.600000
93.033400 11602343.200000
95.049100 4046161.200000
98.036200 591894.400000
103.054200 4150274.700000
105.033400 707702.200000
105.044700 827927.400000
111.044000 15321275.800000
115.054100 2716886.900000
116.049500 147879.400000
117.069700 11974498.400000
120.044300 1562107.200000
121.028300 42815818.200000
121.039500 15478121.500000
126.046300 2621324.000000
127.054100 16182320.800000
128.061900 1602175.100000
130.028700 3589593.400000
130.040000 1967039.000000
140.049500 149418.000000
143.072900 19330724.100000
144.080700 37882030.200000
145.064700 55157767.800000
149.023200 48669573.100000
155.060200 32523143.900000
156.057200 156362.000000
167.034300 189880.500000
191.085700 398843.300000
200.061800 1550241.700000
201.069700 3074089.500000
202.077400 805325.000000
205.064700 838619.500000
217.088800 1377627.600000
218.096600 90618.600000
219.080400 6381052.800000
220.075700 723930.500000
227.072800 18434383.600000
228.080700 5842294.600000
229.076000 1556796.100000
244.075600 671205.300000
245.083700 572975.500000
246.091000 582382.300000
256.075600 11156462.000000

