>compound EQ32957389
>parentmass 564.3085
>ionization [M+H]+
>formula C30H46NO7P
>rt 996.000000
>profile orbitrap
#smiles_iso CCC(=O)OC(C(C)C)OP(=O)(CCCCC1=CC=CC=C1)CC(=O)N2C[C@@H](C[C@H]2C(=O)O)C3CCCCC3
#smiles_can CCC(=O)OC(C(C)C)OP(=O)(CCCCC1=CC=CC=C1)CC(=O)N2CC(CC2C(=O)O)C3CCCCC3
#inchikey BIDNLKIUORFRQP-FKDWWROVSA-N
#pubchem_id 55891
#mb_accession EQ332401,EQ332402,EQ332403,EQ332404,EQ332405,EQ332406

>ms2
152.143500 1962923.900000
372.207300 481956.400000
390.219100 19287112.000000
418.214200 75489152.000000
436.224600 176056256.000000
490.271800 561269.300000
492.251000 1245013.400000

>ms2
152.143400 87438520.000000
176.143400 780667.200000
179.061500 267961.400000
194.153900 1187111.500000
197.072600 1325410.800000
198.148800 1618314.600000
221.072600 5290125.500000
222.148700 288278.700000
239.082900 898419.700000
348.209000 1782393.000000
372.208700 19834070.000000
390.219200 153897072.000000
418.214000 27354374.000000
436.224500 21379678.000000

>ms2
67.054200 347078.700000
91.054200 314834.300000
94.065000 363628.300000
109.101100 543152.700000
129.069800 358822.800000
152.143500 214472432.000000
157.101000 1132154.100000
176.143400 2263020.500000
179.061900 725102.100000
194.154000 2018657.100000
197.072500 7798952.000000
198.148800 3205976.000000
221.072600 5459330.000000
222.149000 444722.500000
239.083000 1996806.000000
348.208700 2628546.200000
372.208300 1285013.000000
390.219100 9634226.000000

>ms2
55.054200 346186.200000
56.049500 347900.400000
67.054200 2345407.200000
68.049300 445873.200000
70.065100 2951306.200000
79.054200 801183.800000
81.069900 1821782.400000
83.085500 1233996.500000
84.080800 280001.500000
91.054200 3789486.500000
93.069800 1189017.800000
94.065100 1177097.200000
107.085600 807725.200000
109.101200 4581772.500000
117.069700 1214771.400000
119.025600 348205.000000
121.101100 569040.800000
123.116800 386526.000000
129.069900 1771791.100000
131.085500 792190.400000
135.116800 639577.200000
142.077900 256003.900000
143.085500 277936.200000
152.143500 228575840.000000
157.101100 1612468.200000
161.036100 275133.900000
161.051500 2067564.800000
176.143500 630697.000000
179.062000 3770164.800000
194.154000 2179514.800000
195.056800 303057.000000
197.072500 12083256.000000
198.148800 1703315.900000
203.062100 477268.400000
221.072700 2085298.500000
239.083300 1031074.100000

>ms2
55.054200 666162.000000
56.049500 1116708.200000
64.978700 389067.600000
65.038600 315354.400000
67.054200 9086248.000000
68.049300 714384.200000
69.069800 453991.500000
70.065100 8185290.500000
79.054200 1644716.900000
81.069900 6388969.500000
83.085500 3279436.200000
84.080800 370545.300000
91.054200 7581587.500000
93.069800 2396348.200000
94.065200 602984.500000
95.085500 479284.100000
105.069800 237199.400000
107.085500 1337248.800000
109.101200 9674319.000000
110.096400 307855.400000
115.054300 476889.400000
117.069900 2248857.800000
119.025500 452868.500000
121.101100 771984.100000
122.984100 329017.100000
123.116800 948639.100000
128.061800 844825.200000
129.069800 2191700.500000
131.085500 1666797.000000
133.020200 1575746.600000
135.116800 780376.300000
137.015100 251213.900000
142.077900 512475.500000
143.085600 356130.600000
151.031000 138837.900000
152.143400 120742304.000000
157.101100 251576.800000
161.036300 254425.800000
161.051400 4011189.200000
179.062000 3523327.200000
194.154100 702356.800000
197.072500 4565600.000000
198.149100 146224.000000
203.061800 240370.800000
221.072400 418936.600000

>ms2
53.038700 285466.100000
55.054300 1069885.900000
56.049500 1764683.200000
64.978700 638518.600000
65.038600 913937.800000
67.054200 17540782.000000
68.049400 1018212.500000
69.069800 643873.300000
70.065100 12352585.000000
74.023700 76767.900000
79.054200 3395509.200000
80.049500 224460.800000
81.069900 11911292.000000
83.085500 6009816.500000
84.080800 390616.100000
88.978600 127690.200000
91.054200 12825753.000000
93.069900 3512623.500000
94.065000 466591.500000
95.049100 543466.000000
95.085500 712180.100000
101.015000 116621.800000
105.044300 99321.500000
105.069800 294428.100000
107.085500 1462140.900000
109.101200 12140121.000000
110.096400 264970.200000
115.054200 1636639.500000
116.062100 392152.600000
117.069900 3696300.500000
119.025700 84780.600000
121.101200 542682.800000
122.984100 561900.600000
123.116800 975820.100000
125.015100 65202.700000
128.062100 1731185.500000
129.069900 2180900.500000
129.074300 113888.200000
130.077800 139053.800000
131.085600 1778379.800000
133.020200 3446000.000000
135.116700 620872.600000
137.015000 489558.500000
141.070000 433861.300000
142.077600 573500.800000
143.085900 121344.200000
146.028100 213775.300000
151.030900 297257.800000
152.143400 60297828.000000
159.020700 117305.200000
161.051500 4171497.800000
179.061900 1603042.100000
185.051500 98510.300000
194.154200 239690.100000
197.072600 1137902.400000

