>compound EQ34767261
>parentmass 251.1754
>ionization [M+H]+
>formula C14H22N2O2
>rt 300.000000
>profile orbitrap
#smiles_iso CCN(C)C(=O)OC1=CC=CC(=C1)[C@H](C)N(C)C
#smiles_can CCN(C)C(=O)OC1=CC=CC(=C1)C(C)N(C)C
#inchikey XSVMFMHYUFZWBK-NSHDSACASA-N
#pubchem_id 77991
#mb_accession EQ284401,EQ284402,EQ284403,EQ284404,EQ284405,EQ284406

>ms2peaks
58.028800 4905399.000000
86.059800 19529172.600000
206.117600 723414052.900000
208.132900 3907569.500000
224.128000 4807974.600000
251.175400 225585483.000000

>ms2peaks
58.028700 14730662.100000
58.065200 2781506.100000
86.060000 109130974.000000
93.069700 1471003.000000
121.101200 2266831.600000
149.059800 1546956.500000
149.096000 1349396.300000
178.122400 1669034.000000
206.117500 827947970.000000
208.132600 2220249.300000
224.128100 5533315.600000
251.175300 13016003.700000

>ms2peaks
56.049500 1066456.100000
58.028800 92340254.300000
58.065200 9173422.500000
79.054200 1850057.000000
86.060000 467657199.100000
93.069800 7327330.700000
105.069900 8776712.600000
107.085500 2133238.600000
114.055000 1314432.100000
121.064800 6960789.700000
121.101100 7757589.700000
131.085600 2404510.500000
135.080400 3178169.900000
149.059800 5349697.400000
149.096000 2748285.000000
162.127500 1329614.400000
178.122400 2228470.100000
206.117600 319764001.700000
224.128200 2747809.100000

>ms2peaks
58.028800 200755494.200000
79.054300 4679366.900000
84.044400 1046341.500000
86.060000 587413391.200000
91.054200 2564200.300000
93.069800 12147832.300000
95.049100 2013608.900000
103.054400 2977944.700000
105.069900 13436865.500000
107.085500 2075772.800000
114.054900 1133818.700000
121.064800 11937743.700000
121.101100 6449710.900000
131.085500 1815056.300000
135.080200 2695935.400000
149.059700 2326092.000000
149.096100 2389779.900000
178.122500 1344664.700000
206.117600 101795514.200000

>ms2peaks
58.028800 323397636.500000
77.038600 386279.200000
79.054200 8090309.400000
86.060100 374669120.100000
91.054200 4746605.900000
93.069900 10051487.300000
95.049200 3880877.900000
103.054300 6848030.300000
105.069900 11041570.600000
107.085700 482429.300000
120.057000 497205.700000
121.064800 12375227.200000
121.101100 2175383.700000
131.085900 414390.000000
135.080500 1766151.100000
206.117500 7822855.700000

>ms2peaks
58.028800 377448089.300000
77.038600 1309194.000000
79.054200 8370581.000000
86.060000 157442011.100000
91.054200 6592555.200000
93.069900 6791005.600000
95.049100 9153181.400000
103.054200 10210546.700000
105.044700 1980894.100000
105.069900 6908789.900000
120.057000 1333489.700000
121.064800 5983698.300000
135.080400 580063.400000

