>compound EQ35329173
>parentmass 304.202
>ionization [M+H]+
>formula C17H25N3O2
>rt 132.000000
>profile orbitrap
#smiles_iso C1C[C@H](N(C1)C(=O)CNC23CC4CC(C2)CC(C4)(C3)O)C#N
#smiles_can C1CC(N(C1)C(=O)CNC23CC4CC(C2)CC(C4)(C3)O)C#N
#inchikey SYOKIDBDQMKNDQ-XWTIBIIYSA-N
#pubchem_id 6918537
#mb_accession EQ314601,EQ314602,EQ314603,EQ314604,EQ314605,EQ314606

>ms2
70.065000 573989.900000
93.069900 548092.600000
95.049300 286711.000000
97.075900 1439676.600000
127.086500 904275.600000
151.111600 3973191.200000
154.097500 73410408.800000
304.202100 177237511.600000

>ms2
59.049200 362017.900000
70.065100 5172244.700000
93.069800 3337478.600000
95.049000 1249633.300000
97.076000 13032612.200000
107.085500 1478180.200000
109.064800 289500.500000
127.086500 2810151.700000
133.101200 1353283.400000
151.111900 32249759.100000
154.097600 174330724.000000
304.202100 35170452.800000

>ms2
59.049200 1572705.600000
67.054200 128076.100000
69.070000 96175.700000
70.065100 15210474.800000
77.038600 211147.200000
79.054200 233378.100000
81.069900 1319474.400000
91.054200 1121991.100000
93.069900 18964992.400000
95.049100 7331428.800000
97.076000 53872222.900000
99.091700 417420.600000
105.069900 479897.900000
107.085500 8947172.300000
109.064800 2186903.800000
109.101200 292042.200000
123.116800 672694.900000
127.086500 3031741.700000
133.101200 6113971.000000
151.111800 42644647.700000
154.097500 87079806.900000
304.202000 1410604.100000

>ms2
55.029200 217999.500000
59.049200 1976587.600000
67.054300 250098.400000
69.033500 66604.900000
69.069900 200010.500000
70.065100 15765721.600000
71.049100 235382.900000
77.038600 279943.600000
79.054200 518684.000000
81.069900 2453995.000000
83.049200 113500.800000
91.054200 2826632.600000
93.069900 31593311.900000
95.049200 13043283.800000
97.076000 66353220.400000
99.091800 332220.200000
105.044700 286278.100000
105.069900 1324856.300000
107.085600 11708235.500000
109.064800 4149047.300000
109.101200 524248.100000
123.116800 1025251.800000
127.086500 2291235.600000
133.101200 7733970.700000
151.111800 27905696.800000
154.097500 35770693.800000

>ms2
55.029200 396918.700000
59.049200 2051703.500000
67.054200 985289.900000
69.033500 363855.500000
69.069900 90759.700000
70.065100 14754666.800000
71.049200 110047.200000
77.038500 735098.700000
79.054200 1496596.600000
81.069900 3823265.300000
83.049200 88950.300000
91.054200 5787830.900000
93.069900 43728855.100000
95.049100 21835001.200000
97.076000 66087121.000000
105.044800 910105.400000
105.069900 2634110.500000
107.085600 12678680.200000
109.064800 6072762.100000
109.101100 610459.400000
119.060300 70983.400000
123.116800 644565.800000
127.086600 878644.500000
133.101200 5661163.700000
151.111800 10204571.800000
154.097600 6926532.000000

>ms2
55.029200 863420.700000
59.049200 1883451.800000
65.038600 288211.700000
67.054200 1434022.700000
69.033500 452086.600000
69.069800 51116.200000
70.065100 10638803.300000
71.049200 141010.200000
77.038600 1693205.200000
79.054200 2060376.900000
81.069900 4165425.000000
83.049200 89949.700000
91.054200 9652984.900000
93.069900 39351422.600000
95.049100 27156962.700000
97.076000 47697355.000000
105.044800 2194497.300000
105.069900 3745730.500000
107.085600 9162866.900000
109.064800 6698895.500000
109.101200 639057.200000
119.060400 297760.300000
123.080300 104789.100000
123.116700 424783.900000
127.086500 106244.600000
131.085600 115353.100000
133.101200 3065252.100000
151.111800 2490000.000000
154.097500 821914.900000

