>compound EQ35194736
>parentmass 419.2792
>ionization [M+H]+
>formula C25H38O5
>rt 960.000000
>profile orbitrap
#smiles_iso CCC(C)(C)C(=O)O[C@H]1C[C@H](C=C2[C@H]1[C@H]([C@H](C=C2)C)CC[C@@H]3C[C@H](CC(=O)O3)O)C
#smiles_can CCC(C)(C)C(=O)OC1CC(C=C2C1C(C(C=C2)C)CCC3CC(CC(=O)O3)O)C
#inchikey RYMZZMVNJRMUDD-HGQWONQESA-N
#pubchem_id 54454
#mb_accession EQ314401,EQ314402,EQ314403,EQ314404,EQ314405,EQ314406

>ms2peaks
69.069600 84830.500000
71.085400 299069.300000
79.054100 1658905.400000
81.069700 901430.800000
83.049000 670759.800000
83.085300 60959.100000
85.064800 128826.300000
89.023200 76449.400000
95.085400 147940.000000
97.064700 612937.500000
99.080300 139071.900000
101.059500 68941.800000
105.069700 329694.900000
107.049000 1331068.600000
107.085400 1286876.800000
109.101300 83289.500000
111.080200 154399.500000
119.085200 140287.400000
121.100900 371181.400000
125.059500 1915659.800000
127.075100 260671.900000
131.085300 694139.100000
133.100900 289983.800000
143.070100 5587670.700000
143.085100 460687.600000
145.101000 1298953.700000
147.116700 154554.800000
157.100900 1005005.000000
159.116600 2103239.600000
161.132400 130081.800000
163.111100 64617.100000
169.100700 794606.400000
171.116600 1413471.600000
173.132200 15672052.900000
183.116900 275764.500000
185.132200 548218.300000
187.111500 137082.200000
189.091000 338091.100000
191.106600 932356.100000
197.132300 354281.600000
199.147800 43113532.900000
201.163400 7374083.200000
203.106600 147607.600000
205.121900 488671.800000
207.116400 94612.500000
209.117000 1112910.000000
211.111600 150388.900000
211.147700 465270.100000
213.162800 110378.600000
215.106800 69015.500000
215.179400 454229.200000
217.121800 77429.500000
223.147800 3135451.300000
225.163400 18652797.900000
229.122000 475789.400000
239.179100 4843493.300000
241.158300 321813.600000
243.174100 27130981.800000
249.163500 6017087.500000
257.153600 415427.900000
267.174100 16997607.400000
285.184600 38581531.900000
303.195100 13373307.300000

>ms2peaks
67.054200 340526.500000
69.069700 759271.000000
71.012700 86823.100000
71.049100 307987.000000
71.085400 550154.700000
79.054100 3819434.800000
81.069800 3215057.800000
83.049000 1692304.600000
83.085400 332358.400000
85.064700 818877.200000
89.023200 484475.700000
91.054100 148655.100000
93.069700 1068113.500000
95.085400 900041.800000
97.064700 2167322.900000
99.080400 78136.000000
101.059700 83229.700000
105.069700 2150458.000000
107.049000 795601.200000
107.085400 3490793.900000
109.064600 289931.000000
109.101000 641213.100000
111.080200 355542.300000
117.069600 149646.500000
119.085300 1423628.300000
121.100900 1374099.400000
123.080000 75035.300000
125.059500 1187374.300000
127.075200 450650.000000
129.069900 119277.600000
131.085400 2316665.200000
133.101000 1409228.300000
135.079900 99207.900000
135.116700 347688.000000
141.069600 270563.800000
142.077600 80995.000000
143.070200 1409667.300000
143.085400 3011811.900000
145.101000 4122666.000000
147.080400 83063.800000
147.116600 826052.700000
149.095800 123765.800000
151.075200 585869.600000
155.085200 903264.500000
156.092800 111414.900000
157.101000 3918667.800000
158.108800 290297.700000
159.116600 6196047.700000
161.132000 525036.800000
163.075000 96899.100000
163.111500 316595.000000
165.090800 477510.600000
168.093400 69572.300000
169.100900 4298648.200000
171.116600 5873689.100000
173.132200 23375642.900000
177.090700 310388.700000
181.101200 583953.600000
183.116700 2597610.800000
185.132300 1513570.300000
187.111500 361191.200000
189.090800 380006.400000
191.106400 2333706.300000
193.100900 443181.600000
195.116900 368759.200000
197.132200 2564101.300000
199.147800 38865259.400000
201.163500 8011285.100000
203.106100 393872.700000
205.122300 893194.700000
207.116500 1083116.600000
209.117200 326280.400000
209.131900 273141.700000
211.111300 674716.200000
211.147900 1616353.400000
213.163900 318437.200000
215.106900 109305.300000
215.179200 1370516.700000
217.122000 123425.500000
220.124400 166200.700000
221.132400 388729.900000
223.147800 4771398.600000
225.163400 23803822.200000
229.121800 1202339.400000
234.140300 270118.100000
239.143500 617130.700000
239.179100 5673785.800000
241.158400 146243.900000
243.174100 12499027.700000
249.163500 6890919.200000
257.153500 89453.500000
267.174200 5582100.300000
285.184600 6247793.400000
303.194800 1473395.700000

>ms2peaks
65.038400 87970.500000
67.054100 1023307.000000
68.997000 307117.700000
69.033300 83470.800000
69.069800 1417095.900000
71.012700 441129.100000
71.049000 383446.700000
71.085400 370010.200000
77.038500 103794.000000
79.054100 5746627.800000
81.069700 5712785.700000
83.049000 2623056.300000
83.085400 277005.400000
85.064600 1166432.700000
89.023200 395795.600000
91.054100 1017276.300000
93.069700 2480335.800000
95.049000 412265.200000
95.085400 1691437.200000
97.064600 2130675.600000
103.054200 72114.200000
105.069700 5479324.500000
107.085400 4020973.700000
109.064700 421826.800000
109.100900 568429.700000
111.080300 158613.200000
115.053700 295415.400000
117.069600 1067447.100000
119.085300 2761756.500000
121.064300 108071.000000
121.100900 1732487.900000
123.080300 98230.900000
125.059500 408802.400000
127.075200 61233.600000
128.061900 668895.700000
129.069700 856661.700000
130.077700 144062.700000
131.085300 6940316.700000
133.064900 76793.600000
133.100900 1529924.900000
135.080300 337549.000000
135.116800 317814.700000
141.069700 455654.300000
142.077600 972354.900000
143.085400 13914127.300000
144.093000 546295.100000
145.101000 8631700.400000
147.080300 297364.700000
147.116700 717515.900000
149.096000 429233.100000
151.075400 479555.300000
155.085300 3317507.400000
156.093200 1234489.900000
157.101000 7696029.900000
158.108800 1854816.000000
159.116600 9902604.200000
160.124300 140630.400000
161.095700 116634.300000
161.132300 337046.200000
163.111500 321579.300000
165.090900 327328.500000
167.085300 314155.300000
168.093200 327205.900000
169.100900 7618077.700000
170.108700 93503.900000
171.116500 7849048.500000
173.132200 20265737.300000
177.090800 105279.500000
179.085600 192813.500000
181.100800 1180530.500000
182.108700 144140.100000
183.116600 5526212.400000
184.124500 366108.800000
185.132200 1762871.500000
187.111500 316586.500000
191.106500 1046467.200000
192.093200 144600.400000
193.100900 871955.000000
194.108700 136536.900000
195.116600 867244.000000
196.124300 398741.400000
197.132200 3924169.100000
198.140200 428382.100000
199.147800 25605785.900000
201.163400 2796433.500000
203.106200 144368.300000
205.100900 271055.000000
205.122200 282601.700000
207.116400 1608104.700000
208.124000 125188.400000
209.131600 107489.800000
210.140300 506332.700000
211.111500 575816.700000
211.147900 1713814.400000
215.179100 540032.800000
217.122300 77387.500000
219.116700 425911.900000
220.125000 155904.800000
221.131800 483353.700000
223.147800 3339330.600000
225.163400 12818281.000000
229.122200 506153.100000
234.139600 726791.800000
239.142200 104253.400000
239.179300 1346920.100000
243.174200 1806394.300000
249.163600 2005059.200000
267.173500 536637.600000
285.184600 381044.000000

>ms2peaks
65.038500 103059.000000
67.054100 1468012.000000
68.997000 191446.600000
69.033500 114932.900000
69.069800 1417604.500000
71.012700 425558.600000
71.049000 366293.100000
71.085400 161908.400000
77.038400 130316.200000
79.054100 6678824.200000
81.069800 5912919.800000
83.049000 2174174.300000
83.085400 318237.500000
85.064600 693335.900000
89.023200 376825.700000
91.054100 2260611.500000
93.069700 3029719.100000
95.049000 620190.200000
95.085400 1614323.600000
97.064700 1356634.900000
105.069700 7270946.700000
107.085400 3650480.500000
109.064500 524588.400000
109.101100 419742.700000
115.054000 456191.800000
116.061700 73840.800000
117.069700 1637835.100000
119.085300 3724117.600000
121.064700 74488.000000
121.100900 1267993.800000
123.080000 92917.400000
125.059700 85219.400000
128.061900 1428854.300000
129.069700 1986777.300000
130.077600 547814.500000
131.085400 8689159.000000
133.064500 126974.500000
133.101100 1472150.500000
135.080500 135847.600000
135.116600 79469.100000
141.069600 1079682.800000
142.077700 2424727.600000
143.085400 20654638.300000
144.093300 1612778.000000
145.101000 9772026.400000
147.080200 113880.000000
147.116800 464146.100000
149.096000 349200.000000
151.075200 112154.300000
153.069500 135732.100000
154.077400 367212.200000
155.085300 4392816.700000
156.093100 2546029.000000
157.101000 7913565.100000
158.108800 3400346.400000
159.116600 8230675.100000
161.095600 100969.700000
161.132400 282821.400000
163.074900 72065.200000
163.111500 256397.300000
165.069200 110721.800000
165.090700 68737.900000
166.078000 99043.200000
167.085300 452292.800000
168.093000 711698.800000
169.101000 8046071.500000
170.108600 596960.600000
171.116600 6797440.000000
173.132200 12355503.700000
177.090700 71901.700000
179.085400 365221.400000
180.092500 103558.800000
181.100900 1559994.000000
182.108700 592448.200000
183.116600 5396410.000000
184.124500 405449.700000
185.132500 1063283.900000
187.111800 128781.100000
191.106500 458704.200000
192.093000 395158.700000
193.100700 870702.700000
194.109200 263186.600000
195.116600 982647.800000
196.124500 814169.700000
197.132200 3296270.500000
198.140000 132329.800000
199.147800 13078470.800000
201.163500 1298508.300000
203.106400 82409.300000
205.100900 296325.200000
206.108900 144572.300000
207.116600 1292532.200000
208.124600 146100.100000
209.131900 121484.300000
210.139700 533958.900000
211.111700 287276.200000
211.148000 999807.700000
213.163600 121151.800000
215.179300 285893.200000
219.116500 513875.400000
220.124900 146802.600000
221.132000 469324.200000
223.148000 2183650.300000
225.163500 6436987.400000
229.122100 98967.100000
234.140100 344824.700000
239.143800 115483.300000
239.179100 162331.000000
243.174500 153212.100000
249.163400 403218.700000

>ms2peaks
65.038400 503622.100000
67.054100 2533827.700000
68.997000 447865.900000
69.033300 136953.200000
69.069800 1265661.000000
71.012700 536409.100000
71.049000 315685.000000
71.085400 281592.300000
77.038400 387433.500000
79.054100 8626545.800000
81.069700 7233057.400000
83.049000 1698387.700000
85.064600 489301.500000
89.023200 111073.400000
91.054100 5786792.900000
93.069700 3895091.800000
95.049000 1388733.900000
95.085400 1378200.400000
97.064700 764851.000000
103.054000 492566.900000
105.044500 547087.500000
105.069700 10890042.700000
107.085400 2772524.300000
109.064600 622252.000000
109.100900 270934.700000
115.054100 1201559.300000
116.061800 626112.700000
117.069600 3488841.700000
118.077700 62926.600000
119.085300 5352217.900000
121.064500 109173.900000
121.100900 622178.200000
123.080200 123781.700000
128.061800 6373247.500000
129.069600 4817477.600000
130.077600 1868478.800000
131.085300 11159050.300000
133.064600 123329.700000
133.101000 1084744.600000
135.079900 82854.200000
141.069600 2864796.900000
142.077600 6520370.900000
143.085400 26258128.000000
144.093200 3171972.300000
145.064600 410778.600000
145.101000 8089470.600000
147.080100 256247.500000
147.116700 291291.700000
149.096100 274908.300000
153.069700 986665.200000
154.077600 1748276.800000
155.060300 585889.200000
155.085300 6105309.200000
156.093200 4019110.800000
157.101000 6215828.500000
158.108800 4604944.700000
159.116600 4896667.300000
160.124600 99766.600000
161.095700 93760.500000
165.069800 507135.300000
166.077700 320487.200000
167.085200 878603.000000
168.093100 2287403.800000
169.100900 8206010.200000
170.108600 579209.800000
171.116600 4153570.200000
173.132200 5255294.300000
178.077400 404192.100000
179.085300 793930.900000
180.093200 275016.600000
181.100900 2167592.800000
182.108900 1001462.000000
183.116700 4313848.200000
184.124600 586311.300000
185.132300 454334.400000
191.085800 91167.800000
192.093000 677265.200000
193.101100 1081547.400000
194.108800 339830.400000
195.116700 916688.600000
196.124500 653458.800000
197.132100 1437236.400000
198.140100 102913.000000
199.147900 3314002.500000
201.163600 113839.600000
205.101200 447848.900000
206.108900 125030.400000
207.116600 572544.700000
208.124500 374453.500000
209.132400 247311.500000
210.140200 697754.700000
211.111000 132453.300000
211.148000 356650.600000
219.116000 559788.200000
221.132100 120273.400000
223.147900 858416.500000
225.163600 1521990.000000
234.140300 102833.900000

>ms2peaks
65.038400 735191.400000
67.054100 2855494.100000
68.997000 585222.900000
69.033400 161069.200000
69.069700 800263.400000
71.012500 376327.300000
71.049000 308146.900000
71.085400 120884.500000
77.038500 721106.900000
79.054100 8347037.100000
81.069700 6154410.400000
83.049000 1510609.400000
85.064700 142610.700000
91.054000 11159118.800000
93.069700 3287952.600000
95.048900 2154792.100000
95.085400 908896.600000
97.064700 363911.000000
103.054100 1074232.700000
105.044600 1076989.400000
105.069700 12086417.500000
107.085400 1097307.900000
109.064600 553779.100000
109.101100 267131.200000
115.053900 3384993.200000
116.061700 1616663.500000
117.069600 4384456.500000
118.077500 146200.200000
119.085300 5240569.800000
121.064500 93184.600000
121.100900 186266.900000
128.061800 13352841.800000
129.069600 8977776.700000
130.077500 2858824.400000
131.085300 8332543.900000
133.101000 856971.200000
141.069600 6674925.300000
142.077600 8406607.200000
143.085400 21513776.900000
144.093100 3309523.000000
145.064500 842244.900000
145.101000 5229035.700000
147.080400 75676.700000
153.069600 2322429.400000
154.077400 2806554.100000
155.060200 993383.900000
155.085300 6137477.700000
156.093100 3817497.000000
157.100900 3478724.500000
158.108800 3020802.200000
159.116600 1859451.800000
165.069600 1210188.700000
166.077500 834138.100000
167.085300 1966196.500000
168.093100 2646045.300000
169.100900 5346735.100000
170.108500 562506.500000
171.116600 1494008.500000
173.132200 1370312.800000
178.077300 612691.900000
179.085200 767085.200000
180.093000 414423.100000
181.100900 1872705.700000
182.108900 720290.100000
183.116600 1693257.000000
184.124400 278588.600000
191.085100 442401.700000
192.093300 571798.100000
193.101000 1131520.300000
194.108700 147992.000000
195.116500 1228610.600000
196.124300 148792.400000
197.132400 567278.400000
198.139700 71233.400000
199.148200 281628.200000
205.101100 367648.900000
207.116800 317445.100000
208.124600 117469.000000
210.139800 281505.200000
219.116600 379209.000000
225.163700 111404.700000

