>compound EQ35719779
>parentmass 360.1565
>ionization [M+H]+
>formula C15H22FN3O6
>rt 468.000000
>profile orbitrap
#smiles_iso CCCCCOC(=O)NC1=NC(=O)N(C=C1F)[C@H]2[C@@H]([C@@H]([C@H](O2)C)O)O
#smiles_can CCCCCOC(=O)NC1=NC(=O)N(C=C1F)C2C(C(C(O2)C)O)O
#inchikey GAGWJHPBXLXJQN-UORFTKCHSA-N
#pubchem_id 60953
#mb_accession EQ284501,EQ284505,EQ284506

>ms2
71.085500 554595.200000
130.040800 2108099.900000
174.030700 13843330.300000
244.109000 253568325.700000
328.061800 286897.700000
346.071200 358009.200000
360.156100 4262104.900000

>ms2
53.002300 605833.500000
58.008700 135184.500000
60.024400 124828.900000
71.085500 962103.400000
73.028400 1199282.000000
85.019600 627113.400000
87.035200 5459259.900000
112.030500 1914695.400000
113.014500 9526002.400000
130.041100 99815843.900000
131.024900 637280.500000
156.020200 3221129.700000
174.030800 4725062.300000
204.009200 288522.400000

>ms2
53.002300 592800.000000
58.008700 602021.900000
59.049200 87326.200000
60.024400 738211.300000
67.029000 466612.500000
69.008300 110215.700000
71.085500 448131.900000
73.028300 1145959.700000
85.019600 2484787.200000
87.035200 10037588.300000
103.030100 126148.300000
112.030500 5980668.200000
113.014500 22429048.300000
130.041100 68852953.300000
131.025000 1086359.100000
156.020200 1797470.000000
174.030700 601280.300000

