>compound EQ36105902
>parentmass 926.5108
>ionization [M+H]+
>formula C47H75NO17
>rt 696.000000
>profile orbitrap
#smiles_iso C[C@H]1/C=C/C=C/CC/C=C/C=C/C=C/C=C/[C@@H](C[C@H]2[C@@H]([C@H](C[C@](O2)(C[C@H]([C@@H](CC[C@H](C[C@H](C[C@H](CC(=O)O[C@H]([C@@H]([C@@H]1O)C)C)O)O)O)O)O)O)O)C(=O)O)O[C@H]3[C@H]([C@H]([C@@H]([C@H](O3)C)O)N)O
#smiles_can CC1C=CC=CCCC=CC=CC=CC=CC(CC2C(C(CC(O2)(CC(C(CCC(CC(CC(CC(=O)OC(C(C1O)C)C)O)O)O)O)O)O)O)C(=O)O)OC3C(C(C(C(O3)C)O)N)O
#inchikey VQOXZBDYSJBXMA-NQTDYLQESA-N
#pubchem_id 11286230
#mb_accession EQ314001,EQ314002,EQ314003,EQ314004,EQ314005,EQ314006

>ms2
67.054200 134946.200000
69.033200 33286.300000
69.069800 95766.100000
71.012400 28130.100000
71.049000 293548.000000
79.054100 167547.000000
81.033400 227640.300000
81.069700 211542.100000
83.049000 48429.300000
83.085500 31460.000000
85.028400 42313.700000
85.064700 110505.100000
91.054000 253733.000000
93.069800 430791.200000
95.012600 35831.500000
95.049000 224993.600000
95.085500 343905.500000
97.028200 53402.100000
97.064600 133305.700000
97.101000 164623.600000
99.043900 134505.700000
105.069900 336304.900000
107.049000 49082.600000
107.085500 744642.000000
109.064700 97578.700000
109.101100 1212312.700000
110.104600 34771.300000
111.043900 37883.000000
111.080300 261946.400000
113.023000 28807.200000
113.059500 126848.600000
113.096000 464964.600000
117.069700 346697.500000
119.085400 528118.300000
121.064700 146396.200000
121.101100 708424.600000
123.043900 145755.900000
123.080200 255198.100000
123.116700 556828.600000
125.059400 93961.000000
125.096000 1613128.000000
127.075200 40756.000000
129.054400 110393.700000
129.069700 203539.700000
131.085500 479151.400000
133.064500 160205.900000
133.101200 464956.800000
135.080300 228583.200000
135.116700 1149460.000000
136.120000 27725.100000
137.059600 46642.700000
137.095900 150084.100000
137.132400 94602.100000
139.038700 119315.100000
139.075300 207713.500000
139.111500 191294.400000
141.054500 193437.500000
141.069600 86047.200000
141.090700 43766.000000
143.085500 216973.200000
145.064700 90978.200000
145.101200 474769.400000
146.081500 26086.500000
147.044100 32798.300000
147.080500 104803.300000
147.116800 429706.900000
148.119900 32698.600000
149.059600 35892.500000
149.096100 157300.500000
149.132500 166390.800000
151.075400 236253.500000
151.111700 1537160.000000
152.114800 44031.000000
153.090800 196527.600000
153.127200 42229.600000
155.070100 208351.800000
155.085500 226993.500000
157.064800 33869.500000
157.085900 49377.100000
157.101100 308142.600000
159.065000 109807.500000
159.080200 90981.200000
159.116800 511529.300000
161.132400 1085697.500000
162.135800 28850.900000
163.075300 246811.500000
163.111500 111228.100000
163.148200 85585.400000
165.054700 29113.600000
165.091200 170022.700000
165.127100 27978.400000
167.070200 483689.900000
167.085200 114950.500000
169.085800 212692.700000
169.101100 272022.700000
171.079700 35794.800000
171.116600 372276.300000
173.095900 143662.100000
173.132500 551726.700000
175.075400 196232.400000
175.111500 53193.800000
175.148100 415472.900000
177.090700 109254.800000
177.127300 141116.800000
177.163300 20875.700000
179.070500 243957.900000
179.085000 64323.700000
179.143100 286918.600000
181.085700 550022.100000
181.101100 169207.300000
183.079900 33922.000000
183.101500 42111.700000
183.116700 250647.900000
184.121200 27016.700000
185.059400 25840.600000
185.080800 155830.500000
185.095900 87300.100000
185.132500 492644.600000
187.075800 87057.200000
187.111000 43745.400000
187.148100 381576.000000
189.090800 195954.700000
189.127300 41092.300000
189.163500 154181.200000
191.070100 92985.000000
191.106600 207763.600000
193.086100 297156.400000
193.100800 37921.200000
195.065400 45445.600000
195.101600 117232.300000
195.116800 251567.200000
197.080700 680730.500000
197.095400 58581.600000
197.132600 327347.400000
199.075000 79283.600000
199.096500 714347.000000
199.110900 157906.800000
199.148000 622962.600000
201.090700 201445.700000
201.127200 89693.200000
201.163700 495709.900000
203.106400 46626.700000
203.142900 130491.700000
203.179500 121018.500000
205.086100 111273.700000
205.101200 28014.500000
207.064300 29074.700000
207.079900 21533.900000
207.101700 365541.700000
207.116900 166724.400000
209.080900 231288.900000
209.095900 35645.600000
209.117000 40057.000000
209.132500 208800.500000
211.075200 28311.800000
211.096400 296680.100000
211.112000 38095.600000
211.148000 312714.100000
213.091200 91445.000000
213.127300 141721.600000
213.163800 639174.500000
215.091600 438598.600000
215.106800 188643.600000
215.143100 100929.300000
215.179400 335493.300000
217.086400 185216.000000
217.122100 43924.700000
217.158500 310003.800000
219.101400 162979.400000
219.117200 109436.500000
221.079800 19985.800000
221.096300 30699.800000
221.132600 192473.400000
223.096400 30797.100000
223.111600 109472.700000
223.148500 203671.800000
224.151300 24491.900000
225.090800 49127.900000
225.112100 855200.600000
225.126700 90319.800000
225.163800 403134.300000
226.115500 53406.300000
227.106500 81154.600000
227.127900 123432.600000
227.179400 414020.600000
229.107100 560215.720000
229.122700 38039.400000
229.158400 98855.400000
229.194900 61742.800000
231.101200 138186.100000
231.174300 335630.300000
233.117200 216700.500000
233.132100 123259.400000
235.096500 238853.300000
235.133400 23272.600000
235.147600 171776.100000
237.111900 151317.700000
237.127600 106501.000000
237.163700 285811.800000
239.106500 28206.200000
239.143400 39535.700000
239.179400 414349.100000
241.086100 28321.500000
241.122100 107404.000000
241.158700 106815.100000
241.195200 341327.700000
243.101600 186047.100000
243.174500 192083.000000
245.117500 108053.000000
245.132500 36984.300000
247.096800 43194.600000
247.147900 106497.300000
249.091400 27983.300000
249.112400 125059.400000
249.127300 98209.000000
249.163800 180667.400000
251.106900 42465.300000
251.127800 373158.500000
251.179500 295091.900000
253.106900 515736.800000
253.121900 101688.000000
253.158700 33072.200000
253.195000 243823.100000
255.101900 49058.700000
255.122600 306770.200000
255.174100 118412.400000
257.117000 102746.700000
257.153900 23873.200000
257.189900 205755.100000
259.097100 23569.100000
259.132800 60645.500000
259.147800 30582.500000
261.112100 362294.800000
261.163600 118563.800000
263.106700 27606.000000
263.127900 115596.200000
263.142100 47271.700000
263.178900 189222.700000
265.122200 90924.100000
265.158500 89160.100000
265.195400 281901.900000
267.101400 108027.800000
267.122900 237762.600000
267.138100 137386.600000
267.174400 136679.500000
267.210700 272573.200000
269.116700 109762.800000
269.138500 1385078.500000
269.190200 308732.500000
271.133100 92187.500000
271.147800 29680.600000
273.148400 73443.000000
273.162900 64054.500000
275.128000 184571.200000
275.142200 57409.300000
275.179300 97671.100000
277.107100 117055.800000
277.122200 86378.300000
277.158500 33561.400000
277.195000 88710.600000
279.122800 2578513.300000
279.138100 146533.000000
280.125700 172355.100000
281.117000 74376.900000
281.153900 134891.200000
281.190400 111596.600000
283.132500 99054.000000
283.169400 43888.300000
283.205700 243193.500000
285.112000 248753.700000
285.148500 38416.900000
285.163400 38890.500000
286.115300 36261.500000
287.128200 113973.900000
289.107200 44482.700000
289.143800 115838.800000
289.158500 45033.000000
289.195300 115653.000000
291.138300 93009.400000
291.174500 47180.800000
291.210500 297100.800000
293.117600 42107.100000
293.137900 77625.900000
293.153800 115357.700000
293.189700 47566.500000
293.226400 160669.600000
295.117400 149643.900000
295.133200 94423.300000
295.169500 27096.300000
295.206000 50341.300000
297.133300 11378421.000000
298.136700 651769.600000
299.128500 36402.700000
299.179100 42929.500000
301.106800 82743.200000
301.142800 84175.100000
301.160200 91996.400000
303.122600 816622.600000
303.137400 73103.000000
303.174500 51315.200000
305.137800 110192.800000
305.153600 129909.600000
305.190800 45773.900000
305.226100 43050.200000
307.133400 42104.300000
307.169100 86928.800000
307.205400 84286.700000
309.148700 138276.600000
309.184900 94581.700000
309.221300 253931.200000
311.126900 38717.600000
311.164600 94268.700000
311.200200 31659.900000
311.237200 104083.200000
313.143900 95169.400000
313.196200 42664.400000
315.143800 3902767.086000
317.137500 105853.500000
317.190600 43695.000000
317.226200 216251.100000
319.117100 379792.300000
319.132900 39863.100000
319.169700 104138.700000
319.241800 40241.700000
321.133200 3969187.400000
323.128000 29757.700000
323.164500 75580.600000
323.200600 26267.900000
325.143400 50265.000000
327.158900 106208.000000
327.175500 27945.800000
329.138100 124187.600000
329.227000 43806.600000
331.116800 419699.300000
333.185900 62656.000000
333.220900 114818.500000
335.164400 112447.600000
335.237000 775942.400000
337.127600 633238.300000
337.144000 63685.800000
337.179200 61727.800000
337.252300 144866.800000
339.143700 5621509.300000
341.137400 39643.800000
341.174400 79492.700000
341.225900 44520.200000
343.169100 96877.900000
343.206200 49100.500000
343.241200 32035.800000
345.151300 35124.700000
345.185600 52056.600000
345.219900 26743.700000
347.165800 32079.300000
347.200200 80807.500000
349.127700 608713.800000
349.180000 112841.000000
349.215400 44231.100000
350.132500 41896.600000
351.160200 37434.900000
353.174700 137111.600000
353.247300 2096479.000000
355.138100 1108563.459000
355.242600 66846.700000
357.133200 101885.500000
359.167100 33376.000000
359.200400 103292.900000
359.236600 254066.500000
361.180900 48581.200000
361.216900 93174.300000
361.252600 124919.200000
363.160100 53390.500000
363.195900 34178.000000
365.175000 111294.100000
367.138000 839232.400000
369.222200 102074.500000
371.200900 84090.700000
373.179100 93081.100000
373.216300 84482.300000
375.195500 45802.600000
375.232200 44038.700000
377.247400 1513278.600000
379.154400 37823.600000
379.190000 100924.000000
379.262300 168432.200000
381.168900 112275.600000
385.254400 31599.600000
387.195900 99500.500000
387.232000 300342.000000
389.247000 32544.200000
391.154000 36119.300000
391.191900 40133.200000
393.207400 38415.900000
393.241400 94828.400000
395.257800 1027960.848000
397.163900 166571.500000
397.218700 27067.800000
397.253800 33848.300000
399.231700 87666.800000
399.267800 47637.900000
401.213800 29992.200000
401.248200 179784.900000
403.225800 38441.500000
403.263100 142359.800000
405.168100 73905.400000
405.242100 646248.500000
413.210800 26771.800000
413.246400 78446.200000
415.225500 48864.900000
423.178900 94168.300000
425.247800 115085.000000
427.263200 133135.800000
429.189400 438816.700000
429.278900 27392.500000
431.221200 41344.200000
431.258000 86352.600000
433.185900 581897.223800
439.262700 53372.700000
441.242200 139765.200000
443.256700 265504.800000
445.184900 483344.300000
445.273400 314257.600000
453.276700 29876.800000
455.256500 38360.600000
455.293100 87647.000000
459.253500 179600.600000
463.283900 580312.040500
471.253600 38234.200000
475.211600 104595.200000
475.283800 253086.300000
477.229100 40840.500000
477.263200 184491.900000
481.273100 121593.000000
483.253500 26458.300000
483.288300 112956.200000
485.267800 83430.800000
493.220800 196734.000000
499.285700 251834.800000
501.299600 288012.100000
507.287200 313527.800000
509.303900 50407.500000
515.243700 131806.100000
517.293800 185777.100000
525.299400 365730.500000
527.316600 148873.800000
535.281200 226786.400000
537.299500 39301.800000
543.310600 495096.900000
553.295000 541715.500000
555.312500 36504.600000
571.305700 916517.100000
581.286700 291348.800000
589.315400 956929.800000
593.323200 302700.806200
599.299500 504559.126600
601.329400 339060.000000
607.326400 851940.163800
609.358000 457505.055600
611.335000 815077.200000
611.375400 350082.399700
617.310700 693810.957100
619.341500 855908.593000
627.367100 488072.700000
629.385300 640762.400000
637.352200 2416347.877000
647.355900 1011159.894000
655.362900 6453819.674000
673.373200 13289425.100000
674.376400 2583755.800000
691.383800 14704370.000000
692.387300 2722320.969000
709.394400 8757818.728000
710.397500 1666606.320000
727.405100 8332937.090000
728.408700 1774008.480000
745.415500 2072103.603000
890.490100 523050.272200
908.500400 2677111.917000
909.505100 639269.972800

>ms2
65.038400 206593.700000
67.054200 1990859.600000
69.033400 495149.200000
69.069800 1194069.200000
71.012700 96087.300000
71.049100 1535878.900000
73.028300 37718.500000
74.096300 26748.600000
77.038600 146494.500000
79.054200 2922950.300000
81.033400 1673794.900000
81.069800 2148160.400000
83.049100 451960.900000
83.085500 419507.800000
84.044400 134166.300000
85.028300 649868.900000
85.064800 570057.200000
87.044100 102401.300000
89.023300 216617.500000
91.054100 3147719.300000
93.069800 4963239.900000
95.012600 217835.900000
95.049100 2736046.200000
95.085500 2419866.600000
97.028300 919955.800000
97.064700 660071.000000
97.101100 638779.400000
99.044000 1608934.600000
100.047600 33505.500000
101.023300 38896.700000
101.059700 287903.200000
103.054100 231589.200000
105.069800 4205054.500000
106.073300 51658.200000
107.049100 1738964.400000
107.085500 5886330.100000
108.088800 164600.100000
109.064700 675778.400000
109.101100 3833646.600000
110.104500 152444.100000
111.044000 798013.100000
111.080400 632943.100000
113.023200 325835.400000
113.059600 1173263.200000
113.095900 378416.100000
115.038900 358171.800000
115.054000 308925.800000
116.061800 26533.400000
117.069700 3190569.500000
118.073300 164757.200000
119.049100 475294.200000
119.085500 3447274.300000
120.089000 179240.600000
121.028400 253673.000000
121.064700 1620600.400000
121.101100 2682880.300000
122.068000 54007.800000
122.104400 44572.500000
123.043900 2070630.700000
123.080300 1009352.400000
123.116700 1237017.100000
125.023200 151531.600000
125.059600 511596.400000
125.096000 1331541.400000
127.039100 181357.800000
127.075200 208407.300000
128.061700 250547.100000
129.054600 449318.800000
129.069800 2315063.000000
130.073200 116759.100000
130.077400 62140.500000
131.049100 463795.800000
131.085500 3460751.200000
132.088800 136673.900000
133.064700 1878387.300000
133.101100 2400733.200000
134.068000 51237.200000
134.104400 97944.700000
135.044000 503481.200000
135.080400 1599062.400000
135.116700 4113852.000000
136.083800 54441.400000
136.120100 197661.300000
137.059600 1293180.400000
137.096100 578470.600000
137.132400 248223.700000
139.038900 474758.700000
139.075300 1133393.400000
139.111800 269379.100000
141.054600 967340.100000
141.069700 881776.700000
141.091000 160934.400000
142.078000 56045.200000
143.085600 2349101.600000
144.089000 95636.000000
144.093600 29648.300000
145.064800 812262.500000
145.101200 3027952.200000
146.067900 42751.700000
146.081300 163786.000000
146.104400 38100.500000
147.044100 505164.400000
147.080500 1860387.100000
147.116800 1491258.200000
148.083700 47800.200000
148.120100 38759.100000
149.059800 1008050.900000
149.096100 719936.200000
149.132500 451113.000000
151.039000 580611.000000
151.075300 1726166.400000
151.111700 1402144.300000
152.115100 28631.000000
153.054600 329117.600000
153.069800 215709.000000
153.091000 254840.000000
153.127400 30085.500000
155.070300 881764.000000
155.085500 1822335.300000
156.088800 103857.400000
156.094100 70740.700000
157.064800 748579.500000
157.086000 126908.200000
157.101200 2089550.500000
159.044000 127471.300000
159.065500 172001.100000
159.080400 828980.800000
159.116800 1766517.700000
161.059700 742506.200000
161.096000 636338.000000
161.132400 3279532.500000
162.062900 38295.500000
162.136000 196487.500000
163.039100 238475.000000
163.075300 1273525.800000
163.111600 391816.300000
163.148000 236607.700000
165.054700 550128.800000
165.069100 228227.300000
165.091000 1004022.400000
165.127700 52146.800000
166.077900 38022.800000
167.070300 2129788.100000
167.085400 1019973.700000
168.093900 47661.800000
169.064700 187024.600000
169.085900 524122.800000
169.101100 2220873.000000
171.080400 992800.600000
171.116700 2014181.400000
173.059600 617206.000000
173.096100 1082630.200000
173.132400 1214828.100000
174.099400 37304.900000
175.039100 178388.900000
175.075300 1617762.700000
175.111500 330111.700000
175.148000 525072.900000
176.078700 106584.800000
177.054800 278253.100000
177.091000 494556.800000
177.127400 427536.600000
177.163500 31827.100000
178.077800 36981.400000
179.070300 858619.300000
179.085500 664931.400000
179.143200 319357.200000
181.049600 127459.300000
181.064500 214238.100000
181.086000 570639.500000
181.101100 1520845.600000
183.080400 683325.400000
183.101900 142312.500000
183.116800 1670299.000000
184.120100 120192.800000
185.059500 236013.100000
185.081100 357922.600000
185.096200 839138.400000
185.132500 1460971.700000
186.135400 93117.200000
187.075300 670326.500000
187.111800 654666.300000
187.148100 789119.300000
189.054700 207440.800000
189.091000 1269385.400000
189.127700 217178.400000
189.163900 146906.500000
190.094300 41442.300000
191.070300 1087128.700000
191.106500 950800.100000
192.093500 44426.100000
193.085900 1671808.100000
193.100700 759194.100000
194.089200 87665.600000
194.109800 38524.300000
195.065400 127053.100000
195.080600 402876.900000
195.101800 132638.700000
195.116800 1406806.000000
196.088900 32882.400000
197.059700 102199.100000
197.081100 836639.800000
197.096000 1123750.500000
197.132500 1256282.100000
198.099300 40477.700000
199.075300 798165.600000
199.096500 303855.300000
199.111700 609718.100000
199.148100 1273818.000000
200.151000 45419.300000
201.054600 188429.500000
201.091000 900628.400000
201.127300 316096.800000
201.163600 542667.900000
203.070300 383901.800000
203.085300 92957.000000
203.106400 266735.300000
203.143400 102737.700000
203.180000 37821.100000
204.093600 28471.100000
205.086400 305249.100000
205.101100 680015.000000
205.122400 135597.800000
206.109500 42664.700000
207.065400 305726.900000
207.080700 229377.000000
207.101800 1007150.800000
207.116700 1057392.800000
208.088500 29757.700000
208.124100 44358.000000
209.080900 1493926.000000
209.095900 512586.300000
209.117500 419848.600000
209.132400 1037605.000000
210.140300 39828.400000
211.075500 290868.600000
211.096600 755147.900000
211.111700 565164.000000
211.148100 963166.600000
212.155800 54258.200000
213.091100 618729.500000
213.127400 282873.000000
213.163700 864867.300000
214.171400 28351.700000
215.070100 156724.800000
215.091900 171037.400000
215.106700 1210913.200000
215.143100 66963.000000
215.179600 243679.300000
216.093800 31596.800000
217.085900 1070742.000000
217.101300 351969.000000
217.122200 212857.500000
217.158500 94781.800000
218.089700 47186.500000
219.065100 215231.200000
219.080300 98905.100000
219.101700 1039796.600000
219.117000 735398.900000
221.080800 122871.400000
221.096200 521276.800000
221.132500 1094064.200000
223.075000 205458.700000
223.096100 50358.800000
223.111800 561805.500000
223.148200 798361.100000
225.091100 834434.100000
225.112100 984614.800000
225.127500 394428.300000
225.163700 812779.000000
226.115500 38557.000000
227.070000 153505.100000
227.106600 697891.800000
227.127900 48856.300000
227.143000 271658.000000
227.179500 403451.000000
229.086200 298919.600000
229.122500 247816.000000
229.158700 146843.200000
229.194900 32012.300000
230.110000 35677.000000
231.101600 385958.700000
231.116700 451605.000000
231.174700 37345.700000
232.124500 47897.300000
233.080900 88976.600000
233.097000 342446.000000
233.117200 1082658.200000
233.132300 693789.300000
235.075900 124968.900000
235.096500 897391.400000
235.111700 455687.000000
235.132900 339761.500000
235.148000 650250.100000
237.091000 350987.900000
237.112200 450360.200000
237.127300 405659.100000
237.163700 543813.900000
238.094100 26671.900000
239.070300 82556.400000
239.106700 783108.500000
239.143000 362385.700000
239.179500 484058.400000
240.110300 41517.000000
241.085900 362585.800000
241.122100 433311.000000
241.158600 152313.900000
241.195000 137779.000000
243.101800 1153970.000000
243.116700 217424.000000
243.137900 92286.900000
243.174000 166110.700000
244.105000 108508.000000
244.124500 55388.100000
245.096300 118144.900000
245.117400 309162.700000
245.132500 415695.000000
247.096900 136668.200000
247.111900 360054.700000
247.148200 536402.300000
249.091300 267090.300000
249.112500 239959.100000
249.127500 455405.800000
249.163800 533238.700000
251.106800 540767.200000
251.127800 648867.500000
251.142900 341043.200000
251.179300 481031.200000
253.087000 170394.000000
253.107200 431453.900000
253.122500 433803.700000
253.158500 179962.500000
253.195200 224679.800000
255.101900 338457.100000
255.122100 262626.100000
255.137900 174283.600000
255.174100 120229.500000
256.124800 32864.200000
257.081300 77148.300000
257.117200 661310.800000
257.132700 315325.300000
257.153300 37163.500000
257.190000 52880.700000
258.139600 41310.700000
259.096700 247581.700000
259.111800 250648.000000
259.133000 176143.300000
259.148300 531274.600000
260.155100 90588.500000
261.090600 155983.500000
261.112500 2765173.800000
261.127200 545901.700000
261.163500 484114.700000
262.116100 182597.500000
263.106700 457655.200000
263.128100 135772.100000
263.143200 416326.400000
263.179600 467305.300000
265.085800 49480.900000
265.122400 539415.900000
265.158700 233828.900000
265.195000 395254.200000
267.101700 803875.800000
267.116700 41198.600000
267.123100 74734.400000
267.137300 399968.800000
267.174200 207502.000000
267.211400 186342.300000
269.138000 548629.300000
269.153800 163014.900000
269.190400 137395.500000
270.139900 27756.900000
271.096700 149780.000000
271.132900 159765.100000
271.148100 265062.000000
273.127800 240855.900000
273.149500 35886.500000
273.163400 300438.200000
275.106400 128044.000000
275.128000 276051.000000
275.143400 346190.400000
275.179200 338357.000000
277.107100 327467.600000
277.122600 468117.200000
277.158600 281839.900000
277.194700 221078.300000
279.122900 4378082.700000
279.138100 421988.100000
281.117100 328369.800000
281.153300 230858.600000
281.189800 53307.000000
282.141200 30998.900000
283.132900 290638.700000
283.148500 238954.400000
283.168800 98463.300000
283.204900 43079.500000
285.112400 946809.100000
285.127800 153975.300000
285.147900 90374.600000
285.163900 365820.700000
286.115900 30452.900000
287.107100 96599.400000
287.127600 235102.000000
287.143400 248881.300000
287.179300 202262.600000
289.106800 146052.100000
289.122700 310964.900000
289.143400 53393.600000
289.158500 271518.700000
289.194600 276049.700000
291.101900 35976.700000
291.137900 399162.400000
291.174400 234964.800000
291.210800 353536.100000
293.117700 233763.800000
293.136900 134749.900000
293.152600 256270.500000
293.190100 158539.400000
293.226800 137504.900000
295.096500 111170.700000
295.116900 81739.200000
295.133100 382505.500000
295.149100 131497.200000
295.169500 157791.800000
295.205600 51753.600000
297.133300 5728793.700000
298.136700 501580.000000
299.127900 177993.700000
299.179600 200348.200000
301.107100 257859.900000
301.122900 211242.300000
301.143400 140859.200000
301.158600 302069.100000
301.195100 158668.700000
302.162500 39612.100000
303.122500 1060984.100000
303.138200 348249.100000
303.174300 275800.500000
305.117200 140478.400000
305.137700 119567.000000
305.153900 276202.200000
305.189900 180969.200000
305.226400 94791.600000
307.132800 295804.500000
307.148600 53825.200000
307.169000 196310.800000
307.206300 31405.300000
309.148600 206724.000000
309.164400 153562.600000
309.183600 34262.200000
309.221200 154561.600000
311.127200 166377.700000
311.143600 112050.600000
311.164100 123969.500000
311.179800 168734.800000
311.199000 46202.900000
311.237900 34674.900000
313.107000 321354.500000
313.123400 84151.200000
313.143000 245130.200000
313.159300 219509.300000
313.195500 202011.100000
315.139000 181258.300000
315.175300 153747.400000
316.145200 44702.900000
317.138000 49009.200000
317.153900 368401.200000
317.190600 170564.400000
317.226800 174765.400000
319.117300 345872.300000
319.133400 179622.600000
319.168900 305861.000000
319.240900 39192.100000
321.132900 1204193.200000
321.148900 157585.600000
321.164900 61226.100000
323.126900 93416.900000
323.164400 136626.500000
323.180900 90192.600000
323.199800 28509.200000
325.123400 44108.000000
325.143300 124443.300000
325.158700 139568.200000
325.194800 100275.300000
327.138300 148023.400000
327.158400 145457.700000
327.175900 183646.900000
327.210300 45697.800000
329.137600 84730.900000
329.153900 247823.800000
329.190400 104073.100000
329.226100 46202.600000
331.116900 532301.400000
331.170200 287229.600000
333.185500 175581.000000
333.221500 107520.100000
335.164400 118491.900000
335.235900 229493.300000
337.127800 407871.500000
337.144100 143604.800000
337.179900 118129.300000
337.251000 47423.300000
339.143400 244637.400000
339.159600 133763.000000
339.175600 75863.400000
339.212200 34495.300000
341.137100 82624.900000
341.154200 160351.400000
341.174500 105783.000000
341.225600 53800.600000
343.134200 31166.700000
343.170800 250802.800000
343.205900 116485.400000
343.242600 88930.500000
345.150200 207740.700000
345.185300 145458.100000
345.220400 94414.000000
347.163800 236976.600000
347.199100 160565.400000
349.127500 780776.500000
349.178500 167473.900000
349.214700 58214.400000
350.132400 45197.900000
351.159400 117441.000000
353.174900 95789.300000
353.247700 144111.300000
355.241200 41875.900000
357.132500 98712.200000
359.166300 166907.100000
359.200600 152651.800000
359.236700 137435.200000
361.180000 234066.500000
361.216000 95304.100000
361.253100 34563.300000
363.159200 159347.100000
363.195700 111433.000000
365.174300 159535.400000
367.137000 280870.400000
369.221600 142188.700000
371.202000 161563.000000
373.180600 129522.200000
373.215600 47173.400000
375.195600 50372.800000
375.231600 69223.700000
377.248100 222166.900000
379.153700 94782.100000
379.189500 72238.500000
379.263000 39630.800000
381.168600 36023.900000
385.253800 50458.500000
387.196200 141259.000000
387.231600 200172.400000
389.247900 50883.800000
391.153600 43625.900000
391.189100 54580.900000
393.204200 35706.500000
393.242300 28148.600000
397.164100 105874.700000
397.218600 74050.500000
397.253000 36063.600000
399.232300 103931.600000
399.268800 47420.600000
401.211900 117036.800000
401.247600 54367.000000
403.227900 45695.500000
403.263900 29088.900000
405.169400 54041.900000
405.242600 170879.100000
413.210900 104005.900000
413.247100 128859.500000
415.227400 126760.700000
423.179600 28925.500000
425.248500 76206.400000
427.263400 86229.400000
429.192700 112002.100000
429.278000 31259.800000
431.222100 54451.500000
431.256600 33707.100000
439.263400 119361.000000
441.242000 132646.000000
443.257000 40304.400000
445.187800 37487.800000
445.275200 34076.000000
453.277700 44700.100000
455.256500 38715.600000
455.293700 30064.500000
459.253200 45094.400000
471.253100 38566.400000
475.213800 32377.200000
477.229200 45202.700000
477.264500 47700.100000
481.273300 50762.100000
483.252300 27549.300000
483.290900 42340.400000
485.267000 37624.300000
493.221900 49805.500000
499.283500 115493.700000
501.299700 33036.000000
507.288900 56874.900000
509.304700 42691.200000
515.241800 33754.600000
517.295600 39921.000000
525.299100 156207.000000
527.314100 35996.700000
535.283900 36854.400000
537.298100 33943.500000
543.311300 44435.600000
553.294800 49205.400000
555.314100 29415.000000
571.304400 142732.800000
581.287200 34896.100000
589.316600 34588.200000
601.330300 29812.400000
611.335900 99838.100000
627.367300 44100.700000
629.385200 100421.100000
673.373700 293667.400000
674.377300 46678.600000
691.383000 143166.300000

>ms2
65.038500 529937.300000
67.054200 4284788.400000
69.033400 984535.600000
69.069800 1269076.100000
71.012700 477872.800000
71.049100 3559260.500000
73.028400 197895.500000
74.096500 24498.000000
77.038400 447946.800000
79.054200 5846708.300000
81.033500 3516775.400000
81.069800 3797390.000000
83.049100 1164836.700000
83.085500 480614.300000
84.044300 166540.200000
85.028400 1180799.600000
85.064800 668770.800000
87.043900 208956.800000
89.023300 243667.600000
91.054200 8568058.200000
93.069800 7353134.300000
95.012700 835238.000000
95.049100 5660235.100000
95.085400 3003345.400000
97.028300 1603941.100000
97.064700 1065996.000000
97.101100 200685.700000
99.044000 3271570.800000
100.047400 98911.000000
101.023300 144625.600000
101.059700 289597.100000
103.054200 787623.600000
105.069800 8303617.700000
106.073200 333915.300000
107.049100 2859029.600000
107.085500 5959996.700000
108.088800 199674.800000
109.028400 540762.032600
109.064700 1427176.100000
109.101100 2180782.500000
110.104500 34877.000000
111.044000 1250960.700000
111.080400 581651.600000
113.023300 278666.700000
113.059600 1288146.100000
113.096000 123286.100000
115.038900 236410.600000
115.054100 1154518.700000
116.062000 241468.300000
117.069800 5492767.900000
118.073100 186422.000000
119.049100 968827.700000
119.085400 4883903.400000
120.088800 164307.300000
121.028300 499953.900000
121.064700 2371956.100000
121.101100 1896281.200000
122.068100 103484.300000
122.104400 87941.000000
123.043900 4170023.000000
123.080300 1192662.100000
123.116700 586714.100000
125.023200 316414.400000
125.059600 479574.300000
125.096000 607478.600000
127.039000 380448.200000
127.075400 40966.700000
128.061900 1241080.600000
129.054600 291634.200000
129.069800 5622169.500000
130.073100 218257.400000
130.077800 447330.900000
131.049100 1194795.200000
131.085500 4990502.300000
132.057000 48278.500000
132.088800 194677.500000
132.093400 87977.600000
133.064700 3426438.300000
133.101100 2190445.200000
134.068100 143310.500000
134.072600 34373.300000
134.104400 113012.400000
135.043900 880591.000000
135.080400 1519733.600000
135.116800 1751206.700000
136.083900 88635.100000
137.059700 1276704.700000
137.096000 493999.800000
139.038900 507898.000000
139.075300 778910.500000
139.111800 55508.100000
141.054600 607635.700000
141.069800 2087545.800000
142.073100 61299.500000
142.077900 530723.100000
143.085600 3915860.000000
144.056800 98283.800000
144.093600 191654.900000
145.064800 1914284.500000
145.101200 3059091.200000
146.067900 41199.900000
146.073000 42439.500000
146.081200 37304.600000
146.104600 148893.600000
146.109500 34927.700000
147.044000 1128184.300000
147.080400 2760164.000000
147.116800 900744.600000
148.084000 113114.900000
148.120200 45324.900000
149.023100 167308.200000
149.059700 1431044.600000
149.096100 520672.000000
149.132500 97067.900000
151.039000 1435399.700000
151.075300 1666844.800000
151.111700 336986.400000
152.062000 145819.000000
153.054600 367634.500000
153.069800 758534.000000
153.091000 88953.600000
154.077800 539539.400000
155.070400 454290.000000
155.085500 3182906.800000
156.088600 141794.600000
156.094100 354727.600000
157.064800 1380988.400000
157.101200 2162463.800000
158.072700 95810.900000
158.109000 114971.100000
159.044100 338193.300000
159.080400 916361.300000
159.116800 1259886.300000
161.059600 766470.900000
161.096100 712035.100000
161.132500 1103727.300000
162.135700 99655.500000
163.039000 256860.600000
163.075300 1044262.200000
163.111600 328336.800000
165.054700 634655.800000
165.069800 889269.300000
165.090900 762262.200000
166.077900 558369.000000
167.070400 1290432.700000
167.085500 2339296.700000
168.057200 23650.200000
168.087000 22919.100000
168.093900 344587.300000
169.064800 385542.700000
169.086200 231707.600000
169.101100 2623188.900000
171.043900 105833.300000
171.080400 1438126.800000
171.116700 1530539.500000
173.059700 893888.600000
173.096100 1264829.300000
173.132500 583869.500000
174.100000 97531.400000
175.039000 407867.200000
175.075300 1425352.300000
175.111500 175689.200000
175.148100 131911.400000
176.078700 50255.700000
177.054700 370872.200000
177.090900 292707.600000
177.127500 104664.800000
178.077700 300277.400000
179.070300 407683.500000
179.085500 1628167.000000
180.093800 326866.500000
181.049400 139091.600000
181.064900 306862.300000
181.086200 144371.600000
181.101200 2377219.400000
182.072700 155238.500000
182.109100 243765.900000
183.080600 993741.100000
183.116900 1733354.100000
184.089000 44133.000000
184.125400 59440.900000
185.059700 394643.100000
185.081700 157851.700000
185.096200 716021.400000
185.132600 664335.700000
186.135600 29793.600000
187.075300 570435.700000
187.111700 573048.400000
187.148100 279536.700000
189.054800 252742.600000
189.091100 910256.900000
190.077600 60766.500000
190.094600 45438.700000
191.070400 812773.900000
191.085300 610685.400000
191.106600 628701.700000
192.093800 284284.000000
193.086400 812355.500000
193.101200 1404375.500000
194.072500 96618.900000
194.089800 46507.800000
194.109600 237972.800000
195.080500 748608.000000
195.116900 1483577.200000
196.088000 141481.600000
196.125000 110738.300000
197.059600 239986.500000
197.096100 1264116.700000
197.132500 862116.400000
198.099500 42592.800000
199.075300 903503.700000
199.111600 490793.800000
199.148100 409173.200000
200.151500 25241.300000
201.054500 305022.600000
201.090900 667444.100000
201.127600 120962.700000
201.163900 151976.700000
202.077600 121421.300000
203.070300 357540.500000
203.085300 385084.400000
203.106100 207062.200000
204.093900 248128.200000
205.101200 1044697.600000
205.122100 53461.700000
206.109700 222035.000000
207.065900 189846.900000
207.080800 384053.700000
207.101900 386480.800000
207.116800 1321410.600000
208.088600 48095.000000
208.124300 142539.200000
209.060000 103665.100000
209.081000 361145.700000
209.096100 850661.700000
209.117300 139387.700000
209.132500 716943.400000
210.140000 98116.100000
211.075400 388571.800000
211.096700 223510.700000
211.111700 437822.600000
211.148000 410016.600000
212.156200 49199.700000
213.091100 424425.400000
213.127500 226688.000000
213.163800 204711.300000
214.172000 26597.700000
215.070300 240850.000000
215.085300 231114.800000
215.106800 675711.800000
216.093700 240567.900000
217.086000 535173.600000
217.101200 652540.000000
217.122800 98371.700000
218.089600 36442.900000
218.109400 305190.700000
219.065400 208260.400000
219.080400 267524.900000
219.101700 406876.800000
219.117000 1085838.900000
220.088400 137382.600000
220.124800 229306.500000
221.096100 656426.600000
221.132500 957319.900000
222.139200 132635.800000
223.075300 341799.900000
223.111700 608152.300000
223.148200 474347.200000
225.091000 737081.200000
225.112500 90899.000000
225.127500 343467.300000
225.163500 311468.800000
227.069900 183919.500000
227.106600 310610.500000
227.143000 106018.000000
227.180000 40050.300000
228.093100 56317.700000
229.086700 171369.400000
229.100200 334696.100000
229.122100 51110.300000
230.109100 219227.300000
231.080500 128085.300000
231.102000 146111.900000
231.117000 676566.300000
232.088500 45922.700000
232.123800 110480.100000
233.080800 48224.100000
233.096400 389045.500000
233.117400 570133.900000
233.132400 677777.700000
234.103700 126613.700000
235.075700 136943.400000
235.096800 183116.800000
235.111800 564444.900000
235.132500 54899.800000
235.148200 466187.600000
237.091100 336229.400000
237.112600 118849.900000
237.127500 393977.800000
237.163800 308694.000000
239.070900 55616.700000
239.085200 33815.000000
239.106600 542174.000000
239.143100 131863.700000
239.180000 128732.900000
240.111500 31335.900000
241.086300 253863.000000
241.101100 220940.500000
241.122300 183763.700000
241.159200 37615.300000
242.109100 163121.300000
243.102000 511332.600000
243.117000 477884.600000
243.138100 36829.600000
244.106300 27052.000000
244.124800 199374.200000
245.096200 193208.900000
245.118700 52697.500000
245.132300 649283.300000
246.103800 119464.100000
247.097300 66886.900000
247.112100 419201.400000
247.147900 359395.900000
248.119500 50767.500000
248.155600 112150.700000
249.091000 300277.900000
249.127200 306511.100000
249.164000 288189.500000
250.135600 25540.500000
251.106800 357046.900000
251.128200 33031.400000
251.143200 207626.900000
251.179600 165414.100000
253.086400 197728.100000
253.102400 109115.300000
253.122000 232623.700000
253.159000 95383.200000
254.108700 37784.600000
255.101700 137169.100000
255.116700 292295.500000
255.138200 80477.200000
256.125500 163167.300000
257.080800 40766.700000
257.096000 126990.600000
257.117400 186622.800000
257.132600 445160.400000
258.103100 75262.400000
258.139100 130869.100000
259.096800 99938.700000
259.112100 300316.100000
259.148500 272666.200000
260.119100 138088.400000
260.155200 49557.600000
261.091200 118358.100000
261.112500 492323.200000
261.127200 354759.100000
261.163500 212123.700000
262.115300 33118.500000
263.106600 298727.700000
263.142700 178129.300000
263.179300 114402.000000
264.113300 29806.500000
265.086600 76973.500000
265.100400 28512.300000
265.122900 220807.500000
265.158100 32857.600000
265.195700 34305.400000
266.109000 26145.900000
267.101800 255428.300000
267.116800 161975.800000
267.138600 85641.600000
268.124500 111114.400000
269.096800 35872.500000
269.117200 139027.500000
269.132700 306682.500000
269.153500 24531.400000
270.104300 38592.900000
270.140500 122385.000000
271.096700 152781.900000
271.112000 147751.500000
271.133900 54646.500000
271.147700 370469.700000
272.118900 52434.800000
273.091600 39103.600000
273.127100 246917.900000
273.163200 208708.600000
274.134700 45788.000000
275.105700 194355.700000
275.142600 217322.900000
275.179800 145359.800000
277.121900 249661.500000
277.159100 101737.900000
277.195600 87899.300000
279.101700 89261.700000
279.122400 351123.900000
279.138600 193632.100000
280.125100 85175.100000
281.117400 88120.200000
281.132600 196249.100000
281.154000 33914.500000
282.140600 85495.600000
283.113000 83034.200000
283.132600 98614.600000
283.148600 284102.400000
284.120000 28486.800000
285.112300 157249.200000
285.127700 251867.000000
285.164100 178475.300000
287.106900 49432.600000
287.128600 37438.300000
287.143300 119490.400000
287.179500 125547.600000
289.108100 66437.400000
289.122500 159623.800000
289.159100 146790.100000
289.195300 40640.700000
291.102100 36028.700000
291.137700 160976.100000
291.174400 32085.900000
291.211000 29248.200000
293.117000 76100.200000
293.133000 98902.700000
293.154300 41859.800000
294.140700 35489.100000
295.096200 37051.200000
295.111900 31290.500000
295.133300 85817.200000
295.149100 126185.900000
295.169100 27911.800000
297.134200 193240.700000
297.163200 209604.300000
298.135300 37046.900000
299.143800 164359.700000
299.179300 46133.100000
301.122500 147235.100000
301.159200 115889.800000
301.195100 39762.000000
302.163500 30326.500000
303.122500 44385.000000
303.137500 168791.300000
303.174100 97832.700000
305.117500 32626.300000
305.154400 132862.700000
305.189500 33941.300000
307.133600 92452.800000
307.149200 44006.100000
307.169000 44154.700000
309.128300 35526.700000
309.148300 80653.400000
309.164600 46499.000000
311.143700 103430.100000
313.106900 50603.400000
313.123300 29586.400000
313.142000 23918.300000
313.159100 114047.200000
313.194900 56170.300000
315.138300 106914.100000
315.174900 51460.700000
316.145100 29376.500000
317.153600 54345.000000
319.132600 42758.000000
319.168900 47162.600000
321.148100 45669.400000
321.165100 35799.500000
323.179900 34040.200000
325.122300 25557.400000
325.160000 56045.100000
325.196600 35393.200000
327.139000 34749.100000
327.210400 28770.700000
329.155000 48327.700000
329.191500 37936.900000
331.117800 103293.600000
331.169600 92490.900000
333.185900 46820.400000
335.163000 30603.200000
339.158700 35138.600000
339.211200 34571.900000
343.132500 39668.000000
343.205700 28445.700000
345.186600 34968.400000
347.163600 29403.400000
349.127900 99800.700000
369.222500 32462.300000
373.181100 25734.400000
475.285100 25399.700000

>ms2
128.062100 2179419.600000
129.069900 3697167.600000
130.073200 157068.100000
130.077800 335673.000000
131.049200 817618.700000
131.085600 2466303.600000
132.057000 65952.800000
132.088900 85749.500000
133.028300 101218.100000
133.064800 1565694.400000
133.101200 921453.300000
134.068000 30564.600000
134.072600 18582.500000
134.104500 29745.500000
135.044100 533411.900000
135.080500 536151.500000
135.116900 289708.100000
137.059800 591056.000000
137.096200 133038.600000
139.039000 270296.200000
139.075400 184027.400000
141.054800 153297.300000
141.069900 1863938.900000
142.073300 71130.900000
142.077900 658921.600000
143.049300 118706.500000
143.085700 2110153.200000
144.057100 144640.400000
144.088900 53519.100000
144.093500 170004.600000
145.064900 1212457.800000
145.101300 1354507.200000
146.067900 40941.400000
146.073100 32098.100000
146.104400 35988.300000
146.109300 21815.600000
147.044200 741105.600000
147.080500 1291594.300000
147.117000 219607.300000
148.047300 32395.900000
148.083700 74732.300000
149.023400 82985.900000
149.059800 622825.000000
149.096500 191310.600000
151.039100 741245.400000
151.075500 494242.800000
151.111700 74827.200000
152.062100 459545.700000
153.054800 121144.500000
153.070000 1156452.400000
154.077900 696646.400000
155.060500 248199.500000
155.085600 2262043.800000
156.057100 21045.300000
156.088600 79203.100000
156.094100 222091.800000
157.064900 850209.900000
157.101300 1061255.900000
158.072500 90679.500000
158.109600 43054.300000
159.044200 232534.100000
159.080500 613613.700000
159.116900 514080.900000
161.059800 433282.800000
161.096200 299337.800000
161.132600 233960.900000
162.062800 24565.900000
163.039100 190141.700000
163.075300 380737.700000
163.111600 83725.000000
165.054900 299601.600000
165.069900 1390067.500000
165.091100 242458.300000
166.078000 787606.600000
167.070500 289756.300000
167.085700 1690846.200000
168.056800 69586.200000
168.094000 355446.900000
169.064900 363727.900000
169.101200 1361970.600000
170.072600 75049.400000
170.109000 92107.200000
171.044200 65611.500000
171.080500 916930.000000
171.116900 559215.400000
173.059800 401758.500000
173.096200 537658.300000
173.132600 159587.500000
175.039100 274280.200000
175.075400 701665.800000
176.061400 23360.400000
176.078500 24986.700000
177.054700 198966.400000
177.069900 68611.100000
177.091000 83926.400000
177.127400 16871.200000
178.077700 827358.500000
179.070100 116581.100000
179.085700 1491137.400000
180.094100 316921.600000
181.064900 430956.800000
181.101300 1464851.700000
182.072900 197419.500000
183.080700 574305.300000
183.117000 726690.600000
184.088900 45972.400000
184.124400 77062.300000
185.059900 297149.600000
185.096200 361895.800000
185.132600 269910.100000
187.075600 274254.900000
187.111900 162629.600000
187.148300 26293.200000
189.055000 128337.900000
189.069800 153981.000000
189.091200 400449.800000
190.077700 250287.900000
190.094500 20220.400000
191.070900 222974.500000
191.085700 679335.800000
191.106500 178659.000000
192.093800 436990.600000
193.101300 1027328.300000
194.073000 129065.000000
194.090200 13604.900000
194.109800 185904.600000
195.080600 581380.200000
195.117000 708178.900000
196.088000 97899.700000
196.125000 65329.500000
197.059700 184229.800000
197.096200 624396.300000
197.132500 381192.500000
199.075500 435967.600000
199.111700 149214.700000
199.147900 111145.200000
201.054700 138205.300000
201.091100 277401.600000
201.127300 20804.600000
202.077900 368845.400000
203.071100 134747.100000
203.085600 624847.400000
203.106400 38436.400000
204.093700 455438.000000
205.101500 944781.700000
206.072400 87274.700000
206.109700 266900.000000
207.080700 316732.800000
207.101400 99143.200000
207.117000 653982.600000
208.087700 90495.300000
208.124000 98640.200000
209.059400 86797.400000
209.080500 66226.100000
209.096300 444153.800000
209.132600 339655.000000
211.075400 217031.200000
211.096600 17109.500000
211.111800 256977.700000
211.148400 160946.900000
212.082700 14563.200000
213.054900 22089.300000
213.091000 179927.300000
213.127400 41730.100000
213.164000 16847.200000
215.070100 108795.900000
215.085600 377793.300000
215.106800 200202.000000
216.093700 289045.900000
217.086100 143889.800000
217.101400 690559.500000
218.072500 82408.700000
218.109500 186304.000000
219.065300 40871.700000
219.080700 222980.500000
219.101600 94423.000000
219.117000 706409.000000
220.087700 119329.200000
220.124100 118582.600000
221.096300 464294.300000
221.132700 481898.300000
223.075700 205211.800000
223.111900 291714.300000
223.148400 248129.500000
224.152500 17866.900000
225.091100 308032.300000
225.127200 78384.600000
225.163500 72818.400000
226.077500 32138.100000
227.070200 41740.200000
227.085200 87691.100000
227.106500 116018.700000
228.093400 173270.000000
229.085900 69891.400000
229.101000 424845.600000
230.109600 196364.100000
231.080700 138268.100000
231.117100 479532.200000
232.088200 74120.100000
232.125400 149630.700000
233.096200 260693.700000
233.117200 77841.900000
233.132300 398932.600000
234.067800 28129.700000
234.103400 74329.000000
235.075200 109811.600000
235.112000 341563.000000
235.148400 183793.700000
236.155300 20084.700000
237.091200 210628.700000
237.127100 114912.400000
237.163500 42127.500000
238.096000 17160.200000
239.070000 19482.100000
239.085300 108975.700000
239.106900 184864.000000
239.142800 25275.400000
239.178900 24668.700000
240.093200 92635.900000
241.085700 113575.100000
241.100900 276628.900000
241.121900 40363.900000
242.109500 214162.600000
243.080600 38282.200000
243.101400 164049.700000
243.116800 388914.200000
244.088000 67766.700000
244.106100 17710.800000
244.123900 121685.400000
245.096400 211950.800000
245.119900 15971.600000
245.132600 313020.800000
246.103900 99441.800000
246.140800 120152.000000
247.075700 78484.000000
247.111800 244438.200000
247.148200 198904.500000
248.118600 39076.600000
248.156400 24878.800000
249.091300 141737.100000
249.127600 196492.100000
249.163400 74072.500000
250.134200 23420.600000
251.106300 112360.400000
251.142300 69828.100000
251.179300 38720.600000
252.093100 84071.700000
253.101000 125850.400000
253.122000 90433.500000
254.109300 124417.700000
255.102700 49655.500000
255.116600 239183.300000
255.137400 18961.700000
256.124600 155018.900000
257.095800 99722.900000
257.132700 302483.000000
258.103300 28777.500000
258.139500 103830.900000
259.112000 206572.900000
259.148000 173689.200000
260.118900 40951.000000
260.155200 24369.200000
261.091300 50909.100000
261.112300 81200.800000
261.127300 167284.100000
261.163800 70694.600000
263.106400 105352.100000
263.142800 97459.500000
263.179700 32508.800000
264.113200 15661.100000
265.086500 21642.800000
265.100600 35666.200000
265.122200 81326.000000
266.109300 39379.400000
267.101400 71034.200000
267.116800 172033.500000
267.138700 18257.500000
268.124300 90542.400000
269.095300 39872.900000
269.118400 33305.000000
269.132500 173854.800000
270.103400 38204.500000
270.140600 74707.900000
271.096600 33396.900000
271.111400 113818.300000
271.148600 164454.900000
272.119100 42242.700000
273.091100 29312.200000
273.127200 157261.200000
273.163400 104285.700000
274.135200 32197.600000
275.106500 66392.700000
275.142700 35504.500000
275.179700 25817.400000
277.122300 113475.400000
278.108100 18892.900000
279.102100 28406.000000
279.117400 94103.100000
279.137600 42213.600000
280.124300 35247.900000
281.118300 31739.300000
281.132300 160220.000000
282.139900 38698.700000
283.111700 27339.700000
283.148300 133837.100000
284.118700 16514.100000
285.127300 85818.700000
285.162900 89004.600000
287.106600 34136.700000
287.142700 102113.400000
289.122200 69045.400000
289.158600 80967.100000
291.137500 39831.300000
293.132700 84190.200000
293.152600 17297.200000
294.140100 68140.200000
295.111800 34149.800000
295.148300 73982.100000
297.163400 20654.600000
298.134600 17859.300000
299.142600 70202.600000
299.179100 21531.100000
301.122500 39433.200000
301.158100 42944.900000
303.137400 39953.500000
305.133500 34402.100000
305.152400 22314.500000
307.132200 25296.700000
307.148000 24556.200000
309.126800 23107.900000
309.164100 22562.300000
311.143000 40955.700000
311.178400 32496.100000
313.158800 31875.100000
315.138500 21140.500000
315.175000 24296.900000
317.153400 19768.900000
319.132600 22108.300000
321.147900 26298.600000
321.164800 23028.700000
325.159400 23228.900000
327.138300 30505.000000
329.153800 39976.000000
339.173700 16756.400000
341.154700 19037.100000
349.126700 23310.800000

>ms2
128.062100 3563614.500000
129.069900 3570580.700000
130.073200 141407.800000
130.077800 383047.500000
131.049200 707494.400000
131.085500 1517430.900000
132.057000 81023.400000
132.088900 40604.200000
132.093600 27348.500000
133.028500 100463.600000
133.064800 946984.100000
133.101200 402461.400000
134.068100 21689.500000
134.072700 23592.900000
135.044100 370130.900000
135.080500 308077.200000
135.116900 36212.200000
137.059800 236574.500000
137.096100 37928.000000
139.039000 122229.300000
139.054100 62796.500000
139.075300 47342.700000
141.069900 2282393.300000
142.073300 81682.000000
142.077900 743742.800000
143.049200 88895.100000
143.085700 1293213.900000
144.057100 218206.500000
144.088800 65865.600000
144.093600 138540.900000
145.064900 1151607.300000
145.101300 671587.600000
146.072900 33244.500000
147.044200 644767.200000
147.080500 660773.000000
147.116900 73159.800000
148.047300 16040.700000
149.023400 29953.700000
149.059900 326669.300000
149.096000 76617.300000
151.039100 512860.800000
151.075500 142621.400000
152.062200 960557.800000
153.070000 1674944.800000
154.077900 910335.100000
155.049600 122910.000000
155.060400 462721.300000
155.085600 1738635.300000
156.056900 17891.500000
156.094100 228649.700000
157.064900 667233.800000
157.101300 555868.100000
158.072700 93505.500000
158.109600 27269.900000
159.044000 173061.700000
159.080500 290192.800000
159.116800 148310.700000
160.052000 16312.000000
161.059800 200629.500000
161.096200 124959.100000
161.132300 24355.200000
163.038900 79060.400000
163.053900 24653.000000
163.075300 113794.000000
164.061800 27765.000000
165.070000 2415543.800000
166.078000 938945.300000
167.085700 1442440.100000
168.056900 92075.700000
168.087000 22352.800000
168.094000 327661.100000
169.065000 442235.600000
169.101300 729023.000000
170.072600 96095.600000
170.109100 69812.300000
171.043900 25499.300000
171.080500 471302.600000
171.116800 251123.300000
173.059800 240883.000000
173.096200 209539.800000
173.132500 21832.300000
175.039200 203779.800000
175.075300 234407.500000
175.112000 13748.000000
176.061800 63372.700000
177.054500 65664.000000
177.070100 113268.600000
178.077800 1437080.300000
179.085800 1382780.300000
180.093800 350870.900000
181.064800 488671.300000
181.101200 895674.400000
182.073300 159650.900000
183.080700 392607.100000
183.117200 300234.400000
184.088500 23182.300000
184.125200 20520.900000
185.060000 183352.300000
185.096300 143142.300000
185.132600 81458.100000
187.075400 81537.700000
187.111700 28773.300000
187.148100 13214.200000
189.055000 39624.200000
189.070200 336451.600000
189.090900 76870.700000
190.077800 417608.100000
191.085700 837509.600000
192.093700 518739.700000
193.086300 57492.500000
193.101400 725240.400000
194.072600 150417.400000
194.109600 151032.400000
195.080600 414513.800000
195.117000 346398.300000
196.088000 85210.900000
196.124300 30365.100000
197.059800 107422.700000
197.096300 287657.100000
197.132200 100949.200000
199.075200 128778.200000
199.111500 29759.500000
199.147800 22288.400000
201.054600 77938.000000
201.090800 76429.800000
202.077800 761906.700000
203.085700 898633.400000
204.093900 503781.200000
205.065100 80969.800000
205.101400 636498.000000
206.072500 38614.000000
206.109400 201159.200000
207.080700 254445.900000
207.117100 351088.100000
208.089000 116013.700000
208.124700 27823.200000
209.059700 31381.600000
209.096500 186529.300000
209.132300 102198.400000
210.067900 63239.500000
211.075100 68673.700000
211.111600 75739.900000
211.147900 20079.200000
212.083700 17646.500000
213.054600 18593.300000
213.091000 39265.200000
215.085700 564459.600000
216.093900 364716.000000
217.101400 549441.300000
218.072600 95829.300000
218.109600 212027.500000
219.080600 235527.300000
219.116900 350670.000000
220.087900 73189.700000
220.124400 27085.100000
221.096200 254267.600000
221.132800 176489.900000
222.140000 21309.300000
223.075500 122487.400000
223.111600 108399.400000
223.147900 34405.300000
225.090900 37723.900000
225.126600 16840.000000
226.077400 97284.100000
227.069700 13938.200000
227.085600 170736.200000
227.107000 15193.100000
228.093400 249833.900000
229.101400 438967.900000
230.109500 168821.500000
231.080300 174578.100000
231.117000 227966.600000
232.088200 95662.800000
232.125100 125497.000000
233.096100 162484.400000
233.133200 165058.500000
234.067200 15475.500000
234.104000 63793.000000
235.075500 26676.000000
235.111600 88677.800000
235.148000 36071.600000
236.156300 15947.300000
237.090800 34654.800000
237.127400 36982.000000
239.085500 187089.800000
240.092900 109720.200000
241.086400 30189.200000
241.101400 287285.600000
242.109300 194204.600000
243.080300 20646.600000
243.117000 246117.700000
244.088200 33766.500000
244.123800 92372.500000
245.096300 137798.700000
245.132700 155071.800000
246.103800 37324.900000
246.140100 28783.400000
247.074900 36757.300000
247.112200 116138.800000
247.147400 22333.300000
249.090800 37477.200000
249.126500 27727.400000
251.107100 48981.600000
252.094000 111771.000000
253.101500 201612.800000
254.108700 103740.400000
255.117000 205612.300000
257.095600 83159.200000
257.132400 140065.600000
258.103500 29320.100000
258.139900 16727.400000
259.111600 93009.200000
259.147800 63013.600000
261.090800 20489.700000
261.126800 28344.900000
261.163300 27218.700000
263.106400 25955.000000
265.101300 92020.000000
266.108300 70536.000000
267.116800 145313.800000
268.124200 37117.600000
269.096100 35925.000000
269.132400 86811.100000
270.139700 28771.900000
271.111500 37753.100000
271.148400 36193.000000
272.118900 17434.600000
273.091500 22638.400000
275.142600 23921.500000
279.116300 88956.700000
280.124200 26545.500000
281.132500 30781.800000
282.139800 20407.300000
283.147700 27133.100000
285.128100 23489.600000
287.141900 16585.500000
293.132600 23685.400000
295.147700 21194.000000
297.163800 16784.300000
305.132900 23212.500000

>ms2
128.062100 4810371.000000
129.065600 195492.144900
129.069900 2945878.100000
130.073400 115190.100000
130.077900 292332.800000
131.049200 687764.100000
131.085600 877546.400000
132.057000 121308.100000
132.088800 24264.100000
133.028500 78759.300000
133.064900 512948.600000
133.101200 124879.000000
135.044200 189934.800000
135.080600 86339.000000
137.059600 37458.700000
139.039100 80114.000000
139.054400 73951.500000
141.069900 2546814.600000
142.073200 76579.600000
142.078000 655898.600000
143.085700 768542.900000
144.057000 206662.100000
144.088900 14358.400000
144.093700 71150.900000
145.065000 1150586.500000
145.101300 205291.800000
146.068200 39037.700000
147.044200 536773.300000
147.080500 252369.200000
148.047500 16363.500000
149.023400 16328.100000
149.060100 113648.500000
149.096400 14872.600000
151.039100 309110.300000
151.075600 22921.200000
152.062200 1609781.100000
153.070100 2140056.000000
154.078000 885350.100000
155.049500 101433.600000
155.060500 585364.100000
155.085600 1172180.300000
156.057300 22172.400000
156.094100 128455.100000
157.064900 440784.100000
157.101400 240417.500000
158.072900 38511.500000
159.044300 71285.100000
159.080600 104777.600000
159.117100 19537.900000
160.052000 37859.700000
161.060000 97023.700000
161.095900 18053.500000
163.038800 23348.700000
163.054200 28325.400000
164.062300 78990.000000
165.070000 3261042.500000
166.078100 921413.000000
167.085700 1056553.500000
168.057100 127034.600000
168.094100 199998.800000
169.064900 433275.500000
169.101300 365845.000000
170.073000 25916.300000
170.109300 20179.200000
171.080600 200255.700000
171.116900 21543.200000
173.060000 101886.800000
173.096400 31939.300000
175.039100 126361.400000
175.075300 61847.600000
176.062000 77996.800000
177.054700 24930.500000
177.070000 160868.500000
178.077800 2035050.500000
179.085900 1141099.300000
180.094000 225371.200000
181.065000 361491.700000
181.101400 425298.800000
182.109500 34464.000000
183.080700 166923.400000
183.117000 92324.800000
185.060000 93084.300000
185.096400 28171.700000
187.075700 20215.300000
189.070100 629484.300000
190.078000 477644.300000
191.085700 1013922.200000
192.093700 426754.000000
193.101500 468929.200000
194.072800 123058.500000
194.109000 64128.900000
195.080700 247901.500000
195.116800 150833.600000
196.088900 25160.400000
197.059600 62386.100000
197.096200 78636.000000
197.132600 20365.400000
199.075200 31924.100000
201.054600 16922.700000
201.091300 15989.100000
202.077800 1007018.400000
203.085700 1018252.400000
204.094000 336351.500000
205.065000 88113.700000
205.101600 371597.200000
206.072700 80434.800000
206.108800 85804.500000
207.080800 163287.900000
207.117200 132481.000000
208.088300 28811.900000
208.125300 18065.900000
209.059500 19010.000000
209.096300 36724.200000
209.132800 23003.900000
210.067700 13385.400000
211.075200 26456.300000
213.054500 18418.600000
215.085800 813146.700000
216.094000 335463.500000
217.101400 426920.700000
218.072600 78863.100000
218.109600 109112.800000
219.080600 196396.700000
219.117100 122012.900000
220.087900 20410.600000
221.096000 101658.500000
221.133100 18630.100000
223.075600 26310.600000
223.111500 18770.400000
226.078100 147710.300000
227.070100 16449.200000
227.085600 169371.600000
228.093800 359786.800000
229.101400 348890.200000
230.108900 96766.800000
231.080700 87686.600000
231.116900 173918.900000
232.088600 65010.900000
233.095800 38396.400000
233.132400 33510.000000
235.111700 21139.300000
235.148400 19325.500000
237.127100 15884.100000
239.085600 264350.200000
240.093400 153823.300000
241.101500 259974.900000
242.109600 108856.200000
243.080600 24267.800000
243.117000 92812.200000
244.088900 23766.400000
244.125300 25085.500000
245.096500 81376.400000
245.132400 39730.700000
246.103700 20089.000000
252.093700 187754.700000
253.101700 224038.700000
254.107900 28204.600000
255.116900 129197.400000
256.124100 23127.200000
257.096500 61515.400000
257.132600 49603.000000
259.112100 19186.200000
265.101700 133758.800000
266.109300 72066.200000
267.117800 114890.400000
268.123400 25924.400000
269.095700 23902.300000
269.132200 35736.100000
271.110900 19008.200000
271.148500 15725.800000
278.108500 23764.100000
279.116600 69321.600000
281.132500 26807.500000
283.110400 18481.500000
283.147700 16104.000000

