>compound EQ36528468
>parentmass 186.2216
>ionization [M+H]+
>formula C12H27N
>rt 324.000000
>profile orbitrap
#smiles_iso CCCCN(CCCC)CCCC
#smiles_can CCCCN(CCCC)CCCC
#inchikey IMFACGCPASFAPR-UHFFFAOYSA-N
#pubchem_id 7622
#mb_accession EQ315001,EQ315002,EQ315003,EQ315004,EQ315005,EQ315006

>ms2peaks
57.069700 2479193.100000
74.096400 4409130.200000
86.096100 3213925.900000
128.143000 2871676.800000
130.159000 35504710.800000
186.221500 1554141816.700000

>ms2peaks
57.069800 4584321.400000
74.096400 8137732.800000
86.096100 2863566.800000
128.142900 3818015.100000
130.159000 60860229.700000
186.221500 1538284148.800000

>ms2peaks
57.069900 30749553.500000
72.080700 3512054.600000
74.096400 56254356.500000
128.143300 16756868.300000
130.159000 260691073.500000
186.221600 845711613.100000

>ms2peaks
53.002300 579722.900000
57.069900 59926387.200000
72.080700 6954550.000000
74.096400 102958060.600000
86.096300 8857596.900000
128.143300 23479588.900000
130.159000 328013479.900000
186.221600 484920789.600000

>ms2peaks
53.002300 2328298.800000
53.997600 441850.100000
57.069900 83655193.300000
72.080700 8205622.900000
74.096400 77108759.100000
78.008400 264101.000000
86.096400 9450060.900000
128.143300 13886199.400000
130.159000 154407130.100000
186.221600 84698532.400000

>ms2peaks
53.002300 4474520.600000
53.997500 554508.000000
57.069900 71526557.300000
72.080700 6325994.600000
74.096400 37669006.900000
78.008600 661707.100000
86.096400 7959346.600000
128.143400 4321118.900000
130.159000 37976351.100000
186.221600 9367855.300000

