>compound EQ37835332
>parentmass 154.08629999999997
>ionization [M+H]+
>formula C8H11NO2
>rt 54.000000
>profile orbitrap
#smiles_iso C1=CC(=C(C=C1CCN)O)O
#smiles_can C1=CC(=C(C=C1CCN)O)O
#inchikey VYFYYTLLBUKUHU-UHFFFAOYSA-N
#pubchem_id 681
#mb_accession EQ329901,EQ329902,EQ329903,EQ329904,EQ329905,EQ329906

>ms2peaks
91.054200 6934744.500000
109.064700 724534.800000
119.049100 6884531.500000
137.059700 140652976.000000
154.086200 1624299.900000

>ms2peaks
91.054200 7157675.500000
109.064800 696784.800000
119.049100 6104713.500000
137.059700 128455152.000000
154.086200 1850103.000000

>ms2peaks
65.038400 481703.300000
79.054200 122018.700000
81.069800 505597.200000
91.054200 23458084.000000
109.064700 2036874.200000
119.049100 21205520.000000
137.059700 97670096.000000
154.086300 134312.400000

>ms2peaks
65.038500 1695463.900000
79.054200 532002.700000
81.069900 1391971.200000
89.038200 104140.100000
91.054200 60035832.000000
94.041300 191058.400000
107.049200 219930.100000
109.064700 2741165.200000
119.049100 33380870.000000
137.059700 47179588.000000

>ms2peaks
65.038600 5496099.000000
79.054200 1030264.400000
81.069900 1785192.000000
89.038400 89724.900000
91.054200 81577240.000000
94.041300 348818.800000
107.049200 237741.500000
109.064800 1723477.000000
119.049100 20952478.000000
137.059700 12478839.000000

>ms2peaks
63.022800 293593.200000
65.038600 15785407.000000
79.054200 1108438.100000
81.069900 1103848.500000
89.038500 195719.100000
91.054200 86351072.000000
94.041200 551555.800000
95.049000 197166.700000
107.049100 239832.900000
109.064800 649876.800000
119.049100 9081456.000000
137.059700 2840534.500000

