>compound EQ38111195
>parentmass 343.0732
>ionization [M+H]+
>formula C19H15ClO4
>rt 744.000000
>profile orbitrap
#smiles_iso CC(=O)CC(C1=CC=C(C=C1)Cl)C2=C(C3=CC=CC=C3OC2=O)O
#smiles_can CC(=O)CC(C1=CC=C(C=C1)Cl)C2=C(C3=CC=CC=C3OC2=O)O
#inchikey DEKWZWCFHUABHE-UHFFFAOYSA-N
#pubchem_id 54682651
#mb_accession EQ309001,EQ309002,EQ309003,EQ309004,EQ309005,EQ309006

>ms2peaks
121.028200 711637.000000
163.039000 320871456.000000
181.041400 31711430.400000
189.054600 1560078.200000
231.065600 728728.900000
285.031300 77374440.800000
325.063000 2271771.300000
343.073300 277181195.400000

>ms2peaks
121.028000 1868886.600000
125.015200 275579.400000
163.039000 272266888.000000
165.010300 297380.300000
181.041400 34811042.900000
189.054600 5173775.200000
191.034000 1055758.100000
217.041800 2124653.000000
249.054400 1652692.100000
285.031300 234934254.900000
325.062500 1880529.900000
343.073300 2133163.400000

>ms2peaks
65.038500 329893.000000
68.997100 853485.800000
77.038600 923655.200000
91.054200 915694.200000
95.049100 3182990.900000
119.049100 561783.100000
121.028400 15702434.900000
125.015300 1031558.000000
128.062100 951957.200000
139.039000 516863.900000
145.064900 909534.400000
153.069700 2134157.400000
154.077600 287324.600000
155.060400 301311.300000
163.038900 199689829.000000
165.010100 6307454.700000
173.023000 211049.900000
175.039400 367714.600000
178.077200 1009838.500000
181.041500 21689357.200000
181.064100 1117351.400000
182.072800 3123012.800000
189.046400 6636443.700000
189.054800 5206455.300000
191.033900 18341741.600000
194.072500 773893.800000
201.046600 686534.300000
205.041600 316387.400000
205.065200 225203.500000
209.000400 1106925.700000
213.046600 297259.400000
217.041600 34852438.500000
221.059700 629801.500000
222.067500 231393.400000
229.041100 526312.800000
239.025800 861904.400000
249.054800 26253553.700000
250.062500 2427847.500000
257.036400 6909630.900000
267.020600 1366252.300000
285.031400 198655414.900000

>ms2peaks
65.038600 1470137.500000
68.997100 1710286.100000
69.033500 160588.300000
91.054200 3521020.700000
93.033600 1122829.500000
95.049200 12847481.400000
105.033500 242170.300000
105.044800 1023206.300000
111.044100 939985.900000
119.049100 1242301.600000
121.028400 37415826.800000
125.015200 1516169.600000
128.062200 2068678.900000
129.033200 211978.600000
137.015400 1866381.100000
138.994500 1209852.800000
139.039100 2064850.500000
145.028800 263338.600000
145.064900 1437660.300000
146.072600 631753.700000
153.070000 12200113.300000
154.077700 3301702.300000
155.060400 612759.400000
163.039000 146145942.000000
165.010200 10559726.200000
165.069700 631942.200000
166.078200 1118743.600000
173.023100 654122.000000
175.038900 317208.700000
177.070200 201935.600000
178.077800 2952797.600000
181.041600 9505226.100000
181.064700 2611563.100000
182.072700 8727496.600000
189.046600 18563746.200000
189.054800 5373577.000000
191.034000 28118168.800000
193.065100 314900.700000
194.072500 1920900.500000
199.030900 166643.500000
201.046500 1457971.100000
205.041400 227749.100000
205.064800 1309960.600000
206.072700 553896.200000
209.000100 2408723.200000
213.046600 514429.600000
217.041700 48267443.100000
221.060100 2272001.700000
222.067800 703413.700000
229.041600 723062.400000
239.025900 1328471.800000
241.041900 313383.100000
249.054800 45285486.700000
250.062500 4171620.400000
257.036500 13982101.400000
267.021100 2668450.600000
283.015300 231491.900000
285.031500 89066990.100000

>ms2peaks
50.015200 285334.400000
51.023000 126428.000000
53.002300 123051.500000
53.038800 272972.000000
65.038600 8172648.800000
68.997100 4642033.800000
69.033500 542040.200000
77.038500 2166225.300000
79.054300 241952.500000
81.033500 108512.500000
89.038600 814508.600000
91.054200 9000618.600000
93.033500 6160462.400000
95.049200 37636719.500000
102.046400 1860909.400000
105.033600 320411.000000
105.044800 3595627.900000
107.049000 303480.600000
111.044100 5992412.000000
115.054300 152865.200000
119.049200 2185453.600000
121.028400 80346580.100000
125.015300 860076.200000
127.054100 237128.600000
128.062100 2886522.700000
129.033500 700839.400000
129.044800 517766.900000
137.015300 9127085.700000
138.994500 1218907.500000
139.039000 4737375.700000
145.028500 1297265.200000
145.065000 1325651.800000
146.072800 285942.000000
152.062200 2005442.100000
153.069900 29540883.000000
154.077700 9256496.600000
155.060400 719475.600000
163.039000 76231748.700000
164.002500 512795.500000
165.010200 10311546.300000
165.069900 3631906.900000
166.077800 4005477.700000
169.064500 321313.000000
173.023300 200099.300000
175.039100 484276.000000
176.062000 1075690.500000
177.070000 753538.300000
178.077800 5978160.000000
181.041700 2249096.300000
181.064800 5920389.100000
182.072800 9385944.500000
189.046700 17367282.600000
189.054800 1788876.400000
191.034000 20998230.700000
193.064800 948680.800000
194.072700 3334846.600000
199.030800 317539.000000
201.046600 2385920.600000
204.057100 257668.400000
205.065100 1365796.400000
206.073000 562431.000000
209.000200 2275232.900000
213.046800 309359.000000
215.025900 203714.500000
217.041700 18984095.500000
221.059900 7220439.100000
222.067600 1229354.300000
229.041800 263037.700000
239.026100 1390990.800000
249.054800 35616162.400000
250.062600 2653948.600000
257.036500 8715371.200000
267.020800 2143516.800000
283.015900 510748.900000
285.031400 10161394.100000

>ms2peaks
50.015200 658434.000000
51.023000 219631.000000
53.002300 189755.500000
53.038800 537993.700000
65.038600 25779728.300000
68.997100 7061159.400000
77.038600 4187604.800000
79.054300 989097.600000
81.033400 191429.200000
89.038600 1784874.300000
91.054200 13277344.600000
93.033500 11760933.800000
95.049200 49906328.200000
102.046400 5616320.900000
105.044800 6254072.800000
107.049400 523624.800000
111.044100 13073059.100000
115.054200 532807.300000
119.049200 2758303.400000
121.028400 94717210.500000
125.015200 1018919.900000
127.054100 570750.000000
128.062100 3838364.800000
129.033600 1067716.900000
129.044700 1789585.300000
136.007500 997689.616100
137.015300 12783387.800000
138.994600 1209591.500000
139.039000 4211981.900000
145.028600 1181621.700000
145.064900 1010241.100000
146.072700 157238.500000
152.062100 7010287.800000
153.069900 25669445.400000
154.077700 10981691.800000
155.060600 648325.300000
162.994700 2636444.926000
163.039000 29930407.000000
164.002400 558072.300000
165.010300 5074471.700000
165.069900 11086724.100000
166.077700 5694242.000000
169.064900 996691.500000
176.061900 2659691.100000
177.070400 910635.900000
178.077700 6877998.100000
181.064800 5885095.200000
182.072800 5237772.700000
189.046800 4678462.700000
189.054900 684021.000000
191.033900 7830789.200000
193.064700 1604356.100000
194.072700 2831320.300000
199.031000 278643.600000
201.046400 1576878.500000
204.057100 1008611.000000
205.064900 1210560.800000
206.072700 269300.900000
209.000200 1127945.000000
217.041700 2865404.200000
221.059900 9819671.500000
229.042000 179787.100000
239.026200 890220.800000
249.054700 17906422.000000
250.062700 881571.100000
257.036700 2188229.600000
267.021300 743671.500000
283.015600 241621.900000
285.031600 297762.300000

