>compound EQ38766540
>parentmass 304.1404
>ionization [M+H]+
>formula C14H17N5O3
>rt 216.000000
>profile orbitrap
#smiles_iso CCN1C=C(C(=O)C2=CN=C(N=C21)N3CCNCC3)C(=O)O
#smiles_can CCN1C=C(C(=O)C2=CN=C(N=C21)N3CCNCC3)C(=O)O
#inchikey JOHZPMXAZQZXHR-UHFFFAOYSA-N
#pubchem_id 4831
#mb_accession EQ307501,EQ307502,EQ307503,EQ307504,EQ307505,EQ307506

>ms2
217.108500 4886883.200000
260.150600 3262680.200000
261.098200 1868774.800000
304.140300 196371161.900000

>ms2
70.065100 1468812.300000
176.081800 170271.000000
189.077200 1466275.700000
190.097400 181845.100000
191.092700 1781880.200000
215.092900 220337.600000
217.108500 70191462.000000
233.067200 179474.900000
235.083000 178152.500000
243.124100 3962888.100000
258.135200 165337.500000
260.150700 10210668.800000
261.098300 10162096.100000
286.129100 1785537.600000
304.140400 124917249.700000
306.144200 162046.200000

>ms2
70.065100 2910411.800000
148.050500 1214507.800000
162.066000 818522.800000
163.061600 437157.900000
176.081800 1415734.800000
187.061500 343870.000000
188.069300 550804.400000
189.077100 19593621.800000
190.097400 774761.300000
191.092700 2910049.600000
202.084900 367245.800000
203.092800 118190.500000
215.056500 1969272.800000
215.093000 1885070.600000
217.108400 101775392.700000
233.066900 4190001.600000
235.082500 274999.900000
241.072300 153060.400000
243.124100 6585707.800000
258.098800 619995.800000
258.134900 413436.200000
259.082800 209766.300000
260.150800 1171187.400000
261.098200 2257339.800000
276.109100 2420040.400000
286.128800 1301876.400000
304.140400 58888227.800000

>ms2
70.065100 3176039.600000
95.023900 369725.700000
120.055500 293032.900000
121.039700 305236.500000
135.055100 99395.600000
136.050600 90377.200000
139.050300 77820.000000
146.034900 433351.800000
147.055400 263576.300000
148.050500 4730855.500000
149.071100 78039.100000
159.065900 81489.600000
160.074500 84679.300000
161.082200 252330.100000
162.066200 3071057.900000
163.061300 1291104.700000
164.045400 271900.800000
164.082000 72463.200000
172.050300 416290.400000
174.066400 66542.300000
175.061200 186723.200000
176.081900 2248585.000000
187.061600 1239894.100000
187.097800 98361.200000
188.069300 1352959.500000
188.082000 256502.000000
189.077100 37680509.600000
190.097400 1398589.400000
191.092600 2187003.200000
192.076800 341410.700000
198.066100 237806.700000
200.069100 190161.400000
201.077000 90664.500000
202.084800 552987.700000
203.092400 294083.200000
207.051500 519061.300000
213.077400 173144.600000
215.056400 5053353.400000
215.092800 3300419.000000
217.108400 65363592.500000
228.100700 204162.500000
230.103700 89329.200000
230.139900 67624.700000
233.066900 11889064.900000
235.082600 197949.500000
241.071500 397122.800000
243.124100 4140799.600000
258.098600 1124771.000000
258.135200 523110.200000
259.082500 751670.600000
260.151700 82769.800000
261.098300 670768.200000
276.109200 4310194.600000
304.140400 30744672.300000
306.144800 74668.500000

>ms2
68.013100 182331.800000
68.049500 251707.300000
70.028700 416146.200000
70.065100 3284999.300000
71.060200 52921.300000
79.029100 172674.100000
80.049600 81906.800000
93.044700 254116.300000
94.039800 77959.500000
95.024000 2737118.500000
96.044400 310062.500000
103.029000 48583.400000
105.045000 285158.900000
106.028700 156482.900000
106.039700 53736.500000
108.031800 43920.400000
111.055300 60969.900000
118.040000 59262.700000
119.023800 60951.000000
119.060400 178797.100000
120.055600 1560220.000000
121.039600 1711140.200000
123.055100 84553.400000
132.055600 163237.300000
133.039700 56769.000000
134.059000 56729.500000
134.071300 244406.400000
135.055400 542214.400000
135.066500 90569.000000
136.050600 834247.200000
137.034400 174103.700000
139.050300 860393.200000
144.055500 147050.100000
145.039700 295017.300000
145.051000 57022.600000
146.035000 2091837.600000
146.071400 214843.300000
147.055300 858875.900000
147.066600 90907.700000
148.050500 12893337.500000
149.058400 49721.200000
149.071000 428345.200000
149.082300 235270.800000
158.058700 221155.000000
159.066500 967925.900000
160.050500 483950.900000
160.074400 1089456.200000
161.045900 902660.500000
161.058400 239664.600000
161.082200 406599.000000
162.066200 9677773.500000
163.061400 3461012.500000
163.097800 257138.300000
164.045400 1258807.700000
164.081500 117468.400000
171.066600 93040.200000
172.050500 1311805.900000
173.082100 542561.600000
174.053300 352390.400000
174.066100 186942.300000
174.090000 397028.900000
175.061300 321307.900000
175.097900 189319.000000
176.081900 2100533.300000
185.082000 94759.400000
186.053700 220916.100000
186.066100 89942.700000
187.061600 6314986.400000
187.097800 317539.100000
188.069400 1968307.400000
188.081800 351343.100000
188.105600 454078.300000
189.077100 43641329.700000
190.097400 1321739.200000
191.045300 69939.000000
191.092700 1228403.500000
192.040400 182654.100000
192.076500 327128.500000
198.066000 375862.700000
199.061400 188984.400000
199.098000 66858.000000
200.069100 547971.400000
200.093000 68608.400000
200.104700 52875.000000
201.077200 267869.800000
201.112800 46144.500000
202.084900 1057088.800000
203.092800 218555.600000
206.056200 176283.600000
207.051700 1041311.600000
213.077400 694641.800000
215.056400 7963819.000000
215.092800 3477884.300000
217.108500 20110152.500000
228.101300 188606.700000
230.104100 45081.300000
230.139700 86514.400000
233.066900 18374311.200000
241.071800 713864.500000
243.124000 1170141.700000
247.082800 61346.700000
258.098700 638332.100000
258.134800 335584.500000
259.082800 1409161.400000
261.098200 62691.000000
276.109200 2109594.600000
286.129300 251017.400000
304.140400 6325049.200000

>ms2
68.013100 1043674.900000
68.049500 436752.100000
69.044700 163239.000000
70.028700 1362102.600000
70.065100 2310733.100000
71.060600 41910.800000
78.033700 361396.796500
79.029100 490979.900000
80.013100 326539.741400
80.049500 319439.200000
91.029000 306193.565700
93.044700 945499.600000
94.028700 243043.274800
94.040000 172328.500000
95.024000 8792987.800000
96.044400 968747.500000
103.029100 329854.300000
105.044800 963673.300000
106.028800 425349.600000
106.039800 292449.200000
107.060400 163292.100000
108.031900 310072.100000
111.055300 201113.900000
117.044600 258921.806600
118.039900 565130.000000
119.024100 381668.500000
119.060400 754494.100000
120.055600 2716190.700000
121.039600 3802953.700000
123.055200 292154.000000
132.055700 1110314.400000
133.039600 169789.100000
133.050800 168426.900000
134.058500 387820.400000
134.071200 294410.400000
135.055300 1172903.300000
135.066500 111433.300000
136.050500 2472463.300000
137.034600 568383.800000
139.050300 1742500.900000
144.055900 257341.500000
145.039700 1017894.900000
145.050800 524773.200000
146.034900 4990776.900000
146.058600 374182.655300
146.071400 260770.400000
147.055300 1633458.400000
147.066100 281925.600000
148.050500 15139483.800000
149.058500 83373.500000
149.071100 265119.500000
149.081900 117311.800000
158.058800 1121103.100000
159.066600 2629132.400000
160.050600 1391454.800000
160.074400 2137866.200000
161.045800 1586221.700000
161.058200 365966.600000
161.082300 443551.600000
162.029900 675816.959800
162.066200 12020334.100000
163.061400 4998515.900000
164.045400 2184740.400000
171.066500 312563.500000
172.050500 1424747.000000
173.082200 1923234.100000
174.053900 487643.900000
174.065900 160720.700000
174.090100 492291.400000
175.061600 452309.400000
175.097900 167682.300000
176.081800 681730.000000
185.082200 244954.100000
186.053700 240342.100000
186.066100 115062.400000
187.061500 10135872.100000
188.069500 1469951.600000
188.081800 88373.300000
188.105500 441779.400000
189.077100 23356877.600000
190.097300 586736.000000
191.045300 221849.100000
191.092500 393030.200000
192.040300 461800.700000
192.076800 179446.200000
198.066400 361064.700000
199.061600 342155.100000
199.097500 114924.000000
200.069000 591662.100000
200.093000 191057.300000
200.105900 39222.400000
201.076900 478444.800000
201.113300 50729.800000
202.084800 574659.900000
203.092500 92068.000000
206.056000 350624.300000
207.051500 790417.800000
213.077200 987872.600000
214.084800 49874.700000
215.056400 4649064.900000
215.092700 1487771.800000
217.108500 3539169.000000
233.067000 11197427.200000
241.072200 389498.600000
243.124300 78769.900000
258.099100 57119.500000
259.082400 779940.900000
276.109200 474871.400000
304.140600 594262.000000

