>compound EQ38842248
>parentmass 193.072
>ionization [M+H]+
>formula C8H8N4O2
>rt 216.000000
>profile orbitrap
#smiles_iso CN1C2=NC=CN=C2C(=O)N(C1=O)C
#smiles_can CN1C2=NC=CN=C2C(=O)N(C1=O)C
#inchikey LMXZVISHHDYBFW-UHFFFAOYSA-N
#pubchem_id 343616
#mb_accession EQ310401,EQ310402,EQ310403,EQ310404,EQ310405,EQ310406

>ms2
81.044600 875457.000000
108.055500 1819952.800000
122.071200 770421.300000
149.082200 3405768.900000
193.071900 759410907.700000

>ms2
58.028700 829123.600000
81.044600 1303262.500000
108.055600 3917887.600000
120.055500 1447896.200000
122.071100 1990767.200000
132.055800 969337.300000
149.082200 6948875.000000
193.071900 771212229.400000

>ms2
66.033900 605775.700000
81.044700 7324857.000000
93.044700 5884143.000000
95.060300 2562406.400000
97.039600 1633749.800000
108.055600 32745757.100000
110.034900 1012596.100000
111.055300 2200510.900000
120.055600 15237568.400000
121.063400 955840.000000
122.071200 17307960.300000
126.066300 578138.300000
132.055700 6329078.600000
133.050800 1126441.600000
134.058600 4122919.600000
136.050500 7270035.000000
148.074500 1011447.800000
149.082200 40274673.700000
150.066200 803020.500000
179.056200 3546963.100000
193.072000 567628711.300000

>ms2
54.033800 504156.400000
66.033800 1794482.200000
81.044700 22959654.500000
82.040000 575728.800000
82.052600 595898.300000
93.044700 15837422.600000
95.060400 6294270.900000
97.039600 5472060.600000
105.044800 973557.000000
106.040000 1000720.600000
108.055600 79225369.200000
110.034800 1503642.800000
110.071400 612450.800000
111.055300 5481644.300000
120.055600 32020683.600000
121.050900 662616.600000
121.063400 2109966.200000
122.071200 35685371.500000
126.066300 1030787.100000
132.055600 13023665.300000
133.050900 6805119.600000
134.058700 11088760.200000
136.050600 11783399.400000
147.066500 667303.900000
148.074300 1901601.700000
149.082200 55221849.200000
150.066100 1291934.200000
161.045700 901425.200000
165.053700 1181299.900000
165.077200 590454.700000
179.056300 5820978.500000
193.072000 397153698.100000

>ms2
52.018300 675588.200000
54.033900 1043706.800000
56.049500 326417.300000
58.028800 246955.300000
66.033800 4133170.700000
67.029000 1471300.500000
68.013100 531957.300000
68.036900 759379.200000
68.049500 1191100.800000
69.044700 857228.700000
78.033900 171342.500000
79.029000 1257589.200000
80.036900 828550.900000
81.044700 70279950.900000
82.040000 804896.500000
82.052500 1247322.900000
93.044700 33233486.200000
94.039900 610143.000000
95.024000 635971.300000
95.060300 12289681.600000
96.055600 237275.000000
97.039600 25926269.200000
105.044700 1698298.900000
106.040000 3265491.400000
107.047800 2075317.800000
108.055600 122345447.300000
109.039600 334985.300000
110.034900 2744710.600000
110.071100 785886.300000
111.055300 6382040.400000
118.039900 236981.600000
119.047500 172933.300000
120.019200 2387985.700000
120.055600 39466286.400000
121.050700 947983.100000
121.063300 2698794.800000
122.071200 36681039.500000
123.055200 320122.900000
126.066200 1008033.400000
127.050000 328278.200000
132.055700 15351197.900000
133.050800 14304076.400000
134.058700 17517145.700000
136.050500 14740908.300000
138.066300 404321.800000
147.066700 1296045.400000
148.074300 2449891.700000
149.082200 37565075.300000
150.066200 1176171.700000
151.061600 233739.200000
152.045400 332295.100000
161.045800 764312.300000
165.053300 1842396.000000
179.056300 5125900.500000
193.072000 139322657.400000

>ms2
52.018300 1956391.000000
54.033900 1738394.000000
56.049600 903856.100000
58.028800 737835.100000
66.033800 5739573.900000
67.029100 3195286.800000
68.013100 1124701.800000
68.036900 1802764.300000
68.049500 1726531.500000
69.044700 758728.700000
78.033800 535336.300000
79.029000 2318566.000000
80.036900 1712506.300000
81.044700 99508650.000000
82.040000 783915.200000
82.052500 965814.600000
93.044700 37984986.300000
94.039900 760806.100000
94.052500 321880.200000
95.024000 1849791.700000
95.060400 10878446.900000
96.055900 171496.600000
97.039700 50473207.400000
105.044800 2364498.800000
106.040000 6757505.300000
107.047900 3005820.000000
108.055600 89994543.500000
109.039600 503218.400000
110.034800 892284.000000
111.055300 3451542.700000
118.040000 627985.900000
119.047900 236138.300000
120.019100 2152201.700000
120.055600 25363566.000000
121.050800 688476.900000
121.063400 2508252.200000
122.071200 19380716.900000
123.055500 172743.800000
126.066000 309081.600000
127.049900 388670.000000
132.055600 8903025.700000
133.050900 15993183.900000
134.058700 14269695.800000
136.050500 7999083.200000
147.066500 774015.000000
148.074300 1707027.900000
149.082300 12403511.300000
150.066100 286888.200000
151.061400 326731.900000
152.045600 143601.600000
161.045800 553681.300000
165.053200 930738.300000
165.077000 190318.300000
179.056500 2000809.300000
193.072000 31215923.000000

