>compound EQ38278867
>parentmass 313.1911
>ionization [M+H]+
>formula C19H24N2O2
>rt 606.000000
>profile orbitrap
#smiles_iso C1CCC(CC1)C(=O)N2CC3C4=CC=CC=C4CCN3C(=O)C2
#smiles_can C1CCC(CC1)C(=O)N2CC3C4=CC=CC=C4CCN3C(=O)C2
#inchikey FSVJFNAIGNNGKK-UHFFFAOYSA-N
#pubchem_id 4891
#mb_accession EQ327201,EQ327202,EQ327203,EQ327204,EQ327205,EQ327206

>ms2
83.085300 20524104.000000
111.080400 2743099.800000
132.080100 1905096.100000
146.096300 3759066.500000
174.091300 1525674.900000
175.123100 1061137.500000
203.117700 306650080.000000
285.195900 2504964.800000
313.190900 602181376.000000

>ms2
83.085500 160870656.000000
111.080400 8314265.000000
129.069700 1181433.600000
130.064800 854932.600000
132.080700 12286273.000000
144.080800 843888.600000
146.096400 25570446.000000
158.096300 4477418.500000
173.107300 960405.500000
174.091300 21237014.000000
175.122900 20502148.000000
201.101900 1416639.100000
203.117600 647414656.000000
256.169500 6231627.500000
285.196000 10801293.000000
313.190800 68743728.000000

>ms2
53.038600 275716.800000
55.054200 2376881.800000
72.044300 3715734.200000
83.085500 252489360.000000
105.069800 999804.400000
111.080300 1776338.500000
117.069800 1484101.400000
128.062000 392106.900000
129.069800 9532186.000000
130.065000 2132372.000000
131.072900 789839.200000
132.080700 60083568.000000
144.080800 4819958.000000
146.096400 33247328.000000
158.096400 8799536.000000
173.107300 2291354.000000
174.091300 113625512.000000
175.122900 24412366.000000
176.106800 724654.800000
185.107500 1273393.500000
186.091200 350434.100000
201.102000 314596.700000
203.117700 237329184.000000
254.153500 379657.100000
256.169500 8662378.000000
285.196000 5574750.000000
313.191400 642041.800000

>ms2
53.038600 1235262.100000
55.054300 5139577.500000
72.044300 9505144.000000
83.085500 217878976.000000
105.069900 2659410.200000
111.080400 337036.700000
115.054100 1250222.000000
117.057000 1049302.400000
117.069800 5981125.500000
118.065100 314064.300000
119.085500 272569.800000
128.062000 2274278.200000
129.069800 24322240.000000
130.065100 4631707.000000
131.073000 4080709.000000
131.085500 278223.100000
132.080700 104320352.000000
143.073100 325577.700000
144.080800 7514185.500000
145.088600 2711606.000000
146.096400 42381684.000000
155.060200 252458.600000
156.080500 629989.500000
158.096400 11295951.000000
171.091300 375825.300000
173.107300 1495661.200000
174.091300 136764752.000000
175.122900 6137098.000000
176.106600 336633.600000
185.107200 2766198.000000
186.091300 1129647.000000
203.117700 43820796.000000
256.169600 3634207.800000
285.196000 290164.000000

>ms2
51.023100 143453.800000
53.002300 701966.900000
53.038700 2295834.200000
55.054300 16450584.000000
58.028800 285634.800000
67.054200 166985.800000
67.989200 247218.800000
72.044300 11341932.000000
79.054200 187354.000000
83.085500 120619232.000000
91.054200 1474478.900000
103.054200 1486529.900000
105.069900 4861721.500000
115.054100 3622289.200000
117.057200 2685681.200000
117.069800 12892848.000000
118.064900 593637.700000
119.085400 805247.800000
128.062000 6607210.500000
129.069800 35188936.000000
130.065100 8006649.000000
131.072900 6378357.000000
131.085500 340612.700000
132.080800 98146184.000000
143.072900 331599.600000
144.080800 7753691.500000
145.064800 773000.900000
145.088700 7486040.500000
146.096400 34914704.000000
155.060400 1069204.100000
156.080700 320041.800000
158.096400 6071804.500000
171.091800 167662.500000
173.107700 322473.000000
174.091300 66620012.000000
175.123100 905178.800000
185.107400 813568.300000
186.092100 267275.800000
203.117900 4476194.500000
256.169900 189807.000000

>ms2
53.002300 763580.700000
53.038700 3283367.500000
54.033900 223731.100000
55.054300 29742424.000000
58.028800 247130.100000
67.054200 135227.300000
67.989300 185279.000000
72.044300 7071593.500000
77.038500 169171.200000
79.054200 633182.200000
81.069800 285973.100000
83.085500 57305892.000000
91.054200 3774892.200000
95.049000 355251.000000
103.054200 2502746.800000
105.069900 10982256.000000
115.054200 8631614.000000
116.062000 823213.700000
117.057200 7256270.500000
117.069800 15039360.000000
118.065100 314349.000000
119.085400 1255923.600000
127.053900 363003.500000
128.062000 14243456.000000
129.069800 33857828.000000
130.065100 14413944.000000
131.073000 9913085.000000
132.080700 81482288.000000
143.073100 1259956.600000
144.080800 8935264.000000
145.064900 1896194.200000
145.088600 11322106.000000
146.096400 20527650.000000
155.060200 2196675.200000
156.080900 319012.300000
158.096400 2390616.800000
171.091700 213340.700000
173.107300 172087.000000
174.091300 20418594.000000
185.107300 214196.600000
203.117800 240775.900000

