>compound EQ38328641
>parentmass 405.2636
>ionization [M+H]+
>formula C24H36O5
>rt 918.000000
>profile orbitrap
#smiles_iso CC[C@H](C)C(=O)O[C@H]1C[C@H](C=C2[C@H]1[C@H]([C@H](C=C2)C)CC[C@@H]3C[C@H](CC(=O)O3)O)C
#smiles_can CCC(C)C(=O)OC1CC(C=C2C1C(C(C=C2)C)CCC3CC(CC(=O)O3)O)C
#inchikey PCZOHLXUXFIOCF-BXMDZJJMSA-N
#pubchem_id 53232
#mb_accession EQ313901,EQ313902,EQ313903,EQ313904,EQ313905,EQ313906

>ms2peaks
79.054200 2157067.200000
81.069800 1385532.900000
83.049200 1260146.000000
85.064800 140285.200000
89.023200 168383.900000
93.069900 139585.300000
95.085400 229063.400000
97.064700 792744.500000
99.080400 164125.000000
105.069800 418045.500000
107.049100 1623345.900000
107.085600 2059535.900000
111.080400 224716.600000
119.085400 392607.800000
121.101100 221286.500000
125.059600 2850147.100000
127.075300 413939.900000
128.061600 90898.300000
131.085600 1340728.600000
133.101000 407259.000000
135.116600 163392.700000
143.070300 6471306.300000
143.085500 803785.500000
145.101200 2058568.900000
147.116700 184035.000000
151.075300 106005.400000
157.101200 1525668.300000
159.116800 3286512.500000
161.132300 209605.300000
165.090900 102520.900000
169.101100 1269048.500000
171.116800 1932009.600000
173.132400 21167548.700000
179.084900 143096.200000
181.100900 197180.200000
183.116900 412983.100000
185.132600 586494.300000
187.111800 130200.300000
189.090900 396706.600000
191.106600 1553141.800000
193.101300 91262.000000
193.122300 204515.200000
197.132200 644092.600000
199.148100 54084527.900000
201.163700 11079943.000000
203.106500 454779.600000
205.122300 772170.200000
207.117500 104943.700000
209.117300 1549722.700000
211.111600 141270.000000
211.147800 171267.800000
213.164000 122662.200000
215.179300 997442.200000
223.148200 4065726.400000
225.163700 25657578.700000
229.122300 1006075.900000
239.179400 6453090.500000
243.174400 35114911.600000
249.163900 8889453.300000
257.153900 185802.000000
267.174400 22285960.900000
285.185000 53087207.400000
303.195500 16826711.800000
321.205800 753862.532400

>ms2peaks
55.054100 106251.900000
67.054200 200533.800000
69.069800 948255.700000
71.012700 104200.600000
71.049100 116477.900000
79.054200 4638972.200000
81.069900 4797257.200000
83.049100 1992580.300000
83.085600 472364.700000
85.064700 874324.600000
89.023200 773435.300000
91.054100 112164.400000
93.069900 1478934.800000
95.085500 1278065.000000
97.064800 2821099.400000
99.080400 218659.600000
105.069900 2876108.100000
107.049200 1075028.800000
107.085500 4287188.800000
109.064900 212470.600000
109.101200 391277.000000
111.080500 170314.900000
117.069600 110150.600000
119.085400 1590963.800000
121.064800 127076.000000
121.101100 1570382.700000
123.080300 191317.600000
125.059700 1356667.700000
127.075400 419987.000000
128.061800 155612.400000
129.069700 135094.900000
131.085500 2838886.600000
133.101100 1854914.900000
135.080300 373606.200000
135.116800 431746.900000
141.069600 117871.800000
142.077500 97989.500000
143.070500 1605311.000000
143.085600 4159761.900000
145.101200 5023621.300000
147.116900 848002.000000
149.096400 196614.800000
151.075400 717924.700000
155.085400 980418.500000
157.101200 4887753.600000
159.116800 8891325.300000
160.125000 100699.900000
161.132500 438814.800000
163.111900 536783.700000
165.091100 442858.900000
167.085300 125733.100000
169.101200 5732344.000000
171.116800 8017792.800000
173.132500 28079352.300000
177.090700 377353.100000
177.127300 104888.300000
181.101200 763007.900000
183.116800 3171797.800000
185.095800 135376.800000
185.132600 2069169.300000
187.111500 130522.600000
187.148300 97484.100000
189.091100 472224.800000
191.106700 2810880.700000
193.101200 499281.200000
193.122200 117158.300000
195.116600 492269.200000
197.132500 3080522.000000
199.148100 45062952.900000
201.163700 10965830.400000
203.105800 149421.600000
205.101500 133294.700000
205.122200 1079934.800000
207.116700 1443926.200000
208.124800 104195.400000
209.117000 375893.600000
209.132700 156881.100000
211.111700 1249620.100000
211.148200 2547187.200000
213.163700 403319.100000
215.179500 1541944.600000
220.125100 148451.100000
221.132700 457983.200000
223.148200 5814861.600000
225.163700 29419931.300000
229.122200 1290040.000000
234.140300 402682.600000
239.143500 679325.200000
239.179400 7561916.500000
243.174400 15514923.400000
249.163900 8892737.600000
257.153500 214783.700000
267.174400 5966695.500000
285.185100 7665487.400000
303.195300 1351721.200000

>ms2peaks
55.054200 103898.600000
57.069900 216495.200000
67.054200 1349855.100000
68.997100 413033.700000
69.069900 1726631.000000
71.012800 211149.500000
71.049100 478221.000000
77.038400 163965.300000
79.054200 7931375.000000
81.069900 8100762.500000
83.049100 3703665.900000
83.085500 395914.500000
85.064700 1678449.800000
89.023200 883003.800000
91.054200 1460114.200000
93.069800 3420376.200000
95.049100 618176.800000
95.085400 2315952.500000
97.064700 2491558.500000
105.069900 6811337.000000
107.085500 6036952.600000
109.064700 724319.200000
109.101100 559226.300000
115.053900 199617.900000
117.069700 1177825.900000
119.085500 4191338.700000
121.101100 2090317.800000
123.080300 163893.600000
125.059700 569855.500000
128.061900 942239.000000
129.069800 1023244.500000
130.077500 162746.100000
131.085500 9117449.400000
133.101100 1962019.600000
135.080500 571694.800000
135.116800 482165.700000
141.069800 728381.300000
142.077900 1492826.400000
143.085600 18640379.700000
144.093500 1010460.900000
145.101200 11228954.900000
147.080100 115196.500000
147.116900 1026844.800000
149.096300 633988.300000
151.075300 498997.200000
153.069300 127215.100000
154.077800 196483.700000
155.085500 3929981.600000
156.093500 1610840.900000
157.101200 9180582.200000
158.109000 2885893.200000
159.116800 13148843.600000
160.124800 133119.600000
161.095800 96359.700000
161.132600 385791.300000
163.075200 109621.100000
163.111500 321532.800000
165.091100 444690.600000
167.085400 519605.800000
168.093500 421956.700000
169.101100 10150137.100000
170.108800 370207.000000
171.116800 10162971.800000
173.132500 27890745.100000
177.090800 220262.500000
177.127400 101326.500000
179.085600 430238.300000
181.101200 1602951.500000
182.108600 665719.300000
183.116900 7423046.500000
184.124800 594464.400000
185.096100 146080.100000
185.132600 2040071.800000
187.111600 215956.500000
187.148000 115537.000000
189.090800 126492.400000
191.106700 1798964.800000
192.093400 120773.900000
193.101200 1367482.800000
194.109300 342072.600000
195.116900 1018265.400000
196.124700 418852.400000
197.132500 4789945.700000
198.140500 456819.200000
199.148000 32908713.400000
201.163700 4850314.200000
203.106400 119639.900000
205.101400 150474.800000
205.122500 160309.100000
207.116900 2326164.400000
208.124500 450757.000000
209.132600 190610.400000
210.139900 809888.000000
211.111800 1167591.100000
211.147900 1654526.700000
213.163700 163619.700000
215.179600 730542.600000
219.117100 467989.900000
220.124800 199604.600000
221.132400 708684.200000
223.148200 5107271.100000
225.163700 17044601.800000
229.122600 723008.800000
234.140500 771475.800000
239.143200 206685.900000
239.179500 1926787.500000
243.174500 1659746.700000
249.163700 2530558.300000
267.174400 685985.100000
285.185100 613236.200000

>ms2peaks
57.069900 267311.500000
65.038500 389591.800000
67.054200 2650020.700000
68.997100 536188.400000
69.033500 217591.900000
69.069800 1865460.600000
71.012700 1066091.800000
71.049100 367286.900000
77.038400 365816.700000
79.054200 10968129.400000
81.069800 10636702.000000
83.049100 3669131.900000
83.085400 217085.700000
85.064800 1334204.700000
89.023300 369144.900000
91.054100 3314326.800000
93.069800 5247224.700000
95.049200 850126.000000
95.085500 2497419.500000
97.064700 2506260.600000
103.054100 355949.300000
105.069900 11837745.600000
107.085500 7079898.600000
109.064700 772297.400000
109.101200 487468.600000
115.053900 667607.700000
116.061700 126853.600000
117.069800 2882232.800000
119.085500 6723344.000000
121.064600 372275.600000
121.101100 2596093.300000
123.080200 109152.400000
125.059600 448339.300000
128.061900 2273910.400000
129.069800 3132252.600000
130.077800 881857.300000
131.085500 15060834.600000
133.065000 322801.600000
133.101100 2023429.400000
135.080500 370377.700000
135.116900 368709.700000
141.069800 1835781.100000
142.077800 4086595.900000
143.085600 32127625.900000
144.093400 2560387.600000
145.101100 15968721.900000
147.080600 386863.600000
147.116800 1031905.400000
149.096100 411636.700000
151.075200 225034.700000
153.069700 482308.000000
154.077300 670119.800000
155.085500 7487282.600000
156.093400 4443506.400000
157.101200 12498927.600000
158.109000 6280686.300000
159.116800 13915016.400000
160.124500 380166.700000
161.095900 141057.500000
161.132500 127308.900000
163.075200 152581.200000
163.111500 388912.900000
165.069600 210609.100000
165.091100 105446.300000
166.077900 210691.500000
167.085700 768286.700000
168.093300 1293005.700000
169.101100 13014855.500000
170.109000 581109.400000
171.116700 11043796.500000
173.132400 19972025.000000
177.091000 109706.000000
178.077800 173446.300000
179.085400 500121.700000
181.101100 2635102.000000
182.109000 863952.500000
183.116900 9716458.400000
184.125100 770598.100000
185.132500 1425700.700000
187.111400 462992.100000
187.148200 153841.800000
191.106700 642956.700000
192.093500 944022.500000
193.101100 1826272.200000
194.109300 482473.100000
195.116900 1603955.200000
196.124800 1104615.300000
197.132400 5165039.200000
198.140400 204905.400000
199.148100 20670873.900000
201.163700 2258428.700000
205.101200 670856.500000
206.108900 170864.900000
207.117000 2324841.100000
208.124700 575758.600000
209.132600 230034.800000
210.140100 1206975.600000
211.111700 797560.300000
211.148000 1538373.300000
215.179700 124890.000000
219.116700 619336.100000
220.124400 185254.600000
221.132100 642953.800000
223.148100 2604540.100000
225.163600 10730648.700000
229.122500 107541.200000
234.140600 815145.000000
239.142800 252831.700000
239.179600 742940.600000
243.174600 425877.900000
249.163800 756687.400000

>ms2peaks
57.070000 173304.300000
65.038600 524214.600000
67.054200 3137870.000000
68.997100 363588.900000
69.033400 148320.300000
69.069800 1734943.600000
71.012700 982350.300000
71.049100 492917.600000
77.038500 478466.700000
79.054200 9483576.100000
81.069800 9137547.500000
83.049100 2707197.700000
85.064800 650014.100000
89.023200 158150.100000
91.054200 7503785.100000
93.069800 4583082.200000
95.049100 1777152.400000
95.085500 1627441.800000
97.064800 1080591.400000
103.054000 206261.600000
105.044800 814931.500000
105.069900 13010768.400000
107.085500 3813880.500000
109.064800 624703.300000
109.101200 395511.700000
115.054000 1590388.300000
116.061900 674488.800000
117.069800 4549801.300000
119.085400 6930191.200000
121.064700 372047.400000
121.101100 911315.600000
127.054400 103257.700000
128.061900 7018345.400000
129.069800 6295514.000000
130.077700 2170259.400000
131.085500 13040890.300000
133.101100 1640131.700000
135.080300 165254.000000
135.116600 152152.800000
141.069800 3426479.200000
142.077800 7633679.500000
143.085600 30667492.500000
144.093300 4398390.400000
145.101100 10313271.600000
147.080400 196421.200000
147.116500 426833.300000
149.096300 182730.200000
153.069900 908843.500000
154.077600 2229336.800000
155.060400 523054.400000
155.085400 7667016.000000
156.093400 5156664.300000
157.101100 7926119.600000
158.109000 6457199.200000
159.116800 5681557.500000
165.070000 729826.300000
166.077600 365650.600000
167.085500 1515987.000000
168.093300 2530094.900000
169.101100 9796556.100000
170.108600 751318.800000
171.116700 4643217.400000
173.132400 5830454.500000
178.077400 371096.000000
179.085500 1110053.600000
180.093300 354889.000000
181.101200 2187399.200000
182.109100 1155398.400000
183.116900 4890149.200000
184.124800 384682.800000
185.132700 217712.700000
191.085600 179377.100000
192.093300 943558.500000
193.101300 1193061.600000
194.109000 206176.900000
195.116800 1591384.800000
196.124600 1077711.500000
197.132300 1914144.100000
198.140500 148918.200000
199.148100 3305644.400000
201.164100 145225.900000
205.101300 438206.500000
206.109400 134542.400000
207.116800 903670.500000
208.124800 442096.600000
210.140300 832863.100000
211.111700 183196.100000
211.148100 473475.600000
219.117100 492913.500000
223.148100 1035614.300000
225.163700 2060913.700000
234.140200 173644.700000

>ms2peaks
57.069800 102648.000000
65.038500 1025682.600000
67.054200 4050101.400000
68.997100 611934.900000
69.033500 400609.800000
69.069800 1166906.300000
71.012700 599768.300000
71.049200 570598.800000
77.038500 1204204.700000
79.054200 13163908.400000
81.069800 8276712.900000
83.049100 2201414.400000
85.064800 377511.600000
91.054200 16160708.800000
93.069800 3649674.800000
95.049100 4105341.500000
95.085400 1083229.700000
97.064900 484341.100000
103.054200 1334939.600000
105.044700 1316850.000000
105.069900 18607098.900000
107.049000 101324.700000
107.085500 1658467.400000
109.064800 903751.600000
115.054100 4055625.300000
116.061900 2118703.500000
117.069700 5746473.600000
119.085400 7875603.900000
121.064800 136927.200000
121.101000 169245.900000
127.054000 441127.000000
128.062000 18755909.500000
129.069800 12341848.100000
130.077700 4061623.700000
131.085500 11620049.600000
133.064900 130360.400000
133.101100 1004437.800000
141.069800 8555024.500000
142.077800 11315980.600000
143.085600 27599886.400000
144.093400 4826884.800000
145.101200 6455375.200000
147.116800 157427.000000
152.062100 566045.601100
153.069800 3284829.200000
154.077700 3906978.200000
155.060400 1512735.800000
155.085500 8996217.300000
156.093300 5808954.100000
157.101100 5222924.900000
158.109000 4065348.600000
159.116800 2451715.100000
165.069700 1491966.700000
166.077600 1271124.700000
167.085500 2871845.300000
168.093300 3197373.000000
169.101100 8033297.500000
170.108800 832364.300000
171.116700 2292211.200000
173.132400 1438675.400000
178.077600 924926.800000
179.085200 1123636.800000
180.093200 438595.000000
181.101100 3127740.700000
182.109100 1111990.300000
183.116800 2480809.800000
184.124600 527922.300000
185.132300 115862.300000
191.085700 589256.100000
192.093100 1022715.300000
193.101100 1319418.800000
194.109000 119020.100000
195.116900 1529429.000000
196.125100 158227.400000
197.132400 962114.400000
199.148100 506962.700000
204.093400 365745.915600
205.101300 489305.700000
206.109200 109272.000000
207.116500 211061.100000
209.132200 100901.700000
210.140400 451429.300000
219.116900 598658.100000
223.148200 146409.800000
225.163600 442770.300000

