>compound EQ39148949
>parentmass 199.0866
>ionization [M+H]+
>formula C12H10N2O
>rt 792.000000
>profile orbitrap
#smiles_iso C1=CC=C(C=C1)N=[N+](C2=CC=CC=C2)[O-]
#smiles_can C1=CC=C(C=C1)N=[N+](C2=CC=CC=C2)[O-]
#inchikey GAUZCKBSTZFWCT-UHFFFAOYSA-N
#pubchem_id 10316
#mb_accession EQ308801,EQ308802,EQ308803,EQ308804,EQ308805,EQ308806

>ms2
53.038600 596.000000
55.054200 4003.100000
57.033600 737.600000
57.069900 7225.700000
59.049200 1324.200000
65.038700 662.500000
67.054200 7373.700000
69.069900 204464.500000
71.049100 16121.400000
71.085500 6878.700000
72.044400 833.900000
73.028300 1328.500000
73.064800 684.800000
77.038400 2154.900000
79.054300 3991.300000
81.069900 12694.800000
83.049100 3930.500000
83.085500 31334.800000
85.064800 11192.800000
87.044000 679.200000
89.059800 6887.800000
92.049400 44921.900000
93.069900 10469.900000
95.049100 8916.900000
95.085600 12678.600000
97.064800 11800.600000
99.044000 3584.100000
99.080500 4215.100000
100.075700 8609.900000
101.059800 1176.900000
105.033500 8814.800000
105.044800 5721.300000
107.085600 16937.900000
109.064700 1580.600000
111.044100 28538.200000
113.059900 1203.500000
114.066300 1152.100000
115.075200 2434.700000
119.085500 1198.600000
121.064700 3148.300000
123.080500 5389.200000
125.059600 4778.600000
127.075400 891.100000
129.069900 1349.500000
135.080500 3642.300000
139.075300 8708.100000
143.085300 1281.900000
163.075100 4490.200000
169.088200 791.200000
182.083900 19101.700000
199.086400 30206.800000

>ms2
53.038600 560.700000
55.054300 5454.500000
57.033500 1281.400000
57.069900 9709.400000
59.049100 530.900000
65.038600 1260.200000
67.054200 10920.300000
69.069900 260604.100000
71.049100 17036.100000
71.085500 7956.800000
72.044400 1333.400000
73.028400 3010.700000
73.064700 2119.400000
77.038500 3290.800000
79.054200 4022.400000
81.069900 16756.300000
83.049100 3370.000000
83.085500 37500.900000
85.028500 1104.900000
85.064800 9478.700000
87.044100 648.900000
87.080400 714.700000
89.059800 5139.900000
91.054200 835.300000
92.049500 46378.200000
93.069900 12864.700000
95.049200 10663.600000
95.085500 18944.900000
97.064800 10837.900000
99.044000 4805.300000
99.080400 5920.500000
100.075700 7635.900000
101.059700 2601.300000
105.033500 7711.600000
105.044800 15449.200000
105.069900 1135.800000
107.085600 19189.400000
109.064800 3396.100000
111.044100 24255.500000
111.080500 14375.600000
113.059700 2549.700000
115.075500 3179.600000
117.069800 632.700000
119.085400 1052.800000
121.064800 2354.300000
123.080400 4426.800000
125.059700 4429.500000
127.075400 1352.200000
129.069500 651.900000
130.073300 2195.900000
135.080500 5003.700000
139.075300 10032.300000
143.085600 1299.500000
163.075300 2472.300000
169.088700 735.200000
182.083900 22026.000000
199.086600 16542.600000

>ms2
53.002300 2476.600000
53.038600 1059.800000
55.054300 11431.800000
57.033600 2582.700000
57.070000 13094.900000
59.049200 2882.200000
65.038600 2771.300000
67.054200 19934.200000
69.069900 327720.000000
71.049100 16051.200000
71.085600 7360.800000
72.044400 4540.900000
73.028400 1005.700000
73.064800 2636.800000
77.038500 5310.800000
79.054200 11304.100000
81.069900 24050.100000
83.049100 7381.800000
83.085600 42396.200000
85.028500 969.200000
85.064900 8019.800000
87.080600 471.200000
89.059800 3671.800000
91.054200 4979.400000
92.049500 46015.800000
93.069900 19342.100000
95.049200 31844.400000
95.085500 17483.800000
97.028300 849.000000
97.064900 16087.100000
99.044100 3340.700000
99.080500 4591.100000
100.075800 11402.800000
101.059700 930.200000
105.033500 7679.100000
105.044800 22268.000000
105.069900 2879.800000
107.085600 21482.100000
109.064600 3888.000000
111.044100 20972.900000
111.080400 10930.500000
113.059600 1292.200000
114.066100 914.100000
115.075400 698.700000
117.070000 1211.500000
119.085600 2134.200000
121.028500 2048.000000
121.064700 3468.000000
123.080400 4782.400000
125.059600 3217.000000
129.069900 2893.000000
130.073500 4057.400000
135.080500 3854.600000
139.075500 6923.700000
142.077900 835.300000
143.085700 3000.000000
156.081000 738.300000
163.075700 2168.400000
182.083800 5722.700000
199.086900 1176.400000

>ms2
53.002300 5744.000000
53.038700 3114.500000
55.017900 1152.000000
55.054300 22063.200000
57.033600 2254.200000
57.069900 15063.000000
59.049200 3670.400000
65.038600 8674.100000
67.054200 23647.100000
69.069900 270509.300000
71.049100 11507.400000
71.085500 3982.800000
72.044400 6179.200000
73.028500 1233.500000
73.064800 1018.900000
77.038400 4165.100000
79.054300 13245.500000
81.069900 24625.200000
83.049200 8682.800000
83.085600 32829.600000
85.028500 896.300000
85.064800 5656.700000
89.059700 968.300000
91.054100 7913.400000
92.049500 38761.200000
93.069900 24053.800000
95.049200 42519.200000
95.085500 14585.600000
97.064800 12615.500000
99.044100 2930.700000
99.080400 2562.300000
100.075700 7109.500000
101.059700 778.300000
105.033600 8988.700000
105.044800 19120.300000
105.070000 3584.300000
107.049200 958.500000
107.085600 16173.600000
109.064900 4917.000000
111.044100 17211.600000
111.080500 8525.300000
113.059700 789.000000
114.066000 994.100000
115.054200 1180.000000
117.070000 772.400000
119.085700 1160.000000
121.064700 4207.000000
123.080400 4379.300000
125.059700 3390.700000
127.075500 568.800000
129.069900 3510.100000
130.073400 3022.800000
135.080400 4286.000000
139.075400 3865.500000
142.078000 2105.100000
143.085800 2868.400000
155.085800 667.500000
156.080100 640.800000
182.084100 1077.200000

>ms2
53.002300 6475.300000
53.038700 3336.800000
55.054300 27363.600000
57.033600 2613.200000
57.069900 13424.700000
59.049200 5160.200000
65.038600 16949.300000
66.046500 684.500000
67.054200 28378.000000
69.069900 206643.600000
71.049100 7903.700000
71.085500 3007.600000
72.044500 5325.600000
73.028400 2923.800000
73.064800 1158.100000
77.038600 5677.000000
79.054300 17588.500000
81.069900 21480.900000
83.049200 7579.100000
83.085600 19617.300000
85.028400 1614.000000
85.064800 3974.000000
89.059800 595.700000
91.054200 11787.600000
92.049500 29884.000000
93.069900 17913.700000
95.049200 57274.100000
95.085600 11516.100000
97.007500 868.700000
97.028600 1079.300000
97.064900 8539.700000
99.044200 823.900000
99.080400 1237.200000
100.075700 3017.700000
105.033500 5925.600000
105.044800 13240.900000
105.069900 5800.000000
107.085500 10515.900000
109.064700 3877.400000
111.044000 10757.400000
111.080400 4724.700000
113.059700 691.000000
114.066100 868.800000
115.054100 3582.500000
117.070000 2822.900000
119.085600 631.100000
121.064800 891.700000
123.080400 3348.100000
125.059900 804.500000
128.061900 1243.200000
129.065700 627.700000
129.070000 3816.200000
130.073400 2916.400000
135.080300 1513.700000
142.078000 4121.300000
143.085600 2496.300000

>ms2
53.002300 8942.000000
53.038700 5658.300000
55.018000 3000.500000
55.054300 37231.300000
57.033500 2178.700000
57.069900 10359.800000
59.049200 2628.100000
65.038600 25325.600000
66.046400 632.200000
67.054200 28968.600000
69.069900 120368.700000
71.049100 5263.100000
72.044400 6082.400000
73.028500 1245.700000
73.064900 943.300000
77.038500 5928.000000
79.054200 20364.200000
81.069900 16839.800000
83.049100 4401.600000
83.085500 7644.900000
85.064900 2417.800000
91.054200 15729.000000
92.049500 20177.400000
93.069900 13501.600000
95.049100 64932.600000
95.085500 6461.400000
97.007600 4788.000000
97.064800 5349.800000
99.044200 1037.900000
99.080400 950.600000
100.075600 1106.700000
105.033500 3435.000000
105.044800 10489.100000
105.070000 5889.000000
107.049200 575.200000
107.085600 5592.600000
109.064700 2560.100000
111.044200 7006.900000
111.080300 1319.400000
115.054200 6443.000000
117.069900 1275.400000
119.085600 1029.100000
121.028100 627.200000
121.064700 826.000000
123.080400 1189.100000
128.062100 3829.700000
129.065500 798.600000
129.070000 2933.600000
130.073300 2487.000000
142.077700 4750.400000
143.085600 888.300000
155.085600 938.600000

