>compound EQ39151510
>parentmass 296.12809999999996
>ionization [M+H]+
>formula C18H17NO3
>rt 762.000000
>profile orbitrap
#smiles_iso CCOC(=O)C1=NOC(C1)(C2=CC=CC=C2)C3=CC=CC=C3
#smiles_can CCOC(=O)C1=NOC(C1)(C2=CC=CC=C2)C3=CC=CC=C3
#inchikey MWKVXOJATACCCH-UHFFFAOYSA-N
#pubchem_id 6451155
#mb_accession EQ316801,EQ316802,EQ316803,EQ316804,EQ316805,EQ316806

>ms2peaks
70.065100 3490438.400000
77.038300 787114.300000
103.054200 1019309.700000
104.049400 222814.400000
105.033400 24800204.400000
146.059900 292646.100000
165.069400 889263.700000
167.086000 167125.300000
176.061500 611635.700000
178.076900 859431.000000
179.085600 1352136.100000
181.101300 524609.500000
183.080400 69349980.400000
191.085400 2633404.100000
193.100400 212237.200000
194.096500 181545.400000
202.077500 193958.900000
203.072800 580065.100000
204.080800 16049875.700000
206.096400 18753026.600000
207.080500 2199144.100000
219.104000 272645.900000
222.091300 18382005.100000
232.075700 129240769.400000
233.083800 1028935.100000
234.127800 3167000.600000
235.075200 1238760.600000
235.111700 2551261.700000
250.086200 122530983.300000
263.106600 165513997.500000
268.096700 2021343.000000
278.117500 585654.900000
296.128000 63434944.400000

>ms2peaks
70.065100 2259507.100000
95.049100 269658.200000
103.054200 1691061.900000
104.049400 1458342.100000
105.033500 65725812.700000
128.049400 727938.700000
146.059900 504495.300000
165.069800 2352439.400000
166.078000 1001167.300000
167.085700 279311.200000
176.061800 785849.900000
177.069700 1555662.300000
178.077500 1486979.900000
179.085300 3512888.900000
181.101300 521208.700000
183.080400 33023036.400000
191.085400 19317947.000000
194.096400 1996548.900000
202.077600 675439.500000
203.072900 2503630.200000
204.080800 88513110.000000
205.088700 1559000.500000
206.096500 19327119.800000
207.080400 20774170.700000
219.104000 926163.100000
222.091300 10960449.000000
232.075600 263173814.500000
233.083400 2985580.300000
234.127600 1650401.100000
235.075300 6083745.000000
235.111500 10789315.500000
250.086200 15956961.300000
263.106600 63713953.300000
268.096600 605329.800000
278.117700 823715.200000
296.128000 509317.900000

>ms2peaks
70.065100 637025.200000
77.038400 2365752.900000
91.054200 292787.400000
95.049100 3610688.100000
103.054200 1994924.400000
104.049500 2850086.400000
105.033500 77862051.500000
116.049300 521138.900000
128.049400 3188718.500000
130.028800 1979326.400000
146.060000 2159416.300000
151.053500 246687.300000
153.069700 289205.200000
165.069700 3511523.300000
166.077700 1311574.800000
167.085400 868508.400000
169.064600 249476.800000
176.062000 4773294.400000
177.069800 15426986.800000
178.064900 938600.700000
178.077600 5968161.300000
179.072900 267414.300000
179.085400 4043919.700000
180.080900 294589.000000
181.064900 525353.600000
183.080400 4376064.700000
191.085500 26858477.700000
192.093500 269255.800000
193.088700 1878122.400000
194.096400 3609723.400000
195.080200 1357382.400000
196.076100 290386.800000
201.056400 289954.700000
202.064900 937394.000000
202.077500 215320.300000
203.073000 21945769.900000
204.080800 203524167.300000
205.064800 949545.900000
205.076000 2234209.200000
205.088400 4969138.200000
206.096400 12627193.600000
207.080300 50654473.800000
219.104100 1065214.200000
220.076100 968752.900000
222.091300 3766173.400000
232.075600 126246659.600000
233.083700 2290417.200000
235.075300 8558650.500000
235.111500 2752794.500000
250.086400 766240.900000
263.106400 4132410.000000

>ms2peaks
53.038800 258095.000000
70.065200 223702.600000
75.022900 187273.000000
77.038500 5275426.000000
81.033500 234626.300000
91.054100 1343159.900000
95.049100 10353079.400000
103.054200 1638851.800000
104.049500 3432586.300000
105.033500 62024266.000000
105.044700 6584513.600000
116.049400 745992.500000
128.049400 5866463.400000
129.044600 1172963.100000
130.028800 1758854.500000
146.060000 2217633.700000
151.054400 1963740.700000
152.062000 1231026.100000
153.069600 1646071.600000
164.062100 504534.200000
165.069800 5781136.500000
166.077700 643852.800000
167.085600 1322762.100000
169.064700 4060835.700000
175.053800 272165.300000
176.062000 36929418.200000
177.069800 50280632.300000
178.065800 3821275.500000
178.077600 18209565.800000
179.060400 870706.300000
179.072900 1115576.100000
179.085400 6248083.200000
180.080800 288934.400000
181.064700 1578574.200000
189.069800 594776.700000
190.065100 627651.700000
190.077400 894153.800000
191.085500 18025003.500000
192.080500 246927.700000
192.093500 194552.000000
193.088600 3745058.900000
194.096400 2036602.700000
195.080600 1680715.000000
196.075900 1565127.000000
201.056900 742964.800000
202.065200 3684021.300000
203.072900 84687999.300000
204.080700 181561762.100000
205.064700 1067816.400000
205.075900 4384952.000000
205.088400 4361902.800000
205.096600 286623.100000
206.096300 4698159.200000
207.080400 44228728.900000
218.096200 594863.700000
219.104000 457843.000000
220.075800 3213793.600000
222.091300 1249319.000000
232.075700 24359710.000000
233.083200 548062.900000
235.075400 1894083.800000

>ms2peaks
51.023000 424270.400000
53.038800 1015375.700000
65.038700 154204.900000
75.022800 1745188.100000
77.038500 9923565.300000
79.054200 138268.600000
81.033500 658445.700000
89.038400 579157.000000
91.054200 1760733.100000
95.049100 19076941.300000
101.038500 1277135.400000
103.054200 1521187.200000
104.049400 3407150.200000
105.033400 35834933.600000
105.044600 13387619.100000
115.054100 547325.100000
116.049400 1299436.000000
117.057300 782867.000000
119.049200 1566103.600000
126.033800 165216.400000
127.053800 238396.300000
128.049300 5249123.000000
128.062000 350614.100000
129.044600 3568038.600000
130.028800 537296.200000
130.040200 905713.900000
139.053900 184685.400000
145.065000 185032.600000
146.059900 2033661.000000
150.046500 254436.000000
151.054100 7709384.300000
152.062000 3600965.500000
153.070000 1359305.800000
155.060100 198341.600000
164.061800 618219.300000
165.069800 9714366.500000
166.077600 923932.500000
167.073000 738979.300000
167.085400 650029.600000
169.064700 15017567.400000
175.054200 1454109.500000
176.062000 84071207.500000
177.057200 2086659.800000
177.069700 40646077.700000
178.077600 37747411.800000
179.060300 4617607.300000
179.073000 1154792.700000
179.085300 5534977.400000
181.064900 875886.000000
189.069800 2179681.200000
190.065000 1292556.500000
190.077500 2688725.700000
191.085400 10750549.200000
192.080300 1445292.000000
192.093900 136594.200000
193.064800 1278364.600000
193.088500 3818015.400000
194.060000 166492.600000
194.072700 141160.400000
194.096200 493613.500000
195.080500 1285273.500000
196.075900 1115031.000000
201.057000 3126392.200000
202.065100 6337998.800000
203.072800 129032098.800000
204.080700 84988688.400000
205.064800 578291.700000
205.076000 2506104.800000
205.088300 1194235.400000
205.096600 156929.800000
206.096100 947231.800000
207.080400 18833930.200000
217.088500 209486.700000
218.096400 240777.300000
219.103700 189717.900000
220.075600 5758314.100000
222.091700 192558.700000
232.075700 4658148.400000

>ms2peaks
53.038800 1033114.800000
65.038600 656953.700000
75.022900 4081520.300000
77.038500 12864916.700000
79.054300 108662.400000
81.033500 802643.600000
89.038500 1314345.300000
91.054200 2031883.200000
95.049100 20386218.300000
101.038600 1571861.200000
103.054100 894523.200000
104.049500 2586770.100000
105.033500 14544911.100000
105.044700 14436302.400000
115.054200 518299.100000
116.049300 977932.200000
117.057200 603008.500000
119.049100 1165395.200000
120.044500 151178.600000
126.033500 161837.800000
127.054100 243058.300000
128.049400 3119895.600000
128.062100 641841.300000
129.044700 4129179.400000
130.040000 749650.900000
139.053800 283334.900000
144.044100 114374.900000
145.064700 269689.900000
146.060100 660916.000000
150.046300 2378986.900000
151.054100 13510090.100000
152.062000 9122435.200000
153.069800 1140268.400000
155.060200 1195548.900000
164.061800 614352.300000
165.069800 11558777.400000
166.077600 585701.400000
167.072700 1281632.400000
169.064700 27273729.800000
175.054200 2083534.400000
176.062000 95475749.300000
177.057500 7696223.300000
177.069700 16600430.300000
178.064900 2886771.900000
178.077600 43678238.600000
179.060200 8287448.700000
179.072100 1231703.500000
179.085400 2463741.700000
180.080900 214243.300000
181.064200 348655.700000
189.069800 3608452.300000
190.064900 1192879.300000
190.077600 2409041.100000
191.085400 3748109.800000
192.080500 1912944.100000
193.064900 2394982.800000
193.088400 2205657.700000
194.059800 697313.500000
194.072700 141958.000000
195.080400 536559.900000
196.075600 529495.700000
201.057200 5419539.000000
202.065100 11460345.600000
203.072800 103531593.100000
204.080700 41605015.800000
205.065300 269373.600000
205.075900 1026634.500000
205.088600 224614.000000
206.096200 196848.400000
207.080500 3852223.200000
217.088500 239692.700000
218.096200 177888.100000
220.075700 9125738.300000
232.075700 1407717.800000

