>compound EQ39609827
>parentmass 362.1511
>ionization [M+H]+
>formula C18H20FN3O4
>rt 246.000000
>profile orbitrap
#smiles_iso CC1COC2=C3N1C=C(C(=O)C3=CC(=C2N4CCN(CC4)C)F)C(=O)O
#smiles_can CC1COC2=C3N1C=C(C(=O)C3=CC(=C2N4CCN(CC4)C)F)C(=O)O
#inchikey GSDSWSVVBLHKDQ-UHFFFAOYSA-N
#pubchem_id 4583
#mb_accession EQ307301,EQ307302,EQ307303,EQ307304,EQ307305,EQ307306

>ms2
261.103300 1239920.700000
318.161200 22635255.000000
362.150900 222666807.100000

>ms2
58.065100 1303941.400000
70.065000 794724.300000
72.080700 276832.400000
84.080700 777309.800000
219.056600 252320.700000
221.072000 322002.100000
233.072400 644550.800000
241.097200 234434.300000
247.087600 859507.400000
261.103300 36823433.400000
270.123500 570468.300000
273.103900 194941.000000
275.118700 184129.400000
298.155100 1166192.400000
316.145800 4882714.600000
318.161100 135799727.100000
344.140000 1508994.900000
362.150900 49324100.700000

>ms2
56.049500 135822.700000
58.065100 6269353.000000
70.065100 4706688.300000
72.080700 1706533.000000
82.065100 561584.100000
84.080700 1807433.700000
85.088400 569518.800000
99.091700 366362.400000
171.055200 107494.700000
178.029700 231808.800000
179.037600 499850.000000
180.045400 110225.800000
192.045600 259344.300000
193.040700 597582.700000
194.024700 366844.100000
194.061200 114485.800000
199.049900 664942.500000
200.058000 105187.000000
202.066200 407271.500000
203.061300 185241.900000
204.045300 203619.300000
205.040700 1576545.200000
205.077100 1590756.700000
213.065400 111548.900000
217.040700 444383.100000
218.048100 103621.000000
218.061300 279572.800000
219.056500 3864192.800000
219.068300 332097.200000
220.064300 598107.700000
220.076900 334996.000000
221.072000 5755979.000000
231.056300 106889.200000
231.093200 381415.200000
232.076800 186343.200000
233.072100 3218699.400000
233.084500 683306.100000
234.092400 303104.400000
235.087400 348754.000000
241.097000 1570207.700000
243.093200 102477.700000
244.077000 311846.000000
245.071700 800026.000000
247.087700 3138953.200000
253.121100 112969.800000
255.100000 607537.900000
255.113200 396089.600000
256.108200 238892.800000
259.088500 365580.900000
261.103300 101815906.400000
268.107800 306043.900000
268.144400 334060.800000
269.116200 398846.300000
270.123500 1618892.900000
273.103300 1883472.600000
275.118900 569489.400000
286.118700 369914.200000
296.102800 301872.500000
296.138800 422363.500000
298.154700 1189145.500000
301.085500 732730.500000
301.121900 1968191.400000
314.113900 204573.500000
314.150300 364662.300000
316.109100 1153342.000000
316.145600 5203435.700000
318.161100 25468800.000000
324.135000 376939.500000
342.145100 221026.700000
344.139900 1007279.400000
362.150900 10009893.200000

>ms2
56.049600 252285.000000
58.065200 6392075.800000
67.054200 104774.400000
69.069800 95071.800000
70.065100 5125023.100000
72.080700 2383017.000000
82.065200 567140.700000
84.080700 1081214.900000
85.088600 577262.500000
97.075900 97520.000000
99.091700 68775.600000
122.039900 200765.100000
150.034900 322149.000000
164.050700 85963.800000
165.045800 178364.800000
171.055100 450603.200000
173.071000 100139.800000
175.066800 84464.900000
176.034000 66717.100000
176.050700 104115.900000
178.029900 1066428.000000
179.037700 1761667.500000
180.045400 707062.500000
185.071300 78096.200000
188.051000 476106.300000
190.066600 180175.900000
191.037400 85225.800000
191.061600 318096.800000
192.045400 869972.900000
193.040700 1912095.500000
194.024900 1388953.000000
194.048700 564519.400000
194.060900 649552.900000
195.056300 391315.600000
199.050000 1418592.800000
200.058000 503469.500000
201.057800 78111.700000
201.066000 424555.200000
202.066400 916202.400000
203.037400 205198.000000
203.061700 540299.000000
204.045400 668120.600000
204.069300 109371.200000
205.040800 4357975.300000
205.077100 3711897.200000
206.048700 119114.200000
206.061200 249253.100000
207.056300 85627.300000
213.066000 97371.700000
215.061700 222288.200000
216.046000 114293.700000
217.040700 509062.500000
217.077400 83739.500000
218.060700 480247.700000
219.056500 8482388.000000
219.068300 602523.500000
220.064300 1366775.300000
220.076700 448491.800000
221.072000 12251356.600000
231.056100 234507.400000
231.092900 350873.900000
232.064200 229325.000000
232.076800 395380.300000
233.072100 2335792.400000
233.084600 696215.100000
233.108100 191186.900000
234.079700 497891.800000
234.092600 255303.700000
235.087600 190910.400000
239.104400 84162.200000
241.097000 1612669.000000
243.092900 220835.500000
244.076700 596491.200000
245.071900 1323878.500000
246.080600 396855.600000
247.087800 3459774.800000
253.097100 182120.200000
253.120700 592056.900000
254.092100 265901.500000
255.100100 689371.400000
255.113100 241099.100000
259.088300 140655.200000
261.103300 65908454.200000
268.071000 94099.600000
268.108400 590860.400000
268.144600 379848.900000
269.115300 94493.300000
270.123700 656530.400000
273.089900 109003.000000
273.103300 1544991.800000
275.118700 467508.200000
285.087600 74007.200000
286.062200 203566.500000
286.081700 271883.600000
286.118600 662654.700000
288.114100 194355.600000
296.103000 250100.000000
296.139800 385611.500000
298.154400 360083.400000
301.085600 1108953.100000
301.122000 1749906.700000
305.092100 129385.500000
314.113400 292944.100000
314.149800 388069.200000
316.108600 645119.200000
316.145400 1375231.200000
318.161100 2908912.500000
324.135200 93346.000000
342.144600 311034.200000
344.140000 202302.000000
362.150900 3569664.000000

>ms2
56.049600 365294.100000
58.065200 7119288.200000
67.054300 189030.600000
68.049400 44784.600000
69.069900 204704.900000
70.065100 4679028.900000
71.072900 189895.463800
72.080700 2728922.000000
82.065100 742011.900000
83.060400 100430.300000
84.080700 475345.200000
85.088600 73196.800000
97.075900 54303.100000
98.084000 52402.600000
104.049300 93138.800000
120.044200 59739.000000
122.039900 1772528.500000
124.055500 52916.800000
129.044700 69201.100000
130.028900 69482.200000
130.064900 48393.300000
132.044100 81840.800000
134.040300 50613.700000
135.047800 94905.300000
137.051100 50116.400000
138.034900 201444.300000
143.060300 108562.100000
144.044700 99287.700000
144.080700 231083.000000
145.039600 95073.500000
145.076100 53635.300000
146.060000 199902.900000
147.055300 57192.300000
148.039300 220972.200000
148.055700 329208.100000
149.051000 299028.600000
150.035000 2340564.900000
151.042700 535112.100000
152.050600 257294.200000
155.060300 76872.400000
156.068000 91245.400000
157.039900 441694.300000
157.076100 188844.500000
158.023600 986045.800000
158.059900 90795.000000
159.055400 86629.400000
160.039300 282613.200000
160.055800 622893.400000
161.051000 92146.400000
162.034800 81162.100000
162.059000 75302.800000
162.071200 184197.400000
163.030200 72966.100000
163.042700 247143.200000
163.066500 281687.700000
164.050600 464978.800000
165.021900 96215.200000
165.045900 871105.900000
166.029900 108577.300000
170.060000 211792.200000
171.055200 1808353.200000
172.056100 64283.100000
172.063200 95345.100000
172.075800 83288.000000
173.070900 311493.500000
174.071200 55938.600000
175.030100 77883.900000
175.049800 189329.400000
175.066800 112864.200000
176.050800 360101.700000
176.074800 134946.200000
177.045800 211675.300000
177.058200 106090.700000
177.082300 49051.900000
178.029800 3391639.900000
178.065900 182800.730600
179.037600 4988777.900000
179.061100 519080.000000
180.045500 1723066.800000
184.063100 364059.700000
185.034700 80328.900000
185.071100 349260.500000
188.050600 1741405.400000
189.045800 257335.800000
190.029700 109475.200000
190.053400 225989.800000
190.066300 285800.100000
191.037800 627699.000000
191.061700 679451.300000
192.045400 2326188.800000
193.016800 253823.434200
193.040800 4474365.800000
194.024800 2347232.500000
194.048500 2236200.800000
194.061200 1438270.100000
195.056200 835820.500000
196.040600 135223.000000
196.076100 66996.100000
197.071000 209627.400000
198.078800 95003.200000
199.050100 2516029.800000
200.050200 76548.500000
200.058000 792805.800000
200.071100 60220.800000
201.057900 207206.100000
201.065900 812416.300000
202.053600 197313.800000
202.066100 742716.000000
203.024800 114479.800000
203.037600 706435.100000
203.061400 1735995.900000
204.033400 210580.200000
204.045500 1921117.200000
204.069300 270568.300000
204.082000 220026.700000
205.040800 9904788.200000
205.077100 4285228.300000
206.048700 749254.500000
206.060400 338380.500000
207.056300 891133.400000
211.050900 54589.500000
211.086600 187053.800000
213.065900 253451.300000
215.061900 467237.500000
216.045600 196739.100000
216.069300 209525.100000
217.041100 778357.300000
217.077500 111500.700000
218.048700 1095572.100000
218.061100 826608.200000
218.084900 89429.000000
219.056500 11378982.300000
219.068200 778631.800000
220.064200 1248244.400000
220.076600 335909.100000
221.072000 15935785.300000
225.065900 74680.600000
226.073800 197009.500000
226.097100 109902.000000
229.077400 220631.100000
231.056500 1266770.000000
231.093100 260824.000000
232.064400 444474.100000
232.076700 281206.400000
233.072100 1263038.300000
233.084500 470222.000000
233.108500 77797.300000
234.079800 619081.600000
234.092700 244200.900000
235.087600 323032.600000
238.060500 52296.300000
238.096700 73195.400000
239.104500 59080.300000
240.076400 264698.900000
240.112900 134404.500000
241.096900 622024.800000
243.093100 233060.500000
244.076900 318959.700000
245.072100 1477612.600000
246.079900 309118.300000
247.087700 2230054.800000
249.030600 188101.600000
253.084900 99374.300000
253.097300 63601.200000
253.120800 848135.000000
254.092500 213637.700000
255.100400 393583.200000
258.067300 104008.000000
261.103300 17509701.300000
268.107900 257092.800000
268.144700 242547.200000
270.123200 54723.800000
273.089700 101664.600000
273.103500 248378.300000
275.118900 111031.500000
285.086500 105108.800000
286.061600 297563.500000
286.098100 233151.100000
286.118400 441350.900000
287.069300 60008.200000
301.085900 617307.900000
301.122100 1060092.600000
305.093000 82617.200000
314.113500 76596.200000
316.109700 104643.300000
318.161400 70426.000000
362.151100 297543.500000

>ms2
56.049500 459274.900000
58.065200 5337376.800000
67.054100 94287.100000
68.049400 71839.100000
69.069800 44250.600000
70.065100 3200681.800000
72.080700 2212439.500000
75.022800 115158.763700
82.065000 776590.700000
83.060200 110536.600000
84.080700 207596.200000
98.083700 95129.200000
104.049500 649843.400000
109.044800 185213.515000
115.054100 105505.657900
116.049300 269731.150800
117.057100 109793.909400
118.064900 209456.346200
120.044300 279926.500000
122.040000 4995004.100000
123.047700 374279.845000
124.055800 104672.600000
128.049500 100314.718100
129.044500 375890.000000
130.028900 363505.500000
130.065000 237083.500000
132.044400 579499.400000
133.044700 272779.744900
134.039900 79378.900000
134.060200 192814.070100
135.047900 295770.800000
136.055500 366018.327500
137.050900 268138.900000
138.035100 556377.200000
143.060300 369222.300000
144.044300 287640.900000
144.080600 105302.000000
145.039600 249820.600000
145.076000 191799.900000
146.060100 612821.300000
147.035200 107563.548700
147.047800 106403.428500
147.055300 83100.900000
148.039300 580557.200000
148.055600 774499.600000
149.051000 392224.900000
150.035000 4528196.100000
151.042800 2358903.500000
152.038000 114968.508500
152.050800 414262.600000
155.060200 286894.000000
156.044500 114534.005400
156.067900 349871.300000
157.039500 601521.500000
157.076100 316589.400000
158.023700 1762851.100000
158.047400 107856.519500
158.060100 241799.500000
159.055100 106999.900000
160.039300 311672.000000
160.055800 1462126.700000
161.050700 201788.400000
162.034800 301714.200000
162.059300 444355.500000
162.071400 184520.600000
163.030300 338205.800000
163.042900 451895.700000
163.066300 80592.700000
164.050500 800941.900000
165.022100 346644.200000
165.045900 1830835.700000
166.029900 301525.600000
168.045500 112031.034800
170.060000 228037.800000
171.055200 2205429.300000
172.055500 181381.000000
172.063100 204316.200000
172.075500 76552.000000
173.071000 376358.800000
174.071400 109099.900000
175.030200 317131.300000
175.042400 170587.954500
175.049900 50661.800000
175.066700 328606.400000
176.033900 98406.600000
176.050600 571485.700000
176.074300 235286.500000
177.046200 403569.200000
177.058600 408517.100000
177.082400 61817.900000
178.029800 3672770.600000
178.053600 600613.977000
179.037700 5975941.400000
179.061300 798524.300000
180.045400 1619800.300000
183.054900 114611.737000
184.062900 253056.800000
185.034600 414033.300000
185.070900 395431.700000
188.050600 2139758.800000
189.045600 432265.500000
189.058400 100889.799400
190.029900 115186.100000
190.053700 602583.600000
190.066500 249330.300000
191.038000 447852.700000
191.061600 538434.600000
192.045600 2425423.000000
193.040800 3855280.500000
194.024800 1905575.700000
194.048500 4022833.900000
194.061200 1354207.000000
195.056300 776196.500000
196.040300 110500.300000
196.075900 55122.300000
197.070400 189080.900000
198.078800 231553.300000
199.050100 1627522.700000
200.050800 93553.100000
200.058200 814836.100000
201.057900 153744.742900
201.065900 640793.800000
202.053700 200249.400000
202.066100 310209.900000
203.025500 310196.600000
203.037400 653836.100000
203.061400 1999758.600000
204.033500 314475.100000
204.045600 2016727.400000
204.069400 252827.700000
204.082000 100855.100000
205.040800 9318382.900000
205.077100 1857269.900000
206.048600 712398.000000
206.061200 226822.300000
207.056400 1071232.900000
211.051000 59910.400000
211.086700 106720.000000
212.057900 196463.935300
213.065300 106351.400000
215.061100 390175.200000
216.045500 91683.700000
216.069100 178353.100000
217.040800 660023.000000
217.076800 94630.600000
218.048700 917089.600000
218.061000 461659.900000
219.056500 5849640.200000
220.064300 378739.100000
220.076300 82388.000000
221.072000 6638503.300000
225.064800 50723.400000
225.101700 46161.400000
226.097200 95437.600000
229.077100 91452.900000
231.056400 1254609.100000
232.064200 265076.100000
232.077000 208445.600000
233.072000 439028.300000
233.083300 73637.200000
234.080000 240913.600000
234.092200 49271.300000
238.061200 102084.900000
238.097500 197916.000000
240.076700 104685.800000
241.097100 112073.800000
243.093300 62277.600000
244.077700 62421.700000
245.071900 620189.400000
246.079800 70557.000000
247.087900 529996.800000
249.030800 199134.500000
253.084900 115890.600000
253.097000 89112.000000
253.120700 371610.900000
254.092600 185552.300000
258.066800 88696.500000
261.103400 2026630.500000
268.107800 70630.800000
286.062600 185262.000000
286.098400 70713.500000
301.122200 94433.500000

