>compound EQ40837761
>parentmass 258.1084
>ionization [M+H]+
>formula C10H15N3O5
>rt 48.000000
>profile orbitrap
#smiles_iso C1=CC(=C(C(=C1CNNC(=O)C(CO)N)O)O)O
#smiles_can C1=CC(=C(C(=C1CNNC(=O)C(CO)N)O)O)O
#inchikey BNQDCRGUHNALGH-UHFFFAOYSA-N
#pubchem_id 2327
#mb_accession EQ285301,EQ285303,EQ285304,EQ285306

>ms2
60.044300 25415.400000
61.039700 16712.400000
85.039600 667016.300000
103.050200 1010100.800000
120.076700 4393991.100000
132.076800 52595.200000
139.038900 1233629.500000
241.082100 8189.600000
258.109400 16481.700000

>ms2
57.044800 14249.900000
59.024000 22384.100000
60.044400 170647.100000
61.039700 67599.600000
65.038600 38146.500000
68.013100 7537.900000
70.028700 8907.900000
71.012700 6416.800000
73.028400 6406.700000
85.039600 2083398.600000
93.033500 6720.500000
103.050200 1039377.300000
111.044000 54758.700000
120.076700 345763.900000
121.028400 42259.700000
132.076600 2412.700000
139.038900 2235552.800000

>ms2
57.044800 25379.900000
59.024000 38147.000000
60.044400 220316.900000
61.039700 72610.000000
65.038600 98431.100000
68.013000 10283.300000
70.028700 7541.600000
71.012700 9614.000000
73.028300 2759.100000
85.039600 1909079.600000
93.033400 20539.600000
103.050200 537055.000000
111.044000 135376.100000
120.076700 100864.000000
121.028300 111649.400000
139.038900 2056447.700000

>ms2
53.002300 8217.200000
55.017900 2629.000000
57.044800 31328.800000
58.028800 5171.500000
59.024000 77752.700000
60.044400 354071.300000
61.039700 53030.500000
65.038600 781093.800000
68.013100 25907.300000
70.028800 8436.200000
71.012700 10849.000000
74.096400 2257.700000
83.049100 14986.600000
85.039600 738923.400000
93.033500 86758.800000
95.049100 5174.600000
103.050200 24270.800000
111.044000 268487.900000
121.028300 428884.900000
139.038900 877584.900000

