>compound EQ40108888
>parentmass 415.1451
>ionization [M+H]+
>formula C17H20F6N2O3
>rt 402.000000
>profile orbitrap
#smiles_iso C1CCNC(C1)CNC(=O)C2=C(C=CC(=C2)OCC(F)(F)F)OCC(F)(F)F
#smiles_can C1CCNC(C1)CNC(=O)C2=C(C=CC(=C2)OCC(F)(F)F)OCC(F)(F)F
#inchikey DJBNUMBKLMJRSA-UHFFFAOYSA-N
#pubchem_id 3356
#mb_accession EQ302001,EQ302002,EQ302003,EQ302004,EQ302005,EQ302006

>ms2peaks
98.096300 2821817.700000
301.027500 4474414.700000
398.117900 39225169.700000
415.145000 1200426322.800000

>ms2peaks
79.054200 2477202.200000
81.069900 24407485.600000
82.065200 1187226.400000
84.080800 7320315.500000
98.096400 121377811.200000
232.096800 1972116.400000
301.029500 50589691.600000
315.107400 2063381.300000
318.055800 2528405.800000
397.134200 1889820.900000
398.118600 592819336.300000
415.145100 408328346.100000

>ms2peaks
56.049500 3421131.300000
65.038500 408205.600000
69.069900 1670578.900000
70.065100 3376819.700000
79.054200 18841742.800000
81.069900 97376030.500000
82.065100 14915959.400000
84.080800 17785653.900000
95.049100 616077.000000
96.080900 1788213.000000
97.088600 4918521.700000
98.096400 170731416.100000
107.012500 665056.000000
153.018300 476185.500000
188.107100 1553598.100000
189.052200 548932.600000
207.062500 576910.900000
209.022200 3863697.900000
216.102300 692116.300000
219.026400 709425.600000
232.096900 42856447.600000
236.029200 6575159.800000
237.017200 6579633.600000
246.037600 530235.000000
253.028800 3636516.900000
274.069000 639308.800000
279.027200 379096.500000
281.022900 3332364.400000
287.050200 4754584.500000
298.105300 6844590.300000
301.029500 257462134.100000
314.099900 1892872.700000
315.107700 23157233.700000
318.055900 4357516.600000
397.135900 337479.000000
398.118700 233439031.400000
415.145300 5460317.500000

>ms2peaks
65.038600 353713.200000
66.046500 369649.600000
68.049400 410129.200000
69.057300 395101.600000
69.069800 3672837.500000
70.065100 4841080.800000
79.054200 37112333.100000
80.049400 493729.000000
81.069900 113959026.800000
82.065100 33066574.000000
83.010000 385597.000000
84.080800 24049037.600000
95.049100 1535436.700000
96.080800 2874209.800000
97.088600 9141044.800000
98.096400 144203246.900000
107.012500 2198757.000000
135.007300 624093.300000
152.034500 597903.400000
153.018100 5600220.500000
188.107100 2128593.300000
189.052200 3818892.400000
190.024100 2346115.100000
203.031500 1224677.400000
204.102100 1419286.600000
207.043200 2356201.100000
209.022100 24481387.100000
215.031100 1181297.700000
216.102200 3392716.600000
217.034300 483884.300000
218.018400 1918659.200000
219.026600 4174931.900000
225.033500 6656971.630000
232.096900 91173115.500000
236.029100 36289605.740000
237.017000 31240824.200000
246.037000 3078788.600000
249.037100 1405778.900000
253.028300 20536278.600000
254.036300 2411797.600000
274.068400 613126.900000
279.027700 1355517.900000
281.023100 13261604.500000
287.050200 5364888.700000
298.105300 12242692.600000
301.029500 319121390.600000
314.100100 4023072.200000
315.107800 13318238.600000
318.056000 1278165.200000
398.118600 61653136.400000

>ms2peaks
65.038600 1982832.000000
66.046400 653666.100000
69.057300 557741.800000
69.069900 3514806.400000
70.065100 6166623.600000
77.038600 327876.600000
79.017800 3691237.200000
79.054300 42684495.200000
80.049400 460614.000000
81.069900 72973436.500000
82.065200 23469148.800000
83.010100 351544.300000
83.029100 1131158.300000
84.080800 19682741.100000
91.054200 421975.100000
92.025600 2268875.400000
95.049200 2294606.600000
96.080700 2571227.500000
97.088700 6970694.800000
98.096500 65368716.100000
99.024000 384808.600000
105.033700 290386.400000
105.044700 473093.300000
107.012800 13091131.900000
109.028400 1183403.900000
110.016300 301033.700000
111.024300 2256023.200000
114.027700 510326.200000
127.019000 6290203.400000
127.035700 1390467.600000
129.014600 675225.600000
135.007600 4177873.900000
142.022900 588809.300000
152.034200 1329466.900000
153.018300 46957677.900000
170.017500 1393317.900000
171.025200 1175170.000000
175.036800 1744687.300000
181.027200 3380795.900000
187.036500 1543894.000000
188.107100 639663.900000
189.015900 352104.300000
189.052400 4327624.400000
190.023700 12077474.200000
198.012700 302162.900000
203.031300 2900820.600000
204.102400 2603645.900000
207.042900 2455986.900000
207.062400 450976.200000
209.022100 79710854.200000
215.031600 1933192.800000
216.101900 640563.000000
217.010400 543420.400000
217.034300 671922.100000
218.018300 2416106.200000
219.026700 8247590.200000
221.022300 724770.100000
225.033400 27147758.300000
232.096900 55759292.200000
236.029200 76235680.200000
237.017000 40217783.800000
246.037300 2647620.800000
249.037000 2247189.400000
253.028400 30709065.500000
254.036000 3103375.300000
279.027500 1159227.700000
281.023400 12928916.000000
298.105500 4822182.100000
301.029600 85109012.000000
314.100200 1804101.400000
315.108500 490877.700000
398.119000 692260.100000

>ms2peaks
65.038700 1761153.300000
66.046500 2357937.700000
68.049500 675581.400000
69.057400 350421.800000
69.069900 3687358.400000
70.065100 5549306.100000
77.038600 379315.500000
79.017800 22378757.800000
79.054200 42416054.600000
80.049500 1194898.700000
81.069900 41264929.900000
82.065200 17799483.400000
83.010100 301557.100000
83.029200 5606240.100000
84.080800 18317110.800000
91.054200 1254253.700000
92.025600 7190202.500000
95.049300 3219553.400000
96.080900 3252414.600000
97.088700 4756325.400000
98.096500 28226553.300000
99.024100 6078013.000000
101.019700 2273540.215000
105.033300 383796.300000
105.044800 706310.500000
107.012800 63899227.200000
109.028400 1390743.200000
110.016300 587915.500000
111.024100 2861092.700000
114.027600 4669154.500000
127.019000 18963179.400000
127.035400 3950807.900000
129.014600 2494396.600000
135.007600 7231819.700000
142.022500 3770031.200000
152.034100 359375.600000
153.018300 93764657.900000
170.017300 654844.600000
171.024800 3196863.800000
175.036500 1633784.100000
181.027200 9556427.100000
187.036600 1947185.500000
188.106500 458586.300000
189.015800 715327.100000
189.051900 1448332.400000
190.023700 14598335.000000
198.012300 352685.200000
203.031600 3303583.900000
204.102100 1117673.800000
207.043100 1622644.800000
209.022100 79642948.700000
215.031200 547830.400000
217.011700 429101.000000
218.018400 842039.200000
219.026400 7782866.500000
221.021800 1247665.500000
225.033400 23971594.800000
232.096900 16730076.000000
236.029200 38818640.900000
237.017200 10654733.200000
253.028500 8965095.500000
254.035700 1307082.900000
281.022900 2764391.200000
298.104900 1161545.700000
301.029600 9529606.700000

