>compound EQ40235564
>parentmass 705.397
>ionization [M+H]+
>formula C38H52N6O7
>rt 696.000000
>profile orbitrap
#smiles_iso CC(C)(C)[C@@H](C(=O)N[C@@H](CC1=CC=CC=C1)[C@H](CN(CC2=CC=C(C=C2)C3=CC=CC=N3)NC(=O)[C@H](C(C)(C)C)NC(=O)OC)O)NC(=O)OC
#smiles_can CC(C)(C)C(C(=O)NC(CC1=CC=CC=C1)C(CN(CC2=CC=C(C=C2)C3=CC=CC=N3)NC(=O)C(C(C)(C)C)NC(=O)OC)O)NC(=O)OC
#inchikey AXRYRYVKAWYZBR-GASGPIRDSA-N
#pubchem_id 148192
#mb_accession EQ301201,EQ301202,EQ301203,EQ301204,EQ301205,EQ301206

>ms2peaks
144.102100 386974.600000
168.080700 5421327.300000
311.175900 624871.500000
335.196600 28789985.800000
371.208900 830953.300000
424.238200 407331.000000
499.271000 1168397.500000
534.307800 14901492.000000
612.353900 5326725.577000
687.386600 9616636.600000
705.397100 264197825.800000

>ms2peaks
101.096100 394574.800000
112.075700 538619.300000
120.080800 7464992.100000
129.070000 752045.800000
131.085700 199185.400000
144.102000 33167090.000000
146.096500 3453957.000000
147.080400 386942.600000
162.091500 679664.800000
164.107100 835389.000000
167.072800 1568451.300000
168.080800 179175240.700000
169.088600 3144544.400000
170.096400 3303830.200000
172.096600 769013.300000
177.102400 523888.300000
183.092100 191440.700000
185.107400 485943.900000
192.101800 410264.200000
212.118300 932493.000000
250.107500 617606.800000
287.154300 522868.200000
311.175100 1060930.100000
328.181100 3704483.733000
335.196600 76025735.100000
363.218100 3338027.007000
371.208600 1134004.300000
424.238600 3787590.400000
499.270800 1255865.900000
516.297200 2140631.557000
534.307800 18370487.600000
612.355400 1918066.049000
687.387700 534960.500000
705.396200 839843.300000

>ms2peaks
69.069900 3128724.400000
76.039300 2785102.200000
91.054100 857806.200000
100.112200 452841.600000
101.096100 2321461.200000
105.070100 596083.900000
112.075700 5367255.400000
117.069900 636474.800000
120.080800 6976273.400000
129.069900 2530728.100000
131.085700 609597.800000
132.081000 362991.700000
141.069800 972433.900000
144.102000 48252499.700000
146.096400 1767170.700000
147.080300 391039.800000
164.107300 567972.200000
166.064500 398133.700000
167.073100 11395132.300000
168.080800 220998698.900000
169.088500 3854064.000000
170.096400 2210329.200000
183.091800 374413.300000
183.104700 488756.500000
192.101900 440103.200000
212.118500 351590.400000
287.154100 512453.800000
302.153900 357428.800000
335.196700 2687497.400000

>ms2peaks
100.112200 587254.400000
101.096100 3780228.100000
102.054900 452495.100000
103.054200 998677.500000
105.070100 550449.700000
112.075700 7798773.400000
115.054100 2418212.600000
117.057200 796296.900000
117.069900 952559.300000
120.080800 8584339.100000
128.062000 405439.100000
129.069900 3258197.200000
131.085600 562575.200000
132.080800 492823.900000
134.096300 406836.800000
139.054100 2178402.900000
140.049700 684031.400000
140.062300 982758.600000
141.069800 4121729.600000
144.102000 32547267.500000
146.096400 954969.600000
147.080800 399369.000000
153.057100 741025.200000
156.080900 428389.600000
166.065300 3790880.300000
167.073200 61370630.700000
168.080700 264079761.000000
169.088400 4457943.100000
170.096200 1915325.200000
183.091600 423169.400000

>ms2peaks
100.112100 427466.100000
101.096100 2178348.700000
102.054900 377813.000000
103.054300 1137352.300000
105.069900 840886.200000
112.075700 4211967.700000
113.038400 379615.700000
115.054200 4645665.800000
116.049100 171056.400000
117.057300 2387258.900000
117.069800 940694.600000
120.080700 5607081.800000
128.061900 1124698.400000
129.070000 2352074.500000
139.054200 5023869.700000
140.049400 1228542.800000
140.062100 2127961.000000
141.057600 754080.800000
141.069800 7841732.100000
142.065300 717277.800000
144.101900 7724089.000000
146.096400 387218.400000
153.057200 1866279.600000
166.065300 9398415.200000
167.073100 123336547.700000
168.080700 161685770.300000
169.064500 187751.700000
169.088400 2421757.600000
170.096200 1518662.800000
183.091800 168055.000000
184.075600 376127.200000

>ms2peaks
101.096100 934763.900000
102.046300 190495.800000
103.054200 1194777.300000
112.075700 1841903.200000
113.038500 548829.100000
115.054200 8445972.200000
116.049400 375511.000000
117.057200 4921992.400000
117.069900 533686.900000
120.080700 3181938.300000
128.062000 1187537.100000
129.069900 1431625.900000
130.065100 192262.500000
139.054200 9474954.900000
140.049500 2248318.800000
140.062000 4418399.500000
141.057600 1490068.600000
141.069800 9723687.900000
142.065400 1102813.100000
144.102000 1463714.300000
145.064900 228185.500000
153.057300 2777201.900000
166.065400 18264830.400000
167.073000 172529877.900000
168.080600 78357644.800000
169.064500 369775.900000
169.088400 1208739.700000
170.059600 214113.200000
170.096100 657049.900000
184.075500 779190.100000

