>compound EQ41718617
>parentmass 312.06649999999996
>ionization [M+H]+
>formula C14H15Cl2N3O
>rt 726.000000
>profile orbitrap
#smiles_iso C1CC1(C(CC2=CC=CC=C2Cl)(CN3C=NC=N3)O)Cl
#smiles_can C1CC1(C(CC2=CC=CC=C2Cl)(CN3C=NC=N3)O)Cl
#inchikey HHUQPWODPBDTLI-UHFFFAOYSA-N
#pubchem_id 119361
#mb_accession EQ317601,EQ317602,EQ317603,EQ317604,EQ317605,EQ317606

>ms2peaks
70.039900 28395682.500000
189.046500 1173861.900000
312.066500 724120526.400000

>ms2peaks
65.038700 295782.100000
67.054300 632671.100000
70.040000 268782203.600000
83.049100 942940.500000
101.015300 803450.900000
103.031000 311314.100000
113.015300 1194137.500000
125.015200 56878757.800000
139.030900 4827610.000000
142.077800 661216.000000
143.085600 523082.800000
144.093400 598715.900000
149.015300 740318.000000
151.031000 4866205.200000
153.069900 2076688.300000
154.077700 2866955.900000
155.025900 1030030.800000
158.976400 1733789.300000
163.030800 1477007.700000
165.046600 948347.800000
177.046600 2684539.200000
179.062100 1512938.900000
189.046700 11799390.100000
196.992100 987327.100000
225.023100 1903804.700000
294.056200 345241.800000
312.066600 295122154.100000

>ms2peaks
65.038600 2025731.800000
67.054400 1255898.800000
70.040000 370633291.900000
74.999700 1015219.500000
83.049200 1740548.300000
89.015300 653299.900000
89.038600 655339.700000
101.015300 1231915.200000
103.054200 1752177.300000
113.015300 1281098.600000
115.054300 1670223.800000
116.062100 1488142.200000
119.049100 553123.500000
125.015300 139409974.400000
128.061900 1388307.700000
129.070000 1551133.700000
130.077800 596948.700000
137.015300 583970.900000
139.030900 11350647.000000
141.069800 810601.600000
142.077900 4286642.000000
143.085800 1187124.000000
144.093400 2033991.100000
149.015300 1630258.300000
151.031000 11708449.900000
153.069900 6289042.300000
154.077700 9725813.800000
155.025900 1765479.700000
158.976200 2474245.700000
162.023000 788407.200000
163.030700 2172288.500000
165.046600 1713760.100000
177.046600 3699493.500000
179.062100 1359950.800000
189.046700 8202046.100000
190.054600 808688.800000
196.992100 727507.800000
312.066600 14748075.200000

>ms2peaks
57.033700 402076.900000
65.038700 2927860.000000
67.054300 876051.600000
70.040000 334395464.500000
74.999600 1199428.000000
83.049200 636386.300000
89.015200 826755.000000
89.038500 3713286.500000
90.046400 587527.300000
91.054200 961750.900000
95.049200 699374.100000
98.999500 1224158.600000
101.015400 646495.100000
103.054200 6234881.800000
113.015200 649708.700000
115.054300 4445836.400000
116.062100 5314580.700000
119.049200 793594.000000
125.015300 180017183.700000
128.062000 2298336.500000
129.069900 2483723.600000
130.077800 1632597.100000
137.015300 1674984.200000
138.994600 596741.900000
139.030900 7998344.100000
141.069900 2082189.400000
142.077800 6008737.900000
143.060400 641110.400000
143.085700 789052.800000
144.093400 1842427.800000
149.015300 2385636.400000
151.030900 5499669.500000
152.062100 1819156.200000
153.069900 6905095.900000
154.077700 10906973.700000
155.060500 695334.000000
155.085600 656409.400000
158.976300 1317989.600000
162.023000 1789924.700000
163.030900 1829159.900000
165.046700 603913.600000
169.076100 548222.900000
177.046700 1085045.900000
189.046800 1823374.900000

>ms2peaks
63.023000 892671.400000
65.038700 2962324.400000
67.054400 1208537.600000
70.040000 306278498.900000
74.999600 1444153.200000
77.038600 684532.300000
89.038600 13948974.400000
90.046400 2886483.800000
91.054200 1092666.900000
95.049000 967815.700000
98.999700 5591512.500000
102.046600 1125198.400000
103.054300 9221675.200000
105.044800 609017.200000
113.015500 525980.600000
115.054300 6819578.900000
116.062100 8419139.200000
125.015300 196096390.100000
128.062000 4177834.400000
129.069900 3912111.900000
130.077900 1351225.100000
137.015400 1447419.600000
139.030900 2681312.800000
141.069900 4469749.400000
142.077800 6193018.200000
143.060700 322003.400000
149.015300 2596258.100000
151.031200 1641713.900000
152.062000 4008162.500000
153.070000 9369835.800000
154.077700 6668507.200000
155.060400 1021765.700000
155.085600 1035224.700000
158.976100 1456361.400000
162.023000 2001586.700000
163.031200 628702.300000
189.046600 559081.500000

>ms2peaks
63.023100 2385706.800000
65.038700 3746304.400000
66.046500 871326.500000
67.054300 627648.900000
70.040000 265384114.200000
72.983900 1049717.900000
74.999700 1688741.800000
77.038600 889538.800000
89.038600 32807464.200000
90.046400 9476356.100000
91.054300 807945.500000
95.049200 1752754.200000
98.999600 14339744.800000
102.046400 1634411.300000
103.054300 7850758.300000
105.044700 1502573.600000
115.054300 8654478.500000
116.062100 7424513.500000
125.015300 164963758.900000
128.062100 5331323.200000
129.069900 3836858.500000
130.077900 589736.400000
137.015400 1014715.700000
139.031000 532349.600000
141.069800 6917295.000000
142.077800 2595019.600000
145.064900 280964.300000
149.015400 2734181.600000
152.062100 5348439.600000
153.069900 10048917.400000
154.077700 3229866.100000
155.060500 953961.700000
158.976100 1090104.000000
162.023100 1340756.500000

