>compound EQ42082303
>parentmass 423.2177
>ionization [M+H]+
>formula C23H31FO6
>rt 564.000000
>profile orbitrap
#smiles_iso CC(=O)OCC(=O)[C@]1(CC[C@@H]2[C@@]1(C[C@@H]([C@]3([C@H]2CCC4=CC(=O)CC[C@@]43C)F)O)C)O
#smiles_can CC(=O)OCC(=O)C1(CCC2C1(CC(C3(C2CCC4=CC(=O)CCC43C)F)O)C)O
#inchikey SYWHXTATXSMDSB-GSLJADNHSA-N
#pubchem_id 225609
#mb_accession EQ324001,EQ324002,EQ324003,EQ324004,EQ324005,EQ324006

>ms2peaks
181.102200 243912.400000
239.142800 571107.300000
267.174100 284850.200000
307.169200 623384.800000
325.179700 1498798.800000
343.190900 904339.400000
385.201100 786373.200000
403.211400 336032.300000
423.217800 233109276.700000

>ms2peaks
61.028500 763609.400000
69.033700 64046.300000
69.069900 93528.000000
71.049100 79018.600000
79.054400 75822.400000
81.069900 286676.200000
83.049300 384808.500000
85.064800 80048.400000
91.054100 71169.400000
93.070000 560439.600000
95.049100 212248.100000
95.085600 402281.900000
97.064800 1185312.700000
99.044100 338417.200000
101.023400 2613834.700000
101.039800 403083.700000
105.070000 533168.600000
107.049300 61034.400000
107.085500 315926.600000
109.064800 447232.200000
111.080400 75856.200000
115.038800 68343.800000
117.070000 71129.700000
119.085400 480894.100000
121.064800 2014652.100000
121.101100 147462.200000
123.060500 112082.600000
123.080400 1092729.300000
125.059600 66018.700000
125.096300 56378.000000
129.069700 58504.300000
131.085600 591720.500000
133.065000 413262.400000
133.101300 304900.000000
135.080400 1142013.300000
135.117100 70385.200000
137.059600 81713.800000
137.096100 502603.400000
139.075100 103568.900000
141.069700 68838.500000
143.085700 1096320.700000
145.065000 84788.500000
145.101300 967286.500000
147.080500 1395280.700000
147.116800 79082.000000
149.096300 527628.100000
151.075700 73881.000000
153.090900 234889.100000
155.085500 387815.100000
157.101200 863414.900000
159.080200 673905.500000
159.117000 381536.400000
161.096100 1859942.000000
163.075500 393240.300000
163.111800 1595901.800000
165.090900 309549.700000
165.107100 512387.100000
167.085500 111335.000000
169.101000 518437.800000
171.080300 715710.000000
171.116800 690075.600000
173.096000 1035097.400000
175.075200 52983.600000
175.111900 477459.900000
179.106800 60461.300000
181.102200 4110688.600000
183.080300 96444.800000
183.101900 66294.300000
183.117000 820388.400000
185.096200 1107283.700000
185.132400 419771.100000
187.075100 73642.300000
187.111800 616483.600000
189.091000 1703096.800000
189.127600 443363.200000
191.107000 247273.500000
193.101200 114641.400000
195.116800 1009927.100000
197.096200 611151.100000
197.132200 1059250.200000
199.111500 901830.500000
199.147900 197063.500000
201.091000 237371.800000
201.127300 446270.600000
203.106400 815964.800000
205.086000 62830.900000
205.101700 236576.400000
205.122300 60227.500000
207.101900 103776.200000
207.117400 664400.800000
209.096100 284188.700000
209.132600 700347.800000
210.104400 63114.100000
211.111500 907313.800000
211.148200 850983.600000
213.127400 2220417.400000
215.106700 86406.000000
215.142800 246732.300000
217.122400 639022.200000
219.116800 310621.500000
221.132400 2407560.400000
223.111700 852773.300000
223.148200 1108790.200000
224.119100 73035.700000
225.127600 755067.100000
225.163500 460053.400000
227.106500 83442.200000
227.142800 894517.100000
229.122400 619164.600000
229.158200 99592.200000
231.117200 218955.000000
232.124400 93295.100000
233.132500 231600.400000
235.148200 355887.900000
237.127200 1311696.800000
237.163500 655273.900000
239.143000 10042340.500000
241.122200 882930.100000
241.158400 1532932.500000
243.138000 659482.100000
245.118600 58296.600000
245.132900 417127.900000
245.153600 118507.600000
247.134400 113328.700000
247.148100 1983604.800000
248.155600 63005.400000
249.127400 713432.800000
249.163800 481182.900000
251.142800 544605.700000
251.179600 235308.100000
253.122700 140390.100000
253.158700 336784.000000
255.137900 1322706.200000
255.174200 356476.600000
256.125100 62867.600000
257.153600 2997471.300000
258.160500 59723.700000
261.127400 98716.900000
261.148800 289220.700000
261.163700 1191203.000000
263.143100 764169.400000
264.150900 111082.200000
265.158600 4914288.900000
267.138200 728784.400000
267.174400 2938144.300000
269.153400 214601.000000
271.148100 520875.100000
277.158600 422183.600000
279.138300 219424.100000
279.174400 2673236.900000
281.153300 417423.200000
283.169100 3137826.900000
284.177200 1018247.400000
285.148000 250124.700000
285.165200 538838.500000
285.184700 1238033.800000
287.180400 301509.300000
289.158600 2361419.700000
292.145400 99580.400000
294.162300 81414.600000
295.169200 1303519.600000
297.149700 116374.500000
297.185000 1226659.300000
299.164100 689293.800000
299.180300 160753.500000
301.179600 595420.200000
303.175300 84158.500000
305.191000 209664.400000
307.169300 6810916.900000
309.165500 215494.200000
313.179600 1306904.900000
315.175700 284734.700000
315.196100 363423.300000
317.191200 103122.900000
319.170600 66411.400000
325.179900 11211226.900000
327.175500 912626.000000
333.185700 235884.300000
341.174900 722386.800000
342.182400 276782.500000
343.190500 10789025.600000
345.186800 1027063.600000
349.179900 253836.400000
357.206600 225228.600000
361.201100 885452.500000
363.197300 633274.900000
367.190900 1583239.700000
385.201300 3027015.000000
403.212000 1174907.400000
405.207900 472953.300000
423.218100 50026401.600000

>ms2peaks
61.028500 968943.800000
67.054200 360590.800000
69.033600 413339.600000
69.070000 269853.400000
71.049200 231240.300000
79.054200 532621.800000
81.033500 105146.600000
81.070000 836430.300000
83.049200 1172357.200000
85.064900 88130.000000
91.054300 676553.800000
93.069900 1510505.300000
95.049200 529098.000000
95.085500 847864.100000
97.064900 2570153.300000
99.044100 469620.300000
101.023400 1642077.000000
101.039800 1029832.200000
103.039200 110843.100000
103.054200 74774.300000
105.069900 2096928.900000
107.049100 275393.900000
107.085600 1085506.200000
109.064900 690654.300000
109.101300 115589.000000
111.044100 113049.000000
111.080500 293350.000000
115.039100 243758.700000
115.054100 61013.800000
117.069900 553235.700000
119.049300 197432.500000
119.085600 2122225.200000
121.064900 4076943.200000
121.101200 349820.300000
123.060500 214487.400000
123.080500 2188254.300000
125.059700 332788.600000
125.096000 62168.500000
128.062200 217564.600000
129.069900 555285.600000
131.085600 1899175.900000
133.064900 691752.600000
133.101300 1216919.700000
135.080500 2156796.600000
135.116900 112081.600000
137.059700 223593.500000
137.076200 121159.600000
137.096000 719365.400000
139.075400 418573.200000
141.069900 298091.400000
142.077700 269422.000000
143.085700 3737670.700000
145.064900 477877.200000
145.101300 2130824.900000
146.072900 53190.100000
147.080500 2466887.200000
147.116800 226278.500000
149.060200 57491.100000
149.096400 819728.100000
151.075500 267417.900000
153.070200 93537.300000
153.090900 281106.900000
155.085500 1504407.300000
156.093500 79030.200000
157.064900 252404.300000
157.101300 2592214.200000
158.072500 62500.300000
159.080500 1927952.200000
159.116700 1057239.100000
161.096100 3542179.200000
162.103600 117500.500000
163.075500 651280.800000
163.091600 249736.300000
163.111700 2558466.600000
165.070000 218129.600000
165.091100 109047.500000
165.107300 311901.800000
166.078200 104348.900000
167.085800 557593.800000
168.093800 65374.800000
169.101100 1996492.200000
170.109500 65519.000000
171.080300 1041878.500000
171.116800 1024756.400000
173.096100 1970495.900000
173.132400 211587.100000
175.075300 74598.800000
175.091800 100734.100000
175.111700 1112586.200000
177.091000 212050.600000
179.085600 344203.000000
180.093300 103456.500000
181.102000 6353470.000000
182.109200 320932.300000
183.080600 452800.000000
183.117000 2312222.500000
185.096200 1723987.600000
185.132600 1041315.900000
187.075200 125745.100000
187.111900 1011777.700000
189.091100 2492121.800000
189.127500 357677.700000
191.086300 69791.000000
191.106800 290539.300000
193.101300 894930.100000
194.108900 114416.900000
195.116700 2368350.000000
196.124400 244593.900000
197.096100 841073.100000
197.132300 3489069.100000
198.104000 110786.400000
199.111800 1451412.800000
199.147900 718541.200000
201.091500 477136.900000
201.127200 646670.100000
203.086300 91078.400000
203.106500 658687.300000
205.086500 126098.600000
205.101500 535431.100000
205.122500 90666.100000
206.108900 678004.800000
207.101600 252432.400000
207.117000 1396414.900000
208.124600 276932.900000
209.096100 416887.300000
209.132600 1451185.900000
210.104100 77067.700000
211.111900 1771163.200000
211.148200 1048224.900000
213.127600 1764053.000000
213.163700 124682.900000
215.086000 60454.500000
215.107200 195278.400000
215.142900 399881.500000
217.101700 104480.300000
217.122600 205508.700000
218.109400 76414.400000
219.101300 60261.800000
219.116800 755230.200000
220.124900 77335.200000
221.096300 220681.200000
221.132600 2600416.700000
222.140900 147400.000000
223.111800 1242958.100000
223.148200 1707997.600000
224.119700 415495.700000
225.127300 1225623.600000
225.163800 845966.600000
226.135000 63511.400000
227.106600 108902.100000
227.142800 746367.800000
229.121900 476650.900000
229.158900 211742.500000
231.138300 69278.700000
232.124500 322835.200000
233.132500 447191.000000
234.104200 55744.300000
235.111800 220013.200000
235.147900 558242.700000
237.127400 1257543.500000
237.163700 986810.900000
238.173200 65185.800000
239.143000 7839231.300000
241.122400 830126.900000
241.158500 1624045.800000
242.166400 73021.600000
243.138100 624321.900000
245.132500 530387.900000
245.153000 63717.600000
246.140400 263447.300000
247.148100 1789498.400000
248.155600 68446.500000
249.127400 559737.900000
249.163400 452005.200000
250.134900 113523.000000
251.107000 56983.300000
251.143000 950186.600000
251.179700 94957.800000
252.150500 192664.500000
253.159100 658346.300000
255.137800 655497.900000
255.174400 495377.800000
256.124500 59428.000000
256.182300 125645.700000
257.153600 1496450.700000
258.161500 518208.600000
259.112800 74180.600000
259.148900 361491.400000
261.127700 75280.200000
261.150300 128523.300000
261.164200 668453.900000
263.143100 471906.500000
264.150600 257180.900000
265.158700 3235243.400000
266.166700 803875.500000
267.137500 470857.800000
267.174300 1559994.200000
269.153800 741170.600000
269.190300 65724.200000
270.161200 76830.800000
271.148900 104443.100000
274.135600 99767.600000
277.158700 248059.500000
279.138500 354534.400000
279.174600 1264264.300000
281.153900 357489.800000
282.161400 85201.000000
283.169300 1630897.100000
284.176900 1734130.300000
285.148300 277698.200000
285.164100 75023.000000
285.184600 562868.000000
289.158900 807867.300000
292.145700 95107.000000
294.161000 112008.800000
295.169200 705574.900000
297.185200 477807.300000
299.164400 940027.700000
299.180500 96488.700000
303.175200 78172.500000
307.169200 1610968.500000
310.156500 226568.400000
313.180300 380621.200000
315.176100 94107.100000
325.179900 2293755.900000
327.175100 77114.400000
341.175700 113099.700000
343.190700 1630857.000000
345.186900 56014.100000
361.200900 80582.500000
367.190200 113479.100000
385.200800 77453.800000
423.218800 515098.400000

>ms2peaks
55.017900 72226.800000
55.054300 87269.400000
61.028400 399842.900000
65.038600 61419.000000
67.054300 823621.900000
69.033500 465397.100000
69.069900 439459.800000
71.049200 137624.100000
73.045000 63707.900000
77.038300 96056.800000
79.054300 1346933.400000
81.033500 219605.500000
81.069900 1156367.600000
83.049200 1180504.300000
91.054200 2265509.100000
93.069900 2329416.600000
95.049200 944378.700000
95.085600 1173570.100000
97.064900 2512544.400000
99.044100 286467.100000
101.023400 292912.900000
101.039800 1510223.000000
103.038800 75952.100000
103.054400 276381.600000
105.070000 4092793.300000
107.049200 567558.600000
107.085600 1541011.600000
108.056900 62845.900000
109.044900 62455.700000
109.064900 1106423.700000
109.101200 235829.700000
111.044100 113506.300000
111.080500 115606.700000
115.039100 146699.100000
115.054000 386308.800000
116.062000 199211.000000
117.069900 1329510.000000
119.085600 2797093.300000
121.064900 3835199.700000
121.101300 397544.600000
123.060400 326640.200000
123.080500 2591395.900000
125.039700 72380.600000
125.059600 196241.100000
128.062100 1068991.300000
129.070000 1484082.600000
130.077700 211114.000000
131.085600 2460054.400000
133.064800 691152.800000
133.101200 1618978.700000
134.072700 57848.200000
135.080500 1568146.400000
135.116800 121130.800000
137.059600 316138.100000
137.076100 86779.500000
137.095900 383079.800000
139.075300 100885.700000
141.069700 899528.300000
142.077900 908763.000000
143.085700 4795202.200000
144.056800 55575.600000
144.093300 81427.900000
145.064900 762052.400000
145.101300 2207677.400000
146.072800 104731.000000
147.080500 2297458.500000
147.116800 227753.100000
148.088300 103541.500000
149.096300 477019.100000
151.091700 46097.200000
152.062000 53314.600000
153.070100 347827.500000
153.091100 94219.400000
154.077700 346443.200000
155.085600 2155034.900000
156.093500 420929.400000
157.064800 268580.100000
157.101200 2532269.600000
158.072600 193855.800000
158.109600 94736.000000
159.080500 1757226.500000
159.117000 801751.900000
160.088300 238274.100000
161.096100 2130808.600000
162.103700 53133.100000
163.075600 361252.000000
163.091400 242463.600000
163.111800 1488051.100000
165.070100 662145.200000
165.091300 52793.900000
165.107300 104378.500000
166.078200 576347.000000
167.085600 1153026.000000
168.093400 620832.400000
169.101100 2422448.600000
170.072300 144666.500000
170.108900 256282.800000
171.080200 871775.100000
171.116900 959087.300000
172.124900 64969.400000
173.096100 1766217.000000
173.132200 186413.200000
174.104300 91894.500000
175.075200 72274.000000
175.111700 785548.200000
177.090700 74100.000000
178.077700 251379.700000
179.085700 865173.300000
180.093400 535106.600000
181.101800 4607018.900000
182.073100 72085.900000
182.109100 795865.400000
183.080500 553129.100000
183.116900 1899285.500000
184.088200 191756.700000
184.124700 205677.500000
185.096100 960204.100000
185.132400 686258.400000
186.103500 65614.700000
186.140100 80871.700000
187.075300 87472.600000
187.111800 652139.500000
187.147700 59760.900000
189.091000 862462.900000
189.127100 233254.400000
191.085800 320597.400000
192.093300 492668.400000
193.101300 1076260.300000
194.108800 441253.900000
195.080300 258812.100000
195.116700 1864601.800000
196.088300 265248.800000
196.124300 528127.000000
197.095900 752166.200000
197.132300 2258963.900000
198.103400 58297.600000
199.111500 1178851.300000
199.147900 530181.900000
201.091000 258768.700000
201.127000 324506.300000
203.085700 223076.300000
203.106400 101266.900000
204.093500 140030.100000
205.101100 717538.000000
206.109100 1367320.000000
207.080400 70092.700000
207.116900 1135663.600000
208.124800 405025.200000
209.096300 467796.900000
209.132400 1175744.000000
210.103700 256856.200000
210.140200 57010.500000
211.111900 1142155.500000
211.148100 771132.500000
212.119300 86608.500000
213.091300 64737.500000
213.127000 544816.600000
213.163400 92157.900000
215.085700 84623.300000
215.143300 228092.700000
217.100800 454916.100000
218.108800 354468.600000
219.116700 649854.400000
220.124400 102448.000000
221.096200 106193.200000
221.132400 1217958.300000
222.103700 242810.700000
222.140700 95620.600000
223.111600 478595.500000
223.148200 732303.300000
224.119800 612389.500000
224.155900 120895.100000
225.127300 789889.900000
225.163600 448165.600000
226.135100 313681.500000
227.106500 80104.800000
227.142900 298967.200000
229.122300 233472.300000
230.108800 120520.300000
231.116900 310358.400000
232.124300 444547.300000
233.132500 369404.900000
234.104600 71850.300000
234.140400 54413.500000
235.111500 219491.400000
235.147700 227793.800000
236.119600 119991.800000
237.127400 698622.700000
237.163700 433469.900000
238.135200 200176.900000
238.172000 67106.500000
239.142900 1508558.100000
240.150400 195234.500000
241.121900 80493.200000
241.158600 788584.400000
242.166600 94380.800000
243.138000 435246.400000
245.132600 81272.200000
246.140000 188921.700000
247.148200 384189.400000
249.127000 384272.400000
249.163200 68297.100000
250.134800 328744.600000
251.143300 800108.100000
251.179500 68585.400000
253.158400 290939.300000
255.138000 103895.600000
255.174300 121971.300000
257.153000 214462.000000
258.161200 428290.800000
259.112200 60227.300000
261.164100 192124.600000
263.142600 209730.900000
264.150600 58813.100000
265.158700 707994.700000
266.166500 295385.800000
267.138400 108338.400000
267.174200 400430.200000
269.153300 873537.600000
270.161100 79904.500000
274.135400 86041.200000
279.137600 113490.300000
279.174100 95702.900000
281.154100 55598.300000
283.169100 285908.700000
284.177200 472014.000000
285.148600 80153.200000
289.159000 84134.400000
292.147000 57969.400000
299.164400 88024.400000
307.169700 90495.100000
310.156600 82860.900000
325.179700 74612.500000

>ms2peaks
53.038700 100185.200000
55.018000 275269.000000
55.054400 113949.600000
61.028500 366587.200000
65.038600 377075.900000
67.054300 1771335.500000
69.033600 437194.500000
69.069900 377292.100000
71.049200 215520.300000
73.044900 95678.100000
77.038600 238150.200000
78.046400 73332.900000
79.054300 2777438.100000
81.033500 333076.400000
81.069900 1698579.600000
83.049200 1409084.300000
91.054300 5824204.600000
93.069900 2826541.500000
95.049200 2141698.700000
95.085600 1742536.600000
97.064900 2431082.100000
99.044200 112275.900000
99.060500 291902.000000
101.023400 69331.000000
101.039800 1330941.200000
103.054400 733900.600000
105.070000 6412307.200000
107.049200 1012275.200000
107.085600 1135791.300000
108.056900 96339.500000
109.045000 323449.700000
109.064900 1164630.200000
109.101000 82702.500000
111.044200 86114.400000
111.060600 85626.700000
111.080400 106431.200000
115.054300 1447640.600000
116.062200 454075.600000
117.069900 2214875.600000
118.077600 84886.300000
119.049200 295174.000000
119.085600 3581729.000000
121.064900 3851065.100000
121.101100 303554.400000
123.060500 603558.700000
123.080500 2310867.000000
125.039800 80819.300000
128.062200 3356736.800000
129.070000 2589546.400000
130.077800 740492.900000
131.049100 220330.400000
131.085600 3242746.700000
132.057000 122554.200000
133.064800 860263.700000
133.101300 1358378.700000
135.060500 56801.000000
135.080500 1095962.100000
137.059600 54526.000000
137.076200 96159.800000
137.096100 86742.800000
139.054700 48587.300000
141.069800 2043395.200000
142.077900 2471222.300000
143.085700 4184584.800000
144.057200 277490.900000
144.093500 305558.500000
145.065000 1083548.900000
145.101300 2004402.700000
146.072800 454350.600000
147.080500 1606125.700000
147.117000 96227.800000
148.068300 58698.000000
148.088300 259427.300000
149.096200 253477.300000
152.061800 342119.200000
153.070000 1244697.400000
154.077700 937388.000000
155.060600 231060.100000
155.085600 2937370.300000
156.093600 810137.600000
157.064900 392937.700000
157.101300 1833039.700000
158.072500 442409.700000
158.109100 98463.000000
159.080600 1446470.000000
159.116900 365075.400000
160.068400 76518.800000
160.088300 214893.100000
161.096200 1065750.900000
162.104500 56037.900000
163.075200 199454.500000
163.091700 216989.900000
163.111500 492607.800000
165.070100 2152613.800000
166.078300 1583069.210000
167.085600 2247511.600000
168.093400 943104.100000
169.064700 243191.400000
169.101200 2535615.300000
170.072500 224480.600000
170.109200 208308.200000
171.080500 835326.600000
171.116700 623457.000000
172.088100 208705.300000
173.096200 873852.600000
173.132600 96037.800000
174.103900 110882.000000
175.111500 255420.100000
178.077800 536273.400000
179.085600 1595370.300000
180.093500 957882.600000
181.064700 265398.100000
181.101500 3328019.100000
182.072500 254296.900000
182.109100 1150128.500000
183.080500 478549.000000
183.117000 1388987.700000
184.088300 299742.600000
184.124600 113641.700000
185.096200 594689.900000
185.132200 357549.000000
186.103700 85936.600000
187.075400 88065.100000
187.111700 370854.000000
189.069600 69406.800000
189.090500 121040.700000
190.077900 213959.600000
191.085500 1159405.000000
192.093300 989712.600000
193.101000 1471258.600000
194.072700 76080.600000
194.108900 470087.900000
195.080400 308517.100000
195.116700 1535716.500000
196.088400 356652.700000
196.124600 447922.800000
197.096000 508497.700000
197.132400 1227323.700000
198.103700 110046.200000
199.111400 577924.000000
199.148000 72251.100000
200.119200 58660.600000
201.090200 71766.100000
201.127300 85378.000000
202.077500 229719.400000
203.085300 348025.600000
204.093400 295541.600000
205.101200 830754.400000
206.109000 1125951.200000
207.080300 94537.100000
207.117000 857341.800000
208.088300 222439.700000
208.124500 218175.000000
209.096100 909282.200000
209.132400 661357.000000
210.104200 196759.100000
210.140600 61476.600000
211.111500 774081.000000
211.148400 92308.500000
212.118900 67906.800000
213.127700 290159.700000
215.085500 264381.800000
216.093500 212013.600000
217.101000 743163.800000
218.108600 356527.400000
219.116800 327917.300000
220.088400 58001.500000
220.124400 122080.300000
221.096000 110934.100000
221.132600 515005.500000
222.104100 209836.700000
222.140500 76405.400000
223.111700 474222.300000
223.148300 281391.000000
224.119900 351792.300000
224.155600 93181.500000
225.127500 492438.500000
226.134900 359122.300000
227.143200 193041.700000
229.101600 66307.000000
229.122200 61774.100000
230.109100 73819.900000
231.116900 437864.800000
232.124500 227001.500000
233.096000 77339.000000
233.132400 216395.400000
235.111700 272573.300000
235.148100 95340.500000
236.119900 106764.400000
237.127800 215146.200000
239.143200 339074.900000
240.151100 76655.300000
241.158200 349618.800000
243.137900 529479.000000
245.132100 51794.400000
247.148100 186999.600000
249.127100 289256.100000
249.163900 106247.700000
250.135000 204144.300000
251.142900 597428.200000
253.158100 53656.800000
257.153600 68766.100000
258.161500 71283.200000
259.111700 70974.200000
263.143900 49098.000000
265.159400 79408.400000
267.175100 72915.100000
269.154000 449311.600000

>ms2peaks
53.002300 76186.100000
53.038800 201677.200000
55.018000 254806.800000
55.054400 193531.200000
59.029300 44826.400000
61.028500 114964.600000
65.038600 721273.700000
67.054300 2016077.900000
69.033600 347244.900000
69.069900 193867.500000
71.049300 92630.500000
73.044900 249593.000000
77.038600 207023.800000
78.046400 59484.100000
79.054300 3401302.800000
81.033500 256456.000000
81.069900 1383039.500000
83.049200 1186196.000000
91.054300 7700549.500000
93.069900 2103361.100000
94.041300 54151.700000
95.049200 2945928.600000
95.085600 999561.900000
97.064800 1368965.900000
101.039800 632633.700000
103.054300 1160181.500000
104.062200 91149.600000
105.044800 444852.000000
105.069900 5858724.000000
107.049200 973178.600000
107.085600 612038.900000
108.057100 191395.300000
109.044700 345053.700000
109.065000 586070.500000
109.101200 42248.200000
115.054300 2052231.200000
116.062000 882232.300000
117.069900 2063327.900000
118.077800 57189.500000
119.049100 148924.400000
119.085600 2114305.700000
121.064900 2186004.200000
121.101300 115099.000000
123.060600 437826.700000
123.080500 1108575.700000
127.054300 100494.200000
128.062100 4827409.000000
129.069900 2903278.800000
130.077800 845834.600000
131.049300 228200.300000
131.085600 1729266.300000
132.057100 289805.800000
133.044700 53691.700000
133.064800 468705.600000
133.101200 586052.800000
135.060100 55439.800000
135.080400 513097.100000
137.076100 113897.400000
139.054900 65487.200000
141.069800 2482095.800000
142.077900 2193598.100000
143.085700 2105285.000000
144.057100 274145.900000
144.093500 135407.900000
145.064800 1368240.600000
145.101400 655587.700000
146.052600 110615.600000
146.072700 298131.300000
147.080400 797982.700000
147.116800 57748.800000
148.068400 95306.600000
148.088200 351341.900000
149.096100 45950.600000
152.062000 539532.300000
153.069900 1494102.600000
154.077700 1064468.300000
155.060400 196857.000000
155.085600 2158351.400000
156.093400 531968.100000
157.064800 354870.400000
157.101100 716402.800000
158.072600 432949.200000
159.080600 641011.500000
159.116700 88027.600000
161.096200 410544.700000
163.111800 93895.900000
165.070000 3062941.600000
166.078100 1627234.200000
167.085400 1953266.400000
168.093400 919747.600000
169.064700 303736.900000
169.101200 1299599.100000
170.072600 96162.000000
170.108700 113279.900000
171.080200 487983.000000
171.117100 339000.200000
173.096100 363847.200000
174.104100 74743.700000
175.111500 54600.700000
178.077800 1003181.800000
179.085500 1593314.000000
180.093400 531908.900000
181.064600 278844.900000
181.101300 1526249.700000
182.072700 230620.700000
182.109300 618770.200000
183.080600 421782.600000
183.117000 559999.300000
184.088300 196660.100000
185.096300 281194.700000
185.132700 85245.800000
187.111800 99952.300000
189.070300 92038.600000
190.078000 182163.800000
191.085500 1287831.900000
192.093300 765482.300000
193.101100 972838.400000
194.072600 105258.800000
194.109100 223710.900000
195.080400 383389.700000
195.116600 635174.000000
196.088100 211565.400000
196.124000 56693.900000
197.096000 408030.100000
197.132200 208375.900000
198.103400 64115.900000
199.111300 194513.500000
202.077600 367931.500000
203.085200 497029.100000
204.093600 214032.500000
205.101100 576893.000000
206.108700 425655.200000
207.080200 104073.900000
207.116800 421639.900000
208.088700 136165.500000
208.124200 60216.000000
209.096100 524841.100000
209.132400 196501.000000
210.104500 80181.600000
211.111900 306374.100000
215.085700 292064.900000
216.093400 202647.700000
217.101300 309612.400000
218.109000 96788.900000
219.117000 233554.100000
221.096600 93919.900000
221.132300 88201.900000
222.104000 102734.100000
223.111800 102108.800000
223.148000 89495.300000
225.127300 257478.900000
226.135400 191048.600000
229.101300 64072.700000
231.116800 90150.900000
233.132700 61725.500000
235.111400 108041.400000
237.127300 61319.900000
239.142600 70640.100000
240.150200 70154.700000
241.158000 69550.400000
243.138100 340100.600000
251.142800 255188.600000

