>compound EQ42958257
>parentmass 289.1102
>ionization [M+H]+
>formula C16H17ClN2O
>rt 606.000000
>profile orbitrap
#smiles_iso CN1C(=O)CN=C(C2=C1C=CC(=C2)Cl)C3=CCCCC3
#smiles_can CN1C(=O)CN=C(C2=C1C=CC(=C2)Cl)C3=CCCCC3
#inchikey IQWYAQCHYZHJOS-UHFFFAOYSA-N
#pubchem_id 25215
#mb_accession EQ333001,EQ333002,EQ333003,EQ333004,EQ333005,EQ333006

>ms2
289.109900 1414301056.000000

>ms2
81.069800 4246458.000000
95.085300 1865866.600000
109.064700 2919832.800000
182.036600 4417816.000000
197.119300 2258739.500000
225.102000 3554533.000000
225.138400 8017942.000000
226.146400 3581790.200000
230.072500 1597115.600000
232.088700 12843544.000000
235.063000 2964445.800000
253.133300 24712612.000000
254.141200 31725560.000000
261.078800 3857459.500000
261.115100 19575682.000000
289.109800 1330739840.000000

>ms2
67.054200 7083750.000000
79.054100 4820268.500000
81.069800 37893832.000000
93.069800 1173557.400000
95.085400 10232722.000000
96.080700 5213451.500000
109.064700 5237577.000000
110.096300 5767599.000000
120.080600 1237996.900000
140.026000 1990195.200000
147.067700 1706816.100000
148.075700 1076545.600000
152.026100 5254069.500000
154.041600 18780538.000000
164.025900 4884298.500000
166.041700 2824479.800000
167.013100 3334462.500000
167.036800 1362210.200000
169.088500 1077648.800000
172.063100 1849699.400000
172.099100 1025621.100000
178.041600 6078386.000000
179.036900 4320782.500000
180.020900 4295108.500000
181.052600 2102632.000000
181.088500 1318964.800000
182.036500 19283166.000000
182.096200 1520116.200000
183.091800 1839136.500000
183.104300 1091317.100000
185.107300 531642.900000
190.041700 1184863.500000
192.057300 810264.300000
193.052500 2586220.500000
194.096300 1257808.100000
195.068400 2469023.200000
195.104100 2508788.000000
196.111800 5772129.000000
197.107300 6719818.500000
197.119700 29371394.000000
198.115000 3448633.800000
198.127600 7473273.500000
199.086400 2288182.800000
200.094100 3142370.800000
202.041300 1458276.000000
203.049300 1300051.100000
204.057400 3439592.500000
207.068300 1915460.800000
208.112000 3104754.200000
209.047500 2271362.000000
209.119900 4459377.500000
210.115200 1404904.200000
211.122700 1214924.100000
212.094100 1638835.500000
213.102100 10621663.000000
216.057500 2000028.900000
217.065300 2844234.500000
218.060800 1525702.500000
218.073100 2957675.500000
219.068400 1329720.000000
220.088600 1628466.100000
223.063400 1179140.400000
225.102100 37518612.000000
225.138400 51054572.000000
226.109900 20824082.000000
226.146200 24292060.000000
229.064800 814046.600000
230.072900 7900088.000000
231.080500 1925349.800000
232.088600 61442176.000000
233.084100 7317335.000000
233.096500 6666408.500000
234.104200 1096655.500000
235.063100 24376416.000000
237.114800 1631330.800000
239.117500 3787151.500000
244.088700 9213000.000000
245.084200 1735703.500000
246.091700 4976433.500000
247.063200 1460168.500000
253.133400 108812600.000000
254.141200 78507936.000000
259.100400 1692990.400000
260.083400 938590.400000
260.107400 813477.400000
261.078800 24678320.000000
261.115000 50383552.000000
289.109900 511465408.000000

>ms2
56.049600 347721.200000
58.028800 2068481.900000
65.038500 2253681.200000
66.046500 248162.700000
67.054100 20056930.000000
68.049400 879218.200000
69.069800 1478657.900000
70.065000 481319.600000
77.038400 972831.100000
79.054100 19170690.000000
80.049400 1195428.100000
81.069800 70374280.000000
82.065000 3929274.200000
83.085400 1026235.900000
91.054100 2935763.800000
93.069800 4198926.500000
94.065000 340727.500000
95.049000 1405007.800000
95.073000 866748.000000
95.085400 13032562.000000
96.080700 7505124.500000
103.054100 374863.400000
105.044800 411429.500000
105.069800 384457.300000
106.065100 319669.500000
108.080700 477264.900000
109.064800 1727161.000000
110.096400 7817505.000000
116.049200 218649.500000
117.057100 5207431.000000
118.064800 1368018.000000
119.060200 237945.800000
119.072800 934904.200000
120.080600 1761038.400000
125.015200 1092026.800000
126.022700 300059.800000
127.030700 253520.000000
128.061700 287415.400000
130.065000 1855222.800000
131.072800 3325325.200000
132.068000 1175766.400000
139.018100 382675.500000
140.025900 3835394.200000
142.065000 260393.900000
143.060200 1767325.800000
143.072900 1780580.000000
144.068200 1251827.000000
144.080700 2154514.500000
145.076000 276568.300000
145.088900 258851.000000
146.083600 986446.800000
147.067900 3047915.800000
148.075600 489165.400000
150.010300 1383375.400000
151.018200 1076977.000000
152.026000 9957674.000000
154.041700 36191768.000000
155.072700 1466269.200000
155.085600 323539.100000
156.067500 275088.200000
156.080500 1346423.500000
157.075900 970629.800000
157.088400 1093169.500000
158.083700 234022.800000
158.096800 214375.400000
159.091500 501766.800000
160.099300 863663.400000
162.010500 212213.000000
164.025900 16357640.000000
165.021600 1526760.200000
165.033700 1387437.900000
165.069700 1241354.900000
166.041600 5312724.500000
166.077300 337621.800000
167.013100 10265830.000000
167.036800 1490146.200000
167.073000 2856734.200000
167.085400 900188.000000
168.021200 399916.900000
168.080800 6158577.000000
168.092500 309369.800000
169.076900 1693449.000000
169.088400 12072548.000000
170.083900 1029260.500000
170.096000 1888017.600000
171.091500 5694074.000000
171.104000 938465.100000
172.062900 8934902.000000
172.099300 9085619.000000
175.030500 352331.400000
176.025800 295631.300000
177.033700 1440666.800000
178.041600 17214532.000000
179.036900 11873880.000000
179.049700 985057.000000
179.085200 1022425.900000
180.020900 6110497.500000
180.044900 2620176.500000
180.057300 382078.000000
180.080500 3456053.500000
180.093400 941088.800000
181.052700 1381823.000000
181.075700 1141660.100000
181.088500 8002615.000000
182.036500 12991484.000000
182.084100 3685109.200000
182.096300 10271096.000000
183.091700 10131572.000000
183.103900 7917913.000000
184.099400 4904358.500000
184.111600 1923598.900000
185.107200 6256066.000000
185.119700 838733.600000
189.034100 292004.300000
190.041700 4806136.500000
191.049500 4140143.000000
192.044700 821174.200000
192.057100 2641737.800000
193.052600 4388833.000000
193.088200 538269.300000
194.036700 1079442.000000
194.096300 6850738.000000
195.068300 2184043.500000
195.091400 1027823.600000
195.104100 5780047.500000
196.099400 1322974.900000
196.111900 18065672.000000
197.107200 41530584.000000
197.119700 64455320.000000
198.115000 15692938.000000
198.127500 29347688.000000
199.086300 9209650.000000
199.135400 1058382.900000
200.094200 10554973.000000
201.033700 1081997.100000
202.041500 6284728.500000
203.036800 2677775.000000
203.049200 4556324.500000
204.045000 1101748.200000
204.057300 14125766.000000
205.052900 1735188.500000
206.036700 366195.400000
206.060100 932121.800000
207.068300 8905621.000000
207.104100 902054.500000
208.112000 8029422.000000
209.047100 3719324.200000
209.107300 1883245.100000
209.119800 5579797.000000
210.079000 295788.600000
210.115100 3314778.000000
210.127000 945237.600000
211.086200 2863555.000000
211.122800 6595563.500000
212.094200 5091231.500000
213.102000 22066868.000000
214.041500 1220879.625000
215.049900 1926306.600000
216.057400 5874749.000000
217.052700 6072448.500000
217.065300 8824324.000000
218.060500 11941272.000000
218.072900 4716355.500000
219.068300 3295748.200000
220.088700 1340134.200000
221.047100 866475.400000
222.090700 271914.200000
223.063400 268253.500000
223.122500 2434343.800000
224.094100 279979.500000
224.105400 274339.300000
224.130800 415860.000000
225.102100 104556200.000000
225.138400 63832608.000000
226.109800 48465040.000000
226.146200 23471858.000000
228.056800 2289544.000000
229.064800 1103960.800000
230.072900 8391476.000000
231.068400 2931781.000000
231.080600 2415334.500000
232.088500 46371888.000000
233.047300 773606.100000
233.084000 14365878.000000
233.096200 4911046.500000
234.104300 866041.900000
235.063000 23855532.000000
236.106500 1182526.500000
237.114100 1551343.200000
239.117400 6930939.000000
242.073000 915881.200000
243.069100 302491.200000
244.052800 410981.700000
244.088600 5511566.000000
245.060300 451301.100000
245.083700 7943008.000000
246.091900 7601071.500000
247.062800 2392131.000000
253.133300 77582992.000000
254.141100 22706376.000000
259.063000 959151.500000
259.099200 2860377.000000
260.083100 372258.900000
261.078700 19387990.000000
261.115000 19897898.000000
272.084100 260049.100000
273.078200 458898.700000
274.086800 382938.900000
289.109900 62067636.000000

>ms2
56.049600 393142.400000
58.028700 2358218.500000
65.038500 2503852.000000
66.046400 395573.800000
67.041600 1156393.100000
67.054200 22973416.000000
68.049400 1823083.800000
69.069800 459651.000000
70.065000 457019.700000
77.038400 1369433.600000
79.054100 26076342.000000
80.049400 1370855.500000
80.062000 227185.200000
81.069800 50243508.000000
82.065000 3536043.500000
83.085400 286185.700000
89.038400 850511.900000
91.054100 6286227.500000
93.057100 265164.800000
93.069700 4151274.200000
94.065000 1075422.400000
95.049100 3798851.200000
95.072800 802654.800000
95.085400 5752580.500000
96.080700 4438653.000000
103.054100 292340.800000
104.049200 277823.100000
105.044600 1528212.800000
106.065000 230881.300000
108.080700 353622.300000
109.064600 910335.800000
110.096400 2658778.200000
112.007000 245542.300000
115.053800 462916.400000
116.049300 410495.800000
117.057100 11485059.000000
118.065000 3325080.500000
119.072900 1997021.000000
120.080600 1734533.500000
125.015100 3352606.200000
126.023000 417881.800000
127.030900 397162.000000
128.061900 353205.300000
129.057200 306191.200000
129.069800 1124069.100000
130.065000 3814249.200000
131.072800 5757548.000000
132.067900 981100.000000
132.080600 262992.100000
134.060100 391517.100000
138.010500 1667548.400000
139.018100 2479283.800000
140.025900 5438299.500000
140.049300 388423.900000
141.069700 1336436.800000
142.065100 1227340.800000
142.077600 419625.700000
143.060300 7356015.000000
143.072800 4777046.500000
144.068200 3889687.800000
144.080700 6377920.000000
145.076000 835609.200000
145.088500 1060018.800000
146.059800 383352.800000
146.083600 1433585.400000
147.067700 3475118.200000
149.014800 301809.200000
150.010600 1839695.100000
151.018200 3341772.000000
152.026000 5944559.500000
152.061700 973317.100000
153.069800 877980.800000
154.041700 25633080.000000
154.064900 5734512.000000
155.060000 1042965.900000
155.072800 2914399.500000
155.085600 261334.200000
156.068200 1989086.200000
156.080700 3932710.200000
157.039700 362792.600000
157.075900 2472409.000000
157.088500 2903796.800000
158.083800 452140.200000
158.096300 418302.400000
159.067700 283683.400000
159.091300 389997.900000
160.099600 260116.900000
164.026000 14942341.000000
165.021500 2142902.000000
165.034000 2300452.000000
165.069800 3353327.500000
166.041600 2364653.800000
166.064700 885605.000000
166.077400 922093.900000
167.013100 6475475.000000
167.072800 6561958.500000
168.068200 1063705.200000
168.080600 15647358.000000
169.076700 3838569.500000
169.088400 19432024.000000
170.084200 2687178.800000
170.096200 7611343.500000
171.091500 14663436.000000
171.103900 1729905.100000
172.063000 6126918.000000
172.099300 9890802.000000
175.018500 403957.100000
175.030800 261152.300000
176.025800 1116240.900000
177.033800 2478727.000000
178.041600 16774354.000000
178.077400 1029365.900000
179.036900 10225751.000000
179.049800 1385239.100000
179.085400 1211721.900000
180.020900 4592705.000000
180.044700 1137826.500000
180.080600 9358966.000000
180.093000 687637.800000
181.028600 962091.000000
181.076500 2651937.500000
181.088400 11869264.000000
182.036600 2352391.500000
182.083700 11720089.000000
182.096300 21694128.000000
183.091500 24170746.000000
183.104100 18479028.000000
184.075400 340452.900000
184.099400 4540344.000000
184.111400 2036644.500000
185.107100 7079720.500000
188.026100 1245469.100000
189.034400 252908.100000
190.041700 4824697.000000
191.037200 1643606.500000
191.049400 5990143.500000
192.020400 288844.300000
192.045000 1478685.600000
192.057200 2613382.500000
192.080600 792370.400000
193.052600 3613183.500000
193.088600 1650439.400000
194.036600 1311011.100000
194.096200 8763873.000000
195.091400 3864608.200000
195.104200 4064495.200000
196.099400 4189861.200000
196.111900 25608394.000000
197.107100 64907332.000000
197.119600 28415944.000000
198.078200 1079462.100000
198.114900 11583923.000000
198.127500 19073306.000000
199.086300 9834533.000000
200.094200 7489027.000000
201.033500 2180211.500000
202.041400 8290637.500000
203.036700 6135667.500000
203.049300 3024595.500000
204.057400 10052294.000000
205.052600 2657043.500000
205.065100 1031349.400000
206.060500 885125.900000
207.068200 4517213.000000
207.104500 449616.800000
208.112000 5919496.000000
209.047500 1473269.600000
209.107300 3155945.000000
209.119900 1822191.000000
210.079100 421006.000000
210.115100 2775728.000000
210.127600 245949.600000
211.086300 5743054.000000
211.122800 6053503.500000
212.094200 3066809.800000
213.102100 16454160.000000
214.041600 2878435.200000
215.037300 879157.200000
215.049500 2508269.800000
216.057400 7310438.500000
217.052500 11832431.000000
217.065100 4894844.000000
218.060500 11460900.000000
218.072900 1794883.600000
219.067900 2261996.000000
221.048000 478028.600000
223.122700 1187654.400000
224.130900 489134.600000
225.102000 77542008.000000
225.138300 26337562.000000
226.109800 18748668.000000
226.146300 3360351.800000
228.057200 3046369.200000
229.064700 866677.400000
230.061200 491054.000000
230.072700 4084247.000000
231.031500 411004.200000
231.068500 4509004.000000
231.080200 779802.000000
232.088500 12386580.000000
233.083900 4615711.500000
233.096500 1054512.600000
235.063000 4622109.500000
237.102400 258259.400000
238.109600 411517.100000
239.117400 2629953.800000
242.073600 283480.900000
243.069300 681229.600000
244.052300 1078877.800000
244.088700 1363150.600000
245.047100 1186063.000000
245.083700 7212844.500000
246.092000 1475700.900000
247.063900 1492168.000000
251.117800 289363.800000
252.125900 280283.700000
253.133300 18005028.000000
254.141000 1194467.800000
259.063400 1290582.400000
259.099800 872475.600000
261.078900 2631509.500000
261.114900 1293651.500000
287.093700 233073.100000
289.110000 2316748.200000

>ms2
50.015100 213117.000000
53.002200 226337.100000
53.038600 268669.600000
58.028700 2590653.800000
65.038500 4963401.500000
66.046400 1307393.200000
67.041600 1636469.400000
67.054200 19944908.000000
68.049400 1571319.400000
69.069800 505932.800000
70.065000 308678.400000
77.038500 1961936.200000
79.054100 28405564.000000
80.049400 1832657.900000
80.062000 353523.500000
81.069800 26716042.000000
82.065000 1884204.100000
89.038400 1986602.900000
90.046300 348499.500000
91.054100 9245406.000000
92.049100 250478.000000
93.057100 339564.200000
93.069800 1923454.800000
94.065000 798084.400000
95.049000 5230532.000000
95.072800 521440.800000
95.085400 1438017.000000
96.080600 1027438.600000
98.999500 938615.700000
102.046500 311960.500000
103.054100 1142804.500000
104.049300 1096445.400000
105.044600 2311658.800000
105.057200 227392.700000
106.065200 285007.100000
108.080400 233856.800000
110.096200 1100321.400000
113.015100 433351.500000
115.054000 4212875.000000
116.049200 1766351.200000
116.061900 456793.100000
117.057100 18097016.000000
118.064900 5725545.500000
119.060400 269312.700000
119.072900 3183604.000000
120.080600 1387569.800000
122.999400 460942.800000
125.015100 7100134.500000
126.022900 1342200.200000
127.031000 278990.100000
128.049100 1592307.000000
128.062000 2795782.500000
129.057100 1152710.900000
129.069600 3284587.800000
130.065000 9002851.000000
131.060300 921280.900000
131.072800 5697771.000000
132.067900 1195576.600000
132.080500 198157.500000
133.064700 171313.400000
134.060000 319765.200000
137.002900 312055.700000
137.015100 241901.300000
138.010400 3776227.800000
139.018100 3028906.800000
139.053800 211526.300000
140.026000 4686958.500000
140.049100 942669.100000
140.061700 389789.600000
141.057000 969396.900000
141.069600 3858489.000000
142.065200 2078479.900000
142.077500 426927.500000
143.060300 15459847.000000
143.072800 9540436.000000
144.068300 4116517.200000
144.080700 9175860.000000
145.064500 356834.600000
145.075900 931002.200000
145.088500 1361488.100000
146.060000 1187626.600000
146.083700 1388765.800000
147.067600 1569382.100000
147.080300 452125.700000
149.015200 1720332.800000
150.010300 2157747.200000
151.018200 4230951.000000
152.013700 315580.800000
152.026000 3160076.500000
152.062000 1982003.600000
153.021300 384013.800000
153.069900 2656836.800000
154.041700 12760534.000000
154.065000 12761877.000000
155.060200 3852730.200000
155.072800 5713568.000000
155.085500 447271.600000
156.068200 2749243.200000
156.080700 10913434.000000
157.039500 792939.900000
157.075900 5053082.500000
157.088400 5687178.500000
158.083800 871682.200000
158.096200 1304955.200000
159.091400 274780.100000
160.099800 227701.800000
162.010500 1799544.100000
163.018100 395819.000000
163.030800 351421.300000
164.026000 16138779.000000
165.021400 2755936.200000
165.033800 2203348.500000
165.069600 5169264.000000
166.029000 274862.500000
166.041600 1004957.900000
166.065200 3108863.500000
166.077400 1335725.800000
167.013100 3346960.800000
167.072800 18644390.000000
168.067900 3352551.500000
168.080600 25025864.000000
169.076100 8471006.000000
169.088300 13159204.000000
170.084000 6138093.500000
170.096100 12016614.000000
171.091500 17741378.000000
171.103900 1089883.000000
172.063000 2562940.800000
172.099200 4392295.500000
175.018200 1364800.600000
175.030700 463058.900000
176.026100 2686304.000000
177.033800 4886258.000000
178.029000 1276418.200000
178.041600 12777703.000000
178.077500 1135120.000000
179.048900 429558.000000
179.072800 825151.100000
179.085300 1366218.100000
180.021000 2384326.000000
180.080600 20600802.000000
181.076000 10767695.000000
181.088300 17832732.000000
182.083700 27700406.000000
182.096200 24797024.000000
183.091400 27979566.000000
183.104000 22358000.000000
184.099400 3372416.000000
184.111800 1412802.500000
185.107200 5449719.000000
188.026000 2692576.200000
189.034300 283391.100000
190.041700 7251779.500000
191.037000 2276684.500000
191.049500 5885912.500000
192.044700 1238005.200000
192.056800 1581835.100000
192.080500 1318796.000000
193.052600 2366484.200000
193.088500 3191956.200000
194.096300 9673255.000000
195.091500 6534472.000000
195.103700 1396331.600000
196.099400 6714520.500000
196.111800 23996770.000000
197.107100 58603468.000000
197.119500 7889643.500000
198.078700 1255098.500000
198.091000 823829.700000
198.114900 4184449.200000
198.127400 8046254.500000
199.086300 10152813.000000
200.093900 1899938.100000
201.033500 3298948.000000
202.041400 8290948.500000
203.036700 8463419.000000
203.049100 1082894.200000
204.045900 606568.500000
204.057300 5824536.500000
205.052400 1775292.100000
207.068200 1153291.400000
207.091700 360008.800000
207.103600 257455.300000
208.111900 3603381.000000
209.071000 327550.800000
209.107000 3601818.500000
210.078500 1191748.600000
210.115000 1760235.600000
211.086500 4341240.500000
211.122700 2976934.000000
212.094200 1756797.500000
213.102000 4678809.500000
214.041600 2899721.800000
215.036700 2758702.500000
215.049200 1311589.900000
216.044900 1518638.100000
216.057300 6817182.000000
217.052600 14147297.000000
217.064700 1621299.000000
218.036700 993118.500000
218.060600 6337011.000000
218.072700 955514.600000
219.068300 1097951.400000
223.086800 448786.800000
223.122700 1406579.000000
224.094000 264841.500000
225.102100 41417192.000000
225.138400 10170299.000000
226.109700 3003645.800000
228.057100 3279117.000000
229.052700 1277896.900000
230.072700 1775964.600000
231.032100 757397.400000
231.068300 1881522.500000
232.088400 2937679.000000
233.083800 1037216.800000
237.102300 285528.400000
239.117500 1083109.600000
243.068100 377375.200000
244.052300 772282.900000
245.047800 1151427.000000
245.083800 3943697.200000
247.062900 262504.700000
253.133200 3817332.500000
259.063200 243910.100000

