>compound EQ42273343
>parentmass 326.9934
>ionization [M+H]+
>formula C13H8Cl2N2O4
>rt 936.000000
>profile orbitrap
#smiles_iso C1=CC(=C(C=C1[N+](=O)[O-])Cl)NC(=O)C2=C(C=CC(=C2)Cl)O
#smiles_can C1=CC(=C(C=C1[N+](=O)[O-])Cl)NC(=O)C2=C(C=CC(=C2)Cl)O
#inchikey RJMUSRYZPJIFPJ-UHFFFAOYSA-N
#pubchem_id 4477
#mb_accession EQ332001,EQ332002,EQ332003,EQ332004,EQ332005,EQ332006

>ms2
77.015000 11551.600000
80.973500 7441.000000
97.064700 6227.300000
98.984100 2005350.200000
113.059700 5395.800000
129.010300 4107.200000
139.015200 11621.200000
154.989300 138310.600000
174.992100 3188753.500000
193.002800 7429.400000
251.000100 2149898.800000
326.993300 956166.400000

>ms2
77.015200 23062.400000
97.064900 9522.900000
98.984200 6420555.500000
127.018200 25328.900000
129.010100 20147.600000
139.015500 15024.700000
153.069800 6526.200000
154.989400 861214.300000
173.011500 11830.700000
174.992100 786772.000000
198.990400 21321.800000
251.000100 34942.400000
326.993400 199822.400000

>ms2
77.015200 27385.200000
80.973600 12408.300000
81.069900 11626.200000
95.049100 14201.900000
97.064900 8542.300000
98.984200 7213459.500000
126.994400 22413.600000
127.018200 81836.200000
129.010300 12151.200000
145.005100 15110.900000
152.062100 10730.100000
153.070100 15745.300000
154.989400 973015.200000
174.992200 24480.100000
198.990700 11153.900000
233.036200 23572.900000

>ms2
67.054200 11928.700000
72.983900 10812.300000
77.015200 31313.500000
80.973500 12520.100000
81.069800 10473.100000
93.070000 8994.400000
95.049100 14700.000000
97.064900 8443.000000
98.984200 6924706.000000
126.994400 53669.600000
127.018200 94499.500000
131.997300 7242.400000
145.005100 54536.400000
152.062100 22469.500000
153.070000 9876.900000
154.989400 734363.700000
155.000400 36821.700000
156.008400 9147.800000
233.036000 10517.100000

>ms2
67.054200 10990.400000
72.983900 44494.100000
77.015200 17985.800000
79.054200 8124.600000
81.069900 10848.100000
91.054100 10510.400000
95.049100 18872.300000
98.984300 6434224.000000
105.044600 6664.000000
105.070000 6982.700000
109.028600 9861.100000
109.064800 7080.100000
113.986800 6449.800000
126.994500 53686.600000
127.018200 97457.400000
131.997200 8243.800000
145.005100 67812.900000
152.062000 23194.500000
154.989400 319667.600000
154.999800 58588.100000
168.057000 10497.600000

>ms2
63.022900 15788.200000
65.038600 6721.200000
67.054200 14214.700000
72.983900 126651.400000
77.015200 8801.800000
77.038500 6506.400000
79.054100 9194.800000
80.973500 13671.300000
81.069800 8901.700000
91.054300 10373.000000
92.049500 6136.600000
95.049100 19095.500000
98.984300 6108668.500000
100.007200 7648.300000
110.036200 6149.700000
126.994400 30004.000000
127.018300 74259.800000
131.997300 6767.400000
145.005100 51084.800000
152.062100 20020.700000
154.989500 135632.700000
155.000200 37921.000000
168.056900 6679.400000

