>compound EQ43546127
>parentmass 302.1387
>ionization [M+H]+
>formula C17H19NO4
>rt 600.000000
>profile orbitrap
#smiles_iso CC1=C(C(=CC=C1)C)N(C(C)C(=O)OC)C(=O)C2=CC=CO2
#smiles_can CC1=C(C(=CC=C1)C)N(C(C)C(=O)OC)C(=O)C2=CC=CO2
#inchikey CIEXPHRYOLIQQD-UHFFFAOYSA-N
#pubchem_id 42504
#mb_accession EQ311301,EQ311302,EQ311303,EQ311304,EQ311305,EQ311306

>ms2peaks
95.012900 50708700.500000
206.117700 1707810.900000
242.117700 603930505.800000
270.112600 626086815.000000
302.138700 177117382.800000

>ms2peaks
95.012800 520557888.400000
146.096700 2370518.500000
198.091900 2157624.100000
206.117500 2978020.600000
215.094300 2855318.900000
242.117700 946895815.700000
270.112600 46882008.400000
302.139100 1844409.700000

>ms2peaks
83.012700 1567619.600000
95.012800 1255549593.300000
146.096400 4861448.700000
198.091400 1574337.100000
215.094300 1874099.300000
242.117700 115435281.600000

>ms2peaks
83.012700 3110275.500000
95.012800 1227896486.200000
146.096600 3096202.400000
148.075800 1465124.600000
242.117600 14488066.600000

>ms2peaks
83.012800 9882640.800000
95.012800 1397008631.500000
105.069800 3011836.800000
132.080700 1517146.100000
146.096500 2030243.500000
148.075600 2467808.200000
148.112100 1507118.100000

>ms2peaks
53.002300 1431576.200000
67.017900 1741281.500000
83.012800 15942566.600000
95.012800 1037725888.400000
105.069800 2357051.400000
120.080900 1620644.800000
148.075800 2219621.300000

