>compound EQ43939766
>parentmass 281.2475
>ionization [M+H]+
>formula C18H32O2
>rt 1164.000000
>profile orbitrap
#smiles_iso CCCCC/C=C\C/C=C\CCCCCCCC(=O)O
#smiles_can CCCCCC=CCC=CCCCCCCCC(=O)O
#inchikey OYHQOLUKZRVURQ-HZJYTTRNSA-N
#pubchem_id 5280450
#mb_accession EQ331601,EQ331602,EQ331603,EQ331604,EQ331605,EQ331606

>ms2peaks
55.054200 3685.300000
57.069900 19508.700000
59.049200 2616.600000
67.054200 10891.500000
69.069800 64190.300000
71.049100 2790.300000
71.085400 24620.000000
73.064800 569.900000
74.096500 1304.300000
79.054200 1291.200000
81.069800 35743.900000
83.085500 101752.200000
85.028500 661.400000
85.064800 4177.600000
85.101100 11521.900000
87.043900 1061.600000
89.059700 806.500000
91.054200 1583.900000
93.069900 5823.200000
95.085400 41556.900000
97.064800 11045.500000
97.101100 148910.800000
99.044000 3251.400000
99.080300 9696.100000
101.059600 9454.400000
101.096200 1436.300000
105.069800 7659.000000
107.085500 11967.600000
109.064700 3112.900000
109.101100 35340.300000
111.080300 9320.000000
111.116800 97322.100000
113.059600 3580.400000
113.096000 5897.000000
115.075200 11105.600000
115.111600 918.600000
119.085400 14318.900000
121.101100 27545.500000
123.080300 17541.000000
123.116700 25697.600000
125.096000 12533.300000
125.132400 51593.800000
127.075300 4288.100000
127.111800 3828.800000
129.090900 13207.100000
133.101100 28420.800000
135.116800 24778.100000
137.059800 4863.100000
137.096000 19399.000000
137.132400 14680.900000
139.075300 2573.600000
139.111700 16528.700000
139.148000 18016.900000
141.091000 8242.300000
141.127200 6425.700000
143.085600 701.800000
143.106700 11076.800000
147.116700 30995.000000
149.023300 39390.000000
149.132500 34361.800000
151.111700 30563.500000
151.148100 13447.100000
153.091100 3067.400000
153.127300 21040.500000
153.163800 6152.400000
155.106500 12302.100000
155.143100 1363.700000
157.122200 8850.900000
159.116400 991.100000
161.096400 2629.600000
161.132400 35090.900000
163.148100 29834.900000
165.127400 44562.300000
165.163600 17930.900000
167.143000 23268.100000
169.086000 4338.300000
169.122100 14891.000000
171.116600 1109.100000
171.137900 10620.100000
173.131700 891.000000
175.111600 2708.400000
175.148100 31829.800000
177.163700 6089.600000
179.105900 3229.600000
179.143000 45520.500000
179.179400 20813.200000
181.158500 15537.100000
183.101600 1446.600000
183.137900 12572.100000
183.174700 1483.000000
185.132400 936.200000
185.153600 15995.300000
189.163700 27085.100000
191.106800 1069.200000
191.179600 5187.500000
193.122400 4899.900000
193.158600 39890.100000
195.174400 1471.300000
197.153600 15795.300000
197.190000 3935.800000
199.169000 9348.600000
203.106600 1208.100000
203.143000 2943.100000
203.179500 8581.900000
205.085700 2437.200000
205.122400 1165.200000
205.195300 4310.900000
207.091900 4286.400000
207.101800 2621.600000
207.174400 29286.800000
211.169100 12300.600000
217.122200 1343.400000
217.158800 947.800000
217.195400 5492.800000
219.211000 8231.800000
221.116900 5721.000000
221.153300 4129.600000
221.190100 9519.100000
221.226400 36078.100000
223.133300 993.800000
225.184900 9951.600000
231.137400 2274.100000
235.132600 6925.800000
235.169200 2772.000000
235.242000 3089.300000
245.226400 224793.000000
246.100300 1367.900000
249.147700 5307.900000
249.184700 4117.600000
253.252900 8901.400000
263.236900 310390.500000
281.246600 94861.700000

>ms2peaks
55.054200 3266.000000
57.069900 26822.000000
59.049200 4017.400000
67.054200 28717.100000
69.069900 140006.800000
71.049100 7108.700000
71.085500 30172.600000
73.064700 2328.600000
74.096500 1380.700000
79.054200 8348.300000
81.069900 81467.300000
83.049200 8730.600000
83.085500 145585.800000
85.028400 1163.100000
85.064800 9102.300000
85.101200 14423.700000
87.044100 1165.700000
87.080500 572.200000
89.059700 1328.400000
91.054200 12108.700000
93.069800 29717.800000
95.085500 89863.800000
97.064800 24155.200000
97.101200 146738.300000
99.044000 4150.300000
99.080500 10873.300000
101.059800 8190.000000
101.096200 608.000000
105.069900 22646.400000
107.085500 34413.400000
109.064800 9605.200000
109.101200 70580.300000
111.080500 14917.800000
111.116800 70917.500000
113.059700 3814.000000
113.096100 5226.300000
115.075400 9445.500000
115.111700 990.900000
117.069700 1373.800000
119.085500 38083.200000
121.101200 45512.100000
123.080400 22871.200000
123.116800 49763.100000
125.059700 2464.300000
125.096100 13413.000000
125.132500 17901.600000
127.075100 5998.200000
127.111800 3851.700000
129.091200 6713.300000
131.085600 1360.400000
133.101200 61195.800000
135.116800 42635.500000
137.059800 3575.700000
137.096100 23799.100000
137.132400 19545.400000
139.075400 1397.500000
139.111700 15098.700000
139.148100 4286.000000
141.054700 979.200000
141.091100 5529.700000
141.127200 2868.200000
143.106800 2728.400000
145.101200 1412.200000
147.080300 3010.200000
147.116900 55799.100000
149.023400 45139.300000
149.132600 36792.000000
151.111800 32186.700000
151.148100 11927.000000
153.054800 1191.700000
153.090900 1276.800000
153.127400 12532.700000
155.106700 6766.600000
155.143000 1044.700000
157.101000 1101.400000
157.122500 1368.400000
159.116600 3544.900000
161.095900 3148.900000
161.132500 47806.200000
163.148100 29949.500000
165.090800 3500.200000
165.127500 27769.400000
165.163800 11573.200000
167.070500 863.800000
167.143000 9717.100000
169.086200 1420.200000
169.122500 3339.900000
171.116400 764.500000
171.137600 899.200000
173.131900 792.000000
175.111800 4604.000000
175.148100 39466.900000
177.090900 912.800000
177.127600 2728.000000
177.163700 7326.800000
179.106300 4764.400000
179.143000 21038.700000
179.179400 13684.500000
181.158800 8620.600000
183.138300 1172.400000
183.174600 768.500000
187.112000 986.000000
187.148900 764.900000
189.090600 2237.700000
189.127700 2369.200000
189.163800 31141.800000
191.106700 955.000000
191.179700 2932.800000
193.122400 7746.200000
193.158700 16231.100000
195.101100 747.600000
195.175000 744.000000
203.106300 1360.500000
203.142800 1152.600000
203.179600 9560.700000
205.123200 1254.900000
205.195300 5395.400000
207.101800 2866.500000
207.174300 9268.700000
217.122500 1161.900000
217.158000 893.800000
217.195200 3348.400000
219.210900 10586.900000
221.116700 3097.200000
221.153600 2455.400000
221.190300 3341.100000
221.226500 21052.900000
223.132100 939.900000
231.138100 996.700000
235.132300 2933.300000
235.169200 873.900000
245.226500 103880.100000
246.100000 1044.200000
249.185400 717.800000
253.253000 4337.600000
263.164300 2863.600000
263.237100 47395.500000
281.246900 2631.100000

>ms2peaks
53.002300 810.400000
53.038700 672.800000
55.017800 654.900000
55.054200 4765.900000
57.069900 22215.100000
59.049200 4626.100000
65.038500 2632.800000
67.054200 74617.000000
69.069900 212413.300000
71.049200 11173.600000
71.085500 23470.100000
73.064800 2356.400000
74.096400 766.700000
79.054200 28636.400000
81.069900 142208.500000
83.049100 14561.500000
83.085500 139902.200000
85.028400 3146.900000
85.064800 15504.500000
85.101100 8576.000000
87.044200 991.800000
87.080500 750.800000
91.054200 34896.200000
93.069900 54685.600000
95.085500 139201.100000
97.064800 24840.600000
97.101200 102118.200000
99.044000 3733.200000
99.080500 7100.400000
101.059800 6608.900000
105.069900 43007.300000
107.085500 54372.000000
109.064800 15416.900000
109.101200 84000.500000
111.044000 3765.900000
111.080400 14939.400000
111.116800 20584.500000
113.059800 4522.700000
113.096100 2438.900000
115.075500 3561.400000
117.070000 2543.300000
119.085500 63504.000000
121.101200 45189.400000
123.080400 21503.100000
123.116800 35774.600000
125.059700 1338.700000
125.096100 7649.600000
125.132500 1377.000000
127.039100 783.700000
127.075400 3399.200000
129.090700 1103.000000
131.085600 4417.000000
133.101100 59243.600000
135.080500 2344.100000
135.116800 26142.900000
137.059900 3566.400000
137.096100 19173.100000
137.132500 12197.900000
139.075300 1005.300000
139.111900 3021.100000
141.090900 1437.600000
141.127400 1058.200000
143.085900 831.800000
145.101100 2919.600000
147.116800 46813.500000
149.023400 37547.600000
149.096300 2465.700000
149.132600 19631.600000
151.111800 11817.400000
151.148300 6147.300000
153.054500 1231.100000
153.127400 2984.300000
157.101400 2998.300000
159.117100 2463.000000
161.096200 3490.500000
161.132500 28290.500000
163.075300 781.600000
163.111800 2762.900000
163.148200 9158.200000
165.091400 2693.400000
165.127300 6420.600000
165.164100 4321.500000
167.143300 2389.000000
171.117000 1152.900000
175.112200 3652.600000
175.148100 13599.200000
177.127800 876.500000
177.163400 946.300000
179.106900 1511.500000
179.143100 3253.400000
179.179600 2935.200000
181.158800 1205.300000
185.132100 821.900000
187.148400 965.200000
189.091300 1042.800000
189.127900 626.500000
189.163900 7986.700000
193.122600 3247.800000
193.158700 1497.000000
203.179800 2813.600000
219.211300 3564.600000
221.226600 3620.000000
245.226600 11160.800000
263.237500 3453.800000

>ms2peaks
53.002300 1024.500000
53.038700 2732.800000
55.054300 10178.600000
57.033600 1279.800000
57.069900 21938.900000
59.049200 5371.100000
65.038600 6691.400000
67.054200 113894.400000
69.069900 189525.700000
71.049100 10203.200000
71.085500 12976.300000
73.064800 3313.200000
74.096400 1156.000000
77.038500 1079.100000
79.054200 48538.700000
81.069900 157888.100000
83.049200 14303.300000
83.085500 84450.100000
85.028500 789.400000
85.064800 12348.300000
85.101100 2153.200000
87.043900 732.400000
87.080500 813.400000
91.054200 55211.900000
93.069900 69818.500000
95.049200 11101.000000
95.085500 134036.000000
96.088900 797.800000
97.064800 20328.700000
97.101200 42757.100000
99.044100 2284.700000
99.080500 4565.900000
101.059800 2692.700000
103.054400 1098.400000
105.069900 61917.900000
107.085600 49871.300000
109.064800 13140.700000
109.101200 54238.700000
111.044000 3243.500000
111.080400 7368.900000
111.116800 4506.900000
113.096300 594.000000
115.054300 600.500000
117.069800 4303.200000
118.077800 666.100000
119.085500 52391.900000
121.028400 6835.400000
121.064900 3171.500000
121.101200 27348.200000
123.080400 15959.300000
123.116800 15594.100000
125.059800 917.900000
125.096000 3166.900000
128.062200 1110.000000
129.070000 1039.800000
131.000500 706.000000
131.085800 4266.800000
133.101200 32224.600000
135.080400 2881.400000
135.116800 12761.600000
137.059800 2671.100000
137.096100 5617.700000
137.132500 3887.600000
139.075500 759.900000
139.112000 750.500000
142.078000 907.700000
143.085900 2548.100000
145.101300 3555.600000
147.080600 2790.300000
147.116900 17150.800000
149.023400 31294.500000
149.132500 5507.700000
157.101400 1025.800000
159.117000 980.400000
161.096100 1421.500000
161.132600 8948.900000
163.112000 593.000000
163.148100 1428.100000
165.127800 987.400000
175.111600 882.700000
175.148400 3603.500000
193.122600 1382.100000

>ms2peaks
53.002300 3451.300000
53.038700 3947.400000
55.054300 26110.400000
57.033600 1220.700000
57.069900 14856.300000
59.049200 5370.800000
65.038600 18235.900000
67.054200 127477.400000
69.069900 120184.200000
71.049100 8816.400000
71.085500 3823.000000
73.064800 2550.900000
74.096400 577.300000
77.038500 1350.000000
79.054200 67789.000000
81.069900 137052.300000
83.049100 12152.700000
83.085500 39707.500000
85.028400 791.900000
85.064800 9603.900000
91.054200 75563.300000
93.033500 3408.800000
93.069900 54901.000000
95.049100 16086.700000
95.085500 91555.900000
97.064800 11090.100000
97.101200 9466.100000
99.044100 781.700000
99.080500 2758.600000
101.060100 586.100000
103.054300 3118.400000
105.044900 5246.500000
105.069900 56340.000000
107.085500 26404.600000
109.064800 7425.200000
109.101200 23632.100000
111.044100 2540.100000
111.080300 3380.100000
115.054700 1744.200000
117.069800 6516.000000
119.085500 27610.000000
121.028300 11999.600000
121.039800 5204.300000
121.064900 1143.700000
121.101200 8843.400000
123.044000 891.700000
123.080400 9634.200000
123.116800 4374.400000
127.038600 596.800000
129.070000 1071.800000
131.085500 5525.400000
133.101200 14169.900000
135.116800 2611.000000
137.059600 699.200000
137.096000 2043.700000
142.078100 2615.100000
143.085700 1049.600000
145.064900 905.100000
145.101100 1109.200000
147.044000 734.700000
147.116900 4348.300000
149.023400 15060.600000
155.085500 850.400000
156.093400 894.900000
157.101200 775.900000
159.117300 719.600000
161.096000 584.500000

>ms2peaks
53.002300 5009.100000
53.038700 7212.000000
53.997500 519.800000
55.018000 2574.000000
55.054300 36470.400000
57.033600 1147.100000
57.069900 11114.300000
59.049200 4495.700000
65.038600 34425.200000
67.054200 126886.700000
69.069900 70611.800000
71.049100 7381.100000
71.085600 863.300000
73.064800 1152.500000
77.038600 4171.500000
79.054200 72151.600000
81.069900 102237.700000
83.049100 8387.300000
83.085500 14351.300000
85.028400 1107.200000
85.064800 5101.900000
91.054200 78424.500000
93.033400 3529.300000
93.069900 40555.400000
95.049100 22629.700000
95.085500 51372.000000
97.064800 7530.700000
97.101200 1173.900000
99.080500 755.900000
103.054200 4364.200000
105.044800 7878.100000
105.069900 43895.900000
107.085600 13174.800000
109.064700 6486.800000
109.101200 8022.400000
111.044100 4407.900000
111.080300 618.900000
115.054200 3449.500000
117.069800 4900.200000
119.085500 13723.500000
121.028500 5703.000000
121.039600 5638.800000
121.064800 691.900000
121.101100 2926.400000
123.043500 709.500000
123.080600 4933.800000
128.062100 2686.000000
129.069700 2205.300000
131.085700 5024.600000
133.101200 5282.200000
137.096000 815.600000
141.069800 1211.500000
142.078000 739.600000
143.085800 775.200000
145.064800 899.400000
145.101200 588.000000
147.116600 642.200000
149.023300 6283.400000
156.093700 663.500000

