>compound EQ43535298
>parentmass 137.0458
>ionization [M+H]+
>formula C5H4N4O
>rt 72.000000
>profile orbitrap
#smiles_iso C1=NNC2=C1C(=O)NC=N2
#smiles_can C1=NNC2=C1C(=O)NC=N2
#inchikey OFCNXPDARWKPPY-UHFFFAOYSA-N
#pubchem_id 135401907
#mb_accession EQ333601,EQ333602,EQ333603,EQ333604,EQ333605,EQ333606

>ms2
54.033900 129879.700000
81.044700 237055.500000
94.039900 1025540.900000
109.039700 377057.100000
110.034900 1505424.900000
120.019200 292352.800000
137.045900 87664136.000000

>ms2
81.044700 194963.500000
94.040000 1099285.200000
109.039600 420553.900000
110.034900 1460045.000000
120.019200 453966.600000
137.045900 87676168.000000

>ms2
54.033900 226429.900000
81.044700 580294.200000
94.039900 2363880.500000
109.039600 908640.800000
110.034900 3621983.500000
119.035100 156830.600000
120.019200 893051.100000
137.045900 78078424.000000

>ms2
54.033900 746800.400000
67.029100 109756.700000
68.013000 101535.600000
81.044700 1402800.100000
82.028800 240449.900000
94.040000 5398708.000000
109.039600 1619506.100000
109.051000 226398.700000
110.034900 13043617.000000
119.035300 523810.500000
120.019200 2585367.800000
137.045800 53887024.000000

>ms2
54.033900 2058487.000000
64.018200 232821.700000
66.033900 43616.600000
67.029100 271001.300000
68.013100 139948.100000
81.044700 1612911.900000
82.028700 480894.200000
82.040000 141215.400000
93.008400 50351.400000
94.040000 6833173.500000
95.023800 38628.900000
109.039700 1510105.100000
109.050900 272215.100000
110.034900 23450652.000000
119.035200 778741.800000
120.019200 4434315.500000
137.045800 27970530.000000

>ms2
54.033900 4263656.000000
55.018000 41375.600000
55.029300 34840.500000
64.018200 745696.000000
65.013400 117623.800000
66.033900 102762.000000
67.029100 618435.100000
68.013100 285898.000000
69.021000 47815.300000
70.039900 104925.400000
81.044700 1225800.800000
82.028700 417136.700000
82.040000 269357.100000
83.024100 51345.100000
93.008400 129330.600000
94.039900 5585646.000000
109.039700 895854.400000
109.050900 226499.300000
110.034900 23974406.000000
119.035200 749552.300000
120.019200 4654686.500000
137.045800 12054075.000000

