>compound EQ43103738
>parentmass 308.1104
>ionization [M+H]+
>formula C19H17NOS
>rt 900.000000
>profile orbitrap
#smiles_iso CC1=CC(=CC=C1)N(C)C(=S)OC2=CC3=CC=CC=C3C=C2
#smiles_can CC1=CC(=CC=C1)N(C)C(=S)OC2=CC3=CC=CC=C3C=C2
#inchikey FUSNMLFNXJSCDI-UHFFFAOYSA-N
#pubchem_id 5510
#mb_accession EQ313101,EQ313102,EQ313103,EQ313104,EQ313105,EQ313106

>ms2
120.080600 284000.000000
148.075900 7459741.400000
164.053000 2770521.000000
180.047800 2325818.900000

>ms2
91.054100 311287.900000
120.080800 2997025.100000
148.075900 10436949.700000
164.053000 4589127.600000
180.047900 1425397.500000

>ms2
65.038600 402950.900000
91.054300 1266896.500000
93.069800 222854.300000
109.064900 936958.900000
119.060300 180977.800000
120.080800 7038908.800000
123.026300 1465481.200000
148.075800 4066129.000000
149.029400 278545.500000
164.053000 3787686.800000

>ms2
65.038700 1105137.900000
79.054300 255155.900000
91.054300 3224145.200000
93.070000 249162.300000
107.049100 197847.376200
109.064900 1231773.200000
119.060300 299333.900000
120.080800 6468081.000000
123.026200 1831106.100000
148.075600 1521317.100000
149.029500 296736.600000
164.053100 1887458.300000

>ms2
65.038700 3064870.400000
79.054200 939761.500000
91.054300 7971571.200000
92.062100 359762.400000
93.069800 819315.600000
109.064800 1932296.800000
119.060400 390387.200000
120.080800 5367406.100000
123.026300 1888935.100000
149.029500 994388.800000
164.052700 639545.200000

>ms2
65.038600 7160060.100000
79.054300 979045.900000
91.054300 10932378.800000
92.062300 752143.000000
93.070000 798850.900000
95.049200 213396.469500
109.065000 1280630.800000
119.060200 302190.200000
120.080900 2187130.100000
123.026400 882694.100000
149.029600 237625.400000
164.052900 263747.700000

