>compound EQ44586545
>parentmass 547.1064
>ionization [M+H]+
>formula C22H22N6O7S2
>rt 204.000000
>profile orbitrap
#smiles_iso CC(C)(C(=O)O)O/N=C(/C1=CSC(=N1)N)\C(=O)N[C@H]2[C@@H]3N(C2=O)C(=C(CS3)C[N+]4=CC=CC=C4)C(=O)[O-]
#smiles_can CC(C)(C(=O)O)ON=C(C1=CSC(=N1)N)C(=O)NC2C3N(C2=O)C(=C(CS3)C[N+]4=CC=CC=C4)C(=O)[O-]
#inchikey ORFOPKXBNMVMKC-DWVKKRMSSA-N
#pubchem_id 5481173
#mb_accession EQ323801,EQ323803,EQ323804,EQ323805,EQ323806

>ms2
59.049200 11352.500000
80.049500 35923.100000
107.060400 7508.500000
109.076000 6454.700000
112.021500 37799.700000
126.011400 16923.100000
139.032300 70114.200000
140.016300 8723.600000
140.039900 3901.800000
141.047900 108384.500000
142.006400 45580.500000
144.022800 3912.500000
151.032300 2481.500000
152.040000 3270.700000
158.026700 2531.900000
167.027300 264353.900000
181.017700 9501.400000
182.025500 24932.900000
183.033400 2684.300000
185.037800 7628.100000
195.033700 2301.300000
197.012300 12386.900000
199.028000 6985.300000
210.020700 26265.700000
211.016900 3448.500000
217.054200 2651.100000
232.065200 13250.600000
233.049100 11423.700000
237.025700 2361.000000
243.057100 3179.200000
244.064800 13218.800000
245.048900 8148.900000
249.026300 83781.100000
260.060100 3276.800000
264.037100 21008.500000
265.021200 13570.200000
274.022100 2450.000000
276.037300 49779.000000
277.021200 357232.300000
283.049500 23875.000000
292.031900 34720.700000
310.042600 167729.300800
313.060000 205016.098800
321.034700 111236.994400
368.084700 149120.835900
396.079600 1388393.989000
424.074600 290882.395600
440.069400 574940.908100
468.064500 2196192.502000

>ms2
53.038700 3042.700000
59.049200 178762.900000
59.990300 15043.100000
60.998100 2120.800000
65.038600 1293.200000
68.049400 12759.700000
68.979300 2102.800000
69.044800 1949.900000
71.990300 7234.800000
72.998000 2227.900000
78.034000 2423.800000
80.049500 171846.100000
81.033600 2895.000000
81.044800 2170.200000
81.057500 1364.900000
85.010700 91730.900000
86.006000 3715.000000
87.044000 15737.500000
90.000800 3224.800000
93.044600 1697.300000
93.057300 2192.600000
95.060500 15460.200000
96.044500 16317.800000
97.010700 136518.200000
98.005900 7369.100000
99.001100 15949.000000
99.013900 1835.900000
99.985000 3093.400000
100.021600 2180.800000
100.992900 3460.600000
105.044700 20847.900000
106.028800 16931.800000
106.052600 15659.600000
107.036700 6479.400000
107.060400 105957.800000
108.044500 7379.700000
108.068300 61936.800000
109.076100 6605.600000
110.005900 8444.900000
110.034800 1839.700000
111.013800 31917.500000
112.021600 357855.400000
113.016800 2137.300000
113.029500 9444.900000
114.012100 26772.000000
114.037100 13670.300000
114.996100 5957.600000
116.027700 24289.300000
119.060700 2460.800000
121.039800 7238.600000
122.005800 16154.500000
123.055400 7032.500000
124.021600 81596.200000
125.004300 98812.800000
126.012100 331563.300000
126.995900 1812.300000
127.019800 12708.200000
128.027800 6279.900000
130.032200 5479.800000
132.022600 14618.000000
133.039500 2817.900000
134.047400 8037.700000
137.017000 13087.800000
138.000900 1880.300000
138.012400 3052.200000
138.029700 7517.300000
139.032400 241131.600000
140.016400 541269.000000
141.048000 209769.700000
142.007100 418652.600000
142.973500 5360.800000
144.022700 127337.000000
145.006600 4449.800000
146.070600 1678.500000
149.016800 2286.300000
151.032700 16093.400000
151.050100 15337.400000
152.015400 44370.300000
152.040300 2542.500000
153.022900 29736.100000
154.006900 20247.300000
154.030800 2627.800000
156.011400 8374.500000
158.027100 23644.300000
163.032500 10412.200000
165.011800 18618.000000
165.035300 2317.700000
166.019500 2285.700000
166.030700 7038.100000
167.027300 539076.000000
168.011300 10529.600000
169.017800 9157.200000
171.033500 1732.100000
173.082200 2184.900000
175.032700 2562.500000
176.027900 12560.400000
178.043300 8173.200000
179.002100 3892.500000
180.010000 12793.900000
181.006600 9620.500000
181.017900 107756.900000
182.002000 53639.100000
182.025600 48855.500000
183.033500 13446.000000
185.037800 13150.600000
185.082400 3379.200000
188.027900 8669.800000
189.035600 7094.500000
190.019500 9477.900000
190.043300 12862.600000
191.027400 28726.300000
191.035700 1689.500000
191.039400 1892.900000
192.022500 1935.300000
193.017600 8605.900000
197.012600 216612.800000
198.020000 6970.300000
200.027800 1570.700000
201.973800 7591.700000
203.038100 11998.400000
204.046600 2937.300000
205.030800 3447.200000
205.054100 10522.400000
207.004800 10142.800000
207.999900 6578.100000
209.012800 27530.300000
210.003600 1860.700000
210.020400 9929.500000
211.017300 21619.600000
211.025500 2359.100000
216.021500 1820.100000
216.046200 9337.000000
217.054300 30757.900000
218.038400 22071.500000
218.048100 2678.900000
219.046400 1827.900000
222.015300 6799.900000
225.997500 11706.600000
230.049400 15396.300000
231.057500 23320.500000
231.999800 13134.100000
232.041200 19198.700000
232.065200 46929.000000
233.049500 11100.300000
234.999600 29953.200000
237.025800 3341.900000
243.033500 3003.600000
243.057400 3614.700000
244.041600 7093.900000
244.065200 49748.700000
245.049000 53378.100000
247.010400 11366.100000
248.018500 11123.200000
249.026300 75552.700000
250.010100 25317.200000
260.019200 2229.800000
260.059900 14942.000000
264.036900 8666.800000
265.021100 3047.400000
276.037200 7659.400000
277.021100 56781.000000
283.049600 2531.800000
292.031800 2885.600000

>ms2
53.038700 5840.100000
55.029200 2372.600000
56.013200 3059.800000
59.049200 147206.400000
59.990300 21597.100000
60.998100 2365.000000
62.006000 1487.000000
65.038700 6747.900000
66.034000 3114.400000
67.041700 1918.000000
68.024400 9489.200000
68.037000 3230.000000
68.049500 41778.200000
68.979300 2151.500000
69.033600 3229.500000
69.044800 2790.400000
70.995100 2803.800000
71.990300 19872.200000
72.998000 12616.000000
74.005900 3496.000000
78.033800 11912.100000
80.049500 204471.000000
81.033600 3254.000000
81.044800 3629.600000
81.057400 3278.600000
82.028800 2574.600000
82.982300 2018.400000
82.995100 1741.900000
83.990300 7424.300000
84.002900 7051.600000
84.044500 2732.400000
85.010700 159212.500000
85.969600 2579.500000
86.005800 2922.900000
87.001200 2545.700000
87.044100 18238.000000
90.000900 9295.100000
90.033800 1780.300000
93.044700 11553.900000
94.039900 1444.700000
94.052700 2616.200000
95.060400 27611.900000
95.990200 2738.100000
96.044500 27224.800000
97.010700 174546.600000
97.993300 5747.400000
98.006000 10109.700000
98.018600 3040.800000
98.977400 3257.000000
99.001200 27486.600000
99.026400 3197.700000
99.985300 6687.600000
100.009100 4267.300000
100.021300 1669.600000
100.993100 11965.900000
105.044800 26370.200000
106.028800 27567.300000
106.052600 35751.900000
107.036600 10685.100000
107.060400 66268.900000
108.068300 94265.100000
109.076100 5824.400000
110.006000 12160.200000
110.035000 8446.200000
111.001100 1782.700000
111.013900 13057.100000
112.021600 348123.800000
113.016600 2413.200000
113.029300 11319.100000
114.012100 17679.900000
114.037100 12248.900000
114.996100 7925.400000
116.027800 10827.600000
117.011900 3147.800000
119.060300 3071.000000
121.039700 9892.500000
122.006000 34237.400000
123.013900 2432.700000
123.055400 6360.600000
124.009200 3496.700000
124.021600 55450.200000
125.004300 263095.200000
126.012100 344154.500000
127.020100 12857.100000
127.032500 1634.000000
128.027800 2945.800000
130.032100 2830.600000
132.022600 10978.900000
133.039500 1809.700000
134.047400 8950.700000
134.071400 2233.800000
136.021700 2663.100000
137.017000 11613.100000
138.000900 3015.300000
138.012000 2845.300000
138.029800 3732.100000
139.020100 25613.800000
139.032400 147294.000000
140.016400 232251.300000
140.040200 13281.500000
141.048000 81762.300000
142.007100 343045.300000
142.973100 1985.000000
144.022800 81895.000000
145.006800 3567.800000
149.016500 2702.500000
150.024600 2778.000000
151.032500 7810.400000
151.050200 10663.500000
152.015300 34155.900000
153.023000 54508.900000
154.007000 27865.300000
154.030900 7634.500000
156.011500 3329.400000
157.063300 2455.300000
158.027100 7377.300000
161.016800 1603.800000
163.032300 15248.100000
164.027300 2348.300000
165.011700 5749.800000
165.022600 1797.100000
166.019300 1837.800000
166.030600 3639.800000
167.027400 105117.200000
169.017700 3307.300000
170.001700 2900.300000
172.074300 2230.700000
173.082100 2195.800000
174.024200 3428.600000
175.032700 7757.700000
176.027900 19420.600000
178.043600 10941.900000
179.002300 2218.000000
180.009900 1944.800000
181.006400 1993.700000
181.017900 28656.000000
182.001900 124526.000000
182.025700 27106.800000
185.082100 2583.800000
188.027400 2973.500000
189.035800 18152.700000
190.019800 14134.000000
191.027300 29998.900000
191.036000 2216.800000
192.022500 3435.600000
192.033900 1515.800000
193.018100 3500.900000
195.004100 1766.800000
197.012600 62036.200000
199.061500 2328.600000
202.043300 7579.600000
203.029000 1991.400000
203.038300 16257.700000
204.046300 8153.900000
205.030500 7602.700000
205.054400 17830.200000
206.038500 1817.100000
207.005100 14363.400000
211.017100 1837.200000
215.038700 10362.700000
216.022700 2890.400000
216.046400 7497.300000
217.054200 33159.000000
218.049200 2540.900000
219.999600 2346.600000
230.049500 5033.700000
231.033200 2411.100000
231.057100 7049.100000
231.999600 15681.500000
232.041500 7578.800000
232.064800 15112.500000
233.049400 3226.500000
234.999300 8447.300000
243.034000 2427.400000
243.058200 2236.800000
244.065300 10972.600000
245.049100 26014.000000
249.026500 24427.100000
260.060300 2375.100000

>ms2
50.015300 1819.500000
53.038700 13047.400000
55.029200 11381.500000
56.013200 1978.500000
57.987200 1482.300000
59.049200 122805.600000
59.990300 57600.200000
62.006100 1642.300000
65.038600 7405.200000
66.033900 8612.500000
67.029100 6195.300000
67.041700 3427.000000
68.024400 16710.300000
68.049500 53882.100000
68.979400 7270.600000
69.008400 1764.600000
69.033600 2004.100000
69.044800 2541.800000
70.982500 2992.000000
70.995000 8432.600000
71.990300 38173.800000
72.998100 20483.400000
73.010700 2418.700000
74.006000 5487.500000
74.990000 3006.100000
78.033900 20871.900000
80.049500 189103.000000
81.033600 1439.700000
81.044800 5599.600000
81.057300 5743.100000
82.028800 1879.200000
82.052600 9649.500000
82.065200 1463.000000
82.982400 8202.700000
82.995000 1957.900000
83.990400 15538.800000
84.002900 3242.900000
84.044500 2931.200000
85.010700 200208.300000
85.969500 2337.400000
86.005900 6609.400000
87.001200 6455.900000
87.044100 11063.300000
90.000900 6221.500000
90.033900 2362.800000
91.041500 1569.200000
93.044600 22619.300000
93.057400 2026.800000
94.040100 1786.300000
94.052500 3135.700000
94.995100 4218.800000
95.060400 27105.300000
96.044400 24495.900000
97.010700 172484.300000
97.993400 22725.600000
98.005900 13593.900000
98.018500 3324.100000
98.977400 8499.100000
99.001200 40220.400000
99.985200 10639.600000
100.009100 5949.600000
100.021700 3142.900000
100.993100 9920.100000
104.049500 1542.200000
105.044800 20851.500000
106.028700 18823.700000
106.052600 43326.600000
107.036600 10542.000000
107.060500 61417.400000
108.068300 98572.100000
108.985500 1892.200000
109.076100 2107.400000
110.006000 13708.700000
110.035000 5955.500000
111.001200 2737.600000
111.013700 10202.200000
111.031500 2108.400000
112.021600 233349.200000
112.039300 13258.200000
113.029500 3216.000000
114.012200 8316.700000
114.037300 3569.300000
114.996200 9542.700000
116.027600 5870.100000
117.012000 3448.300000
119.060600 8383.000000
120.055900 1891.100000
121.039800 7165.700000
122.006000 33417.100000
123.013700 3414.100000
124.009100 7580.800000
124.021600 23810.100000
125.004300 409158.100000
126.012100 280028.000000
127.019900 8522.900000
128.027800 1516.300000
132.022700 6688.300000
132.055600 2107.700000
133.006600 2192.600000
133.039900 1817.800000
134.047600 3336.100000
134.071200 2174.500000
136.021800 7528.300000
137.016900 9268.400000
138.000800 1977.100000
138.012200 2840.200000
139.019800 80692.700000
139.032400 52995.400000
140.016400 64320.400000
141.048100 23452.300000
142.007100 210412.000000
142.973400 2811.300000
144.022800 33023.600000
144.055800 6469.500000
145.006700 1714.500000
148.009500 1728.200000
149.017000 5573.400000
150.011900 1593.400000
150.024600 1553.600000
151.032300 2025.300000
151.050500 3340.200000
151.991500 2315.100000
152.015500 12173.600000
152.028000 1828.100000
153.023000 44298.600000
154.007000 27116.400000
154.030800 3139.700000
156.011200 3410.800000
156.055700 2704.200000
157.063700 2893.000000
158.071100 2524.300000
159.066500 1737.400000
161.017000 3423.600000
162.024700 6576.300000
163.032300 12609.800000
166.030800 1879.800000
167.014800 3368.400000
167.027300 17365.900000
168.011100 1859.700000
171.066500 2905.300000
173.082100 2239.200000
174.025000 6536.800000
175.032600 7560.700000
176.027500 13400.700000
178.043400 2071.800000
179.002100 2112.800000
181.018000 3430.000000
182.002000 87390.200000
182.025600 11668.400000
186.090200 2938.000000
188.028000 8271.500000
189.035600 11053.500000
190.019300 11656.300000
190.043400 10230.400000
191.027400 11572.600000
191.039000 1453.500000
193.017700 2483.300000
195.004400 2195.400000
197.012600 6641.800000
199.061800 1646.800000
203.027300 3471.300000
203.038400 7573.100000
204.046400 3468.400000
204.989000 1882.200000
205.030900 3413.900000
205.054400 15499.200000
207.004400 7144.000000
215.038600 5963.800000
216.023200 1990.600000
216.046200 1628.200000
217.054300 15237.800000
222.015000 2310.500000
230.049400 2602.400000
232.041800 1458.700000
232.065200 2157.300000
245.049300 3006.400000

>ms2
50.015200 1326.900000
53.038700 18517.700000
55.029200 14372.900000
56.013200 8660.200000
56.979500 2318.900000
57.987200 4306.100000
59.049200 134681.100000
59.966500 7934.600000
59.990300 101385.600000
60.998100 1198.500000
62.006000 3449.600000
65.038600 6729.700000
66.021300 2720.600000
66.033900 12622.800000
66.046500 1809.500000
67.029200 2158.000000
67.041700 8444.800000
68.024300 29554.100000
68.037000 8317.300000
68.049500 56371.000000
68.979400 16199.000000
69.008400 2113.300000
69.033600 1473.300000
69.044800 6971.800000
69.974600 8715.600000
70.982400 14597.000000
70.995100 9824.400000
71.990300 49289.800000
72.998100 29302.800000
74.005900 8084.400000
74.990000 3209.200000
78.033900 26576.600000
79.041600 1829.800000
80.049500 174085.300000
81.044800 7401.700000
81.057300 6265.500000
82.028900 1795.700000
82.052600 17666.600000
82.065500 1333.800000
82.982400 23149.600000
82.995100 6238.500000
83.990300 42628.300000
84.002800 9338.000000
85.010700 165818.400000
85.969500 3312.000000
86.006000 5787.700000
87.001100 12567.600000
87.044200 2817.800000
90.000900 5699.000000
90.033900 1507.500000
93.044800 21546.200000
93.057400 1592.500000
94.040000 2728.300000
94.052400 2175.600000
94.995000 5782.000000
95.060400 23577.800000
95.990200 1960.300000
96.044400 28202.000000
97.010700 121780.100000
97.993400 56115.300000
98.005900 8679.500000
98.977400 10009.500000
99.001200 55464.100000
99.985200 12738.600000
100.009100 3291.000000
100.021600 3329.200000
100.993100 2910.800000
101.017100 1558.700000
104.049500 3111.300000
105.044800 22589.600000
106.028800 8374.700000
106.052600 30919.300000
107.060400 64202.800000
108.068300 81785.100000
108.985600 2258.900000
109.010800 2129.000000
109.076000 1717.900000
110.006000 15522.900000
110.034800 1417.700000
111.001200 3022.000000
111.013600 1419.200000
111.031700 2555.400000
112.009000 18939.400000
112.021600 117337.500000
112.039400 8348.000000
114.012000 1824.000000
114.037300 1464.300000
114.996200 2772.200000
117.011900 6843.500000
119.060500 10913.000000
121.039700 2178.300000
122.005900 21625.700000
123.013500 2836.100000
124.009100 8397.800000
124.021600 14061.300000
125.004300 433212.100000
126.012100 236242.100000
126.996100 6009.000000
127.020000 6138.500000
131.060500 1637.400000
132.055900 1378.400000
133.006600 2932.600000
134.047600 1747.900000
134.071200 2640.600000
136.021400 5601.400000
137.016900 7467.400000
138.012200 3113.400000
139.019800 100519.800000
139.032200 19143.300000
140.016500 12875.200000
141.048100 6396.700000
142.007100 114914.800000
142.973500 1525.700000
144.022600 13491.500000
144.055800 8320.300000
146.071400 2656.700000
148.009500 1658.100000
149.016800 8002.400000
150.012100 2283.400000
150.024900 1615.700000
151.032600 1892.200000
151.991300 1478.400000
152.015600 2518.300000
153.022900 23064.400000
154.007100 13034.700000
154.030700 2047.800000
156.055600 1820.000000
157.063500 3945.100000
161.016500 11095.900000
162.024600 7636.400000
163.032600 12413.500000
167.014800 1540.200000
167.027800 1765.500000
171.066400 3452.700000
173.082000 1750.400000
174.024700 7111.100000
175.032500 7403.000000
176.027900 11143.100000
178.043700 2907.900000
182.001900 29285.900000
182.025500 3260.300000
184.074300 2099.500000
188.028200 6589.200000
189.035200 3358.700000
190.019700 3233.600000
190.043400 6218.400000
191.027500 2986.500000
203.037800 1813.100000
204.988700 1532.100000
205.054400 2812.500000
215.038500 1754.400000
217.054200 2348.500000

