>compound EQ44264690
>parentmass 183.07809999999998
>ionization [M+H]+
>formula C6H15O4P
>rt 372.000000
>profile orbitrap
#smiles_iso CCOP(=O)(OCC)OCC
#smiles_can CCOP(=O)(OCC)OCC
#inchikey DQWPFSLDHJDLRL-UHFFFAOYSA-N
#pubchem_id 6535
#mb_accession EQ315401,EQ315402,EQ315403,EQ315404,EQ315405,EQ315406

>ms2peaks
80.973300 2769584.600000
81.981300 1545106.800000
98.984200 757188888.400000
116.994700 7248708.300000
127.015500 555501337.000000
145.026300 3117622.300000
155.046800 254071091.800000
183.078200 50205565.100000

>ms2peaks
64.978600 1154523.000000
80.973500 3269577.200000
81.981300 1256985.600000
98.984200 921032695.200000
116.994700 10497971.800000
127.015500 515802555.100000
145.026300 2976639.600000
155.046800 190639834.000000
183.078200 28769747.800000

>ms2peaks
80.973400 3679793.100000
98.984300 1395055330.900000
116.994700 13347896.100000
127.015500 148050355.800000
155.046900 16035428.900000

>ms2peaks
80.973500 3071606.300000
98.984300 1546514088.000000
116.994700 15248210.200000
127.015500 50591438.800000
155.046900 3109934.500000

>ms2peaks
62.963000 1796916.500000
80.973600 3560943.100000
98.984300 1579867227.200000
116.994800 16025066.600000
127.015600 5729486.000000

>ms2peaks
62.963100 2228297.700000
80.973600 5489394.100000
98.984300 1553693760.100000
116.994700 15052479.700000

