>compound EQ45158030
>parentmass 326.1784
>ionization [M+H]+
>formula C17H27NO3S
>rt 858.000000
>profile orbitrap
#smiles_iso CCC/C(=N\OCC)/C1=C(CC(CC1=O)C2CCCSC2)O
#smiles_can CCCC(=NOCC)C1=C(CC(CC1=O)C2CCCSC2)O
#inchikey GGWHBJGBERXSLL-NBVRZTHBSA-N
#pubchem_id 135438605
#mb_accession EQ304501,EQ304502,EQ304503,EQ304504,EQ304505,EQ304506

>ms2peaks
86.060000 683291.200000
87.026200 1128684.900000
101.041900 18867687.800000
110.059800 2764180.200000
112.075500 3288902.100000
113.041700 398281.800000
135.080500 457356.600000
138.054800 384834.300000
139.057400 1398330.600000
152.070500 606394.100000
154.086200 1150337.800000
155.052400 3073747.000000
162.090800 1340880.300000
163.075100 1686555.500000
178.086000 1693708.500000
180.101700 33590417.100000
181.109400 898382.500000
182.117500 2898507.700000
194.063000 626714.400000
195.083600 2286765.400000
206.099500 341056.300000
207.083900 640753.300000
220.078800 827520.800000
221.099300 371771.900000
224.110100 1027783.200000
234.131000 387414.000000
235.115300 1162679.800000
236.110300 2568039.600000
238.089500 8012874.600000
238.125900 3066144.700000
240.141500 371884.600000
248.164400 706101.200000
252.141500 7514311.000000
254.157000 793047.600000
262.126000 2292703.000000
263.110100 4609323.700000
265.125700 765645.100000
280.136500 281768292.000000
281.121700 1555277.700000
281.144100 9598222.100000
282.151900 35613088.500000
326.178200 333171092.400000

>ms2peaks
57.033500 451979.500000
58.065200 162632.000000
58.995000 1827080.100000
61.010600 176153.900000
67.054200 2144344.100000
68.049500 852584.600000
69.033400 290356.600000
69.069900 294611.800000
70.065000 489916.200000
72.080800 183151.100000
79.054200 1221779.500000
80.049600 222013.100000
81.069900 180936.300000
82.065000 870830.700000
84.044400 989880.000000
84.080700 2062980.700000
85.010600 226806.800000
86.060000 1651713.800000
86.096300 608190.400000
87.026200 11867918.800000
91.054200 626238.200000
93.069800 1750979.600000
94.064900 608530.500000
95.049100 1020131.800000
95.085400 253895.400000
96.080700 373639.400000
97.010500 665661.100000
99.026300 872342.400000
101.041900 65635185.300000
105.069700 391552.500000
106.065100 181025.300000
107.049100 1773822.300000
107.085400 1079358.400000
108.080700 1491845.600000
109.064600 904830.100000
109.100900 284733.600000
110.060000 25669201.300000
112.075600 14845824.200000
113.041800 6036415.000000
115.057600 345484.800000
117.069900 1234916.300000
119.085500 875328.600000
120.080700 1658071.100000
121.064700 1933517.800000
122.059900 222020.100000
122.096300 1223731.500000
123.043500 214275.500000
124.075600 4145334.600000
126.091300 2370890.200000
127.057500 7783791.300000
128.106900 1014097.100000
129.036800 177876.500000
129.069300 272156.900000
131.085500 654625.400000
132.044300 349143.900000
132.080800 233300.600000
133.064800 290737.500000
133.101300 250901.000000
134.096100 1102592.000000
135.080300 5133269.000000
136.075600 2673024.100000
137.041800 683476.200000
137.059800 654214.700000
137.096000 644967.500000
138.054900 3591506.300000
138.091400 2766100.500000
139.057600 4946318.800000
140.070400 316645.500000
141.073100 853565.300000
143.085400 210289.300000
144.080700 447497.000000
145.064900 761606.600000
145.101300 318963.600000
147.080200 881821.200000
148.112000 173930.400000
149.096100 380218.300000
150.091200 1240809.200000
151.057700 943844.700000
152.070600 6265242.200000
152.106800 2372321.400000
153.036800 1690444.200000
153.073100 1021877.900000
153.078600 260230.900000
154.086100 2582161.600000
155.052400 25933792.000000
156.065900 208910.200000
157.064600 218598.200000
157.101000 678827.900000
158.096800 194192.400000
159.080200 1504196.300000
159.116600 377773.100000
160.075500 999063.600000
161.059800 1204544.400000
161.083200 267883.100000
161.096000 175847.700000
162.091200 5991298.100000
163.057500 286434.700000
163.075200 5478360.800000
164.106900 303757.600000
165.073200 1074786.100000
166.086100 663699.900000
166.122400 219059.800000
169.068300 2447331.100000
171.047400 1146287.100000
172.112200 182590.100000
173.095700 453378.200000
173.132800 252525.700000
174.091500 302012.800000
175.057500 222533.300000
175.075100 356624.500000
175.111600 616246.700000
176.052500 314626.100000
176.106600 663142.700000
177.091100 846587.600000
178.086200 15910579.100000
180.101800 120483895.900000
181.068000 4481944.200000
181.109600 3674708.900000
182.117600 5881860.800000
185.096400 391730.200000
186.091300 1675696.100000
187.111700 825954.600000
189.073100 218610.400000
191.088600 255166.300000
192.084100 263829.100000
193.068200 670925.800000
194.063300 6300355.700000
195.083600 4096205.300000
197.062800 704915.500000
201.127500 847392.700000
202.122200 705767.700000
203.088700 612119.100000
204.138400 283443.100000
206.099900 817275.400000
206.117600 211429.400000
207.083600 1731533.200000
208.115400 288717.100000
210.094500 285315.200000
210.130800 648052.000000
213.094500 254690.800000
218.099700 269632.100000
219.083700 915789.900000
220.078900 2136614.000000
220.115500 1793300.900000
220.133100 755959.100000
221.099300 1948614.400000
224.110200 1546071.800000
228.138400 375558.500000
229.121800 684982.200000
234.130900 2473432.100000
234.149000 390399.900000
235.114800 3334198.200000
236.110300 11446798.700000
238.089600 5209381.200000
238.125900 16123871.600000
240.141300 1756318.000000
245.099300 1103118.800000
248.164500 2145675.200000
252.141500 27696447.000000
253.125300 1033171.800000
254.156800 1940445.200000
262.126000 5315533.100000
263.109800 4534118.500000
264.141000 638483.600000
265.125000 762911.500000
266.120800 304416.600000
278.120500 320417.700000
280.136500 140478771.500000
281.120400 732632.400000
281.144200 1211517.800000
282.152000 11669381.000000
326.178200 8831574.200000

>ms2peaks
53.038400 184067.100000
55.017900 203951.900000
57.033400 508048.300000
58.065100 392863.600000
58.995000 5772084.100000
61.010600 1732852.800000
65.038600 1033625.900000
67.054200 8378349.000000
68.049400 2161846.700000
69.033400 1217923.900000
69.069800 994988.600000
70.065000 2162649.200000
72.080600 353905.000000
73.010600 689647.800000
75.026300 242524.700000
79.054200 5042695.500000
80.049300 184406.300000
81.069800 1887443.300000
82.065000 5301438.600000
83.049100 686536.200000
84.044200 704196.500000
84.080700 2352615.100000
85.010600 1305350.800000
86.060000 1591573.200000
86.096300 326644.400000
87.026200 19842171.800000
91.054100 4206247.800000
92.049200 190950.000000
93.069800 9962979.400000
94.065100 1054359.300000
95.049000 5048694.200000
95.085400 631045.100000
96.044300 218133.100000
96.080700 1457620.400000
97.010600 855751.200000
97.028400 527570.400000
97.052300 219582.500000
97.064700 351242.100000
98.060000 377355.900000
99.026200 1711629.200000
101.041900 60695753.800000
103.054200 708627.600000
105.069900 2927617.000000
106.065000 1029946.000000
107.049100 9696945.700000
107.085400 3493984.700000
108.080700 2552852.200000
109.064700 2365976.100000
109.101100 361480.200000
110.060000 40101893.700000
111.026200 723283.700000
111.043900 1166384.400000
111.080200 164511.600000
112.075600 18706405.000000
113.041800 12472840.300000
115.054000 1008917.800000
115.057600 319290.800000
117.069700 3025118.700000
119.085400 1847832.300000
120.080600 4241252.700000
121.064700 4275584.600000
122.060000 632243.400000
122.096200 3147751.400000
123.026300 231047.100000
123.043800 177919.500000
123.067600 174945.500000
123.080400 271147.600000
124.075600 7386305.400000
125.041900 635165.300000
125.083200 655603.400000
126.049500 224155.900000
126.091200 1789851.700000
127.057500 16819959.600000
128.070500 346598.600000
128.106900 715248.100000
129.036800 382777.800000
129.069800 960409.600000
130.065100 215022.600000
131.085500 2193526.600000
132.044400 3768101.500000
132.080900 670069.900000
133.064800 2087424.100000
133.101300 872196.900000
134.059900 630488.100000
134.096400 2622555.300000
135.080300 7927128.900000
136.039200 796626.300000
136.075600 3732057.200000
136.111900 288149.100000
137.042000 1936909.400000
137.059800 1345191.200000
137.083500 364864.300000
137.096000 327361.800000
138.054900 3691609.100000
138.091200 5292282.900000
139.057500 4267460.600000
140.070500 318955.800000
141.073300 1303925.300000
142.077900 195888.000000
143.085400 812543.300000
144.080600 680377.600000
145.064700 2101634.800000
145.088900 189211.000000
145.100900 1244170.400000
146.060000 158767.300000
146.096100 192601.300000
147.080200 1796013.200000
148.075300 261112.400000
148.111600 187864.800000
149.041800 340383.900000
149.047500 170172.000000
149.059500 237392.100000
149.096300 326533.100000
150.054700 628256.000000
150.091300 6558849.100000
151.057500 1906264.300000
151.099300 322033.600000
152.070500 5131899.200000
152.106900 2953991.800000
153.036700 2117518.500000
153.072900 718224.500000
153.078500 371752.200000
154.044800 173777.500000
154.086100 1476722.500000
155.052400 31534565.500000
156.065400 1054562.200000
156.081100 196180.400000
157.064800 1017820.200000
157.101200 981210.900000
158.096300 374083.300000
159.080400 3561625.800000
159.116800 722566.200000
160.075700 2801718.600000
160.112200 201068.800000
161.059600 3605221.700000
161.083500 689760.900000
161.096100 987037.600000
162.091300 6080013.700000
163.057400 1001020.800000
163.075300 14210035.200000
164.070400 324515.600000
164.083000 298831.700000
164.106700 661973.500000
165.073200 1004794.200000
166.086200 2523411.800000
166.122400 309453.000000
167.052200 277549.800000
169.068100 1567614.800000
171.047400 375088.700000
173.059600 187150.900000
173.096100 904361.600000
173.132500 323680.000000
174.091200 1357865.100000
174.127400 195874.100000
175.075200 792991.100000
175.099000 317948.900000
175.111900 651439.800000
176.052500 209968.100000
176.106900 1054828.600000
177.091000 184293.800000
178.086100 22295700.700000
179.094600 347644.300000
180.101700 114858145.200000
181.068000 2633719.900000
181.109600 4128031.500000
182.117400 1177980.600000
185.096400 213986.800000
186.091300 2094173.000000
186.128200 241303.600000
187.111700 721447.200000
189.073400 169691.500000
190.122800 247004.900000
191.088800 320813.700000
192.084100 202142.600000
193.068000 300637.400000
194.063300 4896856.900000
195.083700 969759.100000
197.063100 244675.400000
201.126600 631155.200000
202.122200 457467.800000
203.088300 675483.200000
204.138500 181509.300000
206.117900 320486.200000
207.084300 641531.700000
208.114900 298370.800000
210.094300 287311.600000
210.130900 286121.700000
219.083900 675820.500000
220.078700 450877.900000
220.115600 1104321.700000
220.133000 336192.100000
221.099300 718009.200000
224.110800 273109.600000
228.139100 176553.200000
229.121800 216296.000000
234.131400 1658187.800000
234.148400 283632.900000
235.114900 1287472.900000
236.110400 4530757.800000
238.089500 683482.000000
238.125900 6076463.900000
240.141000 271294.900000
245.099700 224759.600000
248.164400 1742690.300000
252.141400 6874708.400000
253.126100 298703.400000
262.125700 1605218.400000
263.110000 650201.500000
264.141000 1618855.200000
266.120500 2311163.600000
278.119600 172308.700000
280.136400 9563755.100000
282.151900 323013.300000

>ms2peaks
55.017900 368044.700000
56.049600 234751.900000
57.033600 660685.700000
58.065200 245363.700000
58.995000 7909145.200000
61.010600 1795865.600000
65.038500 2415309.300000
67.041600 637966.800000
67.054200 12143307.100000
68.013100 217523.200000
68.049400 2907120.700000
69.033400 2085230.600000
69.069800 842188.600000
70.065000 2258707.800000
72.080700 194613.800000
73.010700 997969.100000
75.026400 181693.000000
77.038400 209753.600000
79.054200 6357925.500000
80.049500 988015.500000
81.033300 234404.800000
81.057200 219344.600000
81.069900 2357808.000000
82.065000 8537888.200000
83.049100 1276974.500000
84.044300 875048.500000
84.080700 2421064.000000
85.010600 2090875.300000
85.028300 161335.900000
86.060000 699125.900000
86.096500 273985.000000
87.026200 17451875.100000
91.054100 7710507.900000
92.049400 274971.700000
93.033400 1155927.400000
93.057200 681364.600000
93.069800 13459899.500000
94.065100 1206368.300000
95.049100 7253669.700000
95.085500 1114431.800000
96.044300 1566849.800000
96.080600 1645574.800000
97.010700 860200.000000
97.028300 330560.500000
97.052400 471952.900000
97.064700 202717.700000
98.059900 335065.300000
99.026200 2202731.500000
101.041900 44476743.600000
103.054100 1146792.100000
105.069900 4638001.300000
106.065100 716686.800000
107.049100 21053214.800000
107.085500 4085014.900000
108.044300 173294.700000
108.080700 2810050.200000
109.064800 1783029.800000
109.101100 382067.600000
110.060000 33760815.800000
111.026300 829228.000000
111.044000 2279701.400000
111.080200 247435.600000
112.075600 16206151.200000
113.041800 10579929.400000
115.054200 1785522.200000
115.057600 292130.200000
116.049400 307147.900000
117.069700 4266274.700000
118.065000 293888.500000
119.049000 336458.800000
119.085300 2022441.600000
120.044200 358755.800000
120.080700 3486030.000000
121.064600 5511435.300000
122.059800 1175607.700000
122.096300 3620362.400000
123.044000 911720.700000
123.067600 160486.700000
123.080300 260998.100000
124.075600 6571087.600000
125.041800 991810.700000
125.083400 220996.400000
126.049800 830911.300000
126.091400 859358.100000
127.021200 986392.400000
127.057500 16047651.500000
128.062000 209577.300000
128.070700 315321.300000
128.106800 315122.800000
129.036900 728085.200000
129.069700 1404724.800000
130.065000 315292.600000
131.049100 302720.400000
131.085500 2611692.300000
132.044400 5637017.200000
132.080800 1308854.100000
133.064600 3428481.100000
133.101200 375191.800000
134.060000 296349.300000
134.096400 2434985.700000
135.080300 7792222.600000
136.039200 1391900.800000
136.075700 3899698.800000
136.112100 250390.400000
137.041900 1840113.300000
137.059600 926203.300000
137.083500 794641.800000
138.054800 2884150.500000
138.091300 5438146.500000
139.057500 2252241.400000
140.071000 239583.200000
141.073300 978288.500000
142.077800 621467.800000
143.073200 200878.300000
143.085500 617354.500000
144.057000 210553.700000
144.080900 959906.900000
145.064700 1673357.200000
145.101100 752477.600000
146.060100 339132.600000
146.096300 620966.500000
147.044100 211371.800000
147.080300 1627643.700000
148.075300 222462.700000
148.111800 178721.000000
149.042000 186762.500000
149.047200 236063.200000
149.095900 175737.400000
150.091300 6207394.300000
151.057800 1165602.600000
151.099200 675084.100000
152.070500 2839331.100000
152.106900 2633222.500000
153.036700 1592993.700000
153.073300 255272.200000
153.078400 405741.400000
154.044600 203032.100000
154.086100 370502.000000
155.052400 17932865.500000
156.065500 1287775.600000
157.064800 1843601.400000
157.101300 771315.900000
158.060200 340263.900000
158.072900 167523.400000
158.096300 375073.400000
159.080300 3057606.500000
159.116600 281144.200000
160.075400 2620074.300000
160.112000 373218.800000
161.059600 4902337.700000
161.083300 321702.700000
161.096000 708861.200000
162.091300 5194467.500000
163.075200 21662399.500000
164.071000 237228.300000
164.083200 330188.000000
164.107000 668330.100000
165.073200 613120.400000
166.086000 2863972.900000
167.052200 165465.000000
172.112300 310570.400000
173.095900 882655.700000
174.091300 1005864.900000
174.127600 259525.100000
175.057900 178615.700000
175.075400 902068.700000
175.111600 807835.200000
176.106800 368403.800000
178.086100 14823880.800000
179.094200 179522.700000
180.101800 68529844.800000
181.068200 934958.100000
181.109600 1993559.800000
182.117500 323273.200000
185.096400 140274.900000
186.091000 1131685.100000
187.111300 203951.700000
189.090900 246741.600000
190.122700 210919.400000
193.068400 303308.300000
194.063400 2864510.500000
195.083400 276732.700000
202.122900 663646.100000
206.117600 821284.600000
208.115600 209386.300000
219.084100 193212.600000
220.115300 633830.300000
220.133200 333658.300000
221.099400 224458.800000
224.110400 238621.900000
234.131400 796213.000000
235.114600 186681.900000
236.110200 1220144.600000
238.125900 1792247.400000
248.164900 774893.700000
252.141000 1479192.500000
262.125900 197696.500000
263.110600 164092.100000
264.141800 861553.300000
266.120600 1805900.500000
280.136500 1201713.500000

>ms2peaks
55.017900 820281.200000
56.049600 170238.100000
57.033500 268365.100000
58.065100 150992.200000
58.995000 11980017.000000
61.010600 3193419.100000
65.038500 5073660.300000
67.041600 1116922.500000
67.054200 19013981.100000
68.013100 1227434.700000
68.049400 4614989.100000
68.997100 262386.100000
69.033400 3230941.800000
69.069800 1115796.600000
70.065000 3230557.000000
72.080700 264307.900000
73.010500 1947076.700000
75.026200 200962.400000
77.038400 985071.300000
79.054200 12195798.300000
80.049400 1617026.400000
80.062100 175467.100000
81.033500 345206.100000
81.057300 831351.000000
81.069800 5119059.500000
82.065000 12152156.500000
83.036700 283918.300000
83.049000 1144207.400000
84.044300 860149.300000
84.080700 1792974.300000
85.010600 3673123.700000
85.028400 326464.000000
86.060000 940707.000000
86.096400 383424.700000
87.026200 15134751.800000
91.054100 15551781.900000
92.049400 692615.700000
93.033400 2541828.400000
93.057100 1208535.700000
93.069800 17192092.100000
94.065000 2615568.400000
95.049100 12754812.000000
95.085400 1259344.600000
96.044400 3368705.100000
96.080700 1697899.500000
97.010600 1493277.400000
97.052200 752079.800000
97.064800 277819.700000
99.026200 3214053.200000
101.041900 31278255.000000
103.054300 2045709.800000
104.049400 678005.200000
105.044700 1191345.300000
105.069800 9679445.600000
106.065100 1606705.000000
107.049100 60927963.700000
107.085500 3098937.600000
108.044300 614536.200000
108.080700 2474978.400000
109.028300 259241.400000
109.052300 363287.600000
109.064700 3147620.800000
109.101300 184950.900000
110.060000 27092769.200000
111.026200 1018777.300000
111.044000 3633425.000000
111.067800 633390.920500
111.080400 216920.500000
112.075600 16079064.700000
113.041800 8627673.700000
115.054100 5119307.000000
116.049500 154103.000000
116.062000 698121.800000
117.057300 688884.500000
117.069700 4917226.500000
118.065000 841022.300000
119.049200 995171.200000
119.072800 217088.500000
119.085500 1955036.700000
120.044200 365811.500000
120.080700 3492463.000000
121.064600 5651118.600000
122.060000 1835512.700000
122.096300 3963371.800000
123.026200 231072.300000
123.043900 1804900.200000
123.067600 277623.200000
123.080200 262866.800000
124.075600 5550453.200000
124.111900 711502.800000
125.041900 327052.700000
125.083400 806911.600000
126.049700 1394854.800000
127.021200 889419.900000
127.057500 10326725.800000
128.061900 705971.800000
128.070600 228019.500000
129.036900 356611.700000
129.069700 1983629.900000
130.065100 611300.500000
131.049100 882726.100000
131.085400 2569303.800000
132.044300 5816266.000000
132.080800 1077073.300000
133.064700 4413720.000000
133.101200 275735.900000
134.059800 864878.900000
134.096400 1341251.400000
135.044100 732571.600000
135.080300 7054764.100000
136.039200 1592862.700000
136.075600 2926696.500000
137.041600 1552037.900000
137.059800 864977.300000
137.083400 738525.700000
138.055000 2396397.700000
138.091300 2837801.000000
139.057500 319302.700000
140.070400 216018.300000
141.069800 813088.000000
142.077700 1026058.800000
143.072900 385076.600000
143.085400 377317.800000
144.056900 702032.100000
144.080700 1048464.400000
145.064700 3437768.100000
145.088600 290794.200000
145.101000 364398.100000
146.060200 1262737.100000
146.096200 840262.600000
147.044000 727279.700000
147.080500 1311357.200000
148.075800 776095.700000
148.112000 241335.800000
149.041800 274050.900000
149.047300 1050120.100000
149.059700 805156.000000
150.055400 272747.200000
150.091300 5328019.000000
151.057600 772717.200000
151.099500 224969.600000
152.070500 1730012.100000
152.106900 2111804.500000
153.036700 958795.800000
153.069900 149329.500000
153.078500 211313.000000
154.044500 580373.800000
155.052400 6500791.800000
156.065300 2018366.200000
156.081000 196198.200000
157.064600 1631632.200000
158.060100 312282.200000
158.072400 216491.700000
158.096600 788164.000000
159.068100 253929.500000
159.080400 1965607.700000
160.075500 1975895.400000
160.111900 214102.900000
161.059600 5658942.800000
161.095700 351318.900000
162.055200 191484.300000
162.091200 3220628.600000
163.075200 21633265.200000
164.070500 659984.900000
164.107200 339302.400000
165.072600 242013.500000
166.086100 2720865.500000
172.112200 282451.900000
173.059500 193255.200000
173.096200 241559.600000
174.091600 318887.100000
174.127700 283692.000000
175.075300 948123.500000
175.099100 232621.400000
176.052000 154862.200000
176.071300 189510.300000
176.107100 217644.400000
178.086100 6467738.000000
180.101700 24943448.100000
181.109500 271334.500000
186.091400 332108.700000
186.128100 185376.000000
189.091200 330097.400000
194.063300 619898.400000
206.116700 206096.500000
238.125700 348767.600000
264.141900 757084.500000
266.121400 977202.100000

>ms2peaks
53.038600 201600.800000
55.017900 1157166.900000
56.049500 378583.000000
57.033500 294714.100000
58.065100 271548.000000
58.995000 13876658.800000
61.010600 3913402.100000
65.038500 9581277.200000
67.041600 2432790.800000
67.054200 21319637.200000
68.013000 1680913.300000
68.049400 4574846.400000
68.997100 326284.600000
69.033400 4089505.700000
69.069800 1464492.200000
70.065000 3161734.500000
73.010600 2102193.200000
75.026200 160698.800000
77.038400 1613433.700000
79.054200 19837705.200000
80.049400 3054063.900000
80.062000 226796.100000
81.033400 1171156.400000
81.057200 1323622.300000
81.069800 5022328.300000
82.065000 11854873.900000
83.036500 689543.300000
83.049000 1318665.700000
84.044300 1023680.300000
84.080600 1048736.800000
85.010600 4627387.700000
86.060000 318733.300000
87.026200 11680523.800000
91.054100 23586512.300000
92.049500 1212948.700000
93.033400 2666461.400000
93.057200 2331711.900000
93.069800 14554653.200000
94.065000 3516687.200000
95.049000 17435602.700000
95.085400 1472761.600000
96.044300 5289960.000000
96.080600 1922768.800000
97.010600 1529481.000000
97.052200 591821.300000
98.060100 196774.200000
99.026200 3353032.100000
101.041800 18836786.200000
103.054100 3633856.300000
104.049400 754659.900000
105.044700 2642812.300000
105.069800 11413205.200000
106.065000 2294367.300000
107.049000 74711086.800000
108.044300 1106744.400000
108.080700 2623816.500000
109.028300 224291.200000
109.052100 929450.900000
109.064700 2398533.200000
109.101000 219146.100000
110.060000 16995260.300000
111.026200 1072795.700000
111.043900 3341811.800000
112.075600 12162086.900000
113.041800 5809462.300000
115.054100 7462018.000000
116.049200 220030.800000
116.061800 1149044.200000
117.057200 749814.600000
117.069700 5489314.600000
118.065000 706119.700000
119.049100 656118.000000
119.072900 570744.600000
119.085200 1344399.200000
120.044300 727720.400000
120.080700 2426603.000000
121.064700 4054874.500000
122.059900 1823409.100000
122.096300 3364240.300000
123.026000 301005.800000
123.043900 2372929.900000
123.067800 248964.100000
124.075600 4268050.100000
124.111900 673853.100000
125.041800 330025.000000
125.083500 211771.700000
126.049800 1923145.700000
127.057500 5344309.400000
128.061900 1881806.000000
129.069700 2041883.700000
130.064800 1201203.600000
131.049100 1271214.900000
131.085500 1808060.400000
132.044300 4826507.600000
132.080800 1052071.800000
133.064700 3491664.400000
133.100700 189555.200000
134.059900 666130.700000
134.096200 1066675.300000
135.043900 1050663.900000
135.080300 5358488.300000
136.039100 1244329.900000
136.075700 2063368.900000
137.041900 776097.100000
137.059400 1051447.300000
138.054900 1510159.800000
138.091200 1680902.800000
140.070500 220806.700000
141.069500 1061966.300000
142.077600 817483.300000
143.073000 315138.700000
143.085400 705632.600000
144.056900 801019.400000
144.080700 941176.700000
145.064700 3040201.700000
145.101000 192428.200000
146.060000 1523335.100000
146.096500 686160.600000
147.043800 1295666.400000
147.080400 937476.400000
148.075800 660175.100000
149.041800 249074.300000
149.047300 853109.100000
149.059600 438807.200000
150.054800 305557.700000
150.091300 2251118.600000
151.057400 205133.900000
152.070600 659204.800000
152.106900 1067725.400000
153.036600 241224.700000
153.069600 365307.300000
155.052500 3224781.000000
156.065400 1440341.300000
157.064600 1251345.000000
158.096600 287556.800000
159.067300 238050.600000
159.080500 1008843.900000
160.075600 1353738.500000
161.059500 3730960.100000
162.055100 285688.000000
162.091100 2460971.400000
163.075200 7826593.200000
164.070500 276193.000000
164.106800 165949.800000
166.086200 1614903.100000
172.111900 176243.800000
174.091000 224967.600000
175.075100 268040.400000
176.070300 151962.600000
176.107100 149990.700000
178.086200 2329462.300000
180.101800 5404381.900000

