>compound EQ45072404
>parentmass 237.0982
>ionization [M+H]+
>formula C10H12N4O3
>rt 138.000000
>profile orbitrap
#smiles_iso C1C[C@@H](O[C@@H]1CO)N2C=NC3=C2N=CNC3=O
#smiles_can C1CC(OC1CO)N2C=NC3=C2N=CNC3=O
#inchikey BXZVVICBKDXVGW-NKWVEPMBSA-N
#pubchem_id 135398739
#mb_accession EQ313501,EQ313502,EQ313503,EQ313504,EQ313505,EQ313506

>ms2
59.049200 29160.900000
83.049200 17487.700000
101.059800 165747.000000
103.075500 19056.400000
137.045900 5756533.400000

>ms2
55.054300 8256.200000
57.033600 13429.600000
59.049200 40576.900000
73.064800 18391.200000
83.049200 32829.800000
83.085600 7340.900000
94.040000 9232.000000
95.085600 9072.700000
101.059800 180522.500000
103.075500 8156.500000
109.101300 8813.300000
110.034900 16687.900000
119.035400 10969.600000
137.046000 5853369.700000

>ms2
55.054300 20941.200000
57.033600 51780.900000
57.070000 7284.700000
59.049200 46803.900000
73.064800 42665.500000
82.040000 9871.000000
83.049200 28813.100000
94.040000 25193.900000
95.085600 7385.400000
101.059800 95099.300000
109.101200 9436.800000
110.034900 67715.700000
119.035300 47360.900000
121.101200 8302.800000
137.046000 5259516.500000

>ms2
55.029200 9363.700000
55.054300 27079.000000
57.033600 73655.100000
57.069900 7456.500000
59.049200 44737.300000
73.064800 41729.200000
81.069900 9477.800000
82.040000 19757.600000
83.049200 25910.100000
94.040000 68598.800000
95.085500 7673.400000
101.059800 49633.700000
107.085700 8052.200000
110.034900 116595.200000
112.050600 12438.600000
119.035200 85627.200000
128.045500 12749.400000
137.045900 5027445.300000
138.029700 7503.800000

>ms2
55.029200 22912.700000
55.054300 31723.800000
57.033600 135208.100000
57.069900 8338.200000
59.049200 35412.200000
67.029000 14153.100000
67.054300 9861.900000
73.064800 30709.000000
79.054300 7049.900000
81.069900 12641.300000
82.040000 47266.300000
83.024100 3982.200000
83.049200 21561.400000
91.054200 9878.900000
92.024300 9251.500000
93.069800 7864.700000
94.040000 157130.000000
95.085500 8351.700000
101.059800 16591.800000
105.069800 4086.700000
110.034900 346835.000000
112.050600 26101.900000
119.035300 237886.900000
128.045400 20753.400000
137.045900 3972007.100000
138.029900 15639.400000

>ms2
53.038800 3548.600000
55.029200 52872.900000
55.054300 36796.500000
57.033600 152657.600000
59.049200 31087.300000
65.013500 2719.600000
67.029100 31825.800000
67.054300 9262.300000
69.069900 3357.800000
73.064800 16775.000000
79.054300 4220.200000
81.070000 7835.200000
82.040000 98171.800000
83.024100 9426.200000
83.049200 11501.300000
91.054200 10416.100000
92.024300 32953.100000
93.069900 4293.000000
94.040000 261453.600000
95.085600 6780.600000
105.069800 3858.500000
110.034900 618091.100000
112.050600 40380.200000
119.035300 433688.100000
120.018900 3167.400000
128.045500 32498.300000
137.045900 2588060.200000
138.029800 28620.200000

