>compound EQ45380682
>parentmass 218.01340000000002
>ionization [M+H]+
>formula C9H9Cl2NO
>rt 618.000000
>profile orbitrap
#smiles_iso CCC(=O)NC1=CC(=C(C=C1)Cl)Cl
#smiles_can CCC(=O)NC1=CC(=C(C=C1)Cl)Cl
#inchikey LFULEKSKNZEWOE-UHFFFAOYSA-N
#pubchem_id 4933
#mb_accession EQ305101,EQ305102,EQ305103,EQ305104,EQ305105,EQ305106

>ms2peaks
57.031900 372102.500000
57.033600 1961309.900000
127.018200 4774151.500000
161.987200 97584163.500000
218.013500 262552556.300000

>ms2peaks
57.032000 219648.600000
57.033400 3252628.900000
127.018300 12043058.300000
161.987200 167879724.700000
200.002800 264157.800000
218.013500 145878919.800000

>ms2peaks
57.033500 7171044.800000
126.010500 442507.400000
127.018400 83346861.500000
161.987300 189367077.500000
200.003000 346985.800000
218.013500 20458260.100000

>ms2peaks
57.033600 7138070.400000
126.010600 353747.200000
127.018400 121494304.000000
161.987200 100970234.600000
200.002600 325415.000000
218.013500 2767532.500000

>ms2peaks
57.033600 5458723.200000
65.038600 282851.100000
92.049400 278780.300000
98.999800 288086.500000
100.007500 313108.300000
126.010900 488870.100000
127.018400 160644856.100000
161.987300 29601321.200000

>ms2peaks
57.033600 3892955.700000
65.038600 320020.100000
92.049500 1041181.800000
98.999700 368584.600000
100.007500 1037640.400000
126.010600 553418.200000
127.018400 176103437.700000
161.987200 7007421.000000

