>compound EQ46848330
>parentmass 180.1019
>ionization [M+H]+
>formula C10H13NO2
>rt 336.000000
>profile orbitrap
#smiles_iso CCNC(=O)C1=CC=C(C=C1)OC
#smiles_can CCNC(=O)C1=CC=C(C=C1)OC
#inchikey KIOWCVBPJXEJLN-UHFFFAOYSA-N
#pubchem_id 81897
#mb_accession EQ333701,EQ333702,EQ333703,EQ333704,EQ333705,EQ333706

>ms2
72.044300 23102422.000000
77.038300 1673403.900000
92.025400 1812023.800000
94.041200 5103774.000000
95.049200 1444235.100000
109.064700 88747656.000000
135.043900 541003328.000000
180.101800 698770816.000000

>ms2
72.044300 28643392.000000
77.038400 2389441.500000
92.025300 3049335.500000
94.041200 6162155.000000
95.048900 1580131.200000
109.064700 107431960.000000
125.059600 1661286.400000
135.043900 652890624.000000
180.101700 616852032.000000

>ms2
72.044300 53772696.000000
77.038300 4067458.800000
79.054100 1703126.900000
81.069800 2328601.500000
92.025300 4923758.500000
94.041200 28523704.000000
95.049000 6561901.500000
105.044600 3151376.800000
107.049100 2825009.000000
109.064700 122634824.000000
125.059600 11571072.000000
134.060100 4132039.000000
135.044000 963251648.000000
180.101700 118621672.000000

>ms2
53.038600 1317758.000000
72.044300 31825724.000000
77.038500 14295538.000000
79.054100 8314804.000000
81.033400 805907.800000
81.069800 2587667.500000
91.054200 2078528.800000
92.025500 14196257.000000
94.041200 46821424.000000
95.049000 28742004.000000
105.044700 14637815.000000
107.049000 8934435.000000
109.064700 55912512.000000
125.059600 43014636.000000
134.060000 6256165.500000
135.044000 691899328.000000
180.101800 10049642.000000

>ms2
53.038600 4874527.000000
63.022800 823815.800000
65.038500 1436992.400000
66.046400 679289.600000
68.025600 798526.900000
68.997000 473893.800000
72.044300 16932024.000000
77.038500 35706076.000000
79.054200 25987532.000000
81.033400 3183389.200000
81.069800 2232794.000000
91.054000 1618906.600000
92.025500 51256928.000000
94.041200 57992464.000000
95.049000 103254520.000000
105.044600 47825832.000000
107.049000 15404460.000000
109.064700 25089862.000000
111.044000 562929.100000
119.036400 1531657.000000
125.059600 77824592.000000
134.060000 10178447.000000
135.044000 427167008.000000
135.054700 74198416.000000

>ms2
50.015200 1928795.000000
51.023000 1945273.800000
53.038600 8466768.000000
55.017900 368098.800000
63.022900 2610893.000000
64.030600 3031199.800000
65.038600 1893356.200000
66.046400 2093839.900000
68.025600 1262768.900000
68.997000 425569.000000
72.044300 6117372.500000
77.038500 59899820.000000
79.054200 24057718.000000
81.033400 4921373.000000
81.069800 1197131.500000
91.041600 2088674.400000
91.054200 773877.500000
92.025600 100961344.000000
94.041200 54366484.000000
95.049100 153389168.000000
105.044700 68428104.000000
107.049000 12597120.000000
109.064700 9852869.000000
119.036600 2359630.000000
125.059600 59265280.000000
134.059900 6836694.500000
135.044000 170662448.000000
135.054900 42692076.000000

