>compound EQ46898462
>parentmass 260.1644999999999
>ionization [M+H]+
>formula C16H21NO2
>rt 396.000000
>profile orbitrap
#smiles_iso CC(C)NCC(COC1=CC=CC2=CC=CC=C21)O
#smiles_can CC(C)NCC(COC1=CC=CC2=CC=CC=C21)O
#inchikey AQHHHDLHHXJYJD-UHFFFAOYSA-N
#pubchem_id 4946
#mb_accession EQ017101,EQ017102,EQ017103,EQ017104,EQ017105,EQ017106

>ms2peaks
56.049400 2026524.700000
58.065100 4131719.700000
72.080600 7735727.200000
74.060000 6476922.500000
86.096400 6603662.000000
98.096400 12320475.200000
116.106900 37403703.100000
132.101800 2889124.400000
141.069700 1392971.400000
155.085200 1165156.600000
157.064700 9211167.500000
183.080400 23748415.200000
218.117500 8888104.400000
242.153100 2823688.400000
260.164200 1128576145.800000

>ms2peaks
56.049600 7100179.400000
58.065200 31902345.100000
60.080800 3244316.100000
72.080700 54056759.400000
74.060000 52056663.100000
86.096400 23363340.400000
90.054900 1850575.100000
98.096400 63630209.900000
100.112000 2574034.500000
116.106900 160727959.800000
129.069800 4465006.100000
132.101800 4914726.500000
141.069700 5768458.300000
143.049100 2212480.700000
145.064700 3470823.400000
153.069700 1032761.000000
155.085500 13590905.700000
157.064700 47907618.600000
165.069800 4280975.100000
171.080400 1427447.600000
183.080400 116236432.500000
200.106300 600542.400000
218.117500 28541376.100000
242.153300 3230899.600000
260.164300 553136596.900000

>ms2peaks
56.049600 25938544.800000
58.065200 54392828.300000
60.080800 3271346.800000
72.080800 82851821.600000
74.060000 99484422.500000
84.080700 3581478.800000
86.096500 9463196.700000
90.055000 583829.500000
91.054200 307074.700000
98.096400 60144272.600000
100.112000 11275187.700000
102.091300 435623.400000
115.054100 2185732.700000
116.106900 126819068.500000
128.062000 1007890.300000
129.069900 9704410.600000
132.102100 727195.500000
141.069700 10315724.500000
143.049300 2996437.800000
145.064800 9855167.700000
153.069900 5895560.200000
154.077600 416551.300000
155.085500 53023251.800000
157.064800 60026718.300000
165.069900 15301901.100000
168.056800 3703999.800000
171.079900 2725436.500000
181.064500 631035.900000
182.072600 358488.600000
183.080500 95610457.500000
185.096600 312333.500000
218.117500 6659332.100000
242.153900 316102.100000
260.164400 33272245.100000

>ms2peaks
56.049600 35595282.900000
58.065200 60056568.400000
60.080800 2020295.500000
70.065100 414703.500000
72.080800 76645028.000000
74.060000 99594197.800000
84.080800 6097082.300000
86.096500 3263766.100000
90.054900 417352.300000
91.054300 339851.400000
98.096400 39014122.300000
100.112100 16447271.400000
102.091200 1011584.400000
115.054200 4237747.100000
116.107000 79959325.100000
117.069900 1197752.500000
128.061900 2564216.800000
129.069900 25749664.900000
141.069800 11163201.500000
143.049200 3536923.900000
144.056800 485923.000000
145.064800 13568250.000000
153.069900 15017230.400000
154.077500 3039382.400000
155.085500 77511939.300000
157.064800 51698069.600000
165.069900 23155542.600000
167.085400 266674.200000
168.056900 4769986.500000
171.080400 2433313.100000
181.064600 504809.300000
182.072400 1290830.500000
183.080500 50330175.000000
218.117200 1824048.300000
260.164600 4481905.100000

>ms2peaks
53.002300 513459.000000
56.049600 44967599.500000
58.065200 50589023.500000
60.080800 474399.700000
71.072900 359194.700000
72.080800 45684396.100000
74.060000 62225928.000000
84.080800 5545790.600000
86.096400 602840.800000
91.054200 578254.500000
95.049100 761346.300000
98.096400 12833850.800000
100.112100 16568105.200000
103.054300 598323.300000
115.054200 11379359.500000
116.107000 22021403.000000
117.069900 2654499.300000
127.054100 1187914.300000
128.062000 8754255.800000
129.069900 40453804.400000
141.069800 8423656.800000
143.049300 1926819.200000
144.057000 1175462.200000
145.064800 17455733.900000
152.062000 598175.900000
153.069900 20374451.300000
154.077700 6837259.400000
155.060400 8122907.800000
155.085500 61376566.400000
157.064800 24327020.600000
165.069900 21562453.600000
168.056900 7761824.500000
171.080400 1405071.200000
181.064600 544448.400000
182.072700 1141844.500000
183.080500 9482601.600000

>ms2peaks
53.002400 441968.800000
56.049600 43579231.400000
58.065200 41186308.900000
60.080800 338659.400000
70.065100 283149.800000
71.073000 258727.900000
72.080800 22772673.300000
74.060000 34570360.700000
77.038500 564913.601800
84.080800 4734976.600000
91.054200 1688264.000000
95.049100 2520888.800000
98.096400 4031182.900000
100.112100 11167929.300000
103.054000 2172063.200000
115.054200 19836805.700000
116.106900 5255708.200000
117.069800 5038250.500000
127.054100 2882360.800000
128.062000 23657757.600000
129.069800 42280876.900000
141.069800 6540010.300000
143.049200 381409.300000
144.056900 1694689.100000
145.064800 26443127.700000
152.061600 2335372.800000
153.069900 23871710.100000
154.077600 8912487.100000
155.060300 17828465.000000
155.085500 28299657.900000
157.064800 9824174.000000
165.069800 18880855.200000
168.056900 7075451.900000
171.080700 349966.500000
181.064700 461142.000000
182.072700 608555.400000
183.080300 1802046.100000

