>compound EQ46705848
>parentmass 374.1135
>ionization [M+H]+
>formula C21H15N3O4
>rt 786.000000
>profile orbitrap
#smiles_iso C1=CC=C(C(=C1)C2=NN(C(=N2)C3=CC=CC=C3O)C4=CC=C(C=C4)C(=O)O)O
#smiles_can C1=CC=C(C(=C1)C2=NN(C(=N2)C3=CC=CC=C3O)C4=CC=C(C=C4)C(=O)O)O
#inchikey BOFQWVMAQOTZIW-UHFFFAOYSA-N
#pubchem_id 214348
#mb_accession EQ284201,EQ284202,EQ284203,EQ284205,EQ284206

>ms2peaks
374.113600 551114304.500000

>ms2peaks
136.039300 969073.500000
211.086600 613703.100000
255.076600 674606.100000
346.118700 773194.600000
373.104300 778869.900000
374.113600 559783373.400000

>ms2peaks
65.038600 1849315.300000
80.049500 4020980.300000
81.033600 554322.600000
90.033900 806690.400000
92.049500 3719247.100000
108.044400 13676677.600000
118.028700 3475003.000000
119.036600 1043368.700000
120.044400 8195481.600000
129.070000 793902.600000
136.039300 25942914.600000
137.047100 1400276.200000
153.070000 1082200.600000
154.049900 1405815.500000
155.085600 1010134.700000
156.080800 2425366.900000
165.069900 1561307.300000
166.065200 2394772.500000
167.073000 815355.100000
181.064800 3320933.400000
181.075700 901664.400000
182.060000 617590.900000
182.084000 2355939.300000
183.068300 745190.600000
183.079900 427386.000000
183.091700 4873689.500000
184.075800 6825473.500000
193.076000 703604.100000
194.060300 970063.500000
196.076100 885282.400000
207.068300 467125.800000
209.060200 487509.600000
209.070900 3225611.300000
210.055200 585414.100000
210.078900 1896793.200000
211.086600 10605945.100000
212.070400 1133030.000000
224.070400 473101.100000
225.078500 2736465.700000
227.081200 2243274.400000
228.065800 539064.200000
237.065900 7609616.000000
239.057700 3632277.200000
240.065400 10492440.300000
255.076500 9874527.200000
301.109600 846668.800000
328.108700 559193.800000
330.124300 2361739.900000
331.107900 4117075.000000
346.118700 19428127.000000
356.102800 1060347.000000
374.113600 418623276.100000

>ms2peaks
53.002400 93576.900000
53.038700 507289.900000
63.023000 1827897.200000
65.038600 20981841.200000
66.046600 146024.700000
68.013100 598705.600000
75.023000 211058.100000
77.038600 262811.300000
78.046400 5090167.200000
79.041800 197843.100000
80.049500 17021032.000000
81.033600 7735192.800000
90.033900 7311392.300000
91.041700 610088.800000
92.049500 13624583.300000
93.033500 1138746.800000
93.057300 774517.600000
94.028800 827117.500000
94.041200 139873.800000
94.065100 131996.800000
95.049200 2754070.300000
96.044400 491766.200000
102.034000 185756.000000
104.049500 691725.500000
105.033500 1241171.700000
105.044800 664248.200000
106.041400 757448.900000
107.049200 1022211.600000
107.060500 463579.800000
108.044400 46466929.100000
109.028400 244554.500000
109.052500 190515.800000
110.060100 267519.200000
111.044100 1696271.100000
115.054200 2498222.500000
116.049400 115422.000000
117.057400 445284.700000
118.028700 4465215.500000
118.052500 1297072.100000
119.036600 2385086.500000
119.060600 467598.900000
120.044400 27062845.800000
121.028400 1722090.900000
121.039600 728351.500000
124.052000 970453.300000
127.054000 158225.400000
128.062100 2577145.100000
129.069900 6688763.400000
130.040000 739962.600000
130.065300 273398.900000
131.060300 209537.700000
132.044500 220251.800000
134.047700 445114.800000
135.031400 188178.200000
135.055200 457194.300000
136.039400 12585615.700000
137.047200 2188643.600000
138.054900 192169.500000
139.038900 1105050.200000
139.054200 2349914.600000
140.049700 965413.700000
141.069900 589557.700000
142.065200 151730.900000
143.073100 528398.300000
145.039900 173866.500000
145.064800 1134088.700000
148.039400 1495725.400000
149.034600 1449455.600000
152.062100 2959442.300000
153.069900 6017717.900000
154.049900 1781728.400000
154.065100 4233374.600000
154.077700 2065959.700000
155.049500 177741.200000
155.060400 1274067.600000
155.072800 1128192.500000
155.085600 711641.200000
156.068000 725967.600000
156.080900 5203372.900000
163.050000 165475.500000
164.049400 437862.400000
165.069900 2484630.900000
166.065200 8973934.200000
167.073000 6057849.900000
168.057200 183303.000000
168.068200 2454359.900000
168.080600 1402098.900000
169.064700 779947.700000
169.075900 964650.300000
170.060000 497449.800000
171.080500 185978.800000
178.065000 647407.400000
179.060000 508452.000000
179.073300 570864.500000
180.057100 152448.600000
180.067900 422396.000000
180.080700 529201.800000
181.064800 7140183.900000
181.076000 7510045.400000
182.060300 2898242.700000
182.083900 13436897.500000
183.068000 3297393.300000
183.091800 8018599.800000
184.075700 7608030.400000
191.060400 542117.000000
192.068100 2833563.600000
193.052000 445264.200000
193.076200 965573.400000
194.060100 2433146.100000
194.083800 123647.800000
195.055400 264904.300000
195.068200 258052.500000
196.075600 5868235.200000
197.059900 199924.900000
197.083500 466569.200000
199.086300 178615.200000
200.070400 792022.500000
206.060100 210989.200000
207.068300 889336.600000
208.063200 1717414.700000
208.075700 456780.700000
209.071000 6952982.300000
210.055300 1245662.500000
210.078800 3697709.200000
211.062900 6366579.800000
211.086500 4209177.700000
212.070500 1502367.300000
213.065900 196301.600000
221.071400 171343.600000
222.055100 1337016.600000
224.070900 1388323.600000
225.054900 172699.800000
225.066900 214444.900000
225.078300 1886855.500000
225.089700 786767.500000
226.074000 1008018.500000
227.081600 2152889.500000
228.065600 454476.700000
237.065900 2500854.500000
238.073500 117026.300000
239.057700 3705687.500000
240.065600 18618899.000000
253.073200 168281.100000
253.084800 838072.200000
254.068300 227941.300000
254.093800 706043.700000
255.076700 3381434.200000
257.108000 175576.800000
272.106900 818296.000000
282.102800 173909.800000
283.110400 220080.600000
287.117900 205274.100000
299.107200 207669.300000
300.114000 1157945.200000
301.109700 200012.700000
302.128100 539752.700000
303.112600 908603.900000
310.097500 467684.200000
318.123600 735733.600000
327.100100 505132.800000
328.108700 1020740.700000
330.124200 234267.600000
331.108200 1867432.100000
332.103900 158081.800000
344.103200 551105.600000
346.118700 7773718.900000
374.113700 9710746.000000

>ms2peaks
53.002300 181225.700000
53.038700 754423.400000
55.018000 108020.800000
63.023000 3078743.400000
64.018200 228110.900000
65.038600 44446411.700000
66.046400 474191.100000
68.013100 1041643.900000
75.022900 1510973.600000
77.038600 966781.300000
78.033900 430497.200000
78.046400 7617961.200000
79.041700 580771.800000
79.054400 176419.100000
80.049500 17995106.100000
81.033500 13555905.600000
89.038600 267954.600000
90.033900 8321125.100000
91.041700 2259840.300000
91.054300 166098.100000
92.049500 14059481.800000
93.033600 1412958.300000
93.057300 1040785.600000
94.028700 475123.100000
94.041400 175785.900000
95.049200 4949409.400000
96.044300 633889.100000
102.033900 647347.800000
103.018000 453169.400000
103.054300 516973.100000
104.049500 838532.900000
105.033600 1635263.000000
105.044700 1500100.900000
106.041500 121820.500000
107.036500 239883.300000
107.049200 599275.100000
107.060500 201363.800000
108.044400 37230615.900000
109.028600 178383.500000
109.052300 214249.000000
110.060000 569696.200000
111.044100 2136246.400000
115.054200 3386860.500000
116.049600 210943.200000
117.057300 986885.300000
118.028800 1932096.300000
118.052500 1532233.500000
119.012900 182728.000000
119.036500 1318051.300000
119.060400 554128.700000
120.044400 25219863.500000
121.028400 2434830.500000
121.039800 1003012.900000
124.052000 263225.400000
126.054900 151915.600000
127.054200 828732.000000
128.049400 585734.900000
128.062100 4774713.800000
129.069900 4656849.100000
130.040100 2886594.600000
130.065200 489492.100000
131.060600 452857.300000
132.044600 206836.200000
134.047600 571551.600000
135.055500 265720.500000
136.039400 2137470.500000
137.047100 729379.900000
139.039100 804114.700000
139.054200 4945050.700000
140.049400 3514790.500000
141.057300 190519.400000
141.069800 1239424.800000
142.065400 174240.800000
143.073100 499884.500000
145.039400 133084.000000
145.064900 2526433.800000
146.060000 442234.500000
148.039400 2040451.400000
149.034600 1325554.900000
152.062100 5961260.000000
153.057200 502523.800000
153.069900 6601943.800000
154.065100 8267157.900000
154.077700 1607826.400000
155.049100 243468.200000
155.060300 1810627.400000
155.073000 2202553.700000
155.085600 142039.200000
156.068400 885799.100000
156.080700 3209508.400000
163.050000 359163.900000
164.049500 1058882.300000
164.061900 125232.600000
165.057400 673350.400000
165.069900 1824715.600000
166.065100 9556044.000000
167.073000 8470061.200000
168.056800 505881.200000
168.068200 2856538.500000
168.080500 1475564.400000
169.064800 1724950.700000
169.076000 895519.300000
170.060100 552862.300000
177.057100 128409.400000
178.065100 583168.100000
179.060400 723921.900000
179.072700 768520.500000
180.057000 190611.900000
180.068500 1007543.300000
180.080600 1338321.600000
181.065000 5979907.300000
181.076100 9952330.800000
182.060200 2884846.800000
182.083900 12735294.800000
183.068000 4330049.000000
183.091700 3914954.400000
184.063600 179205.900000
184.075700 3306289.300000
187.062600 121532.700000
191.060400 677340.600000
192.068200 3470098.400000
193.052400 570778.400000
193.076200 753269.900000
194.060100 1852737.300000
194.084400 196165.000000
195.068000 194028.800000
196.075700 6526718.400000
197.060200 190676.200000
197.083200 152032.900000
200.070700 532320.400000
206.060300 434836.900000
207.068500 270786.300000
208.063300 1690114.000000
208.075800 173100.900000
209.071000 3039387.400000
210.055400 924332.200000
210.078900 1705271.200000
211.062800 5232013.100000
211.085900 1186617.100000
212.070800 822068.900000
212.081400 176541.300000
221.071500 149949.100000
222.055100 719061.100000
224.071200 927663.400000
225.055700 202962.700000
225.066100 580517.100000
225.079000 226866.000000
225.089100 864772.100000
226.073900 1082061.500000
227.058100 129512.000000
227.081600 987365.300000
237.066500 216218.700000
239.058100 719562.300000
240.065600 6186074.400000
253.085500 132664.600000
254.096300 327603.800000
255.076400 1361732.700000
258.103700 165655.200000
272.106200 176463.100000
281.095300 165310.800000
282.103500 189043.300000
298.097300 201656.800000
300.113800 600751.200000
303.113900 235364.600000
310.098900 248045.600000
327.100600 170394.500000
328.109000 238791.300000
344.104300 221304.400000
346.118900 220166.600000
374.114000 206547.400000

