>compound EQ46400544
>parentmass 256.029
>ionization [M+H]+
>formula C12H11Cl2NO
>rt 660.000000
>profile orbitrap
#smiles_iso CC(C)(C#C)NC(=O)C1=CC(=CC(=C1)Cl)Cl
#smiles_can CC(C)(C#C)NC(=O)C1=CC(=CC(=C1)Cl)Cl
#inchikey PHNUZKMIPFFYSO-UHFFFAOYSA-N
#pubchem_id 32154
#mb_accession EQ317501,EQ317502,EQ317503,EQ317504,EQ317505,EQ317506

>ms2peaks
65.038700 1443676.800000
67.054300 8237426.000000
85.064800 1019788.100000
144.960000 502409.400000
146.976300 296781.800000
171.971400 273365.500000
172.955600 30207757.300000
189.982200 193270921.400000
201.982000 913906.700000
256.029200 110042052.100000

>ms2peaks
65.038700 4065210.400000
67.054300 19576901.800000
85.064800 1076668.400000
144.960100 535570.200000
146.976300 2975540.800000
158.976100 297452.600000
171.971500 561644.800000
172.955600 65013126.800000
189.982100 220799289.800000
201.981600 573938.700000
256.029200 23271183.000000

>ms2peaks
53.002500 159019.300000
65.038700 6697526.800000
67.054300 20553339.500000
84.984000 550668.900000
85.064800 324267.600000
108.983900 405082.200000
120.960700 258316.300000
126.994600 348270.400000
128.002400 296123.600000
129.010200 139746.400000
139.005700 512374.400000
144.960100 730396.800000
146.976300 9469814.400000
162.971200 970796.100000
171.971700 1002591.800000
172.955700 108204125.200000
172.966100 5410689.500000
189.982200 100795862.500000
256.029100 1693515.500000

>ms2peaks
53.002500 280878.600000
62.963400 111650.200000
65.038700 8774453.800000
67.054300 15401736.600000
67.989300 111170.600000
74.015100 115050.500000
84.984000 1893688.600000
86.963200 264526.100000
86.999700 123817.100000
108.983800 849898.900000
112.978900 390649.100000
120.960700 908826.900000
126.994500 1433180.200000
128.002400 1316282.700000
129.010200 571565.000000
139.005700 2113105.000000
144.960600 1661735.100000
146.976300 6467234.200000
162.971200 4233278.900000
171.971700 1295891.800000
172.955800 100982987.600000
172.966300 24775064.800000
173.964200 126079.200000
189.982200 19674593.200000

>ms2peaks
53.002500 549569.700000
62.963400 473403.800000
65.038700 8145689.700000
67.054300 9959756.600000
67.989400 136388.700000
74.015200 360437.300000
75.022800 75697.600000
84.984000 3346145.000000
86.963300 1432879.400000
86.999600 99707.300000
98.999700 85546.800000
108.984000 4097897.900000
109.991500 119789.100000
110.999700 331097.700000
112.978900 768118.600000
113.986700 130088.300000
120.960700 1572642.600000
126.994600 2383816.100000
128.002400 2682049.800000
129.010200 1026580.100000
139.005800 2980532.300000
144.960700 4048288.100000
145.005200 462777.000000
146.976300 2567803.700000
148.955600 138551.800000
162.971200 7695955.100000
171.971700 1326638.000000
172.956000 50412036.200000
172.966600 53009724.200000
173.963800 408346.900000
189.982200 2245554.900000

>ms2peaks
53.002500 697754.800000
57.070100 60390.200000
62.963300 451168.600000
65.038700 6004387.700000
67.054300 4677731.100000
67.989400 320241.500000
74.015100 1570548.800000
75.022900 518425.800000
84.984000 3825823.600000
86.963300 4538589.000000
86.999600 258747.300000
98.999700 252129.100000
108.984000 13832754.100000
109.991800 252320.900000
110.999700 413764.400000
112.978900 653394.600000
113.986800 107498.900000
120.960800 1605987.300000
126.994600 2669482.900000
128.002400 2636411.100000
129.010300 1128907.300000
139.005800 3457827.900000
144.960700 7506828.800000
145.005100 585610.200000
146.976300 445004.100000
148.955800 94110.300000
162.971200 7162023.800000
171.971800 981988.600000
172.956000 14878151.900000
172.966800 58257444.800000
173.963900 280894.000000
189.982500 104407.800000

