>compound EQ48816071
>parentmass 646.031
>ionization [M+H]+
>formula C25H29I2NO3
>rt 864.000000
>profile orbitrap
#smiles_iso CCCCC1=C(C2=CC=CC=C2O1)C(=O)C3=CC(=C(C(=C3)I)OCCN(CC)CC)I
#smiles_can CCCCC1=C(C2=CC=CC=C2O1)C(=O)C3=CC(=C(C(=C3)I)OCCN(CC)CC)I
#inchikey IYIKLHRQXLHMJQ-UHFFFAOYSA-N
#pubchem_id 2157
#mb_accession EQ306701,EQ306702,EQ306703,EQ306704,EQ306705,EQ306706

>ms2peaks
58.065200 1063885.300000
86.096400 1935583.200000
100.112100 3688079.300000
646.030800 289632360.500000

>ms2peaks
58.065200 55953828.100000
70.065200 112062.500000
72.080800 14762622.800000
73.088600 4294830.700000
74.096400 583425.300000
86.096400 33973890.800000
100.112100 39045841.200000
131.049200 107382.200000
159.044300 367311.300000
201.091000 3513480.400000
263.106300 201463.500000
272.941600 98323.900000
275.069900 145576.600000
276.078000 1927146.300000
277.086200 1110309.900000
290.093900 398178.200000
319.133200 1200682.089000
359.964900 143214.500000
372.821700 263970.800000
398.837700 414041.700000
476.072000 942289.500000
516.915500 1049446.200000
572.941500 1500610.100000
646.031000 41743973.800000

>ms2peaks
58.065200 86467135.800000
70.065000 113214.300000
72.080800 18029422.300000
73.088600 1308711.200000
74.096400 573187.300000
86.096400 20911929.100000
100.112100 16350422.000000
131.049300 590435.400000
159.044100 2565041.800000
171.044000 129324.100000
201.091100 3855918.500000
205.065000 190641.300000
221.059700 900192.900000
231.081000 162736.000000
232.052700 142283.800000
233.060200 571490.400000
234.068300 555237.400000
235.075700 427911.300000
247.075700 478745.500000
248.083100 817118.600000
249.054600 458632.000000
249.091200 482223.300000
250.062200 89617.800000
259.076400 207147.600000
261.055200 135779.900000
263.070000 129252.700000
263.107200 397383.300000
272.940800 214423.200000
275.070200 1203130.400000
276.078200 2986468.300000
277.086200 765795.600000
290.093400 762781.500000
333.950000 139352.000000
346.957700 534372.500000
347.965400 499217.000000
358.957700 353180.500000
359.965100 141755.600000
372.821600 929894.500000
398.837700 305030.300000
460.854000 372248.300000
476.072600 513209.900000
516.916200 513366.200000

>ms2peaks
100.112100 5970669.600000
115.054000 99383.900000
128.062300 97090.700000
131.049200 1355050.500000
157.064500 137346.666200
159.044000 3835043.900000
165.069400 157386.100000
171.043900 494487.300000
183.080500 101504.600000
192.056800 591416.600000
193.064900 220732.000000
201.090900 2605405.300000
205.065000 641313.300000
206.072500 187125.200000
217.922200 126302.700000
218.072900 123781.300000
219.080300 160140.000000
220.051900 384386.600000
221.059600 1563609.000000
231.080800 201801.500000
233.059800 774261.300000
234.067400 768177.600000
235.075300 472996.400000
243.080600 116285.500000
245.953100 134096.299900
247.075000 1230708.100000
248.083100 912124.500000
249.054500 453199.500000
249.090900 121551.900000
259.075400 185415.100000
261.090700 119819.853500
262.099500 110533.873700
263.070800 131266.300000
272.940400 316193.400000
275.070000 1662103.700000
276.077900 1288038.800000
289.085700 189357.400000
290.093900 446882.300000
333.948200 225938.600000
346.956600 796006.000000
347.963700 189361.100000
358.956500 209256.700000
372.820900 655747.200000
460.853000 374154.200000

>ms2peaks
89.038500 88714.700000
91.054200 204597.000000
95.049100 85887.800000
100.112100 1783966.100000
103.054500 658504.600000
115.054300 210031.700000
118.041300 190025.244800
128.061900 122020.600000
131.049200 3637403.500000
145.028300 137427.274500
159.044000 4589834.600000
165.069800 1036101.900000
168.057000 90342.400000
171.044000 638637.800000
176.061900 208832.700000
178.077900 207178.000000
179.048900 208835.900000
179.085600 184124.690200
183.080400 101081.400000
189.070300 143756.000000
191.085100 210329.000000
192.056900 2034827.800000
193.064700 517267.500000
201.090800 727914.500000
202.077700 173261.100000
205.064700 1977496.500000
206.072500 485367.300000
217.922600 727260.900000
218.072500 546052.700000
219.080400 806302.800000
220.051700 198975.800000
221.059800 1527947.400000
231.080400 627933.500000
232.051600 113674.900000
232.088100 102186.967200
233.059700 637135.300000
234.067800 877517.400000
235.075300 526461.400000
243.080600 121268.900000
245.059200 155681.100000
246.067700 172109.616800
247.075200 1558450.400000
248.083200 516630.500000
249.054900 210120.500000
250.062400 111594.200000
258.068000 137870.600000
259.074900 185778.500000
261.054800 345837.200000
263.070700 94756.200000
272.940400 200366.000000
275.070300 1092623.600000
276.078200 180025.700000
289.086300 171327.100000
333.948000 189324.400000
346.956100 632575.600000
372.822500 461012.300000

>ms2peaks
89.038700 97536.800000
91.054200 165735.300000
93.008200 105993.039300
95.049000 178297.300000
100.111900 350030.700000
102.046300 186692.513200
103.054400 811154.700000
115.054100 501586.700000
128.062000 130829.800000
131.049200 4032155.800000
159.044200 2213030.000000
163.053900 410641.484000
164.061900 203618.952000
165.070000 1737504.300000
168.056800 126118.700000
176.061900 547274.700000
178.077400 671117.300000
179.049100 218737.100000
189.069700 472861.200000
191.085600 694047.900000
192.057100 1807402.700000
193.064500 208723.300000
201.090800 95642.200000
202.077600 223923.100000
203.085300 104113.118700
205.064900 1945039.300000
206.072300 171643.700000
217.921900 200431.600000
218.072600 751687.300000
219.044000 112027.247900
219.080300 544281.800000
221.059500 757640.700000
231.080500 191339.500000
232.051500 90478.700000
233.060500 133239.400000
234.067900 215551.200000
235.075600 125723.600000
245.060300 108654.600000
247.075500 1251585.100000
258.067300 136638.900000
275.070600 217573.000000

