>compound EQ49883039
>parentmass 342.14820000000003
>ionization [M+H]+
>formula C15H23N3O4S
>rt 102.000000
>profile orbitrap
#smiles_iso CCN1CCCC1CNC(=O)C2=C(C=CC(=C2)S(=O)(=O)N)OC
#smiles_can CCN1CCCC1CNC(=O)C2=C(C=CC(=C2)S(=O)(=O)N)OC
#inchikey BGRJTUBHPOOWDU-UHFFFAOYSA-N
#pubchem_id 5355
#mb_accession EQ302701,EQ302702,EQ302703,EQ302704,EQ302705,EQ302706

>ms2
112.112000 735391.400000
214.015400 638746.900000
342.148300 116133159.200000

>ms2
58.065100 1976478.800000
84.080800 568086.300000
98.096400 1661443.000000
112.112000 32343819.200000
214.016600 4294190.300000
285.091000 346737.500000
297.089700 232780.000000
340.133400 139460.500000
342.148300 114367012.900000

>ms2
56.049400 75845.700000
58.065200 7115395.100000
67.054300 282542.200000
69.069900 159475.300000
70.065100 132105.000000
84.080800 5924505.600000
98.096400 6451051.000000
110.096500 589024.300000
112.112100 68695089.200000
127.122900 137841.700000
199.006000 158869.900000
200.037100 70677.800000
214.016800 23415017.600000
231.043700 327069.700000
285.090700 244743.100000
297.090300 381256.100000
340.131900 266478.000000
342.148300 11921482.600000

>ms2
56.049500 171370.400000
58.065200 7908230.900000
65.038600 68754.900000
67.054200 572127.500000
69.069900 310846.700000
70.065100 359864.700000
82.065200 293394.100000
84.080700 11836748.600000
95.049100 79055.500000
97.088400 132461.100000
98.096400 7514569.100000
108.044400 80028.900000
110.096400 877855.800000
112.112000 59513426.600000
127.123000 62335.500000
134.036000 221102.800000
138.984800 75013.000000
174.021700 68828.600000
184.017400 291489.300000
199.006100 71906.500000
214.016800 32527180.600000
231.043400 160292.400000
297.090100 73706.000000
342.148300 1170219.600000

>ms2
55.054400 55520.200000
56.049600 482906.800000
58.065200 6556300.900000
63.985100 48963.600000
65.038600 750230.600000
67.054200 1138360.000000
68.049400 142708.000000
69.069800 431558.700000
70.065000 695538.000000
71.072900 43771.300000
75.022800 411452.200000
76.030900 42947.400000
77.038500 205097.900000
78.046400 288875.000000
79.041600 56398.800000
79.054200 47603.400000
80.049400 34782.000000
81.033500 42116.100000
82.065100 699022.500000
83.073000 135411.500000
84.080700 17478628.000000
92.049400 240151.000000
94.065000 198180.500000
95.049100 496732.000000
96.080800 68167.500000
97.088600 197640.700000
98.096400 7942087.500000
105.033500 157011.500000
106.041200 144765.500000
107.012900 71963.900000
107.036600 286831.500000
107.049100 256519.000000
108.044400 772967.500000
109.028400 587414.300000
110.005900 81883.700000
110.096400 1142514.400000
112.112000 33772462.400000
120.044400 40466.600000
122.060000 233764.600000
123.007500 76645.100000
124.052000 36212.600000
133.028400 302666.800000
134.036000 772183.200000
138.984900 615983.400000
151.039000 699553.800000
154.979600 57653.400000
156.995100 48095.700000
166.026200 492277.800000
170.998400 365748.900000
174.022100 500034.200000
184.017500 1204165.100000
186.021800 67034.800000
199.006000 136600.900000
214.016800 29311454.200000
217.003600 418432.200000

>ms2
55.054300 248900.800000
56.049500 801289.100000
58.065200 5005110.700000
63.985200 75936.500000
65.038600 3189464.000000
67.054200 1261225.700000
68.049400 254696.100000
69.069900 341609.900000
70.065100 1309456.200000
71.072900 150602.400000
75.022900 1700041.300000
76.030800 229116.700000
77.038600 447155.200000
78.046400 1113139.200000
79.041600 491806.500000
79.054200 244721.500000
80.049500 225464.400000
81.033500 158635.600000
82.065100 1045553.300000
82.995000 184721.572000
83.073000 79942.100000
84.080800 17906529.600000
92.049400 562346.700000
94.065100 263428.500000
95.049100 1020117.500000
96.080800 159199.400000
97.088500 140225.700000
98.096400 6556692.400000
105.033500 260751.900000
106.041200 244850.900000
107.012800 415470.400000
107.036500 1267486.400000
107.049200 383999.200000
108.020500 187827.856300
108.044400 2076510.000000
109.028400 1400541.400000
110.005800 57953.500000
110.096400 1054263.700000
112.112100 15656924.500000
120.044300 79487.600000
122.060000 149200.400000
123.007600 216554.900000
124.051900 58214.000000
133.028400 632713.800000
134.036200 1496439.600000
138.984900 1281433.700000
151.039000 1085990.200000
154.979700 457272.700000
156.995300 51350.100000
166.026100 1193947.700000
170.998400 751814.400000
174.022100 525334.400000
184.017500 1464281.700000
186.021900 46616.100000
214.016800 13074050.500000
217.004000 774230.500000

