>compound EQ49517884
>parentmass 312.1958
>ionization [M+H]+
>formula C20H25NO2
>rt 492.000000
>profile orbitrap
#smiles_iso C[C@]12CCC3=C4CCC(=O)C=C4CC[C@H]3[C@@H]1CC[C@]2(CC#N)O
#smiles_can CC12CCC3=C4CCC(=O)C=C4CCC3C1CCC2(CC#N)O
#inchikey AZFLJNIPTRTECV-FUMNGEBKSA-N
#pubchem_id 68861
#mb_accession EQ328401,EQ328402,EQ328403,EQ328404,EQ328405,EQ328406

>ms2
135.080200 983820.800000
159.080300 1123404.200000
161.096000 1441739.200000
294.185200 2503278.500000
312.195800 645466432.000000

>ms2
81.069900 530574.500000
91.054200 592610.200000
93.069900 1054410.900000
105.069800 841285.200000
107.049000 1360814.500000
107.085600 1395619.500000
119.085400 1022727.800000
120.080900 923730.200000
131.085600 577204.900000
132.080800 1501420.900000
133.064800 2732829.800000
133.101100 876434.800000
134.096400 2678431.000000
135.080400 9753157.000000
141.069800 499778.100000
143.085700 1115795.400000
145.101200 529604.000000
146.096400 1005053.100000
147.080400 1370756.400000
148.112100 1657699.600000
149.096100 811232.800000
157.064800 1421253.600000
158.096500 1206591.900000
159.080500 14749644.000000
161.096100 18670316.000000
162.103700 583853.200000
172.112100 561807.200000
173.096100 1561913.500000
175.112000 937460.200000
176.107100 1519864.400000
184.112000 938608.200000
195.116900 523988.200000
211.112200 818839.400000
211.147800 749232.300000
213.127400 593024.600000
225.127000 625472.700000
229.159000 863111.400000
235.148100 1451400.100000
242.154700 863454.600000
251.142700 1116951.200000
252.174600 521779.500000
253.158700 6249508.500000
254.153700 603357.200000
254.166600 923014.800000
266.154200 563465.900000
267.174400 938445.100000
269.154000 1240627.600000
271.169300 3592513.000000
276.175600 1097795.200000
277.158700 863653.900000
294.185400 24391760.000000
295.169700 533734.000000
312.195800 489753376.000000

>ms2
67.054200 787090.200000
69.069900 403057.800000
70.065100 1627011.100000
77.038300 367977.700000
79.054200 3593055.800000
81.069900 1723541.900000
82.065100 212380.800000
83.049100 3280334.500000
91.054200 6479419.500000
93.069900 8016231.500000
94.065100 170196.600000
95.049100 480669.900000
95.085500 2450056.800000
96.080800 419518.000000
97.064800 2441904.800000
105.069900 7092911.500000
106.065100 560354.900000
107.049200 7470788.000000
107.085500 7891658.500000
108.080800 652008.800000
109.064800 3669318.000000
109.101100 557659.800000
111.080400 620986.400000
115.054100 478577.800000
117.069900 3838560.500000
118.065100 355180.500000
119.085500 9912932.000000
120.080800 4023199.500000
121.064800 1689280.900000
121.101200 1246695.400000
122.096300 199655.600000
123.080500 2369073.500000
128.061900 607357.900000
129.069900 1647247.800000
130.065200 223882.000000
131.085600 5923184.500000
132.080800 8872557.000000
133.064800 12239502.000000
133.101200 8220148.500000
134.096400 6029617.500000
135.080400 45316504.000000
137.096000 204522.700000
138.091200 183199.100000
141.069900 2146430.200000
143.085600 6208979.000000
144.057200 158107.800000
144.080800 564067.600000
144.093400 160526.700000
145.064900 2347672.200000
145.101200 2984098.200000
146.072600 811249.200000
146.096400 5239395.000000
147.080500 6772531.000000
147.116900 941974.000000
148.075800 474526.600000
148.088100 1068838.800000
148.112100 2625202.500000
149.096100 3240030.000000
150.091700 183788.000000
155.085500 1578041.100000
157.064800 4433177.500000
157.101300 2307023.500000
158.096500 3737416.200000
159.080500 40510768.000000
160.088300 627565.700000
160.112000 1011509.900000
161.096100 53240576.000000
162.091400 425616.100000
162.103900 5181866.000000
162.127900 409657.900000
163.111700 1280335.400000
164.083200 217180.400000
167.085400 982272.100000
169.101200 1755528.200000
170.096200 413038.000000
171.080300 928050.100000
171.116800 1794141.000000
172.112000 2081523.800000
173.096100 5638142.500000
174.091900 220482.000000
174.103600 797236.100000
174.127800 391060.800000
175.111800 3129473.500000
176.106900 1991731.200000
177.091000 232057.800000
179.085600 212938.300000
181.101400 1187400.100000
182.096500 666549.200000
183.080800 747329.100000
183.116800 1654510.400000
184.112100 2071858.200000
185.096300 1334066.200000
185.132800 721759.300000
186.091100 170701.900000
186.127800 587863.900000
187.112000 873448.800000
188.106900 238836.000000
189.127000 165747.400000
190.122700 707502.000000
192.093300 175561.800000
193.101300 1432063.200000
194.096500 170783.900000
195.080500 191742.300000
195.117000 2508908.500000
196.112200 214521.700000
196.124600 472988.000000
197.096200 1842608.000000
197.132400 657562.500000
198.091500 240087.500000
198.103300 152570.400000
198.127600 1056718.600000
199.111700 1435008.800000
200.107100 509299.700000
200.119600 422705.700000
201.127500 576378.800000
202.122800 592812.500000
205.101600 230928.500000
207.116700 1189186.900000
209.096400 930278.600000
209.132500 1359710.600000
210.128100 195546.100000
211.111800 2319037.500000
211.148300 2844379.200000
212.119500 383381.200000
212.143600 620105.300000
213.127400 2530507.200000
219.116700 776834.300000
220.124400 170123.100000
221.132700 795320.400000
222.127600 166858.700000
223.112100 477016.400000
223.148200 441038.200000
224.143400 990836.500000
225.127400 2261484.200000
225.164000 711664.800000
227.143000 543156.200000
228.138500 192082.200000
229.158700 1846189.900000
230.154100 217640.700000
233.132100 716277.200000
235.111600 786502.500000
235.148200 3613549.200000
236.143400 994370.800000
236.156000 438573.500000
237.127700 833717.800000
238.123100 188814.800000
238.158700 178399.600000
239.143200 612631.100000
242.154000 1117807.000000
243.138400 352644.800000
249.127500 486484.000000
249.163600 441929.200000
250.159300 438333.100000
251.143200 2401675.000000
252.138800 343195.800000
252.174800 1116912.400000
253.158800 12086798.000000
254.153900 1348826.000000
254.166400 6716270.500000
259.148400 468391.900000
266.154100 1753005.000000
266.191100 206778.900000
267.174300 1298642.800000
268.169600 202436.300000
269.153900 2263580.200000
270.185600 441580.200000
271.169300 6779785.000000
276.175300 1817902.400000
277.158900 1605206.800000
279.161900 195603.900000
284.164800 1177916.800000
292.169600 165035.400000
294.185400 19568676.000000
295.169100 517871.600000
312.195800 151684704.000000

>ms2
65.038600 200688.200000
67.054200 2816557.000000
68.049400 131080.300000
69.033500 210715.500000
69.069900 639360.600000
70.065100 997098.400000
71.049100 153221.600000
77.038500 629704.000000
79.054200 11587414.000000
80.049500 142312.700000
80.062000 104366.200000
81.069900 5278502.000000
82.065200 141180.500000
83.049100 5376855.500000
85.065100 110937.400000
91.054200 24510496.000000
92.062000 223117.300000
93.069900 14105136.000000
94.065200 372801.500000
95.049100 1290605.400000
95.085500 3565147.500000
96.044400 133043.600000
96.080700 210436.600000
97.064800 3749023.000000
103.054200 572282.800000
104.049400 123659.000000
105.069900 17272258.000000
106.065200 715855.200000
106.077800 431308.700000
107.049200 13265779.000000
107.085500 9590121.000000
108.080800 1462196.800000
109.064800 5544781.000000
109.101200 728690.700000
110.072600 471506.200000
111.080500 227624.600000
115.054200 1827759.400000
116.062000 516281.000000
117.069900 13127332.000000
118.065000 674465.100000
118.077800 137811.100000
119.085500 15349813.000000
120.057000 380976.700000
120.080800 3682969.000000
121.064800 2512521.000000
121.101200 1291297.000000
122.096400 671517.200000
123.080400 3268669.500000
128.062000 3175341.800000
129.069900 5717342.500000
130.065100 845891.500000
130.077700 918051.300000
131.049400 854126.200000
131.073100 889037.200000
131.085600 12541156.000000
132.057000 1328996.500000
132.080800 6940877.500000
132.093500 395361.100000
133.064800 17470100.000000
133.101200 10357386.000000
134.072600 1317389.200000
134.096400 3081120.500000
135.080400 57136064.000000
137.095900 201201.500000
141.069900 4074873.200000
142.077800 850876.100000
143.085600 9383302.000000
144.057000 1204863.500000
144.081000 1122723.100000
144.093300 1082680.800000
145.064900 2145718.800000
145.101300 4418346.000000
146.072700 3417488.500000
146.096400 4527607.000000
147.080500 8416446.000000
147.117000 970154.900000
148.075700 203341.400000
148.088300 3562403.200000
148.112100 1283148.500000
149.096200 3361102.000000
153.069800 688191.400000
154.078100 201175.900000
155.060500 174771.900000
155.085600 3114848.500000
156.093700 239106.300000
157.064900 4322099.000000
157.101200 3563669.500000
158.096600 2977635.000000
158.109100 231420.300000
159.080500 32508800.000000
159.116800 2190942.500000
160.088500 823495.400000
160.112000 579334.000000
161.096100 47359804.000000
162.103900 9893278.000000
163.111900 686535.700000
164.083200 426010.200000
165.069900 560101.600000
166.077600 379838.400000
167.085600 1750298.100000
168.093600 242279.100000
169.076100 408625.300000
169.101200 2980383.800000
170.096500 516849.500000
171.080400 1043638.000000
171.116800 2439182.000000
172.088300 164860.100000
172.112100 1501094.400000
173.096100 3775172.800000
174.092100 262973.300000
174.103900 1534478.400000
175.111700 2586956.200000
176.106900 389983.200000
176.119700 145317.100000
178.077700 392053.200000
179.085600 1196164.400000
180.093600 684553.600000
181.101300 1766061.100000
182.096500 569989.600000
182.109300 590254.300000
183.080500 564013.700000
183.116900 2460390.500000
184.088500 154347.100000
184.112100 1577441.400000
184.124900 347210.300000
185.096100 1215027.200000
185.132600 1208930.200000
186.103900 171813.700000
186.127900 167139.800000
187.112000 992766.800000
188.106800 395311.200000
188.119600 139535.300000
190.123500 104843.300000
191.085900 225061.200000
192.093600 565206.200000
193.101100 1957002.400000
194.109000 507281.700000
195.080400 192312.800000
195.116700 2583523.000000
196.088300 127606.600000
196.112100 203716.100000
196.124900 474740.600000
197.096200 1399584.200000
197.132500 1384851.100000
198.103900 438567.500000
198.127800 655038.700000
198.140400 217626.600000
199.111600 1018182.200000
200.107000 119109.700000
200.119600 455131.900000
201.127500 793500.800000
202.123000 123556.000000
202.135100 163420.200000
203.085500 139872.200000
204.092900 220254.300000
205.101600 369122.400000
206.109700 153197.500000
207.117100 1732458.100000
208.112400 121647.800000
208.124700 106349.000000
209.096500 709591.600000
209.132400 1440881.400000
210.103700 206016.000000
210.127900 189517.800000
210.140000 119335.800000
211.111900 2392594.200000
211.148200 3479641.200000
212.107300 126463.700000
212.119800 427042.100000
212.143700 189141.100000
213.127500 2407613.200000
214.135300 571938.800000
215.143500 514268.200000
216.149800 95272.700000
217.101800 161835.000000
218.109000 171614.600000
219.117300 225031.600000
220.112700 148684.500000
220.124700 453697.500000
221.096000 178554.400000
221.132700 936393.900000
222.128100 221532.700000
223.112500 147433.600000
223.147900 209455.300000
224.143500 421023.800000
225.127500 2324338.500000
225.163800 781579.400000
226.135300 164426.500000
227.142900 366183.700000
229.158900 581120.600000
233.133000 231648.100000
235.111700 213422.700000
235.148100 1646842.500000
236.143300 660546.400000
236.155600 223307.300000
237.126900 126246.100000
238.135400 540292.900000
239.143100 1579758.000000
242.154400 193215.000000
243.138500 378925.800000
248.119500 105753.500000
249.127700 340078.100000
249.164000 181401.500000
250.160000 212931.800000
251.143200 969569.800000
252.138800 119769.400000
252.174700 486402.800000
253.158800 5419904.000000
254.154400 377756.100000
254.166600 4981731.000000
256.145500 128386.200000
266.154000 395133.500000
267.174500 400431.100000
269.153700 618615.100000
271.169300 3052521.200000
276.174600 418645.800000
277.159000 200079.600000
279.161100 169521.100000
284.165300 482108.300000
292.168900 119885.700000
294.185500 2244711.000000
312.195900 14156355.000000

>ms2
57.033700 126314.700000
65.038600 1123458.900000
67.054200 5980085.000000
68.049400 90562.100000
69.033500 684546.800000
69.069800 563582.700000
70.065200 600910.800000
77.038500 972524.400000
78.046400 233286.400000
79.054200 21633736.000000
80.049400 441929.400000
80.062100 175807.000000
81.033500 770532.200000
81.069900 8444244.000000
82.065200 181240.900000
83.049100 6305072.500000
89.038500 121701.100000
91.054200 52898600.000000
92.062100 1104412.200000
93.057300 861979.700000
93.069900 15580755.000000
94.041300 211637.100000
94.065100 234938.200000
94.077700 399697.000000
95.049100 4562348.500000
95.085500 4220277.500000
96.044300 148364.800000
96.056900 112203.800000
97.064800 4392902.500000
103.054200 2709624.500000
104.049400 411820.900000
104.062100 670709.600000
105.069900 31257668.000000
106.065100 562085.400000
106.077900 962075.600000
107.049200 21144754.000000
107.085500 8182938.000000
108.056900 399020.000000
108.080800 2060651.800000
109.064800 6113371.500000
109.101200 507398.400000
110.072700 856695.200000
111.080300 221296.500000
115.054200 7866135.000000
116.049400 205234.100000
116.062000 2432030.800000
117.069900 24001202.000000
118.065100 891541.200000
118.077700 437796.200000
119.049200 1556352.400000
119.085500 15280558.000000
120.057000 958275.600000
120.080800 1364869.000000
121.064800 2891152.800000
121.101100 602395.100000
122.072200 99360.100000
122.096400 154713.200000
123.080400 3220690.800000
127.054100 154878.900000
128.062000 9293632.000000
129.069900 11745959.000000
130.065200 1223450.100000
130.077700 2340922.800000
131.049300 1848245.000000
131.073000 1449572.200000
131.085600 15220435.000000
132.057000 3937674.800000
132.080800 3614270.500000
132.093400 235236.600000
133.064800 20525318.000000
133.101200 5968931.000000
134.072700 2273679.500000
134.096400 831448.600000
135.080400 42719384.000000
137.095700 150747.800000
141.069800 7320155.000000
142.077800 2210340.500000
143.073300 462173.000000
143.085600 8997415.000000
144.057100 2691821.500000
144.081000 1135095.000000
144.093400 1297814.100000
145.064800 4145381.800000
145.101300 4101243.000000
146.072700 6766684.000000
146.096500 2347884.800000
147.080500 9632237.000000
148.088300 4540484.000000
148.111900 232278.000000
149.096100 1892570.000000
152.062000 507284.000000
153.069900 1484735.900000
154.077700 1368904.200000
155.060500 1086161.800000
155.085600 5097055.500000
156.080800 227443.900000
156.093600 697023.400000
157.064900 3980625.200000
157.088600 213756.700000
157.101300 2850474.000000
158.072400 182061.800000
158.096500 949200.800000
158.109100 221749.400000
159.080500 19948228.000000
159.116900 1343464.100000
160.088300 724144.800000
161.096100 24867420.000000
162.103900 6478849.000000
163.111800 168132.400000
164.082900 151321.000000
165.070000 2101045.500000
166.077700 1099698.000000
167.085600 2564588.000000
168.081200 170554.100000
168.093400 1028511.400000
169.076100 730788.800000
169.101200 4182997.000000
170.073300 96214.100000
170.096400 442459.900000
170.109200 222075.500000
171.080300 1020045.300000
171.116700 1640909.200000
172.088500 188432.100000
172.112000 449884.600000
173.096000 1667656.900000
174.104000 1423663.200000
175.111900 1152191.200000
178.078000 1211513.600000
179.085600 1624092.600000
180.093400 876008.700000
181.101100 2735116.200000
182.072400 135360.900000
182.096700 233551.200000
182.109200 531395.900000
183.080600 564199.600000
183.116900 2227613.200000
184.088300 138722.500000
184.112000 500107.100000
184.124800 200776.600000
185.096300 879373.900000
185.132500 516233.200000
186.104600 129723.900000
187.111800 616856.300000
188.119500 154164.200000
191.085700 624487.500000
192.093500 808369.500000
193.101200 1568779.900000
194.095700 158673.900000
194.109000 419401.100000
195.116900 2127068.000000
196.087800 499486.500000
196.112200 234255.400000
196.124800 503880.800000
197.096200 1249253.800000
197.132600 1258548.100000
198.103900 477653.800000
198.127600 122103.000000
199.112200 715678.100000
200.119500 221037.200000
201.126900 602087.500000
203.085600 404037.400000
204.093500 385076.700000
205.101000 591734.300000
206.108900 448544.000000
207.080400 124919.000000
207.116600 615544.600000
208.112100 132104.300000
208.125000 162872.800000
209.096000 552281.200000
209.132500 527330.800000
210.104200 438182.800000
210.127700 138998.400000
210.139900 95884.700000
211.111900 1531579.100000
211.148300 1421473.000000
212.119500 173187.700000
213.127400 1060625.600000
214.135100 434016.000000
215.142800 134906.100000
218.108500 215422.600000
219.117200 408322.000000
220.112600 160832.100000
220.124100 404938.200000
221.132000 721131.000000
223.111500 210494.700000
223.148200 204821.400000
225.127500 1184716.000000
225.164500 165211.900000
226.134700 164986.400000
227.143200 237425.300000
233.132600 116076.800000
235.111500 124637.400000
235.147900 230060.600000
236.143300 396283.200000
237.127100 203214.700000
237.163900 233195.600000
238.135000 105831.000000
239.143300 1896338.800000
243.138400 469728.700000
251.142700 122294.100000
253.158700 1540119.600000
254.166800 1340746.900000
256.146000 195107.400000
266.154100 146384.400000
271.169400 399324.600000
312.195900 516307.900000

>ms2
50.015100 74587.100000
53.038600 176024.800000
65.038600 3335868.500000
67.054200 7466010.500000
69.033500 638252.400000
69.069900 186456.000000
70.065100 144372.700000
71.049300 106577.000000
77.038500 1896503.800000
78.046400 608928.200000
79.054200 27201612.000000
80.049600 431808.600000
80.062100 537117.600000
81.033500 1027179.600000
81.069900 7233622.500000
82.065300 146903.600000
83.049100 5788737.000000
89.038400 129553.000000
91.054200 60531036.000000
92.062000 1426706.000000
93.057300 729246.900000
93.069900 10459693.000000
94.041300 656126.300000
94.065200 176677.400000
94.077700 177191.600000
95.049100 7543292.500000
95.085500 2225380.000000
96.081000 91757.500000
97.064800 2368004.800000
103.054300 5699215.500000
104.049500 402141.600000
104.062100 1423290.500000
105.044800 2987028.500000
105.069900 31993970.000000
106.065100 896158.500000
106.077700 752929.500000
107.049200 22079426.000000
107.085500 4072268.500000
108.057000 201708.800000
108.080800 754330.400000
109.064800 4414655.500000
110.072700 912871.600000
115.054200 14078656.000000
116.049500 188757.100000
116.062000 3666057.500000
117.069900 22757484.000000
118.065100 483224.600000
118.077700 779873.600000
119.049200 1715754.200000
119.060500 512665.400000
119.085500 8948053.000000
120.057000 859440.200000
120.080800 462709.700000
120.093500 105999.000000
121.064800 2578863.200000
122.072500 106865.200000
123.080500 1643823.900000
127.054400 428716.000000
128.062000 13469916.000000
129.069900 11913768.000000
130.065300 1554494.200000
130.077700 2649642.500000
131.049200 3619249.800000
131.073100 1157271.200000
131.085600 9626107.000000
132.057000 4890030.500000
132.080700 1374306.200000
133.064800 15459783.000000
133.101200 2638806.500000
134.072600 1764632.500000
134.096600 195632.600000
135.080400 20499078.000000
141.069800 8426856.000000
142.077800 2784531.200000
143.073400 717649.400000
143.085600 6107040.500000
144.057100 3374936.000000
144.080900 776649.500000
144.093600 713732.400000
145.064900 5092698.000000
145.101200 2066743.100000
146.072700 5395062.000000
146.096400 843999.900000
147.080500 7953961.500000
148.088300 2914836.500000
149.096000 617139.800000
152.062300 837976.100000
153.070000 2549686.200000
154.077700 2123763.800000
155.060500 1599631.800000
155.085600 4230956.000000
156.080800 197787.800000
156.093600 835208.900000
157.064900 2336922.500000
157.101100 1326244.600000
158.072600 506542.500000
158.096500 175532.300000
159.080500 7716641.500000
159.116800 544399.100000
160.088300 150519.000000
161.096100 8457289.000000
162.103900 1861609.500000
165.070000 2759885.000000
166.077700 1638973.000000
167.085600 2718258.800000
168.081300 183204.700000
168.093600 1209429.400000
169.064800 147851.300000
169.076300 745200.100000
169.101300 2081431.600000
170.072600 119642.300000
170.096200 167700.900000
171.080400 516207.000000
171.117100 232789.100000
173.096200 508494.000000
174.104300 470130.200000
175.111400 180990.900000
178.077600 1761000.000000
179.085600 2105530.000000
180.093500 1107539.400000
181.064900 348607.300000
181.101100 1744103.200000
182.096700 137294.200000
182.109400 236899.300000
183.080500 467131.900000
183.117000 1178250.600000
184.088000 122890.000000
185.096400 550701.000000
187.112100 398909.700000
191.085900 989388.500000
192.093400 882448.000000
193.101500 855517.000000
194.108900 117614.800000
195.080400 356178.600000
195.116700 716057.400000
196.088300 171804.500000
196.112000 390363.300000
196.125000 119887.200000
197.096500 391844.200000
197.132700 161344.100000
199.111200 160642.300000
201.127700 177048.200000
203.085800 439974.600000
204.093700 188017.700000
205.101300 451574.100000
206.109000 136652.400000
207.080600 116021.600000
207.116700 221188.600000
208.112000 102833.500000
209.096400 141863.500000
209.133000 114898.500000
210.104900 141619.100000
211.111900 566565.000000
211.148300 156104.100000
213.127900 172933.700000
221.096500 104741.100000
226.135900 110512.000000
227.142700 103828.200000
239.143500 432939.800000
253.159200 114719.700000
254.166200 128788.400000

