>compound EQ50410449
>parentmass 239.0739
>ionization [M+H]+
>formula C10H8F2N4O
>rt 312.000000
>profile orbitrap
#smiles_iso C1=CC(=C(C(=C1)F)CN2C=C(N=N2)C(=O)N)F
#smiles_can C1=CC(=C(C(=C1)F)CN2C=C(N=N2)C(=O)N)F
#inchikey POGQSBRIGCQNEG-UHFFFAOYSA-N
#pubchem_id 129228
#mb_accession EQ314301,EQ314302,EQ314303,EQ314304,EQ314305,EQ314306

>ms2peaks
68.013100 1133220.900000
101.019700 603055.800000
127.035400 475031794.400000
136.055600 2027450.300000
141.051100 5979885.000000
142.046400 4872373.300000
144.062000 20576428.700000
148.055800 5921848.200000
156.062000 4660399.800000
163.066700 3902346.000000
166.046400 14480174.600000
167.054200 23221741.200000
168.062000 28179321.100000
183.073000 10240315.100000
191.061600 3834487.200000
194.041200 2923534.500000
211.067900 18071393.200000
222.047500 21494580.100000
239.074100 94117446.200000

>ms2peaks
57.013500 687008.800000
68.013100 1345251.600000
101.019600 734766.100000
127.035500 588870299.000000
136.055700 2769404.100000
139.035500 1729098.800000
141.014700 731988.600000
141.051100 4318481.900000
142.046400 5745724.900000
144.062000 6856843.200000
148.055800 7609397.500000
156.062000 6166782.100000
163.066800 3840863.200000
164.050900 611457.500000
166.046400 13046317.800000
167.054200 17131301.600000
168.062000 12720676.500000
183.073000 4826226.800000
191.061500 1943409.200000
194.041200 2059617.800000
211.067800 3797597.500000
222.047500 15016155.700000
239.074000 9270264.600000

>ms2peaks
57.013500 883438.200000
68.013100 1200374.400000
101.019700 1673962.800000
107.029100 1396657.700000
109.044900 990770.900000
121.044900 899303.200000
127.035500 701903156.900000
136.055700 5025113.300000
139.035400 4309700.700000
140.030800 1469442.200000
141.051200 2816854.500000
142.046400 7102670.600000
144.062000 784256.300000
146.040200 2049850.400000
148.055800 8697363.000000
154.046400 775445.000000
156.062000 4378363.800000
163.066700 1695842.600000
164.050700 986112.700000
166.046400 12578782.000000
167.054200 7071107.700000
168.062100 2684316.000000
191.061600 724876.800000
194.041500 811402.900000
222.047700 2169274.900000

>ms2peaks
57.013500 886741.700000
68.013100 984259.200000
101.019800 3158222.300000
107.029200 2892910.700000
109.044800 2674779.600000
121.044900 759330.900000
127.035500 677311189.500000
136.055700 5074682.200000
139.035500 5101535.600000
140.030700 1800294.700000
141.051200 1715224.800000
142.046400 6222031.200000
146.040300 1791704.200000
147.035200 1206371.600000
148.055700 5777519.900000
156.062100 2220459.100000
163.066900 1398157.100000
164.050800 1183208.300000
166.046400 11709066.500000
167.054200 3266992.400000
168.062000 852884.900000

>ms2peaks
57.013500 840568.400000
63.022900 763585.900000
68.013100 711431.200000
77.019700 1862957.500000
77.038600 1289205.500000
81.013500 941076.300000
95.049300 2524941.600000
101.019800 12403132.900000
105.044800 846826.700000
107.029200 9026060.000000
109.044900 3679411.300000
121.045100 1092074.300000
127.035500 666854110.800000
129.044700 671141.300000
135.047900 1006953.400000
136.055700 2959686.800000
139.035500 3227337.800000
140.030700 863588.300000
141.051200 740756.800000
142.046500 4410454.000000
146.040300 1287686.500000
147.035300 2972329.900000
148.055800 5031545.200000
154.040200 1497821.800000
156.062000 691590.600000
164.050700 670573.100000
166.046400 10650303.000000

>ms2peaks
57.013500 2460395.000000
63.022900 1784247.800000
68.013100 607593.800000
75.004100 1214102.200000
75.022900 760499.000000
77.019800 5816242.600000
77.038600 3026211.400000
81.013500 2038691.800000
83.029200 1687219.300000
95.049200 7172595.900000
101.019800 34165567.700000
105.044700 2901971.400000
107.029200 29745224.000000
109.044900 4662184.000000
119.029300 847194.700000
121.045000 695568.000000
126.034000 592876.900000
127.035500 571952892.700000
129.044700 929350.400000
135.047900 862119.800000
139.035700 1667546.100000
140.030700 987004.400000
142.046400 2647243.100000
147.035400 3000638.200000
148.055800 3234653.300000
154.040200 1201829.000000
166.046400 7573059.200000

