>compound EQ50174709
>parentmass 357.1267
>ionization [M+H]+
>formula C19H20N2O3S
>rt 360.000000
>profile orbitrap
#smiles_iso CCC1=CN=C(C=C1)CCOC2=CC=C(C=C2)CC3C(=O)NC(=O)S3
#smiles_can CCC1=CN=C(C=C1)CCOC2=CC=C(C=C2)CC3C(=O)NC(=O)S3
#inchikey HYAFETHFCAUJAY-UHFFFAOYSA-N
#pubchem_id 4829
#mb_accession EQ328601,EQ328602,EQ328603,EQ328604,EQ328605,EQ328606

>ms2
134.096100 18075944.000000
135.104300 2156649.800000
357.127300 1525627520.000000

>ms2
119.073100 7018444.000000
120.080900 3043321.800000
121.088700 1700547.200000
134.096600 426155968.000000
135.104300 61370276.000000
167.093900 2297685.800000
240.138800 4611738.000000
241.146600 8351283.000000
286.127100 2425776.000000
357.127300 970119168.000000

>ms2
79.054300 2752367.500000
104.049600 1465501.000000
106.065200 9171828.000000
107.072900 1528207.800000
118.065200 2717829.500000
119.073100 102964008.000000
120.080900 22272844.000000
121.088800 15785110.000000
124.076000 3865600.200000
134.096700 1244795648.000000
135.104200 219378784.000000
167.094100 3849856.200000
240.138600 9943083.000000
241.146600 7175654.500000
253.146500 1690319.800000
286.126600 6546403.500000
314.122000 1573958.000000
357.127300 92249424.000000

>ms2
77.038600 1296994.600000
79.054400 12972675.000000
91.054300 2670628.500000
92.049700 1423410.000000
93.057400 3234625.200000
95.049300 4819157.000000
96.044600 4937693.500000
104.049600 4501424.500000
105.044900 1361653.800000
106.065300 27747722.000000
107.073100 5919186.500000
108.081000 1677197.100000
110.060200 1487909.800000
118.065300 10658698.000000
119.073200 367135808.000000
120.080900 36700168.000000
121.088800 19407636.000000
122.060300 1903337.500000
123.068000 1158387.900000
124.076000 12467442.000000
132.081000 1449224.600000
134.096700 969162496.000000
135.104300 112522232.000000
139.062900 1980196.900000
240.138700 2843762.800000

>ms2
65.038700 1701456.500000
66.046600 1452174.400000
77.038700 1559484.600000
78.033900 998071.300000
79.054400 23853034.000000
80.049600 1555038.200000
81.033600 1272937.900000
91.041800 1063613.900000
91.054400 9333992.000000
92.049600 3020936.200000
93.057400 7596494.500000
93.070000 1108796.800000
95.049300 8205854.500000
96.044600 8812791.000000
104.049700 6546782.500000
105.045000 2353885.800000
105.057400 1057997.600000
106.065300 40033424.000000
107.073100 7401614.000000
108.081000 2700832.200000
109.052300 2592376.000000
110.060200 1942882.900000
117.057400 1252437.500000
118.065300 31640100.000000
119.073200 503005824.000000
120.080900 37517700.000000
121.088700 10218303.000000
122.060300 3230527.800000
123.068000 1606685.500000
124.075900 12104945.000000
132.081300 1235981.200000
134.096700 543490432.000000
135.104400 25099582.000000
139.063000 2743756.800000

>ms2
65.038700 3891112.500000
66.046500 4695052.000000
68.049600 1298219.900000
77.038600 3124238.200000
78.034000 2580170.000000
78.046400 606349.900000
79.054400 38380568.000000
80.049600 4531397.000000
80.062200 606324.400000
81.033700 1254207.800000
91.041700 2511073.000000
91.054400 27817010.000000
92.049600 10796226.000000
92.062200 1549188.100000
93.057500 17639044.000000
93.070000 1811846.800000
95.049300 16555498.000000
96.044600 18072494.000000
98.060300 1179137.800000
103.054300 957330.000000
104.049600 10019326.000000
105.045000 5957601.000000
105.057500 1833616.500000
105.070100 1048800.900000
106.065300 46075248.000000
107.073100 8788906.000000
108.044500 1984768.000000
108.081000 2369179.200000
109.052400 6693123.500000
110.060300 1982764.400000
117.057400 3779988.500000
118.065400 85548736.000000
119.073100 605274432.000000
120.080900 44079108.000000
121.088800 4658870.500000
122.060200 3126205.800000
123.068000 2443131.000000
124.075900 9784953.000000
125.047400 638237.000000
126.055000 643036.900000
132.081000 1525295.500000
134.096700 401388800.000000
135.104400 5220722.000000
139.063000 3302168.000000

