>compound EQ51653050
>parentmass 180.1747
>ionization [M+H]+
>formula C12H21N
>rt 390.000000
>profile orbitrap
#smiles_iso CC(C12CC3CC(C1)CC(C3)C2)N
#smiles_can CC(C12CC3CC(C1)CC(C3)C2)N
#inchikey UBCHPRBFMUDMNC-UHFFFAOYSA-N
#pubchem_id 5071
#mb_accession EQ314901,EQ314902,EQ314903,EQ314904,EQ314905,EQ314906

>ms2
55.054100 1017339.200000
67.053900 2526523.100000
69.069800 1023378.200000
81.069800 22169553.400000
93.069600 3599906.300000
95.085400 1986510.200000
107.085300 5401296.200000
121.101000 3331190.700000
135.116700 3925099.000000
163.148000 717952972.200000
180.174500 815149047.400000

>ms2
67.054000 2553740.200000
69.069800 1025388.000000
81.069800 29454750.800000
91.053900 866361.100000
93.069600 4174103.700000
95.085300 2294891.000000
107.085400 6849154.200000
121.101100 4704785.600000
135.116700 4838317.300000
163.148100 800342737.200000
180.174600 707731836.900000

>ms2
55.054200 1260754.100000
67.054100 10159185.900000
69.069600 1676380.000000
79.054200 9005814.600000
81.069800 122734094.500000
83.085400 2654783.400000
91.054100 1605631.000000
93.069800 19474123.400000
95.085400 12511069.400000
97.101200 1843493.200000
107.085400 42391413.900000
121.101100 28406448.800000
135.116700 24672672.600000
163.148100 1070029759.600000
180.174600 204183199.600000

>ms2
55.054100 1082535.100000
57.069900 995866.600000
67.054200 22329348.600000
69.069700 4375232.400000
77.038400 975881.100000
79.054200 19883418.600000
81.069800 195236727.100000
83.085500 6692170.600000
91.054100 2840813.700000
93.069800 41795136.500000
95.085500 28023639.300000
97.101200 4327830.100000
107.085500 80437983.700000
109.101200 1488525.500000
121.101100 59653261.700000
135.116700 44562233.100000
163.148100 905765987.000000
180.174600 74620640.800000

>ms2
57.069900 1154494.100000
65.038500 995488.900000
67.054200 40511884.300000
69.069800 13598712.300000
71.085400 507423.700000
77.038400 1803939.800000
79.054200 57262799.300000
81.069800 240715236.400000
83.085500 14300707.400000
91.054100 9249310.600000
93.069800 91333807.100000
95.049100 3015930.000000
95.085500 57133421.500000
97.101200 4755229.600000
105.044700 1542237.600000
105.069900 3566033.300000
107.085500 127210233.600000
109.064700 1119754.200000
109.101100 3577688.300000
121.101100 98869870.300000
135.116700 65895073.400000
161.132300 506700.900000
163.148100 502367225.500000
180.174600 11942460.300000

>ms2
53.038400 327409.500000
55.054100 248987.300000
57.069800 2092299.900000
65.038500 2409171.300000
67.054200 59407711.000000
69.069800 18344618.800000
71.085500 317333.100000
77.038400 4982339.600000
79.054200 114945114.000000
81.069800 230097169.300000
83.085500 12593381.400000
91.054200 25737400.200000
93.069800 146722697.900000
95.049100 11489909.500000
95.085500 78130915.500000
97.101200 5164943.800000
105.044700 4182267.200000
105.069900 9525372.000000
107.085500 161256238.000000
109.064800 2919518.200000
109.101100 5937309.700000
119.060400 1259051.900000
119.085400 2071993.000000
121.101100 102784118.200000
135.116700 69450626.300000
161.132300 640466.300000
163.148100 229616668.000000
180.174400 1485206.500000

