>compound EQ52235925
>parentmass 326.0855000000001
>ionization [M+H]+
>formula C18H13ClFN3
>rt 390.000000
>profile orbitrap
#smiles_iso CC1=NC=C2N1C3=C(C=C(C=C3)Cl)C(=NC2)C4=CC=CC=C4F
#smiles_can CC1=NC=C2N1C3=C(C=C(C=C3)Cl)C(=NC2)C4=CC=CC=C4F
#inchikey DDLIGBOFAVUZHB-UHFFFAOYSA-N
#pubchem_id 4192
#mb_accession EQ302301,EQ302302,EQ302303,EQ302304,EQ302305,EQ302306

>ms2peaks
291.115500 2607558.300000
325.076700 1067313.200000
326.085700 811557014.300000

>ms2peaks
209.064000 923737.300000
244.032600 14514670.700000
249.082100 2981901.600000
250.090300 918547.200000
258.048200 2128515.600000
285.059100 7822763.400000
290.109000 14894919.800000
291.116800 48034469.000000
306.079600 1000625.400000
309.059800 2332316.700000
325.078800 786793.400000
326.085600 722258843.500000

>ms2peaks
95.060400 1009176.600000
128.049500 345955.600000
129.057300 2017485.200000
137.015200 370470.300000
148.055700 366978.900000
152.026200 1026708.100000
164.026100 3903446.300000
169.076100 1100246.200000
170.083900 3028901.500000
173.051400 332958.900000
183.060600 1087904.000000
184.068200 1682684.600000
189.021500 3318672.500000
189.082300 3173773.500000
195.079600 335480.100000
196.068200 2319182.200000
203.073700 340629.500000
205.052900 5624453.100000
208.056000 7910671.000000
209.063700 27863717.600000
214.077400 2460071.700000
215.085500 1851092.800000
217.021600 1283333.800000
222.071200 3165839.300000
223.079400 6033042.200000
224.026500 968516.200000
227.074200 348629.400000
229.076500 358048.000000
230.048100 9159004.600000
231.037300 2455514.500000
231.055500 2602580.600000
232.032500 1206082.500000
236.086800 355116.100000
243.092300 1290508.200000
244.032600 86511548.500000
245.040500 2995583.000000
249.082400 36393584.500000
250.090200 22349066.800000
255.069200 928647.000000
257.039900 2962247.200000
258.048200 15851498.600000
263.098000 1956215.600000
264.106000 898201.700000
265.052900 6821245.800000
268.033100 1088666.000000
270.102700 4824879.400000
271.110300 1793357.100000
272.050900 415099.700000
273.059300 561949.300000
273.082700 395593.100000
274.090600 1406015.900000
276.092700 372683.600000
282.049000 371007.400000
283.043100 453532.100000
284.051200 4466503.600000
285.059100 46560428.700000
289.053100 2240424.200000
289.101000 1351448.000000
290.109000 57563557.400000
291.116700 325781885.500000
297.059500 2482805.800000
298.066500 436608.100000
299.074700 4384195.800000
306.079500 6193462.700000
309.059100 18076400.400000
311.061800 3314424.300000
325.077900 7201030.400000
326.085700 254247033.500000

>ms2peaks
55.041800 374734.400000
95.060400 1928504.800000
102.046500 1136568.400000
105.057400 285883.200000
109.044900 395502.400000
121.044700 370823.500000
122.040000 370913.700000
128.049700 1647257.100000
129.057300 6992866.600000
133.052400 438326.000000
137.015300 1012650.800000
146.060200 286811.200000
148.055600 1465427.100000
152.026300 1796464.900000
155.060500 459414.000000
162.010600 1167857.700000
162.071600 487289.100000
164.026100 4770452.200000
169.076200 2400687.700000
170.083900 5401629.400000
173.050900 423161.100000
174.058800 781791.300000
178.042100 1033802.900000
183.060700 2800419.000000
184.068500 3325355.800000
187.067200 266924.000000
189.021500 10626427.900000
189.082400 2660010.200000
195.079400 840779.000000
196.068300 5321260.900000
196.087200 302808.600000
198.071600 430516.500000
203.037000 1111831.100000
203.073500 747996.200000
204.045100 263420.600000
205.053000 4982817.500000
208.055900 12083927.700000
209.063700 55245785.300000
210.071400 1189922.900000
212.063600 332326.900000
214.077700 2208200.200000
215.085300 2593416.321000
217.021700 2752468.500000
220.075700 281302.000000
221.063400 295905.200000
222.071300 8769681.700000
223.079300 22341036.400000
224.025900 1362160.800000
224.087300 329751.900000
226.066300 2824466.100000
227.074000 2117642.900000
229.076100 2167734.100000
230.048200 6651212.200000
230.083700 1504026.700000
231.038000 1474224.600000
231.055900 3470282.900000
232.032800 1523138.000000
233.064000 276418.700000
236.074400 285179.100000
236.087200 1286934.700000
237.095000 440069.200000
238.042100 1536597.000000
238.066400 980217.000000
240.082100 487804.100000
242.017200 403086.400000
243.091900 3435092.900000
244.032600 53536312.900000
245.040500 3516846.400000
249.082400 55663762.600000
250.090300 33136338.200000
251.098100 937019.100000
255.069200 4486170.600000
256.032800 326875.700000
256.076500 303549.200000
257.027900 1652352.600000
257.040300 2143188.000000
258.048200 19219866.000000
263.098200 4208337.800000
264.106100 1406168.500000
265.052900 10505315.000000
268.032200 1966464.600000
270.102700 6465312.400000
271.110600 2645312.500000
272.051200 373259.200000
273.059500 1100045.500000
273.082400 1545228.600000
274.089500 1464281.800000
275.085400 314050.500000
276.093400 2336641.600000
279.068600 445929.800000
282.049100 877383.500000
283.043900 983954.600000
284.051200 9404983.400000
285.059100 30860709.400000
288.094300 294593.900000
289.052900 6274331.200000
289.101300 1147281.300000
290.109100 31165990.300000
291.116800 254513911.700000
297.058700 3229366.900000
298.066500 309316.800000
299.074800 3298646.100000
304.063600 323969.000000
306.079400 4212061.800000
307.043600 444802.300000
309.059100 19918938.400000
311.062100 3883605.300000
325.077900 9183809.200000
326.085700 47491595.800000

>ms2peaks
54.034000 388347.900000
55.041800 462491.200000
68.049500 363183.800000
91.054400 240508.600000
95.060400 4152816.200000
102.046500 6731410.100000
105.057500 842327.800000
108.056000 296890.400000
109.044900 466151.800000
113.039800 450221.400000
115.054300 1653687.700000
121.044800 2652400.400000
122.040200 800283.100000
123.035400 865682.300000
127.041800 474304.900000
128.049600 6944488.700000
129.057400 19934294.400000
133.052400 2963039.000000
136.007900 213228.700000
137.015400 4998249.200000
138.010700 928431.700000
139.006000 356496.300000
140.049500 328454.100000
142.065400 960730.800000
143.073100 486847.500000
144.044400 276729.300000
146.040200 1641586.500000
146.060100 2425398.700000
147.048100 2215157.700000
148.055900 2926340.400000
151.042700 292684.300000
152.026300 4255877.900000
153.045000 1213393.700000
154.052800 699230.800000
155.060500 2569669.100000
160.055900 843920.700000
160.075900 300262.100000
162.010700 5195799.000000
162.035300 378920.800000
162.071500 1043388.500000
163.005800 3153639.900000
163.018200 2147484.100000
164.000900 838899.000000
164.026300 6286312.200000
165.070100 295204.000000
168.057400 321958.900000
168.068500 853263.300000
169.076200 2663288.000000
170.083900 6392509.900000
171.055500 396968.100000
173.051000 1748072.700000
174.059000 1575721.800000
176.026500 453248.500000
177.021400 1293579.400000
177.057400 2192143.000000
178.005700 236655.200000
178.042200 1513512.100000
179.037700 316191.100000
180.021200 1604117.400000
180.057000 971478.500000
181.016300 304109.700000
181.044300 337293.300000
182.052900 2128249.000000
183.060600 14448489.500000
184.068500 5232118.200000
185.071600 266955.700000
186.047700 2570377.900000
187.066900 471707.900000
189.021500 19298640.400000
189.082700 1772996.300000
194.052300 210786.900000
195.079600 561713.600000
196.068400 10750645.700000
196.087200 1645509.700000
198.071700 1509629.400000
200.063100 469738.800000
201.057200 817362.700000
202.065400 1826719.900000
203.037300 1340374.400000
203.073200 3901240.700000
204.045100 401397.500000
204.080900 1372505.600000
205.053100 2219338.400000
208.055900 16401932.100000
209.063700 74831299.300000
210.071300 3221571.100000
211.079500 1172504.600000
212.063800 306378.400000
214.078000 1212324.400000
215.085700 2663168.700000
217.021700 6915971.300000
220.076100 1557868.800000
221.063700 1282992.400000
222.071600 30141791.400000
223.079400 49764417.600000
224.026300 2929338.400000
224.086900 2186908.800000
226.066400 6532168.200000
227.074200 5120077.200000
228.068600 286035.400000
229.076300 6707028.100000
230.048300 2438895.600000
230.084200 3532139.100000
231.037700 359282.200000
231.055900 3801884.100000
231.091600 1609149.800000
232.032400 1030100.900000
232.055800 433164.900000
233.063500 1711222.800000
234.071200 418971.800000
235.079300 1044822.800000
236.074800 1191476.700000
236.087300 1709228.700000
237.082400 1064881.000000
237.095300 2648188.200000
238.041700 1729816.000000
238.066500 2088537.800000
240.082400 825713.200000
241.021600 1226882.300000
242.017300 999638.200000
242.083800 1064508.400000
243.092000 5324095.800000
244.032700 13439248.100000
245.040500 3660034.700000
246.070600 299120.000000
247.067100 450449.600000
248.074500 454034.500000
248.086300 356323.300000
249.082500 83961925.100000
250.090300 26319460.400000
251.098100 1714172.700000
253.076400 1044182.700000
255.069200 18221136.800000
256.032400 1218532.900000
256.076300 366799.800000
256.087600 451937.100000
257.027900 3432639.600000
257.040600 2763056.100000
258.048300 18733078.200000
259.043200 310186.500000
260.027300 201069.100000
261.082500 1231320.700000
262.090300 377419.100000
263.098300 4366438.900000
264.106200 1591304.600000
265.053000 8604921.800000
268.032800 1500789.500000
269.040200 368310.900000
270.035300 348259.500000
270.102700 4849876.500000
271.043100 762647.800000
271.110100 2243140.800000
272.052300 460383.200000
273.059400 859395.200000
273.082600 3006649.800000
274.090100 1747617.500000
275.085800 415230.300000
276.093600 5433447.700000
279.068700 309941.600000
282.048400 1075102.900000
283.043900 3893654.300000
284.051400 10837812.000000
285.059100 9593116.200000
288.093900 1446405.600000
289.030300 754666.300000
289.053000 15057643.900000
289.100700 1182912.000000
290.108900 11751405.400000
291.116800 88678424.100000
297.059200 1840290.600000
298.067700 270326.800000
299.074600 1025438.300000
304.063300 433786.800000
306.079600 1165487.500000
307.043400 4518008.800000
309.059200 8960289.200000
310.052800 380285.100000
311.062300 2818250.100000
325.077700 5237423.400000
326.085800 3085934.500000

>ms2peaks
54.034000 902648.700000
55.041800 821613.700000
68.049600 861077.600000
75.023000 2862452.665000
91.054100 1553966.500000
95.049200 904972.301300
95.060500 3026301.200000
102.046500 14909040.800000
105.057400 812922.500000
108.055600 187386.700000
109.044800 1153777.600000
113.039800 2145745.800000
115.054300 2045866.100000
119.049200 2693857.434000
120.037000 1560673.793000
121.044900 3657543.700000
122.040000 2140291.100000
122.999600 900356.301400
123.035300 1902838.600000
127.041700 3555103.500000
128.049600 12730024.300000
129.010300 1524130.685000
129.044800 3255712.134000
129.057300 18840252.900000
133.044800 290596.900000
133.052300 4100651.400000
134.040100 840204.634300
136.007800 321391.600000
137.015400 5442405.500000
138.010600 412048.800000
139.005700 1745678.700000
140.049600 986462.200000
142.065400 1176207.600000
143.073100 806222.300000
144.044800 1025425.100000
146.040100 2862884.100000
146.060200 3269982.200000
147.048000 3247871.000000
148.055800 2133268.200000
151.042700 470680.500000
152.026100 2956181.800000
153.044900 2122805.800000
154.005400 758797.212900
154.039900 893355.105400
154.052700 956382.300000
155.060300 3101931.500000
158.052900 857429.325100
160.055800 447135.400000
161.047200 1041118.607000
162.010600 6646999.700000
162.034800 349330.400000
163.005800 7104952.300000
163.018300 4130015.600000
163.054300 823901.843500
164.001100 2380482.700000
164.026100 3430374.100000
164.050800 737618.008600
164.062200 1116932.548000
165.069800 381840.200000
168.057300 773232.200000
168.068000 1586791.000000
169.076100 1910677.400000
170.052500 850217.021800
170.083900 2551464.900000
171.055200 873274.400000
173.050900 1651841.100000
174.059000 1010018.800000
176.026600 383798.300000
176.062300 793793.141700
177.021400 1869151.100000
177.057400 3201015.700000
178.005700 1251583.100000
178.042000 994990.600000
179.037900 554884.100000
180.021200 2799848.900000
180.057000 2038212.500000
181.016700 1108182.600000
181.044600 1621269.700000
182.052800 6760227.800000
183.060600 23856369.800000
184.068600 2693487.700000
185.071100 397393.400000
186.047700 8089948.300000
187.066900 402646.500000
189.021500 13042641.100000
190.065300 1096398.017000
193.065100 1312855.131000
194.052600 357716.000000
195.079300 435677.100000
196.068400 12890855.200000
196.087200 1392409.400000
198.071800 1061659.300000
200.063100 1973482.500000
201.057500 3466102.800000
202.065100 5002021.000000
203.037300 1169049.200000
203.072900 9718439.600000
204.080900 2450270.600000
205.053100 412224.700000
208.055800 22078032.800000
209.063700 44111615.400000
210.071500 2972762.000000
211.079100 272356.700000
214.042700 772800.629400
214.077400 311518.500000
215.085900 1664951.200000
217.021600 7856451.000000
220.076000 4181729.600000
221.063300 3183905.600000
222.071500 62356868.500000
223.079300 29872950.100000
224.026300 2365232.200000
224.087100 2060651.600000
226.066500 4254964.000000
227.074200 2755780.800000
228.067900 1647599.300000
229.076300 10671039.000000
230.048700 793974.200000
230.083400 2112483.700000
231.055700 1113555.200000
231.091800 1632876.700000
232.031900 374550.900000
232.055800 2130649.400000
233.063800 1965337.900000
234.071800 1101216.300000
235.079100 1390163.900000
236.074600 1594610.800000
236.087400 1540731.600000
237.083300 643221.800000
237.095100 2356895.900000
238.042300 1505011.700000
238.066600 1226404.500000
240.082300 1172966.600000
241.021500 1256885.700000
242.017000 1286221.600000
242.084000 2288612.400000
243.025000 775125.168300
243.091900 4433020.500000
244.032600 2144140.000000
245.040600 1726507.500000
246.071900 784311.700000
247.066300 1067699.400000
248.074900 363973.100000
248.087000 350914.700000
249.082400 69691085.700000
250.090200 8513850.400000
251.097400 550266.100000
253.076300 3827628.700000
255.069100 13436794.000000
256.032200 1586348.100000
256.086900 1025880.200000
257.027900 3233273.000000
257.040500 2069764.500000
258.048200 8900211.700000
259.043600 330500.700000
260.027300 199841.700000
261.082600 1166080.600000
262.090600 735288.000000
263.098500 2222414.100000
265.052900 3496733.900000
268.032200 1178338.800000
269.039900 300527.800000
270.035300 253719.800000
270.102700 3532245.800000
271.042900 451566.400000
271.110200 353763.800000
273.082500 2814885.700000
274.090100 253318.700000
275.085300 284902.800000
276.093300 2634337.300000
282.047400 258648.800000
283.043500 5790894.600000
284.051500 3044516.800000
285.058900 1647115.400000
288.093500 1073162.900000
289.029800 1380726.200000
289.052800 14569118.300000
290.108700 3395721.100000
291.116800 9867662.300000
297.059600 790836.300000
304.064100 446899.600000
307.043400 5586784.100000
309.059800 1885352.100000
310.053600 349020.700000
311.062200 256844.700000
325.077700 435085.100000

