>compound EQ52363696
>parentmass 282.0736
>ionization [M+H]+
>formula C14H10F3NO2
>rt 876.000000
>profile orbitrap
#smiles_iso C1=CC=C(C(=C1)C(=O)O)NC2=CC=CC(=C2)C(F)(F)F
#smiles_can C1=CC=C(C(=C1)C(=O)O)NC2=CC=CC(=C2)C(F)(F)F
#inchikey LPEPZBJOKDYZAD-UHFFFAOYSA-N
#pubchem_id 3371
#mb_accession EQ302101,EQ302102,EQ302103,EQ302104,EQ302105,EQ302106

>ms2peaks
195.067600 382597.900000
244.056400 620427.100000
263.056200 466544.900000
264.063000 382065423.400000
282.073400 75305570.100000

>ms2peaks
167.072600 837780.000000
195.067400 492554.500000
216.061800 545677.500000
244.057000 2686233.300000
263.054400 532356.800000
264.062900 484586868.200000
282.073600 2393403.700000

>ms2peaks
167.072800 2540123.600000
195.067700 3716977.400000
196.055400 1024656.300000
216.061900 3005948.800000
244.056900 26799743.000000
263.055400 1027098.000000
264.063000 412001576.900000

>ms2peaks
166.064800 513499.900000
167.072800 9781506.500000
195.067800 15911080.600000
196.055600 5083047.000000
196.075400 1757711.000000
197.063600 499609.900000
214.066300 899624.200000
216.061900 16591581.000000
224.050500 1082520.900000
235.060600 1301569.700000
236.067300 457364.900000
242.060700 736096.300000
244.056900 68748279.500000
263.055500 3382592.900000
264.063000 327680000.900000

>ms2peaks
92.025700 162678.300000
95.049100 454165.200000
130.028800 172265.600000
139.053900 178317.200000
141.014200 251846.900000
166.065000 2231223.300000
167.072900 52398891.400000
169.064800 1720229.300000
177.057100 1466775.000000
178.065100 1507653.900000
179.060400 461832.400000
185.063600 159277.700000
187.055900 816700.500000
188.043100 488835.300000
194.059900 1546874.200000
195.067800 40553091.400000
196.055600 18393747.500000
196.075300 5716340.100000
197.051100 277431.000000
197.063500 2303702.800000
204.055600 450792.400000
214.066400 2811240.300000
215.053800 1998213.500000
216.061900 55848222.900000
224.050500 2302413.800000
224.061400 195854.900000
226.046100 1503438.700000
227.057700 694801.200000
229.053300 438502.800000
234.052200 334155.200000
235.060300 6725376.900000
236.069200 651230.300000
242.061200 1704370.000000
243.048800 1190071.100000
244.056800 93186615.900000
246.052200 1382915.800000
247.043700 193381.600000
262.067400 458936.700000
263.055200 11122258.700000
264.063000 143716338.900000

>ms2peaks
65.038600 173267.300000
77.038600 189551.300000
92.025600 926439.200000
95.049100 1187131.600000
130.028700 532102.300000
139.054100 1866064.300000
141.014600 916671.500000
151.054100 360513.000000
166.065100 11447261.700000
167.072900 113053962.000000
169.064600 4180832.900000
170.059800 653590.200000
177.057200 4016946.400000
178.065100 2345806.700000
179.060400 849569.200000
185.063800 1307451.300000
187.055300 4276819.200000
188.043100 2405762.200000
189.050700 1168188.845000
194.060000 4131355.500000
195.048500 3940432.013000
195.067800 36917735.400000
196.055600 25038129.900000
196.075100 4677528.800000
197.050900 1265970.500000
197.063300 4745484.900000
204.055600 1134396.700000
214.066300 3558554.200000
215.054000 6554157.000000
216.061900 69211924.100000
224.050500 1831353.400000
224.061000 214653.600000
226.046200 2687963.800000
227.057600 1255924.100000
229.053300 424593.900000
234.052300 806457.700000
235.060300 15245800.200000
236.068300 346555.600000
242.060700 921785.000000
243.049000 1392574.000000
244.056800 42600762.100000
246.052500 1393633.000000
247.044200 180211.300000
263.055200 11608269.300000
264.063000 31188532.500000

