>compound EQ52720159
>parentmass 285.9718
>ionization [M+H]+
>formula C6H8ClN3O4S2
>rt 102.000000
>profile orbitrap
#smiles_iso C1=C(C(=CC(=C1Cl)S(=O)(=O)N)S(=O)(=O)N)N
#smiles_can C1=C(C(=CC(=C1Cl)S(=O)(=O)N)S(=O)(=O)N)N
#inchikey IHJCXVZDYSXXFT-UHFFFAOYSA-N
#pubchem_id 67136
#mb_accession EQ325701,EQ325704,EQ325705,EQ325706

>ms2peaks
94.028700 1292.600000
96.983800 1025.400000
99.995000 1382.900000
113.974300 1174.200000
114.010300 2915.500000
115.989800 5476.300000
123.994500 2019.800000
125.002500 6367.800000
127.989600 1323.300000
128.997700 1802.900000
129.021400 1045.400000
130.005400 1369.500000
131.984900 2289.500000
139.989700 945.900000
141.951000 6305.800000
143.984900 4307.000000
155.984300 1955.800000
157.016200 6967.800000
158.000200 5339.100000
169.946300 1390.600000
173.995600 1317.800000
187.956400 7029.500000
204.983300 387608.100000
205.990400 2197.900000
220.978100 271020.100000
221.961600 6224.500000
222.993600 6653.600000
237.974800 10111.600000
268.945100 660382.700000
269.928800 210763.000000
285.972100 236558.100000
288.959600 7611.200000
298.955400 4683.500000
300.971000 1899.000000
304.965200 7052.400000

>ms2peaks
62.015100 1146.400000
62.999600 1179.000000
63.022900 1027.900000
63.985200 28670.600000
64.018200 1727.000000
65.025900 1467.400000
66.033800 9050.700000
67.041600 3851.600000
68.013000 1832.900000
68.049500 2162.700000
69.044700 6125.500000
70.052500 8325.200000
71.036400 1304.900000
72.983900 8950.000000
76.018200 3887.600000
77.002400 943.900000
78.033800 38494.300000
78.940400 1746.700000
79.041600 1668.200000
80.013100 4436.200000
82.052600 1868.300000
84.983900 838.700000
85.979300 1445.500000
86.963300 1847.500000
86.999600 31662.400000
87.994800 8976.500000
88.018100 1008.700000
89.026000 37175.500000
90.010200 1337.000000
91.029100 843.900000
92.013100 1328.300000
93.044700 64111.100000
94.028800 17409.400000
94.052500 13216.800000
95.990200 1878.800000
96.044500 12782.300000
96.984000 22643.800000
97.039700 11097.600000
97.979300 22621.900000
98.999700 2110.500000
99.994900 12331.900000
101.002700 30096.100000
102.010500 26424.700000
102.940400 5498.500000
104.956100 55370.200000
105.044800 41085.300000
106.028800 12498.500000
106.052600 48087.500000
106.982400 9410.500000
107.036700 4272.300000
107.990300 8691.900000
108.998200 1874.600000
109.039700 9561.200000
110.047500 6549.900000
111.055400 3975.600000
111.994900 21667.800000
112.979000 4163.800000
112.990000 1058.000000
113.002900 1195.700000
114.010500 206854.700000
114.994500 17529.700000
115.989700 13000.800000
116.955800 1381.200000
117.021500 1625.200000
121.039600 65003.200000
122.047500 27917.500000
123.994800 36756.900000
124.009000 7125.800000
124.039300 74479.100000
125.002600 17156.200000
125.034700 7366.000000
125.997900 1947.600000
127.005700 5301.700000
127.989800 6856.200000
128.997600 38900.000000
129.021400 265767.500000
130.005500 201709.600000
131.967000 67731.500000
131.984700 15770.200000
132.951200 1506.700000
138.042500 1361.000000
139.005900 9074.000000
139.989800 193220.200000
140.997600 20912.000000
141.021400 19692.600000
141.951400 66563.700000
142.005500 281918.700000
143.967100 4117.500000
143.984600 4292.500000
145.016400 10741.600000
152.001000 7330.700000
153.992600 1768.000000
155.000600 24617.400000
155.984700 181188.400000
157.016400 438891.800000
158.000300 259476.200000
158.977900 5340.900000
159.032200 9107.300000
159.961600 7510.600000
160.016000 89623.700000
169.946100 32743.700000
173.011300 292229.300000
173.995200 397204.200000
185.001500 22038.500000
187.956800 146276.700000
188.964400 11052.300000
192.983700 6419.800000
203.951800 57666.200000
204.983400 177188.400000
205.967500 1586.300000
220.978200 230343.600000

>ms2peaks
50.015200 1049.700000
52.018100 3132.800000
54.033900 980.800000
56.049500 1100.600000
61.979200 5749.600000
62.015100 4098.000000
62.963200 1511.700000
62.999600 1247.900000
63.023000 4108.500000
63.985200 40115.300000
64.018200 3814.400000
65.026000 2077.700000
66.033800 25536.700000
67.029000 916.400000
67.041600 16065.200000
68.013100 4149.600000
68.049400 1250.600000
68.979400 1781.400000
69.044700 5563.200000
70.052500 4073.500000
72.983900 33107.100000
74.999600 6261.500000
76.018100 18184.900000
77.002200 7314.300000
78.033800 74089.000000
78.940400 4015.800000
79.017800 2164.900000
79.029100 1481.900000
79.041600 3760.100000
80.013100 10682.700000
80.049600 1668.500000
81.033500 1057.900000
82.028800 5647.300000
82.052600 3897.900000
84.974200 1763.600000
84.984000 8003.200000
85.979200 9167.700000
86.999600 54932.600000
87.994800 13721.800000
88.018200 1963.700000
89.026000 159118.400000
90.010500 7783.400000
90.033700 1629.700000
91.029100 3212.700000
92.013100 5179.300000
92.036800 1468.400000
93.044700 94313.700000
94.028700 30575.800000
94.052500 17423.000000
95.990200 3641.700000
96.044400 13091.400000
96.984000 70183.900000
97.039600 6547.400000
97.979200 59906.900000
98.984400 1092.600000
98.999600 3390.600000
99.994900 44351.100000
101.002700 55427.700000
102.010500 76133.800000
102.940400 12377.600000
104.956000 59644.100000
105.044700 36591.200000
106.028700 14160.500000
106.052600 33979.000000
106.982400 30726.100000
107.036600 1970.900000
107.990300 8455.800000
108.031700 1017.900000
108.998000 3476.000000
109.039600 14908.600000
110.047500 3634.900000
110.963300 3636.900000
111.031500 1836.100000
111.055200 9611.100000
111.994800 64245.800000
112.978900 9815.400000
112.990000 7155.900000
113.002700 3446.300000
114.010500 156758.300000
114.994500 13594.400000
115.989700 8376.900000
118.005300 1932.100000
120.007900 3155.400000
121.039600 29757.600000
122.047400 14919.200000
123.994900 62984.800000
124.008900 8406.200000
124.039300 71330.100000
125.002600 25257.100000
125.034500 4842.500000
125.997900 3566.600000
127.005800 16481.600000
127.989800 29420.100000
128.997500 25180.000000
129.021400 274149.700000
130.005400 212804.400000
131.000800 1480.800000
131.967000 29111.000000
131.984700 41846.200000
138.042400 959.900000
139.005700 12021.900000
139.989800 151449.100000
140.997500 13397.600000
141.021400 6170.800000
141.951300 38577.300000
142.005400 302359.200000
142.959000 1426.100000
143.984700 1486.800000
145.016200 13408.500000
152.001000 5528.000000
153.992700 1488.600000
155.000600 44133.800000
155.984600 184359.500000
157.016300 127668.500000
158.000300 61527.300000
159.032500 1831.900000
160.015900 85390.200000
169.946200 9652.000000
173.011200 315355.300000
173.995200 328277.000000
185.001600 3492.900000
187.956700 22601.000000
188.964200 5052.500000
203.951800 6415.700000
204.983400 10781.300000
220.978200 23285.300000

>ms2peaks
50.015200 4457.000000
51.010300 859.400000
51.023000 1201.500000
52.018200 7586.200000
53.002300 1019.800000
54.034000 1159.300000
56.049500 1200.900000
60.984000 827.800000
61.007200 1673.700000
61.979200 16333.500000
62.015100 15064.400000
62.963300 3774.900000
63.023000 10786.000000
63.985100 51248.000000
63.994900 4915.800000
64.018100 9463.100000
65.026000 11325.100000
66.033800 43155.100000
67.029100 1732.900000
67.041700 25768.200000
68.013100 13069.600000
68.049500 743.000000
68.979400 6412.200000
69.044700 1605.300000
70.052500 1605.600000
72.983900 65912.300000
73.979200 1595.100000
74.999600 16184.800000
76.018200 46440.700000
77.002200 26648.700000
78.033800 109831.200000
78.940300 4522.200000
79.017900 5588.400000
79.029200 1904.300000
79.041700 8210.400000
80.013100 13643.400000
80.049400 4070.700000
81.033600 4024.800000
81.044700 1403.300000
82.028800 12422.900000
82.052600 5238.500000
84.974300 3303.300000
84.983900 20605.900000
85.979200 32421.900000
86.999600 67080.700000
87.994900 19548.600000
88.018200 4875.700000
89.026000 356727.300000
90.010500 14828.900000
90.033800 9224.900000
91.029100 5485.700000
92.013100 6357.900000
92.036900 7613.600000
93.044700 88933.800000
94.028700 31265.300000
94.052500 11159.400000
95.990200 4014.100000
96.044400 11119.600000
96.984000 121276.800000
97.979200 62364.000000
98.984200 1775.500000
98.999500 6227.500000
99.994900 91264.200000
101.002700 49703.200000
102.010500 95476.000000
102.940400 11000.800000
104.956100 60131.400000
105.044700 26751.500000
106.028600 5861.000000
106.052600 21702.800000
106.982400 66626.100000
107.036600 3493.900000
107.990300 9731.200000
108.998100 868.000000
109.039500 9375.600000
110.047400 4583.600000
110.963200 13528.800000
111.031500 5385.400000
111.055300 5510.600000
111.994900 85479.900000
112.978900 12433.300000
112.990100 19354.600000
113.002600 4538.000000
113.974100 6767.100000
114.010500 103053.200000
114.994500 9513.700000
115.989800 3926.800000
117.021200 1322.300000
118.005400 12034.000000
119.024000 1091.000000
120.007900 6256.400000
121.039600 7253.400000
122.047400 4284.900000
123.994900 60490.900000
124.009000 4902.800000
124.039400 38221.200000
125.002700 24723.400000
125.997700 1650.700000
127.005800 27161.200000
127.989800 40332.900000
129.021400 176091.800000
130.005500 142541.200000
131.000900 6947.300000
131.966900 8717.800000
131.984700 47075.900000
139.005900 8428.900000
139.989800 59652.300000
140.997800 7686.700000
141.951400 16972.500000
142.005500 167259.300000
142.959200 1416.900000
145.016300 19261.800000
152.000800 4694.600000
155.000700 42105.900000
155.984600 109302.600000
157.016300 21673.900000
158.000400 8238.500000
160.016000 42627.300000
169.946900 1112.800000
173.011200 181136.300000
173.995200 200489.100000
188.964500 1158.700000
220.978500 1016.500000

