>compound EQ53826392
>parentmass 366.1118000000001
>ionization [M+H]+
>formula C16H19N3O5S
>rt 138.000000
>profile orbitrap
#smiles_iso CC1([C@@H](N2[C@H](S1)[C@@H](C2=O)NC(=O)[C@@H](C3=CC=C(C=C3)O)N)C(=O)O)C
#smiles_can CC1(C(N2C(S1)C(C2=O)NC(=O)C(C3=CC=C(C=C3)O)N)C(=O)O)C
#inchikey LSQZJLSUYDQPKJ-NJBDSQKTSA-N
#pubchem_id 33613
#mb_accession EQ308301,EQ308302,EQ308303,EQ308304,EQ308305,EQ308306

>ms2peaks
70.028700 30036.900000
70.065100 303718.900000
86.005800 30096.300000
96.044400 32879.700000
114.000700 6148421.400000
116.070500 93438.600000
122.059900 32208.100000
128.070500 29433.500000
134.035700 13581.100000
137.005200 71418.800000
139.021300 61128.700000
139.086500 12842.000000
142.049900 103121.600000
160.042600 1268498.400000
165.065900 42681.100000
167.081400 82779.500000
180.047600 410369.900000
183.076200 56268.100000
185.092200 17505.100000
190.049800 340796.000000
193.060900 140116.200000
206.026800 43598.500000
208.042700 10444486.900000
211.071200 1289115.700000
215.048400 140811.400000
216.102000 142150.900000
220.096600 15663.300000
227.048600 35302.800000
228.032400 43808.500000
234.021800 741049.400000
252.032000 13270.300000
255.043500 291328.600000
260.073800 13162.600000
275.084900 37633.900000
277.100700 283241.600000
280.064300 15354.500000
303.080200 150100.600000
303.096200 16750.600000
305.095300 750339.500000
321.090300 802067.300000
331.074800 179060.552400
349.085200 12238748.500000

>ms2peaks
58.994900 15519.200000
68.012900 15531.000000
70.028800 87593.600000
70.065100 1349090.300000
71.049100 41945.100000
72.080700 35393.500000
86.005900 136439.000000
94.065100 15607.500000
96.044300 236821.200000
98.060000 20102.400000
99.044000 71291.000000
107.049000 61168.200000
110.060000 37915.800000
113.034500 18278.400000
114.000800 15341036.200000
116.070500 115530.900000
122.060000 156690.300000
126.037100 38521.100000
128.052800 33646.200000
128.070400 67736.500000
133.028400 47985.900000
134.060000 1861344.300000
137.005500 453843.300000
137.071000 120260.800000
139.021300 106502.900000
139.086700 63589.800000
142.049900 110587.400000
146.060000 17902.200000
148.075700 53182.300000
153.037000 36361.000000
160.042700 1827838.200000
162.054900 336654.900000
163.021400 87902.600000
165.036800 38542.800000
165.065800 755709.500000
166.032500 17202.600000
167.081400 97992.200000
174.055000 69742.500000
178.032100 224044.200000
180.047700 1142663.000000
183.076400 103959.800000
185.092200 94053.700000
190.049900 1147307.700000
191.015900 85032.600000
193.060700 610629.600000
194.027000 53180.100000
206.027200 226408.100000
208.042700 1422916.000000
209.037800 66521.100000
211.054000 92853.900000
211.071300 1294820.800000
215.048600 152525.000000
216.102000 158152.100000
220.097200 32281.900000
222.046000 87979.200000
227.048800 97754.100000
234.021900 879579.300000
252.032500 84703.200000
255.043500 122973.500000
260.074000 15885.800000
275.084800 351597.100000
277.100300 150083.200000
293.095800 15624.600000
303.080300 190292.500000
303.097200 18008.800000
305.095400 198824.200000
321.090300 477325.400000
349.085100 192810.100000

>ms2peaks
58.994900 66309.200000
68.013100 84020.000000
68.049400 58995.600000
69.044800 16001.800000
70.065100 1461176.300000
71.049100 104556.800000
72.080800 18389.700000
74.006000 18998.200000
79.054300 16282.200000
81.033600 18220.800000
82.065200 58803.400000
84.080900 63481.600000
86.005900 684515.700000
87.026400 49258.800000
91.054200 13853.100000
94.065000 77120.100000
95.049100 40199.600000
96.044400 266468.100000
98.060100 20065.000000
99.044100 75932.900000
102.000900 17871.700000
106.065100 160918.200000
107.049100 309546.300000
109.076000 44011.900000
110.060000 42299.700000
111.091700 19374.000000
112.075800 15071.200000
113.034500 77317.300000
114.000800 12661030.500000
114.037100 1079866.500000
116.070400 35110.600000
119.049100 117131.300000
120.044500 12675.100000
121.064700 55910.900000
122.060000 429512.300000
126.037100 38419.500000
128.052900 38501.100000
128.070700 71938.800000
129.995800 15788.600000
131.049100 38768.600000
133.028400 128775.000000
133.052400 63672.400000
134.060000 5032461.300000
135.044000 90133.500000
137.005600 900643.500000
137.071000 588838.800000
139.021200 207954.400000
139.086600 58999.300000
141.048000 33693.200000
142.032400 50957.400000
144.055900 14616.200000
146.060000 105597.900000
147.068000 61512.500000
148.075500 46101.900000
151.021200 55398.700000
153.037000 114028.200000
160.042700 1244818.000000
161.071000 30594.500000
162.054900 594648.100000
163.021200 292664.600000
165.065900 1157506.100000
166.032100 71017.000000
167.081300 49702.400000
169.043000 39235.000000
174.055000 55374.300000
174.091300 35608.600000
178.032100 577688.200000
180.047700 637435.100000
181.043000 60556.200000
183.058500 12769.100000
183.076300 14645.200000
185.092300 23301.500000
188.016600 13502.900000
190.032500 36938.900000
190.049800 193170.200000
191.016100 41056.500000
193.060800 229148.400000
194.027100 38232.800000
201.041900 31964.100000
206.027000 206987.800000
207.034800 12847.500000
208.042700 78257.300000
209.037900 44986.500000
211.054300 57379.300000
211.071300 116766.700000
215.048400 14140.500000
222.045600 44588.100000
227.048600 18727.200000
234.022100 208487.800000
247.090000 13055.500000
275.085100 82854.300000
277.100200 19075.600000
305.095400 38872.100000

>ms2peaks
58.995000 182366.600000
65.038500 13636.500000
68.013000 203384.200000
68.049400 137654.800000
70.028700 121780.600000
70.065100 1459526.100000
71.049100 95615.700000
72.080700 33967.500000
74.005900 47201.200000
79.054300 76711.500000
81.033500 12810.800000
82.065200 113275.700000
84.080800 38519.500000
86.005900 1462340.600000
87.026300 123103.100000
89.038700 12865.400000
91.054200 66994.700000
94.065100 228294.900000
95.049000 81383.900000
96.044400 336016.700000
97.039700 30206.700000
98.060000 38022.900000
98.129300 18920.800000
99.044100 76023.300000
102.000800 16087.600000
105.033500 13688.800000
106.065100 502312.500000
107.049100 721380.400000
109.076000 84360.200000
110.060000 82688.400000
111.091800 39643.400000
113.034600 54373.000000
114.000800 11662788.300000
114.037100 1514838.700000
116.049400 20693.000000
116.070400 15769.200000
117.057200 40968.400000
119.049200 179367.300000
120.044400 43321.700000
120.056900 15841.300000
121.064700 86740.400000
122.060000 526247.000000
126.037100 56630.200000
128.052800 17824.400000
128.070700 54287.900000
129.995900 48326.900000
131.049200 49964.400000
132.044300 12750.600000
132.057000 35214.200000
133.028300 120449.100000
133.052300 122716.100000
134.036400 295690.700000
134.060000 5825816.900000
135.026200 13537.500000
135.044100 73931.500000
136.075800 14196.900000
137.005600 1127736.500000
137.070900 789844.500000
138.013500 18381.800000
139.021200 221839.100000
139.086600 55943.900000
141.048200 33487.000000
142.032300 89177.900000
144.055700 71552.200000
145.052000 18277.700000
145.064800 13816.100000
146.060000 175908.500000
147.026200 12476.100000
147.067900 69255.200000
148.075900 17835.100000
151.021300 117557.900000
153.036800 117474.400000
154.032600 12498.200000
160.042700 684843.200000
161.071100 34062.600000
162.054900 653407.800000
163.021100 410666.000000
165.065900 654143.100000
166.031900 60747.700000
167.081500 13678.200000
169.043000 30943.800000
173.071200 14181.800000
174.054800 70723.100000
174.091400 39747.700000
178.032100 590013.200000
180.047700 332064.200000
181.043200 63292.400000
185.091900 16368.300000
188.016500 39604.400000
190.032100 32640.600000
190.050100 35364.200000
191.016200 16937.700000
193.060600 47908.800000
201.042100 31508.300000
206.027100 143937.300000
208.042900 19639.300000
209.037800 17086.300000
211.053400 39900.400000
216.012200 13129.200000
216.101800 38832.900000
234.021600 81670.100000
275.085500 16570.900000

>ms2peaks
57.987200 15132.900000
58.995000 393670.400000
65.038600 37624.200000
67.054200 35114.100000
68.013100 416180.300000
68.049400 211028.200000
69.044800 48765.300000
70.028700 94577.500000
70.065100 1064596.000000
71.049200 66686.400000
74.005900 64711.100000
77.038600 12439.200000
78.046400 16697.600000
79.054200 245009.800000
81.033600 15948.900000
81.057400 11615.800000
82.065100 129043.000000
84.080800 40322.000000
85.039700 15173.200000
86.005900 3134567.100000
86.989900 16464.500000
87.026300 315873.800000
89.038600 55061.600000
91.054200 159502.300000
92.049500 33537.700000
94.065100 243390.200000
95.049100 208774.600000
96.044400 303472.800000
97.039600 31901.000000
98.060000 34470.200000
98.129200 17424.100000
99.044100 41893.000000
102.000600 10598.700000
103.054300 9009.500000
105.033600 54235.700000
105.044600 12622.600000
106.041300 75306.100000
106.065100 967321.800000
107.049100 1696104.300000
109.010600 39275.600000
109.076100 116865.600000
110.059800 90674.900000
111.091600 11894.000000
112.075500 12232.700000
113.034500 14152.800000
114.000800 7601667.400000
114.037100 1480756.600000
116.049400 95747.400000
117.057200 113549.400000
118.065000 8828.800000
119.049100 266174.300000
120.044400 52732.600000
120.056900 81977.100000
121.064700 45258.000000
122.060000 407174.200000
123.026300 9972.100000
123.043900 14620.600000
126.037200 35582.400000
128.052900 8477.200000
128.070700 35266.700000
129.995800 90710.100000
131.049200 51492.500000
132.044400 33420.000000
132.057000 35214.300000
133.028400 100913.000000
133.052200 290358.300000
134.036400 291888.000000
134.060000 4661634.200000
135.026200 35061.200000
135.044200 43393.500000
135.068200 8667.900000
137.005500 1159186.300000
137.070900 399581.000000
138.013200 13476.300000
139.021100 155699.200000
139.086500 17962.900000
141.048300 13036.300000
142.032400 55502.300000
144.044600 10031.400000
144.055700 195318.700000
145.052000 11061.100000
145.065000 10513.000000
146.060100 164589.800000
147.026000 7793.900000
147.067900 42277.500000
148.076400 9032.000000
150.012800 7725.700000
151.021200 142014.400000
153.036900 77463.700000
160.042600 187028.000000
161.071100 32556.100000
162.054900 415905.900000
163.021100 304872.200000
165.065600 131485.200000
166.031700 9553.900000
173.029400 12156.100000
173.071200 16379.000000
174.055100 47731.200000
174.091500 17346.400000
175.062600 11309.700000
178.032100 315318.500000
180.047800 57633.900000
185.071300 13057.500000
188.016900 33004.400000
189.024500 11809.300000
190.032200 35097.100000
201.041800 16020.800000
206.027000 34243.000000

>ms2peaks
57.987200 40825.800000
58.995000 817746.100000
62.005800 7788.200000
65.038600 82406.300000
67.054200 43490.600000
68.013100 601877.800000
68.049500 261272.300000
68.979300 41120.700000
69.044700 74559.700000
70.028800 72225.400000
70.065100 896764.900000
71.049100 54304.500000
72.080800 32862.900000
74.005900 43954.100000
77.038600 34469.800000
78.046400 81200.700000
79.054200 430493.600000
81.033500 20151.000000
81.057300 19676.200000
82.065200 79352.800000
84.080700 33294.100000
85.010800 15378.100000
85.039700 14247.300000
86.005900 4374293.700000
86.990000 44613.100000
87.026300 473845.500000
89.038500 141575.600000
91.054200 401302.500000
92.049400 53193.700000
94.065200 221936.800000
95.049100 505433.600000
96.044400 205773.700000
98.060000 8606.600000
99.044000 13453.200000
103.054200 12437.200000
105.033500 149192.800000
105.044800 62167.300000
106.041400 157118.300000
106.065100 1121027.900000
107.049100 2861690.900000
108.044500 9767.100000
109.010600 93514.000000
109.076100 121677.200000
110.060000 56135.200000
113.034500 9161.100000
114.000800 4139079.700000
114.037200 1022566.000000
116.049400 200027.000000
117.057200 246506.500000
118.065000 37691.400000
119.049100 241669.300000
120.044400 80880.600000
120.056800 98517.800000
121.064700 17599.600000
122.059900 191522.500000
123.025900 10836.400000
126.037000 22809.800000
128.070900 16282.000000
129.995700 67169.600000
131.036600 10340.600000
131.049100 33274.100000
132.044400 43391.000000
132.057200 10734.100000
133.028600 55896.600000
133.052200 481490.100000
134.036400 206623.600000
134.060000 3126805.600000
135.026400 46012.900000
135.067800 12778.700000
136.075600 9191.300000
137.005600 1112216.300000
137.070900 144097.300000
138.013500 15305.600000
139.021200 117178.600000
141.048000 9179.100000
142.032200 13206.600000
144.044400 33595.500000
144.055700 209260.800000
145.052300 32578.400000
146.060100 192963.800000
147.026200 8136.900000
147.067600 12563.100000
150.013700 8012.400000
151.021300 92341.600000
160.042700 32707.500000
161.070900 37132.800000
162.054900 206235.100000
163.021100 189968.200000
165.065800 13160.300000
173.030100 9353.900000
178.032100 88532.700000
185.071100 9584.100000
189.024600 10228.500000

