>compound EQ53826951
>parentmass 279.1339
>ionization [M+H]+
>formula C14H18N2O4
>rt 384.000000
>profile orbitrap
#smiles_iso CC1=C(C(=CC=C1)C)N(C(=O)COC)N2CCOC2=O
#smiles_can CC1=C(C(=CC=C1)C)N(C(=O)COC)N2CCOC2=O
#inchikey UWVQIROCRJWDKL-UHFFFAOYSA-N
#pubchem_id 53735
#mb_accession EQ310001,EQ310002,EQ310003,EQ310004,EQ310005,EQ310006

>ms2peaks
58.065300 1114548.400000
88.039300 6846865.200000
100.039400 884973.400000
102.055000 132817650.700000
105.069900 888167.400000
117.057300 1667171.700000
119.085500 7572714.300000
120.080800 3106891.700000
121.064900 9286923.300000
132.080700 31123396.500000
133.088700 21671780.100000
134.096500 2786951.300000
149.023500 3817325.100000
160.075900 9404589.600000
164.107100 7244371.500000
165.114800 922710.700000
191.093900 3204425.400000
192.102100 15658856.500000
219.113000 793016157.400000

>ms2peaks
58.065200 2483136.700000
77.038300 438042.300000
88.039400 28120624.700000
91.054200 935187.800000
93.069900 722534.300000
100.039400 1726836.000000
102.055000 87508634.200000
105.069900 2567087.100000
107.085500 778752.100000
113.034500 1938776.100000
117.057300 11169432.200000
118.065300 1908842.400000
119.085600 38517081.600000
120.080800 10846708.000000
121.064800 17205541.800000
130.065100 444204.100000
132.080900 117338419.200000
133.088700 162549202.800000
134.096500 11675094.500000
146.096700 752330.500000
147.091900 2455969.000000
147.104300 750674.400000
148.112400 557417.700000
149.023600 4004741.400000
160.075800 8300186.000000
160.099600 4234862.300000
164.107100 9781083.500000
165.114900 1601948.100000
175.086900 444900.100000
175.122900 2972031.200000
176.094200 1545102.800000
189.102900 1770644.500000
191.094200 19098739.700000
192.102100 6217694.900000
204.089400 397464.700000
207.113000 457223.900000
219.113000 358531189.500000

>ms2peaks
56.049600 357503.600000
58.065200 6501744.600000
70.028800 359070.200000
77.038300 355511.800000
79.054300 1003516.800000
88.039300 22144824.200000
91.054200 3518288.200000
93.069900 2163697.300000
95.049100 1242788.200000
100.039500 846392.600000
102.055000 47752711.600000
103.054100 440033.600000
105.070000 10955018.300000
107.085600 1759737.000000
113.034600 1152029.800000
115.054300 1302383.000000
117.057300 35148346.700000
118.065200 15692631.600000
119.085600 53786604.800000
120.080800 22427136.400000
121.064800 17025099.300000
123.080500 2274872.200000
130.065000 1197533.000000
131.073100 1213742.200000
132.080900 176240283.900000
133.088700 241536944.100000
134.096400 15809516.100000
135.104100 323244.800000
137.096100 890645.100000
145.076200 325730.800000
146.083800 283913.800000
146.096500 1761835.400000
147.091900 3688018.000000
147.104500 2220185.300000
148.075800 877504.000000
148.112200 937587.900000
149.023500 3526510.000000
160.075800 6494115.700000
160.099600 4944756.700000
164.107100 5364769.100000
165.115000 391475.600000
175.086600 346565.700000
175.123100 1823398.400000
176.094400 2053796.400000
189.102100 747191.800000
191.094200 12690974.000000
192.102100 1951206.600000
204.089500 310560.300000
219.113000 34833742.500000

>ms2peaks
56.049600 796377.100000
58.065200 7082366.700000
70.028800 364917.400000
77.038600 798653.800000
79.054300 2600192.900000
88.039300 13959365.000000
91.054200 8132393.500000
93.069900 5430775.000000
95.049200 2658050.000000
100.039400 381907.100000
102.055000 35948244.100000
103.054200 1911015.100000
104.062300 385410.800000
105.070000 20534017.200000
107.085500 2331974.900000
113.034600 369440.600000
115.054300 2474458.700000
117.057300 52149697.900000
118.065200 33471904.800000
119.085600 51567857.900000
120.080800 27303912.700000
121.064800 16451389.600000
123.080500 3666832.500000
130.065300 912901.500000
131.073100 2597450.900000
132.080900 253234770.700000
133.088600 200294453.600000
134.096400 15344664.200000
135.104400 412038.300000
137.096000 365038.300000
145.076200 1068060.600000
146.083900 282309.600000
146.096400 1888921.000000
147.091800 3158788.600000
147.104300 1907987.200000
148.075800 1139241.200000
148.112100 1506533.400000
149.023500 3035361.800000
149.083700 309381.100000
159.091800 1103794.600000
160.075900 4518208.100000
160.099700 3797554.700000
164.107000 1787513.100000
165.115200 284648.500000
175.086500 428007.100000
175.122900 782174.700000
176.094300 1685036.300000
191.094200 7257360.300000
204.089200 365729.700000
219.113100 7006448.800000

>ms2peaks
56.049600 958109.000000
58.065200 5651003.200000
65.038700 905463.400000
77.038600 1195229.600000
79.054300 5828550.300000
88.039400 6067481.700000
91.054300 15387329.000000
93.069900 6406490.400000
95.049200 7649053.400000
102.055000 15423373.900000
103.054300 4311988.000000
104.062200 1018093.900000
105.044900 1887224.100000
105.070000 24987110.900000
106.065300 369494.700000
106.078000 1470698.400000
107.085500 1749433.200000
109.065000 702942.200000
115.054300 2683095.100000
116.049600 393750.500000
117.057300 56215527.900000
118.065200 42991315.900000
119.073300 1828171.900000
119.085600 32405702.100000
120.080800 28426743.000000
121.064800 7054260.200000
122.072600 387296.200000
123.080500 2842624.700000
130.065100 2423207.600000
131.073100 2536255.600000
132.080900 290269055.200000
133.088600 63332039.800000
134.096500 9151261.600000
137.096400 897686.800000
145.076300 1715121.700000
146.096300 1397889.200000
147.091800 2120591.100000
147.104300 455199.600000
148.075900 1136692.900000
149.023600 2634363.100000
149.083600 703653.300000
159.091700 1340869.600000
160.076000 2088584.700000
160.099800 1744238.300000
161.071300 308550.600000
164.106900 341530.900000
176.094600 331595.900000
191.094400 1292598.500000
219.113300 514644.100000

>ms2peaks
56.049700 741919.900000
58.065200 3786014.300000
65.038600 2653483.700000
77.038600 2297445.400000
79.054300 10876329.400000
88.039400 2726056.200000
89.038600 748975.600000
90.046500 1104948.500000
91.054300 26585623.200000
92.049500 966937.500000
93.069900 5462728.400000
94.065300 406516.400000
95.049200 16276384.600000
102.055000 4921848.000000
103.054300 8559542.100000
104.062100 1310585.400000
105.044900 3332231.000000
105.070000 27762334.700000
106.065200 1226766.800000
106.077900 893509.200000
107.085700 1222585.600000
115.054300 4092823.200000
116.049400 675743.700000
117.057300 78397359.200000
118.065200 45907389.900000
119.073000 1641062.200000
119.085600 18508666.900000
120.080800 21458908.700000
121.064800 3627667.700000
123.080500 1640486.200000
130.065400 2888065.000000
131.073100 2596094.500000
132.080900 279845834.100000
133.088600 18119761.200000
134.096600 4950627.700000
145.076100 1721643.000000
146.096800 767283.800000
147.091900 1244348.700000
148.075700 1511595.300000
149.023400 1061974.100000
149.083600 330591.200000
159.091800 1638244.200000
160.075700 422609.200000
160.099600 756555.500000
161.071000 358648.400000

