>compound EQ53882630
>parentmass 323.0196
>ionization [M+H]+
>formula C11H12Cl2N2O5
>rt 348.000000
>profile orbitrap
#smiles_iso C1=CC(=CC=C1[C@H]([C@@H](CO)NC(=O)C(Cl)Cl)O)[N+](=O)[O-]
#smiles_can C1=CC(=CC=C1C(C(CO)NC(=O)C(Cl)Cl)O)[N+](=O)[O-]
#inchikey WIIZWVCIJKGZOK-RKDXNWHRSA-N
#pubchem_id 5959
#mb_accession EQ307001,EQ307002,EQ307003,EQ307004,EQ307005,EQ307006

>ms2peaks
82.945000 206252.100000
127.966400 225490.600000
132.056800 113206.500000
136.039200 61733.900000
165.065500 625246.700000
166.049800 61364.900000
178.050000 126416.100000
229.005100 111732.700000
241.005500 3362586.600000
257.995200 194670.400000
269.995600 188501.000000
274.998300 36766067.600000
286.998300 1278887.300000
293.009100 97576.500000
305.008900 20436279.800000

>ms2peaks
82.944800 663561.400000
91.054200 59196.100000
117.057100 68435.600000
118.065100 79100.000000
119.072900 137209.900000
120.056900 62365.400000
127.966400 506858.200000
131.072900 47806.000000
132.056900 647986.900000
136.039300 276828.000000
139.966500 134732.200000
146.060000 206097.000000
148.039100 52717.100000
148.063100 339089.300000
150.023100 195196.300000
161.047100 52707.900000
162.054900 56571.100000
164.058000 275088.700000
165.065900 11731502.500000
166.049900 203957.300000
170.060000 248391.900000
175.050000 93247.200000
177.065800 261105.200000
178.049800 226195.900000
184.016300 123525.100000
196.015900 132423.300000
206.036700 967227.800000
211.027200 93774.400000
229.005500 1819979.600000
241.005500 3612240.700000
256.987400 62483.800000
257.995700 3531019.200000
269.995900 757933.800000
274.998300 33568048.800000
286.998500 322674.100000
305.009100 300850.600000

>ms2peaks
63.994900 105682.000000
78.046400 77123.800000
82.944900 3897563.900000
90.046300 34042.900000
91.054000 125589.100000
92.049400 53480.500000
92.061900 93480.500000
102.046300 55839.100000
103.054200 103026.400000
104.062100 106487.100000
105.033300 25070.200000
106.041300 132440.500000
107.073000 24564.700000
109.955800 55572.900000
115.054200 310570.500000
117.057100 211268.600000
118.041200 127663.300000
118.065000 540286.100000
119.072900 1257808.500000
120.056900 513957.500000
121.052100 66194.000000
127.966400 344944.000000
128.061900 110850.100000
129.057200 53733.400000
130.065200 332493.800000
131.049200 165705.400000
131.073000 230375.600000
132.057000 1373646.800000
134.060100 120959.100000
135.067800 26571.500000
136.039200 126948.200000
138.023100 268010.100000
139.966700 28284.400000
142.065200 54137.100000
145.052300 151598.900000
145.064800 28506.900000
146.060000 471663.300000
148.039300 114013.400000
148.063100 570089.200000
149.015400 118349.200000
149.047200 290864.800000
150.023100 662028.400000
151.062800 240814.800000
158.060000 80282.900000
160.063200 23456.800000
161.047300 107240.500000
162.054800 69440.100000
163.031000 264036.400000
164.026200 422324.100000
164.058100 661673.400000
165.065900 23152723.100000
166.049600 170045.500000
167.026000 28481.100000
170.059900 816271.800000
175.050400 125992.300000
177.034000 48502.000000
177.042000 147272.000000
177.065900 313945.500000
178.049800 73263.100000
179.013300 112071.400000
184.015900 179495.800000
194.036700 23633.800000
196.016000 79941.000000
206.036700 1392804.200000
211.027100 89022.800000
227.997700 479008.600000
229.005600 1805028.300000
239.997600 194081.900000
241.005600 625951.000000
256.003700 26731.000000
256.987100 25898.200000
257.995800 7888912.200000
259.988300 25153.500000
269.995500 330218.600000
274.998400 3495210.700000

>ms2peaks
63.994800 148438.100000
65.038500 24367.400000
74.023700 21473.500000
78.046400 136796.000000
82.945000 6816075.200000
90.046300 85003.400000
91.054200 416639.300000
92.049400 71823.700000
92.062000 209124.900000
95.049000 51762.600000
102.046200 104362.300000
103.054200 254057.200000
104.062100 163370.900000
105.033500 74024.900000
106.041300 89328.900000
106.065000 96535.900000
107.049200 58292.300000
107.072900 60823.600000
109.955700 63138.800000
115.054200 612457.000000
117.057200 491582.400000
118.041200 138380.400000
118.065100 1331776.900000
119.072900 3914563.400000
120.056900 629388.800000
121.052300 90239.700000
122.060000 76247.400000
125.015100 61454.800000
127.966400 247569.800000
128.062000 301594.700000
129.057300 74831.000000
130.065100 845776.600000
131.036700 59391.300000
131.049200 353735.700000
131.072900 506130.400000
132.057000 1353368.400000
133.028500 98024.000000
134.060100 283415.000000
135.067800 50855.400000
136.039200 62458.500000
136.075600 73303.000000
137.015300 91472.100000
138.023100 346643.100000
138.054900 68949.500000
139.966500 23926.000000
142.065300 160066.100000
145.052200 475848.800000
145.064700 156504.200000
146.060100 514547.600000
147.055100 25118.600000
148.039100 85361.600000
148.063100 588668.800000
149.015400 267492.300000
149.047200 560001.300000
150.023100 552523.000000
151.062800 950144.500000
154.017900 74227.300000
155.060600 119953.600000
157.052300 27221.100000
158.060100 81718.400000
160.062900 46868.700000
161.047300 111075.500000
162.054700 27719.100000
163.031000 346646.400000
164.026200 1549013.600000
164.058000 605786.400000
165.065900 19171004.100000
166.049700 93372.700000
170.060000 912507.100000
171.067800 19943.000000
175.050200 72554.300000
177.021600 19329.200000
177.033900 43068.300000
177.041900 383456.600000
177.065900 189715.800000
179.013300 90241.400000
184.016100 79012.000000
192.021200 29362.200000
193.029100 53294.800000
194.036700 53688.000000
206.036800 664137.200000
211.026900 56803.400000
227.997700 930681.300000
229.005700 685309.700000
239.998100 148350.300000
241.005400 128022.800000
256.004000 65949.600000
257.995800 4964025.600000
258.008100 271704.000000
259.987700 54398.300000
269.995900 81416.800000
274.998500 381610.600000

>ms2peaks
63.022800 11632.500000
63.994900 177115.300000
65.038600 95377.300000
66.046400 15434.800000
67.041700 15190.800000
77.038500 12904.200000
78.046400 240189.400000
79.054200 29190.700000
80.049400 84818.900000
80.062400 10355.400000
82.945000 9287259.100000
89.038600 61858.600000
90.046400 128664.700000
91.054200 1137811.300000
92.049400 99295.200000
92.062000 477632.200000
93.057200 18244.900000
94.065100 52049.500000
95.049100 27314.900000
102.046400 217689.300000
103.054200 889484.100000
104.049500 90546.400000
104.062100 217500.800000
105.033500 64018.800000
105.044800 15754.600000
106.041200 26691.500000
106.065100 196521.200000
107.049300 81968.700000
107.073000 180588.100000
108.057000 21915.200000
109.064800 12607.500000
109.955900 58133.400000
115.054200 1021775.200000
116.049400 41630.800000
117.057200 1035722.700000
118.041300 183018.100000
118.065100 2636211.000000
119.072900 7498069.100000
120.044400 24050.200000
120.056900 296890.800000
121.052100 87518.900000
122.059900 16069.700000
125.015200 138498.700000
127.966400 111196.300000
128.049400 90849.200000
128.062100 429092.800000
129.044500 15499.600000
129.057200 129334.600000
130.065100 1402477.000000
131.036400 52143.100000
131.049200 707801.100000
131.073000 500316.200000
132.057000 826690.000000
133.028500 27173.000000
134.060000 495743.000000
135.067800 73267.300000
136.039500 17225.500000
136.075900 126199.700000
137.015200 221780.200000
137.059800 26657.900000
138.023100 321814.500000
138.054900 93109.400000
140.049500 15428.800000
142.065200 274762.400000
145.052200 576297.600000
145.064600 210023.200000
146.060100 321377.400000
147.055100 79143.400000
148.039300 50024.200000
148.063100 483288.400000
149.015300 474494.500000
149.047200 346769.300000
150.023100 244141.300000
151.062800 2349246.500000
154.017900 56718.100000
155.060400 171787.400000
157.052400 20275.700000
158.060000 88957.600000
160.063000 24807.800000
161.047100 79777.400000
162.023100 28235.900000
162.055000 25755.500000
163.030700 149343.300000
164.026100 2986977.300000
164.057700 205395.100000
165.065900 7607991.900000
167.025700 14611.400000
170.060000 562078.200000
171.067600 15259.000000
175.050300 16015.300000
177.021400 49784.200000
177.042000 498239.600000
179.013200 61944.100000
184.016400 13529.200000
192.021100 73067.300000
193.028700 46064.200000
206.036900 128556.800000
227.997600 431413.800000
229.005700 80946.600000
239.998000 61212.000000
256.004100 49157.500000
257.995900 669888.800000
258.008500 103336.000000
259.988100 15263.700000

>ms2peaks
63.994800 257033.100000
65.038500 139820.600000
66.046400 21778.200000
67.041700 79760.400000
77.038400 52065.700000
78.046400 343255.800000
79.054200 82952.200000
80.049500 154144.200000
80.062200 18026.500000
82.945000 11429714.100000
89.038600 115551.600000
90.046400 224565.500000
91.054200 2400582.400000
92.049400 77760.400000
92.062000 905974.800000
93.057200 55332.200000
94.065100 16497.800000
95.049100 154743.200000
102.046400 430463.300000
103.054200 1519574.500000
104.049500 277483.200000
104.062000 200386.200000
105.033400 48487.500000
105.044900 53518.100000
106.065100 286794.100000
107.049000 122959.500000
107.073100 136878.400000
108.057100 21693.800000
109.064900 25148.000000
109.955700 18160.800000
115.054200 1346085.300000
116.049600 60226.200000
117.057300 1356336.700000
118.065100 4786986.700000
119.072900 6681967.800000
120.044600 16633.300000
120.057000 81844.500000
121.052100 55435.700000
125.015400 90029.700000
127.966400 46873.000000
128.049500 201903.200000
128.062000 402728.700000
129.044800 44985.600000
129.057300 292997.900000
130.065100 1611308.800000
131.036600 46988.600000
131.049200 860916.300000
131.073000 298959.100000
132.057000 407960.000000
133.052200 22158.000000
134.060000 426747.500000
135.068000 58332.400000
136.075600 81261.700000
137.015300 282598.200000
137.059900 24225.200000
138.023100 175338.300000
138.055000 26266.900000
140.049600 45890.300000
142.065200 197355.700000
145.052300 323919.900000
145.064800 214320.900000
146.060100 223165.100000
147.055500 20284.300000
148.063100 222321.600000
149.015300 459419.700000
149.047000 114041.800000
150.023200 87817.800000
151.062800 2866237.600000
154.018000 18579.900000
155.060500 101230.500000
157.052300 21214.400000
158.059800 16173.100000
161.047100 77029.700000
162.022900 46886.800000
163.031100 19530.900000
164.026100 2598639.000000
165.065900 1928077.800000
170.060000 276198.600000
177.021600 27214.800000
177.034400 24755.300000
177.041900 246301.500000
193.029000 47917.400000
227.998400 16844.400000
257.995700 20108.300000

