>compound EQ53343426
>parentmass 329.1415
>ionization [M+H]+
>formula C19H21ClN2O
>rt 834.000000
>profile orbitrap
#smiles_iso C1CCC(C1)N(CC2=CC=C(C=C2)Cl)C(=O)NC3=CC=CC=C3
#smiles_can C1CCC(C1)N(CC2=CC=C(C=C2)Cl)C(=O)NC3=CC=CC=C3
#inchikey OGYFATSSENRIKG-UHFFFAOYSA-N
#pubchem_id 91692
#mb_accession EQ306401,EQ306402,EQ306403,EQ306404,EQ306405,EQ306406

>ms2
84.080600 503573.400000
86.096400 667590.100000
98.096500 1048349.200000
106.065000 795747.200000
125.015000 36653732.600000
210.104300 2766704.000000
218.073100 16623881.200000
261.078700 3028578.900000
329.141300 369959770.200000

>ms2
69.069800 1696138.400000
84.080700 3238943.000000
86.096400 1871208.800000
94.065000 5681438.200000
98.096400 7227916.600000
106.065100 8917010.400000
119.060200 541107.800000
120.044200 715551.900000
125.015200 278445244.600000
142.041700 687142.700000
149.070900 1733040.900000
210.104400 8025240.000000
217.133400 328929.100000
218.073100 26340147.800000
261.078800 17862350.200000
329.141400 57050537.700000

>ms2
69.069800 2439773.600000
84.080700 1939211.400000
86.096300 347373.800000
89.038400 1800566.300000
93.057300 401816.200000
94.065100 9544342.900000
95.049100 382364.600000
98.096400 3431548.700000
98.999400 655814.700000
106.065100 7370525.400000
119.060200 924412.100000
120.044300 802922.800000
125.015200 332540584.400000
132.044500 608555.600000
149.070900 467335.500000
210.104400 452571.200000
218.073100 1944038.300000
261.078800 2126119.600000
329.141700 639847.700000

>ms2
63.022800 389823.600000
69.069800 2362144.400000
72.983700 357067.000000
84.080700 1382197.900000
89.038500 3223184.900000
90.046300 566710.000000
92.049300 693908.200000
93.057100 332957.300000
94.065100 8921594.000000
95.049100 889134.200000
98.096400 1823109.000000
98.999500 1378226.200000
106.065100 5123520.500000
119.060300 834136.400000
120.044300 805544.400000
125.015200 327554946.600000
132.044200 698296.800000
218.073200 354072.600000

>ms2
63.022800 653117.000000
67.054200 443880.000000
69.069800 2316469.600000
72.983900 374705.800000
79.054200 405752.200000
84.080700 1088620.400000
89.038500 11929562.700000
90.046300 1953095.000000
92.049400 948423.300000
93.057100 344823.800000
94.065100 7249276.100000
95.049100 2026581.900000
98.096500 669128.200000
98.999500 4877170.900000
105.044700 607169.500000
106.065100 3765935.200000
119.060200 791919.700000
120.044400 424677.400000
125.015300 329665876.200000
132.044300 745230.000000

>ms2
62.015100 342342.700000
63.022800 1675535.400000
65.038600 759355.300000
66.046400 494483.000000
67.054200 416200.100000
69.069900 1337493.100000
72.983800 1019440.700000
77.038600 462359.900000
79.054200 535629.900000
84.080600 519812.100000
89.038500 27924852.600000
90.046300 5779705.500000
92.049400 921897.400000
93.057200 520441.400000
94.065100 5836998.600000
95.049100 3020853.700000
98.999500 13164427.800000
105.044900 785816.400000
106.065100 2840012.100000
119.060200 571672.900000
125.015200 283343280.400000
132.044200 357817.400000

