>compound EQ54277726
>parentmass 221.1648
>ionization [M+H]+
>formula C13H20N2O
>rt 270.000000
>profile orbitrap
#smiles_iso CCCNC(C)C(=O)NC1=CC=CC=C1C
#smiles_can CCCNC(C)C(=O)NC1=CC=CC=C1C
#inchikey MVFGUOIZUNYYSO-UHFFFAOYSA-N
#pubchem_id 4906
#mb_accession EQ314101,EQ314102,EQ314103,EQ314104,EQ314105,EQ314106

>ms2
86.096500 1204285981.100000
136.075900 8833974.500000
221.165200 174831007.300000

>ms2
86.096500 1091937582.800000
136.076000 13978776.600000
221.165200 29170254.300000

>ms2
58.065200 2570697.000000
86.096500 1026534339.600000
108.081000 1359672.700000
118.065300 2025486.600000
136.076000 21075527.800000

>ms2
58.065200 2838440.500000
86.096500 723364660.500000
93.057400 2195823.700000
108.080900 2894547.100000
109.065000 1608205.300000
118.065300 3617624.000000
134.096600 1547260.000000
136.076000 13739573.000000

>ms2
58.065300 4218116.500000
86.096500 527944315.100000
91.054400 2944638.200000
93.057500 8366180.700000
108.081000 5388871.800000
109.065000 3960148.900000
118.065300 5865343.500000
134.096700 1429921.700000
136.076000 9412838.400000

>ms2
53.002400 1758299.000000
58.065300 2956465.100000
86.096500 299907084.300000
91.054400 6964464.800000
93.057400 14912181.200000
108.081000 5333261.900000
109.064900 4171294.200000
118.065300 3066858.900000
134.096500 1422769.400000
136.076000 3258023.600000

