>compound EQ54107331
>parentmass 253.09719999999996
>ionization [M+H]+
>formula C15H12N2O2
>rt 456.000000
>profile orbitrap
#smiles_iso C1=CC=C(C=C1)C2(C(=O)NC(=O)N2)C3=CC=CC=C3
#smiles_can C1=CC=C(C=C1)C2(C(=O)NC(=O)N2)C3=CC=CC=C3
#inchikey CXOFVDLJLONNDW-UHFFFAOYSA-N
#pubchem_id 1775
#mb_accession EQ331901,EQ331902,EQ331903,EQ331904,EQ331905,EQ331906

>ms2
77.038500 608713.100000
104.049000 5206586.500000
105.033400 2894697.500000
132.044100 885993.600000
175.050100 18670628.000000
180.080100 336960.400000
182.096300 187275152.000000
208.075700 373677.700000
210.091200 4504349.000000
225.102100 124655128.000000
236.070500 4013637.000000
253.097000 152394800.000000

>ms2
77.038400 1130130.100000
104.049300 17280748.000000
105.033400 7955918.500000
132.044300 5324396.500000
175.050100 11784120.000000
182.096300 429386656.000000
183.079800 685413.600000
208.075800 1018127.700000
210.091200 4989069.000000
225.102100 49950184.000000
236.070500 2271919.000000
253.097000 19557746.000000

>ms2
77.038500 1459064.400000
79.054200 442000.700000
95.049100 505429.800000
104.049400 79580976.000000
105.033400 8606534.000000
132.044300 11948730.000000
165.069900 736379.900000
175.050100 1776377.500000
180.080700 464433.400000
182.096400 423330464.000000
183.080000 460883.300000
208.075900 1210958.800000
210.091400 1111686.000000
225.102200 1599503.000000

>ms2
77.038300 2377348.800000
79.054200 1952172.400000
95.049100 2995122.800000
104.049400 238226960.000000
105.033300 8870180.000000
105.044600 1617256.600000
122.059800 371751.000000
132.044300 12818179.000000
165.069900 2623891.800000
167.073100 486075.900000
180.080600 638748.400000
181.088700 447779.200000
182.096400 227856320.000000
208.075500 423358.000000

>ms2
77.038500 5324013.000000
79.054200 3557309.500000
81.033400 388320.800000
95.049100 14019273.000000
103.041200 409314.600000
104.049400 339629280.000000
105.033300 6008052.000000
105.044500 6911438.000000
122.059900 695733.500000
132.044300 10507750.000000
165.069900 3174707.500000
167.073000 690844.300000
180.080800 721253.200000
182.096400 68547840.000000

>ms2
50.015200 413861.300000
51.022900 618249.100000
77.038500 14445246.000000
79.054200 4121864.200000
81.033400 1258280.800000
95.049100 43572744.000000
104.049400 346456480.000000
105.033300 4644205.000000
105.044500 21057888.000000
122.060000 787291.900000
132.044300 7037444.500000
165.069700 4617318.500000
167.072900 836782.400000
180.080500 890572.700000
182.096400 13814825.000000

