>compound EQ55407350
>parentmass 240.07860000000002
>ionization [M+H]+
>formula C12H14ClNO2
>rt 570.000000
>profile orbitrap
#smiles_iso CC1(CON(C1=O)CC2=CC=CC=C2Cl)C
#smiles_can CC1(CON(C1=O)CC2=CC=CC=C2Cl)C
#inchikey KIEDNEWSYUYDSN-UHFFFAOYSA-N
#pubchem_id 54778
#mb_accession EQ013901,EQ013902,EQ013903,EQ013904,EQ013905,EQ013906

>ms2
89.038500 466585.800000
100.075700 936288.200000
114.054900 536816.000000
125.015200 156173978.500000
128.070500 7310144.000000
140.026100 462314.400000
240.078500 225876366.100000

>ms2
73.064800 420327.100000
89.038300 573601.300000
90.046200 305417.100000
98.999500 481698.300000
100.075700 1191385.500000
114.054900 707211.500000
125.015200 288300050.200000
128.070500 6075811.700000
140.026100 444665.200000
240.078500 66926517.600000

>ms2
73.064800 412381.600000
89.038400 2075551.400000
90.046300 450209.300000
98.999500 904380.100000
100.075700 495817.300000
125.015200 352137020.300000
128.070400 875123.400000
240.078500 3162326.900000

>ms2
63.022800 456229.800000
89.038500 4363834.800000
90.046300 934474.800000
98.999600 1720319.800000
125.015200 378140957.600000

>ms2
65.038600 484949.400000
89.038500 15174269.300000
90.046300 3450720.300000
98.999600 6739365.200000
125.015200 383583652.000000

>ms2
63.022900 2178992.600000
65.038600 1280886.500000
66.046400 355335.000000
72.983800 1204465.200000
74.999500 538107.600000
89.038500 40136534.400000
90.046300 10340511.600000
98.999600 18233912.500000
125.015200 307970718.200000

