>compound EQ55221522
>parentmass 321.1357
>ionization [M+H]+
>formula C15H17FN4O3
>rt 252.000000
>profile orbitrap
#smiles_iso CCN1C=C(C(=O)C2=CC(=C(N=C21)N3CCNCC3)F)C(=O)O
#smiles_can CCN1C=C(C(=O)C2=CC(=C(N=C21)N3CCNCC3)F)C(=O)O
#inchikey IDYZIJYBMGIQMJ-UHFFFAOYSA-N
#pubchem_id 3229
#mb_accession EQ307801,EQ307802,EQ307803,EQ307804,EQ307805,EQ307806

>ms2
234.104000 1146214.000000
257.139800 1574151.500000
277.146000 6544824.400000
303.124100 2507712.700000
321.135800 191818003.500000

>ms2
70.065100 737458.500000
205.064800 1153501.500000
206.072500 2857544.500000
206.084200 212712.200000
207.093200 239856.600000
208.088100 772698.500000
220.087700 337354.800000
221.095600 217722.900000
228.100300 258178.800000
229.108500 2440662.700000
232.051600 262994.300000
234.103800 17075469.400000
250.062700 174453.500000
257.139700 16963787.200000
277.146000 14653864.200000
278.093800 1014406.000000
301.130200 726111.100000
303.124500 5457214.600000
321.135800 129236297.700000
323.139500 189619.800000

>ms2
68.049600 154805.700000
70.065100 1969882.600000
165.045900 178928.100000
178.053800 236197.800000
178.077600 356316.700000
179.061400 827823.100000
180.056900 806008.200000
186.066300 718931.900000
187.061600 252970.700000
192.069400 227780.700000
200.069300 577109.800000
204.056800 1427114.300000
205.064800 8032729.000000
206.072600 16974288.200000
206.084500 1269275.566000
207.080400 393868.300000
208.088100 1597480.300000
214.085100 215717.500000
214.097600 224176.600000
215.093200 177785.800000
220.088100 1137567.700000
221.096000 440146.700000
224.046900 456696.500000
224.059500 170774.800000
228.100700 659219.900000
229.108600 5269708.300000
232.051900 4322068.200000
234.103800 22887510.400000
237.067100 189982.100000
242.116300 205220.000000
250.062400 6692369.700000
255.087500 267991.500000
255.124500 189344.800000
257.139800 5686160.200000
258.066800 340326.300000
273.098700 640743.700000
275.093900 1696851.200000
275.130000 530102.100000
276.078200 397126.500000
277.146300 1173158.700000
278.093800 1015248.400000
283.119000 442079.000000
293.104700 3474790.800000
301.129700 2123451.100000
303.124600 4213248.900000
321.135900 113350108.500000
323.140200 254398.200000

>ms2
68.049600 232205.700000
70.065100 3094761.100000
71.060500 72083.500000
135.055300 98869.700000
137.051100 388049.400000
145.039600 66107.600000
149.051000 64475.500000
151.030300 220809.600000
155.061700 166245.900000
158.071500 80904.400000
163.067100 70154.600000
164.061700 89853.500000
165.046000 321897.200000
172.087300 88992.100000
176.062000 238127.800000
177.070000 846124.000000
178.053900 727543.700000
178.077500 1134700.400000
179.049700 582339.400000
179.061500 2651088.900000
180.056800 1433613.500000
185.058700 76786.000000
186.066300 2053263.700000
187.061500 248068.700000
187.074100 97858.700000
188.061800 93981.100000
191.061600 202952.200000
191.085300 196758.200000
192.056800 667952.300000
192.069600 463730.500000
192.093200 86881.700000
193.077300 76237.300000
199.061500 100554.600000
199.098100 221120.000000
200.069200 638500.400000
201.077100 188622.800000
204.057000 4783770.300000
205.064700 11451464.100000
206.072600 17386430.000000
206.084300 1283713.600000
207.080600 348573.100000
207.093000 194310.100000
208.088100 1014043.000000
209.035600 101147.700000
212.105600 102654.600000
213.077000 204508.400000
214.085100 353412.500000
214.097500 260711.000000
215.093000 104135.900000
215.104900 84299.300000
218.096600 81986.400000
219.080400 211191.400000
220.088300 991524.300000
221.096000 168369.400000
224.046800 1125215.000000
224.058300 90257.400000
227.092700 582139.100000
227.128900 308579.800000
228.100700 436994.000000
229.108600 3125120.600000
230.073000 169073.500000
232.051800 11119841.100000
234.103800 11364894.500000
237.067600 181224.800000
247.099000 82439.200000
247.135700 194032.800000
250.062400 18160084.500000
255.087500 486344.300000
255.123800 208193.100000
257.139700 1248865.400000
258.067500 878145.400000
259.135800 259586.900000
264.078200 59956.800000
273.098100 653831.900000
275.094000 1982716.500000
275.130300 815668.200000
276.078300 1614893.300000
277.145600 180388.500000
278.093700 637885.700000
283.119300 220370.600000
293.104500 4847508.100000
301.129700 1924430.700000
303.124600 2527121.900000
321.135900 56491052.200000
323.139600 96651.000000

>ms2
68.049400 521671.400000
70.065100 4098471.400000
83.060500 70848.500000
84.068300 81273.900000
99.035400 50587.200000
105.044700 64881.300000
114.035100 173608.000000
117.044800 226488.000000
122.040100 172534.700000
123.035200 93761.700000
125.050900 42893.000000
128.050700 385185.000000
129.045100 299418.100000
133.040100 47979.800000
135.035200 171603.500000
135.055400 795037.800000
136.043300 394003.800000
136.055700 86733.000000
137.051000 933400.400000
139.030200 53646.700000
143.060500 56702.100000
144.055700 71635.300000
145.039800 326945.300000
149.051200 661989.200000
150.059200 53723.900000
151.030500 710899.000000
151.066600 244450.200000
153.045900 432346.300000
154.040800 56441.100000
155.061400 348110.500000
156.055700 1216519.300000
157.063500 266062.300000
158.071500 197921.700000
160.050500 50821.800000
160.087200 58468.100000
162.058800 72329.600000
163.030200 220180.200000
163.066700 282961.700000
164.038100 205186.100000
164.061900 244490.900000
165.045900 577722.100000
166.053700 76234.600000
166.077700 289443.900000
170.071500 58324.200000
172.087000 311335.600000
175.053900 310198.255600
176.062000 2393096.000000
177.046400 337051.200000
177.069700 3278318.000000
178.042100 353404.500000
178.053700 1765850.900000
178.077500 1572113.500000
179.049900 701775.600000
179.061600 5524343.600000
180.056900 2405279.199000
180.093100 283950.635000
181.041000 84698.300000
182.072300 183702.800000
184.050500 299907.600000
184.087300 95403.600000
185.058600 190255.400000
186.066300 3052292.600000
187.061400 253351.400000
187.074100 74767.100000
188.062000 464685.610900
190.040700 84410.800000
190.077700 795699.300000
191.048900 178690.300000
191.061600 258558.900000
191.085500 410831.812100
192.056700 904284.600000
192.069100 470081.900000
192.093000 186072.500000
194.072300 99248.800000
196.028800 50086.000000
197.081800 68538.500000
198.065700 73676.600000
199.061600 282462.500000
199.097900 309453.000000
200.069400 496109.800000
200.082300 52668.600000
201.077600 93745.400000
202.041300 162270.800000
202.077500 69187.800000
203.085300 79694.800000
204.057000 15422343.800000
205.064700 7799299.400000
205.101100 898016.300000
206.072600 10422604.100000
206.084100 528751.100000
207.081100 49236.900000
207.093000 72144.800000
208.088300 363583.025100
209.036100 550228.700000
210.066000 67708.500000
211.097800 166888.200000
212.045800 201416.600000
212.105500 302287.600000
213.077100 221928.400000
214.085100 99041.600000
214.097500 169359.900000
215.048900 68357.500000
217.088400 199119.600000
218.072700 210265.000000
218.096300 207578.100000
219.080300 88414.300000
220.088200 406741.700000
223.051500 324931.600000
224.046800 1783188.200000
227.092700 719485.000000
227.129300 281979.400000
228.100300 63474.900000
229.108500 615841.500000
230.036000 198663.700000
230.055800 290793.800000
230.072700 909435.100000
231.081600 56517.200000
232.051800 15572024.800000
234.103900 1929950.000000
236.046900 471426.300000
237.067200 213782.900000
245.066800 77082.200000
247.099000 87772.800000
247.134500 80311.600000
248.047000 208209.600000
250.062400 26089245.500000
255.087300 358940.100000
255.124600 201384.400000
258.067300 1498301.200000
259.135500 302413.200000
260.082900 103010.800000
264.078200 443120.400000
273.098100 411113.700000
275.093800 711397.700000
275.130400 501549.800000
276.078100 2258660.700000
278.093600 227560.200000
291.089200 52744.700000
293.104600 1983926.000000
301.129400 688214.300000
303.124200 471022.600000
321.135900 10075864.100000

>ms2
68.049500 671816.400000
70.065100 2998409.800000
71.060500 55558.300000
83.060500 61602.500000
84.068300 96554.500000
99.035400 193350.200000
105.044800 294650.000000
108.024400 550149.358400
110.040200 240037.499500
114.034900 497982.900000
117.044700 675734.600000
122.040000 1129463.000000
123.035300 579211.600000
125.051000 296170.900000
128.050700 1146451.700000
129.044800 1868094.500000
130.040100 245774.802800
131.060400 329755.319900
133.039600 310101.400000
135.035300 691019.000000
135.055300 1213619.300000
136.043400 1080264.300000
136.056000 64299.800000
137.051000 1483245.000000
139.030400 214572.100000
143.060500 157102.400000
144.055700 240186.600000
145.039800 478183.800000
149.051100 3131557.800000
150.046400 380402.782100
150.059100 423865.600000
151.030300 1356116.900000
151.054400 525121.186700
151.066700 408582.400000
153.045900 1817546.400000
154.041000 58494.400000
155.061300 543897.900000
156.055700 4194725.800000
157.063500 369595.900000
158.071200 448739.500000
160.050500 102921.100000
160.087400 55870.200000
161.051000 271606.662000
162.058900 169928.900000
163.030300 961960.900000
163.054600 288836.633700
163.066400 345569.600000
164.038100 374453.600000
164.062000 517082.830300
165.046000 790647.000000
166.053900 85733.500000
166.077700 399129.800000
168.056100 243479.278100
170.071400 210355.700000
171.066700 214951.075700
172.086800 383541.300000
175.054200 939467.786700
176.062000 6483270.300000
177.045800 1006085.500000
177.069700 5415202.500000
178.041400 1341861.200000
178.053600 2059918.700000
178.077400 977608.100000
179.025300 1275187.368000
179.050000 558210.100000
179.061600 5480286.600000
180.056800 3056264.800000
181.041100 305845.700000
182.071700 423433.000000
184.050700 810512.200000
184.087100 184618.700000
185.058700 269547.500000
186.066300 2517587.200000
187.061600 122052.000000
188.061900 1164582.500000
190.041100 367582.900000
190.077600 3108202.200000
191.048900 171437.800000
191.061500 262842.600000
191.085300 241497.800000
192.056800 1102122.300000
192.069400 347470.900000
192.093200 95101.900000
194.072100 99933.000000
196.028400 66479.000000
197.082500 178931.600000
198.066700 48213.300000
199.061500 255280.000000
199.098000 336452.900000
200.069400 250188.700000
200.081600 43321.200000
201.077500 57656.400000
202.041300 562043.100000
202.077500 355527.600000
203.085300 48489.000000
204.057000 20597198.100000
205.040700 221148.312400
205.064800 3179281.600000
205.101100 1062818.200000
206.036200 421784.552800
206.072600 3764459.000000
209.035700 686245.500000
210.066100 269689.800000
211.098000 86354.900000
212.045600 409668.300000
212.105900 191721.400000
213.077100 102651.600000
214.086400 51713.200000
214.096800 46478.000000
215.049100 205733.700000
217.088500 182849.500000
218.035300 316825.643900
218.072800 196702.800000
218.096300 99707.300000
219.080700 66093.700000
220.088200 94096.100000
223.051500 536396.800000
224.046800 1725716.200000
225.031200 317906.221100
227.093000 365828.900000
230.036400 85594.600000
230.056000 567730.200000
230.072600 826054.800000
232.051800 8161680.000000
234.103900 221492.700000
236.046800 923374.800000
245.067000 54976.000000
248.046800 214494.000000
250.062400 14827754.200000
255.086600 67841.800000
258.067500 545696.900000
259.135800 88917.800000
264.078000 91010.400000
273.097800 99331.900000
275.130900 55533.400000
276.078000 1121224.400000
293.104400 259397.700000
321.135900 680178.200000

