>compound EQ55737443
>parentmass 355.1089
>ionization [M+H]+
>formula C19H15FN2O4
>rt 582.000000
>profile orbitrap
#smiles_iso C#CCN1C(=O)COC2=CC(=C(C=C21)N3C(=O)C4=C(C3=O)CCCC4)F
#smiles_can C#CCN1C(=O)COC2=CC(=C(C=C21)N3C(=O)C4=C(C3=O)CCCC4)F
#inchikey FOUWCSDKDDHKQP-UHFFFAOYSA-N
#pubchem_id 92425
#mb_accession EQ316701,EQ316702,EQ316703,EQ316704,EQ316705,EQ316706

>ms2peaks
176.050700 872526.200000
190.053800 372824.700000
204.045600 2645834.700000
281.108000 374262.600000
297.102600 620380.900000
299.082500 748274.400000
299.119000 326507.000000
307.107400 2845865.700000
309.103300 338451.700000
313.097800 574115.200000
316.085200 383856.800000
327.113900 34013998.100000
329.093100 971228.600000
355.108700 288767805.300000

>ms2peaks
79.054200 1113776.400000
81.069900 810762.900000
107.049100 3911007.800000
109.064800 320643.100000
121.044700 310465.800000
134.060000 424115.800000
135.043900 1143001.000000
148.055600 2524800.300000
149.039800 1390400.700000
152.070600 269552.100000
164.070600 849235.100000
173.071000 145563.600000
176.050600 12052618.200000
177.058400 1065247.300000
189.045600 246248.100000
190.053600 3730911.200000
191.061800 583172.400000
193.077000 530145.300000
203.061600 336487.200000
204.045600 14740716.700000
205.053100 405564.700000
219.056500 748591.500000
232.076800 343765.600000
239.061600 156509.300000
241.076900 153167.800000
244.076500 348031.900000
251.097400 721286.500000
251.117700 374830.400000
253.077200 2525158.600000
257.071700 435636.100000
257.108400 343869.400000
258.056200 255085.600000
258.092500 1305747.000000
259.051400 435777.500000
260.071800 5412342.500000
265.097600 148396.000000
267.092500 361091.100000
269.072700 495738.000000
269.108100 424949.100000
270.092500 346331.400000
271.087500 1432501.300000
271.124400 339614.500000
272.071800 1089660.200000
274.087400 317768.200000
279.076500 2281910.500000
279.092800 335221.700000
279.112600 2603681.400000
281.072400 784145.800000
281.108400 3776370.200000
283.087800 287001.800000
283.124500 695344.200000
285.067600 578356.800000
285.080600 629942.300000
285.103200 3270665.200000
286.087200 2334798.900000
287.082500 5174944.200000
295.088000 159025.600000
297.103200 3429593.000000
298.087500 1392790.200000
299.082500 16702361.600000
299.118500 2487559.100000
300.066700 333106.800000
300.103300 287407.500000
301.098100 3300745.400000
307.107600 9862106.500000
309.103300 870758.600000
313.098200 12276030.500000
316.085700 1232130.900000
325.098000 991163.800000
327.113700 51143737.100000
328.097200 636688.800000
329.092800 410920.400000
335.102300 775160.300000
355.108700 143864025.800000

>ms2peaks
67.041700 106586.400000
67.054200 334366.000000
68.049500 336686.400000
69.033500 71707.000000
77.038500 647548.800000
79.054200 6187520.700000
80.049600 101132.700000
80.062000 314993.700000
81.033400 698496.100000
81.069900 2460188.400000
82.028700 111645.800000
91.054200 408684.100000
93.069800 97069.500000
95.049000 955746.100000
96.044500 90760.900000
97.064800 338439.300000
105.033500 126785.600000
105.044700 423378.800000
107.049100 14326947.400000
108.056900 343597.400000
109.064900 547003.000000
115.054300 59707.200000
121.044700 3247361.100000
124.055800 80256.500000
127.055100 116027.400000
128.049200 438892.500000
129.044900 136284.200000
130.065000 65701.800000
132.044500 103134.500000
134.040000 425720.100000
134.060000 875042.800000
135.043900 3215861.500000
135.048200 190655.400000
136.031800 63236.400000
138.034900 133443.700000
140.013900 58842.300000
144.044000 69433.300000
145.075800 83741.500000
146.060300 576238.800000
148.055600 9703749.000000
149.039700 5695684.500000
149.063600 505908.300000
150.034900 998597.300000
151.029800 76857.000000
152.014000 128300.700000
152.050500 86606.700000
152.070500 145216.000000
155.060000 123508.800000
156.044400 460124.600000
161.051100 152605.100000
162.035100 520057.300000
162.058800 147661.000000
163.030000 85387.400000
163.042800 304138.000000
163.066500 364256.500000
164.050600 493189.700000
164.070700 424631.000000
165.046000 375608.900000
166.029700 127565.400000
166.066100 642988.500000
167.073500 76227.800000
171.055000 413991.100000
172.055900 61258.800000
173.050800 94963.600000
173.070800 94783.900000
174.055000 250138.900000
175.043100 135645.000000
175.066600 91446.700000
176.050500 17604746.000000
177.046700 449075.700000
177.058300 2784611.400000
178.030000 153953.300000
179.025100 291647.500000
179.061400 179125.300000
180.045500 91992.200000
180.080600 85597.600000
181.075700 89068.000000
182.060500 77763.400000
184.075400 144934.400000
188.050900 258114.800000
189.045800 942953.600000
190.053700 4287628.900000
191.061400 1109396.300000
192.068900 138488.900000
193.040400 122383.100000
193.076900 366854.400000
194.060900 88784.700000
194.096900 80038.200000
195.091400 288924.900000
196.075800 82953.300000
198.071100 379982.100000
199.049800 112393.000000
201.046100 488150.500000
201.066200 97642.700000
202.102800 257157.400000
203.061500 986427.500000
204.045600 6905724.600000
204.082000 924262.600000
205.041200 623648.700000
205.053300 336896.600000
206.096500 97392.900000
208.099900 81048.900000
209.070700 110593.300000
209.107400 119805.400000
210.059000 120068.500000
210.071300 71915.300000
210.091000 121755.900000
211.067200 68517.600000
212.086500 567208.500000
213.082700 72135.100000
214.066200 135944.400000
215.061500 663260.400000
216.045500 121409.200000
216.069300 840247.800000
216.081700 348865.900000
217.040800 91515.400000
218.048200 78624.500000
218.083700 75101.000000
218.097700 63256.600000
219.056500 2427116.300000
219.091900 133143.600000
220.076000 100294.200000
221.071800 129384.100000
221.107800 100557.500000
222.079100 69258.900000
223.066500 1100219.200000
223.086600 850532.900000
223.122900 150953.400000
224.071300 140683.400000
224.106900 106217.300000
225.082800 77234.200000
226.053400 323440.200000
226.066200 245557.200000
226.102700 434647.500000
227.061200 128867.800000
228.069500 113120.100000
228.081500 112982.200000
229.076700 838920.500000
229.113800 264845.800000
230.060900 848776.200000
230.097300 357448.300000
231.056900 531986.300000
232.040200 1658586.000000
232.076700 926399.300000
233.071100 97611.700000
233.107500 273340.700000
234.090600 108740.400000
235.087100 126071.600000
236.072900 292301.900000
236.094800 150086.600000
237.065900 360187.900000
237.102400 958477.000000
238.086700 337398.500000
239.061600 972600.300000
239.097100 107482.400000
240.069300 1063311.400000
240.082100 341767.600000
241.077200 1018082.900000
241.089500 250254.500000
242.061400 135660.500000
243.056600 644538.700000
243.092500 535300.300000
244.076700 1359625.600000
246.056100 78975.800000
246.092400 155388.200000
249.065700 250303.700000
249.082100 94631.800000
249.102100 449584.700000
250.050400 69158.600000
250.073200 66746.600000
251.061500 126428.300000
251.081700 2019964.300000
251.097400 1336961.400000
251.117600 825282.400000
252.068400 427652.800000
252.102100 155784.900000
253.077200 3811020.600000
254.083600 226374.300000
254.097500 219968.600000
255.055900 104599.900000
255.093200 534325.200000
256.064200 120708.400000
256.076900 98246.600000
257.072100 3083498.800000
257.108300 767779.700000
258.056300 814686.200000
258.092400 2867989.000000
259.051300 5250436.700000
260.071800 4823869.600000
261.102600 283464.100000
264.089100 113013.100000
265.061400 132087.000000
265.077000 344682.200000
265.097000 801299.200000
266.085100 1345892.200000
267.056400 97685.200000
267.092800 1070629.000000
269.071900 1558371.600000
269.108900 359628.000000
270.056300 622722.700000
270.091900 462120.200000
271.051500 1347494.800000
271.087600 3592898.000000
271.124300 368163.700000
272.071400 992364.700000
273.067200 288908.500000
274.087400 2336241.100000
275.082600 146157.000000
279.076600 6750927.500000
279.092500 669391.900000
279.112300 1925831.700000
280.098300 278874.100000
281.072400 1287910.700000
281.108300 1981875.000000
282.092000 125965.300000
283.124100 72541.900000
285.066900 6000877.800000
285.079800 3532437.600000
285.103500 4776217.400000
286.087500 2048942.100000
287.082500 10897626.400000
295.087200 360950.900000
297.067800 623529.500000
297.103100 1765206.000000
298.087700 1761845.600000
299.082500 41679508.300000
300.066300 423747.600000
300.103700 130482.000000
301.098100 2820119.500000
307.107600 3716319.000000
309.103200 246950.400000
313.098100 7919833.300000
316.085300 2911190.300000
325.098400 693269.200000
327.077800 6694897.100000
327.113700 17733809.500000
328.097500 592960.800000
335.101500 87237.100000
353.092500 95584.800000
355.108800 9407621.100000

>ms2peaks
51.023000 64874.400000
53.038800 131061.300000
55.018000 68037.900000
65.038600 96651.800000
67.041700 259493.800000
67.054200 626162.300000
68.025700 78336.000000
68.049600 635881.000000
75.022900 107833.600000
77.038500 2107671.500000
78.033800 440996.900000
79.054200 13656613.800000
80.049400 75948.100000
80.062000 1044521.800000
81.033500 1074796.600000
81.069900 2210049.200000
91.054200 682085.700000
93.069800 366275.100000
95.049100 3244575.300000
97.064800 396466.300000
99.060200 75470.600000
101.038500 100711.300000
103.054300 128610.100000
104.049400 374074.300000
105.033500 572705.100000
105.044700 1639367.300000
106.028900 283556.000000
106.065000 122301.900000
107.049100 14881202.400000
108.056900 946338.500000
109.064700 128120.000000
116.049500 93317.800000
117.057300 105564.600000
118.065100 429662.800000
119.049000 252862.300000
120.037100 121910.900000
121.044800 7411363.800000
122.039900 407522.900000
124.019400 136657.900000
126.034700 115208.200000
127.055400 97047.400000
128.049400 1577707.300000
129.044600 1228714.500000
130.065100 128236.000000
132.044200 523790.600000
133.044700 269610.000000
134.040000 1316651.800000
134.060000 611425.200000
135.043500 1468686.700000
136.055800 308924.800000
138.034900 1488058.600000
140.014100 92232.600000
141.069700 73961.000000
143.060400 134877.200000
145.075900 119089.600000
146.040200 618011.700000
146.059900 824747.500000
147.048000 262681.400000
148.055600 14981431.400000
149.039700 4979287.400000
149.050800 523405.300000
149.063500 1454464.800000
150.034900 1572084.500000
151.030200 531537.200000
151.042700 96848.700000
152.014100 725507.700000
152.050300 351510.000000
154.029300 73734.000000
154.064900 288325.400000
155.060100 435061.400000
156.044200 1042751.900000
156.080900 297124.900000
157.052200 66278.800000
158.040300 84322.500000
160.043300 133093.600000
160.055700 386259.600000
161.050700 255556.400000
161.063800 105680.700000
162.035000 719109.900000
162.058600 144233.900000
162.071000 88750.200000
163.030300 567340.600000
163.042600 703833.000000
163.066600 513757.900000
164.050500 1029759.100000
164.070500 69898.200000
165.045900 327962.400000
165.070000 98431.800000
166.029900 327552.500000
166.065900 860253.900000
167.072900 367720.000000
168.081000 512728.600000
169.075800 79753.900000
170.059700 178511.200000
171.055100 625135.400000
172.039100 91395.200000
172.056100 79497.300000
173.051200 441736.700000
173.063400 63756.400000
173.070500 68953.000000
174.034600 136158.300000
174.054900 290620.700000
174.071100 254323.800000
175.042700 525182.100000
175.066700 330757.300000
176.050500 10822385.200000
177.046100 1150362.600000
177.058300 2426036.500000
178.029700 348465.600000
178.053300 82113.700000
178.065900 132629.000000
179.025100 1201030.600000
179.061300 324801.300000
180.045300 129935.600000
180.068300 67870.700000
180.080600 150812.000000
181.075800 458550.100000
181.088700 129858.300000
182.059500 114741.500000
182.083000 69213.300000
182.096500 116423.800000
183.055200 114458.100000
183.067700 104683.100000
184.039200 125696.300000
184.055700 240533.600000
184.075500 152953.600000
185.063100 305569.600000
185.070800 139429.700000
186.058600 335709.800000
186.071200 507838.000000
187.066400 105893.700000
188.050800 511873.000000
188.086900 135468.100000
189.045900 1516892.700000
189.058800 119410.400000
190.053700 2806507.800000
191.025000 319241.400000
191.061300 1773623.200000
192.069000 412924.900000
192.080400 115148.300000
193.040900 247827.300000
193.076700 592630.300000
194.061200 140643.200000
194.084100 132572.200000
194.097000 84640.200000
195.054900 88590.000000
195.091700 718634.600000
196.075700 406837.200000
197.071100 240755.900000
198.071500 735934.900000
199.050200 339697.300000
199.066300 101283.100000
200.074400 76982.100000
200.086800 462454.500000
201.046100 712274.900000
201.058000 413925.800000
201.066200 88031.200000
201.082500 251737.600000
202.053600 283309.100000
202.066200 345570.500000
202.102500 138923.100000
203.037600 110379.400000
203.061400 1198192.300000
203.073600 106231.700000
204.045600 2598491.500000
204.081800 892270.400000
205.040800 1107653.100000
205.053700 76315.100000
205.076600 571645.400000
206.084600 134349.500000
206.096200 112490.200000
207.091500 140163.400000
208.063500 79050.700000
208.099800 113178.900000
209.071100 799629.800000
209.107400 140640.900000
210.059100 689428.700000
210.091400 361886.500000
211.066600 353172.600000
211.078500 122582.800000
212.050600 272464.400000
212.087000 1739881.100000
213.046000 298643.300000
213.057600 132186.700000
213.082500 355910.700000
214.065700 506040.400000
215.061500 993394.000000
215.098100 112246.900000
216.045400 385414.700000
216.082000 699464.600000
217.077200 257721.200000
218.048500 69261.800000
218.061100 98893.800000
218.083900 150420.300000
218.097800 153098.600000
219.056500 3703047.100000
219.091400 311377.100000
220.075500 124119.500000
221.071400 526987.800000
221.106900 123332.800000
222.054700 80181.300000
222.079000 352188.100000
222.091500 146349.600000
223.050500 121646.100000
223.066700 1143824.400000
223.086600 1232564.600000
223.123300 129233.900000
224.072300 406201.200000
224.106400 65497.200000
225.082500 437901.700000
226.053600 679350.000000
226.066300 494597.100000
226.102500 302542.900000
227.061500 321030.800000
228.070000 116392.300000
228.082100 334877.400000
229.053400 285268.700000
229.077400 1365628.200000
229.112800 88847.100000
230.061200 1447034.200000
230.097500 284850.000000
231.056400 794072.700000
231.092200 520639.700000
232.040400 2252727.300000
232.076800 370387.300000
233.070600 301504.800000
233.107600 99918.000000
234.090400 92123.300000
235.086700 498795.400000
236.074500 695598.300000
236.094100 121791.900000
237.066000 769305.900000
237.082200 128309.200000
238.066200 81995.100000
238.087200 294865.800000
239.061500 1965957.200000
239.097500 147032.800000
240.069200 1146487.000000
240.082000 664616.600000
241.077100 1264162.200000
241.089700 686826.600000
242.061500 459301.900000
243.056600 892149.800000
243.092500 749094.800000
244.076900 885555.000000
245.071900 143725.200000
246.056200 512853.600000
246.092800 242797.300000
247.087200 80364.600000
249.066100 100990.000000
249.081200 80354.600000
249.102400 304695.100000
250.048900 66839.600000
250.073600 223422.700000
251.061100 266117.800000
251.081600 2754240.800000
251.097000 323591.200000
251.117600 398779.300000
252.069300 746398.400000
253.077200 2867180.700000
254.084600 94429.800000
254.097300 122862.300000
255.056300 125474.300000
255.092200 476649.600000
256.064400 309230.000000
256.076800 146672.200000
257.072000 3832640.500000
257.108200 269267.900000
258.056100 591714.100000
258.092400 836791.600000
259.051300 11687869.600000
260.071500 692615.300000
264.089400 138473.300000
265.061400 121055.300000
265.077200 736066.200000
265.096900 239212.500000
266.084700 1026529.500000
267.056300 294763.200000
267.092900 611422.000000
269.071900 1222586.300000
270.056300 1020938.300000
270.092200 122755.500000
271.051300 2715927.900000
271.087700 2811313.500000
272.071700 256462.300000
273.067000 575513.700000
274.087400 1401554.100000
275.082500 435139.800000
279.076500 4832012.400000
279.092100 342397.900000
279.112400 344084.700000
281.071800 404685.500000
281.108600 381786.000000
283.087600 309042.000000
285.066900 5553790.300000
285.080000 1615606.500000
287.082600 5040087.000000
297.067000 557700.500000
297.103100 340148.200000
298.087700 430369.600000
299.082500 21374857.300000
301.098500 453118.100000
307.107900 316436.500000
313.098000 618969.600000
316.085300 720793.700000
325.098800 179064.200000
327.077500 845023.100000
327.113600 1235666.700000

>ms2peaks
51.023200 130411.300000
53.038800 453129.400000
65.038700 403955.200000
66.046500 83727.300000
67.017900 243435.200000
67.041700 370837.600000
67.054300 723803.800000
68.025700 87761.100000
68.049500 667399.300000
69.033500 263200.000000
75.022800 667123.600000
76.018100 125486.000000
77.038500 3728317.400000
78.033800 748361.900000
78.046400 99460.900000
79.054200 16970075.200000
80.049500 113280.800000
80.062000 1596768.200000
81.033500 635293.900000
81.069900 1657017.900000
83.029200 360875.200000
89.038600 128755.500000
91.054200 1673357.700000
92.049500 79394.100000
93.057100 69626.100000
95.049100 6193580.900000
96.024500 103191.500000
96.044400 147705.800000
97.044800 66789.300000
97.064900 225251.700000
99.060500 81310.000000
101.038600 809425.200000
102.033600 87918.000000
103.054200 107823.700000
104.049400 447427.200000
105.033600 454017.000000
105.044700 4111787.400000
106.028700 418621.800000
106.065000 302298.900000
107.029200 964154.700000
107.049100 9912072.500000
108.024300 139945.900000
108.036800 83310.300000
108.057000 724867.600000
109.044700 305613.800000
109.065100 99334.100000
110.040100 263600.100000
111.024200 72801.100000
115.054200 248337.700000
116.049600 476631.800000
117.057100 149232.900000
118.028600 311841.800000
118.064900 356877.500000
119.049200 785820.100000
120.036900 243210.000000
121.044800 8332035.400000
122.040000 1194231.200000
123.023900 250162.500000
123.035300 98868.500000
124.019300 977713.200000
124.055500 135602.100000
126.034600 301244.900000
127.055400 79639.800000
128.049400 2892121.200000
129.044600 3904073.000000
130.065000 258597.100000
132.044400 406923.000000
133.044900 489746.200000
134.023500 304894.200000
134.040000 2598355.400000
134.060000 381140.600000
135.023900 145488.200000
135.043000 607388.500000
135.048200 1281608.500000
136.019200 339089.500000
136.031800 132516.600000
136.055900 588803.100000
137.026900 148666.000000
138.034900 2360090.300000
139.054200 266846.100000
140.049500 473081.300000
141.044800 124737.900000
141.057100 84337.900000
141.069600 138019.500000
142.052500 75489.500000
142.065400 80451.500000
143.060200 318157.600000
144.044300 241064.900000
146.040000 1103720.100000
146.052800 96280.200000
146.059900 1021901.500000
147.035400 80629.700000
147.048100 552218.400000
148.055600 14577297.700000
149.039700 2272659.700000
149.050800 829421.100000
149.063500 1651822.400000
150.034900 1863911.700000
151.030300 880033.100000
151.042500 243540.100000
152.014100 1729566.700000
152.038400 86488.400000
152.050500 551814.400000
153.045600 359710.500000
153.057300 93662.400000
153.069800 146472.300000
154.029800 128014.500000
154.039800 246281.700000
154.065000 926704.900000
155.060200 479216.000000
155.072900 124377.800000
156.044300 1180873.500000
156.068100 72965.400000
156.080700 297786.900000
157.052100 90168.000000
157.076000 150349.900000
158.039900 150397.200000
158.060000 103046.600000
159.048200 66012.900000
159.060600 110779.100000
160.043400 504000.400000
160.055700 450685.500000
161.051400 462101.800000
161.063600 383685.700000
162.034900 941987.200000
162.058600 150711.100000
162.071100 86725.700000
163.030200 1154712.600000
163.042500 700662.700000
163.066300 488497.100000
164.050400 1273122.200000
165.045700 657606.600000
165.069700 361318.100000
166.029700 518753.100000
166.065700 990655.700000
167.072900 700633.000000
168.044800 145100.000000
168.080700 775942.300000
169.064800 100573.800000
169.075500 111807.300000
170.059800 250863.100000
171.035500 84760.200000
171.048300 141328.500000
171.054700 868328.800000
172.055800 584604.600000
173.051200 693256.700000
173.063300 358515.500000
174.035100 429556.500000
174.054500 71017.400000
174.059100 76485.600000
174.071000 672716.200000
175.042800 775867.300000
175.066500 383151.300000
176.037900 316356.500000
176.050500 5618433.400000
177.046000 1469086.800000
177.058100 1745621.800000
178.029700 278196.100000
178.053300 285834.500000
178.065400 301492.100000
179.025000 2617292.300000
179.060700 379748.700000
180.045100 151583.900000
180.068100 107694.600000
180.080600 394923.500000
181.075900 627914.900000
181.088100 80752.200000
182.060000 483616.300000
182.083600 148100.400000
182.096400 144943.100000
183.055300 385638.500000
183.068000 245100.100000
184.039200 252127.500000
184.055700 276658.800000
184.075700 127504.700000
185.063400 841961.100000
185.070600 164345.400000
186.058900 437999.500000
186.071500 592107.400000
187.066400 369548.700000
187.079000 128880.900000
188.050600 1191038.900000
188.087100 143710.600000
189.045800 2012167.300000
189.058800 234105.300000
190.029500 285929.100000
190.053600 972191.400000
190.065500 296799.600000
191.025000 1164765.400000
191.061300 1050101.700000
191.072500 276884.900000
192.068600 796058.400000
192.080500 302864.600000
193.041200 148607.900000
193.076300 589184.900000
194.060500 465181.000000
194.083800 114486.400000
194.096400 105493.600000
195.055000 333364.800000
195.091400 836116.700000
196.055400 121352.900000
196.075700 632319.600000
197.050700 107810.100000
197.063100 98575.900000
197.071100 251724.900000
198.071300 1046809.000000
199.049800 682270.700000
199.066500 376855.000000
200.050500 414275.200000
200.074500 274495.600000
200.086600 663251.000000
201.045700 875509.400000
201.058300 588694.000000
201.082300 345118.300000
202.054500 543898.000000
202.065800 671829.500000
202.102600 72667.200000
203.037700 171930.700000
203.061400 1365329.100000
204.045600 1565387.900000
204.081600 582052.400000
205.040800 1847409.800000
205.076200 822041.500000
206.059800 109000.800000
206.083700 275615.900000
206.096900 78189.200000
207.068700 82678.700000
207.091700 243703.900000
208.063100 323781.700000
208.099300 70448.800000
209.071000 879566.400000
209.107100 72906.400000
210.058300 699837.200000
210.091800 104730.600000
211.050700 510239.300000
211.066600 617656.200000
212.049800 522452.900000
212.086900 2472899.000000
213.046000 524124.500000
213.082500 515149.900000
214.066300 504520.000000
215.061500 835771.300000
216.045400 374601.200000
216.069300 514061.600000
216.081800 391810.100000
217.040800 263722.500000
217.077000 537714.400000
218.060900 130154.300000
218.084100 329664.100000
219.056500 3902392.900000
219.091900 287490.600000
220.075800 362752.400000
221.071000 895871.200000
221.107100 80724.800000
222.055100 260983.000000
222.078500 302230.000000
223.050800 649715.900000
223.066700 1015114.200000
223.086300 798115.200000
224.058000 108399.000000
224.073400 293102.900000
225.056900 105665.900000
225.066400 118636.800000
225.082300 243415.600000
226.053500 593062.000000
226.065900 263872.300000
226.101700 66539.700000
227.062000 457900.300000
228.045900 78548.600000
228.069100 144329.100000
228.081700 94864.500000
229.052200 85441.400000
229.077200 663196.900000
230.060900 959035.000000
231.056400 1557535.900000
231.092000 420030.300000
232.040400 1223580.200000
232.075500 73428.900000
233.071000 106071.400000
235.066100 113392.100000
235.086700 395240.700000
236.073900 461983.800000
237.065900 820368.200000
237.081900 120465.800000
237.102300 83155.500000
238.085800 78193.500000
239.061500 2238189.700000
240.069000 597963.900000
240.081800 1002952.100000
241.077300 565822.200000
242.060800 275985.700000
243.056600 835653.100000
243.092500 537897.000000
244.076400 130777.400000
245.071800 348931.700000
246.055800 271244.600000
247.050700 93026.400000
247.086700 124046.600000
249.065700 380355.200000
249.082400 129118.300000
249.102200 73357.200000
250.073400 246203.000000
251.061200 419478.500000
251.081600 1429490.600000
252.069200 742687.800000
253.077300 1414356.800000
255.093100 352998.400000
257.072000 1441758.300000
258.055800 116343.300000
258.092800 70548.800000
259.051300 9340717.000000
265.077100 718566.200000
266.084700 276391.300000
267.092900 91199.500000
269.071600 411256.300000
270.056500 595685.800000
271.051300 1303095.500000
271.087700 969516.400000
273.067300 467561.100000
275.082500 121969.000000
279.076500 1141863.400000
281.071600 91170.800000
285.066700 1385091.300000
287.082600 1509164.000000
297.067500 290709.600000
298.088000 104375.400000
299.082600 3220276.100000

>ms2peaks
53.038800 734054.900000
55.018100 86728.300000
63.023000 270875.091800
65.038600 698107.700000
66.046400 76574.100000
67.017900 107029.700000
67.054300 672888.100000
68.025700 82322.200000
68.049500 601918.700000
69.033500 274299.100000
75.022900 2019741.900000
76.018200 232491.200000
77.038500 5306744.700000
78.033800 793798.900000
78.046400 134145.800000
79.054200 16622951.500000
80.049500 148748.900000
80.062000 1493433.100000
81.033500 505224.500000
81.069900 1030482.700000
83.029100 1052918.700000
89.038400 452671.800000
91.054200 1525294.800000
92.049400 122767.300000
93.057300 117192.800000
95.049100 9413420.900000
96.024300 485178.300000
96.044300 364976.000000
97.044700 72369.300000
97.064900 84447.100000
101.038500 1442331.300000
102.033700 255866.600000
103.054200 337449.400000
104.049500 823741.100000
105.033500 530588.200000
105.044700 6506716.800000
106.028700 259940.100000
106.064900 74796.800000
107.029100 2454503.500000
107.049100 4595264.400000
108.024300 533403.500000
108.036900 338652.900000
108.056900 280003.000000
109.044700 456404.000000
110.040200 581552.900000
111.024000 139199.500000
114.034000 584679.960200
115.054300 674146.000000
116.049400 974629.700000
117.057300 465268.500000
118.028600 148305.900000
118.065200 323596.300000
119.049100 1576729.200000
120.037000 537946.100000
121.044700 6238916.700000
122.040000 1885733.800000
123.023900 121098.300000
123.035100 627500.800000
124.019200 2095123.100000
124.055800 133698.500000
126.034600 528643.000000
128.049500 3982231.000000
129.044600 6699566.700000
130.065200 382130.400000
132.044400 272848.000000
133.044700 941007.500000
134.023600 400284.900000
134.039900 2402411.500000
134.059900 348755.300000
135.024000 106301.000000
135.043000 118714.600000
135.047800 1985589.800000
136.019300 512775.100000
136.031700 86986.100000
136.055800 627168.700000
137.027000 260012.200000
138.034900 2595638.700000
139.054000 274791.500000
140.049400 1172902.000000
141.044800 268998.400000
141.057200 269247.600000
141.069800 129270.900000
142.052600 131330.600000
142.065200 89621.100000
143.060600 474621.100000
144.044300 258455.500000
145.076500 96745.100000
146.040100 1209004.400000
146.052900 141946.400000
146.060100 723602.400000
147.035400 340235.000000
147.048000 673105.900000
148.055600 10165114.100000
149.039700 1335674.500000
149.050800 844285.000000
149.063400 1119041.100000
150.034900 1706229.200000
151.030100 1375989.100000
151.042900 244007.900000
152.014200 2276251.000000
152.038000 235275.700000
152.050500 582381.900000
153.045400 334235.000000
153.057400 248911.400000
153.069900 257211.800000
154.030100 137765.200000
154.039900 558624.000000
154.064900 1368436.500000
155.060300 1359981.900000
155.072700 107634.500000
156.044300 1130971.300000
156.067900 81215.700000
157.052300 130611.500000
157.076000 97469.200000
158.039900 405511.500000
158.060300 83101.800000
159.048200 188208.300000
159.060600 74999.800000
160.043400 737672.900000
160.055900 541790.500000
161.051200 525905.800000
161.063400 390379.600000
162.034900 917450.900000
162.058400 132525.300000
162.071300 152089.200000
163.030100 2150467.600000
163.042300 606423.000000
163.066500 509020.000000
164.050400 1286911.600000
165.045800 524006.700000
165.070000 298112.600000
166.029800 300370.700000
166.065400 1023236.347000
167.072800 1385438.900000
168.044800 69681.900000
168.080800 407915.000000
169.065100 85011.300000
169.076100 410309.600000
170.059800 399919.600000
171.035500 81584.200000
171.048300 167824.300000
171.055100 700731.600000
172.039200 72913.700000
172.055600 1012908.900000
173.050900 932527.400000
173.063400 330549.700000
174.035000 417216.900000
174.059100 146230.900000
174.071100 556784.000000
175.042500 699182.500000
175.066500 268656.500000
176.038100 268326.500000
176.050500 3193424.500000
177.045800 1521344.400000
177.057800 1024294.700000
178.029500 249945.900000
178.053500 387713.100000
178.065100 751696.000000
179.025100 3687630.200000
180.045100 112019.700000
180.068200 336127.100000
180.080500 646443.100000
181.075500 534921.100000
181.088500 97402.400000
182.060000 418823.900000
182.096400 75692.100000
183.054700 548719.400000
183.067900 68076.000000
184.039400 334003.700000
184.055900 793234.600000
184.075500 93762.300000
185.063500 971162.800000
185.070200 108160.400000
186.058800 528795.700000
186.070900 664253.900000
187.066800 413094.000000
187.079500 110039.500000
188.050600 1190897.900000
188.087100 110329.500000
189.045900 1349650.800000
190.029800 482038.600000
190.053300 408637.300000
190.065400 375250.500000
191.025100 1151721.800000
191.060700 667651.700000
191.073300 442372.800000
192.068500 911541.700000
192.080900 278281.200000
193.040900 302468.300000
193.076000 636725.600000
194.060500 255053.800000
194.084000 253158.600000
195.055300 318042.300000
195.091200 474882.300000
196.055600 239219.700000
196.076100 97406.200000
197.051000 271941.600000
197.063300 289107.700000
197.071000 87457.600000
198.071200 797463.500000
199.050300 477432.300000
199.066600 369206.900000
200.050700 381008.600000
200.074000 291782.800000
200.087100 486935.500000
201.045600 741420.000000
201.058400 339783.300000
201.082400 334293.000000
202.053800 386811.900000
202.065900 479388.700000
203.037700 117479.000000
203.061200 1266279.100000
203.072800 109458.700000
204.045700 702810.300000
205.041000 1063750.300000
205.075700 760876.100000
206.060100 103580.800000
206.084000 124246.200000
207.068600 88583.100000
207.091800 261770.100000
208.063700 143370.700000
209.071200 397900.400000
210.058600 938858.900000
210.071400 375186.900000
211.050700 516801.200000
211.066800 517834.600000
211.079400 240495.700000
212.050700 757278.300000
212.086800 1349354.300000
213.046200 501333.900000
213.057400 77666.900000
213.082300 277179.700000
214.065900 520310.300000
215.061600 727316.100000
215.097700 105172.000000
216.045900 233611.100000
216.069200 136458.900000
216.081600 135997.600000
217.040800 130899.800000
217.076200 470797.900000
218.083400 135943.400000
219.056400 2134330.800000
219.092300 278711.100000
220.075700 306292.500000
221.070900 570912.400000
222.055900 259035.200000
222.079500 208639.700000
222.090900 67848.500000
223.050200 431235.500000
223.066600 779245.700000
223.086600 391300.800000
224.057900 84040.300000
224.074200 243638.700000
225.057500 92724.100000
225.067100 87592.400000
225.082400 123256.600000
226.053700 458942.400000
226.066600 244846.600000
227.061800 437281.700000
228.045700 137381.000000
228.069500 122458.400000
228.081300 121329.400000
229.077000 564359.900000
230.061400 293678.100000
231.056300 1227151.600000
231.092100 103690.100000
232.041200 467576.000000
235.066700 347812.200000
235.086200 129992.600000
236.072100 145486.800000
237.066000 345349.200000
237.082700 135808.000000
238.065800 116161.700000
239.061400 1263692.400000
239.097400 68201.000000
240.069300 255394.500000
240.081800 484750.300000
241.077300 147137.300000
243.056700 417936.700000
243.092500 146263.100000
245.072300 115459.800000
246.055500 67894.300000
247.052100 76903.800000
249.066200 115103.500000
251.061400 175581.800000
251.081900 314813.800000
252.069700 253911.500000
253.077300 333807.700000
257.072100 248800.100000
259.051200 3853087.800000
265.077500 329086.700000
270.056800 139780.400000
271.051300 150306.300000
271.087300 132148.300000
279.076300 82707.600000
285.066800 100708.900000
287.083000 338476.200000
299.082400 106664.500000

