>compound EQ55762830
>parentmass 316.0347
>ionization [M+H]+
>formula C14H9ClF3NO2
>rt 780.000000
>profile orbitrap
#smiles_iso C1CC1C#C[C@]2(C3=C(C=CC(=C3)Cl)NC(=O)O2)C(F)(F)F
#smiles_can C1CC1C#CC2(C3=C(C=CC(=C3)Cl)NC(=O)O2)C(F)(F)F
#inchikey XPOQHMRABVBWPR-ZDUSSCGKSA-N
#pubchem_id 64139
#mb_accession EQ329201,EQ329202,EQ329203,EQ329204,EQ329205,EQ329206

>ms2peaks
50.015300 185758.000000
51.023000 158641.000000
53.038600 2479467.500000
81.033500 424188.700000
142.077500 46803.800000
167.072600 607462.000000
168.080700 7669289.000000
177.046500 174255.800000
188.026100 950088.900000
200.007100 155327.300000
201.033700 751155.400000
202.041800 1058567.400000
203.049500 8355784.500000
208.032200 69522.300000
216.061200 366750.800000
217.070000 1403023.000000
219.044300 46137.600000
220.013500 4468887.500000
222.052500 3317616.200000
224.007300 331527.300000
226.022900 51549.600000
229.029100 763276.400000
232.013700 13341143.000000
232.031700 4177720.500000
233.993500 46995.600000
235.060300 428326.100000
236.068200 4007830.500000
237.076000 16412092.000000
239.030400 203186.500000
244.013600 33036642.000000
247.039800 234355.100000
248.027200 59621.400000
250.022900 1097918.600000
251.031100 44100.900000
252.038600 9491985.000000
256.013500 87470.300000
257.021400 945288.400000
258.011600 162325.100000
263.054700 395494.000000
268.032800 51331.300000
270.029200 3573286.800000
272.044800 26484724.000000
274.023700 45346.500000
276.022800 321709.100000
278.017800 4199015.500000
288.039800 141945.500000
296.028200 481936.100000
298.024100 5202482.500000
316.034600 21261828.000000

>ms2peaks
50.015200 152600.600000
51.023000 315826.300000
53.038600 3752370.800000
81.033400 261241.100000
142.077700 185723.100000
151.018200 229987.200000
154.064800 37971.900000
164.026200 200054.700000
167.072900 1667266.200000
168.080700 17590284.000000
185.044700 427860.700000
185.063300 48742.000000
188.026100 2498858.200000
189.038400 51981.100000
194.059500 67479.100000
195.047600 44429.500000
197.063500 360657.300000
200.007700 436922.800000
201.033900 4194497.500000
202.041600 3244814.200000
203.049400 9197686.000000
209.044600 154250.000000
212.007200 391801.900000
215.053700 191535.100000
216.061900 928928.500000
217.069800 3420258.200000
218.036800 48035.300000
219.025000 249347.300000
220.013500 3766756.500000
222.052500 4588932.500000
223.042400 87047.400000
224.007200 4576018.000000
226.022900 150451.900000
228.020700 173202.100000
229.028900 516624.500000
230.016700 833044.400000
232.013700 13379602.000000
232.031900 6845205.500000
233.992400 77657.000000
235.060300 1638109.000000
236.068100 3503839.800000
237.015000 1097391.900000
237.075900 8811207.000000
239.030500 343215.900000
243.049100 64219.800000
244.013500 32669130.000000
247.040000 112538.400000
248.026900 212477.700000
250.022900 4988903.500000
251.030700 139889.800000
252.038500 4964588.000000
256.013800 282692.200000
257.021400 558540.800000
258.011300 459073.800000
263.055200 725332.700000
265.008800 42578.000000
270.029100 2414840.000000
272.044700 2752534.500000
276.022100 247521.000000
278.017700 3295563.000000
288.039300 48965.600000
298.024000 725990.600000
316.034600 147070.200000

>ms2peaks
50.015300 202378.400000
51.023100 211239.600000
53.038700 3127822.200000
77.019700 42854.900000
115.053900 49537.400000
141.069700 74035.500000
142.077800 215559.400000
151.018300 1093700.900000
153.057300 46681.200000
154.064900 84266.400000
162.010700 33874.200000
164.026100 946825.900000
166.065300 371965.200000
167.073000 4743347.000000
168.080800 23024990.000000
170.052500 164794.800000
172.055500 178153.900000
172.996100 63341.000000
174.010500 154002.600000
175.018400 646444.900000
177.057300 245241.200000
180.971500 51626.500000
182.016500 140226.000000
182.033800 48989.200000
183.996100 51726.200000
185.044800 1354855.900000
185.063800 478646.900000
185.991800 67357.100000
186.071600 134197.500000
188.026200 4208874.000000
189.038500 1145060.400000
190.046300 50254.200000
192.001200 174666.600000
193.051900 127339.000000
194.059600 86327.100000
195.048100 236741.800000
196.055700 309513.000000
197.063500 1396684.900000
198.052400 267325.000000
198.071500 228101.800000
200.007200 885252.500000
200.025700 67899.300000
201.033900 5522611.000000
202.041600 5412589.500000
203.049500 3579209.800000
204.001600 171134.400000
204.021700 47929.200000
204.062600 62449.400000
205.022100 36619.400000
206.016900 194325.300000
206.041300 80831.800000
207.024200 55659.900000
208.037100 58323.800000
209.044700 967958.100000
210.011700 155157.000000
212.007400 3451588.200000
213.058700 52855.700000
214.046100 186243.700000
214.066200 59621.300000
215.054100 1340661.600000
216.062000 2079501.100000
217.002700 208152.000000
217.069800 2621047.500000
218.036400 147485.700000
218.077300 41153.600000
219.024800 562175.100000
220.013700 1218480.200000
222.052600 4878082.500000
223.042600 126594.500000
224.007300 18395452.000000
226.023100 66584.300000
228.020800 87061.600000
229.029100 328997.800000
230.016900 1743911.100000
231.024600 81079.100000
232.013800 10216494.000000
232.032000 6428392.500000
234.053100 78975.100000
234.072400 53385.900000
235.060300 1938704.200000
236.068200 2799515.000000
237.015100 2137333.000000
237.076100 1916147.000000
239.030500 182029.300000
242.017700 68401.700000
243.005400 43360.700000
243.049200 81487.000000
244.013600 15768137.000000
246.031600 53462.000000
247.040500 39915.800000
248.027400 204205.400000
250.023000 6780756.000000
251.031300 138269.300000
252.038600 583852.100000
256.013300 378158.800000
257.020900 200973.000000
258.011900 288752.200000
263.055200 283940.700000
265.010400 41897.800000
269.020300 68025.200000
270.029500 405412.600000
272.044200 124423.000000
278.017700 453057.500000
298.025200 56904.600000

>ms2peaks
50.015300 232400.800000
51.023100 196499.700000
53.038700 2593762.200000
115.054200 79051.200000
138.027600 802785.200000
139.053800 63347.300000
140.049200 248589.300000
141.069800 464469.300000
142.077800 144618.200000
151.018400 1132970.200000
153.057400 39595.500000
154.065100 176417.200000
162.010600 825245.500000
164.026100 1786416.100000
165.038700 140275.200000
166.065200 1739037.100000
167.073000 10235283.000000
168.080800 18060258.000000
169.032400 277834.900000
169.044800 42833.800000
169.076000 70413.500000
170.052800 603340.300000
170.059500 63183.100000
171.047800 52070.400000
172.055500 399357.800000
172.996600 509816.000000
174.010500 1036724.100000
175.018400 1300503.000000
176.030600 169235.600000
177.039200 270390.500000
177.057300 452857.200000
180.021200 169260.100000
182.016500 415083.100000
182.033500 300660.400000
182.040400 41967.500000
183.996000 590243.300000
184.036500 119530.000000
184.055700 197028.900000
184.996300 417746.800000
185.044900 1573570.200000
185.063600 881583.800000
185.991800 322332.000000
186.035300 42883.600000
186.071600 65044.900000
187.055600 198395.500000
188.026100 4484788.000000
188.042800 271488.400000
189.038500 4009198.500000
190.046300 363159.000000
192.001100 1508519.600000
193.052200 161656.500000
194.040600 42819.900000
194.060300 173040.500000
195.048000 1096268.600000
196.037200 64193.600000
196.055700 873095.100000
196.996400 159973.300000
197.044300 172334.000000
197.063500 2861916.200000
198.011600 139767.800000
198.052600 382311.300000
198.071200 439075.500000
200.007300 862611.600000
200.026000 216780.800000
201.033900 4489598.500000
202.041300 3928120.000000
203.049200 634349.100000
204.001400 712522.800000
204.021600 200165.900000
204.062600 80135.500000
206.017000 351446.000000
206.041400 530233.900000
207.024700 42922.100000
208.037100 281726.200000
209.044800 1339201.000000
210.011900 537546.000000
212.007400 4656171.500000
213.038100 53084.200000
213.058100 40658.700000
214.046100 467379.800000
214.066200 47391.200000
215.054100 2810831.800000
216.002400 172286.800000
216.037500 291385.800000
216.062000 3252803.500000
217.069800 1156412.000000
218.037500 81491.400000
218.077500 50384.600000
219.024700 414901.800000
220.013900 64550.400000
220.032300 80866.700000
220.057300 54624.300000
222.011900 566056.600000
222.052600 3864834.500000
223.042900 51504.000000
224.007400 18564274.000000
228.021500 64668.000000
230.016900 1633395.500000
231.024500 184184.800000
232.013800 4175160.500000
232.032100 2726139.800000
234.052900 160284.400000
234.073200 48842.700000
235.060300 1025076.200000
236.068200 1717250.100000
237.015200 2296200.500000
237.076300 321186.100000
238.022500 49221.700000
242.018300 46436.100000
243.005600 60674.200000
243.049300 68999.900000
244.013700 3099246.800000
247.044500 77061.400000
248.027300 42004.300000
249.015800 45274.100000
250.023100 3056519.800000
256.013700 189089.000000
263.055100 46841.900000
269.021400 61977.800000
270.028300 59977.200000

>ms2peaks
50.015300 175547.200000
51.023100 183970.800000
53.038700 2267614.200000
77.019700 31317.600000
89.038300 50435.400000
115.054200 342875.200000
116.049400 33341.500000
126.046100 44078.200000
127.041700 275407.800000
128.049300 274479.900000
129.057400 48482.300000
135.047800 41467.800000
138.027500 3044303.800000
139.054100 484091.300000
140.049400 1218389.900000
140.061900 193538.000000
141.069800 1206945.900000
142.065500 45567.100000
144.037100 83048.200000
145.064700 45287.900000
146.040000 51153.300000
146.059600 43629.400000
146.999900 36868.800000
147.047900 52016.800000
148.018100 56961.600000
149.038400 37537.900000
150.046500 52760.700000
151.018300 1298228.400000
151.035300 156487.900000
152.049200 48630.300000
152.990000 261188.000000
153.057400 310747.400000
154.040100 48380.600000
154.065100 174010.500000
157.025800 47974.500000
157.052200 66640.900000
158.034300 42845.200000
158.039800 274643.200000
159.047500 71523.700000
159.080400 58427.000000
162.010500 1810774.900000
162.027400 722614.700000
163.022900 208772.900000
164.026000 2089537.600000
164.049400 324958.700000
165.038500 388275.400000
165.057400 375438.400000
166.065200 4063628.500000
167.073000 17174404.000000
168.080700 10490764.000000
169.032200 1177879.500000
169.044500 166155.700000
169.076000 201253.100000
170.052500 1133319.600000
170.059800 128532.300000
171.047700 157878.900000
172.055600 742578.100000
172.996300 839888.400000
173.015200 179338.300000
173.050500 51734.700000
174.010500 1911808.200000
175.018300 1442662.400000
175.035200 220348.800000
176.031000 539440.800000
177.038800 645542.400000
177.057300 717201.900000
178.046300 59997.800000
178.065000 55555.000000
179.030300 42145.500000
180.021400 342245.800000
180.996400 138151.800000
182.016700 805028.400000
182.033700 196859.900000
182.040600 66931.800000
183.067900 182811.400000
183.996100 1047171.500000
184.055800 384102.900000
184.075900 165215.700000
184.996500 688538.600000
185.044900 1026356.800000
185.063500 1097098.000000
185.991700 577259.800000
186.034800 336522.200000
187.055600 284486.300000
188.025900 4447863.500000
188.043100 689521.900000
189.038500 8260010.000000
190.005400 218890.100000
190.046200 654467.800000
192.001000 2615268.800000
193.052700 58300.400000
194.060000 185458.300000
195.047900 1863756.800000
196.055700 1898262.100000
197.044000 173425.500000
197.063400 2735118.500000
198.011600 133600.500000
198.052500 312673.700000
198.071200 338111.600000
198.998800 42801.700000
200.007200 633780.800000
200.025400 322781.000000
200.050100 103818.200000
201.033800 2390400.500000
202.042000 1849162.500000
203.054000 160317.100000
204.001500 798065.600000
204.021600 59993.800000
205.046000 41474.400000
206.016900 294824.700000
206.041200 920604.500000
208.036900 249031.200000
209.044900 875269.700000
210.011700 358866.100000
212.007400 2414934.200000
213.038300 196461.800000
214.046300 1072719.600000
214.066300 55631.200000
215.054100 2462212.000000
216.002000 235302.500000
216.037100 451899.900000
216.062000 3264972.000000
217.069900 336887.700000
218.036600 60079.900000
219.024600 294479.500000
220.032300 82612.300000
220.056800 408314.100000
221.044200 42741.300000
222.011900 594197.700000
222.052800 2139247.500000
222.999300 144355.300000
224.007300 8018136.000000
225.002800 41479.300000
228.020600 47558.000000
230.017100 576419.625000
231.024300 84222.800000
232.013900 914496.800000
232.032500 931509.900000
234.052600 221164.400000
234.072200 73843.400000
235.060600 393007.400000
236.068300 719603.800000
237.015200 1462431.800000
238.022700 83782.300000
243.005300 47283.200000
244.013400 268881.500000
247.044000 215450.000000
249.015700 58215.700000
250.022900 1174465.400000
256.013400 61113.100000

>ms2peaks
50.015300 156224.700000
51.023100 179208.800000
53.038700 1515258.500000
75.004000 32358.800000
75.022900 162055.000000
77.002200 64302.300000
87.022900 64660.000000
89.038500 335526.000000
91.054300 43884.500000
98.015000 44996.700000
99.023000 168870.200000
102.046400 53021.700000
107.029200 61889.600000
113.038700 159377.300000
115.054200 1154664.100000
116.049500 216784.200000
117.013400 43281.800000
118.021200 155422.400000
122.999400 173035.300000
123.994800 56947.000000
124.007400 85958.800000
125.038700 60225.200000
126.033900 53886.700000
126.046400 209998.100000
127.041600 875589.000000
128.049400 610598.200000
129.044700 87427.300000
129.057400 155498.900000
132.984000 82672.100000
135.047700 188586.500000
137.019400 122010.700000
138.027500 5031336.500000
139.041600 137917.100000
139.054200 1786657.400000
140.049400 2540756.000000
140.061800 453384.200000
141.057300 162201.100000
141.069800 1399696.200000
142.021500 57377.100000
143.036500 49650.900000
144.036900 270921.200000
144.044400 44074.100000
145.032600 250607.700000
145.065300 39976.400000
146.040100 155930.800000
146.060200 149125.100000
146.999800 408999.000000
147.047900 80012.900000
148.018100 391863.000000
149.014800 45551.800000
149.038500 50799.300000
150.027900 50128.600000
150.034500 59239.800000
150.046600 255639.700000
151.018400 1350909.600000
151.035300 158744.400000
151.041700 76915.800000
152.030600 64299.700000
152.049500 171321.300000
152.990100 469290.400000
153.057300 1092658.200000
154.040100 329743.200000
154.065100 178358.500000
157.026400 50095.400000
157.044700 216124.000000
157.052200 319820.100000
158.034000 47566.800000
158.040000 480072.100000
159.047900 238317.700000
159.080700 45661.800000
161.019800 61243.400000
162.010500 2304814.000000
162.027500 1875775.100000
163.005600 78698.000000
163.023200 372903.900000
164.026000 1698853.400000
164.049500 643942.000000
164.990100 56634.800000
165.038500 517648.000000
165.057400 446616.900000
166.065200 5228698.500000
167.072900 20733824.000000
168.024800 505270.600000
168.037000 591143.100000
168.080700 4226541.000000
169.032200 1945789.000000
169.044600 185435.200000
169.064600 165190.700000
169.076000 231536.800000
170.052500 1593252.000000
170.060000 499243.500000
171.048000 330671.000000
172.055700 1651094.900000
172.996200 443672.600000
173.015500 246844.600000
173.051000 42512.600000
174.010500 2186428.000000
175.018400 905116.500000
175.035300 543628.100000
175.042400 297170.700000
176.030800 904363.400000
176.049500 58017.300000
177.039000 422112.100000
177.057200 678771.900000
178.046400 69772.800000
178.065300 187341.500000
180.021000 435386.500000
180.995900 141076.200000
182.016600 477999.500000
182.033700 241428.600000
182.040600 256713.000000
183.068000 174482.200000
183.996000 1063636.100000
184.055700 708933.800000
184.996500 615462.000000
185.045300 393330.600000
185.063700 912642.700000
185.991700 594403.700000
186.027700 51313.200000
186.035100 709583.800000
186.071100 47254.000000
187.055500 594499.400000
188.025900 3266936.500000
188.043300 1148873.500000
189.038500 7074766.000000
190.046200 984141.200000
191.041800 41483.700000
192.001000 2668007.500000
193.032600 61999.400000
194.039500 63242.900000
194.060000 253431.400000
195.047900 2004458.400000
196.055700 2228380.200000
197.051100 239970.400000
197.063400 1455947.500000
198.052800 84689.600000
198.071400 260194.200000
198.999300 40397.600000
200.025600 280175.200000
200.050500 168241.800000
201.033700 1017305.700000
202.047000 2153901.000000
203.054100 255312.400000
204.001900 437779.000000
204.055700 82092.300000
205.046000 70153.100000
206.017000 314550.100000
206.041400 513202.900000
208.037000 286452.500000
209.044700 487421.600000
210.011600 235351.800000
212.007500 648056.100000
212.050600 172545.000000
213.038100 252480.800000
214.046300 1519484.600000
215.042800 67611.500000
215.054100 1044736.800000
216.002200 134291.200000
216.062000 2116466.000000
218.037300 34726.300000
219.024400 77420.100000
220.057000 256394.400000
221.028100 68974.700000
222.011600 255326.500000
222.053000 900300.800000
222.999600 150981.200000
224.007300 1930328.000000
225.002700 40274.000000
230.016700 76252.300000
231.024400 40103.700000
232.013800 189128.200000
232.032300 140874.000000
234.052200 122513.800000
235.060400 86208.100000
236.007300 56288.500000
236.067700 249033.900000
237.015200 510527.600000
247.044300 40703.700000
250.022500 357443.100000

