>compound EQ55321851
>parentmass 213.03279999999998
>ionization [M+H]+
>formula C8H8N2O3S
>rt 264.000000
>profile orbitrap
#smiles_iso C1=CC=C2C(=C1)C(=NO2)CS(=O)(=O)N
#smiles_can C1=CC=C2C(=C1)C(=NO2)CS(=O)(=O)N
#inchikey UBQNRHZMVUUOMG-UHFFFAOYSA-N
#pubchem_id 5734
#mb_accession EQ313201,EQ313202,EQ313203,EQ313204,EQ313205,EQ313206

>ms2peaks
120.044100 129827.700000
149.071000 554289.100000
150.055100 4127962.500000
213.033000 1963058.000000

>ms2peaks
77.038400 96540.800000
104.049400 212480.900000
105.033500 57903.600000
120.044400 120857.400000
132.044500 85572.300000
149.071200 371862.600000
150.055100 5998260.300000
213.033000 631319.400000

>ms2peaks
50.015200 61627.100000
51.023100 119733.800000
53.038700 359691.200000
77.038700 345571.400000
95.049200 773147.600000
104.049600 987452.000000
105.033600 496286.900000
105.044900 221716.500000
120.044400 98294.600000
130.040200 76342.300000
132.044500 72763.000000
149.071500 57987.200000
150.055200 4023633.400000

>ms2peaks
50.015300 125042.800000
51.023100 115131.200000
53.038700 810468.000000
77.038600 754633.500000
95.049300 1846070.800000
104.049600 1588798.600000
105.033600 553727.500000
105.044800 575231.500000
120.044300 239108.000000
130.040100 318028.000000
132.044300 61390.800000
150.055100 2721918.600000

>ms2peaks
50.015300 478863.700000
51.023100 628861.500000
53.038700 997038.200000
55.017900 52282.600000
75.022900 75459.000000
77.038600 1575184.100000
95.049200 2686866.900000
96.044400 109111.600000
102.033900 113601.500000
104.049600 1152950.100000
105.033700 528730.700000
105.044800 885703.700000
120.044200 309950.500000
130.040200 595585.500000
150.055200 1077027.200000

>ms2peaks
50.015300 1307557.900000
51.023100 1324888.800000
53.038700 1235294.100000
55.018000 58495.100000
75.022900 132080.800000
77.038600 1669994.200000
92.025600 105476.076800
95.049200 3223855.700000
96.044300 115242.400000
102.033900 115004.100000
104.049500 882953.100000
105.033500 282378.000000
105.044900 1026873.000000
120.044300 132622.300000
130.039800 422592.800000
150.055200 155348.800000

