>compound EQ56279140
>parentmass 493.1112
>ionization [M+H]+
>formula C17H19F3N6O6S
>rt 648.000000
>profile orbitrap
#smiles_iso CC1=C(C(=CC=C1)C(=O)OC)S(=O)(=O)NC(=O)NC2=NC(=NC(=N2)OCC(F)(F)F)N(C)C
#smiles_can CC1=C(C(=CC=C1)C(=O)OC)S(=O)(=O)NC(=O)NC2=NC(=NC(=N2)OCC(F)(F)F)N(C)C
#inchikey IMEVJVISCHQJRM-UHFFFAOYSA-N
#pubchem_id 92434
#mb_accession EQ318201,EQ318202,EQ318203,EQ318204,EQ318205,EQ318206

>ms2peaks
71.060200 931164.000000
96.055400 1267856.600000
213.021300 3210000.500000
238.090800 15715387.000000
264.070000 517919714.500000
461.084700 42690213.380000

>ms2peaks
71.060300 1531575.100000
96.055200 3468036.000000
149.059600 2420122.000000
213.021500 8308521.900000
238.090900 22112455.300000
264.070100 592746486.100000

>ms2peaks
69.008300 932769.400000
71.060300 15304653.500000
72.044400 547330.500000
91.054100 2212394.800000
96.055500 81619769.000000
114.066100 833846.700000
134.059900 746222.300000
138.077300 4696735.700000
140.045400 752082.100000
149.059600 14073295.300000
151.011300 6333570.000000
153.063000 1004328.500000
176.062800 3918235.600000
182.067200 2894355.400000
198.021700 1110080.500000
213.021500 4394647.800000
238.090800 21903854.800000
239.074900 7750828.300000
244.064000 6809313.900000
264.070100 521524220.500000

>ms2peaks
55.029300 538940.100000
65.038600 512021.100000
67.029100 302265.600000
69.008300 4386225.600000
69.044800 1025675.100000
71.060300 47406792.200000
72.044300 903025.200000
80.024200 486594.400000
81.032100 1528632.900000
91.054200 9074843.000000
96.055600 242543927.800000
104.049400 1053315.600000
106.009800 606136.300000
106.041300 880609.600000
106.065000 269203.000000
108.005500 257737.300000
109.064600 488330.200000
114.066100 2390685.800000
119.049000 926600.900000
119.060300 592867.600000
125.032100 301451.700000
126.016100 1374315.400000
134.036200 1139142.300000
134.059800 938537.700000
138.077300 4738419.500000
139.061200 1127602.900000
140.045300 859063.000000
149.059600 9485397.500000
151.011300 15929350.100000
152.032900 975649.600000
152.046600 641607.400000
153.063200 2266142.000000
160.039100 740194.300000
166.035600 1206348.500000
168.037700 789029.900000
176.062800 12250272.400000
181.059200 244318.800000
182.067200 3262916.700000
194.073600 823013.700000
213.021700 1155961.100000
221.064700 277643.800000
238.090800 5224926.100000
239.074800 4933559.400000
244.064100 6328609.900000
264.070100 139340496.000000

>ms2peaks
55.029300 1061735.300000
56.049600 376584.700000
60.024500 529504.700000
65.038600 2070547.900000
67.029100 1642443.600000
69.008300 8952560.500000
69.044700 3981783.400000
71.060300 66290827.700000
72.044300 1436408.600000
78.046300 595993.300000
79.054200 620852.800000
80.024200 1474641.100000
81.032100 3253073.200000
91.054100 19602953.600000
93.033300 1516365.500000
93.069900 897278.200000
95.049100 970977.100000
96.055500 309787842.400000
98.034800 888112.500000
105.033500 735063.700000
106.009800 2663028.100000
106.041300 2242349.400000
106.065000 636662.100000
108.005500 1453779.400000
112.014000 904928.200000
114.066100 1543224.800000
119.049200 798144.000000
131.005100 370861.600000
134.036000 1298126.500000
134.059800 315609.100000
138.077200 1406519.500000
139.061500 697853.900000
140.045300 559645.100000
149.059600 3969568.800000
151.011200 14391060.900000
152.032600 1527261.500000
153.063600 1769446.100000
166.035800 2987629.700000
168.037700 1085180.300000
176.062800 11671734.600000
182.067200 1977676.300000
194.073600 728898.100000
238.090900 990761.600000
239.074800 829630.900000
264.070100 18465366.200000

>ms2peaks
55.029200 2791114.100000
56.013300 665071.900000
56.049600 762933.500000
60.024500 793261.200000
65.038600 5931659.600000
67.029100 3526335.000000
69.008300 14636408.500000
69.044700 7389721.700000
71.060300 66769923.000000
72.044300 1188497.500000
78.046300 1957022.100000
79.054200 744405.200000
80.024200 3339083.700000
81.032100 7575041.300000
83.010200 311720.300000
83.023900 583759.200000
91.054100 20920319.400000
94.003500 602123.000000
95.049100 1369755.200000
96.055500 260475464.500000
98.034800 1494026.900000
103.066500 758762.300000
104.049400 1391230.800000
105.033400 2089318.400000
106.009800 2448271.000000
106.041200 2504947.600000
108.005600 2243368.600000
112.014100 1133760.900000
114.066100 841904.200000
116.049300 631451.800000
119.049000 291545.600000
126.016000 1286955.700000
133.020800 1293228.800000
134.036200 786748.500000
135.036300 526350.500000
139.061500 873536.000000
149.059600 1074607.800000
151.011200 7296916.100000
152.033100 1018664.400000
153.063500 589906.800000
166.035900 2079273.400000
168.037700 264732.200000
182.067100 939084.300000

