>compound EQ56002546
>parentmass 502.2952
>ionization [M+H]+
>formula C32H39NO4
>rt 492.000000
>profile orbitrap
#smiles_iso CC(C)(C1=CC=C(C=C1)C(CCCN2CCC(CC2)C(C3=CC=CC=C3)(C4=CC=CC=C4)O)O)C(=O)O
#smiles_can CC(C)(C1=CC=C(C=C1)C(CCCN2CCC(CC2)C(C3=CC=CC=C3)(C4=CC=CC=C4)O)O)C(=O)O
#inchikey RWTNPBWLLIMQHL-UHFFFAOYSA-N
#pubchem_id 3348
#mb_accession EQ301901,EQ301902,EQ301903,EQ301904,EQ301905,EQ301906

>ms2
171.116700 505679.100000
466.273300 3935033.900000
484.284900 11940605.600000
502.295300 302894390.100000

>ms2
87.044100 583476.300000
91.054200 673668.500000
129.069600 807560.500000
131.085600 4468437.500000
143.085900 207527.800000
171.116800 20153384.300000
189.127100 1097768.200000
199.111700 217608.000000
217.122400 772403.700000
233.117400 3540205.400000
246.148400 920591.600000
250.159300 2403819.200000
252.174900 207885.200000
260.164600 815658.400000
262.159100 4621694.000000
272.164500 485636.600000
276.159500 312236.800000
280.169900 701025.800000
298.180200 294769.700000
466.274200 171785027.700000
484.284700 89053951.100000
502.295400 51484172.700000

>ms2
59.049200 2155969.476000
68.049400 1270766.041000
70.065100 671239.400000
80.049500 1003164.200000
82.065100 4020639.000000
83.073000 833209.900000
84.080900 259017.000000
87.044000 4321757.000000
91.054200 13014928.000000
94.065100 876470.700000
95.072900 267128.900000
96.080700 2248384.300000
98.096300 1427276.700000
103.054200 235389.800000
105.069800 2126780.600000
107.049100 1026470.000000
109.088400 173757.700000
110.096400 220636.400000
111.104200 1325118.800000
115.053800 970175.300000
116.061900 302839.600000
117.069700 2608570.600000
119.085500 172963.400000
120.080800 562698.800000
121.088200 147507.400000
122.096200 2103625.000000
124.112000 2427943.000000
128.061900 1146729.500000
129.069700 11840420.900000
130.077700 820826.800000
131.085500 39005168.600000
132.080700 746127.600000
133.101200 705069.200000
134.096300 190847.600000
141.070000 771231.200000
142.077700 215316.400000
143.085500 9242232.500000
145.101100 1754083.700000
147.080400 493972.200000
155.085300 1255651.100000
156.093500 313991.800000
157.101300 720582.200000
159.116600 202302.200000
167.085700 2064535.900000
169.101200 1345444.900000
170.096500 637315.300000
171.116700 117514624.700000
172.112100 276523.700000
173.132400 2185261.900000
174.127700 132208.100000
177.090900 3605964.700000
178.077300 221343.500000
181.101200 1221256.100000
183.116800 764194.200000
184.112200 254191.800000
189.127400 3012244.700000
191.070200 4043510.700000
191.085600 725126.900000
199.111900 1024378.200000
200.143200 782573.500000
202.158700 222225.300000
203.085700 165763.400000
204.093100 969732.100000
205.101200 1712421.700000
212.143000 135399.200000
215.085600 220161.100000
216.093300 943965.100000
217.122100 978983.000000
218.109000 582817.100000
219.116600 1183386.200000
229.101100 193302.800000
231.116700 951855.600000
233.117200 8674830.500000
246.148600 1278951.100000
247.136000 230569.700000
248.143400 579125.900000
250.159100 4345089.300000
252.175000 300004.700000
258.149400 568767.200000
260.143200 452987.300000
260.164400 3304830.300000
262.159000 16324686.300000
272.164500 1914907.100000
276.160400 183924.100000
276.174200 455850.600000
280.169600 974434.300000
288.174700 2812307.500000
298.180100 6023575.700000
300.195200 253957.300000
450.241500 206647.200000
466.273800 61178867.600000
484.284300 7894915.200000
502.295300 141372.200000

>ms2
70.065100 1531983.500000
79.054300 301235.800000
80.049500 2728571.100000
81.069900 190708.800000
82.065100 6194721.000000
83.073000 2344395.700000
84.080700 730466.700000
87.044100 4505695.800000
89.038400 141585.600000
91.054200 32881142.400000
94.065100 1708865.400000
95.049200 159373.300000
95.073000 642491.700000
96.080800 5261496.900000
98.096400 2714282.000000
103.054300 1240561.900000
105.069900 5846511.200000
107.049100 3727094.700000
108.080800 828503.400000
109.088700 193357.500000
110.096300 587803.800000
111.104200 1413763.200000
115.054200 3411143.900000
116.061900 2666706.000000
117.069800 7154310.900000
119.085500 577230.700000
120.080700 1272073.800000
121.064800 272263.800000
121.088500 556683.300000
122.096500 3479674.000000
124.112100 4866949.200000
128.062100 5386140.800000
129.069900 32074142.600000
130.077700 2135073.900000
131.085600 61859994.200000
132.080800 784434.200000
132.093600 177396.400000
133.101100 2159368.200000
141.069900 2894287.200000
142.077800 1643742.600000
143.085600 27392896.900000
144.080900 177046.200000
145.064800 590725.300000
145.101200 5596150.600000
146.109300 162617.500000
147.080500 586202.100000
152.062700 148262.200000
153.069800 732378.900000
154.077700 242929.500000
155.060400 532309.200000
155.085600 2650516.200000
156.093400 2345149.700000
157.101300 1800338.100000
158.096500 223438.600000
159.117000 940077.900000
165.070100 714537.700000
166.077700 532008.700000
167.085600 3954272.500000
169.101200 3016018.100000
170.096400 1263676.600000
171.116800 128625397.300000
172.112000 1021836.000000
173.132500 3138236.600000
174.127900 152832.000000
177.091000 4428212.700000
178.077800 691055.200000
179.085600 465086.700000
181.101100 1051352.500000
183.116800 723049.900000
184.088600 294899.800000
184.112000 221021.300000
188.119700 152288.500000
189.127600 2258700.100000
191.070300 9637589.500000
199.111800 917870.100000
200.143200 721189.300000
202.158900 315890.400000
203.085400 789360.000000
204.093400 1776410.800000
205.101300 2438870.500000
212.143500 187008.400000
215.085400 872478.400000
216.093500 1929344.200000
217.101700 374699.200000
217.122200 807594.100000
218.109100 1736618.300000
219.116600 1458217.300000
229.101500 188619.200000
231.116600 1054529.400000
233.117300 6039951.000000
246.127900 186126.400000
246.148900 836707.700000
247.135700 550336.400000
248.143400 527836.500000
250.159200 1706984.500000
258.148800 876831.700000
260.143200 752917.200000
260.164600 2321817.000000
262.159100 9931435.300000
272.164200 211446.100000
274.158600 178865.800000
276.174600 604988.900000
288.174800 2490843.500000
298.180100 4572576.500000
300.195900 790100.200000
450.243300 287811.700000
466.274000 12104510.800000
484.285300 635737.700000

>ms2
70.065100 1368021.800000
74.060100 122546.800000
77.038400 145150.900000
79.054300 1016070.500000
80.049500 2608965.400000
81.069900 520342.500000
82.065200 5202111.900000
83.072900 1223381.300000
84.080800 817579.000000
85.088400 150067.300000
87.044000 2282347.600000
91.054200 50666732.900000
93.069800 562630.400000
94.065100 1627401.100000
95.049100 529350.600000
95.073000 224486.100000
96.080800 4485664.200000
98.096400 3171761.500000
103.054300 1919103.200000
104.062300 126301.900000
105.033500 479858.300000
105.069900 7584616.000000
107.049100 4325016.000000
108.080800 730349.400000
110.096400 594613.900000
115.054200 8523194.400000
116.062000 4963863.600000
117.069900 8634005.300000
118.077700 143683.100000
119.085500 636230.100000
120.080700 1357604.700000
121.028500 297553.500000
121.064900 147255.600000
121.088500 137796.000000
122.096300 1791016.300000
124.112000 2369614.600000
128.062100 17188679.700000
129.069900 37961572.900000
130.077800 3582150.200000
131.085600 38671334.800000
132.081000 228466.100000
132.093300 656053.300000
133.064700 319573.600000
133.101200 2015970.000000
134.096200 138590.000000
141.069900 6031148.100000
142.077800 4584950.000000
143.085600 35001619.300000
145.064800 1289159.500000
145.101200 5892671.700000
146.072700 1078008.700000
147.080500 541129.300000
152.062000 665278.600000
153.070100 971754.000000
154.077800 137702.600000
155.060500 1028613.200000
155.085500 2442036.400000
156.093400 5329705.700000
157.101200 2103892.900000
158.096800 305107.900000
159.116900 650936.000000
165.069900 1400001.700000
166.077800 1199978.400000
167.085600 2597955.100000
169.101200 2593654.900000
170.096600 1603655.100000
171.116800 46361992.000000
172.111700 579039.700000
173.132400 1402616.700000
177.091000 1439091.800000
178.077700 812635.900000
179.085500 661577.300000
181.101400 213222.100000
183.117000 320431.500000
184.088500 171997.600000
184.112200 507778.600000
188.119800 209060.800000
189.127100 891847.300000
190.077800 657778.200000
191.070300 7927122.000000
191.085200 1526747.500000
199.112000 151442.400000
200.143200 202058.700000
202.077900 213453.500000
203.085300 1932503.600000
204.093200 1525226.400000
205.101200 1454945.100000
215.085400 1068159.200000
216.093700 1208178.300000
217.101600 811825.500000
218.109100 1263733.800000
219.117200 599633.900000
231.117100 670930.000000
233.117600 1034191.700000
260.143700 295346.300000
260.164800 270491.400000
262.158900 1482548.100000
274.159900 176456.100000
288.175200 232303.000000
298.180400 727555.400000
450.243000 531724.100000

>ms2
70.065100 1109332.300000
77.038600 268074.200000
79.054200 2200291.700000
80.049500 2062641.000000
81.069900 640871.800000
82.065100 4067297.500000
83.073000 972094.300000
84.080900 1105363.100000
87.044100 581228.000000
89.038400 157450.600000
91.054200 62816531.000000
93.070000 246518.200000
94.065100 2147170.400000
95.049100 1465486.900000
96.080800 3512948.600000
98.096500 2747634.700000
103.054300 3467753.400000
104.062100 153886.700000
105.033300 539520.800000
105.069900 6293627.400000
107.049200 4389567.300000
108.080900 167152.400000
110.096600 265428.200000
115.054200 12712300.000000
116.062100 7475908.700000
117.069900 10833937.700000
118.077600 723513.500000
119.085600 544236.600000
120.080800 952028.400000
121.028400 214887.100000
121.064600 204263.800000
122.096600 948549.000000
124.112100 756337.200000
128.062100 29365511.100000
129.069900 29962832.800000
130.077800 3836364.500000
131.085600 19902034.500000
132.093500 628177.000000
133.064800 187344.300000
133.101300 639915.900000
141.069900 9084769.200000
142.077900 4983539.100000
143.085600 26058844.400000
144.080800 149946.900000
145.064900 2893003.400000
145.101200 3233683.500000
146.072500 1785058.000000
146.109100 154905.400000
147.080500 191062.200000
150.067700 832270.281000
152.062200 1368790.600000
153.069900 716459.600000
154.077700 804175.300000
155.060400 2417211.900000
155.085600 1951233.600000
156.093400 5280337.900000
157.101300 822448.300000
159.117000 296013.200000
165.070000 1999700.700000
166.077800 958349.500000
167.085500 1166396.800000
169.101300 1320144.800000
170.096500 1565763.300000
171.116900 10702215.600000
173.132800 199665.800000
177.091400 227849.000000
178.078000 1392033.000000
179.085000 184404.200000
181.101100 130145.200000
190.077600 616846.100000
191.070300 4380821.900000
191.084800 905475.300000
202.077600 925491.900000
203.085500 2581541.800000
204.093400 1633603.400000
205.101100 559975.200000
210.126900 140261.600000
215.085800 1318488.500000
217.101300 898068.000000
218.109100 309216.300000
231.116200 159196.800000
246.127500 250713.000000

