>compound EQ56836299
>parentmass 103.0614
>ionization [M+H]+
>formula C2H6N4O
>rt 48.000000
>profile orbitrap
#smiles_iso C(=NC(=O)N)(N)N
#smiles_can C(=NC(=O)N)(N)N
#inchikey SQSPRWMERUQXNE-UHFFFAOYSA-N
#pubchem_id 8859
#mb_accession EQ325301,EQ325302,EQ325303,EQ325304

>ms2peaks
60.055600 31366244.600000
61.039600 181772.600000
69.008400 162857.600000
86.034900 6518370.200000
103.061500 6246730.500000

>ms2peaks
60.055600 29668466.000000
61.039600 172450.600000
69.008300 154542.800000
86.034900 6544083.500000
103.061400 6301422.600000

>ms2peaks
60.055600 29551403.200000
61.039600 167573.200000
69.008300 163360.900000
86.034900 6648113.900000
103.061400 6168848.500000

>ms2peaks
60.055600 24721952.400000
61.039600 161000.200000
69.008300 234648.400000
86.034900 4539811.900000
103.061400 2031403.300000

