>compound EQ56579886
>parentmass 338.1751
>ionization [M+H]+
>formula C21H23NO3
>rt 426.000000
>profile orbitrap
#smiles_iso CN(C)CC/C=C\1/C2=CC=CC=C2COC3=C1C=C(C=C3)CC(=O)O
#smiles_can CN(C)CCC=C1C2=CC=CC=C2COC3=C1C=C(C=C3)CC(=O)O
#inchikey JBIMVDZLSHOPLA-LSCVHKIXSA-N
#pubchem_id 5281071
#mb_accession EQ332301,EQ332302,EQ332303,EQ332304,EQ332305,EQ332306

>ms2peaks
58.065200 3407325.000000
84.080700 2942834.200000
165.054400 7622042.500000
247.111800 10415785.000000
293.117300 14112825.000000
338.175000 1995762048.000000

>ms2peaks
58.065200 74313880.000000
70.065100 2391307.500000
72.080700 1840833.400000
84.080700 58637172.000000
85.088500 3839867.800000
91.054200 17997214.000000
115.054100 11010982.000000
117.069800 36259264.000000
123.044000 2514842.800000
129.069700 10196678.000000
131.049100 1761111.000000
137.059600 12941101.000000
141.069800 31072002.000000
142.077700 1712284.400000
143.085600 2485030.000000
165.054600 189028304.000000
173.119900 2088129.400000
177.054500 1630080.200000
179.085400 1964749.100000
186.127700 3649066.000000
189.054800 3046522.000000
205.101200 3208323.500000
207.080400 1600307.400000
208.097000 2237078.500000
215.070100 1539228.800000
219.080700 3476013.200000
219.116800 8054716.000000
221.096000 16401443.000000
229.101300 7311122.500000
232.088200 6038717.500000
233.096000 5820801.500000
234.103800 14675845.000000
247.111800 238529808.000000
249.091200 1872001.400000
249.127300 6463598.000000
252.077800 2580680.000000
253.085900 12050893.000000
257.096200 1752907.200000
265.086100 3209977.200000
265.121800 2685702.000000
275.107100 2762391.500000
293.117100 81922896.000000
294.185200 1971555.600000
338.174900 1089245056.000000

>ms2peaks
58.065200 103665136.000000
70.065100 20636562.000000
71.072900 1918450.500000
72.080700 5623657.500000
77.038300 790670.800000
81.033400 405954.900000
81.069700 682659.200000
82.065000 1985952.800000
84.080700 155608144.000000
85.088500 19926472.000000
86.096400 440405.200000
91.054200 44013516.000000
93.069900 6933646.000000
95.049200 3348193.200000
103.054100 554522.200000
105.044700 406896.100000
105.069900 3526719.200000
107.049200 1385961.400000
109.064800 7639588.500000
114.091300 520269.200000
115.054200 39100668.000000
117.069800 86043232.000000
119.049100 7450991.000000
120.056800 533137.800000
121.064800 4587831.000000
123.044000 34802868.000000
128.061900 2818386.500000
129.069800 35700748.000000
131.049100 9181315.000000
131.085500 727909.000000
135.044100 1459059.800000
137.059700 51819072.000000
141.069800 76435952.000000
142.077800 6535962.500000
143.085600 7838628.500000
145.064700 1358932.500000
147.043900 1806414.000000
149.059700 3829526.800000
153.069900 414247.200000
155.085100 435639.100000
157.064900 1679960.100000
158.096700 695164.700000
159.080400 363093.600000
161.059700 4856910.500000
165.054600 325959488.000000
166.077100 379385.500000
167.085500 670333.500000
169.064600 3027433.000000
171.104400 1403086.400000
172.112200 1293144.600000
173.119900 9589521.000000
174.128000 680961.300000
177.054400 1647520.600000
178.077300 4873779.000000
179.069900 1548616.000000
179.085500 24792076.000000
181.101300 1325684.000000
185.120100 615880.200000
186.127900 5033285.500000
187.075400 1866912.800000
189.054600 6579823.000000
190.077300 785625.500000
191.085400 8722048.000000
192.093000 512968.200000
193.101100 9722759.000000
195.080100 456174.200000
202.077400 2247774.200000
203.085300 7570729.000000
204.093400 13041724.000000
205.064700 3584283.500000
205.101200 16370289.000000
206.073100 3295226.500000
206.108800 513108.200000
207.080400 14981149.000000
207.117200 749660.100000
208.088100 1296048.800000
208.097000 2967069.000000
209.096200 2504496.000000
215.070100 1740086.000000
215.085500 8008212.000000
216.093600 1872983.000000
217.101300 7018142.000000
218.072500 2890670.000000
218.109000 417553.000000
219.080500 27865930.000000
219.116800 39418632.000000
220.088200 653869.700000
221.096100 55365972.000000
223.075600 2584768.200000
223.111300 759029.800000
225.091000 708403.000000
228.093000 2615502.500000
229.101200 56770028.000000
230.109000 1516705.600000
231.080300 10329351.000000
231.117100 1636672.400000
232.088300 68019664.000000
233.096100 15378641.000000
234.103900 35784168.000000
235.111500 732246.200000
236.082400 498520.500000
237.090700 476817.600000
239.085200 401129.300000
245.096800 3240093.200000
246.104200 2050285.900000
247.111800 317487104.000000
249.091600 3166651.800000
249.127000 5864079.500000
252.078100 13351036.000000
253.085900 30848062.000000
257.096400 2116028.800000
265.086000 3720893.200000
265.121900 1536311.400000
267.101500 486166.500000
275.106500 1607086.600000
277.123000 493726.600000
278.093600 2229863.200000
293.117200 21190622.000000
308.128400 1387273.900000
338.175000 84644776.000000

>ms2peaks
56.049600 298762.700000
58.065200 67384256.000000
65.038600 2004199.000000
67.054200 2083864.900000
68.049500 729943.600000
69.033500 1232180.600000
69.057400 490718.300000
70.065100 32704788.000000
71.012900 381217.200000
71.072900 2195645.800000
72.080700 4849718.000000
77.038600 2419503.000000
79.054200 3087189.500000
81.033500 361391.200000
81.069900 4947625.500000
82.065100 5437849.000000
84.080800 119924456.000000
85.088600 10367865.000000
89.038300 492275.900000
91.054200 71166832.000000
93.069800 16477719.000000
94.041100 418705.400000
95.049100 13494301.000000
103.054200 2194043.200000
104.062100 1637305.900000
105.044800 3234108.800000
105.069900 5217179.000000
107.049100 2820013.500000
109.064800 21103290.000000
115.054200 57187612.000000
116.062000 1517703.200000
117.069800 81861784.000000
119.049100 22208138.000000
120.057000 1276289.600000
121.064700 10237146.000000
123.044000 75815528.000000
128.062000 10984890.000000
129.069800 39625824.000000
131.049100 12560128.000000
131.085600 1677681.600000
133.064800 1758263.600000
135.043800 685375.100000
137.059700 61421104.000000
141.069800 71432688.000000
142.077800 6783327.500000
143.085600 4921740.000000
144.056800 405593.500000
145.064700 3000591.000000
147.044200 2451618.200000
149.060000 2813439.200000
153.069800 1566537.800000
155.060000 450265.700000
155.085400 620596.900000
157.065300 800401.400000
158.096700 2086375.200000
159.080400 384807.300000
161.059900 2864043.500000
165.054700 124776768.000000
165.069200 6781331.500000
166.077700 2868167.000000
167.085700 1456104.500000
169.064800 3904077.500000
170.096600 448621.800000
171.104200 495747.800000
172.112100 1994924.400000
173.119800 3272534.000000
177.070000 374033.100000
178.077700 23741598.000000
179.085500 56365724.000000
180.093200 488937.700000
181.064900 502121.700000
181.101400 1997295.900000
183.080500 675832.300000
186.128100 729952.100000
187.075400 439731.200000
189.054600 7603222.000000
189.069400 2914201.000000
190.077700 7519078.000000
191.085500 21283772.000000
192.093300 785711.800000
193.101300 14815848.000000
194.072400 1411193.000000
195.080500 659222.900000
201.069300 348259.900000
202.077700 7703386.500000
203.085500 24726772.000000
204.093400 46510416.000000
205.064900 8186508.500000
205.101300 17240436.000000
206.072700 5519243.000000
206.109300 1873010.000000
207.080500 22742798.000000
208.088400 2294824.200000
209.096100 610916.100000
214.077800 637085.300000
215.085700 18408936.000000
216.093600 2171256.500000
217.101300 10142093.000000
218.072900 8214957.000000
218.109100 1978238.800000
219.080500 42889268.000000
219.116800 27401496.000000
220.088200 4209510.000000
221.096100 30344018.000000
223.075000 2923559.200000
223.112100 403004.500000
227.085300 2831360.500000
228.093300 17401320.000000
229.101300 73949384.000000
230.109000 2065706.800000
231.080500 38380240.000000
232.088300 103629080.000000
233.096100 18129298.000000
234.103900 14842504.000000
239.070200 583533.900000
245.096300 3707857.000000
246.104000 3951238.500000
247.111800 77168632.000000
249.091200 506279.600000
252.078100 12997523.000000
253.085900 6340900.000000
257.096800 311942.800000
263.069800 646601.800000
265.086300 1634826.200000
277.086100 465040.000000
278.093400 591251.100000
293.118000 1254595.800000
308.128900 611881.400000
338.174800 654756.100000

>ms2peaks
53.038700 382097.200000
56.049600 395043.900000
57.057400 453506.500000
58.065200 51170120.000000
63.022900 343196.000000
65.038500 6441446.000000
67.054200 6571026.500000
68.049500 366533.300000
69.033400 536355.900000
69.057200 551249.400000
70.065100 30114518.000000
71.012700 1755442.000000
71.072900 1719706.500000
72.080700 3417579.500000
77.038600 6305884.000000
78.046400 504886.900000
79.054200 7790974.500000
81.069900 10869192.000000
82.065200 4677358.000000
84.080800 70955168.000000
85.088600 4738017.500000
89.038300 334824.900000
91.054200 103251872.000000
92.061900 506881.900000
93.069800 12670000.000000
94.041300 1945888.100000
95.049100 23226108.000000
103.054200 3944311.200000
104.062100 1801962.400000
105.044700 7153397.500000
105.069900 4939921.000000
107.049200 4477230.000000
109.064800 20392120.000000
115.054200 77896824.000000
116.062000 2824625.000000
117.069800 50987640.000000
119.049100 19410884.000000
120.056900 4866686.000000
121.064700 8165880.000000
123.044000 61316404.000000
127.054100 411512.500000
128.062000 20711090.000000
129.069800 26090454.000000
131.049100 13511794.000000
133.064900 1217741.500000
135.044200 551954.700000
137.059700 31833136.000000
141.069800 54038020.000000
142.077800 4630659.000000
143.085600 411781.000000
144.057300 3270435.800000
145.064900 3525742.000000
147.044400 2160853.500000
149.059800 607705.600000
152.061900 1613288.000000
153.069800 3303048.800000
154.077900 665017.400000
155.049300 344637.900000
155.060300 2232231.000000
155.085600 623982.200000
156.080700 348671.200000
157.065000 534962.900000
158.096400 622945.700000
161.059500 1529492.100000
165.054700 24820306.000000
165.069800 12827519.000000
166.077500 4516805.000000
167.085700 2233061.200000
169.065100 1817532.900000
170.096200 655275.200000
172.111600 512424.700000
173.120300 412968.400000
176.062600 465660.600000
177.069900 1648674.800000
178.077700 49135708.000000
179.085500 49325568.000000
180.093400 649433.500000
181.064700 1466701.600000
181.101100 613789.900000
189.055300 4550759.500000
189.069800 14274758.000000
190.077700 17035218.000000
191.085500 30553908.000000
192.093300 2451099.200000
193.101300 6579873.000000
194.072600 2111704.500000
201.069300 702918.200000
202.077500 20284710.000000
203.085400 51396592.000000
204.093400 42639116.000000
205.064900 12013784.000000
205.101300 9466922.000000
206.072600 5494030.000000
206.108000 367516.100000
207.080500 24339840.000000
208.088500 1292524.900000
213.069600 655808.500000
214.077600 3182271.500000
215.085600 31100248.000000
216.093300 2837503.200000
217.101200 6705397.500000
218.072700 12372588.000000
218.108900 1608994.000000
219.080500 29449574.000000
219.116600 6696929.500000
220.088100 3216660.800000
221.096100 5800835.000000
226.077700 1193245.600000
227.085500 7991742.000000
228.093300 36044004.000000
229.101200 43779184.000000
230.109600 543723.200000
231.080500 57506852.000000
232.088300 53240040.000000
233.096100 13351299.000000
234.103700 2390232.500000
245.096300 4151918.800000
246.104100 2302330.000000
247.111800 9380121.000000
252.078300 5598337.000000
253.086400 523446.100000
263.070600 500355.800000
277.085500 470340.100000

>ms2peaks
53.038700 327550.400000
56.049500 397984.400000
58.065200 43120552.000000
63.022900 529846.400000
65.038600 15460220.000000
67.054200 13472396.000000
68.049400 372859.200000
69.033500 1296818.500000
69.057300 1217137.600000
70.065100 23180790.000000
71.012700 2452923.800000
71.072900 637862.600000
72.080800 2303192.200000
77.038600 7866854.500000
78.046400 1454297.400000
79.054200 10370446.000000
81.033600 1325591.100000
81.069900 9599754.000000
82.065100 3779630.800000
84.080800 41794924.000000
85.088600 1561013.900000
89.038600 1537638.600000
91.054200 134672000.000000
92.062000 2795039.200000
93.069800 4589290.000000
94.041300 4038965.800000
95.049100 34199908.000000
102.046400 742113.800000
103.054200 6593326.000000
104.062100 1867457.100000
105.044700 10047545.000000
105.069900 4063930.500000
107.049200 4865654.000000
109.064800 10674881.000000
115.054200 107350688.000000
116.061900 3624365.800000
117.069800 31027350.000000
119.049200 10480855.000000
120.057000 6385591.000000
121.064700 3788412.800000
123.044000 33930364.000000
127.054000 1597026.900000
128.062000 30012180.000000
129.069900 16357488.000000
131.049200 14960072.000000
133.064700 609891.200000
137.059700 10877699.000000
141.069800 42412344.000000
142.077800 2286596.800000
143.073100 508856.500000
144.057000 5540645.000000
145.064800 6012289.500000
147.044000 1221278.000000
152.062100 5193736.000000
153.069900 3459795.800000
154.077600 414709.900000
155.060500 5752630.000000
155.085500 586117.000000
156.080700 371819.600000
158.096400 462438.100000
161.059900 1178674.800000
164.061600 665969.800000
165.054800 4314064.000000
165.069900 24013940.000000
166.077700 5113428.000000
167.085400 1492350.200000
169.064700 1380772.200000
170.096400 628262.700000
172.112400 424324.100000
176.061700 2635441.200000
177.069900 4730693.500000
178.077700 81848824.000000
179.085500 37451820.000000
180.093300 385851.500000
181.065000 471193.000000
181.101200 459220.600000
189.069900 37183784.000000
190.077700 26923824.000000
191.085500 29543988.000000
192.093300 2693126.200000
193.064600 307999.900000
193.101000 1411267.200000
194.072600 3441293.000000
195.080400 616795.400000
201.069600 2802257.500000
202.077700 46866300.000000
203.085500 76220240.000000
204.093500 25700494.000000
205.064900 12211002.000000
205.101100 4253427.500000
206.072600 2798921.200000
207.080500 22814546.000000
208.088700 478811.400000
213.069900 3667113.800000
214.077700 3646911.500000
215.085600 43677672.000000
216.093800 2407155.200000
217.064400 651250.500000
217.101000 4690669.000000
218.072700 15464235.000000
219.080500 15609430.000000
220.088500 1901350.100000
221.096700 1268958.000000
226.077700 5041560.000000
227.085500 16644462.000000
228.093300 41242176.000000
229.101300 18021246.000000
230.109100 375176.000000
231.080500 78377376.000000
232.088300 14637533.000000
233.096100 4984126.000000
245.096300 3217660.500000
246.104200 653373.100000
263.071200 382673.900000

