>compound EQ56669447
>parentmass 548.2425
>ionization [M+H]+
>formula C27H37N3O7S
>rt 522.000000
>profile orbitrap
#smiles_iso CC(C)CN(C[C@H]([C@H](CC1=CC=CC=C1)NC(=O)O[C@H]2CO[C@@H]3[C@H]2CCO3)O)S(=O)(=O)C4=CC=C(C=C4)N
#smiles_can CC(C)CN(CC(C(CC1=CC=CC=C1)NC(=O)OC2COC3C2CCO3)O)S(=O)(=O)C4=CC=C(C=C4)N
#inchikey CJBJHOAVZSMMDJ-HEXNFIEUSA-N
#pubchem_id 213039
#mb_accession EQ301601,EQ301602,EQ301603,EQ301604,EQ301605,EQ301606

>ms2peaks
67.054200 953888.600000
69.033500 23216214.200000
95.049100 210120.900000
113.059700 30098840.400000
120.080900 187842.900000
156.010600 1444626.400000
164.107100 243385.600000
241.100500 2166308.500000
245.164900 1480644.500000
357.163300 153982.900000
375.174200 186232.700000
392.200300 80593205.600000
418.179700 1584111.790000
436.190100 2142029.129000

>ms2peaks
55.054400 67433.300000
57.069900 248382.800000
65.038500 185271.700000
67.054200 2917693.300000
69.033500 50193813.600000
85.028400 69916.200000
85.064700 337146.100000
86.096400 607409.700000
91.054100 69237.800000
92.049200 453980.700000
95.049100 505305.100000
100.112100 240843.100000
108.044500 665302.900000
110.060100 65128.400000
113.059700 14679632.400000
113.107300 1073315.600000
114.115100 295839.200000
120.080700 1448983.200000
127.122900 104675.900000
129.069800 651796.700000
131.085100 59601.600000
134.096400 94514.100000
146.096500 978879.000000
156.011400 21136441.400000
158.096100 69227.200000
164.107100 1221035.300000
189.102100 136922.200000
200.143300 819215.200000
202.159000 2143160.400000
218.153800 436107.600000
220.169600 368300.100000
237.196100 709451.000000
241.100500 8348993.100000
245.165000 705834.100000
263.175500 282178.600000
357.163500 471681.500000
375.173500 258298.300000
392.200400 6162654.800000

>ms2peaks
55.054300 230639.100000
57.070000 755337.100000
65.038600 706684.400000
67.054200 6914779.600000
69.033500 63487662.700000
83.049100 97947.000000
84.080600 79051.700000
85.028400 209327.100000
85.064800 492979.600000
86.096500 1107126.700000
91.054200 309793.100000
92.049400 2990942.200000
95.049200 864137.500000
96.080700 186446.200000
100.112100 210396.500000
108.044400 5323581.800000
110.060100 406922.700000
113.059700 4021296.600000
113.107300 719516.200000
114.115100 208530.300000
117.069900 115590.800000
120.080800 2648995.800000
127.122900 449368.800000
129.069900 1784482.900000
131.085600 309056.800000
134.096600 339625.300000
144.080800 340620.600000
146.096500 1203173.500000
156.011400 20402138.500000
158.096500 336008.400000
164.107000 281250.500000
189.102300 82189.700000
200.143100 350160.300000
202.159000 1381985.900000
218.153800 82577.200000
220.170000 198749.500000
237.196200 293177.700000
241.100700 244286.300000

>ms2peaks
80.049400 193385.600000
83.049300 75769.300000
84.080600 62598.800000
85.028400 85628.400000
85.064700 280107.600000
86.096400 675361.400000
91.054200 416859.100000
92.049400 4801552.000000
93.069800 55778.900000
94.064900 68510.600000
95.049100 576003.000000
96.080800 83705.600000
100.112100 95565.900000
103.054200 317871.400000
105.069800 60956.900000
108.044400 7610908.600000
110.060100 928307.600000
113.059700 954889.500000
113.107200 262943.300000
114.115000 116055.700000
117.069700 108972.600000
120.055500 119014.000000
120.080700 2048877.400000
127.123100 384507.300000
128.061700 55305.800000
129.069800 1732827.000000
131.085500 119029.500000
144.080700 325701.400000
146.059900 101087.200000
146.096500 781622.200000
156.011400 9091841.500000
158.096500 113857.100000
200.143100 102968.700000
202.159000 467335.300000
220.169600 63095.100000

>ms2peaks
80.049500 643373.500000
83.049100 115117.400000
85.028300 67822.900000
85.064800 103831.600000
86.096400 462590.700000
91.054200 823032.600000
92.049500 7257393.400000
93.069700 98602.600000
94.065200 63395.600000
95.049200 651128.100000
96.044500 70491.900000
100.112500 51722.100000
103.054300 507120.600000
105.069600 55656.200000
108.044400 8799184.600000
110.060000 2080647.900000
113.059700 199483.500000
114.115200 47371.900000
117.069800 245694.700000
120.055500 106988.300000
120.080800 1768708.100000
127.122900 81163.200000
128.049400 96687.600000
128.062000 277817.300000
129.069900 1951179.100000
131.085500 58124.800000
134.096600 77180.900000
144.080900 141512.700000
145.064500 54388.200000
146.060000 236022.300000
146.096500 269992.000000
156.011400 1969447.900000
202.158900 57307.000000

>ms2peaks
80.049500 1281646.400000
83.049100 215040.100000
85.028400 49901.900000
86.096300 83182.100000
91.054200 1167287.400000
92.049500 6927962.500000
93.070000 68987.100000
95.049000 402820.500000
103.054200 928224.500000
105.069700 67267.500000
108.044400 6584131.100000
110.060100 2421877.500000
113.059700 89229.500000
117.069800 299183.800000
120.055800 55633.200000
120.080700 890848.500000
128.049400 275543.500000
128.062100 811959.400000
129.069900 1259574.500000
145.064700 108151.800000
146.060100 200690.900000
146.096400 67120.500000
156.011200 209552.800000

