>compound EQ57804045
>parentmass 274.1802
>ionization [M+H]+
>formula C17H23NO2
>rt 312.000000
>profile orbitrap
#smiles_iso CCOC(=O)C1(CCC=C[C@H]1N(C)C)C2=CC=CC=C2
#smiles_can CCOC(=O)C1(CCC=CC1N(C)C)C2=CC=CC=C2
#inchikey WDEFBBTXULIOBB-LDCVWXEPSA-N
#pubchem_id 98526
#mb_accession EQ332901,EQ332902,EQ332903,EQ332904,EQ332905,EQ332906

>ms2
77.038400 4788322.500000
79.054200 6350231.000000
98.096500 4275947.500000
111.080300 2930399.500000
115.053700 985531.400000
119.085400 3259843.000000
129.069900 3425331.800000
151.075400 2618749.500000
155.085600 777826496.000000
156.093300 3004892.800000
157.101200 8466393.000000
173.059800 2010070.100000
177.090900 1827754.200000
183.080500 35334672.000000
185.132600 1682617.000000
201.091000 25094958.000000
201.127300 4477243.500000
229.122400 239424960.000000
274.180100 928866432.000000

>ms2
73.028400 2654182.000000
77.038400 8594514.000000
79.054200 23329698.000000
91.054200 23300220.000000
98.096400 4980850.500000
101.059700 1827970.100000
105.033500 3683262.000000
107.085500 2354937.000000
111.080400 8255182.000000
115.053900 1693552.800000
119.085500 16780574.000000
123.043900 6843240.000000
128.061900 1995250.500000
129.069800 19640666.000000
135.080300 1641436.500000
143.085400 5250505.000000
151.075500 5552624.500000
153.070100 2920422.000000
155.085600 1631331200.000000
156.093200 4860878.500000
157.101000 30363564.000000
165.069600 2767104.000000
173.059800 16930976.000000
173.096000 10067266.000000
177.091200 3516045.500000
183.080400 57283952.000000
185.132500 2529358.500000
201.090900 40092584.000000
201.127200 12568922.000000
229.122400 64513536.000000
274.180100 65373612.000000

>ms2
67.054200 2295232.800000
73.028400 3057728.200000
77.038400 9866436.000000
79.054200 41795756.000000
83.049100 5170293.500000
91.054200 82763792.000000
95.049100 8308306.000000
98.096300 2351448.500000
103.054200 4019775.200000
105.033500 15670703.000000
105.069900 2701654.200000
107.049100 3005698.800000
111.080500 5502564.500000
115.054200 6694595.500000
117.069700 2490536.200000
119.085500 32555822.000000
123.044000 9566853.000000
128.062000 5748386.000000
129.069800 52387820.000000
135.044400 2923701.800000
135.080400 2095017.500000
141.069900 3672225.200000
142.077800 1653660.100000
143.085400 8944542.000000
145.101200 3431160.200000
151.075300 2066643.400000
153.070000 17944924.000000
154.078200 8057444.500000
155.085600 1580910080.000000
156.093200 19716102.000000
157.101000 22174298.000000
165.069900 8057933.000000
173.059800 16985442.000000
173.096000 13046192.000000
183.080400 35727060.000000
201.091000 7777128.500000
201.126800 2725761.000000
229.122300 1924773.000000

>ms2
65.038600 2412347.500000
67.054200 5684364.000000
73.028300 2859675.000000
77.038300 17048052.000000
78.046400 1640296.600000
79.054200 51719100.000000
83.049100 13156776.000000
91.054200 147509568.000000
95.049100 40178008.000000
97.028400 1888020.200000
103.054300 7537590.500000
105.033500 23770308.000000
105.044700 14414720.000000
105.069800 4374042.000000
107.049100 5256107.500000
111.080400 2329754.500000
115.054200 26949156.000000
117.069700 7564028.500000
119.085500 36222816.000000
123.044100 5525442.000000
128.062000 21530408.000000
129.069800 96868776.000000
131.085600 1892891.200000
133.064800 1879302.000000
135.044200 4052261.200000
141.069700 11481729.000000
142.077700 5730989.500000
143.085500 7727121.000000
145.064800 4808380.000000
145.101200 2627936.000000
152.061600 2226228.800000
153.070000 111307480.000000
154.077800 45889552.000000
155.085500 1329204736.000000
156.093200 22573896.000000
157.101000 6289918.500000
165.069900 13198567.000000
173.059800 5198979.000000
173.096000 3029033.200000
183.080500 9194167.000000

>ms2
53.038700 1686055.900000
65.038600 4172091.000000
67.054200 7109936.500000
73.028400 1706858.600000
77.038500 36631608.000000
78.046400 3710260.800000
79.054200 49718344.000000
81.033500 2410441.500000
83.049100 11589278.000000
91.054200 179448880.000000
95.049100 106443680.000000
97.028300 1401802.600000
98.096400 696665.800000
103.054200 12313238.000000
104.062100 2384066.800000
105.033500 22024818.000000
105.044700 42114744.000000
105.069800 3459473.800000
107.049100 5883659.000000
111.080300 744652.800000
115.054200 60133360.000000
116.061900 853463.600000
117.069800 9683518.000000
119.085500 23196652.000000
123.043800 1401508.200000
127.054000 2634899.000000
128.062000 49236308.000000
129.069800 120486216.000000
131.049200 768662.400000
131.085500 1524561.900000
135.044100 934816.700000
141.069800 17574428.000000
142.077800 6511850.500000
143.085600 2370111.800000
145.064900 11293622.000000
145.101200 1756696.200000
152.061900 7558350.000000
153.069900 192005040.000000
154.077700 91831816.000000
155.085500 673836096.000000
156.093300 13132357.000000
165.069900 12186565.000000
168.056900 692809.500000
173.096000 696132.500000
181.076000 724042.400000
183.080500 2248536.200000

>ms2
50.015300 3099005.000000
51.023000 2464136.800000
53.038700 3609215.500000
55.017800 321757.500000
63.023000 435239.200000
65.038600 10899344.000000
67.054200 6726351.500000
76.030500 332037.700000
77.038600 49935856.000000
78.046400 3822683.000000
79.054200 41416536.000000
81.033500 4469861.000000
81.070000 407852.900000
83.049200 9398038.000000
91.054200 181045536.000000
93.069800 521425.000000
95.049100 140269840.000000
97.028200 728884.200000
98.096500 345918.600000
103.054200 13616057.000000
104.062100 4047827.800000
105.033500 11824203.000000
105.044700 62548124.000000
107.049400 2601026.200000
115.054200 81683544.000000
116.062000 2457443.200000
117.069800 9382635.000000
119.085500 9721136.000000
126.045900 564874.600000
127.054200 8191724.500000
128.062000 75294000.000000
129.069800 96984296.000000
131.049300 469173.900000
135.044200 399948.800000
141.069800 22624034.000000
142.077800 3796503.000000
143.085500 597844.800000
145.064800 21227668.000000
152.062000 16677737.000000
153.069900 162279952.000000
154.077700 87730272.000000
155.060500 28883370.000000
155.085500 210753216.000000
156.093400 2588355.000000
165.069900 9176995.000000
168.056800 439202.200000
169.065000 681351.000000
181.076300 589637.600000

