>compound EQ59007243
>parentmass 312.11650000000003
>ionization [M+H]+
>formula C17H17N3OS
>rt 618.000000
>profile orbitrap
#smiles_iso C[C@@]1(C(=O)N(C(=N1)SC)NC2=CC=CC=C2)C3=CC=CC=C3
#smiles_can CC1(C(=O)N(C(=N1)SC)NC2=CC=CC=C2)C3=CC=CC=C3
#inchikey LMVPQMGRYSRMIW-KRWDZBQOSA-N
#pubchem_id 10403199
#mb_accession EQ305601,EQ305602,EQ305603,EQ305604,EQ305605,EQ305606

>ms2peaks
65.038500 5071980.800000
74.005800 1650874.900000
77.038200 482113.400000
91.032300 2095033.000000
92.049400 114559509.600000
103.054200 64106607.600000
120.080700 19681144.700000
131.049100 29005413.700000
133.063200 476123.300000
133.075800 599870.100000
134.070800 3700083.300000
138.037000 651975.400000
143.027300 6144450.700000
148.075600 734237.400000
150.024100 504057.500000
151.057400 1596871.700000
161.070800 12240630.500000
165.048000 67188912.500000
170.096300 3938955.700000
191.063600 675736.800000
193.079200 6335025.700000
194.096100 2238460.600000
205.079500 2275252.300000
211.123000 28842413.200000
219.058500 2747086.100000
221.074300 4649403.900000
221.107300 4539949.900000
222.091200 15512580.200000
236.118100 383218624.900000
239.117800 76885281.500000
264.113100 166658908.400000
265.121300 4696594.800000
267.095000 26700970.000000
284.121800 4518921.800000
295.090000 13819316.600000
312.116300 270275868.700000

>ms2peaks
65.038600 26654285.000000
74.005800 6985641.700000
77.038400 944112.000000
91.032400 1175384.600000
92.049400 469321816.900000
103.054200 96010493.100000
105.033300 660954.700000
109.076000 486926.300000
120.080700 31439941.200000
131.049100 8841333.700000
133.063500 2647212.300000
133.076000 4594292.700000
134.071200 13964583.800000
138.037100 4375444.100000
143.027400 5074823.800000
146.059900 1446470.700000
148.075600 1790634.300000
150.024200 2220689.700000
150.037300 766526.700000
151.057400 2312368.300000
158.071400 1511672.300000
161.070900 19308203.800000
165.048100 69505426.000000
170.096300 7123435.800000
191.063500 3086751.200000
193.079400 4107011.500000
194.096400 10721960.700000
195.091700 1898171.800000
205.043200 524987.300000
205.079600 2008247.700000
211.122900 33594423.100000
219.058500 2264464.600000
219.091400 1588035.800000
220.099700 1731769.900000
221.074300 15447297.500000
221.095000 2302710.000000
221.107400 9181265.400000
222.091400 17199400.000000
222.114400 1949217.900000
224.094400 1278910.900000
236.118200 364766602.200000
237.048300 632582.900000
239.117800 15928598.700000
252.071400 2301841.500000
264.113100 19300278.900000
265.120900 2515830.900000
267.095000 19998538.600000
280.065600 630324.600000
284.122000 1025760.800000
295.090100 2135814.000000
312.116700 5712922.300000

>ms2peaks
65.038600 89722198.100000
74.005800 9185979.900000
74.989900 660424.300000
92.049400 604967070.600000
93.057200 1399373.100000
95.049100 1232761.300000
103.054200 96876766.800000
104.049500 3659644.600000
109.075900 3217226.900000
110.059900 1118638.700000
118.052400 1706581.300000
119.060300 1624001.000000
120.080700 42375732.600000
124.075700 607083.500000
131.049200 1124176.900000
133.063500 2561550.900000
133.076000 16286922.800000
134.071200 61267424.900000
138.037100 4392759.700000
145.076100 1743605.000000
146.060100 1324845.000000
148.075600 1642168.000000
150.024700 14200825.400000
150.037000 2240503.700000
151.057500 2567129.200000
158.071300 8843108.500000
161.070900 8761396.900000
162.037100 1349684.200000
165.048000 41682060.600000
170.096200 5604734.100000
179.072400 683882.600000
189.048200 1151005.200000
193.079400 4260743.600000
194.096400 15278470.700000
195.091400 2374670.200000
205.043000 1504000.100000
205.079500 761059.000000
206.083600 2501574.000000
207.067700 1651001.800000
211.122900 15322401.400000
219.091900 3577187.200000
220.099100 2466855.200000
221.074200 8307159.300000
221.094900 7992354.500000
221.107200 3219318.800000
222.091400 7878056.600000
224.094200 1142565.100000
236.118100 154609045.300000
237.047900 3212403.600000
239.118000 657428.800000
252.071700 3101615.600000
264.113200 2880631.300000
267.094900 3800249.100000

>ms2peaks
65.038600 166103386.300000
74.005800 7192784.200000
74.990000 2351833.600000
79.054200 617968.700000
85.969400 1380801.800000
92.049400 577646169.300000
93.057200 1647936.900000
95.049000 1987692.600000
103.054200 101639095.700000
104.049400 6901006.300000
106.065100 603440.900000
109.076000 2927770.700000
110.060000 1614501.900000
118.052400 1370253.500000
118.064900 1313661.800000
119.060300 1445914.300000
120.080700 47733014.300000
123.013500 1109276.500000
130.065100 1224634.400000
133.063400 2641170.300000
133.076000 18719723.500000
134.071200 80840629.900000
138.037100 3974261.700000
145.076000 1796161.700000
146.059800 2185362.900000
147.067700 653476.400000
148.075800 1851932.000000
150.024600 22460793.500000
150.037100 1698684.600000
151.057500 1452818.300000
158.071300 10788275.400000
161.070900 5636716.400000
162.037200 2460252.700000
165.048100 24546864.800000
170.096400 4081261.800000
176.040200 634945.700000
193.079300 2524601.400000
193.087900 771794.400000
194.096400 13243990.200000
195.091600 2602388.500000
206.084100 2502617.700000
207.067300 2256744.600000
211.123100 7759272.600000
219.091500 5771584.500000
221.074400 2861425.400000
221.094700 7739096.400000
221.107200 1388076.200000
222.091300 3950200.000000
236.118100 70192205.500000
237.048100 3028240.300000
252.071600 1322392.600000

>ms2peaks
65.038600 305011095.500000
74.005800 8126475.200000
74.989800 2494251.300000
77.038500 753327.300000
79.054300 1182130.400000
85.969400 3465944.800000
91.054200 1297608.600000
92.049400 450686372.800000
93.057100 4895536.900000
95.049100 6866761.300000
102.046600 483400.200000
103.054200 100571660.800000
104.049400 8643379.700000
105.044700 1358043.700000
107.060400 633017.100000
109.076000 1888681.600000
110.059700 1949448.100000
116.049500 1331397.200000
118.052400 3038219.900000
119.060400 1437337.700000
120.080700 39355006.000000
121.010600 1066946.600000
123.013700 2657863.600000
130.065100 1516333.600000
131.060500 1249824.900000
133.063400 1597685.100000
133.076000 12835680.200000
134.071200 77354247.700000
138.037300 1538040.300000
145.076200 754484.200000
146.060000 2334092.400000
150.024600 28615503.100000
151.057800 486620.000000
158.071200 8799805.500000
161.070800 2051594.800000
162.037200 881547.100000
165.048100 8801488.700000
170.096400 1807200.400000
174.024700 493451.700000
176.040300 473438.900000
179.073100 1491124.600000
180.080800 1121562.300000
193.088900 2047608.700000
194.096300 8461481.500000
195.091500 2733961.100000
205.076100 621000.000000
206.083400 2383606.500000
207.067800 2879961.600000
211.123400 481820.600000
219.091700 4695428.800000
220.086700 3075716.800000
221.094800 4118582.900000
221.106200 718180.900000
222.091300 498863.400000
236.118200 14730905.700000
237.048000 3049776.700000
251.063800 1186753.000000

>ms2peaks
53.002300 1338497.800000
63.022700 545210.300000
64.030500 516022.900000
65.038600 343570863.600000
74.005900 6989498.800000
74.989900 1757803.400000
77.038500 1388429.500000
79.054200 1077916.300000
85.969500 4217613.800000
91.041500 474815.100000
91.054200 633145.800000
92.049400 238627729.900000
93.057100 4219915.400000
95.049100 11171975.600000
102.046400 1150363.400000
103.054200 63636646.300000
104.049500 6693484.000000
105.044800 2566363.000000
106.052600 1575175.600000
107.060400 1474268.000000
109.076200 426109.600000
110.060000 549923.800000
116.049400 1610808.700000
118.052500 2820935.300000
118.064900 418234.100000
119.060400 603927.200000
120.080700 21066428.000000
121.010600 1283199.100000
123.013700 2880519.700000
128.049500 570555.300000
130.065300 1031095.300000
131.060600 1591441.700000
133.063300 2541692.700000
133.076000 5241165.000000
134.071300 41865433.700000
138.037000 473785.300000
146.060200 365737.700000
150.024700 22254294.000000
158.071300 2947979.400000
162.037200 482309.100000
165.048000 2078617.000000
167.073000 473007.900000
179.073100 1850863.700000
180.081100 407671.200000
192.080500 389406.000000
193.088900 2147356.600000
194.096300 2612646.300000
195.092100 1309096.200000
205.076600 1590868.900000
206.083600 2297398.900000
207.068400 1167170.400000
219.091800 3068495.500000
220.086800 3234098.700000
221.094800 998451.400000
236.118800 1753720.400000
237.048500 1384208.600000

