>compound EQ59515199
>parentmass 184.0968
>ionization [M+H]+
>formula C9H13NO3
>rt 48.000000
>profile orbitrap
#smiles_iso CNC[C@@H](C1=CC(=C(C=C1)O)O)O
#smiles_can CNCC(C1=CC(=C(C=C1)O)O)O
#inchikey UCTWMZQNUQWSLP-VIFPVBQESA-N
#pubchem_id 5816
#mb_accession EQ332501,EQ332502,EQ332503,EQ332504,EQ332505,EQ332506

>ms2peaks
57.057300 486438.000000
58.065200 680709.600000
107.049200 1458609.500000
109.028500 196639.300000
120.080800 942077.500000
123.043600 233245.200000
125.059700 148163.400000
133.052200 180662.000000
135.044000 3600611.800000
137.059700 793331.100000
148.075700 1543792.000000
151.062800 1222261.000000
166.086400 110026888.000000
184.097000 465189.900000

>ms2peaks
57.057300 766282.500000
58.065200 941639.100000
91.054300 136194.400000
107.049200 2402156.000000
109.028500 279742.700000
119.049100 122848.800000
120.080800 1527217.600000
123.043600 263671.800000
125.059800 239552.000000
133.052200 319122.300000
135.044100 5492511.000000
137.059700 1110471.200000
148.075700 2182716.000000
151.062800 1706929.600000
166.086400 112149384.000000
184.097000 178440.300000

>ms2peaks
56.049600 348181.600000
57.057400 3215353.200000
58.065200 2935362.800000
72.044400 145423.600000
79.054200 672730.900000
81.033500 145271.000000
91.054200 832450.400000
93.069800 107138.000000
95.049100 177487.600000
97.065000 80492.800000
103.054300 113634.500000
107.049200 14142701.000000
109.028400 1688448.600000
109.064900 109575.400000
118.064800 80584.000000
119.049200 662154.400000
120.080800 7350503.000000
121.064800 154084.300000
123.044000 966291.600000
123.067800 56164.100000
124.051900 87286.100000
125.059700 608257.100000
130.065100 98821.700000
131.049200 53850.200000
133.052300 1489171.100000
134.059900 185563.700000
135.044100 11260822.000000
137.059700 2625037.500000
138.091200 195358.300000
146.060200 205222.900000
148.075700 6752621.500000
149.083600 273174.000000
150.055100 54529.200000
151.062800 8062549.000000
165.078500 135367.900000
166.086400 53406212.000000

>ms2peaks
56.049600 544229.600000
57.057400 4185255.500000
58.065200 2821579.200000
65.038600 40662.600000
67.041700 43434.300000
67.054200 24419.500000
68.049600 51173.300000
70.028700 123171.400000
72.044500 122729.000000
77.038500 334993.000000
78.046500 104769.700000
79.054300 2564899.500000
80.049500 489299.300000
81.033500 874474.400000
81.069900 140392.900000
84.044500 90631.400000
89.038600 22722.000000
91.054200 2229124.500000
93.070000 237805.400000
94.028700 47598.400000
94.065100 196153.900000
95.049100 533158.800000
95.073100 137621.500000
96.080800 54169.300000
97.064900 172027.900000
103.054200 480887.700000
104.049500 48587.300000
105.033400 28756.800000
105.044800 265695.100000
105.057400 397969.100000
106.041400 169313.500000
106.065200 115978.700000
107.049200 21903870.000000
108.044400 140365.100000
108.080800 32572.000000
109.028400 2599779.000000
109.064900 159539.300000
110.036300 303808.100000
110.060300 47054.500000
111.044100 37096.600000
117.033600 80343.700000
118.065200 148678.400000
119.049200 1328957.600000
120.080800 9411316.000000
121.064800 288322.100000
122.060100 222568.900000
123.044100 3711576.500000
123.067800 402656.300000
124.051900 426864.000000
125.059700 494982.300000
130.065100 257796.300000
131.049000 196671.200000
131.073000 111788.200000
132.044300 103735.100000
133.052300 2608021.200000
134.036200 242820.600000
134.060100 827950.600000
135.044100 5908921.000000
136.039100 31615.500000
136.052200 36977.900000
137.059700 2103928.500000
138.091200 166204.900000
146.060200 598564.200000
147.067900 104391.400000
148.075800 7469209.500000
149.083600 667516.800000
150.055100 381147.200000
151.062900 11682751.000000
158.071300 27237.600000
165.078600 186447.600000
166.086400 11482471.000000

>ms2peaks
50.015100 32370.700000
56.049600 459456.700000
57.057400 3277518.000000
58.065200 1619537.900000
63.022900 20033.300000
65.038600 242065.000000
67.041700 131334.500000
67.054300 124024.800000
68.049500 226398.100000
70.028800 149518.700000
72.044300 36413.700000
77.038600 775525.200000
78.046400 406786.600000
79.054200 5227916.000000
80.049500 1221131.600000
81.033500 1634717.500000
81.069900 113223.400000
82.065100 21719.000000
89.038700 292487.400000
91.054200 3642220.000000
92.025900 23829.100000
92.049500 41750.700000
93.057200 103010.400000
93.069900 465646.300000
94.028800 199148.200000
94.065100 647760.500000
95.049100 2133719.200000
95.072900 339711.500000
96.044300 45274.300000
96.080900 36417.000000
97.064900 118245.000000
103.054300 802160.400000
104.049500 286107.800000
105.033600 297383.100000
105.044800 867795.100000
105.057300 908293.200000
106.041400 405048.900000
106.065300 209247.300000
107.049200 18671772.000000
108.044400 392774.200000
108.056900 27572.000000
109.028400 1958035.000000
109.064800 127825.600000
110.036300 715862.100000
110.060000 96604.300000
111.043900 31731.000000
117.033500 102303.000000
118.065200 324456.500000
119.049200 935529.300000
119.072900 121375.100000
120.080800 6184441.000000
121.064800 283216.300000
122.060100 524305.100000
123.044100 7515788.000000
123.067800 680293.600000
124.051900 808558.900000
125.059800 207684.400000
130.065300 290823.000000
131.049200 282278.200000
131.072900 154684.000000
132.044500 341372.400000
132.080700 44737.200000
133.052200 2501562.200000
134.036400 443632.100000
134.060100 1451734.600000
135.044000 1670169.400000
136.039300 177862.000000
136.052000 102695.700000
137.059700 637665.100000
138.091200 79316.200000
146.060100 732005.200000
147.067700 186159.800000
148.075800 3994952.500000
149.083600 705330.300000
150.055000 808073.800000
151.062800 7725913.500000
165.078400 192109.400000
166.086400 1301393.200000

>ms2peaks
50.015200 35713.600000
53.038700 33735.000000
56.049600 429927.300000
57.057400 2251885.500000
58.065200 913890.800000
63.023000 37069.800000
65.038600 628192.700000
66.046500 25867.400000
67.041700 166129.800000
67.054200 438409.300000
68.049500 292553.200000
69.057400 23289.600000
70.028700 155022.700000
70.065100 30313.800000
77.038600 2146713.200000
78.046400 1202180.900000
79.054300 6661173.000000
80.049500 2107754.800000
81.033500 2603390.500000
82.041400 34866.200000
89.038600 545452.200000
90.046300 23970.800000
91.054200 4229810.000000
92.025700 38771.800000
92.049400 47746.200000
93.033400 32127.100000
93.057400 135009.100000
93.069900 404426.000000
94.028700 355108.200000
94.065200 967832.100000
95.049200 5386018.000000
95.073000 373790.400000
96.044300 169552.900000
96.056700 22018.200000
97.064900 91780.300000
103.054300 600217.100000
104.049500 1112282.000000
105.033600 961971.600000
105.044800 2101174.500000
105.057300 1445162.900000
106.041400 660543.100000
106.065200 288904.400000
107.049200 11079733.000000
108.044400 502193.400000
108.057000 50264.000000
108.080900 44575.400000
109.028500 1120373.200000
109.064900 95251.700000
110.036300 989907.300000
110.060100 119716.300000
117.033600 95869.600000
117.057400 28427.500000
118.065100 438147.600000
119.049200 531282.900000
119.072900 114181.400000
120.080800 3170341.000000
121.064800 199675.300000
122.060100 512233.500000
123.044100 10346925.000000
124.051900 917909.100000
125.059700 43135.700000
130.065300 302025.800000
131.049300 123331.900000
131.073000 115962.100000
132.044500 641527.100000
132.080700 36698.000000
133.052300 1559910.000000
134.036400 435404.300000
134.060100 1507241.400000
135.044100 340133.400000
136.039300 322769.800000
136.051900 46587.600000
136.076000 29258.400000
137.059800 179409.300000
146.060200 507026.000000
147.067800 148557.500000
148.075800 1711212.000000
149.083600 266601.900000
150.055000 935230.900000
151.062800 3139189.000000
164.071000 26700.500000
165.078600 85417.600000
166.086500 115374.500000

