>compound EQ60449467
>parentmass 825.4505
>ionization [M+H]+
>formula C41H60N8O10
>rt 576.000000
>profile orbitrap
#smiles_iso C/C=C\1/C(=O)N[C@H]([C@@H](C(=O)N[C@H](C(=O)N[C@H]([C@@H](C(=O)N[C@H](CCC(=O)N1C)C(=O)O)C)/C=C/C(=C/[C@H](C)[C@H](CC2=CC=CC=C2)OC)/C)CCCN=C(N)N)C)C(=O)O
#smiles_can CC=C1C(=O)NC(C(C(=O)NC(C(=O)NC(C(C(=O)NC(CCC(=O)N1C)C(=O)O)C)C=CC(=CC(C)C(CC2=CC=CC=C2)OC)C)CCCN=C(N)N)C)C(=O)O
#inchikey IXBQSRWSVIBXNC-HSKGSTCASA-N
#pubchem_id 14217092
#mb_accession EQ325203,EQ325204,EQ325205,EQ325206

>ms2
58.065200 40153.800000
59.047800 48433.500000
60.055700 578308.800000
65.038600 44901.300000
67.054200 31587.200000
68.049300 193753.400000
69.033500 459453.400000
70.065100 19598861.600000
71.049100 127633.700000
72.080700 258029.500000
74.059900 25353.200000
77.038500 127398.400000
79.054200 732529.400000
80.049300 25168.400000
81.069700 75588.700000
82.065100 66712.700000
83.049000 146237.800000
84.044400 1913673.000000
85.028400 43551.900000
85.076200 49343.000000
86.060100 142742.400000
87.079100 296429.900000
91.054200 2167477.000000
93.069800 2294172.300000
94.065200 102097.100000
95.049100 556856.800000
95.060400 339853.300000
95.085500 298452.000000
96.044500 129562.700000
96.080800 161833.000000
97.076000 739168.800000
98.060100 718188.700000
100.075600 106100.000000
100.087100 39597.800000
102.054900 40309.400000
103.054200 6256507.500000
105.069900 5999135.000000
107.085500 9760159.800000
108.080600 59520.900000
109.064900 233390.900000
109.076300 29637.700000
110.059900 48370.500000
110.096400 51228.600000
112.086900 4522736.400000
113.023200 108500.700000
113.070900 1424242.900000
114.054900 58689.700000
114.102600 894683.300000
115.054200 720561.700000
115.086600 3292695.800000
116.070500 1024695.800000
117.069900 2891693.000000
119.085500 382951.700000
120.056900 185644.000000
120.080800 693460.700000
121.064700 56926.900000
121.101000 232401.300000
122.096400 44721.600000
124.075700 680301.300000
124.087100 37070.300000
124.112000 296725.200000
125.070900 930601.600000
126.055000 284518.800000
126.066100 120551.100000
126.091300 352378.800000
127.086500 339166.300000
127.097800 36874.700000
127.123000 61510.400000
128.081800 36248.500000
129.069800 145780.900000
129.113400 30312.100000
130.049900 840753.700000
130.097500 484738.500000
131.085600 547080.700000
132.080800 56998.600000
132.113200 41236.200000
133.064600 50126.900000
133.101200 332641.500000
135.080400 24020505.300000
135.116700 8073786.800000
136.075600 404320.400000
136.083600 45857.900000
137.107400 196693.300000
138.066100 43209.600000
138.091200 203106.700000
139.097600 487969.800000
139.122900 66766.800000
140.070300 156985.600000
140.081700 1197235.900000
141.065600 922189.900000
142.086100 60862.900000
142.097600 28068.200000
143.085700 317981.800000
145.101200 587355.900000
146.096500 104402.400000
146.108700 102583.000000
147.080700 48703.500000
147.091700 32451.200000
147.116600 40501.000000
150.091300 102787.500000
150.102400 33365.100000
151.086400 132924.400000
152.070600 1706338.500000
153.065600 92487.700000
153.102200 707696.900000
154.086300 262662.700000
155.092500 65842.100000
155.117700 282008.700000
156.124500 305094.700000
157.108300 2406398.700000
158.092200 469879.000000
159.116700 155772.300000
161.096200 247355.100000
162.102700 139849.200000
163.086500 1023252.700000
163.111600 4065174.700000
164.070500 225972.600000
164.118000 150716.600000
165.102200 455240.800000
166.086100 301051.000000
167.086000 45692.600000
169.101100 45626.400000
170.081000 333835.500000
170.128700 38153.300000
171.075900 104406.600000
171.113000 231962.000000
172.071300 30613.100000
172.111900 249132.900000
173.096100 114003.700000
174.134900 2030600.400000
175.118800 494300.100000
176.106900 29820.000000
176.143100 41676.900000
178.097200 169035.200000
178.122400 50330.300000
179.081300 49819.100000
180.113100 511935.100000
181.097000 3911724.100000
182.081100 674690.600000
182.103600 547342.900000
182.128500 304169.900000
183.087500 613830.800000
183.112600 1612155.100000
184.096700 63312.300000
186.091200 202364.600000
188.107000 156750.500000
190.097600 99096.900000
190.122500 107858.400000
191.081400 36323.100000
192.113100 154447.600000
195.116500 300811.100000
195.124300 169230.600000
196.107700 150306.100000
197.092100 34269.300000
197.107000 42882.800000
198.123200 465609.400000
199.107500 705832.400000
200.113900 2529734.600000
201.098000 931069.100000
201.126800 112160.500000
204.138200 107317.100000
205.108800 32501.400000
205.133800 40633.300000
206.092500 280810.700000
207.076100 162565.700000
207.124100 50023.800000
208.108100 475750.600000
209.092000 3674382.400000
209.132100 291638.300000
210.076000 596830.800000
210.124200 52522.700000
211.107100 60931.600000
212.150600 151942.000000
213.134400 579803.600000
214.133900 49520.900000
217.133600 109652.700000
218.153600 218073.900000
220.144100 60659.700000
223.118400 382596.800000
224.102800 267777.000000
224.150500 158645.900000
225.087100 625577.800000
225.134400 394442.800000
226.118400 1274999.700000
226.158600 289728.200000
227.102400 7883130.700000
228.086500 391977.979800
228.138000 132369.200000
232.169800 59746.400000
237.123800 190062.300000
237.163500 492241.600000
240.145100 182703.400000
241.129400 145112.300000
242.160900 138389.200000
244.128400 290020.661300
245.113100 42017.000000
246.123600 59676.500000
246.148800 447849.600000
248.139000 60379.800000
249.123100 178059.500000
250.129800 125394.400000
250.155500 116723.500000
251.114100 212502.800000
252.097600 192670.100000
253.081600 2282101.400000
255.145200 138686.100000
257.172700 75880.300000
258.156500 263816.400000
263.186500 146999.100000
267.134500 37545.400000
268.140000 280807.700000
269.124200 462162.900000
280.213000 250081.600000
282.184900 214768.600000
283.128900 204950.900000
285.167200 365197.800000
286.150600 172651.300000
291.145300 56794.600000
292.128600 246392.600000
293.113200 43725.600000
293.160800 78196.300000
295.128700 162125.000000
295.176200 148603.600000
303.177600 242528.100000
310.138600 58395.200000
319.213300 119053.700000
320.171600 154697.700000
322.187400 271689.100000
323.171500 377827.200000
338.135100 173980.400000
338.182800 60066.900000
339.118500 220907.900000
341.181300 36997.000000
348.167000 62377.200000
356.240900 32352.900000
365.195400 33505.500000
366.177100 628364.000000
389.206600 134820.500000
406.208600 48705.400000
409.257000 58198.400000
449.216000 35243.600000
467.229900 33368.900000
488.322900 32789.300000

>ms2
58.065200 30302.900000
59.047800 23907.100000
60.055700 537865.400000
65.038600 294430.100000
67.054200 162125.100000
68.049500 444074.600000
69.033500 574467.900000
69.069900 164462.700000
70.065100 23021199.600000
71.049200 246075.300000
72.080700 498646.900000
73.063400 26662.300000
74.023700 41891.300000
74.060200 32059.800000
77.038500 433225.300000
79.054200 1797567.900000
80.049500 104412.200000
81.033500 56973.500000
81.069900 165249.600000
82.028800 193336.300000
82.065200 128299.400000
83.049100 381384.400000
84.044400 3123567.700000
85.028400 204160.500000
85.076000 157102.400000
86.059900 203454.900000
87.079200 244306.500000
89.038400 28624.000000
91.054200 4652352.100000
92.062000 23223.900000
93.069900 3360018.100000
94.065100 355325.400000
95.049100 2480278.800000
95.060300 583190.000000
95.085500 253067.400000
96.044400 307143.400000
96.068100 30917.400000
96.080700 244954.700000
97.076000 1238157.000000
98.060100 1340974.900000
99.018900 288625.400000
100.075600 175919.500000
102.046500 221030.400000
102.055000 114293.100000
103.054200 16588454.100000
104.057700 32174.100000
105.069900 10347564.900000
106.065100 25137.900000
107.085500 9997218.400000
108.080800 259443.900000
109.064800 653144.400000
109.076000 49880.300000
110.023700 30179.500000
110.071400 27199.400000
110.096300 160418.200000
112.086900 2686568.500000
113.023400 396080.700000
113.070900 587566.300000
114.054700 197136.200000
114.102600 627030.200000
115.054200 2102056.800000
115.086600 1773489.900000
116.062000 134303.100000
116.070600 369334.700000
117.069900 3932060.300000
118.065300 49956.300000
119.060400 169675.300000
119.085500 526734.900000
120.057000 375958.400000
120.080800 584476.300000
120.093400 42047.100000
121.064800 51864.300000
121.101200 171719.600000
122.060100 53027.700000
122.096500 137625.900000
123.055300 116418.700000
123.080200 33246.500000
123.091700 28594.600000
124.039200 103627.400000
124.075700 688212.300000
124.112000 132431.900000
125.070900 792984.700000
126.055000 247259.900000
126.066200 30753.800000
126.091400 331760.200000
127.086600 602783.100000
127.123200 45276.700000
128.034300 52900.600000
128.062000 127410.500000
129.069800 216853.700000
130.049900 725462.700000
130.065200 38880.400000
130.077800 54734.100000
130.097500 379516.700000
131.085500 343160.400000
132.080700 48701.800000
133.064700 33467.200000
133.101100 298985.400000
135.080400 10729022.700000
135.091200 750924.100000
135.116700 3262555.500000
136.075600 443890.200000
136.099500 114472.100000
137.071100 28739.200000
137.107400 264796.500000
138.066100 123855.200000
138.091300 232368.000000
139.097800 240783.600000
139.122800 57456.100000
140.070300 100540.300000
140.081700 672343.700000
141.065700 1399747.200000
142.086300 29101.600000
142.097600 32399.000000
143.085500 245586.200000
145.101400 358740.300000
146.096500 36969.000000
146.109100 48026.100000
147.080700 49163.800000
147.092100 43317.800000
147.117200 48949.100000
148.112000 28886.100000
150.091800 42977.400000
150.102700 30339.000000
151.086700 137516.600000
152.070600 647390.500000
152.118200 111954.600000
153.065800 114363.800000
153.102100 1140694.200000
154.086200 179412.800000
155.085500 53560.000000
155.118000 110762.000000
156.124400 37504.400000
157.108300 480563.400000
158.092500 150502.000000
159.116900 46312.300000
161.095900 41026.300000
162.092100 32892.400000
162.102700 122999.700000
163.086500 1001116.000000
163.111700 801705.500000
164.070300 244261.600000
164.118400 139021.500000
165.102100 537407.400000
166.086400 147723.900000
167.085800 42297.300000
170.081100 121024.800000
170.096900 37235.100000
171.076300 209833.600000
171.112500 35969.500000
172.112100 178619.000000
173.096100 63313.300000
174.135300 187301.800000
176.106800 43098.500000
176.142800 30608.000000
178.097300 207334.100000
180.093300 42777.000000
180.113100 238194.300000
181.097000 3531369.200000
182.081200 659897.500000
182.103600 434848.900000
182.128800 102185.300000
183.087600 288140.500000
183.112300 270901.600000
186.091600 36475.500000
188.106600 47852.800000
192.113300 141698.200000
195.124100 36219.700000
197.107400 34832.200000
198.123700 111593.300000
199.107300 291387.500000
200.114100 402491.600000
201.097900 360609.500000
204.138300 53276.700000
206.092500 135217.200000
207.076900 46651.700000
208.108100 146237.200000
209.092000 1815784.500000
210.076200 211100.100000
210.124300 25454.100000
213.135500 27153.400000
218.154500 30716.500000
223.119300 110194.800000
224.102700 100895.000000
225.087200 118018.000000
225.135000 43172.300000
226.118300 271187.400000
227.102500 1369296.700000
228.086800 63547.400000
249.123100 49625.200000
253.081900 180698.200000
267.134400 100056.000000

>ms2
58.065200 60978.700000
59.047800 125349.700000
60.055700 394084.700000
63.022800 35283.700000
65.038600 570239.800000
67.054200 290860.100000
68.049500 662333.400000
69.033500 459375.800000
69.070000 107099.400000
70.065100 21596261.700000
71.049100 289476.900000
72.080700 536487.600000
74.023700 30453.500000
74.060100 38049.000000
77.038500 598246.400000
78.046300 46455.600000
79.054200 2744977.300000
80.049500 209566.100000
81.033400 129527.400000
81.069900 171912.000000
82.028700 469435.200000
82.065100 177817.400000
83.049200 358173.300000
83.060500 38141.500000
84.044400 3068396.700000
85.028400 535683.100000
85.076000 256522.000000
86.060100 168951.700000
88.075600 38406.500000
91.054200 8062782.700000
92.062100 121870.900000
93.069800 2677825.700000
94.065000 687966.900000
95.049100 5690989.900000
95.060300 769949.200000
96.044300 318411.300000
96.080700 218450.100000
97.076000 1212174.200000
98.060000 1422350.800000
99.019000 319720.900000
100.075600 255960.300000
102.046500 435136.100000
102.055000 59757.000000
103.054200 25883758.700000
104.057600 31049.300000
104.062100 29580.400000
105.044700 1160325.500000
105.069900 10079085.700000
106.065100 117619.800000
107.085500 6588102.100000
108.080800 458868.500000
109.064800 917985.100000
109.076000 205034.800000
110.060100 59227.600000
110.096300 187972.500000
111.055400 56971.900000
112.086900 1645143.900000
113.023300 596593.200000
113.070900 427576.500000
114.055000 138873.800000
114.102700 247552.100000
115.054200 3167779.700000
115.086600 852139.500000
116.062000 242542.300000
116.070800 62009.500000
117.069800 2797310.600000
118.065300 31413.400000
119.060400 252745.200000
119.085500 516254.700000
120.056900 574194.200000
120.068100 29652.100000
120.080700 511208.200000
120.093400 138000.900000
121.064800 46540.100000
121.076200 38823.200000
121.101300 47675.100000
122.060000 26769.300000
122.071400 39666.100000
122.084100 40487.000000
122.096400 107105.100000
123.055300 110071.900000
123.080300 27014.600000
123.091500 37410.900000
124.039300 114589.800000
124.051900 36322.400000
124.075700 357550.800000
124.087000 29065.900000
125.070900 493085.300000
126.054900 46689.500000
126.091400 172947.000000
127.086500 452503.700000
128.034200 35093.800000
128.062200 175754.200000
129.069600 328996.200000
130.049800 431842.000000
130.064900 43323.200000
130.077800 49689.300000
130.097500 228497.400000
131.085400 443771.300000
132.080900 34213.800000
133.076200 46148.300000
133.101300 152279.600000
135.080400 3240456.900000
135.091500 1286665.200000
135.116700 753090.800000
136.075500 314465.700000
136.099400 216572.900000
137.071000 98959.600000
137.107100 284032.700000
138.066100 72082.600000
138.091400 134642.200000
139.097700 44260.100000
140.081700 247962.900000
141.065500 611796.800000
143.085700 101519.400000
144.080800 29427.600000
145.101300 168748.200000
146.060200 44593.900000
147.091600 34716.900000
148.112500 31807.900000
150.091500 44136.100000
150.102700 61300.500000
151.086700 112986.900000
152.071000 56411.200000
153.102200 970375.700000
154.086500 111378.100000
155.085700 39578.300000
157.108500 97132.500000
162.102600 53260.600000
163.086400 661089.100000
163.111900 120709.000000
164.070800 156552.700000
164.118100 40543.900000
165.069700 150605.800000
165.102400 170387.800000
166.077900 41048.200000
170.096500 112573.400000
171.076700 46088.000000
172.112100 101448.100000
173.096000 29654.200000
178.097700 35764.800000
179.085500 121383.300000
180.093300 60252.500000
180.112700 45423.000000
181.096900 1473454.300000
182.081300 194536.600000
182.103300 122203.100000
192.113400 56075.300000
199.107400 50764.700000
201.098400 51002.400000
208.108600 27878.200000
209.092000 369466.500000
219.113300 28746.000000
227.102800 56296.500000

>ms2
58.065200 36311.400000
59.047800 137630.600000
60.055700 363772.800000
63.022800 32323.100000
65.038600 1033885.000000
67.054200 495723.800000
68.049500 828786.600000
69.033500 333296.200000
69.069900 106390.500000
70.065100 19388076.000000
71.049100 335192.200000
72.080800 484155.900000
74.023500 60050.300000
77.038600 1054765.600000
78.046400 40455.000000
79.054200 3348475.900000
80.049500 280937.500000
81.033500 228723.900000
81.057200 39348.800000
81.069900 225886.800000
82.028700 497149.700000
82.065200 167015.100000
83.049200 300542.100000
83.060400 52013.900000
84.044400 2602125.900000
85.028400 477058.400000
85.076100 176220.700000
86.060100 158944.300000
89.038800 54130.400000
91.054200 10155773.300000
92.062100 281703.600000
93.069900 1597489.100000
94.065100 765905.000000
95.049100 10290208.400000
95.060300 568218.400000
96.044400 225467.800000
96.068300 57532.600000
96.080800 206974.700000
97.076100 1164637.600000
98.060100 995821.900000
99.018900 270847.700000
100.075700 236748.100000
102.046500 618845.800000
102.055000 33702.200000
103.054300 28945340.100000
104.061900 37688.500000
105.044800 1874081.600000
105.069900 7711962.800000
106.065100 103725.000000
106.077700 39409.600000
107.085500 3019769.500000
108.080800 378267.700000
109.064800 924672.700000
109.076100 227460.900000
110.023500 43946.300000
110.060100 103143.100000
110.071200 48756.000000
110.096300 34650.300000
111.055300 56497.600000
112.087000 528398.800000
113.023400 492866.400000
113.071000 198227.900000
114.055000 55551.400000
114.102600 113399.400000
115.054200 3226047.800000
115.086700 257320.900000
116.061900 272625.900000
117.069900 1620624.900000
118.065100 72391.900000
119.060500 214120.600000
119.085500 309881.600000
120.057100 628963.400000
120.068200 160691.100000
120.080700 334452.300000
120.093400 104920.200000
121.064600 34200.000000
121.075900 34140.100000
122.060000 47596.800000
122.083900 45665.100000
122.096400 43463.200000
123.055400 31313.200000
124.039400 40498.500000
124.051600 31119.200000
124.075600 43108.700000
125.071000 241710.700000
127.086500 184357.800000
128.062100 304465.300000
129.069700 237627.000000
130.049900 158644.700000
130.064900 68741.600000
130.077800 96972.700000
130.097700 32628.100000
131.085600 258177.300000
133.064900 36144.300000
133.076000 53294.800000
134.096500 49843.200000
135.080500 598844.100000
135.091700 1085658.700000
135.116800 131491.000000
136.075700 157436.200000
136.099500 153673.500000
137.107300 169373.500000
138.066200 49352.200000
138.091300 57340.800000
140.081800 31685.100000
141.065500 194959.600000
142.078100 37967.600000
143.086200 36644.500000
144.080700 37988.800000
145.101200 32119.400000
146.059800 29427.100000
147.091700 34402.300000
151.086400 31558.700000
153.102200 413756.700000
163.086500 161681.300000
165.070000 202139.000000
165.102300 30499.000000
170.096600 50666.600000
172.112000 46532.800000
179.085600 113718.200000
181.097200 322009.900000
209.091800 43109.100000

