>compound EQ61588845
>parentmass 260.1757
>ionization [M+H]+
>formula C15H21N3O
>rt 384.000000
>profile orbitrap
#smiles_iso CC(CCCN)NC1=C2C(=CC(=C1)OC)C=CC=N2
#smiles_can CC(CCCN)NC1=C2C(=CC(=C1)OC)C=CC=N2
#inchikey INDBQLZJXZLFIT-UHFFFAOYSA-N
#pubchem_id 4908
#mb_accession EQ300901,EQ300902,EQ300903,EQ300904,EQ300905,EQ300906

>ms2peaks
69.069800 4506705.100000
86.096400 211601908.200000
175.086500 116368210.500000
187.086200 1168532.600000
241.132800 3606563.300000
243.149100 246380431.700000
260.175500 168983036.100000

>ms2peaks
69.069900 20632018.800000
86.096400 285046533.700000
132.067900 547304.000000
174.078600 882502.600000
175.086600 125521400.800000
187.086600 6461744.600000
241.133600 17863236.200000
243.149200 198998502.300000
260.175700 11241178.700000

>ms2peaks
67.054300 1052061.200000
69.069900 58436698.100000
86.096400 221742853.800000
131.060100 245550.700000
132.068300 1559262.100000
144.068300 728456.700000
160.063200 2924999.400000
172.063000 243015.700000
174.078800 9008288.700000
175.086500 142721140.000000
186.079100 502265.200000
187.086600 27206400.200000
201.101900 1169366.300000
227.117800 326515.700000
241.133500 36189101.700000
243.149200 59830785.700000

>ms2peaks
53.002300 663979.600000
67.054200 1343476.900000
69.069900 71580507.700000
86.096400 159611752.100000
131.060100 532689.900000
132.068200 6571428.200000
143.060400 280228.800000
144.068200 3027094.100000
145.076100 1615111.200000
157.075700 318073.000000
159.067600 254536.900000
160.063000 10664178.200000
161.070900 206646.900000
172.063000 792404.000000
173.070700 758599.800000
174.078800 14680327.900000
175.086500 138625167.200000
186.078700 1650818.200000
187.086600 30651611.400000
199.086100 301429.800000
200.094300 676150.900000
201.102000 1635794.100000
213.102300 179163.900000
215.118000 281143.300000
226.109800 610402.500000
227.118000 168046.000000
228.125800 183223.800000
241.133400 28957970.800000
243.149100 16371581.600000

>ms2peaks
53.002400 1201764.800000
53.997700 162413.900000
67.054200 1992546.000000
67.989400 106490.500000
69.069900 61539455.100000
86.096400 81513686.300000
117.057300 217348.900000
130.064700 257846.100000
131.060200 1601977.000000
132.068200 31435979.200000
143.060400 1496675.900000
144.068200 10776632.500000
145.076000 6119625.000000
157.075800 1200588.100000
159.067900 1896173.100000
160.063100 25889236.900000
161.071500 145613.600000
172.063000 3233210.400000
173.070900 1395787.800000
174.054900 818876.400000
174.078800 14618187.900000
175.086500 94869996.600000
185.071100 254815.300000
186.078700 2753605.400000
187.086600 19652734.300000
198.079100 189186.400000
198.115000 660243.000000
199.086600 739021.700000
200.094400 729332.500000
201.102300 1063758.000000
213.102900 242115.800000
215.118200 143710.100000
226.110600 1264166.300000
227.117900 211798.700000
241.133500 10707339.300000
243.149300 1484628.800000

>ms2peaks
53.002300 1529264.500000
53.997600 246033.500000
67.054200 1765194.400000
67.989400 147538.600000
69.069900 42451964.500000
86.096400 37245933.900000
117.057200 1278989.700000
130.065300 957479.700000
131.060300 6492117.900000
132.068200 72132327.600000
143.060300 1703056.500000
144.068200 20130377.000000
145.076000 11375551.600000
157.075800 938805.900000
159.067800 2588214.500000
160.063000 29489176.300000
161.071000 186797.800000
172.063000 4745660.700000
173.070900 1436137.800000
174.054900 1140851.600000
174.078700 7168429.600000
175.086500 39754547.100000
185.071100 822394.100000
186.078800 2688301.500000
187.086500 9911733.000000
198.079000 191686.900000
198.115000 902235.100000
199.086700 721245.000000
200.094700 226654.300000
201.101900 240169.500000
226.110200 792738.000000
241.133400 1952127.900000

