>compound EQ61563691
>parentmass 222.9954
>ionization [M+H]+
>formula C4H6N4O3S2
>rt 150.000000
>profile orbitrap
#smiles_iso CC(=O)NC1=NN=C(S1)S(=O)(=O)N
#smiles_can CC(=O)NC1=NN=C(S1)S(=O)(=O)N
#inchikey BZKPWHYZMXOIDC-UHFFFAOYSA-N
#pubchem_id 1986
#mb_accession EQ301101,EQ301102,EQ301103,EQ301104,EQ301105,EQ301106

>ms2
58.982400 81398.900000
71.990300 75896.300000
72.985200 117573.600000
79.980000 101957.700000
101.004000 78026.100000
149.023300 168267.200000
163.957100 217747.800000
180.984800 35450850.500000
181.968700 1695397.600000
205.968900 128486.300000
222.995400 40820103.700000

>ms2
58.982300 131299.800000
71.990200 210475.900000
72.985200 255284.000000
79.979900 130187.100000
99.996200 183600.800000
101.003900 98259.000000
142.007000 169127.000000
149.023300 262789.400000
163.957400 169648.300000
180.984700 51851561.300000
181.968500 6641211.700000
205.968900 176642.200000
222.995400 16980109.800000

>ms2
58.982400 212749.800000
59.990200 297470.100000
63.985100 86668.200000
71.990200 231090.000000
72.985400 1856519.200000
79.979900 139190.700000
99.996400 1027151.400000
102.011900 72825.300000
142.007200 123226.700000
149.023300 315928.300000
163.956500 121390.400000
180.984900 40967581.800000
181.968600 29680989.700000
199.979500 138479.100000
205.968500 60173.000000
222.995400 1155874.900000

>ms2
58.982300 386363.700000
59.990300 701642.700000
63.985100 321253.000000
71.990200 160780.200000
72.985500 5383977.200000
79.979900 143493.800000
99.996400 2080288.300000
101.003900 86947.900000
102.012100 150344.700000
142.006900 70501.000000
149.023400 330207.600000
163.957400 89275.600000
180.985000 20882806.200000
181.968800 34553146.100000
183.972900 89533.600000
199.979600 206933.900000
222.996000 171600.400000

>ms2
57.974600 75840.200000
58.982400 1136596.200000
59.990300 1357234.900000
63.985200 754943.500000
68.024300 29016.900000
71.990300 91930.600000
72.985500 12056526.900000
75.001100 152896.400000
79.980000 343975.100000
99.996400 3154338.500000
101.004000 69848.700000
102.012000 271281.900000
149.023400 279007.000000
163.956500 86033.400000
180.984900 5667319.300000
181.968800 22946870.700000
199.979400 138953.000000

>ms2
57.974700 199434.500000
58.982400 2265966.900000
59.990300 1446849.800000
63.985200 1110660.100000
68.024300 67363.700000
71.990200 20425.900000
72.985500 12763366.000000
75.001100 153250.100000
79.980100 453511.400000
84.985600 17942.500000
99.996400 2206490.900000
102.012100 219087.500000
149.023400 121914.200000
180.984900 886244.000000
181.968800 7387715.200000
199.979700 17231.800000

