>compound EQ62150926
>parentmass 237.1598
>ionization [M+H]+
>formula C13H20N2O2
>rt 174.000000
>profile orbitrap
#smiles_iso C1CN(CCN1CC(CO)O)C2=CC=CC=C2
#smiles_can C1CN(CCN1CC(CO)O)C2=CC=CC=C2
#inchikey PTVWPYVOOKLBCG-UHFFFAOYSA-N
#pubchem_id 3169
#mb_accession EQ330701,EQ330702,EQ330703,EQ330704,EQ330705,EQ330706

>ms2peaks
70.065000 692120.800000
118.086200 2084475.800000
132.080700 725131.400000
160.099400 1310599.400000
175.122800 1239140.400000
189.138500 1404210.800000
219.149000 2084488.600000
237.159700 609311040.000000

>ms2peaks
70.065100 2570914.500000
84.080700 3324318.200000
100.075600 784900.200000
114.091400 1159392.400000
118.065100 668467.900000
118.086200 12493856.000000
120.080600 5352971.000000
132.080700 5166094.500000
146.096500 559865.200000
160.099500 9859410.000000
162.114700 599959.600000
163.122800 1700380.600000
175.122900 6944545.000000
189.138600 7995992.000000
190.110100 554239.800000
219.149300 9409930.000000
235.144200 2605725.500000
237.159700 511041120.000000

>ms2peaks
56.049500 1609849.200000
58.065200 811720.200000
70.065100 20641554.000000
72.080800 767411.000000
74.060000 1641195.800000
75.044100 242721.100000
77.038300 247893.300000
80.049500 212108.600000
82.065000 933600.600000
84.080700 18437964.000000
88.075600 301955.500000
96.080700 737200.800000
100.075700 4948284.500000
103.054200 259847.300000
104.049400 3325280.200000
106.065100 970201.600000
114.091300 3045061.800000
118.065000 3498202.200000
118.086200 45250392.000000
119.073000 317442.000000
120.080700 38264324.000000
130.086200 645313.400000
132.080700 31979142.000000
134.096300 594059.600000
144.080900 1153839.000000
144.101700 290456.900000
146.096400 2243012.500000
148.112000 267238.000000
159.091600 2779282.500000
160.099500 43565104.000000
161.107400 1483127.900000
162.114900 1856040.900000
163.122900 6037438.500000
173.107200 550255.500000
174.115100 1149436.600000
175.122900 21786026.000000
186.114800 518929.300000
188.130600 1639879.100000
189.138600 14388018.000000
190.109800 1273519.600000
201.138600 3232890.800000
219.149200 11564211.000000
235.144200 7461634.500000
237.159700 191458880.000000

>ms2peaks
56.049500 3423071.500000
57.033500 966564.900000
57.057300 142346.100000
58.065200 2131468.500000
68.049500 583235.700000
70.065100 40203860.000000
71.049200 142851.000000
72.080700 1803111.800000
74.060000 3866692.200000
75.044100 538075.600000
77.038300 1362381.000000
79.054200 302075.500000
80.049400 797329.400000
82.065100 2376118.000000
84.080700 18011486.000000
88.075700 1093765.600000
91.054200 1198920.400000
92.049400 565853.600000
93.057200 731188.300000
93.069800 980802.800000
94.065100 919365.600000
95.049100 1224869.800000
96.080700 1268607.400000
100.075700 10396678.000000
103.054200 2548890.000000
104.049500 16414497.000000
105.044700 248963.100000
105.070000 150487.600000
106.065100 3224975.500000
114.091300 1938124.200000
116.049400 116050.100000
116.061800 118893.500000
117.057200 866828.400000
118.065100 11117857.000000
118.086200 36223364.000000
119.072800 1285216.400000
120.080700 72797248.000000
130.065300 485461.600000
130.086300 894803.500000
131.072900 1034281.900000
132.080700 44207444.000000
134.096400 1445934.500000
144.080800 2786400.200000
145.075900 1644611.800000
146.096400 2688722.800000
147.091900 519921.200000
148.111600 166811.900000
158.096500 212803.600000
159.091600 6010623.000000
160.099500 54719316.000000
161.107300 1559428.000000
162.115000 1728186.900000
163.122900 3997873.800000
173.107300 1636159.800000
174.115000 2508416.200000
175.123000 11728174.000000
186.115100 1587938.600000
187.122800 209808.800000
188.131000 1247870.400000
189.138600 4466031.500000
190.110000 538319.000000
201.138600 2368659.500000
219.149200 2453396.000000
235.144000 2607882.500000
237.159700 26470294.000000

>ms2peaks
51.022900 138328.400000
53.038700 138289.000000
54.033900 119436.000000
56.049500 5323745.500000
57.033500 1316633.100000
57.057300 155589.200000
58.065200 2327328.800000
65.038600 299763.700000
67.041700 215662.500000
67.054200 135618.000000
68.049500 2078854.500000
70.065100 37109064.000000
71.049200 123702.500000
72.080700 2366928.000000
74.060000 3479248.500000
75.044000 603328.300000
77.038500 2393468.800000
78.046300 303241.000000
79.054200 1506761.400000
80.049500 706413.800000
81.057100 128908.500000
82.065100 3433540.200000
83.060300 186669.100000
84.080700 10634465.000000
86.060100 177932.700000
88.075600 701820.300000
91.054200 4651600.000000
92.049500 1509342.100000
93.057300 2664024.000000
93.069800 2551491.500000
94.065100 2036181.900000
95.049100 6241009.500000
96.080700 1234201.600000
97.076000 185023.600000
100.075700 8404649.000000
103.054200 6488214.500000
104.049400 33365960.000000
105.044700 2305665.200000
105.057300 915467.700000
105.069800 511576.800000
106.065100 5780562.000000
114.091200 466924.900000
115.054300 158836.600000
116.049200 166076.300000
116.061700 183872.500000
117.057200 2861957.000000
117.069800 225272.700000
118.065000 19872566.000000
118.086200 12967375.000000
119.072900 2766079.800000
120.080700 76587288.000000
130.065000 1747609.800000
130.086200 526426.600000
131.060600 961556.200000
131.073000 2053994.100000
132.080700 32083954.000000
133.075900 205493.300000
133.088500 208206.600000
134.096400 1481215.800000
143.073100 260403.000000
144.080700 2810499.500000
145.076000 4753466.000000
146.096500 2342165.800000
147.091800 778407.600000
158.096900 133123.600000
159.091700 5998747.000000
160.099500 37488072.000000
161.107400 498945.800000
162.115000 204763.600000
163.123000 1667358.400000
173.107400 1705892.100000
174.115000 1540862.100000
175.122800 2298260.200000
186.115000 1346825.000000
188.130700 481449.900000
189.138700 514501.900000
201.138400 548117.200000
219.149800 186146.200000
237.159900 1721282.100000

>ms2peaks
50.015300 150058.000000
53.038700 801514.900000
54.033800 118502.700000
56.049500 6864565.000000
57.033500 1649929.200000
57.057300 260568.200000
58.065100 2458919.200000
65.038600 1033052.800000
67.041700 292421.500000
67.054300 215646.400000
68.049400 2681297.000000
69.044800 128969.800000
70.065100 26444968.000000
71.049100 170039.700000
72.080700 2273970.500000
74.060000 1688057.500000
75.044000 634746.100000
77.038500 6451526.500000
78.046400 1248441.600000
79.054200 4207347.500000
80.049500 1286777.600000
81.033500 271320.700000
81.057300 112476.600000
82.065100 2466256.800000
83.060400 167470.800000
84.080700 4296894.500000
91.054200 9846301.000000
92.049400 3201255.500000
93.057300 4994173.000000
93.069800 3673421.800000
94.065000 2521492.000000
95.049100 16024757.000000
96.080800 716559.600000
97.076000 196002.200000
100.075700 3640329.200000
103.054200 11166941.000000
104.049500 40079628.000000
105.044700 6604648.500000
105.057300 1659140.000000
105.069800 1027289.100000
106.065100 7343132.000000
110.060000 293916.000000
115.054200 694658.100000
116.049600 144235.500000
116.062300 202105.200000
117.057200 4975658.000000
117.069700 484368.400000
118.065000 23226978.000000
118.086200 2932045.200000
119.072900 3687383.200000
120.080700 62788820.000000
130.065200 2837892.500000
131.060300 2113523.000000
131.072900 2185431.200000
132.080700 15706253.000000
133.075900 136933.700000
133.088800 218113.500000
134.096500 845118.800000
143.073200 308896.400000
144.068400 222931.300000
144.080800 2531349.200000
145.076000 6495340.500000
146.096500 908014.600000
147.091300 472189.100000
157.076300 177170.500000
158.097000 115592.700000
159.091700 5573242.000000
160.099500 17042588.000000
171.091600 265208.900000
173.107400 1356804.100000
174.115200 520290.000000
185.107700 137202.500000
186.115200 895044.600000

