>compound EQ64538764
>parentmass 310.2165
>ionization [M+H]+
>formula C21H27NO
>rt 528.000000
>profile orbitrap
#smiles_iso CC(COC1=CC=CC=C1CC2=CC=CC=C2)N3CCCCC3
#smiles_can CC(COC1=CC=CC=C1CC2=CC=CC=C2)N3CCCCC3
#inchikey JTUQXGZRVLWBCR-UHFFFAOYSA-N
#pubchem_id 2326
#mb_accession EQ329601,EQ329602,EQ329603,EQ329604,EQ329605,EQ329606

>ms2peaks
84.080600 2076983.100000
126.127700 14865035.000000
310.216500 1916244096.000000

>ms2peaks
84.080700 10281006.000000
85.088600 19720444.000000
86.096400 27976006.000000
91.054100 16856600.000000
107.049100 14759197.000000
112.111900 4080543.200000
119.085500 13155629.000000
126.127700 306679936.000000
131.085600 1709928.100000
147.080500 8853774.000000
183.080700 1585296.100000
310.216500 1325625856.000000

>ms2peaks
58.065200 12339929.000000
67.054300 1353162.000000
69.069900 22269392.000000
70.065100 16901628.000000
72.080700 8064030.500000
79.054300 1477363.900000
84.080800 114943808.000000
85.088600 114684720.000000
86.096400 117920192.000000
91.054200 174851760.000000
98.096400 11251125.000000
105.069900 1376237.900000
107.049100 71357680.000000
111.104400 2416738.000000
112.112000 10794103.000000
119.085500 60595256.000000
124.112100 9574788.000000
126.127700 812969984.000000
128.143300 1663011.200000
129.070000 1730634.200000
131.085600 9129916.000000
147.080500 26054224.000000
155.085500 3401325.500000
165.069800 3692910.200000
177.114700 1976299.100000
183.080500 23002394.000000
193.075700 1152374.400000
310.216600 234409872.000000

>ms2peaks
56.049500 752701.400000
58.065200 26545686.000000
65.038600 2415227.000000
67.054200 4673114.000000
69.069900 51495128.000000
70.065100 38980732.000000
72.080700 13844144.000000
77.038400 465294.400000
79.054300 4695591.500000
82.065000 1233009.800000
84.080800 230856352.000000
85.088600 85917416.000000
86.096400 118198416.000000
91.054200 368999712.000000
95.049100 1988995.200000
96.080800 5805735.500000
97.088500 575014.600000
98.096400 18479110.000000
105.044700 506342.700000
105.069800 610212.900000
107.049100 65887808.000000
110.096500 588370.100000
111.104200 5381501.500000
112.112100 8502590.000000
115.054200 714055.400000
116.061900 477538.300000
117.069800 1231286.800000
119.049100 1773518.400000
119.085500 29083352.000000
124.112100 16490343.000000
126.127700 416398240.000000
129.069900 4281043.500000
131.085600 8023437.500000
132.056600 598486.400000
141.069900 3249172.500000
147.080500 12056336.000000
152.062100 4935571.000000
153.069800 5952431.500000
154.077700 1242100.200000
155.085500 18968514.000000
165.069900 28944178.000000
166.077700 2067601.100000
167.085400 2660181.800000
168.057200 1449195.000000
176.107000 1400330.600000
177.114900 635693.900000
181.064700 3818351.200000
182.073100 711431.800000
183.080500 37102368.000000
193.076100 5938301.500000
310.216500 6563600.500000

>ms2peaks
56.049500 731032.100000
57.057400 728121.200000
58.065200 21922774.000000
65.038600 7749273.000000
67.054200 6090429.500000
67.989300 410302.400000
68.049500 584016.700000
69.069900 50981628.000000
70.065100 43815804.000000
72.080800 10946847.000000
77.038500 2244429.200000
79.054200 10413073.000000
82.065000 2244481.200000
84.080800 246371200.000000
85.088600 33986032.000000
86.096400 82093976.000000
91.054200 389212896.000000
94.065100 473755.200000
95.049100 6550243.500000
96.080800 10627985.000000
98.096400 14053397.000000
103.054200 640528.200000
105.044800 3980455.500000
105.069800 1407074.600000
107.049200 45354696.000000
110.096500 1218661.800000
111.104200 5807183.500000
112.112100 4895037.000000
115.054200 5662842.500000
116.062000 1288729.100000
117.069800 1909227.500000
119.049200 1789879.200000
119.085600 7651354.000000
124.112100 15816671.000000
126.127700 132430296.000000
128.061900 2027062.900000
129.069900 6163715.000000
131.085600 4392632.500000
132.057000 1602847.400000
141.069800 5362198.000000
145.064900 1156723.800000
147.080400 2698505.800000
152.062100 14041013.000000
153.069900 15618674.000000
154.077800 5078098.500000
155.060400 1413527.800000
155.085500 26979642.000000
164.062100 455925.700000
165.069900 66867100.000000
166.077800 4271175.000000
167.085500 1486752.600000
168.057000 3952572.500000
169.064500 732218.000000
176.107100 1615952.800000
181.064700 8748230.000000
182.072700 3113378.800000
183.080500 15741969.000000
193.076100 5164288.000000

>ms2peaks
53.002400 2244788.000000
55.054300 347251.200000
56.049500 3081863.200000
57.057400 1295757.200000
58.065200 13259998.000000
65.038600 10843001.000000
67.054200 3716636.800000
67.989300 520586.700000
68.049500 389794.500000
69.069900 23933776.000000
70.065100 33573800.000000
72.080800 4729625.500000
77.038600 3862349.500000
79.054200 11214612.000000
82.065200 1400702.900000
83.073000 415040.500000
84.080800 167597056.000000
85.088600 9207943.000000
86.096400 37395176.000000
91.054200 278954368.000000
94.065100 328266.800000
95.049200 12431459.000000
96.080800 12751417.000000
98.096500 5355761.500000
103.054200 704756.900000
105.044800 6049963.000000
105.069900 440346.300000
107.049200 20710290.000000
110.096500 588782.400000
111.104400 2594821.500000
112.112100 2244987.200000
115.054200 10509483.000000
116.062100 1818134.900000
117.069900 2098971.000000
119.049300 341975.600000
119.085400 1711647.100000
124.112100 6742267.500000
126.127800 26058586.000000
127.054500 563379.800000
128.062000 6271723.000000
129.069900 6363978.000000
131.048800 945782.900000
131.085700 1109843.100000
132.057100 1653263.100000
139.054200 572276.100000
141.069900 5668188.000000
145.064900 2081252.100000
152.062100 20931312.000000
153.070000 19130950.000000
154.077800 8245144.000000
155.060600 2431967.500000
155.085500 12165772.000000
163.054500 410519.400000
164.062100 1630687.000000
165.070000 73015728.000000
166.077800 2712675.000000
168.056900 5631022.500000
169.064900 1139859.900000
176.106900 593904.100000
181.064900 10300776.000000
182.072700 2874709.800000
183.080400 2927084.500000
193.076200 1175965.200000

