>compound EQ64054898
>parentmass 349.2162
>ionization [M+H]+
>formula C24H28O2
>rt 1140.000000
>profile orbitrap
#smiles_iso CC1=CC2=C(C=C1C(=C)C3=CC=C(C=C3)C(=O)O)C(CCC2(C)C)(C)C
#smiles_can CC1=CC2=C(C=C1C(=C)C3=CC=C(C=C3)C(=O)O)C(CCC2(C)C)(C)C
#inchikey NAVMQTYZDKMPEU-UHFFFAOYSA-N
#pubchem_id 82146
#mb_accession EQ329501,EQ329502,EQ329503,EQ329504,EQ329505,EQ329506

>ms2
111.116700 177861.200000
265.122900 129919.700000
279.138100 418665.100000
293.153400 434276.400000
304.214500 119632.600000
349.216000 96092248.000000

>ms2
69.069800 1872118.800000
83.085600 83383.000000
105.069900 120334.800000
109.101300 72760.100000
111.116800 2594806.000000
129.069800 74281.100000
131.085700 98658.500000
135.044000 192966.500000
143.085600 99345.300000
145.101000 182404.900000
147.043900 590091.800000
149.059600 350993.300000
157.101200 165636.400000
163.075200 95202.700000
171.116600 221175.200000
193.101200 146530.200000
207.116800 227459.500000
221.132400 86903.700000
227.179300 1401019.500000
235.148300 318066.400000
237.090900 171588.000000
239.106700 328351.000000
249.164100 169662.800000
251.106700 1969099.600000
261.127300 72579.500000
265.122300 2490911.000000
275.143100 85804.600000
279.137900 6630015.000000
280.146100 119446.000000
281.153700 148650.600000
293.153500 3325059.200000
304.215300 87791.200000
305.190100 251531.000000
307.168600 128736.200000
319.170000 71279.000000
331.205900 230996.500000
334.192500 1256904.200000
349.216100 66557084.000000

>ms2
55.054300 21788.800000
57.069900 139001.400000
67.054200 134862.600000
69.069800 6774558.500000
71.085500 23605.900000
79.054200 80171.100000
81.070000 16278.300000
83.085500 414674.500000
91.054100 313143.500000
95.085500 53735.400000
97.101200 29319.700000
103.054200 384754.600000
105.069800 872481.700000
107.049100 32133.600000
107.085500 33673.500000
109.101200 152801.800000
111.116800 2788588.800000
115.054100 268245.900000
117.069800 377989.800000
119.049000 18366.700000
119.085500 237347.500000
121.100900 26072.800000
128.062100 129317.000000
129.069800 895794.400000
131.049100 156840.300000
131.085500 364982.400000
133.028300 77752.000000
133.101200 165043.100000
135.043900 1285183.200000
141.069700 20404.600000
142.077800 155881.300000
143.085500 797107.600000
144.093200 90688.300000
145.101200 565244.100000
147.044000 5278013.500000
149.059700 859272.600000
155.085600 49800.000000
156.093300 31556.400000
157.101100 1173482.500000
158.109200 141942.500000
159.116800 132422.800000
163.075300 93700.400000
165.070000 29756.500000
167.085100 52785.500000
169.100900 26968.900000
170.108600 22534.500000
171.116800 788318.900000
172.124300 31031.300000
173.059700 71913.100000
173.132300 15529.500000
178.077500 204712.900000
179.085500 282611.000000
180.093000 34499.400000
181.101400 28961.600000
183.116900 96043.600000
185.132700 126691.700000
187.075100 74058.000000
187.148200 72612.200000
189.069300 21127.000000
191.085300 115775.900000
192.093300 797506.500000
193.101100 821036.200000
194.072600 15541.800000
194.109100 27326.600000
195.116700 158668.400000
197.132700 152320.000000
199.075200 18498.600000
199.148100 145262.500000
200.156000 51953.500000
201.090800 99674.000000
201.164000 17361.800000
204.093200 19998.300000
205.101200 153426.300000
206.108900 241175.800000
207.116800 988283.200000
209.132700 22028.100000
212.155900 434381.500000
213.091000 22086.400000
217.101100 18943.700000
218.108800 19878.900000
219.080500 95722.500000
219.116900 197744.600000
220.124600 231280.100000
221.096100 278857.800000
221.132400 243635.800000
223.075200 28798.100000
225.091100 81427.000000
227.179400 1852659.100000
231.117700 17486.700000
232.124500 28869.400000
233.096300 221637.600000
233.132300 141691.600000
234.140400 250088.800000
235.111900 201789.300000
235.148200 579737.600000
236.082600 124854.200000
237.090900 441657.700000
238.098400 32765.900000
239.106600 389250.400000
247.111700 194707.700000
247.148000 173780.600000
248.155900 31789.900000
249.090600 60763.800000
249.127700 128438.600000
249.164100 131395.500000
250.099100 134128.800000
251.106700 6553307.500000
253.122500 60180.900000
257.132200 15330.700000
261.127300 418038.600000
263.106600 109245.500000
263.143100 26347.500000
264.114300 192459.400000
265.122300 4474080.000000
267.137500 18286.100000
275.143100 220307.400000
275.179900 16868.400000
277.122700 172109.900000
278.130500 148749.800000
279.137900 13251725.000000
280.145400 261676.700000
281.153500 238644.300000
287.142700 22537.200000
288.186500 17132.100000
289.158900 72921.900000
289.194900 236895.800000
290.130200 22437.100000
291.137900 857929.600000
293.153500 2012444.600000
305.153500 1335500.600000
305.190100 174616.100000
306.161900 22200.000000
307.169400 89606.900000
319.169300 1400521.400000
331.205900 429248.600000
333.184800 162477.600000
334.192600 3823534.800000
349.216200 9514499.000000

>ms2
53.002300 23292.500000
55.054300 13131.900000
57.069900 108070.900000
65.038600 25643.900000
67.054200 191316.900000
69.069800 5504492.000000
71.085400 21678.300000
77.038400 86758.000000
79.054200 227057.900000
81.069900 58341.700000
83.085500 285216.400000
91.054200 1057188.600000
93.069800 56911.700000
95.049100 196953.100000
95.085500 52335.600000
102.046400 52661.400000
103.054200 2305048.800000
105.044700 121604.900000
105.069900 1713275.200000
107.049100 373509.300000
107.085400 27356.500000
109.101100 88743.500000
111.116800 341037.400000
115.054200 686464.100000
116.062000 53019.900000
117.069800 948651.000000
119.049100 203955.800000
119.085500 374330.600000
121.101200 20079.700000
128.062000 720846.600000
129.033600 201647.800000
129.069800 1999854.000000
130.077600 73402.500000
131.049100 250592.500000
131.085500 375991.200000
133.028500 104752.000000
133.101100 242455.600000
135.044000 2326577.500000
141.069900 206374.200000
142.077800 664088.700000
143.085600 1354024.600000
144.093500 155929.800000
145.065000 66459.700000
145.101200 399758.200000
147.044000 12526663.000000
149.059700 758843.300000
153.069800 83209.000000
154.077500 23291.900000
155.060200 62499.200000
155.085400 200560.700000
156.093400 278845.200000
157.101200 1572453.100000
158.109000 103122.400000
159.044100 26031.500000
159.116900 135025.400000
161.059900 17176.600000
163.075300 56728.200000
165.069900 183078.600000
166.077600 140415.700000
167.085700 120400.700000
168.093300 31915.400000
169.101100 209395.200000
170.108900 206374.300000
171.116700 639834.900000
172.124400 53452.000000
173.059700 62520.300000
173.132300 31992.100000
178.077700 1011448.200000
179.085500 829862.100000
180.093100 104867.900000
181.101100 70733.200000
182.109200 51223.400000
183.116900 486294.400000
184.124900 85805.000000
185.059800 24719.700000
185.132500 240779.600000
187.075300 54696.700000
187.148400 21107.900000
189.069700 19207.700000
190.077600 92409.900000
191.085500 899670.900000
192.093300 3017857.200000
193.101100 841242.400000
194.072600 32176.400000
194.109000 57713.000000
195.079500 17489.500000
195.116800 100966.200000
197.132400 837109.800000
199.075100 19534.300000
199.148200 198669.400000
202.077600 26985.600000
203.085600 180633.800000
204.093200 212295.900000
205.101200 967275.200000
206.109000 828607.600000
207.080400 63240.400000
207.116900 732778.000000
209.060000 26877.700000
209.095300 20415.700000
211.148300 102141.600000
212.155800 525683.600000
213.090900 30280.500000
213.163200 14413.700000
215.085000 26338.300000
216.093000 23957.600000
217.101200 225724.200000
218.072500 61510.300000
218.109000 322810.400000
219.080700 145060.800000
219.116900 830038.300000
220.124700 419074.500000
221.096000 248337.500000
221.132700 108897.300000
222.067500 25303.800000
223.075300 98126.000000
223.111600 65129.100000
225.090900 27169.300000
227.179400 329464.100000
228.093100 21809.300000
229.101100 74487.200000
230.109100 31650.600000
231.116600 196692.600000
232.088400 26590.100000
232.124900 244810.100000
233.096200 247426.200000
233.132600 494945.200000
234.140500 266291.700000
235.075300 137937.100000
235.111700 71460.200000
235.148100 182442.300000
236.083100 424529.800000
237.090900 269151.300000
238.099300 25319.400000
239.107100 79161.000000
243.116900 33219.500000
244.125000 21579.100000
245.096200 87417.900000
245.132300 182847.900000
246.104000 65683.700000
246.140200 213303.900000
247.111800 201125.700000
247.148200 208196.500000
249.091300 319734.500000
250.099100 201627.200000
251.106700 3786771.000000
253.122400 20175.300000
258.102900 25340.300000
258.140100 14160.400000
259.111600 84933.400000
259.148500 140830.200000
260.119000 24382.200000
260.156100 121224.000000
261.127400 394922.100000
261.163600 132410.700000
263.106700 391800.100000
264.114200 224380.900000
265.122300 1218462.000000
273.127700 95327.900000
273.163800 32267.800000
274.171300 32141.600000
275.106700 68520.500000
275.143500 120389.900000
275.179300 71792.100000
276.114300 111911.300000
277.122300 399078.600000
278.130600 158016.500000
279.138000 3089286.200000
280.146700 33650.700000
287.142300 115387.900000
288.186700 88040.500000
289.123000 29735.100000
289.194600 196502.500000
290.129900 403723.600000
291.137900 970520.100000
293.154200 121890.200000
301.158700 63488.800000
304.145600 101224.400000
305.153600 2007990.200000
319.169300 2613713.800000
331.205700 157241.400000
333.184900 107100.800000
334.192800 628066.300000
349.216300 193658.800000

>ms2
53.002200 33866.200000
53.038600 17785.600000
55.054300 23426.600000
57.069900 120226.400000
65.038600 133621.600000
67.054200 201218.500000
69.069800 2828620.800000
71.085300 18540.100000
77.038500 313213.200000
79.054200 527795.200000
81.033400 15255.300000
81.069800 80942.400000
83.085500 142917.800000
91.054200 1975996.500000
93.069800 79004.700000
95.049100 1073520.500000
102.046400 300005.500000
103.054200 5706137.500000
105.044700 466125.700000
105.069800 1890343.800000
107.049100 954124.200000
111.116600 27319.800000
115.054100 1055248.600000
116.061900 106086.200000
117.069800 1150609.400000
119.049100 497537.800000
119.085500 277820.100000
127.054000 33483.700000
128.062000 1571040.500000
129.033400 544566.800000
129.069800 2275185.500000
130.077800 101854.900000
131.049100 284264.300000
131.085500 304682.400000
133.028500 105857.200000
133.101200 141474.400000
135.043900 1955262.800000
141.069800 771011.400000
142.077800 980592.200000
143.085600 885349.100000
144.093400 80595.100000
145.064900 130060.000000
145.101200 226047.900000
147.044000 8745815.000000
149.023700 20231.400000
149.059800 327812.600000
152.061700 51505.700000
153.069500 151536.100000
154.077700 120946.200000
155.060400 151883.300000
155.085400 699107.800000
156.093300 480591.300000
157.101200 749321.300000
158.109000 62122.500000
159.044100 65744.100000
159.117000 106421.600000
165.069800 508063.500000
166.077500 173740.400000
167.085400 192228.300000
168.093300 214328.500000
169.101200 514294.800000
170.108900 314514.400000
171.116700 366814.800000
173.059500 31007.100000
173.132500 67091.600000
176.061500 13900.900000
177.070000 19519.400000
178.077600 1642572.000000
179.085500 768870.200000
180.093300 135263.700000
181.101200 84668.800000
182.108800 131955.400000
183.116800 576808.200000
184.124700 119385.900000
185.059900 23967.200000
185.132400 108772.700000
189.069500 130187.400000
190.077700 409803.600000
191.085500 2861255.800000
192.093300 2871712.200000
193.101100 468769.900000
194.073200 20433.600000
194.108800 21055.300000
195.080500 20408.100000
195.116700 73175.400000
197.132400 973496.500000
199.148300 75574.100000
202.077500 186089.900000
203.085400 560045.800000
204.093400 787767.500000
205.101200 1477873.400000
206.109000 681119.800000
207.080700 30103.100000
207.117000 196956.300000
209.059900 17928.500000
211.147800 94773.400000
212.156000 154841.000000
215.085600 176052.700000
216.093600 152354.500000
217.101200 513221.700000
218.073200 102943.500000
218.109000 665301.200000
219.080600 121198.700000
219.116800 934780.100000
220.087700 17951.100000
220.124600 140060.300000
221.095800 85131.200000
221.132200 18233.700000
222.067400 86918.400000
223.075300 86683.500000
223.111400 12970.800000
228.092600 58857.100000
229.100700 123697.500000
230.109100 218714.800000
231.080100 114403.100000
231.116800 659098.900000
232.088100 50014.700000
232.124700 337353.100000
233.096100 119920.700000
233.132500 306287.100000
234.140500 63764.700000
235.075300 284267.600000
236.083100 446184.000000
237.090600 50594.300000
243.116800 67055.300000
244.124500 114322.400000
245.096400 115188.500000
245.132500 551312.400000
246.103800 81261.200000
246.140300 216851.800000
247.112000 83792.500000
247.148300 113636.500000
249.090900 343133.500000
250.099000 164118.200000
251.106600 777443.100000
257.096200 60791.400000
258.103800 29588.100000
258.140700 15546.800000
259.112000 71708.700000
259.148300 237194.800000
260.119400 22766.500000
260.155800 57254.300000
261.091000 73569.300000
261.127300 104451.600000
261.164300 19120.000000
262.098700 57369.500000
263.106600 399689.700000
264.114200 96899.000000
265.122400 88418.900000
272.119300 31765.900000
273.127100 31786.200000
273.163800 70453.400000
274.171600 22703.100000
275.106700 301181.800000
275.179700 18635.800000
276.114600 165723.200000
277.122100 168668.600000
278.130000 27637.000000
279.137900 176099.600000
287.142500 25203.300000
289.122100 199908.000000
289.195800 19850.000000
290.130000 484404.800000
291.138100 152478.800000
301.159100 27756.300000
304.146000 138590.800000
305.153500 319829.500000
319.169100 550655.900000
333.185800 17414.700000

>ms2
50.015200 30790.600000
53.002300 57455.400000
53.038700 26118.100000
55.054300 12154.500000
57.069900 30195.900000
65.038600 221317.300000
67.054200 173007.300000
69.069900 1358605.900000
74.096600 14261.500000
75.022900 55843.800000
77.038500 621332.800000
79.054200 809398.400000
81.033400 65385.700000
81.069800 101391.500000
83.085500 50177.200000
89.038600 28390.500000
91.054200 2768323.500000
93.069800 32178.200000
95.049100 2672721.200000
101.038300 26333.500000
102.046400 581230.600000
103.054200 6455241.000000
105.044700 1088439.100000
105.069900 1500561.500000
107.049100 1346781.100000
115.054200 1516620.500000
116.061900 148633.200000
117.069800 869897.800000
119.049100 616790.100000
119.085400 188682.800000
121.064700 23051.400000
127.054200 88625.200000
128.062000 2239819.200000
129.033400 662945.300000
129.044500 279517.800000
129.069800 1648258.900000
130.077700 89786.800000
131.049200 144765.800000
131.085500 274897.900000
133.028400 50714.100000
133.101200 81893.700000
134.036000 32738.000000
135.044000 1170497.900000
141.069800 1408085.100000
142.077800 874535.500000
143.085600 473536.600000
144.093300 16320.300000
145.064900 214244.600000
145.101100 120818.500000
147.044000 3464871.800000
149.059700 82645.500000
152.061900 151725.500000
153.069800 461151.200000
154.077700 285864.400000
155.060400 262074.600000
155.085500 1131057.000000
156.093400 435700.300000
157.101200 271944.200000
158.109100 17883.600000
159.044300 25994.100000
159.116800 58477.700000
165.069900 889345.600000
166.077700 165753.500000
167.085500 434193.700000
168.093300 361733.100000
169.101200 588897.600000
170.109000 183417.700000
171.116800 133389.400000
173.059500 18187.300000
177.069900 69738.000000
178.077700 2072463.500000
179.085400 621728.600000
180.093600 94294.600000
181.101100 75810.200000
182.108900 187275.100000
183.116900 372824.800000
184.124800 65971.700000
189.069800 463512.300000
190.077700 873168.900000
191.085500 3804980.500000
192.093300 1457242.600000
193.101300 156751.200000
194.072700 25975.600000
195.080300 24692.200000
195.116600 14140.100000
197.132500 407031.600000
202.077600 713366.400000
203.085400 1323286.000000
204.093400 1112559.400000
205.101200 1110696.400000
206.109200 261382.600000
207.080100 24281.900000
207.117000 68034.700000
211.147800 57971.900000
215.085500 678506.500000
216.093300 708281.800000
217.101300 839141.400000
218.109100 509663.500000
219.081200 95682.000000
219.116800 335766.200000
220.124100 22156.000000
222.067400 32348.900000
223.075200 20303.200000
228.093000 99240.100000
229.101200 417668.100000
230.109100 573278.800000
231.080000 96326.100000
231.116800 787143.700000
232.088700 19127.800000
232.124800 125892.500000
233.095800 27714.800000
233.132500 72215.100000
235.075500 252235.900000
236.083200 159029.900000
243.079400 18069.000000
243.116600 159557.800000
244.124600 198593.700000
245.095900 70620.800000
245.132500 514863.700000
246.104000 22280.600000
246.140100 21123.000000
247.112100 15362.600000
248.083000 19031.900000
249.091200 147508.500000
250.098900 21571.200000
251.106600 80742.300000
257.096000 26747.800000
257.131800 23601.400000
258.140900 19412.000000
259.111800 27751.600000
259.148200 142430.000000
261.091100 102066.500000
262.098700 63746.200000
263.107000 126100.500000
264.115200 15260.700000
271.111400 29819.800000
273.127000 20368.900000
275.106700 383111.700000
276.114800 92761.700000
289.122100 204003.600000
290.129900 119599.500000
304.145600 31311.200000

