>compound EQ65576220
>parentmass 228.1277
>ionization [M+H]+
>formula C9H17N5S
>rt 432.000000
>profile orbitrap
#smiles_iso CCNC1=NC(=NC(=N1)SC)NC(C)C
#smiles_can CCNC1=NC(=NC(=N1)SC)NC(C)C
#inchikey RQVYBGPQFYCBGX-UHFFFAOYSA-N
#pubchem_id 13263
#mb_accession EQ303401,EQ303402,EQ303403,EQ303404,EQ303405,EQ303406

>ms2
68.024300 1245916.900000
71.060300 1091068.900000
91.032500 1187080.100000
96.055500 1990079.400000
138.102600 1892742.000000
186.080900 77823593.200000
213.103500 2394745.400000
228.127900 992571984.600000

>ms2
68.024200 3395784.200000
71.060100 3258967.000000
91.032500 5177599.800000
96.055600 11719571.400000
116.027600 3894483.500000
138.077500 3521833.400000
138.102600 10180833.200000
144.059000 4284170.700000
158.049600 4046664.200000
180.124700 2272860.300000
186.080800 312716067.000000
213.103800 1520437.000000
228.127900 905506913.000000

>ms2
68.024300 18987168.200000
71.060300 30867729.500000
74.005800 6129355.400000
85.050900 3428827.600000
85.076000 2995488.300000
91.032400 61846570.900000
96.055600 94748876.400000
102.037200 5640593.700000
110.046200 1699469.200000
110.071200 1422733.300000
113.082100 9580119.900000
116.027600 40117731.400000
138.077500 38307463.700000
138.102600 27381260.500000
144.059100 32859104.500000
158.049600 32746964.700000
158.074700 5691958.800000
171.057000 1845132.100000
180.124500 5982933.700000
186.080800 730087732.800000
200.096200 2162391.300000
228.127800 275427180.100000

>ms2
68.024300 42050943.500000
71.060300 55347343.600000
74.005800 11936301.400000
85.050900 8337142.400000
85.076100 5278069.300000
91.032400 98098245.200000
96.055600 123489768.300000
102.037300 5196735.300000
110.046200 5242938.500000
110.071300 2121186.400000
113.082200 13792370.500000
116.027700 58919346.400000
138.077500 49924318.300000
138.102600 12228767.000000
140.093400 591081.000000
144.059100 39545284.400000
158.049600 42254541.900000
171.057200 1625518.200000
180.124400 3790760.100000
184.065300 1265206.400000
186.080900 432317006.100000
228.127900 60305632.400000

>ms2
68.024300 110789123.000000
70.040100 332480.800000
71.060400 85732965.900000
74.005900 30881360.600000
85.050900 17696555.800000
85.076100 2750265.200000
91.032500 104551055.900000
96.055700 149001463.400000
99.001200 292988.100000
102.037200 4640406.000000
110.046200 12895382.400000
110.071400 1132194.300000
113.082200 14547938.200000
116.027700 83106549.900000
138.077500 45087874.900000
140.093100 502932.900000
144.059100 36289685.900000
158.049600 35018848.700000
169.054400 299695.000000
171.057300 1103459.000000
180.124500 548902.300000
184.065300 556268.000000
186.080900 132365842.600000
228.127900 4971052.700000

>ms2
68.024300 230769666.100000
70.039900 578513.000000
71.060400 91591019.400000
74.005900 60481142.300000
85.050900 21859081.900000
85.076100 1248514.300000
91.032500 75244193.100000
96.055700 124149159.200000
99.001100 541873.800000
102.037300 3017736.900000
110.046200 16910549.600000
113.082200 9831469.300000
116.027700 81385891.300000
138.077500 24363161.400000
140.093300 303449.300000
144.059100 18622408.100000
158.049600 15838712.400000
171.057300 341342.000000
184.065400 271755.900000
186.080900 29676515.200000

