>compound EQ65682904
>parentmass 349.1329
>ionization [M+H]+
>formula C16H20N4O3S
>rt 402.000000
>profile orbitrap
#smiles_iso CC1=CC(=CC=C1)NC2=C(C=NC=C2)S(=O)(=O)NC(=O)NC(C)C
#smiles_can CC1=CC(=CC=C1)NC2=C(C=NC=C2)S(=O)(=O)NC(=O)NC(C)C
#inchikey NGBFQHCMQULJNZ-UHFFFAOYSA-N
#pubchem_id 41781
#mb_accession EQ314501,EQ314502,EQ314503,EQ314504,EQ314505,EQ314506

>ms2peaks
168.067400 1532117.000000
183.090600 5816411.600000
264.080400 686882246.200000
290.059700 148285187.500000
349.133200 166035425.700000

>ms2peaks
122.060100 1064277.800000
125.016900 4886898.300000
168.067300 2909921.800000
182.084000 998342.700000
183.091400 16804939.600000
198.078800 2401359.300000
199.086600 2385129.500000
201.048700 2253834.800000
219.058800 8786018.300000
230.051000 4926685.100000
247.053700 10355867.600000
264.080400 958585451.800000
290.059600 137880344.000000

>ms2peaks
98.006000 1127008.200000
122.060100 12841656.000000
125.016800 58868852.600000
126.000800 3872980.200000
126.024700 1147218.600000
127.008500 778375.200000
127.032500 845662.000000
128.016500 2362414.500000
137.016900 5838152.000000
153.011700 3073260.300000
156.080800 1351203.200000
168.068300 28639929.200000
169.076100 1232891.900000
176.040800 494768.700000
177.048200 926342.500000
181.076200 2304856.500000
182.084000 11517117.700000
183.091800 183565468.000000
185.071100 2776200.600000
191.063900 14200470.200000
198.078800 23715408.800000
199.086700 25550597.200000
201.048200 20331343.800000
202.032600 902487.300000
202.056100 1396403.300000
203.063700 909318.100000
204.035500 918324.700000
205.043000 616018.000000
214.073800 4912292.700000
219.058800 59685160.300000
229.043300 9355682.300000
230.051000 39368196.500000
232.030200 1112034.100000
247.053800 48427876.300000
264.080400 491535559.900000
290.059600 54615652.500000

>ms2peaks
67.041700 2518955.300000
81.044800 1049686.800000
83.049100 442770.600000
92.049600 786547.500000
93.057500 1139178.900000
94.065300 889055.100000
98.006000 2480119.400000
116.049500 307823.300000
120.044500 426684.600000
122.060100 12669747.100000
125.016800 68559570.600000
126.000800 4152419.400000
126.024700 1813598.100000
127.008800 1330190.400000
127.032500 994469.200000
128.016500 1444591.500000
128.061900 380760.800000
129.070000 2210326.300000
137.016900 8375602.500000
141.057200 374177.200000
150.037300 457568.200000
153.011800 4216094.700000
154.065400 485489.500000
156.080900 3414025.000000
158.084200 347375.800000
167.060500 359146.600000
168.068300 92168458.300000
169.076200 2499805.400000
171.091600 1798575.100000
174.037500 818223.000000
174.091700 971377.500000
176.040400 1134384.200000
177.048400 948370.000000
179.040100 432919.500000
181.076200 6304266.700000
182.084100 27407675.000000
183.091800 263966937.000000
184.063300 1086634.900000
185.071000 5956534.900000
186.079100 1043027.000000
191.063900 19112178.100000
192.047600 507130.600000
197.071500 295308.700000
198.078900 25835875.100000
199.086700 27187679.000000
200.040400 604984.400000
201.048200 20588829.300000
202.032400 1499683.800000
202.055900 2339085.800000
203.064200 1023457.500000
204.035500 1356998.100000
205.043200 1006405.200000
214.073700 3684307.000000
217.043500 425364.200000
219.058900 43046698.800000
228.059100 1276517.500000
229.043300 7630833.900000
230.051100 41045017.200000
232.030900 924634.800000
247.053800 35043470.400000
264.080400 150088737.500000
290.059600 13913342.600000

>ms2peaks
67.041700 8548122.700000
70.994900 323466.000000
79.041700 1065803.800000
81.044700 4026654.000000
83.049200 1776829.500000
91.054200 1552939.600000
92.049500 469180.400000
93.057300 533437.900000
94.065100 3281040.300000
95.049200 469396.200000
98.005900 6816933.400000
107.049200 344370.800000
110.060000 917627.700000
114.046400 309130.200000
115.054200 1700191.600000
116.049600 1016617.500000
117.057400 1353416.700000
122.060000 8794980.600000
125.016800 57446174.300000
126.000900 2356769.000000
126.024700 2965474.900000
127.008800 1253338.500000
127.032500 1244692.800000
128.016300 1795568.200000
128.062100 3239131.400000
129.069900 12455821.800000
137.016800 12726976.100000
140.049600 2413864.200000
141.057200 4118176.300000
142.052700 528891.400000
143.073500 487698.100000
144.080800 1156020.700000
150.025200 445169.900000
150.037500 928876.400000
153.012000 3337339.500000
154.065300 2768360.800000
155.060400 1680730.100000
155.073200 1309490.400000
156.068000 2111624.100000
156.080900 10155146.800000
157.076200 514219.800000
158.060100 1041705.200000
158.084100 478458.300000
166.052400 477924.900000
166.065200 482629.100000
167.060500 3261976.500000
167.072800 379731.800000
168.068300 308264029.300000
169.076100 7547829.500000
171.091800 3278441.100000
174.037200 852605.700000
174.091400 1442848.900000
175.032700 2756011.700000
176.040300 4607314.100000
177.048400 1154450.900000
181.076200 22914441.500000
182.084100 89559378.500000
183.091800 299274878.000000
184.063100 2713894.400000
185.071000 7066088.500000
186.078900 1324729.800000
187.032500 390507.300000
187.086400 325192.700000
191.063800 15701576.700000
192.048000 335397.900000
197.071400 3079947.600000
198.078800 24038866.300000
199.086700 25602071.600000
200.040700 1297699.600000
200.057500 856675.500000
201.048100 15856138.800000
202.032100 850461.700000
202.056100 2654469.700000
204.035100 1104690.400000
205.043500 845109.100000
214.073800 1463240.000000
218.050900 322961.100000
219.058900 13760341.200000
228.059400 353447.100000
229.043200 6395118.900000
230.051100 27728813.800000
232.030300 368383.700000
247.053800 13971054.200000
264.080400 20996353.000000
290.059600 1271183.100000

>ms2peaks
65.038700 1048965.200000
67.041700 8831014.500000
70.995100 450529.000000
79.041700 1265736.500000
81.044800 7691230.100000
83.049200 849580.200000
91.054200 2013431.500000
92.049400 328522.400000
93.057300 487910.400000
94.065200 2721169.700000
98.006000 7409833.700000
107.049100 604462.200000
110.006200 395552.600000
110.060100 859324.800000
114.046400 1319499.600000
115.054300 2481009.200000
116.049500 2589162.400000
117.057300 5803167.100000
122.060000 2121444.200000
125.016800 22084944.100000
126.024600 1299860.100000
127.008700 804845.500000
127.032600 1032589.100000
128.016400 595351.000000
128.049700 2022653.000000
128.062100 9370360.000000
129.069900 12963072.300000
130.065100 1004997.400000
137.016900 10122282.000000
140.049600 7553377.800000
141.057400 19242514.600000
142.052700 1848388.000000
143.073400 346058.500000
144.081000 1728630.700000
145.064900 1608362.300000
150.024800 413095.100000
150.037400 918819.700000
153.012000 450032.900000
154.065300 6608557.800000
155.060500 4264907.000000
155.073100 2201370.200000
156.068300 4175792.600000
156.081000 6382429.100000
157.076300 836136.400000
158.060200 847908.700000
163.032400 393200.500000
166.052200 922199.600000
166.065100 363473.200000
167.060500 6972138.800000
168.068300 323644520.400000
169.076100 8208328.200000
171.092000 2637161.700000
174.037000 500114.700000
175.032500 3322519.800000
176.040300 2694423.200000
177.048300 483017.400000
181.076200 51308443.100000
182.084000 77993936.200000
183.091800 129398269.400000
184.063300 3611048.600000
185.071200 3614451.900000
186.079000 448944.300000
187.032600 1387242.000000
189.047900 411718.900000
191.063900 3769051.200000
197.071300 3418579.500000
198.078900 10484454.000000
199.086800 10273870.400000
200.040500 2089009.600000
200.058200 1121387.200000
201.048100 8119371.600000
202.031700 353174.000000
202.056300 1058157.700000
203.027100 423172.000000
219.058500 1481610.400000
229.043100 3579156.500000
230.051000 6304319.700000
247.054000 2111230.300000
264.080400 479323.800000

