>compound EQ65960764
>parentmass 283.9876
>ionization [M+H]+
>formula C12H7Cl2NO3
>rt 888.000000
>profile orbitrap
#smiles_iso C1=CC(=CC=C1[N+](=O)[O-])OC2=C(C=C(C=C2)Cl)Cl
#smiles_can C1=CC(=CC=C1[N+](=O)[O-])OC2=C(C=C(C=C2)Cl)Cl
#inchikey XITQUSLLOSKDTB-UHFFFAOYSA-N
#pubchem_id 15787
#mb_accession EQ309801,EQ309802,EQ309803,EQ309804,EQ309805,EQ309806

>ms2
73.028400 4589.300000
202.017700 2688.900000
208.991600 727.200000
237.994200 9004.500000
266.984800 131408.300000
283.987600 694953.100000

>ms2
73.028300 7321.700000
98.984200 3515.900000
202.017500 7180.800000
203.025700 8597.500000
208.992200 5952.400000
237.994800 23839.700000
253.989300 1221.100000
264.993000 9655.700000
266.984900 513009.600000
283.987600 162643.200000

>ms2
59.049200 1505.700000
73.028400 6605.300000
98.984200 3067.900000
139.053800 1557.700000
149.015200 2768.000000
168.057300 6869.000000
173.015500 5270.100000
174.023100 863.400000
182.976300 3333.700000
184.052100 5321.000000
202.017900 79797.300000
203.025900 11340.200000
208.992000 82144.900000
236.987200 1481.700000
237.994500 4436.500000
253.990300 774.800000
264.993100 72855.900000
266.984900 376400.100000
283.986700 4773.000000

>ms2
55.054200 718.000000
59.049200 1371.600000
65.038700 699.300000
67.054300 1110.700000
71.049300 591.700000
73.028400 5959.100000
91.054300 863.700000
95.049000 3483.000000
98.984100 3973.800000
139.054000 5409.000000
149.015300 8066.900000
168.057000 9255.400000
173.015200 17049.500000
174.023000 10643.200000
175.031000 918.300000
182.976400 13868.700000
184.051900 4124.600000
202.017900 191824.600000
203.025900 6027.500000
208.991900 174141.000000
236.986200 1393.000000
237.994700 794.400000
264.993000 66161.700000
266.984800 121480.600000

>ms2
55.054200 634.100000
59.049200 2777.600000
65.038600 947.800000
67.054300 2492.600000
71.049100 652.100000
73.028400 4254.400000
79.054400 918.300000
81.033500 1159.600000
91.054200 1292.200000
95.049100 5614.300000
98.984200 3460.600000
128.061800 963.700000
139.054200 35729.300000
149.015300 28555.900000
167.049300 1476.800000
168.056900 10822.300000
173.015300 54103.100000
174.023100 33783.300000
175.031100 1172.000000
182.976300 46858.700000
184.051900 3473.700000
202.017900 272027.300000
203.025900 906.900000
208.992000 165773.400000
264.993100 12046.200000
266.984800 12871.200000

>ms2
55.054400 1169.200000
59.049200 1128.000000
65.038700 3274.600000
67.054300 1363.800000
73.028500 3533.700000
79.054300 1365.300000
81.033500 2559.300000
91.054200 3114.200000
95.049200 5346.200000
98.984200 3282.800000
128.062000 3187.900000
139.054200 132014.000000
149.015400 54760.500000
167.049300 3962.200000
168.056900 8212.800000
173.015300 76764.600000
174.023100 33581.100000
182.976300 68368.000000
184.051800 1598.400000
202.018000 229281.900000
208.992000 58042.700000

