>compound EQ66874089
>parentmass 326.1751
>ionization [M+H]+
>formula C20H23NO3
>rt 780.000000
>profile orbitrap
#smiles_iso CC1=C(C(=CC=C1)C)N(C(C)C(=O)OC)C(=O)CC2=CC=CC=C2
#smiles_can CC1=C(C(=CC=C1)C)N(C(C)C(=O)OC)C(=O)CC2=CC=CC=C2
#inchikey CJPQIRJHIZUAQP-UHFFFAOYSA-N
#pubchem_id 51369
#mb_accession EQ303501,EQ303502,EQ303503,EQ303504,EQ303505,EQ303506

>ms2peaks
91.054100 37285460.100000
105.069900 393666.800000
106.065100 898283.900000
120.080700 461169.700000
121.088200 5469518.600000
148.112100 128170783.600000
208.133400 252963502.900000
266.154100 141801709.800000
294.149000 359930443.100000
326.175300 190128688.700000

>ms2peaks
65.038600 1288476.300000
77.038600 1027985.800000
91.054300 167414012.800000
120.080700 898131.400000
121.088600 52440383.300000
122.096400 7007641.000000
148.112200 474504927.300000
208.133300 234863684.300000
266.154000 29467869.100000
294.149000 11844397.300000
326.175900 476269.800000

>ms2peaks
65.038700 3300107.500000
91.054300 285123418.500000
105.069800 470574.600000
106.065400 1975334.700000
120.080900 2254285.600000
121.088700 176298810.800000
122.096500 12138247.900000
133.088900 1211035.100000
148.112200 443788833.100000
208.133400 34874796.100000
211.136100 502095.200000

>ms2peaks
65.038600 5254847.500000
91.054300 338756828.100000
103.054000 739185.400000
105.070000 2919015.300000
106.065200 5171365.900000
107.073000 1276131.400000
118.065300 1502544.600000
119.085800 1946999.200000
120.080800 3651786.300000
121.088700 205621033.200000
122.096400 11888372.400000
131.085600 1606875.800000
132.080900 504479.200000
133.088700 3681629.800000
146.096200 858745.700000
148.112200 396806590.200000
196.111700 441542.400000
208.133500 6356850.600000

>ms2peaks
63.022900 456693.800000
65.038600 11277268.900000
77.038300 663495.500000
79.054300 2406857.300000
91.054300 354164924.000000
95.049200 380500.600000
103.054300 1728048.900000
105.069900 13692113.200000
106.065200 21244616.700000
106.077700 1328744.200000
107.073000 4336340.900000
107.085400 1472663.700000
116.062100 1041811.200000
118.065100 6001960.100000
119.085700 4057532.900000
120.080900 11020847.800000
121.088600 183929530.700000
122.096400 6652068.900000
123.080300 489214.000000
129.069800 894973.600000
131.085700 4789438.600000
132.081000 2548197.300000
133.088700 16112343.400000
134.096200 387619.100000
146.096500 1952232.700000
148.112200 262602461.600000
196.112100 1202861.300000

>ms2peaks
63.023000 463966.400000
65.038700 21462885.600000
77.038600 1035594.300000
78.046500 389474.700000
79.054300 9786908.900000
91.054300 345403382.000000
93.070000 847332.800000
95.049300 3338826.100000
103.054300 5913450.300000
104.062200 489914.800000
105.070000 34759224.100000
106.065200 52444149.100000
106.077600 3486576.300000
107.073100 4999483.300000
107.085500 1771062.600000
109.064900 379736.800000
116.062200 1359269.400000
118.065200 13515869.500000
119.085700 3749539.900000
120.080900 23019234.600000
121.088700 124166442.700000
122.096400 3263614.600000
123.080500 950801.200000
129.069900 1010948.600000
131.073000 429374.800000
131.085700 4529255.400000
132.080900 5430624.600000
133.088700 24994665.700000
146.096700 2691209.500000
148.112200 132657598.500000
196.112300 1185097.200000

