>compound EQ66222893
>parentmass 362.0038
>ionization [M+H]+
>formula C14H7ClF3NO5
>rt 738.000000
>profile orbitrap
#smiles_iso C1=CC(=C(C=C1C(F)(F)F)Cl)OC2=CC(=C(C=C2)[N+](=O)[O-])C(=O)O
#smiles_can C1=CC(=C(C=C1C(F)(F)F)Cl)OC2=CC(=C(C=C2)[N+](=O)[O-])C(=O)O
#inchikey NUFNQYOELLVIPL-UHFFFAOYSA-N
#pubchem_id 44073
#mb_accession EQ303201,EQ303202,EQ303203,EQ303204,EQ303205,EQ303206

>ms2peaks
178.986500 1652.100000
222.976900 13472.600000
300.003600 29515.900000
343.993400 543660.100000

>ms2peaks
67.017900 830.500000
68.997200 1160.900000
76.018300 1135.000000
78.034000 4910.900000
80.013300 806.300000
104.013200 9068.600000
122.023600 895.100000
164.990900 725.000000
178.987100 16082.600000
203.013500 1424.300000
206.993300 11598.900000
209.044700 1370.000000
217.002600 3867.600000
220.981500 14319.600000
222.976900 214179.100000
224.007500 1599.100000
229.999800 1309.000000
237.040100 6177.700000
252.002700 5376.700000
264.026900 939.100000
272.008500 5351.000000
272.992600 1422.400000
279.997400 18593.600000
300.003500 164872.100000
343.993400 88525.400000

>ms2peaks
51.023100 730.800000
65.026000 977.800000
67.017900 1291.400000
67.041700 624.100000
68.997100 3792.600000
76.018200 4887.700000
77.026000 1513.500000
78.033800 11834.900000
80.013100 1053.800000
93.020800 4242.100000
98.984100 1550.700000
104.013200 16093.100000
122.023400 2969.400000
132.018400 9806.000000
140.049400 3131.400000
142.989700 4844.400000
162.995900 852.900000
164.991500 12750.300000
166.987000 18219.700000
174.975400 1356.600000
174.986800 4641.100000
175.018200 1149.200000
178.987000 76011.300000
182.034500 988.800000
189.038400 6455.600000
194.981900 5994.200000
203.013500 5316.200000
206.993200 5593.800000
208.037100 3102.200000
209.044900 3542.100000
210.028500 777.200000
217.002600 7794.000000
220.981300 18419.300000
222.976900 232763.800000
224.007200 1655.000000
229.999900 1152.700000
231.996100 951.300000
237.039700 10351.400000
252.002400 10184.100000
264.027400 842.000000
272.008000 3414.700000
272.993100 3926.600000
279.997300 7493.900000
300.003300 21630.900000

>ms2peaks
51.023000 1333.300000
52.018400 735.700000
53.002300 877.900000
65.026000 860.100000
67.017900 1643.200000
67.041700 1055.100000
68.997100 1400.300000
76.018200 8905.800000
77.026100 938.800000
78.033900 14039.600000
93.020900 5626.600000
98.984200 1045.900000
104.013200 14881.200000
120.980800 1033.300000
122.023600 2929.000000
130.022500 965.100000
132.018200 30898.400000
140.049500 5358.500000
142.989700 6408.700000
144.017800 1072.700000
146.980800 1384.300000
158.040100 735.000000
160.012800 722.200000
162.995800 2359.600000
164.991400 14807.800000
166.987100 33287.500000
174.975500 2549.500000
174.987000 10282.400000
175.018200 854.700000
176.007800 3760.200000
178.987000 104026.400000
182.033700 3643.500000
189.038400 5963.900000
194.982000 9332.500000
203.013300 3394.900000
207.041600 3539.500000
208.037400 2792.300000
209.044400 1440.300000
210.028600 1102.600000
217.002900 6669.400000
220.981200 15211.100000
222.976900 135800.500000
224.007400 1022.000000
231.996300 1674.400000
237.040000 9029.900000
252.002800 6939.600000
272.992800 3475.500000
279.997100 2961.000000
300.003600 3155.300000

>ms2peaks
51.023100 764.400000
53.002300 3508.900000
57.013700 960.400000
65.026000 696.900000
65.038600 3205.100000
67.017800 1306.800000
68.994500 1383.800000
68.997100 1810.900000
75.022800 1097.900000
76.018200 11295.600000
77.025900 1763.900000
78.033800 5644.800000
80.013000 1487.800000
93.020800 2978.400000
98.036300 899.100000
98.984000 1035.600000
104.013200 9162.600000
116.990000 990.600000
120.018300 872.000000
120.980700 1119.000000
122.023700 912.700000
132.018200 71480.900000
140.049400 9329.100000
142.989400 4425.300000
144.018200 2880.000000
146.980600 7344.200000
158.039800 1409.600000
158.980700 2744.200000
159.016200 3594.000000
160.012900 711.400000
161.020900 1365.500000
162.995700 1701.000000
164.991300 11964.500000
166.987000 33570.600000
169.032600 755.400000
174.975500 3778.100000
174.987000 20886.300000
176.008100 10665.900000
178.987000 92688.900000
182.034000 6510.500000
189.038500 8650.500000
194.981900 10222.700000
207.041800 8270.200000
209.045000 1133.500000
210.028500 1638.800000
217.003000 5053.400000
220.981600 5050.300000
222.976900 35140.100000
224.991400 830.400000
237.039700 1756.300000
252.002200 1196.400000

>ms2peaks
51.023100 886.300000
52.018300 1428.600000
53.002300 4223.400000
57.013600 1178.500000
65.026000 2981.800000
65.038600 6208.500000
67.017800 3111.000000
68.994600 2833.800000
68.997000 3214.900000
75.022900 1735.800000
76.018200 15038.300000
77.026000 1508.400000
78.033700 3910.900000
80.013000 1035.800000
93.020800 1477.900000
98.036100 1351.800000
104.013100 5743.800000
116.990000 1295.200000
120.018000 3098.800000
120.980900 909.200000
122.023500 952.400000
130.022200 902.900000
132.018200 89437.700000
140.049500 10512.100000
142.989400 846.200000
144.018100 5350.000000
146.980900 11620.000000
158.039900 2845.300000
158.980700 2962.100000
159.016500 5087.600000
161.020600 1639.300000
164.991100 4349.600000
166.987100 15636.800000
169.032300 1213.200000
174.975400 3282.600000
174.987000 20378.500000
176.008000 22797.800000
178.987000 52714.800000
182.033900 7071.200000
189.038600 7130.300000
194.981800 4226.100000
207.041500 9429.400000
210.028400 701.400000
217.002200 731.600000
222.977200 5325.800000
224.990500 738.800000

