>compound EQ66291070
>parentmass 409.0645
>ionization [M+H]+
>formula C19H21BrO5
>rt 822.000000
>profile orbitrap
#smiles_iso CC1=CC(=C(C(=C1C(=O)C2=C(C=CC(=C2C)Br)OC)OC)OC)OC
#smiles_can CC1=CC(=C(C(=C1C(=O)C2=C(C=CC(=C2C)Br)OC)OC)OC)OC
#inchikey AMSPWOYQQAWRRM-UHFFFAOYSA-N
#pubchem_id 6451057
#mb_accession EQ306301,EQ306302,EQ306303,EQ306304,EQ306305,EQ306306

>ms2peaks
209.080900 204991386.100000
226.970300 111523606.100000

>ms2peaks
91.054200 613282.200000
120.057000 395563.300000
148.051700 640761.300000
165.054700 834953.500000
166.062500 3134657.100000
168.964700 608515.700000
176.047100 777185.400000
181.049500 910039.300000
183.951900 453746.500000
194.057500 4980125.200000
196.971300 665239.500000
209.080900 210177391.100000
226.970200 171018641.800000

>ms2peaks
65.038700 206860.200000
66.046500 513423.800000
67.054300 149023.400000
77.038300 140889.000000
79.054300 328485.800000
89.038700 501102.400000
90.046400 1415559.700000
91.054200 2991282.600000
92.062000 4508373.500000
94.041300 208511.500000
95.049300 367421.900000
105.033400 960648.400000
107.049200 722359.700000
108.057100 572040.800000
109.064900 377049.600000
119.049200 804193.100000
120.057000 5404367.100000
121.064800 251191.800000
123.044200 482033.800000
123.080400 347236.600000
135.044100 1090800.500000
136.052000 2529764.300000
137.059800 2824107.100000
138.067500 391270.700000
147.043900 690699.300000
148.052000 7774266.500000
149.059700 667073.700000
151.039000 1333924.300000
153.054700 1647743.000000
153.091200 397181.200000
163.038900 902159.600000
164.047000 587329.500000
165.054700 11045585.500000
166.062600 25530219.400000
168.964800 11521147.800000
170.980300 845985.500000
176.046900 5675993.700000
177.054600 172768.600000
179.034000 1468302.600000
181.049600 10980832.900000
182.944000 537953.700000
183.952000 7473218.800000
186.975500 4185873.100000
193.049800 963868.100000
194.057400 20214817.200000
196.971000 7676807.600000
198.975400 524683.700000
209.081000 107772072.800000
211.946800 2670247.900000
226.970300 140579496.500000
229.957400 4625033.500000

>ms2peaks
65.038600 575993.100000
66.046400 796598.700000
67.054300 159449.600000
77.038500 414981.000000
78.046500 122652.000000
79.054200 645289.900000
89.038500 1741417.500000
90.046400 6575636.000000
91.054200 7678731.700000
92.062000 8070595.700000
93.069900 152904.400000
94.041300 613524.300000
95.049100 1338611.900000
105.033600 3211843.200000
106.041500 724609.900000
107.049200 1509973.200000
108.057000 1703617.400000
109.064800 1156125.000000
110.072800 141484.700000
118.041300 458310.000000
119.049200 1610860.100000
120.057000 9938270.100000
121.028400 100113.600000
121.064800 503164.200000
122.072500 164852.800000
123.044100 1576561.700000
123.080400 204047.500000
124.051900 126214.900000
133.028400 122902.300000
134.036100 691758.600000
135.044100 2871549.400000
136.052000 5260960.300000
137.059800 3652214.700000
138.067800 614472.000000
147.044200 1129519.300000
148.051900 10425517.900000
149.059900 1075211.200000
151.039100 4419115.800000
153.054700 2181929.600000
153.091000 427825.600000
155.956900 117468.100000
163.039100 1730627.900000
164.046900 809707.000000
165.054800 18058434.900000
166.062500 31914834.300000
168.041800 179612.800000
168.964800 24851186.600000
170.980400 992116.600000
176.046900 5928555.700000
177.054600 180004.200000
179.033900 2408676.200000
181.049600 13199072.600000
182.943900 1354775.100000
183.951900 18626276.700000
186.975400 5549964.400000
193.049700 2327424.200000
194.057500 14394392.200000
196.970900 11244928.700000
198.975100 489715.500000
209.081000 38847781.000000
211.946800 4202681.200000
226.970300 83205803.300000
229.957400 8118416.400000

>ms2peaks
63.022900 191831.500000
65.038600 1077586.700000
66.046400 1936003.800000
67.054300 818740.800000
77.038400 604601.200000
78.046400 878166.800000
79.054200 1200252.400000
80.062100 496957.600000
81.033600 115760.000000
81.070000 156043.300000
89.038600 5847560.900000
90.046400 19137483.200000
91.054200 17632673.800000
92.062000 8296500.400000
93.033500 149493.500000
93.069900 195926.900000
94.041300 893242.900000
95.049200 5343261.600000
102.046800 84909.200000
105.033500 9952301.800000
105.044800 912928.700000
106.041500 1115475.800000
107.049200 2177875.100000
108.057000 3041481.600000
109.064800 2330393.700000
118.041400 907730.000000
119.049200 3110227.600000
120.057000 11521807.900000
121.028500 643933.500000
121.064900 631514.300000
122.036200 472571.700000
122.072700 102294.900000
123.044000 4198121.900000
124.052000 393940.300000
133.028300 756064.300000
134.036400 951662.500000
135.044100 5096956.200000
136.052000 5970733.900000
137.059800 3384229.000000
138.067700 625307.000000
142.949300 130840.800000
147.044100 1542755.200000
148.051900 7941608.700000
149.059600 777416.100000
150.031300 559881.300000
151.039000 9538941.900000
153.054700 1098211.400000
155.957000 1329606.800000
163.039100 2614755.100000
164.046900 845703.400000
165.054800 21677568.500000
166.062500 15708465.200000
168.041800 845578.300000
168.964800 30853996.700000
170.980100 649872.100000
176.046800 2298446.700000
177.054500 150894.700000
179.034000 2660219.300000
181.049600 6617672.500000
182.944100 6560412.400000
183.951900 27387684.400000
186.975400 3183636.600000
191.033500 180912.200000
193.049700 2000346.800000
194.057500 3649195.500000
196.970900 6928632.300000
198.975300 171937.100000
209.081000 5184141.400000
211.946800 3543613.100000
226.970300 21567744.000000
229.957500 8648807.900000

>ms2peaks
63.022900 488589.300000
65.038600 1861613.900000
66.046400 2540957.900000
67.054200 1749321.300000
77.038500 1740052.300000
78.046400 1796868.200000
79.054200 3434536.400000
80.062100 609657.300000
81.033500 619934.800000
81.069900 909776.500000
89.038600 10870094.300000
90.046400 29399593.100000
91.054200 25340357.000000
92.062000 6304324.300000
93.033600 181272.300000
93.069900 111542.500000
94.041400 1183098.900000
95.049100 13600712.600000
102.046400 139158.100000
105.033500 17899907.100000
105.044700 2251979.000000
106.041400 1852533.600000
107.049200 3432827.700000
108.020600 448178.073600
108.057000 3294378.300000
109.064800 3127282.100000
110.072800 115233.500000
118.041200 1450085.100000
119.049100 3846360.900000
120.057000 5939220.900000
121.028400 1093068.400000
121.064600 845901.100000
122.036200 1261822.500000
123.044000 6297744.500000
124.052000 615433.000000
133.028600 990465.600000
134.036400 1102614.700000
135.044100 6760001.500000
136.052000 4089430.700000
137.059700 2862512.600000
138.067600 165545.400000
142.949200 476280.700000
147.044000 1924278.800000
148.051900 3241852.600000
149.059900 387995.700000
150.031100 1288795.000000
151.039000 10358031.200000
153.054600 375035.400000
155.957000 2455370.900000
163.038900 2157499.200000
164.046900 439456.900000
165.054700 14983742.400000
166.026100 440639.208900
166.062500 4361316.600000
168.041700 1210985.000000
168.964800 19136153.200000
170.980000 178172.600000
176.046800 632491.300000
179.033900 1378425.800000
181.049500 2075184.400000
182.944100 12797243.300000
183.951900 22745763.200000
186.975400 1012136.300000
191.033700 573485.400000
193.049700 1909665.900000
194.057500 486094.000000
196.970900 2139458.300000
198.975400 122531.900000
209.044500 489373.146600
209.081000 478359.300000
211.946700 1623456.500000
226.970300 4373017.900000
229.957500 4364986.900000

