>compound EQ67462019
>parentmass 332.96959999999996
>ionization [M+H]+
>formula C9H11Cl2FN2O2S2
>rt 696.000000
>profile orbitrap
#smiles_iso CN(C)S(=O)(=O)N(C1=CC=CC=C1)SC(F)(Cl)Cl
#smiles_can CN(C)S(=O)(=O)N(C1=CC=CC=C1)SC(F)(Cl)Cl
#inchikey WURGXGVFSMYFCG-UHFFFAOYSA-N
#pubchem_id 14145
#mb_accession EQ029701,EQ029702,EQ029703,EQ029704,EQ029705,EQ029706

>ms2peaks
77.038400 141089.200000
91.041400 76119.000000
110.016700 310522.800000
121.088500 2338692.200000
123.013500 4935607.100000
125.987100 1501523.800000
176.989200 151126.400000
188.980900 94631.600000
199.053400 236355.500000
223.949700 66628913.200000
254.994000 92893.600000
269.007700 787657.000000
332.969500 477114.100000

>ms2peaks
77.038500 222299.400000
92.016400 83378.500000
95.049100 138912.100000
98.984200 354591.800000
110.016700 276942.800000
121.088600 1137179.500000
122.005900 55445.300000
123.013700 47052492.800000
125.987100 734811.400000
142.971700 70611.700000
143.979400 78426.800000
153.004100 262563.600000
187.973200 262816.200000
188.980900 583606.000000
223.949800 28656392.400000

>ms2peaks
77.038200 313919.500000
92.016300 153865.800000
95.049100 399474.700000
96.002800 257197.600000
98.984200 331066.000000
110.016600 181178.300000
120.080800 111024.800000
121.088700 510801.000000
122.006000 217938.400000
123.013700 67449275.900000
125.987100 407324.200000
143.979700 68815.800000
153.004300 264628.700000
188.981000 352325.800000
223.949800 1805953.900000

>ms2peaks
77.038300 378053.900000
92.016400 227586.700000
95.049100 1185766.800000
96.002800 686602.000000
97.010700 104049.900000
98.984200 336756.300000
105.044800 294701.500000
110.016500 162035.800000
120.080700 195098.200000
121.088700 338141.600000
122.005900 530991.500000
123.013700 70334515.000000
125.987100 375706.000000
153.004100 171654.800000

>ms2peaks
51.023000 79876.600000
77.038400 640520.000000
91.041500 73175.700000
92.016400 142339.800000
95.049100 4816724.600000
96.002800 1982803.200000
97.010700 187121.300000
98.984200 325714.400000
100.935600 74981.800000
105.044700 971418.800000
109.010600 106013.700000
110.016600 146533.200000
120.080700 308646.800000
121.088800 179636.500000
122.006000 1842335.100000
123.013700 58082160.600000
125.987000 192134.700000
127.992500 98598.600000
153.004300 107779.600000
154.012000 74769.400000

>ms2peaks
50.015200 97738.200000
51.023000 93086.700000
53.038700 100718.800000
65.038600 65175.700000
69.987100 119011.300000
75.994900 89347.700000
77.038500 1105741.300000
79.041600 80981.200000
81.033500 166083.400000
91.041600 69324.700000
92.016400 89654.500000
95.049100 12412076.600000
96.002800 3989795.400000
97.010600 273761.000000
98.984200 306656.500000
100.935700 115694.400000
105.044700 2887305.000000
109.010600 85204.200000
110.016800 95174.700000
120.080700 280841.000000
121.088700 46066.500000
122.005900 3055315.500000
123.013600 40385686.400000
125.987000 163970.800000
127.992600 226486.400000
153.004300 125594.600000

