>compound EQ67553704
>parentmass 339.12179999999995
>ionization [M+H]+
>formula C15H19ClN4O3
>rt 588.000000
>profile orbitrap
#smiles_iso CC(C)(C)C1=NN(C(=O)O1)C2=C(C=C(C=C2)NC(=O)N(C)C)Cl
#smiles_can CC(C)(C)C1=NN(C(=O)O1)C2=C(C=C(C=C2)NC(=O)N(C)C)Cl
#inchikey DHWRNDJOGMTCPB-UHFFFAOYSA-N
#pubchem_id 91612
#mb_accession EQ316601,EQ316602,EQ316603,EQ316604,EQ316605,EQ316606

>ms2peaks
72.044100 25306299.200000
167.000500 17093617.000000
256.048200 17485941.500000
295.132000 4389660.700000
339.121700 533039377.200000

>ms2peaks
72.044400 207460459.000000
139.989800 670671.300000
167.000600 152846677.800000
176.081900 756917.600000
177.089700 399105.900000
194.011400 508554.200000
210.990600 1661358.200000
212.058400 6325903.200000
222.079500 520373.900000
256.048200 28399770.400000
294.063800 1807691.700000
295.131900 11359504.600000
339.121800 68276443.000000

>ms2peaks
71.060300 1149353.300000
72.044400 273725752.300000
139.005600 1007923.700000
139.989700 5560053.300000
142.005600 782339.400000
166.016700 513405.800000
167.000600 124172262.600000
170.047800 362926.900000
176.021500 1394949.700000
176.081700 2255376.300000
177.089400 478662.000000
194.092400 1162892.800000
210.990600 1450854.300000
212.058500 6128071.500000
222.079200 1246059.500000
256.048400 806134.000000
295.131800 458860.500000
339.121600 458826.700000

>ms2peaks
56.013200 512623.000000
71.060400 1643870.000000
72.044300 276860668.500000
76.018000 440167.400000
105.044700 959573.100000
111.994800 1304246.600000
114.010400 775105.700000
123.994700 627478.800000
130.005400 403662.600000
131.023900 709843.700000
132.031800 1035006.600000
139.005700 4697832.500000
139.989600 25245369.100000
142.005400 442960.200000
166.016700 1615295.800000
167.000600 63280516.800000
176.021500 1403866.700000
176.081700 1751151.200000
177.089600 407352.300000
194.092300 461073.500000

>ms2peaks
56.013200 1050175.500000
71.060400 1487749.800000
72.044300 261271738.700000
76.018100 2011296.900000
78.033900 411328.100000
79.029000 384771.700000
103.029000 618353.200000
104.036800 407140.700000
105.044600 899376.500000
106.028600 459269.800000
111.994800 5177999.900000
112.990100 539783.800000
114.010500 519503.600000
123.994800 984563.400000
130.005300 869809.100000
131.023800 945703.700000
132.031800 1826575.200000
139.005600 6965025.000000
139.989600 37126904.500000
166.016500 766406.900000
167.000600 23651457.200000
176.021500 963966.600000
176.081800 419402.300000

>ms2peaks
56.013300 1899962.300000
61.979300 360439.500000
71.060400 1049488.100000
72.044400 197651449.200000
76.018100 5123235.100000
78.033800 632137.000000
79.029000 454568.400000
84.983900 939627.700000
103.029100 845252.000000
104.036900 1245852.800000
105.044700 870948.100000
111.994800 9618409.700000
112.990000 551189.700000
114.010400 382814.700000
120.032000 248654.500000
123.994800 774081.300000
130.005300 1415338.700000
131.023700 637666.400000
132.031700 1445653.500000
139.005700 4653393.900000
139.989700 25437627.700000
167.000600 4090315.000000

