>compound EQ67527978
>parentmass 319.16519999999997
>ionization [M+H]+
>formula C17H22N2O4
>rt 702.000000
>profile orbitrap
#smiles_iso CC(=CC1C(C1(C)C)C(=O)OCN2C(=O)CN(C2=O)CC#C)C
#smiles_can CC(=CC1C(C1(C)C)C(=O)OCN2C(=O)CN(C2=O)CC#C)C
#inchikey VPRAQYXPZIFIOH-UHFFFAOYSA-N
#pubchem_id 123622
#mb_accession EQ293201,EQ293202,EQ293203,EQ293204,EQ293205,EQ293206

>ms2peaks
59.049200 19442.200000
67.054300 50326.400000
69.033400 9525.800000
79.054000 13322.600000
81.069900 232466.300000
93.069900 93901.400000
95.049200 18238.100000
95.085500 60398.700000
107.085500 79729.300000
109.064800 209494.800000
109.101200 105141.500000
113.059700 841940.200000
114.063000 546470.500000
121.064800 50174.100000
121.101100 325009.000000
123.116800 5466515.500000
131.070200 13039.700000
133.101200 104220.900000
135.116800 1843679.100000
137.132400 55232.500000
139.050100 331980.100000
145.101100 157610.700000
151.111800 9506516.800000
163.111700 2147746.500000
169.060600 165909.000000
181.121900 10400.000000
193.097000 19371.300000
207.112400 34606.400000
219.112800 19194.400000
259.144200 181657.000000
273.159700 873007.400000
275.175200 11759.300000
283.144200 85555.100000
291.169900 15975.900000
301.154400 1069483.100000
319.165200 701094.800000

>ms2peaks
55.018000 26788.500000
55.054200 8275.900000
56.013100 10295.400000
57.069900 66476.800000
59.049200 93352.400000
67.054300 258540.400000
68.049500 38553.400000
69.033500 83648.900000
69.069900 65031.200000
79.054200 82695.400000
80.049500 87832.400000
81.069900 1439292.200000
83.049000 15119.900000
83.085600 8147.200000
91.054100 40534.200000
93.069900 307900.500000
94.028800 9919.200000
95.049200 110091.500000
95.085500 289841.500000
96.044400 29138.500000
105.069900 70128.300000
107.085600 327641.800000
109.064800 452520.000000
109.101200 281401.700000
111.055200 60211.100000
113.059700 786037.100000
114.063100 455357.600000
119.085600 33618.100000
121.064800 73747.800000
121.101200 888567.900000
123.055300 536153.600000
123.116800 7415634.000000
127.075200 55705.400000
133.101300 208980.200000
135.116800 2634553.500000
137.132600 41706.000000
139.050200 425079.800000
145.101300 282902.900000
151.111800 2800460.500000
163.111700 2153986.000000
169.060800 109326.100000
193.097100 33713.700000
207.112800 11053.500000
219.112600 12391.200000
245.092000 16158.100000
259.143900 8401.200000
273.159600 51125.700000
283.144500 28742.400000
301.154400 66557.500000

>ms2peaks
53.002400 7561.000000
53.038600 13653.200000
55.017900 66204.000000
55.054400 14040.200000
56.013200 54785.400000
57.070000 163850.800000
59.049200 113008.300000
65.038600 13596.800000
67.054300 520606.100000
68.049500 127149.000000
69.033500 209356.500000
69.069900 170356.500000
79.054300 250151.000000
80.049500 293600.500000
81.069900 3662173.600000
82.028600 7403.700000
83.049200 37071.200000
83.085600 29980.700000
91.054200 156037.800000
93.069900 595182.500000
94.028800 39828.000000
95.049100 180710.700000
95.085500 733686.200000
96.044300 60696.200000
105.069900 250069.700000
107.085500 807074.600000
108.093400 27118.600000
109.064800 491841.100000
109.101200 271868.300000
110.072600 7749.000000
111.055300 140305.300000
113.059700 354084.500000
114.063000 220434.600000
117.069900 31953.200000
119.060400 9124.100000
119.085700 82659.000000
120.093300 9786.300000
121.064800 128891.300000
121.101200 977465.700000
123.055300 529923.800000
123.080400 201685.200000
123.116800 3737940.500000
124.075700 12589.200000
127.075300 44520.100000
130.077500 47875.000000
131.070500 7353.700000
131.085700 13537.200000
133.101200 145813.800000
135.080500 209075.900000
135.116800 1879718.400000
136.088700 13745.300000
137.096300 12316.000000
137.132600 10195.500000
139.050200 263225.100000
143.085800 9537.600000
145.101200 260457.500000
147.080400 31230.200000
151.111800 399364.700000
163.111700 1031415.600000
169.060700 11111.100000
236.032300 12723.600000

>ms2peaks
53.002300 18629.600000
53.038800 15148.800000
55.017900 85662.800000
55.054400 27053.600000
56.013200 116560.400000
57.070000 127120.300000
59.049200 81615.900000
65.038700 33571.700000
67.041700 40943.100000
67.054300 736511.100000
68.049500 163451.600000
69.033500 326362.500000
69.069900 235591.800000
77.038300 10473.700000
79.054300 569639.200000
80.049500 369139.000000
81.069900 4214008.800000
82.028700 10337.500000
83.049300 41167.800000
83.085500 34813.100000
91.054200 308669.700000
93.069900 756683.900000
94.028800 34412.000000
94.041500 11264.100000
94.077800 18652.200000
95.049200 214656.800000
95.085600 724551.700000
96.044400 80091.200000
97.064800 8734.200000
98.060100 8227.200000
103.054500 6831.600000
105.044800 31401.700000
105.069900 432078.300000
106.078000 6619.900000
107.085600 988309.700000
108.056900 8277.600000
108.093400 64187.300000
109.064800 428541.000000
109.101200 251405.000000
110.060100 13635.400000
110.072400 12632.800000
111.055400 121639.200000
113.059700 208110.500000
114.063100 108406.900000
115.054100 9300.000000
117.070000 35900.800000
119.085600 193397.300000
120.093400 42958.000000
121.064800 174391.100000
121.101200 839468.500000
122.072600 27822.100000
123.055300 446350.900000
123.080500 191177.200000
123.116800 1791976.100000
124.075700 7526.900000
127.075200 25589.400000
130.077700 56950.600000
131.085500 7423.000000
133.101200 104093.800000
135.080400 237884.800000
135.116800 1202560.200000
136.088300 41056.300000
137.096200 24570.900000
137.132200 6608.500000
139.050300 139344.500000
145.101200 157271.000000
147.080500 36276.900000
148.088200 28924.900000
151.111900 89944.600000
161.096000 26254.500000
163.111700 616929.100000

>ms2peaks
53.002300 47433.000000
53.038700 48474.000000
54.034000 9582.100000
55.018000 152770.900000
55.054300 69629.500000
56.013200 278166.600000
57.070000 84013.500000
59.049200 59309.100000
65.038700 83338.000000
66.046500 11693.600000
67.041700 58935.800000
67.054300 729837.900000
68.049500 177449.500000
69.033600 315897.500000
69.069900 238183.600000
77.038600 13946.100000
79.054300 1033179.400000
80.049500 328908.600000
81.069900 3262742.000000
82.028800 27257.800000
83.049300 36617.700000
83.085600 34000.700000
91.054300 600673.000000
93.069900 880799.700000
94.028800 38432.400000
94.041300 8968.400000
94.077800 57699.000000
95.049200 300155.000000
95.085600 542448.600000
96.044400 68012.900000
97.064800 6624.700000
103.054300 56131.900000
105.044800 56936.800000
105.069900 567232.900000
106.077900 15910.000000
107.085600 959590.100000
108.057000 24990.000000
108.093400 63750.300000
109.064800 314003.000000
109.101300 92921.800000
110.059800 11422.500000
111.055400 94068.700000
113.059700 43869.800000
114.063100 31901.800000
115.054300 15744.700000
117.069800 78139.300000
118.077900 8615.400000
119.060400 15170.300000
119.085600 247323.900000
120.093500 69545.400000
121.064800 165806.900000
121.101200 452472.900000
122.072600 27426.000000
123.055300 181521.800000
123.080500 107790.300000
123.116800 459689.400000
124.076000 8824.900000
129.069900 14527.400000
130.077900 62443.000000
131.085700 10864.300000
133.101200 68857.700000
135.080500 178700.100000
135.116900 403933.000000
136.088400 42410.100000
137.096000 9430.100000
139.050300 33290.500000
143.085100 6861.700000
145.101300 90292.500000
147.080700 48474.300000
148.088300 35982.500000
151.112000 7853.700000
161.096200 31128.900000
163.111700 179826.100000

>ms2peaks
53.002300 69684.300000
53.038700 76923.000000
54.033900 5397.400000
55.018000 149906.700000
55.054300 100941.900000
56.013200 506669.400000
57.070000 39860.300000
59.049200 68670.300000
65.038700 175635.400000
66.046500 31793.600000
67.041700 105284.100000
67.054300 670707.500000
68.049500 147173.300000
69.033600 230470.600000
69.069900 209844.000000
77.038600 33067.700000
79.054300 1282941.100000
80.049500 250235.400000
81.070000 2159192.500000
82.028900 14098.000000
83.049100 17455.200000
83.085700 30879.500000
91.054300 941387.000000
93.069900 730855.600000
94.028800 28208.900000
94.041300 13305.000000
94.077800 52493.200000
95.049200 464485.100000
95.085600 300014.300000
96.044500 52153.500000
103.054300 83813.200000
105.044900 88861.900000
105.070000 708052.900000
106.077700 29080.900000
107.049300 49183.400000
107.085600 507794.900000
108.057100 32197.800000
108.093400 39370.900000
109.064900 229618.500000
109.101300 32304.600000
110.059900 9448.300000
111.055300 28296.600000
113.059700 9688.400000
115.054100 74329.500000
117.070000 85657.100000
119.060500 26799.700000
119.085600 202040.600000
120.093400 97069.000000
121.064900 118318.800000
121.101100 166244.900000
122.072700 10221.500000
123.055500 51732.400000
123.080400 69926.400000
123.116800 57893.800000
128.062200 7319.700000
129.069900 43072.500000
130.077700 68553.800000
133.101200 14605.300000
135.080500 100275.300000
135.116900 84071.000000
145.101400 24847.600000
147.080600 27237.700000
148.088300 31625.100000
161.096500 7309.200000
163.111300 18954.900000

