>compound EQ68926871
>parentmass 344.23329999999993
>ionization [M+H]+
>formula C20H29N3O2
>rt 516.000000
>profile orbitrap
#smiles_iso CCCCOC1=NC2=CC=CC=C2C(=C1)C(=O)NCCN(CC)CC
#smiles_can CCCCOC1=NC2=CC=CC=C2C(=C1)C(=O)NCCN(CC)CC
#inchikey PUFQVTATUTYEAL-UHFFFAOYSA-N
#pubchem_id 3025
#mb_accession EQ329401,EQ329402,EQ329403,EQ329404,EQ329405,EQ329406

>ms2
74.096400 6362395.500000
100.111900 1725578.500000
215.081500 3922013.000000
271.144300 99197192.000000
344.233400 1413370752.000000

>ms2
74.096500 47157368.000000
100.112100 24818512.000000
116.049100 2095749.500000
144.044500 1620473.400000
172.039400 2900483.500000
215.081800 90484040.000000
227.118000 1287916.600000
228.101900 8125866.000000
271.144200 1000734464.000000
288.171300 3972064.000000
344.233500 235490560.000000

>ms2
57.069900 2694456.200000
72.080800 3303460.200000
74.096400 31299974.000000
86.096500 1051977.200000
100.112100 33186402.000000
116.049300 15364321.000000
130.065200 985961.100000
144.044500 36060476.000000
146.060000 3562374.000000
158.060100 3698517.800000
158.096600 871644.400000
171.055400 15046592.000000
172.039400 80054200.000000
182.096300 2319645.800000
187.086800 5201098.000000
200.106900 6224241.000000
202.123200 3642637.800000
215.081700 474432480.000000
225.138900 1759560.900000
227.118000 16016331.000000
228.101900 44595972.000000
243.149200 4766746.500000
245.129000 1115245.500000
253.133700 5278720.000000
271.144200 603366528.000000
344.234400 1784272.000000

>ms2
57.069900 9377175.000000
70.028800 1913447.400000
72.080800 9416345.000000
74.096400 18458164.000000
86.096400 1630483.800000
89.038300 2050806.000000
100.112100 23917078.000000
116.049500 129930960.000000
118.065200 874701.200000
128.049300 1805894.200000
130.065200 4015507.200000
132.044300 2919597.800000
134.060100 464053.400000
143.060800 879613.500000
143.073100 1433871.500000
144.044500 202691280.000000
145.052300 2165250.800000
146.060100 15171437.000000
153.044800 402887.300000
154.065300 460093.700000
156.044500 1460971.000000
157.088600 2040805.100000
158.060100 10478320.000000
158.096600 1822724.600000
159.067900 902299.100000
159.091800 1153675.500000
160.075800 3153313.800000
162.055000 3655348.800000
167.073000 1035491.800000
169.076200 1236539.900000
170.060200 5138509.500000
170.096500 2145205.000000
171.055400 51722432.000000
172.039300 205524640.000000
173.083200 405538.200000
176.070700 1041095.900000
182.096600 3634669.800000
183.104200 1038148.900000
184.075900 451668.000000
185.083600 863083.800000
186.079100 981209.800000
187.086700 15651580.000000
189.066000 466450.000000
197.071000 1038927.200000
198.127800 1204073.500000
199.086700 486539.600000
199.123100 1179267.100000
200.107000 8514278.000000
202.122800 3555188.800000
209.107600 451772.200000
215.081700 367139904.000000
225.138600 2754472.500000
227.117900 12159771.000000
228.101900 20595862.000000
243.149300 4709519.500000
245.128800 414956.500000
253.133600 2225416.800000
271.144200 69446480.000000

>ms2
57.069900 10352576.000000
63.022900 1094685.000000
70.028700 2101684.500000
72.080800 10652384.000000
74.096400 9937938.000000
86.096500 889026.200000
89.038500 7218185.500000
100.112100 14613105.000000
115.041400 827278.200000
115.054400 1205360.200000
116.049500 465166656.000000
117.057100 1037251.000000
118.065200 1873853.400000
128.049600 6037418.000000
130.065200 8256320.500000
131.072900 484224.600000
132.044500 2735120.500000
132.080900 1201512.400000
134.060100 2438564.200000
142.065200 2507957.500000
143.060700 3256054.800000
143.072900 2674380.800000
144.044500 236477008.000000
145.052200 4841401.500000
146.060100 14216534.000000
149.047300 1090128.800000
153.044800 3691647.200000
154.065100 849316.600000
155.060300 499803.300000
156.044500 1351399.600000
157.088800 2515203.800000
158.060100 7188666.500000
158.096500 919342.600000
159.068000 2059056.000000
159.091800 885907.100000
160.075800 5811112.000000
162.055000 3838159.000000
167.073000 2555531.200000
169.076000 2308275.800000
170.060100 7099966.000000
171.055400 56300728.000000
172.039300 120735072.000000
177.042200 1371216.200000
182.096400 1680719.500000
183.104400 1031101.900000
184.075600 755718.100000
185.071000 1119999.600000
186.079300 1537522.400000
187.086700 9564010.000000
189.066000 501023.800000
197.071200 1136702.400000
198.127500 980968.500000
199.123100 1518715.400000
200.107000 4417514.000000
215.081700 88187344.000000
225.138700 471008.700000
227.118200 1971260.800000
228.102300 2342080.800000
243.149400 1268370.600000
271.144500 2880991.500000

>ms2
57.069900 5314760.000000
70.028800 1509546.200000
72.080800 7116926.500000
74.096400 4999693.000000
86.096400 875436.200000
89.038600 31032012.000000
91.054300 1152636.400000
100.112100 5804072.000000
103.054200 1492244.100000
115.041400 1053077.900000
115.054500 2592226.000000
116.049500 649629376.000000
117.057200 2022046.900000
118.065200 2664481.800000
128.049500 9617212.000000
129.044700 762208.000000
130.065200 8204445.000000
132.044300 2062981.800000
132.080800 1115914.200000
134.060000 9839628.000000
142.065300 2618918.500000
143.036500 2115751.200000
143.060500 4519318.000000
143.073000 2134207.000000
144.044500 104967400.000000
145.052400 6311608.500000
146.060000 7299611.000000
149.047100 1474912.800000
153.044800 8971090.000000
154.065000 980997.800000
155.060400 828835.500000
156.080800 916337.200000
157.088800 1687253.400000
158.060300 2564586.800000
159.068000 1815393.500000
159.091800 943224.600000
160.075700 3359051.800000
162.054800 1132219.000000
167.073000 1750130.800000
168.080800 1059661.500000
169.075900 1897314.200000
170.060000 4388098.500000
171.055300 35362860.000000
172.039300 24574882.000000
177.042000 1496732.900000
182.096700 993888.100000
185.071100 882294.900000
186.078900 1366298.900000
187.086700 2657669.800000
200.107000 1046191.800000
215.081700 8630366.000000

