>compound EQ69090575
>parentmass 143.0815
>ionization [M+H]+
>formula C6H10N2O2
>rt 66.000000
>profile orbitrap
#smiles_iso C1CC(=O)N(C1)CC(=O)N
#smiles_can C1CC(=O)N(C1)CC(=O)N
#inchikey GMZVRMREEHBGGF-UHFFFAOYSA-N
#pubchem_id 4843
#mb_accession EQ307601,EQ307602,EQ307603,EQ307604,EQ307605,EQ307606

>ms2peaks
68.049400 48053.400000
69.033400 212947.100000
69.069900 26739.300000
70.065100 728195.400000
83.085500 26383.900000
98.060000 23965482.000000
126.055000 12552941.900000
143.081500 690375.800000

>ms2peaks
68.049300 41588.400000
69.033400 190710.600000
70.065100 716650.700000
83.085600 25129.500000
98.060000 24353090.700000
126.055000 12705444.000000
143.081500 683455.700000

>ms2peaks
68.049400 119109.500000
69.033400 463666.600000
70.065100 1648138.500000
98.060000 27850683.800000
126.054900 6064071.300000
143.081500 139214.300000

>ms2peaks
68.049400 232258.400000
69.033500 998178.700000
70.065100 3630414.500000
80.049500 48397.300000
98.060000 29512729.400000
126.054900 2885074.700000
143.081400 47209.500000

>ms2peaks
68.049500 403371.600000
69.033500 2232232.200000
70.065100 6530883.000000
80.049500 68917.200000
98.060100 22849654.700000
126.055000 766483.000000

>ms2peaks
68.049500 666237.400000
69.033500 4000660.700000
70.065100 8638612.700000
80.049400 77878.000000
98.060100 15408527.700000
126.054900 178958.300000

