>compound EQ69752888
>parentmass 286.00320000000005
>ionization [M+H]+
>formula C12H9Cl2NO3
>rt 732.000000
>profile orbitrap
#smiles_iso CC1(C(=O)N(C(=O)O1)C2=CC(=CC(=C2)Cl)Cl)C=C
#smiles_can CC1(C(=O)N(C(=O)O1)C2=CC(=CC(=C2)Cl)Cl)C=C
#inchikey FSCWZHGZWWDELK-UHFFFAOYSA-N
#pubchem_id 39676
#mb_accession EQ311901,EQ311902,EQ311903,EQ311904,EQ311905,EQ311906

>ms2peaks
61.028500 4906.500000
81.033500 5243.500000
164.025900 31078.600000
178.041800 36969.600000
179.049600 60843.700000
196.992100 7820.300000
197.987100 4954.500000
199.966200 4927.200000
204.021200 45456.500000
206.036600 17079.400000
207.044600 29032.500000
208.016200 6283.100000
212.002800 100343.400000
214.018400 974855.000000
217.976900 460228.600000
222.031600 26937.500000
223.039300 104786.400000
224.002600 52519.100000
225.982300 5612.600000
229.977000 4896.400000
239.997600 249332.500000
242.013200 215610.200000
243.992500 15831.000000
250.026600 39707.100000
251.034600 17845.300000
258.008300 166775.000000
267.992500 261430.000000
286.003000 4000607.100000

>ms2peaks
61.028400 13137.400000
62.999600 2661.700000
64.003000 1890.800000
71.049200 2999.100000
81.033500 22653.200000
81.069900 1742.700000
98.984200 5358.800000
99.044100 2484.800000
143.072800 20282.800000
144.080700 23868.200000
149.015000 2010.100000
151.018300 9034.300000
160.976600 6215.200000
162.023000 2056.900000
164.026000 167706.600000
165.033900 7987.300000
171.068000 3058.300000
173.987100 204415.800000
176.026100 8984.600000
177.033900 16396.200000
178.041700 184900.600000
179.049600 390796.400000
184.979300 3271.500000
185.987300 20773.200000
188.070500 35672.400000
191.013000 3322.100000
196.992100 17626.100000
197.987200 19449.600000
198.994900 10480.000000
199.966300 15343.500000
200.002700 7594.900000
204.021200 165391.600000
205.028800 28570.600000
206.036800 45168.900000
207.044500 73581.800000
208.016000 14353.600000
212.002800 488111.400000
214.018500 768077.000000
216.065200 2974.900000
217.977000 1683237.000000
221.987300 21482.300000
222.031600 58151.400000
223.039400 443696.900000
224.002600 66339.600000
224.986800 7781.500000
225.982000 20817.900000
226.990100 1759.900000
229.977100 3110.300000
231.956500 7780.800000
232.016800 1707.800000
233.023300 10580.000000
239.997700 406652.100000
242.013300 214995.900000
243.992800 54116.100000
250.026600 43609.200000
251.034200 54048.500000
258.008400 120695.400000
267.992700 120195.400000
286.003100 930755.400000

>ms2peaks
53.038800 1870.200000
61.028400 8501.800000
62.999700 9045.600000
64.003000 2867.200000
67.054200 1567.400000
71.049100 3401.100000
81.033500 13614.600000
81.069900 2493.900000
83.049100 2331.200000
93.069800 5389.300000
97.064700 2655.600000
98.984100 15053.000000
99.044000 2371.500000
104.049200 1707.100000
105.069800 1579.300000
115.053800 10806.700000
139.018300 2523.900000
140.049400 1820.900000
141.057100 3015.400000
142.065200 11936.900000
143.072900 76168.300000
144.080700 247460.100000
149.015200 7106.000000
150.022800 1503.700000
151.018300 35652.600000
151.031200 10378.900000
158.975900 2131.300000
160.075500 1979.900000
162.023000 16738.500000
164.026000 375961.500000
165.033800 20487.100000
169.052300 15906.200000
170.060000 22206.500000
171.067700 2115.800000
171.971600 3013.600000
172.075700 2946.000000
173.987100 1364584.500000
174.971000 9443.500000
176.026000 32581.300000
177.033900 75397.000000
178.041700 339847.100000
179.049500 577245.500000
184.979600 13028.900000
184.991800 35553.000000
185.987200 29150.700000
187.018500 2752.800000
188.070500 179772.100000
189.033600 3200.800000
190.004800 1541.700000
191.013200 7547.300000
194.036600 17004.100000
195.971500 6193.900000
196.991900 19626.400000
197.987100 65702.000000
198.994800 19006.900000
199.966200 50255.900000
200.002900 12502.000000
204.021100 106004.800000
205.028800 64431.900000
206.036600 23041.400000
207.044500 70796.000000
208.016000 3870.100000
209.024000 2663.900000
212.002800 502746.500000
212.986700 5447.100000
214.018400 200334.100000
215.961700 2401.600000
216.065600 1824.200000
217.977000 1218633.100000
221.987100 98276.100000
222.031600 16649.900000
223.039300 226791.000000
224.002600 55822.200000
225.982400 10038.200000
226.989900 5071.100000
229.977700 3758.400000
231.956300 3304.400000
232.016900 1767.100000
233.023000 9905.600000
239.997600 151291.300000
242.013000 34695.200000
243.992800 10454.900000
251.034600 17532.400000
258.008400 7925.900000
267.992700 25905.400000
286.003200 24876.300000

>ms2peaks
61.028500 5165.600000
62.999600 8253.100000
64.002900 2876.200000
67.054200 5819.000000
71.049100 3333.500000
81.033500 7248.600000
81.069900 7067.400000
83.049100 2587.200000
98.984100 8556.700000
104.049300 6751.900000
115.054000 16735.100000
116.061900 8372.100000
117.069900 4940.300000
130.064900 7289.700000
138.010300 6272.000000
139.018200 5485.200000
140.049200 11120.700000
141.057200 13953.400000
142.065100 30259.300000
143.072900 111884.300000
144.080700 446845.900000
145.064800 6699.800000
146.976500 2493.700000
149.015200 23708.100000
150.023000 10748.900000
151.018300 50933.900000
151.030800 10004.900000
154.065100 7521.500000
155.060200 3305.600000
160.075700 2789.600000
162.023000 23101.100000
164.026000 469119.300000
165.033900 17967.900000
169.052200 23902.900000
170.060000 49119.500000
170.976500 5506.800000
171.067900 2405.600000
172.075800 5420.800000
173.987200 2228201.200000
174.971000 17072.000000
176.026000 45925.000000
177.033900 136881.000000
178.041700 336434.100000
179.049500 404526.000000
184.979600 22759.800000
184.991800 63631.300000
185.987200 23101.500000
187.018100 15329.800000
187.966400 12257.900000
188.070600 167390.600000
189.033800 6042.100000
191.012800 3109.000000
194.036800 23127.800000
195.971300 13769.900000
196.992000 11262.500000
197.987100 79328.900000
198.995100 13585.700000
199.966300 78525.000000
200.002700 9175.900000
204.021100 57483.300000
205.028900 44521.200000
206.036600 18244.300000
207.044600 55421.900000
212.002800 324692.100000
212.986900 3207.300000
213.981900 15974.600000
214.018400 65345.900000
217.977000 488813.900000
221.987100 118956.600000
223.039400 76451.400000
224.002800 36401.100000
225.982200 5533.100000
226.989600 3375.800000
233.024000 5928.400000
239.997700 58214.800000
251.033600 2869.400000
267.992600 6954.400000

>ms2peaks
62.999600 10646.800000
71.049100 7413.300000
75.022800 2496.800000
81.069900 6197.100000
91.054200 9722.700000
93.069800 2601.000000
98.984100 10693.700000
102.046500 10292.200000
104.049500 24029.700000
108.044300 3227.500000
110.999600 5583.300000
115.054200 41408.800000
116.062000 18544.900000
117.069800 18924.800000
120.044300 7770.100000
129.010200 15242.100000
130.040100 7816.900000
130.065100 14278.400000
137.015100 3137.900000
138.010400 37871.900000
139.018300 64924.100000
140.049500 25562.000000
141.057200 27712.900000
142.065100 55305.100000
143.072900 165556.200000
144.080700 581843.500000
145.064800 28372.600000
146.976100 19803.100000
149.015300 51164.700000
150.023100 39996.200000
151.018300 71806.800000
151.030900 9078.600000
154.065200 9995.200000
155.060300 16438.600000
158.976300 2545.700000
161.002800 6074.000000
162.010400 6906.300000
162.023000 30760.700000
163.018300 2940.500000
164.026100 551263.000000
165.034000 7864.100000
169.052300 24013.900000
170.060100 60616.800000
170.976300 9428.400000
171.971700 10979.900000
172.075900 5638.200000
172.966600 2843.000000
173.987200 2439179.800000
174.971200 17408.900000
176.026000 38995.500000
177.033900 153684.000000
178.041700 274824.000000
179.049500 129083.800000
180.021200 2499.700000
184.979700 27754.500000
184.991900 50819.500000
185.987200 12433.200000
187.018200 35677.800000
187.966300 12902.900000
188.070700 78819.500000
194.036500 8939.300000
195.971500 19295.700000
196.991800 5485.400000
197.987200 83108.700000
199.966400 97582.300000
204.021000 35279.700000
205.028900 15866.700000
206.036900 11433.200000
207.044600 20609.800000
212.002800 104787.200000
213.982100 21382.200000
214.018300 8489.800000
217.977100 63373.100000
221.987100 78066.100000
223.039400 6971.700000
224.002300 11952.600000
226.989600 2822.500000
239.997100 9581.500000

>ms2peaks
62.999500 2356.900000
64.002900 3001.700000
67.054200 9704.500000
75.022900 17238.200000
79.054100 6385.800000
80.049500 8585.800000
81.069800 7025.700000
91.054200 10554.200000
95.049000 9991.100000
96.044300 6899.900000
98.984100 11124.400000
102.046300 13959.900000
103.054100 10855.900000
104.049400 163360.300000
105.069900 2425.100000
108.044300 12648.800000
110.999400 13679.000000
112.007300 29037.200000
115.054100 111683.400000
116.061900 32032.900000
117.069700 55022.500000
120.044300 24327.700000
126.046200 6185.400000
127.054100 13522.600000
128.049400 17995.500000
129.010100 48988.800000
130.005500 5639.800000
130.039900 36934.500000
130.065100 19374.700000
132.960300 11564.100000
138.010400 117290.300000
139.005800 49397.100000
139.018200 193704.300000
140.049400 39779.400000
141.057200 37424.800000
142.065200 80440.000000
143.072900 252220.800000
144.080700 472077.300000
145.064700 83306.900000
146.060000 7795.700000
146.976200 52744.700000
149.015200 61353.500000
150.023000 49828.100000
151.018200 90014.100000
154.005300 5942.500000
154.065100 8324.600000
155.060200 56717.100000
156.044300 3146.900000
158.976100 6085.100000
160.007300 5709.100000
160.075700 5945.700000
161.002600 21351.700000
162.010800 10570.100000
162.023000 35846.900000
163.018200 8174.500000
164.026000 526309.500000
169.052100 16519.100000
170.060000 50338.100000
170.976200 3313.800000
171.971600 14193.800000
172.075200 2420.600000
172.966800 6458.500000
173.987100 2091464.500000
174.970800 15047.100000
176.026100 20499.700000
177.033800 113610.200000
178.041600 216346.500000
179.049600 26740.200000
180.021000 7862.600000
184.979400 27468.300000
184.991600 24177.000000
187.018200 51482.200000
187.966300 8554.000000
188.070300 16948.900000
190.005300 3284.000000
197.987000 78544.100000
199.966300 74956.800000
204.021200 23378.900000
205.028600 3124.900000
207.044600 6853.100000
210.994900 5417.800000
212.002700 44758.800000
213.982100 20206.000000
217.977200 6532.700000
221.987200 33469.500000

