>compound EQ70052587
>parentmass 211.07449999999997
>ionization [M+H]+
>formula C9H11ClN4
>rt 144.000000
>profile orbitrap
#smiles_iso C1CN(C(=N1)N)CC2=CN=C(C=C2)Cl
#smiles_can C1CN(C(=N1)N)CC2=CN=C(C=C2)Cl
#inchikey UEQZFAGVRGWPDK-UHFFFAOYSA-N
#pubchem_id 10130527
#mb_accession EQ305901,EQ305902,EQ305903,EQ305904,EQ305905,EQ305906

>ms2
84.055600 1405669.200000
126.010300 5364334.400000
133.076000 268189.500000
175.097900 1916549.300000
194.047900 284041.300000
211.074500 156013201.900000

>ms2
84.055600 4321005.700000
90.033800 215704.600000
98.999300 189617.100000
126.010400 16672782.000000
133.076100 976229.900000
168.032000 218863.800000
169.052700 583539.100000
175.097900 5889972.300000
194.048000 781627.000000
211.074500 160530153.800000

>ms2
57.044800 81681.900000
72.983600 314481.400000
81.033500 83542.700000
84.055600 12650151.900000
85.063500 267271.100000
90.033800 769763.600000
91.041400 81075.900000
98.071200 168619.100000
98.999400 609466.900000
106.065200 135460.800000
126.010500 80003091.700000
128.026000 286101.600000
132.055600 205015.800000
133.076000 4464239.800000
144.021000 285431.600000
168.032300 704090.900000
169.052700 1987946.400000
175.097800 11076459.300000
176.105600 193569.900000
194.047900 1351408.900000
211.074500 70519748.200000

>ms2
57.044800 173207.400000
63.022900 225408.400000
72.983700 475369.400000
81.033500 408181.000000
84.055600 12472685.400000
85.063500 260081.100000
90.033800 2429551.100000
91.041600 350298.700000
98.071300 173906.300000
98.999600 1236674.400000
106.065200 376854.300000
108.044300 204943.500000
126.010500 105704200.200000
128.026100 262014.700000
132.055600 425449.600000
133.076000 5294996.600000
144.021100 1183068.000000
168.032400 494751.500000
169.052800 1318577.600000
175.097800 6570118.900000
176.105700 196978.400000
194.048000 1073888.600000
211.074500 26252794.500000

>ms2
57.044800 268266.800000
63.022900 600632.100000
65.038600 268651.600000
72.983800 914738.000000
80.049500 228884.700000
81.033500 1327961.600000
84.055600 9922399.800000
85.063500 279194.600000
90.033800 9287400.000000
91.041600 1608438.500000
98.999600 5147589.000000
106.065200 1176930.600000
108.044400 1031302.900000
126.010500 118179942.500000
132.055600 394087.500000
133.076000 4240005.700000
144.021100 3279548.100000
168.032400 289804.900000
169.052800 468862.700000
175.097800 1975337.500000
176.105600 205995.000000
194.047900 456140.800000
211.074500 4623705.900000

>ms2
57.044800 405943.600000
63.022900 1950604.700000
64.018200 199202.700000
65.038600 628900.000000
72.983900 2579603.500000
79.054200 276134.400000
80.049500 532808.500000
81.033500 2958489.300000
84.055600 6340511.700000
85.063500 180562.400000
86.071100 136184.200000
90.033800 19304174.000000
91.041600 3933476.600000
98.999600 14763014.900000
106.065100 1542995.900000
108.044300 1890566.600000
126.010500 91844344.900000
132.055500 340039.000000
132.068000 93731.600000
133.076100 1915345.900000
144.021100 4449805.200000
168.032200 163511.800000
175.097900 402010.600000
194.047900 154532.400000
211.074500 592116.100000

