>compound EQ70774402
>parentmass 318.0018
>ionization [M+H]+
>formula C11H12NO4PS2
>rt 570.000000
>profile orbitrap
#smiles_iso COP(=S)(OC)SCN1C(=O)C2=CC=CC=C2C1=O
#smiles_can COP(=S)(OC)SCN1C(=O)C2=CC=CC=C2C1=O
#inchikey LMNZTLDVJIUSHT-UHFFFAOYSA-N
#pubchem_id 12901
#mb_accession EQ310101,EQ310102,EQ310103,EQ310104,EQ310105,EQ310106

>ms2peaks
113.059600 1093.500000
160.039300 799265.600000
178.050000 4102.300000

>ms2peaks
77.038300 967.700000
105.033500 1158.400000
133.028300 4159.700000
142.993100 1250.800000
160.039300 757222.300000
178.050000 4095.600000

>ms2peaks
69.069800 1550.900000
77.038300 1555.800000
95.049300 1490.000000
104.025400 1024.900000
105.033600 6997.200000
130.029000 5299.300000
132.044700 1200.600000
133.028500 44092.600000
142.992700 1285.200000
160.039300 677667.300000
178.049700 5078.200000

>ms2peaks
53.038600 571.100000
67.054100 857.500000
76.030600 768.000000
77.038600 2544.000000
95.049100 11675.000000
104.049500 4334.200000
105.033600 22656.500000
105.044700 1331.000000
130.028900 12889.900000
130.040200 816.300000
132.044500 6074.500000
133.028400 109160.500000
142.992500 2871.800000
160.039300 561708.700000
178.049600 4671.800000

>ms2peaks
50.015200 676.800000
51.022900 824.400000
53.038700 1548.100000
67.054300 1665.900000
69.069900 669.000000
77.038500 8693.300000
81.033500 1493.500000
92.025500 1091.800000
92.036900 972.500000
95.049200 50736.000000
104.025700 915.500000
104.049600 13304.100000
105.033600 69281.100000
105.044800 10285.000000
120.044700 2853.500000
130.028900 23293.400000
130.040100 6172.000000
132.044300 9111.200000
133.028500 167192.100000
160.039400 263675.600000
178.050200 708.800000

>ms2peaks
50.015200 2883.600000
51.023000 4859.400000
53.038700 4711.200000
67.054200 4439.300000
76.030700 741.100000
77.038600 21767.600000
81.033500 4716.900000
92.025600 5918.900000
92.036800 1914.000000
95.049200 121421.200000
104.025700 1342.800000
104.049500 17751.800000
105.033600 93176.400000
105.044700 23929.200000
120.044200 4996.900000
130.028900 18657.500000
130.040000 9333.100000
132.044200 8673.700000
133.028400 136257.300000
160.039300 91626.600000

