>compound EQ71343333
>parentmass 843.5213
>ionization [M+H]+
>formula C43H74N2O14
>rt 342.000000
>profile orbitrap
#smiles_iso C[C@@H]1C/C=C/C=C/[C@@H]([C@@H](C[C@@H]([C@@H]([C@H]([C@@H](CC(=O)O1)O)OC)OC2C(C(C(C(O2)C)OC3CC(C(C(O3)C)O)(C)O)N(C)C)O)CC=O)C)OC4CCC(C(O4)C)N(C)C
#smiles_can CC1CC=CC=CC(C(CC(C(C(C(CC(=O)O1)O)OC)OC2C(C(C(C(O2)C)OC3CC(C(C(O3)C)O)(C)O)N(C)C)O)CC=O)C)OC4CCC(C(O4)C)N(C)C
#inchikey ACTOXUHEUCPTEW-JMRHEKERSA-N
#pubchem_id 6419898
#mb_accession EQ307701,EQ307702,EQ307703,EQ307704,EQ307705

>ms2
83.049100 21245.000000
101.059700 39519.800000
127.075300 43026.700000
132.101700 14965.200000
142.122600 227884.100000
145.085900 90654.500000
158.117400 5396.700000
160.133100 11764.000000
174.112400 431491.300000
276.180700 11124.700000
318.191000 140711.700000
349.200600 7356.400000
522.305500 26677.800000
540.316600 134657.000000
684.394300 78466.700000
699.442300 131998.000000
843.520500 4761494.800000

>ms2
59.049100 10944.500000
69.033500 3786.300000
71.049100 6463.700000
72.080700 8511.600000
73.052200 15991.500000
73.064800 16239.600000
81.069800 18994.600000
83.049100 672871.100000
84.080700 57656.900000
85.028400 24999.800000
85.064800 8065.200000
86.060000 7765.500000
87.044000 25299.700000
88.075600 225592.500000
97.064800 27278.400000
98.096400 219694.700000
99.080400 21123.400000
100.075600 83330.500000
101.059700 964747.300000
102.091300 3795.400000
109.064800 16788.600000
112.075700 19704.500000
113.059700 6062.000000
114.091300 66528.200000
115.099100 46866.800000
116.070500 158731.900000
116.107000 15784.100000
126.091300 17728.700000
127.075300 303412.700000
128.106900 8317.100000
130.086300 21074.800000
132.101900 205189.900000
142.122700 784444.300000
144.101700 7096.300000
145.085900 439217.200000
156.102000 292695.300000
158.117600 37701.700000
160.133200 20163.300000
172.096800 20694.000000
174.112400 3384154.400000
185.132400 5795.100000
192.123000 10563.300000
214.143700 8664.800000
217.158900 3593.000000
232.154400 54936.600000
276.180800 24809.000000
318.191300 32087.400000
331.190600 9313.400000
522.306200 17168.500000
540.315900 62596.100000
699.443600 7060.700000
843.520700 9150.900000

>ms2
59.049200 36168.100000
69.033400 13597.200000
70.065000 23249.500000
71.049100 8991.600000
72.044400 8157.600000
72.080700 29568.400000
73.052200 79024.400000
73.064700 16523.400000
74.096400 1506.100000
79.054200 18741.000000
81.069900 37716.100000
83.049100 793001.800000
84.080700 66720.700000
85.028400 51554.500000
85.064700 12371.700000
86.060000 23068.600000
87.044000 83614.500000
88.075600 588607.900000
95.049000 2932.500000
95.085400 2065.800000
97.064800 43876.400000
98.096400 320198.500000
99.080400 29631.700000
100.075700 96779.000000
101.059700 401942.900000
102.091200 3446.600000
105.069800 7465.400000
107.085600 3183.200000
109.064800 18980.600000
111.044000 6821.100000
112.075700 23016.700000
113.059600 4181.500000
114.091300 113306.700000
115.099100 77639.500000
116.070500 241877.800000
116.106800 15878.800000
119.085500 1650.800000
124.112200 2403.400000
126.091400 24051.400000
127.075300 75257.800000
128.106800 8186.200000
130.086400 13820.100000
131.085500 2857.000000
132.101900 63825.700000
133.101400 1791.400000
142.122700 241043.100000
143.085500 2050.800000
144.101800 3494.800000
145.085900 32071.700000
145.101200 2321.000000
147.117200 2358.200000
156.101900 139633.400000
157.101100 2860.300000
158.117700 6203.200000
159.116400 1948.000000
160.132900 2697.800000
169.101000 1842.700000
172.096800 6068.700000
174.112400 551827.300000
185.132000 1592.200000
214.143700 5804.000000
232.154700 3056.000000

>ms2
116.070500 90015.400000
116.107100 5164.100000
117.070000 770.300000
119.085200 1164.500000
124.112000 1292.800000
126.091300 10209.400000
127.075400 17063.400000
127.099100 1753.900000
128.107100 2787.200000
129.069900 1645.600000
130.086200 2696.700000
131.085400 1705.000000
132.101900 16645.800000
133.101400 837.000000
142.122700 84206.200000
143.085800 2690.100000
144.101900 977.200000
145.085900 2982.000000
145.101100 774.000000
156.102000 36277.800000
157.101600 1193.200000
158.117400 1323.900000
159.116300 1086.200000
160.133000 996.000000
169.101200 2786.200000
172.096600 1697.900000
174.112500 123091.300000
195.116800 1381.500000

>ms2
116.070600 29180.800000
117.069800 887.000000
119.085400 990.600000
124.112000 1622.400000
126.091300 2706.200000
127.075400 1926.500000
127.099300 1518.400000
128.107200 1436.500000
129.069900 1296.000000
130.086000 838.500000
131.085700 1627.000000
132.102100 1802.000000
142.122700 27399.400000
143.085400 867.300000
155.085400 1609.700000
156.102000 5248.500000
159.116600 1040.300000
174.112300 11875.500000

