>compound EQ71609154
>parentmass 359.1853
>ionization [M+H]+
>formula C21H26O5
>rt 450.000000
>profile orbitrap
#smiles_iso C[C@]12CC(=O)[C@H]3[C@H]([C@@H]1CC[C@@]2(C(=O)CO)O)CCC4=CC(=O)C=C[C@]34C
#smiles_can CC12CC(=O)C3C(C1CCC2(C(=O)CO)O)CCC4=CC(=O)C=CC34C
#inchikey XOFYZVNMUHMLCC-ZPOLXVRWSA-N
#pubchem_id 5865
#mb_accession EQ324301,EQ324305

>ms2peaks
93.069900 1022313.300000
95.049100 324253.200000
95.085600 373600.900000
99.044100 68719.100000
101.059800 776986.900000
107.085800 351188.300000
109.064900 620210.500000
109.101100 71240.200000
111.080600 321033.500000
115.075300 79364.200000
119.085500 221524.300000
121.064800 360267.900000
123.080400 385739.800000
135.080500 950976.300000
137.096200 1266137.900000
139.075200 394604.100000
145.064800 80504.800000
147.080500 6409903.400000
151.075900 93399.100000
153.091100 922120.100000
159.080600 1243918.400000
161.096200 1271452.800000
163.075500 683432.800000
165.091100 350862.400000
171.080500 2105871.500000
173.096000 1184466.400000
175.075300 83264.400000
177.090900 107158.100000
181.085900 1201847.500000
183.101700 2164512.700000
185.059400 111147.900000
185.096400 384128.100000
187.075500 1185808.500000
187.111900 262575.200000
189.091000 334588.100000
195.101600 85929.200000
197.096100 1477007.700000
199.111500 739164.600000
201.127600 62101.200000
203.106600 223272.600000
209.096400 576570.900000
211.111700 513692.000000
213.090900 255660.100000
213.127600 2852123.800000
215.106700 493402.600000
221.096300 449626.700000
223.112000 1083412.100000
225.090900 281752.000000
225.127300 871607.600000
227.106900 326020.000000
227.142900 232834.600000
235.111900 654219.400000
237.127500 5297386.600000
239.106800 1962459.300000
239.143100 621185.800000
241.122400 325458.400000
247.111700 207060.100000
249.127400 310611.500000
251.142700 406693.900000
253.122500 3091654.500000
253.158700 630284.400000
255.138100 1658207.900000
255.174900 124639.800000
261.127400 2308766.000000
262.135600 62940.200000
263.143100 2950238.900000
264.151200 351222.300000
265.122200 385956.300000
265.158700 5876040.500000
267.138000 8737714.400000
267.174300 652299.300000
275.143600 507055.000000
277.158900 3485755.900000
279.138400 669608.900000
281.153700 2086198.900000
283.169300 2644979.600000
287.143300 2006570.900000
293.153600 2092685.700000
295.169400 12689090.300000
297.148800 821027.900000
299.165400 71365.500000
305.153800 8393465.600000
311.164300 2374899.600000
313.180000 18533387.800000
323.164400 17702046.200000
329.174800 374228.600000
331.190000 111902.200000
341.175100 41907461.900000
359.185600 57539931.000000

>ms2peaks
53.038700 115840.500000
55.054300 45470.100000
65.038700 609694.800000
67.054300 2298935.000000
69.033500 838340.700000
69.069900 234158.400000
71.049200 324541.900000
77.038500 119654.900000
79.054300 4559889.400000
81.033500 317296.200000
81.070000 2714733.900000
83.049300 390670.800000
91.054300 9229584.300000
92.062000 67611.700000
93.069900 3007946.400000
95.049200 4446213.100000
95.085600 2295437.400000
97.064900 378501.200000
99.044100 118707.700000
103.054400 1028328.300000
104.062200 206911.200000
105.044900 533259.500000
105.070000 4090508.300000
107.049200 1231778.500000
107.085700 1440662.500000
109.064900 1418072.900000
109.101000 80586.800000
111.044200 233133.900000
111.080500 312744.500000
115.054300 2431037.000000
116.062100 565241.700000
117.070000 2255368.200000
119.085700 4400832.400000
121.064900 5947079.700000
123.080500 311591.700000
128.062200 2743054.400000
129.070100 2050998.300000
130.077800 729169.200000
131.049300 921158.400000
131.085600 2153821.900000
132.057100 2437367.900000
133.064700 352201.300000
133.101300 535615.500000
134.073300 49450.600000
135.080500 1287610.600000
137.059600 122788.100000
141.069800 3164228.800000
142.077900 762774.000000
143.085700 1021807.900000
144.057200 2177783.400000
145.065000 4735864.600000
145.101600 497370.700000
146.072800 2507961.800000
147.080600 9014054.000000
152.062000 754799.900000
153.070100 1339978.400000
154.077900 774091.200000
155.060400 113605.600000
155.085600 1137645.900000
156.093800 53402.800000
157.064800 1077048.100000
157.101200 213173.400000
158.072800 4182773.400000
159.080600 4572060.800000
160.088300 348325.500000
161.096200 934478.200000
163.075300 287014.500000
165.070000 1887223.000000
166.077800 920074.800000
167.085600 1115556.900000
168.057000 542418.400000
168.093400 177853.600000
169.064800 2102838.200000
169.076000 183625.100000
169.101300 513152.100000
170.072700 1019386.000000
171.080500 8979670.100000
172.088300 692367.500000
173.096100 1992329.100000
177.070000 113812.200000
178.077700 1471947.300000
179.085600 3411503.800000
180.093300 520065.500000
181.064900 2603932.200000
181.101400 461949.300000
182.072800 1871179.100000
183.080500 1848195.600000
184.088400 747539.300000
185.096200 1046060.200000
186.103800 222023.700000
187.075400 109233.500000
187.111900 300013.000000
189.069700 600198.500000
189.091000 79518.700000
190.077600 930996.800000
191.085700 1218673.700000
192.093300 816485.800000
193.101100 1308380.200000
194.072600 1601296.800000
194.109000 515505.500000
195.080400 3364457.900000
196.088200 1888195.300000
197.096000 1921158.100000
198.103900 347415.300000
199.111700 359479.900000
202.077700 778555.500000
203.085300 958136.600000
204.093500 662609.200000
205.064700 446931.700000
205.101300 878841.800000
206.072700 631560.300000
206.109300 105418.400000
207.080600 3003895.900000
207.117100 349822.300000
208.088500 2954532.700000
209.096300 2599283.000000
210.104100 992404.100000
211.076100 95701.100000
211.111900 628532.000000
212.119800 402948.500000
215.085800 828991.000000
216.093900 506536.100000
217.101500 584806.500000
218.073000 555257.100000
218.109400 112536.900000
219.080600 1396655.500000
219.117100 337997.900000
220.088300 843710.800000
221.096200 3089892.400000
222.103900 3340406.300000
223.111900 1244723.700000
224.083800 256049.800000
224.119500 412974.400000
225.091100 199239.500000
225.127700 237991.500000
227.085500 207134.400000
227.142400 75202.300000
228.093400 268122.600000
229.101300 820480.100000
230.109100 304310.700000
231.080600 871649.100000
231.117200 400914.800000
232.088500 889550.100000
232.124800 97092.800000
233.096200 1602897.700000
234.104000 1297469.000000
235.111800 1213819.500000
236.119700 373931.600000
237.127600 528145.600000
238.098700 237752.000000
238.134800 210773.800000
239.106700 101728.900000
239.143100 73997.500000
242.109200 84555.000000
243.116800 75884.000000
244.088400 227025.800000
245.096100 978803.000000
246.103900 445820.400000
247.111900 956357.900000
248.119400 740528.700000
249.127400 1042664.300000
257.096300 257137.700000
258.104600 115005.300000
259.111500 268116.100000
260.120200 88941.300000
261.091000 71887.600000
261.127100 229720.300000
263.143000 273004.500000
265.158500 85719.500000
272.119300 112645.000000

