>compound EQ71047800
>parentmass 130.0411
>ionization [M+H]+
>formula C4H4FN3O
>rt 54.000000
>profile orbitrap
#smiles_iso C1=NC(=O)NC(=C1F)N
#smiles_can C1=NC(=O)NC(=C1F)N
#inchikey XRECTZIEBJDKEO-UHFFFAOYSA-N
#pubchem_id 3366
#mb_accession EQ312101,EQ312102,EQ312103,EQ312104,EQ312105,EQ312106

>ms2peaks
58.008900 63415.500000
87.035200 239390.500000
113.014500 77341.800000
130.041200 7852614.000000

>ms2peaks
87.035300 248725.300000
113.014700 171532.100000
130.041200 8004212.200000

>ms2peaks
87.035300 319007.100000
113.014600 551325.200000
130.041200 6759119.100000

>ms2peaks
58.008900 257478.900000
87.035300 618751.400000
112.030500 72950.700000
113.014700 780382.600000
130.041200 6006640.400000

>ms2peaks
58.008900 420858.700000
60.024500 108590.600000
85.019600 332920.300000
87.035400 858253.400000
112.030700 140640.000000
113.014600 1580856.800000
130.041300 3001194.900000

>ms2peaks
58.008800 1609057.700000
60.024500 532329.600000
85.019600 667285.500000
87.035400 1076314.600000
112.030600 262193.200000
113.014600 1858062.000000
130.041200 1622542.700000

