>compound EQ71809460
>parentmass 271.0997
>ionization [M+H]+
>formula C16H15ClN2
>rt 390.000000
>profile orbitrap
#smiles_iso CN1CCN=C(C2=C1C=CC(=C2)Cl)C3=CC=CC=C3
#smiles_can CN1CCN=C(C2=C1C=CC(=C2)Cl)C3=CC=CC=C3
#inchikey YLCXGBZIZBEVPZ-UHFFFAOYSA-N
#pubchem_id 4041
#mb_accession EQ302201,EQ302202,EQ302203,EQ302204,EQ302205,EQ302206

>ms2
91.053800 3479480.500000
180.044900 7832636.100000
207.104100 1989805.800000
228.057200 1330741.400000
242.073300 10742240.700000
254.073700 2213685.800000
271.099700 1190246983.200000

>ms2
91.054100 32404690.200000
106.065200 4824900.500000
117.057200 1357666.800000
120.080700 1357728.400000
152.026000 2879843.200000
165.021400 3514364.800000
166.041900 4436295.900000
179.037000 2826142.300000
180.044800 67636759.900000
206.095900 1071615.500000
207.104400 17095505.300000
218.096600 1214108.000000
219.104300 8070066.900000
228.057500 8990159.500000
230.073200 3223924.800000
235.123000 1291220.600000
236.131200 2161785.500000
242.073100 96882253.100000
243.081000 1536227.100000
244.088900 1321316.300000
254.073200 17394226.600000
256.076400 1311001.300000
271.099600 1020199958.700000

>ms2
65.038500 1865038.700000
79.054300 1495533.500000
91.054200 152814954.500000
103.054200 411794.500000
105.069800 1164798.100000
106.065100 7756994.000000
117.057200 5699447.800000
118.065100 1582986.200000
120.080600 1101781.400000
125.014900 1789491.500000
130.065200 1586994.500000
131.073000 5579773.400000
132.080900 1196064.000000
140.026300 2120345.500000
151.018200 604104.300000
152.026100 6951099.400000
153.034000 479418.400000
154.041700 2046315.400000
164.026300 3443412.300000
165.021400 27285179.400000
166.041800 9667811.600000
168.057300 1019162.000000
178.077900 1448393.700000
179.037100 7335112.100000
179.085500 1307498.700000
180.044800 106658646.000000
181.088000 377964.300000
193.052600 2457387.900000
193.088800 7536352.500000
194.096700 1050658.800000
195.104300 1529557.300000
201.046800 1033440.800000
204.080600 1471618.600000
205.088800 1296949.400000
206.096400 4692119.600000
207.104300 106134634.500000
208.112200 349527.300000
213.046700 377719.000000
214.041800 2824991.800000
216.057500 1338228.400000
218.096300 5641696.600000
219.104300 17162366.800000
221.107600 1324102.100000
227.049600 5952180.400000
228.057400 36838127.500000
230.073200 23702952.300000
235.123000 2656528.800000
236.131000 3496737.700000
239.050200 349810.400000
240.056900 1819046.900000
241.051900 337677.900000
241.064600 280641.700000
242.073100 111471969.000000
243.080800 4158653.000000
244.088900 4507759.900000
252.057500 415157.400000
254.073100 28934909.300000
255.068400 1796406.600000
256.076300 3509665.600000
269.084000 1130351.400000
271.099600 276000679.500000

>ms2
63.022700 287467.800000
65.038600 3836230.200000
79.054200 2226623.400000
91.054200 246586110.100000
103.054300 1322854.400000
105.070000 1755129.800000
106.065100 6996357.900000
117.057200 12771116.600000
118.064900 2352338.100000
120.080600 1305824.100000
125.015200 4242389.200000
130.065100 3787977.600000
131.073000 10046586.300000
132.080700 1276419.500000
134.060200 432653.200000
138.010700 411691.400000
140.026100 2340157.900000
145.076100 505813.900000
150.010300 248405.700000
151.018200 578427.300000
152.026100 12052575.800000
153.033900 1436858.000000
154.041800 2881983.000000
164.026200 6667622.100000
165.021400 64017024.600000
166.041800 8086157.700000
166.077700 1377332.000000
168.057100 574511.900000
176.025600 499124.500000
178.077500 3271325.000000
179.037000 10111457.600000
179.085700 2451350.500000
180.044800 85699284.500000
181.088300 1341446.800000
192.080900 1736626.600000
193.052600 2776643.200000
193.088600 22657823.300000
194.096600 3997432.300000
195.104100 3489274.400000
201.046600 1342306.800000
204.080600 2632258.900000
205.089100 1804613.700000
206.096600 14285496.700000
207.104300 183676354.800000
208.112200 631694.100000
213.046500 1753619.500000
214.041900 5010159.800000
216.057400 1192761.600000
217.088500 474240.700000
218.096500 12688523.200000
219.104300 16007097.200000
220.099200 283005.600000
220.111300 335378.400000
221.107200 3249335.600000
226.042100 511823.100000
227.049600 14141488.500000
228.057400 55137087.100000
230.073200 33783998.800000
235.123000 3508257.000000
236.131500 2046626.100000
239.050300 333911.300000
240.057400 1500056.000000
241.052300 1992698.900000
242.073000 69338865.900000
243.081200 3426439.500000
244.088800 3805195.800000
252.057300 393456.700000
254.073100 32108771.700000
255.068200 3319510.900000
256.075800 1809879.800000
269.084000 1628953.200000
271.099600 94904995.700000

>ms2
65.038600 7666246.300000
79.054300 3308500.900000
89.038400 1551630.000000
90.046500 352944.300000
91.054200 237573261.500000
95.049100 262987.200000
103.054300 1706621.300000
104.049600 1135864.100000
105.069900 1665025.900000
106.065100 2976964.500000
115.054300 1348915.600000
116.049600 442097.600000
117.057300 22978786.300000
118.065200 1688690.600000
120.080900 310456.600000
125.015200 7697616.200000
128.049500 451776.700000
129.010200 265050.600000
130.065200 5080936.200000
131.073000 10013451.700000
132.080900 498705.900000
134.060000 574033.200000
138.010500 1197064.900000
139.005700 290981.300000
140.026300 1885218.200000
145.076200 309040.300000
150.010500 422374.000000
151.018400 1494183.500000
152.026100 12226298.900000
153.034100 1169208.600000
154.041800 2355703.800000
158.084000 518207.300000
164.026200 7370215.800000
165.021400 79320663.400000
165.069900 6180994.800000
166.042000 2205187.200000
166.077800 2879093.600000
176.026400 301975.200000
178.077800 6971565.300000
179.037000 8513348.600000
179.073100 1220207.900000
179.085400 2526031.900000
180.044900 20529240.900000
180.080800 2993557.600000
181.088600 1305517.800000
192.080700 4806584.900000
193.088700 45097902.100000
194.096400 6273389.600000
195.104000 3394009.700000
201.046300 965048.800000
203.072500 453434.600000
204.080800 3794873.400000
205.088700 1711827.400000
206.096500 36143351.600000
207.104300 153947444.300000
208.112600 1100081.200000
212.039100 1110207.200000
213.046500 361303.000000
214.041800 5899631.600000
216.057700 433356.500000
217.088800 1064820.800000
218.096500 13750542.800000
219.104300 5875312.500000
220.099800 447673.300000
220.111700 325056.700000
221.107500 3035079.900000
226.041700 322990.600000
227.049700 17278292.600000
228.057400 30660648.800000
230.073200 15748798.000000
235.122800 1764106.600000
238.041800 1266640.800000
239.050100 315647.500000
240.057000 897437.200000
241.052600 1708430.700000
241.064500 457122.700000
242.073100 10693289.000000
244.088600 1008907.500000
252.057200 450871.900000
254.073200 13153734.100000
255.068400 3468912.500000
256.076800 371752.100000
269.084700 489276.100000
271.099700 7865803.900000

>ms2
63.023000 415706.300000
65.038600 16614263.100000
79.054200 3473502.200000
89.038600 3750252.400000
90.046400 1686818.100000
91.054200 236823135.500000
95.049100 1720974.900000
103.054200 1903253.300000
104.049500 1442625.700000
105.070000 1599971.700000
106.065000 1621738.100000
115.054100 1746452.400000
116.049400 472433.700000
117.057300 34772883.200000
118.065100 1720637.800000
125.015200 10012145.700000
128.049500 1534142.900000
129.010200 560494.700000
130.065200 11496688.300000
131.073000 8543438.400000
132.081100 532396.100000
134.060000 607598.400000
138.010600 2864419.900000
139.005800 439210.500000
140.026300 984589.200000
150.010600 1398280.100000
151.018500 1106255.600000
152.026200 8407520.200000
153.034100 564886.000000
154.041900 365407.200000
158.083700 324618.000000
164.026200 8867762.400000
165.021400 83968738.500000
165.069900 20089502.500000
166.041900 499284.000000
166.077700 3825474.400000
176.025900 366494.100000
178.077700 10578838.000000
179.037100 9575153.100000
179.073300 3178988.100000
179.085500 5965703.900000
180.044900 4635739.300000
180.080500 4650922.000000
181.088400 378727.100000
192.080800 15506363.800000
193.088700 69092806.400000
194.096600 7622833.400000
195.104200 1564556.500000
203.072700 1926187.800000
204.081000 7786355.300000
205.088800 2057864.800000
206.096500 80738671.100000
207.104300 93848947.200000
212.038700 1753155.900000
214.041800 3775108.500000
217.088600 2963170.800000
218.096500 14675517.700000
219.104300 1672011.100000
220.099600 1761561.500000
221.107300 1860387.800000
226.041900 1457744.700000
227.049600 20439301.500000
228.057500 11094088.800000
230.073000 3596108.600000
235.122800 506018.400000
238.041400 2276918.800000
240.057700 742031.400000
241.052500 1545744.400000
242.072800 1346371.800000
252.057400 379631.500000
254.073000 5360471.400000
255.068100 2497696.300000
271.100600 298043.100000

