>compound EQ72188704
>parentmass 180.1383
>ionization [M+H]+
>formula C11H17NO
>rt 342.000000
>profile orbitrap
#smiles_iso CC1=C(C(=CC=C1)C)OCC(C)N
#smiles_can CC1=C(C(=CC=C1)C)OCC(C)N
#inchikey VLPIATFUUWWMKC-UHFFFAOYSA-N
#pubchem_id 4178
#mb_accession EQ301001,EQ301002,EQ301003,EQ301004,EQ301005,EQ301006

>ms2peaks
58.065200 489623404.800000
79.054100 745104.700000
105.069800 10967432.800000
107.085500 3064063.900000
121.064800 26215357.300000
123.080400 7915820.900000
133.076200 1858914.100000
135.080400 10198020.500000
135.116800 2439089.900000
145.101100 1216942.500000
163.111700 53422840.600000
180.138200 103924971.100000

>ms2peaks
58.065200 477830383.300000
79.054200 721970.300000
105.069900 14173406.100000
107.085500 4269566.200000
121.064800 32889875.400000
123.080400 9743448.700000
133.076100 2718651.900000
135.080400 11626267.900000
135.116900 3018714.300000
145.101200 967943.700000
163.111700 49324266.300000
180.138200 67332414.700000

>ms2peaks
53.002300 1436105.000000
58.065200 382502325.400000
77.038400 991382.600000
79.054200 4364551.400000
91.054100 1270912.700000
93.069800 1752967.300000
95.049200 1805323.500000
103.054200 1969003.200000
105.069900 62975088.600000
107.085500 6050089.300000
121.064800 52927244.700000
122.072700 792692.300000
123.080400 18626743.600000
133.076000 5051234.500000
135.080400 14948165.700000
135.116800 1763201.400000
145.101200 987765.600000
163.111700 11737532.500000
180.138300 3117705.000000

>ms2peaks
53.002300 2291405.000000
58.065200 320451085.000000
67.989200 364358.100000
77.038500 1204853.400000
79.054200 12430017.400000
91.054200 3665476.400000
93.069900 3426516.800000
95.049100 4010760.500000
103.054200 7121205.200000
105.069900 95992191.100000
107.085500 6382985.200000
109.064700 362466.900000
119.085500 808490.200000
121.064800 52866363.700000
122.072500 999127.700000
123.080400 13015127.900000
130.077700 332683.400000
133.076000 3390963.100000
135.080400 11888080.600000
135.116700 724889.300000
145.101200 348354.600000
163.111600 3433071.700000
180.138000 343365.100000

>ms2peaks
53.002300 3563238.100000
53.038700 327333.500000
53.997500 290943.500000
58.065200 218192759.700000
65.038500 234751.800000
67.989200 406736.300000
77.038600 3116595.200000
79.054200 33043565.800000
91.054200 9688947.500000
93.069900 5859530.200000
95.049100 16016484.700000
103.054200 19383319.800000
105.069900 101544843.800000
107.049000 375602.600000
107.085500 3963384.000000
109.064800 671159.300000
119.085600 688353.700000
121.064800 35940014.900000
122.072500 1033219.900000
123.080300 4653114.500000
130.078100 506505.200000
133.076200 912885.400000
135.080500 7371798.900000
148.087700 235776.400000
163.111900 314246.800000

>ms2peaks
53.002300 3493054.500000
53.038700 1031746.700000
53.997600 165909.300000
58.065200 123757302.700000
65.038600 850364.400000
67.989300 485171.700000
77.038600 4896864.900000
79.054200 48887701.000000
91.054200 15947284.600000
93.069900 5258532.000000
95.049100 34030348.400000
103.054200 25903378.400000
105.044700 8413010.654000
105.069900 58520393.600000
107.049000 389457.900000
107.085500 2129957.800000
109.064700 409633.800000
117.069800 273932.800000
119.085600 264494.100000
121.064800 17390832.100000
122.072500 360392.400000
123.080400 721040.000000
130.077600 367820.500000
135.080400 2252702.900000

