>compound EQ73432698
>parentmass 409.137
>ionization [M+H]+
>formula C20H19F3N2O4
>rt 882.000000
>profile orbitrap
#smiles_iso C/C(=N\OCC1=CC=CC=C1/C(=N/OC)/C(=O)OC)/C2=CC(=CC=C2)C(F)(F)F
#smiles_can CC(=NOCC1=CC=CC=C1C(=NOC)C(=O)OC)C2=CC(=CC=C2)C(F)(F)F
#inchikey ONCZDRURRATYFI-QTCHDTBASA-N
#pubchem_id 9578570
#mb_accession EQ318101,EQ318102,EQ318103,EQ318104,EQ318105,EQ318106

>ms2
105.069700 2566853.500000
116.049200 55385705.100000
118.064900 1018546.700000
130.064700 416913.000000
131.072700 18310374.300000
132.080500 25219315.700000
134.059600 2203695.700000
145.025200 3453617.000000
146.059700 3175881.900000
147.067400 834072.600000
148.075500 1466482.100000
162.090900 15022427.500000
186.052100 393679810.100000
200.068000 740136.100000
206.080800 177831057.900000

>ms2
89.038200 1372720.000000
91.054000 2515113.600000
103.053900 840664.600000
105.069600 8904642.900000
116.049200 90094941.000000
117.057000 3980075.400000
118.064800 7520297.300000
119.048900 2517598.300000
119.072600 2351335.200000
130.064900 2246926.600000
131.072600 64080740.400000
132.044000 2623144.500000
132.080400 49946972.000000
134.059500 3834382.000000
145.025500 10754131.100000
146.059600 22818922.100000
147.067600 3393815.200000
148.075400 1844787.600000
161.046500 1686209.600000
162.090900 8127685.600000
173.031700 6542430.500000
174.054400 1038640.600000
175.062300 3107939.500000
178.085800 2065497.000000
186.052000 458159554.500000
200.067800 758617.700000
206.080700 71678895.500000

>ms2
79.054000 1763044.800000
89.038300 6722503.900000
90.046100 953298.300000
91.054000 11360689.500000
101.019500 1782444.900000
103.053900 1602587.700000
104.061800 401754.200000
105.069600 10023436.500000
109.064600 565557.100000
115.054100 2017756.300000
116.049200 96666091.500000
117.057000 15818872.800000
118.064800 18593123.600000
119.048900 4619935.500000
119.060000 781028.400000
119.072600 1462008.100000
130.064900 9448795.300000
131.072700 84138772.700000
132.043900 6974940.800000
132.080400 37698641.200000
134.059600 5025436.500000
143.029900 1211726.200000
143.036400 978849.200000
145.025600 85467562.600000
146.059700 30170935.800000
147.067400 5839816.900000
148.075300 2269734.400000
159.040900 1352300.700000
161.046700 5612394.300000
162.090900 1000174.500000
163.036100 5058264.100000
173.031700 46923981.000000
174.054500 883733.600000
175.062400 2474280.500000
178.086100 1806008.800000
186.052100 358008924.000000
206.080700 11065755.600000

>ms2
63.022800 899693.500000
65.038500 1367193.000000
66.046300 285991.100000
74.014900 281667.800000
75.022600 379416.800000
77.038400 820432.600000
78.046200 318891.900000
79.054000 2328883.400000
89.038300 15810007.300000
90.046200 4229109.100000
91.054000 18695698.500000
95.028600 314897.400000
95.048900 1063750.900000
101.019500 1607426.000000
103.053900 3361812.000000
104.049300 368759.900000
104.061800 1863237.000000
105.044500 816308.200000
105.069700 6388182.600000
109.044600 921254.300000
109.064500 874127.500000
113.039500 758088.600000
115.041300 404196.000000
115.053900 2058614.100000
116.049200 73974632.100000
117.057000 22042262.000000
118.064800 22147653.800000
119.048900 4886511.600000
119.060100 418845.500000
119.072600 375577.300000
121.025900 242412.100000
123.035000 1789161.800000
125.019600 1770692.500000
128.049000 861108.500000
130.064900 19015316.400000
131.072600 62167013.500000
132.044000 6577161.600000
132.080400 15193827.500000
133.051600 781502.500000
134.059700 3264017.200000
143.030000 1378157.600000
144.044000 275297.300000
145.025600 229490686.800000
146.059600 13841869.600000
147.067500 3313985.800000
148.075300 792980.900000
159.041200 1031944.900000
161.046700 4906355.300000
163.036000 6393367.900000
173.031700 48874847.700000
178.085600 320023.300000
186.052100 117440732.700000
206.080800 397149.400000

>ms2
63.022800 2409656.800000
65.038500 3606777.800000
66.046300 1817576.500000
71.029000 1025954.200000
74.015000 451808.500000
75.003900 882437.500000
75.022600 2167219.400000
77.038200 1346920.000000
78.046200 1268509.200000
79.054000 3662820.200000
89.038300 39716684.600000
90.033600 1053310.300000
90.046100 11021880.500000
91.054000 23936843.300000
95.010100 817722.800000
95.028700 2222450.500000
95.048800 1961068.400000
101.019500 1220734.100000
103.054000 5390291.900000
104.049200 1231508.200000
104.061800 2886251.200000
105.044400 1036115.700000
105.069600 4673699.800000
109.044500 1058171.000000
109.064500 440310.200000
113.039400 6811729.600000
115.041400 2665129.600000
115.054000 1576215.600000
116.049200 67506201.100000
117.057000 25187267.700000
118.064800 23842662.200000
119.010000 374537.900000
119.048900 3492409.800000
123.034900 12508563.800000
125.019400 7483462.300000
128.049300 918474.100000
130.064800 34052958.200000
131.072600 44655897.700000
132.044000 6197133.500000
132.080400 6528477.300000
133.051800 760894.900000
134.059700 2090413.100000
143.029900 380909.600000
143.035900 379719.800000
145.025600 348246017.100000
146.059500 7410394.100000
147.067400 813057.900000
159.041000 706953.600000
161.046600 3319439.900000
163.036000 3241376.500000
173.031600 24402285.800000
186.052000 25692439.500000

>ms2
50.015300 847196.000000
51.023000 330858.700000
63.022900 5194478.900000
65.038500 8473806.800000
66.046400 2858975.700000
71.029000 2513317.200000
74.014800 1097769.300000
75.003900 4069177.700000
75.022700 8674968.300000
77.038400 2391108.300000
78.046200 2725192.700000
79.054100 3366112.700000
81.013300 987410.600000
89.038300 66710280.900000
90.033600 2949802.800000
90.046200 17876812.200000
91.054000 28742198.800000
93.033300 991129.000000
95.010100 1810951.400000
95.028900 6887085.800000
95.048900 3002802.200000
99.003800 1077648.600000
101.019500 356071.100000
103.054000 7136489.900000
104.049200 2116076.200000
104.061700 2869573.100000
105.044600 2669266.800000
105.069600 1804845.800000
109.044600 1491861.700000
109.064600 303484.600000
113.039500 16806237.900000
115.041400 4032308.800000
115.054000 1223693.700000
116.049200 52879486.600000
117.057000 23867687.400000
118.064800 21070300.700000
119.010000 2906344.000000
119.049000 1963994.700000
119.060100 328877.000000
123.035000 41778504.200000
125.019400 23516352.800000
128.049100 895166.100000
130.064900 40522976.600000
131.072600 23920347.000000
132.044100 5053932.600000
132.080400 2943738.900000
133.051800 368790.100000
134.059800 1762108.800000
143.030000 843134.200000
145.025600 298970551.600000
146.059700 4107461.700000
159.041200 466875.200000
161.046800 1083696.200000
163.036100 337880.200000
171.035900 446165.900000
173.031700 5276517.200000
186.052200 4307045.400000

