>compound EQ73765083
>parentmass 224.1281
>ionization [M+H]+
>formula C12H17NO3
>rt 504.000000
>profile orbitrap
#smiles_iso CCCCOC1=CC=C(C=C1)CC(=O)NO
#smiles_can CCCCOC1=CC=C(C=C1)CC(=O)NO
#inchikey MXJWRABVEGLYDG-UHFFFAOYSA-N
#pubchem_id 2466
#mb_accession EQ332201,EQ332202,EQ332203,EQ332204,EQ332205,EQ332206

>ms2
94.065000 531181.800000
95.049200 616076.200000
107.049100 120714328.000000
108.044300 2023947.000000
122.060000 10867224.000000
135.043900 1100708.400000
150.055000 20814094.000000
163.111700 341418176.000000
168.065400 19537208.000000
191.106400 734288.100000
206.117500 873515.900000
207.125500 936153.800000
224.128100 164362544.000000

>ms2
57.069800 3365688.800000
94.065000 1418530.200000
95.049100 1448480.100000
106.041000 550924.400000
107.049100 276109184.000000
108.044300 4180585.200000
122.060000 19811188.000000
135.044000 2659371.500000
150.054900 21224566.000000
163.111700 271747872.000000
168.065400 20077500.000000
191.106700 634196.100000
206.117600 883786.200000
207.125700 940172.900000
224.128100 36885064.000000

>ms2
57.069900 6342187.500000
77.038500 740538.400000
79.054200 1566206.800000
94.065100 4609429.000000
95.049100 6376840.500000
104.049600 1195071.000000
105.044700 692849.800000
107.049100 484068320.000000
108.044200 5901708.000000
122.060000 23902102.000000
132.044300 993860.000000
133.052200 682951.200000
135.044000 2897952.000000
150.055000 8509068.000000
163.111700 52757944.000000
168.065500 4999695.500000
224.128400 572350.600000

>ms2
57.069900 7644886.500000
67.054200 1022453.100000
77.038500 2448903.500000
79.054200 5995453.500000
80.049500 1099277.100000
94.041200 1352893.000000
94.065100 6466128.500000
95.049100 11641542.000000
104.049500 2236139.200000
105.033500 803989.600000
105.044800 2280522.000000
107.049200 467314080.000000
108.044200 5575123.500000
122.060000 15762443.000000
132.044400 751935.300000
133.052200 2360533.500000
135.044000 1347648.200000
150.054700 1493458.600000
163.111700 4242176.000000

>ms2
53.002300 533211.400000
57.069900 5011719.000000
65.038600 743661.200000
67.054200 1760616.100000
77.038500 6200680.500000
79.054200 12300163.000000
80.049500 1830803.400000
81.033500 2066439.000000
94.041300 1670375.800000
94.065100 5094144.000000
95.049100 21122060.000000
104.049500 2604229.500000
105.033400 715169.600000
105.044800 7382175.500000
107.049200 376809024.000000
108.044300 4354395.500000
122.060000 6299878.500000
132.044300 592006.600000
133.052200 2366264.500000
150.055000 545222.400000

>ms2
50.015200 567370.700000
51.023000 283004.800000
53.002300 620768.900000
53.038600 1233370.200000
57.069900 2473557.500000
65.038600 1299601.900000
67.054200 1785143.900000
77.038500 10853202.000000
78.046400 465605.800000
79.054200 21056064.000000
80.049500 2232594.800000
81.033500 3174538.800000
93.057300 488356.600000
94.041300 2078050.500000
94.065000 2606362.200000
95.049100 35919812.000000
104.049400 1831945.500000
105.044800 15811420.000000
106.041500 286252.600000
107.049100 277691392.000000
108.044200 2288779.000000
122.060000 2563139.000000
133.052200 1598168.800000

