>compound EQ75627989
>parentmass 552.4007
>ionization [M+H]+
>formula C30H53N3O6
>rt 576.000000
>profile orbitrap
#smiles_iso CC(C)[C@@H](CC1=CC(=C(C=C1)OC)OCCCOC)C[C@@H]([C@H](C[C@@H](C(C)C)C(=O)NCC(C)(C)C(=O)N)O)N
#smiles_can CC(C)C(CC1=CC(=C(C=C1)OC)OCCCOC)CC(C(CC(C(C)C)C(=O)NCC(C)(C)C(=O)N)O)N
#inchikey UXOWGYHJODZGMF-QORCZRPOSA-N
#pubchem_id 5493444
#mb_accession EQ312301,EQ312302,EQ312303,EQ312304,EQ312305,EQ312306

>ms2peaks
436.306200 1317429.500000
534.390100 815088.536500

>ms2peaks
73.064800 527770.500000
100.075500 642896.800000
117.102000 498876.000000
209.116700 261823.600000
436.307400 188495.200000

>ms2peaks
73.064800 1081145.200000
97.064700 164529.400000
100.075900 940847.100000
117.102200 188247.300000
209.117200 266990.000000

>ms2peaks
79.054200 223289.200000
91.054200 139585.400000
97.064800 222729.500000
100.075800 1212830.500000
107.049200 135237.200000
137.059600 172261.400000
209.117000 165384.800000

>ms2peaks
79.054200 208711.800000
91.054200 210743.100000
94.041300 173605.800000
100.075800 230254.700000
107.048800 124416.900000
135.044200 164869.300000
137.059900 194354.700000

>ms2peaks
91.054300 184594.600000
94.041200 180474.100000
135.044500 124092.800000

