>compound EQ75669017
>parentmass 271.1805
>ionization [M+H]+
>formula C17H22N2O
>rt 222.000000
>profile orbitrap
#smiles_iso CC(C1=CC=CC=C1)(C2=CC=CC=N2)OCCN(C)C
#smiles_can CC(C1=CC=CC=C1)(C2=CC=CC=N2)OCCN(C)C
#inchikey HCFDWZZGGLSKEP-UHFFFAOYSA-N
#pubchem_id 3162
#mb_accession EQ301801,EQ301802,EQ301803,EQ301804,EQ301805,EQ301806

>ms2peaks
72.080700 6053939.800000
90.091300 85420624.500000
167.072500 7851608.600000
180.080400 746049.000000
182.096400 471229324.000000
226.122100 2026433.800000
271.180400 121881654.100000

>ms2peaks
72.080700 10345288.600000
90.091300 57051502.500000
167.072900 25104160.400000
180.080500 736368.400000
181.088400 948818.700000
182.096400 635967013.900000
226.122300 3505152.600000
271.180500 4773931.100000

>ms2peaks
72.080700 10719255.400000
90.091300 27267379.600000
166.064900 999909.400000
167.072900 181939790.100000
181.088700 1930963.600000
182.096400 433681290.800000
226.122200 1963388.700000

>ms2peaks
70.065100 565335.600000
72.080700 15261161.600000
90.091300 21599064.300000
139.053900 568656.000000
166.064800 1362173.900000
167.072900 407095512.300000
180.080100 1179551.800000
181.088500 3804848.600000
182.096300 299144443.300000
226.122000 1118856.700000

>ms2peaks
70.065100 816586.600000
72.080700 14085828.900000
90.091300 11131875.800000
134.059900 628937.800000
139.054000 598341.400000
166.065100 2557117.600000
167.073000 565074637.500000
180.080600 2382483.400000
181.088500 5306397.400000
182.096400 86417660.600000

>ms2peaks
70.065000 1421269.900000
72.080700 15059596.900000
90.091300 5002133.600000
96.044300 1507182.700000
104.049400 1737083.400000
134.059900 727616.400000
139.053900 1516887.400000
166.065200 8637087.200000
167.073000 672478438.400000
180.080600 6326187.400000
181.088300 4458508.500000
182.096300 16987507.300000

