>compound EQ75168148
>parentmass 392.222
>ionization [M]+
>formula C25H30NO3+
>rt 366.000000
>profile orbitrap
#smiles_iso C1CC[N+]2(C1)C3CCC2CC(C3)OC(=O)C(C4=CC=CC=C4)(C5=CC=CC=C5)O
#smiles_can C1CC[N+]2(C1)C3CCC2CC(C3)OC(=O)C(C4=CC=CC=C4)(C5=CC=CC=C5)O
#inchikey OYYDSUSKLWTMMQ-UHFFFAOYSA-N
#pubchem_id 5596
#mb_accession EQ303017,EQ303018,EQ303019,EQ303020,EQ303021,EQ303022

>ms2
164.142900 5540279.900000
392.220700 1236301675.700000

>ms2
93.069500 1780373.000000
164.142800 159349274.600000
165.150600 1369716.700000
182.153300 85288090.400000
392.220700 808409019.600000

>ms2
84.080500 1872051.100000
91.053800 5133714.200000
93.069500 27858289.300000
95.048700 1449134.800000
95.085200 10995466.200000
96.080400 1349809.900000
97.088200 3347649.500000
105.033000 554255.800000
110.096000 1662937.500000
122.095800 3391243.900000
123.103800 4940037.900000
136.111800 2946310.600000
138.127200 2182126.200000
164.142900 519470175.400000
165.150600 6308930.300000
182.153400 450303736.700000
183.080000 2371952.700000
392.220800 159064936.800000

>ms2
84.080400 3935949.300000
91.053900 13215863.000000
93.069500 58947306.000000
95.048800 4829804.100000
95.085200 26900378.500000
97.088200 10466534.200000
98.096100 3965652.400000
105.033100 2549301.500000
105.044300 1259063.900000
108.080400 1641527.300000
110.096100 4463768.500000
120.080300 682142.000000
122.095900 7598631.500000
123.103800 9740749.900000
136.111700 6523203.200000
138.127200 10402753.100000
150.127200 2588233.500000
164.142800 456057653.900000
165.150500 5993515.300000
182.153300 571637266.700000
183.079800 1902469.800000
392.220700 21610766.200000

>ms2
79.054100 569380.200000
81.057000 702415.700000
81.069600 1476588.400000
82.064800 1725378.000000
83.072700 551284.300000
83.085200 510400.100000
84.080500 6739554.600000
91.053900 36409269.200000
93.069500 85966790.100000
95.048800 16968526.300000
95.085200 40897606.200000
96.080400 9309710.900000
97.088300 28399645.600000
98.096100 17432567.800000
100.075300 564338.400000
105.033100 6837507.000000
105.044400 3594953.700000
108.080400 4932971.400000
110.096000 7409899.500000
111.080000 1866846.900000
120.080300 3702152.800000
121.088200 559635.000000
122.095900 13517353.300000
123.103700 8397558.200000
124.111600 720586.000000
134.095900 1501613.100000
135.103600 767813.900000
136.111600 8319097.400000
137.119500 786379.400000
138.127200 38342488.400000
150.127100 3050459.300000
162.127200 662120.600000
164.142900 212602450.100000
165.150400 686004.100000
182.153300 491692000.100000
183.079900 540797.400000

>ms2
65.038400 3273066.260000
77.038300 3191987.989000
79.053900 1588100.600000
81.057100 2206688.700000
81.069600 2086531.700000
82.064900 2987155.400000
83.072700 360129.600000
83.085300 1524363.700000
84.080500 7293702.800000
91.053900 57953262.200000
93.069500 85304743.600000
94.064800 2663515.000000
95.048800 32962463.500000
95.085200 34044124.000000
96.080400 16990321.500000
97.088300 49312791.100000
98.096100 35312590.500000
100.075300 1704539.500000
105.033100 11781912.400000
105.044400 7805075.500000
108.080400 10029244.900000
109.088200 1339614.800000
110.096100 12046232.600000
111.080100 2782918.900000
120.080400 5018809.800000
121.088200 578248.400000
122.095900 18641557.800000
123.103800 6689268.500000
124.111800 1529254.700000
134.096000 2717945.100000
135.103700 1769164.200000
136.111700 9426485.400000
137.119200 310542.500000
138.127200 61643337.000000
150.127000 2559037.800000
162.127400 462925.100000
164.142900 86926253.100000
182.153400 291454972.100000
183.079500 310081.100000

