>compound EQ75143625
>parentmass 150.1277
>ionization [M+H]+
>formula C10H15N
>rt 228.000000
>profile orbitrap
#smiles_iso C[C@@H](CC1=CC=CC=C1)NC
#smiles_can CC(CC1=CC=CC=C1)NC
#inchikey MYWUZJCMWCOHBA-VIFPVBQESA-N
#pubchem_id 10836
#mb_accession EQ282901,EQ282902,EQ282903,EQ282904,EQ282905,EQ282906

>ms2
58.065100 1613450.900000
65.038400 1381478.500000
77.038300 660096.700000
89.038400 644035.300000
90.046200 658828.300000
91.054200 442161327.000000
119.085500 295432177.500000
150.127600 149053951.000000

>ms2
51.023000 646052.400000
58.065200 1519354.800000
65.038500 1352380.800000
89.038300 666920.300000
90.046300 547295.000000
91.054200 428579321.000000
119.085500 284169641.600000
150.127600 141369244.400000

>ms2
58.065200 1856850.500000
65.038500 1860071.200000
91.054200 737279687.900000
119.085500 163844782.300000
150.127600 30616433.800000

>ms2
58.065200 1436553.300000
65.038400 3389132.600000
91.054200 821852488.400000
119.085500 67655228.600000
150.127600 7902484.900000

>ms2
58.065200 1682957.800000
65.038500 6062134.200000
91.054200 809350223.400000
119.085500 13457038.300000

>ms2
58.065200 1237639.700000
65.038500 15195541.000000
79.054300 1100248.500000
91.054200 816696854.600000
119.085400 2625897.000000

