>compound EQ76219372
>parentmass 418.0138
>ionization [M+H]+
>formula C14H13Cl2N5O4S
>rt 456.000000
>profile orbitrap
#smiles_iso CC1=C(C(=C(C=C1)Cl)NS(=O)(=O)C2=NN3C(=CC(=NC3=N2)OC)OC)Cl
#smiles_can CC1=C(C(=C(C=C1)Cl)NS(=O)(=O)C2=NN3C(=CC(=NC3=N2)OC)OC)Cl
#inchikey VGHPMIFEKOFHHQ-UHFFFAOYSA-N
#pubchem_id 86422
#mb_accession EQ317201,EQ317202,EQ317203,EQ317204,EQ317205,EQ317206

>ms2peaks
174.994700 22580587.940000
228.031000 2419786.200000
237.949000 2302211.500000
318.074100 579568.800000
354.051900 2258441.400000
418.013800 291823095.500000

>ms2peaks
96.055600 268047.500000
136.050600 412845.600000
139.050200 351645.900000
140.026000 1270732.800000
151.061500 525097.200000
157.060700 288561.600000
164.033000 291116.000000
165.040600 292385.300000
173.987400 13054059.000000
174.995000 219995250.400000
179.056200 1570124.100000
180.040000 276645.000000
180.063900 1098953.000000
181.071800 1439879.200000
189.982100 17251571.600000
190.989700 1414708.500000
228.031200 8433332.400000
229.039200 2145052.500000
237.949100 6792694.600000
240.008900 1312755.100000
261.028900 2182413.900000
283.106200 363585.300000
284.113800 507608.900000
303.051600 688795.400000
304.059600 1002985.900000
318.075200 3415474.800000
319.083200 3996680.700000
322.025900 1281914.000000
354.051900 10743599.600000
418.013900 24529112.300000

>ms2peaks
82.039900 302577.500000
83.024000 296630.500000
96.055600 1075103.700000
104.049400 267047.500000
136.050600 313604.600000
138.010500 655113.100000
139.018400 513223.600000
139.050400 757556.800000
140.026100 15172413.800000
146.976200 1238778.400000
151.061300 1202775.000000
152.045500 267719.400000
153.053200 305110.000000
156.021000 383288.800000
157.060900 618280.400000
165.040600 1394333.100000
173.987400 11509698.200000
174.995000 235531258.600000
179.056300 3961843.500000
180.032300 390575.500000
180.040300 626728.000000
180.064000 878884.900000
181.072000 1418598.000000
188.998300 246192.400000
189.982100 11500624.300000
190.989600 776060.600000
191.997400 713944.500000
194.048000 328994.400000
198.982600 669567.300000
207.043400 253146.900000
215.001200 341335.900000
224.997800 246561.100000
228.031000 2550548.900000
240.008900 2235788.400000
283.106700 473537.700000
284.114100 1175981.200000
303.051700 256249.100000
304.059700 2471939.600000
318.075400 1505290.600000
319.083100 1199232.800000
322.025700 1351636.200000
354.052500 820179.700000

>ms2peaks
68.997100 264539.300000
70.028800 264118.700000
77.038400 334021.800000
81.044700 308766.200000
82.039900 841498.600000
83.024100 469963.200000
94.003600 955789.100000
95.024000 260285.200000
95.049100 307430.100000
96.055600 1073072.800000
100.039300 298925.200000
104.049400 1361044.100000
105.044700 274553.500000
105.057300 346909.300000
109.039700 696563.500000
112.007500 270340.300000
113.015200 954686.400000
120.044500 190737.400000
123.018700 369191.700000
124.050600 319045.800000
125.034500 329696.900000
126.010500 311290.600000
127.018300 379201.700000
128.026100 255207.200000
129.010200 437567.100000
130.039900 485426.800000
136.038100 352293.700000
137.034800 505935.100000
138.010500 2249397.600000
139.005900 1251473.800000
139.018300 1535353.500000
139.049900 580547.300000
140.026100 76602461.600000
146.976300 2223194.800000
151.061300 912571.900000
152.045200 311847.500000
154.005500 471837.200000
156.020800 334310.100000
157.061100 312506.600000
161.987100 342331.800000
165.040700 1771253.100000
173.987300 11575788.300000
174.995000 168046552.700000
179.056300 4564788.500000
180.032300 826872.400000
180.040300 581779.000000
181.071800 520813.700000
189.982100 6201382.100000
190.989700 293996.700000
194.047800 245980.700000
198.982400 810268.800000
205.027600 271606.100000
207.043300 290948.400000
224.997900 258857.200000
240.008900 900301.600000
243.100200 226797.900000
269.090100 270511.000000
284.114700 485501.900000
304.059600 1571487.500000
318.075300 295738.300000

>ms2peaks
61.979300 350244.300000
67.029100 539746.200000
68.013100 386886.000000
68.024400 500284.300000
68.997100 308576.200000
69.044700 359114.100000
70.028800 579742.700000
75.022800 396253.200000
77.038500 1024575.900000
78.033700 132422.100000
79.054200 267481.700000
81.044700 738158.100000
82.028700 244376.100000
82.040000 1601524.000000
83.024000 656090.600000
90.033800 289151.200000
94.003600 1682806.500000
95.023900 423230.100000
95.049200 1270312.100000
96.055600 832072.900000
98.023600 157612.300000
98.999500 378466.200000
100.039400 138210.700000
102.033900 514037.800000
103.041700 137256.100000
104.049500 6159983.100000
105.044700 693144.900000
105.057300 1788313.500000
109.039700 1456842.600000
110.999500 335818.000000
112.007300 885568.400000
113.015300 5157339.500000
119.036500 142079.000000
120.044300 356752.700000
122.999600 457992.800000
123.018900 519057.900000
124.050500 151122.900000
126.010400 764517.500000
127.018300 976612.000000
127.050300 251496.200000
129.010200 645566.900000
130.040000 960581.400000
137.034500 779985.500000
138.010500 2671509.900000
139.005900 1776926.800000
139.018300 1811337.800000
139.050300 349037.400000
140.026100 131211399.500000
146.976300 2034343.300000
151.061500 344192.300000
152.045300 269224.100000
155.044900 336901.600000
156.020900 399545.400000
161.987400 531793.600000
165.040500 607450.200000
166.029300 265275.900000
173.987200 14426853.400000
174.995000 65836042.400000
179.056400 1963462.200000
180.032300 889305.300000
180.040200 262610.800000
189.982200 1706511.400000
192.032500 266291.400000
198.982400 572729.900000
199.990300 131919.100000
205.027400 510581.800000
207.043600 378179.200000
304.060100 141772.100000

>ms2peaks
61.979300 587030.500000
67.029100 1084844.400000
68.013200 958601.000000
68.024400 968749.200000
68.997200 550664.100000
69.044700 467624.800000
70.028800 1033296.700000
75.022900 1371883.500000
77.038600 2820676.900000
78.033900 324966.400000
78.046500 400397.000000
79.054300 428509.100000
81.044700 1633210.500000
82.028700 545114.700000
82.040000 2975934.700000
83.024000 728160.100000
86.999600 285381.700000
90.033900 639032.600000
93.057400 276280.500000
94.003600 2531875.000000
95.024000 547684.200000
95.049200 4796847.100000
96.044400 741643.400000
96.055700 598010.700000
98.023700 310257.100000
98.999600 681724.700000
102.033800 877746.000000
103.041700 325187.400000
104.049500 18713811.900000
105.044800 3504285.100000
105.057300 6066945.200000
109.039600 1545721.800000
110.999600 572543.400000
112.007500 1753817.200000
113.015300 14101407.200000
114.010500 319635.500000
120.044400 438916.100000
122.999600 1211625.900000
123.018800 277022.200000
126.010500 367244.700000
127.018300 1821720.900000
127.050300 313388.700000
128.026100 150116.800000
129.010200 883870.100000
130.040000 1184790.100000
131.060300 256360.400000
137.034600 431825.600000
138.010600 3554097.600000
139.005900 3084720.700000
139.018400 1823613.100000
140.026200 141494712.700000
146.976200 1183874.000000
147.055000 284566.300000
153.021500 385078.500000
155.045100 267042.600000
157.968600 310399.300000
171.066600 384428.700000
173.987200 18770639.000000
174.995000 22852633.400000
179.056400 795229.400000
189.982100 240633.200000
205.027800 606058.000000

