>compound EQ76998585
>parentmass 160.11210000000003
>ionization [M+H]+
>formula C11H13N
>rt 168.000000
>profile orbitrap
#smiles_iso CN(CC#C)CC1=CC=CC=C1
#smiles_can CN(CC#C)CC1=CC=CC=C1
#inchikey DPWPWRLQFGFJFI-UHFFFAOYSA-N
#pubchem_id 4688
#mb_accession EQ300401,EQ300402,EQ300403,EQ300404,EQ300405,EQ300406

>ms2peaks
51.023000 403694.000000
56.049600 1414108.700000
65.038500 1364089.300000
68.049500 10179920.600000
82.065100 497923.800000
89.038700 442795.200000
91.054300 367568116.500000
117.069900 566954.300000
120.080700 466740.300000
128.062200 1387417.700000
129.069900 13299681.400000
131.085700 3295049.300000
144.080800 540903.500000
145.088600 1999234.400000
160.112100 91767185.700000

>ms2peaks
56.049600 1706402.300000
65.038500 1335882.000000
68.049500 9173638.400000
82.065300 459265.100000
89.038600 418315.900000
91.054200 353568306.500000
117.069800 357126.000000
120.080800 513624.100000
128.062000 1147760.600000
129.069900 13265150.400000
131.085500 3354824.800000
143.085400 379870.300000
144.080800 415552.100000
145.088600 2018224.200000
160.112100 88240072.400000

>ms2peaks
51.022900 512433.900000
56.049500 715570.300000
65.038600 3347931.100000
68.049500 7501797.900000
91.054200 497547280.100000
128.062000 2720022.900000
129.069900 9889156.400000
130.065100 623475.900000
131.085500 2153512.500000
144.080600 1161118.700000
145.088600 1948830.900000
160.112100 14819952.300000

>ms2peaks
56.049600 505639.100000
65.038600 4266264.600000
68.049500 4559254.100000
89.038600 451832.600000
91.054200 439619579.000000
128.062000 3216482.300000
129.069900 5412828.300000
131.085500 1234901.300000
144.080800 892846.600000
145.064800 511994.600000
145.088600 999789.500000
160.112000 3337087.300000

>ms2peaks
63.022800 588840.800000
65.038600 9879843.000000
68.049500 3188328.300000
91.054300 467411866.100000
128.062100 4037386.500000
129.069900 3210832.100000
144.080700 1447247.500000
145.064900 481384.900000
145.088600 593947.400000
155.060300 591389.200000

>ms2peaks
63.022800 824802.200000
65.038600 26197835.600000
68.049500 2108333.700000
91.054300 465403777.200000
128.062100 4165321.400000
129.069800 1313410.700000
130.065100 476201.600000
144.080800 1685265.300000
145.064900 586512.800000
155.060500 528928.200000

