>compound EQ77032837
>parentmass 375.1339
>ionization [M+H]+
>formula C22H18N2O4
>rt 810.000000
>profile orbitrap
#smiles_iso CC1(C(=O)N(C(=O)O1)NC2=CC=CC=C2)C3=CC=C(C=C3)OC4=CC=CC=C4
#smiles_can CC1(C(=O)N(C(=O)O1)NC2=CC=CC=C2)C3=CC=C(C=C3)OC4=CC=CC=C4
#inchikey PCCSBWNGDMYFCW-UHFFFAOYSA-N
#pubchem_id 213032
#mb_accession EQ304901,EQ304902,EQ304903,EQ304904,EQ304905,EQ304906

>ms2
89.070800 1738.800000
92.049300 3104.300000
93.057300 7742.400000
107.060400 14238.700000
146.060300 1483.900000
161.070900 4978.000000
193.089000 2052.200000
195.080500 18498.900000
197.095700 2831.400000
210.115100 1557.800000
237.102300 14019.700000
238.085700 5073.900000
238.110000 18601.400000
239.094200 12993.400000
286.123000 10836.400000
303.149600 7996.600000
331.144100 93854.100000

>ms2
89.070900 2956.700000
92.049400 29506.400000
93.057200 20904.500000
107.060400 29678.100000
133.076000 2954.600000
145.052000 1752.100000
146.060000 13429.600000
161.070700 3959.400000
169.088400 1613.400000
193.088900 7619.200000
195.080500 43966.900000
197.095500 1688.500000
209.107500 1768.500000
210.114800 1045.300000
224.070100 2859.100000
237.102200 3049.600000
238.086500 5370.400000
238.109900 10852.000000
239.094200 14962.600000
286.122900 5721.000000
303.149400 6842.000000
331.143900 1252.600000

>ms2
65.038600 8077.900000
72.044400 1063.600000
89.070900 1102.700000
91.054300 1009.800000
92.049500 41169.500000
93.057300 33429.600000
95.048900 788.000000
102.046400 881.600000
107.060400 24195.900000
133.075700 4032.000000
145.052000 1668.300000
146.060100 14982.200000
152.061600 864.100000
161.070800 996.500000
165.070000 1490.500000
167.085600 1204.000000
168.080700 818.100000
169.088500 1759.100000
193.088400 7124.700000
195.080500 43574.800000
209.107000 3481.700000
210.067300 790.700000
210.114900 1023.500000
224.070500 4828.400000
237.102700 1127.900000
238.085800 3551.700000
286.122700 1473.700000
303.149000 1706.100000

>ms2
65.038600 17430.300000
72.044300 828.600000
79.054000 848.200000
89.038500 1775.500000
91.054200 760.500000
92.049500 48564.500000
93.057300 30160.200000
95.049000 3316.900000
102.046500 1804.800000
107.060400 17728.900000
111.044000 2912.800000
117.057300 1744.500000
133.076000 2862.400000
146.060000 14543.500000
152.062100 4104.500000
165.069700 2934.100000
167.085400 4688.600000
168.080800 1096.100000
169.088400 1114.700000
192.080300 1100.000000
193.088700 6744.800000
195.080500 30686.700000
209.107400 1436.300000
210.067700 870.500000
210.115400 1004.800000
224.070400 3054.300000
238.086800 1323.000000
286.123900 844.300000

>ms2
65.038600 33332.700000
66.046400 789.900000
72.044400 898.600000
77.038500 808.900000
80.049500 1093.400000
89.038600 6107.600000
91.054300 1274.200000
92.049400 37454.100000
93.057200 37635.000000
95.049000 7664.800000
102.046300 4550.300000
105.044700 993.000000
107.060400 12124.700000
111.044000 3372.400000
117.033400 1192.700000
117.057200 1369.600000
119.049200 1488.100000
128.049500 2172.800000
141.069900 1420.300000
146.060200 8128.000000
152.062100 5228.000000
165.069700 5275.600000
166.077900 979.900000
167.072500 1112.900000
167.085200 1412.900000
168.080300 1198.100000
192.080600 1308.300000
193.088400 3342.700000
195.080500 12773.700000
210.115100 1162.000000
224.070500 1441.100000

>ms2
65.038600 41866.900000
66.046400 1271.200000
72.044300 843.800000
77.038500 825.200000
79.054100 1005.300000
80.049500 839.900000
89.038500 5112.600000
91.054200 5069.100000
92.049400 26455.800000
93.057200 37151.400000
95.049100 12244.200000
102.046400 6224.100000
105.044700 1632.300000
107.060400 5564.300000
111.043900 1477.300000
117.033300 1029.300000
117.057100 1447.300000
119.048900 2838.200000
128.049300 3396.400000
141.069700 903.500000
146.060300 2914.400000
152.062000 8109.700000
165.069900 6286.100000
166.077800 1031.700000
167.073100 1550.900000
167.085800 1167.100000
192.080300 990.000000
193.088500 2653.300000
195.081000 1695.300000

