>compound EQ77434345
>parentmass 342.1467
>ionization [M+H]+
>formula C17H24ClNO4
>rt 690.000000
>profile orbitrap
#smiles_iso CC/C(=N\OC/C=C/Cl)/C1=C(CC(CC1=O)C2CCOCC2)O
#smiles_can CCC(=NOCC=CCl)C1=C(CC(CC1=O)C2CCOCC2)O
#inchikey IOYNQIMAUDJVEI-BMVIKAAMSA-N
#pubchem_id 135585373
#mb_accession EQ317801,EQ317802,EQ317803,EQ317804,EQ317805,EQ317806

>ms2
67.054200 195977.500000
74.999500 1111096.600000
83.049100 869342.000000
85.064700 960906.400000
93.069900 409933.600000
95.049100 390575.500000
96.044200 856087.900000
98.059900 1242970.600000
107.085600 397660.000000
109.064800 217991.700000
110.060000 787794.200000
117.069700 372326.200000
119.085500 409171.500000
121.064700 981317.400000
123.044000 196896.500000
123.080400 231736.900000
126.055000 562075.300000
131.085500 215908.700000
135.080300 417267.300000
137.059700 219224.700000
138.054900 202397.300000
140.070600 401907.600000
143.085400 208613.400000
145.101400 210284.900000
148.075800 399909.000000
149.059700 776173.400000
159.080400 401121.100000
161.059800 400017.000000
161.096100 549002.300000
163.111700 194362.400000
164.070400 1901967.100000
166.086200 11666221.500000
173.096000 434837.300000
187.075300 531351.400000
187.111800 1127973.200000
188.107100 573044.300000
189.091100 904362.000000
190.122800 571370.100000
191.106900 410317.800000
194.117800 362872.900000
202.122900 392372.900000
204.138600 1162536.600000
206.117900 369828.600000
208.133300 1385787.800000
210.148900 382316.400000
214.122700 613145.900000
215.106700 1808139.800000
222.148900 9057126.100000
224.128100 396429.000000
224.164600 551356.900000
232.133300 2972842.400000
233.117300 2522000.900000
234.148800 373762.600000
250.143800 180534497.300000
251.151600 32325744.200000
252.159300 29785426.300000
288.159600 1011326.600000
306.170300 1447143.200000
342.146700 190271781.700000

>ms2
56.049500 133402.100000
57.033700 121591.800000
58.065300 600659.300000
67.054300 2459910.500000
68.049500 172271.900000
69.033400 175419.800000
69.070000 295248.700000
70.065200 1277418.100000
71.049200 132090.400000
71.073000 208628.600000
72.044400 1411012.600000
72.080700 963831.400000
74.999600 3850401.000000
77.038400 177138.300000
79.054300 1553431.900000
80.049400 180205.200000
81.033500 185741.800000
81.069900 1473916.800000
82.065100 1008420.400000
83.049100 6638669.400000
84.044400 509271.900000
84.080700 170488.500000
85.064800 1369867.900000
86.060100 112609.800000
91.054200 1778153.000000
93.069900 5323760.700000
94.065100 2030643.300000
95.049100 2431168.300000
95.085500 1180283.900000
96.044400 9429205.500000
96.080800 846689.200000
97.064800 1250699.400000
98.060000 9085259.600000
99.044000 120040.100000
100.075600 134966.600000
103.054100 170327.700000
105.069900 2280273.000000
106.065100 223443.800000
107.049100 810449.700000
107.085600 3591558.600000
108.044400 232790.000000
108.080700 1120897.200000
109.064800 2083249.300000
109.101100 440766.800000
110.060100 7582974.800000
111.043900 774468.600000
111.068000 917562.300000
111.080500 680461.500000
112.075700 1623019.700000
113.083600 1584923.900000
114.091400 561504.400000
115.053800 151921.100000
117.069900 1982310.900000
118.065500 114882.700000
119.049100 461205.500000
119.085600 2309872.100000
120.080700 778331.100000
121.064800 5369177.300000
121.101000 617881.600000
122.060000 1954949.000000
122.096400 439776.800000
123.043900 653878.900000
123.080500 1429038.900000
124.039300 1404311.700000
124.075800 811978.300000
126.054900 1976628.700000
129.069800 925945.500000
131.085500 2386357.100000
132.080800 848824.500000
133.064800 1223554.300000
133.101200 1635746.700000
134.060000 582107.200000
134.096300 433889.400000
135.080400 2708277.200000
135.116800 245218.300000
136.075700 5468135.100000
137.059700 1715724.900000
137.083400 446525.800000
137.096200 212079.500000
138.055000 2506220.700000
138.067400 375540.600000
138.091300 6299438.800000
139.062800 1671881.200000
139.075300 2284066.700000
140.070600 2664588.300000
141.069800 413419.300000
142.050100 206116.100000
143.085500 1659662.100000
144.080900 585607.600000
145.064800 723936.800000
145.101200 3231617.400000
146.059900 718432.100000
146.096500 877172.900000
147.044200 689299.400000
147.067900 424219.000000
147.080500 2394309.400000
147.116900 711627.600000
148.075600 3512663.600000
148.112100 526994.900000
149.059700 2121198.100000
149.083300 138747.600000
149.096300 929563.900000
150.054700 155260.000000
150.091300 1125498.900000
151.075200 413812.500000
152.070700 1727330.100000
153.078400 202443.300000
154.077600 115842.700000
155.085800 175523.100000
156.065600 172052.900000
157.101000 450901.100000
158.072900 100638.400000
158.096300 795189.400000
159.080500 1326569.000000
159.116900 2270583.300000
160.075800 1179818.800000
160.112100 2242113.700000
161.059800 945984.100000
161.096100 2975865.800000
162.055100 377317.600000
162.091300 1427648.800000
162.127600 723801.200000
163.062700 196529.600000
163.075400 746494.900000
163.111700 1389782.700000
164.070600 15372679.100000
164.107000 797748.400000
165.078500 646972.600000
165.091000 1710735.200000
166.086200 77548896.600000
167.093800 763680.800000
169.101000 1234728.200000
170.096500 214619.000000
171.080400 666400.500000
171.104500 120831.000000
171.116600 144852.000000
172.075600 112078.500000
172.111900 894425.300000
173.083800 128157.100000
173.096000 1910257.400000
174.091300 663339.800000
174.127700 466242.700000
175.075200 428316.800000
175.099000 146578.400000
175.111700 817733.200000
176.071000 240618.700000
176.107000 1673884.600000
176.143300 221723.600000
177.091100 747280.600000
177.127300 1015638.800000
178.086300 393379.300000
178.122600 1294710.200000
179.106600 421689.200000
180.138400 943536.500000
181.086300 552231.900000
186.091300 707826.800000
186.127800 1006431.600000
187.075500 429099.200000
187.111700 3355405.400000
188.107000 3366681.400000
189.091200 1146584.100000
189.115000 409799.800000
190.086400 164397.200000
190.122800 2752242.900000
191.106700 1632016.200000
192.102000 385808.700000
192.138100 975344.200000
194.118000 928239.900000
194.153700 375044.900000
202.122800 1005555.100000
204.102300 1445008.400000
204.138500 5977842.200000
205.086000 479711.400000
205.122500 4882219.000000
206.117700 1194215.900000
206.154300 186001.600000
208.133400 6259209.900000
210.148800 1886415.500000
214.122700 1655924.800000
215.106700 1526607.700000
220.133100 547429.700000
222.148900 31552910.300000
223.156900 1017018.900000
224.127900 701129.000000
224.164600 1784749.600000
232.133300 4803364.400000
233.117300 1204898.500000
234.148900 2260192.900000
235.132900 1584941.402000
250.143900 84213379.600000
251.151700 11179426.500000
252.159400 11126049.500000
288.159400 962746.700000
306.170100 363028.800000
342.146900 2534453.000000

>ms2
55.054400 122717.000000
56.049700 174342.300000
57.033700 151084.800000
57.070000 158267.200000
58.065400 613627.600000
65.038700 524268.900000
67.054300 4866979.900000
68.049500 787566.200000
69.033500 1128476.300000
69.069900 1535914.900000
70.065200 1835416.500000
71.049100 375718.300000
71.073000 604679.300000
72.044400 1499693.800000
72.080800 836380.700000
74.999600 6306111.000000
77.038400 733920.600000
79.054200 5609876.100000
80.049500 145804.000000
81.033500 786047.600000
81.069900 5428219.500000
82.065100 2041921.500000
83.049200 14088216.000000
84.044300 1056678.700000
84.080800 758518.000000
85.064700 969899.400000
86.060100 104965.300000
91.054200 7353799.800000
93.069900 12940360.100000
94.065200 4305744.200000
95.049200 4528292.500000
95.085600 2048240.300000
96.044400 17069093.000000
96.080800 1121680.100000
97.052200 511986.600000
97.064800 1589752.400000
97.088600 117718.200000
98.060100 23757687.300000
99.044100 384067.300000
100.075700 168281.700000
103.054300 1337454.600000
105.044900 471864.200000
105.070000 7088052.200000
106.065200 561946.300000
107.049200 1930353.100000
107.085600 5089834.800000
108.044500 890943.800000
108.080800 5174171.600000
109.028400 376394.000000
109.064900 4475387.800000
109.101200 750831.000000
110.060100 12192815.400000
111.044100 2914916.800000
111.067900 2670932.700000
111.080400 1107742.500000
112.075800 1217682.000000
113.083600 2370520.700000
114.091500 1023718.300000
115.054300 450405.600000
116.061800 112795.600000
117.069900 4166187.500000
118.065200 238018.000000
119.049200 901160.400000
119.073000 418977.900000
119.085600 4469013.300000
120.080800 1549310.000000
121.064900 8136505.500000
121.101100 1082615.600000
122.060000 4836745.100000
122.096400 811825.700000
123.044000 714377.600000
123.067700 211144.300000
123.080600 1456169.700000
124.039400 2469808.000000
124.075800 2264882.900000
126.055000 1565606.500000
128.062100 758936.400000
129.069900 1354571.400000
130.065200 232603.600000
130.077700 187438.600000
131.049000 402543.900000
131.073300 219587.600000
131.085700 3787793.100000
132.080800 1512365.500000
133.064800 2431035.400000
133.101200 2301164.900000
134.059900 731464.700000
134.096500 1403416.500000
135.080500 2919257.200000
135.116800 646287.500000
136.075700 14403097.000000
137.059800 2529684.800000
137.083600 1495313.400000
137.096200 222675.700000
138.055000 2815118.400000
138.067400 1094599.800000
138.091400 13805262.100000
139.062800 2889430.500000
139.075400 1665334.800000
140.070600 1993724.900000
141.069800 565365.500000
142.049900 1272233.200000
142.077900 378831.300000
143.073100 134274.100000
143.085600 2438731.500000
144.081000 746328.700000
144.093400 613522.100000
145.064900 1197693.000000
145.089100 243549.300000
145.101300 3149456.600000
146.060200 1106437.900000
146.096600 1477727.900000
147.044100 1892670.200000
147.068100 815534.900000
147.080400 2559905.000000
147.104300 212262.800000
147.116800 451206.400000
148.075800 4574929.900000
148.112200 1187225.400000
149.059800 6470458.300000
149.083500 377846.300000
149.096300 835813.100000
150.054900 213020.300000
150.091400 1941076.000000
150.127700 213651.700000
151.075400 383704.300000
152.070600 1933504.500000
153.078600 219111.800000
154.077500 754518.000000
155.085800 394410.400000
156.065400 513737.100000
157.064500 178448.700000
157.089000 137438.900000
157.101500 734045.800000
158.072100 279000.000000
158.096600 1197901.600000
159.080400 1308343.100000
159.104300 130125.500000
159.116800 1764227.000000
160.075800 1605775.700000
160.112100 2376290.100000
161.059700 1400565.800000
161.083600 592106.500000
161.096200 2449040.100000
162.054800 399929.400000
162.091400 1742686.600000
162.127500 724584.600000
163.062800 526978.200000
163.075500 614226.000000
163.099100 154607.200000
163.111800 927121.700000
164.070600 16075177.000000
164.107100 846191.100000
165.078900 764706.700000
165.091200 1513686.200000
166.086300 70723535.300000
167.094200 1157307.600000
169.101300 975924.500000
170.096500 535278.900000
171.080600 429901.600000
171.104200 570462.000000
171.116800 236541.000000
172.075700 152781.500000
172.111900 705527.100000
173.084000 142749.500000
173.096200 1330680.400000
174.091400 813757.000000
174.127800 517994.800000
175.075600 375261.200000
175.099500 455071.000000
175.111900 528153.300000
176.070900 1140742.200000
176.107000 2325760.200000
176.143300 501173.100000
177.091000 713975.600000
177.127400 509247.200000
178.086200 152462.500000
178.122600 1020770.700000
180.138300 1096601.800000
181.086700 111913.400000
186.091600 516210.300000
186.127800 800437.300000
187.111700 1595113.500000
188.107000 2143378.600000
189.091000 395722.600000
189.114700 226027.400000
190.086000 683763.800000
190.122900 1175292.500000
191.106600 642227.900000
192.101800 708711.600000
192.138300 603781.700000
194.117700 954580.000000
194.153900 428244.500000
198.091000 116431.000000
202.122800 358378.900000
204.102200 1174350.300000
204.138500 2952883.100000
205.122500 1853224.900000
206.117800 454569.700000
206.154200 193176.700000
208.133300 2188757.800000
210.148700 440145.800000
214.122700 242193.700000
220.133600 121449.000000
222.149000 7381178.500000
223.156600 170725.400000
224.128200 429975.500000
224.164700 531660.200000
232.133300 561795.500000
233.117300 116149.100000
234.148900 3605064.400000
250.143900 6783422.000000
252.160400 730249.100000

>ms2
56.049700 598199.800000
57.057500 98243.200000
57.070100 204701.000000
58.065300 588855.500000
65.038600 1127606.400000
66.034000 86705.800000
67.018000 410363.600000
67.041700 807378.200000
67.054300 6719485.100000
68.049500 2595398.300000
68.997200 166775.300000
69.033500 1745176.200000
69.069900 1241386.600000
70.028800 122822.800000
70.065200 1639133.900000
71.012700 106489.300000
71.049100 185889.600000
71.072900 518221.500000
72.044400 1516191.000000
72.080800 722553.600000
74.999600 7220781.200000
77.038600 1362963.900000
79.054200 7689031.700000
80.049500 1095060.000000
80.062000 232526.000000
81.033500 1628734.800000
81.069900 4747985.200000
82.065100 2936317.600000
83.049100 9665922.400000
84.044400 559897.900000
84.080700 631785.900000
85.064900 411475.900000
91.054200 13699017.200000
92.049500 190185.600000
92.062100 180028.200000
93.057200 851667.800000
93.069900 10720921.700000
94.065100 5361951.800000
95.049200 6222151.700000
95.085500 1968818.900000
96.044400 17322753.600000
96.080800 1069839.200000
97.052200 1091228.600000
97.064900 1084985.400000
97.088500 95971.400000
98.060100 33351237.700000
103.054200 3478514.800000
104.049700 132183.400000
105.044700 1428455.000000
105.069900 7816970.000000
106.065200 864629.900000
107.049200 2134887.700000
107.085500 2692752.000000
108.044400 1654983.600000
108.080800 9542238.400000
109.028400 475366.700000
109.064800 3271293.300000
109.088700 608976.500000
109.101100 574610.000000
110.060100 11502916.000000
110.096500 1568108.300000
111.044100 3694069.500000
111.067900 3273646.400000
111.080300 571635.800000
112.075800 845310.200000
113.083500 1343692.100000
114.091300 1411551.500000
115.054200 1327669.400000
116.062100 460961.000000
117.057400 384774.300000
117.069900 3964500.900000
118.065200 987863.500000
118.077600 94842.200000
119.049100 1523869.500000
119.060300 210772.800000
119.073000 733727.000000
119.085600 3308893.300000
120.044700 396990.400000
120.057000 180095.400000
120.080800 1933128.600000
121.064800 13058981.200000
122.060000 4287164.300000
122.096400 716861.500000
123.044000 718826.100000
123.067900 155726.600000
123.080300 824093.500000
124.039300 2657127.500000
124.075600 1969624.200000
126.055000 2571988.300000
128.062100 1417663.100000
129.069900 1969626.200000
130.065400 789709.800000
130.077800 637273.900000
131.049200 484455.200000
131.073000 393185.100000
131.085600 2741075.400000
132.057100 155648.200000
132.080800 1550997.700000
133.064800 1547322.400000
133.088800 149957.100000
133.101300 1162785.500000
134.059900 507925.200000
134.096400 1085250.400000
135.044200 148024.700000
135.068000 125079.600000
135.080400 1114272.200000
135.116800 126702.700000
136.075700 12047155.400000
137.059800 1637275.300000
137.083600 928557.600000
138.055000 1442926.300000
138.091300 10521088.300000
139.062800 1043228.300000
139.075600 199460.000000
140.070600 656580.500000
141.069800 931100.800000
142.049900 3051146.500000
142.065000 161864.300000
142.077700 437165.500000
143.073100 379634.800000
143.085600 1392685.100000
144.057000 158108.200000
144.081000 845226.700000
144.093500 416967.800000
145.064800 990006.000000
145.088800 678146.900000
145.101000 1039640.100000
146.060100 1448059.100000
146.096600 923200.200000
147.044100 1283893.900000
147.067800 901171.400000
147.080500 621706.600000
147.104100 95502.800000
147.117000 165061.200000
148.075700 3417044.100000
148.112100 471815.500000
149.059800 12567145.200000
150.055000 272277.000000
150.091500 990263.300000
150.128100 100682.500000
151.075100 115745.400000
152.070600 1170897.600000
153.069800 165976.400000
154.077900 660679.500000
155.060300 141986.500000
156.081100 89810.800000
157.088600 229892.200000
157.101200 204565.300000
158.072700 222405.100000
158.096500 1208959.900000
159.080200 690688.500000
159.117000 233794.200000
160.075700 1415685.900000
160.112100 981955.300000
161.059600 992788.500000
161.083600 196093.200000
161.096200 1013823.400000
162.091300 1344159.400000
162.127600 123929.600000
163.062900 170261.700000
163.074900 232698.600000
163.099200 125828.700000
163.111700 225506.900000
164.070500 7099798.100000
164.107100 426870.400000
165.090900 149523.400000
166.086200 28349763.400000
167.094000 427890.300000
169.101100 203052.000000
170.096500 400922.800000
171.104500 219515.700000
172.075900 147537.500000
173.083500 173204.800000
173.095900 233951.000000
174.091200 666906.900000
175.099100 195222.700000
176.070800 575107.200000
176.106900 631601.800000
177.091100 183323.500000
178.122800 213004.300000
180.138300 408069.600000
186.127600 135550.800000
187.111900 206461.800000
188.106900 486778.000000
190.086500 194999.900000
190.122100 151797.500000
192.101900 144524.500000
194.117700 394611.000000
198.090900 180311.500000
204.102000 182139.600000
204.138500 394759.700000
206.153900 96946.300000
208.133600 210674.500000
222.148800 621953.100000
234.149100 2216664.700000
250.143800 586523.900000

>ms2
51.023100 81188.900000
55.054500 113250.700000
56.049700 1241861.900000
57.033700 177529.800000
57.057600 203341.700000
58.065300 370904.800000
65.038700 2192756.800000
66.034000 98760.400000
66.046500 353445.000000
67.041700 1591365.900000
67.054300 7171262.200000
68.049500 4653769.100000
69.033500 2000914.400000
69.069900 677997.100000
70.028800 483716.800000
70.065200 1536389.400000
71.012800 203852.000000
71.049300 170177.700000
71.073000 390666.500000
72.044400 1424989.200000
72.080800 666745.300000
74.999600 7456060.600000
77.038600 2502413.300000
78.046500 134974.700000
79.054200 10972285.300000
80.049500 1884613.500000
80.062100 204512.800000
81.033500 2054164.900000
81.057300 437765.300000
81.069900 4845987.900000
82.065200 4875780.800000
83.049200 6068551.300000
84.044400 516584.700000
84.080900 464772.200000
91.054200 19476181.500000
92.049500 172055.500000
92.062000 203146.100000
93.057300 1675804.600000
93.069900 9129763.000000
94.065200 6388744.400000
95.049200 7831116.300000
95.073000 399394.000000
95.085600 1478519.900000
96.044400 14975578.500000
96.080700 1119606.300000
97.052200 1469650.300000
97.064900 563198.100000
98.060100 33866355.600000
100.075700 95285.400000
103.054300 6799048.400000
104.049600 177103.500000
104.062200 113015.800000
105.044800 2877000.600000
105.069900 7837542.700000
106.065200 1357044.700000
107.049200 1827081.300000
107.073000 433816.000000
107.085700 1358008.000000
108.044400 1076157.100000
108.080800 9251250.400000
109.028500 536748.500000
109.052300 361864.200000
109.064900 2439863.500000
109.088600 457835.400000
109.101300 142126.000000
110.060100 8671234.000000
110.096500 2697023.600000
111.044100 2484028.500000
111.067900 2708122.400000
111.080400 145934.600000
112.075800 221593.300000
113.083400 147917.800000
114.091500 955710.400000
115.054300 2515055.600000
116.062000 810266.700000
117.057300 664540.200000
117.069900 2706028.300000
118.065100 1509563.500000
119.049200 1310195.400000
119.060700 194608.900000
119.073000 525074.700000
119.085600 2096791.700000
120.044300 664028.500000
120.057200 149656.000000
120.080800 1484845.000000
121.064800 16439269.500000
122.060100 2909840.600000
122.096500 631538.500000
123.043900 394566.100000
123.068000 104753.900000
123.080500 188247.800000
124.039300 1776909.500000
124.075700 1724227.700000
126.055000 2203947.700000
128.062000 1979689.000000
129.069900 1770842.100000
130.065200 1009678.400000
130.077900 764038.500000
131.049200 602711.100000
131.073000 593995.300000
131.085600 1457047.100000
132.057000 159478.200000
132.080800 1641274.500000
133.052200 362905.900000
133.064900 950728.100000
133.088700 201228.100000
133.101300 195471.900000
134.059900 438330.600000
134.096600 750385.200000
135.044000 96247.100000
135.068300 91768.200000
135.080500 576324.300000
136.075700 6885555.500000
137.059800 762197.400000
137.083400 473026.600000
138.055000 659786.800000
138.091400 6012423.100000
139.063400 111065.300000
140.070600 152572.500000
141.070200 804518.500000
142.050000 2005815.100000
142.065500 131227.500000
142.077900 468735.900000
143.073100 420312.000000
143.085500 419680.900000
144.056800 355878.200000
144.081100 758838.100000
144.093500 147056.800000
145.064800 799350.400000
145.088700 543721.300000
145.101300 189820.600000
146.060200 1057384.300000
146.096500 534995.100000
147.044100 1490387.000000
147.067900 360527.500000
147.080500 431356.500000
147.104100 115956.100000
148.075600 2364200.600000
148.112200 380351.500000
149.059800 8414476.500000
150.091400 464551.200000
152.070700 214984.000000
153.070000 193074.600000
154.077600 223164.900000
155.060200 217415.300000
155.085100 78854.700000
157.064900 338211.300000
157.101600 91737.300000
158.073000 218181.000000
158.096400 651539.900000
159.080400 393458.300000
159.104100 105482.400000
160.075800 829328.700000
160.112000 426706.500000
161.059800 537033.600000
161.083600 392763.300000
161.096100 123576.300000
162.055400 122230.500000
162.091400 581493.800000
163.062600 110775.000000
164.070600 2121895.700000
164.107000 166378.000000
166.086200 6931113.200000
170.096600 192761.300000
172.075400 180537.400000
173.084200 122821.400000
174.091600 558134.800000
176.070900 227250.300000
176.107500 110877.800000
186.091900 167163.300000
188.107000 140341.700000
190.086500 122553.900000
192.138300 98555.600000
194.118100 97724.600000
222.149200 109879.900000
234.149000 743883.600000

>ms2
51.023100 154721.800000
55.054400 148096.200000
56.049700 1357709.300000
57.057400 165038.000000
58.065300 155463.400000
65.038700 4982566.200000
66.033800 469637.800000
66.046500 509720.200000
67.017900 738781.600000
67.041800 2968767.900000
67.054300 7669662.800000
68.049500 7475441.700000
68.997200 491353.900000
69.033500 2389591.400000
69.069900 346125.100000
70.028800 510407.900000
70.065200 1388182.200000
71.049100 105020.300000
71.073000 201410.800000
72.044400 1036753.000000
72.080800 656991.700000
74.999600 8345638.900000
77.038600 4155362.000000
78.046500 600818.800000
79.054200 11656130.000000
80.049500 3048112.400000
80.062000 485004.500000
81.033500 2185638.800000
81.057400 996884.700000
81.069900 3491793.200000
82.065100 5125384.800000
83.049100 3640557.900000
84.044400 514578.900000
84.080800 218972.700000
86.060100 101282.900000
91.054200 23757731.300000
92.049500 764010.600000
92.062100 98218.900000
93.057300 3399627.300000
93.069900 8540610.000000
94.065100 6086606.700000
95.049200 10122967.000000
95.073000 585646.400000
95.085500 671445.600000
96.044400 13259601.700000
96.080900 1088717.500000
97.052300 944165.100000
97.064900 370279.900000
98.060100 28575037.700000
103.054200 10705900.000000
104.049600 210971.000000
104.062100 190581.000000
105.044800 4870103.600000
105.069900 5044374.000000
106.065100 1350762.900000
107.049200 2028817.400000
107.072900 618779.200000
107.085500 621173.300000
108.044400 840410.100000
108.080800 7183868.800000
109.028500 150907.700000
109.052300 489673.900000
109.064900 1343769.000000
110.060100 5661560.400000
110.096400 2348073.100000
111.044000 2365246.000000
111.067900 1362005.600000
112.075500 124340.300000
114.091400 209182.000000
115.054200 3979231.500000
116.062000 1035160.200000
117.057300 1010658.500000
117.069800 2311009.000000
118.065200 1539699.300000
118.077900 127289.900000
119.049300 854804.000000
119.060400 150117.200000
119.073000 416019.600000
119.085700 869086.600000
120.044400 496011.600000
120.080800 1222087.100000
121.064800 12611123.500000
122.060000 1938182.400000
122.096400 194276.100000
123.043900 261889.300000
123.067900 98556.200000
124.039300 994911.300000
124.075600 1281053.600000
126.054900 1074775.800000
128.062100 2438858.100000
129.069800 1638242.700000
130.065200 1118094.600000
130.077800 467205.100000
131.049100 806842.200000
131.073000 528237.400000
131.085500 676790.400000
132.057200 87203.100000
132.080900 1159727.200000
133.052200 368810.300000
133.064800 418603.900000
133.088700 140862.800000
133.101300 98758.600000
134.060000 724665.000000
134.096500 516826.400000
135.044000 182778.200000
135.080300 122994.900000
136.075700 2545300.100000
137.059700 262195.100000
137.083600 207108.700000
138.091400 2295699.000000
141.069600 763432.700000
142.050000 1462690.100000
142.065500 187542.700000
142.078100 111581.700000
143.073000 385751.500000
143.085500 140952.600000
144.056800 177502.200000
144.080700 809620.600000
145.064900 490115.000000
145.088600 186304.700000
146.060200 897947.200000
146.096400 729003.800000
147.044000 1179926.500000
147.067900 209230.800000
147.080600 188032.800000
148.075800 1253356.400000
148.112100 161552.100000
149.059800 3202050.400000
150.055000 144921.200000
150.091500 225703.900000
153.070000 500575.800000
154.078000 170586.000000
155.060600 426991.000000
155.085800 107341.600000
156.080400 259454.300000
158.096400 437580.800000
159.080400 120420.700000
160.075600 886455.400000
161.059700 205038.500000
162.055000 177478.700000
162.091300 410127.900000
164.070300 845351.200000
166.086400 629651.700000
174.091500 174560.200000

