>compound EQ78979563
>parentmass 362.0401
>ionization [M+H]+
>formula C15H11ClF3NO4
>rt 930.000000
>profile orbitrap
#smiles_iso CCOC1=C(C=CC(=C1)OC2=C(C=C(C=C2)C(F)(F)F)Cl)[N+](=O)[O-]
#smiles_can CCOC1=C(C=CC(=C1)OC2=C(C=C(C=C2)C(F)(F)F)Cl)[N+](=O)[O-]
#inchikey OQMBBFQZGJFLBU-UHFFFAOYSA-N
#pubchem_id 39327
#mb_accession EQ317401,EQ317402,EQ317403,EQ317404,EQ317405,EQ317406

>ms2peaks
194.982000 56492.700000
217.002700 41878.400000
224.007300 49782.200000
230.000300 76750.300000
237.039600 481713.900000
245.993200 46866.400000
252.002000 99720.500000
252.026800 46239.200000
253.035200 139993.700000
254.042200 150988.500000
267.997300 37799.200000
272.008500 89764.900000
273.016700 26832.400000
273.987700 1144305.000000
281.029100 44029.200000
281.078600 124562.200000
286.000300 363940.400000
288.002700 63212.900000
288.016400 297282.800000
290.019000 869083.300000
297.987200 393127.500000
300.003000 233831.100000
301.023400 173968.700000
314.002200 65813.200000
315.998300 12555747.300000
316.047000 1382371.100000
317.005600 154859.200000
318.013800 1512276.100000
334.008800 4532864.500000
345.037400 224720.000000
362.040100 25805705.100000

>ms2peaks
67.017900 12289.800000
68.997200 15416.100000
76.018200 14609.700000
79.017800 104513.500000
88.978800 24095.900000
93.020800 206734.000000
94.028700 21878.600000
95.012900 20380.100000
96.008000 19323.900000
120.008100 57785.600000
121.064800 15292.000000
132.018000 18424.800000
140.049400 97299.300000
149.015600 11797.200000
158.040200 24488.400000
164.991200 18583.900000
166.987100 180987.300000
174.010300 37534.100000
175.018400 203427.500000
178.986700 126581.600000
182.033500 21374.600000
187.042800 15757.100000
189.038600 200504.800000
191.013000 11492.000000
193.002400 20454.100000
193.997800 82798.800000
194.981900 392343.100000
197.044600 21544.500000
200.998000 11920.000000
203.013200 1190071.000000
205.003000 16278.700000
205.032900 11554.800000
205.998200 14500.800000
206.041000 22366.100000
206.993100 44062.100000
207.029300 36928.200000
208.036900 331338.300000
209.044800 576847.300000
212.992700 45861.500000
216.025800 13971.000000
217.002700 612012.700000
217.998500 28251.100000
218.041100 16485.100000
219.008200 44472.000000
222.011800 46424.300000
222.976800 233334.500000
224.007500 604126.100000
224.031700 298157.200000
224.991400 39963.400000
225.039600 183838.800000
230.000400 859690.900000
231.996200 45533.400000
232.997600 65993.000000
233.027900 42690.700000
235.024100 41771.100000
236.031900 92757.600000
237.039700 7482108.600000
238.047400 248947.500000
240.002000 67085.400000
240.026300 13603.500000
241.998000 74787.800000
244.013700 92514.700000
244.997400 50918.400000
245.993000 1086034.700000
246.976900 22569.300000
248.010300 127977.300000
249.986300 39286.300000
251.031400 55865.400000
252.002300 1686386.300000
253.034500 933674.400000
253.047100 1058014.800000
254.042500 556288.900000
258.006300 17662.000000
260.008400 116182.100000
267.997000 119040.000000
269.992900 576528.800000
271.000900 45067.800000
272.008500 577403.200000
272.992600 45941.100000
273.016200 185863.300000
273.987700 3643177.800000
279.997400 15401.400000
280.021500 76252.900000
281.030000 101896.200000
281.078500 462653.400000
286.000300 1744721.000000
288.002800 235827.300000
288.016000 955957.700000
290.019000 2562984.300000
297.987800 3205505.100000
298.994400 28195.600000
300.003300 1535234.800000
301.023800 1517643.100000
302.019000 292228.100000
303.026800 180320.200000
310.068800 81300.700000
314.003000 139274.200000
315.998300 4849136.800000
316.047000 408109.300000
317.006300 434819.600000
318.014000 933390.800000
334.008900 683499.200000
345.037700 59753.100000
362.040000 336506.600000

>ms2peaks
53.002400 67262.100000
65.026000 71069.900000
68.994600 48526.000000
68.997100 42901.900000
76.018200 222257.100000
78.033700 12601.800000
79.017800 72609.900000
88.978700 10447.200000
93.020900 689430.700000
93.992200 16583.600000
94.028600 14582.400000
95.012600 22556.400000
95.036400 14903.600000
96.008100 70684.300000
104.013000 17995.500000
107.012800 22135.000000
120.008000 50904.800000
121.064700 38951.500000
124.039200 47721.700000
132.018300 124480.500000
140.049400 831999.400000
149.015300 36647.600000
156.044500 19716.800000
157.025700 10286.400000
158.040000 203181.600000
164.991200 57243.000000
166.986900 586034.600000
168.001200 11557.400000
168.044500 45313.600000
169.025700 15977.800000
169.032300 18411.900000
170.033600 69096.800000
172.031400 81952.700000
174.010400 130740.700000
174.986900 41788.100000
175.018400 209554.100000
176.002300 85767.800000
176.030100 10128.400000
176.991000 131464.100000
177.038900 10508.200000
178.986900 647798.500000
181.025900 19336.600000
182.033800 263779.800000
183.029700 15887.200000
183.041600 36982.900000
184.052000 120513.200000
184.996500 16287.900000
186.029100 42994.000000
186.055200 37975.400000
187.042800 467309.400000
188.030500 18853.800000
189.038400 1125708.200000
190.986900 63537.500000
192.001400 61222.700000
193.002900 52241.000000
194.982000 195532.200000
195.041500 18866.200000
196.037500 102350.700000
196.996700 16683.700000
197.044900 96139.500000
197.058900 23827.300000
198.004000 16884.400000
198.035300 136057.100000
199.036300 13625.100000
200.032300 11550.800000
200.044000 20926.800000
200.997900 138031.200000
202.005700 10639.900000
203.013200 2221194.900000
203.982400 9430.900000
204.021500 116697.400000
205.002700 16106.500000
205.034000 40945.800000
205.998300 23138.800000
206.041600 126862.200000
206.993200 55380.900000
207.012300 40229.400000
207.029200 251644.800000
208.037000 401527.000000
209.044800 491864.800000
210.016500 76674.200000
210.028700 514373.400000
211.023700 44343.900000
212.031600 17750.300000
212.992300 59267.500000
216.025700 74566.500000
216.037100 44248.300000
217.002700 845754.200000
217.033100 112288.600000
217.998300 127188.800000
218.041400 458194.900000
219.008000 41113.300000
219.032400 15621.200000
220.981300 60355.900000
221.993000 47568.600000
222.011700 119306.600000
222.976900 1003980.800000
223.036500 301483.000000
224.007400 429575.400000
224.031700 226296.000000
224.991300 131404.400000
225.039700 385424.900000
225.051900 40370.900000
225.986600 46056.200000
229.034400 18955.700000
230.000400 384836.600000
230.010800 121344.700000
232.997600 139889.600000
233.028400 37319.200000
233.040700 99289.800000
235.024000 396254.700000
236.031700 286185.500000
237.039600 9348427.500000
238.047500 497584.600000
240.002400 59559.600000
241.997800 284079.100000
244.014100 40178.500000
244.997600 46316.400000
245.992900 1860639.500000
246.976800 12865.700000
248.010400 84049.900000
249.051900 21856.700000
249.986600 164266.800000
251.031200 190545.400000
252.002300 1683970.300000
253.034500 431345.800000
253.047100 1852385.800000
254.042400 194669.300000
256.997700 13809.000000
258.005600 56687.000000
260.008300 58940.100000
263.042300 37309.300000
266.054800 69499.400000
269.992900 713680.200000
271.000800 126137.100000
272.008500 227548.300000
272.992500 79953.100000
273.987700 564518.800000
274.023900 340056.700000
279.997000 47345.400000
281.030100 20180.500000
281.078600 44959.400000
282.036800 68634.800000
284.992800 42565.000000
286.000300 926421.900000
288.017200 116507.600000
290.019000 210089.900000
297.987800 1128221.600000
298.995500 38654.900000
300.003300 1346764.200000
301.023800 1367432.800000
302.019200 69804.500000
303.026600 46885.300000
310.069200 16855.100000
314.003000 42890.100000
315.997700 81496.000000
317.006000 137727.100000
318.013700 58792.200000

>ms2peaks
53.002400 78916.300000
64.018300 17053.000000
65.026100 210866.300000
65.038600 36409.900000
67.017800 11746.700000
67.041700 12113.400000
68.013200 11719.100000
68.994700 52506.300000
68.997100 59111.400000
75.010400 10530.200000
76.018200 500320.900000
77.026100 16885.900000
78.033900 38575.400000
78.046400 64527.200000
79.017800 94463.100000
80.012800 10094.500000
88.978800 11159.100000
89.038500 9018.700000
93.020900 612802.700000
93.992400 21370.800000
94.028800 13485.900000
95.036600 39031.500000
96.008000 54936.500000
96.044500 11862.800000
104.013000 14238.900000
107.012900 115394.400000
113.038600 13949.100000
120.007900 21979.900000
124.039300 101326.600000
128.049400 39885.900000
131.010300 11299.700000
132.018100 461829.700000
136.031700 15312.800000
140.049400 2515391.100000
144.018100 50187.800000
144.037000 60822.300000
146.980900 10815.200000
148.007300 57820.700000
149.015200 45834.400000
151.035800 11781.600000
152.002400 68247.600000
156.018100 60626.800000
156.044200 49162.800000
156.996400 15517.300000
157.025600 19147.700000
157.051900 13447.100000
158.033800 53548.900000
158.039900 463896.000000
158.980800 14591.700000
159.047800 21902.100000
160.013200 18569.700000
160.031900 10939.300000
161.020100 20956.300000
162.027500 128941.100000
162.994400 11504.000000
163.023200 11985.800000
164.043400 10558.200000
164.991500 97376.400000
166.987000 719397.100000
167.005700 92679.700000
168.001000 71372.900000
168.024200 13230.600000
168.044400 190656.000000
169.025700 62692.700000
169.032200 98593.200000
170.033700 216672.300000
172.031700 192628.100000
174.010400 256352.000000
174.975600 11243.400000
174.986900 219912.300000
175.018400 114863.800000
176.002200 457655.100000
176.030600 83154.200000
176.991200 266798.100000
176.998800 15591.600000
177.038400 51598.200000
177.051000 55381.600000
178.986900 1178541.400000
180.013100 17199.000000
181.026000 73763.600000
182.022000 94197.100000
182.033700 963837.300000
183.041600 59829.600000
184.052000 452443.500000
184.996400 56119.700000
186.028600 220099.500000
186.035500 18426.600000
186.055100 89612.900000
187.042800 1162691.900000
188.030600 92457.000000
189.038400 1879787.900000
190.046500 68465.900000
190.986800 93018.300000
191.013000 19896.900000
191.030100 13199.300000
192.001200 145961.700000
193.003000 69119.600000
193.998700 9739.600000
194.982200 91820.100000
195.041800 123497.736600
195.989700 17428.300000
196.996500 16619.800000
197.020700 39760.000000
197.044700 136155.800000
197.059100 55575.500000
197.991600 40304.200000
198.004100 21292.300000
198.035100 280371.600000
199.036500 15240.600000
200.044300 49125.900000
200.997800 198709.200000
201.985900 13729.500000
203.013200 1494081.700000
203.982900 67452.900000
203.994000 109299.900000
204.021600 189439.000000
205.002500 52368.900000
205.033600 80724.200000
205.998300 16408.400000
206.020800 51823.500000
206.041500 120127.000000
207.012400 60567.300000
207.029100 606386.700000
208.036900 280743.200000
209.044700 291865.800000
209.057200 47701.500000
210.016800 148750.900000
210.028700 2045118.300000
211.012100 18234.100000
211.024000 56511.800000
211.060300 58254.400000
212.032400 13452.400000
212.992400 70045.500000
214.987300 12613.200000
216.025600 164504.900000
216.037100 47306.200000
217.002800 456614.300000
217.033400 143706.900000
217.998300 138862.600000
218.041300 1262472.000000
219.008100 16195.100000
220.981300 53823.300000
221.992700 41615.500000
222.011800 71160.600000
222.976900 1108045.500000
223.036500 655844.200000
224.007600 134462.000000
224.031700 88280.600000
224.991300 347298.000000
225.028500 21179.900000
225.039600 315841.100000
225.052100 137045.800000
229.002800 38654.600000
229.035000 16937.300000
230.010700 170240.800000
231.996100 66244.300000
232.998000 106064.500000
233.040800 386174.900000
234.016200 15477.300000
235.024000 442679.300000
236.031800 511808.100000
237.039600 3807670.000000
238.047300 443130.500000
238.059800 84366.300000
239.054800 13621.500000
239.979900 13992.200000
240.002000 35432.600000
240.026500 11065.600000
241.997700 196305.800000
245.992900 703278.600000
249.023500 45603.100000
249.052100 60452.700000
249.986700 165811.700000
251.031200 94359.400000
252.002300 581750.600000
252.027200 85487.700000
252.039000 35716.600000
253.034500 96907.000000
253.046900 711618.500000
254.042100 90751.300000
256.997300 14327.300000
258.005100 18256.500000
260.008400 18453.700000
263.042800 96137.900000
265.047100 169376.400000
266.055000 45491.500000
267.997000 16258.900000
269.993100 125800.500000
271.000600 84024.900000
272.008600 43246.100000
272.992200 51888.300000
274.024000 202624.200000
279.997000 35152.500000
282.037500 63129.900000
284.992500 85935.800000
286.000300 177419.200000
288.002900 12982.100000
297.987900 128636.000000
300.003400 685380.700000
301.023800 659433.500000

>ms2peaks
53.002400 93956.300000
57.013700 9281.400000
63.023000 22819.200000
64.018300 50221.500000
65.026100 301225.800000
65.038700 61232.500000
67.017900 13248.900000
67.041700 20607.200000
68.013200 22344.300000
68.994700 75193.900000
68.997100 88932.700000
72.983900 10623.300000
76.018200 619526.200000
77.026000 13620.500000
77.038500 39544.500000
78.033900 40134.300000
78.046400 201654.700000
79.017800 169087.400000
80.013300 13839.300000
81.013500 78126.200000
84.965100 11735.500000
89.038600 21686.500000
91.054200 14013.000000
93.020900 415040.400000
93.992400 13232.300000
94.028800 14683.300000
95.036600 51217.100000
95.049200 14871.800000
96.008000 43017.100000
96.044400 49093.000000
96.984100 17954.100000
99.004200 12451.400000
104.013100 40722.700000
105.044800 14297.100000
107.012800 123575.000000
108.036900 39996.900000
108.983900 14564.900000
113.019700 15876.200000
113.038600 255050.800000
116.990100 14329.800000
120.037100 20419.100000
124.007400 39758.700000
124.039400 68601.300000
126.046500 12345.800000
127.041600 21179.500000
128.049600 107332.100000
128.062100 56394.300000
131.010400 43187.700000
131.029200 12945.100000
132.018100 892108.800000
132.036900 100979.500000
133.044800 18244.000000
136.007400 40238.500000
136.031900 76789.600000
138.027700 51438.400000
138.033800 64415.600000
139.041600 59688.600000
139.054700 14181.200000
140.049400 3512714.700000
141.014300 46604.000000
141.057000 44297.700000
141.069800 55679.800000
143.005700 33382.500000
143.036800 11008.500000
144.018200 210596.200000
144.036800 94377.900000
145.025800 14863.600000
146.980800 48151.300000
146.999800 36698.300000
147.047700 40820.100000
148.007500 152947.500000
148.018100 46065.200000
149.015000 30662.300000
151.035400 100762.400000
152.002300 118261.400000
156.018200 230428.200000
156.024300 22195.400000
156.044300 69467.500000
156.996300 63892.800000
157.025900 19207.000000
157.032200 14661.500000
157.052200 87455.800000
158.033600 125309.700000
158.040000 541958.700000
158.980800 63788.800000
159.016500 80415.400000
159.047700 41369.500000
160.031900 126093.400000
161.019800 108012.100000
161.026700 18568.000000
162.027600 519145.000000
162.994900 22604.400000
163.023200 91533.200000
164.043000 9279.300000
164.990900 86213.100000
166.987000 536123.500000
167.005800 175062.700000
168.001300 72136.100000
168.024500 97815.300000
168.044400 205090.000000
168.056700 16124.400000
169.025800 252822.400000
169.032300 191785.500000
169.051900 74975.900000
170.033700 249160.800000
170.040900 14976.900000
172.031500 118460.100000
173.051100 15460.600000
174.010300 205835.400000
174.975400 22925.900000
174.986800 284330.500000
175.018700 67376.700000
175.035100 44581.700000
175.042300 14300.300000
176.002000 602419.900000
176.030600 113164.200000
176.991300 260618.800000
176.998800 17000.600000
177.038800 21239.300000
177.051100 157121.700000
178.986900 1327087.900000
180.013000 49494.300000
181.025800 92836.900000
182.022100 150521.000000
182.033700 2026705.300000
183.029200 120137.500000
183.041600 152863.300000
184.051900 644624.700000
184.996500 102907.200000
185.020300 11688.700000
186.015800 25099.000000
186.028500 278092.400000
186.054600 92754.300000
187.042800 995582.700000
188.030500 82800.000000
188.050700 66247.800000
189.038400 1869454.100000
190.046300 158198.500000
190.987000 113375.200000
191.012600 12249.200000
191.041100 70687.500000
192.001200 185573.400000
193.002800 46640.100000
193.974100 49424.100000
194.033700 11136.400000
194.982300 67418.900000
195.041600 359279.800000
195.989600 37761.600000
196.037500 127490.600000
196.049600 39521.700000
197.020800 45597.100000
197.045100 100968.900000
197.059100 53338.700000
197.991900 15645.700000
198.004500 13232.600000
198.035200 210174.700000
200.044500 62150.300000
200.998200 114314.400000
201.986000 11783.300000
202.005600 53275.300000
203.013200 517243.800000
203.982900 48828.900000
203.994900 203714.800000
204.021400 106804.769400
205.001900 16967.600000
205.033600 52036.700000
205.046000 20777.300000
206.020700 57403.000000
206.041300 109123.000000
207.029200 572133.600000
207.041400 91066.600000
208.037000 244725.688000
209.021000 60090.800000
209.044700 126266.000000
209.057400 42263.400000
210.028700 1873408.400000
211.011900 44203.600000
211.023500 21262.000000
211.060300 84555.500000
212.032400 11606.100000
212.992300 12364.300000
214.987200 45482.700000
215.994700 16747.800000
216.025600 206620.400000
217.002600 192968.500000
217.033400 43927.100000
217.045700 18643.600000
218.041300 1386264.400000
219.032900 19877.500000
220.981200 61297.200000
221.993000 15832.900000
222.976900 624835.300000
223.036600 398828.800000
223.047300 41821.000000
224.031400 39369.600000
224.991300 295238.500000
225.028700 21923.100000
225.039600 91032.700000
225.052100 131316.100000
225.986400 38848.600000
229.002900 59430.500000
230.010000 66657.500000
231.996200 20432.300000
232.997900 41842.600000
233.040900 362457.000000
234.015700 16251.600000
235.024100 169317.200000
236.031900 486183.200000
237.039800 651526.000000
238.047300 152280.200000
238.060000 78233.400000
239.055100 19132.300000
239.979100 53842.100000
241.997800 60366.600000
243.989600 55001.300000
245.992800 85532.700000
249.023800 19142.700000
249.052100 68209.000000
249.986500 86716.900000
252.002200 132749.700000
254.042600 15948.800000
256.998400 72492.100000
263.043000 35223.300000
265.047100 169658.000000
272.992700 19706.800000
274.024400 38211.100000
282.037400 58236.900000
284.992100 37966.700000
300.003600 139051.100000
301.023500 95830.200000

>ms2peaks
53.002400 97310.500000
57.013700 28578.600000
63.023000 101015.600000
64.018200 78676.300000
65.026100 335746.500000
65.038700 130338.600000
67.017700 10574.500000
67.041600 72920.900000
68.013200 48250.900000
68.994700 131036.000000
68.997100 123030.700000
72.984000 16412.400000
75.010400 85099.300000
76.018200 576216.800000
77.026100 13081.500000
77.038600 35338.100000
78.033800 41147.800000
78.046400 187080.200000
79.017800 186262.900000
80.013000 12960.400000
81.013500 178916.700000
84.965200 11675.800000
89.038500 101592.700000
91.054100 9344.400000
93.020800 243396.700000
95.036500 42384.600000
95.049100 55462.100000
96.008200 21071.600000
96.044400 52802.700000
96.984000 63703.500000
99.004100 21302.400000
104.013100 39107.700000
105.044800 20660.100000
107.012900 75715.100000
108.037100 143774.600000
108.983900 61870.400000
113.019800 58393.500000
113.038600 857398.400000
116.990100 46330.400000
120.037000 59447.300000
124.007500 12483.800000
124.039200 16379.500000
126.046400 54935.100000
127.041700 38819.400000
128.049500 145697.600000
128.062100 183694.900000
131.010400 105162.300000
131.029200 129040.600000
132.018100 1268549.300000
132.036900 365466.200000
133.044700 104078.000000
136.007500 63836.800000
136.031900 236558.700000
138.027600 126474.200000
138.033800 152232.800000
139.041600 93084.500000
139.054000 18665.100000
140.049400 3672933.100000
141.014200 40215.900000
141.057200 64112.000000
141.069700 73475.300000
143.005800 32289.000000
143.010500 182377.264800
143.036500 21942.800000
144.018200 259386.400000
144.037000 130240.200000
145.025900 46165.300000
146.980500 88437.600000
146.999600 47819.600000
147.047900 42669.700000
148.007500 185705.700000
148.018100 99501.700000
151.035400 294998.700000
152.002400 114239.400000
156.018200 303548.000000
156.024400 33923.400000
156.044300 20525.400000
156.996400 109863.495400
157.026100 38667.700000
157.032200 44558.700000
157.052200 136866.200000
158.033800 145558.800000
158.040000 628785.000000
158.980700 101074.400000
159.016400 82332.900000
159.047900 51301.400000
160.012400 14911.600000
160.031900 177943.100000
161.020100 154456.500000
161.026700 21875.900000
162.027600 1108778.400000
162.994900 11797.300000
163.023000 118512.100000
164.043300 38851.600000
164.990800 40103.900000
166.987000 271764.900000
167.005800 196354.400000
168.001200 67570.200000
168.024500 43569.500000
168.044300 114114.100000
168.056500 48316.800000
169.025800 478601.400000
169.032300 231648.200000
169.052100 68658.600000
170.033600 160857.500000
170.040000 24065.700000
172.031500 45471.900000
173.051000 67619.800000
174.010500 176931.500000
174.975700 19224.900000
174.986900 202264.400000
175.035300 188042.700000
175.043100 47600.400000
176.002200 344619.200000
176.030700 129614.000000
176.991200 155605.000000
177.038400 38659.700000
177.051000 197931.500000
178.986900 943666.100000
181.026000 137363.600000
182.033800 2150565.700000
183.029200 70767.800000
183.041500 113412.700000
184.051900 514273.700000
184.996700 129676.300000
185.020500 42349.100000
186.015900 16316.400000
186.028200 190620.500000
186.035500 53006.000000
186.054800 26703.100000
187.042800 513087.200000
188.030600 62642.900000
188.050700 104782.300000
189.038400 1115784.800000
190.046300 115906.700000
190.986800 35240.400000
191.030300 194540.300000
191.041000 101390.200000
192.001300 116212.200000
193.002700 14317.300000
193.973800 75884.000000
194.033500 15810.500000
194.981900 40065.100000
195.041600 360510.100000
196.037900 19520.900000
196.049500 21018.800000
196.995900 11718.900000
197.059800 49014.500000
198.003600 11348.200000
198.035100 63832.200000
200.031100 14880.700000
200.044000 10544.500000
200.997700 19456.000000
202.005500 42210.600000
203.013200 102229.600000
203.982800 33826.800000
203.994900 152570.400000
205.002900 14718.500000
205.045900 41604.000000
206.041600 85043.300000
207.029000 362617.700000
207.041500 92193.400000
208.036900 156439.300000
209.020900 88304.200000
209.044500 17014.200000
209.057400 18682.800000
210.028700 781431.300000
211.012000 63910.000000
211.060800 68952.000000
214.986600 13466.700000
215.994600 19156.000000
216.025600 216181.700000
217.002900 45939.700000
217.046100 60293.800000
218.041300 844219.400000
220.980900 17413.900000
222.976900 262226.400000
223.036600 141854.000000
223.047000 21373.300000
224.032200 16645.500000
224.991200 156891.400000
225.040300 16559.900000
225.052300 48766.000000
229.002700 65480.500000
232.997900 16305.300000
233.040700 173109.100000
234.015700 11769.600000
235.023800 17730.900000
236.031800 245371.900000
237.039900 88271.500000
238.047300 41203.400000
238.059200 17562.900000
239.979800 19228.500000
243.990000 13942.000000
249.052200 47991.700000
252.002000 26800.400000
252.039500 34027.700000
256.997900 15041.900000
265.047300 134567.400000
284.992800 11073.900000
300.004200 11805.200000

