>compound EQ78951105
>parentmass 160.1332
>ionization [M+H]+
>formula C8H17NO2
>rt 204.000000
>profile orbitrap
#smiles_iso CC(C)C[C@@H](CC(=O)O)CN
#smiles_can CC(C)CC(CC(=O)O)CN
#inchikey AYXYPKUFHZROOJ-ZETCQYMHSA-N
#pubchem_id 5486971
#mb_accession EQ312901,EQ312902,EQ312903,EQ312904,EQ312905,EQ312906

>ms2
55.017900 2240553.900000
55.054300 4374343.100000
57.069900 591288.500000
59.049200 751216.100000
67.054300 169723.600000
68.049400 761981.500000
69.033500 574386.200000
69.069800 806622.900000
79.054200 136604.100000
81.069900 170026.900000
83.085500 4910789.700000
97.101300 5278301.000000
107.085500 687030.400000
124.112100 1722957.800000
125.096100 2048616.500000
142.122800 11443325.200000
143.106800 1922392.800000
160.133200 3104592.300000

>ms2
55.017900 1712170.500000
55.054300 4225810.000000
57.069900 264333.700000
59.049200 527938.500000
68.049400 685375.700000
69.033500 674714.900000
69.069800 658633.400000
79.054100 205427.800000
81.069700 184968.000000
83.085500 5881531.500000
97.101200 5570844.200000
107.085500 720147.300000
124.112100 1638695.100000
125.096100 1993654.300000
142.122800 10449321.500000
143.106800 1863303.300000
160.133200 3166919.100000

>ms2
53.038700 870540.000000
55.017900 5570816.400000
55.054300 12684397.400000
57.069900 1287195.700000
59.049200 1539184.900000
67.054200 151653.500000
68.049500 2005409.600000
69.033500 1015031.300000
69.069900 1783302.700000
79.054200 313989.600000
81.069800 283071.800000
82.065100 547853.100000
83.085500 6356069.500000
97.101200 6822735.200000
107.085600 928438.100000
124.112100 2651615.600000
125.096100 1517983.000000
142.122700 4524096.700000
143.106700 234621.100000

>ms2
53.038700 1159366.000000
55.017900 7608892.300000
55.054300 20564273.800000
57.069900 2433907.700000
59.049200 1484615.800000
67.054200 567826.800000
68.049400 2436791.700000
69.033500 1310366.500000
69.069900 2754607.200000
79.054200 723152.600000
81.069800 661453.800000
82.065200 699020.100000
83.085500 5671433.200000
97.101200 4815678.200000
107.085400 903333.100000
124.112100 2382447.200000
125.095900 982953.600000
142.122800 2153650.900000
143.106900 143094.700000

>ms2
53.002300 180123.200000
53.038700 992807.400000
55.017900 9500114.500000
55.054300 24562400.800000
57.069900 2680451.600000
59.049200 2033617.500000
67.054200 265930.200000
68.049400 2631681.600000
69.033500 916708.800000
69.069900 2847903.700000
79.054200 999538.500000
81.069900 533517.900000
82.065100 689915.800000
83.049100 213560.000000
83.085500 3298209.300000
97.101200 1570727.000000
107.085400 226479.200000
124.112000 1207869.300000
142.122800 481322.700000

>ms2
53.002200 252045.800000
53.038600 994628.300000
55.017900 8481781.100000
55.054300 23367765.400000
57.069900 2324006.000000
59.049100 1654663.900000
67.054200 150235.000000
68.049400 1846768.600000
69.033500 485595.000000
69.069800 2301310.500000
79.054100 699972.800000
81.069900 271422.200000
82.065000 507488.800000
83.049000 184200.000000
83.085500 1536123.800000
97.101000 290068.800000
124.112300 177573.900000

