>compound EQ79662983
>parentmass 297.1849
>ionization [M+H]+
>formula C20H24O2
>rt 624.000000
>profile orbitrap
#smiles_iso CC12CCC3C(C1CCC2(C#C)O)CCC4=C3C=CC(=C4)O
#smiles_can CC12CCC3C(C1CCC2(C#C)O)CCC4=C3C=CC(=C4)O
#inchikey BFPYWIDHMRZLRN-UHFFFAOYSA-N
#pubchem_id 3285
#mb_accession EQ306501,EQ306502,EQ306503,EQ306504,EQ306505,EQ306506

>ms2peaks
67.054200 1494.500000
69.069800 1310.900000
79.054200 3747.400000
81.069900 9546.900000
83.049000 874.700000
83.085500 1666.400000
85.064800 5745.500000
91.053900 4808.400000
93.069900 9661.400000
95.049000 975.200000
95.085500 13686.900000
97.064800 2994.000000
97.101100 1336.700000
105.069900 9363.100000
107.049100 131892.800000
107.085500 10011.500000
109.064800 4530.500000
109.101100 13484.700000
111.080500 7344.200000
117.069800 4436.900000
119.049100 956.900000
119.085500 9550.700000
121.064700 24324.900000
121.101200 8587.500000
123.044000 2853.200000
123.080500 5975.200000
123.116400 1438.700000
124.088300 2878.500000
125.091600 776.900000
127.075300 4063.800000
131.049200 1496.000000
131.085600 9079.400000
133.064800 53680.600000
133.101200 30835.900000
135.080200 4718.000000
135.116800 15315.200000
136.088300 1090.800000
137.096300 10289.800000
143.085500 2703.500000
145.064800 12393.300000
145.101200 9315.500000
147.080500 28237.300000
147.116900 9926.900000
149.059800 9710.600000
149.096200 3937.000000
149.132600 12463.300000
151.111800 4252.600000
157.064900 26969.100000
157.101200 2730.400000
159.080500 42760.000000
159.116900 101670.600000
161.096300 7958.500000
161.132400 1608.400000
163.075600 1335.900000
163.111500 3120.800000
169.065000 1239.500000
169.100400 991.800000
171.080400 12929.600000
171.116800 12154.800000
172.124500 1621.000000
173.096200 9186.100000
173.132500 17252.200000
175.111800 3788.300000
175.148200 1252.000000
177.127600 10901.800000
183.080500 19808.300000
185.096200 23436.300000
185.132700 13942.200000
187.111900 11138.100000
189.127500 4701.200000
191.143400 6789.000000
195.080400 4868.900000
197.096200 25623.100000
198.104100 1092.600000
199.111600 12863.100000
201.090700 1510.800000
201.127200 3820.100000
203.106700 1415.900000
203.143100 3902.800000
209.096200 17945.000000
211.111900 12678.300000
213.127500 13587.000000
214.130700 22554.100000
215.106800 15782.700000
223.111700 28204.600000
225.127600 9107.500000
227.143500 4790.000000
229.158200 7734.200000
236.118500 875.800000
237.127400 17888.900000
239.143300 15377.000000
240.146300 3320.300000
251.143100 21744.300000
251.179400 3456.000000
253.159500 5244.500000
261.148600 1207.000000
261.163700 1153.400000
279.174400 160062.400000
297.184800 761599.600000

>ms2peaks
55.017900 1162.800000
55.054300 742.500000
57.070000 921.300000
59.049200 734.000000
65.038500 665.200000
67.054200 12615.800000
69.069900 5093.400000
71.049000 5020.900000
74.096500 684.100000
79.054200 12462.900000
81.069900 33535.900000
83.049200 3663.100000
83.085500 4363.500000
85.064800 4383.300000
91.054200 15171.300000
93.069900 30429.600000
95.049000 4680.200000
95.085500 27181.800000
97.064900 7041.500000
97.101100 5074.100000
99.080600 1383.700000
103.054200 2762.000000
105.070000 28221.300000
107.049200 340868.700000
107.085500 21421.200000
109.064800 9625.600000
109.101200 41135.900000
111.080400 8703.100000
115.054000 694.700000
116.062000 866.500000
117.069800 14789.500000
119.049200 2820.700000
119.085500 19975.300000
121.064800 53508.100000
121.101100 11744.200000
123.044000 1119.300000
123.080400 11442.200000
124.088200 1185.500000
125.092000 875.900000
127.075500 5327.500000
128.061900 766.900000
129.069900 3608.700000
131.049300 3497.100000
131.085600 30425.900000
133.064800 96189.100000
133.101200 40676.100000
135.080400 11612.800000
135.116800 20518.400000
136.088400 1116.500000
137.096200 32493.400000
141.070200 1123.700000
143.085600 8101.800000
144.093400 3955.200000
145.064900 22261.100000
145.101200 17681.400000
146.072900 675.700000
147.080500 33384.300000
147.116800 9791.400000
149.059700 7245.900000
149.096200 8735.200000
149.132600 13001.200000
151.111900 4959.700000
155.085400 752.200000
157.064900 42488.600000
157.101200 5782.100000
159.080500 83095.800000
159.116800 108107.500000
160.088800 1360.300000
161.096900 10583.300000
161.132500 3314.600000
163.075400 2695.200000
163.111800 4418.800000
167.085900 905.800000
169.064600 1512.100000
169.101100 1324.400000
171.080400 19561.400000
171.116800 16458.400000
172.124500 8599.200000
173.096500 15457.100000
173.132400 18792.200000
175.111900 3436.400000
175.148500 935.600000
177.127300 10803.000000
179.085400 2585.000000
181.064500 1572.800000
183.080500 26253.300000
185.096200 25994.100000
185.132400 13862.500000
187.111900 10910.400000
189.127600 8272.600000
191.142900 4460.900000
193.101100 1151.500000
195.080500 8550.300000
197.096100 35198.100000
198.104400 1157.700000
199.111800 12349.700000
201.091000 1646.000000
201.127300 2696.200000
203.106500 1160.300000
203.143100 3881.200000
209.096200 24054.000000
210.104000 3280.400000
211.112000 14916.000000
213.127500 24305.600000
214.130800 36784.300000
215.106600 10217.500000
222.104700 907.800000
223.111800 30235.800000
225.127600 9778.400000
227.143200 9483.700000
229.159500 6872.800000
237.127500 17463.300000
239.143000 11369.200000
240.146100 983.800000
250.135000 3230.200000
251.143200 17514.200000
251.179300 1012.000000
253.158900 5315.500000
261.148500 936.100000
261.163400 887.800000
264.150700 1443.200000
279.174500 66992.700000
297.185000 58165.300000

>ms2peaks
55.018000 796.000000
55.054300 1126.700000
57.070000 1185.700000
59.049300 961.800000
65.038500 2778.900000
67.054200 24330.000000
69.033400 1264.800000
69.069900 8853.500000
71.049100 6717.700000
77.038400 2774.300000
79.054200 35534.900000
81.033500 2625.100000
81.069900 44633.300000
83.049100 2753.500000
83.085500 3792.600000
85.064800 3597.500000
91.054200 44516.700000
93.069900 45982.400000
95.049100 14433.100000
95.085500 30272.500000
97.064900 9580.800000
97.101200 3301.900000
99.080600 1220.100000
103.054200 4891.200000
105.069900 61031.100000
107.049200 465801.700000
107.085500 26861.900000
109.064900 9776.200000
109.101200 64076.800000
111.080600 7581.100000
115.054100 5718.500000
116.061900 1475.400000
117.069900 29002.800000
119.049300 1451.400000
119.085500 27011.600000
121.064800 55878.400000
121.101200 10715.200000
123.043900 1548.900000
123.080400 11540.600000
123.117000 1149.500000
124.088300 817.700000
127.075300 2616.800000
128.062000 3763.900000
129.069900 13986.600000
130.077800 4350.000000
131.049300 6929.700000
131.085600 48750.500000
132.057300 905.800000
133.064800 108238.700000
133.101200 26401.300000
134.068100 3796.800000
135.080600 8053.200000
135.116800 11048.500000
137.096200 32420.900000
141.070000 3696.700000
142.077700 3081.400000
143.085600 14848.900000
144.057100 6236.100000
144.093400 10929.500000
145.064900 28876.600000
145.101200 16316.000000
146.072900 811.700000
147.080500 30787.100000
147.116700 5933.000000
149.059800 1975.600000
149.096200 4346.500000
149.132600 4677.700000
151.111900 1235.500000
153.069400 654.500000
155.085500 2940.100000
156.093600 1539.500000
157.064900 47744.800000
157.101300 12830.900000
158.067800 874.000000
159.080500 82359.100000
159.116900 43525.600000
160.088900 1666.500000
161.096600 11884.500000
161.132600 1257.300000
163.075200 790.500000
163.112000 2840.700000
165.070000 4182.700000
167.085600 1432.900000
169.064700 1468.200000
169.101100 1641.000000
170.072700 1490.200000
171.080500 19331.000000
171.116800 14204.800000
172.124900 5330.000000
173.096400 16178.100000
173.132600 4458.000000
175.111900 3847.500000
177.127300 4397.900000
178.077500 781.400000
179.085600 4593.800000
181.065000 4188.200000
181.101300 3796.700000
182.072900 3888.600000
183.080500 16998.300000
184.088700 1426.600000
185.096300 18486.800000
185.132400 3857.300000
187.112000 4568.300000
189.127500 6810.100000
193.101200 1410.300000
194.072700 3003.800000
195.080600 9723.600000
196.088400 3876.800000
197.096200 17618.300000
199.111800 4959.800000
201.128000 679.800000
203.143600 1282.100000
205.102000 925.200000
208.088500 4598.400000
209.096400 18968.000000
210.104400 1922.400000
211.111900 10688.000000
213.127400 19505.800000
214.130800 34806.400000
215.106700 1096.000000
221.095800 1281.500000
222.103700 2863.900000
223.111900 17082.500000
224.120000 1127.000000
225.127400 4253.600000
227.143000 3066.100000
235.111900 1222.200000
236.120100 1230.600000
237.127700 4766.900000
239.143400 2828.700000
249.127100 759.500000
250.135800 1101.500000
251.143300 4029.800000
251.179800 689.600000
253.158900 873.600000
264.151400 1355.100000
279.174400 7572.900000
297.185300 3107.200000

>ms2peaks
51.022900 527.600000
53.002300 536.800000
53.038600 875.500000
55.017900 1017.900000
55.054300 981.000000
57.069900 1149.000000
65.038600 3331.400000
67.054200 37105.400000
69.069900 6310.700000
71.049100 4986.800000
74.096500 760.200000
77.038600 3899.600000
79.054200 47670.700000
81.033500 4719.000000
81.069900 45377.800000
83.049200 3861.900000
83.085500 3180.100000
85.064800 1656.700000
91.054200 61208.600000
93.069900 46451.600000
95.049100 26401.900000
95.085500 28981.100000
97.064800 6669.800000
97.101200 903.100000
99.080600 875.100000
103.054200 14460.800000
105.044800 4992.700000
105.069900 72550.600000
107.049100 478668.100000
109.064800 10414.300000
109.101200 52062.100000
111.080600 5959.400000
115.054200 9460.400000
116.062300 1541.900000
117.069900 36552.100000
118.077900 635.200000
119.049200 3355.000000
119.085500 23606.200000
121.064800 48592.500000
121.101100 6665.000000
123.044000 740.500000
123.080500 7662.700000
128.062000 5786.300000
129.069800 23798.900000
130.077800 5614.300000
131.049300 8714.700000
131.085600 45809.900000
132.057100 1370.900000
133.064800 97439.800000
133.101200 15839.300000
134.068300 3677.200000
135.080500 7041.900000
135.116900 5178.700000
137.096100 25736.800000
141.070000 6915.200000
142.077800 4595.600000
143.085700 15084.400000
144.057000 11974.900000
144.093500 9048.100000
145.064900 26799.400000
145.101200 11551.500000
146.067900 1397.100000
146.073000 1271.000000
147.080500 26173.600000
147.116800 3760.800000
149.059900 767.300000
149.096300 2568.300000
149.132500 3474.300000
153.070000 4325.500000
154.078000 1080.700000
155.085700 4187.900000
156.093400 2535.200000
157.064900 42080.500000
157.101300 11883.300000
158.068200 3348.300000
158.073000 2909.400000
159.080500 73535.000000
159.116800 17454.800000
160.088400 3544.000000
161.132200 923.600000
163.075500 1114.400000
163.112000 1275.600000
165.069800 5807.000000
166.077800 1562.000000
167.085600 4343.600000
169.064600 2736.500000
169.076200 2861.200000
169.101000 2748.100000
170.072800 1158.900000
171.080500 13993.700000
171.116700 8571.200000
172.083600 2322.200000
172.124700 3629.100000
173.096300 9850.100000
173.132800 1161.700000
177.127600 836.100000
178.077500 1262.000000
179.085800 6315.600000
181.065000 3780.200000
181.101200 3707.600000
182.072700 4667.400000
183.080700 11694.700000
184.088800 996.500000
185.096800 10135.900000
186.099400 820.600000
187.111800 1470.900000
189.127600 5278.000000
191.085900 1888.800000
193.101200 1021.800000
194.072600 4506.000000
195.080500 7254.000000
196.088000 4785.100000
197.096100 12246.800000
198.103700 1262.500000
199.111900 4381.600000
207.080800 891.200000
208.089000 4951.300000
209.096200 12330.900000
210.103500 1388.800000
211.111400 5747.500000
213.127500 10318.700000
214.130800 22287.900000
215.106800 1124.900000
221.096100 858.000000
222.104600 1158.200000
223.111900 7494.000000
224.119900 836.700000
225.042800 5809.400000
225.127800 2691.300000
235.112000 1633.300000
236.119900 1556.300000
237.127100 1398.700000
251.143500 1044.300000
264.151600 859.900000

>ms2peaks
53.002200 573.500000
53.038700 3192.200000
55.017900 1445.900000
55.054300 2807.000000
57.069900 1010.800000
65.038600 7017.000000
67.054200 45438.100000
69.033500 1595.000000
69.069900 6835.700000
71.049100 5199.800000
71.085700 566.000000
77.038500 5872.100000
79.054200 81400.700000
81.033500 5932.900000
81.069900 41776.300000
83.049100 3185.000000
83.085600 1183.000000
91.054200 93817.400000
93.069900 43062.500000
95.049100 56696.100000
95.085500 24141.600000
97.064900 5464.600000
103.054200 22048.700000
105.044800 12610.300000
105.069900 87119.600000
107.049100 473100.500000
109.064700 6407.600000
109.101200 44324.000000
111.080400 3267.700000
115.054200 24853.900000
116.061900 10862.700000
117.069800 30141.100000
118.077500 890.000000
119.049100 1254.800000
119.085500 16973.400000
121.064700 30009.400000
121.101200 3616.300000
123.080500 4089.300000
123.116800 900.800000
128.062000 18067.400000
129.069900 30273.600000
130.077800 7089.900000
131.049300 11350.100000
131.085600 38756.400000
132.057100 3579.000000
133.064800 79235.300000
133.101200 8349.700000
134.068200 3621.200000
135.080500 4985.700000
135.116800 1313.900000
137.096100 8659.200000
141.069800 14152.900000
142.077900 7835.800000
143.085600 14151.900000
144.057100 22254.900000
144.093400 8075.800000
145.064900 26862.300000
145.101200 6004.500000
146.068100 2651.600000
146.073100 1036.000000
147.080400 16784.100000
149.060100 1302.600000
149.096100 1353.800000
152.062300 4162.300000
153.070100 6530.000000
154.077700 2862.300000
155.060600 3330.300000
155.085400 5485.800000
156.093600 3835.100000
157.064900 39376.100000
157.101100 6944.800000
158.073000 3329.600000
159.080500 39150.100000
159.116900 3957.300000
160.089000 1353.200000
161.096500 2344.000000
165.069800 12121.300000
166.077900 3121.100000
167.085800 5844.800000
169.064800 2466.400000
169.076200 3205.000000
169.101200 1281.000000
170.072700 3185.000000
171.080200 8921.200000
171.117300 3092.100000
172.083900 1326.700000
173.096200 5833.700000
175.112000 1093.100000
177.069900 2736.900000
177.127800 808.500000
178.077800 3181.000000
179.085600 6907.100000
181.064700 6116.300000
181.100800 699.900000
182.073100 5665.800000
183.080500 7941.900000
184.089000 864.500000
185.096100 3767.500000
186.099600 937.400000
189.069700 919.700000
189.127400 1623.900000
191.085200 2784.200000
193.101500 1231.800000
194.072800 7236.200000
195.080400 8191.100000
196.088300 2746.600000
197.096700 4720.800000
198.104200 1368.600000
199.107700 852.300000
205.101100 1116.900000
207.080700 3100.500000
208.088500 3178.900000
209.096200 4519.500000
210.104700 960.900000
211.111600 869.500000
213.127400 3747.200000
214.130800 6496.600000
221.096300 2697.900000
222.104800 824.000000
223.027400 3884.200000
223.111800 831.300000
225.043100 8497.800000
235.112000 1504.200000
249.128500 743.100000

>ms2peaks
51.023000 817.500000
53.002300 2922.200000
53.038700 3756.200000
55.017900 1565.100000
55.054300 2693.000000
59.049300 992.600000
65.038600 11051.100000
67.054200 60156.500000
69.033500 1131.100000
69.069900 5533.400000
71.049100 5195.100000
77.038600 10498.200000
79.054200 104897.300000
81.033500 6028.200000
81.069900 35183.600000
83.049100 1217.700000
91.054200 123534.500000
93.069900 32967.000000
95.049100 114409.700000
95.085500 17548.800000
97.064800 3814.200000
103.054200 33786.400000
105.044700 25787.600000
105.069900 89689.100000
107.049100 398478.500000
109.064700 3825.600000
109.101200 21409.500000
111.080300 871.100000
115.054200 40631.200000
116.062000 16059.900000
117.069800 25326.000000
118.077500 1086.400000
119.049200 980.400000
119.085500 16057.100000
121.064700 17236.800000
123.080500 1357.000000
128.062000 28745.900000
129.069900 35466.200000
130.077700 6907.200000
131.049300 14020.300000
131.085500 23115.300000
132.057100 8784.600000
133.064800 46413.600000
133.101300 4142.600000
134.068000 5312.500000
135.080200 856.700000
137.096100 4984.800000
141.069800 19751.600000
142.077800 6745.900000
143.085700 8606.000000
144.057000 27318.900000
144.093600 1647.500000
145.064800 24052.900000
145.101200 1952.700000
146.068100 3105.300000
147.080400 7627.700000
152.062200 6665.900000
153.070000 7512.100000
154.077900 2393.700000
155.060400 4873.100000
155.085500 3764.300000
156.093400 1349.200000
157.064800 31541.800000
157.101300 2734.200000
159.080500 19123.800000
165.070100 15061.900000
166.078000 2640.700000
167.085600 3482.200000
169.064800 2920.300000
169.076300 3665.700000
170.073200 959.100000
171.080700 4696.900000
172.083800 1096.500000
177.069900 1073.600000
178.077800 5087.700000
179.085600 5123.500000
181.064800 11074.600000
182.073300 5465.100000
183.080700 7650.000000
189.070300 1214.100000
191.085600 1533.800000
193.101200 1223.400000
194.072700 5438.400000
195.080900 5152.600000
196.088700 1003.900000
197.096300 1420.200000
199.108000 740.100000
207.080700 1933.100000
208.088200 2677.600000
209.095900 3249.700000
214.130900 903.000000
221.095800 1229.600000
223.027300 4374.100000
225.043100 4077.200000

