>compound EQ79650754
>parentmass 152.107
>ionization [M+H]+
>formula C9H13NO
>rt 162.000000
>profile orbitrap
#smiles_iso C[C@@H]([C@H](C1=CC=CC=C1)O)N
#smiles_can CC(C(C1=CC=CC=C1)O)N
#inchikey DLNKOYKMWOXYQA-IONNQARKSA-N
#pubchem_id 441457
#mb_accession EQ333501,EQ333502,EQ333503,EQ333504,EQ333505,EQ333506

>ms2peaks
56.049500 189493.100000
91.054000 638389.600000
93.069900 222837.600000
106.065200 110750.700000
115.054100 1563071.400000
117.069800 17590788.000000
119.072900 397048.600000
134.096400 103315408.000000
152.106900 366827.800000

>ms2peaks
56.049600 159026.800000
91.054000 684390.300000
93.069700 181315.600000
115.054200 1372485.600000
117.069800 15714162.000000
119.072800 267374.400000
134.096400 94227744.000000
152.106900 412168.900000

>ms2peaks
56.049500 537619.800000
79.054300 100890.400000
91.054100 1524761.100000
93.069800 470562.700000
106.065100 237813.300000
115.054200 6023890.500000
116.062000 106912.500000
117.069800 35747432.000000
119.072900 998495.100000
134.096400 61648248.000000

>ms2peaks
56.049500 746922.400000
65.038600 106414.000000
79.054200 175429.400000
91.054200 5799021.000000
93.057200 91030.700000
93.069800 564910.600000
95.049000 102624.000000
104.049400 107679.800000
105.069900 81046.600000
106.065100 426443.300000
115.054200 19107550.000000
116.061900 494600.400000
117.069800 44934604.000000
118.064900 294439.700000
119.072900 2455256.800000
134.096400 25139458.000000

>ms2peaks
56.049500 693256.900000
65.038500 250292.000000
77.038400 84379.300000
79.054200 208432.100000
89.038300 39360.000000
91.054200 14869086.000000
92.061900 42274.000000
93.057300 42085.600000
93.069800 365205.100000
94.065100 37387.900000
95.049100 174734.800000
104.049500 263195.400000
105.044700 53996.700000
105.069900 156773.000000
106.065100 372809.100000
115.054200 32215632.000000
116.062000 1071631.200000
117.069800 30010674.000000
118.065000 1269832.600000
119.072900 3816293.200000
133.064800 48725.700000
134.096400 6834647.500000
143.060600 45854.900000

>ms2peaks
56.049500 506506.900000
65.038600 642311.200000
77.038500 171256.200000
78.046300 47725.000000
79.054300 366607.700000
89.038400 151947.700000
91.054200 26018758.000000
92.061800 170974.600000
93.057100 91455.000000
93.070000 201691.100000
94.065000 47340.800000
95.049100 389827.800000
104.049500 802965.000000
105.044900 181976.600000
105.069900 159915.000000
106.065100 319136.500000
115.054200 38542148.000000
116.062000 1637671.500000
117.069800 14831012.000000
118.065000 3041765.800000
119.072900 3629447.800000
133.064800 113770.000000
134.096400 1565275.800000

