>compound EQ80461926
>parentmass 369.2384
>ionization [M+H]+
>formula C19H32N2O5
>rt 444.000000
>profile orbitrap
#smiles_iso CCCC(C(=O)OCC)NC(C)C(=O)N1C2CCCCC2CC1C(=O)O
#smiles_can CCCC(C(=O)OCC)NC(C)C(=O)N1C2CCCCC2CC1C(=O)O
#inchikey IPVQLZZIHOAWMC-UHFFFAOYSA-N
#pubchem_id 4169159
#mb_accession EQ302601,EQ302602,EQ302603,EQ302604,EQ302605,EQ302606

>ms2peaks
72.080800 466037.100000
98.096100 1585430.500000
170.117700 13382034.900000
172.133300 58378473.500000
295.202100 12737042.400000
369.238900 335142628.500000

>ms2peaks
56.049600 444762.400000
70.065100 395636.800000
72.080800 9504688.500000
73.064800 373468.000000
74.023800 474586.600000
98.096500 22759976.000000
100.112200 400255.400000
124.112200 1674250.000000
130.086400 328732.600000
144.102100 988138.000000
144.138500 1618592.400000
168.102100 465579.400000
170.117900 43023429.800000
172.133300 261601752.500000
295.202000 28051570.700000
369.238900 17747771.100000

>ms2peaks
54.033800 154122.500000
55.054300 228822.400000
56.049500 2284899.900000
69.070000 975825.000000
70.065100 844138.700000
72.080800 38400570.100000
73.064800 4594852.800000
74.023700 2561435.400000
81.070000 905309.100000
97.101200 226506.900000
98.096500 152431577.300000
100.112200 1090887.400000
107.085800 154426.100000
116.107200 367071.900000
124.112200 7683352.600000
130.086500 1739448.200000
144.102200 3342480.200000
144.138500 2836482.400000
152.107100 737698.000000
168.101900 501121.500000
170.117800 29156852.900000
172.133300 140854330.600000
198.113100 171139.400000
224.164600 354089.500000
295.202200 3881149.300000

>ms2peaks
55.054300 368880.600000
56.049600 4675677.700000
69.070000 2206263.400000
70.065200 1263405.000000
72.080800 31448729.400000
73.064900 5217661.300000
74.023700 4187200.300000
81.070000 2340254.700000
97.101300 191832.200000
98.096500 171790043.400000
100.112300 661551.200000
102.054900 370760.000000
116.107100 213875.300000
124.112200 9320389.800000
130.086500 1204664.500000
144.102100 2636641.900000
144.138500 704199.500000
152.107200 876205.400000
168.102100 358197.300000
170.117800 13788529.500000
172.133400 44462393.200000
295.202300 491522.700000

>ms2peaks
53.038800 195077.500000
55.054400 1217335.400000
56.049600 14347767.500000
69.070000 5515611.200000
70.065200 2790669.000000
72.080800 19597278.700000
73.064900 4834356.600000
74.023700 6429290.500000
79.054300 958395.000000
81.070000 4149447.300000
96.080900 189672.100000
97.101300 370136.600000
98.096600 144750368.000000
100.112200 342963.300000
102.055100 548709.900000
107.085700 564282.800000
124.112200 10544356.300000
130.086500 929500.000000
144.102100 964973.600000
152.107300 377243.800000
168.102500 174107.900000
170.117700 4137803.700000
172.133400 6648603.000000

>ms2peaks
53.038700 174652.600000
54.033800 108891.900000
55.054400 4214418.900000
56.049600 26769410.900000
69.070000 7045884.800000
70.065200 3154878.200000
71.085600 100171.300000
72.080800 10528804.400000
73.064900 2431654.200000
74.023700 4430511.000000
79.054400 1374432.000000
81.070000 5311712.200000
96.080900 202659.900000
97.101400 153325.600000
98.096600 72874857.800000
102.055100 512465.100000
107.085800 708271.800000
124.112200 6918861.100000
130.086600 171296.900000
144.102200 158456.600000
170.117800 557531.700000
172.133700 487141.400000

