>compound EQ80596971
>parentmass 251.0234
>ionization [M+H]+
>formula C9H12ClO4P
>rt 546.000000
>profile orbitrap
#smiles_iso COP(=O)(OC)OC1=C(C2C1CC=C2)Cl
#smiles_can COP(=O)(OC)OC1=C(C2C1CC=C2)Cl
#inchikey GBAWQJNHVWMTLU-UHFFFAOYSA-N
#pubchem_id 62773
#mb_accession EQ311401,EQ311402,EQ311403,EQ311404,EQ311405,EQ311406

>ms2
89.038600 5931358.300000
90.046300 487659.700000
94.989100 447405.400000
98.999600 751060.700000
107.049200 795140.200000
117.069900 566667.600000
121.064800 1473833.500000
125.015300 153336409.100000
127.015400 302075250.400000
135.080400 3182320.700000
139.030900 498502.300000
143.025900 2107298.500000
145.026300 952378.800000
185.035900 1201840.200000
215.046800 29608045.600000
218.997200 1136116.200000
237.007800 568429.800000
251.023600 37403159.600000

>ms2
78.994300 440881.700000
89.038600 18319215.800000
90.046300 843302.200000
94.989200 421308.900000
98.984100 407527.200000
98.999600 2601064.700000
105.070000 341367.400000
107.049100 656679.300000
112.999900 1018491.300000
121.064700 1741950.900000
125.015300 176178283.100000
127.015400 336409039.300000
135.080400 2329853.000000
139.030900 458053.900000
143.025800 709686.600000
145.026100 1547183.200000
183.020900 395385.300000
185.036200 1139168.600000
197.036500 386722.200000
215.046800 9335970.100000
218.997100 1340995.100000
237.007700 661544.000000
251.023600 7348798.000000

>ms2
63.022900 1132152.800000
65.038700 421583.500000
66.046500 459392.100000
72.983900 610204.100000
78.994400 1308459.600000
79.054200 494260.500000
89.038600 46118514.300000
90.046400 5803950.400000
91.054200 874838.200000
98.999600 13714430.600000
103.054100 445388.100000
105.070000 888682.700000
112.999800 5128506.200000
121.064700 1177087.600000
125.015400 161232977.800000
127.015500 322343217.900000
135.080500 421739.200000
145.026300 988780.200000
203.973800 764662.700000
215.046700 706751.600000
218.997100 817858.000000
251.023700 897670.700000

>ms2
63.022900 2467732.400000
65.038600 1334030.100000
66.046500 606565.600000
72.983900 1028764.900000
74.999600 600726.700000
78.994300 2639716.800000
79.054200 624645.800000
89.038600 60805386.600000
90.046400 11613988.100000
91.054200 969113.000000
94.989100 441642.200000
95.049100 372700.500000
98.999600 26882602.000000
103.054300 444503.600000
105.069900 455658.800000
112.999800 12209656.900000
121.064700 692416.300000
125.015300 126006003.700000
127.015400 282734075.800000
145.026200 1017857.900000
203.974000 849025.600000
218.997500 530343.200000

>ms2
62.015000 695303.300000
63.023000 6358066.300000
64.978600 416618.000000
65.038600 3437897.100000
66.046400 1542860.400000
72.983900 2382507.300000
74.999600 1746898.900000
78.994300 6051769.500000
79.054200 489869.600000
89.038600 85768407.000000
90.046400 25491411.600000
91.054200 1334004.900000
95.049100 572850.300000
96.984100 429170.900000
97.004900 489659.800000
98.999600 44169221.700000
112.999800 27927233.000000
125.015300 75231803.300000
127.015400 224660391.700000
145.026200 790566.100000
202.966300 447856.400000
203.974000 700788.100000

>ms2
62.015100 1229498.900000
63.023000 15752937.300000
64.030800 272217.200000
64.978600 1123382.800000
65.038600 5196077.000000
66.046400 1919728.000000
72.983900 7639670.400000
74.999600 2742221.900000
78.994400 9967570.500000
79.054200 635663.900000
89.038600 89525497.600000
90.046400 33785386.200000
91.054100 1010770.600000
94.989000 164676.000000
95.049100 912506.800000
96.960500 167522.600000
96.983900 806209.400000
97.004900 920960.400000
98.999600 52659591.600000
103.054100 159123.000000
112.999800 41862246.900000
125.015300 37339736.900000
127.015500 151614943.000000
131.010600 467742.200000
145.026200 498975.700000
202.965900 643629.300000
203.974200 176159.200000

