>compound EQ81183231
>parentmass 397.1004
>ionization [M+H]+
>formula C16H17F5N2O2S
>rt 774.000000
>profile orbitrap
#smiles_iso CC(C)CC1=C(C(=NC(=C1C(=O)OC)C(F)F)C(F)(F)F)C2=NCCS2
#smiles_can CC(C)CC1=C(C(=NC(=C1C(=O)OC)C(F)F)C(F)(F)F)C2=NCCS2
#inchikey YIJZJEYQBAAWRJ-UHFFFAOYSA-N
#pubchem_id 91776
#mb_accession EQ305202,EQ305203,EQ305204,EQ305205,EQ305206

>ms2peaks
61.010600 11420530.400000
75.026200 4981908.500000
222.072300 2886164.400000
249.082900 2230019.500000
250.066900 7372399.600000
257.071100 2114929.500000
265.058000 3346068.500000
269.089100 1772421.900000
272.069000 1546934.500000
276.032700 2167052.200000
277.077900 7012345.900000
285.063800 11040299.700000
297.067100 1648807.100000
297.083800 18805279.900000
300.016800 1479450.200000
300.063600 6764656.800000
303.020600 2279871.700000
309.085800 697996.500000
315.039400 2708414.400000
315.095000 892478.000000
317.090200 29901963.200000
319.014700 612760.500000
320.069400 821002.000000
322.058200 824044.800000
325.061400 10098090.400000
327.058700 632983.200000
334.038700 2265456.200000
335.046500 29454763.900000
337.080100 9225033.000000
345.067300 1820918.100000
357.087400 14949437.800000
377.093500 239868766.100000
397.099700 558153112.900000

>ms2peaks
58.994900 906548.200000
60.002800 798142.500000
61.010600 94857253.900000
73.064600 1545690.600000
75.026200 11793226.200000
76.021400 3982349.400000
174.071000 858659.200000
192.081600 929820.000000
201.081800 2259825.200000
202.065600 2351336.600000
204.060800 453395.900000
206.064200 660126.800000
208.056700 757148.800000
209.070400 620934.400000
217.057400 1752790.400000
219.038400 541326.000000
221.087900 1971078.000000
222.072000 33166358.400000
224.067500 4310737.400000
229.076700 8393222.300000
230.010600 458358.500000
231.068500 1604420.900000
233.052500 755353.900000
234.059300 1871618.500000
235.032800 848232.600000
235.067300 2363408.800000
237.062500 3833331.400000
238.046700 2349771.500000
238.070800 434458.800000
239.044000 721833.600000
239.078400 2818380.700000
239.098200 520884.400000
242.048100 449939.100000
242.078200 1779789.700000
245.051800 649436.600000
247.033200 2191003.300000
247.047700 806691.400000
247.068700 507919.200000
249.083000 25188315.200000
250.067100 35753470.900000
251.062500 1738659.300000
252.015600 1538492.900000
252.061800 1227194.400000
253.023800 869899.300000
253.057700 2205747.900000
253.094200 2754490.100000
255.019100 1711312.000000
255.049300 639924.100000
256.003400 582749.500000
256.057200 1979916.400000
257.034200 530019.800000
257.055400 546193.300000
257.071100 9399737.800000
258.006100 559044.800000
261.084700 867746.000000
262.054600 2135381.900000
263.062300 4490615.000000
263.098300 710793.900000
265.057800 29144029.100000
267.038700 1961556.300000
267.073300 821793.100000
269.089100 25380207.600000
271.013900 2066919.700000
271.068600 6412395.700000
272.022100 5855622.600000
272.068700 12453061.100000
273.028700 761217.100000
274.055800 501152.600000
275.025700 18156918.900000
275.042900 3058853.857000
276.033300 30848267.600000
277.060100 2710755.700000
277.077700 21171141.300000
279.073500 852153.800000
280.010500 4273480.900000
281.054500 849510.900000
282.044800 521135.500000
282.059900 782048.500000
283.014500 4549117.600000
283.049400 429259.400000
283.068300 1731037.400000
283.104900 1676128.700000
285.049400 3915864.600000
285.063900 47711425.900000
287.045200 3524444.000000
288.029400 8014657.000000
290.984000 1585921.700000
291.020300 2049124.400000
293.054000 831290.000000
295.033800 2119985.700000
297.066500 6143622.700000
297.083900 67419866.100000
299.009200 8057700.700000
300.016800 38854373.100000
300.063400 11708927.900000
302.012600 658498.400000
303.020400 75451182.300000
305.037900 876900.100000
305.054600 3020239.600000
306.007600 7156965.100000
307.015000 2192224.800000
307.032200 543668.400000
309.085900 3878156.700000
311.099500 4188019.500000
314.032200 5739506.900000
315.040400 35971599.900000
315.094500 2224499.100000
317.090300 55788386.400000
319.015300 41983857.600000
322.057400 8550545.900000
324.017500 1679970.800000
325.061000 18147833.000000
327.039000 1395761.200000
327.056500 7529935.400000
333.050300 583057.000000
334.038500 8374835.700000
335.046500 208837117.400000
337.080500 15545732.500000
337.095700 1376152.100000
345.067600 4087290.100000
357.087300 15199593.800000
377.093600 120688261.900000
397.099700 51713234.400000

>ms2peaks
58.995000 2446081.200000
60.002800 1720324.400000
61.010600 82403447.800000
73.064700 783136.600000
75.026200 3453983.800000
76.021500 2224085.800000
129.069700 894923.600000
154.064900 422431.800000
155.060000 446102.000000
155.072500 477692.000000
158.039700 478861.500000
172.021000 465581.700000
174.070900 3125477.500000
181.075300 545442.500000
186.058300 707536.300000
192.027700 450905.800000
192.081600 6019604.900000
194.077300 545297.500000
198.017900 402421.900000
199.046600 560104.100000
199.086000 491692.400000
201.081800 4309712.600000
202.065700 2493970.900000
203.061500 496474.400000
203.074000 416029.100000
204.061300 603731.500000
205.022800 432138.500000
206.064900 3341660.020000
207.072700 487681.600000
208.056700 603169.700000
209.070300 615835.900000
210.052100 1719663.900000
211.013500 555747.100000
211.031800 353083.300000
215.061000 748662.800000
217.056900 2609900.200000
218.064400 428578.100000
219.038000 2509691.300000
220.057600 421753.900000
220.076600 449628.900000
221.088000 5424142.600000
222.072100 25793983.800000
223.067600 1516045.700000
224.020800 393981.700000
224.067800 4997041.000000
225.028600 1843119.100000
226.012500 375743.300000
226.036500 683233.800000
228.063000 457943.400000
229.022700 763746.800000
229.076900 6035098.300000
229.987300 425357.600000
230.012100 1171189.200000
230.043800 650928.500000
231.068600 555972.000000
232.010100 546271.000000
234.059700 3270539.700000
235.013100 1869493.200000
235.033300 880705.300000
235.067500 3459700.000000
236.992400 1056037.100000
237.062800 4058308.200000
238.036800 444930.800000
238.046700 3462549.800000
238.071200 568773.900000
239.043800 2239313.100000
239.078500 1532785.200000
240.029300 373452.100000
241.023000 670567.900000
242.047700 1051194.400000
242.078300 2615622.400000
242.981400 485960.600000
244.027000 748222.300000
245.052600 2721735.000000
246.994500 655742.800000
247.032800 3632781.300000
247.047300 1021108.500000
247.068700 675374.200000
248.002100 1538706.400000
249.082900 21775272.700000
250.019900 795737.600000
250.067100 13216586.900000
251.008500 462327.100000
251.062300 4056710.300000
251.078700 1524819.100000
252.015800 3460365.400000
252.062300 624815.800000
252.999500 567450.600000
253.023200 3088993.600000
253.058100 2313432.400000
255.019300 5978709.900000
255.036800 809600.400000
255.049200 649382.900000
256.003700 5022799.300000
256.027200 812530.300000
256.057300 2960310.800000
257.034000 560946.200000
257.056000 535875.100000
257.070800 3420250.000000
258.006600 4794344.400000
259.014300 897212.500000
260.004100 664769.300000
261.083700 524653.800000
262.054200 666261.200000
262.989100 1547102.400000
263.062600 2935782.600000
263.098600 783128.200000
265.044800 1148410.800000
265.057900 21954101.500000
266.031900 482729.900000
267.038700 2826773.400000
267.073400 681529.600000
268.023100 1860256.300000
268.037500 880699.000000
269.018600 1063919.900000
269.089200 18814914.100000
270.040200 527508.200000
271.014200 9926754.900000
271.068300 7848520.300000
271.985800 1642915.400000
272.022100 10287906.000000
272.069100 4709448.400000
274.017500 613933.900000
274.056200 534312.300000
275.025700 49233323.600000
276.033400 47269832.760000
277.059900 1874342.700000
277.077700 6625804.900000
279.073600 832493.700000
280.010900 6751019.300000
280.041000 528194.600000
281.054100 458410.800000
282.043500 743437.300000
282.060000 472177.900000
283.014400 9043508.000000
283.030700 793942.700000
283.068000 563846.700000
283.104600 787056.300000
285.049400 4027652.900000
285.064000 18938596.700000
287.044900 5107099.400000
288.029600 12600146.600000
289.024100 2170227.900000
290.983600 4712562.200000
291.020400 3758561.500000
291.993200 480375.300000
293.054400 2904726.200000
295.033600 1676928.700000
295.069700 460110.700000
297.066500 2118710.700000
297.083900 22692965.500000
299.009200 18077032.600000
300.017000 54349888.800000
303.020500 87731236.500000
304.011900 1774628.100000
305.035600 1398982.900000
305.054700 2479570.900000
306.007400 6853051.200000
307.015300 1771961.800000
307.032800 521391.200000
307.050200 598028.300000
309.085400 738547.900000
311.099500 1477054.300000
314.032400 4092212.600000
315.040500 25219111.800000
317.090200 9554780.500000
319.015400 58308884.100000
321.030300 417853.000000
322.058200 4291145.200000
324.017700 1473634.700000
325.061600 5878233.200000
327.039200 1361331.500000
327.056800 6003828.700000
333.050100 678816.700000
334.038700 2352137.200000
335.046600 92369687.300000
337.081300 3875558.400000
345.068200 527220.200000
357.087100 2418102.000000
377.093500 13486520.100000
397.099100 2518805.100000

>ms2peaks
58.995000 3722303.500000
60.002800 4237083.800000
61.010600 78173158.300000
68.979200 454627.500000
73.064700 507056.500000
75.026200 434046.000000
76.021500 1610723.900000
122.039500 405635.700000
128.062100 649351.800000
129.069800 2872676.200000
136.992600 591714.800000
145.064600 504266.700000
146.005800 613388.700000
147.060200 756819.400000
154.065000 4582301.400000
155.060000 2214958.200000
155.072800 872650.100000
160.055400 891606.700000
161.050600 398958.000000
166.011800 679544.500000
170.059400 641126.700000
172.021200 2087141.700000
172.055300 564386.600000
173.016500 774814.500000
173.050500 567112.700000
173.070600 1646012.200000
174.071100 8419220.300000
175.078800 868550.700000
179.053500 584558.900000
180.061300 842402.000000
181.056500 439651.500000
181.075600 1564465.500000
183.055200 493571.800000
184.002500 1990020.800000
184.022600 577511.600000
184.055400 510085.800000
185.016500 551024.400000
186.017900 2034433.100000
186.058400 2579164.600000
187.066300 1569732.200000
188.050400 758449.300000
189.047600 596172.400000
190.046100 1710423.003000
191.027100 801279.300000
191.041100 2063347.300000
192.027400 715617.800000
192.061700 729324.800000
192.081500 9817198.400000
193.022200 2732304.300000
193.076900 2182111.403000
194.006400 471392.800000
194.077200 1654082.200000
195.016100 1688094.300000
197.050500 2666398.667000
198.005400 528757.800000
198.017700 883637.600000
199.047300 2146313.800000
199.086100 1711890.700000
200.074100 2087315.400000
201.081900 5103268.500000
201.992700 457193.600000
202.065900 2941122.300000
203.000400 3245310.200000
203.061100 1571733.300000
203.073700 730547.500000
204.014800 2029212.200000
204.027200 498060.500000
204.061700 1879304.000000
205.022900 2892069.500000
206.030800 464596.900000
206.064800 8376059.400000
207.036700 637311.900000
207.072600 2051869.700000
207.993800 422682.600000
208.001900 2720631.700000
208.056400 1615313.400000
208.997500 2411732.600000
210.005700 1419097.200000
210.037400 837878.800000
210.052200 4542374.800000
211.012900 2007669.200000
211.032400 1715292.700000
211.047600 2208137.257000
213.026500 3269276.000000
213.047200 709110.300000
213.081700 557803.800000
213.993200 445400.200000
214.012800 860214.000000
214.053400 589568.800000
214.987900 1974508.400000
215.007100 1942521.700000
215.022200 519971.800000
215.061200 1726947.500000
215.097200 526551.200000
215.996000 2151183.400000
217.057000 5696372.900000
218.030500 690453.300000
218.064300 542665.600000
219.037900 4738588.600000
219.072100 1732821.500000
220.022300 1473352.400000
220.057100 505642.900000
220.076400 524230.700000
221.017600 3760120.400000
221.031600 482219.100000
221.088100 4017339.200000
222.024700 1479331.300000
222.039600 1939146.400000
222.072100 13524782.900000
223.012800 2835923.800000
223.067700 3516831.000000
223.984200 668026.400000
223.997400 414359.000000
224.020900 4085702.700000
224.067700 3100674.800000
225.028800 10532265.500000
225.046000 575759.700000
225.980200 409604.300000
226.013100 639268.000000
226.036400 1761372.300000
226.988100 671046.200000
227.008500 437173.200000
227.043200 1519100.900000
227.997100 757335.900000
228.008300 3597838.400000
228.061900 615339.800000
229.003500 3649925.207000
229.076700 5976419.000000
230.011900 7149037.300000
230.044600 1499186.600000
231.002300 578714.500000
231.038100 1990231.600000
231.071300 409384.600000
232.010000 3368052.600000
232.979100 2156757.600000
232.998800 768021.700000
233.033400 3691748.700000
233.052200 3270346.800000
233.999300 2040333.000000
234.059600 4799831.600000
234.994800 1191891.300000
235.013900 7819240.600000
235.032800 1920970.100000
235.047900 759502.600000
235.067300 4679812.800000
236.992500 4411303.900000
237.028700 469510.000000
237.048000 2323728.600000
237.063100 4368371.600000
238.046800 3009552.200000
238.070300 734885.200000
239.008400 601030.500000
239.043600 4899797.600000
239.099200 476061.500000
240.013300 1897552.724000
240.028400 610682.400000
240.988000 367446.700000
241.004800 474224.100000
241.023600 3867175.500000
242.010300 1728797.200000
242.046000 2036880.400000
242.983200 4704442.900000
243.019400 5433045.300000
243.054500 891733.500000
243.092200 465159.300000
243.991300 2787434.700000
244.002900 568435.800000
244.026900 5622343.700000
244.999400 961805.500000
245.052500 3167872.200000
245.986700 1708829.200000
246.994100 3574161.500000
247.032500 3279429.600000
247.048200 2245614.500000
247.068600 459665.700000
248.002500 8521811.600000
248.015400 1581789.100000
249.011000 2889233.200000
249.083000 11187678.200000
250.019900 841141.700000
250.067100 2986819.700000
251.008200 4348590.100000
251.062400 2810580.800000
251.078300 488529.200000
252.016200 4336163.400000
253.000300 3538535.400000
253.023400 4346253.300000
253.058100 2062377.800000
253.996300 420913.300000
254.011500 1062792.900000
255.019400 16542676.100000
255.037000 2503301.300000
255.049300 991273.200000
256.003100 7096846.700000
256.026300 3062800.500000
256.046200 473618.500000
256.056700 3057990.700000
256.999600 2709710.700000
257.034800 1962830.000000
257.054600 1046476.300000
257.070400 1587687.700000
258.006600 4443170.900000
259.014500 1620205.500000
259.049000 1457995.700000
260.003900 783107.200000
260.993600 2101383.100000
261.029100 861902.100000
262.017700 3406036.100000
262.052800 415836.700000
262.989400 4188369.500000
263.008500 809037.400000
263.062500 849116.800000
263.997500 460156.400000
264.987300 2550439.900000
265.044600 1148455.000000
265.058200 9218691.900000
267.038700 2272330.300000
268.023200 2409042.100000
269.019300 2825403.700000
269.074500 652252.100000
269.088600 4617261.400000
270.978500 2803604.400000
271.014300 41022964.900000
271.068500 7831057.200000
271.985700 4240496.900000
271.998700 1454447.900000
272.022100 8920874.800000
272.068600 513858.100000
272.993500 710952.900000
273.029100 658278.700000
274.017300 2724846.200000
275.025600 77464687.000000
276.033400 49428663.400000
277.003900 542203.200000
277.059900 1618796.600000
279.002600 1405335.700000
279.073600 582533.900000
280.010100 3061872.600000
280.039900 1878453.800000
282.042300 628007.300000
282.060200 429173.500000
283.014200 5953073.700000
285.049600 2530158.700000
285.064400 4489827.400000
287.044900 3497506.000000
288.029600 7208615.400000
288.988000 517825.700000
289.024300 1868530.900000
290.984200 7452877.300000
291.020300 8078069.600000
291.992100 1094220.800000
293.054500 2484139.300000
294.007000 382746.700000
297.084900 1696965.600000
299.009100 31109456.300000
300.017000 32639538.300000
303.020500 38976834.000000
304.012200 826773.800000
306.007900 1044624.100000
307.033600 438238.500000
307.050200 480526.700000
310.038200 626787.000000
314.031600 584270.500000
315.040300 5198077.200000
317.020200 2134843.700000
319.015400 59454685.900000
327.039800 548544.000000
327.056900 1662219.900000
335.046900 11638955.800000

>ms2peaks
58.994900 6643312.100000
60.002700 7441199.000000
61.010600 56782399.800000
62.969900 680969.700000
68.979200 419263.300000
73.064600 333575.400000
76.021300 644939.000000
107.971200 637855.158600
114.033600 608335.300000
115.053700 763223.400000
128.049200 634072.900000
128.061800 3851548.900000
129.069600 2148899.700000
133.044500 2935973.843000
134.039800 547637.700000
136.992500 622481.600000
139.000600 1842602.200000
140.049300 3091249.700000
142.064900 857660.107900
145.064500 1626509.700000
146.005600 3409016.100000
146.052000 518133.300000
147.059900 2517504.500000
148.055400 1597002.900000
151.995900 701722.200000
152.030300 758571.300000
152.049500 467448.500000
153.004100 682742.900000
154.064900 7157480.100000
155.060100 3695531.500000
155.072400 1543332.500000
156.067700 741193.500000
156.991600 432127.600000
158.020800 1404748.000000
158.039500 1557402.600000
159.034700 564039.900000
159.047400 1666937.300000
160.055700 2731439.300000
161.016100 619027.329400
161.050500 358381.900000
163.995600 2581003.400000
164.991400 817189.100000
165.025300 2147684.700000
166.011700 3007185.700000
167.060800 772691.400000
168.005100 704203.900000
170.006300 517198.500000
170.020900 737859.800000
170.059700 902779.100000
172.020900 1785565.100000
172.055100 2655195.800000
173.016600 2948767.700000
173.050400 2471893.700000
173.070200 717386.500000
174.058800 600649.400000
174.070900 7340113.400000
175.066200 816682.300000
175.078600 567606.000000
177.003600 1623572.800000
177.044900 547348.500000
177.998900 1562878.200000
178.011500 2851582.100000
178.065600 1437220.600000
179.006700 843846.500000
179.040900 1797110.500000
179.053500 1293360.500000
180.061400 773536.600000
181.075500 861482.100000
181.986700 1441799.281000
182.007600 713008.000000
182.040600 498949.500000
182.994300 1866367.304000
183.055000 664394.000000
184.002300 5850025.000000
184.022700 2536205.500000
184.043300 415738.100000
184.055400 840142.400000
185.016600 593090.900000
185.030800 1649141.400000
186.017900 3005433.300000
186.058400 3769085.100000
187.031500 385593.300000
187.065900 781805.400000
187.996500 538532.500000
188.050300 2761437.400000
189.037800 1382927.800000
189.046700 1502487.800000
190.011700 716815.000000
190.045800 2766911.300000
191.007200 1418394.200000
191.040900 6482972.200000
192.014000 379903.800000
192.027600 2081000.100000
192.048200 435562.300000
192.061000 627992.500000
192.081300 5398194.692000
193.021000 5460511.700000
193.076300 2514764.900000
194.006800 725133.682700
194.077300 1644695.200000
195.001800 615340.000000
195.016000 4654430.100000
195.989700 3452245.000000
196.002300 861954.100000
196.997300 1807987.600000
197.009800 1651847.800000
197.051100 3551456.400000
198.005700 4254859.600000
198.018000 1528179.000000
199.047000 1637679.100000
199.066100 1819267.100000
199.085900 629617.500000
200.073700 1914252.500000
201.082000 3277707.500000
201.992700 4136421.900000
202.065800 1996863.200000
202.999900 8174409.200000
203.041700 1729321.800000
203.061000 1785969.100000
204.015600 4734513.400000
204.028800 1656026.300000
204.061400 1403359.500000
204.985800 789464.200000
205.022900 5663103.200000
205.056900 2472947.800000
206.064800 7023880.700000
207.036900 721977.000000
207.072800 858970.500000
207.988200 382956.900000
208.002500 7563334.000000
208.056500 828662.400000
208.997600 7521153.700000
209.043400 584470.100000
209.052400 790091.200000
210.005600 1043083.900000
210.038100 1605690.300000
210.052000 3490192.100000
211.012900 2149356.200000
211.032600 3282621.800000
211.046900 2911697.200000
212.992900 2741230.800000
213.026700 8107840.000000
213.046100 709401.100000
213.992900 440082.000000
214.012800 686657.800000
214.053000 539260.600000
214.988300 10642998.300000
215.007900 3738640.300000
215.022100 2227304.900000
215.061300 837827.100000
215.996400 6381539.700000
216.007100 997245.700000
216.028500 369524.800000
217.021900 547634.700000
217.056900 3844896.500000
218.030000 778683.100000
218.064600 645645.900000
219.037200 3943568.200000
219.072400 1309316.100000
219.983700 686347.700000
220.022700 575985.400000
220.991200 889326.800000
221.018000 4156319.600000
221.032100 911476.900000
221.087900 1971029.300000
222.025100 1649294.000000
222.040100 3167360.345000
222.976600 523973.400000
223.013300 8517766.700000
223.047100 564840.800000
223.067000 1394057.600000
223.984800 828085.200000
223.997000 2475749.700000
224.021000 6376165.400000
224.067400 807921.600000
224.992100 2764612.400000
225.028900 11835153.700000
225.046400 870452.700000
225.980200 499794.700000
226.012700 692838.600000
226.035700 2127451.100000
226.988200 3190007.500000
227.008200 897079.700000
227.042600 2484801.800000
227.995500 3125392.000000
228.008300 5283596.800000
229.004000 6974805.100000
229.023100 463730.100000
229.076500 1579659.100000
229.987500 1973465.600000
230.011600 9172697.300000
230.044700 2660837.400000
231.001600 762050.600000
231.037400 3293813.500000
231.053400 2148159.800000
231.071700 390860.900000
232.009500 1819600.384000
232.024200 452190.300000
232.978500 1875481.600000
232.998700 2961410.800000
233.032700 4153386.400000
233.051800 1602690.100000
233.998200 1144293.100000
234.059200 2280238.500000
234.994200 2164900.900000
235.013600 8333202.900000
235.032800 1448019.100000
235.047900 773163.100000
235.067200 2909096.100000
236.020300 625247.300000
236.992500 4831050.200000
237.028200 835430.800000
237.047900 874925.600000
237.062400 2134961.000000
238.035500 969083.000000
238.047100 605498.300000
239.042800 2157428.200000
239.995200 791356.000000
240.013800 901589.400000
240.028200 538722.400000
240.987300 625762.000000
241.004200 641507.600000
241.023300 2832076.100000
241.036800 959019.500000
242.011300 2956929.071000
242.045600 1685178.200000
242.983200 11720979.300000
243.019500 21326092.900000
243.990500 3530501.600000
244.003300 3387167.300000
244.027200 4302953.646000
244.998400 1855323.500000
245.052000 1495846.700000
245.987100 3111564.600000
246.994200 4729622.800000
247.032400 440772.400000
247.048300 728516.800000
248.002400 11087600.200000
248.015000 1860188.800000
249.010500 3037204.000000
249.027500 442649.400000
249.082900 2399882.200000
250.020000 407808.300000
251.008000 7355355.300000
251.062700 551184.700000
252.016800 4158198.800000
252.987800 885197.300000
253.000400 2503879.600000
253.023400 3266943.100000
253.057800 731016.400000
254.010900 1486294.800000
255.019400 14146992.300000
255.037300 2305527.000000
256.003400 5670902.500000
256.026900 1856294.600000
256.044400 445397.200000
256.057600 740290.400000
256.998200 837872.200000
257.034300 1638867.400000
258.006100 1432095.700000
259.013600 848584.400000
259.048500 520021.800000
260.003000 437780.800000
260.993500 3137480.800000
261.009600 2248348.500000
261.029100 1563480.600000
262.017800 7744854.100000
262.989700 3630327.200000
263.997000 1011184.400000
264.987100 2091373.600000
265.058600 2534167.800000
268.023000 440684.600000
269.018600 2066864.600000
270.977500 2214942.500000
271.014300 40397649.100000
271.985300 2144345.500000
271.998200 3277732.700000
272.022500 2848995.900000
272.993700 3115187.100000
273.007600 503861.200000
273.028000 1496613.700000
274.017700 2124399.900000
275.025600 34769053.200000
276.033400 13601101.200000
277.004400 1951640.100000
279.003100 2026488.700000
280.009700 460348.000000
280.038800 842251.300000
283.013800 1583603.900000
285.064100 818140.500000
288.029400 895713.700000
288.988200 477789.900000
289.024200 570717.700000
290.984200 3011151.100000
291.020400 8077135.000000
293.052700 437138.300000
294.007400 1729673.500000
299.009300 15832219.400000
300.016800 6849197.700000
303.020100 4912815.500000
317.020400 2759473.600000
319.015300 16708977.800000
335.047200 708863.500000

