>compound EQ84912404
>parentmass 268.104
>ionization [M+H]+
>formula C10H13N5O4
>rt 258.000000
>profile orbitrap
#smiles_iso CC1=CN(C(=O)NC1=O)[C@H]2C[C@@H]([C@H](O2)CO)N=[N+]=[N-]
#smiles_can CC1=CN(C(=O)NC1=O)C2CC(C(O2)CO)N=[N+]=[N-]
#inchikey HBOMLICNUCNMMY-XLPZGREQSA-N
#pubchem_id 35370
#mb_accession EQ328701,EQ328702,EQ328703,EQ328704,EQ328705,EQ328706

>ms2peaks
58.065200 126180.900000
68.049500 166063.800000
69.033500 97177.800000
70.028800 65349.200000
81.033500 375397.000000
84.044300 106546.100000
86.060000 160312.500000
96.044400 224953.000000
99.044000 169829.900000
109.039600 65858.700000
110.023700 212886.500000
110.059900 65419.200000
114.054800 195027.200000
127.050200 48813108.000000
142.061100 1435780.200000
153.065900 101332.700000

>ms2peaks
58.065200 326077.300000
68.049500 376039.200000
69.033500 182486.500000
70.028700 217948.700000
81.033500 258271.800000
84.044400 201222.700000
86.060000 54451.200000
96.044400 134514.300000
99.044000 190455.800000
109.039600 163328.600000
110.023700 528717.500000
110.059700 63259.000000
114.054900 84704.900000
127.050200 46164272.000000
142.061200 912713.400000

>ms2peaks
58.065200 318185.800000
68.049500 450195.500000
69.033500 293819.900000
70.028700 250627.400000
81.033500 195427.800000
82.028800 134237.400000
84.044400 744730.700000
96.044300 82415.100000
99.044000 74262.900000
109.039600 712752.900000
110.023700 2634460.800000
127.050200 39355160.000000
142.061100 198519.700000

>ms2peaks
56.049500 103257.000000
58.065200 236861.800000
68.049500 458134.200000
69.033500 357039.200000
70.028700 209224.100000
71.049100 38815.600000
81.033500 157008.500000
81.044700 111602.000000
82.028700 542766.800000
84.044400 2040289.000000
99.044100 44861.300000
109.039700 1818919.400000
110.023600 6995015.500000
127.050200 25595580.000000

>ms2peaks
53.002300 15694.400000
54.033900 188498.600000
56.049500 284668.500000
57.057400 14921.400000
58.065200 77993.600000
68.049400 266714.200000
69.033500 218034.800000
70.028700 108002.700000
71.049100 9284.100000
81.033500 70758.300000
81.044700 218226.500000
82.028700 856970.500000
83.060500 9305.500000
84.044400 1904840.000000
109.039700 1725099.000000
110.023600 5785126.500000
127.050200 7506231.000000

>ms2peaks
53.002300 17135.100000
54.033900 549293.900000
56.049600 623880.200000
57.057400 14461.300000
58.065200 87984.900000
67.041700 8109.600000
68.049500 329131.200000
69.033500 283774.500000
70.028700 149267.400000
71.049100 12548.800000
81.033500 64772.300000
81.044700 469261.700000
82.028800 1566748.000000
83.060500 14951.500000
84.044400 2408802.200000
96.044300 8638.300000
109.039700 1978547.400000
110.023700 6006132.500000
127.050200 3842545.500000

