>compound EQ84991530
>parentmass 310.2013
>ionization [M+H]+
>formula C17H27NO4
>rt 252.000000
>profile orbitrap
#smiles_iso CC(C)(C)NCC(COC1=CC=CC2=C1C[C@@H]([C@@H](C2)O)O)O
#smiles_can CC(C)(C)NCC(COC1=CC=CC2=C1CC(C(C2)O)O)O
#inchikey VWPOSFSPZNDTMJ-UCWKZMIHSA-N
#pubchem_id 39147
#mb_accession EQ307201,EQ307202,EQ307203,EQ307204,EQ307205,EQ307206

>ms2peaks
57.070100 915134.100000
74.060100 1143916.300000
201.091100 2183618.500000
236.128500 4828860.400000
254.138900 65879686.300000
310.201400 626134841.600000

>ms2peaks
56.049500 4397508.900000
57.069800 2771892.500000
58.065300 728672.700000
72.044300 1107341.100000
74.060100 21870134.400000
133.065000 344458.000000
145.064800 3160157.700000
147.080400 749192.200000
155.085800 414900.200000
157.065000 1492676.700000
159.080500 1195265.100000
163.075200 708136.700000
171.080600 5863467.500000
173.095900 1409904.300000
174.091200 591175.600000
175.075500 2174053.900000
183.080700 7389954.300000
189.091100 1138178.500000
200.107200 575429.500000
201.091000 54388280.100000
218.117700 8710885.600000
219.101700 4750608.300000
236.128300 89905739.800000
254.138800 287717505.900000
310.201400 131712985.600000

>ms2peaks
56.049600 17858175.000000
57.070000 7314134.400000
58.065200 2111138.700000
72.044400 2677449.300000
74.060100 63387902.400000
91.054300 650285.100000
115.053900 677531.600000
117.069800 992303.600000
128.061900 349754.100000
129.069900 940412.900000
131.049200 833701.700000
131.085700 688481.000000
133.064900 2609822.900000
141.069900 724848.100000
143.049700 201407.800000
143.085700 1227609.700000
144.056900 224338.800000
145.064900 19226772.600000
147.080600 7307296.800000
153.070100 956435.400000
155.085600 4915731.700000
157.064900 7159974.400000
159.080600 12379285.300000
160.051900 340977.200000
161.059900 1329274.800000
161.096300 1137522.000000
163.075400 1559534.900000
165.070100 913693.100000
168.057500 258900.800000
171.080500 27849592.700000
172.088000 299192.400000
173.059900 954882.400000
173.096200 7619880.600000
174.091500 2005497.200000
175.075500 6258840.300000
183.080600 23797819.800000
189.091300 2729585.800000
200.106800 1328907.800000
201.091100 95778086.100000
206.117900 739779.800000
218.117700 5745339.800000
219.101800 2791393.800000
236.128300 46444303.700000
254.138900 41499252.900000
310.201600 2101445.700000

>ms2peaks
56.049600 21205899.600000
57.070000 9435322.100000
58.065200 1810328.700000
72.044400 2397857.300000
74.060100 55556791.600000
91.054200 2135488.500000
105.069900 252652.500000
107.049300 1048960.900000
115.054000 666640.100000
117.070000 3061600.300000
119.085600 261464.400000
128.062000 1820522.000000
129.070000 2494995.000000
131.049300 2511123.400000
131.085600 1434392.000000
132.057100 256229.800000
133.064900 4785773.900000
135.080400 707574.800000
141.069900 573330.400000
143.049400 282556.600000
143.085700 4926101.700000
144.056900 748334.500000
145.064900 28440260.800000
145.101300 1560988.927000
147.080500 12342356.400000
153.070200 1246844.200000
154.077600 443266.900000
155.085600 9110896.000000
156.056600 201932.200000
157.064900 9138205.100000
158.073100 308905.300000
159.080600 20252432.200000
160.052300 257636.800000
161.059600 1873366.700000
161.096200 937305.000000
163.075500 1385036.200000
165.070000 3040056.400000
168.057200 553274.400000
169.064400 314211.100000
170.072900 242917.900000
171.080500 31187553.500000
172.088200 328099.600000
173.059900 882332.500000
173.096300 5961625.600000
174.091200 1769608.000000
175.075500 4260827.800000
183.080600 25377241.000000
189.091400 1172894.900000
200.107100 636876.600000
201.091000 47489472.500000
206.117300 226954.000000
218.117600 1138287.300000
219.102000 805508.800000
236.128300 10249810.500000
254.138700 5146687.100000

>ms2peaks
53.002400 172416.000000
55.018000 224669.400000
56.049600 23441173.300000
57.069900 9462733.300000
58.065200 1514751.000000
72.044400 2644571.200000
74.060100 38018415.400000
79.054200 247107.400000
91.054300 8191749.900000
103.054300 686896.000000
105.033800 170257.500000
105.069800 992230.600000
107.049200 2067658.900000
115.054200 3446109.500000
116.062100 617806.300000
117.069900 7665002.600000
119.049100 318120.900000
119.085600 1727101.100000
127.054000 201597.500000
128.062100 7033188.300000
129.069900 6464987.700000
130.077700 539404.500000
131.049300 4157863.800000
131.085600 2980885.600000
132.057000 1429238.400000
133.064900 5955956.800000
135.080600 1400312.800000
141.069900 1892960.700000
143.085700 9662800.900000
144.057100 1972667.400000
145.064900 31269794.900000
147.080500 15639252.000000
152.062400 189418.700000
153.070000 5510711.000000
154.077600 1191986.900000
155.060400 1578099.100000
155.085600 11113779.500000
156.057000 250382.100000
157.065000 7410798.100000
158.072600 915726.100000
159.080600 16603268.800000
160.052000 888265.900000
161.059800 1045855.000000
161.096200 304477.800000
163.075500 699225.300000
165.069900 3757151.400000
168.057100 1365294.600000
169.064500 174586.200000
170.072700 938898.600000
171.080500 19173443.500000
172.088000 582624.600000
173.059800 243006.900000
173.096200 3422743.400000
174.091500 968583.300000
175.075500 1579105.200000
182.072800 337605.600000
183.080600 17321495.100000
189.091300 282542.800000
201.091100 8760077.800000
236.128300 199993.600000

>ms2peaks
53.002300 196318.500000
55.018000 202875.200000
56.049600 20501669.200000
57.070000 7621628.900000
58.065200 1288337.200000
72.044400 1120746.100000
74.060100 23093291.500000
79.054200 818577.900000
91.054300 15629167.300000
95.049200 520033.753500
103.054300 1970793.400000
104.062000 324814.214000
105.033600 209596.000000
105.070000 3676154.000000
107.049200 3292766.700000
115.054300 10304077.700000
116.062100 1405067.400000
117.069900 10189269.400000
118.041500 413845.055900
119.049500 538667.600000
119.085600 1715026.200000
127.054300 480236.400000
128.062100 13717758.400000
129.069900 7084332.400000
130.077900 589724.900000
131.049300 5604363.600000
131.085600 2144378.900000
132.057000 3060714.200000
133.064900 5227795.700000
135.080500 1420316.000000
141.070000 2337992.300000
143.085700 7643534.000000
144.057100 3599352.800000
145.064900 23043882.100000
147.080500 8465852.000000
152.061800 1111871.700000
153.070000 5880581.200000
154.077700 2216993.200000
155.060500 3123354.100000
155.085600 7971329.700000
156.057300 288888.700000
157.064900 4615716.400000
158.072600 1179521.400000
159.080600 6830824.700000
160.051900 866906.700000
161.059700 840259.300000
163.075200 196776.800000
165.070000 3153041.000000
168.057200 1637614.800000
169.064900 1175167.900000
170.072700 752575.600000
171.080500 6282476.600000
172.088000 328939.300000
173.096100 887863.500000
174.091300 281117.600000
182.072500 189544.300000
183.080600 7365503.200000
201.091300 996902.500000

