>compound EQ85627447
>parentmass 435.2177
>ionization [M+H]+
>formula C24H31FO6
>rt 630.000000
>profile orbitrap
#smiles_iso C[C@H]1C[C@H]2[C@@H]3CCC4=CC(=O)C=C[C@@]4([C@]3([C@H](C[C@@]2([C@]1(C(=O)COC(=O)C)O)C)O)F)C
#smiles_can CC1CC2C3CCC4=CC(=O)C=CC4(C3(C(CC2(C1(C(=O)COC(=O)C)O)C)O)F)C
#inchikey AKUJBENLRBOFTD-QZIXMDIESA-N
#pubchem_id 443967
#mb_accession EQ324401,EQ324402,EQ324404,EQ324405,EQ324406

>ms2peaks
61.028400 1126017.100000
67.054100 48196.400000
79.038800 71539.500000
81.069800 55776.200000
93.069900 79692.500000
95.049100 198586.700000
95.085400 304840.300000
97.064700 51980.300000
101.023200 1296300.800000
107.085500 637619.100000
109.064700 90014.100000
109.101200 396024.900000
111.080300 87771.400000
115.075300 140474.600000
119.033800 235065.300000
119.085400 240431.500000
121.064600 263090.400000
121.101000 183957.300000
123.080300 225147.000000
123.116500 64768.000000
125.059500 44082.300000
125.095900 91634.300000
131.085100 59958.400000
133.101000 622554.200000
135.080200 1168185.100000
137.059500 60361.900000
137.095800 736170.900000
139.075200 78039.300000
145.100800 73719.400000
147.080200 3969991.100000
149.095900 839387.200000
151.075000 293767.900000
151.111600 496011.700000
153.090800 603453.200000
159.080100 953843.800000
161.059500 84064.500000
161.095700 1217680.100000
163.075100 74494.900000
163.111400 239043.300000
167.106500 374627.700000
169.064300 236187.300000
169.085900 60632.300000
171.080100 1422821.100000
173.095800 1373876.000000
175.111400 102965.500000
177.090700 1018254.900000
179.106500 79555.700000
183.080100 203364.800000
185.095800 2047473.700000
187.075100 1076542.700000
187.111500 452445.200000
189.090500 186588.000000
191.106400 70586.500000
193.121700 92794.900000
195.101200 818547.800000
197.081500 60489.200000
197.095500 562467.400000
199.111200 443593.100000
203.106300 393209.200000
209.095700 312988.300000
209.116800 703244.700000
211.074900 88099.100000
211.096000 175815.700000
211.111400 957661.500000
213.090500 117925.400000
213.127300 568618.100000
215.106500 652984.300000
219.101200 80978.500000
221.095700 448158.300000
223.111400 561069.900000
225.127100 592785.600000
227.106300 169409.200000
227.142600 1716106.700000
235.111200 630839.800000
237.112600 232572.600000
237.126800 3037408.200000
239.106700 342477.500000
239.142800 627419.700000
241.121900 314905.700000
241.157900 77901.400000
249.127000 290681.900000
251.105900 77505.100000
251.142500 769447.700000
253.121700 654360.400000
253.158200 611390.100000
255.137400 560620.200000
257.131400 43943.700000
261.126600 575267.900000
263.142600 1175366.800000
265.121700 80317.200000
265.158300 368452.100000
267.137400 755298.800000
267.173600 573048.800000
269.189300 585705.500000
273.162900 89863.600000
275.142600 1362047.000000
276.150200 59504.100000
277.122200 248448.300000
277.158300 3167208.900000
278.166200 307752.500000
279.173900 11124714.300000
281.153200 340375.800000
281.189600 1235293.600000
286.135100 63200.200000
289.158100 413746.300000
291.173900 7865997.400000
293.152700 372973.800000
295.132600 354769.400000
295.168900 1444806.000000
296.177000 50360.300000
297.184400 1418251.400000
301.158300 5291701.700000
304.145000 44099.200000
307.168700 605452.900000
309.184300 12069734.800000
311.163700 91236.500000
313.179800 86070.100000
319.168800 15511811.800000
321.164300 95476.000000
325.179600 732121.700000
327.194800 2603557.900000
337.179300 14922329.400000
339.175100 404706.300000
351.195000 700786.100000
353.174200 1714046.800000
355.190000 12112790.200000
357.185000 472460.300000
361.179100 408705.600000
369.205000 335019.700000
373.200700 1201016.500000
375.195800 190502.700000
379.190000 6031525.700000
397.200600 25578176.200000
399.195800 40341.800000
415.211100 9906475.600000
417.207200 374403.900000
435.217500 2042292.700000

>ms2peaks
59.049200 41954.400000
61.028400 1726538.900000
67.054300 172710.500000
69.033500 234498.300000
69.069900 271877.300000
75.044100 57067.300000
79.054100 46911.700000
81.069800 233328.300000
83.085600 43479.300000
85.064800 77397.600000
91.054100 101760.500000
93.069800 519239.800000
95.049100 264755.500000
95.085400 798908.200000
97.064600 301775.700000
101.023200 2156035.800000
105.069800 323321.500000
107.085400 1861436.000000
109.064800 431816.900000
109.101000 1151071.000000
111.043900 52919.600000
111.080400 416770.800000
113.059700 93420.900000
115.075100 354731.100000
117.054600 186547.400000
119.085400 1162303.700000
121.064700 1850829.100000
121.101100 937829.200000
123.080100 758965.300000
123.116600 235002.800000
125.059700 275536.200000
125.096000 222980.000000
127.075500 54189.300000
128.061500 67609.800000
131.085400 693640.200000
133.064700 379469.200000
133.101100 1101482.600000
135.080200 2918443.100000
137.059500 105268.000000
137.095900 1036825.800000
139.075200 250161.500000
139.111500 47569.100000
143.085500 342715.100000
145.064600 549173.100000
145.101000 440070.500000
147.080300 9366926.900000
149.095900 1922477.700000
151.075300 680645.200000
151.111600 281078.000000
153.090800 1933168.500000
155.069700 47218.800000
155.085300 92444.200000
157.064600 63171.900000
157.101000 242783.400000
159.080200 3065951.100000
161.095800 2427877.500000
163.075100 321467.600000
163.111500 290971.900000
165.091000 220290.700000
167.106300 1171456.600000
169.064500 356222.400000
169.085500 47037.500000
169.100600 75482.700000
171.080100 4611583.200000
172.087900 62961.600000
173.095900 3407225.700000
175.075000 261249.300000
175.111500 279795.600000
177.090600 1160197.100000
179.085200 81317.000000
179.106700 90733.700000
183.080400 278635.700000
183.116900 92990.700000
185.095900 3231181.900000
187.075000 1852791.500000
187.111500 1025555.000000
189.090700 432523.800000
191.106200 61737.600000
193.085900 76294.800000
195.080000 202275.300000
195.101100 477569.800000
195.116300 47797.800000
196.087900 82771.000000
197.095700 1765232.700000
198.103700 59704.200000
199.074800 236804.500000
199.111200 1002639.500000
201.090700 287684.700000
201.127000 231114.700000
203.106300 359613.900000
207.117100 78852.500000
209.095800 1087975.700000
209.116900 85389.200000
209.132100 210715.400000
210.103400 174441.100000
211.111400 2788048.800000
212.119400 373809.400000
213.090700 173474.300000
213.127000 1440816.300000
215.106400 1084063.100000
219.116800 289750.900000
221.095800 988132.000000
221.131900 100354.400000
222.103800 507681.300000
223.111400 1848561.200000
224.119000 190866.800000
225.090900 232032.500000
225.127000 1660146.000000
227.106400 187110.900000
227.142600 2686960.100000
229.122100 53864.900000
231.117000 83386.500000
233.096000 167654.500000
233.132200 77799.800000
234.103600 184252.900000
235.111300 2498473.500000
236.119400 91864.700000
237.126900 5792758.800000
238.135000 63014.400000
239.106200 734228.400000
239.142600 2079918.600000
241.121800 510458.500000
245.132100 71014.100000
246.103100 90746.700000
247.111400 197341.000000
247.147300 178833.400000
248.118700 333996.200000
249.127000 1822369.900000
249.163300 243545.400000
250.135100 46171.400000
251.106200 285413.300000
251.142600 1452643.300000
252.150100 77069.600000
253.121800 913611.500000
253.158200 1937406.100000
255.137500 681871.900000
257.132400 193404.100000
259.111200 315251.100000
259.148000 267694.400000
260.118700 216201.400000
261.126800 994861.800000
262.134900 581258.500000
263.106000 350982.500000
263.142600 2656264.800000
264.114100 63811.400000
264.150400 84573.500000
265.121500 168011.600000
265.158000 710169.900000
267.137500 914673.500000
267.173800 672383.300000
272.118900 362957.400000
273.127100 304974.400000
273.163500 537010.100000
275.142400 1846072.400000
276.113900 54604.200000
276.150500 989245.500000
277.122800 494662.100000
277.158300 4670800.800000
278.166100 1351253.000000
279.139100 425886.200000
279.173900 6804778.100000
281.117500 63324.500000
281.153800 347060.600000
281.189500 746965.000000
283.147100 70617.500000
286.134800 792552.500000
289.121900 49910.600000
289.158300 826651.000000
290.129200 205457.600000
291.173900 8789737.200000
293.152900 728159.300000
294.160300 102888.000000
295.132800 262109.300000
295.168900 1788416.200000
296.177300 54714.800000
297.184600 393077.500000
301.158300 4668761.500000
304.145700 412218.900000
306.160900 274965.100000
307.168800 774812.200000
309.184400 2961643.500000
311.163900 970175.400000
313.179300 89719.900000
319.168900 6588451.900000
325.179400 395623.800000
327.194700 432898.400000
337.179400 4292512.100000
351.195600 88704.700000
353.173900 307008.400000
355.190000 1112298.100000
357.185900 162604.700000
361.179500 180808.800000
379.189600 594248.500000
397.200600 999231.500000

>ms2peaks
55.054200 53572.500000
59.049100 53109.600000
61.028400 702983.400000
65.038400 201691.500000
67.054200 1003970.300000
69.033400 335862.600000
69.069800 403121.300000
71.012700 49196.800000
71.049000 193668.600000
77.038300 61409.000000
79.054100 1172157.100000
81.069800 735187.500000
83.049000 96539.500000
83.085300 73487.900000
91.054100 2694000.200000
93.069700 1573857.800000
95.049000 739608.300000
95.085400 1390812.000000
97.064600 217094.400000
101.023000 90695.700000
103.054100 309683.800000
105.069800 2645227.300000
107.049000 404837.200000
107.085400 2456236.200000
109.064700 511837.200000
109.101100 619508.400000
111.043900 70951.700000
111.080200 191729.000000
115.038900 72586.900000
115.054000 539300.400000
115.075500 49559.600000
116.061800 247942.700000
117.069700 841262.500000
119.085400 3342058.400000
121.064600 4586044.500000
121.101100 827699.500000
123.080200 730707.600000
125.059500 240975.300000
128.061900 1315390.500000
129.069700 844148.400000
130.077600 99622.700000
131.085400 1600259.000000
132.056900 696714.100000
133.064600 539613.500000
133.101000 783142.800000
135.080200 1704338.500000
137.059200 82363.200000
137.095800 197818.500000
141.069700 860049.200000
142.077600 569547.900000
143.085400 2002187.500000
144.057000 471484.800000
144.093100 44564.000000
145.064700 1837257.600000
145.101000 878033.800000
146.072400 396318.300000
147.080200 7421702.800000
149.095900 642494.000000
151.075000 339119.700000
152.061500 68932.100000
153.069500 259251.800000
153.090800 157920.200000
154.077300 170694.600000
155.085300 913070.400000
156.056700 59747.400000
156.093100 91105.100000
157.064200 57883.000000
157.100900 449928.000000
158.072400 1432140.700000
159.080200 3434750.900000
160.087900 79621.700000
161.095800 1509187.500000
163.074900 200869.700000
165.069700 355701.100000
166.077500 75142.200000
167.085400 494479.000000
167.106200 219543.500000
168.056500 79571.900000
168.092900 167047.600000
169.064400 478348.000000
169.100800 358134.400000
170.072100 253178.400000
171.080100 4098151.200000
172.088100 396997.400000
173.095800 1620319.400000
175.075000 75158.200000
175.111500 158223.200000
178.077500 684693.600000
179.085200 1229698.600000
180.092700 345570.500000
181.064700 348431.000000
181.100800 387141.200000
182.072400 476405.400000
183.079800 511104.200000
183.116700 297951.600000
184.087900 310005.200000
185.095800 1552696.400000
187.075200 487831.900000
187.111200 315859.700000
189.069400 279286.800000
189.090400 56141.400000
190.076900 193159.200000
191.085400 446068.700000
192.093000 527206.700000
193.100900 890633.000000
194.072500 319722.800000
194.108600 372145.800000
195.080100 861248.800000
195.116200 283520.900000
196.087800 884680.900000
197.095600 1733488.100000
198.103400 335200.800000
199.075000 65632.500000
199.111600 362065.100000
202.077000 98858.200000
203.084800 477803.300000
204.093100 707679.300000
205.064700 89535.200000
205.101000 441818.000000
206.072800 50723.500000
206.108300 236201.500000
207.080400 315987.700000
207.116900 471875.200000
208.088100 1062011.500000
209.095800 1463368.800000
209.132000 218584.500000
210.103700 672717.500000
211.111400 999084.800000
212.119000 559642.100000
213.127100 351830.200000
215.085300 285001.900000
215.106000 230665.600000
216.092900 296799.300000
217.101100 337162.500000
218.072500 75316.900000
218.108200 102929.600000
219.080500 384192.700000
219.116400 546424.200000
220.087900 423241.900000
220.124100 73920.100000
221.095800 1258059.000000
221.131900 188717.300000
222.103500 2215762.800000
223.111400 1086314.100000
224.082600 71817.500000
224.119300 399333.700000
225.090400 69612.000000
225.126800 494839.600000
227.085700 40721.100000
227.142900 326261.600000
228.093100 99902.300000
229.100700 528229.500000
230.108800 308963.700000
231.080100 214871.700000
231.116400 327288.200000
232.088000 209828.200000
232.123600 50839.100000
233.095700 710112.300000
233.131800 232878.400000
234.103400 782393.500000
234.139600 95031.900000
235.111300 1729728.100000
235.147700 225425.000000
236.119100 417962.400000
236.155100 75643.200000
237.126800 1117829.700000
238.134800 81441.300000
239.106500 65502.900000
239.142500 265447.200000
241.100300 85319.300000
242.108500 56120.400000
243.116000 482099.200000
244.087900 57048.100000
244.124400 210106.500000
245.095700 489866.000000
245.131800 269286.100000
246.103700 553678.300000
247.111200 1339994.500000
248.119200 1012805.900000
249.126800 740658.900000
249.163400 51581.500000
250.134400 218623.800000
251.106100 62661.600000
251.142500 224629.300000
252.150400 191383.100000
253.100800 72819.500000
253.157800 67056.600000
256.087900 57481.500000
257.132100 77633.600000
258.103700 94950.000000
258.140200 67765.300000
259.111200 369509.400000
259.147300 78662.100000
260.119300 282024.900000
261.126700 1240720.300000
261.163700 74123.800000
262.134800 834779.800000
263.142600 1220116.600000
264.150900 116328.500000
265.158400 73055.400000
267.115700 61544.000000
271.111200 449846.100000
272.118900 263624.100000
273.126600 98831.300000
274.098400 50692.500000
274.134800 95708.200000
275.105900 163352.500000
275.142100 267759.700000
276.114500 48026.100000
276.150400 321216.700000
277.122200 73753.800000
277.157700 336368.000000
278.165700 95859.500000
279.173300 168196.700000
285.126900 224140.400000
286.134500 457196.200000
289.121300 200390.200000
289.158100 54001.800000
290.129400 56041.700000
291.137300 99487.700000
301.158100 70298.800000
304.144400 55348.700000

>ms2peaks
53.038600 71298.000000
55.017800 52512.700000
55.054300 67729.800000
57.033500 81084.500000
59.049100 63502.800000
61.028400 530084.900000
65.038500 390686.600000
67.054200 1373720.600000
69.033400 326521.600000
69.069800 316977.800000
71.049000 81926.400000
75.043900 36867.000000
77.038500 151710.500000
78.046100 50647.100000
79.054200 2120760.600000
81.033300 67576.100000
81.069800 855642.200000
83.049000 72678.900000
91.054100 6671733.700000
93.069700 1815578.800000
95.049000 1694493.500000
95.085400 1079145.100000
97.064500 91806.000000
101.023200 70986.800000
103.054100 591345.700000
104.062000 169474.000000
105.044600 253759.000000
105.069700 3968856.200000
107.049000 746155.600000
107.085400 1567991.600000
108.056700 77711.200000
109.045000 49082.800000
109.064600 600429.600000
109.101100 521726.100000
111.080200 71311.200000
115.054100 2116762.100000
116.061900 536277.000000
117.069700 1404919.500000
119.085400 3777877.500000
121.064700 4739731.400000
121.101100 448198.800000
123.080300 433331.300000
125.059400 47096.300000
127.053800 49361.900000
128.061900 3224364.500000
129.069700 1609557.800000
130.077500 443209.600000
131.048900 327486.600000
131.085400 1580764.700000
132.056800 1423517.900000
133.064600 434811.900000
133.101000 531020.400000
135.080200 1075499.900000
137.059500 59391.400000
137.096000 57520.200000
141.069500 1686612.300000
142.077600 914777.800000
143.085400 1998339.500000
144.056800 1210998.400000
144.093000 83038.500000
145.064600 2319301.200000
145.101000 435998.900000
146.072700 455161.000000
147.080300 4553672.200000
149.096000 209946.900000
151.075200 83704.900000
152.061800 445643.800000
153.069700 741126.100000
154.077500 375883.200000
155.048900 88182.200000
155.060200 270967.300000
155.085300 1063690.600000
156.056600 165931.900000
156.093100 229080.800000
157.064700 363147.500000
157.101000 400464.300000
158.072400 1774573.100000
159.080200 2395840.600000
160.088000 159188.600000
161.059800 45207.200000
161.095800 507950.700000
165.069700 1341909.700000
166.077400 464238.800000
167.085300 684483.000000
168.056700 172047.500000
168.093200 99570.100000
169.064400 720892.900000
169.100900 297703.300000
170.072200 497923.000000
171.080100 2577718.400000
172.088100 324607.800000
173.095700 658166.800000
177.069100 66855.000000
178.077400 1570932.000000
179.085200 2120619.500000
180.092900 517364.100000
181.064500 1004884.100000
181.101000 497788.600000
182.072400 917401.300000
183.080200 779504.500000
183.116300 65191.600000
184.088100 261513.100000
185.095900 744901.400000
187.075200 71863.700000
189.069600 701099.700000
190.077400 598685.500000
191.085300 809976.800000
192.093000 824574.200000
193.064100 58286.200000
193.100800 1018065.500000
194.072100 455274.300000
194.108400 482136.600000
195.080100 1336687.200000
195.116200 231025.800000
196.087900 939065.600000
197.095800 959213.300000
198.103600 222993.400000
202.077100 598179.800000
203.085000 830909.900000
204.093100 666271.000000
205.064700 333797.200000
205.101000 715844.600000
206.072400 314618.900000
206.109000 431541.900000
207.080100 1201423.700000
207.116700 342580.400000
208.088000 1266719.700000
209.095800 1517372.600000
210.103500 529068.700000
211.074800 42457.500000
211.111600 386404.000000
212.119700 67938.800000
215.085200 775123.600000
216.093200 439142.500000
217.101100 482802.400000
218.072200 277389.700000
218.108800 241689.500000
219.080200 842795.900000
219.116300 450954.900000
220.087900 461391.200000
220.124300 175806.300000
221.095700 1575100.900000
221.132100 85892.400000
222.103500 1456405.600000
223.111600 523236.900000
224.119300 79476.700000
225.091300 61525.000000
225.127000 91770.400000
227.084700 80568.100000
228.092800 391388.300000
229.100700 758294.000000
230.108700 361744.800000
231.080400 561187.300000
231.116300 262400.000000
232.087900 638224.400000
232.124300 60268.000000
233.095700 1129918.100000
233.131800 88784.400000
234.103500 602260.500000
235.111200 868240.900000
235.148000 69039.600000
236.119200 97960.900000
237.127000 348405.500000
241.100700 165615.700000
242.108800 222720.400000
243.116500 598953.500000
244.087800 85131.800000
244.124400 96204.900000
245.095600 721933.000000
246.103600 739844.900000
247.111300 1145059.000000
248.119100 757678.600000
249.126800 320851.400000
250.134400 59419.600000
251.142300 60174.000000
252.092300 57063.100000
256.087900 98513.900000
256.123500 40216.000000
257.095800 78390.900000
257.131700 74881.800000
258.103200 91659.200000
259.111000 329595.800000
260.118900 116060.500000
261.127100 715352.200000
262.135200 359154.300000
263.142900 379952.100000
270.104200 69207.900000
271.110900 450376.100000
272.118500 74398.200000
273.127000 65846.500000
274.097700 51929.700000
275.106700 50280.800000
275.143100 45226.400000
285.127600 288791.100000

>ms2peaks
51.023000 45758.600000
53.002200 51505.200000
53.038700 176752.900000
55.017900 65210.300000
61.028300 355897.600000
65.038500 729170.700000
67.054100 1154080.600000
69.033400 386918.700000
69.069800 236907.300000
71.049100 60808.100000
77.038400 348113.000000
78.046200 64075.600000
79.054100 2445948.700000
81.033400 166223.100000
81.069700 483404.100000
83.049100 68691.900000
91.054100 8641621.900000
93.069700 1355498.600000
95.049000 2844248.800000
95.085400 490057.400000
97.064700 60531.000000
103.054100 1247822.400000
104.062000 346907.400000
105.044600 398489.600000
105.069700 3441402.700000
107.049000 785265.400000
107.085400 579291.700000
108.056700 46862.500000
109.044900 37432.800000
109.064600 288752.500000
109.101000 74714.100000
111.043800 41000.700000
115.054100 3239433.900000
116.061900 1044410.200000
117.069700 1490256.400000
118.077400 63595.900000
119.085400 2475562.400000
121.064600 3022051.000000
123.080400 176143.400000
125.059700 56164.400000
127.054100 207638.500000
128.061800 4634152.500000
129.069700 1798842.800000
130.077600 531455.000000
131.048900 628657.400000
131.085300 635284.200000
132.056800 1507479.500000
133.064500 286261.900000
133.101000 186764.200000
135.080300 421354.800000
141.069500 2191661.700000
142.077500 1162686.800000
143.085400 902928.800000
144.056800 1108862.100000
145.064600 1902099.700000
145.101000 247633.800000
146.072400 438138.300000
147.080200 1442383.300000
152.061700 872634.300000
153.069600 1244515.900000
154.077400 435353.300000
155.048900 214707.700000
155.060000 376316.600000
155.085100 918731.200000
156.056500 92806.300000
156.093100 62983.200000
157.064600 720830.200000
157.100700 164000.200000
158.072300 1308102.700000
159.080200 956298.800000
161.095800 84497.400000
165.069600 2162814.300000
166.077200 589095.800000
167.085200 792965.100000
168.057000 331483.300000
168.093100 80423.300000
169.064300 627716.100000
169.100800 174328.900000
170.072100 359456.000000
171.080000 1171178.100000
172.087700 115539.700000
173.096100 68450.500000
176.061700 93599.700000
177.069400 248086.200000
178.077300 2583737.400000
179.085200 2357087.300000
180.092700 322191.000000
181.064400 1402306.200000
181.101000 191815.000000
182.072300 737924.500000
183.080000 579181.800000
184.088200 77526.900000
185.095700 239884.100000
189.069500 1097887.200000
190.077300 721883.200000
191.085200 1115155.600000
192.093000 809995.200000
193.064300 43948.700000
193.100600 714879.100000
194.072300 518450.000000
194.108800 90317.500000
195.079900 1260818.700000
196.088100 475692.300000
197.095600 395859.900000
202.077100 1116456.900000
203.084900 1038487.900000
204.093000 559802.600000
205.064800 428420.500000
205.101000 718163.700000
206.072300 99905.700000
206.108700 94143.400000
207.080100 973789.900000
207.117100 75038.300000
208.087900 574274.200000
209.095500 616489.800000
210.103800 59352.800000
211.110800 63847.500000
215.085100 1259859.400000
216.092900 536281.400000
217.100700 473059.100000
218.071900 479116.100000
218.108900 98380.600000
219.080000 1039962.900000
219.116400 222560.300000
220.087700 305254.500000
220.124900 52530.600000
221.095600 821994.200000
222.103400 484651.900000
223.111400 219735.900000
226.077400 84557.800000
227.085000 242045.800000
228.092900 786256.700000
229.100600 896242.000000
230.108900 167339.000000
231.079900 604171.400000
231.116400 286950.900000
232.087800 713328.200000
233.095700 858051.800000
233.132600 56485.000000
234.103700 268048.900000
235.111600 395568.400000
239.085200 93567.200000
241.100700 177241.200000
242.108700 220064.200000
243.116200 327913.400000
244.088000 207749.100000
245.095600 646369.000000
246.103000 488370.500000
247.111200 621191.500000
248.119200 226310.200000
249.126800 74258.800000
252.092600 67601.400000
253.101200 92467.100000
255.080500 112881.900000
256.088300 55779.500000
257.096000 46702.900000
258.104200 46937.000000
259.111200 186388.300000
261.127100 160166.300000
271.111600 98497.500000
285.126900 41329.900000

