>compound EQ85115827
>parentmass 414.1547
>ionization [M+H]+
>formula C22H23NO7
>rt 324.000000
>profile orbitrap
#smiles_iso CN1CCC2=CC3=C(C(=C2C1C4C5=C(C(=C(C=C5)OC)OC)C(=O)O4)OC)OCO3
#smiles_can CN1CCC2=CC3=C(C(=C2C1C4C5=C(C(=C(C=C5)OC)OC)C(=O)O4)OC)OCO3
#inchikey AKNNEGZIBPJZJG-UHFFFAOYSA-N
#pubchem_id 4544
#mb_accession EQ302401,EQ302402,EQ302403,EQ302404,EQ302405,EQ302406

>ms2peaks
179.070000 1300313.900000
220.096600 67990469.000000
353.102100 5094026.300000
365.101900 1981233.700000
396.144500 573323.000000
414.154300 516217674.300000

>ms2peaks
165.054700 1069473.900000
179.070100 20157962.600000
191.069900 340507.200000
193.049200 560893.500000
204.065400 331281.800000
205.073000 2093355.000000
206.081100 10575178.400000
218.081100 2339095.800000
219.089100 3038509.400000
220.096700 304368314.400000
248.091500 3481897.115000
280.073000 618101.400000
292.072800 901879.700000
295.096900 1248230.000000
306.051100 326164.100000
307.096300 2272722.200000
308.103700 1179031.900000
312.099100 824778.600000
313.106800 329681.300000
320.067200 719134.800000
321.074800 875671.100000
322.083600 2168555.700000
323.091100 9281993.100000
324.099000 4679601.900000
325.106800 3716936.100000
327.122300 1117271.700000
332.067800 683946.100000
334.083300 3910688.200000
335.091100 2910572.400000
337.107100 1451473.100000
338.078900 1481048.500000
349.107200 330653.600000
350.078400 10293623.400000
352.094400 4608544.700000
353.101700 94757059.000000
355.117700 2409483.100000
363.109400 774252.300000
365.101900 26632086.400000
366.097500 814756.900000
371.112000 1001688.900000
378.133500 2151542.700000
381.120500 6103231.200000
383.112200 2517271.700000
396.143900 7259447.300000
414.154400 57509097.500000

>ms2peaks
91.054100 891672.900000
119.049100 839991.100000
121.064700 2731223.100000
133.064400 256307.300000
149.059800 1007181.300000
151.075200 281082.500000
161.059300 627467.000000
162.091200 213936.100000
164.046500 217125.100000
165.054400 1802057.100000
177.054600 291610.800000
179.070100 15163325.500000
189.054300 1032176.300000
190.062400 266265.100000
190.085600 298571.300000
191.057200 259246.800000
191.070200 943449.800000
193.049300 1936952.600000
203.057800 489082.000000
204.065400 1187040.100000
205.073200 19178722.700000
206.081000 17479211.700000
209.095700 210859.100000
217.049600 292378.700000
218.071700 214236.100000
218.081000 3692888.700000
219.089000 3933330.600000
220.096600 187334922.700000
221.096200 244793.100000
222.067400 227429.100000
223.075200 330147.500000
224.083000 297890.200000
234.067500 794431.100000
235.075000 692360.900000
237.054300 270184.300000
237.091100 658227.100000
239.106100 330356.500000
246.067300 605078.600000
247.075300 1033979.600000
249.054400 546717.200000
249.090800 1182731.900000
250.062500 264191.300000
251.070000 1204087.300000
252.078300 1165356.500000
261.054200 654605.900000
262.062300 1503658.000000
263.069800 3323705.600000
264.077800 2872758.800000
265.049300 1220989.100000
265.085500 1982736.900000
266.094200 324416.900000
267.065000 354060.900000
267.101400 1290858.100000
269.117900 247792.200000
274.061900 1226183.900000
275.070300 1221100.400000
276.042300 193864.300000
276.078300 2674396.600000
277.050000 1068809.700000
277.085700 2519670.500000
278.057600 327611.100000
278.093400 594693.900000
279.065300 2194335.700000
279.101700 1096842.700000
280.072900 8859841.900000
281.081000 1398840.000000
282.088600 913415.000000
289.049500 629241.300000
290.057000 877702.400000
291.064900 3261468.100000
292.072600 4288483.700000
293.044100 623648.800000
293.080600 3274861.000000
294.088400 2082251.800000
295.060500 1962932.500000
295.096200 12846454.200000
296.104000 805993.400000
297.075300 825584.400000
297.111700 693898.800000
302.057200 1390273.900000
303.065300 1424914.200000
304.072900 2083528.000000
305.044900 397930.400000
305.080300 4147788.300000
306.051900 4270404.600000
306.088600 915718.200000
307.059700 7354643.300000
307.096200 3448573.100000
308.067500 3397586.100000
308.104100 751140.900000
309.075500 3913364.100000
310.083200 6001656.200000
311.091300 624875.300000
312.098700 2027250.700000
313.106800 250655.300000
317.044600 235955.800000
319.059900 3435406.300000
320.067500 1701881.200000
321.075600 3404343.500000
322.083500 9824189.200000
323.056900 2272741.362000
323.091200 28022915.800000
324.098800 3838236.400000
325.106700 10613144.200000
327.122000 991702.400000
332.067700 1990487.200000
333.075300 330675.400000
334.083500 6704207.600000
334.105800 522853.600000
335.054900 3171748.400000
335.090500 1629441.000000
337.070600 3360508.400000
337.106800 686259.400000
338.078400 6456001.100000
338.100800 654922.400000
340.093500 207895.600000
348.086200 574617.200000
349.071200 322782.600000
349.107500 213329.100000
350.078400 11085174.700000
350.099700 622103.900000
352.093600 3471869.700000
352.117800 2520018.800000
353.101600 32424037.200000
355.117500 740482.400000
363.109800 311112.600000
365.102500 3851785.500000
366.097100 5356192.900000
378.132700 313131.200000
380.113000 236825.500000
381.120200 2748810.000000
383.113000 207819.500000
396.143600 569503.000000
414.154700 312276.600000

>ms2peaks
91.054100 2270059.200000
93.069700 735450.500000
95.048900 235649.800000
103.054000 876318.900000
119.049000 992619.100000
121.064600 4393876.200000
131.049000 717211.100000
132.056900 262103.400000
133.064600 622579.200000
134.036200 552074.400000
135.043700 164308.600000
136.051700 164210.700000
137.059500 228799.700000
148.075600 234118.500000
149.059600 962675.800000
151.075100 266573.300000
160.051600 339265.000000
161.059500 588579.300000
162.090800 329244.600000
163.038700 395607.200000
164.046600 702011.500000
165.054500 2300172.100000
165.069400 183546.400000
174.055200 201903.400000
175.062900 291040.700000
176.046200 235226.600000
176.070500 573346.200000
177.054600 1072261.600000
177.078100 265391.300000
178.077500 232659.800000
179.070000 7766051.600000
188.046500 670142.700000
188.070400 224546.300000
189.054400 853150.400000
189.069300 216432.500000
190.062600 254311.600000
190.077700 137314.000000
190.085900 604019.100000
191.057500 1699538.000000
191.069900 1423555.100000
191.085200 238641.300000
192.056500 152373.500000
192.065300 235296.400000
193.049200 2187928.500000
193.064000 212244.700000
194.072400 534919.300000
195.080000 222029.500000
196.088400 178983.500000
203.057400 1388365.600000
204.056800 228163.700000
204.065300 3073919.600000
205.073200 48677041.400000
206.072900 892238.000000
206.081000 17531029.700000
207.080300 699979.700000
208.088300 309292.000000
209.059000 309037.100000
209.095900 292687.200000
210.067500 176575.200000
217.049800 150406.200000
217.064500 267300.400000
218.072100 739218.100000
218.081300 3478197.600000
219.079900 1056288.700000
219.089000 2278488.100000
220.096600 125487819.500000
221.059500 1027762.500000
221.095800 317666.400000
222.066800 829902.300000
223.074700 730576.900000
224.082900 1147798.500000
225.090400 244141.500000
232.051700 285214.000000
233.059600 1340329.600000
234.067300 3091378.800000
235.075000 1996497.900000
236.082700 1268609.900000
237.054400 2233586.600000
237.091000 693061.400000
238.062300 249859.100000
239.070400 1021549.500000
239.106500 548133.500000
244.051800 167262.400000
245.059700 258769.900000
246.067500 1414971.900000
247.075000 1825015.000000
248.046500 820188.800000
248.082700 758361.300000
249.054300 3491175.500000
249.090600 2119607.000000
250.062500 1095375.400000
251.070100 3396907.500000
252.078100 3082436.600000
253.085700 916867.600000
254.093600 656513.100000
255.065200 224438.200000
260.046600 228845.200000
260.082500 186650.300000
261.054000 1893667.700000
262.062200 4784033.200000
263.070100 5207511.000000
264.077700 5110911.000000
265.049200 5889645.800000
265.085600 2742459.800000
266.057700 187859.300000
266.093700 972156.300000
267.065000 1899705.300000
267.101500 2406653.700000
269.080000 285872.700000
269.117000 345950.000000
274.061800 1818365.200000
275.070000 2677486.800000
276.041500 330368.200000
276.078000 2160419.200000
277.049200 3569929.000000
277.086000 2521833.800000
278.057100 1901514.000000
278.093800 565278.300000
279.065000 5995123.100000
279.101300 862876.100000
280.072700 19148245.400000
281.080600 3724122.200000
282.088200 1586858.300000
283.059900 293633.600000
285.075900 160546.600000
289.049400 1717443.200000
289.085700 167103.900000
290.057100 2474896.400000
291.065000 5285611.200000
292.072600 5068088.200000
293.044200 1639594.800000
293.080600 4244013.100000
294.052700 202013.400000
294.076500 146156.500000
294.088800 1823182.300000
295.059900 5829484.700000
295.096100 14160098.800000
296.103900 789386.300000
297.075200 1714865.600000
297.112400 554366.100000
298.084200 251066.000000
302.056900 2064551.200000
303.065400 1084998.100000
304.072600 1576302.200000
305.044700 1331294.600000
305.080700 3840357.400000
306.051900 6258719.600000
306.088600 881954.400000
307.059700 14109178.500000
307.096500 980511.000000
308.067600 4069473.700000
308.104400 630607.000000
309.075500 6106481.400000
310.083100 7020802.700000
311.055600 175135.300000
311.091000 252191.800000
312.098500 1285409.900000
313.107200 235613.100000
317.043700 315179.000000
319.059800 4226717.200000
320.067500 1804847.100000
320.091400 685899.200000
321.075700 2833656.800000
322.083600 7670140.200000
323.054900 4584419.500000
323.091200 14173221.000000
324.099300 1710548.200000
325.070000 618547.200000
325.106700 5132883.700000
332.068600 1237590.300000
333.075400 730379.800000
334.083500 3229810.700000
334.104300 289577.800000
335.055000 3187297.200000
335.090400 627415.500000
336.085400 450857.500000
337.070500 4247505.700000
338.078400 4566029.700000
338.101800 1112451.100000
340.093100 165277.000000
348.086300 804554.100000
349.070900 579588.400000
350.078500 3234008.900000
350.099200 426457.500000
351.073500 832648.900000
352.093600 972879.200000
352.118000 1255616.500000
353.101400 6061322.800000
365.102400 267134.500000
366.096900 5091467.800000
380.111700 209663.600000
381.120400 239221.500000

>ms2peaks
65.038500 177799.900000
79.054200 270416.000000
91.054100 3872991.300000
93.069700 295801.400000
94.064900 270185.500000
95.049000 1351530.200000
103.054100 1006809.000000
105.033200 160846.000000
105.044600 148784.500000
105.069600 181694.300000
106.040800 146160.000000
106.065000 210550.600000
107.048900 293457.000000
115.054100 240648.100000
118.041200 158699.500000
118.064600 324344.500000
119.048900 1192939.600000
120.080400 234605.600000
121.064700 4199244.800000
121.088400 637348.000000
122.036000 627721.200000
130.041100 912755.300000
131.048900 953473.900000
133.028500 150322.900000
133.052100 180045.100000
133.064600 909743.000000
134.036000 585123.900000
134.060100 171152.100000
135.043800 559925.900000
135.067700 182585.600000
136.051800 539489.700000
137.060100 130538.100000
145.064500 182760.600000
146.036000 304774.100000
146.060000 301601.000000
147.044000 771221.000000
147.067700 1761364.500000
148.075500 2321309.500000
149.059500 965576.700000
149.083200 800523.500000
150.030800 215035.500000
151.038900 170100.300000
151.075400 303565.100000
152.061800 601487.700000
153.069700 340309.500000
158.035600 332297.900000
159.067800 730986.000000
160.051800 673042.600000
160.076000 208424.100000
161.059700 211357.700000
162.030800 294112.500000
162.054300 188096.500000
162.091200 566652.300000
163.038800 669912.400000
164.046700 970035.100000
165.054400 1250145.100000
165.069700 1279163.100000
166.077400 312023.500000
167.085200 189285.100000
174.030800 1014671.200000
174.054800 1328520.800000
175.038700 235010.500000
175.062600 1694642.800000
176.046800 848648.500000
176.061800 773782.600000
176.070400 1655961.400000
177.054400 2332120.800000
177.069800 864903.800000
177.078200 906488.300000
178.077500 2351761.000000
179.049200 189845.900000
179.070100 2192103.600000
179.085000 655185.200000
181.064500 2378586.000000
182.072300 167122.400000
183.079900 691822.800000
188.046600 2719711.000000
188.070400 775074.300000
189.054200 662179.000000
189.069600 1469174.300000
190.049600 286690.200000
190.077400 784168.400000
190.085600 229181.100000
191.048900 278485.800000
191.057400 5504784.400000
191.070300 879279.300000
191.085000 692591.700000
192.056600 963617.500000
192.064800 349934.600000
193.049300 877884.900000
193.064600 1251568.600000
193.072700 277966.300000
194.072300 1541387.600000
195.080200 1603627.900000
196.052300 208776.900000
196.087900 283460.700000
202.077200 244253.500000
203.057600 2294726.200000
203.085700 190372.200000
204.056700 897350.300000
204.065400 3904124.200000
205.065300 3265114.600000
205.073200 62281534.300000
206.072300 1646216.100000
206.080900 11212117.400000
207.043800 400649.100000
207.080100 1580834.800000
208.051900 162282.300000
208.088000 552119.000000
209.059500 3235470.800000
209.096000 332376.800000
210.066900 275757.700000
211.075000 811274.100000
216.056800 680755.000000
217.064300 612520.200000
218.072200 1487517.500000
218.081600 1850172.900000
219.044000 609788.900000
219.080000 1874850.100000
219.089100 411733.600000
220.051700 2652439.100000
220.096600 36208570.900000
221.059400 4215156.700000
222.067100 2179682.800000
223.075100 3418640.800000
224.082800 2190561.000000
225.090800 223781.000000
226.062100 177883.700000
231.043000 207594.700000
231.080100 136414.000000
232.051400 1533331.300000
233.059400 4590227.300000
234.067300 4618813.200000
235.038700 553953.900000
235.075000 3913724.200000
236.047100 1388537.800000
236.082900 1344969.700000
237.054300 8878330.900000
237.091000 785244.300000
238.062400 827122.000000
239.070100 1717913.700000
239.106600 183462.500000
244.052400 305781.100000
245.059300 836192.800000
246.031100 142828.700000
246.067300 1541073.900000
247.038700 997798.900000
247.075200 2049986.900000
248.046100 1464287.000000
248.083200 808957.000000
249.054400 8026147.600000
249.091100 674900.000000
250.062200 2582061.300000
251.070000 6605939.800000
252.041600 306474.600000
252.077800 3180949.700000
253.048700 166586.100000
253.085900 960701.700000
254.056700 153443.900000
254.093500 555607.500000
255.065000 917558.200000
259.039100 465325.600000
260.046500 704784.400000
261.054400 4219836.000000
262.062300 5135139.800000
263.070000 5719192.000000
264.041300 1234713.300000
264.064500 224006.700000
264.077700 3086912.800000
265.049200 14460497.000000
265.085800 2165752.000000
266.057100 1809812.700000
266.080600 198799.300000
266.093400 193497.300000
267.064800 2419001.500000
267.101800 559439.200000
269.080400 572490.800000
269.116900 179032.000000
273.054300 538970.900000
274.062100 1075385.400000
275.070300 1320765.900000
276.041400 685826.300000
276.077700 1112010.400000
277.049400 4561086.500000
277.085200 1068320.300000
278.056900 1697606.700000
279.064800 6378134.900000
280.036700 1212217.100000
280.072800 10678826.500000
281.080600 3308861.600000
282.052200 171495.100000
282.089000 274948.000000
283.059600 1508738.100000
285.075600 306628.900000
289.049400 2307055.400000
290.056900 1368591.000000
291.064800 3092957.400000
292.036200 775959.500000
292.072700 1298887.800000
293.044600 2432769.600000
293.080700 1955739.100000
294.052300 1189120.300000
294.074900 204891.100000
294.089000 209090.700000
295.059800 6404643.900000
295.096200 2487872.100000
297.075400 606452.100000
298.083100 203674.200000
302.057200 730682.800000
303.066000 249715.300000
304.037100 258045.700000
304.073300 213652.100000
305.044100 1470963.000000
305.081400 1259477.300000
306.052100 2861533.900000
307.059800 8934932.500000
308.068500 1155222.600000
308.091500 220848.500000
309.075400 3130618.100000
310.083500 2104192.000000
311.055600 207336.700000
312.098200 234364.200000
313.071300 246624.200000
317.044100 182207.600000
319.059900 2349814.900000
320.067900 332362.700000
320.090800 237241.800000
321.076200 1171557.700000
322.047400 226040.900000
322.083300 860239.300000
323.054400 2592364.300000
323.091600 933472.500000
325.070000 285912.800000
325.106600 341398.400000
335.055500 756241.900000
336.085100 230732.800000
337.070300 1749884.500000
338.079200 214947.300000
338.102000 552033.800000
351.073400 218988.000000
366.096700 845730.500000

>ms2peaks
65.038500 831265.900000
78.046300 888401.764400
79.054100 1207509.300000
91.054100 5366456.800000
93.069700 287052.300000
94.065000 1193282.100000
95.049000 2216584.500000
102.046300 1043151.687000
103.054100 1252175.600000
104.049300 681188.433500
105.033500 397198.400000
105.044800 406765.400000
105.069800 329559.600000
106.041100 661530.700000
106.065000 1900369.200000
107.049000 919408.500000
107.072800 1201069.790000
115.053900 801007.900000
117.033200 767294.812200
118.041100 912502.000000
118.064900 2004848.800000
119.049000 776227.600000
119.072800 1868502.222000
120.080600 2190926.900000
121.028200 758498.712100
121.064600 3311553.600000
121.088400 2055817.800000
122.036000 714688.000000
130.041300 1356585.200000
131.049000 1673047.900000
132.057000 1338849.500000
133.028300 289588.500000
133.052000 573840.800000
133.064700 1623935.500000
134.036000 799584.900000
134.059800 823046.800000
135.043900 924337.600000
135.067700 595272.100000
139.053600 561360.154500
145.064500 288150.500000
146.036300 1457348.300000
146.059900 1566562.500000
147.044000 1315873.600000
147.067700 5504887.800000
148.075500 6478245.600000
149.023000 664197.683700
149.059500 795635.700000
149.083400 1346367.100000
150.030700 260327.000000
151.039000 208062.400000
152.061900 3288281.100000
153.069700 3346958.100000
158.036000 1096657.600000
159.067600 1010828.400000
160.051500 944999.200000
160.075500 690026.400000
161.060000 411863.800000
162.031100 786262.200000
162.054900 1322497.700000
162.091400 226088.100000
163.038700 733209.600000
163.053800 1929054.222000
164.046500 883744.600000
164.061700 834923.118500
165.054500 1025723.000000
165.069700 8540984.800000
166.077400 1270373.100000
167.085200 895074.400000
168.056900 1365749.151000
169.064900 1044100.757000
174.031200 1595517.900000
174.054900 2211989.000000
175.038800 264604.500000
175.062700 2616667.800000
176.046500 1612847.500000
176.061800 3080711.700000
176.070400 3221540.200000
177.054300 5072222.200000
177.069700 2127887.200000
177.078200 1200522.300000
178.077500 5103378.300000
179.048800 770646.300000
179.070000 332735.800000
179.085300 1865748.500000
180.056300 1198003.370000
181.064600 8839329.800000
182.072500 630994.900000
183.080200 870964.400000
188.046700 3684658.800000
188.070600 1320800.200000
189.054400 594515.800000
189.069800 3973645.900000
190.049600 851342.000000
190.077600 946457.900000
191.049000 1604591.200000
191.057300 10996311.200000
191.085200 834973.400000
192.056900 3142427.000000
192.065300 506049.300000
193.064700 4518719.900000
193.073400 694355.100000
194.072400 3414938.400000
195.080300 3280778.300000
196.052100 1021027.200000
196.087900 320706.500000
197.059900 974723.697200
202.077300 811540.500000
203.048800 632636.231500
203.057400 3402152.600000
203.085400 297276.800000
204.056600 2403337.000000
204.065400 4853998.800000
205.064500 8239729.600000
205.073200 47584449.700000
206.072200 2576099.300000
206.080900 6577298.700000
207.044100 1927992.100000
207.080100 2269493.200000
208.051600 2284913.500000
208.087800 581560.700000
209.059500 9628870.100000
210.067600 1095302.000000
211.075300 1523328.200000
216.056500 614401.900000
217.064400 1224498.900000
218.072300 1877553.900000
218.081500 979176.600000
219.043800 3065289.700000
219.080600 1284232.100000
220.051700 4402810.700000
220.096700 9330901.800000
221.059500 10152066.200000
222.031100 1558494.854000
222.067300 2739804.500000
223.075000 4251505.400000
224.046500 765422.685100
224.082800 1349923.800000
225.054900 812994.538500
225.090100 315668.700000
226.062400 266940.500000
231.044000 565932.900000
231.080400 256778.100000
232.051700 2518975.700000
233.059500 6800297.200000
234.067400 4915969.000000
235.039000 1480976.400000
235.075000 4039715.700000
236.046500 5765898.900000
236.083200 622414.800000
237.054400 14324161.200000
238.062700 1323522.700000
239.070000 2401231.900000
244.051700 272106.500000
245.059600 814789.800000
246.030500 284711.200000
246.067000 1170946.700000
247.038700 2347853.200000
247.075400 1363252.300000
248.046400 2474352.000000
248.082700 210208.600000
249.054400 10101055.000000
250.062200 2835381.700000
251.070000 5928446.100000
252.041500 1431018.000000
252.078300 1537249.000000
253.050100 496557.900000
253.085300 1147495.900000
254.056800 566822.300000
255.064800 897505.900000
259.039200 214774.400000
260.045800 198450.900000
261.054100 3360340.400000
262.062300 2867813.700000
263.033800 912863.983400
263.070300 3679019.200000
264.041600 3451670.600000
264.065700 327092.400000
264.078000 1132547.100000
265.049300 14421466.400000
265.085600 840926.400000
266.057300 3032923.900000
266.080600 553058.900000
267.064900 1849397.700000
269.081000 214789.700000
273.054300 299748.900000
275.069900 327684.100000
276.041600 543189.600000
277.049100 3527028.300000
278.057100 1895643.800000
279.065000 5023691.700000
280.036300 2102677.800000
280.072900 3066311.900000
281.080300 1665896.500000
282.052700 224936.800000
283.059200 1035390.600000
285.075900 302186.300000
289.049600 1137283.700000
290.057400 717309.800000
291.065600 1108883.700000
292.036100 1674190.000000
292.072500 231437.200000
293.044200 1548834.700000
293.080300 520295.800000
294.052400 1282689.400000
294.076000 684183.100000
295.059800 4640068.200000
295.096400 240474.600000
304.036700 235274.200000
305.043500 714314.900000
306.051600 945225.100000
307.059900 3464776.800000
308.092100 191258.300000
309.075400 1643822.000000
310.083900 269416.400000
313.070200 215460.200000
319.060200 281845.100000
322.047300 221108.700000
322.070200 601250.901000
323.054700 342604.200000
337.070100 206910.000000

