>compound EQ86429394
>parentmass 359.0405
>ionization [M+H]+
>formula C15H10ClF3N2O3
>rt 828.000000
>profile orbitrap
#smiles_iso C1=CC=C(C(=C1)C(=O)NC(=O)NC2=CC=C(C=C2)OC(F)(F)F)Cl
#smiles_can C1=CC=C(C(=C1)C(=O)NC(=O)NC2=CC=C(C=C2)OC(F)(F)F)Cl
#inchikey XAIPTRIXGHTTNT-UHFFFAOYSA-N
#pubchem_id 47445
#mb_accession EQ311801,EQ311802,EQ311803,EQ311804,EQ311805,EQ311806

>ms2peaks
110.999300 301348.800000
113.015100 358196.300000
138.994400 14599835.700000
156.021100 203662501.100000
178.047400 4292428.900000
359.040300 113632339.700000

>ms2peaks
75.022900 306815.800000
95.049200 361374.500000
110.999300 327392.600000
113.015200 5377531.900000
138.010900 558492.400000
138.994500 58122836.000000
156.021100 277924061.600000
178.047400 5661194.400000
359.040800 537526.900000

>ms2peaks
75.022700 454148.900000
93.033500 171240.000000
95.049100 1458036.800000
105.044700 310490.300000
110.999300 591724.400000
111.044000 440340.600000
113.015200 15091404.300000
129.010200 939076.100000
138.010700 1350279.300000
138.994500 143420621.500000
156.021100 126778861.200000
176.031700 330883.600000
178.047300 4492848.400000

>ms2peaks
75.022600 652912.300000
77.038500 287234.600000
86.999600 649739.400000
92.049500 248357.400000
93.033500 599890.800000
94.041300 525930.500000
95.049100 2909702.600000
105.044700 519875.200000
110.060100 284910.900000
110.999200 806532.600000
111.044000 1213141.600000
113.015200 14114027.000000
121.039500 323961.400000
129.010200 2468311.900000
138.010600 1918243.900000
138.994600 170790353.000000
156.021000 59908863.900000
176.031800 662218.300000
178.047400 3034718.400000

>ms2peaks
50.015200 325155.600000
65.038500 595382.800000
75.022800 2149013.800000
77.038400 552595.900000
79.017800 209252.300000
86.999600 1952672.700000
92.049400 682216.600000
93.033400 2215553.200000
93.057300 636770.400000
94.041300 1517236.700000
95.049100 6453880.000000
105.044700 1502480.300000
110.059900 563472.300000
110.999400 1810466.300000
111.044000 4927862.300000
113.015200 9722149.400000
120.044300 337444.900000
121.039500 1388952.700000
129.010100 11218713.300000
130.040000 595914.400000
138.010500 2619156.700000
138.994800 170633811.900000
139.004200 10919626.700000
156.021000 17012580.000000
176.031400 725331.300000
178.047400 1236044.500000

>ms2peaks
50.015200 572933.400000
51.023000 294664.700000
53.002300 166259.000000
65.038600 1327371.900000
68.994600 356145.800000
74.015000 710158.600000
75.022900 6784570.000000
76.030700 107945.100000
77.038600 899457.200000
79.017900 536007.100000
84.983900 439395.300000
86.999600 3994941.200000
92.049400 894656.100000
93.033400 3972829.500000
93.057300 925244.200000
94.041300 2907635.500000
95.049100 7446359.000000
98.036200 129361.700000
102.033800 293470.300000
105.044700 1593310.200000
110.060000 300836.800000
110.999500 3809964.800000
111.044000 7321947.200000
113.015200 4449860.200000
114.994400 307209.400000
120.044400 1035519.700000
121.039500 1893029.500000
129.010100 25171956.800000
130.040000 1170264.400000
138.010600 2270301.300000
138.994900 107609535.900000
139.004800 40166130.380000
149.021300 129408.200000
156.021000 2869474.100000
176.031900 500973.600000
178.047300 456604.200000

