>compound EQ86080279
>parentmass 129.1022
>ionization [M+H]+
>formula C6H12N2O
>rt 48.000000
>profile orbitrap
#smiles_iso C1CNCCC1C(=O)N
#smiles_can C1CNCCC1C(=O)N
#inchikey DPBWFNDFMCCGGJ-UHFFFAOYSA-N
#pubchem_id 3772
#mb_accession EQ315501,EQ315502,EQ315503,EQ315504,EQ315505,EQ315506

>ms2
55.054200 206276.500000
56.049500 209959.200000
67.054300 199461.700000
68.049400 594305.000000
69.033500 287113.400000
82.065100 202657.700000
84.080700 19225937.000000
94.065100 1269118.800000
112.075700 147510829.300000
129.102200 89445236.100000

>ms2
55.054100 176662.700000
56.049500 190574.900000
67.054200 169266.800000
68.049500 476764.200000
69.033500 280700.100000
82.065200 154496.600000
84.080800 18453543.300000
94.065100 1227886.600000
112.075700 144280847.000000
129.102200 89746351.600000

>ms2
55.054200 206784.100000
56.049400 262222.600000
67.054200 283145.300000
68.049400 780024.400000
69.033500 444031.200000
82.065000 294695.000000
84.080700 30252382.000000
94.065100 2151672.600000
112.075700 155755893.800000
129.102200 60041501.200000

>ms2
56.049500 272358.100000
67.054200 638577.800000
68.049500 1532775.900000
69.033500 892611.800000
69.069900 157626.400000
82.065200 430689.000000
84.080800 51550164.900000
94.065100 4250460.900000
95.049200 219925.300000
112.075700 148120755.700000
129.102200 29785764.900000

>ms2
55.054200 166182.600000
56.049500 801729.100000
57.069900 133700.300000
65.038600 141991.500000
67.054200 1682919.300000
68.049500 2382075.100000
69.033500 1451157.500000
69.069900 408299.600000
82.065200 897591.400000
83.049100 134471.400000
84.080800 68109718.500000
93.057300 250163.900000
94.065100 8215070.700000
95.049100 555818.200000
96.044300 166326.500000
105.044800 211512.100000
112.075700 95589247.600000
129.102200 8289220.100000

>ms2
55.054300 135794.500000
56.049500 1150191.900000
57.070000 146118.800000
65.038600 209735.900000
67.054200 3386664.500000
68.049500 3193535.800000
69.033500 1631452.000000
69.069900 379562.100000
77.038500 404893.900000
80.049400 71524.200000
82.065200 1565797.900000
83.049200 251809.100000
84.080800 68238245.000000
93.057300 495821.400000
94.065100 11377183.000000
95.049100 1144086.600000
96.044400 215684.000000
105.044900 529630.800000
112.075700 54024729.100000
129.102200 2213697.400000

