>compound EQ87000348
>parentmass 215.05819999999997
>ionization [M+H]+
>formula C9H11ClN2O2
>rt 480.000000
>profile orbitrap
#smiles_iso CN(C(=O)NC1=CC=C(C=C1)Cl)OC
#smiles_can CN(C(=O)NC1=CC=C(C=C1)Cl)OC
#inchikey LKJPSUCKSLORMF-UHFFFAOYSA-N
#pubchem_id 15629
#mb_accession EQ317301,EQ317302,EQ317303,EQ317304,EQ317305,EQ317306

>ms2peaks
60.044500 12423376.400000
62.060100 43545638.000000
72.983600 259432.100000
88.039100 9011956.400000
98.999400 2423924.800000
106.049800 837639.200000
119.060200 519399.600000
126.010300 147153852.800000
127.018000 14601457.700000
141.033700 269482.300000
147.055000 831649.000000
148.062800 130526819.700000
154.005200 5355219.800000
155.036800 863388.500000
158.036500 485191.700000
168.008300 287464.400000
183.031800 10031473.500000
184.039600 12657418.400000
215.057900 207607274.100000

>ms2peaks
60.044400 15436960.500000
62.060100 41406770.900000
63.022600 207818.300000
72.983800 295254.800000
88.039200 7442818.100000
90.033600 670095.900000
98.999400 4604836.400000
106.049600 902792.900000
119.060000 971924.300000
123.067600 253342.500000
126.010400 203901882.900000
127.018100 33945206.600000
140.026000 214896.300000
141.021400 261536.700000
141.033900 931363.000000
143.013100 571991.200000
147.055200 1397976.500000
148.062900 151222356.300000
154.005200 4394194.800000
155.036900 772657.700000
158.036700 557271.500000
168.008300 290452.200000
183.031800 12564715.200000
184.039600 11104807.500000
215.057900 72351435.400000

>ms2peaks
60.044500 14972767.600000
62.060100 19800122.900000
72.983600 989701.200000
88.039200 2231226.800000
90.033700 3166157.200000
91.041400 1016420.800000
98.999500 24125244.900000
106.064900 312506.700000
119.060200 6609092.600000
120.068000 1092700.100000
126.010400 242333136.200000
127.018100 67740603.000000
131.060100 803975.200000
140.025800 593100.700000
141.021200 564182.200000
141.033900 1555961.200000
147.055100 5543829.600000
148.062900 123319901.400000
154.005200 2760370.600000
155.037000 285824.800000
168.008000 567483.300000
183.031800 14868914.400000
184.039500 1773742.500000
215.057900 3753270.300000

>ms2peaks
58.028800 682125.400000
60.044400 11558204.800000
62.060100 8815216.000000
63.022700 944111.100000
65.038500 564063.100000
72.983800 2047988.300000
81.033400 627117.500000
90.033700 9282644.900000
91.041500 4177833.000000
92.049400 1177942.700000
93.057200 1266826.600000
98.999500 89276638.900000
100.007300 950690.100000
105.044400 261409.000000
106.065000 1125554.200000
108.044200 600854.700000
119.060200 24645217.700000
120.044200 238195.500000
120.068000 2844594.700000
126.010400 217780990.700000
127.018100 100179839.000000
131.060300 2067098.900000
133.039400 219854.900000
140.025900 1253749.300000
141.021200 862358.000000
141.033600 1051052.200000
143.013100 468612.900000
147.055100 16018521.800000
148.062900 71253015.700000
154.005200 1045401.900000
155.036800 273725.000000
168.008200 775665.700000
183.031800 13477627.500000

>ms2peaks
58.028800 1511173.400000
60.044500 6255949.200000
62.060100 3506535.400000
63.022900 1357339.500000
65.038600 1897734.700000
72.983800 5027437.700000
81.033500 300579.500000
90.033700 11983755.900000
91.041500 8370506.600000
92.049400 4395614.700000
93.057100 2327910.800000
98.999500 159601168.500000
100.007300 5144639.300000
105.044500 880320.900000
106.065000 1363959.700000
108.044300 1182677.500000
110.059900 187886.200000
114.010400 354305.600000
119.060200 41430480.200000
120.044400 220425.900000
120.068100 2234115.200000
126.010300 120799643.400000
127.018100 101761788.800000
129.044600 216858.800000
130.052800 181926.600000
131.060200 2473349.400000
133.039500 507455.000000
139.005600 239725.300000
140.025900 2020429.200000
141.021100 580307.300000
141.033600 218986.300000
147.055100 19910914.700000
148.062800 24675352.900000
155.036800 288424.900000
168.008200 718834.000000
183.031800 7687595.700000

>ms2peaks
58.028800 3195793.800000
60.044400 3636908.600000
62.060100 1363980.400000
63.022900 3542087.100000
65.038600 6855550.800000
72.983900 17171723.700000
81.033500 580610.100000
90.033700 10914898.600000
91.041500 13032656.700000
92.049300 13735002.200000
93.057100 2558427.900000
98.999500 220224147.300000
100.007200 13528034.200000
105.044700 2342846.500000
106.065000 639804.900000
108.044300 828521.000000
110.060000 1267948.500000
114.010500 988695.700000
119.060200 50905844.400000
120.044200 487322.900000
120.068200 1255654.500000
126.010300 57031094.300000
127.018100 96441449.360000
128.025800 527626.600000
129.044600 816573.600000
131.060200 1679767.300000
133.039400 800700.200000
139.005500 671217.100000
140.025800 2026520.500000
141.021000 1244413.000000
147.055000 15281649.500000
148.062900 8567828.300000
168.008100 910340.200000
183.031800 4285706.700000

