>compound EQ87516913
>parentmass 127.07269999999998
>ionization [M+H]+
>formula C3H6N6
>rt 48.000000
>profile orbitrap
#smiles_iso C1(=NC(=NC(=N1)N)N)N
#smiles_can C1(=NC(=NC(=N1)N)N)N
#inchikey JDSHMPZPIAZGSV-UHFFFAOYSA-N
#pubchem_id 7955
#mb_accession EQ315101,EQ315102,EQ315103,EQ315104,EQ315105,EQ315106

>ms2
60.055700 1429336.700000
68.024300 1327759.600000
85.050900 25035049.400000
110.046200 751485.500000
127.072700 250338035.300000

>ms2
60.055600 1077871.900000
68.024300 1224189.500000
85.050800 24525763.500000
110.046100 773020.200000
127.072700 237282897.900000

>ms2
60.055700 1851370.000000
68.024300 1751891.300000
85.050900 36141709.000000
110.046100 1338026.900000
127.072700 206858488.800000

>ms2
60.055700 3490057.400000
68.024300 4499786.000000
85.050900 68503784.700000
110.046200 2167099.700000
127.072700 165886716.400000

>ms2
60.055700 5826097.800000
68.024300 12021564.700000
85.050900 103764370.000000
110.046100 3207276.300000
127.072700 90923723.200000

>ms2
60.055600 5368526.000000
68.024300 21200013.600000
85.050900 94082863.800000
110.046100 2802909.900000
127.072600 36942761.400000

