>compound EQ87576166
>parentmass 264.0608
>ionization [M+H]+
>formula C14H14ClNS
>rt 312.000000
>profile orbitrap
#smiles_iso C1CN(CC2=C1SC=C2)CC3=CC=CC=C3Cl
#smiles_can C1CN(CC2=C1SC=C2)CC3=CC=CC=C3Cl
#inchikey PHWBOXQYWZNQIN-UHFFFAOYSA-N
#pubchem_id 5472
#mb_accession EQ302901,EQ302902,EQ302903,EQ302904,EQ302905,EQ302906

>ms2
89.038300 934306.400000
111.026200 2074772.800000
125.014900 33384607.200000
138.037100 1206245.700000
154.041800 310397512.300000
235.034300 1248749.100000
264.060900 749049221.900000

>ms2
89.038400 1184477.800000
111.026200 3938432.000000
125.015200 187208084.100000
138.037300 1467800.000000
154.041900 992624579.300000
221.018700 1342748.000000
235.034200 6661052.500000
264.060900 278302499.500000

>ms2
89.038300 2192474.300000
111.026300 3576758.400000
125.015300 607630377.100000
138.037500 1952145.600000
154.041900 455461053.600000
235.034200 2808994.400000
264.060900 10599042.300000

>ms2
63.022800 1550193.600000
89.038400 3199040.600000
90.046400 1013236.700000
98.999500 1085520.800000
111.026200 2089477.600000
125.015300 853587608.600000
138.037500 1669759.000000
154.041800 200919904.100000
235.034300 1761299.200000

>ms2
72.983700 1082484.700000
89.038500 9780236.200000
90.046300 2266937.000000
97.010700 1227225.300000
98.999700 3497350.800000
111.026400 2529234.600000
125.015300 928940120.500000
154.041900 32622772.500000

>ms2
63.022800 2635262.400000
72.983600 1795125.100000
89.038500 30849077.400000
90.046300 6148087.600000
97.010600 1573643.300000
98.999600 12557845.200000
111.026200 2362212.100000
125.015300 1040649769.800000
154.041900 3799331.500000

