>compound EQ88693040
>parentmass 116.1434
>ionization [M+H]+
>formula C7H17N
>rt 288.000000
>profile orbitrap
#smiles_iso CCCCCC(C)N
#smiles_can CCCCCC(C)N
#inchikey VSRBKQFNFZQRBM-UHFFFAOYSA-N
#pubchem_id 5603
#mb_accession EQ315301,EQ315302,EQ315303,EQ315304,EQ315305,EQ315306

>ms2peaks
53.002300 218739.900000
55.054300 74038.500000
57.069900 60320334.000000
71.085600 224321.600000
116.143400 7702764.800000

>ms2peaks
53.002300 130204.100000
57.069900 60106218.400000
70.065200 82591.200000
71.085600 235540.300000
116.143400 7892161.500000

>ms2peaks
53.002300 146521.000000
55.054300 97073.300000
57.070000 60683491.800000
71.085500 262895.800000
116.143400 5454438.900000

>ms2peaks
53.002300 602796.700000
53.997500 113593.600000
55.054300 99141.100000
57.069900 61010072.800000
70.065200 86431.300000
71.085500 279531.900000
116.143300 1659924.000000

>ms2peaks
53.002300 752410.500000
53.997600 95926.900000
57.069900 50803531.600000
71.085500 115822.600000
116.143300 92188.200000

>ms2peaks
53.002300 1144060.000000
53.997600 118256.900000
55.054400 248432.400000
57.069900 36423845.400000

