>compound EQ89492056
>parentmass 248.1645
>ionization [M+H]+
>formula C15H21NO2
>rt 324.000000
>profile orbitrap
#smiles_iso CCOC(=O)C1(CCN(CC1)C)C2=CC=CC=C2
#smiles_can CCOC(=O)C1(CCN(CC1)C)C2=CC=CC=C2
#inchikey XADCESSVHJOZHK-UHFFFAOYSA-N
#pubchem_id 4058
#mb_accession EQ333101,EQ333102,EQ333103,EQ333104,EQ333105,EQ333106

>ms2
70.065100 2271845.200000
174.127800 51930716.000000
202.122700 16100196.000000
220.133400 27593044.000000
248.164600 1983190656.000000

>ms2
70.065100 12956684.000000
91.054200 1627831.600000
131.085600 1930547.600000
145.101400 1681100.100000
174.127800 228743040.000000
202.122600 34309572.000000
220.133400 164312256.000000
248.164600 1421129216.000000

>ms2
70.065100 106993072.000000
82.065100 658718.100000
83.073000 517826.700000
91.054100 4402453.500000
96.080700 3199689.800000
97.088600 2020023.200000
98.096500 5167884.000000
99.044100 3458230.500000
103.054100 3319417.000000
105.069900 2062850.900000
117.070000 4831416.000000
127.075300 1193378.600000
129.069500 546733.200000
131.085600 16658005.000000
143.085700 2031101.000000
145.065000 3460714.800000
145.101200 7676650.500000
158.096500 1452296.900000
159.104200 730260.100000
172.112300 1911978.500000
174.127800 345298048.000000
175.135500 1865216.100000
176.143400 14799277.000000
184.112200 6404011.500000
202.122700 25764442.000000
220.133300 462934464.000000
230.154100 484471.900000
246.149500 1558567.000000
248.164600 391949472.000000

>ms2
58.065200 1827585.400000
67.054200 1678671.400000
70.065100 313632480.000000
71.072900 397595.400000
79.054200 622840.700000
81.033500 1822945.600000
82.065100 4607151.500000
83.073000 3186921.800000
84.080900 543508.600000
91.054200 30158768.000000
96.044400 1596651.200000
96.080800 12564728.000000
97.088600 10127091.000000
98.096500 28688852.000000
99.044100 15775361.000000
103.054300 30164874.000000
105.033600 4306853.500000
105.069900 11065375.000000
115.054300 3892490.800000
116.062100 2594998.500000
117.069900 24618074.000000
127.075400 403531.200000
128.062000 2029480.900000
129.069900 7508446.000000
130.077800 4440525.500000
131.085600 87044104.000000
133.064900 1884279.400000
140.070700 1513721.000000
141.069900 673284.600000
142.086500 1468891.400000
143.085600 5993257.500000
145.064800 4297148.500000
145.101200 10573120.000000
146.096400 1635973.600000
158.096500 2042387.900000
159.080500 767827.200000
159.104400 2431836.800000
169.088700 793210.500000
172.112100 5879811.000000
174.127800 262443200.000000
175.135500 3115359.000000
176.143400 45344332.000000
184.112300 12103026.000000
202.122600 11405548.000000
218.117700 2225332.800000
220.133300 373693760.000000
248.164700 55528172.000000

>ms2
53.038600 559139.900000
57.057400 2155246.500000
58.065100 2959343.200000
65.038700 1168489.100000
67.054200 2399522.500000
68.049500 729031.300000
69.069900 617995.200000
70.065100 292380576.000000
71.073000 696157.500000
77.038500 510999.500000
79.054200 3323869.200000
81.033500 3538357.000000
81.057300 387832.700000
82.065100 9602892.000000
83.073000 6364668.500000
84.080700 414942.600000
91.054200 93089168.000000
94.065100 2093609.400000
95.049200 750057.300000
96.044400 1461665.200000
96.080800 19056974.000000
97.088700 9972892.000000
98.096500 28098758.000000
99.044100 16434228.000000
102.046300 337583.300000
103.054300 74688880.000000
105.033600 4254667.000000
105.069900 18170860.000000
107.049100 1747361.600000
107.072800 580313.600000
115.054200 16098172.000000
116.062100 12749514.000000
117.069900 30540926.000000
122.096500 569542.400000
128.062100 7772127.000000
129.069900 17869816.000000
130.077800 7366716.000000
131.085600 104171808.000000
132.080800 407700.800000
133.065000 2282512.800000
140.070600 1587966.900000
141.069900 1340924.900000
142.086600 620211.400000
143.060300 447538.400000
143.073300 419777.300000
143.085500 6356054.500000
144.080900 573006.900000
145.064900 3208050.500000
145.101500 3917206.800000
146.096800 2495446.000000
155.060400 1436805.600000
157.088600 550419.400000
158.096500 3088348.800000
159.080700 484746.700000
159.104300 4017516.500000
160.112200 489941.200000
168.080800 622865.200000
169.088700 2387035.000000
172.112100 7652713.500000
174.127800 125585400.000000
175.135600 1711392.800000
176.143400 23972434.000000
182.096500 388850.600000
184.112200 7360841.500000
202.122300 3225846.200000
218.117900 1376379.500000
220.133300 81720256.000000
248.165100 2709100.800000

>ms2
53.038700 426050.500000
56.049600 457777.200000
57.057300 3190569.200000
58.065200 4027803.500000
65.038600 4148587.200000
67.054200 2198403.200000
68.049600 1759195.100000
69.069900 543061.200000
70.065100 247282736.000000
71.049100 338118.900000
71.072900 1759676.100000
77.038500 2467025.500000
79.054200 7628186.500000
80.049400 400368.600000
81.033600 4029745.800000
81.057300 1266862.200000
82.065100 15997079.000000
83.073000 7972297.000000
84.080800 1381044.900000
91.054200 186533184.000000
94.065200 3590024.800000
95.049200 5109595.500000
96.080800 23687892.000000
97.088700 5943800.000000
98.096500 14191833.000000
99.044100 10137576.000000
102.046200 344621.600000
103.054300 137824912.000000
105.033600 4848477.500000
105.044600 2764111.800000
105.069900 21096736.000000
107.073000 1864452.900000
112.075600 663991.600000
115.054300 35184680.000000
116.062100 29173308.000000
117.069900 31184882.000000
128.062100 13669194.000000
129.069900 30263264.000000
130.077800 7219717.000000
131.085600 67730096.000000
132.080700 429112.700000
133.064700 2458037.200000
140.070700 478083.900000
141.069900 1437833.400000
142.086400 527246.500000
143.060500 413064.100000
143.073300 335375.800000
143.085600 3132323.800000
144.080900 345081.800000
145.065000 2284967.000000
145.101300 1229518.200000
146.096700 1450477.600000
155.060300 2893927.500000
157.088700 783554.500000
158.096700 3632446.000000
159.080400 356990.700000
159.104100 2314917.200000
160.112100 1420441.600000
168.081100 1991679.800000
169.088400 1328235.400000
172.112100 5888471.000000
174.127800 74562632.000000
176.143500 5451657.000000
182.096400 694281.100000
183.104500 1727519.600000
184.111900 2171820.800000
218.118300 299867.500000
220.133400 11586567.000000

