>compound EQ89261803
>parentmass 299.9414
>ionization [M+H]+
>formula C9H8Cl3NO2S
>rt 564.000000
>profile orbitrap
#smiles_iso C1C=CC[C@H]2[C@@H]1C(=O)N(C2=O)SC(Cl)(Cl)Cl
#smiles_can C1C=CCC2C1C(=O)N(C2=O)SC(Cl)(Cl)Cl
#inchikey LDVVMCZRFWMZSG-OLQVQODUSA-N
#pubchem_id 18594026
#mb_accession EQ303901,EQ303902,EQ303903,EQ303904,EQ303905,EQ303906

>ms2peaks
77.038500 1162.400000
79.054200 131583.300000
81.069900 16442.600000
94.935200 10008.400000
95.966900 1627.800000
104.049600 4850.900000
106.065100 68102.400000
113.015300 6162.500000
125.015100 4691.400000
127.030900 4175.400000
129.928100 2954.800000
131.966900 2914.000000
134.060000 80171.300000
136.021500 8107.700000
140.026200 7683.500000
145.982600 4445.200000
147.971400 17731.600000
155.907000 4472.300000
156.987500 1291.700000
168.021000 1224.300000
171.998200 22630.700000
176.002800 1467.500000
179.943600 33459.300000
203.997900 65306.600000
207.975100 12934.000000
235.969900 517502.600000
263.964800 1099488.700000

>ms2peaks
57.069900 2043.800000
59.049300 643.900000
63.994800 731.600000
66.940300 10057.400000
69.069800 1444.100000
77.038300 1627.700000
79.054200 377220.100000
80.956100 1081.200000
81.069900 9874.000000
89.059700 5867.100000
91.054200 5396.800000
93.951400 4595.200000
94.935300 86317.000000
95.049100 4356.900000
95.966900 11334.700000
96.044300 1369.200000
97.955800 7388.900000
98.966600 910.100000
104.049400 12808.200000
105.033500 1581.900000
105.057300 1341.900000
106.065100 228654.100000
107.049100 5702.700000
109.010600 5563.700000
111.026300 8525.700000
113.015200 18873.300000
114.010400 7726.000000
114.917100 1505.000000
115.030900 2982.900000
115.989700 893.300000
116.906100 1574.500000
121.946200 3273.000000
125.015200 32981.000000
127.030900 17638.000000
129.928000 25960.900000
130.971600 4845.900000
131.967000 17117.600000
134.060000 44800.400000
136.021600 60234.200000
137.029400 4706.100000
140.026100 11576.600000
141.033900 3258.600000
144.987400 4292.200000
145.982700 19890.200000
147.002900 2945.500000
147.971500 119639.300000
155.907100 13989.900000
156.987300 5756.200000
158.976400 803.200000
160.992000 1596.600000
168.020900 823.000000
171.998200 121176.300000
176.002700 6805.100000
179.943600 175943.900000
181.922800 7508.300000
199.993400 1643.900000
203.997900 49649.700000
207.975000 37648.500000
235.969800 313524.200000
263.964800 87410.800000

>ms2peaks
53.038700 567.300000
57.070000 3450.400000
59.990300 1402.000000
61.979300 1580.300000
63.994800 1009.300000
66.940400 44815.400000
69.069900 1272.200000
77.038300 5369.400000
78.046200 1295.800000
79.054200 548928.700000
80.956100 2676.400000
81.069800 3544.500000
86.005900 700.400000
88.978900 731.300000
89.059700 3175.000000
89.974300 900.100000
91.054200 10790.800000
93.951300 22803.500000
94.935300 157366.000000
95.049200 26867.300000
95.967000 10080.200000
96.044400 22987.500000
97.955900 18215.300000
98.966500 2925.300000
101.015300 1553.500000
104.049500 16645.700000
105.033400 1445.800000
105.044800 6275.400000
105.057300 7775.700000
106.065200 208416.000000
107.049100 12844.400000
109.010700 15912.700000
111.026300 19411.000000
113.002600 3560.700000
113.015300 15537.300000
114.010600 5879.500000
114.917100 5154.100000
115.030900 5745.400000
116.906000 9309.500000
119.966900 1419.800000
121.010700 3301.400000
121.946200 1308.100000
122.018500 1313.700000
125.015300 59716.500000
127.030800 9110.600000
127.912200 941.800000
128.026500 1066.200000
129.928000 58773.900000
130.972000 5749.300000
131.966900 20425.500000
134.060000 3801.900000
136.021600 99996.200000
137.029500 9179.300000
140.026200 11651.500000
141.033900 3459.800000
143.967300 1139.800000
144.974800 3777.600000
144.987400 5778.600000
145.982700 17317.100000
147.003100 945.900000
147.961900 6991.400000
147.971600 132502.400000
148.878200 3293.800000
155.907200 96663.200000
156.987500 6642.800000
158.976300 2657.200000
171.998200 73129.300000
176.003000 2985.200000
179.943600 170284.000000
181.923000 7865.100000
203.998000 7039.600000
207.975100 9433.200000
235.969900 24005.900000
263.964800 753.800000

>ms2peaks
57.069900 797.400000
58.065200 686.400000
59.049100 583.800000
59.990300 946.800000
61.979300 2816.000000
62.963300 949.000000
63.994900 1399.000000
65.038600 1003.100000
66.046400 629.200000
66.940300 73132.200000
69.069900 1214.500000
71.049200 794.300000
77.038500 6602.800000
78.033700 1618.500000
78.046400 2962.100000
79.054200 542358.300000
80.956000 1372.600000
81.069900 4307.500000
85.969600 986.100000
86.005600 617.500000
88.978900 1361.600000
89.059700 2978.200000
89.974000 716.700000
91.054200 7784.400000
93.951200 29350.500000
94.935200 132165.600000
95.049100 49082.400000
95.966900 7425.000000
96.044300 41742.100000
97.955800 22864.600000
98.966600 1378.000000
101.015200 2987.800000
104.049400 19847.400000
105.033400 857.500000
105.044700 9877.100000
105.057200 13140.800000
106.065100 136557.900000
107.049100 12557.900000
109.010600 15786.200000
110.005800 2593.600000
110.018200 1245.500000
111.026200 16422.800000
113.002600 11017.400000
113.015200 14148.200000
113.909100 7516.700000
114.010500 6540.800000
114.917000 5362.600000
115.030900 4461.000000
116.906000 14666.400000
119.966700 3074.100000
120.938100 949.400000
121.010500 2601.600000
122.018300 1164.100000
125.015200 66110.800000
127.030800 3541.900000
127.912100 1615.800000
128.026200 1228.300000
129.927900 52053.500000
130.005200 3336.000000
130.971600 6384.500000
131.966900 16651.100000
134.060100 1068.700000
136.021500 87723.500000
137.029300 8901.000000
138.037100 1192.000000
140.025900 7934.500000
141.033900 2733.700000
143.966900 1199.300000
144.974800 6667.500000
144.987300 4367.000000
145.982500 8916.700000
147.961800 6100.300000
147.971500 96537.800000
148.878000 4047.700000
155.907100 142387.400000
156.987300 3623.700000
158.976000 1167.100000
171.998100 35241.300000
179.943400 93452.200000
181.922700 4363.700000
203.998300 1165.700000
207.975100 1090.200000
235.970000 1613.400000

>ms2peaks
50.015200 662.800000
53.038700 836.400000
57.070000 723.200000
59.049200 958.400000
59.990300 4460.900000
61.979300 5388.300000
62.963200 4207.100000
63.994900 958.900000
65.038600 3095.700000
66.046400 1995.500000
66.940400 133358.600000
69.069900 973.400000
70.994900 857.500000
77.038600 11434.300000
78.033800 4342.100000
78.046500 5059.700000
79.054200 543357.100000
79.948200 1535.600000
80.956000 1134.700000
81.069900 3151.800000
85.969600 5800.100000
88.978900 3748.100000
89.038400 954.100000
89.059500 785.200000
91.054200 9855.500000
93.951300 25267.400000
94.935300 88234.500000
95.049200 102544.300000
95.966900 2781.500000
96.044400 55457.900000
97.955900 27148.900000
98.966500 1422.600000
101.015300 1346.700000
104.049500 24510.700000
105.033500 1657.200000
105.044800 18583.700000
105.057300 16404.000000
106.065200 63646.100000
107.049100 9424.200000
109.010600 23844.900000
110.006000 711.900000
110.018400 1318.300000
111.026300 12718.000000
111.994800 2908.300000
113.002700 24023.700000
113.015300 6908.900000
113.909200 45111.000000
114.010400 3435.200000
114.917100 6180.700000
115.030900 2769.200000
116.906100 30178.900000
119.966900 4454.100000
120.938400 3412.900000
121.010600 3315.600000
122.018600 3312.700000
123.935200 1471.900000
125.015300 60673.800000
127.912300 8741.500000
128.026400 797.300000
129.928000 33526.200000
130.005400 9410.400000
130.971900 5674.800000
131.967000 9861.200000
136.021700 58956.800000
137.029500 6121.200000
138.037200 821.700000
140.026300 5998.600000
141.034200 932.300000
143.967000 3123.300000
144.974900 9478.200000
144.987600 2507.900000
145.982600 1402.600000
147.961900 4775.500000
147.971600 57507.200000
148.878200 6612.000000
155.907200 159529.100000
156.987500 1648.300000
158.976300 1586.200000
171.998100 8754.300000
179.943600 31467.600000

>ms2peaks
50.015200 2681.700000
53.038700 2720.500000
57.069900 592.000000
58.065100 666.900000
59.049100 691.800000
59.990300 6388.100000
61.979200 7854.700000
62.963300 3906.900000
63.995000 760.300000
65.038600 6700.300000
66.046400 4292.000000
66.940400 167350.100000
69.069900 1221.600000
70.995100 850.000000
71.049100 821.300000
77.038500 18677.400000
78.033800 9097.100000
78.046400 7312.500000
79.054200 461084.700000
79.948300 865.500000
80.956100 949.900000
81.069900 1315.100000
85.969500 9731.300000
88.978900 4656.300000
89.038500 1557.400000
91.054200 9582.400000
93.951300 17327.200000
94.935300 51416.000000
95.049100 166720.200000
96.044400 57333.000000
97.955900 34530.900000
98.966600 933.000000
101.015300 2615.400000
104.049500 23479.500000
105.044700 32196.800000
105.057300 8600.000000
106.065100 25068.800000
107.049300 2822.800000
109.010700 22084.600000
110.006000 1200.300000
110.018500 1292.700000
111.026300 4778.000000
111.994700 2724.700000
113.002700 28571.600000
113.015300 4886.300000
113.909200 92369.300000
114.010600 5231.300000
114.917100 6062.500000
115.030800 873.400000
116.906000 40924.000000
119.967100 6566.500000
120.938400 5961.100000
121.010600 4194.300000
122.018400 1179.900000
123.935200 3282.400000
125.015200 43297.000000
127.912300 7360.200000
129.928000 17629.000000
130.005500 8334.800000
130.971800 4489.200000
131.966900 4971.600000
136.021600 31302.100000
137.029300 2732.800000
140.026300 2864.600000
143.967200 1081.300000
144.974800 7330.900000
147.971600 23530.100000
148.877900 6328.900000
155.907200 114431.000000
158.976200 902.200000
171.998500 1216.700000
179.943500 7039.800000

