>compound EQ90992140
>parentmass 347.1019999999999
>ionization [M+H]+
>formula C12H18N4O6S
>rt 726.000000
>profile orbitrap
#smiles_iso CCCN(CCC)C1=C(C=C(C=C1[N+](=O)[O-])S(=O)(=O)N)[N+](=O)[O-]
#smiles_can CCCN(CCC)C1=C(C=C(C=C1[N+](=O)[O-])S(=O)(=O)N)[N+](=O)[O-]
#inchikey UNAHYJYOSSSJHH-UHFFFAOYSA-N
#pubchem_id 29393
#mb_accession EQ309901,EQ309902,EQ309903,EQ309904,EQ309905,EQ309906

>ms2
57.033600 547728.600000
231.018200 2680406.400000
240.061600 531346.100000
241.051400 1166799.700000
241.986600 481785.000000
243.018300 12044512.100000
245.981800 1796506.400000
247.013100 27693569.500000
256.038500 687131.600000
259.013200 6672228.000000
263.008000 9858774.700000
270.041800 601796.400000
271.049600 2083298.200000
287.044400 19148428.200000
288.028300 20676039.000000
301.060300 4668963.900000
305.054900 58580774.600000
313.096600 1798822.300000
347.101900 323743590.400000

>ms2
52.018400 132667.000000
53.002400 473258.100000
56.013200 2175510.700000
57.033500 1487009.000000
63.985300 101473.600000
65.026000 165886.900000
67.041800 92562.600000
79.029300 154818.800000
84.044300 1038106.600000
92.037100 429123.900000
93.020900 409327.900000
93.044800 184536.900000
95.024100 130871.100000
105.044900 436312.800000
105.057200 135993.400000
108.032000 129431.400000
109.015900 183156.200000
109.039500 97113.300000
110.047300 104492.500000
117.057300 823691.200000
118.052400 147554.600000
120.080600 154905.700000
121.039500 130726.600000
123.019200 118010.300000
131.060500 162792.900000
131.072500 123058.800000
132.031800 1170572.000000
132.080800 402341.200000
133.039700 472595.200000
133.052400 538953.500000
134.047600 691088.000000
135.018900 228509.100000
135.042900 112664.100000
136.026700 229994.000000
143.060100 137074.300000
145.039700 2648086.000000
148.050600 201606.900000
148.075600 394246.700000
149.034400 439061.300000
149.058400 151171.900000
150.029800 605760.000000
151.037700 118428.400000
152.021500 146175.600000
153.029700 393888.800000
159.055300 278288.200000
160.063200 111038.300000
161.070800 726975.400000
163.050300 279485.300000
165.016700 111723.700000
165.029400 210309.800000
167.045200 501624.000000
167.056300 224989.900000
171.021700 140276.300000
176.081700 142814.700000
177.065900 1460236.400000
178.024700 579614.900000
178.073800 948904.400000
179.032700 399424.600000
180.040500 914245.200000
182.019900 397086.300000
184.035600 1111042.300000
190.061400 147355.900000
194.985700 126101.100000
196.035300 865228.600000
197.001700 196879.800000
197.025300 135380.700000
198.014500 4624469.300000
201.020400 876489.200000
206.031100 1578399.600000
207.064300 463678.500000
213.020300 6031747.500000
214.015600 153333.200000
217.015200 2168708.800000
224.066600 3588224.100000
225.056600 1497250.100000
227.022800 109645.200000
227.970600 192779.200000
228.007500 3279285.400000
230.011300 202547.000000
230.022800 199635.800000
231.018300 4743476.500000
232.002300 1429045.600000
240.061500 21388422.200000
241.051600 3195775.900000
241.986800 581295.400000
242.010600 2252215.500000
243.018300 17708582.400000
244.997500 1760804.600000
245.981600 25677718.300000
247.013200 29744251.400000
255.018100 203964.500000
256.038700 2166405.200000
259.013300 20341184.600000
263.008100 28824476.700000
269.034000 1320792.900000
270.041800 2479523.500000
271.049600 2981513.000000
277.024200 397814.000000
287.044600 9583419.600000
288.028500 80499158.500000
301.060200 10326826.400000
305.055000 18213968.600000
313.096300 2305426.200000
347.101900 6866800.500000

>ms2
52.018300 831755.100000
53.002300 1307969.800000
53.997500 180017.700000
55.017800 108323.700000
56.013200 3927378.900000
57.033500 958967.000000
59.049100 156144.800000
63.985100 1089791.200000
64.018200 195066.800000
65.025900 534605.100000
66.021300 141292.300000
66.033700 102600.100000
67.041600 417568.700000
67.989300 100013.900000
68.013100 611711.700000
68.049500 98482.700000
69.008300 172206.300000
69.020800 84926.600000
70.028800 102853.300000
76.017900 96943.200000
77.013400 154693.700000
77.025900 124648.700000
78.021200 178101.400000
78.033700 1614971.100000
79.029100 681718.500000
79.041600 407815.100000
79.054200 121655.100000
80.013100 533476.100000
80.036900 227051.000000
80.049400 487934.000000
81.020900 128669.000000
82.028600 227885.900000
84.044400 686187.400000
90.021200 108024.200000
91.028900 199657.400000
91.054200 539913.900000
92.013000 469800.300000
92.036900 1827297.300000
92.049400 215678.600000
93.020900 957162.300000
93.044700 783700.000000
93.057200 142158.900000
93.069800 96757.400000
94.016200 161407.400000
94.028700 483638.300000
94.052500 330701.100000
95.024000 723757.100000
95.036500 153154.100000
103.054300 167123.500000
104.049500 747999.000000
105.020800 143250.900000
105.044800 1510389.000000
105.057200 237352.700000
105.070000 105144.200000
106.028900 151410.400000
106.052700 168271.300000
106.065000 172645.300000
107.023900 444028.400000
107.060200 138721.300000
108.007600 134280.100000
108.031700 204553.600000
109.016300 140818.500000
109.039100 108471.900000
115.053700 134406.100000
116.049100 297586.400000
117.057200 3842416.400000
118.016000 213342.100000
118.039800 142360.100000
118.052500 481045.900000
118.065100 521459.600000
119.024100 1162623.500000
120.031800 113516.900000
120.055500 196596.600000
120.080800 1140915.700000
121.039600 908800.000000
121.063400 149538.600000
122.047600 165229.200000
123.018700 208711.800000
124.026700 104248.400000
130.065300 234670.000000
131.060400 1114139.000000
131.072900 225203.700000
132.031900 2297473.800000
132.080800 3243886.600000
133.039600 3498680.600000
133.052200 589011.400000
134.035000 142614.900000
134.047400 775339.300000
134.060100 115163.000000
135.018900 696519.200000
135.042700 684137.100000
135.055300 406883.500000
136.026800 955357.700000
136.076000 167389.100000
137.034500 550812.000000
143.060400 389238.400000
145.039700 6848135.000000
145.076100 1019443.100000
146.047700 140218.300000
146.059700 100908.900000
148.014000 774141.900000
148.026900 210046.300000
148.050600 1091224.600000
148.075800 2086763.200000
149.022100 233167.000000
149.034600 1703877.200000
149.058400 106973.300000
150.029900 570401.400000
150.042200 189688.200000
151.050300 378866.400000
152.021700 509229.900000
153.029700 127322.600000
159.055600 713273.100000
160.063100 383881.300000
161.071000 2148717.200000
163.050300 434937.500000
165.016700 571339.200000
165.029100 167601.600000
167.045200 832765.000000
167.056100 185612.800000
170.014500 1454803.300000
171.022100 1584287.000000
176.081900 195016.800000
177.065900 2147028.400000
178.024500 907836.700000
178.073300 998741.640400
179.032600 871526.500000
180.040300 397161.900000
182.019700 1791962.600000
184.035200 504600.800000
185.025300 172038.000000
190.061000 148011.400000
194.986100 526143.500000
196.035600 394329.900000
197.001500 183176.100000
197.025300 1672209.500000
198.014500 32103721.600000
200.012500 397295.500000
200.030200 730954.800000
201.020200 1006996.900000
206.030900 686766.300000
211.022600 130341.300000
212.012300 1037770.200000
213.020300 6605071.900000
214.015300 185289.000000
217.015300 3353174.200000
223.040900 274577.900000
224.048900 633812.500000
224.066400 756512.000000
225.056500 1612107.400000
227.023500 140321.500000
227.971400 689661.200000
227.994900 494389.900000
228.007300 5071783.000000
230.010900 363158.800000
230.023100 718164.900000
231.018000 780310.900000
232.002300 2365059.700000
240.044100 940101.600000
240.061500 14408878.000000
241.051300 1079615.000000
241.986800 232372.800000
242.010600 1560783.400000
243.018300 9122168.200000
244.997700 2762887.700000
245.981600 17071964.800000
246.004100 2036423.362000
247.013200 3225665.700000
255.018200 389947.800000
256.039000 742013.700000
259.013200 9612973.800000
263.008300 3472577.600000
269.034100 2028350.400000
270.042000 492786.300000
271.049500 3145170.700000
287.044100 177595.100000
288.028500 4427683.600000
301.060400 1781979.000000

>ms2
52.018200 903525.000000
53.002300 1311041.300000
53.997600 134546.300000
54.033900 393047.100000
55.017900 127230.400000
55.029200 100139.100000
56.013200 3044949.800000
56.049600 155710.600000
57.033500 726386.800000
59.049200 212520.400000
63.985200 1254729.300000
64.018200 673988.000000
65.026000 778415.400000
65.038600 144893.200000
66.021200 382866.900000
66.033700 99010.300000
67.005200 118294.500000
67.029100 111784.700000
67.041700 491554.500000
67.989300 179892.900000
68.013000 724061.500000
68.997100 224334.300000
69.008300 205575.800000
76.018200 167244.300000
77.013400 219104.500000
77.026000 534589.200000
78.021300 395881.400000
78.033800 4343767.100000
79.029100 1625158.900000
79.041600 375207.600000
79.054300 437746.700000
79.980200 110053.700000
80.013200 1475145.400000
80.036900 199484.200000
80.049500 644284.600000
81.020800 204125.400000
81.057300 117889.400000
82.028800 376697.500000
84.044400 200201.200000
90.021300 191917.600000
90.033900 131609.200000
91.029100 476596.400000
91.041700 131115.100000
91.054200 920893.700000
92.013000 515816.400000
92.036900 1629675.200000
92.049500 211784.600000
93.020900 791853.400000
93.044700 977335.400000
93.070000 235122.900000
94.016100 209052.500000
94.028700 480747.700000
94.052500 155924.700000
95.024000 572088.700000
95.036600 150953.400000
96.008000 175423.300000
96.044400 233779.300000
103.029100 131977.800000
103.054300 591676.000000
104.049500 1143895.400000
105.008500 162158.400000
105.020900 209084.100000
105.044800 2144798.500000
105.057300 569811.000000
105.069900 222747.100000
106.016100 134616.900000
106.052500 468857.800000
106.065300 211383.700000
107.023900 377856.400000
108.008200 459416.900000
108.031900 222986.700000
108.044500 171660.900000
109.015800 159891.100000
109.039700 139064.100000
110.023600 143322.600000
110.047400 108393.300000
115.054200 369071.000000
116.049500 1148055.200000
117.044600 542047.300000
117.057200 6188501.400000
118.016200 156329.000000
118.039900 413553.800000
118.052400 683633.600000
118.065100 875691.700000
119.024000 2803041.800000
120.031900 134423.800000
120.055500 550696.300000
120.080700 1477260.600000
121.039600 1631292.000000
121.063400 446832.500000
122.023100 124907.300000
122.047400 231446.600000
123.018900 510082.700000
124.026700 353301.100000
130.065200 583016.100000
131.024200 104080.400000
131.060500 1354571.200000
131.073100 550602.700000
132.031800 1366869.600000
132.068200 406214.100000
132.080900 3896641.900000
133.039700 7300116.300000
134.034800 207465.700000
134.047500 714878.300000
134.059900 184706.600000
135.018900 778039.300000
135.042600 678296.200000
135.055300 447338.900000
136.026800 1078449.200000
136.075600 406778.300000
137.034500 517561.600000
143.060500 586542.700000
144.068500 189354.400000
145.039700 4448056.000000
145.076100 1843766.200000
146.047300 264579.300000
148.014200 1262660.100000
148.026800 176803.200000
148.050400 1132666.400000
148.075600 1099219.600000
149.022000 199796.800000
149.034700 2922593.300000
149.058400 191328.600000
150.029900 130983.800000
150.042400 394231.700000
151.013800 122373.200000
151.037800 165906.000000
151.050100 427898.500000
152.021700 1258448.400000
159.055400 432751.300000
160.063100 126532.300000
161.046000 119795.800000
161.071000 2163139.000000
163.050400 493937.200000
165.016900 554068.800000
166.024700 389718.300000
167.045000 643178.500000
170.014500 2406314.100000
171.022300 2396363.100000
177.065900 1362771.500000
178.024800 881883.800000
178.073400 205759.400000
179.032800 659147.500000
182.019700 1446684.400000
184.035500 151656.700000
185.025000 114011.200000
190.060700 134215.000000
194.985900 594919.300000
197.001300 152344.400000
197.025400 2699106.000000
198.014600 30895045.500000
200.012600 551575.300000
200.030200 466178.100000
201.020500 547843.300000
206.030900 116993.100000
211.022800 381057.800000
212.012700 2092425.300000
213.020300 5245909.600000
217.015400 1272544.000000
223.041400 548284.600000
224.048900 766396.800000
225.056800 1380900.100000
227.970700 461660.800000
227.994900 907754.600000
228.007600 4090415.500000
230.012100 114864.500000
230.023100 548504.100000
232.002700 1019245.300000
238.028600 213272.400000
240.043500 1140546.900000
240.061500 3079082.800000
241.051900 203165.600000
241.986800 213845.900000
242.010700 935560.800000
243.018400 4423103.000000
244.997300 745584.100000
245.981800 5376194.700000
246.005100 1890548.400000
247.013500 446434.500000
255.018900 355988.400000
256.038900 163492.200000
259.013400 4015370.300000
263.008300 688981.700000
269.034200 1425737.900000
271.049800 1329390.200000
288.028900 130282.800000

>ms2
52.018200 1414622.100000
53.002300 1354308.700000
53.997500 161344.300000
54.033900 573461.400000
55.017900 123711.900000
55.029100 168875.500000
56.013200 1942492.700000
56.049500 126353.500000
57.033500 521103.200000
59.049200 136457.900000
63.022800 216435.600000
63.985200 1674827.400000
64.018200 1026835.900000
65.026000 1103146.800000
65.038600 680358.900000
66.021300 148000.400000
66.033800 226524.600000
66.046600 82942.500000
67.005200 160032.600000
67.029000 410051.200000
67.041600 662807.900000
68.013100 1010292.800000
68.997000 157162.500000
69.008300 113131.500000
69.020900 105033.900000
76.018100 529413.000000
77.013400 460893.600000
77.026000 973186.200000
77.038500 119351.200000
78.033800 11469112.700000
79.029100 3749218.000000
79.041600 558465.400000
79.054200 567683.500000
79.980000 190779.200000
80.013100 1554974.700000
80.036900 222690.300000
80.049500 1826372.900000
81.020900 107934.100000
81.044600 192576.900000
81.057200 118225.000000
82.028700 533985.100000
89.038400 183992.300000
90.021200 217889.000000
90.033600 695090.000000
91.029200 653814.600000
91.041600 191198.600000
91.054200 1427711.000000
92.013000 185372.100000
92.036900 954019.100000
92.049300 624896.800000
93.020900 756721.700000
93.044700 886698.100000
93.057100 144757.700000
93.069900 88882.000000
94.028800 763452.800000
94.052500 395110.400000
95.023900 333974.900000
95.049200 762040.400000
96.007900 562804.500000
96.044300 168035.300000
101.013500 107244.800000
103.029000 186504.700000
103.054200 637769.300000
104.036800 146180.600000
104.049500 1928486.700000
105.008300 205883.700000
105.044700 3395221.800000
105.057200 591802.900000
105.069900 543444.000000
106.016100 106775.400000
106.028700 504906.500000
106.052600 392622.600000
106.065100 175796.700000
107.023900 522857.800000
107.060300 185850.800000
108.007800 161030.900000
108.031900 141200.000000
108.044500 787318.900000
109.015800 107505.100000
110.023700 123353.400000
115.054100 801780.400000
116.036700 122641.100000
116.049500 1386501.400000
117.044800 1840613.000000
117.057200 7624922.000000
118.016100 133106.800000
118.039900 151222.000000
118.052300 486294.000000
118.065200 978573.000000
119.024000 5445138.600000
120.055600 848068.900000
120.080800 910408.000000
121.039600 1770265.500000
122.023400 133876.400000
122.047300 95710.800000
123.018700 568981.700000
124.026500 221441.800000
124.039400 177828.902400
130.065300 1009367.300000
131.023800 103265.000000
131.060500 967415.600000
131.073000 808156.900000
132.031800 953211.300000
132.044200 134038.190100
132.055700 160082.900000
132.068100 211891.100000
132.080800 1892490.200000
133.039700 9805490.700000
134.034700 157696.400000
134.047400 499649.400000
134.059900 104928.000000
135.018600 128691.600000
135.042600 227823.100000
135.055100 178672.200000
136.026800 1561971.100000
137.034500 558263.500000
143.060200 978448.800000
144.068100 482892.500000
145.039600 1659054.200000
145.076100 2462877.700000
146.047300 215159.600000
146.059600 159625.500000
148.014300 1276747.500000
148.026900 160779.400000
148.050800 834685.400000
148.075700 144300.500000
149.021900 219630.500000
149.034600 3677115.900000
150.042500 196982.600000
151.013500 105635.600000
151.050500 270203.200000
152.021600 1715716.400000
153.029600 151656.000000
159.055000 225807.300000
160.063100 385019.900000
161.071000 1409333.800000
166.024700 142596.900000
167.045100 424435.100000
170.014500 1857622.600000
171.022100 1907949.800000
177.065900 614510.700000
178.025000 663963.000000
179.032400 218153.900000
180.040600 102912.700000
182.019600 137282.200000
185.025700 109883.400000
190.016500 106347.700000
190.036500 115200.123300
190.060700 132478.700000
194.985800 147007.300000
197.025300 2611117.000000
198.014600 10338354.300000
200.012300 461512.100000
212.012500 2498877.000000
213.020300 1918899.000000
217.015100 366623.100000
223.041100 867827.400000
224.048700 552475.900000
225.057100 1006243.800000
227.971100 121385.900000
227.994600 697394.100000
228.007300 1778457.400000
230.023100 140833.200000
238.027900 164327.800000
240.044300 845819.900000
242.010100 394570.400000
243.018200 577057.300000
245.981500 169409.100000
246.005100 215425.500000
259.013100 423260.800000
269.033900 437453.800000
271.049100 100521.400000

>ms2
50.015200 208497.448600
52.018300 1951175.300000
53.002300 1830214.600000
53.997500 126861.000000
54.033900 451915.100000
55.017900 402613.600000
55.029100 132439.000000
56.013100 1053934.900000
56.049500 137590.500000
57.033400 120031.600000
59.049100 114179.600000
63.022900 920005.800000
63.985100 1544815.600000
64.018200 1837140.000000
65.026000 1379984.200000
65.038600 1532146.000000
66.021200 216385.500000
66.033900 666642.700000
66.046300 102716.800000
67.005400 121887.400000
67.029100 102499.300000
67.041600 593327.200000
67.989300 116153.800000
68.013100 1035556.800000
68.049500 98619.300000
68.997000 186473.000000
69.008300 176008.500000
69.992300 219580.306800
70.028700 129631.700000
76.018200 1082921.700000
77.013400 414319.500000
77.026100 945441.300000
77.038500 110633.900000
78.033800 17142581.300000
79.029100 4435845.200000
79.041700 873914.800000
79.054200 672167.500000
80.013100 1907967.400000
80.049500 2750431.100000
81.044600 198356.100000
82.028700 470685.900000
89.038600 949257.400000
90.021200 216331.700000
90.033800 1413154.600000
91.029000 580715.700000
91.041700 824061.500000
91.054200 1582077.900000
92.012900 200434.000000
92.036900 809237.600000
92.049400 603282.700000
93.020900 653483.800000
93.044800 1134078.500000
93.057200 143826.000000
94.028700 607706.300000
94.052500 136304.400000
95.023800 373160.300000
95.036500 227912.800000
95.049200 1581308.100000
96.007900 417066.700000
96.044500 872594.700000
101.013400 187661.900000
103.029000 407426.700000
103.054100 882920.800000
104.036900 151750.400000
104.049500 2370243.700000
105.044800 4297570.600000
105.057100 625329.600000
105.069800 553928.400000
106.028600 407862.700000
106.052400 160870.800000
106.065100 110182.100000
107.023900 466630.500000
108.044400 1162236.200000
110.023500 144382.400000
115.028800 173493.361800
115.054200 731809.200000
116.036700 424628.100000
116.049500 2085661.300000
117.044700 4459761.600000
117.057200 8628884.500000
118.016100 119730.300000
118.052500 703999.700000
118.065000 916231.600000
119.024000 4794303.400000
120.055800 664513.700000
120.080600 500897.700000
121.039500 1733081.200000
122.023400 106752.500000
122.047100 125546.900000
123.018800 114037.000000
124.026700 130374.000000
130.065200 1785577.700000
131.060400 955296.700000
131.072900 1137984.100000
132.031700 762376.000000
132.055700 131079.300000
132.080700 654438.800000
133.039700 9957546.700000
134.034800 134967.500000
134.047100 522503.200000
134.060000 359012.300000
136.026900 1456659.300000
137.034400 485607.800000
143.060400 1599539.900000
144.068300 392265.400000
145.039600 434073.300000
145.076100 3234392.000000
146.047600 131710.800000
148.014100 531686.900000
148.050500 205254.300000
149.034600 4514510.500000
150.042400 171169.700000
151.050000 395648.800000
152.021500 553833.400000
161.045900 123283.800000
161.071000 809766.100000
167.045000 174209.100000
170.014600 820101.300000
171.021900 551704.500000
177.065700 138154.200000
178.024300 154950.300000
179.032800 100023.300000
190.016300 140536.400000
197.025200 1710352.300000
198.014500 1603001.900000
212.012500 1074030.400000
213.020000 461153.400000
223.040600 393525.400000
224.048800 219564.000000
225.056900 192460.100000
227.995600 116907.900000
228.006900 547921.400000
238.028000 122466.000000
240.043700 453353.400000

