>compound EQ91972040
>parentmass 224.11819999999997
>ionization [M+H]+
>formula C14H13N3
>rt 666.000000
>profile orbitrap
#smiles_iso CC#CC1=NC(=NC(=C1)C)NC2=CC=CC=C2
#smiles_can CC#CC1=NC(=NC(=C1)C)NC2=CC=CC=C2
#inchikey CIFWZNRJIBNXRE-UHFFFAOYSA-N
#pubchem_id 86296
#mb_accession EQ306201,EQ306202,EQ306203,EQ306204,EQ306205,EQ306206

>ms2peaks
106.065200 2236103.400000
223.110100 1701891.800000
224.118700 1474651903.900000

>ms2peaks
106.065300 5258106.600000
131.060800 3387035.500000
160.076000 2673341.300000
183.092100 4013768.700000
184.087400 1532284.000000
207.092400 2250387.000000
208.086900 1856570.200000
209.095200 4540704.200000
223.109800 2074847.500000
224.118700 1297434182.300000

>ms2peaks
65.038800 3726063.800000
66.033900 1562491.200000
77.038700 1748158.600000
79.054400 10491195.300000
80.049700 3443719.100000
82.065300 1970254.200000
90.034000 2146297.900000
93.057600 1945059.500000
94.065300 7768887.300000
95.049300 3818277.300000
104.049700 12616244.800000
105.044900 1239736.900000
106.065400 48149917.300000
107.060700 3212065.200000
107.073300 2895468.300000
115.054500 2512376.900000
118.065300 1920258.600000
119.060600 6078760.400000
121.076300 16980121.100000
122.060100 1142791.100000
124.076000 6850774.800000
131.060700 28765453.000000
132.068500 7084277.400000
139.086900 6736053.000000
142.065600 8101748.800000
143.060800 6189186.100000
143.073300 1152696.100000
146.071800 1208660.000000
147.079500 4349825.400000
149.071200 2519732.200000
156.081200 1839462.000000
159.092300 2358513.600000
160.076100 13882892.700000
166.065400 4082627.000000
167.073500 2446662.100000
168.068600 6188089.500000
174.091700 1096316.200000
180.081200 7217939.500000
181.076400 1607878.900000
182.084300 9394179.800000
183.092200 21859076.700000
184.075900 1009793.300000
184.087300 8119223.300000
184.100100 1572307.500000
192.068700 4387207.500000
195.091900 2358214.600000
196.099900 1765655.800000
197.107900 4577510.800000
205.077000 1271135.200000
206.084300 8883954.900000
207.092300 23130574.900000
208.087300 7612844.000000
208.099800 3646385.400000
209.095300 31209353.800000
222.103100 7616446.000000
223.111000 7375024.800000
224.118700 890297893.300000

>ms2peaks
63.023100 1364324.000000
65.038700 10302482.600000
66.033900 6560435.400000
67.029100 1998543.500000
67.054400 1171259.200000
68.049700 1296431.600000
77.038600 4558487.100000
79.054400 31424389.500000
80.049600 11587210.000000
81.057400 604199.000000
82.065200 4604764.700000
89.038700 581080.300000
90.034000 8456311.000000
91.054500 1099461.800000
92.049800 2743155.300000
93.057500 4375523.300000
94.065300 18269359.600000
95.049300 13586539.400000
96.044600 1364375.000000
104.049700 38636388.000000
105.044900 5143373.700000
106.065300 122768968.300000
107.060600 8527495.700000
107.073100 6173207.400000
115.054400 5890561.400000
116.049600 1568097.700000
118.052800 1959086.600000
118.065300 6789022.300000
119.060600 16068550.600000
121.076200 32208279.000000
122.060300 2238504.800000
124.075900 10862588.300000
129.070100 1862253.000000
130.065500 1250723.600000
131.060700 53994532.200000
132.068500 13553568.200000
139.086900 11756709.400000
140.049700 2963751.800000
142.065500 19630749.700000
143.060700 19823725.800000
143.073000 2834446.400000
146.071800 2381636.600000
147.079500 8367795.500000
149.071400 4474458.300000
153.070200 1713563.900000
156.081300 4467153.200000
157.076400 1765545.600000
159.092100 4662097.600000
160.076000 16779818.600000
166.065500 8432035.600000
167.060400 1068617.500000
167.073300 5692895.200000
168.068500 13912477.200000
169.076400 1988171.800000
170.097200 658329.700000
174.091800 1753207.400000
179.073400 1315246.500000
180.081200 17410004.100000
181.076500 5283994.000000
181.089400 663723.300000
182.084400 22394900.900000
183.092100 31206549.700000
184.076300 1580203.000000
184.087400 16566064.300000
184.099500 2493390.200000
185.071600 586928.800000
190.065700 1861077.500000
192.068600 10744029.100000
195.092200 5342729.300000
196.099800 2543360.000000
197.094700 592621.800000
197.108000 7369560.500000
205.076600 4936063.100000
206.084300 27210010.700000
207.092200 39408278.600000
208.087400 18770879.100000
208.099800 5691436.400000
209.095200 57277628.800000
222.103200 14831295.500000
223.111000 14642599.800000
224.118700 556762540.700000

>ms2peaks
51.023100 367191.600000
53.038800 575698.600000
63.023000 3341220.900000
65.038700 12966837.700000
66.034000 17349718.600000
67.029200 6038267.500000
67.041800 1325283.900000
67.054300 2004694.700000
68.049600 1090508.700000
77.038700 8475991.900000
78.034000 1238574.000000
78.046600 1753023.100000
79.054400 41369272.000000
80.049600 15626448.500000
81.033600 646988.000000
81.057400 1474162.500000
82.065300 3335350.100000
89.038700 2616052.700000
90.034000 11846604.200000
91.029200 395303.900000
91.041800 1432476.100000
91.054400 2524881.300000
92.049600 5654984.000000
93.045000 649575.100000
93.057500 7106538.900000
94.065300 22844562.300000
95.049300 38427340.200000
96.044500 3326646.500000
103.041800 237152.700000
103.054500 309164.400000
104.049700 46442713.800000
105.044900 10882920.900000
105.057400 1527104.600000
106.065300 122948948.700000
107.060500 8983126.400000
107.073000 4609812.200000
114.034000 361569.400000
115.054500 11326265.200000
116.049600 2878849.800000
117.057500 2268632.900000
118.052800 1635587.700000
118.065300 8765275.100000
119.060600 22708703.700000
120.044400 312721.700000
121.076200 23257787.000000
122.060300 4096407.200000
124.075900 3380029.300000
128.049900 661338.400000
129.045100 514049.300000
129.070100 2374766.200000
130.040200 425118.800000
130.052800 436942.500000
130.065400 1821071.400000
131.060700 34603738.900000
132.068500 8278515.100000
133.076100 321398.400000
139.054700 2281891.900000
139.086900 6116140.400000
140.049700 4743906.700000
141.057200 411584.900000
141.069800 520128.500000
142.065500 17125357.700000
143.060700 21280191.800000
143.072900 3092137.100000
146.060400 493725.000000
146.071500 1456996.600000
147.079400 7073420.900000
148.087200 482195.300000
149.071400 2540604.300000
152.062300 1361737.600000
153.070100 2371337.300000
154.065800 2121749.300000
155.060300 1151417.600000
155.073500 1140374.700000
156.068300 1049248.900000
156.081100 3505654.800000
157.076500 2240166.200000
157.089200 564678.700000
158.084300 577352.800000
158.096500 370291.200000
159.092000 3707861.200000
160.076000 7157437.000000
165.057800 359033.000000
166.065400 5438755.800000
167.060700 1515898.300000
167.073300 5561320.900000
168.068500 14234428.800000
169.064200 465229.600000
169.076300 1821546.500000
170.096600 576978.000000
178.065300 609726.400000
179.073500 2790734.300000
180.081200 15441189.100000
181.076300 8888627.600000
181.088900 1650506.700000
182.084300 25259840.700000
183.079700 2991416.000000
183.092100 14415166.400000
184.087400 11284783.000000
184.100000 1634551.900000
185.071400 1143135.600000
190.065500 1540882.400000
191.073600 1117214.500000
192.068500 15257529.100000
193.076800 355352.500000
194.084200 650867.500000
195.092300 4474734.600000
196.076500 313573.300000
196.086900 356932.300000
196.100000 3926866.500000
197.095100 445304.900000
197.108200 3012036.000000
205.076600 13558713.300000
206.084300 35440149.200000
207.092200 24206401.000000
208.087300 16066104.900000
208.099800 4814347.000000
209.095200 29260908.800000
222.103000 14452881.700000
223.110900 8213460.300000
224.118700 97659446.900000

>ms2peaks
51.023100 575182.600000
53.038800 2614361.400000
63.023100 10133449.300000
65.038700 17576826.300000
66.034000 30154747.100000
66.046600 1774935.984000
67.029200 15881270.700000
67.041700 3215380.600000
67.054300 4516274.200000
68.049600 1498009.600000
70.065300 253515.000000
77.038700 18438312.400000
78.034000 2179154.700000
78.046600 3625805.300000
79.054400 48415430.200000
80.049600 17926054.600000
81.033600 1046085.700000
81.057500 2062253.400000
82.065300 2319551.500000
89.038700 3858820.500000
90.034000 16170669.900000
91.029300 1263788.700000
91.041900 2855477.600000
91.054400 5358398.200000
92.049600 8513327.200000
93.057500 11514234.300000
94.065300 23838417.800000
95.049300 79837150.900000
96.044600 6620541.900000
103.041900 1263304.200000
103.054600 402813.500000
104.049700 44785597.400000
105.045000 21663002.700000
105.057500 2098155.200000
106.065400 92180502.100000
107.060600 6464013.700000
107.073300 2495769.900000
114.034000 327761.200000
115.054400 13479509.200000
116.049600 5673306.600000
117.057400 3011727.300000
118.052700 1856379.700000
118.065300 7935337.300000
119.060600 20691335.600000
120.044700 1717261.100000
120.068600 1056872.617000
121.076300 13014276.200000
122.060200 3268085.800000
124.075900 547850.200000
128.049700 1729898.500000
128.062100 1110572.523000
129.044900 1541853.700000
129.070200 2105743.100000
130.040300 1930530.700000
130.053000 403220.100000
130.065500 2080199.800000
131.060700 16579396.100000
132.068500 5545050.300000
139.054400 3217077.700000
139.086900 2218113.400000
140.049700 11356021.300000
141.057600 1445836.100000
142.065500 12372374.000000
143.060700 19057011.300000
143.073200 1869520.800000
146.060700 450387.600000
146.071600 2005204.900000
147.079500 5303008.100000
148.087300 307926.400000
149.071200 463354.400000
152.062300 3434392.400000
153.070200 2418307.600000
154.065800 2151178.200000
155.060600 1294295.000000
155.073200 1528819.000000
156.068600 1615027.800000
156.081300 2252432.100000
157.076400 1981382.900000
158.084400 760804.400000
159.092200 1414286.500000
160.076200 2367609.700000
165.057800 1087985.200000
166.065500 4462644.600000
167.061200 2120175.900000
167.073200 4982525.100000
168.068500 15665709.700000
169.064000 1165417.800000
169.076400 1418179.700000
170.084500 376241.500000
170.097000 346537.200000
178.065500 1678396.100000
179.060800 979200.600000
179.073300 4358262.200000
180.081100 10866176.600000
181.076400 15351026.200000
181.089200 1606407.300000
182.084300 19031718.600000
183.068400 1175910.949000
183.079700 3783197.900000
183.092100 7502683.500000
184.087400 4393462.000000
185.071700 494612.500000
190.065600 1826438.200000
191.060800 1046679.345000
191.073700 514102.700000
192.068600 12046866.200000
193.076200 1057095.300000
194.084200 630863.300000
195.092100 4865058.000000
196.075300 290412.700000
196.087300 504825.700000
196.100100 2098990.400000
197.095100 317484.600000
197.107700 1134831.100000
205.076500 26981888.300000
206.084300 29171406.300000
207.079900 2477604.375000
207.092200 9644259.900000
208.087400 15607973.100000
208.099200 1517090.700000
209.095300 13606684.300000
221.095400 2855074.619000
222.103100 13041728.900000
223.111000 3496624.600000
224.118700 14422543.200000

