>compound EQ92342135
>parentmass 416.0895
>ionization [M+H]+
>formula C21H18ClNO6
>rt 774.000000
>profile orbitrap
#smiles_iso CC1=C(C2=C(N1C(=O)C3=CC=C(C=C3)Cl)C=CC(=C2)OC)CC(=O)OCC(=O)O
#smiles_can CC1=C(C2=C(N1C(=O)C3=CC=C(C=C3)Cl)C=CC(=C2)OC)CC(=O)OCC(=O)O
#inchikey FSQKKOOTNAMONP-UHFFFAOYSA-N
#pubchem_id 1981
#mb_accession EQ312201,EQ312202,EQ312203,EQ312204,EQ312205,EQ312206

>ms2peaks
138.994500 2615739.200000
174.091300 236703.900000
260.091900 328322.727500
312.078500 383819.970300

>ms2peaks
138.994600 4987378.700000
174.091100 259928.300000

>ms2peaks
129.010200 119399.400000
138.994600 4658302.800000
139.005900 319894.400000
174.091100 130969.500000

>ms2peaks
129.010000 300062.100000
138.994600 3670596.900000
139.005800 666098.700000

>ms2peaks
75.022900 224541.100000
86.999600 107366.900000
110.999500 100122.900000
129.010200 633026.700000
138.994600 1810516.700000
139.005700 1380204.400000

>ms2peaks
75.022900 620827.100000
86.999600 109984.700000
110.999500 230215.400000
129.010300 837237.700000
138.994600 1057496.200000
139.005800 1526752.800000

