>compound EQ93210828
>parentmass 202.04330000000002
>ionization [M+H]+
>formula C10H7N3S
>rt 252.000000
>profile orbitrap
#smiles_iso C1=CC=C2C(=C1)NC(=N2)C3=CSC=N3
#smiles_can C1=CC=C2C(=C1)NC(=N2)C3=CSC=N3
#inchikey WJCNZQLZVWNLKY-UHFFFAOYSA-N
#pubchem_id 5430
#mb_accession EQ318001,EQ318002,EQ318003,EQ318004,EQ318005,EQ318006

>ms2peaks
65.038600 718284.800000
175.032700 2763162.400000
202.043300 665330373.200000

>ms2peaks
65.038500 700292.600000
92.049400 646299.500000
175.032700 5306699.000000
202.043300 642257407.800000

>ms2peaks
65.038600 1044351.600000
92.049500 1334953.100000
131.060400 2784639.600000
143.060400 715989.400000
158.071300 1430138.100000
175.032500 51972490.600000
202.043300 583541545.800000

>ms2peaks
65.038600 2900993.900000
92.049400 7982978.300000
131.060400 24640718.800000
143.060400 4884904.900000
157.063400 744700.900000
158.071300 6774776.700000
169.063500 730807.300000
170.071300 1844970.400000
175.032500 236154986.900000
202.043300 420950741.500000

>ms2peaks
65.038700 13637145.800000
92.049500 24802192.100000
104.049500 2299552.900000
118.052400 1085927.200000
119.060400 769866.100000
129.044800 565924.400000
131.060400 100615082.400000
134.005600 1203123.200000
143.060400 10931257.600000
148.021400 507871.100000
152.016400 497497.500000
157.063400 1772697.600000
158.071300 9412295.900000
161.016800 835811.800000
168.055800 641479.500000
169.063500 1585122.000000
170.071300 4072879.600000
174.024600 654820.400000
175.032500 313106642.800000
202.043300 160642328.200000

>ms2peaks
65.038700 43139147.300000
83.990100 265178.000000
92.049400 42211923.100000
104.049500 10837483.900000
110.060000 702620.400000
111.001000 522109.800000
117.057400 622305.200000
118.052500 2977416.400000
119.060400 866959.000000
129.045000 1140852.900000
131.060400 198707303.200000
134.005800 5421466.100000
142.052600 1064105.300000
143.060400 17209906.500000
148.021400 960873.100000
152.016300 1375461.200000
157.063400 2925132.700000
158.071200 6254372.700000
161.017000 899751.000000
162.024400 309499.500000
168.055400 891825.800000
169.063500 1180304.500000
170.071200 4299142.900000
174.024800 1170451.300000
175.032400 220985925.400000
202.043300 44259327.500000

