>compound EQ93938403
>parentmass 86.0349
>ionization [M+H]+
>formula C2H3N3O
>rt 60.000000
>profile orbitrap
#smiles_iso C1=NNNC1=O
#smiles_can C1=NNNC1=O
#inchikey QEASJVYPHMYPJM-UHFFFAOYSA-N
#pubchem_id 17887248
#mb_accession EQ318601,EQ318602,EQ318603,EQ318604,EQ318605,EQ318606

>ms2peaks
57.021100 1316921.600000
58.040100 506538.200000
86.034800 118679679.500000

>ms2peaks
57.021100 1268405.700000
58.040100 474942.000000
86.034800 118718446.100000

>ms2peaks
57.021100 1242879.200000
58.040100 485876.000000
86.034800 116027991.500000

>ms2peaks
57.021100 1475652.700000
58.040200 668332.600000
86.034800 116192634.200000

>ms2peaks
57.021100 1986668.900000
58.040200 662804.200000
86.034800 84894248.500000

>ms2peaks
57.021100 2553930.600000
58.040100 537779.500000
86.034900 56891071.600000

