>compound EQ93393860
>parentmass 168.1019
>ionization [M+H]+
>formula C9H13NO2
>rt 54.000000
>profile orbitrap
#smiles_iso CNC[C@@H](C1=CC(=CC=C1)O)O
#smiles_can CNCC(C1=CC(=CC=C1)O)O
#inchikey SONNWYBIRXJNDC-VIFPVBQESA-N
#pubchem_id 6041
#mb_accession EQ333901,EQ333902,EQ333903,EQ333904,EQ333905,EQ333906

>ms2
81.069800 195102.800000
91.054200 2676562.500000
107.048800 361809.300000
109.064700 4157393.800000
117.057300 275758.300000
119.049100 2832205.500000
121.064700 1072628.200000
122.096200 264113.000000
132.080800 403567.400000
135.067800 2763238.000000
150.091500 147462576.000000
168.101800 4296138.000000

>ms2
81.069900 175743.800000
91.054100 2848269.500000
93.069800 154352.000000
107.048800 317825.900000
109.064700 4227504.500000
117.057200 209569.300000
119.049000 3044039.200000
121.064700 1191778.200000
122.096500 258613.600000
132.080700 424973.800000
135.067800 2871156.000000
150.091500 148789728.000000
168.101800 4251222.000000

>ms2
57.057300 379444.300000
65.038500 148682.400000
79.054200 180437.000000
81.069900 1100812.800000
91.054200 12630297.000000
93.069800 610277.600000
94.041200 196235.100000
95.049100 157637.700000
103.054200 189933.500000
105.069900 416246.200000
107.049100 1162792.800000
107.072900 124214.900000
108.056900 173174.900000
108.080700 229033.900000
109.064800 15419824.000000
117.057200 1147732.100000
118.065100 273140.800000
119.049100 7815289.500000
120.044300 128894.300000
121.064700 3826468.000000
122.096400 765967.800000
132.080800 1409250.600000
133.064700 123415.500000
134.059900 507902.800000
135.067800 12298210.000000
149.083800 140903.900000
150.091400 94146120.000000
168.101800 183063.000000

>ms2
56.049600 147525.300000
57.057300 770630.400000
65.038500 301889.300000
77.038500 186282.700000
79.054200 496890.900000
80.049500 47291.300000
80.062100 30606.300000
81.069800 2892039.200000
82.065200 43152.600000
89.038300 45013.600000
91.054200 22469006.000000
93.069800 1245821.600000
94.041300 623760.400000
94.065000 125207.100000
95.049100 460419.500000
103.054200 689359.700000
105.044800 172700.500000
105.069800 454520.900000
106.065200 245599.700000
107.049100 3949428.800000
107.072900 442115.400000
108.057000 662340.600000
108.080800 264816.300000
109.064800 17373308.000000
115.054200 45508.300000
117.057200 2110083.200000
118.041300 382111.300000
118.065100 1097727.200000
119.049100 5744756.500000
120.044400 511968.000000
121.064700 3480431.500000
122.059900 57829.200000
122.096300 730003.600000
130.065100 133751.900000
131.072900 65120.000000
132.080700 1386349.000000
133.064900 46608.200000
133.088600 229077.700000
134.060000 1886344.600000
135.067800 20087772.000000
148.075500 71721.500000
149.083500 234324.300000
150.091300 28993422.000000

>ms2
53.038700 28704.400000
56.049600 293174.900000
57.057400 952871.900000
65.038600 906637.200000
66.046400 52380.400000
67.041700 42219.300000
67.054300 37512.100000
77.038500 337403.500000
79.054200 1573013.900000
80.049500 269769.100000
81.069900 3512953.800000
82.065200 58532.000000
84.044400 41813.500000
89.038600 47375.800000
90.046500 229260.700000
91.054200 23574564.000000
92.049400 61087.500000
93.069800 1186997.100000
94.041300 1639736.000000
94.065100 175001.700000
95.049100 1048570.100000
103.054300 1353558.500000
105.044800 346796.900000
105.069800 399674.100000
106.065200 662282.500000
107.049200 8676372.000000
107.073000 622359.600000
108.057000 1631656.400000
108.080800 166792.200000
109.064800 11006506.000000
110.060000 39311.400000
111.044000 73239.000000
115.054400 45698.800000
117.057300 2249601.500000
118.041300 719593.500000
118.065100 2268007.800000
119.049100 2198588.200000
119.060300 249291.600000
120.044400 1492337.100000
120.057000 117755.900000
120.080900 121178.100000
121.039600 121646.400000
121.064800 2193863.800000
122.096300 362293.100000
130.065300 143670.200000
131.073200 54504.500000
132.080800 699835.600000
133.052300 63581.700000
133.088600 239144.100000
134.060000 5705813.500000
135.067800 16751734.000000
148.075500 238162.300000
149.083700 357929.000000
150.091400 5753016.000000

>ms2
53.038700 42086.100000
56.049500 401824.800000
57.057300 845810.900000
65.038600 2382883.200000
66.046400 188017.900000
67.041700 165977.200000
67.054200 131532.000000
77.038500 584068.100000
79.054200 2678586.800000
80.049500 374146.900000
80.062000 292369.500000
81.069900 3108783.800000
82.065000 55855.900000
89.038500 165638.700000
90.046400 627298.300000
91.054200 21663386.000000
92.049500 307841.700000
93.069800 599511.400000
94.041300 3026596.200000
94.065000 171297.300000
95.049100 2056604.500000
102.046500 59283.800000
103.054200 1238136.600000
104.062000 31865.500000
105.044800 924832.700000
105.069900 226641.900000
106.065200 1534879.000000
107.049100 12567010.000000
107.072900 707978.900000
108.057000 2535928.200000
108.080700 180002.900000
109.064800 5099559.000000
110.059900 272096.500000
111.044000 212108.400000
115.054200 46389.400000
116.049400 52136.900000
117.057200 2256232.500000
118.041200 980561.400000
118.065100 3287813.200000
119.049100 656704.900000
119.060300 196246.200000
120.044300 2709147.000000
120.056900 163235.600000
121.039600 190199.200000
121.064700 657129.600000
122.096300 47870.600000
130.065100 222338.100000
131.072800 121321.800000
132.080800 465070.400000
133.052300 147843.700000
133.088300 228890.900000
134.060000 8164967.500000
135.067800 9871310.000000
144.055700 43381.900000
148.075700 228816.700000
149.083500 343482.000000
150.091400 969820.400000

