>compound EQ94885893
>parentmass 261.1809
>ionization [M+H]+
>formula C12H24N2O4
>rt 528.000000
>profile orbitrap
#smiles_iso CCCC(C)(COC(=O)N)COC(=O)NC(C)C
#smiles_can CCCC(C)(COC(=O)N)COC(=O)NC(C)C
#inchikey OFZCIYFFPZCNJE-UHFFFAOYSA-N
#pubchem_id 2576
#mb_accession EQ332701,EQ332702,EQ332703,EQ332704,EQ332705,EQ332706

>ms2
55.054300 1624075.800000
59.049200 1051515.400000
62.023700 71338440.000000
69.069900 2676824.800000
71.085600 677477.600000
73.064800 996137.600000
86.060100 175193.000000
97.101200 72542704.000000
104.070700 4475110.500000
115.111800 28795958.000000
133.122400 1048376.100000
158.117700 76960776.000000
176.128300 168870880.000000
200.164600 52086392.000000
261.181200 2344996.000000

>ms2
55.054300 1473810.400000
59.049200 2914965.200000
62.023700 116658944.000000
69.069900 8341834.500000
71.085600 1598524.600000
73.064800 2308899.500000
86.060200 945241.300000
97.101300 130064296.000000
104.070700 11721899.000000
115.111800 29584020.000000
133.122500 976897.400000
158.117700 41526344.000000
176.128300 29611628.000000
200.164600 27384970.000000

>ms2
53.038700 721299.800000
55.054300 2591207.000000
59.049300 5195744.000000
62.023700 110771712.000000
67.054200 189225.300000
69.069900 17079544.000000
71.085600 2647544.200000
73.064900 2162519.000000
86.060100 1545384.100000
97.101300 80290896.000000
104.070700 11492365.000000
115.111800 9275035.000000
158.117800 7415296.000000
176.128400 736032.200000
200.164700 3700500.200000

>ms2
51.023200 121503.500000
53.002400 146331.400000
53.038700 1667735.400000
55.054400 13202789.000000
57.070000 110371.500000
59.049300 4829289.500000
62.023800 87087312.000000
69.070000 14912272.000000
71.085600 1453230.800000
73.064900 784585.600000
86.060100 725255.300000
97.101300 18673610.000000
104.070800 4432237.500000
115.111900 1136067.900000
158.117600 601505.000000

>ms2
53.002400 395354.400000
53.038700 2117073.800000
55.054400 21879380.000000
57.070000 359177.300000
59.049300 3647700.000000
62.023700 65091980.000000
67.054200 108136.100000
67.989300 122678.200000
69.069900 9727912.000000
71.085600 353097.800000
73.064900 460074.900000
86.060200 281582.300000
97.101300 3267100.200000
104.070700 1133551.500000
115.112000 99083.800000

>ms2
51.023000 77986.900000
53.002400 646344.600000
53.038800 1960966.800000
53.997600 87531.500000
55.054400 24876328.000000
57.070000 64429.100000
59.049300 3202062.500000
62.023700 51617960.000000
67.054300 164234.800000
69.069900 5506930.500000
71.085500 142922.900000
73.064900 147874.500000
97.101300 380408.800000
104.070800 155818.300000

