>compound EQ95836701
>parentmass 459.08660000000003
>ionization [M+H]+
>formula C21H16ClFN4O5
>rt 690.000000
>profile orbitrap
#smiles_iso CO/N=C(\C1=CC=CC=C1OC2=C(C(=NC=N2)OC3=CC=CC=C3Cl)F)/C4=NOCCO4
#smiles_can CON=C(C1=CC=CC=C1OC2=C(C(=NC=N2)OC3=CC=CC=C3Cl)F)C4=NOCCO4
#inchikey UFEODZBUAFNAEU-NLRVBDNBSA-N
#pubchem_id 11048796
#mb_accession EQ305801,EQ305802,EQ305803,EQ305804,EQ305805,EQ305806

>ms2
188.038000 627462.700000
231.019700 224453.500000
246.030900 195510.300000
383.034100 2218894.700000
427.060200 179017174.800000
459.086500 155052397.700000

>ms2
65.038700 531778.600000
69.992400 98820.300000
73.028500 398785.500000
78.033900 133080.600000
79.054500 141792.400000
81.033500 140293.500000
86.023800 122824.800000
90.033800 1486381.600000
91.054100 935296.600000
93.033600 534698.200000
95.049100 762872.900000
104.049400 1140379.900000
106.028800 1167045.500000
108.044400 163173.800000
111.044000 1211204.100000
119.036600 912247.000000
120.044300 7064104.600000
126.994600 182649.900000
129.010200 584078.500000
129.044500 170391.200000
130.029300 677200.000000
130.040100 433497.600000
131.060400 113240.200000
132.029300 163673.300000
132.044400 2231007.900000
134.023800 511725.100000
134.060000 1702726.064000
136.039200 851482.800000
138.010500 7671913.000000
139.005900 427004.200000
144.031800 713423.800000
144.055600 111389.100000
145.039600 7237685.100000
147.055500 111181.900000
150.034800 979960.100000
154.040100 124629.200000
154.989800 105110.500000
160.050800 456568.100000
161.034600 1039746.400000
162.035100 542076.900000
162.041800 191274.400000
163.005900 515193.800000
163.050400 553113.400000
164.034100 4576461.293000
166.005500 383592.500000
168.001000 294338.600000
170.034700 1183997.200000
175.030400 949880.900000
176.038000 2453757.400000
178.029800 1883886.900000
179.000600 3942949.600000
183.012000 844651.900000
183.996000 1442581.900000
188.038200 20148558.600000
188.057100 1572852.206000
190.049600 1559908.400000
191.025100 617497.700000
195.012400 181152.100000
195.996000 119904.900000
202.006500 190481.100000
202.041000 223195.300000
203.025000 207431.600000
204.033200 117835.300000
204.055500 134389.200000
204.076700 1203223.300000
205.040800 2337737.700000
205.060700 2061326.000000
211.006900 830087.400000
211.991100 1372636.126000
214.006400 1350461.300000
214.041100 241803.100000
214.061000 1070093.600000
216.056600 134152.700000
218.036100 1081480.700000
221.035700 394098.300000
223.006400 1231884.719000
223.025700 137559.200000
223.991100 322474.500000
228.045000 716863.000000
228.055500 115939.300000
229.028000 284199.700000
230.036100 3853938.600000
231.019900 3556219.500000
232.052200 864099.900000
232.062200 145183.600000
240.044200 1004863.100000
241.051400 790965.500000
242.059400 1164375.693000
244.052200 402294.200000
246.030900 7337515.200000
250.018100 212162.100000
255.031300 1130199.000000
257.046900 1589118.400000
262.053800 157431.300000
266.012600 2596184.300000
267.033000 1100960.900000
274.062200 2026257.880000
278.072200 158135.000000
300.065400 1032303.965000
304.051900 415495.600000
304.076100 226040.200000
306.067100 6716625.000000
308.023000 1062340.400000
313.041300 285754.700000
315.033000 5588239.900000
320.022300 487726.900000
331.062800 454438.300000
340.028500 4548726.700000
342.044100 4037239.500000
355.039100 1127336.000000
367.039300 11168372.900000
369.054300 891813.905000
383.034200 11608130.700000
385.050000 3833398.788000
397.049700 978496.000000
427.060300 88422382.500000
459.087300 167756.400000

>ms2
65.038600 2051774.100000
69.992300 621098.000000
73.019500 127352.600000
73.028400 173227.700000
75.022900 615030.500000
78.033700 828141.684700
79.041600 394869.300000
79.054200 517536.200000
80.049500 414798.000000
81.033500 626344.400000
86.023700 476975.500000
86.987700 475943.700000
86.999600 412077.900000
90.033800 4770312.500000
91.041400 234948.400000
91.054200 699648.200000
92.049400 545952.200000
93.033400 1326464.800000
95.049100 2424398.600000
96.044500 504715.100000
98.999600 576279.700000
104.014100 162094.200000
104.049400 1826760.300000
105.033500 244469.200000
105.044700 895126.400000
106.028700 1768027.700000
106.052400 235033.000000
107.029300 230115.100000
108.044300 294911.500000
110.999300 481694.800000
111.044000 2020882.700000
116.036600 138902.600000
116.049300 152538.300000
117.044700 191606.900000
117.057100 204141.600000
118.028700 287960.500000
118.052500 233064.700000
119.036600 1270655.400000
120.044300 6131553.800000
121.039600 190813.000000
122.040000 1026996.700000
123.035300 101614.000000
125.014900 163795.000000
126.994400 136231.500000
128.002300 570470.900000
129.009800 3576440.500000
129.044500 1642411.700000
130.029000 3291307.900000
130.039900 3219468.900000
130.052500 562882.754800
131.060600 432682.100000
132.029200 148700.700000
132.044300 1671563.300000
132.055600 459392.700000
133.032000 123805.200000
133.039600 394805.200000
134.023600 199280.300000
134.040000 567692.500000
134.047400 138627.200000
134.059900 656014.700000
135.023800 122042.200000
136.039200 502077.500000
138.010500 21159342.200000
138.994600 1398733.900000
139.005800 3888844.000000
140.990000 426954.100000
142.040100 232511.800000
143.006000 203631.400000
144.031800 960449.500000
144.055500 713035.500000
145.039600 9101277.000000
146.023400 582550.200000
147.035300 465584.000000
147.055100 216653.100000
147.994700 137392.100000
149.051100 108795.100000
150.034900 9582132.600000
151.005400 728742.908600
154.039900 445373.300000
154.989400 214243.000000
155.023700 109389.800000
156.000800 149595.300000
157.039700 740559.300000
159.035300 572807.700000
160.026700 1128625.800000
160.043100 705254.600000
160.050600 567899.300000
161.027200 446368.500000
161.034400 2574882.800000
162.034800 1082163.900000
162.042300 1485940.200000
163.005600 1641924.100000
163.043300 202387.800000
163.049900 1994061.800000
164.034100 7334182.500000
165.045600 156116.300000
166.005300 619269.400000
168.000900 3339637.700000
168.045400 511335.500000
170.034900 1954822.400000
172.050300 231607.200000
174.045800 471204.100000
175.030100 3239813.600000
176.038000 1343069.800000
177.045700 177474.200000
178.029800 6718546.300000
179.000600 4208900.000000
182.034700 551042.100000
183.011800 449879.800000
183.996100 1483018.200000
186.046400 397692.400000
187.029900 150758.000000
188.038000 55391160.400000
189.045700 927877.700000
190.031000 133550.800000
190.041000 839969.100000
190.050100 869134.837900
191.024800 1349087.700000
195.011800 247526.100000
195.996500 106453.100000
198.029700 463150.100000
202.006400 153854.900000
202.040900 989947.300000
203.025100 599026.000000
204.032900 232688.500000
204.076700 217830.400000
205.040700 3142720.200000
205.060800 2061325.100000
212.046400 145613.000000
214.006500 2651418.000000
214.040800 671093.500000
214.061600 635761.746700
215.025300 185627.300000
215.049000 467219.100000
216.056600 587909.200000
218.035900 1141645.800000
220.028000 619802.700000
221.035600 427189.300000
223.006800 979535.400000
223.026200 225800.300000
223.066400 121489.300000
223.990800 1048980.200000
225.058300 580676.500000
228.044000 1004424.500000
228.054900 167846.600000
229.028200 1030641.000000
229.052000 448868.000000
230.036100 5556368.800000
231.019800 904033.700000
232.051600 769424.019800
232.062300 180501.800000
239.001800 217181.800000
239.036300 155049.200000
239.985400 185770.300000
240.044700 850062.326400
241.017000 241489.800000
241.051400 976467.900000
242.059300 723792.384100
244.051800 968969.255800
246.031000 2246438.300000
250.018000 797863.600000
251.060700 221946.000000
252.069100 692505.439300
255.031200 652808.600000
257.047100 703931.170200
262.053500 487947.200000
263.060300 118782.400000
264.031800 602864.700000
266.012700 2095327.500000
274.061600 1090406.700000
277.064300 1025379.600000
278.072100 1064344.800000
279.056300 879375.400000
280.063400 1241700.814000
301.072200 147106.200000
304.051600 767018.100000
304.075200 413858.300000
306.067200 20710695.000000
308.022900 136678.600000
312.033600 132459.000000
313.041100 604357.200000
313.071600 405046.000000
315.033000 2881779.200000
318.067200 2112512.800000
331.062400 2307728.400000
340.028400 3438706.600000
342.044400 1114285.300000
355.039300 221104.100000
358.038600 649159.150300
367.039300 2997751.800000
383.033800 1610244.499000
397.049700 285979.400000
427.060100 838277.900000

>ms2
64.018000 103119.400000
65.038500 2516147.600000
69.992300 851302.000000
73.019600 141218.100000
75.022900 1233646.200000
77.038500 228213.800000
78.033700 1159219.700000
79.017800 183208.200000
79.041700 573188.300000
79.054200 443380.300000
80.049500 428496.300000
81.033500 791444.900000
86.023700 122981.200000
86.987700 591198.600000
86.999500 558631.100000
89.038500 160173.200000
90.033800 5073573.500000
91.041600 432704.100000
91.054100 171163.300000
92.025700 741995.500000
92.049500 838116.000000
93.033400 1474494.800000
94.041300 589353.400000
95.049100 2583385.500000
96.044300 449545.900000
98.999500 833594.168400
102.033800 1160056.100000
104.049500 1391424.300000
105.033600 935851.900000
105.044800 881023.500000
106.028700 1578974.100000
106.052500 407020.800000
107.029200 488178.000000
108.044300 241547.700000
110.999300 881801.600000
111.044000 2485452.400000
112.007400 284473.400000
113.039600 149693.400000
116.036800 247104.900000
116.049400 134136.600000
117.044700 484210.900000
117.057200 206148.300000
118.028500 180381.800000
118.052500 218727.700000
119.036400 924175.150100
120.044400 6310559.600000
121.032100 388877.700000
121.039500 579427.400000
122.040000 2046530.300000
123.035200 513827.500000
128.002300 915352.500000
129.010000 4997884.500000
129.044700 4049559.800000
130.028900 3535267.000000
130.039900 5488186.100000
131.060200 239327.800000
132.024500 289595.600000
132.044300 1155661.700000
132.055700 145195.500000
133.032000 743637.100000
133.039500 775586.800000
134.023700 169851.900000
134.040100 1056526.000000
134.047300 138635.200000
134.059900 384408.600000
135.024100 119134.800000
137.002700 440095.300000
138.010500 18485776.900000
138.994500 2170678.300000
139.005700 7237854.500000
140.990300 712658.100000
142.040100 664520.800000
143.005500 135630.900000
144.031800 921061.100000
144.055600 486831.800000
145.039700 7313435.600000
146.023700 745272.402300
147.035400 525320.300000
147.055400 243143.300000
147.994900 159211.700000
149.027200 166634.500000
149.050900 143754.100000
150.034900 13180220.800000
151.005800 1124318.400000
151.042800 154913.000000
154.040000 1163717.800000
154.989400 201415.700000
157.039600 774123.500000
159.035600 896968.800000
160.026800 1334447.900000
160.043100 1202723.100000
160.050100 314701.400000
161.027300 722380.700000
161.034500 2248244.800000
162.035100 908733.000000
162.042300 1423075.500000
163.005500 1223115.604000
163.043000 339900.700000
163.050200 1331651.700000
164.034100 4980015.300000
165.045900 465210.300000
166.005500 486975.900000
168.001000 4104952.100000
168.045400 215875.500000
169.039800 195420.100000
170.034800 1471358.400000
172.050300 102489.700000
174.046200 582438.400000
175.030200 2737905.900000
176.037800 857885.200000
177.045900 156623.100000
178.029800 8709272.200000
179.000700 2150152.000000
179.037600 153384.500000
182.035100 464480.300000
183.012100 175230.700000
183.995800 825188.900000
185.038400 198275.600000
186.046100 225619.000000
187.030300 165275.700000
188.038000 50713105.400000
189.045800 871299.800000
190.030200 131880.000000
190.041100 671276.100000
190.049500 201704.300000
191.024900 1053095.500000
195.012100 172240.300000
195.032900 154122.500000
197.063100 183532.900000
198.029600 387729.600000
200.048500 135194.200000
202.040800 860707.100000
202.052300 126850.600000
203.024800 229876.500000
204.032900 158407.500000
205.040700 1802683.500000
205.060800 1052797.700000
213.033700 215490.200000
214.006700 1025202.600000
214.040900 706560.500000
214.061000 149894.300000
215.025300 171118.400000
215.048700 160089.200000
216.057000 567953.358200
218.036000 428388.400000
220.028000 923834.800000
223.006800 217132.500000
223.066800 286562.000000
225.058600 1083460.800000
228.044000 516060.400000
229.028200 927630.200000
229.051800 229401.800000
230.036100 4290678.200000
232.052200 203717.500000
232.063000 234207.900000
239.001600 152557.000000
239.037300 178185.000000
239.985300 104653.700000
240.044100 686659.900000
241.017100 158392.700000
241.052200 752758.100000
244.052200 158782.600000
246.031000 1000434.700000
251.061700 538657.800000
257.047000 172883.700000
262.053700 401315.600000
263.060700 154465.200000
266.012300 706179.000000
267.033500 153427.400000
274.061800 583878.800000
277.064700 585997.800000
278.072400 1241680.100000
279.056500 1214793.300000
280.064400 1370642.300000
286.060900 167393.800000
298.060800 191194.400000
301.072000 178966.000000
304.052400 620133.814200
306.067200 13016805.500000
312.034200 137161.000000
313.072300 236872.500000
315.033500 711602.600000
318.067400 1545288.400000
320.022300 197435.300000
331.062700 1568034.200000
340.028400 1785747.100000
342.044400 479415.600000
367.039800 542807.500000

>ms2
64.018200 500464.600000
64.030700 96754.000000
65.038600 3582935.600000
66.046400 466868.600000
69.992400 747939.900000
70.008700 125718.700000
72.983900 150195.900000
73.019600 581403.700000
74.015100 197068.300000
75.022900 4264196.400000
77.038500 595622.200000
78.033800 1652102.700000
79.041600 729813.400000
79.054300 175792.200000
80.049500 369893.500000
81.033400 1132376.600000
84.983700 157167.100000
86.003700 131162.200000
86.987600 447906.200000
86.999600 1280375.400000
90.033800 4989160.400000
91.041500 807437.700000
91.054100 379866.800000
92.025600 1104081.200000
92.049400 1192463.421000
93.033400 1657642.300000
94.041300 558770.700000
95.049100 2867317.000000
96.044400 742944.800000
97.052200 156586.700000
98.999500 1622128.300000
102.033800 2645048.100000
103.041700 185380.200000
104.014100 128427.500000
104.049400 869831.000000
105.033500 2759317.000000
105.044600 1322282.200000
106.028700 1536700.600000
106.052600 104551.500000
107.029200 1560170.300000
108.044300 155224.800000
109.032100 246048.500000
110.999500 1533824.400000
111.044000 2915147.600000
112.007400 220278.100000
113.039600 859381.400000
114.034000 487577.853400
115.041700 852175.300000
116.036700 836128.900000
116.049100 133897.900000
117.044700 978828.700000
118.028500 162972.500000
118.052400 399009.600000
119.036600 1336663.600000
120.044300 6904727.800000
121.032300 921079.700000
121.039500 583357.900000
122.039900 3827829.400000
123.035200 1648628.100000
128.002600 894514.600000
128.037000 209024.400000
129.010100 7872945.800000
129.044600 7808816.900000
130.028900 2784943.900000
130.039900 10833987.500000
131.060500 215500.700000
132.024500 962995.000000
132.044400 778656.000000
132.055400 110537.300000
133.032200 3281523.900000
134.023600 123292.300000
134.040000 1261626.100000
134.047400 199085.400000
137.002600 173940.000000
138.010500 11225026.500000
138.994500 1772088.300000
139.005700 10756229.600000
140.036800 220526.500000
140.990100 1023836.100000
142.040000 678273.500000
143.005900 176079.000000
143.036600 123741.700000
144.031700 1137470.500000
144.055600 605847.000000
145.039700 3623100.800000
146.023400 397733.500000
147.035300 534574.500000
147.055200 372603.900000
147.994600 139074.800000
149.026900 399989.700000
149.050800 209776.400000
150.035000 14971253.200000
151.005800 832700.800000
151.042900 520729.300000
154.039900 1596343.200000
154.989400 445329.900000
155.023600 116450.000000
155.034800 120806.000000
156.000800 175597.000000
157.039700 674199.400000
158.047500 117548.200000
159.035500 1646117.400000
160.026700 860063.300000
160.043200 2655894.300000
161.027000 722065.400000
161.034400 859682.200000
162.034700 570648.000000
162.042300 1237124.200000
163.005600 235731.300000
163.043100 193570.200000
163.050200 925200.000000
164.001000 186295.700000
164.034100 2105163.200000
165.022200 110679.000000
165.045900 820501.100000
166.005500 393244.800000
167.037800 405643.800000
168.001000 3857749.300000
168.031600 196858.400000
168.045300 399957.600000
169.039500 1569591.600000
170.034900 635387.900000
172.050700 160962.100000
174.046000 425793.800000
175.030200 2624362.500000
176.037900 427975.300000
177.045500 140745.500000
177.056800 295334.700000
178.029800 5370572.300000
179.000500 576911.300000
179.037600 128700.300000
182.035100 243233.000000
183.996000 556692.300000
186.046200 174057.600000
187.030100 138056.800000
188.038000 36866061.900000
189.045800 781007.600000
190.040900 524346.300000
191.024900 808165.800000
194.060000 103959.000000
195.032700 165606.500000
197.063500 427287.100000
198.029600 121067.100000
200.048500 109374.000000
202.041000 560499.700000
202.052400 151848.400000
203.024500 167682.200000
203.060300 137616.500000
204.033500 105886.200000
205.040400 703408.191800
212.046400 102177.000000
213.033700 177356.500000
214.006700 154470.400000
214.041000 434903.000000
215.060400 161166.700000
220.027700 1297846.100000
222.059100 106384.400000
223.006900 101810.400000
223.066600 748478.200000
223.990800 135813.100000
225.058400 848369.900000
228.045000 129121.000000
229.028100 533208.800000
230.036000 2514500.200000
231.055400 171380.400000
232.052200 142211.700000
232.063100 473377.200000
239.037300 152727.900000
241.051600 427143.900000
248.061800 216005.900000
251.061400 1337231.000000
263.061200 159998.200000
264.031800 144653.400000
266.010600 118488.600000
278.072100 645030.800000
279.056600 1683552.600000
280.064500 639895.000000
286.061100 131511.500000
298.060700 389125.200000
306.067300 2949211.100000
318.068100 408975.788100
331.063200 497548.736500

>ms2
64.018200 682591.800000
64.030800 592073.100000
65.038600 5412912.300000
66.046400 1209752.000000
69.992300 1013660.300000
70.008800 160955.300000
72.983900 289928.100000
73.019600 537927.700000
74.015000 1441944.200000
75.022900 13206331.700000
76.018100 702653.800800
76.030700 650178.281700
77.038500 1454147.300000
78.033800 2170324.100000
79.017800 442921.500000
79.041700 695679.100000
79.054200 101489.400000
80.049500 281065.500000
81.033500 1559572.800000
83.029100 474675.739000
84.983900 635124.300000
86.003600 101166.100000
86.987700 461566.300000
86.999500 1687336.900000
89.038500 479897.900000
90.033800 7187788.400000
91.041600 1865505.900000
91.054200 149171.400000
92.025600 2405712.000000
92.049400 1858122.800000
93.033400 1693570.300000
94.041300 1575856.000000
95.029100 430646.544100
95.049100 6116683.000000
96.044500 797471.700000
97.052100 204026.400000
98.999600 2315249.100000
100.018200 447847.317900
102.033800 5765473.000000
103.041600 892523.200000
104.049500 650888.000000
105.033500 5929863.500000
105.044700 2198571.900000
106.021200 244185.484900
106.028800 1791749.700000
107.029200 2892850.200000
108.044200 385249.425600
109.032300 762195.400000
110.999500 3173166.100000
111.044000 3495816.100000
112.007500 244340.400000
113.039700 2197369.900000
114.033600 1124308.071000
115.041600 1618779.400000
116.036800 1402997.800000
116.049500 209246.900000
117.044600 1172590.500000
117.057000 123286.600000
118.028700 582326.600000
118.052200 239651.200000
119.036500 1386155.900000
120.044400 10503122.800000
121.032300 1855515.300000
121.039300 911498.500000
122.040000 4429661.200000
123.035200 3129403.700000
125.015100 164474.600000
128.002300 1080555.500000
128.036900 779830.400000
129.010100 10862386.400000
129.044700 9327928.400000
130.029000 2571800.300000
130.040000 16919031.500000
132.024400 2253364.400000
132.044200 495345.068800
133.032200 6319493.100000
134.023700 149337.700000
134.040100 1655034.300000
134.047600 236828.700000
137.002600 485732.600000
137.027200 441621.353400
137.046900 420041.371000
138.010500 6427171.900000
138.994600 2223888.800000
139.005700 15874384.900000
140.037000 787894.200000
140.990100 2116019.700000
141.044500 352540.061200
142.040200 247164.500000
143.006100 132162.300000
143.036600 192467.400000
144.031800 1020969.200000
145.039700 2411515.600000
146.023400 141205.600000
147.035400 1213661.400000
147.055300 737294.100000
147.994900 246994.900000
149.027400 517469.570500
149.051200 184711.200000
150.035000 11171950.700000
151.005800 437670.300000
151.042800 1374314.000000
154.040100 1208826.700000
154.989500 386703.600000
155.024000 117932.700000
155.034800 118060.200000
157.039600 473175.500000
158.047600 186365.800000
159.035400 1412113.700000
160.026900 222207.800000
160.043200 4370462.600000
161.027100 2195052.400000
161.034400 577168.600000
162.035100 400715.900000
162.042400 422720.600000
163.005700 234691.300000
163.042900 99937.500000
163.050000 216541.500000
164.001100 152925.100000
164.033900 986406.100000
165.022100 114994.700000
165.046000 462239.800000
167.037700 186802.600000
168.001100 3417919.000000
168.031700 377283.100000
168.045300 183631.600000
169.039600 3287285.100000
170.034800 181533.800000
170.052500 651993.094000
172.050600 117389.400000
174.045800 248675.700000
175.030400 1691383.900000
176.038200 200217.800000
177.045800 372327.700000
177.057200 958822.900000
178.029900 1572534.900000
182.035000 225177.400000
183.996100 206901.600000
185.038400 243927.900000
186.046300 176215.300000
188.038000 23106662.600000
189.045500 206370.500000
190.041200 172781.100000
191.024900 393621.100000
194.059900 463062.200000
195.032600 416493.500000
196.056600 702574.134000
197.063500 710271.200000
202.052300 125212.400000
203.060500 662294.500000
204.055600 185035.700000
205.040700 472036.000000
208.056000 450481.296000
215.060800 170592.400000
220.027800 1500165.200000
221.046200 465810.966100
222.058700 174076.300000
223.066300 1076420.000000
224.050400 473563.009100
225.058500 497585.500000
229.028100 196894.700000
230.036200 1342700.737000
230.071500 468166.056400
231.055100 339304.700000
232.062600 418465.500000
239.036100 114640.000000
241.052400 116845.900000
248.061700 462540.100000
250.053700 680024.817000
251.061500 1684854.200000
263.061300 475559.600000
279.056500 895120.000000

