>compound EQ95124929
>parentmass 302.1751
>ionization [M+H]+
>formula C18H23NO3
>rt 156.000000
>profile orbitrap
#smiles_iso CN1CC[C@]23[C@@H]4[C@H]1CC5=C2C(=C(C=C5)OC)O[C@H]3[C@H](CC4)O
#smiles_can CN1CCC23C4C1CC5=C2C(=C(C=C5)OC)OC3C(CC4)O
#inchikey RBOXVHNMENFORY-DNJOTXNNSA-N
#pubchem_id 5284543
#mb_accession EQ333301,EQ333302,EQ333303,EQ333304,EQ333305,EQ333306

>ms2peaks
199.075000 685834.900000
302.175100 527292512.000000

>ms2peaks
195.080500 1463378.200000
199.075300 2885089.800000
199.111600 602406.400000
201.091000 3738286.500000
213.091200 1413111.200000
217.122400 1169721.800000
227.106800 4484307.000000
243.101600 2292424.800000
245.117400 11289871.000000
284.165200 796765.500000
287.151000 512044.400000
302.175100 501906656.000000

>ms2peaks
58.065200 1016455.700000
67.054300 590236.200000
83.049300 462114.200000
137.059800 3400626.000000
143.049300 1302187.000000
151.075600 413701.500000
157.064900 1346416.000000
157.101200 538698.000000
158.072700 509000.800000
161.059600 1956698.100000
163.075400 1994304.000000
165.069800 469664.700000
167.085600 2041706.200000
169.064700 916409.600000
171.080500 3081027.000000
173.096300 2650141.500000
175.075600 1685876.900000
177.091100 1039884.600000
179.070500 551230.100000
181.064900 1536698.400000
183.080600 7254338.500000
184.088500 609310.900000
185.060000 617637.800000
185.096200 4915133.000000
186.067800 819662.700000
187.075300 2748788.500000
189.091200 7422627.500000
192.102200 663591.900000
193.064700 551531.400000
194.072500 481737.200000
195.080500 13575843.000000
196.088400 1453346.800000
197.096100 1097327.800000
198.067700 433738.500000
199.075400 39960224.000000
199.111700 5708688.500000
201.091000 36745596.000000
203.106500 888449.400000
209.096300 2097337.200000
211.075500 2775002.800000
212.082800 1034400.100000
213.091100 8839321.000000
215.106900 1792364.200000
217.110500 465656.600000
217.122500 8943573.000000
221.096400 1219753.800000
225.091100 2980711.200000
227.106800 29734278.000000
229.086300 525611.900000
241.122500 1361455.100000
243.101800 12975110.000000
245.117400 40750252.000000
253.122800 1998379.200000
256.109500 410874.500000
269.141300 1822441.400000
271.132800 702875.700000
274.143500 835702.500000
284.164700 4431666.000000
287.151900 759473.600000
302.175200 264480032.000000

>ms2peaks
57.033600 203809.000000
58.065200 1182405.400000
67.054300 977327.500000
69.033500 95919.600000
70.065200 200865.600000
71.049200 727542.800000
79.054300 752953.100000
81.069900 222378.200000
82.065000 93141.800000
83.049200 516668.100000
84.080800 152762.700000
91.054300 265436.300000
93.070000 117243.700000
95.049000 129106.300000
95.085500 247891.200000
96.080900 144804.700000
97.064900 119505.700000
103.054300 505770.800000
105.069900 421094.800000
107.049100 142725.000000
115.054100 1051857.600000
117.070000 133288.100000
121.064800 969789.100000
128.061900 1162120.100000
129.069900 1767878.400000
131.049100 1039688.800000
131.085800 142518.200000
133.064400 138323.700000
137.059800 5564734.000000
141.069900 2548782.200000
142.077600 363410.100000
143.049200 2327835.200000
143.085700 757018.700000
144.057200 487007.200000
145.064900 809847.400000
145.101100 138380.200000
146.072300 133875.600000
147.080600 653892.300000
151.075500 651691.800000
152.061900 793917.900000
153.069900 1640360.000000
155.049300 223973.700000
155.085600 1506345.800000
156.057000 504176.000000
157.064900 4148002.000000
157.101200 1447799.100000
158.072700 5427356.000000
159.080400 1991745.500000
161.059800 6635788.000000
161.096200 1435575.100000
162.067500 197798.000000
163.075400 2702332.000000
165.069900 3708090.000000
166.077800 483757.500000
167.085600 9363505.000000
168.056900 526261.200000
168.093000 172799.200000
169.064900 2882546.800000
169.075900 222337.900000
169.101600 820297.300000
170.072800 437677.200000
171.080500 16606376.000000
172.052100 569218.900000
173.096200 10267405.000000
174.067400 198621.500000
175.075500 3218442.500000
176.083200 418263.200000
177.069900 2999013.800000
177.090700 814111.100000
178.077700 502985.400000
179.070100 499706.100000
181.064900 3705950.500000
181.101200 845848.600000
182.072400 606708.400000
183.080600 15919833.000000
184.051900 249720.800000
184.088300 2994042.500000
185.060000 1798474.200000
185.096200 7636877.000000
186.067700 2969787.800000
187.075400 6481931.000000
188.083000 159086.300000
189.091100 9081888.000000
191.085600 169514.500000
192.101900 183303.700000
193.065000 1973368.600000
193.073700 150769.900000
193.101200 1068181.600000
194.072700 1591503.900000
195.080500 18071940.000000
196.088500 4394662.500000
197.059600 1062313.500000
197.096500 1892330.900000
198.067700 2631100.000000
199.075400 85716120.000000
199.111600 7246212.000000
200.082900 251778.300000
201.090900 42654508.000000
202.098600 453452.500000
203.070000 197445.700000
203.106300 962542.700000
204.102100 420455.300000
205.076400 118516.300000
209.058700 132883.500000
209.096200 2160103.800000
210.104000 178656.200000
211.075400 3769333.800000
211.112200 190167.800000
212.083100 3409372.000000
213.091000 6536170.000000
214.062400 726631.100000
214.099000 593840.400000
215.106900 2059026.100000
217.110000 773991.200000
217.122300 4227943.000000
219.101900 142840.800000
221.096500 952808.100000
222.103800 595256.600000
223.075600 159621.200000
223.112200 176377.300000
224.083600 148669.600000
225.091100 5298132.500000
226.098600 222638.300000
227.106700 24355026.000000
228.102200 244141.000000
229.086200 643009.200000
229.122100 196665.000000
238.099200 434191.900000
241.122400 673288.900000
243.101800 7532524.500000
245.117400 14694061.000000
252.138600 177258.300000
253.122400 1240071.500000
256.109300 431309.600000
256.133400 131019.200000
268.132700 516471.700000
269.141200 1963186.100000
271.133000 382854.300000
274.143800 805085.000000
284.164700 2056391.900000
287.151600 443273.000000
302.175200 37959000.000000

>ms2peaks
55.017900 102668.700000
57.033600 571726.300000
58.065200 424601.500000
65.038500 115141.800000
67.054200 1110821.800000
70.065200 198566.800000
71.049100 233945.200000
77.038500 127596.700000
79.054200 810198.600000
81.069900 210895.000000
83.049100 437264.500000
84.080800 229797.100000
91.054200 1429285.000000
93.069800 203693.400000
94.041200 103296.500000
94.065300 113486.500000
95.049000 187130.300000
95.085700 113955.900000
96.080700 201903.700000
102.046700 108382.400000
103.054300 1254752.400000
105.069900 539586.400000
107.049200 542553.600000
115.054200 3743934.800000
117.070000 586190.300000
119.049500 144769.200000
119.085500 184212.600000
121.064700 1176915.000000
122.036400 122036.200000
127.054300 109285.600000
128.062000 7182474.000000
129.069900 5610847.000000
130.077800 552905.200000
131.049200 2010321.600000
131.085800 447418.000000
132.081000 118526.900000
133.064900 213993.000000
137.059700 4576521.500000
139.053900 119803.600000
141.069900 13536234.000000
142.077700 1195929.800000
143.049300 2634400.000000
143.085700 1982692.100000
144.057100 2794163.200000
145.064900 2019319.200000
145.101300 254771.100000
146.036500 567659.100000
146.072600 208463.400000
146.096500 116603.800000
147.044100 181262.400000
147.080600 990793.900000
151.075600 511606.200000
152.062100 3329464.800000
153.069900 4745809.000000
154.077800 967486.000000
155.049200 1264594.000000
155.060600 588120.200000
155.085600 4450343.000000
156.057000 4998336.000000
157.064900 4197528.000000
157.101300 1639280.200000
158.072700 16266865.000000
159.044200 369838.800000
159.080500 4345171.000000
160.052100 640869.700000
161.059800 8727075.000000
161.096100 1652578.600000
162.067600 197885.100000
163.075400 987995.200000
165.070000 13420503.000000
166.077700 1577179.800000
167.085600 11156216.000000
168.057200 1660328.200000
168.093500 528131.800000
169.064900 3789660.500000
169.075900 1440033.500000
169.101300 700730.600000
170.072900 1276877.800000
171.080500 41777504.000000
172.051800 1443478.200000
172.088300 233896.500000
173.096200 13056983.000000
174.067500 818427.700000
175.075400 2240769.200000
176.062200 550856.400000
176.083200 145444.800000
177.070000 3990827.000000
178.077700 1329120.200000
179.069900 160734.400000
179.085500 414647.200000
180.057300 198563.900000
181.064800 2960765.200000
181.101500 592638.600000
182.072700 1632592.100000
183.044300 1186034.900000
183.080600 11000965.000000
184.052100 1998945.600000
184.088300 3707772.500000
185.059800 3053199.800000
185.096200 3701260.800000
186.067700 4363917.500000
187.075400 4426803.000000
189.091100 3934423.800000
191.085400 217528.900000
193.064900 1810621.200000
193.073800 133280.900000
193.075400 114421.000000
193.101700 555939.600000
194.072700 2936200.200000
195.080600 9675040.000000
196.088400 3935854.800000
197.059900 1988469.600000
197.096400 1584492.100000
198.067600 4245651.000000
199.075400 68173448.000000
200.083000 554388.900000
201.090900 17783778.000000
202.077600 182375.100000
202.086400 221486.900000
203.085000 337907.600000
203.106700 443458.300000
205.076200 180764.000000
206.072900 134786.000000
209.059900 189788.700000
209.096200 1165522.000000
210.067600 594204.600000
211.075600 1793414.200000
212.083200 2927729.200000
213.091000 2235935.500000
214.062900 835036.800000
214.099200 254456.700000
215.106700 1021975.300000
216.102200 163671.800000
217.110100 449629.200000
217.122500 831787.500000
221.096200 669693.800000
222.104000 211484.900000
223.075400 525807.400000
225.091100 3178550.500000
227.106800 7344824.000000
228.102200 480105.600000
229.086300 166610.800000
243.101800 1921714.500000
245.117700 1312143.800000
268.134000 678295.900000
269.141800 173168.500000
284.165300 189512.300000
302.175300 2739468.800000

>ms2peaks
57.033600 821726.500000
58.065300 477802.100000
65.038500 124083.300000
67.054200 1061818.800000
69.033600 118299.700000
70.065200 143645.100000
71.049100 140264.600000
77.038400 105478.700000
78.046500 111859.600000
79.054300 1138015.600000
81.070000 487147.900000
82.065100 148176.900000
83.049300 694370.500000
91.054300 3044295.200000
93.069800 173436.000000
94.041200 471788.500000
94.065000 113617.700000
95.049200 766839.800000
95.085700 114374.100000
96.080800 116414.400000
102.046400 197302.000000
103.054300 3149428.200000
105.044800 387810.500000
105.069900 1104677.800000
107.049200 811212.600000
109.064700 395310.400000
115.054200 16575747.000000
116.062000 907285.100000
117.069900 1433636.000000
118.041400 848543.700000
119.049100 203601.000000
121.064800 1666052.600000
122.036300 893663.900000
127.054100 464243.500000
128.062100 29448104.000000
129.069900 9293342.000000
130.041300 153789.500000
130.077800 1564197.500000
131.049200 2790032.800000
131.085700 654276.700000
132.057100 423890.800000
133.064700 243754.200000
137.059700 3486532.800000
139.054100 557401.400000
140.062200 768491.800000
141.069900 30972458.000000
142.077800 2316225.500000
143.049300 3343138.200000
143.085700 3143588.800000
144.057100 4603485.500000
145.064900 3812461.800000
146.036200 1377797.800000
146.072800 812774.600000
147.044000 139458.200000
147.080500 691494.900000
151.075300 236784.400000
152.062100 8582023.000000
153.070000 9583361.000000
154.077800 1925952.400000
155.049400 2627682.000000
155.060200 2072837.900000
155.085600 5124092.500000
156.057000 12488948.000000
157.064900 4175577.800000
157.101100 595720.400000
158.072700 24683276.000000
159.044000 482634.800000
159.080500 4743056.500000
160.051900 591127.800000
160.075900 142453.500000
161.059800 9733138.000000
161.096300 1017860.100000
162.067600 245476.700000
163.075400 405936.200000
164.061300 121377.400000
165.070000 23131834.000000
166.077700 3088736.200000
167.085600 7480649.000000
168.057100 4270001.500000
168.093400 429666.900000
169.064900 5312784.000000
169.075900 1715667.200000
169.101000 370278.700000
170.036300 681530.000000
170.072900 1432271.900000
171.044200 2745724.800000
171.080500 46922580.000000
172.051900 2096877.000000
172.088400 662836.700000
173.096200 7772352.500000
174.067400 960855.400000
175.075400 1465483.000000
176.062200 1561669.500000
177.070000 3593956.200000
178.077700 2396101.800000
179.060500 169827.400000
179.085500 481019.200000
181.064700 3794035.200000
182.073000 2519657.500000
183.044200 3391913.500000
183.080600 6381849.000000
184.052000 4496037.000000
184.088300 2749116.500000
185.059900 3204588.800000
185.096100 1275452.200000
186.067700 2908394.800000
187.075400 2176904.800000
188.083200 188389.300000
189.069600 202313.200000
189.091000 1282024.800000
190.077900 189617.000000
191.085400 170977.600000
193.064900 1201674.200000
193.076000 476847.800000
193.100900 411702.200000
194.072700 3152840.800000
195.080500 4102614.000000
196.052300 148050.800000
196.088400 2242006.200000
197.059900 2658387.200000
197.096200 720523.600000
198.067600 3796453.800000
199.075400 30592598.000000
200.083400 540876.600000
201.091000 5188857.500000
202.077700 607004.500000
202.086400 167241.400000
205.065100 113419.900000
207.080400 457632.500000
209.059800 416184.200000
209.096000 205963.400000
210.067600 574641.600000
211.075400 1236416.900000
212.083500 1355472.600000
213.091100 633297.600000
214.062500 683611.400000
215.106700 177937.300000
221.095900 186870.100000
223.075600 220317.900000
225.091300 1327181.200000
227.106700 1196490.400000
228.102400 181195.600000
243.102000 129736.100000
268.133000 166374.100000
302.174600 115265.200000

