>compound EQ96253125
>parentmass 288.08559999999994
>ionization [M+H]+
>formula C9H14N5O4P
>rt 60.000000
>profile orbitrap
#smiles_iso C[C@H](CN1C=NC2=C(N=CN=C21)N)OCP(=O)(O)O
#smiles_can CC(CN1C=NC2=C(N=CN=C21)N)OCP(=O)(O)O
#inchikey SGOIRFVFHAKUTI-ZCFIWIBFSA-N
#pubchem_id 464205
#mb_accession EQ310501,EQ310502,EQ310503,EQ310504,EQ310505,EQ310506

>ms2
136.061300 370565.200000
176.093000 931596.600000
206.103900 261747.600000
270.075300 883576.100000
288.085500 115667375.200000

>ms2
59.049100 327461.100000
112.999800 514354.600000
135.053600 141015.100000
136.061800 3465719.300000
153.031100 424924.300000
159.066300 356092.700000
176.093100 12323310.400000
194.103500 258122.500000
206.103700 4182266.400000
240.064400 1043155.200000
252.064800 211816.400000
270.075100 10645117.800000
288.085500 90788407.600000

>ms2
59.049200 1972848.400000
64.978700 665012.200000
71.049100 134396.500000
82.989200 176841.100000
105.010000 73199.900000
112.999800 2663007.000000
119.035000 82035.200000
132.055600 158679.300000
134.071300 164508.700000
135.053600 184386.700000
136.061800 11641004.300000
137.045700 78269.700000
148.061800 717446.500000
149.082300 402314.400000
152.081800 171662.400000
153.031100 1018009.800000
159.066500 4396890.600000
167.092800 43674.900000
176.093100 43356873.400000
177.077000 1351298.100000
190.108400 88853.000000
192.088300 129625.300000
194.103700 490684.100000
206.103700 10933770.100000
212.033400 123241.300000
222.098100 78000.700000
230.043300 90660.600000
240.064400 4904929.100000
252.064500 976210.100000
270.075000 9209104.500000
288.085500 13929597.200000

>ms2
59.049200 2893010.500000
64.978700 1331208.300000
71.049100 199074.200000
82.039900 213693.100000
82.989300 403859.000000
94.040000 108755.600000
94.989200 96285.800000
105.010000 182206.500000
105.044800 113370.000000
109.050800 125055.400000
112.999800 3155027.600000
119.035200 266778.500000
122.071200 191336.200000
131.035300 84193.000000
132.055600 499479.500000
134.071300 296240.000000
135.053800 462632.300000
136.061800 12486010.200000
137.045900 256510.600000
148.061800 1383463.400000
149.045700 298235.100000
149.069600 83860.100000
149.082200 1026651.500000
150.066200 93516.600000
152.081900 325377.200000
153.031200 451319.300000
159.066500 9241855.100000
161.069600 167896.400000
176.093100 42964479.900000
177.077000 3332734.700000
190.108900 70331.600000
192.088200 253517.300000
194.103600 270234.800000
206.103700 5918195.400000
212.033300 174513.400000
222.098600 184515.400000
230.043900 76064.600000
240.064400 4094665.900000
252.064500 745500.900000
270.075000 2812672.800000
288.085600 2223678.800000

>ms2
53.002300 79377.000000
58.065300 73352.600000
59.049200 3067525.700000
64.978700 2891004.700000
67.029100 78972.800000
68.049400 225709.800000
71.049100 237568.700000
78.033800 32879.900000
80.049500 79933.500000
82.040000 520017.800000
82.989200 500290.400000
92.024200 32180.700000
94.039900 275862.200000
94.989200 70223.400000
95.060300 102729.600000
95.997100 68062.200000
97.004900 67941.300000
104.024400 28169.600000
105.010100 273737.700000
105.044700 557027.100000
106.040000 27498.100000
107.060400 180386.500000
108.043000 212534.400000
108.055700 27919.300000
109.050900 323653.900000
112.050600 48029.500000
112.999800 2298810.200000
119.035200 1085139.900000
121.050800 285885.300000
122.071200 542232.400000
125.070900 63987.300000
131.010300 36223.800000
131.035200 309043.400000
132.055600 1789978.400000
133.050800 110131.500000
134.058800 156365.500000
134.071300 496496.600000
135.053900 1269163.700000
136.061800 11080198.800000
137.045800 830811.800000
148.061800 2080163.100000
149.045800 1482111.000000
149.069600 117467.800000
149.082200 1960409.500000
150.066100 225116.300000
152.081900 526225.800000
159.066500 12162230.600000
161.069500 380101.800000
162.077300 213213.600000
166.072300 107454.100000
174.077900 27373.900000
176.093100 24732911.300000
177.077000 5389892.500000
182.022800 71247.800000
192.087900 307877.000000
194.103600 81436.300000
206.103600 856555.500000
212.033500 151645.800000
222.098100 119927.500000
240.064400 1212308.800000
252.064600 176863.400000
270.074900 142984.900000
288.086000 74847.400000

>ms2
53.002300 133156.300000
55.029100 124525.800000
58.065200 93973.900000
59.049200 2809480.500000
64.978700 4154511.800000
67.029100 204002.700000
68.049500 558852.700000
71.049100 151834.200000
78.033800 194339.800000
80.049500 222685.600000
82.040000 901360.300000
82.989200 520332.800000
87.044000 34892.100000
92.024200 300253.600000
94.040000 564816.500000
94.989100 36940.100000
95.060400 297880.500000
95.997200 116549.900000
96.044400 133597.060000
97.004900 76343.300000
104.024400 184677.800000
105.010000 178346.000000
105.044800 1476709.300000
106.040000 93758.800000
107.060300 253142.700000
108.043100 826156.300000
108.055600 115687.200000
109.050900 765432.800000
112.050500 99293.800000
112.999800 1265160.400000
119.035300 2221721.300000
121.050900 698022.600000
122.071200 558451.300000
125.070800 130143.300000
131.035300 693684.400000
132.055700 2917670.200000
133.050800 254674.700000
134.058700 356000.200000
134.071300 466763.200000
135.054000 2375066.900000
136.061800 8696770.300000
137.045800 1850438.700000
148.061800 1750245.100000
149.045900 2912897.500000
149.069500 160974.500000
149.082200 1546809.000000
150.066300 325480.500000
152.081800 375931.600000
158.058500 22856.000000
159.066600 9308278.300000
161.069600 451223.700000
162.077400 296620.200000
166.072600 35497.000000
174.077600 109710.800000
176.093100 8585357.200000
177.077100 3724728.000000
182.022700 80462.100000
188.092700 20510.400000
192.087900 182993.800000
206.103600 31258.400000
212.033600 28155.800000
240.064400 156019.700000

