>compound EQ96604819
>parentmass 248.04999999999998
>ionization [M+H]+
>formula C8H10FN3O3S
>rt 126.000000
>profile orbitrap
#smiles_iso C1[C@H](O[C@H](S1)CO)N2C=C(C(=NC2=O)N)F
#smiles_can C1C(OC(S1)CO)N2C=C(C(=NC2=O)N)F
#inchikey XQSPYNMVSIKCOC-NTSWFWBYSA-N
#pubchem_id 60877
#mb_accession EQ310601,EQ310602,EQ310603,EQ310604,EQ310605,EQ310606

>ms2
73.010600 365717.700000
101.005600 1939459.700000
113.014400 83267.500000
119.016200 126426.400000
130.041200 73809343.100000
248.050100 1030029.400000

>ms2
61.010700 210432.100000
73.010600 891938.800000
91.021200 195190.900000
101.005500 3243599.800000
113.014500 170190.100000
119.016500 87869.100000
130.041200 72656079.200000

>ms2
61.010700 571911.800000
73.010600 2218659.000000
74.989900 137997.800000
87.035300 295473.300000
91.021200 237621.600000
101.005600 2811046.100000
113.014600 743029.200000
130.041200 65436315.900000

>ms2
61.010700 776348.700000
73.010600 2843500.800000
74.989900 249699.000000
85.019700 77853.600000
87.035300 730353.200000
91.021200 146542.200000
101.005600 1974087.500000
112.030500 132353.700000
113.014500 1727053.100000
130.041200 58804353.100000
131.025000 122692.300000

>ms2
58.008700 125473.400000
60.024400 78908.500000
61.010600 913131.200000
73.010600 3166035.900000
74.989900 308952.200000
85.019600 264862.100000
87.035300 2076860.100000
91.021200 66019.800000
101.005500 1007054.600000
112.030500 493362.400000
113.014500 4962435.000000
130.041200 43564496.400000
131.024900 310368.500000

>ms2
58.008700 317670.600000
59.966500 44979.000000
60.024400 257697.200000
61.010700 908839.800000
67.029100 138087.400000
69.008300 39554.100000
73.010600 2669963.900000
74.989900 199419.700000
85.019600 906352.700000
87.035300 2852606.200000
91.021200 29387.200000
101.005600 414839.800000
112.030500 1301058.100000
113.014500 9291391.800000
130.041200 26138656.100000
131.025000 651821.400000

