>compound EQ97121140
>parentmass 115.08659999999999
>ionization [M+H]+
>formula C5H10N2O
>rt 48.000000
>profile orbitrap
#smiles_iso C1CC(NC1)C(=O)N
#smiles_can C1CC(NC1)C(=O)N
#inchikey VLJNHYLEOZPXFW-UHFFFAOYSA-N
#pubchem_id 550774
#mb_accession EQ314701,EQ314702,EQ314703,EQ314704,EQ314705,EQ314706

>ms2
68.049700 102479.000000
69.069900 165597.900000
70.065100 76740162.600000
83.049100 81736.600000
115.086500 21096144.400000

>ms2
68.049600 82306.800000
69.070000 170026.700000
70.065100 79449235.700000
83.049000 91827.900000
115.086600 21064907.500000

>ms2
68.049600 115595.800000
69.070000 133721.700000
70.065100 78448741.500000
83.049200 80832.000000
115.086600 18866005.100000

>ms2
68.049600 243948.900000
69.069900 109154.600000
70.065100 81587879.700000
115.086500 9454137.100000

>ms2
68.049600 253797.000000
70.065100 84815532.500000
115.086600 2999324.900000

>ms2
68.049500 574626.500000
70.065100 84815926.500000
115.086500 871277.800000

