>compound EQ97669671
>parentmass 348.1013
>ionization [M+H]+
>formula C16H17N3O4S
>rt 264.000000
>profile orbitrap
#smiles_iso CC1=C(N2C(C(C2=O)NC(=O)C(C3=CC=CC=C3)N)SC1)C(=O)O
#smiles_can CC1=C(N2C(C(C2=O)NC(=O)C(C3=CC=CC=C3)N)SC1)C(=O)O
#inchikey ZAIPMKNFIOOWCQ-UHFFFAOYSA-N
#pubchem_id 2666
#mb_accession EQ301401,EQ301402,EQ301403,EQ301404,EQ301405,EQ301406

>ms2peaks
68.049300 646363.000000
70.065100 235255.600000
79.054200 107306.500000
91.054200 222140.500000
106.065100 18053454.200000
112.021300 75421.300000
114.000700 417412.300000
114.054900 293111.400000
118.065000 300418.200000
126.037400 85384.300000
126.055000 100610.700000
133.076000 79874.400000
140.034200 1018284.500000
146.060100 267756.600000
158.027100 72056772.700000
160.042700 1318016.300000
161.071000 1035275.200000
162.037200 149231.900000
164.052800 319398.800000
174.055000 43169737.900000
178.032300 501250.700000
185.037700 455888.000000
186.045900 1273962.000000
190.032100 236699.700000
190.097500 354075.700000
191.039900 396287.800000
191.081500 3650716.700000
192.047800 8806357.300000
207.058800 888021.900000
218.026700 380836.300000
231.094900 75817.200000
242.063600 706719.600000
242.128800 222383.800000
257.074400 181639.100000
257.091900 318537.700000
259.090100 637538.700000
286.053400 692501.800000
286.118600 643127.500000
303.079800 1210839.000000
320.106700 1051032.218000

>ms2peaks
68.049400 4465299.900000
70.065100 440424.600000
72.998000 450945.700000
74.005900 350036.100000
79.054200 613803.200000
82.065100 213206.500000
91.054200 1849449.200000
106.065100 40441174.200000
109.075900 73591.800000
112.021500 546454.300000
114.000800 5274400.500000
114.055000 686278.600000
117.057100 106243.900000
118.041200 357530.000000
118.065100 2931093.400000
119.049100 1034733.500000
123.026400 81851.100000
126.037200 329838.200000
126.054900 582874.500000
128.049600 69994.400000
132.081000 100728.000000
133.076000 498724.500000
134.060000 489335.700000
139.032500 75361.400000
140.034200 2320516.700000
141.048400 247745.300000
142.055900 109992.500000
146.060000 1898709.600000
147.026500 240942.200000
150.037200 526209.800000
158.027100 65783700.900000
160.042600 849755.500000
161.071000 613031.100000
162.037100 916353.000000
164.052800 2849939.200000
167.027300 346404.300000
170.027200 67567.500000
173.071200 206146.800000
174.055000 37807735.600000
178.032200 1318495.800000
185.037800 627198.200000
186.045700 2280091.400000
187.053800 316051.600000
190.032100 941336.000000
190.097700 228906.900000
191.040000 1727154.900000
191.081500 107450.000000
192.047700 8248496.200000
207.058700 542020.600000
214.068600 348410.200000
218.027100 298173.400000
229.080000 98020.800000
229.097700 100354.200000
231.094800 116936.900000
242.063600 475969.600000
242.129100 258741.300000
257.074500 633493.200000
257.091900 337333.000000
259.090500 97922.800000
274.100800 93423.400000
286.053300 427658.100000
286.119300 77743.000000
287.085100 250569.100000
303.079900 115108.700000

>ms2peaks
58.995000 108790.100000
62.005900 57885.600000
68.049500 12767165.700000
69.033500 63792.900000
70.028800 55449.100000
70.065100 730257.200000
72.998100 1183432.500000
74.005900 1519136.800000
79.054200 3139475.700000
82.065100 558280.100000
85.010800 87027.200000
86.005900 774632.800000
91.054200 4575524.800000
95.049200 118011.200000
97.010300 49884.700000
97.028500 61310.600000
98.060100 63370.200000
103.054100 368236.800000
104.049100 55709.800000
105.033600 66971.800000
106.065100 47016675.300000
109.075900 64303.200000
112.021600 2046562.700000
114.000800 8937737.900000
114.054900 543694.900000
115.054200 69315.900000
116.052900 186219.000000
117.057300 827276.400000
118.041300 2455015.600000
118.065100 11956711.500000
119.049200 2017874.700000
121.010600 585574.900000
123.026200 800764.800000
126.037200 291851.100000
126.055000 288312.500000
128.049600 67319.200000
130.065200 570768.800000
131.049100 213308.500000
131.073000 59186.200000
132.080800 207207.400000
133.076300 414349.400000
134.060000 412493.800000
135.026300 113268.900000
137.042000 299859.400000
139.032400 257585.200000
139.050400 55532.100000
140.016300 310222.700000
140.034200 615565.700000
141.048100 330255.700000
146.060100 4024150.700000
147.026400 933948.700000
150.037300 1428832.700000
151.021200 53653.700000
158.027100 43328690.100000
159.068100 70393.900000
160.031100 74345.700000
160.042500 262731.600000
161.071000 80825.600000
162.037200 1273242.200000
164.052900 2963361.800000
167.027200 133828.000000
170.096500 77776.900000
174.055000 12342430.400000
178.032100 760951.700000
185.038100 174055.300000
185.107200 64658.700000
186.045700 602854.500000
187.053900 223451.500000
190.032200 608856.300000
191.039900 812004.600000
192.047800 1649427.700000
196.076500 71501.400000
211.086500 58940.700000
214.068600 247265.000000
214.086000 97483.200000
218.027200 197357.400000
229.080200 348952.300000
229.096400 60146.600000
257.074000 83712.000000
287.085200 69710.300000

>ms2peaks
58.995000 255899.800000
62.005900 50627.800000
65.038600 68820.900000
68.049500 18495713.000000
69.033500 93955.500000
70.028700 112142.400000
70.065100 723245.400000
72.998100 1414464.600000
74.005900 1802744.000000
79.054200 5396163.400000
80.049400 59592.500000
82.065200 428374.900000
85.010700 83411.700000
86.005900 1697539.000000
90.046300 116566.700000
91.054200 6103287.100000
94.065100 101996.600000
95.049100 112242.000000
95.060500 84152.900000
97.028400 182013.900000
98.060100 61537.800000
99.026300 86252.600000
99.985200 56690.100000
103.054200 590543.200000
104.049400 65784.100000
105.033500 66148.700000
106.065100 46333636.600000
107.060300 88284.300000
108.044600 100854.300000
109.076000 67707.300000
112.021500 2615813.100000
114.000800 8251777.900000
115.054100 217215.500000
116.052700 170340.100000
117.057300 1879098.100000
118.041300 3582448.300000
118.065100 16324577.300000
119.049100 2066720.700000
121.010500 918127.500000
123.026200 1192013.500000
124.021300 70324.100000
126.037200 355645.200000
126.055000 70800.800000
128.049400 111535.500000
130.065300 859473.200000
131.049200 193315.200000
131.072800 70953.700000
132.044400 69542.200000
132.080900 191444.800000
133.076100 204136.400000
134.060000 475326.100000
135.026500 253392.900000
137.042000 470626.900000
139.032600 356873.400000
139.050700 47192.900000
140.016100 58547.300000
140.034300 236924.700000
141.047900 351068.200000
146.060100 4461795.100000
147.026300 1489066.500000
150.037300 1152360.300000
151.020900 51371.000000
158.027100 27407182.200000
159.067900 242225.800000
160.042500 60209.400000
162.037200 1439284.400000
164.052800 2057209.900000
167.027400 55280.100000
170.026900 61848.700000
170.096500 72273.400000
174.037500 632755.200000
174.055000 4992387.600000
178.032100 312150.900000
181.088900 76805.800000
183.091500 49360.400000
190.031900 228335.900000
191.039900 292351.400000
192.048200 386554.100000
211.086800 81496.300000
214.068600 94129.200000
218.027400 73876.100000
229.079600 91130.900000
229.097100 105387.300000

>ms2peaks
53.002300 47734.600000
57.987200 87233.100000
58.995000 771403.400000
59.966600 82608.200000
65.038600 238866.600000
66.046400 110428.200000
68.049500 24843744.200000
69.033500 82644.200000
70.028800 190277.700000
70.065100 625754.500000
72.998100 1613763.700000
74.005900 1616591.100000
77.038300 88890.300000
79.054200 12337346.800000
80.049400 165478.800000
82.065000 418545.200000
85.010600 361223.400000
86.005900 3133623.600000
89.038500 100159.400000
90.046400 783875.900000
91.054200 9538215.400000
94.065100 81781.100000
95.049100 605405.500000
95.060300 86656.800000
97.010700 108968.000000
97.028400 215094.600000
99.026300 89155.600000
99.985100 83100.300000
103.054300 1240280.900000
105.044600 90116.100000
106.065100 42690049.900000
107.049200 50142.400000
108.044400 79163.400000
108.057100 52439.300000
112.021500 2115070.100000
114.000800 7070625.500000
115.054200 377077.200000
116.049400 72240.800000
117.057300 3400655.600000
118.041300 4373503.900000
118.065100 15075579.300000
119.049100 1379190.900000
121.010600 1465790.700000
123.026200 1676269.900000
124.021700 88099.600000
126.037300 270249.100000
126.055000 54617.100000
128.049500 589712.700000
130.065200 1262787.800000
131.049200 221163.500000
131.073100 117776.300000
132.080900 91155.200000
134.060000 271667.600000
135.026300 524423.600000
137.042000 636514.900000
139.032500 213958.700000
140.016000 48404.000000
141.048100 200477.600000
146.060100 3834752.300000
147.026300 1586200.500000
150.037400 481066.100000
158.027100 10174543.300000
159.067900 81595.000000
162.037300 1106688.800000
164.052700 583831.300000
167.073200 46200.100000
173.029700 187405.500000
174.037400 631597.600000
174.055000 638057.400000
178.032200 104553.000000
180.080900 99656.100000
181.089000 59514.300000
183.091700 77272.400000
185.108200 53124.000000
190.032600 67090.800000
191.039800 47631.300000
196.076200 177826.000000
229.080200 60143.500000

>ms2peaks
53.002300 96362.400000
57.987200 47493.300000
58.995000 1324740.500000
59.966500 77530.200000
65.038600 415460.700000
66.046400 654267.700000
68.049500 19642373.500000
69.033400 196102.000000
69.044700 99348.100000
70.028700 131177.900000
70.065100 403656.000000
72.998100 821693.500000
74.005900 1313571.700000
77.038400 100621.100000
79.054200 16932707.100000
80.049400 270554.700000
82.065100 345750.500000
85.010700 564851.800000
86.005900 4194748.800000
89.038600 324504.500000
90.046400 1668194.200000
91.054200 10902139.500000
95.049100 1043064.300000
95.060400 96363.000000
97.010600 77888.300000
97.028400 85734.400000
99.026300 55889.900000
99.985200 91003.200000
103.054300 1451434.600000
104.049300 251913.800000
105.033600 97817.700000
105.044600 332634.500000
106.065100 25789515.000000
107.049100 54157.600000
107.060300 68409.300000
108.044500 87538.000000
108.056900 54055.900000
109.076100 172640.700000
112.021500 911794.600000
114.000800 3404187.400000
115.054200 322410.400000
116.049300 85616.100000
116.052900 51412.800000
117.057300 4191587.100000
118.041300 3062736.900000
118.065100 9039639.200000
119.049100 662513.100000
121.010600 1382343.400000
123.026300 1418256.000000
126.037200 63682.100000
128.049500 854747.400000
130.065200 985721.600000
131.049300 51501.800000
131.072900 108172.800000
132.044800 46154.000000
135.026200 218820.600000
137.042000 290495.400000
146.060100 2229908.900000
147.026400 972492.500000
150.037000 185074.900000
158.027100 2625373.900000
159.067600 60433.000000
162.037100 537071.900000
164.052700 53457.800000
167.073000 103952.500000
173.029600 340729.300000
174.037300 365751.300000
174.055200 95720.600000
180.080500 70804.500000

