>compound EQ97251794
>parentmass 382.1595
>ionization [M+H]+
>formula C18H24FN3O3S
>rt 648.000000
>profile orbitrap
#smiles_iso C[C@H](C1=NC2=C(S1)C=C(C=C2)F)NC(=O)[C@H](C(C)C)NC(=O)OC(C)C
#smiles_can CC(C)C(C(=O)NC(C)C1=NC2=C(S1)C=C(C=C2)F)NC(=O)OC(C)C
#inchikey USRKFGIXLGKMKU-ABAIWWIYSA-N
#pubchem_id 53297381
#mb_accession EQ305501,EQ305502,EQ305503,EQ305504,EQ305505,EQ305506

>ms2
98.060000 1983887.600000
116.070400 87997998.000000
144.065300 37381640.200000
158.117300 12650836.000000
180.027200 19575042.500000
186.112200 16392563.500000
197.054000 80093325.600000
296.122400 49213070.600000
322.101600 6108623.100000
340.112100 25332886.800000
382.159000 376030523.000000

>ms2
55.054100 963481.200000
56.049300 338053.000000
57.057100 329401.500000
72.080600 79422695.700000
98.059900 19106085.700000
114.127600 1256527.600000
116.070400 272745846.100000
117.101800 1246856.500000
125.107000 422861.800000
144.065300 13266535.800000
154.011800 1131593.900000
158.117400 13726135.100000
180.027500 177170072.600000
186.112200 1036875.100000
195.038100 371280.800000
197.054000 183255431.800000
296.122400 58005761.500000
322.101600 7214077.600000
340.112200 3051487.900000
382.159000 2779704.600000

>ms2
55.054100 2155798.600000
57.057300 1028969.300000
72.080600 118254674.400000
83.028900 916593.000000
98.059900 46394292.900000
114.127600 949871.300000
116.070400 158940824.200000
117.101900 318132.400000
125.107100 784223.300000
127.000900 2248905.900000
144.065500 339273.300000
154.012000 2739655.000000
158.117500 1462434.700000
180.027500 303194992.200000
195.038300 304750.400000
197.054000 31512199.000000
296.122400 1116413.500000

>ms2
55.054200 3357626.400000
57.057300 1349735.000000
72.080600 122725016.300000
83.028900 1181021.900000
98.059900 66325817.300000
114.127500 876478.100000
116.070400 95249819.200000
127.001000 8703102.900000
154.011700 3394995.700000
180.027500 310468855.900000
197.054000 5886011.100000

>ms2
55.054200 6225441.200000
56.049500 842015.100000
57.057200 3720636.100000
62.023600 868060.300000
70.065000 837310.200000
72.080600 141103242.300000
74.023500 780116.000000
83.028900 3891033.700000
98.059900 76403695.600000
116.070400 42295682.300000
127.001000 51848602.000000
154.011900 10441270.400000
180.027500 340123783.900000

>ms2
55.054200 13700371.900000
56.049500 1133112.600000
57.057300 4302897.800000
58.995000 756027.400000
62.023600 933118.600000
70.028700 494469.200000
70.065000 681656.200000
72.080600 91975102.700000
74.023400 1272628.500000
83.029000 13684398.900000
98.059900 36906462.100000
116.070400 11701724.600000
127.001000 113860762.100000
153.016700 393122.800000
154.011900 13894724.200000
180.027500 192281167.800000

