>compound EQ98178113
>parentmass 415.1686
>ionization [M+H]+
>formula C22H26N2O4S
>rt 438.000000
>profile orbitrap
#smiles_iso CC(=O)OC1C(SC2=CC=CC=C2N(C1=O)CCN(C)C)C3=CC=C(C=C3)OC
#smiles_can CC(=O)OC1C(SC2=CC=CC=C2N(C1=O)CCN(C)C)C3=CC=C(C=C3)OC
#inchikey HSUGRBWQSSZJOP-UHFFFAOYSA-N
#pubchem_id 3076
#mb_accession EQ301701,EQ301702,EQ301703,EQ301704,EQ301705,EQ301706

>ms2peaks
72.080700 2584775.900000
109.010600 959554.100000
137.059700 1386259.500000
178.032100 75753707.000000
223.090200 2735388.000000
310.090000 6450481.000000
312.105500 8317555.700000
355.147400 1356577.600000
370.111200 42487353.300000
415.169000 617082325.500000

>ms2peaks
58.065200 2464242.000000
72.080800 22635880.500000
109.010400 3101055.000000
121.064800 5815088.800000
137.059800 23119407.700000
150.037400 11832325.600000
178.032200 672420689.100000
179.070400 1149872.200000
191.040000 9140238.800000
223.090200 10323694.200000
234.058500 2255347.400000
310.089900 37568534.200000
312.105700 21861053.800000
328.100700 2080480.400000
355.147800 2075819.900000
370.111300 19329283.800000
415.168900 30732738.900000

>ms2peaks
58.065200 4000866.800000
72.080800 27694521.000000
109.010800 11703816.400000
109.064900 611515.800000
118.065100 1028485.600000
121.064900 10890646.800000
137.059900 23450845.900000
149.060100 547041.200000
150.037400 108262242.800000
162.037300 1036511.400000
174.037500 3031735.400000
177.054900 1083834.000000
178.032200 509543614.300000
191.040200 14489973.300000
192.047800 2051233.000000
223.090500 699765.600000
234.058200 729341.200000
295.066800 571738.500000
310.089800 15408933.600000
312.105900 710555.200000
328.100700 3070565.100000

>ms2peaks
58.065200 4292279.600000
65.038600 954132.100000
70.065200 1141434.900000
72.080800 20256860.700000
91.054300 600379.900000
94.041400 518120.100000
109.010800 33615245.900000
109.064900 2594831.600000
117.057300 1215014.200000
118.065200 2056604.500000
121.065000 5747807.300000
133.064800 354709.100000
136.021700 583470.700000
137.059900 16576654.100000
146.060000 385179.000000
148.021600 452325.300000
149.060000 1200664.800000
150.037400 179567505.600000
152.053300 364698.300000
162.037400 589017.200000
163.045400 316770.500000
163.076000 345048.900000
164.016500 284112.800000
174.037400 2757684.400000
177.054900 330668.300000
178.032300 274731959.700000
191.040100 8927588.000000
192.048100 1647639.400000
267.071600 291667.300000
295.066600 1455301.800000
310.089700 4687935.200000
328.100300 1014563.000000

>ms2peaks
58.065200 4788091.600000
65.038600 3954484.200000
68.979100 709994.400000
70.065100 2529948.600000
72.080800 26476550.000000
91.054300 1880340.300000
94.041400 1731580.500000
95.049200 1455574.800000
109.010800 179504604.400000
111.026400 504920.300000
117.057400 6437227.300000
118.065100 4309174.800000
121.064900 9855844.200000
130.065200 1037790.800000
131.072800 402207.900000
133.065000 628196.900000
135.014000 2277187.700000
135.080600 471754.600000
136.021800 2715742.900000
137.059900 16778424.000000
146.060300 1030646.400000
148.021800 1115873.200000
149.029500 2051579.400000
149.059800 2011193.700000
150.037400 353694622.500000
152.053000 394505.900000
162.037500 565745.500000
163.045100 1357342.300000
164.016300 1389572.700000
173.029700 419278.600000
174.037300 4394112.300000
178.032300 156776249.100000
191.040200 6820415.700000
192.047600 2558057.400000
223.045200 562554.200000
295.067200 411779.100000
310.090600 529529.300000

>ms2peaks
58.065200 6675099.700000
65.038600 17818606.400000
68.979200 2203202.700000
70.065200 4083021.900000
72.080800 27904318.500000
91.054300 6592674.800000
94.041400 4691787.200000
95.049300 2886111.700000
106.065300 2049038.700000
108.002900 1869197.600000
109.010800 390283559.800000
111.026500 1288458.900000
117.057300 11874338.100000
118.065200 4775261.000000
121.064900 10125350.000000
130.065200 2732371.400000
133.065000 1223927.500000
135.014000 4065816.800000
136.021800 2915759.300000
137.059800 9113371.400000
148.022100 1871865.300000
149.029700 3309747.700000
149.060100 449722.700000
150.037400 298167143.000000
162.037300 2277898.900000
163.045200 1942514.200000
164.016700 433290.700000
173.029800 1365926.700000
174.037400 3674197.100000
178.032300 51497402.900000
191.040300 2131749.400000
223.045600 1774344.000000

