>compound KW00728717
>parentmass 212.1182
>ionization [M+H]+
>formula C13H13N3
>rt 455.520000
>profile orbitrap
#smiles_iso C1=CC=C(C=C1)NC(=NC2=CC=CC=C2)N
#smiles_can C1=CC=C(C=C1)NC(=NC2=CC=CC=C2)N
#inchikey OWRCNXZUPFZXOS-UHFFFAOYSA-N
#pubchem_id 7594
#mb_accession KW100702,KW100703,KW100704

>ms2peaks
77.038600 159340.100000
94.065000 10281335.000000
119.060200 14454020.000000
195.091300 17424518.000000
212.118000 4413437.500000

>ms2peaks
77.038300 126996.300000
94.065000 9714172.000000
119.060100 13723780.000000
169.075900 41803.700000
195.091300 15719273.000000
212.117600 2480559.800000

>ms2peaks
77.038400 68476.300000
81.102100 39549.400000
94.065000 9904506.000000
119.060100 13459525.000000
163.085900 50249.400000
195.091300 15651666.000000

