>compound KW02276520
>parentmass 202.1802
>ionization [M+H]+
>formula C11H23NO2
>rt 595.320000
>profile orbitrap
#smiles_iso C(CCCCCN)CCCCC(=O)O
#smiles_can C(CCCCCN)CCCCC(=O)O
#inchikey GUOSQNAUYHMCRU-UHFFFAOYSA-N
#pubchem_id 17083
#mb_accession KW100601,KW100602,KW100603,KW100604

>ms2peaks
59.106400 2.800000
71.048000 2.600000
115.004700 16.900000
139.110300 5.600000
149.104800 592.100000

>ms2peaks
149.132600 1803.100000
167.142800 1313.000000
184.169200 108413.200000

>ms2peaks
149.132200 1382.100000
167.142700 804.600000
168.040400 249.000000
184.169300 65033.700000

>ms2peaks
87.994700 162.100000
136.124300 189.800000
149.132400 359.800000
162.090800 196.000000
167.142700 345.500000
184.169200 29987.400000

