>compound KW03603253
>parentmass 245.0476
>ionization [M+H]+
>formula C13H9ClN2O
>rt 1073.460000
>profile orbitrap
#smiles_iso C1=CC=C2C(=C1)C(=O)NC3=C(N2)C=CC(=C3)Cl
#smiles_can C1=CC=C2C(=C1)C(=O)NC3=C(N2)C=CC(=C3)Cl
#inchikey YVWNDABPZGGQFE-UHFFFAOYSA-N
#pubchem_id 3653116
#mb_accession KW109302,KW109303,KW109304

>ms2peaks
209.070200 1118764.400000
210.078100 2975683.800000
228.020300 7028951.000000
245.047200 292047.900000

>ms2peaks
63.067800 17834.100000
77.026200 19208.900000
147.023200 22517.900000
157.051100 14876.500000
200.002300 20032.800000
201.053800 18404.000000
209.070500 981885.000000
210.078200 2990027.000000
228.020500 6818487.000000
245.046900 249431.600000

>ms2peaks
117.969500 22080.900000
180.081300 23043.900000
209.070600 1003146.200000
210.078300 2799892.800000
227.036300 52601.800000
228.020600 6240611.500000

