>compound KW05050314
>parentmass 154.1226
>ionization [M+H]+
>formula C9H15NO
>rt 681.600000
>profile orbitrap
#smiles_iso C1CCC2(CC1)CC(=O)NC2
#smiles_can C1CCC2(CC1)CC(=O)NC2
#inchikey JAWPQJDOQPSNIQ-UHFFFAOYSA-N
#pubchem_id 47457
#mb_accession KW100302,KW100303,KW100304

>ms2peaks
67.054000 183437.400000
91.054300 269686.500000
93.069800 355185.500000
95.085400 4525607.000000
109.100800 536246.500000
112.111800 570325.600000
119.085200 808540.300000
137.096100 255328.300000
154.122400 26794506.000000

>ms2peaks
67.054100 178102.300000
91.054000 240859.800000
93.069700 349298.000000
95.085300 4436499.000000
109.100900 587310.900000
112.111800 453699.800000
119.085200 839055.200000
137.095800 195185.000000
154.122400 30141336.000000

>ms2peaks
60.044300 106510.500000
67.054100 218073.400000
69.069700 54372.000000
70.064900 50630.300000
91.054100 246465.800000
93.069700 418499.900000
95.085400 4460556.000000
109.100900 482743.900000
112.111900 502787.500000
119.085300 937169.000000
137.095800 202190.600000

