>compound KW06112537
>parentmass 279.0933
>ionization [M+H]+
>formula C18H15OP
>rt 1068.540000
>profile orbitrap
#smiles_iso C1=CC=C(C=C1)P(=O)(C2=CC=CC=C2)C3=CC=CC=C3
#smiles_can C1=CC=C(C=C1)P(=O)(C2=CC=CC=C2)C3=CC=CC=C3
#inchikey FIQMHBFVRAXMOP-UHFFFAOYSA-N
#pubchem_id 13097
#mb_accession KW108101,KW108102,KW108103,KW108104

>ms2peaks
173.037900 16769.500000

>ms2peaks
201.046200 80446712.000000
219.056900 4193736.000000
238.978800 84727.900000
279.093100 15784098.000000

>ms2peaks
173.051500 96312.000000
201.046300 72970024.000000
219.056800 3551645.500000
279.093100 15960073.000000

>ms2peaks
173.051100 113861.200000
192.983900 110944.300000
201.046200 69283792.000000
219.056700 3463376.000000

