>compound KW07230625
>parentmass 282.2791
>ionization [M+H]+
>formula C18H35NO
>rt 1003.620000
>profile orbitrap
#smiles_iso CC1CN(CC(O1)C)C2CCCCCCCCCCC2
#smiles_can CC1CN(CC(O1)C)C2CCCCCCCCCCC2
#inchikey JMXKCYUTURMERF-UHFFFAOYSA-N
#pubchem_id 61899
#mb_accession KW101302,KW101303,KW101304

>ms2
69.069700 196019.000000
98.096200 7165138.000000
111.116600 105794.400000
116.106700 35285868.000000

>ms2
69.069700 189865.900000
81.069600 108669.200000
97.101000 305286.900000
98.096200 7384284.000000
111.116700 134168.400000
116.106700 38088684.000000
177.077700 46898.600000
189.222100 67197.200000
189.231600 70993.900000
203.129700 50973.600000
256.132400 57672.600000
282.278600 406753.200000

>ms2
69.069700 142816.000000
97.101000 186351.400000
98.096200 6053600.000000
111.116500 160847.500000
114.091100 74067.600000
116.106700 29916582.000000
189.221600 95888.700000

