>compound KW07713204
>parentmass 419.1754
>ionization [M+H]+
>formula C28H22N2O2
>rt 2500.380000
>profile orbitrap
#smiles_iso CC1=CC=C(C=C1)NC2=C3C(=C(C=C2)NC4=CC=C(C=C4)C)C(=O)C5=CC=CC=C5C3=O
#smiles_can CC1=CC=C(C=C1)NC2=C3C(=C(C=C2)NC4=CC=C(C=C4)C)C(=O)C5=CC=CC=C5C3=O
#inchikey TVRGPOFMYCMNRB-UHFFFAOYSA-N
#pubchem_id 31416
#mb_accession KW107101,KW107102,KW107103,KW107104

>ms2
268.165200 180.200000
269.176500 78.800000
419.176200 68322.800000

>ms2
196.112100 5410.900000
296.105900 11929.900000
312.101700 68049.900000
313.109500 96835.000000
327.112300 216001.000000
328.120100 37110.100000
374.167900 2399.000000
387.146700 3666.600000
401.164300 325318.400000
402.168300 36984.300000
404.151100 43511.800000
418.167200 456174.100000

>ms2
296.107200 2878.300000
297.078600 2072.900000
297.138900 1561.300000
310.086500 1475.500000
311.094300 4572.800000
312.102100 29815.700000
312.126500 1869.100000
313.110000 14764.900000
327.113100 41094.700000
328.121100 3768.200000
338.105200 16190.700000
339.112900 5140.500000
359.154700 2886.900000
373.170200 5794.200000
383.155000 2713.800000
385.133800 2552.700000
386.141700 5007.500000
389.165400 4394.400000
399.150200 3577.100000
400.157900 19675.600000
401.165700 184545.300000
402.149400 2279.100000
402.168200 1544.300000
403.145100 16109.800000
404.153100 3729.500000
417.160500 34603.400000
418.167600 1375842.800000

>ms2
181.088300 1161.200000
196.112300 2064.000000
254.096400 2044.100000
268.112200 9120.500000
269.083900 1022.100000
269.115500 1121.200000
270.115200 1405.300000
281.107100 2534.600000
282.091500 2534.300000
282.115200 4029.800000
283.099100 2431.100000
284.107100 7045.900000
285.110700 1335.900000
286.086000 1978.100000
286.146500 2398.800000
293.107600 1088.300000
294.091500 3653.200000
295.086400 2398.200000
295.099300 7293.200000
295.124300 1000.100000
296.107100 20373.100000
297.078400 17546.600000
297.101500 1204.900000
297.138700 8800.500000
298.087300 3979.700000
298.141900 1857.800000
299.118300 2026.300000
300.102200 3001.000000
301.109800 3588.100000
309.102400 5355.300000
310.086500 9908.600000
310.111200 1376.500000
311.082200 5240.300000
311.094300 29398.000000
311.118200 1971.800000
312.101700 173717.200000
313.109000 119733.500000
314.141300 1482.500000
321.102500 1690.600000
323.081600 2930.900000
324.125600 1566.800000
325.097400 6083.100000
325.109900 4705.600000
326.097800 969.100000
326.106400 2893.200000
326.117800 3787.400000
327.112700 290628.300000
337.097200 5165.500000
338.104800 90950.000000
339.113700 18606.300000
341.128600 1225.200000
350.141900 1090.500000
357.138400 4477.600000
358.141500 1185.400000
358.147100 1222.700000
359.154200 17663.400000
360.157500 2924.100000
361.169900 2454.600000
371.154300 5624.900000
373.169700 35315.600000
374.140800 989.300000
374.172700 7690.000000
375.149500 7573.900000
375.185500 1895.700000
376.152300 1619.300000
377.128900 2646.400000
378.149400 1116.200000
383.154400 26782.500000
384.138100 1210.700000
384.157200 6296.800000
385.133700 15727.300000
386.141500 36592.500000
387.144300 6067.200000
388.121400 1357.700000
389.165000 22417.900000
390.168000 4825.900000
399.149400 25973.800000
400.156900 96416.900000
401.164500 965705.300000
402.148300 13993.000000
402.167600 224482.700000
403.143800 71583.500000
404.150900 40269.900000
417.159200 114482.700000
418.166900 274627.200000

