>compound KW12216435
>parentmass 170.1176
>ionization [M+H]+
>formula C9H15NO2
>rt 405.900000
>profile orbitrap
#smiles_iso CC(=O)CC(C)(C)NC(=O)C=C
#smiles_can CC(=O)CC(C)(C)NC(=O)C=C
#inchikey OMNKZBIFPJNNIO-UHFFFAOYSA-N
#pubchem_id 17888
#mb_accession KW109102,KW109103,KW109104

>ms2peaks
55.017800 440452.200000
58.065100 3217323.500000
72.044200 2814035.000000
81.069700 116163.800000
99.080200 27066634.000000
112.075300 2155115.800000
170.117100 1670606.500000

>ms2peaks
55.017800 219845.200000
58.065100 2578305.200000
72.044200 2308508.000000
79.053900 89067.500000
81.069600 127663.100000
99.080200 22529452.000000
112.075300 1820840.400000
170.117100 1357477.500000

>ms2peaks
55.017800 287715.900000
58.065100 2476213.500000
72.044200 2104505.000000
79.053900 62405.200000
81.069600 99434.300000
98.096400 66684.900000
99.080100 21261858.000000
112.075300 1662796.600000
152.106800 56442.600000

