>compound KW13980462
>parentmass 203.1278
>ionization [M+H]+
>formula C10H18O4
>rt 1164.960000
>profile orbitrap
#smiles_iso CC(C)OC(=O)CCC(=O)OC(C)C
#smiles_can CC(C)OC(=O)CCC(=O)OC(C)C
#inchikey YPLYFEUBZLLLIY-UHFFFAOYSA-N
#pubchem_id 70213
#mb_accession KW105101,KW105102,KW105103,KW105104

>ms2
72.991700 3.600000
174.078700 14.900000
175.038700 28.600000

>ms2
73.028700 1037.000000
101.023300 117231.300000
119.033800 75684.900000
143.070300 10802.100000
161.080700 37628.400000
196.120300 1794.500000

>ms2
55.017900 250.100000
73.028300 687.800000
101.023200 75868.000000
119.033700 49377.200000
142.057800 304.500000
143.070200 7917.300000
161.080700 23421.800000
196.118100 1546.500000

>ms2
55.017800 728.200000
73.028300 1193.500000
101.023200 94580.200000
119.033700 58817.100000
143.070200 8621.000000
161.080700 29940.100000

