>compound KW13557822
>parentmass 326.0518
>ionization [M+H]+
>formula C12H9F2N5O2S
>rt 691.560000
>profile orbitrap
#smiles_iso CC1=NC2=NC(=NN2C=C1)S(=O)(=O)NC3=C(C=CC=C3F)F
#smiles_can CC1=NC2=NC(=NN2C=C1)S(=O)(=O)NC3=C(C=CC=C3F)F
#inchikey RXCPQSJAVKGONC-UHFFFAOYSA-N
#pubchem_id 91759
#mb_accession KW105701,KW105702,KW105703,KW105704

>ms2
109.065800 3626.000000
126.046400 801.900000
128.057600 215495.600000
143.999500 241041.600000
145.046400 33512.900000
151.066000 10000.900000
182.034500 170944.500000
225.053200 4362.900000
262.080000 701209.800000
286.028000 4625.300000
307.029200 1651.500000

>ms2
108.024500 76229.200000
128.030400 1694928.200000
129.038300 3547535.800000
134.058900 71620.700000
135.065800 120798.400000
144.025400 1739050.600000
145.033300 194943.600000
182.025400 1328853.400000
183.032900 210845.900000
191.992100 4631726.500000
197.012100 368730.900000
203.077100 46618.300000
242.083200 1451667.000000
258.075800 110114.200000
262.089100 6480307.500000
286.042400 69163.700000
306.044100 258986.300000

>ms2
108.024300 77930.600000
128.030500 1493613.900000
129.038300 3476455.200000
133.048700 34198.300000
134.058500 50854.000000
135.066200 94577.200000
144.025400 1932275.000000
145.033100 191951.300000
153.022600 53127.200000
182.025400 1336628.100000
183.033100 311207.400000
191.992200 4889522.500000
197.012400 297429.200000
200.061400 35659.900000
215.022900 71437.900000
242.083200 1540867.800000
258.077600 55251.100000
262.089300 6148653.000000
286.038200 54662.300000
306.045100 259598.800000
308.040000 31828.100000
326.050900 38922.500000

>ms2
84.080400 22979.000000
108.024200 141254.200000
128.030400 1403430.600000
129.038200 2864215.200000
131.036600 26134.100000
134.058700 54298.300000
135.066400 109961.300000
144.025300 1774984.900000
145.033100 152926.700000
151.061200 31324.600000
160.987300 26053.800000
182.025300 1214507.600000
183.033100 255478.700000
191.992100 4335493.500000
197.012400 275846.900000
215.023100 62433.900000
242.083100 1487559.800000
258.077900 85826.600000
262.089200 6131605.000000
306.044800 270713.000000
308.041000 61718.600000

