>compound KW14997760
>parentmass 388.131
>ionization [M+H]+
>formula C21H22ClNO4
>rt 1183.500000
>profile orbitrap
#smiles_iso COC1=C(C=C(C=C1)/C(=C\C(=O)N2CCOCC2)/C3=CC=C(C=C3)Cl)OC
#smiles_can COC1=C(C=C(C=C1)C(=CC(=O)N2CCOCC2)C3=CC=C(C=C3)Cl)OC
#inchikey QNBTYORWCCMPQP-JXAWBTAJSA-N
#pubchem_id 5463781
#mb_accession KW108501,KW108502,KW108503,KW108504

>ms2peaks
114.042700 2179.100000
122.108800 698.300000
139.125000 663.500000
208.014300 1623.500000
302.055000 61589.700000

>ms2peaks
301.062900 55984552.000000
302.034200 98261.100000

>ms2peaks
301.062600 54083096.000000

>ms2peaks
165.054900 64968.400000
301.062600 52998696.000000

