>compound KW15838249
>parentmass 242.28419999999997
>ionization [M+H]+
>formula C16H35N
>rt 1267.920000
>profile orbitrap
#smiles_iso CCCCC(CC)CNCC(CC)CCCC
#smiles_can CCCCC(CC)CNCC(CC)CCCC
#inchikey SAIKULLUBZKPDA-UHFFFAOYSA-N
#pubchem_id 7791
#mb_accession KW104702,KW104703,KW104704

>ms2
57.069800 152588.400000
71.085400 586432.700000
118.098100 97493.600000
130.159000 8908124.000000
196.051200 248166.800000
242.284000 5900757.500000

>ms2
57.069900 144174.400000
71.085500 592850.200000
113.132500 82240.500000
128.143500 61704.700000
130.159000 9341031.000000
133.026700 43037.100000
136.005200 38074.000000
189.257200 84686.000000
196.050900 229772.300000
208.017900 44719.300000
242.284100 8690282.000000
250.096500 40332.000000

>ms2
57.069900 247540.900000
71.085500 632018.100000
113.132500 81021.400000
130.159000 9453281.000000
158.153800 52656.400000
189.244800 164343.100000
192.093900 44813.200000
196.051100 264731.900000
223.136300 57743.400000

