>compound KW19653130
>parentmass 242.28420000000003
>ionization [M+H]+
>formula C16H35N
>rt 1437.210000
>profile orbitrap
#smiles_iso CCCCCCCCNCCCCCCCC
#smiles_can CCCCCCCCNCCCCCCCC
#inchikey LAWOZCWGWDVVSG-UHFFFAOYSA-N
#pubchem_id 3094
#mb_accession KW103102,KW103103,KW103104,KW104802,KW104803,KW104804

>ms2peaks
196.063700 214101.400000
242.284000 33168296.000000

>ms2peaks
85.101000 48688.700000
189.245300 60218.100000
189.258400 76756.800000
196.063900 237584.600000
196.112900 62304.000000
242.283800 32390990.000000

>ms2peaks
67.018000 40452.200000
85.101100 55843.400000
189.233100 144885.500000

>ms2peaks
71.085600 116900.100000
130.159000 8449024.000000
242.283900 32950946.000000

>ms2peaks
71.085400 69053.500000
119.118200 39726.800000
128.143200 112053.700000
130.158900 7331462.500000
181.101100 44766.100000
189.244300 84038.600000
196.050000 226722.900000
242.283700 30262000.000000

>ms2peaks
57.069900 89289.100000
71.085500 165655.200000
128.143300 179804.000000
130.158900 10201817.000000
189.257700 185625.700000
196.050300 252972.300000

