>compound KW19172338
>parentmass 287.0582
>ionization [M+H]+
>formula C15H11ClN2O2
>rt 941.280000
>profile orbitrap
#smiles_iso C1=CC=C(C=C1)C2=NC(C(=O)NC3=C2C=C(C=C3)Cl)O
#smiles_can C1=CC=C(C=C1)C2=NC(C(=O)NC3=C2C=C(C=C3)Cl)O
#inchikey ADIMAYPTOBDMTL-UHFFFAOYSA-N
#pubchem_id 4616
#mb_accession KW108301,KW108302,KW108303,KW108304

>ms2
269.001000 4082876.200000

>ms2
241.052700 830861.600000
269.047500 27399970.000000

>ms2
241.028600 78126.200000
241.052600 1078001.400000
269.047500 38301056.000000

>ms2
241.052500 882010.800000
269.047300 33266172.000000

