>compound KW24873222
>parentmass 308.1524
>ionization [M+H]+
>formula C16H22ClN3O
>rt 1329.540000
>profile orbitrap
#smiles_iso CC(C)(C)C(CCC1=CC=C(C=C1)Cl)(CN2C=NC=N2)O
#smiles_can CC(C)(C)C(CCC1=CC=C(C=C1)Cl)(CN2C=NC=N2)O
#inchikey PXMNMQRDXWABCY-UHFFFAOYSA-N
#pubchem_id 86102
#mb_accession KW101401,KW101402,KW101403,KW101404

>ms2
153.121900 6629.200000
165.054700 95168.500000

>ms2
108.020500 99944.200000
125.015600 208086.200000
139.030600 385513.700000
151.030800 640596.800000
165.046000 489912.200000
183.055700 150092.000000
290.141100 1338023.100000

>ms2
125.015000 166299.300000
128.960800 56824.300000
139.030600 266629.200000
151.030700 589641.400000
165.046200 425351.000000
179.061800 68412.300000
181.077900 63195.700000
196.168700 82995.900000
202.073300 45421.200000
202.077900 49739.600000
262.098900 49985.800000
267.022100 51580.200000
290.140900 1092720.900000

>ms2
98.116500 50910.900000
125.014900 192276.000000
139.030600 171945.400000
148.038500 50635.500000
151.030700 634877.000000
165.046300 433634.700000
177.044600 50171.500000
179.061900 117109.500000
181.077600 78878.500000
196.169500 77824.100000
290.141100 941485.000000

