>compound KW30475408
>parentmass 284.9612
>ionization [M+H]+
>formula C6H12Cl3O4P
>rt 972.240000
>profile orbitrap
#smiles_iso C(CCl)OP(=O)(OCCCl)OCCCl
#smiles_can C(CCl)OP(=O)(OCCCl)OCCCl
#inchikey HQUQLFOMPYWACS-UHFFFAOYSA-N
#pubchem_id 8295
#mb_accession KW103201,KW103202,KW103203,KW103204

>ms2peaks
160.991300 111765.200000
186.954200 199476.600000
222.895400 861343.800000
248.970900 19713.600000

>ms2peaks
98.984200 128119.400000
124.999900 743359.200000
160.976700 600748.900000
186.992200 1312761.000000
222.968900 6056021.500000
248.984600 131839.000000

>ms2peaks
98.984200 147046.300000
124.999900 751878.800000
160.976600 570280.700000
186.992200 1231999.900000
196.028800 6137.500000
222.968700 5833633.500000
248.984300 128453.700000

>ms2peaks
98.984200 133876.000000
124.999900 741853.700000
160.976600 609642.900000
186.992200 1122098.200000
222.968800 5567719.500000
248.984300 150764.700000

