>compound KW35785582
>parentmass 321.206
>ionization [M+H]+
>formula C19H28O4
>rt 1954.020000
>profile orbitrap
#smiles_iso C1CC(CC=C1)C2OCC3(CO2)COC(OC3)C4CCC=CC4
#smiles_can C1CC(CC=C1)C2OCC3(CO2)COC(OC3)C4CCC=CC4
#inchikey WKTJXDHLMJKSGI-UHFFFAOYSA-N
#pubchem_id 98143
#mb_accession KW107001,KW107002,KW107003,KW107004

>ms2peaks
147.174300 144.600000
179.034600 1475.700000
185.095200 551.200000
187.148100 285.600000
193.122800 76.600000
197.097000 171.600000
205.051700 34.000000
207.159000 62.900000
213.231500 11.400000
239.223400 62.600000
249.207700 110.900000
267.195900 35.500000
285.155800 59.800000

>ms2peaks
81.069800 6439.400000
91.053900 749.800000
95.085400 769.200000
109.065100 961.300000
121.088500 482.900000
127.075300 2004.100000
133.101100 2729.100000
163.111300 549.600000
175.148100 4888.100000
179.106400 11756.100000
181.121900 1186.300000
185.132900 2490.900000
191.106800 538.600000
197.117000 1311.500000
203.143000 3223.500000
209.117400 3313.600000
211.132600 309462.400000
227.127100 3021.300000
257.997800 458.200000
273.184700 753.200000
303.194500 7146.100000

>ms2peaks
79.054000 407.700000
81.069800 5485.100000
95.085400 536.200000
105.069700 646.300000
109.064700 331.700000
117.069700 425.700000
119.085400 275.500000
125.095900 806.600000
127.075300 1127.700000
131.085400 314.800000
133.101000 2034.600000
135.116800 314.200000
143.085500 325.800000
145.101000 520.100000
147.116600 1248.200000
159.116800 355.400000
163.112000 506.300000
175.147900 3618.000000
179.106400 7661.000000
181.121800 498.100000
185.132200 1822.000000
187.147900 1016.900000
191.106500 425.400000
195.137600 334.600000
197.117000 1001.900000
203.142800 1815.500000
209.117100 2454.900000
211.132500 231233.500000
223.132700 410.400000
227.127300 1998.400000
229.142700 349.200000
249.163100 251.500000
267.173200 304.200000
273.183900 605.600000
285.184100 439.200000
303.194900 5598.200000

>ms2peaks
81.069800 4290.800000
95.085500 682.500000
105.069800 763.600000
109.064700 539.100000
127.075200 816.700000
133.101000 2013.200000
134.024300 289.500000
135.116900 403.200000
147.116800 944.700000
159.116600 534.700000
163.111700 547.600000
175.148000 2574.100000
179.106400 6891.200000
181.122100 572.600000
185.132200 1614.700000
191.106500 660.300000
197.117100 934.100000
203.142900 1777.200000
209.117000 2427.100000
211.132600 191863.000000
227.127400 2296.600000
285.185200 496.700000
303.195200 4485.000000
317.208200 306.200000

