>compound KW39540059
>parentmass 195.0877
>ionization [M+H]+
>formula C8H10N4O2
>rt 352.380000
>profile orbitrap
#smiles_iso CN1C=NC2=C1C(=O)N(C(=O)N2C)C
#smiles_can CN1C=NC2=C1C(=O)N(C(=O)N2C)C
#inchikey RYYVLZVUVIJVGH-UHFFFAOYSA-N
#pubchem_id 2519
#mb_accession KW107901,KW107902,KW107903,KW107904

>ms2peaks
83.024300 737.100000
138.006700 399067.100000
163.072400 1665.400000

>ms2peaks
110.071700 22790.200000
138.066100 1506953.100000
151.097500 17356.300000
163.061500 8982.700000
193.047300 17414.000000
195.087400 2663885.000000

>ms2peaks
110.071200 17507.800000
138.066200 1656893.000000
151.097900 12303.700000
163.061200 9338.600000
195.087600 2020798.500000

>ms2peaks
110.071200 18950.300000
138.066200 1552446.500000
151.097900 13679.400000
163.061100 6345.300000
181.072400 3068.000000
188.009800 2854.300000

