>compound KW45044969
>parentmass 251.0373
>ionization [M+H]+
>formula C12H10O4S
>rt 713.340000
>profile orbitrap
#smiles_iso C1=CC(=CC=C1O)S(=O)(=O)C2=CC=C(C=C2)O
#smiles_can C1=CC(=CC=C1O)S(=O)(=O)C2=CC=C(C=C2)O
#inchikey VPWNQTHUCYMVMZ-UHFFFAOYSA-N
#pubchem_id 6626
#mb_accession KW108601,KW108602,KW108603,KW108604

>ms2
157.982500 516.200000

>ms2
65.038500 43436.500000
81.033900 7087.100000
93.033400 77751.600000
109.028400 403665.200000
111.044100 10357.700000
121.039700 312342.400000
156.995400 4480061.000000

>ms2
65.038600 38947.200000
81.033500 8963.800000
93.033500 63110.200000
109.028400 382155.600000
111.044200 7866.000000
121.039600 302456.000000
156.995400 4204957.000000

>ms2
65.038600 41084.500000
81.033500 5232.300000
93.033500 61989.100000
109.028400 336094.600000
111.044000 10035.700000
121.039600 284610.800000
156.995500 3798691.800000

