>compound KW47845281
>parentmass 134.0713
>ionization [M+H]+
>formula C7H7N3
>rt 576.240000
>profile orbitrap
#smiles_iso CC1=CC=CC2=NNN=C12
#smiles_can CC1=CC=CC2=NNN=C12
#inchikey CMGDVUCDZOBDNL-UHFFFAOYSA-N
#pubchem_id 122499
#mb_accession KW100102,KW100103,KW100104

>ms2peaks
79.054000 91647.600000
106.064800 258212.600000
134.071000 16920838.000000

>ms2peaks
79.054000 123916.400000
106.064900 194858.400000
134.071000 10602137.000000

>ms2peaks
79.054000 171270.800000
106.064900 291408.700000

