>compound KW47592941
>parentmass 268.1907
>ionization [M+H]+
>formula C15H25NO3
>rt 534.900000
>profile orbitrap
#smiles_iso CC(C)NCC(COC1=CC=C(C=C1)CCOC)O
#smiles_can CC(C)NCC(COC1=CC=C(C=C1)CCOC)O
#inchikey IUBSYMUCCVWXPE-UHFFFAOYSA-N
#pubchem_id 4171
#mb_accession KW108001,KW108002,KW108003,KW108004

>ms2
91.005000 3847.900000
116.066800 1141501.900000
117.017100 8433.500000
121.097500 203183.100000
144.134300 11689.400000
148.181600 5026.900000
159.042600 363088.500000
173.055100 2675.800000
191.163600 1256601.800000
208.154400 7183.800000
218.142000 609398.300000
236.141600 2166.500000

>ms2
74.060000 157724.100000
98.096300 1022385.300000
116.106900 6209097.500000
121.064800 1132779.100000
133.064800 617793.100000
147.081100 108655.000000
159.080400 2941986.500000
161.096200 771290.800000
163.112400 255099.400000
165.091100 321078.000000
176.107000 1722627.900000
177.091000 799326.400000
191.106500 10633028.000000
194.117300 1332418.000000
218.153900 5793372.500000
226.143400 3475491.200000
233.152500 176902.200000
250.180000 2069837.100000
268.190300 1408414.100000

>ms2
60.093400 36439.400000
69.172500 37017.200000
74.060000 164995.600000
86.096400 51758.000000
98.096400 797837.800000
105.069800 50924.900000
116.106900 6273232.500000
117.032000 33966.400000
117.070300 32032.100000
121.064700 1158522.000000
131.085600 102585.300000
133.064800 570464.400000
141.069800 34312.800000
143.085800 52230.500000
147.080400 118156.200000
159.080400 2609973.200000
161.096100 597199.100000
163.111800 241708.300000
165.090900 249383.800000
175.111800 77815.900000
176.106900 1548480.600000
177.090900 862523.700000
179.106600 154693.100000
180.068800 35432.900000
191.106600 9963578.000000
193.039400 43757.900000
194.117400 1188277.500000
201.127200 151236.800000
218.153700 5475399.000000
226.143600 3623544.500000
232.178800 32424.500000
233.153600 128985.000000
250.179900 2261787.800000
268.190500 523550.000000

>ms2
74.060000 178790.000000
96.081100 49799.600000
98.096400 969854.500000
105.069500 49485.100000
108.115000 46408.900000
116.106900 6757582.000000
121.064800 1194766.800000
131.085400 105015.100000
133.064800 454698.300000
135.080000 45263.700000
147.080500 96381.000000
150.091900 66299.500000
152.023900 36408.500000
159.080400 2801257.500000
161.096100 708756.300000
163.111700 222836.900000
165.091100 296012.700000
175.111900 85464.200000
176.107000 1638679.800000
177.091000 863257.900000
179.107000 92875.100000
191.106600 10496524.000000
194.117400 1392299.200000
201.127400 144600.500000
218.153800 5543658.500000
226.143600 3509300.800000
233.153800 138256.500000
250.179900 2248206.000000

