>compound KW48595970
>parentmass 234.0583
>ionization [M+H]+
>formula C12H11NO2S
>rt 1071.300000
>profile orbitrap
#smiles_iso C1=CC=C(C=C1)S(=O)(=O)C2=CC=CC=C2N
#smiles_can C1=CC=C(C=C1)S(=O)(=O)C2=CC=CC=C2N
#inchikey JBCUKQQIWSWEOK-UHFFFAOYSA-N
#pubchem_id 77956
#mb_accession KW100902,KW100903,KW100904

>ms2peaks
65.038400 334375.800000
80.049200 98822.400000
92.049300 16832792.000000
108.044200 8938764.000000
156.011100 34069824.000000
174.021600 1898778.800000

>ms2peaks
55.029000 33966.800000
65.038400 336951.700000
76.030500 49420.300000
80.049400 84747.100000
92.049300 16151199.000000
93.057000 272713.000000
108.044200 8321622.000000
117.033300 43071.300000
156.011100 33087754.000000
174.021600 1797811.900000
208.013400 42328.800000
234.057700 122538.100000

>ms2peaks
65.038400 331029.700000
80.049400 155845.400000
92.049300 16514618.000000
93.057100 276664.100000
108.044100 9136965.000000
156.011100 33012780.000000
174.021600 2026620.400000
211.013500 44048.600000

