>compound KW48135062
>parentmass 269.1648
>ionization [M+H]+
>formula C17H20N2O
>rt 1439.760000
>profile orbitrap
#smiles_iso CCN(C1=CC=CC=C1)C(=O)N(CC)C2=CC=CC=C2
#smiles_can CCN(C1=CC=CC=C1)C(=O)N(CC)C2=CC=CC=C2
#inchikey PZIMIYVOZBTARW-UHFFFAOYSA-N
#pubchem_id 6828
#mb_accession KW106202,KW106203,KW106204

>ms2
92.049500 476779.900000
120.044300 16105585.000000
148.075800 33848956.000000
152.105100 60566.800000

>ms2
81.138600 37100.300000
92.049400 401641.800000
120.044300 16775109.000000
148.075700 36716388.000000
159.019000 40735.500000
162.091000 40607.700000
175.037200 39369.100000
226.029100 44503.800000

>ms2
77.038600 78709.800000
92.049500 522264.800000
120.044300 15046067.000000
148.075700 30393386.000000
189.171800 34243.200000
205.108400 32392.000000

