>compound KW49913156
>parentmass 257.1747
>ionization [M+H]+
>formula C14H24O4
>rt 1568.220000
>profile orbitrap
#smiles_iso C1CCCCCC(=O)OCCOC(=O)CCCC1
#smiles_can C1CCCCCC(=O)OCCOC(=O)CCCC1
#inchikey GJJSUPSPZIZYPM-UHFFFAOYSA-N
#pubchem_id 41270
#mb_accession KW108701,KW108702,KW108703,KW108704

>ms2peaks
81.127200 5961.700000
111.004000 4558.200000
121.065000 8883.100000
125.034500 2428.900000
127.133100 274.200000
140.091700 442.700000
143.049200 461.000000
149.059700 54179.600000
177.114700 5301.100000
179.142900 68.600000
185.091300 300.400000
203.188700 82.900000
239.159800 5161.700000

>ms2peaks
67.054200 5962.000000
77.038900 3535.200000
78.079100 2330.300000
79.054400 18847.700000
81.070000 28883.800000
83.049200 3890.500000
83.085600 21753.900000
91.054300 19621.800000
93.070000 65202.700000
95.085600 20767.900000
97.064800 18453.800000
97.101100 4398.500000
107.085500 52667.700000
109.101200 17169.200000
111.080500 28054.900000
115.075800 3637.800000
117.070200 14235.900000
121.101200 47352.200000
123.116600 6666.100000
125.095900 8219.800000
131.085600 10258.100000
133.101400 13081.400000
135.117000 26661.300000
149.132700 419936.200000
159.117000 96482.100000
167.143200 175897.900000
177.127500 48849.200000
185.153900 3120.300000
195.138200 32121.400000
213.148600 77360.300000
231.159700 4522.300000
239.164300 43735.100000
257.175000 17397.500000

>ms2peaks
67.054300 4688.400000
69.070000 3584.100000
73.101500 1627.000000
77.038700 2819.700000
79.054300 14624.600000
81.069900 24730.900000
83.049100 1883.900000
83.085600 19098.800000
85.064900 2132.600000
91.054300 16592.400000
93.070000 48441.300000
95.085600 18987.300000
97.064900 14998.900000
97.101200 4992.900000
107.085600 48639.500000
109.101200 18460.900000
111.080500 27669.600000
115.075400 2573.400000
117.070000 15153.400000
119.085600 2050.300000
121.101300 48808.800000
123.116900 6414.300000
125.096300 11142.600000
129.091000 2643.600000
131.085600 10114.800000
133.101300 7930.000000
135.117000 22422.300000
147.116900 1676.200000
149.132700 403961.600000
159.117000 80849.700000
161.132900 2116.300000
167.143200 158662.700000
175.148400 5945.300000
177.127500 44834.700000
195.138000 31267.200000
213.148600 80060.400000
231.159300 4034.100000
239.164200 39276.100000
257.174500 3795.300000

>ms2peaks
67.054300 3194.900000
77.038600 5396.300000
79.054300 11452.200000
81.069900 23497.600000
83.085600 17765.900000
91.054300 14923.500000
93.069900 50867.400000
95.085600 21124.200000
97.064800 12390.000000
97.101200 4263.600000
105.069900 4044.200000
107.085600 51003.100000
109.101200 16541.700000
111.080500 21274.100000
115.075300 3107.200000
117.070000 9738.500000
121.101200 47844.500000
123.117000 6184.100000
125.096200 6479.100000
131.085700 8950.200000
133.101400 9636.300000
135.116900 27798.500000
147.116800 2868.200000
149.132600 381133.100000
151.111900 3205.200000
159.116900 91248.700000
167.143100 153441.800000
175.148300 4510.900000
177.127500 42695.200000
185.153800 2595.400000
193.158700 2156.600000
195.138000 29431.800000
200.177300 1882.900000
213.148500 82014.300000
239.164100 37047.900000

