>compound KW50440213
>parentmass 234.0583
>ionization [M+H]+
>formula C12H11NO2S
>rt 1129.800000
>profile orbitrap
#smiles_iso C1=CC=C(C=C1)NS(=O)(=O)C2=CC=CC=C2
#smiles_can C1=CC=C(C=C1)NS(=O)(=O)C2=CC=CC=C2
#inchikey XAUGWFWQVYXATQ-UHFFFAOYSA-N
#pubchem_id 74296
#mb_accession KW106001,KW106002,KW106003,KW106004

>ms2
83.052300 3.900000
168.053100 2066.800000
198.058100 7.200000

>ms2
92.049500 1647.600000
93.057200 237521.200000
108.044300 42156.100000
109.052100 49363.500000
117.974600 723.500000
156.011200 4001.500000
169.083800 9014.500000
170.091800 2760.900000
234.058000 19786.900000

>ms2
92.049500 941.800000
93.057200 161779.700000
108.044300 24409.800000
109.052100 31239.700000
141.000000 242.800000
152.963400 180.600000
156.011300 2926.300000
168.080700 242.200000
169.084000 6679.900000
170.091800 1709.900000
192.973600 209.600000
234.058000 22040.900000

>ms2
92.049500 743.300000
93.057200 113002.800000
108.044300 18936.500000
109.052000 22170.800000
156.011200 2184.600000
168.080900 421.800000
169.083900 5693.300000
170.091800 1390.600000
193.030600 255.700000

