>compound KW50705149
>parentmass 312.1165
>ionization [M+H]+
>formula C17H17N3OS
>rt 1296.120000
>profile orbitrap
#smiles_iso C[C@@]1(C(=O)N(C(=N1)SC)NC2=CC=CC=C2)C3=CC=CC=C3
#smiles_can CC1(C(=O)N(C(=N1)SC)NC2=CC=CC=C2)C3=CC=CC=C3
#inchikey LMVPQMGRYSRMIW-KRWDZBQOSA-N
#pubchem_id 10403199
#mb_accession KW101501,KW101502,KW101503,KW101504

>ms2peaks
131.092600 331615.700000
188.095600 40115.500000
195.074800 19553.200000
204.099800 1244.100000
221.102700 91298.300000
284.085800 87197.800000

>ms2peaks
103.054100 3509591.500000
120.080500 1286895.600000
131.049000 178421.700000
161.070600 1215488.100000
165.048000 9613186.000000
170.095900 156656.800000
193.079000 815814.000000
205.078600 300127.200000
211.122700 6738411.000000
219.056900 253298.200000
221.106200 414127.100000
222.091000 2354239.800000
236.117900 55835992.000000
239.117400 23328514.000000
264.112400 58717280.000000
265.119700 958178.900000
267.094200 6137426.000000
284.121800 716935.400000
295.089200 9120476.000000

>ms2peaks
103.054100 3766412.200000
120.080500 1339652.500000
131.048900 104406.800000
143.027100 78280.300000
150.024400 107844.600000
151.057500 109952.000000
161.070800 1175581.900000
165.047900 8810590.000000
170.096100 216724.200000
193.079100 649375.500000
195.091000 130354.900000
205.079100 273357.500000
211.122600 6649611.000000
219.058300 248829.200000
221.107200 377909.000000
222.090900 2126315.800000
234.069400 57664.600000
236.117800 54412072.000000
239.117300 23423410.000000
264.112500 56447076.000000
265.120200 860040.400000
267.094200 6463523.500000
284.120800 568935.100000
295.089200 8144518.000000

>ms2peaks
103.054100 3416236.800000
120.080500 1158152.100000
131.048900 109014.000000
143.027300 91431.300000
150.024400 112503.300000
161.070800 1304882.900000
165.047900 8050456.500000
170.096100 252203.400000
188.081500 180272.100000
193.079200 633416.200000
194.096200 87046.900000
195.091500 87964.400000
205.078900 241453.300000
211.122600 6425566.500000
219.058500 140726.900000
221.106800 318240.300000
222.091000 2215756.000000
236.117900 55933820.000000
239.117400 18794696.000000
264.112600 43628636.000000
265.120400 680191.300000
267.094400 5899726.000000
284.121000 425333.200000
295.089400 5843636.000000

