>compound KW53060439
>parentmass 289.1547
>ionization [M+H]+
>formula C16H20N2O3
>rt 696.300000
>profile orbitrap
#smiles_iso CC1=CC(=C(C=C1)C(=O)OC)C2=NC(C(=O)N2)(C)C(C)C
#smiles_can CC1=CC(=C(C=C1)C(=O)OC)C2=NC(C(=O)N2)(C)C(C)C
#inchikey FFCCBBNQPIMUJI-UHFFFAOYSA-N
#pubchem_id 54744
#mb_accession KW106301,KW106302,KW106303,KW106304

>ms2peaks
187.028700 4517.000000
215.141800 199463.100000
230.105600 3111.500000
261.087500 1354849.000000

>ms2peaks
86.096400 1310685.900000
114.091400 527764.400000
144.044200 106339.300000
160.076400 129182.300000
161.071000 687566.200000
176.070400 1050119.100000
215.081500 1150380.400000
229.133600 19977542.000000
244.133500 706874.700000
247.107600 6374789.000000
257.128200 76194928.000000
261.159300 15016866.000000

>ms2peaks
86.096500 1204794.600000
114.091300 504555.500000
144.044700 101666.100000
161.071100 558116.200000
176.070700 911931.200000
215.081500 1205828.900000
229.133500 18551566.000000
244.133300 747105.700000
247.107800 6379246.000000
257.128300 73071632.000000
261.159300 14961715.000000
289.154700 301390.200000

>ms2peaks
86.096400 880374.100000
114.091300 323440.100000
144.044600 108710.200000
160.076100 77767.900000
161.071000 575975.800000
176.070700 809266.900000
215.081500 911903.200000
229.133500 15910196.000000
244.133200 553838.400000
247.107700 5537823.000000
257.128300 66217028.000000
261.159300 13379526.000000

