>compound KW54614540
>parentmass 253.1434
>ionization [M+H]+
>formula C14H20O4
>rt 871.920000
>profile orbitrap
#smiles_iso C1CC2C(O2)CC1COC(=O)C3CCC4C(C3)O4
#smiles_can C1CC2C(O2)CC1COC(=O)C3CCC4C(C3)O4
#inchikey YXALYBMHAYZKAP-UHFFFAOYSA-N
#pubchem_id 16949
#mb_accession KW105501,KW105502,KW105503,KW105504

>ms2peaks
79.026600 9475.600000
107.057500 23834.800000
111.023100 58368.800000
127.062400 615.300000
129.091600 7092.000000
181.088200 104.100000
199.014700 449.000000
217.143300 1932.400000

>ms2peaks
67.054300 6408.400000
69.069900 4770.100000
77.038600 12196.600000
77.153400 1385.000000
79.054200 63786.600000
81.069800 41770.000000
83.085400 2033.900000
91.054100 23374.900000
93.069800 78076.200000
97.064700 28472.600000
107.049000 67101.400000
111.080300 192492.000000
125.059600 167283.500000
129.090800 9823.400000
143.070200 111511.300000
171.116800 10959.800000
203.058600 1501.100000
217.122100 11400.100000
235.132500 49487.900000

>ms2peaks
67.054100 6874.900000
69.069800 5108.100000
77.038500 10174.400000
79.054200 59897.800000
81.069800 37057.600000
83.085500 1412.900000
91.054100 19079.000000
93.069800 67482.600000
95.085500 1838.700000
97.064700 24966.400000
107.049000 61477.300000
111.080300 152546.600000
125.059600 154921.900000
129.070000 1172.600000
129.090900 9106.400000
143.070200 102529.100000
171.116600 8114.900000
189.127200 1986.900000
199.111300 1428.100000
207.138100 1000.100000
217.122000 8797.500000
235.132500 39798.000000

>ms2peaks
67.054200 4218.000000
69.069800 5175.700000
77.038500 10852.100000
79.054200 55415.900000
81.069800 23743.000000
83.085500 1238.800000
91.054200 15510.200000
93.069800 52422.800000
95.085400 1476.400000
97.064700 20400.700000
107.049100 48248.800000
109.064700 728.600000
111.080300 109380.200000
125.059600 119242.700000
129.090800 6231.500000
143.070200 78823.300000
171.116900 6841.100000
189.127300 1930.900000
199.111300 1300.600000
207.137700 1461.800000
217.122200 7413.700000
235.132600 31736.700000
256.010200 672.200000

