>compound KW55776056
>parentmass 138.0913
>ionization [M+H]+
>formula C8H11NO
>rt 288.540000
>profile orbitrap
#smiles_iso CCOC1=CC=C(C=C1)N
#smiles_can CCOC1=CC=C(C=C1)N
#inchikey IMPPGHMHELILKG-UHFFFAOYSA-N
#pubchem_id 9076
#mb_accession KW102501,KW102502,KW102503,KW102504

>ms2peaks
94.065100 2959.200000

>ms2peaks
92.049300 14605.800000
93.057100 23442.700000
110.060000 1637094.100000
138.091300 4836827.000000

>ms2peaks
65.038600 8952.600000
71.011400 5249.600000
92.049500 25818.000000
93.033400 6966.400000
93.057300 13225.300000
94.065100 21375.800000
109.052000 7172.600000
110.059900 1624731.900000
138.091200 4555035.000000

>ms2peaks
65.038600 8477.700000
92.049400 27294.900000
93.033500 7956.700000
93.057200 23553.600000
94.064900 9091.500000
109.052200 8142.800000
110.060000 2241787.000000
121.052400 4863.000000

