>compound KW58164584
>parentmass 436.946
>ionization [M+H]+
>formula C12H4Cl2F6N4OS
>rt 1537.800000
>profile orbitrap
#smiles_iso C1=C(C=C(C(=C1Cl)N2C(=C(C(=N2)C#N)S(=O)C(F)(F)F)N)Cl)C(F)(F)F
#smiles_can C1=C(C=C(C(=C1Cl)N2C(=C(C(=N2)C#N)S(=O)C(F)(F)F)N)Cl)C(F)(F)F
#inchikey ZOCSXAVNDGMNBV-UHFFFAOYSA-N
#pubchem_id 3352
#mb_accession KW104101,KW104102,KW104103,KW104104

>ms2peaks
319.981800 257.500000
351.970300 166.900000
367.924800 111958.600000
388.933400 198.200000
418.942300 176.700000

>ms2peaks
192.956400 1490.300000
319.983200 3053.700000
350.947600 5059.200000
351.933000 1317.700000
366.942300 14003.800000
367.950400 1015157.900000
388.979500 1253.900000
418.933500 1956.500000

>ms2peaks
192.956700 1457.100000
319.983300 1736.900000
350.947900 6135.400000
351.931500 1629.100000
366.942700 11993.600000
367.950300 918589.700000
387.971100 1024.800000
388.977600 1188.800000
418.934900 1187.000000

>ms2peaks
192.956300 857.500000
319.983300 1670.000000
350.947500 4276.000000
351.932000 1582.000000
366.942400 7848.300000
367.950100 757544.900000
387.970100 1016.300000
388.978100 929.100000
418.934500 864.000000

