>compound KW58991074
>parentmass 220.0968
>ionization [M+H]+
>formula C12H13NO3
>rt 629.760000
>profile orbitrap
#smiles_iso COC1=C(C=C2C=CNC(=O)CC2=C1)OC
#smiles_can COC1=C(C=C2C=CNC(=O)CC2=C1)OC
#inchikey CPNZASIAJKSBBH-UHFFFAOYSA-N
#pubchem_id 1482373
#mb_accession KW105902,KW105903,KW105904

>ms2peaks
160.075700 86323.300000
161.083300 842439.100000
188.070200 105735.600000
189.079200 186933.700000
192.101800 30363198.000000
193.037400 94459.800000
203.070200 434780.000000

>ms2peaks
160.075700 108206.000000
161.083500 787431.200000
177.090900 27137.400000
188.070900 66520.600000
189.078600 102087.000000
192.101700 24452826.000000
193.036100 37577.800000
202.086000 39419.400000
203.069900 306934.300000
205.073100 39726.200000
220.096500 434139.700000

>ms2peaks
160.075700 65185.800000
161.058000 35610.700000
161.083400 698886.300000
188.070000 66651.800000
189.078400 123120.400000
192.101700 26242520.000000
193.036000 66687.700000
203.069900 359199.800000
205.073100 49725.600000

