>compound KW62271605
>parentmass 178.159
>ionization [M+H]+
>formula C12H19N
>rt 1221.420000
>profile orbitrap
#smiles_iso CC(C)C1=C(C(=CC=C1)C(C)C)N
#smiles_can CC(C)C1=C(C(=CC=C1)C(C)C)N
#inchikey WKBALTUBRZPIPZ-UHFFFAOYSA-N
#pubchem_id 32484
#mb_accession KW102602,KW102603,KW102604

>ms2peaks
91.054200 1765701.400000
94.065200 624757.500000
105.069800 529123.400000
106.065000 203735.000000
119.085800 182310.900000
120.080200 133822.100000
133.101200 4978808.000000
134.096600 2248478.000000
136.112200 1786378.400000
148.112400 1102815.800000
160.111800 145957.900000
162.127800 18071116.000000
174.127900 485884.700000
176.143600 4363161.000000
178.159100 30074644.000000

>ms2peaks
77.071100 39601.100000
91.054200 1464124.400000
94.065100 571096.200000
105.069900 383257.500000
106.065200 141838.600000
119.085600 96458.900000
120.080700 104507.700000
132.080900 56150.900000
133.101200 4441053.000000
134.096500 2594916.000000
136.112100 1714637.400000
148.112200 1221202.400000
160.112500 58265.400000
162.127800 16209375.000000
174.127900 442334.200000
176.143500 2924626.500000
178.159000 37039156.000000

>ms2peaks
91.054200 2212242.200000
94.065100 890513.200000
97.065200 45414.200000
105.069800 582306.400000
106.065100 261137.400000
117.069800 62044.200000
119.085500 182322.800000
120.080700 221977.000000
130.122800 35520.700000
131.011900 42993.500000
132.080800 103930.500000
133.101200 6289147.500000
134.096400 3004521.200000
136.112000 2466781.500000
148.112100 1556266.400000
153.070100 39156.700000
160.112200 125327.200000
162.127700 23205592.000000
174.127700 311679.000000

