>compound KW62816759
>parentmass 179.1278
>ionization [M+H]+
>formula C8H18O4
>rt 338.614286
>profile orbitrap
#smiles_iso COCCOCCOCCOC
#smiles_can COCCOCCOCCOC
#inchikey YFNKIDBQEZZDLK-UHFFFAOYSA-N
#pubchem_id 8189
#mb_accession KW108902,KW108903,KW108904,KW109401,KW109402,KW109403,KW109404

>ms2peaks
59.049100 702999.200000
89.059500 103005.100000
103.075100 2730464.000000
133.085500 270496.800000
147.101200 368498.500000
179.127000 12191.200000

>ms2peaks
59.049100 541976.400000
89.059500 82212.100000
103.075100 2175259.200000
133.085600 227628.700000
147.101200 286879.100000
179.127400 45646.500000
188.042200 2784.300000

>ms2peaks
59.049100 536300.300000
89.059500 75047.700000
103.075100 2043181.000000
133.085500 191441.500000
147.101200 260446.500000

>ms2peaks
87.104200 1251.000000
89.095700 52195.700000

>ms2peaks
73.064600 213119.200000
89.059500 638794.700000
91.075300 9933.300000
117.090700 1999060.400000
133.085500 1109221.400000
135.100900 35023.200000
151.095900 27257.700000
161.116600 21640.600000
179.127500 113681.200000

>ms2peaks
73.064600 261926.800000
80.070700 3525.400000
86.109400 4409.000000
89.059600 677286.100000
91.075200 7265.600000
117.090800 2208328.200000
123.043900 3993.900000
133.085600 1246983.400000
135.101200 33658.100000
151.096200 25201.400000
161.117000 27615.900000
179.127400 10298.200000

>ms2peaks
73.064600 208867.800000
89.059500 639509.800000
91.075200 5965.400000
111.068300 2542.300000
117.090700 1867235.600000
133.085600 1028202.400000
135.101200 26236.300000
151.096200 29221.300000
156.052400 3010.300000
161.116800 17391.600000

