>compound KW64679048
>parentmass 246.1237
>ionization [M+H]+
>formula C13H15N3O2
>rt 354.120000
>profile orbitrap
#smiles_iso CC1=C(C(=O)N(N1C)C2=CC=CC=C2)NC(=O)C
#smiles_can CC1=C(C(=O)N(N1C)C2=CC=CC=C2)NC(=O)C
#inchikey OIAGWXKSCXPNNZ-UHFFFAOYSA-N
#pubchem_id 65743
#mb_accession KW101002,KW101003,KW101004

>ms2
74.058900 52748.300000
127.122400 54126.900000
204.112700 4262529.000000
228.112700 25570624.000000

>ms2
137.071400 30902.600000
204.112800 3957331.800000
228.112600 24906320.000000

>ms2
100.050200 22708.700000
193.108000 31256.600000
196.108100 31142.400000
204.112700 3854421.200000
228.112600 22042662.000000

