>compound KW66056326
>parentmass 138.0913
>ionization [M+H]+
>formula C8H11NO
>rt 309.180000
>profile orbitrap
#smiles_iso CC1=CC(=C(C=C1)OC)N
#smiles_can CC1=CC(=C(C=C1)OC)N
#inchikey WXWCDTXEKCVRRO-UHFFFAOYSA-N
#pubchem_id 8445
#mb_accession KW100201,KW100202,KW100203,KW100204

>ms2peaks
123.068300 2718158.800000

>ms2peaks
106.064900 352655.800000
122.059500 113407.200000
123.067600 14373810.000000
138.091100 3180703.800000

>ms2peaks
106.064900 268834.500000
121.064600 82658.000000
122.059800 137694.700000
123.067600 13859760.000000
130.073300 43368.400000
138.091100 386194.400000

>ms2peaks
77.058300 30897.200000
106.064900 236535.500000
121.064600 80084.400000
122.059800 118187.900000
123.067500 12371812.000000

