>compound KW66142807
>parentmass 436.2343
>ionization [M+H]+
>formula C24H29N5O3
>rt 1207.200000
>profile orbitrap
#smiles_iso CCCCC(=O)N(CC1=CC=C(C=C1)C2=CC=CC=C2C3=NNN=N3)[C@@H](C(C)C)C(=O)O
#smiles_can CCCCC(=O)N(CC1=CC=C(C=C1)C2=CC=CC=C2C3=NNN=N3)C(C(C)C)C(=O)O
#inchikey ACWBQPMHZXGDFX-QFIPXVFZSA-N
#pubchem_id 60846
#mb_accession KW107501,KW107502,KW107503,KW107504

>ms2peaks
180.100300 8446.200000
190.176800 11477.800000
191.064700 2596.600000
206.108400 8295.700000
207.216200 40609.400000
235.050700 332080.500000
306.144000 421619.000000
324.138800 1087.400000
352.090700 76648.100000
362.158000 313355.800000

>ms2peaks
180.079900 77552.400000
190.064900 99266.900000
191.077900 15330.300000
206.083400 46956.100000
207.091400 378202.200000
210.173200 21039.700000
235.097700 2012976.500000
291.149100 494123.400000
306.171300 2791901.500000
352.176700 612987.200000
353.176900 21597.500000
362.222400 2295525.200000
408.228100 5399874.500000
418.223300 12426005.000000
419.170700 26220.500000
419.230400 219793.300000

>ms2peaks
178.077900 13854.000000
180.080600 83535.900000
190.065000 78678.700000
206.083700 33578.900000
207.091500 376676.100000
235.097600 1955457.400000
236.101000 15480.600000
291.149000 460960.200000
306.171100 2732962.800000
307.174400 24263.200000
352.176600 570555.200000
362.222400 2120435.800000
363.225600 32143.300000
408.228200 5357367.500000
418.223300 11989192.000000
419.227100 181924.600000

>ms2peaks
153.069900 25026.100000
159.096400 9709.800000
178.077800 15956.300000
180.080600 67284.800000
187.093200 10016.800000
189.218100 9846.200000
189.231700 22150.100000
190.065000 138874.100000
191.072600 14470.100000
192.068300 19510.200000
206.083800 47376.000000
207.091600 435281.100000
235.097700 1673420.000000
236.101100 28271.600000
291.149000 783150.100000
291.993200 10993.300000
306.171100 2443189.200000
307.174200 27943.400000
352.176800 638483.200000
353.179600 11936.000000
362.222500 2935422.000000
363.225800 38206.200000
390.228900 33741.300000
408.228200 4217449.500000
418.223400 9584814.000000
419.227100 181444.000000

