>compound KW67744642
>parentmass 217.0242
>ionization [M+H]+
>formula C8H6F2N2OS
>rt 713.640000
>profile orbitrap
#smiles_iso C1=CC2=C(C=C1OC(F)F)NC(=S)N2
#smiles_can C1=CC2=C(C=C1OC(F)F)NC(=S)N2
#inchikey HJMVPNAZPFZXCP-UHFFFAOYSA-N
#pubchem_id 5064774
#mb_accession KW109201,KW109202,KW109203,KW109204

>ms2peaks
166.999300 80450.000000
199.001800 1992.400000

>ms2peaks
149.016400 362089.000000
150.024100 173083.000000
159.048600 189003.800000
167.027100 421454.600000
177.011000 39388.100000
184.043800 215286.000000
185.051400 90299.800000
197.017300 486329.400000
217.023600 1745471.600000
218.027200 57013.600000

>ms2peaks
82.976200 20615.600000
140.992900 17508.600000
149.016400 410219.800000
150.024400 164053.200000
156.994100 18525.200000
159.048800 213598.700000
163.960400 21815.300000
167.027000 427595.400000
177.011600 26106.100000
184.043800 232004.400000
185.051600 74171.100000
197.017400 492920.100000
217.023300 113609.100000

>ms2peaks
60.043300 6920.100000
66.008800 8010.800000
105.022200 7249.800000
149.016400 343992.800000
150.024200 151451.800000
156.994400 7341.000000
159.048600 164902.500000
167.026900 332354.200000
177.011000 40941.500000
177.022400 15977.600000
184.043700 188175.900000
185.051500 60065.300000
197.017300 472423.900000

