>compound KW71186381
>parentmass 259.1904
>ionization [M+H]+
>formula C14H26O4
>rt 1706.760000
>profile orbitrap
#smiles_iso CCCCOC(=O)CCCCC(=O)OCCCC
#smiles_can CCCCOC(=O)CCCCC(=O)OCCCC
#inchikey XTJFFFGAUHQWII-UHFFFAOYSA-N
#pubchem_id 7784
#mb_accession KW103801,KW103802,KW103803,KW103804

>ms2
101.132100 146.900000

>ms2
83.049000 27011.600000
101.059600 121209.800000
111.043900 846597.700000
129.054400 2952583.200000
157.122300 41373.500000
185.116900 2466311.500000
216.042200 6282.300000

>ms2
83.049100 37452.000000
101.059600 124764.100000
111.043900 797574.800000
129.054500 2741689.200000
153.992600 2797.800000
157.122200 45708.300000
185.116900 2265115.000000
203.127200 3837.900000
253.000800 2818.400000

>ms2
83.049100 45440.900000
101.059600 134897.700000
111.043900 875593.700000
129.054500 2567662.000000
148.018500 3445.700000
157.122200 42655.500000
185.116900 2110620.200000
203.126800 6158.500000
244.120000 3205.400000

