>compound KW76019490
>parentmass 241.1434
>ionization [M+H]+
>formula C13H20O4
>rt 1541.880000
>profile orbitrap
#smiles_iso CCOC(=O)C(CC=C)(CC=C)C(=O)OCC
#smiles_can CCOC(=O)C(CC=C)(CC=C)C(=O)OCC
#inchikey LYUUVYQGUMRKOV-UHFFFAOYSA-N
#pubchem_id 76664
#mb_accession KW105401,KW105402,KW105403,KW105404

>ms2
149.019100 17067.500000
177.111900 1024.000000
184.987700 147160.400000
195.055600 78382.300000
213.102800 204455.200000

>ms2
91.054200 24457.300000
93.069800 204946.400000
95.085300 20083.400000
111.080600 17808.100000
121.064700 149679.400000
123.080500 42472.600000
139.075400 200184.100000
149.059600 132945.600000
167.070600 125856.700000
167.106500 1226223.100000
185.080700 964420.300000
195.101400 420010.900000
196.145800 12810.200000
213.111900 1166254.500000

>ms2
77.038500 5141.000000
81.069800 8008.000000
91.054100 35416.500000
93.069800 244804.900000
95.085400 18813.800000
111.080400 13567.600000
121.064700 204291.700000
123.080300 43979.300000
139.075300 241713.800000
141.090900 6836.500000
149.059700 150755.100000
167.070400 160993.700000
167.106600 1326417.000000
169.122000 10993.800000
175.122500 2347.700000
177.091000 4880.500000
185.080700 1031758.300000
195.101400 435213.200000
196.146700 14862.800000
213.111900 1326845.800000

>ms2
77.038500 4725.000000
81.069800 5656.600000
91.054200 27734.100000
93.069800 205036.000000
95.049000 3647.400000
95.085400 21424.600000
111.080300 14323.800000
121.064700 158911.800000
123.080400 30956.000000
130.134900 1743.200000
139.075300 196047.500000
141.091000 5824.300000
149.059700 120853.500000
167.070400 126891.700000
167.106600 999218.600000
169.122200 5499.100000
173.044000 1581.100000
177.090800 3250.600000
179.013400 1583.900000
185.080600 798083.200000
195.101300 320441.800000
196.097500 2842.600000
196.146300 8393.800000
207.149600 1617.000000
213.111800 911488.300000

