>compound KW78675807
>parentmass 214.0896
>ionization [M+H]+
>formula C10H15NO2S
>rt 1119.180000
>profile orbitrap
#smiles_iso CCCCNS(=O)(=O)C1=CC=CC=C1
#smiles_can CCCCNS(=O)(=O)C1=CC=CC=C1
#inchikey IPRJXAGUEGOFGG-UHFFFAOYSA-N
#pubchem_id 19241
#mb_accession KW100801,KW100802,KW100803,KW100804

>ms2peaks
72.056900 11469.800000

>ms2peaks
77.038500 985069.000000
105.044600 78570.200000
141.000300 9502692.000000
158.026800 14751031.000000

>ms2peaks
77.038400 953055.700000
105.044400 38815.100000
141.000300 10012227.000000
158.026800 15507947.000000

>ms2peaks
72.002800 22885.000000
77.038400 1153317.900000
105.044500 60621.100000
113.013500 25889.400000
141.000200 8564554.000000
158.026800 13360941.000000
189.090600 23607.500000

