>compound KW79063638
>parentmass 163.0754
>ionization [M+H]+
>formula C10H10O2
>rt 1207.140000
>profile orbitrap
#smiles_iso COC(=O)C=CC1=CC=CC=C1
#smiles_can COC(=O)C=CC1=CC=CC=C1
#inchikey CCRCUPLGCSFEDV-UHFFFAOYSA-N
#pubchem_id 7644
#mb_accession KW106601,KW106602,KW106603,KW106604

>ms2peaks
122.036300 52.500000

>ms2peaks
89.059500 1086.000000
103.054000 1238.200000
107.070200 1064.200000
121.065000 969.100000
131.049000 109180.000000
135.080300 435.900000

>ms2peaks
89.059600 1506.700000
103.054200 576.700000
107.070100 629.400000
107.085500 230.700000
121.064700 1002.900000
131.049100 82103.700000

>ms2peaks
73.064600 259.100000
89.059600 1447.200000
103.054100 453.300000
107.070100 846.200000
107.085600 305.400000
121.064700 952.500000
131.049100 55234.300000
145.065000 350.400000

