>compound KW80278180
>parentmass 138.0913
>ionization [M+H]+
>formula C8H11NO
>rt 301.800000
>profile orbitrap
#smiles_iso CCOC1=CC=CC=C1N
#smiles_can CCOC1=CC=CC=C1N
#inchikey ULHFFAFDSSHFDA-UHFFFAOYSA-N
#pubchem_id 7203
#mb_accession KW104301,KW104302,KW104303,KW104304

>ms2
121.064800 161350.200000

>ms2
109.052200 1948838.800000
110.059900 18837036.000000
121.064600 838785.800000
138.091300 1127756.000000

>ms2
93.069800 81802.100000
108.044300 26079.200000
109.052300 1094215.800000
110.059900 10691689.000000
121.064700 471050.200000
138.091300 7022086.500000

>ms2
93.069800 124920.000000
108.044200 62082.500000
109.052200 1489599.000000
110.059900 13999697.000000
121.064600 613051.500000

