>compound KW81797799
>parentmass 163.0754
>ionization [M+H]+
>formula C10H10O2
>rt 615.840000
>profile orbitrap
#smiles_iso CC(=O)C1=CC=CC=C1C(=O)C
#smiles_can CC(=O)C1=CC=CC=C1C(=O)C
#inchikey LVQFKRXRTXCQCZ-UHFFFAOYSA-N
#pubchem_id 35459
#mb_accession KW101602,KW101603,KW101604

>ms2
121.064700 468259.000000
145.064600 20026690.000000
163.074700 102303.100000

>ms2
117.069400 89210.500000
121.064500 395380.500000
145.064500 17978158.000000
163.075100 113428.700000

>ms2
115.039300 64003.700000
115.042100 43833.100000
117.054300 26046.700000
117.069700 83903.900000
121.064600 371359.700000
145.064500 18909730.000000

