>compound KW82053940
>parentmass 272.222
>ionization [M+H]+
>formula C15H29NO3
>rt 1571.580000
>profile orbitrap
#smiles_iso CCCCCCCCCCCC(=O)N(C)CC(=O)O
#smiles_can CCCCCCCCCCCC(=O)N(C)CC(=O)O
#inchikey BACYUWVYYTXETD-UHFFFAOYSA-N
#pubchem_id 7348
#mb_accession KW101202,KW101203,KW101204

>ms2
90.054800 7544006.000000
108.017000 62589.500000
130.025200 73063.300000
189.232600 141504.800000
254.210700 637786.600000

>ms2
90.054700 6292702.000000
108.093900 38686.300000
189.219900 45388.500000
189.232000 66433.900000
214.192900 33917.700000
254.210700 564624.400000

>ms2
90.054700 6050872.500000
102.140700 34721.700000
118.109900 38476.500000
178.085800 35314.900000
189.184700 50007.800000
189.209500 48109.800000
189.219700 79028.800000
190.191600 42673.800000
209.013700 40336.700000
254.210700 547257.600000

