>compound KW82744445
>parentmass 152.0165
>ionization [M+H]+
>formula C7H5NOS
>rt 497.640000
>profile orbitrap
#smiles_iso C1=CC=C2C(=C1)C(=O)NS2
#smiles_can C1=CC=C2C(=C1)C(=O)NS2
#inchikey DMSMPAJRVJJAGA-UHFFFAOYSA-N
#pubchem_id 17520
#mb_accession KW105802,KW105803,KW105804

>ms2peaks
109.010400 48748.700000
152.016400 4811149.500000

>ms2peaks
109.010600 58669.800000
134.005700 13696.600000
152.016400 4989057.500000

>ms2peaks
84.055600 4990.900000
109.010500 100795.200000
134.005700 21171.900000

