>compound KW84582355
>parentmass 315.1955
>ionization [M+H]+
>formula C20H26O3
>rt 1393.260000
>profile orbitrap
#smiles_iso C[C@]12CC=C3[C@H]([C@@H]1CCC2=O)CCC4=C3CCC5(C4)OCCO5
#smiles_can CC12CC=C3C(C1CCC2=O)CCC4=C3CCC5(C4)OCCO5
#inchikey XUOQKQRMICQUQC-AOIWGVFYSA-N
#pubchem_id 7076399
#mb_accession KW104901,KW104902,KW104903,KW104904

>ms2peaks
120.992400 182.500000
157.133900 2246.900000
159.101200 467.700000
173.092400 341.300000
175.143300 4691.500000
181.194900 648.000000
223.120700 706.900000
227.201100 1417.700000
241.118900 1795.800000
244.205400 64.300000
255.169700 20921.200000

>ms2peaks
99.044000 83381.600000
157.101400 15477.500000
175.112300 19349.700000
181.101500 6701.200000
183.117200 7844.300000
193.101100 22805.000000
195.116800 47919.600000
197.095900 37060.600000
197.132700 7803.200000
201.091100 4437.300000
209.132500 19978.200000
211.111100 22138.800000
211.148200 24173.800000
213.127600 15415.700000
219.137600 55395.300000
225.163700 20602.300000
229.159100 21715.700000
235.148000 241924.400000
236.151500 11046.000000
237.164000 43960.100000
241.122100 17088.200000
243.174900 4806.900000
253.158600 1278482.000000
254.162000 58991.700000
255.137500 36842.500000
255.174300 50122.000000
271.169000 1633292.000000
272.172100 92476.400000
297.184500 2373935.200000
298.188000 119568.900000

>ms2peaks
97.064800 5358.300000
99.044100 118204.900000
157.101100 16165.900000
175.111800 20631.100000
179.086000 7530.900000
179.106800 5372.700000
181.101400 8600.400000
183.116700 10009.300000
193.101100 26956.300000
195.116700 59043.700000
196.016000 4845.500000
197.096100 36846.200000
197.132200 5040.300000
201.090800 7935.200000
201.126800 4273.900000
205.122200 10889.200000
207.116800 3466.700000
209.132600 17671.900000
211.111800 18795.700000
211.148100 31765.400000
211.216400 3805.800000
213.127200 10729.000000
219.137800 75935.200000
225.163600 23396.400000
229.158600 22283.600000
235.148100 289893.200000
237.163700 42924.600000
241.122200 7598.800000
250.110500 3319.700000
253.158600 1449518.800000
255.137800 38584.100000
255.174200 63044.700000
256.074500 3614.900000
271.169100 1866732.900000
286.156500 3653.500000
297.184700 3095841.500000

>ms2peaks
97.064800 3301.100000
99.044000 71211.900000
143.085400 3694.700000
157.101300 14579.400000
159.080500 2571.900000
169.101200 2227.800000
171.116700 2248.900000
175.111800 22167.500000
179.085400 7061.900000
179.106700 3713.900000
181.101200 3956.200000
183.116900 5371.500000
189.208900 1900.000000
193.101200 25278.500000
195.116800 50196.000000
196.120400 2137.300000
197.096000 38184.600000
197.132400 9591.500000
201.090900 4761.600000
201.127200 4807.200000
203.106600 2048.100000
205.122200 10056.500000
209.132300 19816.400000
211.111700 25647.700000
211.148000 25810.100000
213.127200 11717.700000
219.137900 43232.200000
223.148500 2090.800000
225.127400 3939.900000
225.163800 16804.200000
229.158600 15955.200000
235.148000 214589.800000
236.151400 7645.000000
237.163600 32586.600000
241.122200 9330.500000
243.174800 1967.500000
253.158500 1125611.100000
254.161800 26984.200000
255.137800 28269.100000
255.174100 37823.600000
257.153800 4417.200000
271.169000 1310894.800000
272.172300 42147.500000
296.048100 2199.200000
297.184600 1867108.800000
298.187900 71671.100000

