>compound KW85817262
>parentmass 429.2397
>ionization [M+H]+
>formula C25H28N6O
>rt 968.220000
>profile orbitrap
#smiles_iso CCCCC1=NC2(CCCC2)C(=O)N1CC3=CC=C(C=C3)C4=CC=CC=C4C5=NNN=N5
#smiles_can CCCCC1=NC2(CCCC2)C(=O)N1CC3=CC=C(C=C3)C4=CC=CC=C4C5=NNN=N5
#inchikey YOSHYTLCDANDAN-UHFFFAOYSA-N
#pubchem_id 3749
#mb_accession KW107401,KW107402,KW107403,KW107404

>ms2
192.108200 36786.200000
195.103600 1522734.400000
196.040100 9542.200000
205.101300 45098.000000
208.095600 16646.800000
250.177500 1527.200000
318.062000 8711.100000
372.012300 7796.300000
384.218200 1887.000000
402.123200 3677.600000

>ms2
135.041800 79406.700000
178.065200 355410.100000
180.080700 1287073.500000
189.214000 98616.700000
190.065100 289151.700000
191.073200 107656.800000
192.069000 147728.400000
195.149200 10507664.000000
205.076000 253430.400000
206.084000 1606240.600000
207.091600 75070560.000000
208.095200 1512830.900000
386.223000 6467258.000000
387.228300 201324.400000
401.233800 23608544.000000

>ms2
167.154200 223054.700000
178.065000 312115.100000
179.073400 108029.600000
180.080800 995268.800000
190.065200 280915.800000
191.073000 118021.300000
192.068200 138812.000000
195.149200 10085101.000000
205.076200 264936.500000
206.083900 1547900.800000
207.091500 69298368.000000
208.094900 880542.100000
318.159700 77689.400000
386.222500 6254623.000000
387.226000 79754.600000
401.233300 22493218.000000

>ms2
167.154300 284276.000000
178.065200 271891.300000
179.073000 156308.800000
180.080700 1494584.600000
189.221800 78919.700000
190.065200 280648.400000
191.073000 121718.400000
192.067900 131525.400000
195.149200 10116464.000000
196.076200 76471.700000
205.076000 398737.800000
206.083900 1629814.500000
207.091600 65307584.000000
208.095000 112105.500000
318.159300 130704.200000
372.220100 89365.500000
386.222600 6242235.000000
401.233400 15653574.000000

