>compound KW97796099
>parentmass 251.0025
>ionization [M+H]+
>formula C13H8Cl2O
>rt 1699.920000
>profile orbitrap
#smiles_iso C1=CC(=CC=C1C(=O)C2=CC=C(C=C2)Cl)Cl
#smiles_can C1=CC(=CC=C1C(=O)C2=CC=C(C=C2)Cl)Cl
#inchikey OKISUZLXOYGIFP-UHFFFAOYSA-N
#pubchem_id 7034
#mb_accession KW106801,KW106802,KW106803,KW106804

>ms2
120.057000 32.800000
152.938600 13.100000
232.040300 26.200000

>ms2
89.060100 1433.500000
110.999700 3374.500000
138.994600 1064530.000000
251.002200 28488.400000

>ms2
110.999500 3552.800000
138.994500 1098057.100000

>ms2
110.999600 2644.500000
138.994400 1062073.200000

