>compound KW98229863
>parentmass 198.1852
>ionization [M+H]+
>formula C12H23NO
>rt 1312.320000
>profile orbitrap
#smiles_iso CCCCCCCCN1CCCC1=O
#smiles_can CCCCCCCCN1CCCC1=O
#inchikey WPPOGHDFAVQKLN-UHFFFAOYSA-N
#pubchem_id 3033871
#mb_accession KW104401,KW104402,KW104403,KW104404

>ms2peaks
156.138400 73964.800000

>ms2peaks
69.033400 189376.900000
86.060000 9006571.000000
98.060000 267591.000000
114.091000 379229.800000
128.106900 925679.900000
142.122700 508092.800000
198.185000 76955032.000000

>ms2peaks
69.033300 109865.200000
86.060000 8865525.000000
98.059900 221145.500000
114.091200 284588.700000
128.106900 754543.300000
142.122500 467015.400000
156.138200 166334.400000
198.185000 75181952.000000

>ms2peaks
68.049300 54000.700000
69.033300 239738.100000
70.065000 77951.200000
86.059900 19624300.000000
98.059800 512542.400000
100.075500 121942.000000
114.091100 735913.700000
128.106800 1927783.400000
130.077500 47026.200000
139.063000 45281.600000
142.122500 1072082.500000
156.138000 281462.500000
163.123100 40746.500000
164.151700 40393.700000
170.154300 51055.400000

