>compound LU00556666
>parentmass 207.0652
>ionization [M+H]+
>formula C11H10O4
>rt 957.300000
>profile orbitrap
#smiles_iso COC1=CC2=C(C=CC(=O)O2)C(=C1)OC
#smiles_can COC1=CC2=C(C=CC(=O)O2)C(=C1)OC
#inchikey NXJCRELRQHZBQA-UHFFFAOYSA-N
#pubchem_id 2775
#mb_accession LU107701,LU107702,LU107703,LU107704,LU107705,LU107706

>ms2peaks
151.075300 36596.900000
163.075400 89316.000000
179.070000 21377.500000
192.041600 83807.200000
207.065100 15101086.000000

>ms2peaks
121.064700 17571.600000
148.051800 34658.900000
151.075400 147200.200000
163.075400 317453.600000
164.047000 31578.300000
179.070300 66531.400000
192.041800 239770.000000
207.065100 13294249.000000

>ms2peaks
53.038600 12847.600000
55.017900 11266.700000
68.997200 9499.500000
79.054200 57573.300000
81.033500 19237.200000
83.012700 9242.200000
85.028400 30273.200000
91.054200 101008.800000
93.069900 19975.000000
95.049100 23285.700000
103.054200 125122.500000
105.033500 17207.900000
105.069900 72170.900000
107.049000 9946.700000
108.056800 18000.000000
109.064800 11378.100000
118.041300 96426.100000
119.049100 72148.900000
120.057000 38250.500000
121.064700 423661.400000
123.080400 67481.700000
131.049100 8943.900000
132.057000 20590.800000
133.028400 18299.300000
133.064700 133643.500000
135.043900 7888.400000
135.080300 26023.600000
136.052000 28347.500000
137.059900 14657.800000
139.075300 178507.700000
147.043900 24313.200000
148.051800 390219.800000
149.023100 23161.500000
149.059900 27125.900000
151.075300 1174860.900000
153.054600 32770.000000
162.031100 12958.000000
163.039100 101426.300000
163.075300 1309664.900000
164.046700 610982.800000
175.038800 17208.000000
179.070200 239174.400000
191.034000 19632.600000
192.041600 1726054.600000
207.065000 7408135.000000

>ms2peaks
51.023000 3856.100000
53.038600 58819.000000
55.017800 48454.300000
63.022900 4404.400000
65.038500 30577.500000
66.046300 31563.700000
67.054200 17585.600000
68.997000 21166.900000
77.038400 18786.400000
78.046300 43066.900000
79.054200 188391.600000
80.062000 10811.700000
81.033400 58847.800000
81.069800 5100.100000
82.004800 4896.700000
82.041300 4858.700000
83.012600 13206.100000
85.028400 38903.000000
89.038600 12670.200000
90.046300 35167.400000
91.054200 764630.300000
92.025500 5776.000000
92.062100 26129.800000
93.033600 6982.500000
93.069800 65393.000000
94.041300 18688.600000
95.049100 162550.700000
97.028500 3071.000000
102.046300 12443.300000
103.054200 310157.200000
104.062000 9381.500000
105.033500 48562.300000
105.069800 113492.200000
106.041200 55535.300000
107.049100 44868.000000
108.020800 4851.000000
108.056900 91696.900000
109.028400 5795.500000
109.064700 31786.500000
110.036200 11826.800000
111.044000 8678.700000
115.054200 11602.000000
118.041300 270723.700000
119.049100 206489.400000
120.057000 143407.700000
121.064700 1685822.100000
122.036200 7686.500000
123.043900 10724.600000
123.080400 139158.200000
124.052000 6583.500000
125.059700 12631.600000
130.041700 4174.000000
131.049300 19225.900000
132.020700 3681.100000
132.057000 46252.800000
133.028400 125245.800000
133.064700 238157.100000
134.036200 45027.200000
135.044000 115356.200000
135.080500 24010.000000
136.051900 114931.600000
137.023300 15317.900000
137.059600 32934.700000
138.031200 4116.100000
138.067300 5929.700000
139.075300 368129.200000
145.028300 12532.400000
146.036100 41864.500000
147.044000 82645.300000
148.051800 799007.800000
149.023300 451315.300000
149.059700 54996.500000
151.075300 1310116.400000
152.047000 6500.000000
153.054500 52710.000000
161.059800 12737.600000
162.031200 151742.500000
163.039000 881440.100000
163.075200 842834.100000
164.046700 2174794.500000
165.054600 5325.800000
173.023300 3829.200000
174.031000 3548.800000
175.038900 35953.600000
177.054500 9405.100000
179.070200 146613.400000
191.033900 176694.900000
192.041600 2410261.200000
207.065100 1950593.100000

>ms2peaks
51.023000 5020.100000
52.030700 3198.600000
53.002200 7702.900000
53.038600 153295.500000
55.017800 82798.400000
57.033500 4034.000000
63.022900 4324.000000
65.038500 157437.000000
66.046400 64379.300000
67.017900 3591.300000
67.054100 36598.800000
68.025600 9253.800000
68.997000 49841.400000
69.033500 3496.100000
71.012900 4573.000000
77.038500 61653.000000
78.046400 251945.400000
79.054200 279321.200000
80.062100 30692.700000
81.033500 74388.500000
81.069900 5403.300000
82.004900 10113.900000
82.041300 17683.800000
83.012800 4623.900000
85.028400 23278.900000
89.038500 52776.000000
90.046400 121496.000000
91.054200 1601648.500000
92.025700 21393.700000
92.062000 31359.000000
93.033500 29806.900000
93.069900 60496.200000
94.041300 42953.300000
95.049200 386625.200000
96.057000 5690.500000
102.046400 20146.400000
103.054200 273498.100000
104.062100 7252.300000
105.033600 87311.000000
105.069900 56011.100000
106.041300 195568.300000
107.049200 179774.200000
108.020700 16077.500000
108.057000 135645.300000
109.028500 13671.100000
109.064800 40618.400000
110.036300 21678.200000
111.044100 6951.400000
115.054400 10762.100000
117.033500 16640.000000
118.041300 282399.300000
119.049200 213832.500000
120.057000 132049.700000
121.028500 157366.500000
121.064800 1504851.800000
122.036200 11032.400000
123.044200 19091.200000
123.080400 70336.600000
124.051800 5753.800000
125.059700 12409.900000
129.033400 5405.800000
130.041200 3876.300000
131.012700 4232.800000
131.049200 13177.300000
132.020500 5716.900000
132.057100 27605.400000
133.028400 192707.600000
133.064800 119872.800000
134.036200 167839.700000
135.044000 377734.300000
136.051900 114897.800000
137.023400 19266.000000
137.059700 13918.200000
138.031100 9319.900000
139.075400 146783.900000
145.028500 31376.800000
146.036300 168059.300000
147.044100 101042.500000
148.051900 377621.600000
149.023400 1479192.000000
151.075400 383674.100000
152.046900 5474.400000
153.054700 18345.800000
155.033900 5548.700000
161.060100 4180.900000
162.031200 242497.400000
163.039000 1167522.400000
163.075400 162877.400000
164.046700 1654266.900000
165.054900 4700.600000
173.023200 5363.000000
174.031100 4800.900000
175.038900 27152.600000
177.018400 6086.600000
177.054600 9449.500000
179.070200 24843.600000
191.033900 283209.300000
192.041700 887889.600000
207.065200 185084.300000

>ms2peaks
51.023000 8001.300000
52.030800 3851.600000
53.002200 15741.500000
53.038600 231446.500000
55.017900 106558.300000
57.033600 3031.500000
63.022900 16419.000000
65.038600 524479.500000
66.046400 87016.000000
67.017800 9064.700000
67.054200 41217.400000
68.025600 13527.200000
68.997100 96282.000000
69.033400 7850.000000
71.012800 4358.500000
77.038600 124993.800000
78.046400 783072.600000
79.054200 441847.600000
80.062100 44455.400000
81.033500 68092.800000
81.069900 5956.300000
82.005000 13220.700000
82.041400 27562.600000
83.012800 3700.100000
85.028400 15025.100000
89.038600 208898.100000
90.046500 248554.200000
91.054300 1926666.900000
92.025700 38680.300000
92.062000 22100.300000
93.033600 129901.000000
93.070000 31302.700000
94.041400 53317.800000
95.049200 538975.300000
96.057200 2846.400000
97.028400 4911.600000
102.046500 21233.300000
103.054300 186973.800000
105.033600 166792.800000
105.069800 19243.900000
106.041400 291872.700000
107.049200 387594.600000
108.020800 20525.900000
108.057000 128565.800000
109.028600 17413.700000
109.064800 23030.500000
110.036300 26480.700000
111.044200 12231.400000
115.054200 4774.200000
117.033500 34772.900000
118.041400 230025.000000
119.049200 173040.300000
120.057000 66730.000000
121.028500 526066.400000
121.064800 703262.000000
122.036200 11721.500000
123.044200 16701.600000
123.080400 22681.500000
124.052000 3472.400000
125.059700 10214.700000
129.033900 3119.800000
131.012800 32351.200000
131.049500 12111.900000
132.020800 12318.600000
132.057000 10288.400000
133.028400 185052.300000
133.064800 44628.800000
134.036300 212101.800000
135.044100 509915.100000
136.052000 65437.200000
137.023300 13810.100000
138.031100 13738.100000
139.075500 31293.500000
145.028500 42368.200000
146.036300 270473.800000
147.044100 99736.200000
148.051900 106754.300000
149.023400 2128848.000000
151.075400 67858.800000
153.054600 5727.100000
155.033900 3771.400000
162.031200 155409.500000
163.039000 705916.700000
164.046800 701317.400000
165.054700 5305.100000
173.023200 9019.900000
174.031200 3953.700000
175.039200 13808.500000
177.018100 7200.100000
177.054400 5589.600000
191.033900 173249.700000
192.041800 167259.900000
207.065200 10775.800000

