>compound LU00647700
>parentmass 254.1434
>ionization [M+H]+
>formula C11H19N5S
>rt 1020.260000
>profile orbitrap
#smiles_iso CC(C)(C)NC1=NC(=NC(=N1)NC2CC2)SC
#smiles_can CC(C)(C)NC1=NC(=NC(=N1)NC2CC2)SC
#inchikey HDHLIWCXDDZUFH-UHFFFAOYSA-N
#pubchem_id 91590
#mb_accession LU005501,LU005502,LU005503,LU005504,LU005505,LU005506

>ms2peaks
198.080900 10102923.000000
239.120000 66641.500000
254.143300 45540180.000000

>ms2peaks
57.069800 81493.900000
83.060200 165458.600000
91.032400 302934.100000
108.055400 67733.700000
116.027600 66837.300000
125.082100 171557.600000
150.077400 51602.400000
156.034000 68154.200000
156.059100 68387.800000
170.049400 41902.700000
183.057100 43197.400000
198.080700 38058768.000000
254.143200 18920426.000000

>ms2peaks
56.049500 361020.500000
57.069900 362334.500000
58.065100 251879.500000
68.024200 109296.800000
70.039900 40365.900000
74.005700 231852.600000
81.044700 53361.400000
83.060300 2848714.200000
87.026300 167147.900000
89.041900 38384.400000
91.032400 4254791.000000
108.055600 1571741.000000
110.046100 57432.300000
114.012100 98701.400000
114.037200 373606.500000
116.027700 826874.800000
125.082200 1664800.200000
131.063700 101182.900000
143.038600 55116.100000
150.077400 792377.000000
152.093300 102525.500000
156.033800 629125.500000
156.058900 1037552.000000
158.049300 101828.400000
170.049500 354955.900000
171.069800 339234.900000
183.057600 56827.100000
198.080700 37124156.000000
254.143300 1127813.000000

>ms2peaks
54.033800 30958.000000
55.029100 64997.400000
56.049500 2066086.900000
57.044700 33071.100000
57.069900 586870.600000
58.065100 754219.700000
61.010500 42852.500000
66.033800 16887.100000
67.041500 22346.700000
68.024300 925946.900000
70.039900 207630.800000
74.005800 1605988.900000
81.044700 478565.900000
83.060300 8932602.000000
85.050800 97575.400000
87.026300 714935.700000
89.042000 123288.100000
91.032400 9027966.000000
97.050700 27414.700000
98.071300 96396.100000
99.000900 33643.100000
103.032400 21809.500000
108.055500 5407309.500000
110.045900 64694.800000
112.086900 13974.900000
114.012000 220583.500000
114.037200 813243.800000
116.027600 2069154.500000
123.066400 95283.300000
125.082100 2339459.500000
127.007100 62649.400000
131.063600 103963.500000
141.022700 35558.900000
142.043100 27562.000000
143.038500 87704.100000
150.077400 1403093.900000
151.084900 27845.200000
152.093100 140578.300000
156.033800 584802.000000
156.058900 2246814.800000
157.041400 17751.900000
158.049400 165106.300000
168.033400 70383.900000
170.049400 569057.100000
171.069800 310691.200000
181.053900 31628.700000
182.049000 42279.900000
183.057300 57253.900000
198.080700 12505802.000000
254.143600 22814.900000

>ms2peaks
54.033900 67445.000000
55.029100 281860.800000
56.049500 4686115.500000
57.069900 638440.700000
58.065100 929227.500000
58.995000 36069.100000
61.010600 30687.900000
66.033800 51557.500000
67.028900 17492.000000
67.041500 29729.000000
68.024300 3224276.000000
70.039900 265500.000000
71.990100 22468.000000
74.005800 3926751.800000
76.008800 23962.800000
81.044700 1115899.500000
82.039800 18607.400000
83.060300 9340611.000000
84.985600 16081.200000
85.010500 33874.600000
85.050900 224270.500000
87.026300 808594.000000
89.042000 85592.100000
91.032400 6386873.000000
97.050800 21311.700000
98.071300 74542.100000
99.001200 64301.000000
103.032500 30907.200000
108.055600 5907254.000000
109.050800 19832.700000
110.046100 76891.700000
111.054000 11468.000000
114.012000 115237.000000
114.037200 585265.500000
116.027700 1717269.200000
123.066500 75207.700000
125.082200 1041019.500000
126.011900 15561.800000
127.007300 74214.800000
131.063800 13546.100000
141.022800 28182.400000
142.043000 12731.900000
143.038400 23829.900000
150.077400 648251.700000
152.093200 52414.200000
156.033900 155198.900000
156.058900 1119281.400000
158.049300 98732.400000
168.033700 129728.900000
170.049500 274833.900000
171.069800 95583.200000
181.054500 16784.700000
182.049100 42656.600000
183.057400 28984.900000
198.080800 1546663.800000

>ms2peaks
54.033900 118312.700000
55.029100 546310.800000
56.049500 5710929.000000
57.044800 29546.800000
57.069900 488131.700000
58.065100 760115.300000
58.995000 26467.600000
61.010600 62376.400000
66.033800 103712.300000
67.029100 14429.500000
67.041600 40706.400000
68.024300 5941138.000000
70.039900 204773.900000
71.990200 15734.100000
74.005800 5634705.500000
76.008800 34772.400000
81.044700 1271719.000000
82.039900 9006.000000
83.060300 5231247.500000
84.985500 38824.500000
85.010500 38544.600000
85.050900 248158.200000
87.026300 386494.100000
89.016600 14488.900000
89.041900 38342.200000
91.032400 2820370.200000
98.071200 25476.400000
99.001200 84301.200000
103.032500 14301.000000
108.055600 3539526.800000
109.050900 73512.800000
110.046100 68598.800000
112.086800 11372.500000
114.012000 47976.100000
114.037200 278629.700000
116.027700 919690.300000
123.066400 52908.300000
125.082200 277532.400000
126.011900 35529.000000
127.007400 49860.400000
141.023000 15226.000000
150.077400 145195.900000
156.033700 32456.600000
156.059000 249337.500000
158.049500 49620.600000
168.033700 96677.800000
170.049400 74289.200000
171.070200 10713.500000
182.049500 41414.500000
198.080900 132976.100000

