>compound LU01406269
>parentmass 410.20879999999994
>ionization [M+H]+
>formula C24H23N7
>rt 1002.180000
>profile orbitrap
#smiles_iso CCCCC1=NC2=C(N1CC3=CC=C(C=C3)C4=CC=CC=C4C5=NNN=N5)N=CC=C2
#smiles_can CCCCC1=NC2=C(N1CC3=CC=C(C=C3)C4=CC=CC=C4C5=NNN=N5)N=CC=C2
#inchikey YILJWHUIUCRKEU-UHFFFAOYSA-N
#pubchem_id 9801627
#mb_accession LU123301,LU123302,LU123303,LU123304,LU123305,LU123306

>ms2peaks
176.118300 907445.600000
178.077100 27935.600000
179.085500 25201.100000
207.091700 4687352.000000
235.096700 18434.200000
353.188800 76934.200000
367.191800 168804.500000
382.202700 920203.900000
410.208800 9849141.000000

>ms2peaks
176.118300 3281145.800000
178.077700 283523.800000
179.085700 41467.800000
180.080800 170149.000000
190.064400 31481.200000
192.068300 23093.600000
192.080900 149544.100000
195.091300 25540.900000
196.076300 36412.900000
205.076600 23314.200000
206.084200 140336.200000
207.091600 16390728.000000
208.075200 17201.900000
235.097500 99659.400000
239.117800 30788.900000
367.191900 542934.900000
382.203000 40764.300000
410.208800 102093.000000

>ms2peaks
79.054200 97596.900000
80.049400 89653.600000
95.049100 17008.500000
129.044400 25308.500000
133.063400 49078.700000
140.049300 37977.800000
152.061700 35936.500000
153.069700 95928.400000
165.069500 44290.000000
166.065200 14706.300000
166.077900 25870.100000
167.072800 77033.900000
176.118200 2706863.800000
178.065200 71148.700000
178.077700 280512.300000
179.060300 14117.900000
179.072900 76010.200000
179.085300 30979.000000
180.080700 1830692.400000
182.060500 15202.100000
188.118400 12619.700000
190.065000 316265.900000
191.072900 174861.400000
192.068500 319124.000000
192.080700 844621.100000
194.060000 96209.500000
195.091600 13938.200000
196.075700 365988.000000
205.076300 314573.800000
206.084100 1598632.100000
207.091500 12239273.000000
208.075400 153425.200000
239.117100 21953.500000
367.191800 77143.200000

>ms2peaks
51.023000 4679.200000
53.038600 32423.400000
63.022900 4794.400000
67.041700 8353.900000
77.038300 19438.000000
79.054200 146918.800000
80.049400 195662.200000
95.049100 92603.900000
96.044400 10130.700000
104.049300 22803.400000
105.044700 47464.000000
115.054200 8821.900000
116.049300 7722.000000
117.057300 13484.800000
120.055600 31510.200000
122.059900 16757.300000
128.049600 5233.400000
129.044700 76510.100000
132.055200 4463.700000
133.063400 386003.800000
134.071200 23301.700000
139.054100 17670.100000
140.049400 95812.200000
141.069600 7020.100000
142.052300 5460.300000
145.064900 9573.000000
146.071100 29594.400000
147.055200 11454.300000
147.078700 19281.100000
151.054100 19121.300000
152.062000 323803.300000
153.069800 519434.900000
154.065100 36901.200000
155.060000 18422.600000
155.073000 5171.700000
155.085800 17531.300000
161.071300 9139.300000
163.054200 74648.200000
164.049500 15229.900000
165.069800 306801.200000
166.065200 71970.600000
166.077500 73739.800000
167.072900 229728.900000
168.056900 13421.200000
168.068200 41627.800000
169.064700 169678.600000
170.060200 9608.900000
176.118200 2075636.600000
177.057200 46625.400000
177.069900 6274.700000
178.065200 282106.200000
178.077700 342279.600000
179.060400 73448.900000
179.073000 352728.200000
180.080700 3733324.800000
181.075800 48766.300000
181.088800 17265.400000
182.060000 68707.000000
183.067800 21900.900000
190.065100 1109150.100000
191.072900 659025.800000
192.068400 1012411.000000
192.080500 917964.900000
194.060000 333823.400000
195.067600 6193.900000
196.075700 529876.800000
204.068800 4455.300000
205.076100 1688353.100000
206.083900 2455033.500000
207.091500 4139142.200000
208.075500 265198.300000
209.083100 27753.300000
210.091000 7703.300000
211.062600 62800.100000
222.091500 4334.700000

>ms2peaks
51.023000 3713.300000
53.038600 75855.100000
63.022900 5978.200000
67.041600 10311.000000
75.022800 4747.600000
77.038400 37048.300000
78.033900 9082.900000
79.054200 108502.800000
80.049400 242727.700000
89.038600 6594.400000
93.044600 11539.500000
95.049100 204482.900000
96.044400 26354.500000
103.054100 9409.000000
104.049400 25605.300000
105.044700 85369.100000
111.055300 5926.700000
113.038300 4571.500000
115.054100 34283.700000
116.049500 14347.300000
117.057300 32069.300000
120.044400 7396.900000
120.055600 50065.300000
122.060100 13212.000000
127.054200 11539.200000
128.049400 19420.900000
128.062100 12258.300000
129.044700 93111.000000
129.069700 9620.800000
130.040100 20691.400000
131.060300 8154.400000
132.055700 17646.300000
133.063400 1071110.800000
134.071200 42735.600000
139.054200 57731.100000
140.049400 198505.100000
140.061800 16725.500000
141.057200 17738.900000
141.069500 7973.600000
142.052600 9766.200000
145.064900 29473.700000
146.060000 12458.900000
146.071300 55104.200000
147.055200 9082.100000
147.078900 36545.000000
150.045900 6306.400000
151.054100 40056.700000
152.062000 1119755.100000
153.069800 743549.800000
154.065000 75488.900000
154.076600 4437.300000
155.048900 12688.400000
155.060300 56473.900000
155.072300 7272.600000
155.085500 27134.200000
158.071000 4845.900000
161.070800 7469.100000
163.054100 270262.600000
164.049500 66634.100000
164.061600 30966.300000
165.057200 48641.400000
165.069900 857333.900000
166.065100 107389.700000
166.077400 57496.300000
167.072900 266982.900000
168.056900 67520.600000
168.068100 65798.300000
169.064700 504668.300000
170.060200 26774.700000
176.118200 1004907.000000
177.057300 145007.300000
177.069500 14877.300000
178.065100 381422.700000
178.077500 305067.300000
179.060400 188784.700000
179.072800 746550.700000
180.080700 2518566.200000
181.075800 60610.900000
181.088400 10857.100000
182.060000 88090.100000
183.067700 49369.900000
183.080300 13349.200000
188.049100 4522.500000
189.057600 22445.600000
190.065100 1622920.500000
191.060800 44471.200000
191.072900 613194.900000
192.068100 1067872.600000
192.080200 484752.200000
193.052200 21686.200000
194.060000 299620.400000
196.052000 11837.400000
196.075700 233649.700000
204.055200 6066.700000
205.076000 2639357.800000
206.083800 1082241.800000
207.068600 35219.600000
207.091600 616867.800000
208.075600 124052.800000
209.083200 27759.100000
210.091800 5490.700000
211.062600 94903.800000
221.046900 10701.600000

>ms2peaks
51.022900 8912.400000
53.038600 118761.100000
63.022900 10959.200000
67.041600 7763.200000
75.022900 9009.200000
77.038500 61156.300000
78.033600 22154.000000
79.054200 68549.800000
80.049400 228440.800000
89.038500 12483.200000
93.044600 34418.600000
95.049100 287076.900000
96.044300 52894.900000
103.054100 22043.900000
104.049400 21360.900000
105.044700 145455.000000
111.055300 23282.300000
113.038300 22486.200000
115.054200 109350.000000
116.049300 24594.600000
117.057200 36177.300000
120.044200 12628.300000
120.055600 49836.500000
122.060000 6994.500000
127.054200 43680.400000
128.049400 69157.600000
128.062000 28347.000000
129.044600 87064.400000
129.069800 18412.500000
130.039900 40880.300000
131.060300 8224.700000
132.055700 61227.600000
133.063400 1511378.500000
134.071100 40326.700000
139.054200 146647.300000
140.049400 349542.300000
140.062100 42648.000000
141.057200 43393.300000
141.069700 10425.600000
142.052400 12168.100000
145.064700 80694.700000
146.060500 24787.000000
146.071200 117055.100000
147.078700 22925.700000
150.046400 53219.900000
151.054100 76992.000000
152.062000 2173606.800000
153.069800 551318.500000
154.065000 104202.700000
154.076900 8472.100000
155.048900 16721.400000
155.060300 125614.300000
155.085300 14726.200000
158.071100 5234.700000
161.070800 4283.100000
163.054200 553409.600000
164.049500 239168.500000
164.061500 84932.000000
165.058300 137032.400000
165.069800 1397697.000000
166.065100 204042.000000
166.076900 27908.900000
167.072900 235338.400000
168.056900 146270.900000
168.068100 66029.300000
169.064700 893503.200000
170.059900 48864.300000
176.118200 294986.000000
177.057200 351334.000000
177.069700 45199.300000
178.065100 605735.400000
178.077500 198535.900000
179.060400 277904.700000
179.072800 902568.600000
180.080600 1193511.500000
181.075900 61848.100000
182.060000 61508.500000
183.067700 75553.400000
183.080400 14976.100000
188.049400 26555.600000
189.057100 52606.700000
190.065100 1845879.200000
191.060400 122997.200000
191.072800 331732.800000
192.068000 771190.500000
192.080200 153434.600000
193.052200 66617.200000
194.059900 125443.800000
195.068000 4622.100000
196.052000 41591.200000
196.075700 187929.700000
204.055600 15113.500000
204.068300 10158.800000
205.075900 2940930.800000
206.083700 329930.900000
207.067700 46706.200000
207.091500 65809.800000
208.075600 33433.800000
209.083100 9293.900000
211.062700 94732.000000
221.046900 29494.400000

