>compound LU01426317
>parentmass 285.1345999999999
>ionization [M+H]+
>formula C15H16N4O2
>rt 902.050000
>profile orbitrap
#smiles_iso CCN1C2=C(C(=N1)C)N=C(CNC2=O)C3=CC=C(C=C3)O
#smiles_can CCN1C2=C(C(=N1)C)N=C(CNC2=O)C3=CC=C(C=C3)O
#inchikey BEOZJBLIRPRMJM-UHFFFAOYSA-N
#pubchem_id 135418174
#mb_accession LU085401,LU085402,LU085403,LU085404,LU085405,LU085406

>ms2
111.091600 17405.700000
137.071000 53104.300000
175.050400 18521.700000
191.092800 44682.700000
242.128800 202964.500000
257.103500 9049.400000
257.139600 15139.700000
285.134600 6745198.500000

>ms2
107.049000 29747.600000
109.039800 5125.400000
111.091700 118920.500000
119.049100 9022.700000
120.044500 7904.600000
121.028400 71188.000000
122.060000 9050.200000
122.071000 10759.800000
123.091700 5470.800000
124.087000 89449.900000
126.102600 37292.800000
132.044200 15419.200000
133.052400 6360.900000
134.060100 16355.800000
136.087100 22513.500000
137.071000 349329.300000
147.055300 14361.000000
147.066400 16345.800000
148.039800 11536.300000
148.050600 4185.900000
148.086900 13058.100000
149.058400 5844.600000
150.055200 11929.500000
150.065900 11415.600000
151.061600 5292.200000
152.081900 8089.800000
160.039200 4138.600000
160.075900 10987.900000
163.061300 12574.100000
163.098300 3966.800000
164.082000 5233.400000
166.061600 4394.600000
173.070700 4627.300000
174.066200 36252.900000
175.050300 199539.500000
176.069400 19966.000000
187.086800 5080.200000
191.092800 800966.100000
198.091500 4271.300000
199.086600 98298.200000
200.094600 5040.800000
201.102200 34377.800000
202.097400 4163.000000
209.103900 5369.800000
213.089600 5659.000000
214.097300 7587.600000
215.117900 31397.500000
223.119500 13858.100000
225.102300 124612.400000
240.076500 5052.300000
240.113500 7312.600000
242.128800 891242.900000
244.108200 9424.100000
256.096400 7289.900000
257.103500 180078.100000
257.139600 177479.900000
267.124800 5922.200000
268.108500 15876.500000
285.134700 3878729.200000

>ms2
53.002100 2452.100000
56.049500 34156.500000
68.049400 12260.200000
69.044800 2510.000000
70.065100 3330.100000
79.017800 8535.500000
79.054400 4472.400000
80.049500 8195.000000
81.044800 12745.600000
82.028900 4003.200000
82.065100 4343.600000
83.060400 17918.800000
85.076000 3207.400000
91.054100 4785.200000
94.065100 4570.800000
95.049100 4503.800000
95.060400 11391.500000
96.055500 3588.300000
96.080800 6158.600000
97.076000 2785.900000
105.044800 14286.300000
106.065200 12213.200000
107.049200 371879.800000
107.060300 39441.100000
108.055500 5935.600000
109.039700 49623.600000
109.076000 11685.300000
111.091700 169210.800000
118.040100 5982.000000
119.024400 3025.200000
119.049100 34227.800000
119.060600 5197.400000
120.044500 57009.500000
120.055600 60852.900000
121.028400 130489.800000
121.076100 14834.300000
122.060200 45708.900000
122.071300 110352.100000
123.055600 2340.900000
123.079000 6131.900000
123.091600 13601.400000
124.087000 296968.100000
125.071300 2571.700000
125.094900 5183.400000
126.102600 98445.500000
131.049200 5549.600000
131.060600 9645.900000
132.044500 110959.400000
133.039900 4601.500000
133.052200 62436.100000
133.064100 4062.000000
134.035200 3117.400000
134.060100 51981.800000
136.050700 6807.300000
136.075700 5532.400000
136.087000 33257.800000
136.112000 6254.800000
137.071000 397358.400000
146.060300 6059.200000
146.071500 26186.400000
147.055700 63122.200000
147.066500 138477.400000
148.039400 88618.600000
148.050100 32944.600000
148.086900 105099.000000
149.058400 65329.000000
149.082200 49070.800000
150.055600 14793.400000
150.066200 75445.300000
151.050300 6950.800000
151.061400 46861.900000
152.045400 40900.600000
152.081900 18715.100000
156.081000 2901.600000
158.060000 9744.300000
159.067600 14489.600000
160.039300 7418.800000
160.075800 48294.400000
161.071100 8345.700000
161.082300 4379.600000
162.066300 14765.400000
163.061400 135473.100000
163.097900 16272.800000
164.082000 41929.400000
165.077100 4530.300000
166.061200 72247.000000
172.075700 31282.200000
173.071100 34363.600000
173.082400 18173.200000
174.066300 265576.800000
174.078200 13316.200000
175.050300 230577.900000
176.069300 175723.200000
179.092500 12072.400000
180.076700 19373.800000
181.072000 25034.400000
182.060400 3803.800000
183.067800 6625.900000
184.075800 14964.600000
185.071000 9103.300000
185.083600 9004.800000
186.079000 4107.200000
187.086800 25846.300000
188.082200 4788.000000
191.092800 1223259.100000
192.077200 11655.500000
195.087500 8258.300000
197.071100 22819.400000
197.107800 8599.900000
198.080200 5001.900000
198.091500 24245.000000
199.086700 195169.600000
200.082000 25947.500000
200.094400 17544.300000
201.102300 95534.800000
202.097700 21439.800000
203.081200 7589.600000
209.103200 3889.600000
210.078700 4740.300000
211.086200 4036.500000
212.081400 13106.900000
213.066300 2853.200000
213.090000 19936.800000
213.102200 7546.300000
214.097700 36466.700000
215.105700 10100.300000
215.117600 57795.000000
216.113100 25290.400000
223.119200 17721.300000
224.094800 2945.300000
225.102300 252497.000000
228.077000 3120.300000
228.113200 15385.400000
229.108300 13776.900000
230.092400 7750.600000
230.129100 2707.400000
239.092500 6717.400000
240.076500 29445.300000
240.113400 25408.300000
242.128900 387150.000000
244.108700 7024.500000
255.087900 2774.700000
256.095600 17174.100000
256.131300 2635.500000
257.103400 285722.100000
257.139500 126969.100000
267.124100 7906.500000
268.109000 11925.000000
285.134800 505016.300000

>ms2
52.018300 2310.000000
53.002100 3989.900000
53.038600 7868.700000
54.033800 9400.200000
55.029000 2431.600000
56.013100 4377.600000
56.049500 77121.400000
65.038500 5412.700000
66.033700 3407.600000
67.029000 2529.700000
67.041700 4186.700000
67.054300 3204.700000
68.013200 3077.900000
68.049400 28487.800000
69.044600 7516.000000
70.065100 6028.100000
77.038500 5020.200000
78.033700 6429.600000
79.017800 50376.400000
79.029000 15377.000000
79.054200 26547.300000
80.013000 6003.000000
80.049400 37820.200000
81.044700 47498.100000
82.028800 13281.800000
82.052500 5456.300000
82.065100 10269.500000
83.060300 48070.000000
84.044400 4296.900000
91.054200 5517.800000
92.049500 8817.600000
93.044700 7549.400000
94.065200 14512.500000
95.049200 36173.000000
95.060300 33792.200000
96.044400 6638.300000
96.055600 15710.600000
96.068100 3481.100000
97.063500 4268.800000
97.076100 3521.500000
103.054600 2613.800000
104.049400 20090.700000
105.044800 47255.100000
106.040600 2784.300000
106.052500 2497.700000
106.065100 25839.800000
107.049100 966188.200000
107.060100 62003.700000
108.055600 21039.900000
108.068300 5609.000000
109.039600 179450.700000
109.076000 30899.600000
110.060200 4487.000000
110.071400 3103.600000
111.091700 115394.900000
115.054200 9855.800000
116.049200 3933.600000
117.057100 2970.800000
118.040000 18840.500000
119.024000 16107.000000
119.049200 53782.200000
119.060200 21531.200000
120.044500 91070.500000
120.055600 179491.700000
121.028400 126058.800000
121.039500 9104.900000
121.076000 28434.700000
122.034600 14243.100000
122.060100 87704.200000
122.071200 154619.800000
123.055300 4321.600000
123.079100 10620.800000
123.091700 6567.900000
124.050600 15195.900000
124.086900 208686.400000
125.094800 6416.500000
126.102500 67397.400000
127.050100 12398.100000
129.069700 4854.800000
131.049100 10421.800000
131.060400 18561.000000
132.044400 225914.200000
133.052000 146789.400000
133.064000 9360.700000
134.034900 15761.300000
134.060000 74350.500000
136.050500 18068.200000
136.075700 6838.400000
136.086800 22439.200000
137.071000 222144.100000
138.102400 3049.100000
144.044400 13135.100000
144.055900 3680.300000
145.064500 3865.100000
146.060400 24446.900000
146.071200 56575.200000
147.055500 94265.900000
147.066400 159510.600000
148.039300 166320.500000
148.049800 33986.400000
148.086900 92783.900000
149.058400 109008.300000
149.082000 42041.500000
150.055700 17672.900000
150.066200 76917.900000
151.050900 16757.700000
151.061300 65613.900000
152.045400 276442.300000
152.082000 15670.500000
156.081000 5454.700000
157.064900 3814.000000
158.047800 3681.600000
158.059800 25943.300000
159.055700 13623.800000
159.067800 27404.300000
160.063300 7418.900000
160.075500 46443.400000
161.070900 28107.200000
161.082200 11900.500000
162.054900 6502.900000
162.066100 16964.800000
163.061400 179918.900000
163.097700 9751.000000
164.081800 45193.100000
165.077200 7553.300000
166.061000 89079.000000
169.051300 2979.100000
169.076300 3464.800000
170.060100 10568.500000
170.083900 2493.800000
171.055500 3927.900000
172.063100 5431.400000
172.075700 68010.700000
173.071100 93027.700000
173.082900 25111.200000
174.066200 223255.100000
174.078400 20359.100000
175.050300 67313.300000
176.069200 248259.700000
179.092500 5732.500000
180.076400 24322.800000
181.072100 31843.600000
182.060200 6443.000000
182.083800 13512.900000
183.067800 19430.200000
184.075800 30211.900000
185.071100 37553.800000
185.083600 26990.800000
186.065600 3087.800000
186.079000 7344.500000
186.091600 3270.900000
187.086600 39547.400000
188.081800 16297.800000
191.092700 251144.900000
192.076900 11115.600000
192.100800 4815.300000
195.088200 8477.600000
197.071000 23005.300000
197.081900 3655.500000
197.107400 25275.100000
198.078900 13903.300000
198.091400 19416.300000
199.086500 88181.200000
200.082000 40523.900000
200.094400 16055.000000
201.102100 66440.900000
202.097400 19307.700000
203.081600 3633.600000
208.075700 4893.700000
209.070800 4495.800000
210.078600 18770.200000
211.086400 5518.000000
212.081600 26722.400000
213.065500 5379.800000
213.089900 24839.100000
213.102300 7823.200000
214.097600 35183.000000
215.106300 5159.300000
215.117700 24806.300000
216.112900 10665.600000
225.102100 86916.200000
226.097100 3894.900000
227.105100 4307.700000
228.077000 2647.200000
228.112800 33363.600000
229.108600 8322.700000
230.092700 4714.800000
230.129000 3456.800000
239.092800 6318.500000
240.076700 18420.800000
240.113300 9933.800000
242.128700 57228.500000
255.088200 4538.700000
256.095000 4468.200000
257.103300 60340.400000
257.139200 16975.400000
268.108400 3122.900000
285.134500 17583.000000

>ms2
50.015200 2105.800000
52.018200 8881.000000
53.002200 15970.900000
53.038600 37545.600000
53.997500 2599.000000
54.033800 27770.400000
55.018000 6159.000000
55.029100 6574.700000
55.054100 4735.100000
56.049500 82908.600000
58.065200 2694.400000
64.018200 2523.000000
65.038500 21837.900000
66.033800 9787.500000
67.029000 14628.000000
67.041600 8344.700000
68.013100 8335.300000
68.049400 45847.300000
69.044700 14328.600000
70.065200 4231.300000
77.038400 11282.100000
77.997500 2400.100000
78.033800 20850.200000
79.017800 73538.800000
79.029000 40449.500000
79.054200 65178.600000
80.013100 11550.500000
80.049400 50273.600000
81.033500 6641.300000
81.044700 73547.900000
82.028700 17642.800000
82.052500 10343.200000
82.065100 12516.600000
83.060300 61733.900000
84.044500 3739.700000
84.068100 3816.200000
85.076000 8442.200000
89.038700 5160.500000
91.029100 3323.800000
91.054200 39887.400000
92.049400 19392.300000
93.044800 17588.200000
94.028900 3243.900000
94.040300 8759.800000
94.052500 3483.200000
94.065400 11778.000000
95.049100 105688.800000
95.060400 42451.500000
96.044200 10534.300000
96.055600 19396.100000
96.068000 3526.400000
96.080800 5739.700000
97.039400 2652.400000
97.063500 8168.100000
97.075800 2595.200000
98.071400 3563.800000
103.054300 4624.400000
104.049400 36963.700000
105.033600 5793.600000
105.044800 91161.900000
105.070000 7447.600000
106.040000 5958.800000
106.052400 8491.800000
106.065100 30406.400000
107.049100 1144295.800000
108.055600 30087.600000
108.068100 5754.100000
109.039600 267796.200000
109.076000 25833.900000
110.060000 6299.100000
110.071100 6986.000000
111.044100 14210.300000
111.091700 64370.900000
115.054200 17232.800000
116.049500 8426.900000
117.044600 3231.100000
117.057300 7172.900000
117.069900 4583.300000
118.040600 19637.000000
118.065100 6553.700000
119.024000 18910.900000
119.049200 68114.900000
119.060200 28531.200000
120.044500 115149.600000
120.055600 173816.800000
121.028400 87446.900000
121.039500 29720.300000
121.076100 16366.000000
122.034800 17299.300000
122.060100 54598.500000
122.071200 92723.400000
123.055200 6528.000000
123.079300 2718.000000
123.091900 3301.500000
124.050500 12240.200000
124.087000 62022.200000
125.094700 6018.100000
126.042200 4425.300000
126.102700 19908.100000
127.050400 8501.100000
128.049300 2424.300000
128.061700 2915.300000
129.044700 6851.700000
129.069900 8574.800000
130.040100 2812.200000
130.065000 10698.600000
131.049200 24886.100000
131.060300 15392.000000
131.072600 2214.400000
132.044400 257584.200000
133.039700 8646.600000
133.051900 168804.000000
133.063600 11885.700000
134.034800 30318.100000
134.059900 66148.100000
135.055100 2687.500000
135.066600 3501.100000
136.050500 32003.800000
136.075600 6938.100000
136.086900 9026.900000
136.112100 2233.500000
137.070900 71582.100000
139.050000 4166.900000
140.049500 3827.800000
142.065400 6274.900000
144.044400 12315.200000
144.055900 7762.300000
144.080500 6673.300000
145.064500 8231.300000
146.060200 45994.800000
146.071000 44038.500000
147.055400 63150.700000
147.066400 71735.000000
148.039200 128030.400000
148.050500 8822.200000
148.074600 10514.400000
148.086800 33516.300000
149.058400 62263.700000
149.082300 17086.600000
150.055300 10558.500000
150.066100 24199.600000
151.050100 9992.700000
151.061400 23408.500000
152.045400 425312.000000
153.069600 3707.200000
154.065400 7015.200000
155.060400 7240.900000
155.072700 3824.000000
156.068400 3769.900000
156.080800 8844.300000
157.051100 5970.700000
157.064900 4497.100000
157.075200 2859.300000
158.047700 4899.700000
158.059400 25772.300000
159.055700 13256.000000
159.067800 32333.300000
160.063400 11111.500000
160.075700 22739.200000
161.071000 27076.800000
161.082600 6323.700000
162.054800 5076.100000
162.066200 6459.400000
163.061300 57854.800000
164.081700 17248.100000
165.065900 2823.300000
165.077500 5217.600000
166.060800 44628.300000
167.072800 5516.200000
168.080900 2409.800000
169.050800 5268.200000
169.076000 6730.600000
170.060200 13751.400000
171.055200 7726.600000
172.039500 3735.200000
172.062800 8370.100000
172.075600 49713.900000
173.070900 57938.300000
173.083100 11408.100000
174.066200 61364.800000
174.078300 15534.700000
175.050000 9572.000000
175.085900 3975.600000
176.069200 127272.900000
180.077200 8468.900000
181.072500 7816.000000
182.060000 6011.400000
182.083800 14426.300000
183.068000 22416.700000
184.063700 2842.600000
184.075500 23650.900000
184.085300 3201.300000
185.070900 37629.500000
185.083600 17901.900000
186.066100 5282.400000
186.078500 10388.000000
187.086500 31896.000000
188.082000 7276.200000
191.092700 17511.700000
192.077000 3710.800000
195.055500 3294.000000
196.075300 2765.100000
196.099400 3877.500000
197.070900 18741.600000
197.107200 10161.800000
198.066900 2733.200000
198.078900 13212.200000
198.091300 5091.200000
199.075700 4022.000000
199.086400 27000.200000
200.081800 48480.100000
200.093800 6349.300000
201.102300 14420.000000
202.096700 5294.000000
209.070800 6660.200000
210.068600 3390.200000
210.078600 15075.100000
211.086600 2926.600000
212.081800 26101.400000
213.065600 2509.400000
213.089700 7765.800000
213.101000 2430.700000
214.097100 13813.200000
215.117500 5299.200000
223.086900 3845.900000
224.094100 5664.100000
225.102100 17287.600000
226.097100 3325.100000
227.092900 4548.700000
228.076700 3037.900000
228.112900 25082.800000
240.076800 5529.700000
240.113800 2928.300000
242.115600 4079.000000
242.129000 2986.700000
255.086700 3044.700000
257.103600 6425.400000

>ms2
50.015200 7083.800000
52.018200 22577.700000
53.002200 31283.200000
53.038600 84552.100000
53.997400 4671.000000
54.033900 43824.300000
55.017800 21912.900000
55.029100 8375.100000
55.054300 2372.800000
56.049500 67020.100000
58.065200 3194.700000
64.018100 5048.700000
65.038500 85177.100000
66.033800 15850.500000
67.029000 32337.400000
67.041600 12626.700000
68.013000 20276.500000
68.049500 51825.900000
69.044700 19015.800000
70.065100 3629.900000
77.038500 28189.900000
77.997500 13374.300000
78.033800 60341.200000
79.017900 73326.100000
79.029100 65414.300000
79.054200 129400.700000
80.013000 15573.300000
80.049500 57720.600000
81.033500 8596.900000
81.044700 98375.600000
82.028700 24180.900000
82.052600 15005.900000
82.065200 10810.700000
83.060400 61855.400000
84.044600 2142.000000
84.068100 4510.000000
85.076000 4785.800000
89.038600 16947.700000
91.029200 5451.000000
91.054300 80743.100000
92.049500 34065.500000
93.044800 21235.200000
94.028500 2587.700000
94.040500 9417.000000
94.052600 3492.200000
94.065100 13939.700000
95.049200 249081.600000
95.060400 34902.900000
96.044400 19326.500000
96.055600 14857.000000
96.068100 5069.800000
96.080800 6157.000000
97.039600 3369.100000
97.063400 10665.300000
103.054300 14806.400000
104.049500 64315.900000
105.033700 14969.600000
105.044800 140760.000000
105.069800 7381.900000
106.040200 9797.000000
106.052500 9947.500000
106.065200 40323.300000
107.049100 1177748.100000
108.044200 2773.000000
108.055600 38476.500000
108.067900 2947.800000
109.039700 288693.800000
110.060000 10950.600000
110.071300 6916.800000
111.044100 39870.300000
111.091700 19988.300000
115.054300 29521.700000
116.049400 22510.900000
117.045000 3575.900000
117.057400 17457.600000
117.069900 5345.700000
118.065100 15183.400000
119.024300 10983.900000
119.049200 63529.200000
119.060400 29047.400000
120.044400 141115.000000
120.055600 97929.400000
121.028400 80797.100000
121.039500 52567.500000
121.075800 10765.400000
122.034800 12571.800000
122.060100 29159.900000
122.071200 45863.500000
123.055000 3333.800000
124.050700 13077.900000
124.087000 13733.700000
126.042400 7302.300000
126.102700 5328.400000
127.050100 8251.500000
128.049500 6630.400000
128.062100 11619.400000
129.044800 8583.200000
129.069900 6120.900000
130.040100 8975.900000
130.065300 10738.600000
131.049200 42929.600000
131.060400 12991.800000
131.072700 3140.700000
132.044400 264874.700000
133.052100 153694.000000
133.064000 8751.200000
134.034900 33594.800000
134.060000 67633.900000
135.055400 3862.000000
135.066800 4472.000000
136.050600 29313.300000
136.075800 3393.800000
136.087100 4684.400000
137.070900 18001.500000
139.049800 2975.700000
140.049600 7685.600000
142.065300 9122.100000
144.044500 15004.500000
144.055700 11247.100000
144.080700 7434.900000
145.064600 5614.300000
146.060100 49545.100000
146.070900 21201.700000
147.055400 31325.500000
147.066400 29615.900000
148.039300 67282.900000
148.074800 6126.000000
148.086900 10565.800000
149.058300 27248.600000
149.082200 5384.700000
150.055200 3762.000000
150.066400 6823.900000
151.050300 5124.400000
151.061500 10243.900000
152.045500 406648.500000
154.066300 12552.200000
155.060600 12929.300000
155.072800 5277.200000
156.068500 5064.900000
156.080900 7699.800000
157.051400 10458.400000
157.064900 8092.500000
157.076100 7116.700000
158.047500 3952.600000
158.059400 26362.000000
159.055400 8760.500000
159.068000 25351.800000
160.062800 11486.100000
160.075800 10019.100000
161.071100 18735.100000
162.055200 4212.200000
163.061500 11093.600000
164.081800 3594.200000
165.065900 2307.700000
166.060600 15448.500000
167.073100 7642.500000
168.081000 4463.500000
169.051300 3962.100000
169.075900 6686.500000
170.059900 12924.800000
170.084100 3041.900000
171.055200 9320.300000
172.063100 6784.700000
172.075700 39067.500000
173.071000 36277.500000
173.079700 2836.800000
173.083500 5917.000000
174.066400 12560.200000
174.078900 9866.500000
176.069300 44362.700000
182.060600 4421.800000
182.084100 10242.400000
183.068000 21621.500000
184.063300 3965.200000
184.075600 24494.100000
184.085300 3799.000000
185.071100 29138.700000
185.083300 7791.200000
186.066400 7730.800000
186.078900 5457.800000
187.074300 3228.700000
187.086600 15850.200000
195.055100 4001.400000
196.100000 4533.800000
197.071600 12564.300000
197.081100 2694.300000
198.066600 2252.400000
198.078600 5997.200000
199.075400 2641.400000
199.086600 7781.400000
200.081900 45878.200000
201.102200 3633.900000
209.070800 7486.800000
210.067000 3435.400000
210.079000 8388.000000
211.086900 3368.800000
212.081700 13788.800000
214.096700 4127.900000
223.086700 2748.800000
225.102100 3483.800000
226.098000 4241.200000
227.093000 2877.000000
228.113200 7225.900000

