>compound LU01835868
>parentmass 219.0086
>ionization [M+H]+
>formula C8H8Cl2N2O
>rt 1006.620000
>profile orbitrap
#smiles_iso CNC(=O)NC1=CC(=C(C=C1)Cl)Cl
#smiles_can CNC(=O)NC1=CC(=C(C=C1)Cl)Cl
#inchikey IDQHRQQSSQDLTR-UHFFFAOYSA-N
#pubchem_id 19113
#mb_accession LU018701,LU018702,LU018703,LU018705

>ms2
58.028800 23982.300000
94.065200 13231.500000
127.018300 29791.900000
137.071100 9039.300000
161.987300 484416.600000
187.966900 3997.500000
219.008500 826436.300000

>ms2
58.028800 43237.300000
94.065200 23056.000000
127.018400 106852.100000
137.071000 16455.300000
159.007300 13535.800000
159.970900 3068.900000
161.987200 744466.800000
175.008000 1923.400000
187.966400 6023.400000
219.008500 376600.800000

>ms2
53.038600 1917.600000
58.028800 89983.500000
94.065200 24151.400000
95.049000 1847.100000
127.018400 691442.800000
131.953300 5519.400000
137.071000 15973.200000
145.969100 4020.200000
159.007000 9785.400000
159.971500 19590.200000
161.987300 717357.600000
175.008100 5743.000000
187.966700 7576.000000
219.008800 36284.800000

>ms2
53.038600 1776.400000
58.028800 117535.700000
94.065100 18354.700000
95.049200 4298.600000
127.018400 1269936.500000
131.953400 22561.900000
145.969200 3510.900000
159.971700 28319.900000
161.987200 64689.500000

