>compound LU01267914
>parentmass 578.3225000000001
>ionization [M+H]+
>formula C33H43N3O6
>rt 960.720000
>profile orbitrap
#smiles_iso CCCCN1C(=O)[C@H](NC(=O)C12CCN(CC2)CC3=CC=C(C=C3)OC4=CC=C(C=C4)C(=O)O)[C@@H](C5CCCCC5)O
#smiles_can CCCCN1C(=O)C(NC(=O)C12CCN(CC2)CC3=CC=C(C=C3)OC4=CC=C(C=C4)C(=O)O)C(C5CCCCC5)O
#inchikey GWNOTCOIYUNTQP-FQLXRVMXSA-N
#pubchem_id 3001322
#mb_accession LU123101,LU123102,LU123103,LU123104,LU123105,LU123106

>ms2peaks
227.070300 1602568.600000
295.201500 66302.200000
350.243900 75470.400000
466.234000 89311.600000
578.322700 6172959.500000

>ms2peaks
56.049500 20968.700000
65.039000 12559.000000
110.060200 21137.500000
155.085500 20274.100000
181.097800 14396.800000
183.113200 32558.700000
227.070300 11430203.000000
239.163300 21949.600000
268.097200 19775.500000
277.191100 77751.800000
295.201700 182721.800000
466.234100 258181.800000
578.322700 170474.500000

>ms2peaks
56.049500 12706.400000
65.038800 21186.800000
107.049000 39971.600000
110.060100 19215.600000
115.054200 36307.200000
128.061800 16339.600000
129.069800 43341.400000
131.049200 10876.200000
143.085300 13827.300000
153.069900 182904.300000
153.102100 24166.400000
154.077700 86225.100000
155.085600 673598.700000
165.069800 15443.400000
168.057200 22156.700000
171.080100 20528.900000
181.064800 61286.400000
181.097200 51298.500000
182.072600 83972.200000
183.080600 51966.800000
183.113100 30706.000000
195.113200 22651.300000
199.075500 64646.200000
209.059800 65025.400000
227.070200 9664618.000000
249.196500 16246.300000
277.191700 24034.000000

>ms2peaks
53.038600 10950.000000
55.017800 25339.200000
56.049500 15361.100000
57.069800 5431.000000
65.038500 374032.800000
77.038500 6384.500000
79.054000 6426.200000
91.054200 22581.500000
93.033500 20714.300000
95.012700 22057.500000
95.049200 32279.000000
97.039700 5776.100000
99.055200 6574.800000
103.054100 10512.900000
105.044800 12562.700000
107.049100 488868.100000
110.060100 11018.200000
111.043800 18872.700000
115.054200 294613.900000
117.069900 5492.500000
121.028300 64724.500000
121.039400 15723.300000
123.007700 9104.800000
127.050000 9706.500000
127.054500 7102.700000
128.062000 199586.000000
129.069800 367678.800000
131.049100 102380.900000
133.064700 20285.600000
139.038900 23394.400000
139.049600 7642.100000
141.069800 65849.900000
142.077400 5244.000000
143.085500 102077.900000
145.064600 38684.700000
149.034500 55109.800000
152.062000 65655.600000
153.069800 1022845.400000
154.077600 534450.800000
155.085400 2323348.500000
157.064700 23686.500000
159.044200 8410.100000
165.069800 79649.400000
168.056900 137134.600000
169.064900 9409.000000
171.080300 95322.400000
179.060100 7656.300000
181.064700 472509.200000
182.072600 445320.300000
183.080400 127551.900000
183.112800 6751.900000
185.060100 19025.600000
195.112700 8500.600000
199.039200 9355.600000
199.075300 153416.300000
209.059600 170915.800000
212.047100 9020.700000
227.070100 5187820.000000

>ms2peaks
51.022800 3228.100000
53.002300 13820.700000
53.038600 33915.900000
55.017800 38483.800000
55.054300 6292.900000
56.049500 11201.900000
57.069800 9703.400000
63.022800 4654.000000
65.038500 1551603.100000
67.054100 5457.400000
68.997000 6169.500000
71.012700 3231.100000
75.022900 28592.400000
77.038600 12454.900000
79.017800 12342.100000
79.054100 16757.600000
81.033400 5402.500000
82.065200 3483.100000
89.038500 4564.700000
90.046300 4604.300000
91.054200 34529.800000
93.033600 50820.400000
95.012700 35113.300000
95.049100 70309.300000
97.039600 11766.500000
99.055300 13303.700000
103.017600 13832.300000
103.054200 47104.100000
105.044800 33739.200000
105.069900 6110.100000
107.049100 1123864.400000
110.060000 3981.000000
111.044000 69561.400000
111.055100 3481.300000
115.054200 475922.000000
116.062100 6053.200000
117.070000 18326.900000
118.041300 3799.400000
121.028400 134673.400000
121.039500 64305.700000
123.007600 12927.900000
127.049900 3977.500000
127.054200 31373.800000
128.062000 526659.400000
129.069800 498380.800000
131.049100 194350.400000
133.064600 36727.500000
139.039000 32673.100000
139.049500 4166.700000
139.054700 6172.900000
140.062000 11685.500000
141.069800 127664.900000
142.077700 14928.000000
143.085500 99561.500000
145.064800 93946.500000
149.034600 96265.000000
152.062100 263325.500000
153.069900 1181339.500000
154.077700 624854.800000
155.060500 142918.700000
155.085400 1359579.000000
157.064600 33695.800000
159.044000 13406.200000
165.069800 85873.700000
168.056900 122990.200000
169.064800 32759.300000
170.072300 7167.400000
171.080300 72294.100000
179.060300 18525.700000
181.064800 572129.400000
182.072600 373202.000000
183.080300 48445.300000
185.059600 14085.400000
199.039200 6114.600000
199.075400 57247.100000
209.059500 79679.700000
212.047200 6418.000000
227.070200 986705.800000

>ms2peaks
51.022900 3349.900000
53.002200 33245.900000
53.038600 56611.200000
55.017900 40335.100000
55.054200 8809.700000
56.049400 9631.400000
57.069800 8749.300000
63.022800 7191.200000
65.038600 3291877.500000
67.054200 9241.200000
68.997000 11050.300000
71.012800 5240.400000
75.022900 103988.500000
77.038500 28359.100000
79.017900 14341.300000
79.054200 52830.200000
81.033400 6885.000000
89.038600 11428.000000
90.046500 6196.600000
91.054300 56322.400000
93.033500 54149.500000
95.012800 46043.400000
95.049100 162823.500000
97.039700 11141.700000
99.055300 9519.200000
103.017800 35961.300000
103.054200 100919.900000
105.044700 64572.800000
105.069800 19076.600000
107.049100 1674161.500000
111.044000 89248.900000
111.055100 5267.800000
115.054200 597619.200000
116.062200 15943.300000
117.069800 23462.300000
118.041300 7774.100000
121.028400 112983.500000
121.039600 86247.400000
123.007600 6070.900000
127.054200 69559.000000
128.062000 845244.400000
129.069900 437663.000000
131.049200 197988.300000
133.064700 26213.600000
139.038900 19610.100000
139.054200 22780.100000
140.062100 22039.300000
141.069900 153271.900000
142.077700 14708.300000
143.085500 47060.300000
145.064800 152653.000000
149.034700 64054.800000
152.062100 582769.900000
153.069900 1072096.000000
154.077700 442132.800000
155.060300 196709.600000
155.085500 487911.300000
157.065000 23418.000000
159.044000 10743.800000
165.070000 75011.500000
168.056900 85456.400000
169.064800 77053.800000
170.072500 8418.600000
171.080400 33919.600000
179.060400 27551.100000
181.064800 494722.600000
182.072700 161070.300000
183.080600 16542.800000
185.059800 7200.800000
199.075700 11026.500000
209.060000 23331.300000
212.046600 5928.100000
227.070300 131359.400000

