>compound LU01828353
>parentmass 214.11210000000003
>ionization [M+H]+
>formula C8H15N5S
>rt 858.200000
>profile orbitrap
#smiles_iso CCNC1=NC(=NC(=N1)SC)NCC
#smiles_can CCNC1=NC(=NC(=N1)SC)NCC
#inchikey MGLWZSOBALDPEK-UHFFFAOYSA-N
#pubchem_id 13905
#mb_accession LU092801,LU092802,LU092803,LU092804,LU092805,LU092806

>ms2
71.060400 56680.600000
95.049100 92729.900000
96.055300 47345.200000
105.044700 56626.800000
108.055500 49911.700000
122.058700 310369.400000
124.086900 481488.500000
144.059100 130170.100000
166.108700 84883.300000
186.081000 72017.900000
199.088100 67723.000000
214.111100 35424716.000000

>ms2
53.038600 81725.800000
71.060300 235862.800000
77.038400 43130.300000
81.044600 34609.100000
93.057300 131389.000000
95.049100 242437.100000
96.055500 217191.100000
102.037100 70310.800000
105.044800 143702.300000
107.060400 61478.700000
108.055600 122691.100000
109.063300 47513.800000
122.058700 1174245.000000
123.066400 44495.600000
124.086900 2109123.800000
144.059000 613017.800000
166.108700 467989.900000
186.080800 357733.000000
199.088000 55063.700000
214.111100 32052626.000000

>ms2
53.038600 182283.900000
54.033800 18128.900000
68.024200 529154.400000
71.060300 2086684.200000
74.005800 147218.100000
77.038500 71282.800000
79.028900 13653.800000
80.036800 341005.000000
81.044700 133676.500000
82.052500 15881.100000
91.032400 89350.800000
92.049500 46526.000000
93.057300 610598.900000
94.065100 54755.800000
95.049100 482795.000000
96.055600 2678027.500000
99.091600 12307.200000
102.037100 272322.300000
105.044700 239114.000000
107.060300 131246.100000
108.055600 238777.200000
109.063400 166686.800000
110.071100 45454.400000
113.082100 58104.400000
116.027700 583621.700000
119.059700 10687.600000
119.064500 26483.800000
121.050900 216302.800000
122.058700 3621868.000000
123.066400 103666.200000
124.086900 7278746.500000
138.077300 96102.700000
141.113400 72086.300000
144.058900 3010590.800000
158.049400 35346.600000
166.108600 1551188.600000
168.124300 20737.400000
186.080700 836220.300000
199.088500 40678.600000
212.096000 26502.800000
214.111400 10578955.000000

>ms2
68.024300 3802301.800000
71.060400 4799174.000000
74.005900 773570.100000
85.050900 27003.900000
91.032500 239027.600000
96.055600 7731191.500000
98.071400 12177.600000
99.001100 10537.600000
99.091700 15762.800000
102.037200 272613.800000
110.046100 26769.400000
113.082100 167782.100000
116.027700 2291072.800000
119.063800 33690.400000
124.087000 6327085.500000
138.077500 236476.400000
141.113600 50654.400000
144.059000 2946589.000000
158.049400 78833.200000
159.069300 7873.400000
166.108800 1014901.500000
168.124600 18632.500000
171.057300 10015.300000
186.080800 505486.400000
198.080500 8941.200000
199.088700 19735.800000
212.096200 35212.900000
214.112100 1709206.100000

>ms2
52.018200 94134.100000
53.026000 80075.400000
53.038600 136034.700000
54.033800 111789.300000
61.010700 9690.900000
65.038600 49462.200000
66.046300 38423.300000
68.024300 9148273.000000
69.044800 32752.200000
70.039900 20930.900000
71.060300 4952059.500000
74.005800 1598173.200000
77.038500 110051.200000
79.029000 71330.700000
80.036800 2956536.500000
81.044700 229627.000000
82.052500 577345.700000
85.050800 49966.600000
91.032400 199213.200000
92.049500 146082.500000
93.057300 1432298.000000
94.040700 12924.900000
94.065100 60512.100000
95.049100 462706.900000
96.055600 6981352.000000
97.039600 17694.000000
99.001100 22921.400000
99.091500 10433.000000
102.037100 112699.600000
105.044700 190195.800000
106.039900 17861.800000
107.060400 73510.300000
108.055600 221732.000000
109.063400 537984.200000
110.046000 42853.200000
110.071100 51303.000000
113.082100 134710.200000
116.027700 2549887.500000
119.060100 10998.400000
121.050900 768380.400000
122.058600 1468851.900000
123.066400 65040.300000
124.086900 2048590.100000
138.077300 159809.200000
141.113400 21675.200000
144.058900 1016300.900000
158.049800 43344.800000
166.108600 210687.700000
186.080800 112569.500000
214.112000 132426.600000

>ms2
68.024300 12367435.000000
70.039900 24572.400000
71.060300 3123570.800000
74.005800 2030974.900000
85.050700 47782.800000
91.032500 96667.200000
96.055600 3275320.200000
99.001100 27674.500000
102.037100 27261.700000
110.045900 27391.500000
113.082100 47171.800000
116.027700 1335955.900000
124.086900 347126.900000
138.077300 43689.500000
144.059000 193442.500000
158.049700 14241.300000
166.108800 29637.100000
186.081200 14495.200000

