>compound LU02604417
>parentmass 322.1438
>ionization [M+H]+
>formula C20H19NO3
>rt 1181.460000
>profile orbitrap
#smiles_iso CC(COC1=CC=C(C=C1)OC2=CC=CC=C2)OC3=CC=CC=N3
#smiles_can CC(COC1=CC=C(C=C1)OC2=CC=CC=C2)OC3=CC=CC=N3
#inchikey NHDHVHZZCFYRSB-UHFFFAOYSA-N
#pubchem_id 91753
#mb_accession LU023501,LU023502,LU023503,LU023504,LU023505,LU023506

>ms2
78.033800 9928.100000
96.044300 8993566.000000
105.069900 11265.800000
133.064700 29099.000000
134.072600 86513.000000
136.075700 226756.700000
185.059700 143599.400000
199.075200 30913.600000
209.096200 14179.100000
227.106600 1925289.800000
322.143700 4599962.000000

>ms2
77.038800 18826.800000
78.033700 28614.000000
95.049400 15030.500000
96.044300 11040791.000000
105.069900 148657.900000
107.049100 36164.200000
119.049100 148569.900000
129.069800 44076.800000
133.064800 351711.400000
134.072600 1316495.100000
136.075700 326292.900000
157.064700 24513.900000
170.072700 36377.300000
171.080500 34306.700000
171.116800 11088.700000
181.064700 44925.300000
181.101100 33994.800000
185.059700 1944218.800000
186.067300 32952.200000
187.075200 13304.900000
191.085400 13896.000000
194.072600 23718.700000
198.067600 22375.600000
199.075300 246844.900000
199.111600 69260.100000
209.096000 102307.600000
212.083000 30272.100000
227.106600 1377158.100000
322.143900 39538.200000

>ms2
53.038600 35950.600000
55.017800 16562.400000
77.038800 37895.300000
78.033700 100777.800000
79.054200 16583.500000
91.054200 66654.700000
93.069600 12422.200000
95.049200 112487.400000
96.044400 11692786.000000
103.054100 19229.700000
105.069900 353237.200000
106.077600 12436.100000
107.049100 62093.800000
110.059900 25486.400000
115.054400 44285.400000
116.062100 18034.800000
117.069900 13824.200000
119.049200 1082061.500000
121.064800 15505.400000
128.062100 42603.000000
129.069800 931062.200000
133.064800 292022.300000
134.072600 1583216.200000
136.075700 202442.600000
141.069800 159588.600000
143.085500 30012.600000
153.069800 38063.800000
157.064800 224225.400000
165.069900 13616.800000
166.077500 32709.400000
169.064800 23718.600000
170.072700 95204.100000
171.080500 79078.100000
171.116700 13572.800000
181.064800 52885.000000
181.101000 26886.300000
184.052200 13289.300000
184.088300 12268.500000
185.059700 2920501.500000
186.067500 47366.000000
187.075300 21026.300000
191.085100 27054.200000
194.072600 55089.300000
197.059700 14713.000000
198.067300 26526.600000
199.075400 214515.700000
199.111800 21829.300000
209.096400 42115.900000
212.083200 19922.300000
227.106400 86759.700000

>ms2
53.038600 178344.000000
55.017800 24598.700000
65.038500 20069.500000
77.038300 65957.800000
78.033700 200535.500000
79.054200 50408.900000
81.033400 26088.200000
91.054200 321410.000000
94.041200 40955.100000
95.049200 545830.900000
96.044300 10748501.000000
103.053900 31361.300000
105.069900 368501.800000
106.041400 12693.200000
106.077300 23507.300000
107.049200 58570.600000
110.059900 63696.900000
115.054200 224723.400000
116.062000 39499.900000
117.070000 30956.500000
119.049100 1626753.400000
128.062000 271788.400000
129.069800 2019763.100000
131.049000 16753.200000
133.064700 261622.000000
134.072500 576503.300000
136.075700 64323.200000
141.069800 446961.800000
142.077600 29776.000000
143.085500 34566.300000
145.064800 34557.900000
152.061900 16191.200000
153.069800 63225.400000
157.064700 333348.400000
158.072300 14610.700000
165.069900 31916.200000
166.077400 36688.100000
168.057000 13673.300000
169.064700 47969.300000
170.072500 73826.200000
171.080100 38417.300000
181.064500 52574.800000
184.051700 17069.700000
185.059600 1072520.900000
186.067500 41533.300000
194.072700 49428.600000
197.059600 26535.200000
198.067600 13710.600000
199.075300 60303.600000

>ms2
50.015100 14440.500000
51.023000 13429.000000
53.038600 390658.900000
55.017900 55797.900000
65.038500 44904.300000
77.038500 193944.000000
78.033800 505829.000000
79.054200 102245.100000
81.033400 41911.600000
91.054300 1019148.200000
93.069800 11368.500000
94.041300 76531.100000
95.049200 1183642.800000
96.044400 10808525.000000
103.054200 81202.800000
105.069900 303877.100000
106.077700 16765.500000
107.049200 50552.900000
110.060000 104449.800000
111.044200 15076.100000
115.054300 806279.700000
116.062100 36088.400000
117.070000 41779.300000
119.049200 1520218.900000
127.054200 19982.900000
128.062100 837385.800000
129.069900 1627767.600000
131.049200 23453.500000
133.064800 236589.200000
134.072700 131110.400000
136.075700 19069.000000
141.069900 523687.700000
142.077600 40041.500000
143.085400 21904.600000
145.064800 95352.200000
152.062100 44767.400000
153.069900 52620.400000
157.064900 182205.900000
165.069800 66818.500000
166.077700 21357.100000
168.056700 35942.500000
169.064900 47751.400000
170.072500 29555.600000
171.080300 14199.000000
181.064800 35153.300000
184.051900 19472.200000
185.059800 186202.600000
186.067500 25996.700000
189.069300 13757.200000
194.072800 21409.900000
197.059600 22103.100000

>ms2
50.015200 15886.600000
51.023000 14215.700000
53.038600 443352.800000
55.017800 51874.500000
63.022900 15428.800000
65.038600 82046.700000
77.038500 290785.400000
78.033800 1015074.500000
79.054200 118749.800000
81.033400 51407.500000
91.054200 1728244.800000
94.041400 106149.800000
95.049200 1396702.900000
96.044300 9737417.000000
103.054200 128029.600000
105.069900 248279.800000
107.049100 62514.600000
109.064800 15601.900000
110.060000 154174.700000
115.054200 1443914.600000
116.062200 29044.600000
117.069900 45243.000000
119.049200 861027.300000
127.054200 53537.800000
128.062000 1216678.400000
129.069800 757993.200000
131.049000 32874.600000
133.064800 184617.000000
134.072700 28017.800000
139.054100 21792.600000
140.062100 10465.400000
141.069800 342031.700000
142.077700 24577.800000
145.064800 127021.400000
152.062200 81027.200000
153.069800 27287.000000
157.064900 73079.000000
165.069900 92305.300000
166.077500 11837.200000
168.057100 47225.300000
169.064900 32334.300000
170.072400 12985.100000
181.064500 35684.000000
184.052000 14065.200000
185.059500 20498.200000
194.072000 11929.100000
197.059400 18868.800000

