>compound LU02020774
>parentmass 345.0767
>ionization [M+H]+
>formula C15H18Cl2N2O3
>rt 1179.840000
>profile orbitrap
#smiles_iso CC(C)OC1=C(C=C(C(=C1)N2C(=O)OC(=N2)C(C)(C)C)Cl)Cl
#smiles_can CC(C)OC1=C(C=C(C(=C1)N2C(=O)OC(=N2)C(C)(C)C)Cl)Cl
#inchikey CHNUNORXWHYHNE-UHFFFAOYSA-N
#pubchem_id 29732
#mb_accession LU055601,LU055602,LU055603,LU055604,LU055606

>ms2peaks
57.069800 8127.000000
219.956300 38981.800000
303.029900 389249.100000
345.076900 282143.100000

>ms2peaks
57.069900 43407.700000
175.966700 5714.900000
176.950500 79054.900000
182.995900 6525.800000
184.987600 65507.700000
201.945900 7056.500000
202.954300 2764.500000
218.972700 6659.100000
219.956400 414897.500000
303.030100 142996.000000
345.076700 19653.100000

>ms2peaks
57.069900 35532.200000
140.973700 2809.100000
147.971500 6437.400000
148.955500 18113.900000
155.984500 7895.200000
173.951000 9711.900000
175.966500 11165.100000
176.950500 234145.200000
182.995700 3130.800000
183.979700 49172.500000
184.987500 197501.900000
201.945800 19749.100000
202.953600 4821.600000
218.972300 5135.900000
219.956300 121237.600000
303.030400 3063.800000

>ms2peaks
53.002200 1952.200000
57.069900 29912.900000
84.983700 2943.600000
112.978900 13560.700000
120.960500 3030.400000
122.023600 4298.800000
128.997700 16628.200000
129.981800 4176.600000
140.973900 24898.200000
147.971600 8383.900000
148.955700 63239.000000
155.984800 15343.300000
173.950900 23543.200000
176.950700 190880.800000
183.979800 27111.900000
184.987600 211212.800000
201.945900 7975.000000
202.953700 4883.000000
219.957200 9361.500000

>ms2peaks
53.002200 5769.300000
57.069900 5764.000000
84.984100 12556.500000
112.978900 25052.400000
120.960700 5808.000000
122.023500 4369.900000
128.997800 24331.700000
129.981700 7428.100000
140.974000 10913.800000
148.955700 24988.600000
155.984600 2028.600000
173.950800 3426.700000
176.950500 6731.500000
184.987700 10615.700000

