>compound LU02119893
>parentmass 358.1449
>ionization [M+H]+
>formula C20H20FNO4
>rt 941.640000
>profile orbitrap
#smiles_iso CCCCOC(=O)[C@@H](C)OC1=CC=C(C=C1)OC2=C(C=C(C=C2)C#N)F
#smiles_can CCCCOC(=O)C(C)OC1=CC=C(C=C1)OC2=C(C=C(C=C2)C#N)F
#inchikey TYIYMOAHACZAMQ-CQSZACIVSA-N
#pubchem_id 180089
#mb_accession LU074701,LU074702,LU074703,LU074704,LU074705,LU074706

>ms2peaks
59.049200 101886.700000
74.096400 2849.900000
119.049200 6548.800000
123.023900 34465.900000
140.050700 197804.300000
159.080400 11876.800000
161.059800 914713.800000
177.091000 2697481.000000
189.090700 14260.800000
191.106000 3024.200000
201.091100 137475.800000
219.101600 2282866.800000
286.087500 88789.500000
340.134700 79812.600000
358.145200 2431608.800000

>ms2peaks
59.049100 498067.300000
97.044900 5115.100000
107.049200 13102.900000
119.049200 28459.100000
123.024000 221266.300000
133.064600 20933.900000
135.080500 24992.800000
140.050600 362198.700000
147.080400 6581.500000
149.059600 59628.900000
149.096200 8110.600000
159.080400 83656.600000
161.059700 1157671.200000
175.075400 7824.800000
177.090900 4786814.500000
189.090600 20679.300000
191.106300 15337.700000
201.091000 194574.300000
219.101500 1293215.200000
286.086900 9667.600000
358.144900 11773.300000

>ms2peaks
59.049100 670153.400000
74.096400 2837.600000
91.054300 6037.000000
97.044800 12077.600000
107.049100 96937.900000
119.049100 22883.900000
121.028300 3758.500000
121.064900 5454.000000
123.024000 360285.300000
131.085500 18517.200000
133.064700 29870.500000
135.044100 6483.400000
135.080400 82711.300000
140.050600 257447.500000
147.080400 13979.500000
149.059700 174985.900000
149.096200 13997.200000
159.080500 119879.900000
161.059700 313711.900000
163.038900 17167.200000
163.075400 9062.600000
165.054600 53139.700000
169.075200 2801.200000
173.059400 5478.400000
173.096000 3315.300000
175.075300 7788.600000
177.091000 2543904.200000
181.049600 9003.200000
189.091000 3013.200000
191.106300 13086.900000
201.091100 106002.900000
219.101500 205026.500000

>ms2peaks
55.054300 3268.900000
59.049200 707628.100000
71.029200 2152.900000
74.096600 2477.200000
79.054200 4896.200000
91.054300 22978.900000
93.070000 8078.100000
95.029200 1974.000000
95.049200 6520.900000
97.044900 19057.000000
105.069900 7374.300000
107.049200 162594.300000
113.039600 14576.800000
115.054300 2111.300000
119.049300 15416.400000
119.085600 4226.800000
121.028600 8959.400000
121.064800 31310.800000
123.024100 460844.300000
129.069900 3272.500000
131.049200 4515.200000
131.085600 29316.000000
133.064800 20419.100000
134.035900 2497.500000
135.044300 6233.700000
135.080500 53758.800000
140.050700 114905.000000
141.070000 5476.100000
144.057100 10912.800000
147.080400 7318.300000
149.059800 208128.500000
158.072500 3189.500000
159.080500 74184.500000
161.059800 42876.600000
163.039000 15124.100000
163.075500 4299.600000
165.054700 70480.300000
169.076400 3342.200000
173.060000 18695.200000
175.075700 3671.300000
177.091100 451167.600000
181.049700 7590.200000
201.091100 64428.200000
219.101500 17647.200000

>ms2peaks
51.023000 6844.400000
53.002200 3433.500000
53.038600 3447.000000
55.054300 7122.000000
59.049100 664065.300000
71.029000 9507.600000
74.096300 1938.500000
75.022900 8746.200000
79.054300 16061.900000
91.054200 55806.900000
93.070000 23073.900000
95.028900 4226.200000
95.049100 23358.400000
97.044800 22909.000000
99.024200 2284.400000
105.044700 5676.000000
105.069900 11930.100000
107.049100 147849.200000
111.044000 2697.800000
113.039700 40786.900000
115.054100 7050.600000
116.062300 4341.800000
119.049200 6083.800000
121.028400 7300.800000
121.064800 55411.400000
122.040100 2755.400000
123.024100 407631.100000
129.069700 4718.500000
131.049200 6482.300000
131.085500 15584.400000
133.064800 7451.300000
134.036500 3113.600000
135.043800 3278.400000
135.080500 13202.300000
140.050700 30352.800000
141.070000 6914.000000
144.057000 17850.700000
147.080300 2687.200000
149.059800 123430.100000
158.036400 4126.900000
158.072600 6002.200000
159.080400 38369.500000
161.059700 2503.400000
163.039000 10630.300000
165.054700 31599.900000
169.075800 4312.000000
173.060000 13313.300000
177.091000 39616.300000
181.049300 3203.500000
190.062400 15538.400000
201.091000 24471.200000

>ms2peaks
51.023000 10342.000000
53.002300 6213.700000
53.038700 14061.400000
55.054200 5913.700000
59.049200 535350.700000
71.029100 14745.900000
74.096400 2595.500000
75.022900 27648.300000
79.054300 26038.700000
91.054300 100243.400000
93.070000 28424.500000
95.029300 10682.300000
95.049200 62133.500000
97.044800 16532.200000
99.024200 2773.200000
105.044700 17694.600000
105.070000 8396.000000
107.049200 114906.000000
111.044100 4747.200000
113.039800 91569.600000
115.054300 14853.000000
116.062000 9611.700000
119.049200 4359.500000
119.085200 2219.500000
121.028500 4377.900000
121.064900 46468.900000
122.040200 2122.700000
123.024200 255430.600000
129.069700 5159.700000
131.049100 5609.600000
131.085500 6551.100000
133.064700 3243.000000
134.036200 7707.000000
135.080300 2321.800000
140.050700 6537.100000
141.070000 6014.300000
144.056900 18467.600000
149.059800 45648.800000
158.036400 4427.800000
158.072500 9253.500000
159.080500 17921.700000
161.059800 2591.400000
165.054600 6122.700000
169.076100 2712.900000
173.060100 4639.200000
177.090900 2297.500000
190.062600 20748.300000
201.091000 7800.500000

