>compound LU02795483
>parentmass 420.2646
>ionization [M+H]+
>formula C26H33N3O2
>rt 679.620000
>profile orbitrap
#smiles_iso CC[C@H]1CC[C@@H]([C@@H](N1)C2=CC=CC=C2)NCC3=CC4=C(C=C3OC)[C@H]5C[C@H]5C(=O)N4C
#smiles_can CCC1CCC(C(N1)C2=CC=CC=C2)NCC3=CC4=C(C=C3OC)C5CC5C(=O)N4C
#inchikey KDGDTPNBDMVKHC-XIAWMOHYSA-N
#pubchem_id 9888347
#mb_accession LU050601,LU050602,LU050603,LU050604,LU050605,LU050606

>ms2
188.143200 2205731.800000
203.154100 105889.500000
216.101700 6145767.500000
403.237900 54522.700000
420.264300 12871887.000000

>ms2
58.065100 22934.800000
91.053800 37295.500000
132.080600 20775.900000
146.096400 41447.700000
158.096200 52215.900000
160.112000 598705.500000
173.083600 69081.000000
174.091200 263299.700000
186.091300 386593.000000
186.127800 76147.200000
188.107200 643939.900000
188.143200 5417990.000000
201.078400 40833.400000
203.154100 92231.600000
204.101800 124737.800000
214.086300 26449.500000
216.101600 19629088.000000
403.238100 31779.300000
420.264400 198756.100000

>ms2
55.054100 63172.600000
56.049400 44975.500000
58.065100 77815.400000
67.054200 10894.400000
68.049400 11051.100000
69.069800 53595.400000
72.080700 10460.200000
82.065100 25724.400000
84.080800 34458.900000
91.054100 336544.900000
93.069800 13874.200000
96.044000 37005.900000
96.080600 38144.000000
97.088500 74199.900000
103.054300 8989.900000
105.069800 25349.700000
106.065100 28284.300000
115.053700 29951.300000
117.069700 75983.700000
118.065100 28835.500000
119.072800 40085.400000
119.085500 13564.900000
120.080600 113279.200000
128.062000 15729.700000
129.069700 142788.300000
130.065100 45985.800000
131.072900 42900.600000
131.085400 65629.200000
132.080700 211243.800000
134.096300 171958.400000
141.069800 16486.400000
143.072800 63626.500000
143.085400 51774.300000
144.080600 176505.500000
145.064500 42205.000000
145.088500 346620.300000
145.100800 47631.300000
146.096300 475167.200000
147.080200 24862.300000
156.080300 10113.200000
157.064600 17528.600000
157.088400 27211.900000
158.096300 1187150.500000
159.080300 21132.100000
159.104100 10624.700000
160.075700 155616.800000
160.111900 2903360.800000
162.091200 59701.700000
167.072900 62234.300000
168.080700 117234.200000
170.058900 11882.900000
170.096200 30591.300000
171.067800 46102.200000
171.116300 11791.500000
172.075900 15924.100000
172.086600 16774.200000
173.083400 594096.000000
174.091200 1416909.100000
176.070300 19625.800000
186.091200 4495918.500000
187.099000 48685.300000
188.107000 2070804.200000
188.143100 3737505.800000
201.078400 111708.000000
204.101700 536634.800000
214.086000 141062.700000
214.097300 53662.900000
216.101700 7952084.000000

>ms2
53.002200 9856.800000
53.038700 12810.400000
55.054200 202850.800000
56.049500 76313.100000
58.028800 9229.900000
58.065100 80195.300000
65.038500 14381.800000
67.054200 17056.000000
68.049500 22848.600000
69.033500 9318.500000
69.069800 132351.300000
70.064900 11242.100000
77.038600 8759.100000
79.054100 22628.200000
80.049400 10062.300000
82.065100 131419.000000
84.080700 51623.200000
91.054200 997622.200000
92.062100 27858.700000
93.057200 13621.000000
93.070000 21525.300000
96.044400 48009.500000
96.080800 71842.000000
97.088600 148482.600000
103.054100 44468.300000
104.049400 21370.300000
105.069800 59166.800000
106.065100 38826.800000
110.096400 12314.600000
115.054100 177063.700000
116.049600 11163.200000
116.062000 22480.400000
117.057300 67747.200000
117.069800 335092.800000
118.065100 70454.900000
119.072900 150166.100000
119.085500 40847.600000
120.080700 200638.700000
127.054300 6769.200000
128.062000 116329.900000
129.069800 370030.900000
130.065200 177087.200000
130.077900 15288.700000
131.049200 17246.600000
131.073000 216724.800000
131.085500 140571.300000
132.080800 406102.100000
134.096400 306913.600000
140.049500 20705.400000
141.069800 148307.400000
142.064900 37795.400000
143.073000 606580.800000
143.085400 100409.100000
144.080800 1063724.000000
145.064800 174679.700000
145.088600 1074497.000000
145.101300 56962.300000
146.060000 38853.200000
146.096400 750351.400000
147.080200 41036.000000
148.075900 17912.500000
153.057300 92420.700000
154.065300 9819.600000
155.060400 20615.800000
155.073000 17435.000000
156.080800 58262.600000
157.064800 59000.600000
157.088700 299592.300000
158.096400 4179683.500000
159.067800 18367.900000
159.080600 22331.100000
159.104000 27810.900000
160.075700 209930.800000
160.112000 2143518.200000
162.091300 119400.800000
166.065100 13432.300000
167.072900 348093.700000
168.080700 335734.000000
169.064500 30323.200000
170.059900 84817.900000
170.096600 31493.900000
171.067800 220796.200000
171.116800 12712.700000
172.075800 64162.000000
172.086900 75955.700000
173.083500 966197.100000
174.091300 1225566.000000
176.070800 7821.800000
176.106800 10918.600000
183.068300 6874.900000
184.075400 33482.400000
185.083400 34052.300000
186.091300 5670039.500000
187.099100 53215.500000
188.107000 881293.000000
188.143200 1236169.200000
200.070300 9195.000000
201.078400 84526.900000
204.101900 157275.000000
214.086400 122559.900000
214.097600 22531.600000
216.101800 985608.800000

>ms2
51.023000 5228.800000
53.002200 14329.700000
53.038600 27294.300000
54.033800 5552.600000
55.054200 275867.000000
56.049500 58291.000000
58.028700 12330.300000
58.065200 64179.700000
65.038500 49676.000000
67.041600 5641.000000
67.054200 20931.700000
68.049400 39770.300000
69.033400 8342.800000
69.069800 100920.500000
70.065100 8663.300000
72.080600 6621.800000
77.038500 11710.300000
79.054200 37369.000000
80.049400 30389.700000
81.057300 5199.000000
82.065100 235602.200000
84.080800 30652.700000
89.038200 6916.800000
91.054200 1505490.400000
92.049400 15337.300000
92.062000 53586.900000
93.057200 29056.200000
93.069800 21887.200000
94.065100 5260.700000
95.049200 29382.700000
96.044400 21952.900000
96.080800 61256.900000
97.088600 98187.900000
102.046500 7469.300000
103.054200 150617.500000
104.049400 44415.000000
105.044700 10387.200000
105.069900 104651.200000
106.065200 45250.800000
107.049100 17431.800000
110.060000 7539.700000
110.096400 6144.000000
115.054200 680175.100000
116.049500 23305.700000
116.062100 139664.100000
117.057300 236290.100000
117.069900 636160.100000
118.065100 128160.800000
119.073000 167927.900000
119.085500 52821.200000
120.080700 163669.300000
127.054200 25243.800000
128.050200 25741.300000
128.062000 331418.600000
129.069900 440590.700000
130.065200 392777.200000
130.077400 31983.700000
131.048900 33804.300000
131.073000 482465.100000
131.085300 126189.100000
132.044500 24888.200000
132.080800 312070.900000
133.064500 8781.100000
133.101600 6150.200000
134.096400 183555.800000
140.049500 51473.100000
141.069900 263775.500000
142.065200 225167.200000
142.078000 14860.100000
143.073000 1809006.000000
144.080800 2141256.000000
145.064800 245486.500000
145.088600 1210767.900000
146.060000 50568.300000
146.096400 419080.400000
147.067700 12496.100000
147.080400 14260.000000
148.075700 12869.200000
153.057400 164444.800000
154.064900 27101.600000
155.049200 10744.900000
155.060400 82915.600000
155.072500 20536.000000
156.080900 154109.900000
157.065000 56107.200000
157.088700 964512.900000
158.096400 4868417.500000
159.068000 23955.400000
159.080000 20797.300000
159.104000 24529.900000
160.075700 132824.000000
160.112000 636873.200000
162.091400 93565.300000
166.064900 39678.900000
167.073000 511396.900000
168.080800 252203.900000
169.064700 30030.500000
169.076300 9794.200000
170.060000 190645.300000
170.096400 13257.000000
171.067800 257422.100000
172.075600 107790.600000
172.086800 53362.600000
173.083500 599030.200000
174.091400 340019.200000
184.075700 29768.900000
185.083500 58065.600000
186.091400 2223420.500000
187.099100 31358.200000
188.107000 146146.600000
188.143300 201742.700000
200.070000 9886.300000
201.078600 30937.900000
204.102100 19991.900000
214.086100 42260.200000
216.102000 61621.000000

>ms2
51.022800 5210.700000
53.002200 20044.200000
53.038500 54828.900000
54.033800 15644.900000
55.054200 301480.000000
56.049500 58890.000000
58.028700 16624.200000
58.065100 54333.900000
63.022900 13288.300000
65.038500 139237.100000
67.041600 16114.500000
67.054100 21547.200000
68.049400 47785.600000
69.069800 54674.500000
77.038400 30121.600000
79.054200 74134.100000
80.049400 52720.900000
81.057300 6972.000000
82.065100 299684.200000
84.080700 14454.600000
89.038500 18213.700000
91.054200 2400359.800000
92.049300 24306.700000
92.062000 58330.600000
93.057300 38709.600000
93.070000 26939.800000
94.065300 10451.000000
95.049100 109388.800000
95.073000 6532.900000
96.044400 8149.000000
96.080600 47261.300000
97.088600 39635.900000
102.046400 43090.200000
103.054200 374650.700000
104.049400 78223.400000
105.044600 54815.800000
105.069800 133450.500000
106.065100 45390.200000
107.049100 20610.500000
110.060100 11144.600000
115.054200 1782550.600000
116.049400 54818.500000
116.062000 435502.000000
117.057300 471141.800000
117.069800 734568.600000
118.065000 202810.400000
119.072900 165195.700000
119.085400 37398.300000
120.080700 111931.100000
127.054100 73216.500000
128.049900 63080.700000
128.062000 624292.100000
129.069800 430027.700000
130.065100 745477.200000
131.049100 55771.100000
131.072900 803510.300000
131.085100 92880.600000
132.044500 26225.100000
132.080700 222786.100000
133.064700 10134.300000
134.096300 92559.900000
140.049400 76155.600000
141.069800 239591.300000
142.065100 773615.600000
143.072900 3059640.000000
144.080700 2546473.800000
145.064700 235350.200000
145.088500 891105.800000
146.059900 59892.500000
146.096300 163073.500000
147.067900 9939.100000
147.080500 5681.700000
148.075600 13364.200000
153.057300 208200.000000
154.065000 54019.500000
155.049000 12115.300000
155.060400 135860.300000
155.072400 27112.100000
156.080800 390092.100000
157.088600 1616230.400000
158.096300 3311319.000000
159.068000 30847.200000
159.080600 14646.000000
159.104000 16899.200000
160.075500 123652.900000
160.112000 144022.800000
162.091500 29330.400000
166.065000 74061.500000
167.072900 455757.100000
168.080700 105324.400000
169.064700 22992.800000
169.076700 5510.700000
170.059900 273691.100000
171.067700 162238.000000
172.075600 128951.400000
172.086400 17757.600000
173.083500 263057.400000
174.091200 86778.100000
183.068000 8158.500000
184.075400 38128.700000
185.083300 57946.600000
186.091200 544282.200000
187.099000 8809.000000
188.106900 14309.900000
188.143200 27179.400000
200.070200 8844.900000
201.078200 8652.300000
214.086100 12624.500000

