>compound LU02095845
>parentmass 357.1267
>ionization [M+H]+
>formula C19H20N2O3S
>rt 818.520000
>profile orbitrap
#smiles_iso CCC1=CN=C(C=C1)CCOC2=CC=C(C=C2)CC3C(=O)NC(=O)S3
#smiles_can CCC1=CN=C(C=C1)CCOC2=CC=C(C=C2)CC3C(=O)NC(=O)S3
#inchikey HYAFETHFCAUJAY-UHFFFAOYSA-N
#pubchem_id 4829
#mb_accession LU028901,LU028902,LU028903,LU028904,LU028905,LU028906

>ms2peaks
357.126600 24156594.000000

>ms2peaks
119.072900 88401.500000
120.080900 62828.100000
121.088600 32880.900000
134.096400 10264805.000000
135.104100 1313277.500000
167.094000 108366.200000
240.138500 72254.700000
241.146000 171534.800000
286.125500 43614.100000
314.120800 20293.800000
357.126800 14864051.000000

>ms2peaks
79.054100 60809.100000
95.049300 28497.200000
104.049200 34057.100000
106.065100 174706.000000
108.080600 25248.700000
118.065000 34107.100000
119.073000 2082228.400000
120.080800 469186.100000
121.088600 330993.000000
124.075600 99487.100000
134.096300 24647318.000000
135.104000 4305545.000000
167.093900 150726.100000
240.138200 124328.200000
241.146000 93725.500000
286.125900 104274.200000
357.126700 1085221.500000

>ms2peaks
79.054200 305480.000000
80.049300 25528.900000
91.054000 73780.500000
92.049400 23322.300000
93.057300 57293.900000
95.049100 132757.600000
96.044300 111450.700000
104.049300 87077.300000
106.065100 670045.600000
107.072900 66478.200000
108.080700 57232.800000
110.060000 22088.100000
118.065100 202827.400000
119.072900 7990810.500000
120.080700 711791.400000
121.088600 433271.200000
122.059900 55982.500000
123.067800 40080.900000
124.075700 292878.100000
132.080700 21928.400000
134.096300 20235848.000000
135.104000 2245326.000000
139.062500 43381.400000
240.137900 39077.400000

>ms2peaks
53.038600 42454.300000
56.049400 25007.700000
65.038400 41054.000000
66.046300 42930.300000
67.054200 14140.100000
68.049400 18130.900000
77.038400 29335.400000
78.033700 21328.300000
79.054200 700047.400000
80.049400 60017.800000
81.033500 31790.400000
82.065100 21567.300000
91.041700 20902.300000
91.054200 255007.500000
92.049400 86805.700000
92.062000 16348.800000
93.057300 193922.700000
93.069900 16830.900000
95.049100 304773.200000
96.044300 302617.700000
98.060000 20986.200000
104.049400 192312.800000
105.044700 72047.700000
105.057000 28594.000000
105.069900 25369.300000
106.065100 1054813.800000
107.049200 21325.600000
107.072900 100714.000000
108.044300 16156.800000
108.080700 68685.900000
109.052100 60181.900000
110.060000 52376.600000
117.057300 19437.900000
118.065200 806193.600000
119.072900 13324215.000000
120.080600 1005778.200000
121.088500 265583.100000
122.060000 87489.500000
123.067700 47506.300000
124.075600 319606.500000
132.080900 36629.100000
133.088600 19321.100000
134.096300 13953345.000000
135.104000 610875.200000
139.062700 70262.700000

>ms2peaks
53.038600 96288.600000
54.033800 23700.500000
56.049500 18490.800000
65.038500 102880.000000
66.046400 152388.200000
67.041600 24987.500000
67.054200 19317.400000
68.049500 44604.300000
69.057300 32543.500000
77.038400 48099.900000
78.033900 43987.000000
78.046500 20335.100000
79.054200 1098079.100000
80.049400 132264.700000
80.062000 25499.600000
81.033500 54338.500000
82.065100 24049.500000
91.041700 54261.000000
91.054200 751954.800000
92.049500 248651.900000
92.062000 48140.600000
93.057300 423104.600000
93.069900 34515.000000
94.065200 21000.900000
95.049100 511548.300000
96.044400 483632.900000
98.060000 71979.700000
103.054200 20565.900000
104.049400 251731.700000
105.044800 145151.700000
105.057200 29961.000000
105.069900 16438.800000
106.065100 1209806.600000
107.049200 22944.400000
107.073000 124206.000000
108.044400 35510.400000
108.080700 69131.600000
109.052300 175499.700000
110.060100 71978.500000
117.057400 92567.100000
118.065200 2180215.000000
119.072900 14828292.000000
120.080700 1005179.300000
121.088500 115543.300000
122.060000 96707.100000
123.067800 59175.900000
124.075700 235823.600000
125.047200 40745.600000
126.054800 38908.600000
132.080900 62584.300000
134.096400 9461885.000000
135.104200 109131.300000
139.062800 93183.800000

