>compound LU02059114
>parentmass 269.1648
>ionization [M+H]+
>formula C17H20N2O
>rt 1088.940000
>profile orbitrap
#smiles_iso CN(C)C1=CC=C(C=C1)C(=O)C2=CC=C(C=C2)N(C)C
#smiles_can CN(C)C1=CC=C(C=C1)C(=O)C2=CC=C(C=C2)N(C)C
#inchikey VVBLNCFGVYUYGU-UHFFFAOYSA-N
#pubchem_id 7031
#mb_accession LU025001,LU025002,LU025003,LU025004,LU025005,LU025006

>ms2peaks
148.075600 2009865.500000
254.140600 58167.200000
269.164600 25190044.000000

>ms2peaks
120.080900 18502.300000
148.075600 14433146.000000
254.140500 37723.900000
269.164700 13122219.000000

>ms2peaks
79.054200 136042.500000
81.033500 34648.100000
91.054200 52951.100000
93.069800 47551.500000
96.080800 31215.900000
103.054100 36989.700000
105.057200 74434.900000
118.064900 29536.900000
120.080800 496400.200000
124.075300 34002.000000
148.075600 29085766.000000
269.164900 1389267.000000

>ms2peaks
53.038600 49803.700000
77.038600 29319.900000
79.054200 889058.200000
80.049400 93121.400000
81.033500 117389.700000
81.057300 41971.900000
82.028800 23374.900000
91.054300 446070.200000
92.049600 56546.800000
92.062100 129104.400000
93.069900 379239.600000
94.065100 44072.600000
95.049200 133745.500000
96.080800 122112.000000
103.054300 248396.700000
104.049400 49251.400000
105.044800 62871.800000
105.057300 625912.800000
109.052300 22394.200000
110.060100 62188.900000
118.065100 210052.300000
119.073000 78436.300000
120.080800 2092411.000000
124.075700 133198.800000
138.091200 38448.200000
148.075600 22352866.000000
269.164500 34820.100000

>ms2peaks
53.038600 209584.000000
54.033900 26503.400000
55.017900 16432.300000
65.038500 86813.400000
67.054200 32469.100000
68.049500 28150.500000
77.038500 87588.600000
78.046500 41292.900000
79.054200 2262400.500000
80.049400 282175.900000
81.033500 148101.000000
81.057300 50692.400000
82.028700 23131.700000
91.054200 1494964.900000
92.049500 165818.300000
92.062000 412001.000000
93.057400 79953.100000
93.069900 727858.200000
94.041200 30212.000000
94.065100 133884.900000
95.049100 676489.700000
96.044300 28306.100000
96.080800 121351.700000
103.054200 558980.600000
104.049500 226086.000000
105.044800 236510.300000
105.057300 1863662.600000
109.052500 25791.700000
109.064800 35452.500000
110.060000 176939.200000
117.057200 16398.400000
118.065100 516266.300000
119.060100 12025.000000
119.073000 225961.700000
120.080800 2502661.200000
124.075600 162385.500000
132.044300 19046.300000
136.075300 12663.800000
138.091200 51570.000000
148.075600 11632853.000000

>ms2peaks
50.015100 6741.100000
51.023000 17794.200000
53.038600 547277.600000
54.033800 35165.400000
55.017900 28415.600000
63.022900 6372.200000
65.038500 278037.500000
67.054200 41892.800000
68.049400 26850.700000
77.038500 221170.500000
78.033800 14314.700000
78.046400 164007.000000
79.054200 2750887.800000
80.049400 408250.800000
81.033500 115745.800000
81.057300 56197.400000
82.028700 10841.800000
91.054200 2387190.200000
92.049500 287175.200000
92.062000 596123.700000
93.057400 162411.000000
93.069900 646326.800000
94.041300 65460.100000
94.065100 174259.800000
95.049100 1533826.000000
96.044400 58208.300000
96.080700 66129.700000
102.046400 24163.200000
103.054200 701601.300000
104.049500 755267.200000
105.044800 573983.200000
105.057300 2896033.800000
109.052300 14804.500000
109.064700 49103.700000
110.060000 225176.700000
117.057400 30043.400000
118.065100 633458.700000
119.060500 19651.900000
119.072900 303283.100000
120.080800 1558666.800000
124.075700 76157.600000
132.044400 36977.500000
136.075600 9629.300000
138.091400 21659.400000
148.075600 4091854.000000
152.106900 6658.100000

