>compound LU02919476
>parentmass 224.0706
>ionization [M+H]+
>formula C14H9NO2
>rt 919.620000
>profile orbitrap
#smiles_iso C1=CC=C2C(=C1)C(=O)C3=C(C2=O)C=C(C=C3)N
#smiles_can C1=CC=C2C(=C1)C(=O)C3=C(C2=O)C=C(C=C3)N
#inchikey XOGPDSATLSAZEK-UHFFFAOYSA-N
#pubchem_id 8341
#mb_accession LU063301,LU063302,LU063303,LU063304,LU063305,LU063306

>ms2
196.075600 43895.900000
223.062600 6738.600000
224.070500 5375457.000000

>ms2
168.080900 4763.100000
196.075800 202881.300000
197.059600 22511.700000
207.068300 14281.200000
223.063500 16142.000000
224.070600 4117491.000000

>ms2
55.017900 3305.500000
68.997100 5637.100000
93.070000 4060.600000
129.070100 3667.100000
141.069600 13450.700000
152.062300 4717.800000
153.070200 11742.300000
154.065100 10406.900000
155.073100 8843.900000
167.073100 31311.700000
168.080800 173348.400000
169.064900 36513.100000
178.065100 44488.100000
179.073200 3683.700000
180.080900 5471.000000
181.064800 2988.000000
195.068100 7902.400000
196.075800 1757428.400000
197.059700 208740.700000
206.059800 7218.100000
207.068000 115649.900000
211.062700 3374.700000
223.062900 161664.000000
224.070600 2747993.200000

>ms2
53.038600 2331.700000
55.017800 13470.000000
65.038600 6217.300000
68.997100 35632.200000
77.038600 2516.300000
79.017900 8339.100000
79.054200 3254.900000
91.054100 3277.200000
93.070000 2606.700000
95.049100 6001.400000
115.054100 16320.700000
127.054200 3742.200000
128.061900 4260.200000
129.069800 9900.900000
130.028900 5359.600000
130.065300 8886.000000
140.049500 2499.700000
141.069900 155140.400000
142.065400 6579.700000
144.044600 9136.800000
145.064800 2907.400000
151.054500 12174.300000
152.062000 23377.800000
153.057400 11874.600000
153.069900 23309.900000
154.065200 38162.000000
155.049100 8280.400000
155.072900 34402.700000
166.064800 4285.400000
167.073000 355015.200000
168.080800 633048.900000
169.064800 223589.000000
170.059900 11681.500000
171.067700 2469.900000
177.057400 28682.400000
178.065100 176163.300000
179.073100 12599.100000
180.056700 3557.000000
180.080800 6481.400000
181.064900 6428.400000
182.060300 6241.500000
183.068100 5651.500000
188.070700 3399.300000
194.060700 4742.500000
195.068000 28096.400000
196.075800 2086623.100000
197.059700 298215.100000
199.063000 5639.600000
206.060300 14911.400000
207.067900 149082.900000
211.062900 9193.400000
223.062800 228212.100000
224.070600 635531.200000

>ms2
53.038600 4600.900000
55.017900 17107.100000
65.038500 19676.300000
68.997100 64760.900000
75.023000 2945.600000
77.038800 4333.200000
79.017800 14481.500000
91.054300 7392.100000
94.041300 2199.400000
95.049200 14738.900000
103.054300 4282.400000
115.054200 120091.900000
116.049500 8659.900000
127.054300 10888.300000
128.049500 7031.000000
128.062100 18784.400000
129.070000 12248.700000
130.028800 3246.500000
130.040200 4725.400000
130.065100 36124.100000
139.054400 4049.400000
140.049500 12333.700000
140.062200 5883.900000
141.069900 450148.700000
142.065300 21437.400000
144.044200 17813.800000
144.057000 7330.900000
145.064700 14318.500000
146.059900 3672.000000
150.046800 4349.400000
151.054200 34971.700000
152.062100 64730.900000
153.057400 51234.900000
153.069300 13921.400000
154.065100 76822.900000
155.049300 17910.800000
155.072800 48721.100000
156.044400 3566.700000
166.065000 21761.500000
167.073000 1053337.400000
168.057500 37880.600000
168.080800 620459.700000
169.064800 528049.300000
170.060000 28596.000000
171.068100 3619.000000
177.057300 114820.300000
178.065100 194522.700000
179.073000 17983.900000
180.056000 10573.300000
180.081000 6427.800000
181.065000 4455.900000
183.067900 8586.200000
184.052000 6367.300000
184.075200 2241.800000
188.070600 3907.500000
194.059800 13251.200000
195.068000 52388.700000
196.075800 922200.100000
197.059700 187053.000000
199.063200 6259.400000
206.060500 11513.100000
207.067900 94221.100000
211.062800 10632.800000
222.055100 3693.200000
223.062800 141536.600000
224.070600 76633.500000

>ms2
53.038600 8337.300000
55.017800 20387.400000
65.038500 33799.100000
68.997100 68752.100000
75.022900 4052.300000
77.038400 7758.700000
79.017800 15106.200000
79.054200 2767.500000
91.054300 25941.500000
94.041400 5780.800000
95.049100 21398.300000
103.054100 9084.300000
115.054200 397556.400000
116.049400 18456.200000
127.054200 23902.000000
128.049400 17150.800000
128.062000 35729.800000
129.070000 6684.800000
130.039900 2808.900000
130.065100 38557.000000
139.054000 24682.500000
140.049600 19158.200000
140.062000 26380.700000
141.069900 486106.600000
142.065200 30006.600000
144.044500 18260.800000
144.057100 13509.900000
145.064600 22326.200000
146.060200 5814.200000
150.046500 28333.100000
151.054200 50299.900000
152.062000 108705.400000
153.057300 84836.200000
153.069700 7526.800000
154.065100 75951.300000
155.049200 20687.900000
155.072800 28431.000000
156.044500 5568.600000
166.065200 81338.300000
167.073000 1226274.900000
168.057200 73867.000000
168.080800 255579.600000
169.064800 571383.900000
170.060000 38516.100000
171.068800 2442.500000
177.057300 216709.400000
178.065200 96512.900000
179.072800 18790.300000
180.056200 18213.200000
180.080700 3062.400000
181.064700 4835.800000
183.068300 1924.300000
184.052000 10389.200000
184.075900 4219.700000
194.060200 23332.000000
195.068000 34060.400000
196.075700 193938.800000
197.059800 79490.700000
199.063000 2704.800000
206.060100 5418.800000
207.067900 23499.200000
211.063000 7673.800000
222.055100 6889.400000
223.062800 40833.100000
224.070500 4717.300000

