>compound LU02143289
>parentmass 307.1113
>ionization [M+H]+
>formula C13H12F2N6O
>rt 781.020000
>profile orbitrap
#smiles_iso C1=CC(=C(C=C1F)F)C(CN2C=NC=N2)(CN3C=NC=N3)O
#smiles_can C1=CC(=C(C=C1F)F)C(CN2C=NC=N2)(CN3C=NC=N3)O
#inchikey RFHAOTPXVQNOHP-UHFFFAOYSA-N
#pubchem_id 3365
#mb_accession LU054201,LU054202,LU054203,LU054204,LU054205,LU054206

>ms2peaks
70.039900 67616.200000
169.045800 46009.000000
220.068000 975020.000000
238.078500 1447225.100000
289.100700 287925.400000
307.111200 4942401.000000

>ms2peaks
70.039900 605099.700000
82.040100 5314.100000
124.051000 3266.300000
127.035200 66385.100000
139.035100 23928.200000
141.014800 6052.500000
141.050900 53126.000000
149.040300 3467.800000
151.035200 31171.700000
166.046500 6267.400000
168.062300 4299.900000
169.045900 1017173.200000
187.056500 50588.200000
193.057300 6866.100000
200.062100 25538.000000
201.071700 13537.500000
208.068200 3961.900000
220.068000 2986905.500000
238.078600 2895123.800000
289.100700 135078.500000
307.111300 401215.000000

>ms2peaks
70.039900 1167959.900000
82.039900 11678.300000
83.047900 23106.000000
84.055700 9585.800000
100.050600 6222.500000
119.049400 2707.300000
121.044800 171940.600000
124.050700 5933.900000
127.035400 576851.400000
129.044800 11053.700000
139.035400 400047.200000
141.014700 74269.600000
141.051000 441943.300000
149.039800 11261.900000
151.035400 330642.700000
153.038500 3160.000000
164.043300 9502.600000
165.051000 6278.100000
166.046300 63927.000000
167.049900 12570.900000
168.062300 15161.000000
169.045900 2075816.000000
170.071000 12900.800000
172.055600 8389.400000
173.050900 98321.200000
176.030900 2997.000000
177.045800 34447.600000
178.046000 12336.600000
187.056500 46723.800000
193.057200 62239.400000
200.061900 280115.300000
201.071800 13341.100000
208.068300 12776.800000
220.068100 1968876.500000
238.078600 918618.800000
289.100200 3031.600000
307.111700 3673.700000

>ms2peaks
53.038600 2492.800000
55.017900 72840.900000
55.029100 11046.200000
70.039900 1418357.000000
75.022900 10142.200000
77.038500 10123.700000
82.040000 32426.900000
83.047800 45848.500000
84.055600 12366.900000
91.054200 39275.000000
100.050700 14538.900000
101.038600 8881.000000
107.029100 2716.200000
109.044800 7100.700000
115.054300 3771.800000
119.049200 27297.800000
121.044800 824607.100000
127.035400 1127933.800000
129.044700 126446.300000
139.035400 1141565.900000
140.030500 4402.200000
141.014700 151863.600000
141.051000 640598.400000
146.040100 26569.900000
147.035300 25870.000000
149.039700 22245.200000
151.035400 855049.500000
152.043100 2905.600000
153.038400 8706.500000
153.044600 4412.900000
156.061900 4740.600000
163.055400 18172.900000
164.043200 19907.000000
164.050600 5537.100000
165.051300 10517.800000
166.046300 122725.700000
167.030100 2510.600000
167.050200 16227.900000
168.062200 5327.900000
169.046000 988430.300000
171.056000 2957.200000
172.055600 14602.700000
173.051000 241575.100000
176.030800 9484.300000
177.045800 44656.100000
178.034500 2620.400000
178.046200 13588.000000
187.056500 10654.300000
193.057300 71830.100000
200.061900 240712.200000
208.068000 6672.500000
219.060500 14213.300000
220.068100 451816.300000
238.078700 102989.400000

>ms2peaks
51.022900 3037.500000
53.002200 5367.900000
53.038600 5165.900000
55.017900 92856.800000
55.029100 16093.500000
57.013500 2851.300000
63.022900 3599.000000
65.038500 3223.300000
70.039900 1465397.900000
75.022900 61516.500000
77.002200 2895.400000
77.038600 40606.900000
82.040000 62311.300000
83.047800 45016.700000
84.055600 8252.400000
91.054300 128095.900000
95.029100 7149.200000
95.049200 14394.600000
99.022900 6034.600000
100.050600 16745.300000
101.019700 8184.900000
101.038600 51697.400000
105.044700 6223.700000
107.029100 7308.000000
109.044900 45971.900000
113.039800 4519.700000
115.035500 13883.200000
115.054100 5930.500000
119.049200 144862.200000
121.044800 1028295.700000
123.035300 5069.800000
125.038600 4657.600000
127.035400 1258561.600000
129.044700 474942.400000
130.041900 2400.100000
131.029700 2273.200000
137.039800 14535.600000
139.035400 1327482.500000
140.030500 8728.900000
141.014700 163981.100000
141.051000 422532.800000
145.044900 10543.100000
146.040000 44081.500000
147.035300 183605.700000
149.039700 15951.300000
151.035400 977279.800000
152.030500 3395.200000
152.043500 5313.800000
153.038300 12678.100000
153.044800 13909.800000
154.021900 3808.500000
154.039900 9545.900000
156.061900 3038.700000
158.040100 4097.700000
163.055400 12760.600000
164.043000 31309.000000
164.050600 9805.100000
166.046400 89885.800000
167.050000 5430.500000
169.046000 218601.700000
170.071000 7577.600000
171.055200 3347.600000
173.051100 157923.800000
176.030700 11896.100000
177.045800 19780.000000
178.033600 2803.800000
178.046200 9319.100000
192.049200 4301.500000
193.057200 26236.900000
200.061900 61652.400000
219.060100 8673.500000
220.068100 46409.000000
238.078100 7075.800000

>ms2peaks
51.023000 4778.300000
53.002200 6802.500000
53.038600 12289.600000
55.017800 93457.400000
55.029100 19130.000000
57.013500 3125.100000
63.022900 6955.000000
65.038600 8739.800000
70.039900 1343845.800000
75.022900 243558.000000
77.002100 16834.500000
77.038500 66656.200000
82.039900 81116.400000
83.047700 27857.900000
84.055700 5097.600000
91.054200 184055.500000
95.029200 16904.100000
95.049200 28825.500000
99.022900 36616.200000
100.050500 13098.000000
101.019700 39752.700000
101.038500 132437.900000
105.044600 10514.100000
107.029100 36470.900000
109.044800 103412.800000
113.039800 19466.800000
115.035400 25704.700000
115.054200 4364.500000
119.049100 250814.900000
121.044800 571426.100000
123.035200 27995.400000
125.038500 12430.200000
127.035300 1054247.400000
129.044600 715227.900000
130.041900 5409.600000
131.030000 15585.000000
137.039800 42244.000000
139.035300 795952.100000
140.030600 8256.200000
141.014600 131611.700000
141.051000 166596.300000
145.045100 4012.100000
146.040100 36342.700000
147.035300 439763.500000
149.039700 9247.200000
151.035300 873233.700000
152.030600 3581.300000
152.043200 3078.400000
153.038300 10984.400000
153.044900 12434.500000
154.022300 4768.400000
154.039900 24262.500000
158.040000 2791.800000
163.055400 3688.000000
164.043200 22999.200000
164.050600 6355.300000
166.046100 40868.700000
167.030200 4046.600000
169.045900 36751.900000
173.050900 52715.700000
176.030800 8441.200000
192.048900 2199.100000
193.056900 2417.300000
220.068100 3517.300000

