>compound LU02871585
>parentmass 435.2952
>ionization [M+H]+
>formula C22H42O8
>rt 1127.460000
>profile orbitrap
#smiles_iso CCCCOCCOCCOC(=O)CCCCC(=O)OCCOCCOCCCC
#smiles_can CCCCOCCOCCOC(=O)CCCCC(=O)OCCOCCOCCCC
#inchikey SCABKEBYDRTODC-UHFFFAOYSA-N
#pubchem_id 8836
#mb_accession LU125401,LU125402,LU125403,LU125404,LU125405,LU125406

>ms2
55.054300 3591.600000
57.069800 13227.700000
73.064800 11725.900000
89.059800 150617.100000
101.096200 22349.500000
107.070400 16549.300000
111.044200 17143.000000
121.086000 2535.400000
145.122400 562797.900000
155.070400 205573.200000
157.086100 58619.700000
163.133000 683484.400000
173.081100 28635.100000
199.096900 5001.100000
201.112600 8754.900000
217.107300 246254.900000
229.144000 3522.900000
255.159300 232570.400000
261.133500 44252.500000
273.169800 108030.500000
317.196100 472603.700000

>ms2
55.054200 36911.400000
57.069900 111392.600000
59.049100 4133.200000
67.054200 9514.900000
73.028400 8112.500000
73.064700 28689.200000
83.049100 5974.200000
83.085500 33144.500000
85.064900 4679.000000
87.044100 3054.800000
89.059700 631384.900000
101.096200 124627.800000
107.070300 157827.800000
111.044100 91828.300000
113.059700 11657.500000
121.086100 6764.000000
127.075400 8489.500000
129.054800 15988.400000
139.075400 7643.100000
143.070300 4410.400000
145.122400 214319.900000
155.070300 579032.800000
157.086000 105330.200000
163.132900 278391.400000
173.081000 105618.600000
199.096700 14443.800000
201.112100 5618.900000
217.107100 71131.600000
229.143300 2662.400000
255.159200 12949.600000
261.133300 41653.700000
273.170100 7098.600000
317.195900 25008.600000

>ms2
53.002100 2342.000000
55.054200 100051.500000
57.069900 202225.100000
59.049200 9514.800000
67.054200 43201.400000
69.033500 3383.400000
69.069700 3988.600000
73.028400 16218.500000
73.064800 21180.800000
83.049200 69843.500000
83.085500 30196.000000
85.064900 15797.400000
87.044200 6168.300000
89.059700 495607.800000
95.049200 7531.400000
99.044000 5296.900000
101.059700 14623.600000
101.096100 89107.900000
107.070300 62662.600000
111.044000 177092.400000
113.059700 37916.400000
121.086100 5778.800000
127.075300 49851.500000
129.054600 28877.300000
137.059600 10511.600000
139.075400 16805.200000
143.070200 6599.700000
145.122300 16412.100000
155.070300 487920.100000
157.085900 54954.400000
163.132600 15407.900000
173.080900 44066.800000
217.107300 11142.800000

>ms2
53.002200 4484.200000
53.038500 2706.900000
55.054300 131569.600000
57.069900 170823.800000
59.049200 7066.800000
65.038600 2922.500000
67.054200 60995.900000
69.033500 13807.100000
69.070000 3090.100000
71.049100 2649.300000
73.028400 16581.600000
73.064700 10427.500000
81.069800 2611.500000
83.049200 133659.100000
83.085500 9286.400000
85.064900 14493.900000
87.044100 4201.100000
89.023300 15984.200000
89.059700 155527.100000
93.033700 2952.100000
95.049100 5518.200000
99.044100 20565.700000
101.059700 13216.400000
101.096100 12172.800000
107.070300 5284.200000
111.044100 152594.600000
113.059700 64167.600000
127.075400 38227.900000
129.054700 19128.900000
137.059900 10759.600000
139.075400 11035.400000
143.070700 3066.600000
155.070300 143648.800000
157.085900 6555.500000
173.080900 6887.400000

>ms2
53.002200 8995.400000
53.038600 7274.800000
55.017900 12476.900000
55.054300 209955.900000
57.069900 182411.800000
59.049200 10076.700000
65.038500 8225.000000
67.054200 85643.300000
69.033500 46975.700000
71.049100 2952.800000
73.028400 16210.900000
73.064800 4241.300000
81.069800 2549.100000
83.049200 183846.300000
85.064800 14881.600000
87.044000 5730.400000
89.023400 15036.800000
89.059700 67757.000000
93.033600 8126.100000
95.049200 8238.500000
99.044100 36790.800000
101.059800 11386.400000
111.044100 137219.300000
113.059800 83598.900000
127.075400 19405.200000
129.054600 12661.400000
137.059700 11052.000000
139.075400 5126.600000
143.070000 2172.000000
155.070300 40506.100000

>ms2
53.002300 8779.200000
53.038600 5782.000000
55.017900 22062.700000
55.054300 191317.700000
57.069900 95073.700000
59.049100 4653.900000
65.038600 15813.700000
67.054300 59565.300000
69.033500 50720.100000
73.028400 7541.900000
73.064700 2117.400000
83.049200 109881.600000
85.064700 4508.600000
87.044100 1925.500000
89.023300 6165.100000
89.059700 12117.800000
93.033500 4312.100000
95.049100 4500.200000
99.044100 33694.400000
111.044100 76903.000000
113.059800 41059.100000
127.075300 5747.500000
137.059600 3748.400000
155.070100 5984.600000

