>compound LU02602670
>parentmass 319.124
>ionization [M+H]+
>formula C13H23N2O3PS
>rt 1178.220000
>profile orbitrap
#smiles_iso CCOP(=S)(OC1=CN=C(N=C1)C(C)(C)C)OC(C)C
#smiles_can CCOP(=S)(OC1=CN=C(N=C1)C(C)(C)C)OC(C)C
#inchikey AWYOMXWDGWUJHS-UHFFFAOYSA-N
#pubchem_id 93516
#mb_accession LU122501,LU122502,LU122503,LU122504,LU122505,LU122506

>ms2
153.101900 149653.000000
249.045500 123975.000000
263.061500 11738.500000
277.076900 10426196.000000
291.093300 12009.200000
319.123800 7015881.000000

>ms2
153.102200 3482642.500000
169.079400 106473.600000
231.035200 1379684.800000
249.045800 2927522.500000
263.061400 255220.800000
277.077000 8654836.000000
291.093200 11565.800000
319.123700 111657.600000

>ms2
57.070000 76772.500000
97.039700 26870.100000
137.071100 21185.300000
138.078800 59888.300000
153.102200 12429729.000000
169.079300 405245.200000
199.063100 21729.500000
231.035100 3116145.500000
249.045700 3161186.500000
263.061300 576426.900000
277.077000 876194.300000

>ms2
57.069900 643401.000000
69.044600 33341.600000
70.028700 13149.600000
84.080800 45454.800000
97.039600 289796.700000
108.080700 20837.700000
110.047400 14162.300000
110.060000 14795.200000
112.075800 31353.600000
114.961300 19661.100000
123.054800 25884.300000
126.091300 48275.700000
137.070900 193180.300000
138.078800 677579.900000
149.977700 23190.700000
152.094400 13339.400000
153.102200 12924975.000000
154.055300 29645.700000
158.995000 37998.700000
165.971800 12954.200000
168.071500 82745.600000
169.079300 398365.300000
174.972500 72723.200000
199.063000 210107.000000
215.003700 15297.500000
231.035100 2057924.900000
249.045600 478815.300000
263.061300 373479.400000
277.077200 16802.800000

>ms2
53.002100 15734.700000
57.069900 2190383.800000
62.945200 10353.000000
68.049300 10009.100000
69.044700 201882.200000
70.028700 111803.800000
81.070000 10576.300000
82.065100 13309.600000
84.080800 154602.200000
94.065100 25322.000000
95.023900 33805.000000
96.044400 12139.200000
96.080700 52092.800000
97.039600 1263772.100000
108.080800 57401.700000
109.064700 13894.700000
109.075900 25991.100000
110.047400 142177.800000
110.060000 34590.700000
112.008800 26572.400000
112.075700 82174.000000
113.016700 12802.200000
114.961400 33146.500000
119.966700 11279.700000
123.055200 246758.800000
124.075500 10706.400000
125.107500 14154.900000
126.024500 11186.900000
126.091300 84837.200000
127.050200 21269.600000
136.075300 28826.600000
137.070900 603242.300000
138.078700 2309815.800000
139.032300 16295.100000
143.000600 33696.000000
149.977400 56848.000000
151.086600 16770.100000
152.094500 21930.400000
153.102200 9853007.000000
154.055500 84102.900000
158.995300 80439.000000
168.071400 121467.600000
169.079300 234937.300000
174.972400 114594.900000
183.031700 20749.400000
199.063000 487506.800000
215.003500 23015.200000
216.011700 92186.700000
231.035100 732416.600000
248.037900 17570.400000
249.045500 43221.400000
263.061400 139157.300000

>ms2
53.002200 58022.400000
57.069900 3207531.200000
62.945300 19128.400000
67.054300 5174.900000
68.049500 18399.400000
69.044700 434696.700000
70.028700 243490.000000
74.096400 7148.100000
79.054300 10213.400000
81.069900 19815.300000
82.065100 23270.000000
84.080800 208399.100000
86.005900 16369.500000
94.065200 28126.000000
95.024000 39791.600000
95.060400 30240.600000
96.031700 5404.100000
96.044400 14819.400000
96.080800 69761.300000
97.039700 1860148.200000
108.080800 65905.400000
109.064900 20169.100000
109.076100 94779.200000
110.047500 422087.300000
110.059900 36325.500000
111.055300 15262.400000
112.009000 28811.800000
112.075700 48663.500000
113.016600 22792.200000
114.961300 38446.500000
119.966800 24954.100000
123.055300 914074.400000
125.107300 14303.700000
126.024700 17992.900000
126.091400 85281.400000
127.050200 53364.300000
128.053000 5904.800000
135.091700 8632.100000
136.063300 10508.600000
137.071000 923800.500000
138.078800 2722800.200000
139.032400 65199.400000
143.000600 70524.200000
149.977500 33921.800000
151.086600 8315.800000
152.040200 7435.300000
152.094600 10071.900000
153.102300 4141090.200000
154.055900 98855.700000
158.995500 61993.400000
168.071400 61259.700000
169.079500 78605.500000
174.972700 53267.300000
183.031700 32438.400000
199.063100 409772.200000
216.011900 41791.300000
231.035200 116238.400000
248.038400 8353.400000
263.061700 24666.300000

