>compound LU03940537
>parentmass 363.09729999999996
>ionization [M+H]+
>formula C18H16F2N2O2S
>rt 975.840000
>profile orbitrap
#smiles_iso COC1=CC=C(C=C1)N2C(=CC(=N2)C(F)F)C3=CC=C(C=C3)S(=O)C
#smiles_can COC1=CC=C(C=C1)N2C(=CC(=N2)C(F)F)C3=CC=C(C=C3)S(=O)C
#inchikey JJAPPCJXQFKMJL-UHFFFAOYSA-N
#pubchem_id 132932
#mb_accession LU066001,LU066002,LU066003,LU066004,LU066005,LU066006

>ms2peaks
346.094800 28410.100000
348.073900 306661.100000
363.097400 6000663.000000

>ms2peaks
150.013400 12625.100000
199.067800 28717.100000
271.066000 25185.900000
285.083700 9623.600000
297.068700 3677.900000
299.099200 16752.000000
300.106800 117658.000000
316.101600 4160.600000
328.067900 24437.900000
331.071700 10166.600000
332.079000 80495.800000
332.097700 25542.700000
333.051100 8651.700000
345.087600 10206.700000
346.094800 661709.600000
347.067200 5767.000000
348.073800 3596706.500000
363.097300 1678556.500000

>ms2peaks
102.046400 15230.100000
108.056800 4452.500000
132.044400 3306.400000
134.036200 3599.300000
146.060300 3189.800000
147.067900 19400.100000
150.013400 311485.200000
167.054100 2828.200000
170.053900 4193.300000
173.071200 3539.500000
177.058400 5581.700000
178.066200 12823.400000
179.061200 12470.400000
182.040900 12143.600000
197.064200 14086.500000
198.060100 8908.400000
198.072400 11860.600000
199.067800 403572.500000
208.075700 15463.400000
222.091700 3183.500000
223.099200 87842.000000
224.034700 3894.200000
228.047000 3164.000000
240.047700 21711.400000
248.094400 7280.800000
249.102700 24324.200000
254.063300 12561.500000
255.089000 65458.800000
257.088800 16879.100000
260.094400 4340.800000
265.076700 15304.100000
268.080200 7798.200000
269.087600 5555.400000
271.066200 190191.000000
279.058900 4123.800000
279.093100 54011.200000
280.066800 6028.200000
280.100700 32805.500000
282.046500 5578.600000
283.069600 4952.400000
284.075400 35620.200000
285.083500 55218.900000
288.053400 3077.700000
292.083500 4077.200000
293.037100 4302.100000
295.032500 2445.100000
295.089300 22155.100000
296.061400 7939.700000
297.049200 43748.500000
297.069400 57299.000000
298.090700 7607.200000
299.099100 152049.400000
300.106900 303307.000000
302.086300 10337.000000
303.076300 36165.800000
305.055400 6636.000000
308.061800 21304.000000
311.065300 17271.000000
312.090700 31310.000000
313.044200 21870.200000
313.061800 3325.800000
314.068300 2666.700000
315.040300 4719.800000
316.048200 6239.500000
316.102600 4907.300000
317.055800 9314.400000
325.080500 35302.700000
327.059900 6424.300000
328.067700 318251.400000
330.064100 4508.100000
331.071100 204501.000000
332.079100 26490.800000
332.097100 297998.300000
333.050300 54704.800000
345.087100 153933.500000
346.094800 779592.300000
347.066100 52299.300000
348.073900 1771160.600000
363.097900 31879.900000

>ms2peaks
78.046300 11234.900000
89.038400 3009.200000
91.054300 3668.900000
92.025900 2505.000000
95.049300 3413.600000
102.046500 115053.700000
103.054500 2969.100000
104.049500 4763.000000
105.033500 6554.900000
108.056900 10463.600000
119.049200 7042.300000
121.010600 10881.800000
122.018500 9915.700000
122.060100 11708.500000
125.059700 3048.000000
127.035600 2787.500000
130.065200 3430.400000
132.044500 41536.500000
134.036100 42014.900000
134.060100 3995.300000
135.048000 5814.300000
146.060100 48647.000000
147.047900 9126.200000
147.067900 85088.400000
148.055700 5647.700000
148.063100 2602.400000
149.005800 2461.500000
149.071200 8252.000000
150.013500 266644.800000
151.008800 4776.200000
154.046300 12958.700000
155.030300 6226.300000
155.053800 2986.600000
157.046100 6352.500000
158.060300 5381.200000
162.037000 13601.900000
163.043000 14478.600000
164.016300 4311.400000
166.046500 9174.100000
167.054200 8016.100000
170.054000 7411.300000
173.070800 4422.100000
176.070600 5189.800000
177.058300 13506.900000
178.046400 9420.300000
178.066400 27896.200000
179.061600 57734.400000
180.081000 41946.400000
181.064900 15322.900000
182.041300 40189.500000
183.036500 4849.500000
184.044100 11092.900000
190.065500 4302.400000
192.080500 12958.200000
193.088500 3401.200000
194.096600 4544.000000
196.057000 8303.400000
197.064900 15887.400000
198.060200 13246.200000
198.072600 7432.400000
199.068000 306065.300000
204.080600 3350.500000
205.076300 6784.400000
206.084000 13148.800000
207.068400 10531.200000
208.075900 93133.200000
210.091500 3272.100000
212.070700 4252.500000
216.068600 4530.800000
217.076400 10505.100000
221.083800 5316.900000
222.071500 4142.800000
222.091500 15874.200000
223.099300 124338.100000
224.034500 14700.100000
224.070800 5204.700000
227.040000 3872.600000
228.048100 26228.800000
230.084300 2573.400000
233.071300 14623.100000
234.079000 25462.200000
235.086600 4942.500000
236.074700 22791.300000
237.048000 4499.800000
237.082600 39537.100000
238.031800 2421.900000
238.086900 4022.800000
239.039900 5689.600000
240.048000 39017.200000
240.064300 12582.800000
247.086900 4814.300000
248.040600 7173.700000
248.094700 30753.800000
249.048700 4117.000000
249.102400 74641.900000
250.090400 8466.600000
251.098200 9982.600000
254.051000 6645.600000
254.063700 24759.600000
255.073500 10879.600000
255.089100 156239.500000
256.042900 91606.100000
256.080700 35718.200000
257.088600 53069.500000
259.086800 20287.900000
260.095000 15713.000000
264.069700 35293.600000
265.043600 13357.200000
265.077300 63384.400000
266.051500 4539.800000
266.068100 2155.600000
268.046800 12907.600000
268.080600 32867.500000
270.058600 42872.300000
270.096200 18261.000000
271.103900 11841.100000
272.075400 3060.300000
273.082800 3280.400000
275.044300 3502.100000
278.085200 7803.100000
279.058500 11424.000000
279.093100 185720.800000
280.048600 4563.100000
280.066700 41752.400000
280.084700 4987.000000
280.100700 50490.600000
281.073100 9353.400000
281.107800 4046.000000
282.045500 12871.400000
282.080300 9930.400000
284.075900 74186.600000
285.049500 8688.200000
285.083600 95617.700000
287.044700 3485.400000
288.052900 29270.600000
291.058600 8650.100000
292.084200 24693.900000
293.038100 10406.000000
294.082500 9644.600000
295.034100 7775.800000
295.090100 80569.400000
296.041900 19328.800000
296.061900 19525.400000
297.049600 123452.300000
297.069200 51805.400000
299.099300 211639.200000
300.053900 13289.000000
300.107100 189384.300000
301.060000 4493.500000
302.067900 7647.200000
302.086500 30354.400000
303.076400 81444.700000
305.055800 19771.500000
308.061800 18596.100000
310.057400 27372.100000
311.065100 46858.000000
311.119600 3564.900000
312.090700 86419.700000
313.044100 30286.600000
313.061600 4531.600000
314.069600 5307.500000
315.039300 11951.000000
316.047400 24232.400000
317.055800 8890.000000
317.074100 6940.500000
325.080800 153092.500000
327.059800 45123.000000
328.067900 103594.100000
329.055600 5037.500000
330.063700 30804.600000
331.071400 235277.200000
332.044000 40759.600000
332.097000 282201.200000
333.050600 44800.400000
345.087000 95876.000000
346.095000 102277.200000
347.065900 24619.800000
348.074200 85610.800000

>ms2peaks
51.023000 2957.200000
53.038700 9205.500000
65.038600 5657.500000
76.030800 5577.900000
78.046400 19979.500000
79.054300 9489.900000
81.033400 3672.800000
89.038600 10145.500000
91.054300 13765.700000
92.025700 4221.000000
94.041300 2707.300000
95.049200 28392.700000
96.003000 3924.800000
96.044500 5569.200000
97.010600 3931.000000
102.046400 218483.900000
103.041800 8969.700000
103.054300 8415.000000
104.049400 35739.600000
105.033600 5838.000000
105.044900 8894.200000
108.056700 10720.400000
116.049400 14755.200000
117.057400 8240.000000
118.065200 2776.900000
119.049300 23978.900000
121.010700 19453.500000
122.018500 7090.400000
122.060000 19470.900000
125.059900 7488.100000
127.035500 17361.300000
127.040700 3312.700000
128.049700 6369.900000
130.065300 6443.300000
131.036700 4599.700000
132.044400 156605.900000
133.010700 14836.900000
133.044800 3870.500000
133.052000 3155.300000
134.035700 64824.400000
134.040600 13637.800000
134.060000 12246.500000
135.026200 3256.900000
135.047900 31139.800000
135.054100 3891.300000
135.055200 3504.900000
136.043200 2280.000000
146.060000 133980.700000
147.013900 10226.500000
147.047900 24384.500000
147.067900 88656.000000
148.055900 12033.300000
148.063000 5807.000000
149.005200 2685.000000
149.029200 11009.400000
149.071300 6590.800000
150.013400 76992.400000
151.008800 9665.200000
151.055500 5403.600000
152.050700 5210.800000
152.061900 5298.600000
153.038600 3142.300000
153.069600 11672.800000
154.046300 31748.700000
154.066200 9140.800000
155.030300 15024.100000
155.053800 4712.600000
157.046200 8740.600000
158.060300 7332.000000
159.055400 4362.300000
162.037200 39395.500000
163.042800 27559.300000
164.016400 10124.600000
164.037800 3913.500000
164.050700 5287.500000
165.070100 9751.000000
166.046400 15375.100000
166.065300 3591.900000
167.054700 7451.400000
167.073100 2647.200000
170.053700 7081.800000
176.070700 4106.000000
177.058700 9490.800000
178.046400 25577.200000
178.066300 30143.700000
179.061700 76765.200000
179.072900 15372.400000
180.080800 161161.200000
181.064900 29636.500000
182.041200 34428.200000
183.036600 7142.400000
184.044100 23007.200000
184.075600 4036.200000
189.070000 3974.700000
190.064900 20107.800000
191.072900 19453.600000
192.080700 40636.900000
193.088900 9077.500000
194.096600 6772.000000
195.068300 3745.900000
196.057000 6543.400000
197.064800 7730.800000
198.059900 4063.400000
199.067800 100814.200000
204.081000 10268.900000
205.076000 41708.100000
206.083900 75765.800000
207.068200 33419.900000
208.064500 6085.100000
208.075800 112168.300000
210.018300 2307.500000
210.071200 16788.900000
210.091800 2972.000000
212.070900 8212.700000
215.060800 2968.300000
216.068300 25835.900000
217.076200 48344.600000
218.060100 3623.300000
218.084300 10045.000000
221.084000 8358.900000
222.037700 2579.700000
222.055300 2213.900000
222.058700 3006.400000
222.071200 24985.400000
222.090700 16303.400000
223.066600 6283.700000
223.099000 35157.400000
224.034000 19409.200000
224.071600 14789.900000
227.040100 16712.600000
228.048100 25913.000000
229.076400 27441.500000
230.084200 7565.600000
231.091800 35133.200000
233.071100 33820.200000
234.078900 70231.100000
235.067100 20506.500000
236.074600 106652.500000
237.048100 21210.500000
237.082300 82304.700000
238.086100 3022.100000
239.040000 10192.700000
239.061900 2542.700000
240.048200 11344.700000
240.065100 24447.300000
241.072700 2847.500000
242.064800 6630.000000
243.072900 6460.800000
244.080900 9111.100000
245.071100 33979.800000
246.079100 3023.100000
247.066200 12672.700000
247.086900 11420.800000
248.040100 18748.600000
248.074500 13220.600000
248.094400 29897.600000
249.049100 10573.900000
249.082700 44886.300000
249.102600 50500.900000
250.090300 12377.900000
251.063200 5039.300000
251.098100 11262.400000
252.070500 9738.300000
253.077200 7694.000000
254.051000 10178.300000
254.063800 10600.500000
255.036900 15268.900000
255.073100 48431.300000
255.089600 68510.700000
256.043200 20221.800000
256.080600 68698.300000
257.088400 54010.100000
259.086600 31860.400000
263.062000 25537.800000
264.069300 53011.400000
265.043300 22866.900000
265.059900 3643.900000
265.077100 49877.500000
266.052000 4717.300000
266.068200 6366.800000
266.085200 8397.600000
267.073100 10430.000000
268.046600 43568.200000
268.080400 25960.000000
269.088100 20615.000000
270.059100 11095.200000
270.096600 6209.000000
271.067800 5204.400000
271.104100 3054.400000
272.075200 5723.600000
273.083800 3030.100000
275.045200 7108.600000
278.085200 10429.000000
279.058500 22122.000000
279.092900 159054.700000
280.066700 54482.000000
280.084700 10921.200000
280.099700 19539.700000
281.037900 2753.400000
281.072700 14811.100000
282.045700 11881.900000
282.062300 22101.600000
282.080000 11894.500000
283.069500 60005.500000
284.041900 9844.600000
284.075400 38221.200000
285.049400 7068.500000
285.083100 52059.900000
286.091300 5647.300000
287.045100 20848.200000
288.052700 93065.000000
291.058900 4311.700000
292.083900 20814.000000
293.038200 3707.500000
294.082500 8633.700000
295.033800 12114.500000
295.089700 30228.200000
296.041800 19773.900000
296.061000 9849.400000
297.049500 39989.700000
297.068600 10555.100000
298.091300 12489.300000
299.045100 13944.700000
299.099000 74230.100000
300.053200 14275.300000
300.106700 19103.300000
301.061900 5456.200000
302.070000 11937.400000
302.086600 11480.700000
303.076200 32891.100000
305.055600 11960.900000
308.063900 2550.600000
309.048200 3243.400000
310.057200 75109.200000
311.064900 13410.400000
311.119300 4909.100000
312.035600 11926.700000
312.090600 36225.700000
313.044500 4401.100000
314.068100 2603.000000
315.039800 13257.800000
316.047600 14816.400000
317.074100 7297.700000
325.080600 54086.600000
327.059700 20691.300000
328.068500 4173.100000
329.055500 6645.100000
330.063500 22033.400000
331.071500 38979.200000
332.043100 31548.400000
332.096700 42660.400000
333.051100 6055.800000
345.087400 5657.000000

>ms2peaks
51.023000 3965.200000
53.038600 16341.000000
65.038500 14183.100000
76.030700 12863.900000
78.046400 17959.400000
79.054200 20155.300000
81.033400 7119.100000
89.038600 35296.600000
91.054300 26144.400000
92.025700 13581.600000
94.041400 4119.700000
95.049200 58300.400000
96.002800 5826.100000
96.044300 12626.500000
97.010800 6727.600000
102.046400 196898.500000
103.041600 28701.900000
103.054200 8484.200000
104.049500 88394.200000
105.033400 5644.600000
105.044700 22286.800000
108.056900 9056.600000
116.049400 22085.800000
117.057300 14962.000000
118.065000 5960.900000
119.049200 31500.700000
121.010600 12414.100000
122.060100 16227.600000
125.059900 7495.600000
127.035400 27215.800000
127.041500 7615.200000
128.049600 12247.100000
130.065100 3237.300000
131.036700 17841.100000
132.044400 204964.700000
133.010600 11828.800000
133.044900 4013.900000
133.052300 5065.400000
134.036000 27964.900000
134.040100 37118.400000
134.060000 17213.400000
135.026200 6754.800000
135.047900 54982.800000
135.054900 6409.500000
136.043000 10286.800000
146.060000 110177.600000
147.013800 22997.200000
147.047800 23302.000000
147.067900 46320.200000
148.055800 14510.600000
148.062800 3618.400000
149.029600 14342.600000
149.071000 3831.200000
150.013500 10100.200000
151.008700 4304.700000
151.055600 2862.200000
152.050500 8727.000000
152.062100 32012.800000
153.038300 7436.200000
153.069900 40355.000000
154.046300 29888.400000
154.065800 12669.200000
155.030300 8525.900000
157.046100 4688.500000
159.055400 5206.200000
162.037100 31235.300000
163.042700 21188.100000
164.016300 5183.000000
164.037800 7593.800000
164.050200 7739.000000
165.069900 15837.000000
166.046300 15336.500000
166.065400 6448.000000
167.054500 4079.600000
167.072800 5945.400000
173.071200 2798.100000
178.046200 13171.800000
179.061400 51845.400000
179.073000 36239.100000
180.080800 174411.300000
181.064800 18342.000000
182.041000 21870.300000
183.036800 3838.300000
184.044300 16346.100000
184.075600 4142.800000
189.069800 4923.700000
190.065200 63040.300000
191.072800 39053.000000
192.080800 26699.800000
193.087900 5488.200000
195.068400 2439.100000
196.056700 6261.000000
199.067800 14134.300000
204.080900 9829.000000
205.076100 108598.700000
206.083900 95864.900000
208.065100 2577.200000
208.075600 46022.200000
210.018500 3043.400000
210.071300 17288.900000
215.060500 11676.000000
216.068400 72873.900000
217.076100 61654.500000
218.059700 2818.500000
218.084200 16366.800000
221.082800 2609.600000
222.037400 4664.600000
222.057900 3047.900000
222.091300 9822.100000
223.066700 15197.700000
223.099700 4951.100000
224.033700 4286.300000
224.074400 21539.400000
227.040500 13858.400000
228.047900 10544.400000
229.076300 41720.500000
230.084100 4739.700000
231.091800 19523.900000
233.071100 37459.400000
234.078700 41437.900000
235.066600 53460.400000
235.086700 5613.700000
236.074600 150861.800000
237.047900 44672.900000
237.082200 51642.100000
238.032500 5269.100000
239.061400 4924.900000
241.074100 3374.400000
242.065400 3022.300000
243.072900 11875.000000
244.080800 25734.600000
245.070700 18552.200000
246.079000 2524.600000
247.066100 15815.400000
247.086300 7120.100000
248.040200 18636.300000
248.074500 19846.900000
248.094000 6338.700000
249.082000 28668.400000
249.101700 10688.700000
251.063200 8669.100000
252.070200 14895.300000
253.076800 7691.700000
254.050900 3055.800000
255.037100 7837.100000
255.073000 69033.500000
255.089400 9118.500000
256.042900 3526.000000
256.080700 48138.900000
257.088500 28054.100000
259.086700 12922.300000
260.094200 3275.700000
263.061800 22157.200000
264.069300 30173.800000
265.043100 17068.000000
265.059000 3057.600000
265.076700 10558.600000
266.068700 10479.400000
266.085200 13512.000000
267.073100 4965.400000
268.047100 25543.900000
268.080600 9643.000000
269.088100 3577.200000
271.068000 4523.400000
272.076200 2825.800000
275.046000 3387.300000
278.084600 2854.900000
279.058800 22306.700000
279.092900 34690.700000
280.047200 6184.000000
280.066300 12593.800000
280.084600 9202.400000
281.038400 2837.800000
281.071300 10422.700000
281.107500 2564.600000
282.062500 21724.300000
282.079700 3436.600000
284.041100 6156.600000
284.075700 11670.200000
285.083000 8632.000000
286.092000 6080.100000
287.045000 21124.600000
288.052800 55868.500000
292.084500 3390.800000
295.033500 10349.100000
295.089700 2668.500000
296.041000 3947.000000
296.058900 5226.200000
297.048900 4902.800000
299.043700 5058.100000
299.099200 5128.200000
300.051900 3001.400000
302.068600 3265.700000
305.056000 3734.700000
309.048900 4389.800000
310.056800 39924.800000
312.036600 10236.400000
315.039100 4474.800000
325.080700 3744.900000
330.063000 2988.800000
332.042300 4768.800000

