>compound LU03779911
>parentmass 216.10100000000003
>ionization [M+H]+
>formula C8H14ClN5
>rt 981.840000
>profile orbitrap
#smiles_iso CCNC1=NC(=NC(=N1)Cl)NC(C)C
#smiles_can CCNC1=NC(=NC(=N1)Cl)NC(C)C
#inchikey MXWJVTOOROXGIU-UHFFFAOYSA-N
#pubchem_id 2256
#mb_accession LU071801,LU071802,LU071803,LU071804,LU071805,LU071806

>ms2peaks
96.055500 27952.300000
104.000600 21359.600000
132.032200 23329.200000
138.102500 52516.300000
146.047800 33749.200000
174.054000 1833673.600000
216.100800 11870510.000000

>ms2peaks
68.024400 11277.200000
79.005700 73705.300000
96.055500 148865.500000
104.000900 95123.700000
132.032200 97276.800000
138.077400 27185.300000
138.102500 145944.800000
146.022700 66307.100000
146.047900 96020.700000
174.054000 4270738.500000
180.124200 15259.800000
188.069200 20715.600000
216.100900 9119145.000000

>ms2peaks
53.002200 10374.600000
61.979300 9749.300000
68.024300 144132.800000
71.060300 151226.600000
79.005700 774592.200000
85.076000 24309.500000
90.010500 17729.800000
96.055600 1155502.600000
104.000900 710806.100000
110.046000 48829.300000
121.052700 8736.800000
132.032300 806996.400000
138.077400 209602.400000
138.102500 184919.000000
146.022700 566401.400000
146.047900 142811.800000
174.054000 6657495.500000
180.124400 31655.900000
188.069600 39683.000000
216.101000 2165019.000000

>ms2peaks
53.002200 11956.700000
61.979200 31484.400000
68.024300 596165.100000
71.060300 354829.100000
74.096400 4160.500000
79.005800 1099437.400000
85.076100 22955.400000
90.010500 48940.000000
96.055600 1545419.100000
104.001000 1146884.800000
107.037000 7897.700000
110.046200 123222.200000
121.052600 3088.500000
132.032300 899581.800000
138.077500 246644.500000
138.102700 24417.700000
146.022800 687094.400000
172.038700 5692.800000
174.054200 2193859.000000
180.124400 12718.900000
188.070100 7470.500000
216.101100 147225.700000

>ms2peaks
53.002300 19620.500000
61.979200 188744.800000
68.024300 2341971.500000
71.060400 891921.200000
74.096400 5158.900000
79.005800 1827530.900000
85.076100 15187.200000
90.010500 75812.200000
96.055700 2064483.900000
104.001000 2680354.800000
107.037200 9166.300000
110.046200 279671.900000
121.052700 4019.400000
132.032400 951384.100000
138.077500 265423.200000
146.022800 740078.800000
172.038600 11701.900000
174.054200 792140.200000
180.124300 3618.500000
216.101100 14313.100000

>ms2peaks
53.002200 25216.700000
61.979200 464323.600000
68.024300 3400611.500000
71.060300 761873.400000
74.096300 4428.600000
79.005700 1400194.100000
90.010500 58814.600000
96.055600 1024675.000000
104.001000 2450597.200000
107.037100 6607.900000
110.046100 178396.400000
132.032300 317766.700000
138.077500 84612.100000
146.022800 272481.800000
172.038200 4549.200000
174.054100 114380.700000

