>compound LU03533663
>parentmass 278.1903
>ionization [M+H]+
>formula C20H23N
>rt 937.320000
>profile orbitrap
#smiles_iso CNCCCC12CCC(C3=CC=CC=C31)C4=CC=CC=C24
#smiles_can CNCCCC12CCC(C3=CC=CC=C31)C4=CC=CC=C24
#inchikey QSLMDECMDJKHMQ-UHFFFAOYSA-N
#pubchem_id 4011
#mb_accession LU083501,LU083502,LU083503,LU083504,LU083505,LU083506

>ms2peaks
58.065100 78934.400000
84.080700 91011.100000
91.054200 432840.400000
105.069800 320011.900000
117.069800 630934.600000
155.085600 81321.100000
169.101100 160441.300000
178.077200 70511.600000
191.085400 186124.800000
219.116400 59053.600000
233.132500 1881840.600000
247.148400 228829.900000
250.159000 1699981.100000
278.190300 55867956.000000

>ms2peaks
58.065100 630330.200000
70.065100 33659.400000
72.080800 58694.100000
84.080800 1403088.600000
85.088600 37028.800000
91.054200 5020638.000000
105.069900 3834079.000000
115.054200 42415.100000
117.069900 6345254.500000
119.085600 220188.700000
129.069800 483205.100000
131.085500 628162.800000
141.069800 286972.400000
143.085600 365114.700000
155.085500 1148991.000000
169.101100 1766409.900000
178.077500 344847.100000
179.085400 453047.000000
189.070900 35189.700000
191.085400 1845720.400000
192.093500 37167.500000
193.101100 249364.100000
203.085700 29439.500000
204.093200 150947.100000
205.101200 631105.100000
207.116800 210130.400000
218.109000 508038.100000
219.116800 1354191.900000
231.117000 51741.200000
233.132500 7846507.000000
247.148200 702725.500000
250.159000 10610948.000000
278.190300 28788672.000000

>ms2peaks
55.054300 46935.700000
58.065100 1115540.800000
63.022800 18338.600000
65.038600 47021.600000
67.054200 21368.200000
69.069800 52188.300000
70.065100 434859.900000
72.080700 225697.400000
77.038400 16105.700000
79.054200 95836.300000
84.080800 3546825.000000
85.088600 276332.000000
91.054300 11966387.000000
103.054300 137942.400000
105.069900 7920215.000000
115.054200 327089.300000
117.069900 11495001.000000
119.085600 232955.200000
128.062100 47699.800000
129.069900 1575747.800000
131.085600 1377224.400000
141.069900 1324332.100000
142.077800 20137.800000
143.085600 772303.800000
153.070100 60074.000000
154.077700 63974.600000
155.085600 2431874.200000
165.070000 53130.000000
167.085600 45384.800000
169.101200 2435443.200000
178.077800 1945392.900000
179.085600 1413723.200000
189.069600 42985.700000
190.077000 34620.600000
191.085600 6243271.500000
192.093500 342261.700000
193.101200 1519779.800000
202.077800 44804.900000
203.085700 427431.700000
204.093500 960306.000000
205.101300 2918748.800000
207.116900 292125.600000
216.093400 40206.200000
217.101200 76253.700000
218.109100 2561011.800000
219.116900 6921155.000000
231.116800 183291.300000
232.124500 58088.800000
233.132500 4165846.000000
247.148100 224415.500000
250.159100 8190798.000000
278.190400 2761151.800000

>ms2peaks
53.038600 33077.000000
55.054300 66789.200000
58.065100 794703.800000
65.038600 142963.500000
67.054100 29210.900000
69.070000 17149.500000
70.065100 786373.700000
71.073000 19553.500000
72.080700 268608.200000
77.038500 38253.100000
79.054200 346989.800000
84.080800 2568383.200000
85.088600 244396.700000
89.038300 17928.300000
91.054200 11820810.000000
103.054200 397211.500000
105.069900 5797113.000000
115.054200 1324162.100000
116.062100 38877.600000
117.069800 9824489.000000
119.085600 90264.900000
128.061900 294167.200000
129.069800 1901641.000000
131.085500 1458754.800000
141.069800 2284055.800000
142.077700 65709.200000
143.085500 547802.200000
152.062000 26827.700000
153.069800 262045.500000
154.077600 230701.500000
155.085500 1575816.500000
165.069900 145145.900000
166.077500 24773.400000
167.085500 67117.100000
169.101100 961202.300000
178.077700 4945402.500000
179.085500 1526045.100000
189.069700 69493.200000
190.077800 417508.200000
191.085500 9395183.000000
192.093300 513784.200000
193.101100 1306500.800000
202.077400 126545.200000
203.085500 1672883.600000
204.093300 2176872.200000
205.101100 2418903.800000
207.116700 65426.200000
215.085700 35613.300000
216.093300 110333.500000
217.101200 559485.900000
218.108900 2166488.000000
219.116800 5198181.500000
231.116900 118466.100000
232.125100 56924.500000
233.132500 423312.200000
250.159000 1236541.100000
278.190400 67154.300000

>ms2peaks
53.038600 100994.400000
55.054300 58691.800000
56.049600 32157.000000
57.057400 26399.200000
58.065100 838858.200000
63.022800 16717.100000
65.038500 474862.600000
67.054200 38028.400000
68.049400 24111.100000
69.057200 16899.300000
70.065100 957988.800000
71.073000 25223.800000
72.080700 177162.300000
77.038400 102120.200000
79.054200 995985.800000
82.065100 28938.900000
84.080800 2110305.000000
85.088600 146337.600000
89.038100 16256.200000
91.054200 13308654.000000
103.054200 942501.700000
105.069900 5038115.500000
115.054200 3548820.000000
116.062100 143927.000000
117.069900 8421659.000000
119.085500 49407.700000
127.054400 38128.400000
128.062000 1119313.500000
129.069800 2010223.400000
131.085500 1123729.900000
141.069800 2612874.800000
142.077700 77612.800000
143.085600 240630.000000
152.062200 46672.000000
153.069800 596096.800000
154.077700 415059.700000
155.085500 934088.200000
165.069900 467695.200000
166.077900 28589.200000
167.085600 70434.100000
169.101100 231031.900000
177.069500 43416.300000
178.077700 7607320.500000
179.085500 1494710.800000
189.069900 470146.000000
190.077800 1471949.100000
191.085500 12227745.000000
192.093300 566157.800000
193.101200 662028.500000
202.077600 649025.600000
203.085500 3779562.500000
204.093400 3342614.200000
205.101200 1105835.800000
215.085600 192987.100000
216.093300 162916.700000
217.101100 1462685.200000
218.108900 1150858.900000
219.116800 1417478.600000
231.116900 58140.500000
232.125300 17904.900000
233.132300 24867.700000
250.159000 96519.000000

>ms2peaks
53.038500 141237.300000
55.054200 45337.400000
56.049400 36594.200000
57.057300 35455.700000
58.065100 466892.300000
63.022900 34540.400000
65.038500 716099.600000
67.054200 26990.500000
68.049300 14570.700000
69.057200 20280.900000
70.065000 701809.100000
71.072900 11774.900000
72.080600 106207.500000
77.038500 91331.400000
79.054200 950192.900000
82.065100 21100.100000
84.080700 949659.000000
85.088600 33937.800000
89.038400 19706.100000
91.054200 10217283.000000
103.054200 862644.000000
105.069800 2036142.600000
115.054200 4174533.800000
116.062000 237970.200000
117.069800 4282439.500000
119.085300 26461.000000
127.054200 136128.800000
128.062000 1521897.600000
129.069800 1046933.900000
131.085500 482371.100000
141.069800 2093243.500000
142.077500 47785.000000
143.085200 88186.100000
152.061800 179190.000000
153.069800 440961.500000
154.077600 313288.800000
155.085400 242094.800000
165.069800 861753.700000
166.077700 27510.100000
167.085300 41910.000000
169.100900 38203.800000
177.069400 80745.100000
178.077600 7609810.000000
179.085300 739485.500000
189.069800 1471615.400000
190.077600 2259085.000000
191.085400 9812622.000000
192.093200 239280.300000
193.101200 135195.600000
202.077600 1431984.400000
203.085400 3832931.000000
204.093200 2399418.200000
205.101100 226913.000000
215.085400 318411.100000
216.093200 145009.100000
217.101100 972842.600000
218.108900 277392.900000
219.116500 205890.500000

