>compound LU03768981
>parentmass 299.2006
>ionization [M+H]+
>formula C20H26O2
>rt 1038.540000
>profile orbitrap
#smiles_iso C[C@]12CC[C@H]3[C@H]([C@@H]1CC[C@]2(C#C)O)CCC4=CC(=O)CC[C@H]34
#smiles_can CC12CCC3C(C1CCC2(C#C)O)CCC4=CC(=O)CCC34
#inchikey VIKNJXKGJWUCNN-XGXHKTLJSA-N
#pubchem_id 6230
#mb_accession LU042901,LU042902,LU042903,LU042905,LU042906

>ms2
81.069900 6091.500000
83.049000 10587.600000
93.069800 4840.800000
95.085600 5071.000000
105.069800 4026.200000
107.049100 6443.700000
107.085500 4693.200000
109.064800 29686.600000
111.080500 5113.600000
119.085400 15614.700000
131.085400 5908.800000
133.101200 8212.500000
135.080200 10821.000000
135.117000 3809.400000
137.095800 4628.000000
143.085600 6331.200000
145.101200 15754.400000
147.117000 4763.000000
149.096300 9758.900000
157.101200 7325.300000
159.116900 6880.300000
161.096000 5415.800000
161.132400 4532.000000
163.111600 5339.000000
169.101300 9240.900000
171.116600 16264.600000
173.132500 11118.300000
175.112000 5666.300000
183.116900 8153.200000
185.096200 8045.200000
185.132400 10539.100000
187.111500 8257.700000
189.127600 7267.500000
195.116800 5655.100000
197.132500 7480.800000
199.148100 7720.200000
207.116800 8074.900000
211.111800 3741.500000
211.148000 5895.900000
213.127100 3727.200000
213.163800 8592.000000
215.143200 4936.600000
221.132200 9008.000000
223.148300 20311.600000
225.127400 3986.000000
231.174300 41674.600000
235.148500 8267.800000
237.163700 3687.900000
239.179500 16428.700000
241.158800 8162.200000
253.158500 6185.400000
253.194900 3972.900000
257.190600 9788.100000
263.179500 25629.000000
281.189900 70863.100000
299.200600 3374580.800000

>ms2
55.017900 2546.700000
55.054300 4422.300000
67.054300 16663.900000
69.033400 2192.700000
69.069900 6433.700000
79.054200 23885.600000
81.069900 50287.200000
83.049200 109948.400000
91.054300 25613.700000
93.070000 45333.500000
95.049200 5889.600000
95.085600 46050.200000
97.064900 10504.000000
105.070000 56181.300000
107.049200 45322.700000
107.085600 46002.400000
109.064900 252919.500000
109.101200 23752.900000
111.080500 23925.300000
117.069900 37505.000000
119.085600 105269.100000
121.064900 17717.500000
121.101200 34078.400000
123.080500 27416.500000
123.117000 8157.600000
127.075500 7222.900000
129.069900 25608.300000
131.085600 81311.700000
133.064700 10129.800000
133.101200 50461.100000
135.080500 64243.700000
135.116800 17569.700000
137.096300 11952.300000
141.069800 10908.700000
143.085600 52418.300000
145.101300 106619.700000
147.080500 22330.400000
147.116800 28324.800000
149.096100 52213.900000
149.132600 6595.200000
151.111800 4805.700000
154.077600 2421.600000
155.085500 22075.800000
157.065100 7560.900000
157.101300 60473.400000
159.080500 24365.200000
159.116900 48816.400000
161.096200 36668.200000
161.132500 19473.100000
163.111800 42332.100000
165.070700 3496.200000
167.085400 11900.700000
169.101300 58069.700000
171.116900 112268.400000
172.124900 2877.800000
173.096200 15899.200000
173.132500 68736.800000
175.111800 34071.000000
175.147900 4912.800000
177.127600 5786.600000
179.085500 5253.900000
181.101300 30366.200000
182.109100 2828.600000
183.117000 46199.300000
184.125100 3189.600000
185.096600 28037.100000
185.132600 49459.700000
187.111800 28513.000000
187.148500 6809.000000
189.127500 24984.900000
189.163800 2643.300000
193.101300 9123.600000
194.109600 2346.700000
195.117000 25821.700000
197.096500 7189.700000
197.132800 27844.900000
198.140400 2776.000000
199.112000 16889.400000
199.148200 29470.800000
201.127600 19908.400000
201.164100 5485.400000
203.143200 8445.100000
206.109300 2644.700000
207.117200 33168.500000
208.125000 3402.200000
209.132500 16410.400000
211.112300 12521.000000
211.148300 50685.600000
213.127700 13411.700000
213.163900 65354.100000
215.143200 7872.500000
219.117600 2927.200000
221.132500 44977.200000
222.140300 7058.800000
223.148200 75412.400000
225.127400 15517.400000
225.163900 8202.800000
227.143100 8860.800000
229.158900 14282.000000
231.174500 228208.000000
233.131700 2297.400000
234.140100 5939.300000
235.148400 26573.600000
237.164200 18687.600000
239.143100 10583.200000
239.179700 33857.900000
241.159100 14670.800000
248.156200 6917.100000
253.158900 20976.300000
253.195000 12572.000000
257.189900 12997.100000
263.179600 70657.200000
266.166300 5880.000000
281.190100 139218.500000
299.200700 1023856.400000

>ms2
53.038600 3433.000000
55.017800 13383.200000
55.054200 18865.800000
65.038500 2875.000000
67.054200 46621.100000
69.069800 16143.300000
71.049000 6053.400000
77.038700 2434.700000
79.054200 83524.400000
81.033400 9789.800000
81.069900 119616.700000
83.049100 245343.000000
91.054200 103392.200000
93.069900 104350.800000
95.049300 17306.100000
95.085500 78675.900000
97.064800 24920.800000
103.054300 7832.200000
105.069900 139464.500000
107.049200 89360.600000
107.085500 76690.500000
109.064800 563687.100000
109.101200 49443.100000
111.080400 21253.600000
115.054200 12532.100000
116.062200 5623.400000
117.069900 101678.300000
119.085600 198113.900000
121.064700 22678.500000
121.101200 64065.500000
123.080400 40029.800000
123.116900 16911.400000
127.075400 4706.200000
128.062100 14383.900000
129.069900 74974.200000
130.077900 12690.000000
131.085600 153894.800000
133.064700 17318.700000
133.101200 64137.600000
135.080400 118723.300000
135.116800 23071.600000
137.096200 12518.900000
141.069900 23483.000000
142.077700 12899.300000
143.085600 114070.200000
144.093500 7262.600000
145.064800 9830.400000
145.101200 164027.600000
147.080500 24414.000000
147.116800 34998.300000
149.096100 59161.900000
149.132600 6818.700000
151.111800 2982.900000
153.070000 4422.900000
154.077700 6489.300000
155.085500 40622.000000
156.093400 12718.600000
157.064800 7707.100000
157.101200 90556.400000
158.109500 4537.600000
159.080500 23996.000000
159.116900 53096.400000
161.096000 48083.900000
161.132600 36198.600000
163.111700 43529.400000
165.069700 5066.300000
166.078100 5659.100000
167.085500 24483.400000
168.093300 8798.600000
169.101300 60043.900000
170.109200 6045.200000
171.116800 124035.400000
172.125100 3114.800000
173.096100 14364.000000
173.132500 49509.100000
175.111900 30164.900000
175.148200 4189.800000
177.127600 4047.000000
179.085300 15834.700000
180.093500 6371.500000
181.101300 38463.600000
182.109200 3849.300000
183.116800 42938.400000
184.125300 3255.800000
185.096200 13879.200000
185.132500 52683.400000
187.111900 14083.500000
187.148100 12730.100000
189.127300 13114.200000
189.163600 3033.200000
191.085500 2251.500000
192.093500 5617.300000
193.101400 17507.300000
194.109100 5511.900000
195.116900 31771.900000
197.096200 4367.900000
197.132500 32339.300000
198.140900 2674.200000
199.111900 11639.300000
199.148200 13222.400000
201.127600 13379.900000
201.163900 4088.100000
203.143600 4064.200000
205.101200 3759.200000
206.109200 6917.800000
207.116900 22192.100000
208.124700 6341.200000
209.132500 12135.000000
211.112200 8297.300000
211.148300 37502.300000
213.127700 4658.100000
213.163700 73401.200000
215.143400 5217.600000
219.117100 5436.800000
221.132600 24184.000000
222.140400 7209.600000
223.148100 35926.600000
225.127900 11731.200000
225.163700 3634.800000
227.143200 4949.300000
229.158800 4827.900000
231.174400 123362.000000
233.132700 4857.400000
234.140700 3269.800000
235.148700 13849.600000
237.164000 10263.500000
239.142900 6517.600000
239.179400 12073.800000
241.158500 5864.800000
248.156300 4372.200000
253.158800 7862.600000
253.195500 2615.600000
257.190200 2958.800000
263.179300 17830.900000
266.166800 3607.800000
281.190200 26245.000000
299.200600 52356.000000

>ms2
51.023000 2646.500000
53.002300 7431.300000
53.038600 33453.700000
55.017900 29557.300000
55.054300 62322.400000
57.033600 2594.900000
65.038600 27052.300000
66.046500 3453.800000
67.054200 118421.400000
69.033500 4634.400000
69.069900 15405.500000
71.049100 3097.800000
77.038700 7246.100000
79.054200 300234.800000
81.033500 13477.200000
81.069900 211740.900000
83.049200 275201.800000
91.054300 378111.800000
92.061900 2565.900000
93.070000 142145.100000
94.041500 6725.100000
95.049200 66438.400000
95.085600 47793.600000
97.064800 11387.300000
103.054300 36433.200000
104.062100 6258.000000
105.069900 213365.600000
107.049200 87657.700000
107.085600 41903.600000
109.064900 407919.900000
109.101200 30821.100000
111.080700 4829.600000
115.054300 80324.900000
116.062100 27995.400000
117.069900 123210.700000
118.077600 3563.600000
119.085600 110508.400000
121.064800 12580.900000
121.101200 27199.100000
123.080500 23248.800000
123.117000 3429.400000
128.062100 94370.800000
129.069900 99411.800000
130.077900 28737.900000
131.085600 92954.600000
133.064900 17587.400000
133.101200 26061.900000
135.080500 54968.700000
135.117000 4550.500000
141.069900 51222.800000
142.077700 50163.900000
143.085600 68152.600000
144.057100 2617.600000
144.093400 10647.100000
145.065000 13265.600000
145.101300 48832.600000
146.072800 3107.200000
147.080500 10324.300000
147.116900 4613.000000
149.096100 16787.600000
152.062300 5120.600000
153.069900 19151.600000
154.077700 15424.200000
155.085600 41725.900000
156.093400 26563.200000
157.065200 2540.400000
157.101300 30250.900000
158.108900 3687.000000
159.080300 9842.600000
159.116700 9394.100000
161.096100 18889.700000
161.132500 8227.900000
163.111600 5706.800000
165.070100 24939.100000
166.077900 13910.100000
167.085700 25559.500000
168.093300 9601.600000
169.101400 19848.100000
170.108900 3840.900000
171.117000 16864.700000
173.132600 6821.000000
175.111800 6044.500000
178.078000 10134.800000
179.085600 14566.200000
180.093600 6068.900000
181.101000 14043.100000
182.108900 3129.600000
183.116800 11028.700000
185.132200 3817.500000
187.112000 3070.000000
187.149400 2130.700000
191.085400 6952.900000
192.093100 6200.300000
193.101200 8107.200000
195.117100 3024.800000
197.095100 2211.900000
205.101100 5665.200000
206.108800 2712.000000
207.116700 4975.400000
209.132700 3314.900000
213.163700 2747.300000

>ms2
51.023000 4338.400000
53.002200 9440.800000
53.038600 47261.400000
55.017900 25212.500000
55.054300 61701.400000
57.033500 2001.700000
65.038500 40458.100000
66.046200 2445.900000
67.054200 84511.300000
69.033400 5476.300000
69.069800 6866.000000
77.038500 7258.700000
79.054200 252870.700000
81.033500 9419.900000
81.069900 154658.000000
83.049100 150245.700000
91.054300 342019.800000
92.062200 3217.200000
93.069900 59213.300000
94.041300 6230.800000
95.049200 79983.600000
95.085500 19489.400000
97.064900 4379.800000
103.054300 36769.900000
104.062000 9015.900000
105.069900 125441.700000
107.049200 54657.000000
107.085500 17822.500000
109.064800 166245.100000
115.054200 83168.200000
116.062100 26019.900000
117.069900 69439.200000
118.077800 2442.900000
119.085600 38380.100000
121.064700 6406.700000
121.101200 4280.500000
123.080700 6791.900000
128.062100 95130.800000
129.069900 73581.900000
130.077700 15966.700000
131.085600 29796.900000
133.064900 8291.300000
133.101300 7466.400000
135.080300 13418.600000
141.069900 48378.800000
142.077800 30543.600000
143.085600 23410.700000
144.057000 4648.200000
144.093500 2721.900000
145.064800 9484.300000
145.101200 10161.900000
146.072600 2928.800000
147.080600 5535.000000
149.095800 2906.200000
152.062300 8479.000000
153.070000 21557.100000
154.078000 11709.600000
155.085400 18518.800000
156.093600 7101.000000
157.101500 7655.800000
159.080900 2260.900000
161.096400 6759.400000
165.070000 22801.400000
166.077700 4976.300000
167.085900 10880.000000
168.093600 3038.200000
169.101200 6199.600000
170.108800 1959.900000
171.116700 3452.000000
178.077900 9629.500000
179.085500 9131.300000
180.094400 2471.900000
181.101100 4915.400000
191.085700 4767.000000
192.093500 3798.400000
193.101700 4687.900000
197.097600 1999.700000
205.101300 3223.600000
207.117500 2520.000000

