>compound LU03811806
>parentmass 346.09290000000004
>ionization [M+H]+
>formula C15H15ClF3N3O
>rt 1142.080000
>profile orbitrap
#smiles_iso CCCOCC(=NC1=C(C=C(C=C1)Cl)C(F)(F)F)N2C=CN=C2
#smiles_can CCCOCC(=NC1=C(C=C(C=C1)Cl)C(F)(F)F)N2C=CN=C2
#inchikey HSMVPDGQOIQYSR-UHFFFAOYSA-N
#pubchem_id 91699
#mb_accession LU108801,LU108802,LU108803,LU108804,LU108805,LU108806

>ms2peaks
69.044700 8756.900000
73.064800 10628.600000
278.055600 159400.600000

>ms2peaks
53.002300 4972.900000
55.054300 18440.500000
69.044700 7448.500000
73.064800 21227.500000
278.056100 7770.400000

>ms2peaks
53.002300 6319.800000
55.054300 5489.900000
69.044700 6493.300000

>ms2peaks
53.002300 6243.800000
55.054300 3767.800000
69.044800 4379.400000

>ms2peaks
55.054200 3385.500000
69.044800 6740.000000

>ms2peaks
69.044700 7124.900000

