>compound LU03948038
>parentmass 403.2326
>ionization [M+H]+
>formula C20H34O8
>rt 1181.880000
>profile orbitrap
#smiles_iso CCCCOC(=O)CC(CC(=O)OCCCC)(C(=O)OCCCC)OC(=O)C
#smiles_can CCCCOC(=O)CC(CC(=O)OCCCC)(C(=O)OCCCC)OC(=O)C
#inchikey QZCLKYGREBVARF-UHFFFAOYSA-N
#pubchem_id 6505
#mb_accession LU052301,LU052302,LU052303,LU052304,LU052305,LU052306

>ms2
129.018400 8436.800000
157.013100 36540.300000
185.080900 40052.200000
217.034400 36630.900000

>ms2
57.069900 5249.900000
61.028500 5526.800000
129.018300 110172.900000
139.002500 17089.800000
157.013400 57715.600000
171.029000 3649.000000
185.081000 92134.300000
194.096400 2046.400000
196.112300 2844.700000
208.112300 5096.200000
217.034200 3300.200000

>ms2
57.069900 10297.900000
61.028400 5907.000000
68.997200 5199.800000
111.007800 5500.200000
129.018300 169050.100000
139.002600 38714.100000
157.013300 24573.800000
171.029000 4190.800000
185.080800 12088.400000
196.111500 1980.400000
208.112300 4561.900000

>ms2
57.069900 17714.100000
61.028400 3417.000000
68.997100 34287.400000
87.007700 4010.600000
111.007700 17587.000000
125.023900 1858.000000
129.018300 99523.100000
139.002800 28475.100000
157.013300 6456.000000
194.096200 2431.500000

>ms2
57.069900 9938.400000
68.997100 71852.600000
87.007700 8252.000000
111.007800 21195.200000
125.023400 2065.500000
129.018400 27362.100000
139.002800 12234.800000
208.113000 2250.500000

>ms2
57.070000 9060.400000
68.997100 134148.900000
87.007700 6139.400000
111.007700 12621.100000
125.023200 1711.200000
129.018200 8113.300000
139.002900 2163.100000

