>compound LU03906429
>parentmass 384.14170000000007
>ionization [M+H]+
>formula C19H20F3NO4
>rt 1156.560000
>profile orbitrap
#smiles_iso CCCCOC(=O)[C@@H](C)OC1=CC=C(C=C1)OC2=NC=C(C=C2)C(F)(F)F
#smiles_can CCCCOC(=O)C(C)OC1=CC=C(C=C1)OC2=NC=C(C=C2)C(F)(F)F
#inchikey VAIZTNZGPYBOGF-CYBMUJFWSA-N
#pubchem_id 3033674
#mb_accession LU021501,LU021502,LU021503,LU021504,LU021505,LU021506

>ms2
57.069900 22338.800000
255.050500 13998.200000
256.058200 13554.000000
282.073600 3295511.500000
310.068600 43253.700000
328.079100 4069538.000000
338.135900 17095.300000
384.141700 12332875.000000

>ms2
57.069900 380580.400000
73.028300 14142.300000
91.054300 980228.500000
119.049200 324042.800000
121.028500 62890.500000
146.022200 20858.100000
164.031600 49221.000000
226.084000 14078.900000
238.047300 128355.900000
254.044000 77655.700000
254.078800 1299897.800000
255.050200 690324.300000
256.058000 450088.200000
264.063900 27090.400000
282.073600 13661294.000000
310.069000 71316.200000
328.079200 4867517.500000
338.137000 32261.700000
384.141900 283451.600000

>ms2
53.002200 37959.900000
53.997400 7440.400000
55.017800 29802.000000
55.054300 7276.500000
57.069900 588937.600000
65.038500 173346.900000
69.033500 7553.700000
73.028300 47848.500000
91.054200 6383550.000000
93.033500 71241.800000
94.041400 10470.600000
107.049200 11140.500000
109.028500 7231.000000
109.064700 52599.500000
111.044100 100020.600000
118.065100 31021.200000
119.049200 1170301.500000
120.057100 23843.300000
121.028400 298454.600000
121.064700 35946.700000
125.059700 14034.300000
135.043900 8630.500000
137.059600 10430.200000
144.025700 10344.300000
146.022000 14955.800000
147.029200 7566.500000
147.044000 12819.300000
148.036700 10218.800000
149.021100 11847.400000
157.088800 8292.700000
162.052800 12466.700000
163.024000 12502.500000
164.031700 283435.200000
167.072800 23114.000000
172.037300 9158.900000
176.031700 12696.500000
178.047200 6430.200000
179.018700 62883.700000
186.052500 44442.100000
186.071400 6728.800000
198.053000 31508.700000
200.031700 12635.400000
206.077400 8876.900000
211.060800 13677.700000
212.068500 21891.800000
213.078600 123601.900000
214.047400 45015.500000
216.062100 7137.200000
218.040800 7727.400000
222.053600 8081.600000
226.047800 22424.500000
226.083700 173472.600000
227.055200 411411.100000
228.063300 14346.100000
234.072700 21122.000000
235.059900 7072.500000
236.068100 115759.100000
238.047400 1685580.900000
239.055400 38927.500000
240.063100 53996.100000
253.034300 25406.700000
253.070700 7489.900000
254.042900 975353.100000
254.078600 3270198.000000
255.050100 1113078.800000
256.057900 947479.200000
262.067800 13467.800000
264.062900 130510.000000
267.050300 29633.200000
268.058600 17626.200000
282.073600 5421008.000000
310.068300 15023.800000
328.079000 210313.200000

>ms2
53.002200 74751.600000
53.038700 8352.600000
53.997500 9979.800000
55.017900 52047.300000
55.054300 10031.400000
57.069900 369575.800000
63.023100 6313.500000
64.030700 6711.300000
65.038600 840377.900000
67.054200 9577.900000
73.028400 48410.300000
75.022900 13386.300000
79.054200 8225.600000
81.033600 9661.000000
89.038400 8709.600000
91.054200 6198610.000000
92.025700 14859.900000
92.062100 21516.100000
93.033500 119586.800000
93.070000 17345.800000
94.041300 32491.300000
95.049100 23100.800000
103.054300 18054.700000
107.049100 21003.200000
108.057000 7634.800000
109.028500 15919.400000
109.064900 90484.100000
111.044100 186035.800000
117.057200 9366.500000
118.065300 40777.200000
119.049200 530954.200000
119.059900 49743.300000
120.044400 10791.400000
120.057000 52857.300000
121.028400 180452.800000
121.064800 37210.800000
125.059800 16895.800000
131.049400 9135.600000
135.029700 6260.300000
135.043800 9347.800000
136.051900 12800.000000
137.059700 10123.500000
141.057300 96210.900000
144.025600 20661.000000
146.021700 11106.400000
146.059800 9838.800000
147.029300 16455.300000
148.036700 37082.600000
149.020800 7951.200000
157.088600 18432.100000
158.060000 35763.300000
161.044700 10675.800000
162.052500 10687.400000
163.023700 28832.400000
164.031800 539768.800000
167.072900 78302.400000
168.044700 12148.300000
169.051900 28234.800000
170.060300 8048.100000
172.036500 19024.800000
176.031700 20034.400000
178.047300 21183.900000
179.018800 242413.200000
180.038000 12220.300000
184.076000 8163.100000
185.044600 32912.200000
185.083800 14006.500000
186.052600 77954.400000
186.071300 28401.900000
188.032000 9857.200000
188.050600 27718.700000
190.046100 46954.000000
194.059900 8003.000000
196.056000 6917.500000
198.052800 132949.200000
199.060500 12776.700000
200.031900 17394.300000
200.043700 7302.000000
201.040800 20731.400000
206.077600 12913.600000
207.049000 14984.500000
208.056800 11298.500000
209.044400 6794.400000
210.052400 41899.400000
211.060400 99250.300000
212.069000 48982.400000
213.078400 69858.600000
214.047700 29242.600000
214.065800 26194.900000
216.045700 7746.800000
216.061700 25510.500000
218.041300 176716.500000
222.052700 10690.500000
224.068300 7020.900000
226.047600 56101.300000
226.083800 126199.400000
227.055200 939144.000000
228.063500 19165.400000
234.072600 13837.100000
235.060700 47151.600000
236.068100 123931.800000
238.047400 2989809.500000
239.054800 28897.900000
240.063300 41161.700000
252.063600 7413.000000
253.035300 11964.300000
253.070500 8280.200000
254.042400 1207918.000000
254.078600 766299.800000
255.050100 199256.500000
256.057900 391515.800000
262.067100 9507.100000
264.062900 56785.100000
267.049700 28666.200000
268.058300 9571.500000
282.073600 448676.600000

>ms2
53.002200 107243.000000
53.038700 20245.800000
53.997400 19330.700000
55.017800 72591.800000
55.054300 13416.000000
57.069900 187320.100000
63.022900 33080.000000
64.030700 9371.400000
65.038600 1841157.600000
66.046300 7330.700000
67.054200 9476.700000
68.997000 7868.400000
69.033500 7090.800000
73.028300 37536.800000
75.004100 12844.000000
75.022900 88252.600000
77.038500 16565.800000
78.033900 8165.700000
79.054200 18071.400000
81.033400 17237.900000
89.038500 11437.300000
90.046400 14280.300000
91.054200 5051014.000000
92.025600 67117.800000
92.062100 26992.200000
93.033600 78995.600000
93.069800 18451.800000
94.028500 5645.800000
94.041400 69449.100000
95.049100 59001.400000
99.004200 14827.000000
103.022900 10694.000000
103.054300 32241.300000
104.013100 44833.300000
105.044700 22751.900000
105.069700 6319.900000
107.010400 6492.100000
107.049200 35569.700000
108.056900 8735.400000
109.028500 32912.600000
109.064900 44249.600000
110.036300 25565.600000
111.044100 134680.700000
115.054100 11418.800000
116.030300 6272.700000
117.014700 7426.100000
117.057200 36153.900000
118.065300 21853.100000
119.049200 177497.800000
119.060000 26225.800000
120.044300 20428.300000
120.057000 32787.700000
121.028500 101199.200000
121.064700 35157.700000
124.019200 23069.900000
125.059800 13311.700000
126.015100 8473.100000
127.022600 15021.200000
128.006800 6924.500000
130.065200 48538.500000
131.049200 135134.000000
133.044800 25903.100000
133.052300 17888.600000
134.060000 12693.300000
135.029100 10402.100000
135.044000 7554.000000
136.013100 7560.800000
136.052000 10562.200000
137.059900 5288.200000
140.030200 7036.500000
140.049500 47202.300000
141.057300 617374.600000
142.041600 8755.900000
142.065300 12342.400000
144.025300 25643.100000
145.033300 16986.400000
146.021200 92811.100000
146.059700 6052.900000
147.029000 31170.200000
147.034900 6994.000000
148.036800 54289.500000
150.047700 6038.800000
151.035200 7569.100000
152.043000 20618.300000
156.081000 12322.700000
157.052100 5137.000000
157.088600 28212.300000
158.060100 192813.600000
159.047900 15291.700000
159.060400 7020.500000
159.067500 7748.100000
160.055900 14934.600000
161.044900 22197.300000
162.052900 5823.400000
163.024000 54671.100000
163.035200 13478.800000
164.031800 1030068.800000
166.065200 12594.400000
167.073000 97767.800000
168.044400 132840.300000
169.052200 95265.100000
170.040000 22532.200000
170.060100 21168.800000
172.036400 24074.400000
173.051700 5536.500000
176.031800 12784.300000
177.058600 11813.100000
178.047200 40635.300000
179.018900 441565.600000
180.038200 63978.200000
181.046000 25057.600000
182.033600 6755.200000
182.041500 7800.800000
183.041600 30254.900000
184.075500 16898.800000
185.044800 70305.600000
185.063800 5267.100000
185.083500 8542.900000
186.053800 46571.700000
186.071100 23814.100000
187.042700 16210.300000
188.031500 8015.100000
188.050700 122836.300000
189.038500 8664.100000
190.046300 295359.200000
191.041600 26358.200000
194.060000 5983.500000
196.056000 12396.300000
197.044400 8531.700000
198.035200 15034.800000
198.052800 204826.200000
199.036300 9695.900000
199.060300 30090.000000
200.031600 17832.700000
201.041800 64526.200000
202.047100 30936.400000
206.041600 14948.600000
206.077600 5509.200000
207.049200 52986.800000
208.056800 38990.500000
209.044800 88033.700000
210.052500 115358.100000
211.060300 128786.600000
212.031500 5345.600000
212.069600 38780.600000
213.078200 7695.300000
214.047400 12053.100000
214.066400 17105.500000
216.045600 10569.700000
216.061900 29685.600000
218.041200 599487.300000
222.052400 10245.600000
224.067400 9697.100000
225.040000 5399.700000
226.047300 96664.500000
226.083800 36903.700000
227.055300 789212.800000
228.064000 8782.400000
234.036000 7793.400000
234.072500 7160.400000
235.060200 74743.200000
236.032200 5894.900000
236.068100 44334.000000
237.040200 11122.500000
238.047400 2191697.200000
239.055100 14342.900000
240.062800 13372.800000
254.042300 1178736.100000
255.049600 12753.500000
256.057900 74856.500000
264.062800 26811.300000
267.049700 14183.100000
269.029700 8454.500000

>ms2
51.023000 4542.200000
53.002200 132886.500000
53.038700 34140.900000
53.997500 17452.800000
55.017800 65415.700000
55.054300 15439.200000
57.069900 81208.200000
62.015100 9753.100000
63.022900 117572.900000
64.030700 38099.200000
65.038600 2370390.500000
66.046400 16105.500000
67.054300 8029.000000
68.997100 5866.900000
73.028400 17020.000000
75.004100 83297.400000
75.022900 193010.200000
77.038600 19960.500000
78.033900 29767.500000
79.054200 26956.300000
81.033500 50713.800000
89.038600 18120.500000
90.046400 29544.900000
91.054300 2791002.200000
92.025700 93970.600000
92.062100 18322.200000
93.033600 20084.400000
93.070000 11032.200000
94.028600 6555.600000
94.041400 79779.900000
95.049200 88704.300000
96.044400 9155.700000
99.004100 50244.800000
103.022900 8720.800000
103.054200 69843.800000
104.013100 143630.700000
105.044700 30639.500000
105.069900 6009.500000
107.010400 11075.300000
107.049200 29494.300000
109.028400 29160.400000
109.064900 8550.900000
110.036200 37583.700000
111.044100 51053.100000
114.035100 15612.300000
115.054400 28393.200000
116.030700 15495.900000
117.014700 7959.900000
117.057200 46099.900000
118.065000 13315.800000
119.049300 38078.900000
120.044400 34825.200000
120.056900 11417.500000
121.028600 53028.400000
121.064800 15213.900000
124.019500 55574.100000
126.015000 65349.100000
127.022800 57248.100000
128.007000 11842.800000
130.065200 145717.400000
131.049200 351920.000000
133.044800 75974.500000
133.052100 22719.700000
134.059900 9760.200000
135.029100 13614.700000
136.013000 6876.400000
139.035400 11481.200000
140.030800 12893.500000
140.049500 120482.600000
141.057300 971592.600000
142.041300 27857.200000
142.064900 19469.200000
143.029300 19844.400000
143.072700 8062.500000
144.025500 29610.500000
145.033400 63881.200000
146.021300 187210.600000
146.060300 9710.500000
147.029300 49192.500000
147.035400 9291.700000
148.037000 45825.200000
150.047400 5769.000000
151.035400 36022.000000
152.043200 37241.300000
156.080700 16927.400000
157.052200 18520.700000
157.088500 14253.000000
158.060100 228472.500000
159.048000 34414.200000
159.060400 7317.700000
159.067500 5651.100000
160.055800 20366.100000
161.045000 19081.300000
163.024100 42852.200000
163.035500 26312.300000
164.031800 1113037.500000
166.065400 29637.300000
167.073000 78299.700000
168.044400 248038.200000
169.052200 102321.000000
170.040200 40720.600000
170.060100 15290.300000
172.036900 31094.200000
173.051400 5918.300000
176.031800 6410.200000
177.058400 19966.400000
178.047200 74397.700000
179.018900 380847.200000
180.038200 107695.200000
181.045800 35373.600000
182.033600 18730.100000
182.041500 19618.100000
183.041800 27440.400000
184.037200 21111.800000
184.075800 13259.300000
185.045000 103633.000000
185.063600 9236.500000
186.054700 46334.000000
186.071000 8789.700000
187.043100 25432.100000
188.050800 161849.600000
189.038300 33995.000000
190.046300 306720.500000
191.041600 57174.100000
194.059500 4990.600000
196.056200 14620.100000
197.045000 5289.500000
198.035100 20026.700000
198.052800 221144.600000
199.036500 14381.800000
199.060300 15704.400000
200.031700 16011.400000
200.043500 9437.500000
201.041900 75708.700000
202.047700 46328.700000
206.041300 24341.000000
207.049300 45297.900000
208.056900 34890.600000
209.044700 179435.200000
210.052500 81906.700000
211.060300 73281.000000
212.031600 8831.900000
212.069800 12449.500000
216.062000 14949.500000
218.041300 355926.700000
222.052300 10325.200000
224.067800 6043.900000
225.039800 10184.600000
226.047500 110447.400000
227.055300 202554.900000
234.035900 41722.400000
235.060400 49699.400000
236.031800 17286.400000
236.068100 11317.600000
237.039900 10321.800000
238.047500 649365.900000
254.042400 670280.600000
256.058500 9901.600000
269.029300 10816.100000

