>compound LU03485860
>parentmass 422.20740000000006
>ionization [M+H]+
>formula C24H27N3O4
>rt 1207.920000
>profile orbitrap
#smiles_iso CC1=NN(C(=C1C=NOCC2=CC=C(C=C2)C(=O)OC(C)(C)C)OC3=CC=CC=C3)C
#smiles_can CC1=NN(C(=C1C=NOCC2=CC=C(C=C2)C(=O)OC(C)(C)C)OC3=CC=CC=C3)C
#inchikey YYJNOYZRYGDPNH-UHFFFAOYSA-N
#pubchem_id 107760
#mb_accession LU025401,LU025402,LU025403,LU025404,LU025405,LU025406

>ms2
57.069900 50394.100000
135.045000 17413.800000
214.097500 501602.200000
215.105400 129871.500000
216.112900 17829.000000
231.100400 34751.200000
366.144900 13795916.000000
422.207700 2165547.800000

>ms2
57.069900 195495.700000
68.036800 9968.000000
69.044600 13689.500000
71.060300 17259.200000
81.044600 15789.900000
82.028700 29264.800000
91.054200 13191.900000
92.049500 16200.200000
93.057300 44388.500000
94.041300 13567.800000
95.060500 9444.500000
96.068200 131209.400000
97.039700 14832.700000
104.049400 33683.600000
106.065200 15894.800000
107.049100 11302.000000
109.039700 12007.400000
110.047300 7373.600000
110.071200 10392.200000
111.055300 14145.000000
112.063100 13158.600000
113.070900 69938.300000
117.057200 21768.500000
118.065100 16641.200000
120.044500 11331.200000
121.076000 11318.400000
122.071300 119325.900000
123.055300 49784.900000
124.050800 18243.700000
130.065000 30313.200000
131.072800 8831.300000
132.044400 37063.700000
132.068200 8522.800000
133.028400 39453.100000
135.044000 505362.700000
137.058200 27090.600000
138.066200 1033954.500000
139.050000 11760.900000
139.074000 20915.700000
142.052700 9605.900000
143.073000 13816.400000
144.044400 45404.700000
144.080600 9979.400000
145.076000 57362.700000
146.060100 21395.900000
146.083900 38434.500000
155.049100 44250.700000
155.060400 21437.500000
155.068900 14610.800000
157.060700 71284.800000
157.076000 64573.800000
158.083900 69244.300000
159.067800 153922.300000
159.091700 15681.000000
169.075900 14806.600000
170.060100 55767.200000
170.083500 7481.100000
171.067700 19738.900000
171.091500 12939.900000
172.063000 10449.400000
172.086800 7829.500000
173.071000 134948.700000
174.078800 49744.300000
184.063000 8178.000000
185.070900 30006.100000
186.055000 46366.100000
186.079000 11787.600000
186.102500 89149.300000
187.062600 24253.600000
187.086700 13071.300000
187.110300 55576.300000
189.102100 60815.200000
191.081700 9947.600000
197.071100 8611.400000
198.078900 43300.900000
199.074200 36597.000000
199.086600 113885.100000
200.082000 38742.500000
200.094500 11303.800000
201.066200 8392.700000
201.102200 9834.000000
202.097600 121775.400000
203.105500 29301.900000
212.082100 8268.900000
213.089900 17840.000000
214.097500 1055802.800000
215.105300 1937029.500000
216.077000 9747.700000
216.113100 90051.500000
230.092600 60551.300000
231.100300 1761668.500000
256.108000 11169.300000
273.110900 25741.900000
335.139000 82116.600000
348.134500 60237.100000
366.144900 7224461.000000
422.207600 8306.400000

>ms2
53.038600 5266.900000
54.033800 42624.200000
55.017900 4468.300000
55.041700 25085.300000
56.049500 27248.900000
57.069900 147611.700000
58.028700 13840.200000
59.060500 3995.800000
65.038500 22424.800000
66.033800 12732.300000
66.046300 5652.600000
67.017800 4412.200000
67.028900 3675.000000
67.041700 6607.000000
68.013100 7534.200000
68.036900 58256.400000
68.049500 24219.800000
69.044700 109767.100000
69.057200 6787.400000
70.028700 8929.600000
71.060300 72726.700000
74.096300 4140.700000
77.038700 18431.500000
79.028900 3551.300000
79.041600 4267.000000
79.054200 14936.600000
80.013100 5055.400000
80.049400 11380.200000
81.044700 293547.700000
82.028700 356201.800000
82.052500 31406.000000
83.060300 48618.400000
84.044400 22260.000000
90.046400 3107.500000
91.041600 60583.400000
91.054200 67785.000000
92.049500 65317.100000
92.062100 5318.500000
93.044700 12527.200000
93.057300 185894.800000
94.028800 22802.500000
94.041300 75930.000000
95.049100 23640.000000
95.060300 147351.800000
96.068200 595674.600000
97.039600 98116.400000
99.055300 42885.400000
103.054100 11537.600000
104.049500 138538.300000
105.033500 12063.300000
105.044700 12864.300000
105.057400 13296.800000
105.069700 4854.100000
106.065100 108648.300000
107.024000 30812.500000
107.049100 194950.200000
107.073100 23162.300000
108.044200 10021.300000
108.055600 18788.900000
109.039600 84157.300000
109.052200 12099.100000
110.023600 9965.400000
110.047600 31248.900000
110.071200 142406.300000
111.044000 11980.900000
111.055300 117146.800000
112.063100 28828.700000
113.070900 113860.000000
115.054400 14702.400000
116.049500 23485.500000
117.057300 197042.300000
118.041300 13810.800000
118.065100 96827.800000
119.060200 7633.500000
119.072800 7276.500000
120.044400 19540.500000
120.055700 13249.000000
120.080800 9176.600000
121.039500 9183.500000
121.063400 18759.500000
121.076000 94227.400000
122.071200 511896.400000
123.055200 278681.900000
124.050500 65370.400000
125.059800 4310.900000
125.070800 10001.400000
127.050100 32406.600000
127.054600 4892.900000
128.049500 10482.400000
128.057800 4298.500000
129.057200 40123.600000
130.065100 215369.500000
131.049400 5649.200000
131.060400 23626.700000
131.073000 54127.900000
132.044500 81846.600000
132.068200 76302.000000
132.080800 10671.500000
133.028400 35232.700000
133.051800 14747.700000
133.076000 11537.300000
134.059800 18621.700000
135.044000 1259397.900000
136.050600 25292.900000
137.058300 53629.300000
138.066200 2910603.000000
139.050200 54450.900000
139.074000 11172.200000
141.057200 34582.000000
141.065300 6609.200000
142.052500 22341.300000
142.065200 53903.500000
143.036500 21204.800000
143.060400 62215.500000
143.072900 51121.100000
144.044400 312891.500000
144.068400 22912.100000
144.080700 86889.200000
145.052000 25247.200000
145.064900 30337.900000
145.076000 298389.600000
146.060100 81390.100000
146.083800 117598.900000
147.091500 5199.500000
148.075600 6437.300000
149.070800 7766.900000
154.060500 6555.900000
155.049100 164830.800000
155.060300 110532.200000
155.068600 19145.300000
156.044800 4694.500000
156.068300 29497.300000
156.080600 5889.700000
157.052600 33027.900000
157.060700 270040.100000
157.076000 161353.800000
158.059900 34878.700000
158.083900 376435.700000
159.067800 506212.700000
159.091700 66732.800000
160.039600 17950.400000
160.075600 22078.400000
160.086700 4004.000000
161.047200 5056.100000
161.070900 11429.500000
161.107800 5056.800000
162.055100 7887.000000
163.086400 15741.800000
165.065800 12120.700000
169.076000 71722.000000
170.060100 178677.600000
170.083700 23392.500000
171.055400 42154.500000
171.068400 23874.900000
171.078100 10580.300000
171.091700 67612.400000
172.063300 26508.100000
172.075600 22801.900000
172.086700 35860.800000
173.070900 264387.400000
174.054700 9444.800000
174.078800 89036.300000
174.102400 39513.600000
175.062400 5535.400000
175.086500 8958.700000
177.042000 23498.200000
183.055500 17344.900000
184.063300 18797.700000
184.074500 3285.500000
184.086800 7267.500000
185.071000 80919.900000
186.054900 57530.100000
186.078600 16079.500000
186.102600 314898.900000
187.050000 7695.500000
187.062500 18892.500000
187.086500 62835.900000
187.110400 95103.100000
188.070600 13326.600000
188.081800 27780.600000
188.093900 18956.100000
189.092000 5769.100000
189.102300 86204.300000
191.081500 21807.000000
196.086100 5761.700000
197.071000 48169.200000
198.078700 112344.100000
198.102400 20020.000000
199.074100 56403.700000
199.086500 187607.900000
200.081800 189927.000000
200.093600 15948.300000
201.065900 8070.700000
201.102100 61469.100000
202.097400 317988.600000
203.081300 10830.000000
203.105400 18205.700000
204.066100 4891.100000
212.082200 18090.800000
213.089500 14995.600000
214.097400 1606829.200000
215.105300 972510.200000
216.077200 16512.300000
216.112800 24300.200000
230.092300 94002.500000
231.100200 533218.800000
232.107900 8347.700000
242.104700 11416.600000
256.107700 14632.800000
273.110300 4970.100000
335.138300 15615.000000
348.133500 4867.700000
366.144900 273562.200000

>ms2
52.018300 7035.300000
53.038600 34012.800000
54.033800 123577.600000
55.017800 12520.900000
55.041600 64169.800000
55.054200 4943.500000
56.049500 61244.800000
57.044700 21471.100000
57.069900 89127.300000
58.028700 29009.500000
63.023000 4581.400000
64.030800 6674.500000
65.038500 70225.400000
66.033800 58452.400000
66.046400 17413.900000
67.017700 23656.600000
67.029000 9391.200000
67.041600 25263.300000
68.013100 25570.600000
68.036900 43443.900000
68.049400 87315.700000
69.044700 170532.300000
69.057300 18256.600000
70.028700 20122.700000
71.060300 258500.700000
77.038600 20148.900000
78.046400 13677.400000
79.029100 25709.100000
79.041700 11051.700000
79.054200 65972.000000
80.013000 21469.400000
80.036800 5210.700000
80.049400 28461.300000
81.044700 665553.900000
82.028700 557728.000000
82.052500 62169.400000
83.060300 111835.800000
84.044400 59799.200000
89.038700 12921.900000
90.046400 16114.100000
91.041600 147940.400000
91.054200 132198.400000
92.049500 87454.900000
92.062100 6191.300000
93.044700 39998.700000
93.057300 205129.200000
94.028800 42196.400000
94.041300 93764.600000
94.052300 7167.000000
94.065300 12173.100000
95.049200 104135.900000
95.060400 483162.800000
96.068100 456878.700000
97.039600 121074.300000
99.055200 60682.100000
103.041700 15538.400000
103.054100 26248.900000
104.049400 222784.800000
105.033500 20766.000000
105.044900 33177.400000
105.057300 23395.900000
105.070000 6299.000000
106.065100 214369.800000
107.024000 83165.500000
107.049100 659471.600000
108.044400 17141.800000
108.055500 43399.600000
109.039600 127226.200000
109.051900 19971.300000
110.023600 19622.700000
110.047500 45332.400000
110.071300 183862.400000
111.044000 22613.400000
111.055300 233030.800000
112.063100 24679.400000
113.071000 62778.800000
115.054200 58341.200000
116.049400 47853.800000
116.062200 7944.100000
117.057300 364405.400000
118.041300 16308.500000
118.065100 145576.300000
119.060400 12499.900000
119.073000 11273.100000
120.044500 19218.100000
120.055700 29153.100000
120.081200 8977.700000
121.039600 12938.400000
121.063400 99127.500000
121.076000 99736.800000
122.071200 400029.500000
123.055200 351814.200000
124.050500 38644.100000
125.070700 10447.000000
127.050100 42141.600000
128.049400 37101.700000
128.062200 5862.900000
129.057200 80267.500000
129.069700 12966.900000
130.065100 436933.300000
131.049200 10434.100000
131.060500 50542.200000
131.072900 65474.600000
132.044300 69154.200000
132.068100 96666.700000
132.080700 18141.200000
133.028300 16757.900000
133.052300 16040.200000
133.075900 38409.900000
134.060000 19609.100000
135.044000 746493.900000
136.050600 43805.200000
137.058300 23734.700000
138.066200 1810772.200000
139.050100 23972.500000
139.074300 6144.800000
140.049400 17695.100000
141.057300 45637.800000
141.065200 6063.300000
142.052400 34551.300000
142.065100 128028.100000
143.036500 26654.000000
143.060400 183230.700000
143.073000 94136.800000
144.044400 564799.100000
144.080700 138374.000000
145.052200 26376.700000
145.065900 48600.800000
145.076000 357502.200000
146.060000 84210.500000
146.083800 64883.400000
147.091500 4467.500000
148.076100 4749.000000
154.065000 17744.200000
155.049400 83969.900000
155.060200 143509.900000
156.044700 6631.500000
156.068100 36053.900000
156.080800 9329.200000
157.052700 17345.300000
157.060700 168277.400000
157.076000 263334.800000
158.060400 40067.500000
158.083800 266703.800000
159.067800 247631.000000
159.091600 86166.200000
160.039300 11412.300000
160.075900 40844.600000
160.086900 7410.700000
161.047200 7749.400000
161.071200 9852.600000
161.107700 5572.800000
162.054900 10139.300000
163.086600 10393.900000
169.076000 139938.200000
170.060000 177326.000000
170.069700 9134.700000
170.071300 10538.400000
170.083800 14452.600000
171.055300 52157.300000
171.068200 22695.400000
171.078200 6842.100000
171.091500 60481.400000
172.063200 5425.100000
172.075500 23819.600000
172.086700 36998.800000
173.070900 247302.700000
173.107400 13958.600000
174.055000 8406.000000
174.078500 18351.000000
174.102400 37859.700000
175.062500 9844.600000
175.086600 17195.500000
177.042200 13750.000000
183.055200 41936.200000
184.063600 10120.900000
184.075800 6973.500000
184.086400 5072.300000
185.070900 119735.000000
186.054300 11207.500000
186.102600 222732.100000
187.086500 104442.100000
187.110400 17288.700000
188.071000 10632.200000
188.081700 14675.300000
188.094300 11324.300000
189.102300 27228.100000
191.080900 7590.300000
196.086800 5899.200000
197.071000 49748.600000
198.066300 12098.600000
198.078700 42722.200000
198.102200 15347.400000
199.074200 66739.000000
199.086600 94267.700000
200.081800 136098.400000
201.102000 43689.900000
202.097400 109736.000000
203.081700 9506.900000
212.081500 11821.800000
213.089600 6885.700000
214.097400 962163.100000
215.105100 62366.300000
216.076300 8848.000000
230.092300 29708.500000
231.100400 18541.700000
242.104700 11290.700000
256.108400 8825.900000

>ms2
51.022900 5706.100000
52.018200 15613.100000
53.002200 11703.000000
53.038600 102168.900000
54.033800 244221.000000
55.017800 43254.000000
55.041600 86445.100000
55.054400 4444.400000
56.049500 87880.000000
57.044700 40740.900000
57.069800 53652.300000
58.028700 30037.700000
63.022900 15385.300000
64.030700 15288.100000
65.038500 134792.000000
66.033800 146795.500000
66.046300 55369.100000
67.017800 36084.800000
67.029000 11996.300000
67.041600 76446.600000
67.054300 8455.800000
68.013000 58477.000000
68.036900 27977.600000
68.049400 198978.700000
69.044700 198910.700000
69.057200 11599.500000
70.028700 37529.600000
71.060300 358230.900000
74.096400 4482.900000
77.038300 46750.900000
78.033900 4101.400000
78.046300 28464.400000
79.029100 54853.800000
79.041500 17021.400000
79.054200 159984.000000
80.013000 58218.900000
80.036800 12419.200000
80.049400 46558.700000
81.044700 954073.800000
82.028700 566305.500000
82.052500 46557.500000
83.060400 131298.800000
84.044400 92890.800000
89.038600 34413.400000
90.046400 53924.100000
91.041600 169997.900000
91.054200 206112.200000
92.049400 152361.200000
92.062100 7724.600000
93.044800 80662.300000
93.057300 237514.100000
94.028700 60086.700000
94.041300 116887.600000
94.052500 17700.200000
94.065100 18083.800000
95.049200 338475.600000
95.060300 690849.800000
96.044400 18508.200000
96.068100 180080.500000
97.039600 115848.400000
99.055200 42434.500000
102.046300 17332.800000
103.041600 42444.200000
103.054200 45685.700000
104.049400 247347.800000
105.033600 31674.000000
105.044700 142302.900000
105.057200 14154.900000
105.069800 10897.500000
106.065100 215795.100000
107.024000 101802.400000
107.049100 1109074.200000
108.044500 18907.900000
108.055600 45538.200000
109.039600 108369.300000
109.052100 12479.700000
109.064500 5507.600000
110.023600 18865.900000
110.047400 34688.500000
110.071300 126728.300000
111.044000 29891.200000
111.055200 241500.000000
112.063100 13696.600000
113.071000 34242.100000
115.054200 176055.200000
116.049400 124315.900000
116.062000 19602.600000
117.057200 354816.300000
117.069700 37096.000000
118.041200 17427.900000
118.065000 164943.800000
119.049400 5273.400000
119.060400 20071.200000
120.044400 17542.400000
120.055600 69815.700000
120.080900 9633.600000
121.039700 11025.000000
121.063400 125329.100000
121.076000 47935.100000
122.071200 204401.800000
123.055200 283295.300000
124.050600 13369.200000
125.070600 6547.500000
127.050000 38005.500000
127.054500 7173.300000
128.049400 76885.100000
128.062000 11666.700000
129.044700 9562.900000
129.057300 79229.000000
129.069800 56583.500000
130.065100 526978.600000
131.049200 21863.500000
131.060300 87614.400000
131.072900 45174.000000
132.044400 64413.400000
132.056600 9060.400000
132.068100 91231.800000
132.080700 24044.500000
133.052100 12080.800000
133.076100 35253.800000
134.060100 14724.300000
135.044000 321563.700000
136.050500 38858.400000
137.058400 9880.300000
138.066200 827732.100000
139.050200 9915.100000
140.049500 40274.100000
141.057300 37507.400000
142.052500 36281.600000
142.065100 153691.400000
143.036700 24637.000000
143.060400 315633.200000
143.072900 109374.400000
144.044400 582518.400000
144.080700 116549.200000
145.065900 37402.800000
145.075900 274393.300000
146.059900 154429.800000
146.083700 15088.100000
147.091600 6781.500000
148.075600 3809.000000
149.071000 4383.300000
154.066100 27249.200000
155.049600 38505.500000
155.060200 151832.200000
156.044300 11787.400000
156.068000 28032.800000
156.080600 5302.200000
157.060600 68370.800000
157.076000 240631.900000
158.047400 8682.700000
158.060000 41103.700000
158.083900 67014.300000
159.067800 92434.800000
159.091600 56797.400000
160.039300 6675.800000
160.075600 46354.700000
161.047000 13058.900000
161.071000 7435.300000
162.054800 9041.800000
163.086100 5314.300000
168.068000 10013.000000
169.076000 141287.700000
170.059900 136573.200000
170.070900 12140.000000
170.083500 8771.700000
171.055200 28958.300000
171.067800 13343.900000
171.078700 11460.600000
171.091400 28415.500000
172.075800 16948.800000
172.086600 18101.200000
173.070900 135925.200000
173.107500 9173.600000
174.054800 8078.500000
174.078700 4512.600000
174.102400 10889.500000
175.063300 3736.600000
175.086600 10173.300000
177.042000 3693.900000
183.055300 24243.000000
184.063200 10297.900000
184.075600 4382.600000
184.087000 4052.800000
185.070900 105568.600000
186.055300 6012.000000
186.102500 78688.500000
187.086500 64326.600000
188.070500 4385.400000
188.094200 6323.000000
189.102500 4278.400000
197.071000 39736.400000
198.066200 6077.000000
198.078900 11147.600000
198.102400 9128.600000
199.074000 64322.400000
199.086400 48329.500000
200.081800 51460.400000
200.093500 5192.900000
201.102200 12816.600000
202.097400 18260.800000
212.082000 6936.600000
213.089400 7062.200000
214.097400 335190.600000
230.091700 4853.400000

>ms2
51.022900 6133.500000
52.018200 27374.600000
53.002200 32269.900000
53.038600 257219.500000
54.033800 314271.100000
55.017800 67155.000000
55.041700 71637.100000
55.054200 6374.900000
56.049500 107291.000000
57.044700 52857.400000
57.069900 35031.400000
58.028700 42306.500000
59.060600 3643.600000
63.022900 35960.600000
64.030700 25265.500000
65.038500 230369.300000
66.033800 270063.100000
66.046400 89721.400000
67.017800 66837.100000
67.029000 19370.700000
67.041600 172029.200000
67.054300 13642.300000
68.013100 102445.100000
68.036900 17304.100000
68.049400 292838.500000
69.044700 201612.200000
70.028700 48132.400000
71.060300 328617.200000
74.096300 4691.800000
77.038500 117738.000000
78.033800 12141.700000
78.046400 48682.700000
79.029100 72730.900000
79.041700 19036.000000
79.054200 231272.800000
80.013100 52916.500000
80.037000 14456.200000
80.049400 77889.700000
81.044700 1005715.900000
82.028700 511060.200000
82.052600 37998.800000
83.060400 110219.400000
84.044400 100301.300000
89.038500 85226.500000
90.046400 82915.300000
91.041700 139789.900000
91.054200 297818.500000
92.049500 175006.000000
93.044800 135534.700000
93.057300 192287.100000
94.028800 53854.700000
94.041300 133636.800000
94.052500 26563.100000
94.065100 15312.300000
95.049200 753241.400000
95.060300 624580.600000
96.044400 23678.600000
96.068100 60352.000000
97.039600 94252.600000
99.055300 18369.800000
102.046400 57591.000000
103.041600 76298.400000
103.054200 109714.600000
104.049500 247347.200000
105.033700 29737.100000
105.044700 299610.500000
106.065100 206211.900000
107.024000 66973.200000
107.049100 1046860.400000
108.044400 17586.700000
108.055500 30840.500000
109.039600 65100.000000
109.052500 5314.900000
109.064800 9239.700000
110.023600 9015.600000
110.047400 14514.200000
110.071300 42730.400000
111.044000 22633.200000
111.055300 163963.900000
112.063200 7378.900000
113.070900 23235.400000
115.054200 332491.100000
116.049400 212258.900000
116.061900 21227.000000
117.057300 276774.900000
117.069900 35474.500000
118.041400 16359.800000
118.065100 166926.700000
119.049200 9861.200000
119.060400 19515.100000
120.044500 23251.900000
120.055600 113719.200000
120.080900 7009.100000
121.039800 10061.200000
121.063500 78736.300000
121.076000 18026.000000
122.071300 72522.300000
123.055300 190539.400000
124.050800 5618.800000
125.059700 4950.300000
127.049700 21362.500000
127.054800 19128.600000
128.049400 163814.400000
128.061500 16439.700000
129.044900 12786.600000
129.057300 55832.100000
129.069800 95763.300000
130.065100 516484.900000
131.049200 37650.800000
131.060300 101253.000000
131.072700 24053.000000
132.044300 48574.000000
132.057100 11042.000000
132.068100 50035.600000
132.080700 23317.700000
133.052400 12904.500000
133.076000 23151.300000
134.060100 26623.600000
135.044000 105889.700000
136.050500 30113.800000
137.058600 3099.200000
138.066200 383185.800000
140.049500 64487.800000
141.057300 22256.400000
142.052600 41154.500000
142.065100 163223.400000
143.036500 18604.900000
143.060400 332539.100000
143.072900 118580.100000
144.044400 380857.000000
144.080700 70946.200000
145.065500 39559.300000
145.075900 182045.900000
146.060000 199645.100000
147.091700 5079.200000
148.075700 5329.600000
154.065800 32614.100000
155.049900 16334.400000
155.060300 153545.600000
156.044400 19375.900000
156.068200 30472.100000
156.080700 5550.700000
157.061100 16912.500000
157.076000 137170.300000
158.047500 12695.700000
158.060000 39262.000000
158.084100 21663.700000
159.067600 39691.200000
159.091700 34813.100000
160.039100 5350.600000
160.075700 37227.800000
161.047000 8882.700000
161.070600 4684.600000
162.054900 12583.000000
168.068300 14668.700000
169.076000 91752.900000
170.060100 112138.700000
170.071200 15785.800000
171.055400 23472.500000
171.079200 15671.000000
171.091700 4591.100000
172.063500 4483.000000
172.075400 14444.500000
172.086900 6282.800000
173.070900 59425.000000
174.055000 5350.800000
174.102900 3939.400000
177.042100 4118.500000
183.055600 12612.400000
184.063100 5960.000000
184.076400 6877.600000
184.086200 4242.900000
185.071000 90470.100000
186.102000 15818.100000
187.086500 23768.900000
197.070800 14620.000000
198.066000 13472.000000
198.077800 3548.400000
199.074100 44797.600000
199.086700 15927.100000
200.082000 11560.500000
212.081900 2966.900000
214.097400 79861.600000

