>compound LU04455857
>parentmass 255.1856
>ionization [M+H]+
>formula C17H22N2
>rt 626.340000
>profile orbitrap
#smiles_iso CN(C)C1=CC=C(C=C1)CC2=CC=C(C=C2)N(C)C
#smiles_can CN(C)C1=CC=C(C=C1)CC2=CC=C(C=C2)N(C)C
#inchikey JNRLEMMIVRBKJE-UHFFFAOYSA-N
#pubchem_id 7567
#mb_accession LU128501,LU128502,LU128503,LU128504,LU128505,LU128506

>ms2peaks
134.097200 38172.400000
239.153700 89118.000000
240.162000 797003.600000
255.185400 23680786.000000

>ms2peaks
120.080400 55394.500000
134.096200 158117.800000
196.112100 93197.600000
210.127500 66278.400000
225.137800 23586.100000
239.154000 236124.900000
240.162000 7644951.500000
255.185400 17294460.000000

>ms2peaks
118.064900 31225.200000
119.073000 62073.400000
120.080700 255931.000000
121.088600 292562.900000
122.096400 50006.200000
132.081000 24103.400000
133.088600 47292.700000
134.096400 1626181.000000
194.096300 18710.000000
195.104200 29031.300000
196.112100 1926095.500000
209.120000 18892.600000
210.127700 1012462.400000
224.131200 18778.500000
225.138600 467265.500000
239.154400 3455084.500000
240.162000 12604119.000000
255.185500 2629100.500000

>ms2peaks
91.054300 12712.600000
118.065100 187011.000000
119.072900 95469.300000
120.080800 695031.500000
121.088600 556148.800000
122.096500 78060.700000
132.080800 128277.600000
133.088700 73870.500000
134.096400 2895118.800000
157.088400 13397.900000
163.122700 16984.300000
165.070100 18912.800000
170.096400 12888.800000
180.080700 89784.600000
181.088500 134812.000000
182.096400 10719.100000
194.096600 84970.500000
195.104200 99160.600000
196.112100 4542002.500000
197.119700 14038.900000
208.111900 37238.200000
209.108300 11100.600000
209.120000 41533.400000
210.127700 2470200.800000
223.122900 40461.100000
224.130600 102180.000000
225.138600 908761.400000
239.154200 10173179.000000
240.161900 3591050.200000
255.185600 113970.000000

>ms2peaks
68.049400 10589.200000
79.054200 15433.600000
91.054200 67499.600000
104.049600 17614.200000
106.065100 14740.200000
107.073000 12310.700000
108.080700 14804.400000
117.057300 18535.900000
118.065100 364068.200000
119.073100 57000.800000
120.080800 1021481.100000
121.088600 351366.300000
122.096400 45210.700000
132.080800 194146.300000
133.088600 47606.900000
134.096300 2723783.000000
141.069800 15814.700000
144.080800 15829.300000
152.062400 15015.000000
155.085400 28557.400000
163.123200 13513.900000
165.069800 104483.100000
166.077700 113663.200000
167.073100 10795.900000
167.085400 64613.500000
170.096500 34191.100000
179.085100 23945.300000
180.080700 531095.700000
181.088500 709431.600000
182.096100 29208.200000
183.104000 11257.400000
184.112400 17442.000000
193.088600 18117.900000
194.096500 292850.000000
195.104300 492915.100000
196.112000 3644915.000000
197.120200 24386.700000
198.127500 12707.400000
208.111900 106958.800000
209.107400 96372.100000
209.120000 131477.800000
210.127600 2075556.800000
223.122900 436841.300000
224.130700 741116.900000
225.138500 510114.300000
237.138600 11932.000000
238.145400 35779.700000
239.154100 10556456.000000
240.161900 286209.700000

>ms2peaks
56.049500 9864.300000
58.065200 11130.000000
65.038500 11466.000000
68.049500 18550.800000
79.054200 41417.100000
91.054300 252655.000000
94.065100 19527.300000
104.049500 44855.700000
106.065200 27151.800000
107.073100 24408.900000
108.080700 16874.100000
115.054000 28290.900000
117.057400 81309.900000
118.065200 472472.800000
119.073100 68482.100000
120.080800 1252643.500000
121.088700 156529.300000
122.096500 17646.500000
129.069800 18361.900000
132.080900 204447.300000
133.088700 53657.300000
134.096500 2541079.500000
141.069900 74435.600000
144.080900 18322.700000
152.062100 98237.000000
153.069900 82406.200000
154.077800 33440.400000
155.085500 62978.800000
156.080600 9610.700000
157.088800 7469.000000
165.070000 391049.700000
166.077800 371566.400000
167.073800 29189.700000
167.085600 146483.200000
168.080700 27622.900000
169.089200 6879.300000
170.096700 43857.000000
179.085600 49974.800000
180.080800 1400621.400000
181.088600 1158175.200000
182.096400 93912.500000
183.104400 40391.600000
184.112100 29478.500000
193.088600 49412.900000
194.096600 915071.400000
195.104400 1045548.500000
196.112200 1999904.400000
197.120000 165337.200000
198.127600 17549.800000
207.104100 16069.100000
208.112100 213684.400000
209.107400 358194.600000
209.119800 232832.800000
210.127800 1093939.200000
223.123100 2525900.000000
224.130800 2030912.600000
225.138700 125617.300000
237.139300 37393.400000
238.146500 61294.100000
239.154300 6318451.000000

