>compound LU04501416
>parentmass 330.0447
>ionization [M+H]+
>formula C18H13Cl2NO
>rt 1104.660000
>profile orbitrap
#smiles_iso C1=CC(=CN=C1)C(C2=CC=C(C=C2)Cl)(C3=CC=C(C=C3)Cl)O
#smiles_can C1=CC(=CN=C1)C(C2=CC=C(C=C2)Cl)(C3=CC=C(C=C3)Cl)O
#inchikey NBNTWDUNCHRWMT-UHFFFAOYSA-N
#pubchem_id 28768
#mb_accession LU111701,LU111702,LU111703,LU111704,LU111705,LU111706

>ms2peaks
218.038300 22477.000000
219.045900 17850.800000
330.044500 17144662.000000

>ms2peaks
80.049400 1606954.000000
125.015300 86252.300000
138.994000 37056.400000
175.030900 36887.900000
182.060300 23629.000000
218.036500 124850.000000
219.043900 32110.300000
235.006800 23444.800000
250.018500 32597.500000
251.001900 38842.900000
252.033300 21466.900000
252.070100 83515.000000
259.008300 22397.800000
275.002000 37123.300000
276.057000 28380.800000
277.065400 150972.300000
285.023100 46917.800000
287.002900 46335.400000
287.038700 79089.800000
295.074100 27887.800000
312.034100 200939.800000
313.041800 41985.100000
330.044700 16739974.000000

>ms2peaks
53.038600 163197.500000
56.049500 35153.400000
80.049400 10580357.000000
96.044400 115384.000000
125.015300 337764.100000
137.015200 18635.800000
138.994500 502173.200000
140.026300 19372.800000
149.015300 46687.800000
151.031000 28793.100000
154.064900 11889.300000
163.030600 12956.300000
175.030900 144624.800000
182.060100 210552.700000
183.068000 79327.700000
200.026300 34668.400000
200.038700 12250.500000
201.033800 44812.800000
203.049500 27943.600000
215.085400 107550.800000
216.093600 51857.800000
217.028800 11383.600000
217.101100 104502.800000
218.036700 356352.800000
219.044600 164706.600000
226.054500 28262.700000
235.007600 96768.800000
237.046500 16661.600000
241.089000 19888.700000
242.095800 33247.000000
249.046200 37699.500000
250.018500 166665.900000
250.054300 76312.400000
251.002400 256938.100000
251.061400 32280.500000
252.033700 217331.500000
252.069900 277023.200000
259.007500 219149.800000
261.023200 18728.000000
266.073000 19174.900000
267.080500 20284.200000
272.015100 13966.900000
275.002500 102951.900000
276.057400 182505.000000
277.065300 1150182.900000
278.049400 68513.500000
285.023200 130153.900000
287.002300 85147.000000
287.039300 57406.800000
294.067700 64360.300000
295.076000 22368.600000
311.026400 35466.300000
312.034100 357832.200000
313.019300 35540.800000
313.041800 365830.200000
330.044800 3971811.200000

>ms2peaks
53.038600 538197.600000
56.049500 35806.500000
78.033800 37919.700000
79.041700 28125.700000
80.049400 12118962.000000
81.033400 12306.300000
96.044400 377634.200000
125.015300 239571.100000
128.062100 12713.200000
129.010200 25013.900000
137.015300 16218.700000
138.010500 47699.000000
138.994500 1610763.500000
140.026000 13269.000000
149.015200 101889.000000
151.031100 12427.200000
154.065100 35991.400000
155.073000 22619.000000
165.069900 49408.900000
166.065200 20189.500000
167.073000 13625.500000
175.030900 74543.300000
182.060100 175934.700000
183.067900 118517.300000
189.069800 116783.800000
190.041700 44841.000000
191.085600 14077.000000
199.031000 26080.500000
200.026100 48174.900000
200.038600 17282.800000
201.033900 88482.100000
202.041900 14760.200000
202.077700 33031.700000
203.049800 19759.800000
212.038900 13399.600000
215.085500 248897.800000
216.093600 40452.100000
217.028900 21438.700000
217.064800 55497.900000
217.101100 157315.400000
218.036700 376946.900000
219.044500 123485.000000
223.030900 24073.500000
224.038800 18685.100000
226.054500 29841.400000
230.097100 18398.800000
232.992200 15338.100000
235.007700 52526.300000
237.046300 12915.200000
240.080800 15382.500000
241.088600 132227.300000
242.096400 227178.800000
243.081200 26514.700000
249.046400 60675.400000
250.018500 113084.500000
250.054100 30091.100000
251.002400 118665.900000
251.062100 17716.400000
252.033700 203054.300000
252.069800 75533.900000
259.007600 232756.000000
264.057400 14589.800000
266.073700 16432.200000
275.002400 39151.400000
275.050000 13530.300000
276.057600 216975.200000
277.065300 989254.100000
278.049200 27512.800000
278.073000 54693.100000
285.023200 34333.600000
287.002800 15490.300000
294.068200 37543.600000
311.026300 41715.600000
312.034300 175329.600000
313.041900 229675.300000
330.044900 138265.800000

>ms2peaks
53.038600 1037974.500000
56.049500 35012.600000
75.022900 16191.500000
78.033800 77967.900000
79.041600 39570.600000
80.049400 10207625.000000
86.999600 57266.500000
89.038700 19728.300000
96.044400 635306.700000
110.059900 18678.300000
110.999500 18881.600000
115.054300 24723.100000
116.062000 12880.400000
125.015200 154777.500000
128.062100 18532.500000
129.010100 139213.800000
138.010500 105066.600000
138.994500 1846635.100000
139.004900 349855.100000
145.064600 14327.300000
149.015200 130694.300000
154.065100 67932.500000
155.060500 14047.800000
155.072900 32035.500000
165.069800 98096.400000
166.065000 81401.600000
167.072900 39359.200000
173.015300 10954.600000
175.030800 31691.500000
182.060100 88066.800000
183.067800 73846.900000
189.069800 391060.900000
190.041900 34326.900000
191.085500 31764.000000
199.030500 27784.300000
200.026200 42443.200000
200.038600 12207.300000
201.034000 72908.000000
202.042000 17186.100000
202.077600 101088.800000
203.085300 17971.700000
204.093500 12084.600000
212.038700 25895.500000
213.069900 16965.100000
215.085500 332164.200000
216.093200 43390.200000
217.029000 13485.900000
217.064800 89605.000000
217.101100 82097.400000
218.036600 559120.300000
219.044500 16761.100000
223.030800 69203.100000
224.038900 21090.800000
230.096600 19435.000000
232.991900 40153.900000
235.007600 11620.600000
240.080800 46908.300000
241.088500 445502.700000
242.096300 342393.800000
243.081200 20924.600000
243.103900 50805.700000
249.046400 70267.100000
250.018700 22431.100000
252.033800 77806.300000
259.007600 95723.700000
264.057300 18542.800000
266.073000 14140.600000
275.002500 19387.500000
275.049700 25728.900000
276.057500 241569.800000
277.065200 518360.000000
278.073200 63168.800000
294.068100 13274.800000
311.025600 21956.100000
312.034100 105964.800000
313.041800 42842.300000

>ms2peaks
53.038600 1532118.900000
55.017800 9099.200000
56.049500 25888.800000
75.022800 80356.600000
78.033800 117135.800000
79.017900 11474.000000
79.041600 47666.800000
80.049400 7458338.000000
86.999600 138052.500000
89.038600 28674.700000
90.046400 10055.800000
93.033300 16978.400000
94.041200 12490.800000
96.044300 688202.300000
98.999400 16573.900000
110.060000 18078.900000
110.999500 53196.600000
111.044000 39136.000000
114.994300 11585.300000
115.054300 23352.500000
116.061900 13804.500000
125.015200 106328.900000
128.002400 14575.700000
128.062000 33215.900000
129.010000 357408.600000
138.010500 87295.600000
138.994600 1273919.500000
139.005400 774722.200000
140.061800 16680.500000
145.064500 12532.700000
149.015200 138830.500000
154.065000 94491.800000
155.060800 21549.500000
155.072800 27619.600000
156.080500 9134.600000
165.069800 111986.700000
166.065000 149125.400000
167.072800 64796.300000
173.015200 17546.800000
175.030600 8960.700000
182.060000 69565.800000
183.067800 54373.200000
189.069700 535928.100000
190.041700 16066.500000
191.085400 28054.400000
199.030900 32343.500000
200.026200 23665.000000
201.033800 48841.600000
202.041700 7720.700000
202.077500 118042.900000
203.085500 22826.100000
204.092700 9467.000000
212.038000 17925.400000
213.069700 54331.800000
214.077400 21104.700000
215.085400 370434.400000
216.080800 9471.300000
216.093100 30391.800000
217.028800 8546.600000
217.064600 62467.500000
217.088600 9625.300000
217.101100 14854.700000
218.036500 428584.500000
223.030600 59779.900000
230.096300 18980.700000
232.991800 41643.800000
240.080500 127145.100000
241.088400 611270.300000
242.096300 195567.600000
243.104000 43482.000000
246.067400 10204.600000
249.046400 57651.500000
251.049400 7518.900000
252.033100 14533.900000
259.007600 16522.300000
264.057300 12253.900000
275.049200 42387.600000
276.057400 157316.200000
277.065100 302756.500000
278.072900 12935.600000
312.033800 16016.000000

