>compound LU04917441
>parentmass 272.222
>ionization [M+H]+
>formula C15H29NO3
>rt 1182.600000
>profile orbitrap
#smiles_iso CCCCCCCCCCCC(=O)N(C)CC(=O)O
#smiles_can CCCCCCCCCCCC(=O)N(C)CC(=O)O
#inchikey BACYUWVYYTXETD-UHFFFAOYSA-N
#pubchem_id 7348
#mb_accession LU068301,LU068302,LU068303,LU068304,LU068305,LU068306

>ms2peaks
57.069800 30470.400000
67.054100 4218.800000
71.085500 26749.200000
74.096300 14144.300000
81.069900 11518.700000
83.085500 16603.500000
85.101100 21454.000000
90.054900 3885172.500000
95.085500 45870.500000
97.101000 5549.000000
109.101200 39016.700000
123.116800 9589.200000
129.114800 10197.800000
165.163900 9419.900000
183.174300 119221.400000
186.052300 8693.600000
199.075100 14236.800000
200.068600 4974.000000
228.099300 57431.800000
254.078100 10483.000000
254.211300 17025.900000
272.221900 439451.000000

>ms2peaks
55.054200 11766.800000
57.069900 215239.000000
67.054200 25717.300000
69.069800 7112.500000
71.085500 162797.800000
72.080700 3935.300000
74.096500 11286.000000
81.069900 43321.900000
83.085500 55049.600000
85.101200 130188.600000
90.055000 3281247.200000
95.085500 166551.900000
97.101200 22016.000000
99.116800 6658.100000
109.101200 101128.800000
123.116800 21986.300000
129.114700 14946.600000
165.163900 6971.100000
171.080500 15084.900000
172.036900 18617.600000
183.174400 57914.900000
186.052600 55628.000000
199.060900 3463.800000
199.075400 11960.200000
200.068200 23740.400000
226.084000 5935.900000
228.099500 109689.300000
254.078600 19120.000000
272.222100 9622.600000

>ms2peaks
53.002300 9915.000000
55.054200 41235.700000
57.069900 491934.900000
58.065200 9139.300000
67.054200 77410.300000
69.069900 17265.500000
71.085500 238063.500000
72.080800 4295.800000
74.096300 7607.600000
81.069900 74334.700000
83.085500 42285.000000
85.101200 122643.300000
90.055000 1891752.800000
93.070000 2482.100000
95.085500 183685.000000
97.101200 17982.500000
109.101200 72656.400000
114.091500 5513.000000
117.057500 2780.300000
123.116700 9463.800000
128.107300 2509.200000
129.115100 4849.800000
130.065200 4903.300000
143.085700 2353.900000
158.096300 3331.800000
159.104300 3853.600000
171.080400 26015.200000
174.052800 7081.000000
186.052600 58628.900000
198.052600 11347.500000
199.060400 5514.900000
200.032100 7282.200000
200.068000 17834.500000
212.067900 2442.200000
213.076100 4954.000000
226.047800 5306.400000
226.083200 4164.700000
228.099400 30051.800000
254.079200 6328.500000

>ms2peaks
53.002200 18085.600000
53.038600 2046.500000
53.997400 3437.800000
55.054200 59604.500000
57.069900 495162.400000
58.065100 13550.100000
65.038400 1914.300000
67.054200 96097.600000
69.069900 16934.200000
71.085500 138566.300000
72.080700 4710.200000
74.096300 3240.100000
79.054200 5147.900000
81.069900 70729.100000
83.085500 15949.400000
85.101200 33094.100000
90.055000 722303.900000
93.070000 4768.900000
95.085600 118493.400000
97.101200 3748.700000
100.112400 2712.600000
109.101200 29319.200000
117.057300 6371.300000
123.116600 2352.600000
128.062000 3689.100000
129.114800 1818.700000
130.065300 6054.600000
131.073300 2653.500000
141.069400 1796.500000
143.085400 3492.900000
144.080800 4520.500000
157.088800 1980.200000
158.096400 3708.100000
167.072700 3474.500000
171.080300 10802.500000
172.037000 10629.600000
174.052900 11484.100000
186.052700 29771.700000
198.052800 25679.800000
199.060800 3931.000000
200.031900 6877.900000
200.068300 10344.400000
212.068200 5815.700000
213.076200 4186.400000
226.047200 4373.900000
228.099500 4987.300000

>ms2peaks
53.002300 30876.600000
53.038600 3676.900000
53.997500 5076.300000
55.054300 61600.800000
57.069900 412158.100000
58.065100 12364.600000
65.038600 4564.400000
67.054300 115589.700000
69.069800 11479.300000
71.085600 64793.800000
72.080700 2918.800000
79.054200 11044.400000
81.069900 58960.000000
83.085500 5335.800000
85.101200 8119.100000
90.055100 230388.700000
91.054100 2050.600000
93.069900 8777.000000
95.085600 66377.200000
97.101300 2213.600000
100.112200 2217.700000
109.101300 7642.900000
117.057400 13311.200000
128.062200 7629.800000
130.065000 8223.000000
131.073100 2666.200000
143.085500 4925.500000
144.080900 11143.200000
153.069900 2811.700000
157.088500 4389.000000
158.096200 3707.500000
167.072900 3733.200000
171.080400 2843.500000
172.037200 3448.200000
174.052500 8181.300000
185.044700 2779.000000
186.052700 8679.400000
198.052700 28436.400000
199.061200 2134.900000
200.031800 6234.800000
200.068400 3734.900000
211.060500 3756.500000
212.068200 5037.600000

>ms2peaks
53.002200 34276.600000
53.038700 6177.700000
53.997500 7501.300000
55.054300 71215.400000
57.069900 294067.600000
58.065200 10302.200000
65.038600 7701.000000
67.054200 108855.800000
69.069800 8084.300000
71.085500 25693.400000
72.080600 2577.200000
74.096500 3069.100000
79.054300 19017.200000
81.069900 42483.200000
83.085500 2505.700000
90.055000 65442.800000
91.054400 2994.500000
93.069900 8135.100000
95.085600 37138.500000
109.101300 2868.000000
117.057300 15543.500000
128.062100 9359.100000
130.065400 10989.100000
141.069800 2006.400000
144.081100 6955.300000
153.070600 2325.100000
157.088900 2516.700000
158.096400 4527.000000
167.073200 2408.700000
174.052800 5269.200000
185.045400 1845.900000
186.052600 1993.200000
198.052700 25837.400000
211.060900 2372.800000
212.068300 5254.000000

