>compound LU04765680
>parentmass 184.0524
>ionization [M+H]+
>formula C9H10ClNO
>rt 988.920000
>profile orbitrap
#smiles_iso CC1=C(C=C(C=C1)NC(=O)C)Cl
#smiles_can CC1=C(C=C(C=C1)NC(=O)C)Cl
#inchikey IGLVCWPPISIXPR-UHFFFAOYSA-N
#pubchem_id 23537
#mb_accession LU041002,LU041003,LU041004,LU041005

>ms2peaks
106.065100 2145.900000
107.072900 36208.700000
138.012400 3171.600000
142.041900 556522.200000
143.025800 2916.100000
166.042200 5576.100000
184.052500 689881.600000

>ms2peaks
106.065300 4957.800000
107.073000 219130.200000
131.072900 3610.100000
142.041900 594530.300000
143.025900 4482.500000
166.041800 4507.600000
184.052600 120394.800000

>ms2peaks
106.065200 18325.900000
107.073000 568727.300000
127.018400 7841.900000
131.073000 2605.900000
138.012400 2046.300000
142.041900 340677.900000
143.025600 1795.900000
166.041700 2044.300000
184.052700 13690.200000

>ms2peaks
106.065200 55197.200000
107.073000 652887.500000
127.018400 13809.300000
142.042000 93370.000000

