>compound LU04484517
>parentmass 286.1438
>ionization [M+H]+
>formula C17H19NO3
>rt 1065.480000
>profile orbitrap
#smiles_iso C1CCN(CC1)C(=O)/C=C/C=C/C2=CC3=C(C=C2)OCO3
#smiles_can C1CCN(CC1)C(=O)C=CC=CC2=CC3=C(C=C2)OCO3
#inchikey MXXWOMGUGJBKIW-YPCIICBESA-N
#pubchem_id 638024
#mb_accession LU109601,LU109602,LU109603,LU109604,LU109605,LU109606

>ms2
84.080700 118475.300000
86.096300 79083.800000
112.075600 152775.400000
115.054900 27760.000000
135.043800 179760.200000
173.059600 48741.500000
201.054500 3414179.200000
286.143500 24539782.000000

>ms2
69.069800 276447.000000
84.080800 559690.400000
86.096400 483390.700000
112.075600 1195128.200000
114.091300 28252.700000
115.053800 120610.800000
134.096300 35154.500000
135.044000 2531747.200000
143.049200 147290.500000
150.091200 113144.700000
151.099100 223340.000000
159.044000 91777.400000
161.059800 45458.500000
171.044000 277673.000000
173.059700 443862.900000
175.075400 19432.000000
185.096400 70500.200000
201.054500 16242250.000000
203.070300 48461.600000
215.106800 105122.200000
218.117900 28878.600000
232.132900 18388.100000
258.148900 21837.600000
286.143600 9498831.000000

>ms2
53.002200 20882.100000
55.017800 37819.500000
67.054100 26960.700000
69.069800 1275431.400000
70.065000 57962.400000
79.054200 28961.200000
84.080800 546068.400000
86.096400 549838.300000
103.054200 24196.900000
109.052200 20324.700000
112.075700 1267772.500000
114.091400 31544.100000
115.054200 1552832.600000
117.069800 124542.600000
122.096200 16022.600000
131.049100 41277.400000
134.096400 83381.300000
135.044000 4904727.000000
143.049100 2249346.000000
145.064800 82519.900000
150.091300 128498.800000
151.099200 497347.000000
157.101500 27993.300000
159.044100 571725.500000
161.059600 109548.500000
171.044000 2251740.200000
173.059700 1207174.800000
175.075500 39290.500000
185.096100 133672.700000
189.054500 61583.200000
201.054500 15032079.000000
203.070300 33945.700000
215.106800 53909.800000
218.117700 34725.400000
258.148500 44352.500000
286.143600 549728.700000

>ms2
51.022900 10810.000000
53.002200 69624.300000
53.038600 10462.800000
53.997400 9155.000000
55.017800 75895.200000
55.054200 9463.600000
56.049500 23331.800000
63.022900 14040.000000
65.038400 13235.000000
67.054200 68250.500000
69.069800 2058164.100000
70.028700 27909.400000
70.065100 77634.100000
75.022900 10762.700000
77.038500 28164.000000
79.017800 13752.800000
79.054200 197807.500000
81.057300 82209.300000
82.065100 10134.000000
83.048900 11354.800000
84.080800 532386.700000
86.096400 417907.600000
89.038500 12882.600000
91.054300 36686.800000
93.070000 12013.700000
94.065100 12349.400000
95.049100 90000.800000
98.096500 14071.900000
103.054200 229218.100000
105.033400 64973.200000
107.049000 9667.300000
109.052000 32545.200000
112.075700 583030.200000
114.046200 12706.600000
114.091400 12045.100000
115.054200 8724252.000000
117.069800 412073.500000
122.060200 9897.000000
122.096300 84143.500000
127.054000 30257.900000
129.069700 28297.700000
131.049100 97094.900000
133.064900 19890.100000
134.096400 94973.700000
135.044000 5965717.000000
136.075500 18073.900000
143.049100 6443234.500000
145.064700 213667.300000
149.059400 11670.000000
150.091400 111447.100000
151.099100 478738.500000
155.049000 9897.900000
157.064700 25542.200000
157.101000 38300.200000
159.044000 1284563.100000
161.059500 157398.500000
171.044000 3967605.200000
172.051300 16610.200000
173.059600 1247596.100000
175.075300 54505.000000
185.059300 12430.500000
185.096300 56897.400000
189.054600 65300.100000
201.054500 6598848.000000
203.070400 16436.400000
218.117400 29081.800000
258.148600 10190.900000
286.144000 10257.900000

>ms2
51.023000 14811.700000
53.002200 101141.700000
53.038600 61191.200000
55.017800 77489.500000
55.054200 16339.600000
56.049500 26512.500000
65.038400 28632.400000
67.054200 82780.100000
69.069800 1267975.500000
70.028700 24525.100000
70.065100 57188.400000
77.038500 135207.400000
79.017800 34940.900000
79.054200 477417.800000
80.049400 52151.800000
81.057300 147118.000000
84.080800 302402.600000
86.096400 244952.400000
89.038600 62092.200000
91.054300 100158.700000
94.065100 35982.900000
95.049100 305069.200000
103.054200 519295.900000
105.033500 231902.800000
107.049400 23595.000000
109.052300 26164.000000
112.075800 157055.400000
114.046400 26155.500000
115.054200 14780828.000000
117.033400 58756.800000
117.069800 372909.600000
122.096400 123319.200000
127.054000 81166.800000
129.069700 29306.000000
131.049200 96163.900000
133.064800 22947.400000
134.096400 83496.400000
135.044000 3858017.200000
136.075800 21721.100000
142.077500 15978.900000
143.049200 5155474.500000
145.064700 182185.400000
147.043900 19242.400000
150.091500 88596.400000
151.099200 197784.800000
157.065000 22822.400000
157.101200 18345.900000
159.044100 822029.700000
161.059600 97097.800000
171.044100 1924776.800000
172.051800 32142.900000
173.059700 412576.400000
175.075700 20709.200000
189.055000 18192.200000
201.054600 1158979.000000

>ms2
53.002200 146489.300000
53.038600 186071.100000
55.017900 103407.400000
55.054300 26844.600000
56.049500 51924.500000
63.022700 33789.300000
65.038500 136470.800000
67.054200 112288.800000
69.069800 682795.900000
70.028700 24607.500000
70.065100 52524.600000
77.038500 343639.300000
79.054200 625702.600000
80.049400 116554.100000
81.057300 168139.700000
84.080800 195475.500000
86.096400 132067.800000
89.038500 346893.200000
91.054200 207537.100000
94.041300 20889.300000
94.065200 42255.400000
95.049100 682520.200000
103.054200 718429.000000
105.033500 420820.800000
107.049100 22172.400000
112.075800 28033.000000
114.046200 34162.800000
115.054200 19306486.000000
116.062000 28466.400000
117.033200 75520.600000
117.069800 219827.800000
122.096400 127122.800000
127.054000 80314.500000
129.069800 32836.200000
131.049200 67390.100000
133.064900 28195.200000
134.096300 62043.900000
135.044000 2235747.200000
136.075600 20255.400000
143.049100 2684246.000000
145.064800 117803.400000
150.091500 74191.900000
151.099300 68022.400000
159.044000 369775.600000
161.059300 31361.700000
171.044000 527387.200000
172.051600 30255.900000
173.059700 103322.400000
201.054500 133287.700000

