>compound LU05135049
>parentmass 294.1713
>ionization [M+H]+
>formula C17H19N5
>rt 875.220000
>profile orbitrap
#smiles_iso CC(C)(C#N)C1=CC(=CC(=C1)CN2C=NC=N2)C(C)(C)C#N
#smiles_can CC(C)(C#N)C1=CC(=CC(=C1)CN2C=NC=N2)C(C)(C)C#N
#inchikey YBBLVLTVTVSKRW-UHFFFAOYSA-N
#pubchem_id 2187
#mb_accession LU016601,LU016602,LU016603,LU016604,LU016605,LU016606

>ms2peaks
225.138500 1030129.600000
294.171200 7276736.500000

>ms2peaks
198.128200 11224.600000
225.138600 6113329.000000
267.160500 25426.200000
294.171400 1578548.500000

>ms2peaks
130.077800 23181.100000
131.085700 12620.000000
142.065200 9661.000000
157.088500 37591.300000
198.127900 69984.500000
209.106700 11677.000000
210.115000 77099.800000
225.138500 7588021.500000
294.171700 25101.000000

>ms2peaks
68.049400 6936.300000
91.054300 32725.700000
103.054300 5658.600000
115.054200 45136.900000
116.062200 13320.100000
117.057500 6900.300000
117.069900 7962.400000
128.062200 10371.700000
129.069900 105271.900000
130.065900 22750.500000
130.077800 318207.700000
131.085600 136084.800000
141.070000 12998.400000
142.065200 222719.100000
143.073000 29377.200000
143.085600 41931.600000
144.081100 8534.600000
144.093400 5857.300000
154.065300 8060.000000
155.073100 11799.800000
156.081000 68393.200000
156.093100 22699.200000
157.088700 341177.200000
158.096600 43128.900000
158.109100 8107.800000
160.076000 7488.500000
165.070000 5688.900000
166.077800 8078.100000
168.080800 66224.000000
169.076000 8250.200000
170.096400 58297.800000
171.116800 47318.400000
181.101200 5617.800000
182.096400 22896.800000
183.104400 77392.600000
195.091900 144141.400000
198.127900 199676.200000
209.107500 237648.600000
210.115300 838139.100000
225.138700 5408573.000000
228.125700 54136.900000
242.141500 22434.000000

>ms2peaks
53.038600 3593.100000
55.054200 3792.000000
68.049500 18572.300000
79.054200 5719.500000
89.038400 3240.400000
90.046300 4223.700000
91.054200 131781.400000
92.062100 3188.200000
93.069700 2643.600000
102.046700 5084.600000
103.054200 32092.200000
104.062000 3901.400000
105.069900 11997.700000
115.054200 317389.500000
116.049400 14841.600000
116.062100 65083.300000
117.057200 28614.800000
117.069900 28280.400000
118.065000 8453.500000
119.085700 4197.600000
128.062000 65153.400000
129.069900 441402.400000
130.065700 53038.700000
130.077700 577051.400000
131.085500 217749.700000
133.064700 2959.300000
140.049300 16970.100000
140.061900 2851.400000
141.057200 15732.100000
141.069900 111229.500000
142.065200 1064140.800000
143.072900 70184.200000
143.085500 108566.700000
144.080600 13916.100000
144.093200 11650.400000
145.064900 5766.200000
145.101300 7375.800000
153.057400 11267.100000
153.069500 5375.700000
154.065100 55178.900000
155.060200 8143.300000
155.072900 68592.000000
155.084800 15044.800000
156.080900 186165.000000
156.092900 69377.500000
157.088600 378521.200000
158.096500 65041.400000
158.108800 8910.100000
160.075600 38446.900000
165.069800 14521.200000
166.065100 5325.200000
166.077700 10898.100000
167.073000 34906.700000
168.080800 407941.800000
169.064800 6638.700000
169.076000 28349.600000
169.088200 12958.800000
169.101200 3585.900000
170.096400 93994.300000
171.104300 5617.400000
171.116800 51084.800000
172.111700 3751.900000
178.065000 8750.500000
179.059900 2969.300000
180.068100 7811.400000
181.076400 3654.900000
181.088800 6231.200000
181.101100 4846.400000
182.096500 79501.500000
183.104300 166893.500000
184.111800 8218.900000
192.080500 3435.900000
193.076400 2935.700000
194.084100 17842.100000
195.091700 587755.700000
196.111600 5104.100000
197.107800 3741.100000
198.127700 169445.600000
208.100100 3677.600000
209.107400 566696.600000
210.115100 917714.700000
225.138600 1360682.200000
227.117400 2971.900000
228.125600 63991.300000
242.141400 22486.900000

>ms2peaks
53.038600 9595.800000
55.054200 3289.000000
68.049400 10078.400000
79.054100 6340.600000
89.038700 6110.900000
90.046500 9751.100000
91.054200 172371.700000
92.062200 2525.300000
93.069800 3059.500000
102.046300 13183.400000
103.054200 49226.400000
104.061700 3645.900000
105.069900 12212.200000
115.054200 933494.500000
116.049500 69493.900000
116.062000 83445.000000
117.057300 28250.300000
117.069800 33715.000000
118.065100 9312.200000
119.085200 2727.900000
128.062000 172756.100000
129.069800 644609.400000
130.065300 44430.600000
130.077700 302409.500000
131.085500 118674.600000
133.064700 8023.800000
140.049500 86811.400000
140.062200 5006.600000
141.057400 52952.800000
141.069900 356261.400000
142.065100 1342562.500000
143.073000 67700.300000
143.085500 90215.800000
144.080700 11942.100000
144.093300 4695.700000
145.064800 27018.100000
145.101000 6736.000000
153.057300 92143.200000
153.069700 9556.500000
154.065100 137704.200000
155.060900 28759.200000
155.072900 93789.600000
155.085200 46542.100000
156.080900 169145.200000
156.092800 49955.300000
157.088500 144670.500000
158.096600 29874.600000
158.108800 4405.100000
160.075700 30042.700000
165.069800 24042.800000
166.065200 20269.300000
166.077700 4515.700000
167.073000 136299.200000
168.080700 665552.400000
169.064700 34714.000000
169.076000 34383.800000
169.088600 8361.100000
170.096300 48491.100000
171.116800 21695.700000
178.065100 15946.100000
179.060100 19725.800000
180.068300 23112.100000
181.075700 8953.700000
181.088800 8589.900000
181.101000 2377.200000
182.096500 113439.800000
183.104300 80012.700000
184.112300 7649.800000
192.080600 8277.100000
193.076100 15220.400000
194.084000 73293.100000
195.091700 461463.500000
198.127700 35553.400000
208.099800 3012.700000
209.107300 483032.300000
210.115100 240536.500000
225.138500 124589.800000
227.117600 2785.600000
228.125600 22457.400000
242.141500 7430.400000

