>compound LU05602547
>parentmass 293.1172000000001
>ionization [M+H]+
>formula C19H16O3
>rt 1088.820000
>profile orbitrap
#smiles_iso C1CC(C2=CC=CC=C2C1)C3=C(C4=CC=CC=C4OC3=O)O
#smiles_can C1CC(C2=CC=CC=C2C1)C3=C(C4=CC=CC=C4OC3=O)O
#inchikey ULSLJYXHZDTLQK-UHFFFAOYSA-N
#pubchem_id 54678504
#mb_accession LU071001,LU071002,LU071003,LU071004,LU071005,LU071006

>ms2
91.054000 100929.900000
131.085300 100269.500000
163.038900 81329.800000
175.038800 486650.100000
189.054000 15964.800000
215.069600 14431.800000
293.116800 12795014.000000

>ms2
65.038400 6700.000000
77.038400 7677.600000
91.054200 1727556.500000
95.049100 20444.800000
105.069800 145954.600000
107.049000 35929.400000
117.069800 7294.100000
119.085500 76165.600000
121.028200 78553.600000
128.061900 6561.700000
129.069800 89525.700000
131.085500 1281961.600000
147.043900 68214.900000
159.044200 19911.600000
163.038900 802538.200000
171.080200 10991.300000
175.038900 6183585.500000
177.054200 9344.600000
187.075200 38094.500000
189.054500 234500.700000
201.054200 21285.700000
215.070100 231595.700000
247.111700 12328.500000
275.106600 14570.600000
291.101700 8250.900000
293.117000 6158419.000000

>ms2
65.038400 35593.100000
69.033400 16704.800000
77.038700 12159.700000
79.054100 70360.400000
91.054200 3920228.000000
95.049100 319950.800000
103.054300 20676.600000
105.069800 295212.900000
107.049100 560096.100000
115.054100 13662.800000
116.062100 19746.100000
117.069800 14021.200000
119.085500 45674.400000
121.028300 300691.800000
128.061900 57721.900000
129.069800 141012.700000
131.085500 1457482.200000
143.085500 41294.800000
147.043800 53249.900000
153.069700 12634.900000
159.044100 24228.700000
159.080200 12434.800000
163.038900 600457.200000
169.064700 10652.700000
171.079700 16001.200000
175.038800 8845837.000000
177.054600 9974.000000
187.075100 40151.700000
189.054500 371091.800000
197.059700 14611.400000
201.054600 30824.800000
215.070100 204326.100000
293.117000 355138.900000

>ms2
53.002200 8087.200000
53.038600 55219.400000
55.017900 18027.000000
63.022900 9464.100000
65.038600 114740.100000
67.054200 23350.700000
68.997200 9842.900000
69.033500 53606.500000
77.038300 31697.200000
79.054200 736408.700000
81.033600 5980.000000
91.054300 5180932.500000
93.033500 12209.100000
95.049200 1218125.400000
103.054300 133414.200000
105.069900 348319.800000
107.049100 2557352.800000
111.044000 6773.800000
115.054200 46381.000000
116.062100 61173.100000
117.069900 21921.400000
119.049200 10311.700000
119.085700 14544.200000
121.028400 1055912.500000
125.059600 13756.300000
128.062100 133709.900000
129.069900 150929.700000
131.085600 680373.800000
139.039000 14273.500000
141.070100 11125.700000
143.049100 10345.100000
143.085700 28986.500000
145.064700 26735.300000
147.044000 69512.800000
149.023300 9493.100000
152.062000 18685.900000
153.069600 21343.500000
159.044200 26639.500000
159.080000 22241.800000
163.039000 262247.600000
169.064800 12271.400000
175.039000 5578610.000000
187.039200 8364.200000
187.075500 17418.900000
189.054700 236593.000000
197.059600 7951.000000
201.054700 23226.000000
215.070400 40019.800000

>ms2
51.022800 7169.500000
53.002200 19548.600000
53.038600 209976.800000
55.017800 44341.400000
63.022900 8262.700000
65.038500 360563.800000
67.054200 40784.400000
68.997100 10613.000000
69.033500 61966.500000
77.038400 70954.800000
79.054200 2043408.800000
81.033500 24129.800000
91.054200 5282082.000000
93.033500 42972.100000
93.069900 8054.900000
94.041300 24682.700000
95.049100 1620538.000000
102.046500 7464.900000
103.054200 257752.300000
105.069900 273717.800000
107.049100 2839154.800000
109.065000 12420.000000
111.044000 40049.000000
115.054100 94525.400000
116.062000 96679.400000
117.069900 22457.300000
119.049100 23889.900000
119.085500 6997.300000
121.028400 1546772.000000
125.059700 13559.300000
127.054000 10118.900000
128.062000 163607.000000
129.069800 115295.800000
131.049100 29015.300000
131.085500 207329.300000
138.031100 10535.200000
139.038900 34582.000000
141.069700 15938.300000
143.049000 5611.500000
143.085600 9184.800000
144.056900 7924.200000
145.064700 25662.800000
147.044000 63799.000000
152.061900 26720.600000
153.069800 16608.500000
159.043900 12675.100000
159.080300 6346.600000
163.038800 76383.600000
169.064400 7215.500000
175.038900 1601469.000000
187.039100 9397.900000
187.074900 7268.100000
189.054600 68899.300000
201.054700 6369.300000
215.070600 5916.600000

>ms2
51.022900 7993.300000
53.002200 44771.800000
53.038600 442025.800000
55.017900 63853.500000
63.022800 20343.900000
65.038500 961972.300000
67.054200 41420.300000
68.997200 18234.700000
69.033500 50385.400000
77.038500 176016.200000
79.054200 2542591.200000
81.033500 52609.100000
81.070000 6316.600000
89.038700 14809.500000
91.054200 5272583.000000
92.025700 10382.900000
93.033500 148432.900000
93.070000 8243.300000
94.041400 56505.000000
95.049100 1836296.800000
102.046500 20368.100000
103.054200 316717.200000
105.069900 197418.100000
107.049100 1608388.400000
109.064900 21171.000000
111.044100 122676.300000
115.054200 121977.500000
116.062100 101484.100000
117.069800 21262.100000
119.049200 17325.900000
121.028400 1522744.200000
125.059800 12663.100000
127.054300 13695.800000
128.062000 160810.200000
129.069900 68955.200000
131.049100 33366.900000
131.085400 62320.600000
138.031100 8276.400000
139.038900 45793.900000
141.070100 11684.600000
144.057100 10183.100000
145.064900 24848.400000
147.044100 45402.700000
152.061900 27226.600000
159.044100 6429.500000
163.039000 19320.100000
175.039000 325445.200000
187.039500 10991.300000
189.054400 14086.800000

