>compound LU05614888
>parentmass 198.1852
>ionization [M+H]+
>formula C12H23NO
>rt 1100.810000
>profile orbitrap
#smiles_iso C1CCCCCC(=O)NCCCCC1
#smiles_can C1CCCCCC(=O)NCCCCC1
#inchikey JHWNWJKBPDFINM-UHFFFAOYSA-N
#pubchem_id 13690
#mb_accession LU080701,LU080702,LU080703,LU080704,LU080705,LU080706

>ms2peaks
57.070000 53245.200000
71.085400 53181.000000
86.060000 850850.400000
98.060300 67685.400000
198.185000 42764540.000000

>ms2peaks
55.054300 57565.900000
57.069800 56395.600000
69.069800 91128.400000
81.069900 38387.200000
83.085500 154996.900000
95.085700 43555.400000
97.101200 111946.300000
100.075700 53745.200000
107.085500 38762.600000
114.091300 36326.300000
198.185200 35825944.000000

>ms2peaks
53.002200 33135.400000
55.017900 111087.600000
55.054200 907689.700000
57.069900 839310.700000
58.065100 55425.700000
67.054200 146936.900000
69.069800 1209489.000000
70.065100 47702.700000
71.049100 52223.700000
71.085500 408577.800000
72.044300 97822.100000
72.080800 165767.200000
79.054200 150691.900000
81.069900 363975.400000
82.065100 82282.500000
83.049100 90226.000000
83.085500 1517620.800000
84.080900 43453.800000
85.064800 73186.900000
85.101200 120489.300000
86.060000 313175.800000
86.096400 86163.400000
93.069900 256855.300000
95.085500 334263.500000
96.080800 108546.500000
97.064800 297587.700000
97.101200 909496.600000
100.075700 454334.800000
100.112100 52636.700000
107.085500 263338.700000
110.096400 87273.000000
111.080500 220507.500000
114.091400 244529.500000
114.127700 57928.700000
121.101200 235836.100000
124.112100 100903.600000
125.096200 106151.600000
128.106900 63379.200000
128.143400 73450.200000
135.116600 39466.200000
142.122700 26627.300000
156.175100 74087.300000
163.148000 65351.100000
180.174700 64281.900000
198.185200 25554114.000000

>ms2peaks
53.002200 320154.100000
53.997500 42446.500000
55.054200 100769.300000
57.069900 4051129.800000
58.065100 37446.400000
68.049400 151813.300000
69.033500 1706995.400000
70.065100 78925.900000
71.085500 1976712.600000
86.060000 30728902.000000
98.060000 371463.800000
100.075700 90794.200000
114.091300 270462.400000
128.107000 350806.500000
142.122600 130241.000000
156.138300 53965.900000
198.185200 8170596.000000

>ms2peaks
53.002200 384050.400000
53.997500 70594.100000
55.054300 119244.900000
57.069900 2700697.200000
58.065100 48690.800000
68.049400 226103.100000
69.033500 2013640.600000
70.065100 88151.000000
71.049100 33258.800000
71.085500 652655.600000
84.044400 31508.200000
86.060000 16631895.000000
93.057300 19575.800000
98.060000 140666.800000
100.075700 31094.900000
106.065200 26337.600000
114.091400 104628.000000
128.106800 85437.500000
142.122500 40765.400000
198.185300 721585.800000

>ms2peaks
53.002200 376189.900000
53.038600 156736.100000
53.997500 61257.000000
54.010100 8653.000000
55.017900 527079.100000
55.054300 4297427.000000
56.049500 79162.400000
57.069900 1263595.500000
58.065100 106994.300000
60.044400 33266.100000
67.054200 468761.800000
68.049400 33870.900000
69.069900 1673312.800000
70.065100 81726.500000
71.049200 19570.800000
71.085500 106025.900000
72.044400 167196.700000
72.080800 166637.300000
74.060100 10334.300000
79.054200 594452.100000
81.069900 362863.700000
82.065100 214793.500000
83.049200 82160.000000
83.085500 401271.900000
84.080700 42847.300000
85.101300 11414.200000
86.060000 136412.900000
86.096400 67795.300000
88.075900 14993.100000
91.054300 224003.800000
93.057400 47575.900000
93.069900 220429.000000
95.085500 164001.200000
96.080800 147366.600000
97.064900 97710.400000
97.101200 74561.300000
98.096400 12112.000000
100.075700 53427.200000
100.112200 24137.000000
105.069900 53896.300000
106.065100 64296.600000
107.085600 46600.700000
110.096600 28695.600000
111.080500 23235.200000
114.091400 9027.000000
114.127700 7658.500000
120.080900 14642.900000
121.101200 16747.400000
124.112300 17569.300000
125.096200 7203.100000
156.174700 8558.000000
198.185500 43219.900000

