>compound LU05895144
>parentmass 312.17250000000007
>ionization [M+H]+
>formula C17H26ClNO2
>rt 1174.980000
>profile orbitrap
#smiles_iso CCCCOCN(C1=C(C=CC=C1CC)CC)C(=O)CCl
#smiles_can CCCCOCN(C1=C(C=CC=C1CC)CC)C(=O)CCl
#inchikey HKPHPIREJKHECO-UHFFFAOYSA-N
#pubchem_id 31677
#mb_accession LU056001,LU056002,LU056003,LU056004,LU056005,LU056006

>ms2peaks
57.069900 81606.200000
87.080400 47987.700000
162.127800 14651.900000
208.088800 1864.200000
238.099400 236219.000000

>ms2peaks
55.054200 3459.700000
57.069900 141634.300000
87.080500 18128.000000
90.010400 8687.200000
162.127700 51640.100000
208.088900 3817.600000
238.099500 75973.100000

>ms2peaks
53.002300 2452.800000
55.054300 4067.500000
57.069900 132506.500000
87.080500 4024.900000
90.010500 14694.300000
134.096300 1824.300000
146.096500 2794.400000
147.104400 6116.400000
161.119600 2446.700000
162.127700 60532.900000
163.111700 9358.100000
238.099500 6239.400000

>ms2peaks
53.002200 2613.700000
55.054200 4832.800000
57.069900 82941.500000
74.096400 4468.900000
90.010500 6819.100000
118.065300 2552.100000
132.080700 3916.600000
134.096500 3347.000000
146.096600 4332.300000
147.104400 25846.400000
161.120400 1748.100000
162.127800 28205.300000
163.111800 4756.400000

>ms2peaks
53.002200 2279.000000
55.054200 3547.800000
57.069900 36000.400000
74.096400 3877.800000
90.010600 2468.700000
132.080800 7884.000000
146.096700 2834.100000
147.104300 18692.400000
162.128300 3102.000000

>ms2peaks
53.002300 3207.600000
55.054300 3270.700000
57.069900 25521.400000
90.010600 2812.800000
118.065600 2026.300000
132.080800 23354.100000
146.096700 5604.800000
147.104300 12417.200000

