>compound LU06146187
>parentmass 526.131
>ionization [M+H]+
>formula C25H24ClN5O4S
>rt 954.420000
>profile orbitrap
#smiles_iso C1CC1N2CCC(CC2)NC(=O)C3=NC4=C(N3CC5=NOC(=C5)C6=CC=C(S6)Cl)C=CC(=C4)C(=O)O
#smiles_can C1CC1N2CCC(CC2)NC(=O)C3=NC4=C(N3CC5=NOC(=C5)C6=CC=C(S6)Cl)C=CC(=C4)C(=O)O
#inchikey PQDRCVHHJPMGKO-UHFFFAOYSA-N
#pubchem_id 53316387
#mb_accession LU060101,LU060102,LU060103,LU060104,LU060105,LU060106

>ms2
124.112100 40646.500000
167.117900 132182.100000
360.020500 70574.700000
455.057400 6324.300000
526.131600 2558458.000000

>ms2
55.054200 11393.300000
56.049400 2975.600000
67.054200 3792.200000
68.049400 6282.900000
69.069800 2814.400000
70.065100 18977.200000
72.080700 34274.900000
81.070000 5934.700000
82.065100 9412.400000
84.080700 11407.400000
95.085500 6710.200000
96.080800 23717.900000
109.088600 2400.800000
122.096500 21585.400000
124.112100 589751.500000
125.070800 3659.000000
167.117900 2000348.800000
197.977500 6777.600000
360.020600 594044.900000
455.058100 31895.400000
526.131500 98326.700000

>ms2
53.038600 3300.900000
55.054200 68155.900000
56.049500 14644.700000
67.054200 11735.300000
68.049400 16881.000000
69.069800 8189.000000
70.065100 78730.200000
72.080700 38099.900000
79.054100 8787.200000
80.013200 3663.300000
80.049400 6924.200000
81.069900 19744.400000
82.065100 53124.200000
83.072800 3224.900000
84.044300 2405.800000
84.080800 43570.000000
94.065100 3020.600000
95.085600 15310.500000
96.080700 96720.200000
109.088500 7272.200000
114.055000 2736.600000
119.060200 3853.000000
122.096400 62451.800000
124.112100 541380.700000
125.070900 52827.200000
135.013600 4640.600000
139.086400 10906.400000
142.971600 22696.500000
144.950900 52144.100000
145.039700 8911.700000
163.008500 3264.700000
163.050300 19706.100000
167.117900 1513793.000000
169.982700 34535.700000
170.966000 2684.200000
175.050200 54094.600000
176.058000 36694.400000
197.977500 52371.200000
214.060500 5742.000000
215.068900 12631.000000
333.008800 16393.800000
360.020500 189200.100000

>ms2
53.002300 10184.900000
53.038600 9062.400000
55.054300 195493.500000
56.049500 64105.700000
65.038500 2644.100000
67.054200 28392.700000
68.049500 50355.500000
69.069800 14068.200000
70.065100 141443.200000
72.080800 61755.600000
79.054200 18209.200000
80.013100 7819.800000
80.049400 21083.600000
81.057300 10324.000000
81.069900 40813.500000
82.065200 117303.400000
83.072900 9390.100000
84.044500 6721.200000
84.080800 83041.400000
91.054400 2745.000000
93.069900 3240.300000
94.065200 16989.300000
95.085600 33235.700000
96.044400 7772.300000
96.080800 132833.800000
98.096400 9701.700000
108.002700 4463.400000
109.088700 10158.400000
114.055000 2472.300000
119.060400 7329.200000
122.096500 75007.000000
124.112100 419601.200000
125.071000 117556.600000
130.971500 4746.800000
131.060400 6712.200000
134.006000 12390.800000
135.013700 39248.700000
139.086600 24476.200000
142.971700 83499.000000
144.950900 78440.900000
145.039800 10159.700000
163.008700 3486.900000
163.050100 23298.000000
167.117900 735709.900000
169.982600 70707.600000
170.966800 4308.000000
175.050300 100181.400000
176.058200 30640.600000
187.050600 3177.700000
197.977500 29312.900000
214.060500 11815.100000
215.069200 10130.100000
333.008900 11060.400000
360.020500 6553.900000

>ms2
53.002200 19066.500000
53.038600 21735.900000
53.997500 4172.700000
54.033800 2914.800000
55.054300 260822.700000
56.049500 110807.700000
65.038500 6279.900000
67.041900 2768.900000
67.054200 37192.800000
68.049500 53117.800000
69.069900 13163.300000
70.065100 132759.100000
72.080800 42993.600000
72.983900 6928.600000
79.054200 22550.100000
80.013000 6071.600000
80.049500 35367.800000
81.057400 10790.200000
81.069900 29943.700000
82.065200 124594.800000
83.072900 9144.400000
84.044400 9211.800000
84.080800 74910.900000
90.033900 4674.900000
91.054200 2988.900000
92.049600 7175.900000
93.069800 2901.500000
94.065100 23561.500000
95.085600 22615.800000
96.044400 10758.100000
96.080800 115252.600000
98.096500 5029.900000
98.999700 4337.700000
104.049600 3804.200000
108.002800 25622.600000
108.080800 4120.000000
109.088600 8710.400000
110.096500 6371.700000
117.045000 3226.600000
119.060600 10583.100000
122.096400 55108.400000
124.112200 194674.600000
125.071000 97378.900000
129.044700 7129.200000
130.972000 2138.400000
131.060300 8933.600000
134.006000 19778.000000
135.013700 59736.800000
139.086600 16439.600000
142.971700 77523.100000
144.950900 81822.200000
145.039700 8258.500000
163.050200 8892.000000
167.118000 188743.500000
169.982800 28525.900000
175.050300 75667.500000
176.058100 9421.900000
187.050700 3857.600000

>ms2
53.002200 13128.700000
53.038600 11765.400000
53.997500 3252.500000
54.033900 2296.700000
55.054300 130965.900000
56.049500 58850.000000
65.038600 6995.700000
67.041700 2485.500000
67.054300 18538.600000
68.049500 22884.900000
69.070000 5016.700000
70.065100 49891.500000
72.080800 13050.100000
72.983900 9517.500000
79.054200 10078.000000
80.013100 2718.800000
80.049500 22717.000000
81.057400 7576.000000
81.070000 9232.600000
82.065100 48280.700000
83.073000 3781.300000
84.080800 23084.200000
90.033900 3970.700000
91.054400 2458.000000
92.049500 3256.700000
94.065200 10867.300000
95.085500 6683.100000
96.044600 3806.200000
96.080800 27341.400000
98.999700 3908.200000
104.049400 3099.500000
108.002800 25175.500000
108.080800 2761.300000
109.088700 2235.900000
110.096600 4036.100000
117.044600 2180.900000
119.060500 6311.200000
122.096400 11193.000000
124.112100 27207.600000
125.070900 18584.100000
129.044800 6838.800000
131.060400 4586.200000
134.005900 4844.800000
135.013800 24646.000000
142.971600 21261.800000
144.951000 32293.300000
145.039700 2895.800000
167.117900 18240.100000
169.982700 3529.900000
175.050300 22740.400000

