>compound LU06972111
>parentmass 397.1659
>ionization [M+H]+
>formula C24H20N4O2
>rt 1030.440000
>profile orbitrap
#smiles_iso CC1=CC2=C3C(=C1)C(=N[C@H](C(=O)N3CC2)NC(=O)C4=CC=NC=C4)C5=CC=CC=C5
#smiles_can CC1=CC2=C3C(=C1)C(=NC(C(=O)N3CC2)NC(=O)C4=CC=NC=C4)C5=CC=CC=C5
#inchikey KYFWUBJMTHVBIF-QFIPXVFZSA-N
#pubchem_id 9865514
#mb_accession LU121701,LU121702,LU121703,LU121704,LU121705,LU121706

>ms2peaks
247.121700 106341.900000
275.117900 5628456.000000
369.171100 47912.800000
380.140500 24571.400000
397.166000 12345983.000000

>ms2peaks
106.028700 89406.300000
123.055300 59639.100000
172.075600 74975.200000
247.122900 3923571.500000
266.128700 36959.200000
274.110500 16541.400000
275.117700 16384281.000000
290.128700 94659.200000
291.137100 19978.100000
369.170800 373153.900000
379.154900 95114.800000
380.139500 54043.400000
397.165900 447531.300000

>ms2peaks
78.033800 34704.300000
80.049400 35727.300000
105.044700 18592.000000
106.028700 141884.700000
123.055200 200102.100000
144.080800 165108.000000
159.091700 16841.400000
162.091100 29785.700000
168.080700 49002.200000
172.075600 255701.900000
183.055400 21307.400000
186.102600 32653.100000
211.086600 17779.200000
232.099100 25702.300000
247.122800 16390620.000000
257.107500 45525.900000
260.094100 80402.100000
262.132700 21045.700000
263.117600 34657.500000
274.109900 35308.300000
274.135000 18753.600000
275.117700 4007494.800000
290.128300 65102.300000
369.171200 52721.200000
379.155400 47525.100000

>ms2peaks
78.033800 94194.900000
80.049400 62974.100000
105.044700 50379.000000
106.028700 88962.900000
115.054000 27202.900000
116.049400 46156.500000
123.055200 246110.300000
143.073100 24860.400000
144.080700 691731.600000
155.060300 42238.800000
159.091600 33635.900000
162.091200 42293.500000
167.072900 27338.800000
168.081000 22748.800000
169.076000 36199.500000
172.075700 98829.200000
186.102500 26813.000000
205.088700 20472.800000
220.112300 34987.500000
231.091000 65946.400000
232.099400 83346.500000
242.084100 30699.100000
245.107900 29997.400000
246.115800 42116.600000
247.122800 19233070.000000
256.099800 36098.200000
257.107500 73888.800000
259.085900 67947.600000
260.094000 106456.200000
263.117600 91388.700000
273.102000 27190.700000
274.108700 23568.700000
275.117600 368407.800000

>ms2peaks
78.033800 121640.700000
80.049400 98891.500000
91.054200 153821.400000
95.060400 24883.200000
96.044200 20144.600000
104.049400 73437.400000
105.044600 58530.800000
106.028700 51622.000000
115.054200 377626.800000
116.049400 75617.200000
116.062000 16421.200000
117.057300 28482.300000
117.069800 144133.800000
123.055200 185522.200000
128.049300 38404.100000
129.057200 34244.100000
130.064900 37045.400000
131.072800 39089.500000
132.080800 19493.800000
135.080400 100715.200000
142.065100 148357.400000
143.072900 282208.000000
144.080700 2041878.900000
145.075900 111687.100000
146.059900 17745.300000
155.060300 65943.600000
159.091400 18426.900000
160.075600 63984.000000
167.073100 25836.500000
168.067800 29810.700000
169.076000 238979.000000
178.077700 23803.900000
204.080700 86387.800000
205.076100 23302.500000
205.088600 88090.400000
218.083800 32634.700000
218.096400 24498.700000
219.091700 25297.300000
219.104400 25717.500000
220.111800 71412.600000
230.096400 24964.400000
231.091600 547444.000000
232.099500 304652.200000
242.084100 43059.700000
245.107500 166784.500000
246.115400 116148.300000
247.122800 14309849.000000
255.091700 16897.800000
256.099300 45675.200000
257.107500 27745.300000
259.086400 105840.900000
260.093800 50183.800000
263.117600 53863.500000
273.102200 30129.200000
275.117200 26247.600000

>ms2peaks
53.038600 31440.900000
65.038600 24598.800000
77.038600 16115.000000
78.033800 131378.900000
79.041600 25331.700000
80.049500 167543.800000
89.038500 38500.300000
91.054200 681289.100000
95.049200 44345.800000
95.060400 43787.100000
96.044500 23070.200000
103.054200 50644.400000
104.049500 192494.200000
105.033700 7394.000000
105.044700 84136.400000
106.028700 24932.200000
111.031400 13523.400000
115.054200 1721436.000000
116.049400 131316.700000
116.062000 97091.200000
117.057300 99952.000000
117.069900 397403.200000
118.065000 32756.600000
123.055200 122807.600000
128.049500 138664.700000
128.062000 16257.200000
129.057300 171793.500000
130.065200 107712.900000
131.072900 71965.600000
132.080800 16699.000000
134.060000 56322.500000
135.080400 201846.100000
140.049400 36956.300000
141.057400 60622.700000
142.065200 551350.900000
143.073000 1156274.000000
144.080800 3006871.500000
145.065900 31598.900000
145.075900 243801.500000
146.060000 62870.600000
154.065000 7236.400000
155.060300 102867.200000
156.080800 13001.200000
158.060100 18893.600000
159.091700 13952.400000
160.075700 192161.900000
165.069700 34090.900000
167.072900 36365.200000
168.068100 102103.200000
169.076000 497502.300000
174.091700 26545.500000
178.077800 103239.000000
180.080700 13492.100000
185.071000 20942.200000
187.086600 7298.100000
190.065200 32572.300000
191.073100 10917.100000
192.080700 20087.500000
193.101200 16117.900000
201.102900 9752.500000
202.077700 28497.600000
203.073000 20822.300000
203.085700 17135.500000
204.080700 413233.900000
205.076100 68962.400000
205.088600 144932.700000
206.083700 18652.500000
207.091900 12773.200000
215.073100 11253.300000
217.088700 35586.400000
218.083800 70819.500000
218.096400 92189.100000
219.091600 58374.900000
219.104300 66374.000000
220.099400 21719.000000
220.112100 78856.400000
221.107200 16908.100000
228.080500 15053.100000
229.088500 12275.700000
230.083800 38812.500000
230.096300 32697.200000
231.091700 1467925.100000
232.099500 395835.500000
242.083500 28024.100000
245.107400 456028.600000
246.115200 164195.800000
247.122900 7036356.000000
255.091900 36033.100000
256.099600 32049.700000
257.107300 8210.800000
258.078600 27381.900000
259.086600 64743.200000
260.094600 15850.700000
263.117900 17283.900000
273.102400 15353.000000

