>compound LU06049920
>parentmass 261.03209999999996
>ionization [M+H]+
>formula C7H15Cl2N2O2P
>rt 835.080000
>profile orbitrap
#smiles_iso C1CN(P(=O)(OC1)NCCCl)CCCl
#smiles_can C1CN(P(=O)(OC1)NCCCl)CCCl
#inchikey HOMGKSMUEGBAAB-UHFFFAOYSA-N
#pubchem_id 3690
#mb_accession LU089501,LU089502,LU089503,LU089504,LU089505,LU089506

>ms2peaks
78.010500 66318.300000
120.057500 49000.300000
153.981900 78111.000000
182.013100 147193.400000
182.942200 12062.500000
200.023800 194269.400000
200.952300 25825.900000
233.000800 518806.600000
261.032000 8946525.000000

>ms2peaks
56.049600 6808.500000
67.054200 8372.200000
78.010500 759680.400000
80.026100 15395.300000
82.065200 9282.400000
84.080800 6424.800000
92.026100 975690.500000
116.950400 21534.600000
118.041700 23456.400000
120.057500 259650.100000
124.015700 6126.000000
126.971100 7415.900000
127.966300 41642.800000
128.025900 6797.300000
141.981900 23279.800000
146.036500 89572.000000
153.981900 936636.400000
154.946900 22347.000000
156.962700 15506.300000
164.047200 16198.700000
164.986600 5098.200000
172.957900 8302.700000
174.008200 6776.800000
182.013200 830892.100000
184.940000 14641.200000
185.023600 12610.800000
199.039900 5516.600000
200.023800 546723.200000
200.952400 10910.400000
217.989900 13644.400000
233.000800 1791137.100000
261.032000 4495887.000000

>ms2peaks
53.002200 6171.400000
54.033800 7023.200000
55.054300 4519.200000
56.049500 89938.800000
57.069900 5958.500000
58.065100 10633.200000
62.999600 206902.300000
63.994800 8399.800000
67.054200 44787.700000
68.049400 3613.000000
72.044300 22199.700000
74.096500 3692.600000
78.010500 1601160.200000
80.026100 42952.900000
80.049400 6134.800000
82.065100 50117.100000
83.072900 10394.300000
84.080800 37630.600000
92.026100 3421324.800000
98.000100 6778.900000
115.966200 35666.900000
116.950300 131207.800000
118.041800 52902.200000
120.057500 520755.400000
124.015900 31410.500000
126.971100 27031.600000
127.966200 94428.000000
128.026000 50925.300000
130.965600 3858.200000
136.015700 42855.800000
137.987000 7401.200000
138.031500 7121.300000
139.966200 18195.400000
140.986700 12209.500000
141.981900 99959.800000
143.961200 8427.500000
146.036500 200993.000000
153.981800 2559163.000000
154.946900 28496.700000
155.997300 12375.200000
156.962600 7343.900000
159.992400 7409.900000
160.051900 4773.700000
164.047000 34176.700000
164.986600 9900.800000
168.962700 7360.000000
171.008500 5883.600000
171.992200 10097.000000
172.957200 18139.400000
174.008100 7768.700000
182.013100 548207.900000
182.997300 5429.900000
185.024000 8590.100000
186.008300 3436.000000
189.958600 7643.700000
199.039900 4011.700000
200.023800 144380.100000
217.989500 9986.300000
233.000800 592621.600000
261.032000 330945.000000

>ms2peaks
53.002300 10114.900000
54.033900 17963.700000
55.054200 11424.300000
56.049500 364445.400000
57.057300 6767.900000
57.069900 9667.900000
58.065100 29480.400000
59.049100 8214.700000
62.999600 882836.800000
63.994800 29356.900000
64.978700 5521.800000
65.038500 7732.000000
67.041600 4705.200000
67.054200 58273.900000
68.049400 13845.800000
70.065100 5580.400000
72.044300 57905.700000
74.096400 5556.800000
78.010500 1171491.400000
80.026200 46613.400000
80.049500 14380.700000
82.065100 63231.800000
83.072900 18817.800000
84.080700 39054.100000
92.026100 3961035.500000
98.000200 20901.400000
99.994700 5861.000000
105.009900 6566.600000
106.005100 25630.800000
109.004900 15550.800000
112.015800 4539.000000
114.970900 5701.100000
115.966200 27400.800000
116.950300 342673.600000
118.005200 12235.200000
118.041700 60006.200000
120.021000 25382.500000
120.057400 377740.200000
123.971300 5863.400000
124.015800 51900.400000
125.950500 6043.100000
126.971000 21384.100000
127.966200 87281.500000
128.026000 70932.400000
130.966000 4912.000000
134.961200 6351.000000
136.015800 111208.700000
137.987100 6659.300000
138.031300 13519.100000
139.966300 8563.700000
140.986500 4025.600000
141.981900 118600.600000
143.961200 19676.000000
146.036500 94681.500000
147.020500 9217.000000
153.981900 1893347.200000
154.946800 26994.200000
155.997400 14621.600000
159.992400 5565.500000
164.047000 17065.600000
171.992400 15318.900000
172.957700 12667.600000
182.013100 64176.600000
189.958500 4819.200000
200.023800 5953.700000
233.000800 39060.100000
261.031800 8143.100000

>ms2peaks
53.002200 11394.400000
53.997300 3083.800000
54.033800 34360.500000
55.054200 13029.000000
56.049500 633452.700000
57.057300 8214.400000
57.069900 7953.400000
58.065100 31518.800000
59.049100 11763.600000
62.999600 2027014.500000
63.994800 57166.000000
64.978600 8842.300000
65.038500 12319.200000
67.041700 10797.200000
67.054200 46066.500000
68.049400 23430.600000
70.065100 15801.100000
72.044300 56000.600000
78.010500 756927.000000
78.994200 4998.600000
80.026200 33543.200000
80.049400 22525.500000
81.057200 8202.000000
82.065100 61462.200000
83.073000 18533.000000
84.080800 29965.400000
87.994700 5617.100000
90.010400 6567.400000
92.026100 3008543.200000
95.951500 4676.000000
97.004900 6642.200000
98.000200 52991.000000
99.994700 20131.900000
102.010400 3151.800000
106.005200 28052.600000
109.004900 34482.600000
112.015600 3547.800000
114.970800 4528.600000
115.966300 17744.300000
116.950300 314775.100000
118.005200 19772.700000
118.041700 27666.800000
120.020900 27311.600000
120.057500 164803.800000
123.971200 6878.800000
124.015800 47817.700000
125.950600 4180.800000
126.970900 12753.800000
127.966300 57244.300000
128.025900 53661.600000
130.965700 3617.800000
136.015800 89502.700000
138.031600 11092.500000
141.981900 74778.300000
143.961100 18108.000000
146.036600 24472.700000
147.020600 4432.300000
153.981900 693100.400000
154.946800 9712.500000
160.051900 3692.300000
171.992100 7564.600000
172.957300 6180.700000
182.012900 5185.200000

>ms2peaks
53.002200 15410.700000
54.033800 40384.600000
55.054200 14289.600000
56.049500 689211.800000
57.057300 12554.100000
57.069900 6271.700000
58.065100 30633.700000
59.049100 15487.500000
62.999600 2996390.800000
63.994800 81965.200000
64.978700 14231.900000
65.038500 15149.600000
67.041500 13937.900000
67.054100 35417.400000
68.049400 27966.800000
70.065100 20318.300000
72.044300 31520.500000
78.010500 551705.100000
78.994300 13882.700000
80.026200 20628.400000
80.049400 21516.800000
81.057300 10204.600000
82.065100 40113.500000
83.073000 10485.800000
84.080800 12313.200000
87.994700 12871.200000
90.010400 6544.700000
92.026100 1714167.000000
95.951300 3173.900000
97.004800 15636.400000
98.000100 84865.400000
99.994700 22701.500000
102.010400 3203.300000
106.005300 18767.500000
109.004900 31045.400000
112.015700 4283.400000
115.966200 11155.200000
116.950200 123000.600000
118.005300 15841.400000
118.041800 9050.100000
120.020800 12902.300000
120.057400 47869.400000
124.015700 31933.200000
126.971000 7620.400000
127.966300 37564.300000
128.026000 30022.600000
134.961100 3627.400000
136.015800 40132.900000
141.981800 35726.300000
143.960900 11649.300000
146.036600 4348.800000
153.981800 149669.200000

