>compound LU06697358
>parentmass 280.1656
>ionization [M+H]+
>formula C14H21N3O3
>rt 908.460000
>profile orbitrap
#smiles_iso CC(C)(C)NC(=O)OC1=CC=CC(=C1)NC(=O)N(C)C
#smiles_can CC(C)(C)NC(=O)OC1=CC=CC(=C1)NC(=O)N(C)C
#inchikey OWNAXTAAAQTBSP-UHFFFAOYSA-N
#pubchem_id 312440
#mb_accession LU047101,LU047102,LU047103,LU047104,LU047105,LU047106

>ms2
72.044200 38116.900000
181.097200 1851206.500000
224.103000 50367.100000

>ms2
72.044400 184457.800000
88.075700 7875.100000
128.107000 5811.400000
136.039500 20481.800000
181.097200 957363.000000
224.103000 16663.100000

>ms2
70.065000 1736.400000
72.044400 512711.200000
88.075700 13739.500000
108.044600 3101.800000
111.044000 4244.500000
117.069700 3293.800000
128.107000 3940.900000
136.039400 58518.300000
146.072400 3402.000000
160.112400 4372.100000
181.097200 146058.300000

>ms2
57.070000 2091.500000
65.038500 3692.700000
72.044400 691044.100000
88.075800 13874.000000
108.044500 17208.300000
111.044100 12440.900000
117.069900 10538.600000
121.039800 2461.300000
128.107000 4215.200000
136.039400 58835.100000
146.073000 3620.600000
160.112300 5185.900000
181.097500 9103.200000

>ms2
56.013200 5892.800000
57.069900 2006.400000
65.038600 15765.400000
70.065100 5182.300000
72.044400 781502.200000
80.049600 4509.600000
88.075700 6566.400000
108.044500 24775.000000
111.044000 18702.700000
115.054300 2773.000000
117.069900 15028.400000
118.077600 4508.200000
121.039800 5369.700000
128.106800 2431.100000
136.039400 36029.600000
160.112700 1842.700000

>ms2
56.013100 11316.900000
57.069900 3888.000000
65.038600 30558.000000
70.065200 4272.300000
72.044400 771994.800000
80.049500 7053.800000
88.075800 3607.700000
108.044400 22839.800000
111.044200 21418.400000
115.054500 5506.400000
117.070000 12611.400000
118.077900 3718.100000
121.039500 9015.500000
136.039600 8875.400000

