>compound LU06252397
>parentmass 229.0859
>ionization [M+H]+
>formula C14H12O3
>rt 1110.600000
>profile orbitrap
#smiles_iso C1=CC=C(C=C1)COC(=O)C2=CC=C(C=C2)O
#smiles_can C1=CC=C(C=C1)COC(=O)C2=CC=C(C=C2)O
#inchikey MOZDKDIOPSPTBH-UHFFFAOYSA-N
#pubchem_id 7180
#mb_accession LU078001,LU078002,LU078003,LU078004,LU078005,LU078006

>ms2
105.033600 168522.600000
151.039100 389424.800000
172.090100 4034.300000
229.086100 1631882.100000

>ms2
95.049300 3317.200000
105.033600 235250.200000
151.039100 473816.600000
172.090500 9131.400000
229.086200 446496.100000

>ms2
53.038600 3362.400000
77.038300 1779.000000
95.049200 19487.700000
105.033500 299028.700000
108.020500 1772.400000
151.039000 627210.400000
172.090200 7616.100000
229.086000 39431.400000

>ms2
51.022900 3022.600000
53.038600 32155.400000
65.038600 12395.100000
67.054200 7499.600000
68.997200 2001.800000
77.038600 10671.700000
94.041200 3532.100000
95.049100 207879.100000
105.033500 454531.800000
108.020500 16404.100000
110.036300 2568.600000
111.044200 1973.500000
123.044100 20103.600000
136.015300 3602.900000
141.054600 6772.600000
151.039000 1053059.000000
172.090200 2962.700000
229.085900 2477.600000

>ms2
51.023100 3014.600000
52.030800 2335.400000
53.038600 41782.600000
55.017800 3598.500000
65.038500 28822.900000
67.054200 14153.900000
77.038400 7913.100000
80.025700 3917.700000
81.033400 2659.000000
94.041400 3965.100000
95.049200 269631.600000
98.036300 3526.900000
105.033600 152657.700000
108.020600 37050.000000
111.044300 3690.500000
123.044100 14909.800000
141.054900 4464.500000
151.039000 333493.900000
168.057400 3453.600000

>ms2
51.023000 10207.800000
52.030800 4942.200000
53.038600 76427.400000
55.017900 11174.500000
65.038600 68122.200000
67.054200 32275.100000
68.997200 5029.200000
77.038600 17709.900000
80.025700 11061.700000
81.033500 7685.700000
94.041300 8961.500000
95.049200 519257.400000
98.036300 7924.500000
105.033600 197154.000000
108.020600 80772.300000
110.036500 2407.100000
111.044000 7005.300000
123.044000 28249.400000
136.015500 6608.400000
141.054600 4955.300000
151.039000 414208.200000
168.056900 6360.600000

