>compound LU06058678
>parentmass 241.09720000000002
>ionization [M+H]+
>formula C14H12N2O2
>rt 887.760000
>profile orbitrap
#smiles_iso CCN1C2=C(C=C(C=C2)[N+](=O)[O-])C3=CC=CC=C31
#smiles_can CCN1C2=C(C=C(C=C2)[N+](=O)[O-])C3=CC=CC=C31
#inchikey WONHLSYSHMRRGO-UHFFFAOYSA-N
#pubchem_id 66573
#mb_accession LU105802,LU105805,LU105806

>ms2peaks
71.060200 10295.900000
72.044300 16572.600000
79.005800 9275.300000
83.060400 4934.000000
90.010600 6304.400000
96.055600 73036.000000
104.000900 32998.300000
110.071200 13833.900000
119.037200 9706.600000
132.032200 22642.100000
136.087100 6930.600000
138.077500 5163.300000
146.022700 7179.500000
173.058400 4435.800000
174.054100 119734.600000
186.053800 11539.400000
214.085300 2546929.200000

>ms2peaks
53.002200 2693.300000
55.029100 5802.400000
56.049600 5950.200000
58.065100 47057.900000
67.029100 17559.000000
69.044600 6248.600000
70.065100 9818.500000
71.060300 690702.800000
72.044300 8479.100000
78.010500 6965.500000
79.005700 268664.200000
83.060400 319615.200000
90.010600 55712.000000
95.060300 13579.400000
96.055600 584380.700000
102.010700 3369.700000
103.005800 11723.000000
104.001000 1058011.600000
108.055600 53996.800000
110.046100 48967.200000
110.071300 67144.500000
111.079200 20580.900000
119.037100 101303.200000
121.028000 3107.300000
121.050800 3833.400000
132.032400 276700.100000
135.066500 7836.800000
136.074300 7211.600000
136.087000 103697.100000
138.077400 35166.500000
144.032200 22188.800000
146.022800 81078.800000
150.077400 10187.900000
173.058800 24385.700000
174.054200 58127.700000
186.054200 16029.600000
194.096500 6767.800000
214.085400 91891.100000

>ms2peaks
53.002200 3728.800000
55.029100 8466.300000
56.049500 10402.400000
58.065200 47292.500000
67.029000 25698.700000
69.044700 6905.500000
70.065000 2947.700000
71.060400 479835.700000
72.044400 7603.100000
78.010400 2759.300000
79.005800 248460.200000
83.060400 256423.800000
90.010600 28071.800000
95.060400 6911.600000
96.055700 264469.300000
102.010300 2089.900000
103.005900 4241.700000
104.001000 770921.800000
108.055700 30506.600000
110.046200 30951.800000
110.071300 22718.600000
111.079200 8130.500000
119.037100 24806.700000
121.028400 1981.800000
121.051000 3139.700000
132.032400 71365.200000
135.066700 5297.100000
136.074900 2685.600000
136.087100 20149.600000
138.077400 8816.700000
144.032300 6527.800000
146.022900 34022.500000
150.077500 2754.000000
173.058800 2601.800000
174.054100 8189.800000
194.096600 3717.800000
214.085100 5568.200000

