>compound LU06715326
>parentmass 195.095
>ionization [M+H]+
>formula C10H14N2S
>rt 857.160000
>profile orbitrap
#smiles_iso CC1=CC(=CC=C1)NC(=S)N(C)C
#smiles_can CC1=CC(=CC=C1)NC(=S)N(C)C
#inchikey MMCJEAKINANSOL-UHFFFAOYSA-N
#pubchem_id 3034319
#mb_accession LU091601,LU091602,LU091603,LU091604,LU091605,LU091606

>ms2peaks
61.010700 4667.300000
72.997900 13565.500000
88.021500 4644855.000000
150.037200 320475.200000
161.107300 5101.800000
180.984100 255369.200000
195.095000 1699530.800000

>ms2peaks
56.049500 5914.100000
61.010600 6713.700000
71.060400 6402.300000
72.997900 17108.500000
88.021500 5123415.500000
150.037100 532309.400000
161.107300 7825.100000
180.984100 186572.700000
195.095000 888690.200000

>ms2peaks
56.049500 20084.800000
61.010700 8936.100000
63.026200 7472.000000
65.038600 6523.000000
71.060400 13210.300000
72.998000 42936.300000
88.021600 5179672.000000
91.054200 37375.400000
92.062100 21550.400000
119.060500 22948.200000
123.026300 59734.100000
150.037200 1055004.200000
157.011300 11647.000000
161.107300 16184.700000
180.984200 42464.000000
195.095400 69254.800000

>ms2peaks
56.049500 57931.800000
61.010600 20424.300000
63.026300 11894.000000
65.038600 31065.400000
67.054200 14244.000000
71.060400 21289.400000
71.990300 10715.000000
72.998100 113534.300000
88.021600 4532151.000000
91.054300 239414.000000
92.062100 64367.200000
117.057500 5085.000000
119.060500 108255.400000
123.026400 182997.700000
125.042100 13496.300000
150.037300 825853.700000
157.011000 19656.400000
161.107300 13592.700000

>ms2peaks
56.049500 140634.500000
61.010600 46036.200000
63.026300 11116.900000
65.038500 89266.000000
67.054200 19531.600000
71.060300 19904.500000
71.990200 22085.000000
72.998000 289738.300000
79.054300 14479.600000
88.021500 3995653.000000
91.054200 783553.100000
92.062000 96478.500000
97.007800 10579.000000
117.057300 9104.600000
119.060400 154017.500000
123.026300 236732.400000
125.041800 14496.400000
135.013700 6447.100000
146.083900 9299.300000
148.021500 4617.100000
150.037200 365113.600000
157.011000 13523.200000
161.107300 7684.200000

>ms2peaks
56.049500 229128.400000
61.010600 72323.200000
63.023000 4324.700000
63.026200 5834.000000
65.038500 271367.100000
67.054200 15494.300000
71.060300 19225.200000
71.990100 57088.800000
72.998000 663478.200000
79.054200 28628.200000
88.021500 3280463.200000
91.054200 1289406.000000
92.062000 75737.100000
97.007600 13905.500000
116.049500 3349.600000
117.057200 7422.400000
119.060400 113968.600000
123.026200 180697.100000
125.041900 7410.800000
135.013400 6512.400000
146.083900 11431.200000
150.037100 102785.500000
157.011000 8037.600000

