>compound LU06310872
>parentmass 238.0839
>ionization [M+H]+
>formula C8H16NO5P
>rt 708.900000
>profile orbitrap
#smiles_iso C/C(=C\C(=O)N(C)C)/OP(=O)(OC)OC
#smiles_can CC(=CC(=O)N(C)C)OP(=O)(OC)OC
#inchikey VEENJGZXVHKXNB-VOTSOKGWSA-N
#pubchem_id 5371560
#mb_accession LU136701,LU136702,LU136703,LU136704,LU136705,LU136706

>ms2
58.065100 5889.900000
67.017700 41345.400000
70.065100 22398.800000
72.044300 621256.900000
81.033500 4165.400000
84.080900 6139.700000
110.060400 4056.300000
112.075700 3968812.800000
127.015400 1164529.900000
193.026100 1452610.800000
238.083900 268304.300000

>ms2
55.017800 4654.300000
55.054400 3423.200000
58.028800 6447.200000
58.065100 29584.900000
67.017800 111433.200000
69.033500 6056.200000
70.065100 60163.500000
72.044400 1384452.200000
81.033500 11920.800000
84.080800 24909.500000
94.065300 4527.400000
110.060000 6006.100000
112.075700 3354482.500000
127.015500 1852385.500000
193.026100 410479.800000
238.084200 21707.700000

>ms2
53.038500 2981.400000
55.017800 19377.700000
55.041600 6854.000000
55.054200 10708.300000
56.013000 3002.700000
56.049600 6402.500000
58.028800 10605.900000
58.065100 48513.900000
67.017800 303950.800000
68.049400 5848.200000
69.033500 13731.300000
70.065100 183494.000000
72.044300 2570017.200000
81.033500 14812.800000
84.080800 51723.800000
94.065200 10048.900000
110.060100 12959.500000
112.075700 1544083.200000
112.999800 5751.100000
127.015500 1825007.800000
193.026000 19507.500000

>ms2
53.038500 6753.800000
55.017900 33400.900000
55.041600 23754.300000
55.054300 13500.000000
56.013200 12410.300000
56.049500 8332.300000
58.028700 16157.600000
58.065100 44647.700000
67.017800 513685.000000
68.049300 5911.400000
69.033500 24247.300000
70.065100 269065.100000
72.044400 3161081.000000
78.994300 5274.200000
81.033600 15270.500000
82.064900 6433.200000
84.080800 60567.500000
94.065100 8074.500000
110.060000 9921.300000
112.075700 649178.800000
112.999800 48123.100000
127.015500 1667182.900000

>ms2
53.002300 5180.100000
53.038700 6710.000000
54.033900 5320.600000
55.017800 22682.900000
55.041700 45971.600000
55.054300 9780.600000
56.013100 22097.400000
56.049500 7920.700000
58.028700 23855.300000
58.065100 30787.600000
67.017800 615413.600000
68.049500 4957.100000
69.033400 22898.300000
70.065100 242022.600000
72.044300 3123202.200000
78.994300 21562.000000
81.033500 9674.200000
84.080800 54513.000000
94.065200 5040.500000
97.052200 3236.600000
110.060000 10703.300000
112.075700 189138.900000
112.999800 112226.500000
127.015500 1305525.400000

>ms2
53.002200 8139.300000
53.038600 8546.400000
54.033900 8792.100000
55.017900 19464.900000
55.041700 81645.700000
55.054200 6164.200000
56.013100 45403.400000
56.049500 6731.300000
58.028700 18182.900000
58.065100 19186.200000
67.017800 576739.800000
68.049500 7089.400000
69.033500 18779.800000
70.065200 197342.800000
72.044400 2768527.500000
78.994400 46533.800000
82.065200 4321.100000
84.080900 26886.200000
110.060000 9255.500000
112.075800 48155.900000
112.999900 178174.600000
127.015500 893466.900000

