>compound LU06416575
>parentmass 256.029
>ionization [M+H]+
>formula C12H11Cl2NO
>rt 1067.820000
>profile orbitrap
#smiles_iso CC(C)(C#C)NC(=O)C1=CC(=CC(=C1)Cl)Cl
#smiles_can CC(C)(C#C)NC(=O)C1=CC(=CC(=C1)Cl)Cl
#inchikey PHNUZKMIPFFYSO-UHFFFAOYSA-N
#pubchem_id 32154
#mb_accession LU123401,LU123402

>ms2peaks
67.054100 8100.500000
172.955400 32180.000000
189.982100 140954.800000
256.029300 252048.800000

>ms2peaks
67.054200 19717.900000
172.955600 89211.000000
189.982200 173284.000000
256.029500 116491.000000

