>compound LU06161430
>parentmass 327.0201
>ionization [M+H]+
>formula C13H11ClN2O4S
>rt 1042.020000
>profile orbitrap
#smiles_iso COC1=CC(=NC(=N1)SC2=C(C(=CC=C2)Cl)C(=O)O)OC
#smiles_can COC1=CC(=NC(=N1)SC2=C(C(=CC=C2)Cl)C(=O)O)OC
#inchikey QEGVVEOAVNHRAA-UHFFFAOYSA-N
#pubchem_id 91781
#mb_accession LU040001,LU040002,LU040003,LU040004,LU040005,LU040006

>ms2
91.054100 4636.500000
132.080700 103773.900000
139.050600 5525.400000
150.091400 11652.900000
152.026000 5149.200000
169.960000 11238.900000
178.005400 100193.500000
250.999100 4339.200000
293.985200 4348.300000
309.009400 4077191.500000
327.020000 2615064.200000

>ms2
83.012700 9810.400000
85.969400 8733.300000
91.054200 6983.200000
98.984100 9300.100000
107.023800 9933.800000
132.080800 49322.000000
139.050200 148955.200000
150.091500 14505.300000
157.060700 8841.200000
164.026100 27601.400000
169.959900 14869.700000
178.005400 211416.200000
208.993300 37929.700000
248.988300 7022.900000
249.996200 6990.600000
267.982900 181869.300000
276.983300 9473.700000
281.014500 10761.200000
293.986600 8311.300000
309.009500 6876741.000000
327.020300 58101.200000

>ms2
68.997100 17453.500000
69.992200 2657.100000
71.060300 64021.200000
71.990100 9713.700000
72.044400 12873.900000
74.989800 18621.900000
82.028700 13838.000000
83.012700 98866.400000
83.023900 48995.600000
85.969500 72338.500000
88.021600 18626.200000
91.054300 4740.900000
98.984200 11783.600000
107.024000 70255.700000
109.039800 8541.400000
110.023600 4712.500000
115.054100 2989.500000
117.057300 2517.300000
122.999400 4787.300000
128.049500 30122.800000
129.057400 9402.600000
132.011500 6478.300000
132.080800 19246.800000
137.015400 5122.400000
139.050200 1166722.000000
141.995900 10536.900000
146.060000 20035.900000
150.010400 3561.500000
150.091300 6474.400000
152.951400 2505.300000
156.056000 2439.000000
157.052900 10233.800000
157.060700 179380.000000
162.010600 17070.100000
164.026100 323452.800000
166.005600 3438.300000
167.967100 3616.100000
168.021000 3218.200000
169.005200 8425.800000
169.958600 65365.400000
170.966500 13171.400000
171.001700 3913.500000
173.029100 5165.300000
175.005600 5200.500000
176.997500 27911.100000
178.005400 152505.700000
179.000800 7180.600000
179.984600 59778.700000
180.021000 29094.600000
181.982800 15646.400000
184.982300 19882.000000
186.927800 6586.500000
187.989700 23045.800000
190.005400 9811.200000
190.086600 3808.700000
191.013300 8706.100000
192.021100 13640.400000
193.016400 42868.200000
193.970100 7067.300000
195.961900 39318.200000
195.998400 4465.000000
196.016500 2383.800000
198.001700 4739.800000
199.993100 242288.600000
203.000600 7360.000000
203.984700 211855.700000
206.000400 133970.700000
207.962000 5483.000000
208.016500 4439.900000
208.993500 326847.000000
209.977400 2791.400000
210.031600 21134.600000
211.026800 21177.600000
211.956800 2781.800000
215.027600 7824.700000
218.977700 30367.300000
219.008300 5677.300000
219.032400 2806.200000
219.961900 25760.400000
220.015600 6915.200000
220.994000 17583.300000
222.001400 20684.700000
223.993300 12616.800000
224.010900 5540.100000
224.045900 3313.600000
226.991100 26046.200000
236.010700 47693.200000
236.988300 13693.500000
246.972700 143827.200000
248.988400 40841.400000
249.996200 39681.200000
250.010800 3027.600000
250.013600 2799.200000
250.026500 22278.600000
250.968000 8035.500000
251.987900 29092.700000
252.983300 26891.300000
259.017300 6254.100000
260.951400 2631.300000
261.959800 24242.400000
264.983200 8191.600000
265.991000 62349.800000
266.999700 6760.300000
267.982900 498394.000000
276.983200 84322.800000
277.038000 10819.400000
278.999200 16085.600000
279.970600 21810.100000
281.014400 60117.900000
292.978100 21792.500000
293.985600 11157.500000
294.994400 3523.900000
309.009500 2280828.200000

>ms2
53.038700 2770.500000
56.013000 3534.700000
68.997100 73990.200000
71.060400 219163.200000
71.990200 23440.100000
72.044200 12097.500000
74.989900 19789.400000
75.023000 2326.800000
77.038600 2457.800000
81.044700 19161.900000
82.028800 36298.200000
83.012800 100809.800000
83.024000 237539.500000
85.969500 82837.100000
88.021600 19332.700000
90.033900 11089.100000
91.054300 19435.000000
93.008400 45155.700000
95.049200 8683.700000
98.984100 27962.500000
98.999600 9783.300000
102.046400 3687.900000
105.044700 5107.800000
105.070000 3818.000000
107.024000 50282.100000
108.044400 4111.800000
109.039800 39731.800000
109.969500 5986.700000
110.023600 5476.100000
113.015200 4677.100000
114.033700 4066.100000
115.054400 11224.100000
117.057200 17381.700000
119.036600 2859.000000
122.999600 53618.400000
123.994900 7294.100000
125.015100 5089.000000
125.034200 3043.400000
125.986800 23620.800000
126.010400 9390.900000
127.041700 3534.000000
127.050200 11294.000000
128.049500 77006.700000
129.010100 5525.300000
129.044900 5682.300000
129.057300 26935.300000
130.065300 2570.700000
132.011500 5668.500000
132.044600 2628.200000
132.081000 18701.900000
132.998300 3788.400000
133.052200 8778.700000
137.015300 6598.600000
138.010700 5330.700000
139.050300 845789.700000
141.995800 24736.400000
142.971800 6068.200000
144.044300 3854.000000
146.006000 2855.500000
146.060100 27492.600000
147.994900 28766.100000
149.002800 4139.900000
150.010600 24157.500000
150.091400 2834.700000
151.018300 3972.700000
152.026100 3631.300000
152.037100 2689.500000
152.951700 3368.800000
153.981600 7473.600000
154.971900 3927.800000
156.044300 4498.200000
156.055700 3584.000000
157.053000 10794.200000
157.060800 209792.000000
161.046900 3717.100000
162.010600 39130.100000
163.018400 10009.400000
163.990000 46508.400000
164.026200 204501.000000
164.997700 17039.500000
165.021200 15446.500000
166.005500 15556.700000
167.013200 6228.000000
167.967100 7636.600000
168.021000 28379.900000
168.975000 2334.000000
169.005200 28465.700000
169.958800 135671.300000
170.967000 14236.300000
171.001200 26446.900000
171.992200 19317.000000
173.017200 3803.300000
173.028800 3980.400000
174.024700 7745.100000
174.055100 6221.100000
175.005800 18509.200000
175.989600 26666.400000
176.997600 56432.000000
178.005500 309875.200000
179.000700 8500.200000
179.013700 3032.200000
179.034800 2754.900000
179.967000 11217.100000
179.984700 107220.700000
180.021200 51209.800000
180.974800 2994.000000
181.982500 25245.800000
183.000500 2735.700000
183.008500 16743.800000
183.999500 4027.600000
184.009000 13405.000000
184.969800 37667.500000
184.981800 14651.500000
185.977400 7593.200000
186.927800 4913.000000
187.005900 84203.600000
187.989900 158242.100000
189.021700 9515.300000
190.005400 13663.700000
190.086300 2529.400000
191.013300 12612.800000
191.967100 3307.200000
192.021300 10417.200000
193.016600 42416.900000
193.970300 33240.600000
194.978200 2638.000000
195.962000 39092.900000
195.998600 4811.100000
196.016400 16951.900000
198.001200 6937.400000
198.985800 3071.700000
199.993300 164216.200000
200.977500 4054.200000
201.011600 3650.200000
203.001000 11085.200000
203.984800 615627.200000
205.016400 10526.400000
206.000400 261068.300000
206.978000 8791.200000
207.962000 8909.200000
208.016100 3480.100000
208.970100 13631.700000
208.993600 180058.700000
209.977400 7952.800000
210.032000 22914.100000
211.026900 17380.700000
211.956700 3946.500000
215.027800 5496.100000
218.977900 88058.400000
219.008000 4990.600000
219.962400 17967.700000
220.016100 23775.100000
220.993600 28952.300000
222.001700 25555.600000
222.973600 3489.200000
223.992900 3631.600000
224.010700 16338.700000
224.047700 3183.900000
226.991100 35703.300000
227.002900 4727.600000
233.964900 17557.000000
236.011000 74116.300000
236.988300 34094.600000
237.996500 21878.300000
238.025500 11077.700000
246.972800 86340.900000
248.988400 18755.700000
249.996600 13357.100000
250.026500 19733.200000
250.967500 16557.000000
251.003500 2778.000000
251.987900 5260.900000
252.983300 9144.300000
259.016400 5159.700000
261.959700 61885.400000
264.983700 4358.200000
265.991200 25830.000000
266.998500 3321.500000
267.983000 73798.400000
276.983400 31855.700000
277.037600 4528.200000
278.961700 5711.800000
278.998700 6903.700000
279.970300 55837.800000
281.014500 9725.700000
292.978300 34211.900000
293.986800 11361.900000
294.997200 2590.000000
309.009600 136463.900000

>ms2
53.002200 5340.700000
53.038700 11008.700000
54.033800 14678.700000
55.018000 4748.400000
55.029100 3329.800000
56.013200 9146.400000
57.044800 4801.500000
63.022900 4942.800000
65.038600 6891.300000
66.021100 2772.900000
68.013000 2823.500000
68.997100 147427.900000
69.992400 7527.800000
70.028800 6626.600000
71.060400 246892.100000
71.990200 26909.200000
72.044300 14095.100000
74.005800 5526.900000
74.989900 15560.300000
75.022900 13097.100000
77.038700 7552.200000
79.029100 5261.000000
80.036900 7807.300000
81.033600 5089.400000
81.044800 45828.700000
82.028700 50921.400000
83.012800 52034.200000
83.024000 472172.800000
85.969500 99162.600000
86.999700 3731.000000
88.021600 5687.800000
89.038600 5656.000000
90.034000 15394.000000
91.054300 27273.000000
92.025700 6335.800000
93.008400 182831.800000
94.016100 3839.000000
94.995100 2864.000000
95.049200 23019.000000
98.984100 20808.200000
98.999700 16667.600000
100.018300 2890.100000
101.997300 3228.300000
102.046500 11035.800000
104.049500 3943.100000
105.044800 10398.400000
105.070000 6637.500000
107.024100 32655.900000
108.002800 4535.300000
108.044400 2754.500000
109.039700 47496.300000
109.969500 8997.200000
110.023800 7379.400000
110.999700 7125.000000
113.015300 6900.200000
114.033900 18273.300000
115.054300 11059.300000
116.049700 5536.500000
117.057300 38136.100000
119.036700 2717.600000
119.049200 5514.900000
120.044600 5482.500000
122.999600 173582.400000
123.994900 33291.000000
124.018300 6186.500000
125.002600 4225.200000
125.015500 11335.100000
125.034700 3805.500000
125.986700 145582.400000
126.010700 8990.800000
127.041700 14767.300000
127.050000 15822.800000
128.049500 76491.100000
129.010100 15940.300000
129.044800 18024.100000
129.057400 41908.000000
129.963600 3113.300000
130.040200 3699.300000
132.011300 2575.100000
132.044500 7838.700000
132.080900 6218.700000
132.998100 16949.800000
133.052200 8710.600000
137.002900 6296.900000
137.015500 7258.700000
138.010600 12330.500000
138.994700 18466.500000
139.005800 29074.500000
139.050300 349541.600000
140.049600 2585.300000
141.021000 20142.500000
141.963700 14206.300000
141.995600 24518.600000
142.028700 4887.500000
142.971700 7301.500000
145.052000 3159.400000
146.006100 5838.300000
146.060200 21900.900000
147.994900 225206.800000
149.002600 13913.100000
150.010500 38961.700000
151.018700 7872.500000
152.026200 6794.400000
152.036800 5632.200000
153.981700 24643.600000
154.005400 11116.600000
154.971600 6505.500000
155.024100 3851.600000
156.021200 7420.000000
156.044400 6676.500000
157.053100 7162.200000
157.060900 87508.000000
159.995200 3780.000000
161.002700 6314.400000
161.047100 7501.300000
161.998100 6668.900000
162.010500 41924.700000
163.005900 12942.200000
163.018300 12793.200000
163.989800 94736.800000
164.026100 64381.300000
164.997500 15888.800000
166.005500 33655.200000
167.013100 3538.800000
167.967000 10760.700000
168.021200 30857.400000
168.975500 2907.900000
169.005100 22370.600000
169.958800 135648.200000
169.982500 13056.000000
170.966500 8393.600000
171.001200 51711.600000
171.008200 4599.900000
171.992200 41880.200000
173.017400 4249.500000
174.024400 3887.100000
174.054900 4390.900000
175.005800 48773.500000
175.989900 107133.100000
176.997700 51050.800000
178.005500 159938.200000
179.000700 8226.900000
179.013700 3931.500000
179.035100 4167.100000
179.967100 19827.500000
179.984700 121177.800000
180.021100 46366.500000
180.975100 4697.200000
181.982600 19038.100000
183.000600 4133.300000
183.008400 13958.700000
183.999200 4063.400000
184.008800 26587.100000
184.969900 57309.100000
185.977300 12108.700000
187.005900 38761.800000
187.989900 258070.000000
188.000200 15448.800000
189.021700 7797.400000
190.005500 8177.100000
191.013500 5574.800000
191.967100 9993.600000
192.021300 6218.300000
192.974700 4221.000000
193.016600 24596.500000
193.970200 65625.100000
194.978000 14511.300000
195.961800 34130.300000
196.016100 22562.200000
198.985500 3336.000000
199.993200 33785.100000
200.977300 3463.800000
201.011500 3595.400000
201.993800 5441.300000
203.000800 8164.600000
203.984800 822066.700000
205.016400 10169.500000
206.000500 162331.500000
206.977700 5821.800000
207.962500 2718.200000
208.969900 7142.300000
208.993400 37202.600000
209.977400 6154.800000
210.032000 11912.700000
218.977900 52004.300000
219.032300 5087.700000
219.961900 6222.300000
220.015900 28457.500000
220.993900 14112.400000
222.002100 12779.500000
222.972700 5587.200000
224.010900 20912.300000
226.991000 8431.600000
227.003200 2416.700000
233.964900 33563.600000
236.011000 52358.600000
236.988400 23788.300000
237.996600 6189.900000
238.026200 11088.500000
246.972400 17964.100000
248.988300 6289.700000
250.025000 2515.800000
250.968100 9957.800000
260.952700 2911.000000
261.960200 19678.800000
264.983300 2517.000000
265.991700 2405.300000
267.983800 4239.200000
278.962700 16180.100000
279.970500 18055.300000
292.978500 14416.500000
309.009400 2590.600000

>ms2
53.002200 18312.700000
53.038600 10209.600000
54.033800 21044.600000
55.017900 9424.900000
55.029100 8163.200000
56.013100 19160.000000
57.044700 7491.400000
63.022800 23001.800000
65.038500 11861.400000
66.021200 5762.700000
68.013000 5014.900000
68.997100 197431.900000
69.992400 4680.100000
70.028800 3325.700000
71.060300 169375.300000
71.990200 26212.500000
72.044300 10534.800000
74.005900 6256.300000
74.989800 9105.500000
75.022900 59686.500000
77.038500 11883.500000
79.029000 7809.500000
80.036800 7977.400000
81.033400 6803.700000
81.044700 50476.600000
82.028700 53965.900000
83.024000 502399.900000
85.969500 101850.600000
86.999400 5473.200000
88.021500 4638.200000
89.038700 15196.100000
90.033800 11341.500000
91.054200 26995.600000
92.025800 26187.400000
93.008300 330121.500000
94.016200 7584.200000
94.994800 5196.600000
95.049100 35804.400000
98.984100 17988.900000
98.999500 9761.600000
100.018100 16192.300000
101.997400 18807.800000
102.046500 20447.600000
104.049500 3905.100000
105.044700 12528.600000
105.069800 5479.600000
107.023900 15597.000000
108.002800 7500.300000
108.044600 3498.600000
109.039800 30942.100000
109.969500 10030.200000
110.999700 13844.600000
113.015000 3831.100000
114.033800 56156.200000
115.054500 7809.600000
116.049400 8301.500000
117.057300 53254.900000
119.036500 2287.700000
119.049100 8106.300000
120.044400 6782.700000
122.999600 317501.700000
123.994800 82735.800000
124.018200 45996.700000
125.002600 3726.300000
125.015300 26821.400000
125.034700 8566.900000
125.986700 325673.200000
127.041700 20636.100000
127.050000 14370.800000
128.049400 51653.600000
129.010100 21366.400000
129.044700 20307.900000
129.057300 32465.600000
129.963800 4077.000000
130.040200 4540.000000
130.064900 3903.200000
132.044600 6809.800000
132.998000 28751.200000
133.052100 6447.800000
137.002700 7728.300000
137.015600 2887.200000
138.010500 30206.100000
138.995100 10991.200000
139.005700 41944.500000
139.050200 111157.200000
140.049600 3840.300000
141.020900 85520.100000
141.963900 42798.700000
141.995800 13666.700000
142.028900 23736.800000
142.971600 6571.600000
144.044500 6358.300000
145.052200 3952.000000
146.006000 8426.800000
146.060300 13252.000000
147.994800 661301.200000
149.002500 17085.400000
150.010500 42500.400000
151.018300 10046.200000
152.026000 7324.400000
152.037000 8520.300000
153.981500 15332.200000
154.005400 10037.100000
154.971500 9965.600000
155.023700 4484.200000
156.021200 11982.400000
156.044600 3420.900000
157.052800 3632.600000
157.060600 17922.800000
159.994700 24027.600000
161.002700 8426.300000
161.047100 4382.000000
161.998200 13297.200000
162.010400 33089.800000
163.006000 13927.800000
163.989700 69965.200000
164.026300 19269.200000
164.997500 8549.600000
165.021200 4978.600000
166.005400 43309.700000
167.967100 7843.300000
168.021000 20270.700000
168.975000 7046.400000
169.005000 8688.700000
169.958700 75331.000000
169.982500 11267.800000
170.966300 5627.800000
171.001000 53939.500000
171.008300 3532.300000
171.992200 29253.500000
175.005800 54385.700000
175.989800 163255.800000
176.997500 26614.000000
178.005400 98813.700000
179.000500 7749.700000
179.035300 2987.500000
179.966800 24080.700000
179.984600 78012.500000
180.021000 24471.500000
183.000800 6307.000000
183.008800 4928.500000
184.008900 30679.200000
184.969800 45162.900000
185.977600 10235.000000
187.006100 13612.900000
187.989700 152862.200000
188.000700 46228.400000
189.021600 4103.900000
191.967000 11831.200000
192.021100 5490.900000
192.974800 3864.900000
193.016600 11803.500000
193.970100 50259.800000
194.978000 17588.900000
195.961700 26320.500000
196.016100 24905.800000
198.985100 2649.200000
199.993500 5303.400000
201.011400 3829.900000
201.993600 2925.800000
203.984700 508888.000000
206.000400 57229.400000
206.977700 2834.600000
208.993600 8102.700000
209.977500 3372.600000
210.031300 5216.600000
218.977700 18092.900000
220.015900 17639.300000
220.993200 7351.700000
224.010800 8501.000000
236.010900 32157.900000
236.988400 9361.100000
238.026400 4193.300000
261.959700 2889.600000
278.962200 9672.700000

