>compound LU07068113
>parentmass 362.0401
>ionization [M+H]+
>formula C15H11ClF3NO4
>rt 1119.000000
>profile orbitrap
#smiles_iso CC(C(=O)O)OC1=CC=C(C=C1)OC2=C(C=C(C=N2)C(F)(F)F)Cl
#smiles_can CC(C(=O)O)OC1=CC=C(C=C1)OC2=C(C=C(C=N2)C(F)(F)F)Cl
#inchikey GOCUAJYOYBLQRH-UHFFFAOYSA-N
#pubchem_id 50895
#mb_accession LU038401,LU038402,LU038403,LU038404,LU038405,LU038406

>ms2peaks
91.054300 1976.800000
98.984200 10510.400000
121.028400 2144.800000
127.015500 41383.700000
128.018800 6758.200000
155.046800 114480.500000
156.050100 58395.900000
288.004100 3109.300000
288.039800 2554.600000
316.034700 458404.800000
362.040200 1825582.500000

>ms2peaks
91.054300 163364.000000
98.984200 45309.600000
109.005300 3705.400000
119.049200 41845.800000
121.028400 51463.500000
127.015600 47847.200000
128.019600 7931.600000
155.046900 19256.700000
156.049900 11473.100000
197.993500 5038.300000
260.045000 7561.100000
288.004300 12785.600000
288.039900 148980.200000
289.011400 90721.900000
290.019300 20887.000000
298.024200 2459.300000
316.035000 984147.200000
362.040300 80799.900000

>ms2peaks
55.017900 4015.600000
65.038600 44987.600000
73.028400 3333.200000
91.054300 692841.400000
92.025600 4079.400000
92.062100 3003.100000
93.033400 7685.800000
98.984200 528917.800000
99.988300 3310.100000
109.004900 3502.400000
109.064900 13307.600000
111.044100 16834.500000
116.994800 9345.500000
119.049200 93432.600000
119.060300 9146.600000
120.057100 12534.300000
121.028500 77671.700000
121.065000 5560.700000
127.015500 84080.500000
128.018800 18630.600000
155.046800 7935.700000
156.050600 3679.900000
170.971900 41791.100000
172.968900 81040.500000
181.997800 5457.100000
197.992800 14989.100000
220.013700 8956.900000
226.047200 4777.500000
232.014100 11328.200000
235.059800 2326.100000
246.031500 5306.400000
252.063100 10044.200000
254.041700 4070.700000
260.044700 24375.000000
261.016300 18116.400000
270.029700 8777.300000
272.008600 191737.000000
288.003500 149434.400000
288.039900 190022.700000
289.011400 88568.200000
290.019100 23026.300000
298.024400 7484.600000
316.034900 146334.000000

>ms2peaks
55.017900 6623.100000
63.023000 2375.100000
65.038600 120888.300000
67.054400 2710.000000
73.028300 2190.300000
75.022900 6287.000000
81.033500 3541.500000
91.054300 569359.600000
92.025800 13025.000000
92.062200 4381.500000
93.033600 5467.900000
94.041400 6720.400000
95.049300 4464.400000
98.984200 165653.800000
109.005200 2409.700000
109.028600 8098.000000
109.064900 7774.100000
111.044300 11923.300000
116.994800 2796.400000
119.049400 25447.900000
119.060500 6374.700000
120.057000 10496.500000
121.028500 31484.700000
121.065000 7042.300000
127.015600 2223.800000
131.010400 5099.400000
170.971800 23587.700000
172.969000 46249.500000
192.021100 6293.300000
197.993000 27961.800000
199.037100 4652.000000
206.041400 3363.500000
208.037100 3173.700000
216.025400 16386.100000
219.005800 6156.400000
220.014100 3554.800000
226.047600 27514.800000
232.013400 10710.600000
235.061100 4452.900000
237.040000 13665.100000
245.021800 4405.700000
246.031000 7061.700000
252.002200 15789.400000
252.063100 4528.600000
254.042200 9042.900000
260.045700 5528.200000
261.016400 20161.100000
270.029300 4711.600000
272.008600 266693.900000
288.003500 193950.500000
288.039700 19122.300000
289.011800 6444.100000
290.019500 7368.500000
298.023600 2103.900000
316.034400 6337.100000

>ms2peaks
53.002300 4462.500000
53.038600 6709.000000
54.046500 2102.900000
55.017900 8875.800000
63.022900 23140.300000
64.030800 7852.900000
65.038600 285434.500000
67.054300 2078.100000
73.028400 3492.800000
74.015000 4507.400000
75.022900 39817.600000
77.038600 2608.100000
79.054300 3355.300000
81.033500 18931.100000
90.033800 4973.000000
91.054200 505537.700000
92.025700 40732.500000
92.062000 5445.700000
93.033500 1993.400000
93.069900 2805.400000
94.041300 16432.900000
95.049300 10490.000000
98.984200 172548.600000
109.028400 27700.400000
109.065000 3742.400000
111.044100 7705.000000
119.036800 5145.900000
119.049100 10709.400000
120.044400 5014.000000
120.057200 5440.000000
121.028400 20837.700000
121.039700 5252.700000
121.064800 4572.900000
131.010500 2756.100000
133.987300 2852.600000
140.049700 7041.100000
141.979100 3121.800000
151.035600 2684.800000
156.044600 3723.200000
157.052200 4498.400000
157.980400 2779.700000
158.040100 8112.800000
159.047900 3232.100000
159.976000 2546.900000
165.009700 2124.000000
166.065300 2736.100000
168.044300 8647.000000
170.971700 35033.800000
171.041300 3660.000000
172.968900 57325.200000
174.963800 2594.900000
175.018300 15130.500000
178.046100 9275.300000
179.982300 9158.300000
181.998100 3215.600000
182.033800 3810.700000
185.045300 4525.600000
187.042800 4576.900000
188.030800 3492.000000
189.038100 12166.500000
190.046400 7712.500000
192.020900 13963.200000
197.992900 54140.300000
198.052500 7053.600000
199.036800 20963.700000
203.013200 8564.300000
206.041500 22375.700000
208.037200 10310.200000
209.044800 89072.300000
216.025600 54544.300000
217.033500 4910.100000
218.040800 7137.500000
219.006000 7739.700000
222.011700 4722.100000
224.007300 6729.100000
226.047600 35833.100000
232.013500 14119.900000
235.003200 3641.800000
235.060100 5019.400000
237.039900 24959.100000
243.005800 5441.900000
244.013400 4776.900000
245.021200 6782.300000
246.031200 4249.600000
252.002100 12762.200000
252.063300 3074.600000
254.042000 10411.400000
260.008400 6067.800000
261.016700 7049.500000
269.029600 6212.600000
272.008500 122280.800000
288.003400 205322.400000

>ms2peaks
53.002200 12433.000000
53.038600 14330.300000
54.046400 7263.500000
55.017800 11531.200000
63.022900 77271.700000
64.030800 20388.300000
65.038600 411077.500000
67.054300 2089.300000
74.015100 11975.800000
75.022900 81155.100000
77.038600 3905.200000
79.054100 4686.100000
81.033500 44254.100000
90.033900 5968.400000
91.054300 343866.600000
92.025700 45797.800000
92.062000 2529.500000
93.070000 3158.400000
94.041400 22530.200000
95.049200 18334.500000
98.984200 181772.900000
99.988700 3498.300000
109.028400 24165.300000
111.044200 7492.000000
116.994900 3152.000000
119.036600 5587.600000
119.049200 2963.000000
120.044600 8258.900000
121.028300 11626.200000
121.039700 6255.700000
121.065000 4066.600000
131.010500 4376.100000
133.987200 4811.100000
140.049500 22696.300000
141.979300 3576.600000
151.035400 19768.900000
156.044300 9616.100000
157.052200 12273.600000
157.980400 10633.000000
158.040200 17896.600000
159.047700 9310.200000
159.976200 8186.300000
165.010300 4240.800000
166.065300 2755.600000
168.044500 19924.800000
170.971700 31972.100000
171.041700 8640.400000
172.968900 60686.000000
174.964300 2409.600000
175.018500 18766.600000
178.046500 18295.000000
179.982300 16695.300000
182.033700 8666.300000
185.045500 6925.100000
187.042800 6744.600000
188.030600 11932.300000
189.038600 29639.500000
190.046400 20444.600000
192.021300 10601.700000
197.993000 64435.500000
198.052700 13651.600000
203.013300 4607.400000
206.041300 24349.300000
208.037200 21678.500000
209.044700 63126.500000
216.025700 41925.000000
217.033300 3399.900000
218.041100 8652.700000
219.006100 6849.400000
222.011900 5638.500000
224.007200 5895.500000
226.047600 12643.900000
232.014000 8621.700000
235.003300 3949.700000
237.040200 10242.200000
243.005900 6574.100000
244.013800 4877.400000
246.031900 3850.200000
252.002500 6778.600000
254.041100 2866.500000
260.008600 15297.600000
269.029300 2658.600000
272.008700 34304.700000
288.003400 112397.500000

