>compound LU07588322
>parentmass 325.0546
>ionization [M+H]+
>formula C14H17BrN2O2
>rt 788.100000
>profile orbitrap
#smiles_iso C1CN2CCC1N(CC2)C(=O)OC3=CC=C(C=C3)Br
#smiles_can C1CN2CCC1N(CC2)C(=O)OC3=CC=C(C=C3)Br
#inchikey RXLOZRCLQMJJLC-UHFFFAOYSA-N
#pubchem_id 9797360
#mb_accession LU054001,LU054002,LU054003,LU054004,LU054005,LU054006

>ms2peaks
82.064900 13824.300000
84.080800 20748.700000
154.950300 13466.500000
325.054400 9212661.000000

>ms2peaks
55.054200 27967.000000
56.049400 118534.800000
67.054100 10441.700000
82.065100 307033.200000
84.080700 1343892.400000
125.070800 18653.800000
153.102300 10769.000000
154.950200 16357.100000
172.959600 24174.000000
241.980500 25270.300000
297.023200 201080.700000
325.054400 7545712.500000

>ms2peaks
53.038600 7534.700000
55.054300 223332.500000
56.049500 747259.400000
57.069900 13622.900000
58.065300 4402.600000
65.038700 4564.200000
67.041600 6642.000000
67.054200 85607.500000
68.049400 7427.600000
69.044700 7100.400000
69.057200 4504.800000
70.028700 15577.100000
70.065100 7041.700000
80.049600 17256.100000
82.065100 555713.600000
84.080800 3669065.800000
94.041300 16218.200000
97.039600 13915.000000
97.076100 51308.900000
99.055300 45602.800000
120.057200 5177.300000
125.071000 299300.700000
126.078800 10283.400000
126.115500 5660.900000
153.102500 12620.300000
154.950200 10649.600000
172.959700 116095.500000
182.955100 8552.800000
184.959700 11389.700000
198.975400 14932.600000
210.975600 6915.300000
241.981200 261519.500000
253.981100 43036.300000
255.997000 10969.600000
267.996800 206240.200000
271.007800 10201.400000
297.023500 590210.600000
325.054700 2148314.000000

>ms2peaks
53.002200 5721.600000
53.038600 15616.400000
54.033900 5171.900000
55.054300 532938.100000
56.049500 1235873.500000
57.069900 24284.000000
58.065100 6421.100000
65.038600 15749.600000
67.041700 18432.500000
67.054200 142074.600000
68.049400 60285.600000
69.044700 25624.000000
69.057300 14287.300000
70.028700 38562.600000
70.065100 58400.900000
71.073000 6867.400000
78.046500 3252.400000
79.017900 3101.700000
80.049500 55310.700000
82.065100 382932.300000
83.060400 15253.600000
83.072900 3459.500000
84.080800 2347276.800000
85.039800 4736.200000
91.054200 3708.500000
92.062100 4088.900000
94.041400 127974.400000
96.044500 12461.200000
97.039700 18818.600000
97.076100 143129.800000
98.060100 4225.600000
98.083900 14207.400000
99.055200 42526.900000
104.062000 3577.000000
113.070800 3471.400000
118.065200 10202.200000
120.057000 32424.400000
125.071000 486776.500000
126.078700 24557.000000
126.115300 7940.000000
130.065000 9286.000000
130.949100 9052.700000
131.049400 2736.700000
132.057100 5420.500000
153.102200 6537.000000
154.949700 8262.500000
156.964500 5419.700000
168.965300 5489.600000
170.980400 8281.100000
172.959700 234099.000000
181.960200 4954.800000
182.955300 157029.300000
184.959700 32775.300000
198.975300 22663.700000
210.975400 10189.300000
241.981200 369379.700000
253.981100 48112.800000
255.997200 17474.200000
267.996800 442734.200000
297.023400 221488.800000
325.054700 201249.000000

>ms2peaks
50.015200 3907.000000
51.022900 3577.900000
52.030800 4965.600000
53.002200 6936.300000
53.038600 26020.300000
54.033900 12355.200000
55.054300 731251.100000
56.049500 1346635.500000
57.057400 3991.900000
57.069800 24519.000000
58.065200 13660.400000
65.038500 19238.700000
66.046400 3143.000000
67.041600 19323.000000
67.054200 130938.700000
68.049500 124204.900000
69.044700 37309.000000
69.057300 21328.600000
69.069800 3306.600000
70.028700 60458.700000
70.065100 137017.400000
71.060200 3025.400000
71.072900 10930.600000
75.022900 15679.700000
76.030800 16197.800000
78.046300 14889.300000
79.017800 9171.700000
80.025700 11443.000000
80.049500 61168.400000
81.033500 2739.600000
82.065100 234420.100000
83.060400 21863.300000
84.080800 980907.600000
85.039300 3339.900000
90.046400 3477.600000
91.054200 15838.700000
92.062100 16140.400000
94.041400 292934.100000
95.049000 4102.600000
95.060500 2855.300000
96.044300 13123.600000
97.039600 11151.900000
97.076100 170554.800000
98.036200 5895.900000
98.060200 4719.600000
98.083900 19349.900000
99.055300 28050.400000
103.054400 2906.100000
104.062100 11006.800000
106.041300 3005.400000
113.071400 2492.400000
117.069700 2474.400000
118.041200 5571.900000
118.065200 22335.000000
119.049300 3131.900000
120.057000 63599.700000
125.071000 268704.900000
126.078800 13718.000000
126.115100 3346.400000
130.065100 31336.700000
130.949100 36460.400000
131.049100 3375.000000
132.057000 9946.100000
142.948800 2350.300000
144.080900 6810.000000
154.949100 24757.300000
156.964800 11381.300000
158.944500 4332.400000
168.964700 11105.100000
170.943800 3552.800000
170.980500 18432.300000
172.959700 318349.800000
181.960100 18302.400000
181.971800 2760.300000
182.955300 506165.000000
183.952400 3794.600000
184.959600 39437.800000
198.975500 17598.100000
241.981200 142750.400000
253.980700 17146.400000
255.996900 9073.900000
267.996900 251072.300000
297.023500 22228.900000
325.055400 9548.500000

>ms2peaks
50.015200 7159.200000
51.023000 6272.700000
52.030800 8613.200000
53.002200 14866.000000
53.038600 32281.200000
54.033900 15470.200000
55.054300 737308.800000
56.049500 1106476.100000
57.057300 6584.400000
57.069900 17387.100000
58.065100 10230.800000
65.038600 38457.800000
66.046400 8614.500000
67.041600 28285.500000
67.054200 94089.500000
68.049500 158198.400000
69.044700 45782.800000
69.057300 30850.400000
70.028700 60240.500000
70.065100 121802.100000
71.060400 3214.300000
71.073000 11981.100000
75.022900 85358.800000
76.030800 117097.500000
78.046400 27166.500000
79.017900 11017.800000
80.025700 16606.000000
80.049500 50295.900000
81.033600 15966.700000
82.065200 140928.900000
83.060400 16401.300000
83.073200 3076.500000
84.080800 347911.700000
85.039700 2619.100000
90.046500 8414.600000
91.054300 39354.800000
92.062100 36701.200000
94.041400 373610.500000
95.049200 6354.900000
95.060600 2448.300000
96.044500 11309.700000
97.039700 6458.600000
97.076100 112660.300000
98.036300 9598.800000
98.083900 16236.500000
99.055300 15845.600000
103.054300 6657.800000
104.062100 9579.000000
106.041500 2801.100000
117.069800 2546.000000
118.041400 5711.800000
118.065300 32656.900000
119.049200 6681.200000
120.057000 59634.500000
125.071000 75061.800000
126.078700 2483.800000
126.115400 4541.600000
130.065200 36620.200000
130.949100 59091.500000
131.049200 7569.600000
132.056800 4604.200000
142.949200 8859.000000
144.081000 8522.400000
154.949100 71560.400000
156.964900 6497.600000
158.944000 7297.300000
168.964900 14482.900000
170.943700 3421.100000
170.980700 8199.100000
172.959800 330831.600000
181.960200 9926.800000
181.972800 2868.400000
182.955400 685932.100000
183.953000 3179.500000
184.959700 13695.300000
198.975400 6180.100000
241.981300 26657.900000
253.981500 3340.100000
267.996900 54026.400000

