>compound LU07505067
>parentmass 166.1226
>ionization [M+H]+
>formula C10H15NO
>rt 820.260000
>profile orbitrap
#smiles_iso CCCCOC1=CC=C(C=C1)N
#smiles_can CCCCOC1=CC=C(C=C1)N
#inchikey UBRIHZOFEJHMIT-UHFFFAOYSA-N
#pubchem_id 20352
#mb_accession LU031601,LU031602,LU031603,LU031604,LU031605,LU031606

>ms2
57.069800 13188.700000
65.038500 13786.500000
82.065100 17242.000000
92.049500 44809.500000
93.033500 18918.500000
109.051900 16510.600000
110.060100 1354204.900000
166.122700 6139594.500000

>ms2
57.069800 12802.100000
65.038500 14242.600000
82.065100 19832.900000
92.049500 41705.400000
93.033500 21016.100000
109.051700 16378.700000
110.060100 1291862.200000
166.122700 6200803.000000

>ms2
57.069900 46523.600000
65.038500 116359.900000
67.054100 17994.600000
74.096400 3674.600000
80.049400 5322.500000
82.065100 112966.500000
92.049500 249817.300000
93.033500 127007.700000
93.057100 12628.900000
109.052200 40154.400000
110.060000 3625099.800000
124.075800 7154.200000
165.114900 9607.900000
166.122600 2636895.200000

>ms2
53.002200 8511.600000
55.054300 4423.100000
57.069900 63719.400000
65.038600 619734.400000
67.041600 16989.500000
67.054200 39768.900000
68.049300 5704.000000
69.033500 4323.400000
80.049500 22882.000000
81.057400 17547.800000
82.065100 256446.900000
83.049200 6200.100000
92.049500 573767.000000
93.033500 344767.500000
93.057300 37988.400000
109.052400 117200.000000
110.060100 3787586.000000
124.075800 8202.600000
165.114900 9153.900000
166.122700 614094.300000

>ms2
53.002200 16925.800000
53.038500 2679.000000
55.017900 8310.300000
55.054200 11900.200000
57.069900 48156.800000
65.038600 1596507.000000
67.041600 46757.900000
67.054200 40546.700000
68.049500 5508.200000
69.033300 2643.600000
72.044500 2331.200000
74.096200 2383.100000
79.017900 2844.500000
80.049500 49147.600000
81.057300 50592.800000
82.065100 307909.000000
83.049100 14093.800000
92.049500 654432.200000
93.033500 366433.600000
93.057300 87076.700000
108.044600 14770.000000
109.052300 230245.200000
110.060100 2204752.500000
124.075800 12394.800000
166.122700 77602.500000

>ms2
53.002200 26674.000000
53.038600 4955.600000
55.017800 10595.300000
55.054300 24897.700000
57.069900 32397.900000
65.038500 2505257.500000
67.041600 83489.900000
67.054200 36983.500000
68.049500 6390.000000
69.033500 5974.000000
79.017900 3132.500000
80.049500 95753.300000
81.057300 89014.100000
82.065100 228454.400000
83.049100 14589.400000
92.049500 553974.600000
93.033500 255893.200000
93.057300 130399.000000
94.065300 3221.300000
108.044400 30257.400000
109.052300 275696.200000
110.060100 943060.600000
122.059700 4125.900000
124.075900 6578.100000
166.122400 5726.900000

