>compound LU07630424
>parentmass 313.1911
>ionization [M+H]+
>formula C19H24N2O2
>rt 1034.280000
>profile orbitrap
#smiles_iso C1CCC(CC1)C(=O)N2CC3C4=CC=CC=C4CCN3C(=O)C2
#smiles_can C1CCC(CC1)C(=O)N2CC3C4=CC=CC=C4CCN3C(=O)C2
#inchikey FSVJFNAIGNNGKK-UHFFFAOYSA-N
#pubchem_id 4891
#mb_accession LU016402,LU016403,LU016404,LU016405,LU016406

>ms2peaks
55.054300 239339.800000
83.085500 3218423.800000
111.080400 176204.200000
129.069900 12106.200000
132.080700 143186.700000
144.080900 14388.800000
146.096400 352659.100000
158.096600 59878.600000
173.107300 11449.100000
174.091400 292082.000000
175.123000 332226.100000
201.102400 20440.300000
203.117800 9341259.000000
256.169400 77664.800000
285.196100 149479.200000
313.191000 764187.400000

>ms2peaks
53.002200 7264.000000
53.038600 29438.100000
55.054300 1135306.600000
72.044300 73880.500000
83.085500 5670721.000000
105.069900 15162.700000
111.080400 57825.900000
117.069900 22664.200000
129.069800 145454.300000
130.065000 37686.800000
131.072900 10061.600000
132.080700 1120887.900000
144.080700 79301.000000
146.096400 627460.100000
158.096400 184277.900000
173.107300 27201.000000
174.091300 2005109.900000
175.122900 434439.900000
176.106800 9777.900000
185.107400 23948.000000
186.091300 9374.200000
201.102300 13376.800000
203.117800 4060995.200000
254.154000 7114.200000
256.169400 130183.800000
285.196100 73503.600000
313.191300 8846.400000

>ms2peaks
53.002300 14545.400000
53.038600 54290.600000
54.033900 9549.100000
55.054300 2462701.500000
56.049500 4897.300000
72.044400 226975.000000
83.085500 4652948.000000
105.069900 36752.100000
111.080500 4878.900000
115.054400 11436.900000
117.057300 9779.000000
117.069900 108806.800000
118.065100 8007.400000
119.085300 7829.600000
128.062000 37313.500000
129.069900 423783.400000
130.065200 77695.400000
131.073100 54795.000000
132.080800 1840555.100000
143.072800 8762.300000
144.080800 148026.900000
145.088600 36420.200000
146.096400 753363.800000
156.080600 7383.100000
158.096500 187415.100000
173.107400 26566.200000
174.091400 2410957.200000
175.122900 100835.200000
185.107400 38891.800000
186.091400 11843.000000
203.117900 675702.100000
256.169400 48503.700000
285.196100 10051.600000

>ms2peaks
53.002200 29703.300000
53.038600 81228.000000
53.997500 5479.300000
54.033800 24007.700000
55.054300 3420040.800000
56.049600 4841.400000
67.054100 4434.900000
72.044300 251437.300000
79.054100 4164.600000
81.069900 3568.600000
83.085500 2762302.500000
91.054200 23963.500000
103.054200 21412.400000
105.069800 79589.200000
115.054200 49706.400000
116.062000 5860.200000
117.057300 36827.300000
117.069800 217880.600000
118.065000 8058.900000
119.085600 16712.100000
128.062000 116421.300000
129.069800 674503.200000
130.065100 143081.100000
131.073000 128584.700000
131.085400 10988.100000
132.080700 1793217.800000
143.072500 14353.800000
144.080700 168813.400000
145.065000 17886.500000
145.088600 145474.700000
146.096300 729540.800000
155.060500 18849.600000
156.080700 7164.800000
158.096300 112208.200000
160.075700 4566.200000
171.091000 4258.200000
173.107400 11926.400000
174.091300 1250422.600000
175.122800 11764.300000
185.107300 21142.000000
186.091500 6178.300000
203.117900 60101.600000
256.168900 7088.600000

>ms2peaks
53.002300 51253.500000
53.038600 78702.200000
53.997500 8170.900000
54.033900 26917.900000
55.054300 3277893.000000
56.049500 4185.800000
58.028600 6367.800000
72.044300 162388.700000
79.054200 12957.300000
81.069700 8671.900000
83.085500 1168298.100000
91.054200 60307.300000
103.054200 50059.300000
105.069900 171801.000000
115.054200 133530.800000
116.062100 11030.000000
117.057300 108686.800000
117.069800 257699.100000
118.065100 10252.800000
119.085400 20330.800000
128.062000 221403.600000
129.069800 568289.600000
130.065100 219106.300000
131.073000 140376.200000
131.085400 8944.000000
132.080700 1358545.200000
143.072800 24200.300000
144.080700 141907.800000
145.064800 24785.100000
145.088600 180140.900000
146.096400 354357.100000
155.060300 33362.300000
156.080900 9235.200000
158.096300 40552.200000
171.091600 3730.600000
174.091300 348603.000000
185.107200 6915.300000
203.117700 3927.500000

