>compound LU07084543
>parentmass 297.0556000000001
>ionization [M+H]+
>formula C14H14Cl2N2O
>rt 917.160000
>profile orbitrap
#smiles_iso C=CCOC(CN1C=CN=C1)C2=C(C=C(C=C2)Cl)Cl
#smiles_can C=CCOC(CN1C=CN=C1)C2=C(C=C(C=C2)Cl)Cl
#inchikey PZBPKYOVPCNPJY-UHFFFAOYSA-N
#pubchem_id 37175
#mb_accession LU092401,LU092402,LU092403,LU092404,LU092405,LU092406

>ms2
69.044700 750681.000000
109.076100 171193.900000
158.976200 382017.700000
176.038900 137700.500000
184.991800 49384.900000
199.007400 35406.500000
200.986900 419371.200000
211.007700 98061.700000
229.018100 78211.900000
255.008700 441823.200000
297.055500 30599886.000000

>ms2
53.002200 238512.400000
53.997500 31168.300000
67.989300 20884.600000
69.044700 5094025.500000
81.044700 371330.000000
82.052700 16062.700000
82.065100 74905.500000
109.076000 1791549.800000
141.070000 13452.400000
149.015500 26189.200000
150.023400 32049.400000
158.976300 4850679.500000
163.031100 30216.400000
164.038700 60894.100000
165.046600 14058.500000
171.984400 13445.100000
172.992000 541564.100000
175.031000 72845.500000
176.038700 1655546.900000
182.976400 48506.700000
184.992000 490860.900000
186.971000 78775.600000
199.007700 367372.000000
200.986900 3090770.500000
203.037200 59775.900000
211.007600 427510.500000
229.018200 161111.700000
255.008600 2313802.200000
297.055600 10842030.000000

>ms2
53.002200 621335.600000
53.997500 79910.300000
54.010100 9824.700000
54.033800 9102.100000
55.017900 8949.200000
55.054200 15685.300000
65.038500 15170.300000
67.041600 35060.300000
67.989300 48623.600000
68.049400 20819.300000
69.044700 4066960.800000
80.049500 39073.700000
81.044700 1136723.400000
82.052500 92652.100000
82.065100 223745.700000
96.984000 7575.700000
99.055400 8323.500000
102.046500 7926.100000
109.076100 1452426.800000
113.070900 9620.500000
115.054100 11644.700000
122.999500 7878.600000
125.015200 9700.000000
128.062100 14160.700000
129.069800 39122.400000
137.015400 23390.500000
138.023200 12564.400000
139.053800 7855.900000
141.069900 135362.500000
149.015400 78928.100000
150.023100 139174.600000
153.010400 12069.100000
158.976300 6268139.000000
163.030900 63933.300000
164.038800 209260.800000
165.010100 10838.500000
165.046800 14307.200000
171.984000 12465.200000
172.992000 1614621.500000
175.030900 111543.800000
176.038700 1710169.200000
179.025600 10301.100000
182.976500 67752.600000
184.992000 274854.700000
186.971200 192736.900000
188.987200 14806.900000
195.984300 24161.800000
199.007700 174746.300000
200.986900 1259956.400000
203.036900 78298.100000
211.007500 99121.800000
229.018300 18901.200000
239.013600 17000.400000
255.008600 1259951.200000
297.055600 402868.600000

>ms2
52.018200 10959.300000
53.002200 745018.300000
53.997400 133878.700000
54.010000 14416.000000
54.033800 44172.400000
55.017900 15908.700000
55.054200 54938.800000
56.049400 6536.200000
65.038500 31979.700000
67.041600 109294.100000
67.989300 45071.100000
68.049400 41579.900000
69.044700 3185027.800000
80.049400 69136.500000
81.044700 1339628.000000
82.052500 230789.100000
82.065100 239734.700000
89.038600 9858.600000
92.049500 6882.100000
98.999800 10646.100000
99.055300 11036.900000
102.046400 71762.600000
103.054300 11221.200000
108.068800 8100.700000
109.076100 505939.200000
113.071000 20434.300000
115.054200 47580.200000
122.999600 66526.400000
124.007500 9688.000000
125.015200 41340.300000
128.062000 29795.200000
129.044700 11772.300000
129.069800 142746.500000
130.077700 9504.600000
132.960500 9504.600000
137.015300 122247.900000
138.023100 94990.900000
139.054200 19870.700000
140.062100 20924.000000
141.069900 514385.800000
149.015400 84793.700000
150.023100 168968.400000
155.060900 7987.000000
158.976300 5808392.000000
163.030900 32350.600000
164.038800 156996.700000
165.010000 25166.000000
170.976500 15319.700000
171.984100 20905.600000
172.992000 1385919.500000
175.031000 88836.800000
176.038700 716471.000000
177.034500 6980.700000
182.976300 44242.200000
184.991900 49641.100000
186.971200 123766.900000
193.042100 7597.400000
194.048600 6167.000000
195.984100 15487.800000
199.007700 28040.700000
200.986800 140476.800000
203.037200 41572.800000
211.007200 7308.300000
239.013700 9069.900000
255.008600 238418.000000

>ms2
52.018200 19794.200000
53.002200 863531.100000
53.997500 116115.000000
54.010100 20626.900000
54.033900 91195.600000
55.017900 17865.100000
55.054300 70827.300000
56.049700 6797.400000
63.022900 6738.100000
65.038600 40988.200000
67.041700 181888.100000
67.989300 38810.600000
68.049500 70226.400000
69.044700 2632977.200000
80.049500 79378.700000
81.044800 1144137.200000
82.052600 290463.000000
82.065200 172750.500000
89.038600 39191.200000
91.054300 12936.900000
98.999700 57677.400000
99.055400 13932.700000
102.046400 199900.700000
103.054300 79454.800000
108.068200 11299.400000
109.076100 120518.500000
113.071100 9927.200000
115.054300 123797.800000
119.049300 16459.000000
122.999600 327114.600000
124.007500 89558.700000
125.015300 38402.500000
128.062100 43279.900000
129.044800 37333.100000
129.069900 197284.800000
130.078000 9354.600000
131.049100 10410.100000
132.960700 36033.800000
136.007500 16309.100000
137.015400 173607.000000
138.023200 227752.600000
139.054200 38019.900000
140.061800 34096.700000
141.069900 691946.200000
145.064500 14909.100000
149.015300 78120.600000
150.023300 99891.100000
155.060200 12790.100000
158.976400 4672967.500000
164.038700 42136.900000
165.010100 9629.400000
170.976500 23523.800000
171.984300 25351.500000
172.992000 604830.100000
175.031000 47933.800000
176.038700 203041.100000
179.026100 12344.500000
182.976500 37165.100000
186.971500 20768.600000
195.984200 18671.600000
200.987500 12838.100000
203.037400 24142.400000
255.009100 23749.500000

>ms2
52.018300 14383.600000
53.002200 862754.100000
53.997500 142612.000000
54.010000 16928.300000
54.033900 155731.000000
55.017800 22343.500000
55.054300 85395.200000
63.023000 11606.900000
65.038500 55975.400000
67.041600 227588.000000
67.989200 42078.700000
68.049400 63601.300000
69.044700 2293880.800000
80.049500 96964.000000
81.044700 1032611.200000
82.052600 229483.400000
82.065100 89565.600000
83.060400 9007.500000
89.038600 197590.400000
91.054200 19069.800000
96.983900 10833.800000
98.999600 185136.900000
102.046400 266289.700000
103.054200 168131.500000
107.060300 9258.400000
108.068300 8059.100000
109.076100 33066.400000
113.070900 10102.700000
115.054200 220519.900000
119.049100 24248.000000
122.999600 898527.300000
124.007500 277895.000000
125.015200 53549.600000
128.062100 65023.600000
129.044700 59612.800000
129.069900 168223.200000
131.049200 6655.600000
132.960700 113304.400000
136.007600 39971.300000
137.015300 140656.300000
138.023100 211231.000000
139.054300 53677.300000
140.062200 30143.600000
141.069900 650930.300000
145.064900 6974.800000
149.015400 83748.800000
150.023200 28676.600000
155.060300 9685.900000
158.976300 3184112.200000
164.038300 6312.800000
165.010100 11211.500000
170.976200 12062.400000
171.984000 17511.600000
172.992000 170498.300000
175.030900 46359.600000
176.038700 40747.300000
182.976400 29359.300000
195.984100 18731.600000
203.037600 7636.900000

