>compound LU07722083
>parentmass 196.0604
>ionization [M+H]+
>formula C9H9NO4
>rt 686.340000
>profile orbitrap
#smiles_iso C1=CC=C(C=C1)C(=O)NOCC(=O)O
#smiles_can C1=CC=C(C=C1)C(=O)NOCC(=O)O
#inchikey WDRGQGLIUAMOOC-UHFFFAOYSA-N
#pubchem_id 21322
#mb_accession LU038201,LU038204,LU038205,LU038206

>ms2
105.033600 18059.800000

>ms2
91.054400 2763.900000
95.049300 1822.300000
97.007700 1451.500000
105.033700 10321.100000

>ms2
91.054300 4894.200000
95.049200 4202.900000
105.033600 6538.100000

>ms2
91.054200 5853.600000
95.049100 3442.200000
97.007700 1862.000000

