>compound LU07721676
>parentmass 292.0864000000001
>ionization [M+H]+
>formula C12H19ClNO3P
>rt 1097.880000
>profile orbitrap
#smiles_iso CC(C)(C)C1=CC(=C(C=C1)OP(=O)(NC)OC)Cl
#smiles_can CC(C)(C)C1=CC(=C(C=C1)OP(=O)(NC)OC)Cl
#inchikey BOFHKBLZOYVHSI-UHFFFAOYSA-N
#pubchem_id 9300
#mb_accession LU023701,LU023702,LU023703,LU023704,LU023705,LU023706

>ms2peaks
57.069900 81154.000000
108.021600 19368.000000
126.031300 63173.400000
169.042700 21895.800000
236.023800 1260644.100000
278.069700 26371.600000
292.086300 19045990.000000

>ms2peaks
57.069900 1483021.800000
108.021400 41630.300000
126.031500 1602900.800000
128.003100 16290.500000
140.047200 35360.500000
203.997500 18061.200000
222.008100 192121.700000
235.054400 9239.400000
236.023800 8802031.000000
260.060300 132306.800000
261.044700 37024.100000
278.070700 347585.800000
292.086300 9082016.000000

>ms2peaks
53.002200 53351.200000
57.069900 3441957.000000
59.999800 12717.900000
78.010300 12022.200000
78.994400 13215.200000
91.054200 12883.500000
95.976400 319312.400000
96.960400 10526.800000
110.999900 9771.800000
112.015700 13646.800000
122.060000 18751.000000
126.031400 7033197.000000
128.002900 12301.000000
128.035700 15109.700000
137.096100 14443.700000
138.010000 8081.100000
140.047100 163908.100000
147.080500 17605.200000
155.025700 8276.500000
165.091000 20691.300000
168.020800 11167.500000
172.999700 17789.200000
178.122500 19183.800000
183.057200 14710.900000
189.958300 9436.200000
203.997600 247141.900000
204.981700 74684.200000
211.051600 15765.600000
222.008100 1405584.100000
222.992200 122675.400000
229.018400 7398.400000
230.013200 12745.700000
230.997200 76297.900000
236.023700 5579474.500000
245.036600 19608.500000
260.060200 674871.200000
261.044200 155193.300000
278.070700 215367.700000
292.086300 563246.100000

>ms2peaks
53.002200 87034.500000
53.997400 15206.900000
57.069900 2754072.800000
59.999700 81476.600000
78.010300 58525.300000
78.994300 53709.400000
91.054200 55167.500000
94.065100 12959.800000
95.049100 9684.500000
95.976400 1630692.500000
96.960400 125890.200000
103.054200 12670.800000
107.049000 15919.200000
108.020800 49335.300000
108.057000 8089.100000
112.015800 33782.700000
115.054100 11041.400000
116.061800 26558.400000
117.069900 35696.300000
119.085500 61767.900000
122.060100 52415.000000
123.044200 20356.700000
125.059700 10101.200000
126.031400 8022832.500000
126.994300 11755.500000
128.002300 10950.800000
128.035600 17479.500000
129.069700 15087.100000
129.981800 43010.600000
131.085500 14276.800000
137.096200 46398.000000
138.010100 48428.900000
139.005800 41686.600000
139.031100 17093.900000
140.047000 205849.800000
141.009900 10989.100000
143.025800 47307.400000
147.080400 37432.600000
152.038700 16676.200000
153.009900 9023.200000
155.025900 23201.100000
163.099400 19157.600000
165.090900 20556.700000
169.041300 17319.500000
172.955400 8610.900000
172.999700 75741.200000
174.971000 11077.800000
178.122600 18919.000000
183.057200 8183.900000
186.031400 35617.800000
187.015300 14627.000000
189.958000 78948.100000
190.965500 9799.400000
192.981600 10730.700000
202.965900 21724.400000
203.997600 469003.800000
204.981600 152219.200000
210.067300 36871.400000
211.051700 34615.300000
215.002300 13776.600000
222.008100 957404.200000
222.991900 64984.500000
230.013100 33448.600000
230.997300 234905.500000
236.023700 614369.400000
245.036400 12226.300000
260.060100 224721.300000
261.044300 59094.500000
278.070900 12533.000000

>ms2peaks
53.002200 93263.700000
53.038600 10027.800000
53.997400 13613.800000
55.054200 10230.400000
57.069900 1732883.900000
59.999700 286185.200000
64.978700 13888.200000
65.038500 24243.500000
67.054300 10386.300000
75.022900 14690.200000
78.010300 123606.400000
78.046400 6581.100000
78.994300 146425.800000
79.054300 27033.200000
86.999600 25407.600000
89.038400 13105.000000
91.054200 152918.700000
93.033500 10011.800000
94.005100 5912.800000
94.041300 7717.000000
94.065100 33336.100000
95.049200 39205.900000
95.976400 2088893.200000
96.960500 278137.700000
98.999500 42894.400000
103.054200 21262.200000
104.061900 8855.900000
105.069800 26254.600000
107.049100 29220.700000
108.020900 39414.900000
108.057000 15377.800000
109.028400 8154.200000
111.044000 16532.800000
112.015800 68193.100000
112.999700 18429.800000
113.014900 8027.600000
115.054200 80371.200000
116.062000 68309.800000
117.069800 128236.600000
119.085600 75185.600000
122.060100 45267.700000
122.072400 8180.300000
123.044200 22471.700000
124.007800 6707.400000
125.015200 50813.200000
125.059500 11441.200000
126.031400 5851919.500000
126.994400 27996.300000
128.002500 18339.700000
128.035800 9939.900000
128.062000 12953.900000
129.010100 72604.900000
129.069800 19995.800000
129.982000 81703.300000
130.077700 6273.500000
130.965800 7444.900000
131.085400 19554.200000
133.064800 13564.300000
137.096000 19354.000000
138.010300 66073.700000
139.005800 133320.800000
140.047100 162162.200000
141.009900 25139.800000
143.025800 41851.200000
147.080500 16989.800000
148.075600 9400.500000
152.038700 13950.200000
153.009600 8686.500000
155.025700 30199.300000
163.098900 15813.600000
165.090500 6005.800000
168.020800 15839.500000
169.041400 32842.100000
172.955000 12574.200000
172.999800 106901.500000
174.971000 14013.200000
181.041200 6586.500000
186.031400 15511.000000
187.015300 11282.600000
188.974200 10123.200000
189.958200 202189.200000
190.965800 40412.100000
192.981400 13149.600000
202.966000 146282.600000
203.997600 187277.200000
204.981800 60829.800000
210.067900 29546.400000
211.051800 33772.300000
215.001900 20978.700000
222.008200 165135.900000
222.991900 7020.400000
230.013100 15370.100000
230.997200 171114.500000
236.024100 28041.700000
260.059800 20883.200000
261.043900 6627.700000

>ms2peaks
53.002200 100079.900000
53.038600 18046.900000
53.997500 16726.100000
55.017900 10422.600000
55.054200 8541.400000
57.069900 893509.500000
59.999800 551917.100000
64.978600 28350.000000
65.038500 54988.100000
67.054200 11885.300000
67.989400 3534.100000
68.997100 4227.000000
75.022900 71551.400000
77.038500 3867.700000
78.010300 144288.500000
78.046500 7268.400000
78.994300 203104.300000
79.054200 59192.900000
86.999600 32153.500000
89.038600 60330.500000
91.054200 287547.700000
93.010100 14990.500000
93.033400 8395.200000
93.070000 7658.200000
94.041400 11077.200000
94.065100 41817.600000
95.049200 64672.900000
95.976400 1532667.600000
96.960500 290635.500000
98.999600 93656.500000
103.054200 45808.800000
104.061900 16347.700000
105.069900 43578.100000
107.049000 46485.400000
108.020800 23821.100000
108.056900 29582.000000
109.028400 12389.100000
109.064900 7681.800000
110.999800 26658.200000
111.044000 16714.200000
112.007400 7991.300000
112.015800 103255.700000
112.999800 30481.800000
113.015100 8457.300000
115.054200 190005.100000
116.062100 74705.700000
117.069800 174939.500000
119.085600 37896.300000
121.064500 7593.900000
122.059900 15675.100000
122.072600 8654.400000
123.044100 9800.800000
124.007700 9175.400000
125.015300 59363.500000
125.059300 4450.200000
126.031500 3189574.500000
126.994400 18213.700000
128.002300 20007.500000
128.035700 4785.400000
128.062000 25264.900000
129.010100 95738.700000
129.069900 17245.500000
129.981900 73776.100000
130.077800 3985.400000
130.966100 9212.600000
133.064800 25010.200000
137.096000 3328.000000
138.010300 47170.500000
139.005800 163256.000000
140.047200 80715.300000
143.026000 21049.300000
147.080300 7685.800000
148.075700 14441.300000
152.038700 6022.500000
155.025900 20450.200000
162.091300 5844.000000
163.099400 4734.700000
169.041200 16269.800000
172.955100 11452.700000
172.999800 60678.500000
174.971100 5053.300000
186.971300 7969.400000
187.015600 4080.800000
188.974000 7862.800000
189.958100 162780.000000
190.965900 41011.800000
202.966000 248455.200000
203.997900 17794.700000
204.981200 8939.300000
208.976000 4245.800000
210.067900 11725.000000
211.051800 10705.700000
215.002300 9597.900000
222.008300 7905.200000
222.992900 3643.800000
230.013500 5689.100000
230.997400 52089.900000

