>compound LU07998209
>parentmass 117.1022
>ionization [M+H]+
>formula C5H12N2O
>rt 610.040000
>profile orbitrap
#smiles_iso CCCCNC(=O)N
#smiles_can CCCCNC(=O)N
#inchikey CNWSQCLBDWYLAN-UHFFFAOYSA-N
#pubchem_id 11595
#mb_accession LU088501,LU088502,LU088503,LU088504,LU088505,LU088506

>ms2peaks
53.002200 11430.000000
57.069900 833116.400000
61.039600 573180.100000
72.044200 2678.700000
74.096400 532477.900000
100.075500 5452.000000
117.102200 1106880.400000

>ms2peaks
53.002400 2986.000000
57.069900 245961.400000
61.039700 1362709.600000
72.044300 2722.000000
74.096300 8029.600000
100.075800 5043.800000
117.102300 463331.100000

>ms2peaks
53.002300 13455.400000
53.997500 3497.600000
55.054200 2031.900000
57.069900 834510.900000
61.039600 161730.600000
72.044400 3429.000000
74.096400 512202.800000
100.075800 6894.700000
117.102200 948352.300000

>ms2peaks
53.002200 29762.700000
53.997500 4910.100000
57.069900 886057.100000
61.039600 174303.700000
74.096400 192553.300000
100.075600 2727.400000
117.102200 216206.500000

>ms2peaks
53.002200 42953.200000
53.997500 6548.400000
55.054300 3263.600000
57.069900 666220.400000
61.039600 315310.400000
74.096400 52797.600000
117.102300 38779.900000

>ms2peaks
53.002200 48071.000000
53.997500 9781.100000
55.054300 4855.900000
57.069900 380886.800000
61.039600 184791.700000
74.096400 13219.200000
117.102200 8987.100000

