>compound LU07093816
>parentmass 141.0771
>ionization [M+H]+
>formula C5H8N4O
>rt 302.460000
>profile orbitrap
#smiles_iso CC1=NC(=NC(=N1)OC)N
#smiles_can CC1=NC(=NC(=N1)OC)N
#inchikey NXFQWRWXEYTOTK-UHFFFAOYSA-N
#pubchem_id 15466
#mb_accession LU030601,LU030602,LU030603,LU030604,LU030605,LU030606

>ms2peaks
56.049500 324177.800000
57.044700 761940.600000
58.028600 35103.700000
68.024300 16770.200000
83.023900 37534.600000
84.055600 27342.900000
85.039600 242713.000000
100.050500 183237.900000
141.077000 6831613.500000

>ms2peaks
56.049500 337516.600000
57.044700 732759.700000
58.028700 38749.000000
68.024300 11706.500000
82.040000 8058.400000
83.024000 35327.000000
84.055700 26751.000000
85.039600 217061.500000
100.050500 177324.700000
141.077000 6333870.000000

>ms2peaks
56.049500 380558.500000
57.044700 1076222.600000
58.028700 88734.600000
68.024300 34788.300000
69.008200 9654.900000
73.075900 6205.500000
82.039900 8953.400000
83.024000 57138.800000
84.055700 31476.400000
85.039600 297635.600000
100.050500 258811.100000
124.050300 8639.300000
141.077000 3726360.000000

>ms2peaks
56.049500 580021.000000
57.044700 2089885.100000
58.028700 333825.100000
60.044300 7438.000000
68.024300 106651.100000
69.008200 20541.000000
73.075800 6062.100000
82.040000 11661.000000
83.023900 89074.400000
84.055600 55906.800000
85.039600 451308.800000
100.050500 415095.800000
124.050300 7584.100000
141.077000 1932882.600000

>ms2peaks
56.049500 462326.300000
57.044700 2070105.800000
58.028800 531102.200000
60.044400 2132.900000
68.024300 181162.600000
69.008300 33409.700000
73.076000 5428.600000
82.040100 8955.700000
83.024000 78248.400000
84.055600 42423.100000
85.039700 320095.900000
100.050600 281406.000000
124.050700 2693.600000
141.077100 578971.900000

>ms2peaks
56.049500 357441.800000
57.044700 1667173.900000
58.028800 596003.600000
68.024300 230637.200000
69.008300 31695.200000
82.040000 4784.100000
83.024000 55725.600000
84.055600 26497.100000
85.039700 165656.500000
100.050500 156264.500000
141.077100 127172.600000

