>compound LU08260832
>parentmass 230.1176
>ionization [M+H]+
>formula C14H15NO2
>rt 1011.900000
>profile orbitrap
#smiles_iso CC1=C(OC(=C1C(=O)NC2=CC=CC=C2)C)C
#smiles_can CC1=C(OC(=C1C(=O)NC2=CC=CC=C2)C)C
#inchikey ZWJNEYVWPYIKMB-UHFFFAOYSA-N
#pubchem_id 34313
#mb_accession LU118501,LU118502,LU118503,LU118504,LU118505,LU118506

>ms2
92.049400 4550.500000
93.070100 12692.600000
111.080400 1918811.500000
120.044400 99531.900000
137.059700 1199084.600000
174.054000 7746.500000
212.106800 8407.200000
230.117600 4291157.000000

>ms2
55.054300 8360.400000
67.054000 10818.100000
69.033400 3785.200000
77.038600 3782.600000
81.069800 4867.800000
83.085500 8966.600000
91.054100 4000.000000
92.049500 34549.300000
93.069900 55771.000000
94.065100 5441.100000
95.049100 14948.700000
109.064800 11612.300000
111.080400 3038441.200000
120.044400 294176.700000
137.059700 3418337.200000
138.054700 5406.500000
174.054100 9557.900000
188.107000 6526.800000
212.106900 17892.400000
230.117600 1923742.900000

>ms2
53.038600 12738.800000
55.017800 11006.200000
55.054200 37373.200000
67.054200 54829.700000
69.033500 11037.200000
79.054200 5728.500000
81.069900 24332.100000
83.049200 7391.700000
83.085400 38481.400000
91.054200 17222.300000
92.049500 168657.200000
93.069900 146670.700000
94.065200 7842.100000
95.049100 139648.100000
109.064800 78642.700000
111.080400 1641499.500000
120.044400 352009.400000
137.059700 5157438.500000
138.054700 5802.600000
174.054100 7552.900000
212.106800 8377.300000
230.117500 123390.600000

>ms2
53.038600 35244.600000
55.017800 20037.900000
55.054200 84380.200000
65.038500 33185.000000
67.054200 444967.500000
69.033400 12080.600000
77.038500 12551.700000
79.054200 25277.400000
81.069900 96900.100000
83.049100 9548.000000
83.085500 50107.200000
91.054200 49119.600000
92.049500 311567.700000
93.069900 173523.500000
94.065200 8739.500000
95.049100 652724.200000
109.064800 343127.000000
111.080400 627976.400000
120.044400 188936.200000
124.075800 10313.000000
137.059700 4873059.500000

>ms2
53.002200 9489.600000
53.038600 74588.600000
55.017900 25843.900000
55.054300 100870.300000
57.033500 3792.500000
65.038600 102173.500000
66.046300 3843.600000
67.054200 1387863.600000
69.033400 12938.000000
77.038600 17286.400000
79.054200 85318.700000
81.069900 180132.700000
83.049000 9352.400000
83.085500 34064.300000
91.054300 60362.200000
92.049500 300670.600000
93.069900 96410.200000
94.041400 5453.600000
94.065200 7741.800000
95.049200 977970.200000
109.064800 559310.900000
111.080500 189254.900000
119.049100 3155.100000
120.044500 47701.100000
124.075900 12144.600000
137.059700 2722306.500000

>ms2
50.015200 4413.100000
53.002200 16752.700000
53.038600 93382.700000
55.017900 15213.000000
55.054300 81819.000000
65.038600 191208.700000
66.046500 4904.800000
67.054200 1816299.900000
69.033500 7949.600000
77.038600 26377.000000
79.054200 126292.600000
81.069900 169566.200000
83.049200 5477.300000
83.085500 16351.400000
91.054200 46776.200000
92.049500 207274.000000
93.070000 39904.400000
94.041300 8462.700000
94.065100 4991.100000
95.049200 710598.100000
109.064900 362146.700000
111.080500 42843.100000
120.044400 7747.900000
124.075800 8801.300000
137.059800 877429.100000

