>compound LU08312978
>parentmass 324.20699999999994
>ionization [M+H]+
>formula C20H25N3O
>rt 1357.380000
>profile orbitrap
#smiles_iso CC(C)(C)CC(C)(C)C1=CC(=C(C=C1)O)N2N=C3C=CC=CC3=N2
#smiles_can CC(C)(C)CC(C)(C)C1=CC(=C(C=C1)O)N2N=C3C=CC=CC3=N2
#inchikey IYAZLDLPUNDVAG-UHFFFAOYSA-N
#pubchem_id 62485
#mb_accession LU072201,LU072202,LU072203,LU072204,LU072205,LU072206

>ms2
324.207200 858164.600000

>ms2
57.069900 66747.100000
133.065100 1762.500000
212.082000 66974.700000
324.207200 811276.700000

>ms2
53.002400 2038.900000
55.054200 3329.300000
57.069900 309977.500000
58.065200 1601.800000
69.069900 2486.800000
71.085500 4753.000000
92.049500 6072.000000
105.070000 2181.900000
107.049100 1966.600000
120.055600 12860.600000
121.064900 4959.500000
129.069900 3727.200000
134.072800 3975.500000
135.080200 4721.600000
149.096300 2754.100000
183.068500 2346.200000
184.075700 5233.800000
184.206100 3466.200000
209.095800 2370.600000
210.091500 13505.600000
212.081900 197500.100000
224.107100 9393.600000
225.114800 4105.000000
238.097600 6565.900000
252.113300 6575.800000
253.121000 28463.200000
324.207300 193253.900000

>ms2
53.002400 2116.200000
55.054300 6225.800000
57.069900 220878.900000
58.065200 3347.900000
65.038600 8774.400000
71.085500 4852.800000
79.054200 2192.000000
80.049600 2001.100000
92.049600 57169.900000
93.033700 3269.600000
105.069900 5977.200000
106.077500 2470.900000
107.049300 5499.700000
107.060500 3150.100000
111.044200 5387.500000
120.055800 25171.300000
121.064900 15120.700000
129.069900 5487.600000
133.065000 7825.800000
134.072700 7984.200000
135.080500 5047.700000
139.075400 2512.200000
149.096700 1658.600000
156.080800 3942.800000
166.065700 3523.500000
167.073100 2541.000000
182.096800 3150.400000
183.068000 6233.300000
184.076100 4611.200000
184.206100 2732.700000
196.075700 2850.400000
209.096100 5961.000000
210.091800 24206.900000
212.082100 52699.900000
224.107600 15309.800000
225.115500 1770.500000
238.097500 14014.900000
252.113200 18259.600000
253.120800 11433.200000
324.207300 6247.200000

>ms2
53.002200 4268.000000
55.054300 4743.900000
57.069900 107356.200000
58.065200 1723.900000
65.038600 34046.600000
69.070000 1781.800000
79.054200 6734.600000
80.049500 3533.000000
91.041900 2680.900000
91.054200 7826.600000
92.049500 119086.600000
93.033600 1886.100000
95.049300 2868.300000
103.054200 2103.700000
105.070000 12538.000000
106.077900 2046.700000
107.049100 3238.500000
110.060200 2058.600000
111.044200 6075.000000
119.049200 6398.700000
119.060500 3021.500000
120.055700 18963.600000
121.064800 13199.800000
128.061900 2545.900000
129.069900 4487.300000
133.065000 16343.700000
134.072600 5444.900000
135.080400 4546.200000
139.054200 4020.800000
139.075300 5517.000000
156.081200 1808.100000
165.069900 2878.500000
166.064700 2695.400000
167.073000 5463.100000
180.080900 3591.600000
182.096400 3830.800000
183.068100 7512.100000
184.075700 3465.300000
196.076100 2566.100000
209.083300 2862.800000
209.095600 2184.900000
210.091500 13504.900000
212.082000 7648.200000
224.107000 6437.600000
238.097700 7804.600000
252.112900 12795.500000

>ms2
53.002200 3225.900000
55.054200 6070.300000
57.069900 48183.200000
58.065200 5670.800000
65.038600 68678.000000
79.054300 7873.600000
80.049400 6331.800000
91.041700 2115.400000
91.054300 16580.200000
92.049500 101663.300000
95.049300 3736.600000
103.054200 4136.800000
105.069900 19954.000000
107.049100 6665.400000
107.060600 2234.900000
110.060200 4982.100000
119.049100 5691.600000
119.060600 4857.600000
120.055700 12313.600000
121.064900 5766.200000
128.062200 1826.700000
129.070000 2248.100000
133.064900 18247.200000
134.072700 2857.200000
139.054800 2648.400000
156.080400 2070.400000
165.070200 3653.400000
167.073200 8527.600000
180.080900 3456.000000
182.096500 2260.900000
183.068100 6833.100000
196.075700 4926.600000
209.083600 4292.500000
210.091300 3736.900000
252.114400 2266.000000

