>compound LU08652518
>parentmass 215.04849999999996
>ionization [M+H]+
>formula C8H10N2O3S
>rt 351.860000
>profile orbitrap
#smiles_iso CC(=O)NS(=O)(=O)C1=CC=C(C=C1)N
#smiles_can CC(=O)NS(=O)(=O)C1=CC=C(C=C1)N
#inchikey SKIVFJLNDNKQPD-UHFFFAOYSA-N
#pubchem_id 5320
#mb_accession LU077601,LU077602,LU077603,LU077604,LU077605,LU077606

>ms2peaks
61.010800 2145.100000
79.021300 3122.100000
108.044200 2964.400000
156.011500 24253.700000

>ms2peaks
61.010600 3111.800000
79.021200 7316.700000
108.044400 4341.400000
153.959500 2489.400000
156.011400 16865.000000

>ms2peaks
61.010600 5565.000000
79.021200 19578.600000
92.049600 3659.800000
108.044500 7347.100000
128.986500 2008.300000
153.959500 5467.700000
156.011400 4326.800000

>ms2peaks
61.010800 4352.500000
65.038600 3061.100000
79.021200 26492.800000
92.049600 5742.400000
108.044600 6954.000000
110.060000 2035.200000
128.986600 3817.400000
153.959300 2568.000000

>ms2peaks
61.010700 4331.200000
65.038600 7307.200000
79.021300 23687.300000
92.049600 7207.500000
108.044400 5169.200000
114.971100 2769.900000
128.986600 2231.000000
153.959300 2878.200000

>ms2peaks
61.010700 6020.500000
65.038600 11826.700000
79.021300 18988.700000
92.049600 7017.900000
108.044400 3288.100000
110.060100 2324.600000
114.970900 3530.200000

