>compound LU08161365
>parentmass 439.1864
>ionization [M+H]+
>formula C24H26N2O6
>rt 1055.440000
>profile orbitrap
#smiles_iso CCCCC1(C(=O)N(N(C1=O)C2=CC=CC=C2)C3=CC=CC=C3)COC(=O)CCC(=O)O
#smiles_can CCCCC1(C(=O)N(N(C1=O)C2=CC=CC=C2)C3=CC=CC=C3)COC(=O)CCC(=O)O
#inchikey ONWXNHPOAGOMTG-UHFFFAOYSA-N
#pubchem_id 5362
#mb_accession LU113501,LU113502,LU113503,LU113504,LU113505,LU113506

>ms2
73.028200 5236.900000
77.038800 4425.500000
83.085500 12301.300000
101.023300 90326.100000
109.064600 5106.600000
111.080300 21851.300000
115.038800 11343.900000
118.065300 5291.300000
120.044800 4599.800000
146.060200 4602.000000
146.096300 7314.400000
148.112200 3909.900000
160.112000 402458.000000
174.127900 13298.400000
200.106700 9206.800000
202.122500 1620353.100000
211.085900 16548.800000
218.117300 5982.600000
223.086500 6891.000000
228.101700 25443.000000
237.102100 6627.600000
253.096800 19645.500000
265.097700 13096.600000
267.112700 359074.800000
277.169900 3773.900000
279.149000 76319.000000
293.164800 224760.400000
309.159800 2264529.000000
321.159800 3478940.800000
339.170400 1287150.800000

>ms2
55.017900 62515.700000
55.054200 45982.200000
69.033500 16467.400000
69.069800 10450.200000
71.085600 4480.200000
73.028400 112463.400000
77.038900 10254.600000
81.069900 31606.400000
83.085500 49625.600000
92.049500 9615.500000
93.057500 6079.000000
94.065200 57260.400000
95.049200 9379.800000
97.064800 12349.500000
99.080500 8913.400000
101.023300 650783.000000
104.049400 63737.000000
106.065000 22821.000000
109.064800 59880.000000
111.044200 18050.600000
111.080500 26159.400000
115.039000 93377.200000
118.065100 103081.900000
119.033900 9753.000000
120.044400 53566.500000
120.080800 33186.500000
130.065100 26517.300000
131.073000 14748.600000
132.044400 38801.100000
132.080900 11898.100000
134.060100 11705.900000
139.075300 40786.200000
144.080900 7866.200000
146.060000 201535.200000
146.096200 18829.400000
147.067800 4982.700000
148.075600 24674.900000
148.112000 12347.000000
150.055000 4425.700000
158.060200 4525.100000
160.075900 113364.100000
160.112100 2205826.800000
162.127600 179076.500000
164.070600 7478.900000
168.080800 17506.400000
172.112000 37105.000000
173.120100 5674.600000
174.054900 30071.600000
174.127700 74289.000000
184.112200 13674.100000
185.107400 14165.300000
186.091500 14301.700000
188.107000 133198.800000
190.122700 78578.400000
195.091800 15978.400000
200.107000 105797.700000
202.122700 473164.300000
206.117400 32843.500000
208.099400 21823.800000
209.107300 10428.200000
211.086600 105274.500000
216.102000 23838.700000
218.117200 18998.500000
221.107200 8285.300000
223.086800 25793.600000
223.122900 9542.500000
228.101800 60253.600000
237.102500 42960.200000
239.117000 14208.300000
251.154100 73071.700000
253.097200 60197.700000
261.102400 11751.500000
265.097500 26403.100000
265.170300 24489.900000
267.112800 890876.200000
275.154100 37370.000000
277.170600 11054.800000
279.149200 171268.500000
281.165000 67089.600000
291.148700 4721.100000
293.164800 197740.000000
303.149100 75517.800000
309.159900 4319210.500000
321.159900 284531.400000
339.170500 16587.400000

>ms2
53.038600 12214.800000
55.017800 267914.400000
55.054200 98397.700000
57.069800 27010.100000
65.038500 34935.100000
67.054200 20307.200000
69.033400 13854.000000
69.069800 66962.800000
71.085400 26979.600000
73.028300 406761.900000
77.038700 18892.500000
79.054200 41964.800000
81.069800 104752.600000
83.085500 31630.500000
84.080800 12769.100000
87.044100 5888.000000
91.038900 9123.200000
91.054000 16636.100000
92.049400 51776.400000
93.033400 18461.700000
93.057300 28639.000000
94.065100 264775.800000
95.049100 104210.200000
97.064800 98425.100000
99.080600 4664.800000
101.023300 650072.300000
104.049400 343517.500000
105.033500 11325.400000
105.044800 11522.900000
105.054500 3987.300000
105.069900 3807.900000
106.065100 243321.500000
109.064800 65240.900000
111.044000 59372.900000
111.080500 6389.200000
115.038900 85123.800000
117.056900 14802.700000
117.069900 4045.300000
118.065000 411729.800000
119.034000 7881.600000
119.073100 6233.800000
120.044300 184588.100000
120.080700 133479.600000
123.043900 16346.200000
125.059700 10610.200000
130.065100 142531.800000
131.072900 111390.200000
132.044300 171353.500000
132.080800 71409.100000
133.052100 25417.600000
134.060000 115307.300000
139.075400 21184.800000
143.073000 10652.900000
143.085500 9309.400000
144.044300 6334.100000
144.080700 39146.800000
145.088600 25713.900000
145.101000 19503.800000
146.060000 569956.400000
147.067800 13684.700000
148.039200 6367.100000
148.075600 60099.800000
148.112000 31817.500000
150.054600 17366.800000
158.060200 20341.600000
158.096200 18829.500000
159.068100 13292.900000
159.104000 5707.500000
160.112000 3780655.800000
162.054800 50955.700000
162.127600 687078.500000
164.070400 5269.700000
168.080600 27710.700000
170.096300 5347.800000
172.075700 10594.000000
172.112000 104756.200000
173.083500 10159.100000
173.119300 13308.900000
174.054900 169344.900000
174.127500 48224.500000
175.062600 9001.900000
180.080600 7410.400000
182.095800 4504.000000
183.091600 4684.300000
184.075700 4045.100000
184.111600 13164.500000
185.083800 5094.500000
185.107300 5316.900000
186.091000 15169.500000
187.099000 10407.900000
188.106900 176871.400000
190.122500 185796.300000
195.091800 27300.500000
198.091500 7866.300000
200.106900 89104.900000
202.122600 86755.900000
206.117800 23481.200000
207.091800 20343.100000
208.099400 119704.500000
209.107200 50847.400000
211.086500 227804.400000
216.101900 31777.700000
218.117200 8494.500000
219.091700 10594.900000
221.106900 13202.300000
223.086500 12287.600000
223.122700 10986.400000
228.101800 7887.200000
233.107300 4429.200000
234.079300 5480.700000
235.086300 10030.200000
236.094700 4817.100000
237.102000 73985.700000
239.118600 8663.900000
245.107000 6924.800000
247.086200 5493.900000
249.101600 5728.100000
251.154200 152770.800000
253.096900 8367.100000
261.101700 9154.400000
261.138500 5085.500000
265.169800 18790.200000
267.112700 88560.600000
275.154500 16637.900000
279.149100 30182.500000
281.164800 21616.800000
291.149100 5266.600000
293.164900 22438.000000
303.150300 8409.400000
309.159700 564445.400000
321.160300 5041.600000

>ms2
51.022900 6289.600000
53.002200 13083.900000
53.038600 61037.200000
53.997400 4107.100000
55.017900 486800.100000
55.054200 110564.900000
57.069900 105193.300000
65.038600 124240.300000
67.054200 58621.300000
69.033500 11502.800000
69.069800 85289.300000
71.085500 19908.200000
73.028400 568717.200000
74.096400 3904.000000
77.038200 34903.200000
78.046300 4313.500000
79.054200 113421.700000
81.033500 7547.800000
81.069900 125706.800000
82.065300 3541.700000
83.012600 6197.900000
83.085600 6350.800000
84.080800 12866.000000
87.044000 6224.200000
91.038900 13488.500000
91.054200 41144.900000
92.049500 181562.800000
93.033600 20560.300000
93.057300 56453.400000
93.069900 5945.700000
94.065100 382971.700000
95.049100 284105.700000
97.064800 80152.400000
101.023300 358681.700000
103.054300 15882.600000
104.049400 987007.800000
105.033600 33045.900000
105.044700 73402.600000
105.054700 5964.100000
105.069900 5556.200000
106.065100 539326.600000
107.049000 4195.800000
109.064800 37132.000000
111.044000 75273.300000
115.039000 45143.300000
115.054200 6215.400000
116.049600 3798.200000
117.057100 24670.000000
117.069800 13321.800000
118.065100 574410.500000
119.034000 6733.300000
119.073000 49355.600000
120.044400 224931.100000
120.080800 137984.500000
122.060000 6227.700000
123.044100 5444.400000
124.075600 7517.500000
125.059700 10847.500000
128.049500 40883.200000
128.062000 13084.100000
129.069800 4771.900000
130.065100 310411.800000
131.060600 10100.800000
131.073000 160200.200000
132.044400 213233.600000
132.080700 124252.900000
133.039600 16344.300000
133.052200 62625.700000
134.060000 127591.000000
139.075100 3520.000000
141.069600 3860.200000
142.065100 11210.600000
143.072900 22678.000000
143.085800 10991.400000
144.044500 12815.100000
144.080800 67119.200000
145.076200 7914.700000
145.088600 75789.600000
145.101200 15859.400000
146.060000 462668.300000
146.096200 23719.000000
147.067900 12429.600000
148.038900 2884.700000
148.075700 22400.800000
148.112000 27852.200000
152.070800 3953.200000
156.044700 4792.000000
156.080600 5274.800000
157.088800 10698.200000
158.060200 23731.400000
158.096300 28789.600000
159.068100 24501.000000
159.104000 4972.800000
160.112000 2631615.800000
162.054900 54486.100000
162.127600 294277.000000
166.065200 7544.500000
167.073100 16173.500000
168.080600 37970.600000
169.088100 6721.000000
170.059800 6663.500000
170.096300 9801.700000
172.075700 17289.700000
172.112100 45622.400000
173.083600 10324.000000
174.054900 171872.200000
174.127800 18095.800000
175.062400 5559.400000
180.080800 11757.700000
182.083800 17578.200000
182.096000 5153.400000
183.091600 9774.700000
184.075500 7341.500000
184.111800 4486.100000
185.083100 4183.200000
186.091300 10180.100000
187.098800 4141.800000
188.107000 35998.800000
190.122800 29365.100000
194.059800 15702.200000
195.091800 50719.700000
198.091100 5488.700000
200.107300 17564.800000
202.122600 9750.900000
204.080600 3626.000000
206.083200 8476.900000
207.091600 86882.600000
208.099500 131328.600000
209.107200 53339.900000
211.086600 153135.600000
216.101700 5926.300000
218.117300 3259.100000
219.091800 12913.000000
221.107300 16422.700000
223.086400 6333.800000
224.095000 3169.400000
232.098900 4708.400000
233.107600 7025.700000
234.078600 8269.900000
235.086300 9501.500000
236.094900 5620.500000
237.102300 24055.300000
245.107000 8629.500000
247.086000 5259.900000
249.102600 3822.600000
251.154200 54951.600000
309.159600 10119.400000

>ms2
51.023100 4968.800000
53.002300 27330.800000
53.038600 199806.500000
53.997500 3733.000000
55.017900 650457.300000
55.054300 107708.900000
57.069900 183337.200000
65.038600 251791.400000
66.046500 5119.200000
67.054200 95393.200000
68.997200 5826.800000
69.033400 5717.400000
69.069900 51513.500000
71.085600 3560.800000
73.028400 560836.800000
77.038500 56570.300000
78.046400 9075.000000
79.054300 162687.100000
80.049400 4797.900000
81.033500 19392.100000
81.070000 96956.000000
82.065100 3222.100000
83.012700 5211.900000
84.080800 6907.900000
87.044200 7445.400000
89.038600 3750.800000
91.039100 14399.400000
91.054300 81115.000000
92.049500 294256.400000
93.033600 14320.300000
93.057400 65630.200000
93.070000 5448.100000
94.041400 25802.000000
94.065200 360414.700000
95.049200 589791.800000
97.064900 37206.300000
101.023400 143222.300000
103.054300 33360.500000
104.049500 1301133.400000
105.033700 53873.600000
105.044800 225365.400000
105.070000 15834.100000
106.065200 571770.400000
107.049000 4180.700000
109.064800 16124.600000
110.060200 3733.700000
111.044100 51075.300000
115.039200 17714.300000
115.054300 21713.700000
116.049600 12885.200000
116.062100 5939.800000
117.057300 62065.700000
117.070000 15043.500000
118.065200 455548.500000
119.073100 68439.300000
120.044500 143525.200000
120.080900 91397.400000
122.060000 2668.100000
124.075800 6320.500000
125.059800 5084.500000
128.049600 97804.900000
128.061800 12942.400000
129.044900 4021.700000
129.070100 5433.000000
130.065300 376734.200000
131.060800 21240.400000
131.073000 106954.600000
132.044500 179836.700000
132.080900 99164.300000
133.039900 24247.500000
133.052200 72081.400000
134.047700 3607.600000
134.060100 70373.800000
142.065100 14379.100000
143.073000 35145.600000
143.085700 6231.600000
144.044800 12532.100000
144.080900 79536.300000
145.076000 7886.900000
145.088700 76140.400000
145.101500 5030.200000
146.060100 309902.200000
147.068200 4088.800000
148.075900 5158.900000
148.112300 9624.900000
154.065200 6324.200000
156.044400 13261.500000
156.081000 10369.300000
157.088700 9857.000000
158.060000 19388.200000
158.096700 17514.000000
159.068100 12345.800000
160.076000 44707.000000
160.112200 837742.400000
162.054900 46763.500000
162.127900 47641.600000
165.070000 3596.800000
166.065500 17410.900000
167.073000 37792.200000
168.080900 32916.800000
169.088800 5479.700000
170.060300 4937.200000
170.096600 5446.300000
172.076000 15642.700000
172.112400 11361.700000
173.070800 3510.100000
173.083800 4882.400000
174.055100 64573.100000
180.081100 18418.500000
182.084100 39882.600000
182.096700 4433.600000
183.091800 6364.200000
184.075700 8905.900000
186.091300 5117.800000
188.106500 5701.500000
190.123200 3594.100000
194.060000 13525.200000
194.083900 3073.800000
195.091900 28460.500000
198.091700 2848.200000
204.080900 6056.900000
205.076400 2650.600000
206.083800 10780.900000
207.091800 144581.200000
208.099800 61926.400000
209.107300 27640.900000
211.086800 48601.000000
219.091900 10687.400000
221.107200 12500.500000
232.100100 6307.400000
233.107600 4071.400000
234.078900 9529.100000
235.086900 7242.700000
245.107400 11582.800000
247.086400 3979.700000
251.154500 7662.600000

>ms2
50.015200 7595.900000
51.023000 6432.700000
53.002200 36891.500000
53.038600 303716.800000
53.997500 5618.400000
55.017900 545284.600000
55.054300 80242.300000
57.069900 130714.500000
65.038600 326509.900000
66.046300 9092.100000
67.054200 96325.800000
68.049500 3103.500000
68.997100 5006.800000
69.069800 21134.500000
73.028400 362818.500000
74.096500 3437.800000
77.038500 104534.600000
78.046400 19966.700000
79.054200 178016.400000
80.049600 8052.800000
81.033500 29692.300000
81.069900 51020.400000
87.044000 5682.700000
91.039200 8852.100000
91.054300 124504.600000
92.049500 259407.600000
93.033500 6996.600000
93.057300 74282.400000
94.041500 32920.700000
94.065200 257192.900000
95.049200 930905.600000
97.064800 7752.300000
101.023400 43296.600000
103.054200 47986.300000
104.049500 782666.000000
105.033700 41433.600000
105.044700 344426.700000
106.065100 381142.800000
107.049300 3686.300000
107.060200 2729.400000
109.064900 9999.200000
111.044000 27621.100000
115.039100 4863.800000
115.054300 34813.900000
116.049600 19245.900000
117.057300 83807.500000
117.069700 11920.400000
118.065100 297778.800000
119.073000 39742.400000
120.044400 79098.500000
120.080700 37230.600000
124.075800 6774.800000
125.060100 2724.800000
128.049500 119084.100000
128.061800 21392.800000
129.069900 8179.000000
130.065200 318588.400000
131.060400 28812.300000
131.073000 46313.100000
132.044400 116533.700000
132.080800 47829.200000
133.039700 15106.900000
133.052100 65754.000000
134.060000 32618.000000
142.065100 10530.400000
143.073000 34326.600000
143.085800 4254.700000
144.044500 12597.000000
144.080800 73504.400000
145.076000 7223.500000
145.088500 33985.800000
146.060100 155356.500000
154.065400 4832.000000
155.060300 3751.400000
156.044400 6891.600000
156.080900 13309.900000
157.088200 3730.400000
158.059900 13478.400000
158.096600 11246.800000
159.067900 5353.700000
160.075900 20213.300000
160.112100 141315.600000
162.055100 15522.200000
162.127700 3603.000000
164.070400 2593.600000
165.069900 5629.400000
166.065300 20230.300000
167.073100 51681.000000
168.080700 16360.800000
169.088900 3403.700000
170.060200 8054.900000
170.097100 2719.500000
172.075500 5504.600000
174.055300 12249.400000
180.080700 25782.500000
182.084000 39600.200000
183.091800 5278.300000
184.076000 7172.600000
193.076600 4777.600000
193.088200 3638.400000
194.060900 3801.900000
195.091900 10948.800000
206.084000 23910.800000
207.091800 125591.100000
208.099000 15287.800000
209.107600 7333.700000
211.086800 5590.700000
219.092000 8701.900000
221.107800 7269.100000
245.107000 5326.100000
247.086300 3666.600000

