>compound LU09844398
>parentmass 249.1022
>ionization [M+H]+
>formula C16H12N2O
>rt 1247.880000
>profile orbitrap
#smiles_iso C1=CC=C(C=C1)N=NC2=C(C=CC3=CC=CC=C32)O
#smiles_can C1=CC=C(C=C1)N=NC2=C(C=CC3=CC=CC=C32)O
#inchikey MRQIXHXHHPWVIL-UHFFFAOYSA-N
#pubchem_id 13297
#mb_accession LU029701,LU029702,LU029703,LU029704,LU029705,LU029706

>ms2
92.049500 3788.500000
93.057400 176838.000000
128.049800 4279.200000
156.044400 211781.900000
221.107700 6808.400000
231.091700 57638.400000
232.078700 36027.800000
232.099700 313308.900000
233.083400 5193.100000
248.095200 7070.500000
249.102100 723099.200000

>ms2
80.049500 3004.800000
92.049500 5934.500000
93.057400 289853.500000
128.049500 12780.500000
146.059800 2817.000000
156.044500 219845.300000
204.080900 9425.100000
211.086500 2213.100000
221.107500 18078.600000
231.091900 51113.600000
232.077700 38952.100000
232.099700 229577.100000
233.083400 8558.700000
248.094200 10121.400000
249.102100 196546.400000

>ms2
66.046400 2909.300000
80.049500 8270.900000
92.049500 28856.900000
93.057400 814701.200000
115.054300 3992.700000
128.049500 206145.800000
146.060000 39851.700000
156.044400 274611.700000
160.075800 6972.800000
167.072900 3123.700000
168.080800 8788.700000
170.059900 6822.900000
180.081000 4556.200000
194.096500 3593.900000
204.080900 47110.200000
205.089200 2537.400000
206.083800 8061.900000
211.086600 5853.800000
219.091800 2678.500000
220.099600 8691.800000
221.107500 50407.800000
230.084300 3124.300000
231.091800 122367.100000
232.077000 69868.000000
232.099600 345971.100000
233.083500 34465.700000
234.078900 10662.700000
247.086500 7114.100000
248.094400 42869.500000
249.102300 93434.600000

>ms2
65.038600 11087.500000
66.046400 9607.600000
80.049500 10968.700000
91.054400 3507.700000
92.049500 26059.200000
93.057300 659095.600000
95.049100 5019.500000
101.038700 2484.500000
115.054300 6203.200000
119.049100 5051.500000
128.049500 294463.200000
129.044800 12385.400000
146.060100 45522.200000
156.044300 49985.100000
160.075700 7889.900000
167.073000 3079.500000
168.080800 5033.100000
170.060000 4359.700000
180.080700 6847.600000
194.096800 5352.900000
203.073300 3259.500000
204.080800 48502.600000
205.088400 4893.500000
206.083800 7685.900000
211.086800 2340.500000
219.091300 8243.000000
220.099600 7411.200000
221.107400 15275.900000
230.083800 4437.100000
231.091700 133470.100000
232.076400 37615.800000
232.099500 138504.900000
233.083700 26347.600000
234.078700 18679.800000
247.086900 9087.300000
248.094300 21679.200000
249.102600 10964.200000

>ms2
53.038600 7276.800000
65.038600 26536.000000
66.046400 27249.200000
75.022900 5083.500000
77.038600 5340.700000
80.049400 12343.800000
91.054400 10499.900000
92.049500 23348.900000
93.057400 696615.400000
95.049200 18866.300000
101.038700 4724.100000
103.054200 3495.400000
105.044900 6164.800000
115.054500 11833.700000
119.049300 13503.900000
128.049500 266296.200000
129.044700 49151.300000
146.060100 36050.700000
155.060600 1948.300000
156.044500 8115.100000
160.075700 6198.800000
167.073200 3898.600000
168.080700 3849.900000
176.062200 4657.700000
177.070100 3515.900000
178.065400 2528.600000
180.080700 5965.000000
194.096800 3924.500000
203.073200 16312.300000
204.080900 57484.800000
205.077100 3323.600000
205.088100 3467.600000
206.084000 9426.800000
219.092100 18008.700000
220.099800 6103.900000
221.107400 6685.600000
229.076600 2729.700000
230.083700 4460.900000
231.091800 195614.800000
232.076100 25812.700000
232.099600 39249.700000
233.083800 11187.900000
234.078900 11513.600000
247.087100 16871.000000
248.094800 12906.100000

>ms2
53.038600 10620.000000
65.038500 28035.400000
66.046400 41013.000000
75.023000 12739.300000
77.038500 5671.200000
80.049500 8496.400000
91.054100 10526.000000
92.049500 19946.700000
93.057400 393099.400000
95.049200 24271.600000
101.038600 8603.900000
103.054100 2203.300000
105.044800 11373.200000
115.054300 9264.300000
119.049200 19261.400000
128.049500 83845.800000
129.044800 47069.200000
146.060200 14986.000000
155.060200 3060.200000
160.075900 1693.600000
167.073100 3188.200000
176.062000 6630.200000
177.069300 2257.200000
178.064800 2698.300000
180.081000 2244.400000
203.073000 13112.800000
204.081100 29280.300000
205.076200 7069.700000
205.087500 1488.300000
206.084400 2836.800000
219.091900 13424.600000
229.076200 4753.700000
230.083900 3162.900000
231.091800 103347.400000
232.076500 8066.700000
232.099700 4889.900000
234.078900 2078.800000
247.086400 8093.600000

