>compound LU09034329
>parentmass 167.0637
>ionization [M+H]+
>formula C8H10N2S
>rt 395.210000
>profile orbitrap
#smiles_iso CCC1=NC=CC(=C1)C(=S)N
#smiles_can CCC1=NC=CC(=C1)C(=S)N
#inchikey AEOCXXJPGCBFJA-UHFFFAOYSA-N
#pubchem_id 2761171
#mb_accession LU104501,LU104502,LU104503,LU104504,LU104505,LU104506

>ms2peaks
61.010600 20623.700000
107.073100 15058.100000
133.076100 29155.700000
134.083900 111673.800000
140.052800 623809.600000
150.037400 9972.900000
167.063800 7764443.500000

>ms2peaks
61.010700 23101.400000
107.072600 14774.300000
133.076000 27616.100000
134.083900 125785.700000
140.052800 610017.000000
150.037200 11655.100000
167.063800 8231140.000000

>ms2peaks
61.010600 39347.200000
93.057400 6702.000000
107.072900 105918.800000
108.080800 23290.400000
123.091700 10864.800000
125.029400 14284.100000
133.076100 264516.100000
134.083900 881855.200000
140.052800 3080875.000000
150.037200 46046.000000
152.040400 19238.200000
167.063800 6033757.500000

>ms2peaks
61.010600 50430.800000
62.018500 3925.100000
79.054100 6885.000000
80.049300 3555.600000
93.057300 31266.600000
97.007700 16781.000000
106.065000 18439.600000
107.072900 303655.800000
108.080800 39744.700000
112.021600 4024.800000
117.057300 18441.500000
118.052200 12407.500000
119.060300 6122.900000
123.091700 17609.500000
125.029400 103482.300000
133.076100 563005.400000
134.083800 1040400.400000
140.052800 3358351.000000
150.037300 34622.100000
152.040300 53532.700000
167.063700 1733549.200000

>ms2peaks
56.049500 4348.000000
61.010600 41439.000000
65.038600 5384.300000
78.033800 6842.900000
79.054200 10513.800000
80.049400 15778.700000
92.049400 4920.600000
93.057300 122287.900000
96.080800 7471.900000
97.007600 31249.100000
106.065200 95677.500000
107.072900 1193588.400000
108.068100 8953.300000
108.080700 60322.500000
112.021600 18966.300000
117.057300 27123.200000
118.052500 86544.000000
119.060400 40038.600000
123.091600 21026.800000
125.029400 556688.800000
133.076000 983207.100000
134.083800 740725.400000
140.052800 3187486.000000
149.029300 3219.300000
150.037300 25235.600000
151.045300 3873.300000
152.040200 81881.100000
167.063700 508755.300000

>ms2peaks
56.049500 4290.200000
61.010600 21553.300000
62.018500 2755.000000
63.026200 2995.700000
65.038400 12589.200000
78.033700 26417.400000
79.054200 32050.800000
80.049400 71771.900000
92.049400 24508.500000
93.057300 221113.000000
96.080800 13691.700000
97.007600 60347.600000
106.065100 451393.000000
107.072900 1073059.600000
108.068100 19708.700000
108.080700 52141.800000
112.021500 30912.000000
117.057300 26542.300000
118.052500 319450.500000
119.060400 105771.200000
123.091600 19904.900000
125.029300 1240632.200000
133.076000 1006801.000000
134.083800 260230.600000
140.052700 1906294.900000
149.029500 3819.500000
150.037200 6349.700000
151.044700 5059.600000
152.040300 61989.900000
167.063700 86702.800000

