>compound LU09074362
>parentmass 177.1022
>ionization [M+H]+
>formula C10H12N2O
>rt 148.800000
>profile orbitrap
#smiles_iso CN1[C@@H](CCC1=O)C2=CN=CC=C2
#smiles_can CN1C(CCC1=O)C2=CN=CC=C2
#inchikey UIKROCXWUNQSPJ-VIFPVBQESA-N
#pubchem_id 854019
#mb_accession LU051101,LU051102,LU051103,LU051104,LU051105,LU051106

>ms2
80.049400 417503.500000
98.060000 222982.800000
118.064900 27412.700000
120.081000 12177.400000
146.060000 100080.600000
149.070900 16380.100000
177.102100 8483250.000000

>ms2
80.049300 478914.700000
98.059900 242721.800000
118.065000 23364.500000
120.080800 12292.500000
146.059900 116452.200000
149.070900 21462.700000
177.102000 7431839.000000

>ms2
58.028700 10691.600000
68.049500 7344.100000
70.065100 37729.500000
74.096400 5838.700000
80.049400 2689253.000000
91.054300 5076.300000
94.065100 7180.700000
98.060000 1005702.400000
106.065100 7798.700000
118.065000 102837.200000
119.073000 12613.900000
120.080800 54982.800000
134.059800 6446.600000
135.091700 4900.200000
146.060000 311961.300000
148.075700 11650.800000
149.070900 53058.600000
159.091400 20122.300000
160.075700 8814.900000
177.102100 4380298.500000

>ms2
53.038600 17137.200000
58.028700 20638.400000
68.049500 25486.300000
69.033400 5482.800000
70.065100 136101.600000
80.049400 5092967.000000
91.054100 15886.200000
92.049500 5708.300000
94.065000 13601.100000
96.044400 8866.500000
98.060000 1595847.400000
106.065200 18386.800000
117.057300 9871.600000
118.065100 187313.400000
119.072900 9001.400000
120.080700 112236.900000
132.080300 5701.100000
134.059900 7892.600000
135.091600 5702.900000
144.068100 5276.100000
146.060000 303195.600000
148.075500 11756.900000
149.070900 57399.000000
149.107500 5660.500000
159.091800 18853.100000
177.102200 1408672.600000

>ms2
53.002200 6978.800000
53.038600 49997.100000
58.028700 22081.900000
68.049400 34235.000000
69.033400 7197.900000
70.065100 245314.800000
74.096400 5344.800000
79.054300 5284.100000
80.049500 5093348.500000
91.054200 43229.100000
92.049400 9327.800000
93.069800 5430.900000
94.065100 12477.900000
96.044400 22269.100000
98.060100 1301515.000000
106.065200 20822.200000
110.060000 6124.600000
117.057300 26619.200000
118.065100 170708.800000
119.072800 8212.000000
120.080800 100422.400000
128.049500 5152.400000
134.060000 7526.200000
144.068000 6895.900000
146.060000 142834.000000
148.075600 6697.400000
149.071100 31972.900000
159.091600 9263.800000
177.102300 261495.700000

>ms2
53.002100 11543.300000
53.038600 109354.600000
58.028800 28945.300000
65.038600 7782.300000
68.049500 56005.200000
69.033300 11438.000000
70.065100 422880.100000
78.033900 6474.100000
80.049400 5890514.500000
91.054200 83733.900000
92.049400 17027.500000
93.069900 7282.900000
94.065100 10502.100000
96.044400 51161.800000
98.060100 1143156.600000
103.054100 6453.300000
106.065100 24860.700000
110.060100 11806.500000
117.057300 53499.000000
118.065100 173924.400000
120.080800 83780.700000
128.049500 7607.800000
130.065200 7104.800000
144.068300 8067.600000
146.060000 69463.300000
149.071100 11300.100000
159.091700 6074.800000
177.102300 45655.100000

