>compound LU09825681
>parentmass 330.2064
>ionization [M+H]+
>formula C20H27NO3
>rt 1019.160000
>profile orbitrap
#smiles_iso C[C@]12CC[C@H]3[C@H]([C@@H]1CC[C@@H]2O)CC[C@]45[C@@]3(CC(=C([C@H]4O5)O)C#N)C
#smiles_can CC12CCC3C(C1CCC2O)CCC45C3(CC(=C(C4O5)O)C#N)C
#inchikey KVJXBPDAXMEYOA-CXANFOAXSA-N
#pubchem_id 656583
#mb_accession LU072001,LU072002,LU072003,LU072004,LU072005,LU072006

>ms2peaks
209.120600 3340.600000
253.170200 30147.400000
286.158800 4098.800000
314.175100 3252.300000
315.086500 2508.400000
330.205400 1447764.500000

>ms2peaks
209.119400 15773.800000
253.169700 111272.400000
286.160100 11963.400000
290.097600 21127.600000
315.085800 43614.800000

>ms2peaks
67.054200 9388.300000
79.054200 5321.100000
81.069800 3766.900000
91.054300 13012.300000
96.080800 17488.100000
105.069700 3085.300000
115.054400 3673.800000
117.069900 19033.000000
119.049000 3591.100000
119.085500 18898.600000
124.075800 11515.100000
129.070000 3343.600000
131.085500 6494.000000
133.064800 2620.500000
133.101200 7052.800000
136.075800 13908.800000
143.085800 12735.100000
145.064900 9195.900000
145.101200 63816.000000
146.059900 3601.000000
147.080400 6396.600000
147.116800 28735.600000
155.085500 22874.900000
157.101200 13470.700000
158.072600 4761.800000
159.080600 4092.200000
159.116800 11173.900000
161.095300 6147.500000
169.101000 12008.500000
171.080100 4880.100000
171.116700 21426.300000
173.059800 40800.100000
173.096100 54709.600000
175.111800 5872.500000
181.101000 7108.900000
182.109400 2716.200000
183.080600 1963.000000
183.116900 31995.800000
185.096100 2614.200000
185.132600 2927.500000
187.111800 4205.800000
188.107100 3050.300000
192.093200 4336.800000
193.084500 16465.400000
194.109100 4164.500000
195.117000 4363.200000
196.076100 6382.300000
196.125000 8041.300000
197.132500 48134.100000
198.091500 2338.700000
199.111600 2883.100000
200.106900 2257.700000
201.091000 51917.100000
207.116900 18062.400000
209.133100 12909.800000
214.086200 8355.600000
214.159300 6785.000000
216.102000 482751.800000
224.119700 4884.900000
224.143700 3674.900000
225.127500 26721.300000
225.163900 20368.300000
228.102200 5430.000000
228.139200 4248.600000
235.112300 3774.700000
235.148300 6878.400000
242.154100 8265.100000
242.190700 9769.100000
244.133300 614403.900000
252.138200 22697.900000
253.122400 29839.800000
253.158700 28988.900000
269.141100 3822.200000
270.148900 339164.300000
286.144000 4877.200000
290.097300 2318.600000
298.180300 435586.200000
302.175200 74451.300000
330.206500 222300.100000

>ms2peaks
55.018000 3394.200000
55.054300 3350.300000
65.038600 2345.100000
67.054200 20696.800000
69.069800 3517.000000
79.054200 18132.300000
81.033400 2349.500000
81.069900 13750.700000
82.064900 2387.200000
91.054200 31690.500000
93.069900 4897.300000
95.049200 4044.400000
96.080900 25367.200000
103.054100 3009.800000
105.070000 31221.900000
107.049000 4537.000000
107.085800 2628.000000
115.054200 16022.800000
117.069900 116762.300000
119.049300 4983.200000
119.085600 92152.000000
121.101500 3598.200000
124.039300 6627.600000
124.075800 9666.000000
128.062200 6323.400000
129.069900 15467.500000
130.077800 17295.300000
131.085600 25303.100000
133.064900 7860.300000
133.101200 14691.200000
136.075900 11799.600000
138.055200 3734.300000
142.078100 3940.300000
143.085700 57730.700000
145.065100 22474.900000
145.101300 271592.600000
146.060400 4679.800000
146.073000 3316.200000
146.096800 2504.500000
147.080400 27451.200000
147.116900 43899.600000
153.069800 2690.800000
154.077900 2607.900000
155.085600 74301.600000
156.093500 10027.000000
157.089000 3666.400000
157.101300 23515.400000
158.072800 18921.100000
159.080600 7126.300000
159.117000 14118.400000
160.112000 24574.300000
161.095600 6957.500000
165.069900 5156.700000
166.077900 3409.000000
167.085600 8854.900000
168.093300 4965.400000
169.101100 24205.700000
170.096500 8142.600000
171.080500 11764.000000
171.103800 3703.800000
171.116800 30742.400000
172.112100 10342.500000
173.059900 43004.400000
173.083200 6841.400000
173.096200 71881.900000
175.111800 5285.600000
179.085400 6472.200000
180.093900 2801.500000
181.101600 21349.000000
182.109300 15799.700000
183.067900 3771.200000
183.080700 5649.900000
183.117100 38551.100000
185.096400 2561.900000
185.132900 2602.900000
187.111800 2907.000000
188.107100 40018.100000
191.085500 2188.900000
192.093700 12441.000000
193.085000 14075.200000
193.100600 5153.200000
194.109500 5387.400000
195.117000 6359.700000
196.075900 8843.100000
196.125100 14367.200000
197.132800 38859.200000
198.091400 7752.700000
199.075500 2734.200000
199.111900 5125.300000
200.107200 8697.900000
201.080800 3576.700000
201.090900 15179.200000
202.086400 3150.700000
205.101300 2757.700000
206.108900 5572.200000
207.116900 14367.800000
209.095800 2143.200000
209.132900 6140.300000
210.104400 5781.700000
214.086000 4346.100000
214.159000 4508.600000
215.094500 4999.800000
216.102000 1325045.900000
224.107800 3671.800000
224.119900 7650.700000
224.144000 4603.400000
225.128000 12974.900000
225.164100 7846.100000
228.102100 9185.400000
228.138400 4051.600000
235.111600 2110.800000
235.148600 2637.200000
237.115000 5127.000000
242.153900 3773.000000
242.190400 3775.000000
244.133400 412166.000000
252.138600 8204.700000
253.122400 6442.700000
253.159000 4503.000000
268.134100 3329.500000
269.141600 2127.200000
270.148900 91202.100000
286.143000 5321.500000
290.097500 4295.900000
298.180500 41579.100000
302.174800 3184.200000
314.173800 4507.100000
330.206200 6040.300000

>ms2peaks
53.038600 4699.400000
55.017900 6547.100000
55.054200 4951.000000
67.054200 21358.500000
69.069900 6316.400000
79.054200 27945.500000
81.033400 4696.400000
81.069800 6912.500000
82.065000 3243.900000
91.054200 73791.900000
93.069800 7877.700000
95.049100 5108.700000
96.080800 15938.300000
103.054300 9548.800000
105.069900 105581.300000
107.049100 4564.600000
107.085700 3302.900000
115.054200 41222.800000
116.062000 8422.500000
117.069900 202844.600000
118.064700 2801.300000
119.085600 174967.200000
121.101200 2667.600000
124.039300 16797.200000
124.075500 3495.100000
128.062100 28506.500000
129.069800 36103.900000
130.077800 99105.600000
131.085600 38266.000000
133.064700 13619.500000
133.101100 13380.700000
136.075700 5584.400000
138.055200 2717.300000
141.069800 11247.600000
142.077800 16946.400000
143.085600 97041.600000
144.081000 5911.600000
145.101200 357216.800000
146.060000 2514.600000
146.072200 12352.300000
146.096400 4329.700000
147.080500 50661.100000
147.116700 24544.300000
153.069700 14899.700000
154.077800 7601.400000
155.085500 74679.600000
156.081400 2452.600000
156.093400 17112.500000
157.088700 8436.600000
157.101300 16501.800000
158.072700 41802.400000
159.080400 7136.900000
159.116700 5080.300000
160.112100 59308.400000
161.095300 2722.500000
165.069800 11164.900000
166.077800 7361.400000
167.085500 12971.900000
168.080900 3185.500000
168.093400 12856.900000
169.101300 22920.800000
170.096500 14368.600000
171.080700 11006.400000
171.104200 5791.300000
171.116900 17329.800000
172.111800 7130.900000
173.059400 13149.100000
173.083700 25333.700000
173.096100 46337.700000
178.077100 2705.300000
179.085800 11435.900000
180.093300 3505.200000
181.101100 23021.500000
182.109200 14709.200000
183.067900 10999.700000
183.080300 5550.400000
183.116700 16308.300000
184.075900 2623.700000
185.095200 2385.300000
187.112000 3339.200000
188.107100 72996.500000
191.085400 5724.400000
192.093000 16582.100000
193.084600 12010.300000
193.100900 3841.800000
194.096300 2702.600000
194.108800 2800.800000
195.116700 4663.500000
196.075900 2780.500000
196.124800 4195.500000
197.132500 7770.500000
198.091200 12336.700000
199.075600 8295.500000
200.070500 3746.500000
200.107000 4563.100000
201.078300 5788.400000
202.086800 3174.300000
206.109000 3961.400000
207.116900 6361.700000
208.112400 3249.400000
209.095900 3033.500000
210.103800 2128.000000
214.086400 3459.000000
214.158800 2529.200000
215.094300 3693.900000
216.102000 680425.900000
224.107500 3254.600000
224.142900 2089.300000
228.137800 3195.500000
237.114200 3159.000000
244.133300 53963.900000
252.138400 2696.000000
268.133200 3143.500000
270.148800 6098.200000
290.096100 2094.100000
291.089400 2710.900000
314.173100 2501.200000

>ms2peaks
53.038600 111284.600000
65.038500 88023.700000
79.054200 18969.300000
81.033400 11130.500000
91.054300 658321.400000
95.049200 292717.000000
103.054200 488725.500000
105.069800 26123.800000
115.054200 878457.200000
116.062000 111004.300000
117.069800 38211.200000
118.065000 106902.900000
128.062000 125855.800000
129.069800 70800.900000
141.069800 11079.500000
144.080800 12927.700000
145.064700 20223.200000
146.059600 5650.800000
156.080900 46321.100000
157.088400 20650.400000
165.070000 188112.300000
168.081100 9618.500000
178.078000 14870.700000
184.075800 9381.800000
191.085500 242144.300000
192.093000 19611.200000
193.084700 54454.600000
194.092400 26042.600000
200.071200 5237.900000
205.099700 3884.300000
208.112400 118678.200000
253.170000 6094.100000
286.154100 18172.200000
290.097600 50858.600000
291.089000 1262267.600000
314.173300 189059.200000

