>compound LU09578325
>parentmass 416.2219999999999
>ionization [M+H]+
>formula C27H29NO3
>rt 962.400000
>profile orbitrap
#smiles_iso C1C[C@H](CN(C1)CCC2=CC3=C(C=C2)OCO3)OC(C4=CC=CC=C4)C5=CC=CC=C5
#smiles_can C1CC(CN(C1)CCC2=CC3=C(C=C2)OCO3)OC(C4=CC=CC=C4)C5=CC=CC=C5
#inchikey BDNFQGRSKSQXRI-XMMPIXPASA-N
#pubchem_id 3086618
#mb_accession LU073401,LU073402,LU073403,LU073404,LU073405,LU073406

>ms2
149.059600 82487.300000
165.068900 49139.400000
166.077900 20449.000000
167.085400 19511892.000000
248.128000 377665.900000
280.169900 43802.800000
416.221900 16666369.000000

>ms2
91.054100 86968.700000
119.049200 113558.500000
149.059700 4333486.500000
152.061600 56166.400000
165.069800 170450.000000
166.077900 66058.900000
167.085400 34746272.000000
248.128000 203635.100000
280.169500 113037.400000
416.222100 2947180.200000

>ms2
91.054200 1024395.100000
98.096400 42426.500000
114.091400 42266.200000
119.049200 1418833.600000
137.059700 304445.100000
149.059700 5752613.500000
152.062000 1024403.000000
165.070100 1545197.600000
166.078000 484789.400000
167.085500 35521936.000000
169.064700 39800.000000
248.128100 50687.200000

>ms2
65.038500 141318.900000
91.054200 3334003.000000
98.096300 26066.200000
112.075700 27026.900000
114.091300 72346.800000
119.049100 2478388.200000
128.061800 39601.900000
131.049300 70922.600000
137.059700 499370.900000
141.069900 106603.600000
149.059700 2758384.500000
151.054300 36503.200000
151.075300 35469.400000
152.062000 5516262.000000
165.070000 5808173.000000
166.077800 2095374.800000
167.085400 24244518.000000
169.064600 254718.300000

>ms2
63.022900 21175.300000
65.038500 541875.600000
70.065000 13372.200000
74.015100 12117.300000
89.038800 19924.500000
91.054200 5919214.500000
95.049200 18118.300000
103.054200 26104.100000
112.075800 14439.800000
114.091400 50497.000000
115.054100 56315.500000
119.049100 1951438.000000
128.062000 264235.500000
131.049100 64266.100000
137.059700 345369.700000
139.054200 20077.900000
141.069800 393682.000000
149.059800 856231.700000
151.054200 76833.300000
151.075600 17961.000000
152.062000 11674508.000000
163.054100 19337.600000
164.062100 25980.800000
165.069900 10770765.000000
166.077700 3530441.200000
167.085400 10359605.000000
169.064600 588660.800000
179.060300 174101.300000
183.080400 30155.900000

>ms2
53.002200 19136.000000
63.022900 29711.800000
65.038500 1390422.400000
89.038600 19541.800000
91.054200 6700884.000000
95.049100 46014.600000
103.054200 30671.600000
112.075700 19665.600000
114.091300 34792.000000
115.054200 214107.900000
119.049100 931216.800000
128.062000 659232.000000
131.049000 28970.900000
137.059700 124302.100000
139.054100 27514.700000
141.069800 765551.200000
149.059700 188708.200000
150.046700 21981.700000
151.054200 81017.800000
152.062000 13600640.000000
163.053800 20302.000000
164.062300 37789.200000
165.069900 13287283.000000
166.077600 3263153.500000
167.085400 2882766.800000
169.064600 779547.400000
179.060300 220015.800000
183.080600 26260.800000

