>compound LU10872903
>parentmass 175.12300000000002
>ionization [M+H]+
>formula C11H14N2
>rt 944.820000
>profile orbitrap
#smiles_iso CCN(CCC#N)C1=CC=CC=C1
#smiles_can CCN(CCC#N)C1=CC=CC=C1
#inchikey WYRNRZQRKCXPLA-UHFFFAOYSA-N
#pubchem_id 8995
#mb_accession LU086801,LU086802,LU086803,LU086804,LU086805,LU086806

>ms2peaks
70.065100 44227.000000
77.038700 13063.100000
106.065100 2017770.500000
120.080800 8795.100000
121.088600 1896179.800000
122.096300 88139.300000
130.065200 11087.900000
134.096400 2333201.000000
145.076000 11133.200000
146.083800 278422.100000
147.091600 226105.700000
158.096600 12154.100000
175.122900 7710135.500000

>ms2peaks
70.065100 33577.700000
77.038600 9751.800000
93.057300 12344.700000
106.065100 1941415.900000
120.080600 9870.500000
121.088600 1758113.900000
122.096300 73402.000000
130.065100 13199.000000
134.096400 2098990.800000
145.076000 13365.700000
146.083800 273068.700000
147.091600 186981.800000
158.096500 9311.100000
175.122900 5828171.500000

>ms2peaks
51.022900 5893.100000
70.065100 38739.700000
77.038600 21410.800000
79.054200 10375.600000
93.057400 56041.000000
104.049300 18361.400000
106.065100 5663615.500000
119.073100 56099.000000
120.081000 19515.400000
121.088600 3372850.200000
122.096300 130714.900000
130.065100 24367.500000
134.096400 2690890.200000
145.076100 23393.800000
146.083800 442553.600000
147.091600 137682.200000
158.096300 11831.700000
175.122900 1361752.600000

>ms2peaks
70.065100 15817.800000
77.038100 19990.800000
79.054200 56231.000000
93.057300 145621.000000
94.065000 17990.100000
104.049300 31281.100000
106.065100 9076129.000000
118.065000 11922.300000
119.073000 171348.000000
120.081000 42673.500000
121.088600 2079379.500000
122.096300 70410.900000
130.065100 18076.400000
134.096400 1651516.500000
145.076100 16483.800000
146.083900 177176.700000
147.091600 31187.400000
175.123000 141591.000000

>ms2peaks
53.038600 32090.100000
77.038200 29495.800000
78.046400 18266.500000
79.054200 252223.100000
93.057300 248719.100000
94.065100 19447.800000
103.054000 12596.200000
104.049300 43647.200000
105.045000 34236.900000
105.070000 11803.900000
106.065000 10991028.000000
118.065000 29715.800000
119.072900 270597.600000
120.080700 61507.400000
121.088500 740791.900000
122.096300 30390.800000
130.064800 13046.500000
134.096300 750286.600000
146.083800 29793.600000

>ms2peaks
53.038600 101416.200000
77.038400 52752.000000
78.046400 70510.700000
79.054200 669588.500000
91.054200 19901.300000
93.057300 292926.000000
94.065200 14831.500000
103.054200 27223.200000
104.049400 55281.100000
105.044900 120150.400000
105.057000 13946.500000
105.070000 10823.300000
106.065100 10677972.000000
118.065000 75229.200000
119.072900 283376.500000
120.080800 61307.800000
121.088600 183898.400000
122.096200 11396.600000
130.065100 11934.300000
134.096400 245385.500000

