>compound LU10953255
>parentmass 217.9793
>ionization [M+H]+
>formula C6H8AsNO3
>rt 150.300000
>profile orbitrap
#smiles_iso C1=CC(=CC=C1N)[As](=O)(O)O
#smiles_can C1=CC(=CC=C1N)[As](=O)(O)O
#inchikey XKNKHVGWJDPIRJ-UHFFFAOYSA-N
#pubchem_id 7389
#mb_accession LU040601,LU040602,LU040603,LU040604,LU040605,LU040606

>ms2
65.038500 3592.800000
68.049400 3172.100000
92.049400 20017.800000
108.044400 134457.800000
109.052300 1247185.100000
110.060100 23717.700000
129.985700 13973.500000
171.973500 5486.500000
181.958200 30140.000000
199.968900 95052.500000
217.979400 2091285.400000

>ms2
65.038500 15311.500000
68.049500 12229.600000
79.017800 2503.500000
80.049300 2194.400000
92.049500 70047.600000
93.057300 2634.200000
96.044500 2240.100000
108.044500 393463.200000
109.052300 2077219.900000
110.060100 68764.800000
111.044100 2893.800000
125.990800 2934.400000
129.985600 17169.900000
171.973400 4949.000000
181.958400 39534.500000
199.968900 65882.200000
213.948300 2280.000000
217.979400 1011361.000000

>ms2
65.038600 186883.100000
68.049500 22192.700000
80.049400 21335.400000
81.057400 3607.800000
82.065000 3456.400000
90.915800 10277.000000
92.049500 322693.200000
93.033600 5930.000000
93.057400 7482.700000
108.044400 872795.400000
109.052200 2064121.800000
110.060000 171512.700000
111.044000 16216.600000
129.985700 65433.900000
141.985800 2762.100000
143.964700 3284.700000
144.972900 2288.100000
153.963100 10027.100000
153.985700 3724.800000
171.973200 3126.000000
181.958200 36298.800000
199.968600 6501.400000
217.979300 85946.000000

>ms2
53.002200 4745.100000
65.038500 610232.400000
68.049500 10957.600000
79.017700 2869.900000
80.049400 118169.000000
81.057400 15735.900000
82.041300 2630.000000
82.065100 6091.300000
83.049000 4660.400000
90.916000 40829.900000
92.049500 378342.100000
93.033500 10856.700000
93.057300 13840.000000
96.044500 4452.300000
108.044400 872979.200000
109.052200 1499230.000000
110.060000 119336.600000
111.044100 25837.800000
125.991000 2906.000000
126.952200 2623.600000
129.985700 132731.200000
141.986000 4367.600000
143.965200 10916.100000
145.980400 5129.100000
153.963200 14864.600000
153.985600 4339.900000
181.958400 14734.100000
217.979200 3031.400000

>ms2
53.002200 8576.300000
53.038500 8060.200000
55.054200 2263.900000
56.049500 3432.600000
65.038500 914341.900000
66.033800 2804.800000
68.049500 2933.300000
80.049400 350269.700000
81.057300 47935.500000
82.041300 8038.500000
82.065000 4708.900000
83.049100 5515.500000
90.916000 63930.000000
92.049500 220711.400000
93.033600 3906.700000
93.057400 13721.700000
100.936600 3044.400000
108.044400 606474.800000
109.052200 982256.900000
110.060000 53008.800000
111.044000 17214.600000
111.975000 2817.800000
129.985700 91757.200000
141.986000 5569.600000
143.964800 11484.400000
144.963000 3064.700000
145.980600 6941.700000
153.963200 6693.400000
153.985900 2395.600000
181.958100 4601.300000

>ms2
53.002200 20482.600000
53.038600 17733.700000
55.054400 1786.800000
56.049500 6007.900000
65.038500 1104109.100000
66.033800 5630.300000
68.049500 2355.400000
80.049400 654359.900000
81.057300 77125.000000
82.041300 15595.900000
82.065100 2955.700000
83.049100 3685.600000
90.916000 92109.200000
92.049500 106134.800000
93.033600 1966.400000
93.057500 9869.100000
96.044200 2093.700000
100.936800 4792.900000
108.044400 393316.200000
109.052200 635540.800000
110.060000 18316.000000
111.044200 6106.600000
126.952500 7850.100000
129.985700 90189.900000
143.965000 14583.700000
144.963000 4344.600000
145.980700 6951.900000
153.963800 3994.600000

