>compound LU10002311
>parentmass 228.1053
>ionization [M+H]+
>formula C11H17NO2S
>rt 1009.140000
>profile orbitrap
#smiles_iso CCCCNS(=O)(=O)C1=CC=C(C=C1)C
#smiles_can CCCCNS(=O)(=O)C1=CC=C(C=C1)C
#inchikey RQUXYBHREKXNKT-UHFFFAOYSA-N
#pubchem_id 61285
#mb_accession LU133701,LU133702,LU133703,LU133705,LU133706

>ms2peaks
57.069900 6205.300000
65.038400 4298.900000
72.080800 52065.800000
91.054000 18649.900000
95.049600 1801.400000
109.064900 39670.800000
155.016200 593826.800000
172.042800 205545.800000
228.105300 81383.300000

>ms2peaks
57.069900 9839.700000
65.038600 18763.100000
67.054200 12562.400000
72.080800 42625.400000
91.054200 41856.900000
95.049200 4761.200000
108.056600 2197.600000
109.064900 140940.900000
120.057700 1898.000000
155.016200 573338.600000
172.042800 98996.600000
228.105500 12076.400000

>ms2peaks
55.017800 6169.500000
55.054100 1990.700000
57.069800 10126.600000
60.044400 2825.500000
61.010600 3622.500000
65.038500 32502.400000
67.054200 16599.100000
72.080700 18968.200000
91.054200 175838.000000
95.049100 5786.000000
108.057000 4830.200000
109.064800 201220.200000
120.057300 2067.700000
155.016100 128013.200000
172.042900 4407.500000
228.101900 1968.400000

>ms2peaks
53.002300 2247.700000
55.017900 2636.400000
57.069900 4693.900000
60.044300 3233.600000
61.010700 8259.400000
65.038500 117911.100000
67.054200 4873.500000
72.080700 2690.000000
91.054200 653617.400000
95.049200 2783.200000
109.064800 76055.000000

>ms2peaks
53.002200 3434.000000
55.054200 2367.300000
57.069800 4040.700000
61.010600 5445.600000
65.038600 287020.100000
67.054300 4307.300000
72.080800 1932.000000
91.054300 693241.900000
109.064900 27680.400000

