>compound LU10120949
>parentmass 279.0933
>ionization [M+H]+
>formula C18H15OP
>rt 1014.200000
>profile orbitrap
#smiles_iso C1=CC=C(C=C1)P(=O)(C2=CC=CC=C2)C3=CC=CC=C3
#smiles_can C1=CC=C(C=C1)P(=O)(C2=CC=CC=C2)C3=CC=CC=C3
#inchikey FIQMHBFVRAXMOP-UHFFFAOYSA-N
#pubchem_id 13097
#mb_accession LU082501,LU082502,LU082503,LU082504,LU082505,LU082506

>ms2
202.053700 82674.600000
278.085400 66503.700000
279.093100 43801436.000000

>ms2
201.046400 789281.700000
202.053900 59923.700000
278.085400 48554.600000
279.093300 36633504.000000

>ms2
53.038600 20094.500000
77.038900 70454.000000
95.049100 37109.900000
128.062100 29617.500000
129.069700 19566.400000
154.077900 23012.100000
171.035300 44110.700000
173.051500 501989.600000
183.035900 60119.400000
185.051800 32451.200000
199.031000 18068.400000
201.046400 7392485.000000
202.055200 36755.700000
278.085300 18086.300000
279.093200 17530054.000000

>ms2
51.023100 15523.800000
53.038600 374279.200000
55.017800 22149.100000
77.038700 248828.900000
78.046500 17242.100000
81.033500 21555.000000
91.054100 48375.900000
94.041300 35694.600000
95.004500 628314.600000
95.049100 1045212.300000
97.020300 12473.800000
105.033600 67222.100000
107.004500 39011.900000
113.015100 32054.300000
115.054400 27842.600000
122.999400 123617.300000
125.015000 58796.400000
128.062000 526603.200000
129.069800 499674.600000
133.020100 179098.800000
141.070000 90259.400000
145.020200 10154.200000
147.036000 64493.200000
152.062300 21095.000000
153.069900 51578.400000
154.077600 487108.300000
155.085600 19204.500000
159.035800 34790.800000
171.035800 1140948.200000
173.051400 5165618.000000
183.035800 776366.800000
185.051400 50817.800000
186.023700 13733.800000
199.030800 111015.800000
201.046300 9973355.000000
279.093200 2041307.000000

>ms2
50.015200 23870.800000
51.022900 58974.900000
53.038600 1851407.400000
55.017900 93485.800000
56.989000 16829.700000
65.038500 10663.900000
67.054100 9662.800000
68.988800 63126.800000
75.022900 10380.500000
77.038500 1061664.500000
78.046400 8776.500000
79.054200 25424.300000
81.033500 175060.800000
81.069900 27567.300000
91.054300 142332.300000
94.041300 210897.300000
95.004600 2460756.200000
95.049100 5134791.000000
97.020000 18598.800000
105.033700 150056.100000
106.041700 12177.900000
107.004400 105059.800000
107.049300 8563.000000
108.012300 16260.400000
109.020100 15605.400000
109.064900 56933.400000
113.015100 151078.800000
115.054300 122463.400000
116.062000 15638.200000
122.999400 358520.700000
125.015100 254559.500000
127.030700 26025.300000
128.062100 1644940.200000
129.069800 1590777.100000
133.020200 808037.900000
141.069900 360661.900000
145.020300 62850.500000
147.035800 294869.800000
152.062000 75005.800000
153.069800 295394.900000
154.077700 1385594.900000
155.085600 26399.200000
157.020300 16753.200000
159.036000 55265.800000
165.046200 14546.600000
168.057200 12037.700000
170.027900 78764.300000
171.035800 3254959.500000
172.044100 14981.400000
173.051500 6817494.000000
183.035900 1846608.600000
185.051700 11054.800000
186.022700 24676.200000
199.030800 195193.000000
201.046400 3732901.800000
279.093400 76645.600000

>ms2
50.015100 43126.900000
51.022900 81902.600000
53.038600 3176787.800000
55.017900 167266.300000
56.988900 33545.800000
65.038500 26888.100000
67.054200 28738.500000
68.988800 227473.600000
75.023000 10719.300000
77.038500 2474039.000000
78.046300 26065.800000
79.054100 43860.200000
81.033500 297790.700000
81.069800 35600.200000
91.054300 146214.900000
94.041400 354710.800000
95.004600 3879949.200000
95.049100 8796854.000000
97.020000 32109.000000
106.041700 24113.600000
107.004500 162990.800000
107.049600 9324.900000
108.012300 36043.500000
109.020000 13745.400000
109.064900 82940.800000
113.015000 244309.500000
115.054300 213783.800000
116.062100 30910.300000
122.999400 351969.500000
125.015100 283825.400000
127.030700 33136.500000
128.062100 1935010.100000
129.069800 1584267.500000
133.020200 1288156.600000
141.069900 514752.500000
145.020200 131489.800000
147.035800 351313.700000
152.062100 261619.400000
153.069900 744775.900000
154.077700 1291690.500000
155.085500 37451.100000
157.020200 99449.200000
159.035800 47692.900000
165.046200 15576.500000
168.056600 14304.400000
170.027900 308579.800000
171.035800 3034315.500000
172.043600 34212.600000
173.051500 2896370.800000
183.035900 1952120.500000
186.022700 38345.700000
199.030700 125460.800000
201.046400 873092.800000

