>compound LU10506772
>parentmass 313.2162
>ionization [M+H]+
>formula C21H28O2
>rt 1076.720000
>profile orbitrap
#smiles_iso CC[C@]12CC[C@H]3[C@H]([C@@H]1CC[C@]2(C#C)O)CCC4=CC(=O)CC[C@H]34
#smiles_can CCC12CCC3C(C1CCC2(C#C)O)CCC4=CC(=O)CCC34
#inchikey WWYNJERNGUHSAO-XUDSTZEESA-N
#pubchem_id 13109
#mb_accession LU028201,LU028202,LU028203,LU028204,LU028205,LU028206

>ms2
83.049000 8291.200000
93.069800 5288.800000
95.085300 9612.800000
97.064800 4376.700000
105.069900 4916.500000
107.049000 8127.500000
107.085400 6390.600000
109.064700 27874.600000
109.101200 6170.800000
119.085300 10242.000000
121.064700 4830.100000
121.101000 7712.000000
123.080400 14409.700000
123.116600 5072.900000
125.095900 11018.200000
131.085400 9692.300000
133.101100 20542.800000
135.080200 9568.200000
135.116700 4743.600000
143.085300 6926.300000
145.101000 14758.900000
147.116400 10066.400000
149.096100 14615.600000
157.100700 10140.100000
159.116900 25148.000000
161.095800 8344.900000
161.132500 4734.000000
163.112000 11499.200000
169.100900 6761.700000
171.116900 12366.600000
173.096100 4194.500000
173.132100 9015.300000
175.112100 13266.700000
175.148000 4177.600000
181.101400 5286.700000
183.116900 14252.400000
185.095900 7576.000000
185.132400 18848.200000
187.111500 10136.600000
187.148200 12276.500000
189.127100 8438.000000
195.116400 6969.200000
197.132200 7101.200000
199.111600 6494.700000
199.147800 9645.900000
201.127500 5417.600000
203.142900 4656.500000
207.116500 7778.800000
209.132500 6504.500000
211.148300 4653.900000
213.127700 6128.400000
213.163100 5488.300000
221.132700 10747.700000
223.147700 4648.100000
225.127700 5428.000000
225.163300 8289.800000
227.142900 5285.800000
227.179000 9569.100000
235.148000 10209.800000
237.163800 23177.400000
239.143100 4462.600000
239.178800 5393.800000
241.158200 9340.600000
243.174100 5922.800000
245.190000 97109.100000
248.155400 4628.600000
249.163400 8851.100000
253.157800 5359.700000
253.195000 5407.600000
255.173800 5778.700000
267.173900 8773.400000
267.210000 4704.400000
277.195100 33422.100000
295.205700 130631.100000
313.216100 4166395.800000

>ms2
51.022700 2680.800000
55.017800 4543.200000
55.054200 8138.700000
57.033500 15440.700000
67.054200 32065.600000
69.069900 13531.800000
71.049000 2979.500000
79.054300 33476.900000
81.033500 5029.600000
81.069900 61391.700000
83.049200 98786.600000
85.064800 4551.500000
91.054200 43138.600000
93.069900 61050.900000
95.049300 10352.500000
95.085600 74226.500000
97.064800 17765.900000
97.101000 3429.600000
105.069900 53555.000000
107.049200 68324.300000
107.085600 60995.800000
109.064900 250882.200000
109.101200 40526.100000
111.080400 8820.800000
115.054300 3048.700000
117.070000 44760.400000
119.085600 72353.400000
121.064800 28731.500000
121.101200 52566.100000
123.080500 87113.600000
123.116800 28286.700000
125.096200 42068.300000
129.069900 36375.200000
131.085600 104954.200000
133.064800 17534.500000
133.101200 138715.400000
135.080500 77386.100000
135.116900 39792.400000
137.096200 17680.400000
137.132700 12636.100000
141.070200 12665.100000
143.085600 53040.100000
145.064500 6231.200000
145.101300 100382.000000
147.080500 31533.800000
147.116900 54527.800000
149.096200 83341.100000
149.132400 20925.000000
151.111900 14346.400000
155.085600 24172.400000
156.093700 2412.200000
157.065200 8371.800000
157.101300 77125.400000
159.080500 28704.000000
159.116900 115987.100000
161.096300 50544.400000
161.132600 21795.900000
163.111800 57214.900000
163.148600 5278.500000
167.085300 13986.700000
169.101300 38977.800000
170.108700 3086.400000
171.116900 78325.300000
173.096300 17548.400000
173.132700 50089.000000
175.111800 49026.700000
175.148300 22948.800000
177.127500 13903.600000
179.085600 8350.500000
181.101400 33524.400000
183.117000 72395.700000
185.096400 33766.200000
185.132600 135857.200000
187.111800 30689.600000
187.148300 66196.600000
189.127600 34378.400000
191.142700 10584.000000
193.101200 14769.400000
195.117000 40277.300000
197.096300 7839.000000
197.132600 48274.500000
198.140300 3344.400000
199.112000 15001.300000
199.148200 58608.400000
201.127500 30590.100000
201.163800 9053.100000
203.143200 19318.400000
205.158600 4735.700000
206.109100 3449.900000
207.116900 25180.300000
208.124700 6118.800000
209.132500 26675.800000
211.112000 11872.100000
211.148400 22057.900000
213.127400 17844.800000
213.163900 19581.300000
215.143200 14124.000000
215.179600 6874.100000
217.159100 7030.800000
219.117000 2990.800000
220.124200 2622.300000
221.132500 39296.500000
222.140200 4574.500000
223.148200 22512.400000
225.128000 21816.500000
225.163800 44925.500000
227.143600 11614.800000
227.179500 83982.700000
233.132600 3225.900000
234.139400 2515.400000
235.148200 40692.000000
236.156400 4173.800000
237.163900 75085.900000
239.143400 18279.100000
239.179500 14745.700000
241.159000 14990.500000
243.174800 19512.000000
245.190100 424305.500000
248.156100 15736.200000
249.164000 30561.600000
251.179500 20137.600000
253.159300 13100.700000
253.195100 19512.700000
255.174100 11398.500000
257.189400 3752.900000
266.166900 21117.400000
267.174300 27476.800000
267.210400 11101.300000
277.195100 76852.000000
295.205800 170460.700000
313.216400 898027.900000

>ms2
51.022900 2361.200000
53.038500 6041.300000
55.017800 18741.000000
55.054200 37778.200000
57.033500 14688.900000
57.069800 8727.400000
65.038600 4384.100000
67.054200 97880.000000
69.033500 2510.700000
69.069800 29476.600000
77.038600 5371.100000
79.054200 118993.700000
81.033500 17880.800000
81.069900 149242.300000
83.049100 245893.800000
85.064700 4211.300000
91.054200 172859.900000
93.069900 148426.500000
95.049200 26266.900000
95.085500 122880.700000
97.064800 26649.400000
97.101200 5401.300000
103.054200 7749.800000
105.069900 175699.900000
107.049100 126641.300000
107.085500 110118.600000
109.064800 565793.800000
109.101100 66888.500000
111.080400 8399.300000
115.054100 16933.400000
116.061900 5174.600000
117.069900 125664.800000
119.085600 172931.800000
121.064800 36572.800000
121.101200 65626.700000
123.080400 86797.800000
123.116800 62703.600000
125.096000 25460.200000
128.062000 14455.500000
129.069800 107663.600000
130.078000 10370.000000
131.085500 201467.100000
133.064800 27795.600000
133.101200 187607.200000
135.080400 184889.300000
135.116800 69287.800000
137.096200 17918.100000
137.132500 20130.000000
141.069700 29224.400000
142.077900 22393.600000
143.085500 131908.600000
144.093400 15155.500000
145.101200 182222.800000
146.073100 2662.300000
146.108600 4251.900000
147.080400 38406.300000
147.116800 59310.700000
149.096100 96930.700000
149.132400 20489.100000
151.111800 10201.800000
153.069900 6767.000000
154.077800 6005.600000
155.085500 52465.500000
156.093200 11080.800000
157.064900 9751.500000
157.101200 132029.500000
158.108800 6763.900000
159.080400 35522.300000
159.116800 114387.300000
160.088200 2858.900000
161.096100 81251.200000
161.132400 22634.700000
163.111700 53640.400000
163.148000 5461.800000
165.069900 9519.700000
166.077900 3418.400000
167.085400 27254.200000
168.093500 12780.800000
169.101200 58624.200000
170.109100 9181.800000
171.116700 89783.100000
173.096200 12874.200000
173.132600 48726.900000
175.111700 52545.100000
175.148000 37137.600000
177.127500 7414.700000
178.077800 5463.000000
179.085400 14679.300000
180.093600 6928.800000
181.101100 38487.400000
182.109400 5083.900000
183.116900 65339.300000
185.096200 15550.000000
185.132500 111609.200000
187.111400 18668.000000
187.148000 53205.000000
188.119700 7986.000000
189.127300 30186.600000
191.085700 3209.600000
191.142900 5712.800000
192.093900 5850.100000
193.101200 21181.900000
194.109400 5548.500000
195.117000 34873.900000
196.124800 7588.900000
197.096300 5582.600000
197.132500 41021.500000
198.140300 3417.000000
199.111700 12133.100000
199.148100 46250.600000
201.127700 23610.800000
201.163700 12629.500000
203.143300 9827.700000
205.101300 5250.300000
206.109200 8329.200000
207.116900 23420.800000
208.124800 9916.400000
209.132500 23588.100000
211.112000 8110.100000
211.148200 13273.800000
213.128000 10467.700000
213.163800 8802.700000
215.143100 4939.300000
215.179900 3284.900000
219.117200 3771.200000
220.124800 6832.600000
221.132600 19127.900000
222.140000 3944.500000
223.148000 13917.900000
225.127800 7998.400000
225.163700 28193.000000
227.143300 6074.800000
227.179300 78813.700000
233.132700 6838.100000
234.141100 2635.400000
235.148200 18704.800000
236.156400 3325.100000
237.163900 27034.900000
239.142900 9221.300000
239.179300 4690.600000
241.159200 3997.600000
243.174400 5412.600000
245.190000 154702.400000
248.156100 8715.400000
249.164200 10205.000000
251.179500 6390.500000
253.158200 2681.300000
253.195700 5180.600000
255.174800 3700.000000
266.165500 11538.800000
267.174300 9156.400000
277.195200 11155.900000
295.205400 20080.100000
313.216200 29474.100000

>ms2
53.002200 7092.000000
53.038600 20181.800000
55.017800 32946.000000
55.054200 73594.900000
57.033400 11095.600000
57.069900 9865.900000
65.038500 16143.600000
67.054200 173390.100000
69.033500 7816.800000
69.069800 29402.600000
71.049200 4881.700000
77.038500 4808.900000
79.054200 249099.900000
81.033400 21560.100000
81.069900 263837.400000
83.049100 310817.400000
91.054200 385175.500000
93.069900 236139.200000
95.049100 42090.200000
95.085500 120722.600000
97.064800 19651.600000
97.101100 3973.700000
103.054200 28528.300000
104.062200 3999.200000
105.069900 279034.900000
107.049100 140288.200000
107.085500 121549.500000
109.064800 570164.200000
109.101200 47812.500000
111.080400 4862.800000
115.054200 48882.700000
116.062000 28687.300000
117.069900 192967.700000
118.077500 3144.200000
119.085500 165216.500000
121.064800 30309.700000
121.101200 43362.500000
123.080400 62748.100000
123.116800 47628.100000
125.096100 9203.200000
128.062000 54227.500000
129.069800 156249.300000
130.077800 32440.200000
131.085500 203939.300000
132.057000 3337.500000
132.093700 3513.300000
133.064700 37632.400000
133.101200 118695.900000
135.080400 164741.500000
135.116700 36511.000000
137.096000 7055.500000
137.132400 10033.300000
141.069800 50388.800000
142.077600 51049.800000
143.085500 140077.800000
144.057200 3479.800000
144.093400 17615.600000
145.065000 12314.100000
145.101200 124391.400000
146.072700 4270.400000
147.080500 29319.800000
147.116800 33193.900000
148.088200 5124.800000
149.096100 56215.500000
149.132300 6767.100000
152.061800 2689.800000
153.069900 15639.700000
154.077900 16807.500000
155.085500 65020.700000
156.093400 25045.700000
157.064900 6096.700000
157.101200 96084.000000
158.109200 4739.600000
159.080600 19853.900000
159.116800 52672.600000
160.123800 2269.400000
161.096000 57699.100000
161.132500 9690.200000
163.111700 27582.400000
163.148200 3014.800000
165.069800 13224.600000
166.077400 10309.900000
167.085500 33257.800000
168.093500 15045.000000
169.101200 44635.300000
170.108700 12515.900000
171.116800 61993.000000
172.124700 4894.500000
173.096100 6917.300000
173.132500 18728.200000
175.111700 30241.700000
175.147900 21612.200000
178.077400 7377.700000
179.085500 18333.200000
180.093400 10248.000000
181.101100 29080.200000
182.109100 6671.400000
183.116800 34937.900000
184.124600 5368.000000
185.096100 7883.500000
185.132500 39761.600000
187.111800 8665.600000
187.148100 21066.700000
188.119700 12596.400000
189.127400 12927.300000
191.085500 7120.300000
192.093200 9935.500000
193.101100 23709.500000
194.109100 6002.600000
195.117000 16187.000000
196.124700 6513.500000
197.096000 6438.600000
197.132300 15816.400000
198.139800 2479.700000
199.147900 12091.000000
201.127500 9110.000000
201.163800 4406.500000
203.143200 5693.200000
205.101000 10150.500000
206.108900 8127.700000
207.116700 13739.100000
208.124100 4409.900000
209.132500 9838.700000
211.111200 3825.800000
211.148200 3406.300000
213.127400 3702.000000
219.116600 8327.800000
220.124800 6909.000000
221.132100 6545.600000
223.147900 3502.200000
225.163200 5052.500000
226.135200 2563.800000
227.141900 2845.500000
227.179000 11147.300000
233.132100 3429.100000
235.148600 2823.100000
237.163600 5411.200000
238.134100 2597.900000
245.189500 12160.000000
249.163400 4678.900000
266.166800 2763.300000

>ms2
51.022900 3684.200000
53.002300 16953.800000
53.038600 44413.300000
55.017900 40699.100000
55.054300 103108.400000
57.033500 11771.000000
57.070000 6788.400000
65.038600 35456.000000
67.054200 202270.800000
69.033600 10129.200000
69.069900 29362.900000
71.049200 3640.700000
77.038600 8722.700000
79.054200 377669.200000
80.062100 2300.100000
81.033600 21245.600000
81.069900 341973.900000
83.049200 272168.300000
91.054300 573414.600000
93.070000 200465.400000
94.041500 8703.900000
95.049200 97317.600000
95.085600 83377.500000
97.064800 14706.900000
103.054300 44241.800000
104.062000 7350.900000
105.069900 285002.500000
107.049200 133443.300000
107.085600 77475.400000
109.064900 421442.200000
111.080500 2601.000000
115.054300 97141.000000
116.062200 42281.800000
117.069900 182105.800000
118.077800 6731.100000
119.085600 111056.700000
121.064900 19759.000000
121.101300 14144.000000
123.080500 31420.900000
123.116800 17083.200000
125.096300 2551.700000
127.054200 3361.600000
128.062100 128111.000000
129.069900 168513.000000
130.077800 38102.400000
131.085600 133941.500000
132.056800 2515.000000
133.064800 29308.600000
133.101200 56317.300000
134.073100 4174.400000
135.080500 78662.300000
135.116800 11693.700000
137.095800 4688.000000
141.069900 69401.400000
142.077800 68865.800000
143.085600 97344.300000
144.057000 7322.100000
144.093300 12207.900000
145.065000 16434.500000
145.101200 65194.300000
146.072600 4557.000000
147.080500 19300.100000
147.116800 12257.500000
148.088500 5106.400000
149.096200 21550.500000
152.062300 5905.000000
153.070100 28796.500000
154.077700 22340.900000
155.085600 62113.100000
156.093300 25755.600000
157.065100 6624.200000
157.101300 43921.900000
158.109400 4142.700000
159.080200 12541.700000
159.117100 16394.200000
160.088000 4249.700000
161.096100 29160.400000
162.104200 5809.800000
163.112000 6067.700000
165.070000 29847.500000
166.077600 12693.700000
167.085800 27977.700000
168.093500 12991.400000
169.101400 26072.700000
170.109100 6329.800000
171.117000 22623.500000
173.096300 4905.500000
173.132700 3311.200000
175.111900 9482.700000
175.147900 5131.000000
178.077500 14172.000000
179.085700 19501.400000
180.093400 11153.700000
181.101400 21825.100000
182.109200 4176.500000
183.116800 16138.300000
185.132500 11136.600000
187.111800 6188.400000
187.148700 3114.000000
188.119500 6056.700000
189.127200 3621.400000
190.077800 3228.100000
191.086000 10909.600000
192.093400 7785.200000
193.101400 9030.200000
194.109200 3740.700000
195.117100 7965.800000
197.132900 5038.100000
199.112500 2957.600000
199.148100 3466.200000
201.127400 2493.500000
203.085300 2613.900000
205.101100 8591.300000
206.108900 4770.000000
207.116800 8693.200000
209.132000 2942.200000
219.117000 4250.200000
220.125200 2220.700000
221.133600 3567.300000
233.132800 2719.400000

>ms2
51.023000 2949.800000
53.002200 22920.400000
53.038600 81075.200000
55.017900 47058.700000
55.054300 128061.400000
57.033600 7388.800000
57.069900 6193.600000
65.038600 70733.500000
67.054200 199980.700000
69.033500 12250.200000
69.069900 19330.700000
77.038500 20407.300000
79.054200 470356.300000
80.061900 5447.700000
81.033600 25425.400000
81.069900 306048.200000
83.049200 238123.700000
91.054300 675047.100000
93.069900 142656.400000
94.041400 14059.800000
95.049200 159764.900000
95.085500 51780.800000
97.064800 8647.100000
103.054300 68993.000000
104.062100 15005.200000
105.069900 265083.300000
107.049200 112477.400000
107.085500 38161.700000
109.064800 238036.100000
115.054300 164922.600000
116.062100 54364.300000
117.069900 147814.000000
118.077700 10103.100000
119.085600 64602.500000
121.064800 12319.200000
121.101100 3414.300000
123.080600 11815.500000
127.054300 5523.600000
128.062100 161066.300000
129.069900 148745.100000
130.077700 29722.300000
131.085600 78993.100000
132.056900 5970.900000
132.093400 2161.800000
133.064700 20542.400000
133.101300 25542.700000
134.072900 3702.600000
135.080500 33775.600000
135.117400 3694.000000
141.069900 81633.700000
142.077800 62498.000000
143.085600 56541.500000
144.057100 4931.400000
144.093400 7659.500000
145.064900 21699.000000
145.101100 20697.500000
146.072700 5429.400000
146.109100 2419.000000
147.080600 10817.700000
149.096200 7887.000000
152.062300 13675.100000
153.069900 42399.400000
154.077800 21759.200000
155.085600 45742.900000
156.093800 14775.000000
157.101100 15592.300000
159.080100 8222.800000
159.116800 5992.600000
161.096000 10913.200000
165.070000 37523.300000
166.077900 11688.300000
167.085600 25977.600000
168.093300 9915.200000
169.101100 13572.000000
170.108800 2364.500000
171.116900 6240.500000
178.077700 20512.000000
179.085500 19786.700000
180.093700 4641.900000
181.101000 8561.100000
183.116900 4775.100000
187.112100 3511.100000
190.077100 3502.800000
191.085300 9897.000000
192.092900 6129.800000
193.100900 7801.300000
195.116700 3045.000000
201.127100 3881.700000
203.085700 6416.000000
205.100700 5393.300000
207.117400 2795.900000

