>compound LU10322704
>parentmass 171.08040000000003
>ionization [M+H]+
>formula C12H10O
>rt 1081.380000
>profile orbitrap
#smiles_iso C1=CC=C(C=C1)C2=CC=CC=C2O
#smiles_can C1=CC=C(C=C1)C2=CC=CC=C2O
#inchikey LLEMOWNGBBNAJR-UHFFFAOYSA-N
#pubchem_id 7017
#mb_accession LU139201,LU139202,LU139203,LU139204,LU139205,LU139206

>ms2
55.017900 11128.900000
57.069900 9547.500000
83.085500 3620.000000
103.053900 2234.500000
115.054200 11935.700000
127.054200 2628.000000
128.062100 71067.200000
129.070000 29929.300000
141.069600 4285.600000
143.085600 266686.300000
145.064900 8682.100000
152.061900 4563.800000
153.069900 88067.000000
169.064900 3848.700000
170.073400 3099.200000
171.080500 1830649.800000

>ms2
55.017900 9174.500000
57.069900 6644.400000
83.085400 4998.000000
115.054000 8304.400000
128.062000 61744.800000
129.069800 28640.600000
141.069800 3190.400000
143.085600 226681.700000
145.064800 7538.900000
152.062000 2888.800000
153.069900 79842.000000
170.072500 3347.400000
171.080500 1464275.600000

>ms2
55.017800 15488.800000
55.054200 7745.400000
57.069900 17730.800000
83.085500 15902.500000
103.054100 5035.400000
115.054200 28405.000000
127.054100 4247.000000
128.062000 275693.700000
129.069800 47197.200000
141.070000 14670.400000
142.077600 3460.300000
143.085500 312513.600000
145.064800 28335.300000
152.062000 35369.800000
153.069900 165642.200000
154.078200 2762.700000
169.064800 6578.100000
170.072400 7904.600000
171.080400 617687.600000

>ms2
55.017900 21811.000000
55.054200 18887.300000
57.069900 15907.300000
65.038500 4053.300000
83.085600 14980.000000
91.054400 11660.200000
103.054200 19918.000000
115.054300 69739.700000
117.070100 4052.300000
127.054200 19288.300000
128.062100 673984.800000
129.069900 46803.200000
131.049500 4759.800000
141.070000 34255.000000
142.077500 8464.300000
143.049500 15120.700000
143.085600 239844.400000
144.057300 4655.100000
145.064900 90971.400000
152.062200 223075.000000
153.069900 244102.700000
154.078000 4457.300000
156.056900 3651.500000
159.080700 2460.800000
169.064800 24791.000000
170.072900 12735.400000
171.080500 239273.300000

>ms2
55.017900 17343.100000
55.054200 26356.800000
57.069900 18648.700000
65.038500 7575.300000
83.085500 13371.700000
91.054300 43710.800000
95.049000 3330.700000
103.054200 26862.400000
115.054300 105060.100000
116.062000 2227.500000
117.069800 8968.500000
126.046400 2965.500000
127.054300 49073.200000
128.062100 880482.200000
129.069800 34521.400000
131.049200 7889.600000
141.069800 43889.500000
142.077700 10463.500000
143.049100 10410.900000
143.085600 90821.900000
144.057100 15693.400000
145.064900 111144.300000
151.054300 4854.100000
152.062100 471231.500000
153.069900 161208.600000
154.077700 5219.000000
156.057100 4628.400000
159.080600 1860.500000
169.064900 48229.900000
170.072800 11880.700000
171.080500 63256.300000

>ms2
55.017800 10758.800000
55.054300 33385.800000
57.069900 10339.900000
65.038600 14475.300000
83.085500 4168.000000
91.054200 59365.400000
95.049300 12988.400000
103.054200 29045.400000
115.054200 107174.000000
116.062000 7731.900000
117.069900 5046.100000
126.046300 10585.200000
127.054200 68438.300000
128.062000 692196.000000
129.069800 12204.000000
131.049400 4677.400000
141.069800 38835.900000
142.077900 9376.400000
143.049000 3388.700000
143.085600 21619.700000
144.057000 17320.300000
145.064800 92778.800000
151.054400 5367.600000
152.062100 450296.300000
153.070000 52996.800000
154.077600 2305.800000
159.080500 1910.500000
169.064800 56142.100000
170.072600 7423.900000
171.080400 12586.300000

