>compound LU10477152
>parentmass 556.3856999999999
>ionization [M+H]+
>formula C31H49N5O4
>rt 785.760000
>profile orbitrap
#smiles_iso CCCC[C@H]1CN(C(=O)OC12CCN(CC2)C3(CCN(CC3)C(=O)C4=C(N=CN=C4C)C)C)CC5CCOCC5
#smiles_can CCCCC1CN(C(=O)OC12CCN(CC2)C3(CCN(CC3)C(=O)C4=C(N=CN=C4C)C)C)CC5CCOCC5
#inchikey CXXVJZRGOOIVOD-SANMLTNESA-N
#pubchem_id 44555481
#mb_accession LU041801,LU041802,LU041803,LU041804,LU041805,LU041806

>ms2
84.080600 9244.200000
128.106900 118144.000000
154.159000 346207.300000
166.159000 100664.200000
232.144500 87076.200000
238.216000 16558.900000
252.232000 16563.800000
261.170900 70643.000000
281.258700 352698.000000
296.222200 10620.100000
325.248500 1709050.600000
337.248200 91515.500000
379.295700 28472.800000
385.296200 146402.100000
512.396900 80808.000000
556.386000 8892988.000000

>ms2
55.054200 6798.800000
66.033800 6191.300000
67.054100 23030.600000
69.069800 46163.100000
70.065000 18696.500000
79.054200 11443.200000
81.069800 157464.500000
82.064900 19933.200000
83.085500 17310.600000
84.080800 808305.500000
93.069800 5738.700000
95.085500 39774.800000
96.080800 27768.500000
97.064800 284107.200000
98.096400 49733.200000
99.080400 43893.800000
110.096400 120398.500000
112.112000 30487.900000
116.106900 39913.700000
124.112100 107886.300000
125.132500 29802.800000
128.106900 3670553.000000
135.055200 631457.700000
137.070800 13772.000000
137.132500 210775.000000
142.122500 41253.300000
152.081800 41124.000000
152.143400 49123.100000
154.158900 5209429.500000
164.081900 20006.000000
164.143300 16068.800000
166.159000 1630634.400000
168.174800 11928.400000
178.159000 12482.300000
180.174500 10224.800000
208.206200 19555.600000
220.206200 20922.500000
232.144300 1404486.100000
238.216400 321573.700000
250.216600 14136.000000
252.232000 233870.200000
261.170800 567852.700000
264.232300 27466.700000
281.258600 745923.100000
296.221600 39959.800000
325.248500 738229.800000
337.248400 459781.700000
379.295500 223783.400000
385.296000 241040.700000
397.295300 20372.200000
512.395800 41527.200000
556.386000 227892.700000

>ms2
53.002200 10170.900000
53.038600 12650.500000
55.054200 35592.600000
56.049500 70577.200000
57.033500 12754.500000
57.069900 25214.200000
58.065100 17560.100000
65.038500 6089.400000
66.033700 102655.300000
67.054200 206892.200000
68.049400 16330.700000
69.069800 296036.800000
70.065100 139974.100000
71.049100 15384.700000
71.085500 8045.200000
79.054200 164929.400000
80.049500 10183.500000
81.069900 751297.300000
82.065100 129185.900000
83.085500 80615.100000
84.080800 888373.000000
86.096300 5221.200000
93.069900 27040.000000
94.065100 7886.300000
95.049100 5925.600000
95.072800 13694.400000
95.085500 112119.900000
96.080700 104799.500000
97.064800 1449823.000000
98.096400 220931.900000
99.080400 293920.800000
107.060300 12301.600000
107.085500 12201.500000
108.080700 20179.800000
109.076300 5724.900000
109.088700 10524.900000
109.101100 12235.200000
110.096400 292944.900000
112.112000 340795.400000
114.091400 16338.900000
116.107000 20907.900000
122.096300 6253.200000
123.116900 25540.100000
124.112100 279127.700000
125.070600 16247.400000
125.132600 33007.400000
126.091500 28127.900000
126.127700 4749.900000
128.106900 4721327.500000
135.055200 3416449.500000
137.070800 39261.300000
137.132400 72490.700000
138.127300 17675.700000
140.143100 6907.900000
142.122400 26717.200000
152.081800 162864.400000
152.143500 72101.000000
154.159000 3362293.800000
164.081900 58373.100000
164.143200 19974.900000
166.159000 1457182.100000
168.174500 22027.700000
176.081600 23705.400000
178.159100 6190.100000
180.174600 8821.300000
196.169300 6984.300000
208.206000 18349.400000
220.206000 12218.800000
232.144400 707441.000000
236.201100 14517.600000
238.216500 237876.400000
250.216200 19265.400000
252.232100 92222.400000
261.171200 27712.100000
264.232300 14020.400000
281.258500 39656.800000
337.248700 54241.500000

>ms2
53.002200 25388.700000
53.038600 43418.100000
53.997400 4783.300000
55.017800 15287.600000
55.054200 90847.700000
56.049500 131647.000000
57.033500 26371.600000
57.069900 29485.300000
58.065100 28708.000000
65.038500 24340.500000
66.033800 706194.400000
67.017800 42642.000000
67.054200 580150.300000
68.049400 34899.400000
69.069800 711477.300000
70.065100 294960.900000
71.049000 40260.500000
71.085500 13426.700000
79.054200 422094.200000
80.049400 79342.900000
81.069800 1000345.600000
82.065100 327523.100000
83.072900 30267.300000
83.085500 117691.200000
84.080800 552536.000000
86.096400 7180.300000
91.054100 7685.900000
93.069900 35302.300000
94.065100 22593.200000
95.049100 22039.800000
95.072900 39067.600000
95.085500 134573.600000
96.080700 134661.800000
97.064800 1832283.600000
98.096400 213569.300000
99.080400 379781.800000
100.075700 10276.000000
105.045000 8609.300000
107.060300 53463.000000
107.085600 14113.700000
108.044400 11440.600000
108.080700 62738.500000
109.076100 10322.400000
109.088600 42599.500000
109.101100 10829.500000
110.060000 21114.100000
110.096400 338657.600000
112.112000 502146.300000
114.091400 5528.100000
122.096500 13558.500000
123.104200 13788.900000
123.116800 11688.200000
124.112100 166113.300000
125.070900 101456.500000
125.132500 7116.800000
126.091300 14458.600000
126.127600 4691.300000
128.106900 2215862.500000
135.055200 3917984.800000
137.071100 23800.600000
137.132400 13492.100000
138.127700 10503.600000
140.143300 9475.000000
142.122500 5023.200000
147.055200 10044.300000
150.128000 7876.100000
152.081800 95640.200000
152.143200 47568.700000
154.158900 1002973.000000
164.082000 32115.500000
164.143300 12704.800000
166.159000 553929.200000
168.174500 11264.300000
176.081500 13539.100000
180.174200 4682.600000
196.169500 6054.000000
232.144400 67784.600000
238.216300 47754.700000
252.231600 7487.500000

>ms2
53.002200 50958.000000
53.038600 101980.600000
53.997500 9990.700000
55.017800 33399.900000
55.054200 219246.500000
56.049500 162730.600000
57.033500 45626.600000
57.069900 31598.900000
58.065200 35908.900000
65.038500 45765.600000
66.033800 2010401.100000
67.017800 144626.700000
67.054200 852462.000000
68.049400 83514.200000
69.069800 999377.700000
70.065100 397532.700000
71.049100 50268.700000
71.085500 9638.200000
74.096400 3760.400000
77.038500 4288.100000
79.054200 759218.800000
80.049400 261736.000000
81.069900 958424.900000
82.065100 539001.500000
83.072900 61692.800000
83.085500 116832.400000
84.080800 394449.400000
86.096500 5998.400000
91.054100 17930.400000
93.069900 42508.700000
94.065100 64310.900000
95.049200 41801.700000
95.073000 86388.600000
95.085500 120411.700000
96.080800 121602.000000
97.064800 1320701.800000
98.096400 151934.800000
99.080400 305946.000000
100.075800 5476.100000
105.044600 16241.400000
105.069700 3945.300000
107.060300 95267.500000
107.085700 8678.300000
108.044300 33165.600000
108.080700 107093.600000
109.076100 24575.700000
109.088600 67098.100000
109.101100 7187.000000
110.060000 18266.500000
110.096400 294764.300000
112.112100 365232.500000
122.096300 24635.000000
123.104100 16962.700000
123.116800 5296.500000
124.112100 93592.900000
125.070900 172743.800000
126.091100 4975.800000
126.127800 5256.200000
128.107000 749840.800000
134.071400 3405.300000
135.055200 2935471.200000
137.070400 5041.100000
138.127400 5174.200000
139.086500 10015.300000
140.143400 7110.100000
147.055200 10717.100000
150.128000 5897.600000
152.081700 40413.700000
152.143500 24193.300000
154.159000 255992.800000
164.081900 5392.200000
164.143300 10179.900000
166.159000 113543.100000
232.144300 3925.400000
238.216000 4688.900000

>ms2
53.002200 108753.000000
53.038600 220683.100000
53.997400 16813.700000
55.017900 45561.300000
55.054200 309432.500000
56.049500 147136.300000
57.033500 46409.200000
57.069900 28217.000000
58.065100 33464.100000
65.038600 74926.000000
66.033800 3176625.800000
67.017800 254484.600000
67.054200 929758.600000
68.049400 111112.200000
69.069800 906163.800000
70.065100 382895.400000
71.049100 36181.300000
71.085500 9524.200000
74.096500 5196.000000
77.038500 8045.400000
79.054200 790271.300000
80.049500 520850.900000
81.069900 709319.700000
82.065100 594127.200000
83.073000 83135.000000
83.085500 62614.600000
84.080800 234429.700000
91.054200 26656.400000
93.069900 39712.500000
94.065100 91168.400000
95.049200 77849.800000
95.072900 102838.000000
95.085500 86207.000000
96.080800 105245.800000
97.064800 684758.200000
98.096400 84972.600000
99.080500 185978.000000
100.075800 7343.500000
105.044700 33501.900000
105.069800 6350.800000
107.060400 91549.500000
107.085700 7723.900000
108.044300 49611.900000
108.080700 118790.100000
109.076200 17991.900000
109.088600 64416.000000
109.101400 3610.800000
110.060000 15019.200000
110.096400 195627.800000
112.112100 176041.000000
122.096400 22625.300000
123.104300 8419.900000
124.112000 39828.600000
125.070900 148213.300000
128.107000 229151.300000
134.071200 3476.200000
135.055300 1444550.800000
139.087000 7692.100000
140.143200 3572.500000
147.055400 5626.200000
150.127600 8892.300000
152.082200 8603.500000
152.143300 7019.400000
154.159000 45525.300000
164.143200 4004.200000
166.159000 15365.600000
337.242800 3380.700000

