>compound LU10016862
>parentmass 188.09310000000002
>ionization [M+H]+
>formula C9H9N5
>rt 635.080000
>profile orbitrap
#smiles_iso C1=CC=C(C=C1)C2=NC(=NC(=N2)N)N
#smiles_can C1=CC=C(C=C1)C2=NC(=NC(=N2)N)N
#inchikey GZVHEAJQGPRDLQ-UHFFFAOYSA-N
#pubchem_id 7064
#mb_accession LU106301,LU106302,LU106303,LU106304,LU106305,LU106306

>ms2
85.050900 295621.800000
104.049400 256060.200000
146.071300 52181.900000
188.093100 25492192.000000

>ms2
68.024200 30103.200000
85.050800 606546.200000
104.049400 472637.600000
121.075900 27895.100000
146.071200 95319.900000
188.092900 23881066.000000

>ms2
68.024300 302825.100000
85.050900 3598211.800000
104.049500 3266730.200000
121.076000 259978.200000
146.071300 652465.500000
188.093100 14372281.000000

>ms2
68.024300 798067.000000
77.038500 11734.600000
85.050800 3669991.800000
95.049200 13745.400000
104.049400 5803185.000000
118.065100 12488.800000
121.076000 367575.700000
122.060200 21216.200000
129.044700 13287.000000
136.075800 8898.400000
146.071200 838262.400000
188.093000 3670346.000000

>ms2
53.038600 26011.400000
68.024300 1365963.500000
77.038500 17570.600000
85.050900 2224851.800000
91.054200 35843.600000
95.049200 76604.800000
104.049400 7734822.000000
105.044700 28652.700000
118.065000 11765.400000
121.076000 263690.700000
122.059900 28931.700000
129.044800 30814.100000
136.075800 16146.000000
146.071200 545198.200000
188.093100 685712.400000

>ms2
53.038600 88838.800000
68.024300 1655344.100000
77.038500 45160.200000
85.050900 945476.200000
95.049100 338622.000000
104.049400 7528553.000000
105.044700 124803.900000
118.065300 8799.100000
121.076100 88878.500000
122.060000 47582.300000
129.044700 45996.200000
136.075800 21505.700000
146.071200 180183.400000
188.093100 72065.500000

