>compound LU11861820
>parentmass 254.2478
>ionization [M+H]+
>formula C16H31NO
>rt 1240.860000
>profile orbitrap
#smiles_iso CCCCCCCCCCCCN1CCCC1=O
#smiles_can CCCCCCCCCCCCN1CCCC1=O
#inchikey NJPQAIBZIHNJDO-UHFFFAOYSA-N
#pubchem_id 62459
#mb_accession LU015301,LU015302,LU015303,LU015304,LU015305,LU015306

>ms2peaks
86.059800 62329.800000
254.247500 32742384.000000

>ms2peaks
57.069900 69144.400000
71.085500 60160.100000
85.101000 32895.600000
86.060000 1284142.500000
98.059600 72014.400000
128.107000 39754.800000
254.247700 32034528.000000

>ms2peaks
53.002300 44951.700000
55.054200 18127.600000
57.069900 1158777.900000
68.049500 43393.600000
69.033400 305104.400000
70.065100 33120.600000
71.085500 635048.300000
85.101200 227239.300000
86.060000 12222786.000000
98.060000 334398.000000
100.075700 67049.800000
114.091300 141367.000000
128.106900 244545.800000
142.122700 140945.200000
156.138400 53553.900000
170.154000 29730.900000
184.169700 24245.900000
198.185000 19704.000000
254.247700 15741637.000000

>ms2peaks
53.002200 176147.900000
53.997500 30882.000000
55.054300 63968.900000
57.069900 2355766.800000
58.065200 23115.300000
68.049500 146726.400000
69.033400 1217100.000000
70.065100 93643.300000
71.085500 727274.500000
84.044300 22623.300000
85.101200 158860.200000
86.060000 16816724.000000
98.060000 302778.900000
100.075800 62223.300000
114.091400 141904.000000
128.106900 173029.200000
142.122600 81563.500000
156.138500 31917.200000
170.154100 27090.400000
254.247800 2104387.200000

>ms2peaks
53.002300 343796.000000
53.997500 42529.100000
55.054300 106818.400000
57.069900 2057281.600000
58.065100 45028.400000
68.049400 211581.800000
69.033400 1892679.800000
70.065100 110094.500000
71.049200 32915.600000
71.085500 339523.000000
84.044400 29361.300000
85.101200 37737.200000
86.060000 12249324.000000
98.060000 138225.400000
99.067900 16411.200000
100.075500 19023.000000
114.091400 63886.700000
128.107100 64892.100000
142.122500 17966.700000
254.247900 93335.000000

>ms2peaks
53.002300 389544.500000
53.997500 43283.200000
54.010000 8884.600000
55.054300 101153.500000
57.069900 1234735.600000
58.065200 52215.400000
68.049500 246268.600000
69.033500 1861984.500000
70.065100 100325.300000
71.049100 17505.400000
71.085500 82650.100000
84.044400 23241.300000
85.101200 12953.700000
86.060000 7322894.500000
98.060100 71028.400000
99.067900 14121.700000
112.075700 12963.600000
114.091500 29004.400000
128.107000 13283.800000

