>compound LU11665083
>parentmass 168.0338
>ionization [M+H]+
>formula C5H5N5S
>rt 184.620000
>profile orbitrap
#smiles_iso C1=NC2=C(N1)C(=S)N=C(N2)N
#smiles_can C1=NC2=C(N1)C(=S)N=C(N2)N
#inchikey WYWHKKSPHMUBEB-UHFFFAOYSA-N
#pubchem_id 2723601
#mb_accession LU064001,LU064002,LU064003,LU064004,LU064005,LU064006

>ms2peaks
109.050800 12478.200000
126.012000 27830.800000
134.046000 43374.300000
151.007200 255009.500000
168.033700 5467761.000000

>ms2peaks
109.050800 16104.100000
126.011900 33857.500000
134.046100 46958.800000
151.007200 303491.800000
168.033700 5985704.500000

>ms2peaks
107.035000 14209.200000
108.985600 5715.000000
109.050900 75522.300000
126.012100 240228.200000
134.046100 429608.300000
151.007300 1597202.200000
168.033800 4164841.200000

>ms2peaks
68.024100 2785.800000
71.990200 3781.100000
80.024200 10491.200000
81.974600 6102.300000
82.039900 6245.500000
83.990200 10918.500000
92.024300 16895.800000
96.985500 3672.600000
99.001200 21961.300000
107.035200 161064.400000
108.985500 59680.100000
109.050900 116541.300000
123.996400 22236.100000
126.012000 562001.400000
134.046100 1159055.000000
136.061800 3348.300000
141.022500 4836.500000
151.007300 2698110.000000
168.033800 1697767.200000

>ms2peaks
55.029100 13674.300000
62.005900 2981.900000
65.013400 2554.800000
67.029100 9454.200000
68.024300 4981.000000
69.974500 2609.400000
71.990200 24663.100000
80.024300 52232.500000
81.974500 38304.300000
82.040000 16115.900000
83.990300 58533.000000
87.001300 4724.500000
92.024300 77475.600000
93.032200 7012.800000
96.985500 25916.400000
99.001100 85048.900000
107.035200 511960.100000
108.985500 239985.800000
109.050900 89128.600000
114.012400 2727.700000
123.996500 70135.600000
126.012100 735855.100000
134.046100 1277528.800000
136.062000 4760.100000
141.022800 3326.500000
151.007300 2338873.800000
168.033900 420723.600000

>ms2peaks
55.029100 45570.600000
61.010700 2002.300000
62.005900 10396.600000
65.013500 7378.000000
67.029000 21779.600000
68.024200 12616.400000
69.974600 8406.500000
71.990200 70790.200000
80.024300 99703.000000
81.974600 146148.200000
82.040000 21972.500000
83.990300 160707.200000
87.001000 12779.300000
92.024300 171754.500000
93.032200 15459.600000
96.985500 68990.700000
99.001100 188914.900000
107.035200 781499.900000
108.985500 469295.800000
109.050900 56381.300000
114.012400 2596.800000
123.996400 109549.100000
126.012100 658960.200000
134.046100 813196.700000
136.061800 2696.600000
141.023200 2582.900000
151.007300 1417652.400000
168.033900 74209.200000

