>compound LU11594908
>parentmass 288.1747
>ionization [M+H]+
>formula C21H21N
>rt 928.040000
>profile orbitrap
#smiles_iso C1=CC=C(C=C1)CN(CC2=CC=CC=C2)CC3=CC=CC=C3
#smiles_can C1=CC=C(C=C1)CN(CC2=CC=CC=C2)CC3=CC=CC=C3
#inchikey MXHTZQSKTCCMFG-UHFFFAOYSA-N
#pubchem_id 24321
#mb_accession LU113201,LU113202,LU113203,LU113204,LU113205,LU113206

>ms2peaks
91.054100 2917278.500000
106.065000 57970.900000
120.080800 908332.900000
181.101100 2062928.400000
196.112100 1605835.500000
271.148300 51988.400000
288.174600 33160534.000000

>ms2peaks
65.038500 87249.000000
91.054200 26418096.000000
106.065000 174733.300000
108.080700 35617.200000
120.080800 2269203.000000
166.077700 150867.300000
179.085500 142918.800000
181.101100 7683057.500000
196.112000 5153250.500000
210.127200 32891.600000
271.148400 52983.000000
288.174600 6780705.000000

>ms2peaks
65.038500 376664.600000
91.054200 44203680.000000
103.054400 50326.500000
106.065000 90828.000000
120.080700 492826.000000
141.069800 62111.900000
153.069700 154595.900000
165.069800 282738.500000
166.077600 1269979.500000
179.085500 283397.000000
181.101100 4155927.200000
196.112000 1191627.100000
288.174700 114203.100000

>ms2peaks
65.038500 1128366.600000
91.054100 50724900.000000
103.054300 98505.400000
115.053900 57305.900000
120.080600 59004.600000
141.069700 209951.600000
153.069700 245912.800000
165.069800 991094.900000
166.077600 1924489.100000
179.085500 333815.200000
181.101000 1054688.400000
196.111900 106387.900000

>ms2peaks
63.022800 70027.800000
65.038500 2462323.000000
91.054200 44436140.000000
103.054300 104933.000000
115.054000 51571.200000
141.069900 253013.400000
152.061900 52969.700000
153.069800 166736.200000
165.069900 1326819.200000
166.077700 1207656.900000
178.077700 102915.500000
179.085400 192302.600000
181.101300 125418.700000

>ms2peaks
63.022900 149860.200000
65.038500 5391077.000000
91.054200 40995388.000000
103.054400 78207.000000
115.054200 112021.500000
141.069900 257082.900000
152.062000 81148.800000
153.069800 76147.200000
165.069900 1532936.000000
166.077700 602843.800000
178.077600 167893.000000
179.085400 96578.600000

