>compound LU12931443
>parentmass 162.9712
>ionization [M+H]+
>formula C6H4Cl2O
>rt 1534.980000
>profile orbitrap
#smiles_iso C1=CC(=C(C=C1Cl)Cl)O
#smiles_can C1=CC(=C(C=C1Cl)Cl)O
#inchikey HFZWRUODUSTPEG-UHFFFAOYSA-N
#pubchem_id 8449
#mb_accession LU079701,LU079702,LU079703,LU079705,LU079706

>ms2peaks
84.959600 763164.500000
102.970300 98639.500000
131.951500 1954.000000
132.960800 59707.000000
148.955800 54555.600000
150.971500 34155.200000
162.973300 43907.100000

>ms2peaks
71.951900 2090.900000
84.959700 1468405.000000
102.970400 186215.700000
131.951100 3081.300000
132.960900 55898.300000
148.955800 59345.600000
150.971300 29265.500000
162.973500 87952.800000

>ms2peaks
53.038600 2528.200000
71.951800 13613.300000
74.975300 2233.100000
84.959700 1806700.800000
102.970300 227202.200000
131.951300 2602.100000
132.960900 45621.300000
148.955800 47367.800000
150.971400 37298.400000
162.972200 15099.700000

>ms2peaks
53.038600 18569.600000
71.951800 78024.100000
74.975300 4125.900000
77.038500 9361.000000
81.033400 2725.100000
84.959700 1279866.900000
92.025700 26464.900000
102.970300 166874.600000
131.951000 2083.500000
132.961000 9967.900000
136.955800 4067.100000
148.955900 10750.800000
150.971300 9375.700000

>ms2peaks
51.023000 4329.100000
53.038600 20111.400000
71.951800 87977.600000
74.975300 4145.200000
77.038600 12009.500000
84.959700 722053.900000
92.025600 35786.700000
102.970400 101338.500000
132.959600 2938.800000
136.955700 2520.100000
148.955900 2280.000000
150.971100 2479.100000

