>compound LU12468946
>parentmass 171.138
>ionization [M+H]+
>formula C10H18O2
>rt 1059.600000
>profile orbitrap
#smiles_iso CCCCC1CCCCC(=O)O1
#smiles_can CCCCC1CCCCC(=O)O1
#inchikey YKVIWISPFDZYOW-UHFFFAOYSA-N
#pubchem_id 62583
#mb_accession LU071701,LU071702,LU071703,LU071704,LU071705

>ms2peaks
55.054200 2958.300000
57.033500 12004.500000
57.069900 123363.700000
73.028400 113131.400000
83.085500 7975.000000
85.064900 1762.300000
99.044100 2590.300000
101.059800 35312.800000
109.101300 8091.900000
129.091100 10513.100000
171.138200 1047010.700000

>ms2peaks
55.054300 2311.100000
57.069900 35864.700000
73.028300 34982.700000
83.085600 5470.900000
101.059800 7993.000000
109.101100 2481.300000
115.075700 1544.700000
129.091100 4402.000000
171.138000 274710.600000

>ms2peaks
55.054200 12010.600000
57.033500 22774.800000
57.069900 291867.100000
67.054200 5576.300000
69.069800 2340.900000
71.049100 3369.700000
73.028400 218970.300000
83.085500 19490.300000
85.064700 4905.500000
99.044100 2770.200000
101.059700 49482.500000
109.101100 9402.900000
115.075400 4838.600000
129.090900 17534.400000
171.138000 297987.000000

>ms2peaks
53.002200 3140.800000
55.054300 27185.300000
57.033500 24023.900000
57.069900 290077.700000
67.054200 4886.600000
69.069800 1678.400000
71.049100 2630.000000
73.028400 195733.800000
83.085600 25684.700000
85.064900 4957.100000
97.007400 2106.800000
99.044000 6281.600000
101.059800 42256.200000
109.101300 3590.400000
115.075500 2605.400000
129.091000 9040.900000
171.138000 52694.100000

>ms2peaks
53.002300 9550.200000
55.054300 42316.400000
57.033500 22023.900000
57.069900 269791.600000
67.054300 1764.200000
71.049100 2792.400000
73.028400 155498.000000
83.085600 15198.600000
85.064800 2521.500000
97.007600 3501.500000
99.044200 13016.300000
101.059800 22657.500000
129.091100 3382.300000
171.138200 6395.700000

