>compound LU12834335
>parentmass 226.0896
>ionization [M+H]+
>formula C11H15NO2S
>rt 958.440000
>profile orbitrap
#smiles_iso CCSCC1=CC=CC=C1OC(=O)NC
#smiles_can CCSCC1=CC=CC=C1OC(=O)NC
#inchikey HEZNVIYQEUHLNI-UHFFFAOYSA-N
#pubchem_id 34766
#mb_accession LU098301,LU098302,LU098303,LU098304,LU098305,LU098306

>ms2peaks
147.996600 4366.700000
166.007500 42194.700000
180.023300 10551.300000

>ms2peaks
100.050600 2225.500000
107.048900 3397.900000
120.080600 3058.900000
138.012300 3568.800000
147.996900 3255.500000
156.023000 3502.400000
166.007500 52812.900000
180.023100 11295.200000

>ms2peaks
57.069800 2143.800000
86.035000 12451.300000
91.054400 3146.900000
96.055700 7280.700000
100.050600 19126.000000
106.065200 2530.900000
107.049200 1964.700000
110.071200 2588.400000
114.066200 8083.200000
120.002200 2419.700000
120.080900 3526.500000
128.082100 2796.600000
138.012400 18805.400000
147.996600 2064.300000
152.028400 3866.300000
156.023300 9934.100000
166.007400 22802.500000
180.023600 5994.800000

>ms2peaks
57.070000 4106.100000
86.034900 57912.900000
91.054100 4966.300000
92.049600 1655.300000
93.057300 2416.700000
96.055600 12451.700000
99.066500 6496.000000
100.050600 44904.900000
106.065200 3241.800000
107.049400 2185.200000
108.081000 2964.800000
110.071300 5237.200000
114.066300 15206.800000
120.002100 2591.400000
120.080900 3252.400000
128.081700 6425.600000
138.012400 30560.100000
152.028200 7382.600000
156.023000 26384.000000
166.007800 6504.600000
170.038900 4918.400000

>ms2peaks
57.069800 3976.500000
58.028700 5974.600000
65.038500 2794.700000
79.021100 5676.600000
91.054200 10139.900000
92.049300 2631.100000
93.057300 6435.800000
95.049300 2526.700000
96.055600 10297.600000
99.066400 7287.700000
100.050500 61378.300000
106.065000 2811.900000
107.049200 2147.800000
108.080600 3082.400000
110.071400 2051.400000
114.066200 13216.200000
120.001700 3172.500000
120.055500 4859.700000
120.080900 2326.200000
128.081900 6048.200000
134.096300 2119.100000
138.012400 23320.500000
152.028000 5912.300000
156.022900 21570.800000
170.038900 4872.700000

>ms2peaks
58.028800 10136.300000
65.038600 4898.900000
79.021200 7195.600000
91.054100 10157.100000
93.057300 12770.400000
95.049100 3815.800000
96.055600 7484.300000
99.066500 4765.400000
100.050500 58285.100000
106.065200 3377.800000
108.081000 2878.500000
114.066300 3418.400000
120.055800 2934.400000
128.082100 2386.300000
134.095900 2054.300000
138.012300 17397.600000
152.027800 4125.900000
156.022800 13141.600000
170.039000 3189.200000

