>compound LU12043909
>parentmass 220.1179
>ionization [M+H]+
>formula C9H17NO5
>rt 488.090000
>profile orbitrap
#smiles_iso CC(C)(CO)[C@H](C(=O)NCCC(=O)O)O
#smiles_can CC(C)(CO)C(C(=O)NCCC(=O)O)O
#inchikey GHOKWGTUZJEAQD-ZETCQYMHSA-N
#pubchem_id 6613
#mb_accession LU087001,LU087002,LU087003,LU087004,LU087005,LU087006

>ms2
57.069900 5419.700000
59.049200 5944.500000
67.054400 2821.700000
69.069900 18676.200000
72.044400 37834.500000
85.064800 16390.400000
86.096600 2890.100000
87.080500 14890.400000
90.055000 842870.900000
95.049100 9911.200000
98.023700 18618.600000
100.039400 8879.600000
103.075400 48204.000000
113.059700 8096.700000
116.034300 118083.000000
124.075800 23320.900000
131.070400 7328.600000
142.086200 23577.900000
156.102000 8633.700000
160.096700 16661.400000
166.086400 13461.900000
172.096600 3014.800000
174.112500 30430.200000
184.096900 253304.300000
189.988600 5455.800000
190.985500 2745.300000
202.107500 447193.500000
220.118000 853548.600000

>ms2
57.069900 14193.300000
59.049100 18525.800000
67.054200 7229.300000
69.069800 32107.200000
70.028700 6942.500000
72.044400 77635.200000
73.028300 10570.800000
83.049200 5622.700000
85.064800 49636.000000
86.096400 10302.000000
87.080500 27910.400000
90.055000 980686.600000
95.049100 28858.500000
98.023700 49348.600000
100.039300 18888.400000
103.075400 88383.100000
113.059700 14585.400000
116.034200 165841.100000
124.075700 76694.000000
130.086100 2152.200000
131.070500 10264.400000
142.086300 55456.400000
156.101900 13995.100000
160.096800 27587.400000
166.086500 23915.000000
172.097000 4713.300000
174.112400 31845.700000
184.096900 246554.400000
189.989300 3780.700000
190.985200 2202.500000
202.107500 317790.800000
220.118100 248773.900000

>ms2
55.017900 6551.300000
55.054400 2868.100000
57.069900 48471.300000
59.049100 44495.900000
67.054200 33180.000000
69.069900 41047.900000
70.028700 25075.300000
72.044400 108421.400000
73.028400 33458.400000
74.023600 11579.500000
83.049100 11498.100000
85.064800 108940.500000
86.096400 18418.400000
87.080400 13680.200000
88.039300 2662.600000
90.055000 637449.700000
92.049600 4298.600000
95.049200 56192.400000
96.080800 9777.100000
98.023700 127803.700000
99.080500 4531.900000
100.039300 20002.100000
103.075300 65533.800000
112.075900 5253.300000
113.059700 23579.000000
116.034200 92876.100000
124.075700 165248.400000
130.086200 3751.900000
131.070500 7350.500000
142.086300 66418.900000
156.102000 5052.800000
160.096800 18060.300000
166.086500 12114.500000
174.112500 7840.000000
184.096800 58754.600000
202.107400 59526.400000
220.117900 6710.900000

>ms2
53.002200 2367.000000
55.017900 12272.700000
55.054200 13227.900000
56.013200 6259.900000
57.069900 70838.300000
59.049200 51845.800000
60.044300 3234.400000
61.028400 1748.000000
65.038600 3096.600000
67.054200 66274.800000
69.069800 32798.100000
70.028700 81652.100000
72.044300 113594.200000
73.028400 29832.600000
73.064800 4508.400000
74.023600 18006.700000
79.054200 3508.900000
81.069800 6489.700000
83.049100 12570.700000
85.064800 75254.900000
86.096400 7317.300000
87.080600 2352.400000
88.039400 6530.800000
90.055000 293517.200000
92.049500 6779.100000
95.049200 55121.300000
96.080800 27048.500000
98.023700 110763.300000
99.080500 4031.700000
100.039300 5197.000000
103.075300 19349.200000
112.075800 5945.300000
113.059700 20929.000000
116.034300 41801.400000
124.075700 130648.700000
130.086600 2586.000000
131.070300 3633.500000
142.086300 30063.900000
157.998200 6640.700000
184.096900 6713.500000
202.107300 5641.100000

>ms2
53.002200 5016.500000
55.017800 19613.400000
55.054200 21579.900000
56.013100 18535.400000
57.069900 66054.200000
59.049100 39390.400000
60.044400 6544.500000
65.038500 14880.300000
67.054200 101886.000000
68.049300 1782.200000
69.069800 23334.800000
70.028700 144722.400000
72.044300 56456.800000
73.028400 19580.800000
73.064700 3800.400000
74.023600 16509.800000
79.054300 10422.300000
81.057400 3227.100000
81.069900 12475.000000
82.065000 1994.900000
83.049100 8595.300000
85.064800 38968.500000
86.096400 3672.200000
88.039300 4060.400000
90.055000 93144.200000
92.049500 3936.400000
93.057100 1739.300000
94.065100 3802.800000
95.049200 49474.500000
96.080800 33885.900000
98.023700 51331.300000
100.039100 1803.400000
103.075500 2033.600000
112.075700 4583.200000
113.059700 7526.200000
115.054600 2528.800000
116.034200 14230.100000
124.075700 58282.600000
142.086200 6761.700000
157.997600 3038.000000

>ms2
53.002300 7613.200000
53.038600 4138.500000
55.017900 21101.800000
55.054300 19560.700000
56.013100 39958.300000
57.069900 41130.200000
59.049200 23142.200000
60.044500 5863.900000
61.028400 3529.400000
65.038600 16372.200000
67.054200 107331.500000
69.069900 13624.000000
70.028800 136628.000000
72.044400 25946.300000
73.028500 9662.200000
74.023700 7798.600000
79.054300 13131.100000
81.057400 7368.400000
81.069900 8524.900000
83.049200 6370.400000
85.064900 11344.200000
86.096600 2366.700000
90.055000 23759.600000
94.065100 2557.700000
95.049200 29958.600000
96.080800 19185.500000
97.065100 1891.900000
98.023700 18276.000000
113.059900 3078.000000
116.034500 4955.100000
124.075800 15816.000000
142.086400 2185.600000
147.976900 2746.500000

