>compound LU12562227
>parentmass 188.04729999999998
>ionization [M+H]+
>formula C8H10ClNO2
>rt 806.520000
>profile orbitrap
#smiles_iso COC1=CC(=C(C=C1N)OC)Cl
#smiles_can COC1=CC(=C(C=C1N)OC)Cl
#inchikey YGUFQYGSBVXPMC-UHFFFAOYSA-N
#pubchem_id 22833
#mb_accession LU094501,LU094502,LU094503,LU094504,LU094505,LU094506

>ms2peaks
124.075800 18466.700000
138.055000 22817.000000
152.070700 29501.000000
153.078500 498044.200000
156.021200 8529.800000
157.029400 2826.800000
158.000600 3158.300000
172.015900 16492.200000
173.023900 840792.600000
188.047300 1612037.200000

>ms2peaks
92.049500 2657.300000
109.052200 1929.500000
124.075800 20275.100000
130.005400 2845.700000
138.055000 45468.800000
152.070600 24818.200000
153.078400 494876.900000
156.020800 9710.200000
157.028600 3472.500000
158.000500 6020.700000
172.016100 18423.800000
173.023900 1012846.000000
188.047300 1056801.100000

>ms2peaks
92.049600 6518.800000
93.057300 3486.800000
109.052500 2263.800000
124.075800 25116.800000
130.005400 10908.400000
138.055000 155982.000000
152.070800 14807.000000
153.078500 538834.200000
156.020800 13278.800000
157.029100 6380.600000
158.000300 26564.000000
172.016100 25150.300000
173.023900 1568944.400000
188.047400 506088.500000

>ms2peaks
65.038600 3309.000000
78.034200 2932.000000
80.013000 5590.800000
81.057400 2538.800000
92.049500 12036.600000
93.057300 12784.000000
95.049300 2855.000000
96.044300 5408.000000
106.028800 8663.900000
108.044300 2225.500000
109.052200 12508.300000
110.060100 24186.800000
122.060300 2659.600000
123.031300 2370.800000
123.068100 2633.000000
124.039500 18981.000000
124.075700 11196.900000
129.010200 18798.600000
130.005500 358394.800000
138.055000 649812.600000
142.005500 2330.600000
144.021200 8769.800000
153.078500 177614.100000
156.021300 9340.500000
157.029000 4947.600000
158.000400 443538.800000
172.016200 24546.800000
173.023900 1389125.500000
188.047400 16249.100000

>ms2peaks
65.038600 12082.600000
67.041700 3151.500000
74.999500 2748.600000
78.033800 6604.000000
79.017800 5856.100000
80.013100 10850.000000
80.049300 2627.700000
81.057400 4390.400000
82.065100 1882.000000
92.049500 6671.400000
93.057400 11076.600000
95.036600 9426.500000
95.049000 4816.000000
96.044500 12736.000000
102.010500 5862.000000
106.028800 7128.400000
109.052200 10536.400000
110.060100 104344.200000
111.044100 3151.800000
122.060400 2214.000000
123.067700 2157.600000
124.039400 16501.300000
128.997600 4566.100000
129.010100 15221.400000
130.005500 1039899.700000
138.055000 658142.400000
142.005200 3607.900000
144.021100 14100.900000
153.078500 33253.800000
156.021300 2312.500000
157.028700 3296.100000
158.000400 452192.800000
172.016200 13285.900000
173.023900 503182.800000

>ms2peaks
65.038600 13814.500000
67.041600 20430.600000
74.999600 13478.800000
78.033900 10168.800000
79.017800 6908.600000
80.013000 17419.200000
80.049400 5882.300000
81.057300 5663.100000
82.065000 5568.100000
92.049400 4840.500000
93.057400 9714.500000
95.036600 43499.600000
95.049100 3884.700000
96.044400 14776.300000
102.010500 22331.300000
106.028700 5904.600000
108.044300 2494.000000
109.052300 5233.700000
110.060100 211514.000000
111.044100 7241.700000
123.031700 2487.800000
124.039300 4895.000000
128.997700 8227.800000
129.010200 10036.300000
130.005500 1338149.400000
138.055000 393278.100000
142.005300 5121.900000
144.021200 7057.200000
153.078300 4313.400000
158.000400 193038.700000
172.016000 2856.700000
173.023900 102476.300000

