>compound LU12275637
>parentmass 130.08629999999997
>ionization [M+H]+
>formula C6H11NO2
>rt 245.340000
>profile orbitrap
#smiles_iso C1CC(=O)N(C1)CCO
#smiles_can C1CC(=O)N(C1)CCO
#inchikey WDQFELCEOPFLCZ-UHFFFAOYSA-N
#pubchem_id 76980
#mb_accession LU101901,LU101902,LU101903,LU101904,LU101905,LU101906

>ms2peaks
56.049600 2470.200000
57.069900 2725.100000
67.054100 4068.500000
69.033400 174846.400000
69.069800 33753.700000
70.065100 1809.100000
71.049100 5295.500000
72.044300 2136.600000
82.065100 7772.700000
84.080800 123724.700000
94.065200 5832.800000
112.075600 1163268.900000
130.086300 553802.800000

>ms2peaks
56.049500 5142.100000
57.069800 3056.400000
67.054200 6141.400000
68.049400 2797.400000
69.033400 226034.300000
69.069800 43159.800000
71.049000 7576.500000
82.065100 11208.000000
84.080800 153812.900000
94.065100 4989.200000
112.075600 1512337.600000
130.086200 695054.900000

>ms2peaks
53.002400 3377.100000
56.049600 6719.200000
57.070000 2200.500000
67.054200 7970.000000
69.033500 371889.600000
69.069800 60295.400000
71.049100 10069.100000
72.044300 2813.200000
82.065100 18423.500000
84.080800 211323.200000
94.065300 11066.600000
95.049000 2832.600000
112.075700 1483660.800000
130.086300 441240.200000

>ms2peaks
53.002300 10390.600000
53.997500 2054.700000
55.054300 2211.600000
56.049500 17238.100000
57.069900 4952.000000
67.054200 20386.800000
68.049400 3258.800000
69.033500 693155.200000
69.069800 63549.700000
70.065100 2569.300000
71.049200 11856.600000
82.065100 39794.300000
84.080800 283246.200000
86.060200 1806.700000
94.065200 13490.300000
112.075700 1052286.200000
130.086400 136247.200000

>ms2peaks
53.002300 25096.700000
53.997500 3674.100000
55.054300 5370.900000
56.049500 26334.600000
57.069900 5105.000000
67.041700 2081.600000
67.054200 21730.500000
68.049400 6254.300000
69.033500 778494.700000
69.069800 42018.500000
70.065100 2098.100000
71.049100 7666.200000
72.044300 2650.800000
82.065100 43714.500000
84.080800 231274.600000
86.060100 5028.300000
94.065200 13028.700000
95.049100 1864.700000
112.075700 477690.300000
130.086300 26020.400000

>ms2peaks
53.002200 35482.600000
53.997500 5165.700000
55.054300 5498.100000
56.049500 39237.700000
57.069900 6440.500000
67.041700 3798.600000
67.054200 20448.000000
68.049400 7039.100000
69.033400 675267.600000
71.049000 4882.000000
82.065100 36738.900000
84.080800 148643.500000
86.060000 4637.000000
94.065100 7352.100000
112.075700 182507.200000
130.086400 3728.900000

