>compound LU12446134
>parentmass 233.0243
>ionization [M+H]+
>formula C9H10Cl2N2O
>rt 1009.140000
>profile orbitrap
#smiles_iso CN(C)C(=O)NC1=CC(=C(C=C1)Cl)Cl
#smiles_can CN(C)C(=O)NC1=CC(=C(C=C1)Cl)Cl
#inchikey XMTQQYYKAHVGBJ-UHFFFAOYSA-N
#pubchem_id 3120
#mb_accession LU120001,LU120002,LU120003,LU120004,LU120005,LU120006

>ms2peaks
72.044400 1424862.400000
160.979900 4947.200000
187.966600 9647.000000
233.024300 2797700.200000

>ms2peaks
56.013200 2751.900000
72.044400 2613294.000000
159.971800 9724.400000
160.979400 2777.400000
173.022300 4741.900000
187.966400 29583.300000
233.024400 1090052.800000

>ms2peaks
56.013200 11496.000000
72.044400 2716580.500000
159.006800 4651.900000
159.971600 69446.900000
173.022700 4071.400000
187.966500 41237.900000
233.024600 64487.500000

>ms2peaks
56.013100 27764.200000
72.044300 2998444.000000
125.002800 3540.500000
132.960500 9878.400000
151.032400 4054.100000
152.997600 7884.900000
159.007000 5458.200000
159.971500 175900.300000
187.966500 19356.200000

>ms2peaks
56.013100 39635.700000
72.044300 3000805.500000
123.995100 6235.600000
125.002700 24895.200000
132.960700 50900.200000
151.032600 3324.800000
152.997600 11526.000000
159.007000 5310.700000
159.971500 183121.400000
172.966900 9021.800000
187.966600 3839.300000

>ms2peaks
56.013100 60594.400000
72.044300 2157712.800000
123.994800 9723.800000
125.002700 46923.400000
132.960600 99506.200000
152.997400 9488.300000
159.971500 86056.500000
172.966900 11230.900000

