>compound LU12329701
>parentmass 250.1186
>ionization [M+H]+
>formula C12H15N3O3
>rt 1063.740000
>profile orbitrap
#smiles_iso C=CCOC1=NC(=NC(=N1)OCC=C)OCC=C
#smiles_can C=CCOC1=NC(=NC(=N1)OCC=C)OCC=C
#inchikey BJELTSYBAHKXRW-UHFFFAOYSA-N
#pubchem_id 7555
#mb_accession LU040701,LU040702,LU040703,LU040704,LU040705,LU040706

>ms2
53.002200 22841.700000
53.038600 8403.000000
55.054200 8839.900000
56.013200 4927.500000
58.065100 46025.400000
69.992500 6503.100000
79.054200 203865.000000
81.069900 1858875.400000
82.028700 52751.300000
84.044400 97418.200000
87.018900 158806.700000
96.044300 3932.400000
96.080800 11405.800000
99.019000 34904.300000
124.075900 19254.900000
125.034600 19998.600000
127.050200 140913.300000
130.024700 131692.800000
139.050200 13940.400000
142.024800 8651.000000
165.065600 3959.700000
170.056000 808098.900000
196.071700 7078.500000
208.071700 113636.400000
250.118600 290714.500000

>ms2
53.002200 46362.100000
53.038600 22852.700000
53.997500 11105.400000
55.054300 10829.800000
56.013100 19990.400000
56.049500 4568.600000
58.065200 52016.800000
65.038600 11116.800000
66.046500 3411.200000
68.049400 8502.200000
69.992200 18490.200000
70.028500 3847.700000
70.065000 3563.900000
79.054200 387700.400000
81.069900 1533621.000000
82.028700 86375.500000
84.044400 172467.500000
87.018900 222802.400000
95.049200 2778.700000
96.044400 8187.500000
96.080800 21823.200000
99.018900 69764.500000
105.045000 2393.400000
124.075800 16417.000000
125.034600 27318.500000
127.050300 169749.700000
130.024800 136855.600000
139.050200 12624.500000
142.025000 6904.700000
165.066100 6240.400000
170.056100 307867.500000
196.071800 4091.900000
208.071700 45715.100000
250.118600 45684.200000

>ms2
53.002200 69615.000000
53.038600 59358.600000
53.997400 10625.200000
54.033800 6229.100000
55.017800 2806.000000
55.054200 10897.700000
56.013100 60659.300000
56.049500 10142.600000
58.065100 34984.200000
65.038500 16488.600000
66.046400 9122.400000
67.054300 3849.600000
67.989200 3516.200000
68.049400 10070.000000
69.992300 59976.600000
70.028800 3329.900000
70.064900 4165.500000
79.054200 521967.300000
81.069900 921065.200000
82.028800 123917.200000
84.044400 179375.600000
87.018900 154728.700000
95.049300 11235.100000
96.044500 7914.900000
96.080900 16950.500000
99.018900 46129.800000
105.044800 4704.600000
124.076000 5937.300000
125.034900 9409.600000
127.050300 72964.900000
130.024800 52097.900000
139.050600 5543.400000
142.025000 6554.100000
170.056000 40796.500000

>ms2
51.022900 3090.000000
53.002200 94587.100000
53.038600 94592.100000
53.997500 15104.900000
54.033800 12481.700000
55.054300 11124.100000
56.013100 101589.200000
56.049500 12941.800000
58.065100 27570.400000
65.038600 20207.600000
66.046400 12723.200000
67.989200 3779.500000
68.049400 11878.800000
69.992300 107959.800000
79.054200 523213.200000
81.069900 489541.200000
82.028700 93656.600000
84.044400 105714.600000
87.018900 96692.500000
95.049200 19376.900000
96.044300 4223.100000
96.080800 8489.400000
99.018800 18247.900000
105.044900 8680.600000
127.050200 12408.400000
130.024900 10827.800000
170.056800 3446.900000

>ms2
51.023000 4153.100000
53.002200 96318.600000
53.038600 107659.400000
53.997400 15801.200000
54.033900 24168.100000
55.017900 3122.900000
55.054300 12208.500000
56.013100 102006.600000
56.049500 8949.200000
58.065100 15320.700000
65.038600 24440.000000
66.046400 17087.900000
67.054300 2733.800000
68.049400 5967.600000
68.997100 3015.200000
69.992400 138914.600000
77.038500 4145.200000
79.054300 363432.900000
81.069900 199498.000000
82.028800 51824.800000
84.044500 36061.400000
87.019000 47770.400000
95.049200 35484.500000
96.044500 4578.000000
99.019000 7435.900000
105.045000 10805.100000

>ms2
51.023100 5390.400000
53.002300 109398.500000
53.038600 106336.900000
53.997500 21025.800000
54.033900 31351.600000
55.017800 4209.300000
55.054200 15956.600000
56.013100 108574.400000
58.065200 8781.900000
65.038600 18745.400000
66.046400 24384.700000
67.989400 3980.400000
68.997200 5470.700000
69.992400 137000.500000
77.038600 3837.200000
79.054300 254517.600000
81.069900 86680.000000
82.028700 26917.400000
84.044500 15061.100000
87.019000 21111.100000
95.049200 47543.500000
105.044800 19388.800000

