>compound LU13494097
>parentmass 215.0961
>ionization [M+H]+
>formula C8H14N4OS
>rt 917.700000
>profile orbitrap
#smiles_iso CC(C)(C)C1=NN=C(N(C1=O)N)SC
#smiles_can CC(C)(C)C1=NN=C(N(C1=O)N)SC
#inchikey FOXFZRUHNHCZPX-UHFFFAOYSA-N
#pubchem_id 30479
#mb_accession LU064401,LU064402,LU064403,LU064404,LU064405,LU064406

>ms2
57.069800 42040.300000
74.006000 13788.200000
82.065100 20900.100000
84.080800 55460.600000
89.016700 35990.400000
89.041900 10151.500000
97.064800 23508.600000
114.995900 45606.400000
130.068400 21075.200000
131.027300 40159.600000
145.054100 27271.600000
167.092700 17505.700000
171.058500 11322.700000
186.082000 63214.400000
187.101100 342250.000000
200.072800 13573.800000
215.095900 9676209.000000

>ms2
57.069900 99578.400000
58.040000 30232.600000
61.010600 7371.900000
62.005900 19141.900000
69.069800 10262.400000
74.005700 29881.800000
76.021500 24772.100000
79.021200 20595.100000
79.054100 18131.000000
82.065100 49576.300000
83.023900 15377.700000
84.080800 167722.700000
86.989900 9783.200000
87.001200 27378.700000
88.009000 7591.900000
89.016800 98744.200000
89.042000 24568.600000
94.065100 9858.900000
97.064800 77257.400000
99.091700 22170.600000
104.027700 31540.400000
110.060100 15635.300000
111.067900 7396.200000
112.075700 9810.300000
114.996100 104453.400000
130.068600 41832.100000
131.027400 75395.600000
131.038600 17190.900000
132.022600 9239.300000
139.086700 8610.600000
140.105600 10848.600000
145.054200 68308.000000
155.063800 9307.600000
157.043100 8997.900000
167.092700 33281.200000
169.108400 7282.200000
171.058600 36789.600000
172.066500 8650.600000
183.046000 10684.500000
186.082200 137143.400000
187.101200 982772.400000
198.070000 8230.200000
200.072700 21398.900000
215.096000 7248463.500000

>ms2
53.002300 4161.600000
55.054200 7252.300000
56.049400 4513.000000
57.069900 267333.300000
58.040000 310672.200000
58.995000 4437.600000
59.966500 2304.500000
59.990200 31733.500000
60.998100 8442.300000
61.010700 30928.900000
62.005900 157943.400000
65.038600 4347.900000
67.041600 5175.700000
67.054200 12766.300000
68.049400 10298.500000
69.008300 27832.700000
69.069900 73605.800000
70.039900 9301.800000
70.065100 6938.400000
74.005800 148441.700000
74.989800 4788.900000
75.013600 3450.800000
76.021500 73836.500000
79.021200 40168.800000
79.054300 28393.500000
80.049500 4172.200000
82.065100 149453.200000
83.024000 25594.800000
83.060300 2415.800000
83.072800 4021.400000
84.080800 630978.400000
85.088500 8135.100000
86.096400 6662.800000
86.990000 15357.400000
87.001200 84198.600000
88.009000 17174.000000
89.016800 230456.000000
89.041900 66741.300000
94.065100 15972.600000
95.049100 6462.000000
95.060500 3887.300000
95.073000 3296.600000
97.064800 194343.200000
97.076000 12281.300000
98.058900 5574.300000
99.091700 53679.200000
103.057700 6221.700000
104.027700 115315.600000
108.068200 22642.900000
109.076000 16024.100000
110.060000 43847.600000
110.083800 3202.000000
111.067800 21098.700000
111.091600 8504.500000
112.075700 28769.600000
114.037200 5254.100000
114.996100 176899.500000
123.079200 9520.500000
124.087000 13161.000000
125.071000 7978.500000
125.082200 10877.700000
126.066300 5646.500000
126.102400 5575.500000
127.086600 23389.900000
129.048100 8892.500000
130.030800 3429.100000
130.068500 45794.200000
131.027400 64826.100000
131.038600 209626.200000
132.022500 12045.500000
136.050900 5797.800000
139.086600 20372.900000
139.097700 11703.000000
140.040300 9551.700000
140.105500 22874.200000
143.063700 15036.900000
144.035000 6886.100000
145.054200 206721.000000
150.066000 8224.300000
152.081800 5195.100000
153.077000 24339.900000
153.089800 5119.600000
154.084900 5747.700000
154.097400 9099.600000
155.051400 26696.800000
155.063700 30477.300000
156.059200 5701.300000
157.042900 27235.300000
159.033500 9933.600000
167.092900 35630.400000
169.108200 5644.900000
170.074400 7498.200000
171.058600 139655.600000
171.082500 8479.700000
172.066100 11385.500000
172.077600 30221.400000
183.046300 27815.100000
184.054000 44955.900000
185.074300 4001.500000
186.082200 187074.400000
187.101200 2132976.800000
198.069800 6379.700000
200.072900 24833.400000
215.096100 2195200.800000

>ms2
53.002200 10316.100000
53.038600 3400.800000
55.029100 2902.700000
55.054200 12044.700000
56.049500 10051.500000
57.069900 372705.200000
58.040000 543611.400000
58.995000 8175.100000
59.024000 2973.700000
59.966500 7828.700000
59.990200 136112.300000
60.998100 30269.000000
61.010600 28774.700000
62.005900 308424.900000
65.038600 18623.100000
67.041600 33619.000000
67.054200 24696.100000
68.024200 2083.000000
68.049400 26793.800000
69.008300 36828.400000
69.069800 126419.800000
70.039700 10150.000000
70.065100 17086.500000
72.998200 2751.200000
73.076000 3649.200000
74.005900 362335.200000
74.990000 6999.100000
75.001200 5168.600000
75.013800 6889.200000
76.021500 69972.500000
77.016800 4745.800000
79.021200 54492.000000
79.054200 14851.900000
80.049500 14721.000000
81.057400 6746.100000
82.065100 131528.600000
83.024000 14785.200000
83.049000 7133.500000
83.060400 7110.400000
83.073000 8132.000000
84.080800 674299.800000
85.088500 11306.200000
86.096500 6409.000000
86.990200 4178.800000
87.001200 70326.200000
88.009000 20847.800000
89.016800 172940.500000
89.041900 24105.600000
92.049400 5721.400000
94.065300 10738.700000
95.049200 8294.400000
95.060400 7954.400000
95.072800 4882.300000
96.044500 8270.200000
96.068300 3121.900000
97.064800 128023.800000
98.058600 4018.500000
99.066600 4523.700000
99.091700 45135.100000
104.027700 85569.700000
105.044900 2890.600000
107.060300 2605.200000
108.068100 39792.100000
109.063800 2779.600000
109.076100 24275.800000
110.060000 37715.400000
110.084000 4526.600000
111.055600 3811.400000
111.067800 13264.300000
111.091600 10328.500000
112.075800 15832.600000
114.037300 9846.600000
114.996100 92333.400000
115.045100 6616.600000
116.004100 3300.100000
116.015100 3666.800000
123.055400 7452.900000
123.079200 9630.200000
124.086800 13688.000000
125.071100 7753.000000
125.082100 16888.900000
126.066500 5194.800000
126.102700 4380.600000
127.086600 14324.000000
128.028100 2811.500000
129.048200 3796.500000
130.030900 15472.200000
130.068500 11310.800000
131.038600 325088.500000
136.050600 6663.300000
138.066300 3641.300000
139.032600 2776.700000
139.086700 8770.000000
139.098000 8778.500000
140.040300 21443.600000
140.105900 9478.500000
143.063900 15061.400000
144.035200 7224.800000
145.054300 139010.000000
150.066500 7081.200000
152.082000 5926.600000
153.077100 26723.000000
153.089800 3182.400000
154.043400 5670.300000
154.084900 4533.300000
154.097500 4638.400000
155.051400 20290.600000
155.063700 20619.100000
156.059000 36299.200000
157.042900 17028.400000
159.033700 8714.200000
167.092800 5089.600000
170.074900 5803.700000
171.058700 154660.300000
171.082600 8663.000000
172.068700 3960.900000
172.077600 37630.000000
182.038500 6138.600000
183.046200 22185.000000
184.054000 91930.300000
185.074200 2958.400000
186.082300 36565.900000
187.101200 866119.500000
200.072600 9468.400000
215.096200 227725.700000

>ms2
53.002300 16414.200000
53.038600 5920.500000
53.997400 2302.500000
55.029100 4842.200000
55.054300 17484.800000
56.049500 7981.400000
57.069900 405183.000000
58.040000 532608.300000
58.982500 2173.700000
58.995000 8667.500000
59.024000 4115.800000
59.990300 270884.000000
60.998100 41003.400000
61.010700 24272.900000
62.005900 324266.500000
63.013700 2194.700000
63.997800 4534.700000
65.038600 22774.200000
67.041700 48306.600000
67.054200 28975.500000
68.024300 5232.800000
68.049500 57161.200000
69.008400 32613.500000
69.057400 6481.000000
69.069900 106501.600000
70.039900 7612.900000
70.065100 20731.100000
73.076000 3317.000000
74.005900 507240.100000
74.989900 7992.900000
75.001100 4591.600000
75.013700 4396.200000
76.021500 27954.800000
77.016800 2938.000000
79.021200 52936.100000
79.054300 5428.800000
80.049500 18126.400000
81.057400 11763.300000
82.041400 4005.400000
82.065200 74700.400000
83.024100 6402.900000
83.049200 12697.200000
83.060400 6642.800000
83.073100 3922.800000
84.080800 402520.600000
85.088600 6036.500000
86.096400 2734.900000
86.989900 3834.700000
87.001200 45721.000000
88.009000 22505.700000
89.016800 106911.200000
89.042000 7117.900000
92.049400 7142.300000
94.065100 6862.100000
95.049100 4811.900000
95.060500 15344.200000
95.072900 2108.600000
96.044500 12465.400000
96.068200 4106.300000
97.064800 35867.700000
97.076300 2379.200000
98.059200 2542.300000
99.066500 3458.300000
99.091700 19451.200000
101.017000 2423.600000
104.027700 20444.300000
104.049500 4420.200000
107.060500 3985.500000
108.068200 24711.000000
109.063500 4203.000000
109.076100 15182.600000
110.060200 12519.200000
110.083800 2889.900000
111.055300 2800.100000
111.067800 2638.100000
111.091700 3358.000000
112.075900 3457.000000
114.037200 10621.100000
114.996100 37245.700000
115.020100 4058.300000
115.045100 2131.700000
116.004200 3179.900000
116.015200 7688.200000
122.071100 3240.000000
123.055400 7550.800000
123.079100 6343.300000
124.063300 3888.200000
124.086900 6644.000000
125.071100 7706.700000
125.082100 14479.900000
126.102400 3447.300000
127.086600 5743.900000
130.030900 22883.900000
131.038700 169530.000000
136.050600 3936.900000
137.058300 4331.800000
138.066100 3129.100000
139.032400 6298.700000
139.097900 6323.800000
140.040400 20287.700000
143.064100 12019.700000
144.035300 2724.000000
145.054300 49748.200000
150.065900 4784.200000
153.077200 12799.900000
154.043500 6255.000000
154.084800 2709.800000
155.051300 5875.900000
155.063400 10628.900000
156.059000 48723.500000
157.043200 9031.200000
159.033800 2556.200000
170.075000 4541.300000
171.058800 77452.800000
171.082300 4674.300000
172.077900 13530.600000
183.046700 4924.800000
184.054000 49722.100000
186.082500 4315.000000
187.101300 145131.000000
215.096200 8609.100000

>ms2
53.002200 22648.600000
53.038600 7426.900000
53.997400 2407.700000
55.029100 8475.100000
55.054200 16688.600000
56.049500 12283.100000
57.069900 378021.700000
58.040000 426255.700000
58.982300 3360.000000
58.995100 6836.600000
59.024000 2787.900000
59.990300 438543.800000
60.998100 42751.000000
61.010700 24286.800000
62.005900 280123.200000
63.013800 2915.300000
63.997700 10718.000000
65.038500 28536.500000
67.041600 55175.500000
67.054200 29686.300000
68.024300 5806.200000
68.049500 95175.500000
69.008300 31877.200000
69.057300 6824.900000
69.069900 68749.000000
70.039900 8057.300000
70.065100 25850.900000
72.998000 2809.900000
74.005900 541150.200000
74.990000 5311.900000
75.001100 4851.000000
75.013800 2779.400000
76.021500 11656.100000
77.016800 3436.200000
79.021200 39594.100000
80.049500 25614.900000
81.057400 14551.200000
82.041300 2665.900000
82.065100 40234.700000
83.049100 13788.800000
83.060400 8737.300000
83.073000 2722.500000
84.080800 213417.000000
85.088600 3530.400000
86.990000 2405.100000
87.001200 25986.600000
88.009000 17339.500000
89.016800 74888.800000
92.049500 5630.400000
94.065200 7731.300000
95.049300 5244.500000
95.060400 19815.000000
96.044500 13995.900000
96.068400 3444.600000
97.064900 12353.100000
97.075900 3138.500000
99.066700 2860.600000
99.091700 6026.300000
101.016800 2243.400000
104.027600 4188.900000
104.049500 7636.800000
105.044800 3207.900000
107.060300 4851.900000
108.068200 13431.700000
109.063500 2250.100000
109.076000 10033.200000
110.060200 8311.000000
111.055300 3792.800000
111.091800 2272.500000
114.037200 11562.100000
114.996000 9727.100000
115.019900 3357.000000
116.015200 11781.200000
122.071400 2914.800000
123.055300 8327.500000
123.079300 4283.900000
124.063200 5387.000000
125.071400 2361.400000
125.082300 9067.000000
128.027500 2762.900000
130.030800 19263.900000
131.038600 50282.300000
137.058300 2582.700000
139.032600 5509.500000
140.040300 11527.800000
143.063900 5544.800000
145.054200 14082.100000
153.077100 5377.500000
154.043400 5122.000000
155.051300 3569.600000
155.063800 4249.200000
156.059000 50033.400000
157.043100 5102.100000
171.058700 21645.500000
172.078000 4828.200000
182.038100 2920.000000
184.053900 12074.800000
187.101600 11308.600000

