>compound LU13225704
>parentmass 222.0316
>ionization [M+H]+
>formula C11H8ClNO2
>rt 791.160000
>profile orbitrap
#smiles_iso CC1=CC2=C(C(=C(C=C2)Cl)C(=O)O)N=C1
#smiles_can CC1=CC2=C(C(=C(C=C2)Cl)C(=O)O)N=C1
#inchikey ALZOLUNSQWINIR-UHFFFAOYSA-N
#pubchem_id 91749
#mb_accession LU024001,LU024002,LU024003,LU024004,LU024005,LU024006

>ms2
77.038900 15662.100000
87.994800 2400.400000
92.049700 7863.300000
94.065200 3481.500000
104.049400 22349.800000
146.011400 3063.000000
204.021200 1442579.600000

>ms2
65.038700 3114.900000
77.038800 13187.400000
92.049400 27645.400000
94.065100 21409.600000
95.049000 3309.000000
104.049500 109852.900000
146.011400 6172.400000
149.015200 3065.800000
193.029200 6919.100000
204.021200 2278231.200000

>ms2
51.023100 3169.000000
53.038600 38035.100000
63.022600 2130.800000
63.994800 19301.600000
65.038600 55570.900000
75.994800 16633.200000
77.038700 30353.700000
81.033700 2673.900000
87.994800 19024.800000
91.005800 8230.600000
92.049500 654555.300000
93.057400 19551.600000
94.065100 269456.700000
95.049100 113791.400000
101.974200 8831.500000
103.005800 5013.100000
103.054400 4351.800000
104.049500 1366165.200000
106.065400 3356.900000
111.044000 3594.300000
116.049100 3411.200000
116.997600 3366.000000
119.000900 10528.400000
120.044400 9914.400000
130.065000 19810.700000
132.044400 14763.000000
140.049700 10086.100000
141.057200 12317.600000
146.011600 128994.700000
149.015200 35420.600000
150.011000 11633.800000
152.026200 3811.100000
158.060000 4727.200000
159.067500 5227.600000
166.005300 5877.100000
176.026400 24693.600000
178.005600 9733.200000
193.029000 99071.800000
194.036800 47476.300000
204.021200 1643170.600000

>ms2
50.015000 2598.000000
51.023100 3443.000000
53.038600 115796.500000
55.017900 6579.000000
63.994800 35591.000000
65.038500 364631.400000
67.054200 3219.800000
73.979100 5650.100000
74.023600 7494.800000
75.994800 38498.900000
77.038400 44709.400000
81.033500 9745.300000
87.994800 64818.300000
91.005800 6699.500000
92.049400 1332098.100000
93.057300 71482.700000
94.065100 360245.500000
95.049100 351495.100000
101.974000 25789.000000
103.005700 6821.000000
103.054100 11450.300000
104.049400 1511678.000000
106.065100 5780.300000
110.060100 4614.700000
111.044000 6113.900000
115.054200 4571.100000
116.049400 7142.100000
116.997400 14844.000000
117.057200 6165.500000
119.000800 15474.500000
120.044200 13766.900000
122.999800 3600.900000
125.015300 5584.200000
130.065000 47659.800000
132.044300 41049.100000
133.052100 4663.200000
134.059800 3108.800000
140.049400 151224.300000
141.057200 324076.600000
144.055500 3719.400000
146.011500 271264.700000
149.015200 254366.500000
150.010500 34396.900000
152.026300 3836.400000
158.059900 23775.700000
159.067500 5788.800000
166.005600 5684.600000
176.026100 279932.500000
178.005300 8542.400000
193.028900 134446.800000
194.036700 372314.800000
204.021100 1665905.500000
222.031900 621373.400000

>ms2
50.015100 4219.500000
51.022900 4952.300000
52.018200 5389.600000
53.038600 259399.300000
54.033900 6692.400000
55.017900 16903.500000
56.013100 5470.700000
62.963100 4799.200000
63.994800 82928.100000
65.038500 1183338.500000
66.046400 6068.600000
67.054100 10082.100000
68.013200 3477.900000
68.997000 3248.900000
73.979100 24828.000000
74.023500 5944.100000
74.987100 7958.800000
75.994800 57625.200000
77.038500 116230.700000
79.054200 3740.900000
80.049300 4712.800000
81.033500 26573.900000
87.994800 206880.200000
89.038600 6659.300000
90.046400 11703.200000
91.005800 3679.300000
91.054100 2868.000000
92.049500 1634947.000000
93.057300 174832.600000
94.041400 21754.300000
94.065100 325838.500000
95.049100 829836.100000
101.974100 38759.800000
102.046500 11984.400000
103.005900 6716.100000
103.054300 18999.300000
104.049500 1092092.400000
106.064900 4484.600000
109.065000 6827.300000
110.060100 5437.100000
111.044000 6863.800000
113.038500 6041.800000
114.033900 10640.400000
114.046500 6373.600000
115.054200 13682.600000
116.049600 9722.900000
116.997500 34439.500000
117.057300 9356.100000
119.000800 10370.800000
120.044400 13396.100000
122.999600 10600.800000
125.015400 10853.800000
130.065100 106603.600000
132.044400 54129.100000
132.056900 11196.800000
133.052200 6597.200000
134.060100 3645.600000
140.049500 506110.700000
141.057300 1116387.900000
144.055700 3310.800000
146.011600 359158.700000
149.015300 690983.800000
150.010400 68124.700000
158.060100 37094.900000
159.067800 5027.400000
166.005500 4147.100000
168.021700 3860.300000
175.018500 8702.700000
176.026200 367462.300000
178.005200 8509.700000
193.028900 96341.100000
194.036700 348744.300000
204.021100 567002.400000
222.031600 216878.600000

>ms2
50.015100 5312.300000
51.023000 9520.900000
52.018300 10574.700000
53.038600 311026.600000
54.033900 13392.200000
55.017900 17440.600000
56.013100 5138.100000
62.963200 11458.600000
63.022900 4503.900000
63.994900 86874.400000
65.038600 1684431.900000
66.046400 23197.900000
67.054200 13431.500000
68.013100 5460.700000
68.997100 3740.800000
73.979200 47695.500000
74.987100 17627.500000
75.994800 71369.700000
77.038500 198072.600000
79.054400 4723.000000
80.049400 5451.500000
81.033500 29285.500000
87.994900 278348.400000
89.038600 25863.300000
90.046400 59654.000000
91.054200 3533.700000
92.049500 953467.900000
93.057300 228176.400000
94.041400 22854.900000
94.065200 172449.900000
95.049200 969648.100000
101.974200 35925.000000
102.046400 25218.300000
103.005800 4902.600000
103.054300 24987.800000
104.049500 427786.600000
106.065100 5496.700000
109.064900 8066.500000
110.060300 2949.000000
111.044000 4451.500000
113.038500 42211.800000
114.033800 16969.300000
114.046400 32900.800000
115.054200 18513.500000
116.049400 8813.800000
116.997600 48776.300000
117.057300 14787.300000
119.000900 3149.900000
120.044300 3520.300000
122.999600 29382.300000
125.015200 8185.500000
130.065200 100514.600000
132.044700 36625.300000
132.057000 69663.600000
133.052300 9815.800000
140.049500 861096.100000
141.057300 1559985.900000
146.011600 281937.700000
149.015300 1003288.600000
150.010500 70919.300000
158.060000 23191.800000
168.020900 5026.800000
175.018300 10403.000000
176.026200 178948.700000
193.029000 27737.000000
194.036700 117812.600000
204.021200 115039.800000
222.031600 40866.100000

