>compound LU13425072
>parentmass 181.043
>ionization [M+H]+
>formula C8H8N2OS
>rt 669.660000
>profile orbitrap
#smiles_iso COC1=CC2=C(C=C1)N=C(S2)N
#smiles_can COC1=CC2=C(C=C1)N=C(S2)N
#inchikey KZHGPDSVHSDCMX-UHFFFAOYSA-N
#pubchem_id 15630
#mb_accession LU136801,LU136802,LU136803,LU136804,LU136805,LU136806

>ms2
150.024700 21765.300000
152.027800 36190.000000
166.019700 410837.200000
181.043000 20621630.000000

>ms2
69.044600 27336.700000
150.024800 24979.300000
152.028400 25316.700000
154.032600 16974.300000
166.019600 520349.100000
181.042900 16541315.000000

>ms2
69.044700 24003.400000
108.055500 31696.700000
122.060000 81155.700000
138.024500 137963.700000
139.021200 147561.600000
148.063100 36517.600000
149.016700 30215.000000
150.024600 214700.400000
153.048200 15062.400000
154.032000 132946.800000
166.019500 4840213.000000
181.042800 14296029.000000

>ms2
59.990400 18605.400000
67.041600 11281.300000
69.044600 27857.800000
81.044700 12879.600000
81.057500 11005.400000
93.057300 30838.600000
94.065200 34707.200000
95.049200 72214.100000
96.002800 37367.400000
107.036600 21862.900000
108.044400 12832.100000
108.055600 33662.900000
110.060000 29171.700000
111.013800 62093.700000
111.026300 31291.700000
122.005900 34973.400000
122.060100 120448.100000
123.997800 66154.900000
133.039500 12057.200000
138.024600 1601797.100000
139.008600 22221.800000
139.021200 297760.700000
148.063100 96675.800000
149.016800 69675.300000
150.024700 448543.500000
153.048100 17698.600000
154.032200 221246.300000
166.019500 10488743.000000
180.035400 17375.500000
181.043000 6555205.500000

>ms2
59.990400 21997.700000
65.038600 33414.400000
67.041600 42437.300000
67.054300 22139.700000
69.044800 20458.700000
69.057300 11978.900000
79.041600 46587.700000
80.049400 29322.100000
81.057200 11523.900000
83.990300 10790.000000
93.057400 51697.100000
94.065100 33978.300000
95.049200 220405.300000
96.002800 256624.600000
97.052300 33261.000000
98.006000 12723.700000
105.044700 45187.900000
107.036600 46144.100000
108.044300 30697.700000
108.055600 17878.400000
109.010700 15933.000000
110.005900 44356.800000
110.060100 71018.700000
111.013800 580528.600000
111.026200 38716.800000
120.998100 26706.100000
122.005900 57608.700000
122.060100 110388.500000
123.013600 40616.000000
123.067800 12883.200000
123.997800 138047.800000
126.037300 13523.300000
133.039700 84849.400000
137.016900 41015.000000
138.024600 5950850.500000
139.008600 87999.500000
139.021200 266533.500000
148.063100 114501.700000
149.016800 62161.900000
150.024700 537022.500000
151.032200 10808.000000
152.016600 13869.000000
154.032200 170142.300000
165.012100 41179.400000
166.019600 10439834.000000
180.035000 19001.200000
181.043000 1917276.900000

>ms2
52.030800 12370.500000
53.038600 11644.200000
54.033800 19449.800000
59.990000 35755.200000
65.038500 55756.100000
67.041600 210269.400000
67.054100 39561.200000
68.049500 9178.400000
68.979300 12370.100000
69.044700 24324.900000
69.057200 13416.100000
69.987100 39879.200000
70.994900 12805.600000
78.033700 8809.400000
79.021100 8830.700000
79.041600 116207.700000
80.049400 88272.900000
81.044800 13392.000000
81.057300 10110.400000
84.002700 43634.800000
93.057200 44931.100000
94.065000 18698.600000
95.049100 257014.700000
96.002800 795088.100000
97.052200 75315.100000
98.005800 10219.300000
105.044700 117154.500000
107.036500 56034.700000
108.044400 28495.400000
109.010700 19037.700000
110.005900 219313.400000
110.060100 100676.900000
111.013700 1902634.600000
120.998100 89345.400000
122.005900 73220.700000
122.060000 54876.600000
123.013700 95785.900000
123.997700 132578.300000
124.021600 8977.100000
133.039600 115757.400000
137.016900 118041.400000
138.024500 7972459.000000
139.008400 118232.400000
139.021000 111963.900000
148.063100 63811.900000
148.992900 28965.400000
149.016800 36077.100000
150.024600 364862.200000
151.032200 8801.500000
152.016300 8135.200000
154.032100 62472.600000
165.011600 63907.300000
166.019400 4995953.500000
181.042900 364957.200000

