>compound LU13048837
>parentmass 604.1764
>ionization [M+H]+
>formula C33H31Cl2N3O4
>rt 1111.500000
>profile orbitrap
#smiles_iso CCN(CC1=CN=CC=C1)C(=O)C2=C(C(=CC=C2)Cl)[C@]3(C4=C(C=CC(=C4)Cl)N(C3=O)CC5=C(C=C(C=C5)OC)OC)C
#smiles_can CCN(CC1=CN=CC=C1)C(=O)C2=C(C(=CC=C2)Cl)C3(C4=C(C=CC(=C4)Cl)N(C3=O)CC5=C(C=C(C=C5)OC)OC)C
#inchikey UNYCSANQWMNNCS-MGBGTMOVSA-N
#pubchem_id 53316385
#mb_accession LU022301,LU022302,LU022303,LU022304,LU022305,LU022306

>ms2peaks
121.064700 5085.000000
151.075400 4143077.200000
466.108700 1471088.800000
604.176800 4591430.000000

>ms2peaks
91.054100 30963.300000
92.049400 16746.400000
94.065100 164825.500000
121.064700 188837.800000
136.051800 11200.200000
139.075300 97412.000000
149.070800 17206.900000
151.075200 9343466.000000
266.036600 110405.500000
302.013200 26712.300000
320.024000 9871.500000
329.061400 11165.000000
332.023800 328957.500000
350.034100 64293.700000
364.050200 87285.100000
402.136800 159995.700000
438.113400 913254.300000
466.108400 1937482.400000

>ms2peaks
53.038600 20491.600000
65.038500 42943.400000
67.054200 20134.200000
77.038600 8527.800000
78.046300 27513.800000
91.054200 299978.900000
92.049400 310506.500000
93.057200 31087.200000
93.069900 16791.600000
94.065100 927902.900000
95.049100 60526.800000
105.044600 28492.700000
106.041100 25150.900000
107.060500 10276.900000
108.057000 8588.000000
110.060200 9784.100000
119.049100 38054.600000
121.064700 1575746.500000
123.080300 37652.200000
130.065200 10367.100000
135.091600 58733.800000
136.051900 28249.600000
136.099600 13274.000000
137.059800 15530.400000
138.067500 13446.000000
138.994500 65368.300000
139.075300 649556.400000
149.071000 150501.800000
151.075200 7755138.500000
164.026000 196541.500000
230.059600 19381.700000
232.075200 10085.600000
235.062700 9452.100000
238.041600 100398.300000
239.049600 13058.200000
240.057500 12620.700000
242.036700 71227.100000
265.052200 22798.300000
266.036500 731064.500000
268.051900 25307.900000
269.060000 15175.600000
270.031500 100049.200000
271.038900 9287.400000
274.018300 35616.600000
275.117800 16691.100000
289.004900 11094.300000
295.063800 8569.500000
299.997400 38884.800000
302.013200 175822.300000
309.078600 37679.200000
310.086100 18787.900000
311.094400 52679.200000
320.023900 57798.500000
329.061000 42289.000000
332.023900 190690.800000
345.055400 192068.500000
350.034200 36892.800000
357.078500 11382.700000
364.050100 46273.400000
366.159900 28661.300000
402.136700 237726.800000
420.102700 35092.800000
436.097900 93165.800000
438.113500 207249.500000

>ms2peaks
51.022900 4457.900000
52.030900 5441.300000
53.038600 79479.000000
55.017900 21227.300000
65.038500 180627.600000
67.054200 40278.400000
77.038400 30297.300000
78.046400 86583.600000
79.054300 12872.200000
80.049400 3967.000000
81.033500 11711.500000
89.038400 5776.200000
91.054300 1246387.200000
92.049500 469693.200000
93.057400 76449.900000
93.070100 34853.900000
94.065200 737777.800000
95.049200 254106.100000
96.044300 7261.900000
103.054300 17285.800000
105.044800 98412.700000
106.041400 102217.700000
107.049300 6330.400000
107.060500 27765.600000
108.057000 18429.700000
108.080900 4953.100000
109.064800 22736.500000
110.060100 28152.300000
118.065200 11582.800000
119.049200 38325.600000
119.060500 12285.200000
121.064800 3877595.000000
123.080400 55603.600000
129.010300 7420.300000
130.065000 16336.700000
135.091600 35056.200000
136.052000 29636.100000
136.099700 6029.200000
137.059900 23564.500000
138.010400 11066.000000
138.067600 30410.900000
138.994600 81713.200000
139.075400 906227.100000
140.026100 12025.700000
149.071000 165509.100000
151.075400 3310318.000000
153.010000 7102.800000
153.091000 9134.200000
161.047100 8414.800000
164.026200 375731.600000
177.010200 4351.100000
194.036900 39655.100000
202.065100 31715.700000
203.073000 63807.400000
204.080800 67769.500000
205.088900 7356.700000
207.068000 7710.000000
214.042200 4111.000000
225.034000 8309.300000
229.076000 11590.800000
230.060200 34576.200000
235.062800 109431.100000
237.034100 9990.000000
238.041800 295372.100000
239.049700 36082.000000
240.057400 42938.000000
242.036700 145249.800000
248.118600 4276.200000
253.028400 20392.800000
254.036600 8309.800000
263.036700 4837.900000
264.044900 7431.200000
265.052900 41805.200000
266.036800 209421.300000
268.052500 37795.000000
269.060300 12918.400000
270.031600 225228.100000
273.010600 29245.000000
273.054900 14581.300000
274.018700 62574.100000
275.117900 54265.900000
282.031700 10675.800000
295.063500 17131.300000
299.015100 18880.200000
299.997500 28686.500000
302.013200 40403.500000
304.028500 13718.200000
305.000600 85277.000000
309.078400 18633.000000
310.086300 5156.100000
311.094500 47089.400000
320.023800 7312.400000
320.117300 4924.400000
343.039700 8337.500000
345.055900 108043.500000
357.077800 5816.900000
436.097600 7140.800000

>ms2peaks
50.015100 4216.000000
52.030700 7009.000000
53.038600 206473.000000
55.017900 71416.200000
65.038600 510424.900000
67.054200 78807.000000
77.038500 71958.100000
78.046400 315592.500000
79.017800 7701.000000
79.054100 20882.700000
80.049300 14651.600000
81.033500 28896.800000
86.999400 4275.000000
89.038400 15983.600000
91.054200 2784802.800000
92.049500 466154.400000
93.057300 127687.200000
93.069900 52392.300000
94.065100 548125.400000
95.049100 606214.400000
96.044200 15602.700000
103.054300 31934.100000
105.033500 12944.400000
105.044700 233655.000000
106.041300 250397.000000
107.049200 14744.800000
107.060400 35932.000000
108.057000 22147.400000
108.080800 7044.300000
109.064800 39197.500000
110.060100 31992.200000
118.065000 11104.500000
119.049200 23138.700000
119.060200 17454.200000
121.064800 4130268.200000
123.080400 26835.100000
125.015200 9360.700000
128.049500 4672.400000
129.010000 15545.400000
129.057100 5969.300000
130.065000 21354.300000
135.091500 13719.800000
136.051900 16190.000000
137.059800 9245.100000
138.010400 13236.600000
138.067700 16488.000000
138.994300 41677.400000
139.005600 24508.200000
139.075300 478682.500000
140.026000 15965.800000
149.070900 93608.400000
151.075400 913576.200000
161.046900 8676.300000
164.026100 406815.100000
167.072700 5606.500000
190.065200 7805.100000
194.036700 37194.600000
202.065100 66615.200000
203.072900 205937.700000
204.080800 170393.300000
205.089000 20522.700000
206.060000 6590.200000
206.096400 7810.300000
207.067800 10120.100000
219.067600 4317.800000
220.075400 7409.100000
225.034100 25719.600000
230.060000 13004.600000
232.075900 19056.200000
234.091500 18177.500000
235.062800 286036.400000
237.034000 32961.800000
238.041700 314680.200000
239.049400 43830.900000
240.057100 32719.800000
241.064500 6338.100000
242.036500 52793.400000
247.086300 8653.100000
248.118500 5829.500000
253.028300 8610.400000
254.036600 12354.700000
263.036500 9373.100000
265.052600 24929.000000
266.036500 44370.200000
268.052100 12816.100000
270.031700 82437.500000
271.039100 39284.600000
272.002800 12824.400000
273.010400 34837.300000
273.055100 5592.800000
275.117300 32743.500000
282.031600 4357.900000
289.005100 6791.900000
299.015000 14682.200000
299.997200 5833.900000
305.000500 111516.700000
309.078400 9344.600000
317.025000 17533.400000
320.117000 5412.700000
343.040000 8128.400000
345.055800 29487.200000

>ms2peaks
50.015300 5037.000000
51.023000 9357.800000
52.030800 5324.400000
53.038600 297501.300000
55.017800 88700.300000
63.022800 15009.400000
65.038500 1002530.400000
67.054200 95684.900000
77.038500 138365.600000
78.046300 907050.200000
79.017800 10401.500000
79.054100 28528.200000
80.049400 27959.200000
81.033500 36082.000000
81.069800 4438.100000
86.999600 5421.900000
89.038500 33808.600000
91.054200 3624790.200000
92.049400 316366.800000
93.057300 156123.800000
93.069800 51262.900000
94.065100 293847.500000
95.049100 891852.200000
96.044300 21710.100000
103.054200 38690.800000
105.033600 35651.500000
105.044700 357059.500000
106.041300 361779.200000
107.049100 23717.000000
107.060400 29741.300000
108.057100 19200.600000
108.080700 6031.500000
109.064900 24416.000000
110.060000 35421.900000
118.065100 7508.900000
119.048900 6923.100000
119.060500 14435.600000
121.064700 2249623.000000
123.080400 12092.500000
125.015200 12056.400000
128.049400 12485.800000
129.009800 21341.300000
129.057000 5028.000000
130.064900 16615.100000
136.051600 4009.300000
138.010700 4586.300000
138.994600 9583.400000
139.005700 29714.400000
139.075300 110209.300000
140.026100 14400.100000
149.070800 25575.000000
151.075300 152059.100000
159.068000 11026.400000
164.026000 351115.600000
167.072900 3972.000000
176.062100 19032.400000
190.065100 21568.800000
194.036500 14636.500000
201.057000 21011.600000
202.064900 76335.200000
203.072900 328452.300000
204.080700 206947.000000
205.088700 25534.200000
206.059800 4949.200000
206.096300 7622.600000
219.067700 6555.100000
220.075400 17503.400000
224.026600 6405.200000
225.033700 25264.400000
226.041400 6321.300000
229.076000 22476.800000
232.075800 5858.900000
234.091000 6062.900000
235.062600 245676.200000
237.034200 48157.000000
238.041600 278911.300000
239.049500 21742.300000
240.057000 16717.900000
242.036500 5831.200000
247.086300 8612.300000
254.036700 9085.900000
265.052300 12690.600000
268.051600 5213.200000
270.031900 10462.900000
271.038800 35865.300000
272.003100 10768.600000
274.018300 10211.400000
275.117100 6587.900000
293.107200 6159.700000
295.063900 3850.000000
299.013800 8132.900000
305.000200 51490.400000
317.024100 10174.200000

