>compound LU13172416
>parentmass 209.1285
>ionization [M+H]+
>formula C11H16N2O2
>rt 366.000000
>profile orbitrap
#smiles_iso CC1=C(C=CC(=C1)OC(=O)NC)N(C)C
#smiles_can CC1=C(C=CC(=C1)OC(=O)NC)N(C)C
#inchikey IMIDOCRTMDIQIJ-UHFFFAOYSA-N
#pubchem_id 16247
#mb_accession LU066601,LU066602,LU066603,LU066604,LU066605,LU066606

>ms2peaks
137.083500 321643.700000
152.106900 4935039.000000
209.128400 1750497.000000

>ms2peaks
121.064900 4862.400000
136.075700 6159.600000
137.083500 727119.900000
152.107000 4230450.000000
209.128500 525590.800000

>ms2peaks
121.064800 22613.800000
122.060000 14192.600000
136.075800 15066.600000
137.083500 3681529.500000
152.107000 2981549.800000
209.128700 21773.700000

>ms2peaks
120.056900 26368.400000
121.064800 25789.900000
122.060000 159739.300000
136.075800 80063.500000
137.083500 6162521.500000
152.106900 872034.100000

>ms2peaks
91.054300 6651.400000
92.062000 14560.400000
94.065300 9710.100000
108.057000 15216.200000
108.080800 9356.500000
120.057000 94919.400000
120.080800 26934.100000
121.064900 18094.600000
122.060100 808622.400000
136.075900 345051.200000
137.083500 5172865.500000
138.067600 5409.200000
152.107000 138000.400000

>ms2peaks
67.054200 7676.400000
77.038600 3633.200000
79.054200 7753.500000
91.054200 17878.300000
92.062000 31392.100000
93.069900 3473.500000
94.065100 38726.400000
95.049200 21990.300000
107.049100 15049.700000
108.056900 37586.900000
108.080800 21254.800000
109.088600 8992.700000
120.057000 131923.800000
120.080800 43143.900000
121.064700 14995.900000
122.060000 1762146.600000
136.075800 722675.200000
137.083500 2895094.500000
138.067700 11937.300000
152.107000 14187.500000

