>compound LU14217461
>parentmass 304.0459
>ionization [M+H]+
>formula C12H9ClF3N3O
>rt 998.460000
>profile orbitrap
#smiles_iso CNC1=C(C(=O)N(N=C1)C2=CC=CC(=C2)C(F)(F)F)Cl
#smiles_can CNC1=C(C(=O)N(N=C1)C2=CC=CC(=C2)C(F)(F)F)Cl
#inchikey NVGOPFQZYCNLDU-UHFFFAOYSA-N
#pubchem_id 33775
#mb_accession LU020601,LU020602,LU020603,LU020604,LU020605,LU020606

>ms2
284.040100 51555.700000
304.045700 18308176.000000

>ms2
97.039600 23859.900000
160.036600 29818.600000
284.039600 2094250.900000
304.045700 16315040.000000

>ms2
54.033900 20072.200000
58.028700 51816.500000
63.994800 14244.800000
69.044600 104083.600000
70.052500 8699.800000
75.994800 20536.100000
81.044700 45775.100000
82.028800 13479.800000
87.994800 163942.900000
89.002500 36239.100000
90.010400 32014.600000
97.039600 220076.500000
99.994800 24647.900000
102.010400 83598.900000
102.027400 11035.000000
109.039700 7858.200000
115.005700 94694.200000
115.035400 12180.500000
115.989700 106697.800000
116.013500 19386.000000
118.005300 51810.100000
126.028000 14399.400000
130.005300 13695.500000
131.013200 124936.800000
133.016200 13914.400000
133.025900 10546.600000
139.035500 7460.500000
140.030600 176085.300000
142.046100 19139.300000
143.000600 217398.700000
144.008400 105258.700000
145.025800 39837.000000
148.030400 8152.000000
151.035400 22825.700000
156.061300 9388.700000
158.017500 8984.100000
160.036800 713782.900000
161.044700 83551.000000
162.052500 26258.300000
163.036200 13053.400000
164.043200 92969.900000
165.051000 21410.700000
167.005700 15145.700000
167.030300 33124.700000
167.041300 25866.700000
168.025500 63570.500000
172.036600 50974.600000
172.055300 23352.600000
173.032200 59495.300000
173.050900 21880.100000
173.063300 13522.600000
174.052300 42955.000000
178.047500 72400.800000
179.030100 7084.500000
181.032500 6950.300000
185.052500 8287.800000
187.012100 8932.600000
187.047400 23059.400000
188.031600 6998.800000
191.041300 8731.500000
192.062500 155428.700000
193.069700 317909.800000
195.000900 13014.700000
195.011200 8131.200000
199.011900 13350.000000
199.047800 22140.000000
200.062100 10639.300000
201.046100 9092.900000
201.070200 9013.800000
202.053500 7668.900000
206.040700 9928.000000
207.035900 9080.100000
208.032100 8575.100000
213.015100 10441.700000
213.063200 9532.200000
214.071600 6747.700000
216.002300 15347.400000
217.997900 13063.300000
220.056700 16949.600000
220.067700 16488.100000
221.051800 21160.600000
221.064400 9163.500000
223.006700 13544.400000
225.003000 7270.200000
227.042500 7120.700000
228.038300 12914.400000
228.057000 18991.100000
229.064200 7633.800000
233.992300 10028.100000
236.027100 6770.600000
237.022300 29021.500000
241.058400 8339.900000
242.004100 20761.700000
243.013100 23827.900000
245.009100 12313.700000
245.993000 8439.000000
248.063100 41700.300000
249.010200 7991.600000
249.071400 17463.200000
257.028600 71639.900000
259.024700 13138.000000
262.011400 72881.700000
264.033300 443886.800000
268.068800 36425.100000
269.016500 11149.100000
273.003900 25265.000000
275.031800 8772.600000
277.035400 17695.900000
283.031800 82839.300000
284.039500 6484914.000000
304.045700 5084984.500000

>ms2
52.018200 19491.100000
54.033800 103394.700000
55.029000 5285.400000
55.041600 6640.500000
56.013100 11383.200000
58.028700 293480.000000
60.024300 5068.000000
60.983800 12797.700000
61.979200 8849.100000
62.963100 17654.000000
62.999600 8257.400000
63.022900 3745.200000
63.994800 40426.700000
66.033700 9767.100000
67.029000 36003.400000
68.049400 26454.300000
69.044600 397161.500000
70.052400 23728.400000
72.983800 10001.400000
73.979100 4619.900000
74.987000 11467.100000
75.003900 5218.000000
75.994800 62762.600000
78.010500 12740.400000
79.028900 4466.000000
80.036700 19642.200000
80.049400 7281.000000
81.044700 98879.800000
82.028700 30192.000000
83.029100 7832.500000
87.994800 871889.600000
89.002600 183364.000000
90.010500 79385.900000
90.994400 15604.700000
91.041600 26250.200000
93.057200 18099.000000
95.049300 5893.200000
96.024600 4768.400000
96.044200 9650.100000
97.039600 238334.300000
99.994700 107872.000000
101.002700 9752.200000
102.010400 550559.600000
102.027400 103518.200000
103.005700 4600.000000
103.989600 19800.300000
104.048800 3544.500000
107.012400 6042.400000
108.031900 6852.100000
108.044300 6326.900000
109.039600 37635.300000
110.016100 13995.100000
110.040100 16198.500000
111.047700 4256.300000
113.019800 9380.800000
114.027600 8024.300000
115.005700 260772.000000
115.035400 40748.600000
115.989700 290522.800000
116.013500 49133.000000
116.973600 14003.400000
117.056900 6929.400000
118.005300 60940.600000
118.028600 8197.100000
120.024400 6299.600000
122.040000 21390.300000
123.035200 14017.000000
124.050600 4196.300000
126.027500 98037.300000
127.035300 81709.300000
129.044600 4536.300000
130.005400 32019.600000
131.013200 426170.500000
133.016300 11397.800000
133.025800 126667.900000
133.044700 13534.500000
134.039600 5883.500000
135.047700 7452.400000
138.034900 12682.600000
139.035400 88124.500000
140.030500 1112408.100000
141.025700 36968.100000
141.038200 5694.300000
142.016500 5393.800000
142.046300 105016.100000
142.064800 20713.800000
143.000600 294724.400000
143.030100 34612.200000
143.072800 18064.500000
144.008400 101570.600000
145.025900 288189.000000
146.039700 7062.200000
146.052600 27916.400000
147.035000 18881.100000
148.030400 109811.100000
149.015000 12211.300000
150.034800 11756.600000
152.030800 29920.300000
153.044900 10953.600000
153.057000 7561.100000
154.046200 17845.400000
154.065000 17587.400000
155.060100 11838.100000
156.044600 5964.700000
156.061700 41108.700000
156.068200 10153.400000
158.040500 25160.600000
159.019600 11389.100000
159.035200 6376.700000
159.041600 4907.500000
160.027800 93488.900000
160.036700 1484759.500000
161.044600 202552.700000
162.027900 9004.000000
162.052300 45532.800000
163.036000 28484.500000
163.055200 14104.200000
164.043100 438739.600000
165.038600 7605.400000
165.051100 72371.600000
166.046200 37818.800000
167.005800 58614.300000
167.041300 41803.000000
168.001100 25771.500000
168.025400 218248.400000
170.060100 12491.100000
171.036100 6170.500000
171.055500 8171.200000
172.036700 101564.900000
172.055500 106273.100000
173.032100 130086.600000
173.050900 101288.900000
173.063300 38261.300000
173.070900 9384.200000
174.034800 5344.100000
174.052000 97546.900000
174.058800 15029.000000
174.071400 11467.100000
178.047100 202909.200000
179.030000 9662.400000
179.042100 3951.400000
179.053600 7863.100000
180.013400 18867.400000
180.037800 10162.600000
180.054900 8428.400000
180.062600 8095.700000
181.032600 20953.200000
181.063600 8801.500000
182.040800 16254.000000
183.041900 9204.500000
184.036000 4936.200000
185.044600 29143.600000
187.012000 20888.500000
187.047300 33977.300000
188.031900 19745.100000
189.021500 15013.600000
191.041300 26575.500000
192.062200 384123.200000
193.069700 630822.900000
194.041100 17211.000000
194.064900 30030.000000
195.000700 17626.500000
195.011700 31046.100000
196.036500 6416.400000
196.996100 8656.500000
198.052600 9868.100000
199.011900 20122.000000
199.047500 100934.100000
200.007000 9964.200000
200.062000 29949.800000
201.046100 37028.500000
202.054000 38726.600000
205.015800 6770.500000
205.033000 21403.800000
205.057000 8434.100000
206.041100 29517.900000
207.011700 17260.600000
207.036400 32868.800000
208.050400 15078.800000
209.027900 9067.500000
209.057900 12293.600000
210.039800 6771.600000
212.007300 12107.200000
212.067800 12282.600000
213.014800 41425.200000
213.033200 7621.400000
213.063300 23785.400000
214.040200 7763.900000
214.071100 14962.600000
216.002000 44257.000000
216.032200 8229.000000
217.002900 9162.000000
217.016200 12921.200000
217.997800 79880.100000
219.035800 8237.300000
219.059400 5101.000000
220.044000 31548.000000
220.056700 50233.500000
220.068000 15507.000000
221.051900 63742.000000
221.064300 11737.100000
221.999300 10571.200000
222.059500 8197.400000
223.006700 52639.200000
223.047700 11843.700000
225.002600 19238.400000
226.034600 12712.000000
227.030500 26931.200000
227.042600 21842.000000
228.038500 21513.300000
228.056600 51674.700000
229.064000 22215.800000
232.013200 17689.000000
233.039100 7668.500000
233.993100 9485.500000
234.046500 6422.200000
235.000400 27831.600000
236.026700 7051.700000
236.038800 20581.900000
237.022100 38320.700000
240.074300 9582.700000
240.997000 8205.800000
241.058600 20366.400000
242.005100 90183.800000
243.013000 37836.400000
244.027000 14090.400000
245.008800 14124.500000
245.992500 16445.700000
247.055300 10622.100000
248.062800 98278.200000
249.009300 22508.400000
249.070600 23808.600000
250.024600 5183.600000
252.034500 7976.800000
254.054500 4406.100000
256.020600 22432.100000
256.045000 40501.800000
257.028500 113560.200000
258.016700 9741.300000
259.023900 20048.700000
262.011300 160066.500000
264.033300 522543.600000
268.007900 9199.400000
268.068900 36470.800000
269.015800 15763.800000
273.003400 10564.000000
274.024200 7497.300000
275.032900 6303.700000
277.034000 9489.100000
282.024300 35546.600000
283.031700 164947.900000
284.039500 2510950.200000
288.014000 7115.500000
289.021400 7039.600000
304.045700 465089.200000

>ms2
52.018200 67578.000000
53.002200 14081.700000
53.038500 4974.900000
54.033800 186378.300000
55.017900 6347.600000
55.029200 8428.400000
55.041700 12949.000000
56.013100 11249.400000
58.028700 396478.000000
60.024400 4602.700000
60.983900 47188.200000
61.979200 13594.700000
62.963200 43888.900000
62.999600 15478.500000
63.022800 26173.300000
63.994800 54497.000000
64.030700 7281.600000
66.021100 10356.200000
66.033800 24113.200000
67.029100 41114.200000
67.041500 7291.300000
68.013100 9413.300000
68.049400 65208.000000
69.044700 475756.600000
70.028700 4680.700000
70.052400 20380.100000
71.029000 6006.200000
72.983900 28105.800000
73.979100 27901.600000
74.986900 22605.900000
74.999800 3397.800000
75.004000 7775.900000
75.022900 17063.900000
75.994800 84444.800000
76.017900 15494.300000
78.010600 20473.100000
78.033800 5989.800000
79.017900 5778.200000
79.029100 13662.600000
80.036900 31487.200000
80.049400 11214.100000
81.044700 109183.300000
82.028700 52822.500000
83.029100 30207.700000
85.979100 15129.800000
86.987200 4842.500000
87.994800 1464184.600000
89.002600 336357.900000
90.010500 76439.700000
90.994400 9938.800000
90.999100 6964.600000
91.041600 111873.500000
92.025600 7953.700000
92.036900 8956.200000
93.013500 5075.200000
93.057400 47563.100000
95.049200 12344.800000
96.024400 11156.400000
96.036700 3688.300000
96.044400 39319.500000
97.008500 5945.300000
97.039600 86600.100000
98.036100 5405.700000
98.974700 3982.900000
99.023200 3736.400000
99.982200 4514.800000
99.994800 79986.300000
100.018100 37081.500000
101.002800 5857.000000
101.019800 23391.200000
102.010500 1115421.500000
102.027500 191445.200000
103.005700 6501.700000
103.989800 44184.700000
105.045100 5006.900000
105.057300 4734.400000
107.012700 11674.000000
107.029100 12714.200000
108.031900 5960.100000
108.044500 5567.500000
109.028400 6751.500000
109.039700 43416.600000
109.044800 15426.900000
110.016100 20719.900000
110.039900 39244.800000
111.024100 27764.000000
111.047900 15981.200000
113.019700 36376.000000
113.039800 30655.400000
114.010600 16162.800000
114.027600 48749.000000
114.034400 3386.500000
115.005700 202981.500000
115.035400 42301.700000
115.054200 38077.600000
115.989700 285107.300000
116.013600 20852.600000
116.973800 10017.300000
117.057200 12351.400000
118.005300 30596.300000
118.028800 14604.000000
119.029600 6633.200000
120.024400 38664.000000
122.040000 32627.500000
123.023900 14389.200000
123.035300 34517.000000
124.050600 11511.600000
125.019700 92919.900000
126.027500 179649.600000
127.035300 132918.300000
128.049500 11752.500000
129.014600 13529.800000
129.034100 3612.100000
129.044700 9663.100000
130.005400 25136.500000
130.022500 40431.300000
131.013200 412978.700000
132.024700 10709.400000
133.025900 403425.600000
134.040100 9590.200000
135.047900 8918.000000
139.035400 118765.100000
140.030600 1646438.900000
141.025800 236261.900000
141.038600 14549.200000
142.016900 7855.200000
142.046300 120126.500000
142.065100 14115.300000
143.000600 134643.800000
143.060400 7436.000000
143.072900 23693.500000
144.008400 24283.900000
144.037000 11676.300000
145.025900 760260.200000
146.040100 9322.800000
146.052600 29877.000000
146.059100 5518.600000
147.035200 67564.200000
148.030500 353272.100000
149.051100 4902.700000
150.035000 14654.600000
151.035400 208181.200000
152.030700 65897.900000
152.043000 49269.400000
152.050100 8395.300000
153.038500 6920.100000
153.044900 14251.700000
153.057300 10595.700000
154.039900 5887.700000
154.046200 18914.500000
154.052600 4073.000000
154.065100 20553.300000
155.060400 12096.200000
156.055500 4919.800000
156.061800 32325.100000
156.068300 5151.800000
157.026200 5204.700000
157.039700 6054.500000
157.046000 5294.500000
158.017400 257501.400000
158.040700 53271.700000
159.019500 8448.200000
159.035400 15854.700000
159.041800 4460.200000
160.027600 129503.600000
160.036800 784353.700000
161.044700 209689.500000
162.027700 28971.100000
162.052700 20403.600000
163.036100 33559.600000
164.043200 547074.900000
165.038600 7008.600000
165.051200 68289.200000
166.046300 68286.000000
167.005800 58521.400000
167.030300 63786.100000
167.041600 36328.100000
168.001100 61949.900000
168.025500 216702.700000
170.033600 7883.000000
170.060100 14106.700000
171.028700 7863.800000
171.036300 18221.400000
171.055400 10229.300000
172.036800 124402.200000
172.055600 115439.400000
173.032200 104666.500000
173.050900 116378.000000
173.063700 14421.100000
173.071000 9591.200000
174.052000 71433.300000
174.059300 16821.400000
174.071400 10355.600000
176.030700 17801.800000
177.038200 9823.000000
177.045700 4827.800000
178.046700 204991.800000
179.030000 5841.800000
179.041100 6545.300000
179.054100 3733.800000
180.025400 6021.800000
180.037900 6928.900000
180.055100 6611.800000
180.063300 15199.800000
181.033000 31611.500000
181.063400 8858.000000
182.021400 5739.300000
182.041000 14211.100000
183.029200 14268.500000
183.041600 17787.700000
184.036700 7645.700000
185.044800 46734.800000
185.052900 2932.200000
186.039400 5289.300000
187.047800 24935.400000
188.031900 12521.800000
189.021100 15278.600000
190.046600 5482.500000
190.987200 18443.600000
191.041300 33994.700000
192.062100 307945.600000
193.002200 19455.700000
193.069700 234798.800000
194.041100 19723.800000
194.065100 11345.600000
195.002000 4465.900000
195.011500 21693.500000
196.036500 13935.600000
196.996200 4286.600000
198.039600 8973.200000
198.052500 11624.200000
199.047700 173514.800000
200.031200 38021.400000
200.062100 25045.700000
201.046400 17022.100000
201.069800 10063.600000
202.054900 18202.200000
205.016400 6914.800000
205.033200 21135.900000
205.056700 6154.500000
206.028800 9104.300000
206.041400 21889.200000
206.051500 4872.200000
207.012100 12591.000000
207.036400 32917.500000
208.032200 7620.500000
208.050600 8622.200000
209.027900 8900.300000
209.058300 5909.700000
210.040200 10874.400000
212.007600 17859.200000
212.067600 6913.300000
213.015200 28424.300000
213.033000 6313.700000
213.063200 19627.300000
214.010300 17489.200000
214.041000 11357.200000
214.071300 5234.200000
216.002100 24192.200000
217.015800 7217.000000
217.997900 126074.000000
219.035900 5056.400000
219.059100 6916.000000
220.044300 33913.700000
220.056700 22876.900000
220.067900 6920.400000
221.052300 53792.300000
221.999800 16852.000000
223.006600 20304.500000
223.047700 9849.700000
225.002900 11661.500000
226.035000 10556.800000
227.030500 13858.400000
227.042700 29626.200000
228.056600 18738.800000
229.065000 5464.000000
230.029100 5012.100000
232.013300 12545.000000
233.039000 9758.700000
234.016400 33199.300000
234.046300 11960.500000
235.000300 43663.300000
236.038100 4180.800000
237.022500 21266.800000
240.075100 6511.500000
240.997700 15099.500000
241.058100 15734.200000
242.005100 68359.000000
243.013200 8006.900000
244.026700 5028.800000
245.008700 5973.500000
245.992100 7548.700000
247.055300 9447.900000
248.063000 70607.700000
249.010200 7820.000000
249.070800 6844.900000
250.023300 7076.400000
252.034300 4927.700000
256.020800 11487.300000
256.045200 15746.600000
257.028600 16150.600000
258.016900 4574.400000
259.025500 3385.000000
262.011400 76061.900000
264.033400 96265.600000
268.008100 8602.900000
268.069200 7321.000000
269.015600 3695.100000
274.024100 5051.800000
282.024000 25921.500000
283.031900 51521.100000
284.039600 206241.500000
288.013700 9166.500000
304.046400 13677.700000

>ms2
52.018200 124709.500000
53.002200 17062.100000
53.038700 8676.700000
54.033800 217743.700000
55.017900 7556.600000
55.029000 12113.400000
55.041600 19228.600000
56.013100 14427.300000
58.028800 354764.900000
60.024500 4618.600000
60.983900 136128.700000
61.979100 16734.500000
62.963200 72909.800000
62.999500 19761.500000
63.022900 111544.700000
63.994800 61283.800000
64.030700 16230.600000
66.021200 8801.900000
66.033800 63444.900000
67.029100 34015.900000
67.041600 22013.500000
68.013100 12484.000000
68.049400 90963.800000
69.044700 404095.600000
70.028800 5450.200000
70.052600 19377.500000
71.029100 15168.300000
72.983900 56480.000000
73.979100 46614.200000
74.987000 48472.900000
74.999500 7673.900000
75.004000 37927.900000
75.022900 75130.100000
75.994800 76686.500000
76.018100 16797.100000
78.010500 17760.400000
78.033800 10322.300000
79.017800 7191.400000
79.029100 21236.800000
80.036900 39562.900000
80.049400 7309.900000
81.044700 105044.100000
82.028800 77291.800000
83.029100 102646.100000
85.979200 42498.300000
86.987000 10732.700000
87.994900 1694565.000000
89.002700 395638.400000
90.010600 57660.800000
90.999000 27188.100000
91.041700 179553.100000
92.025600 10404.300000
92.036900 15835.700000
93.013400 14858.700000
93.057300 57020.800000
95.049200 20268.800000
96.024300 15189.900000
96.036900 4379.200000
96.044400 44441.400000
97.008500 21493.500000
97.039700 25478.800000
98.036100 8476.500000
98.974400 6070.100000
99.023100 17313.100000
99.982100 17842.500000
99.994800 38379.900000
100.018200 163801.600000
101.002500 5000.800000
101.019900 25803.300000
102.010500 1339283.800000
102.027600 135691.800000
103.989700 54650.500000
104.049400 9701.900000
105.044700 5437.200000
105.057300 8044.800000
107.012700 9050.100000
107.029100 59376.800000
108.031700 3741.900000
108.044500 6246.300000
109.028300 7312.900000
109.039600 40418.100000
109.044800 31353.800000
110.040000 60808.400000
111.024100 54438.300000
111.047900 38115.300000
113.019700 101832.100000
113.039700 99160.500000
114.010600 19304.200000
114.027600 99719.400000
114.034400 5227.300000
115.005800 129930.400000
115.035400 31737.800000
115.054200 57873.300000
115.989800 172399.800000
117.057300 19433.500000
118.005500 11728.400000
118.028800 22601.100000
119.029100 22693.400000
120.024500 95371.900000
122.040200 19048.300000
123.023900 12907.300000
123.035300 107542.700000
124.050700 18503.300000
125.019800 275638.500000
126.027600 245110.200000
127.035400 135392.500000
128.049600 14307.100000
129.014600 10289.000000
129.034300 7142.200000
129.044700 15923.600000
130.005400 14292.300000
130.022500 28600.400000
131.013300 227291.100000
132.024600 11360.200000
133.026000 464319.300000
133.044600 26960.700000
134.040000 11378.000000
135.047900 16832.700000
138.034900 93939.000000
139.035400 71346.300000
140.030700 1111961.100000
141.025900 454816.800000
141.038300 27392.900000
142.046400 108577.300000
142.065100 13990.100000
143.000600 39768.900000
143.030000 56651.100000
143.060500 7290.600000
143.072800 13462.200000
144.008400 5276.200000
144.037200 34964.700000
145.026000 1112839.000000
146.040000 14554.700000
146.052700 24722.600000
146.059100 5423.000000
147.035200 79968.700000
148.030500 429308.500000
149.014900 17008.800000
149.051400 4818.100000
150.034900 15044.700000
151.035400 231271.000000
152.030700 89548.100000
152.043000 22305.600000
152.050300 8954.700000
153.038300 11017.000000
153.044900 17607.400000
153.057500 4733.900000
154.039600 13321.300000
154.046400 10390.300000
154.052600 3962.100000
154.065000 19781.400000
155.060300 15329.800000
156.044300 6994.300000
156.055500 8413.200000
156.062000 11416.700000
157.026000 14433.900000
157.039200 7779.100000
157.045900 6009.100000
158.017400 229189.600000
158.040500 49833.200000
159.034900 20663.200000
159.041800 6600.400000
160.027300 89809.500000
160.036800 271239.000000
161.044800 169213.900000
162.027800 25858.300000
163.036400 30394.300000
163.055100 13110.300000
164.043200 433065.900000
165.039000 19228.700000
165.051400 39667.800000
166.046200 66628.100000
167.005800 34172.100000
167.030300 13557.900000
167.041600 34626.900000
168.001100 88002.700000
168.025600 142175.900000
170.033700 10192.700000
170.059900 10812.800000
171.028800 16497.300000
171.036300 13107.800000
171.055400 8385.100000
172.036900 134711.800000
172.055700 82311.700000
173.032200 90092.100000
173.050900 76702.500000
173.063200 5742.900000
173.070800 8516.600000
174.035000 4449.300000
174.052100 33298.900000
174.058900 4550.300000
176.030800 30917.000000
177.038000 7776.400000
177.045700 6413.700000
178.046500 112393.900000
179.041500 13535.000000
180.013400 9894.200000
180.025800 4148.700000
180.062700 7622.900000
181.032800 23404.400000
182.021000 12000.100000
182.041100 7648.400000
183.028900 32849.600000
183.041400 11425.700000
184.036800 10124.000000
185.045000 40284.000000
186.040200 7826.200000
187.047500 20711.400000
188.031900 10064.600000
189.021200 6177.600000
190.046700 8110.200000
190.987100 27318.100000
191.041500 28183.200000
192.062000 140129.900000
193.002600 9963.400000
193.069500 26294.900000
194.041300 15101.700000
194.064600 4512.300000
195.011600 7085.800000
196.036700 20330.400000
198.039500 5789.600000
198.052900 8300.200000
199.047700 198856.800000
200.007000 5548.500000
200.031800 50528.800000
200.061700 8347.700000
201.045700 6763.700000
202.052900 3969.500000
205.016000 4718.300000
205.032900 8514.800000
206.028500 30398.100000
206.040400 8830.900000
207.011900 6884.200000
210.039600 6567.000000
212.007400 12433.700000
213.014800 8528.000000
213.063400 18542.100000
214.010500 6746.700000
214.039700 5505.000000
216.001700 9645.200000
217.002200 4320.300000
217.997800 69985.700000
219.036200 9535.400000
220.043800 18510.000000
220.055900 6637.200000
221.052200 37570.200000
221.998500 11046.300000
223.006700 5401.200000
223.047500 10701.400000
226.034800 7582.700000
227.042300 11370.500000
230.029500 4556.800000
234.017100 20417.800000
234.046700 7597.900000
235.000900 37296.200000
240.997500 20294.600000
241.057800 12460.200000
242.005000 12278.600000
247.055500 5085.100000
248.063200 19000.900000
254.053900 4713.300000
262.011300 11139.800000
282.024300 8036.100000
283.032400 5210.500000
284.038600 5048.100000

