>compound LU14391132
>parentmass 389.16260000000005
>ionization [M+H]+
>formula C21H25ClN2O3
>rt 981.180000
>profile orbitrap
#smiles_iso C1CN(CCN1CCOCC(=O)O)C(C2=CC=CC=C2)C3=CC=C(C=C3)Cl
#smiles_can C1CN(CCN1CCOCC(=O)O)C(C2=CC=CC=C2)C3=CC=C(C=C3)Cl
#inchikey ZKLPARSLTMPFCP-UHFFFAOYSA-N
#pubchem_id 2678
#mb_accession LU053501,LU053502,LU053503,LU053504,LU053505,LU053506

>ms2
131.085500 33117.500000
132.088800 31654.700000
165.069000 22624.800000
187.107700 256531.700000
201.046500 7041499.500000
389.162700 3260862.000000

>ms2
72.080600 20830.200000
131.085600 47985.200000
132.088800 47743.900000
165.069600 87815.800000
166.077600 177613.300000
183.079700 15280.300000
187.107700 141292.700000
193.076600 15158.200000
201.046400 11460510.000000

>ms2
72.080800 13195.500000
84.068200 36565.500000
91.054200 10725.800000
111.091700 18720.200000
131.085500 53835.700000
132.088800 46923.200000
165.069900 863090.100000
166.077700 2863679.000000
183.080400 188133.900000
187.107400 32763.700000
193.076100 217794.900000
199.030800 21658.600000
201.046500 8575972.000000

>ms2
56.049600 7257.800000
58.065100 9808.700000
72.080700 10741.600000
83.060300 8717.400000
84.068200 34639.200000
91.054300 20137.900000
92.057600 13025.500000
111.091700 7991.300000
131.085600 33200.100000
132.088800 30836.500000
141.069900 17363.100000
158.081100 7485.000000
165.070100 2574036.500000
166.077700 7240125.000000
183.080500 254473.600000
193.076200 298719.600000
199.031100 75814.500000
201.046600 2691566.000000

>ms2
72.080800 7544.900000
83.060400 8369.800000
84.068200 26368.400000
91.054300 41260.700000
92.057600 26791.500000
115.054000 13201.900000
116.062200 11111.600000
117.065400 8171.500000
131.085500 17709.700000
132.088700 15290.400000
139.054600 9774.700000
164.061800 17183.700000
165.070100 4939538.500000
166.077700 6883962.000000
168.057000 9478.000000
183.080600 94083.400000
193.076100 100840.500000
199.031100 111304.700000
201.046600 383578.200000

>ms2
65.038500 10921.800000
83.060300 10003.800000
84.068200 20452.000000
91.054200 37730.900000
92.057700 15460.500000
115.054200 45399.800000
116.062000 9562.800000
117.065400 9620.300000
139.054000 31085.000000
152.062300 11380.500000
163.053900 20496.700000
164.062300 42516.100000
165.069900 8264236.000000
166.077500 3778674.800000
168.056700 72793.600000
183.080300 16634.700000
193.076300 15585.200000
199.031000 139231.600000
201.046800 34780.500000

