>compound LU14671244
>parentmass 136.05050000000003
>ionization [M+H]+
>formula C6H5N3O
>rt 576.000000
>profile orbitrap
#smiles_iso C1=CC=C2C(=C1)N=NN2O
#smiles_can C1=CC=C2C(=C1)N=NN2O
#inchikey ASOKPJOREAFHNY-UHFFFAOYSA-N
#pubchem_id 75771
#mb_accession LU085201,LU085202,LU085203,LU085204,LU085205,LU085206

>ms2peaks
53.038600 72759.600000
64.030700 4789.600000
65.038700 8012.800000
78.046400 46703.400000
80.049500 121913.200000
81.033500 8817.000000
90.033900 5519.600000
91.041700 436947.800000
95.049200 5568.800000
105.044700 5101.600000
106.052500 5262.400000
108.044400 5844.200000
119.047900 192463.000000
136.050500 4471075.500000

>ms2peaks
53.038600 88211.600000
63.023000 5305.800000
64.030800 4870.100000
65.038600 8023.000000
78.046400 41038.000000
80.049400 117440.500000
81.033700 6965.700000
90.033800 5953.200000
91.041700 429994.600000
106.052700 6742.200000
108.044300 5596.200000
119.047900 189228.100000
136.050600 4334319.000000

>ms2peaks
53.038600 141895.700000
63.022900 7922.800000
64.030700 9757.200000
65.038600 13730.200000
78.046400 69491.000000
80.049500 181611.500000
81.033600 11932.400000
90.033900 10449.600000
91.041700 882995.200000
105.044800 10616.200000
106.052700 11630.100000
108.044100 9888.900000
119.047900 308448.900000
136.050600 3498226.800000

>ms2peaks
52.018200 4770.100000
53.038600 158476.400000
54.033900 7270.100000
54.046400 19266.800000
63.022900 22381.700000
64.030700 27139.100000
65.026000 12441.300000
65.038500 10691.300000
66.046400 2367.600000
78.046400 100478.300000
80.049400 146281.100000
81.033500 17739.700000
90.033900 11634.400000
91.041700 1520931.200000
92.036800 4174.300000
95.049100 23803.100000
96.044500 2229.300000
105.044700 23168.200000
106.052700 9670.200000
108.044300 10192.400000
119.047800 341088.200000
136.050600 1362925.500000

>ms2peaks
50.015200 3430.700000
52.018200 18539.100000
53.038600 223101.000000
54.033900 9475.100000
54.046500 85133.300000
63.022900 102301.900000
64.030800 132316.100000
65.026000 63531.400000
65.038600 20346.500000
76.018100 3372.800000
77.038600 8824.200000
78.046400 160866.800000
79.041700 4633.500000
80.049500 143063.100000
81.033500 38761.900000
82.041500 2896.200000
90.033900 21429.900000
91.041700 2891139.200000
92.036900 15746.200000
95.049200 71201.000000
96.044400 3677.900000
105.044800 37690.400000
106.052700 9429.000000
108.044200 10314.300000
119.047900 472161.300000
136.050600 710437.000000

>ms2peaks
50.015200 3759.000000
51.023000 4095.800000
52.018200 68659.800000
53.038600 179856.100000
54.033900 11610.200000
54.046400 194273.600000
55.017800 4541.200000
63.022900 272483.900000
64.030800 315945.200000
65.026000 144368.300000
65.038500 36980.200000
66.046500 3897.200000
76.018200 11902.100000
77.038500 14924.300000
78.046400 150638.900000
79.041700 5122.700000
80.049500 62424.000000
81.033500 49691.700000
82.041300 7501.700000
90.033800 20749.400000
91.041700 2742976.500000
92.036900 25307.800000
95.049200 90604.400000
96.044400 3282.200000
105.044800 56608.300000
106.052700 5859.500000
108.044500 7409.500000
119.047900 334515.900000
136.050600 234965.100000

