>compound LU14458869
>parentmass 481.3213
>ionization [M+H]+
>formula C33H40N2O
>rt 1167.540000
>profile orbitrap
#smiles_iso C1CN(CCC1C=C(C2=CC=CC=C2)C3=CC=CC=C3)C(=O)CCCCCCCCC4=CN=CC=C4
#smiles_can C1CN(CCC1C=C(C2=CC=CC=C2)C3=CC=CC=C3)C(=O)CCCCCCCCC4=CN=CC=C4
#inchikey NHKWRRHZTGQJMT-UHFFFAOYSA-N
#pubchem_id 129491
#mb_accession LU073501,LU073502,LU073503,LU073504,LU073505,LU073506

>ms2peaks
218.153700 239332.800000
264.174500 101410.700000
481.321200 34827832.000000

>ms2peaks
56.049400 82829.100000
82.065000 42361.800000
84.080700 281636.500000
92.049600 61066.200000
106.065200 34415.700000
117.069800 16780.200000
167.085400 387471.800000
190.158900 127898.800000
218.153800 16074064.000000
264.174400 14390103.000000
481.321400 16076100.000000

>ms2peaks
55.054200 155213.700000
56.049500 2525053.500000
57.069900 37921.400000
58.065100 50173.800000
65.038500 46415.800000
67.054200 51987.900000
69.057300 51208.400000
69.069800 18119.000000
80.049400 25177.300000
82.065100 1114630.200000
84.080700 4430841.000000
85.101100 16468.500000
91.054200 473756.300000
92.049400 1386112.800000
93.057100 148375.100000
94.065100 117464.100000
96.080700 49615.800000
105.069700 62981.000000
106.065000 533210.800000
107.072900 29583.500000
110.059800 18731.400000
117.069800 248811.700000
118.065000 22024.900000
119.072900 41980.000000
120.080700 181956.400000
129.069700 71347.200000
131.085600 89589.300000
132.080600 113138.200000
133.088600 90361.600000
134.096300 209372.700000
141.069800 27591.400000
143.085500 253497.900000
146.096500 21483.600000
148.111900 142878.700000
152.061900 15897.500000
155.085600 19529.900000
157.101300 16655.300000
160.112000 116680.700000
162.127800 14772.300000
165.069700 41294.200000
166.077500 14989.700000
167.085400 5071464.000000
169.101200 77892.800000
172.112000 21089.100000
179.085400 20056.600000
181.101100 113386.300000
186.127400 20549.700000
190.158900 2730794.000000
191.085300 21968.500000
193.101100 20537.400000
205.101000 61084.500000
207.116800 32653.700000
218.153800 12883190.000000
219.116600 39071.600000
220.169300 20912.200000
264.174500 13924208.000000
481.321300 129112.600000

>ms2peaks
53.002200 31280.600000
53.038600 30527.600000
55.054200 700120.000000
56.049500 5574009.500000
57.069900 193957.200000
58.065100 106858.600000
65.038500 371740.300000
67.041500 36545.600000
67.054200 197415.300000
68.049400 74589.800000
69.057300 266403.300000
69.069900 79181.600000
70.065000 32192.800000
71.085500 25650.800000
79.054100 50783.800000
80.049500 100626.500000
81.069900 34936.400000
82.065100 2020524.600000
84.080800 5148060.500000
85.101000 11493.800000
91.054200 1334101.800000
92.049400 6774592.500000
93.057300 1087002.400000
94.065100 486397.400000
95.072900 20956.500000
95.085500 19151.100000
96.044400 31618.600000
96.080700 100602.700000
97.088600 20612.600000
103.054200 47464.400000
105.069800 147127.100000
106.065100 2400520.500000
107.072900 172876.600000
108.080900 9448.900000
110.060000 158401.700000
115.054100 83217.400000
117.069800 402094.500000
118.065100 195191.300000
119.072900 246849.000000
119.085500 13475.900000
120.080700 658510.300000
121.088400 13037.300000
128.062000 67250.700000
129.069700 165490.400000
130.065100 20064.000000
131.085500 203417.700000
132.080700 294660.900000
133.088500 267530.300000
134.096300 630701.600000
141.069800 67680.400000
143.085500 294220.200000
144.081200 10580.900000
145.088000 9548.000000
145.101500 13570.800000
146.096600 37693.200000
147.103900 14503.800000
148.112000 371775.700000
152.062000 217996.400000
153.069600 12125.500000
154.077600 16507.100000
155.085500 30007.600000
157.101200 21916.500000
158.096600 21767.600000
160.112000 88402.800000
162.127600 61522.600000
165.069800 393427.000000
166.077700 177430.800000
167.085400 8702310.000000
169.064600 12053.300000
169.100900 54814.600000
172.112000 40607.700000
176.143100 20061.600000
178.077600 24087.200000
179.085100 40033.600000
181.101100 156669.500000
186.127500 18827.400000
190.159000 3060591.500000
191.085400 55244.700000
193.100700 57504.300000
200.143200 12816.500000
203.085600 10042.400000
204.093300 23118.700000
205.101100 76148.500000
207.116800 15302.900000
218.153800 3068491.500000
219.116500 20522.700000
220.168700 14456.500000
264.174500 1561486.800000

>ms2peaks
53.002200 59411.000000
53.038600 57880.300000
55.054300 1160102.600000
56.049500 5018100.000000
57.069900 136169.300000
58.065100 64237.400000
65.038600 1149836.100000
66.046400 18696.800000
67.041600 79892.600000
67.054200 282999.800000
68.049500 128559.600000
69.057300 293481.800000
69.069800 60323.200000
70.065100 22606.000000
77.038700 8158.900000
78.033800 18013.300000
79.041700 34350.700000
79.054200 120452.100000
80.049400 165445.400000
81.057300 8767.400000
81.069900 21024.200000
82.065100 1583789.200000
84.080800 2228036.200000
91.054300 1361313.400000
92.049500 7714123.000000
93.057300 2355677.200000
94.065100 475823.700000
95.049200 30185.400000
95.072900 15914.900000
95.085500 12838.000000
96.044300 136150.800000
96.080700 78593.900000
97.088700 18817.500000
103.054300 93513.200000
105.044800 13542.200000
105.070000 135013.900000
106.065100 3208257.800000
107.072900 279057.900000
110.060000 370596.900000
115.054100 145796.800000
116.062200 12593.600000
117.057300 29845.300000
117.069900 266300.600000
118.065100 352950.900000
119.073000 208537.500000
120.080800 672753.900000
121.088700 15257.400000
124.075800 10588.300000
128.062000 156931.600000
129.069800 143432.400000
130.065200 30832.200000
131.085600 130475.300000
132.080800 328141.300000
133.088600 155594.600000
134.096400 521878.800000
141.069800 119421.400000
142.077600 9630.600000
143.085600 114845.000000
146.096500 33101.100000
147.104300 12788.900000
148.112000 190811.500000
151.054100 8523.000000
152.062100 1093649.600000
153.070000 17053.100000
154.077700 30192.400000
155.060100 15187.300000
155.085800 17512.600000
157.101000 8490.700000
158.096700 18788.100000
160.112100 27384.300000
162.127900 47453.300000
165.070000 1123030.800000
166.077800 512856.700000
167.085500 5325009.500000
169.064800 49365.400000
169.101300 10794.700000
172.111900 21717.400000
178.077600 54414.600000
179.060400 14224.500000
179.085400 35786.300000
181.101100 37730.700000
190.159000 633514.800000
191.085400 75506.700000
192.093100 10270.800000
193.100200 8662.900000
202.077500 8384.300000
203.085600 30526.400000
204.093400 44811.100000
205.101500 32853.200000
218.153900 262658.800000
264.174800 48261.400000

>ms2peaks
53.002200 78778.300000
53.038600 104494.300000
55.054200 1505777.800000
56.049500 4065104.200000
57.069800 86371.500000
58.065100 45230.800000
65.038500 2428233.500000
66.046400 73790.900000
67.041600 179234.600000
67.054200 262025.400000
68.049400 181604.100000
69.057200 286640.800000
69.069800 21278.400000
70.065000 15957.200000
77.038400 13866.500000
78.033700 55090.900000
79.041600 88380.400000
79.054200 193877.400000
80.049400 213700.400000
81.057500 16047.800000
81.069900 12680.600000
82.065100 1190991.200000
84.080800 891606.800000
91.054300 1478968.900000
92.049500 6505675.000000
93.057300 3339209.800000
94.065100 362948.100000
95.049100 86064.700000
95.073000 15599.000000
96.044400 298313.400000
96.080700 52948.500000
97.088800 10071.600000
103.054300 147737.900000
105.044700 26999.500000
105.069900 98152.900000
106.065100 3829843.500000
107.072900 268643.300000
110.060000 567209.000000
115.054200 284733.800000
116.062100 17177.100000
117.057200 60543.400000
117.069900 184056.400000
118.065100 477874.300000
119.073000 106685.200000
120.080800 589820.600000
121.088600 10034.900000
124.075600 19203.600000
128.062000 304829.300000
129.069900 133932.700000
130.065100 43530.600000
131.085500 53864.000000
132.080800 334110.200000
133.088600 65079.400000
134.096400 386590.100000
141.069800 175443.600000
142.077600 19548.600000
143.085500 34992.600000
146.096500 36080.200000
148.111900 66694.400000
151.054000 13066.800000
152.062000 2203580.500000
153.069600 22822.500000
154.077900 19249.800000
155.060300 22498.800000
158.096400 14430.700000
160.112300 15488.700000
162.127700 22603.800000
165.069900 2101312.500000
166.077700 721577.700000
167.085500 2444867.200000
169.064800 113982.600000
172.111800 18161.600000
178.077700 83851.400000
179.060300 28489.600000
179.085400 27707.200000
190.158700 57569.700000
191.085500 50984.400000
192.093600 8693.100000
202.077700 28172.500000
203.085200 50353.100000
204.092900 49142.000000
205.101700 15182.500000
218.153900 15942.800000

