>compound LU14373823
>parentmass 216.1594
>ionization [M+H]+
>formula C11H21NO3
>rt 938.880000
>profile orbitrap
#smiles_iso CCCCN(CCC(=O)OCC)C(=O)C
#smiles_can CCCCN(CCC(=O)OCC)C(=O)C
#inchikey VZRKEAFHFMSHCD-UHFFFAOYSA-N
#pubchem_id 104150
#mb_accession LU119201,LU119202,LU119203,LU119204,LU119205,LU119206

>ms2peaks
86.096400 333939.700000
116.107100 6986.100000
128.107000 909679.800000
142.122900 4005.700000
170.117600 2726456.200000
174.148900 205416.200000
216.159600 182008.200000

>ms2peaks
55.017900 3571.800000
86.096500 955315.600000
89.059700 4949.500000
101.059800 2505.300000
116.107200 7605.500000
128.107000 1533151.800000
142.122600 4674.100000
146.117400 3233.700000
170.117700 1784821.400000
174.149000 261067.000000
216.159700 27027.100000

>ms2peaks
55.017900 6282.200000
57.069900 6617.800000
60.044400 3162.200000
61.028400 6360.000000
73.028300 7241.400000
86.096400 2427732.000000
89.059700 13410.300000
101.059700 3506.800000
116.107100 22927.800000
128.107000 835156.200000
142.122800 10324.500000
146.117400 3640.800000
170.117600 219571.600000
174.149000 107927.100000

>ms2peaks
55.017900 20354.800000
57.069800 41973.900000
60.044300 6467.600000
61.028400 11698.500000
72.044300 8079.100000
73.028300 27673.300000
86.096400 2433099.800000
89.059600 5424.000000
101.059900 3086.200000
116.106900 24363.800000
128.107000 202598.300000
142.122800 7573.600000
170.117300 12749.100000
174.148900 14335.500000

>ms2peaks
53.002400 2332.100000
55.017900 36909.300000
57.069900 127013.700000
60.044400 14742.900000
61.028400 10511.600000
72.044400 16698.800000
73.028400 33849.600000
74.096300 4482.800000
86.096400 1290867.600000
116.107100 16644.500000
128.107000 36517.900000
142.122900 2702.700000

>ms2peaks
53.002300 6117.000000
55.017900 52500.700000
57.069900 228179.000000
60.044400 12457.100000
61.028500 7685.700000
72.044400 14413.300000
73.028400 24725.500000
74.096300 2292.300000
86.096500 457914.200000
116.107200 6031.700000
128.107100 7185.900000

