>compound LU14000382
>parentmass 279.1591
>ionization [M+H]+
>formula C16H22O4
>rt 1148.140000
>profile orbitrap
#smiles_iso CC(C)COC(=O)C1=CC=CC=C1C(=O)OCC(C)C
#smiles_can CC(C)COC(=O)C1=CC=CC=C1C(=O)OCC(C)C
#inchikey MGWAVDBGNNKXQV-UHFFFAOYSA-N
#pubchem_id 6782
#mb_accession LU118901,LU118902,LU118903,LU118904,LU118905,LU118906

>ms2
57.070000 8817.500000
149.023300 19696.400000
223.075400 3637.700000

>ms2
57.069800 9778.700000
149.023600 15863.600000
167.085600 1821.900000
195.080400 3480.200000
223.075700 6420.600000

>ms2
57.069900 8830.100000
91.054300 6278.600000
105.069900 2595.600000
109.064900 16178.400000
117.069900 2776.100000
149.023400 17098.600000
167.085900 5068.500000
195.080500 2837.300000

>ms2
57.070100 6953.700000
109.064800 15239.000000
121.028700 1677.800000
149.023100 11336.400000
167.086200 4489.300000
178.078000 2098.500000

>ms2
57.070000 5111.100000
65.038700 1952.000000
109.064900 9653.200000
121.028500 2346.600000
149.023400 6747.900000
165.070400 2955.000000
178.077900 4287.000000

>ms2
53.038700 8460.500000
57.069900 3485.900000
65.038600 3678.500000
91.054400 8118.900000
95.049200 19773.600000
109.064900 4586.300000
115.054000 1789.700000
117.069900 2184.600000
121.028600 3391.600000
128.062000 5954.500000
129.069900 3387.000000
149.023400 3456.900000
154.077500 2722.900000
165.069900 5095.200000
178.077800 7577.100000

