>compound LU14642312
>parentmass 202.2165
>ionization [M+H]+
>formula C12H27NO
>rt 983.880000
>profile orbitrap
#smiles_iso CCCCCCCCCC[N+](C)(C)[O-]
#smiles_can CCCCCCCCCC[N+](C)(C)[O-]
#inchikey ZRKZFNZPJKEWPC-UHFFFAOYSA-N
#pubchem_id 62452
#mb_accession LU068401,LU068402,LU068403,LU068404,LU068405,LU068406

>ms2
57.069800 192300.000000
58.065100 5606815.000000
62.060000 963657.400000
71.085400 141726.900000
85.101200 187345.800000
184.206000 820778.100000
185.213900 222034.500000
202.216400 41786828.000000

>ms2
55.054200 33664.400000
57.069900 448873.800000
58.065100 10935044.000000
62.060000 1780503.600000
71.085500 327497.600000
72.080600 40361.800000
83.085400 60312.300000
85.101100 343466.100000
184.206000 1166327.800000
185.213900 206247.600000
202.216400 29113602.000000

>ms2
53.002200 54661.000000
55.054200 58638.000000
56.049500 47154.900000
57.069900 1748909.500000
58.065100 26440896.000000
62.060000 3333259.500000
69.069800 51249.400000
71.085500 752420.100000
72.080800 34702.700000
83.085500 59157.200000
85.101200 629462.800000
97.101200 30642.900000
184.206000 1374098.200000
185.213800 62258.600000
202.216600 5881517.000000

>ms2
53.002200 133036.200000
55.054200 79693.700000
56.049600 63961.600000
57.069900 2259840.800000
58.065100 26375778.000000
62.060000 2117744.000000
69.069800 43933.000000
71.085500 465449.200000
72.080800 35718.800000
85.101200 225565.500000
114.127900 26565.400000
184.206100 446628.800000
202.216600 290638.800000

>ms2
53.002200 180050.100000
53.997500 31216.700000
55.054200 87320.900000
56.049500 106056.200000
57.069900 1789610.900000
58.065100 23757248.000000
62.060000 1117106.400000
69.069800 26550.000000
71.085500 157971.900000
72.080700 42201.800000
85.101000 32259.900000
114.127300 28707.500000
184.206100 111388.300000

>ms2
53.002200 218024.600000
53.997500 32856.000000
55.054200 65771.200000
56.049500 124326.500000
57.069900 1069527.900000
58.065100 19214038.000000
62.060000 537501.400000
71.072900 26823.700000
71.085500 48859.400000
72.080700 29679.300000

