>compound LU15756427
>parentmass 189.0546
>ionization [M+H]+
>formula C11H8O3
>rt 1042.560000
>profile orbitrap
#smiles_iso C1=CC=C2C=C(C(=CC2=C1)C(=O)O)O
#smiles_can C1=CC=C2C=C(C(=CC2=C1)C(=O)O)O
#inchikey ALKYHXVLJMQRLQ-UHFFFAOYSA-N
#pubchem_id 7104
#mb_accession LU084603,LU084604,LU084605,LU084606

>ms2peaks
91.054300 3430.600000
105.070000 1702.600000
145.064600 2823.700000

>ms2peaks
53.038600 1679.900000
65.038500 2419.800000
91.054300 3419.200000
95.049200 1984.500000
103.054300 2469.900000
105.069500 1832.300000
117.069800 4630.300000
145.064800 4300.500000

>ms2peaks
53.038600 2696.500000
65.038600 5212.000000
79.054200 2696.300000
91.054300 6645.800000
95.049200 9139.200000
103.054400 2848.900000
105.070000 1930.700000
115.054500 2213.300000
117.069800 7639.600000
145.065100 3060.500000

>ms2peaks
53.038800 4791.400000
65.038800 5423.000000
79.054500 4268.500000
91.054500 4288.700000
95.049200 13208.900000
103.054400 2364.400000
115.054500 3807.600000
117.070200 4615.000000

