>compound LU15082105
>parentmass 144.08079999999998
>ionization [M+H]+
>formula C10H9N
>rt 729.900000
>profile orbitrap
#smiles_iso C1=CC=C2C=C(C=CC2=C1)N
#smiles_can C1=CC=C2C=C(C=CC2=C1)N
#inchikey JBIJLHTVPXGSAM-UHFFFAOYSA-N
#pubchem_id 7057
#mb_accession LU051601,LU051602,LU051603,LU051604,LU051605,LU051606

>ms2
103.054200 13837.700000
116.061900 9161.200000
117.069800 81541.600000
127.053900 13455.600000
128.062000 6751.000000
143.073000 105890.500000
144.080600 5115871.000000

>ms2
103.054200 12918.900000
115.054300 6134.700000
116.062300 9071.700000
117.069900 88321.800000
127.053800 11098.600000
143.073100 107868.500000
144.080700 5038840.500000

>ms2
103.054200 48854.600000
115.054200 17563.600000
116.062100 22586.700000
117.069800 226637.100000
127.054100 38687.500000
128.062000 21994.300000
143.073100 273116.800000
144.080600 4803200.000000

>ms2
91.054200 8610.700000
103.054200 135548.100000
115.054200 71438.900000
116.062100 40679.400000
117.069900 434720.400000
126.046200 3048.200000
127.054200 128936.000000
128.062000 48088.400000
143.073100 592995.100000
144.080700 2769036.500000

>ms2
53.038600 7552.400000
63.023000 2246.200000
77.038400 4764.400000
91.054200 25742.400000
103.054200 196643.400000
104.049400 2838.800000
115.054300 163525.100000
116.049700 4805.500000
116.062000 55390.700000
117.069900 441310.200000
126.046500 23879.800000
127.054300 340130.100000
128.062100 76968.300000
143.073100 784730.600000
144.080800 1157947.100000

>ms2
53.038600 30892.500000
63.022900 2650.200000
77.038400 14725.900000
91.054200 66833.000000
103.054200 221596.200000
104.049300 2388.100000
115.054200 292753.900000
116.049600 5520.200000
116.062000 77001.300000
117.069900 327905.300000
126.046400 89388.900000
127.054200 685661.400000
128.062000 84556.100000
143.073000 811197.100000
144.080800 398772.100000

