>compound LU15213163
>parentmass 302.1387
>ionization [M+H]+
>formula C17H19NO4
>rt 1021.240000
>profile orbitrap
#smiles_iso CC1=C(C(=CC=C1)C)N(C(C)C(=O)OC)C(=O)C2=CC=CO2
#smiles_can CC1=C(C(=CC=C1)C)N(C(C)C(=O)OC)C(=O)C2=CC=CO2
#inchikey CIEXPHRYOLIQQD-UHFFFAOYSA-N
#pubchem_id 42504
#mb_accession LU128101,LU128102,LU128103,LU128104,LU128105,LU128106

>ms2peaks
95.013000 336194.200000
206.117600 19436.600000
215.094000 9214.500000
241.109900 9557.900000
242.117500 6801795.000000
270.112400 6313532.500000
302.138700 1637011.200000

>ms2peaks
95.012700 6872540.000000
146.096600 37181.300000
198.091400 20130.700000
206.118000 35091.500000
215.093900 54950.800000
241.109900 12912.500000
242.117500 9970521.000000
270.112500 429622.000000
302.137900 26316.000000

>ms2peaks
95.012700 16231565.000000
146.096400 57099.800000
198.091200 24595.800000
215.094100 37737.300000
242.117500 1070121.500000

>ms2peaks
53.002100 23884.100000
83.012800 59082.200000
95.012700 17765216.000000
105.069900 18813.700000
146.096500 30157.000000
148.075600 36579.200000
242.117700 34133.800000

>ms2peaks
53.002200 50029.200000
83.012800 181362.300000
95.012700 15968880.000000
105.069700 40013.000000
120.080900 19752.800000
131.073000 17469.500000
132.080600 25802.200000
148.075500 50568.700000
148.112100 16837.800000

>ms2peaks
53.002200 127170.700000
55.017800 21177.400000
79.054200 20271.100000
83.012700 396530.200000
95.012700 15393580.000000
103.054200 16268.000000
105.069800 39239.900000
120.080600 30010.700000
132.080700 26785.600000
148.075800 34448.600000

