>compound LU15333376
>parentmass 392.13169999999997
>ionization [M+H]+
>formula C21H15F2N5O
>rt 1025.460000
>profile orbitrap
#smiles_iso CC(C)(C1=NC2=NC=C(N2N=C1)C3=CC(=C(C=C3)F)C4=C(C=CC=C4F)C#N)O
#smiles_can CC(C)(C1=NC2=NC=C(N2N=C1)C3=CC(=C(C=C3)F)C4=C(C=CC=C4F)C#N)O
#inchikey PCZLQMGFNUNVOM-UHFFFAOYSA-N
#pubchem_id 9865233
#mb_accession LU044401,LU044402,LU044403,LU044404,LU044405,LU044406

>ms2
239.055800 18709.400000
349.112000 29593.500000
350.120900 37977.800000
365.120500 208364.200000
377.106500 20454.800000
392.131500 17354976.000000

>ms2
59.049200 13723.100000
68.049400 26497.100000
83.060300 11012.800000
96.055600 38692.100000
97.039700 22895.000000
97.063400 16565.700000
98.047400 53937.200000
109.063400 24220.200000
223.067000 9627.900000
239.053000 54857.400000
241.057000 72618.600000
242.065400 9151.500000
243.072800 13267.200000
255.072300 18529.100000
269.075600 24138.700000
281.074700 32764.200000
282.084400 30000.500000
296.085900 62142.100000
298.078700 44978.400000
301.088700 17890.800000
302.096000 15164.400000
307.079000 131370.500000
308.087200 8874.200000
309.094300 25987.600000
321.094900 52236.800000
322.102300 93210.000000
323.110600 126637.800000
333.095300 49139.800000
337.126100 140493.900000
347.110100 26960.000000
348.105800 174366.100000
349.113400 1549437.400000
350.121300 1152768.000000
351.105900 29805.100000
365.120900 8709050.000000
377.108400 300102.600000
392.131800 5868990.500000

>ms2
53.002200 9465.600000
54.033900 15383.200000
55.041700 13996.100000
56.036900 22139.200000
56.049500 9895.500000
59.049100 151550.200000
68.049400 476593.000000
69.033400 111788.900000
69.044700 13799.400000
70.065100 30664.600000
81.044700 14059.400000
82.052600 27889.500000
83.060300 109988.800000
84.044400 7632.700000
86.060000 12956.700000
95.024000 13343.200000
96.044400 11143.900000
96.055600 164563.000000
97.039600 175660.000000
97.063500 47442.100000
97.076000 24022.200000
98.047500 422212.800000
98.059900 37463.700000
108.055600 14445.400000
109.063500 27167.500000
110.071200 11311.200000
111.055300 37967.600000
111.066600 5579.000000
123.055300 7614.400000
125.034600 22129.200000
126.042500 33078.100000
126.066300 12207.800000
201.051200 11957.900000
215.054200 13014.400000
216.062500 5347.900000
222.058500 5748.000000
223.066300 26346.400000
226.046100 16515.300000
228.061800 106712.100000
239.054100 1726474.500000
240.048700 10752.200000
240.061900 7024.300000
241.057100 214580.800000
242.041600 6223.300000
242.065700 28117.300000
243.072700 169798.500000
244.056400 9778.100000
252.049600 8766.600000
252.062300 5460.700000
253.057100 29954.700000
254.065000 55396.000000
254.077900 12512.100000
255.072700 1213741.800000
256.056300 56335.300000
256.079600 16333.200000
258.072200 8559.400000
259.067600 8566.000000
265.056900 9694.400000
266.050600 4851.900000
268.068100 43296.200000
269.052000 13853.200000
269.075500 66487.700000
269.088600 5425.800000
271.043800 48635.400000
271.068000 10607.200000
273.082900 9781.500000
279.073400 18704.100000
280.067800 203894.900000
281.075100 182432.700000
282.083800 172248.800000
283.097600 36187.200000
287.073200 6063.500000
293.089000 9701.800000
294.086400 8759.100000
295.055100 23062.700000
295.077800 31306.100000
295.108300 35629.300000
296.063100 1494734.900000
296.085000 88973.000000
297.070800 141841.500000
297.094500 100703.100000
298.078600 586982.200000
301.088600 62002.400000
302.096500 12043.700000
303.103500 18312.200000
305.088200 10972.500000
306.083800 58088.500000
307.078900 768264.800000
308.086600 13972.600000
309.094400 197093.200000
320.100800 33418.400000
321.094600 240513.000000
322.078900 11860.200000
322.100900 66959.300000
324.094400 18985.200000
329.083900 6304.000000
330.083000 11606.300000
331.078400 5023.500000
332.086800 13758.400000
333.094700 119176.300000
334.089900 174982.400000
335.097200 30451.900000
337.125900 1322146.100000
338.109700 23853.600000
347.110300 351819.400000
348.106100 335762.400000
349.113100 237297.400000
350.121100 280455.100000
351.105400 10286.300000
358.090000 4842.500000
360.105900 9953.100000
365.120900 4714355.500000
377.108400 266300.900000
392.131700 82266.400000

>ms2
53.002200 25678.400000
54.033800 61140.800000
55.029000 15058.500000
55.041600 62896.100000
56.036900 54975.700000
56.049400 27090.900000
58.065100 11502.200000
59.049100 316625.100000
66.033700 6208.100000
67.029100 17376.200000
67.041500 6658.900000
68.049400 387696.200000
69.033400 126679.600000
69.044600 42200.100000
69.057400 7379.000000
70.065100 49945.600000
81.044700 64181.300000
82.052500 42536.500000
83.060300 142526.900000
84.044400 11696.400000
86.059900 8220.100000
95.023900 71333.400000
95.060500 9484.200000
96.055600 118459.100000
97.039600 257604.800000
97.063400 27115.100000
97.076000 17915.500000
98.047400 520938.400000
98.059900 45316.900000
108.055600 41464.000000
110.071100 7070.300000
111.055200 39748.500000
125.034500 37178.000000
126.042400 73710.600000
126.066200 65940.700000
135.047900 8837.100000
201.051000 209379.600000
208.055600 432524.900000
212.051800 7550.000000
215.053000 121914.600000
216.061800 54984.300000
223.066200 16793.600000
226.046200 156909.900000
227.054200 26552.600000
228.061800 533153.500000
229.069700 7127.600000
233.070900 26977.500000
234.058900 107918.100000
235.066600 365075.100000
238.046600 13328.400000
239.054000 4692106.000000
240.049400 6546.200000
240.062000 65468.800000
241.057100 198926.800000
242.040900 37809.500000
243.072700 421257.100000
244.056900 35797.700000
251.065200 4920.500000
252.049200 8229.600000
252.062000 22451.200000
253.057000 157855.900000
253.070900 14564.000000
254.042600 29186.100000
254.064800 272898.300000
254.077600 26034.700000
255.072700 2939289.500000
256.056600 433643.600000
256.078900 42682.400000
258.072500 20195.400000
259.067400 13780.200000
260.061400 17445.100000
261.068900 8399.200000
264.048400 5101.200000
265.056900 74290.800000
266.052000 10542.800000
266.077900 6588.200000
267.073400 19622.600000
268.068000 73979.800000
269.051800 29539.900000
269.074700 26912.000000
269.088600 12245.400000
270.069100 6093.500000
271.043700 505557.200000
278.063800 5501.600000
279.060300 8218.300000
279.073500 66078.800000
280.067800 612722.000000
281.052100 24431.400000
281.074800 219244.700000
281.088200 27871.600000
282.083600 164184.400000
283.097400 28910.300000
286.064600 9865.400000
287.072700 53855.700000
290.053000 7882.100000
293.088500 15683.400000
294.085000 42630.300000
295.077700 41380.400000
295.092200 65313.500000
295.105400 21793.900000
296.062800 233934.400000
296.086200 105387.200000
296.100600 25173.900000
297.070900 29765.900000
297.094300 143950.300000
298.078500 245355.900000
301.088600 39059.800000
303.103600 10366.900000
305.086500 14491.200000
306.083600 96149.800000
307.078900 1211272.900000
309.094700 76163.700000
320.100100 41659.400000
321.094600 335269.500000
322.079300 11042.600000
322.101900 15014.400000
323.110900 330749.600000
329.084600 6135.800000
330.082700 9318.100000
331.078000 13820.200000
332.086200 11438.300000
333.094500 36898.400000
334.089700 90988.900000
335.097600 6277.600000
337.125800 468746.900000
338.109600 8089.300000
347.110100 147672.500000
348.105800 216307.100000
349.089300 12651.500000
350.119900 8326.400000
358.088700 8475.200000
360.105000 12923.100000
365.120800 283867.800000
377.107000 8777.900000

>ms2
53.002300 26886.700000
54.033900 97123.800000
55.029100 19336.700000
55.041700 85420.400000
55.054300 5405.100000
56.036900 54395.400000
56.049500 49853.600000
58.065100 5775.500000
59.049200 384925.200000
66.033800 13321.500000
67.029100 55807.900000
67.041600 8648.900000
68.013100 48836.100000
68.037000 14027.700000
68.049500 134981.300000
69.033500 69789.500000
69.044800 46764.300000
69.057300 5936.200000
70.065100 28397.900000
80.049500 11444.100000
81.044800 104378.600000
82.052600 46158.200000
83.060400 102154.100000
84.044600 5599.500000
95.024000 122903.100000
95.060400 8693.200000
96.044400 23040.000000
96.055700 68799.700000
97.039700 202894.200000
98.047500 432009.300000
108.055800 28065.500000
111.055500 16849.200000
123.055300 6709.900000
125.034900 25383.600000
126.042400 43250.600000
126.066300 37523.500000
134.040400 8554.000000
181.044900 10947.700000
183.060700 7275.500000
188.042700 12913.700000
188.049800 15392.500000
195.047900 15576.500000
196.055800 18799.800000
200.043100 7452.500000
201.051200 876729.500000
203.054200 6824.500000
204.037800 20717.400000
208.055900 1306357.600000
212.042100 71947.000000
212.051800 12927.500000
213.038400 33584.000000
214.046300 11169.300000
215.053900 81422.300000
216.061100 67223.400000
219.047000 47746.300000
220.055800 25447.700000
221.051100 45829.300000
222.058100 7049.000000
223.066900 29049.300000
225.050600 8354.500000
226.046400 459328.200000
227.054200 131275.300000
228.050400 35610.800000
228.062000 666127.100000
233.051200 116181.000000
233.071200 60183.900000
234.059000 404825.100000
235.066700 439966.000000
236.062100 15488.700000
237.037700 25778.400000
238.046400 72248.700000
239.054200 5189768.500000
240.049200 6677.900000
240.062600 75267.000000
241.057200 250475.500000
242.041400 37913.900000
243.073000 314139.100000
244.057200 40275.300000
247.051900 6024.400000
247.066500 6399.200000
248.061300 8716.700000
251.041800 9320.300000
251.062000 8753.900000
252.049400 16164.300000
252.062300 35698.300000
253.057300 202519.800000
253.071100 21621.700000
254.043000 38649.400000
254.065100 435451.900000
255.072900 1208131.900000
256.056900 745732.600000
258.072800 28038.800000
259.053900 20843.700000
259.067600 13770.200000
260.075100 8675.700000
261.069800 11544.100000
263.061000 12854.600000
264.049300 8729.600000
265.057100 80732.600000
266.051700 20370.800000
267.073200 42754.500000
268.067700 55761.600000
269.052200 15776.000000
269.075900 16328.600000
270.070600 6738.400000
271.044000 381167.300000
273.083300 16790.600000
278.064900 17481.800000
279.056700 17208.300000
279.074300 36581.900000
280.068100 672034.400000
281.051700 37092.300000
281.075600 69487.600000
281.090100 6124.900000
282.084100 39426.400000
283.098200 18298.100000
286.064500 26372.100000
287.072900 70196.400000
290.052800 11127.100000
293.091100 5410.300000
294.084300 50317.600000
295.078400 16607.900000
295.094400 18330.100000
296.062900 12634.100000
296.086600 37780.000000
296.103100 7343.100000
301.088100 23975.100000
307.079100 407372.700000
309.094200 5205.800000
321.094900 138238.000000
323.110600 24344.200000
331.078200 15907.800000
333.093500 7782.700000
337.126200 17895.900000
347.110000 10528.800000
348.105800 49968.100000
349.089700 8474.500000
358.090700 7038.700000

>ms2
52.018200 5723.900000
53.002300 29387.800000
53.038600 8086.900000
54.033800 177164.400000
55.029000 18537.100000
55.041700 146284.300000
56.036900 36404.000000
56.049500 50312.300000
58.065100 4110.800000
59.049100 413539.600000
66.033800 17411.400000
67.029000 64296.300000
67.041500 7156.000000
68.013000 78350.100000
68.036800 23456.700000
68.049400 45895.800000
69.033400 49342.700000
69.044600 37038.300000
70.065100 18988.100000
80.049500 6388.800000
81.044700 124330.000000
82.052600 37588.800000
83.060300 69566.200000
93.045000 4725.500000
95.024000 136840.900000
96.044500 10193.200000
96.055500 35985.600000
97.039600 135302.500000
98.047500 259699.600000
108.055700 19180.100000
111.055400 6882.100000
125.034800 5099.800000
126.042500 18712.000000
126.066300 7359.700000
134.040300 8748.700000
135.047800 69183.500000
181.044700 86735.700000
183.060400 14138.100000
187.055500 23495.700000
188.043000 72534.400000
188.049800 75427.000000
195.048100 49972.900000
196.055700 34834.100000
200.042700 18760.300000
201.051100 1413871.000000
203.054200 13374.500000
204.038100 73155.300000
206.040300 53901.400000
208.055700 1669217.900000
212.042800 510380.400000
213.038300 210225.400000
214.046300 18017.200000
216.061100 60975.900000
219.047600 294863.200000
220.055700 61573.300000
221.051000 68083.200000
222.058300 5695.500000
223.066600 48640.500000
225.049800 11836.400000
226.046300 800311.200000
227.054000 220006.200000
228.049300 54363.700000
228.061800 328230.000000
229.069800 5938.900000
233.051000 218780.700000
233.071000 43963.400000
234.058800 562611.100000
235.066600 195394.700000
236.062200 16899.200000
237.038200 111565.100000
238.046400 250528.700000
239.054000 4032888.000000
240.049000 14154.200000
240.062500 83911.500000
241.057000 242347.700000
242.041100 10878.200000
242.064700 9859.800000
243.073000 116771.800000
247.053300 5093.700000
247.066700 11458.000000
248.061900 9036.000000
251.041200 19268.800000
251.062300 11219.800000
252.049100 37069.600000
252.062100 25809.200000
253.057100 174617.300000
253.071100 12526.000000
254.043000 20288.300000
254.064900 288753.700000
255.072800 242912.400000
256.056800 1009139.100000
258.073000 21786.200000
259.053800 49773.900000
259.067300 10167.900000
260.061900 26155.400000
260.075200 10273.600000
261.069400 12654.400000
263.061300 8896.400000
264.050400 13410.700000
265.056600 35099.400000
266.052300 12063.700000
267.073600 33430.700000
268.067500 23416.800000
271.043900 101465.900000
271.067800 6400.600000
273.083000 8396.700000
274.077000 5127.700000
277.056500 6990.000000
278.065600 12342.600000
279.058700 23468.200000
279.073600 12775.800000
280.067900 302295.000000
281.052200 33093.100000
281.075600 12158.600000
283.098000 7084.500000
286.065000 33387.200000
287.073000 23138.500000
293.076500 5087.600000
294.083500 17474.900000
295.078400 6000.600000
301.088800 8068.800000
307.079000 45052.800000
348.106000 7990.700000

