>compound LU16721569
>parentmass 224.11819999999997
>ionization [M+H]+
>formula C14H13N3
>rt 1077.540000
>profile orbitrap
#smiles_iso CC#CC1=NC(=NC(=C1)C)NC2=CC=CC=C2
#smiles_can CC#CC1=NC(=NC(=C1)C)NC2=CC=CC=C2
#inchikey CIFWZNRJIBNXRE-UHFFFAOYSA-N
#pubchem_id 86296
#mb_accession LU111401,LU111402,LU111403,LU111404,LU111405,LU111406

>ms2
224.118100 44862168.000000

>ms2
106.065000 106218.100000
121.076000 46270.400000
131.060300 94813.100000
183.091800 110772.900000
207.091900 63673.800000
208.087000 41224.200000
209.094800 135058.500000
223.111100 50322.100000
224.118100 40443488.000000

>ms2
65.038600 156664.200000
66.033700 51092.000000
68.049400 29253.600000
77.038700 34783.200000
79.054200 420393.900000
80.049500 174353.500000
82.065200 106497.900000
90.033800 64728.300000
92.049500 51000.500000
93.057300 59109.500000
94.065200 251443.500000
95.049200 73958.100000
104.049500 498769.300000
105.044800 42309.100000
106.065200 1890536.500000
107.060300 115528.700000
107.073000 126878.100000
115.054200 71014.200000
117.057400 28723.800000
118.065100 94307.200000
119.060300 198668.100000
121.076000 653551.400000
129.070000 33165.700000
131.060400 1051837.600000
132.068200 268961.300000
140.049600 33837.200000
142.065200 322744.100000
143.060400 280193.400000
143.073000 55103.100000
146.071400 82021.100000
147.079100 147793.100000
148.112200 94324.900000
156.080900 84246.900000
157.076000 35064.900000
159.092000 64690.900000
166.065300 147202.700000
167.072700 88192.700000
168.068300 184191.400000
180.080800 252870.400000
181.076200 40706.500000
182.083900 298163.700000
183.091800 792872.300000
184.087100 313662.300000
184.099400 73970.800000
192.068200 184026.400000
195.091900 84183.000000
196.100100 40651.900000
197.107500 177396.500000
205.076500 34407.600000
206.083900 297064.400000
207.091800 677322.100000
208.087200 271778.200000
208.099700 115841.600000
209.094900 1163858.600000
222.102600 180029.100000
223.110600 248414.800000
224.118200 27841828.000000

>ms2
53.038600 263534.800000
54.033900 25625.300000
56.049600 9065.600000
63.022900 72819.400000
65.038500 541398.400000
66.033800 377693.700000
67.029000 140007.500000
67.041600 35698.200000
67.054200 56356.300000
68.049400 56402.200000
70.065100 11115.400000
77.038500 219014.600000
78.033800 18612.100000
78.046400 58663.800000
79.054200 1679544.500000
80.049400 510339.100000
81.044700 8995.200000
81.057300 50427.300000
82.065100 195040.400000
89.038500 41567.800000
90.033800 424932.800000
91.029100 9548.800000
91.041700 19646.800000
91.054200 78256.500000
92.049500 161967.400000
93.044700 31615.300000
93.057300 203110.500000
94.065100 909135.900000
95.049100 580851.600000
104.049500 1871808.600000
105.044700 319456.500000
105.057400 33793.600000
106.065100 5095264.500000
107.060300 412983.800000
107.072900 190566.500000
114.033600 9558.100000
115.054200 322447.300000
116.049500 81029.300000
117.057300 66249.800000
118.052600 74272.800000
118.065100 325669.400000
119.060400 730625.100000
120.068600 13326.900000
121.076000 1229927.600000
128.049500 29181.100000
128.062200 19994.700000
129.044900 32923.200000
129.069800 121017.300000
130.052700 12863.200000
130.065100 69655.100000
131.060400 1750928.900000
132.068200 468773.700000
139.054100 57628.200000
140.049400 148434.200000
141.057300 16117.300000
141.069900 17258.500000
142.065100 726680.300000
142.077700 75859.700000
143.060400 809835.900000
143.072800 97826.100000
145.076100 17577.000000
146.071200 90444.400000
147.079000 338512.200000
148.086900 20057.000000
152.061900 35551.300000
153.069800 66684.800000
154.065300 41104.500000
155.060400 30860.900000
155.072800 10873.500000
156.068500 14301.500000
156.080800 153134.500000
157.076200 65570.200000
157.088700 31306.100000
158.084100 28277.800000
158.096500 14202.900000
159.091700 155102.300000
166.065100 290660.800000
167.060800 56447.100000
167.073000 192770.600000
168.068200 585509.200000
169.064500 14197.200000
169.075600 48504.600000
170.084200 14827.200000
170.096200 40531.200000
178.065000 19295.700000
179.060900 11558.700000
179.072600 51449.100000
180.080700 618505.300000
181.075800 221307.000000
181.088600 42366.400000
182.083900 839071.100000
183.079300 49650.000000
183.091600 767111.400000
184.087000 469004.200000
184.099600 82678.900000
190.065100 81198.000000
191.072800 19510.000000
192.068100 487394.100000
193.076400 13340.000000
194.071500 26225.100000
194.083800 24033.700000
195.091600 153278.600000
196.088300 11225.000000
196.099400 110467.900000
197.095500 32091.800000
197.107000 188514.800000
198.102400 21237.400000
205.076000 253709.600000
206.083800 1044098.800000
207.091600 1074955.000000
208.087000 595485.800000
208.099400 180088.900000
209.094700 1505782.500000
221.095100 22138.800000
222.102500 509509.900000
223.110400 324964.000000
224.118100 7966143.500000

>ms2
50.015100 15183.700000
51.022900 19240.800000
53.038600 818569.100000
54.033800 74983.900000
56.049500 23401.800000
63.022900 322716.600000
65.038600 762866.800000
66.033800 1206937.600000
67.029100 484957.000000
67.041600 103641.600000
67.054200 174659.600000
68.049500 65763.600000
70.065200 16817.000000
77.038500 696320.700000
78.033700 72772.600000
78.046400 154338.700000
79.054200 2577039.500000
80.049500 783841.800000
81.044700 15189.600000
81.057300 89284.600000
81.069900 27157.400000
82.052700 17629.700000
82.065100 128513.800000
87.022900 14334.300000
89.038600 142253.100000
90.033900 809296.600000
91.029100 41154.200000
91.041700 72531.200000
91.054300 190697.900000
92.049500 360777.600000
93.044700 42739.600000
93.057300 421567.000000
94.041400 71821.600000
94.065100 1258173.100000
95.049200 1899026.800000
103.041800 40783.900000
103.054300 19793.800000
104.049500 2279515.800000
105.044800 896176.600000
105.057200 63089.900000
106.065100 4974222.000000
107.060300 393049.000000
107.073000 131144.500000
109.064600 24486.900000
114.033800 29675.500000
115.054200 572782.600000
116.049500 182129.900000
117.057300 111321.300000
118.052600 64366.200000
118.065100 417699.900000
119.060400 952001.100000
120.068100 20759.900000
121.076000 881071.800000
128.049500 79552.500000
128.061900 52131.900000
129.044600 49635.100000
129.057300 16346.300000
129.069900 117903.800000
130.040000 55346.500000
130.052700 44821.000000
130.065100 94248.000000
131.060400 1052972.100000
132.068200 266905.700000
139.054100 120281.000000
140.049500 388852.400000
141.057300 58893.900000
142.065200 627874.900000
142.077900 37041.000000
143.060400 863938.400000
143.072900 126716.400000
146.071300 95244.000000
147.079100 288636.900000
148.087000 39444.500000
152.062100 106345.200000
153.070100 111814.000000
154.065200 78270.100000
155.060700 69680.700000
155.073200 26554.000000
156.068200 43980.100000
156.080700 113046.800000
157.076000 80570.500000
157.088500 32068.700000
158.083900 31778.100000
159.091800 108385.700000
163.054600 14959.100000
165.057400 26874.800000
165.069100 13983.900000
166.065100 191368.700000
167.060600 91000.800000
167.072900 238009.600000
168.068200 704729.200000
169.064100 49476.000000
169.076000 84221.600000
170.096300 31037.300000
178.065200 48042.500000
179.060900 27583.000000
179.073000 161795.700000
180.080800 549060.900000
181.076000 519245.300000
181.088300 48042.000000
182.083900 927109.800000
183.079100 90581.200000
183.091700 430970.400000
184.086900 299495.300000
184.099100 35226.800000
190.065400 60241.400000
191.060200 27600.500000
191.073300 29261.000000
192.068200 572869.200000
193.075900 34054.600000
194.071200 29909.400000
194.084100 25848.100000
195.091600 173375.600000
196.089600 14007.400000
196.099600 101355.900000
197.095900 23172.900000
197.107200 80667.200000
205.076000 789029.100000
206.083900 1222789.500000
207.079500 71298.300000
207.091500 571215.300000
208.087100 624213.600000
208.099200 83355.900000
209.094800 672089.800000
221.094800 58911.500000
222.102600 485122.300000
223.110300 189811.200000
224.118200 1130330.100000

>ms2
51.023000 23336.200000
53.038600 934731.600000
54.033800 91812.400000
55.054200 12268.400000
56.049500 24709.300000
63.022900 568699.900000
65.038600 710689.200000
66.033800 1481838.400000
66.046400 92435.900000
67.029100 765821.400000
67.041600 167727.000000
67.054200 192926.800000
68.049500 39202.500000
70.065100 9388.300000
77.038600 1011060.800000
78.033800 100396.500000
78.046400 165443.900000
79.054200 1698934.100000
80.049500 659666.400000
81.044800 14521.500000
81.057300 76220.600000
81.070100 17394.400000
82.052500 28472.700000
82.065200 54031.100000
89.038600 222748.200000
90.033900 529817.400000
91.029100 41082.300000
91.041800 130204.500000
91.054300 267323.100000
92.049500 436514.200000
93.044800 34655.800000
93.057300 452780.500000
94.041400 117494.100000
94.065200 762395.200000
95.049200 3057712.800000
103.041700 93419.200000
103.054200 17751.800000
104.049500 1308550.900000
105.044800 1224656.200000
105.057300 64697.200000
106.065100 2338412.500000
107.060400 168808.000000
107.073000 57023.400000
109.064800 27886.100000
114.033900 29901.600000
115.054300 561732.100000
116.049500 253066.200000
117.057300 144050.000000
118.052700 51369.500000
118.065100 208908.900000
119.060400 664168.500000
120.068100 21636.400000
121.076000 232768.200000
128.049400 65209.000000
128.062300 56979.000000
129.044700 54647.900000
129.057400 33273.400000
129.069900 52245.500000
130.040000 86289.100000
130.052600 33468.100000
130.065100 99076.700000
131.060400 391437.700000
132.068300 110983.600000
132.080700 59373.200000
133.088600 52196.300000
139.054200 109481.900000
140.049500 427872.300000
141.057300 123660.800000
141.069700 20145.400000
142.065200 248965.100000
143.060400 522485.000000
143.073000 70834.400000
144.080800 10605.900000
145.064700 35311.700000
146.071200 72084.100000
147.079200 112359.900000
148.087100 21439.500000
152.062200 185222.500000
153.069800 67134.400000
154.065100 111762.500000
155.060600 72510.000000
155.072800 27118.600000
156.068500 43291.400000
156.080800 64501.700000
157.076100 65596.500000
157.088600 16772.600000
158.083900 24763.100000
159.091700 34539.100000
163.054100 20257.800000
164.049500 51806.700000
165.057300 60131.800000
165.070000 11830.500000
166.065300 99373.300000
167.060800 74685.800000
167.073000 152964.300000
168.068200 384560.700000
169.064200 73705.300000
169.075900 47403.600000
170.096300 10071.900000
178.065100 92408.900000
179.060600 39134.200000
179.073000 180320.800000
180.080700 240817.900000
181.076000 593023.700000
182.084000 406560.100000
183.079200 73422.500000
183.091700 140223.400000
184.086800 66907.600000
190.064900 53942.400000
191.060500 56438.000000
191.072700 28400.400000
192.068200 331039.600000
193.076200 32175.700000
194.071400 29620.500000
194.083800 15367.300000
195.091800 126053.900000
196.086800 10664.400000
196.099400 30659.200000
197.095500 12053.800000
197.107200 10531.100000
205.076100 970934.600000
206.083900 547256.900000
207.079200 84507.400000
207.091700 122526.500000
208.087100 362063.200000
208.098600 21901.000000
209.094900 142335.600000
221.094900 92208.700000
222.102700 201071.700000
223.110700 39491.300000
224.118300 76306.200000

