>compound LU16416160
>parentmass 251.1278
>ionization [M+H]+
>formula C14H18O4
>rt 1076.800000
>profile orbitrap
#smiles_iso CC(C)OC(=O)C1=CC=CC=C1C(=O)OC(C)C
#smiles_can CC(C)OC(=O)C1=CC=CC=C1C(=O)OC(C)C
#inchikey QWDBCIAVABMJPP-UHFFFAOYSA-N
#pubchem_id 11799
#mb_accession LU083201,LU083202,LU083203,LU083204,LU083205,LU083206

>ms2peaks
149.023400 7227.000000
167.085500 3726.700000
251.127300 10156.400000

>ms2peaks
57.069900 2337.900000
81.069900 5619.000000
149.023400 5789.400000
167.085700 3747.700000
195.080600 2106.600000
251.126300 2215.500000

>ms2peaks
57.069900 2707.900000
149.023500 7303.500000
167.086100 3418.300000

>ms2peaks
57.069900 2885.000000
95.049300 2567.200000
149.023500 6931.200000
165.069800 1761.400000
167.086000 3121.800000

>ms2peaks
95.049400 1710.800000
149.023700 5631.300000
165.070200 3454.500000

>ms2peaks
95.049200 1716.800000

