>compound LU16139761
>parentmass 306.1448
>ionization [M+H]+
>formula C15H19N3O4
>rt 812.340000
>profile orbitrap
#smiles_iso CC(C)C1(C(=O)NC(=N1)C2=C(C=C(C=N2)COC)C(=O)O)C
#smiles_can CC(C)C1(C(=O)NC(=N1)C2=C(C=C(C=N2)COC)C(=O)O)C
#inchikey NUPJIGQFXCQJBK-UHFFFAOYSA-N
#pubchem_id 86137
#mb_accession LU028001,LU028002,LU028003,LU028004,LU028005,LU028006

>ms2
86.096300 15803.300000
217.133600 16769.600000
260.138200 17904.200000
261.123300 54044.300000
264.098000 127752.400000
278.149700 126431.300000
288.134000 36033.900000
306.144600 15346474.000000

>ms2
58.065100 47999.700000
69.069800 174342.900000
71.085500 14792.400000
86.096400 661068.500000
97.064800 58201.900000
114.091400 50592.300000
149.070900 56424.800000
163.050200 9236.900000
175.050100 8572.600000
191.081600 29135.100000
192.076700 130022.900000
193.060800 326335.800000
210.087600 21372.300000
217.133500 447820.100000
218.092600 28512.500000
219.112800 24506.100000
220.096500 10040.200000
220.108000 45888.700000
221.092100 12757.400000
234.160000 52532.600000
235.094800 31332.800000
243.112900 74406.400000
246.087300 603940.400000
260.139400 634238.900000
261.123400 2405565.500000
262.154900 39265.200000
263.089700 57258.500000
264.097800 1857617.000000
278.149900 1187121.600000
288.134300 209341.300000
306.144800 7249935.000000

>ms2
53.002200 36864.900000
53.997500 6898.200000
56.049400 2923.300000
57.069900 5847.900000
58.065100 79208.000000
67.054300 16689.800000
69.069800 2011270.000000
70.065000 17932.100000
71.072800 22191.500000
71.085500 45820.100000
72.044300 4922.600000
72.080700 6763.100000
84.080800 15768.300000
86.096400 2112778.200000
94.065300 3238.000000
97.064800 121052.000000
109.064700 9019.900000
114.091300 24541.200000
119.060300 5353.900000
121.039700 3384.200000
145.039400 4707.400000
147.055400 3645.100000
148.063300 5629.600000
149.070900 300684.200000
151.086900 5364.700000
154.086100 10993.700000
159.054900 9500.800000
161.058600 6136.200000
161.071100 15969.900000
162.042100 4041.700000
162.066000 7055.000000
163.050200 331882.500000
168.065600 2953.300000
175.050200 99067.700000
176.057900 4996.300000
176.107100 11832.000000
177.065900 24305.900000
177.102400 19725.200000
178.050000 3936.300000
180.065600 11490.800000
185.108000 4200.900000
186.115100 8339.800000
187.086700 21655.800000
187.123000 5756.900000
189.102400 6610.100000
191.081600 287811.400000
192.076700 741889.400000
193.060800 2357315.200000
195.076200 7776.900000
200.107300 7420.800000
201.102000 3167.700000
205.060600 13952.300000
207.076100 8250.100000
210.087600 14919.900000
211.086300 3463.400000
212.094400 3787.200000
213.102200 12469.200000
215.069300 7733.700000
215.117800 7911.100000
216.076700 10565.200000
217.084500 28111.300000
217.133500 361973.500000
218.092400 753868.100000
219.112700 145057.100000
220.096600 33770.300000
220.108100 70506.000000
221.092100 28414.800000
228.089000 4008.400000
234.160000 9946.800000
235.095100 88028.400000
236.102600 19461.200000
243.112800 480309.800000
245.079400 62090.400000
246.087300 1915309.800000
260.139300 383420.800000
261.123300 1811487.100000
263.090000 75937.600000
264.097800 721075.300000
278.149800 181069.200000
288.134400 23788.000000
306.144800 370193.900000

>ms2
53.002200 117458.900000
53.997500 19726.300000
55.017900 4470.500000
56.049500 15212.200000
57.070000 4326.000000
58.065100 50196.100000
65.038600 2796.700000
67.054200 56210.400000
68.025500 5030.100000
69.069800 2505482.000000
70.065100 38853.300000
71.072900 71203.900000
71.085400 33085.900000
72.044400 21202.200000
72.080800 4130.700000
74.096400 3986.200000
78.008500 3304.900000
80.049300 4448.600000
81.033500 3369.100000
84.080800 17086.300000
86.096400 2211751.500000
90.033800 3367.200000
92.049300 13794.900000
94.052500 36802.600000
94.065100 8147.300000
95.036300 3806.600000
97.064800 58962.400000
104.049400 2902.700000
105.044700 6032.700000
106.065300 3477.800000
107.036600 10246.700000
107.060300 20063.000000
108.044200 7758.000000
109.064800 32435.200000
110.060100 12335.900000
111.044000 4125.100000
114.091200 4853.500000
117.044800 8012.100000
118.028600 3380.100000
118.052500 14991.000000
119.060400 54744.800000
120.044300 21312.800000
121.039600 33685.500000
122.023700 4158.300000
122.047400 14229.100000
122.060100 7328.900000
131.060500 11107.100000
133.075900 10718.000000
134.047400 3757.200000
135.055500 22584.600000
137.034700 4786.200000
137.071000 6559.700000
138.054900 6732.300000
140.070600 52435.600000
144.080800 8788.300000
145.039600 128850.400000
147.055300 35702.300000
148.039500 5166.600000
148.063200 22595.500000
149.071000 304803.700000
150.042300 13278.300000
150.054800 6444.000000
151.050100 4932.600000
151.086400 17157.400000
153.054700 6211.500000
154.086000 16224.500000
155.057600 18238.300000
159.055400 24999.000000
160.050600 34539.900000
160.062700 23167.900000
161.058800 73292.100000
161.070900 181568.200000
162.042200 56495.900000
162.066200 37314.400000
163.050100 1553890.000000
164.033900 9833.100000
165.065900 34873.100000
166.049900 4379.700000
168.065400 50919.900000
171.091800 13313.900000
175.050200 457579.600000
176.058000 32142.600000
176.107000 7219.100000
177.065900 149574.600000
177.101900 14257.500000
178.050200 5266.000000
178.061200 11665.600000
179.045100 8041.500000
180.065500 17118.700000
183.091900 6006.800000
184.099500 14946.700000
185.107100 8720.300000
186.066400 18002.100000
186.115400 23711.900000
187.074200 32845.400000
187.086400 17702.100000
187.123000 5033.400000
188.081900 28087.700000
188.094500 9229.600000
189.089800 8131.500000
189.102200 20790.300000
190.097200 5240.800000
191.081500 843056.800000
192.076800 621211.000000
193.060800 1595166.900000
195.076200 3427.000000
197.070600 5634.700000
200.107100 5095.400000
201.102000 4268.100000
202.110300 4672.700000
203.068700 12037.500000
205.060800 5597.500000
205.084500 8045.800000
207.076100 28231.900000
211.086000 7407.900000
212.094800 19612.500000
213.102000 26095.600000
215.068900 93607.100000
215.118200 13200.400000
216.077000 51709.800000
217.084500 57067.500000
217.133500 50165.700000
218.092400 977285.900000
219.112600 84325.600000
220.096800 12826.200000
220.108600 14638.500000
221.092400 14493.300000
228.089300 13579.800000
235.095100 63078.500000
236.102900 27701.000000
243.112800 164482.000000
245.079600 33271.600000
246.087300 756473.900000
260.139600 25999.000000
261.123500 97837.700000
263.089900 6290.700000
264.097800 30044.800000
276.097500 5582.700000

>ms2
52.018200 4184.300000
53.002200 164184.400000
53.038600 9653.000000
53.997500 26708.500000
54.033800 4157.800000
55.017800 6265.400000
56.049500 40145.900000
57.069800 4156.400000
58.065100 44501.000000
63.022900 3454.100000
65.038500 28690.900000
66.033900 3147.300000
67.041700 7085.000000
67.054200 67599.900000
67.989300 3035.800000
68.025700 8851.700000
68.049400 3606.900000
69.069800 1841503.900000
70.065100 63601.800000
71.072900 157033.300000
71.085400 12666.200000
72.044400 12417.700000
72.080900 4183.200000
74.096400 4842.200000
78.008800 3303.400000
78.033800 9812.800000
79.041500 14354.500000
79.054300 15707.400000
80.049400 24725.700000
81.033500 9192.000000
81.069900 10556.700000
84.080800 5540.200000
85.028300 4852.600000
86.096400 1411322.800000
88.018100 19593.600000
90.033800 21043.900000
91.041700 3051.800000
92.049400 96504.300000
93.021100 3835.700000
93.044800 4914.500000
93.057400 6374.600000
94.052600 60777.300000
94.065200 10025.000000
95.036600 7246.900000
95.049300 8124.800000
96.044500 6184.100000
97.064800 15693.000000
103.029000 8848.000000
104.037000 3344.400000
104.049500 7499.000000
105.044700 36439.400000
106.028700 12381.200000
106.052600 5498.100000
106.065100 12559.900000
107.036600 33362.400000
107.060400 130493.500000
108.044400 53107.500000
109.052300 6196.400000
109.064800 30660.300000
110.060000 80975.800000
111.044200 17315.200000
117.044700 68214.000000
117.057400 5052.600000
118.028900 10041.600000
118.052500 125357.500000
118.065200 8333.900000
119.060400 130830.300000
120.044400 95424.600000
120.068200 11394.300000
121.039600 64055.400000
122.023600 7789.000000
122.047500 26570.600000
122.060100 26170.100000
123.067900 8591.900000
124.039600 7232.900000
126.054900 6623.200000
131.060500 27592.500000
131.072800 3642.200000
132.031700 13728.000000
132.044800 3431.800000
132.055300 5506.200000
132.068600 4378.700000
133.039700 21322.900000
133.076000 51025.000000
134.047500 20246.500000
135.055300 77854.500000
136.039500 7838.900000
137.034500 8712.500000
137.070800 18771.300000
138.055000 18789.700000
139.062800 6878.600000
140.070600 368112.000000
143.060300 4176.600000
144.031700 20885.200000
144.068100 3077.500000
144.080600 14172.700000
145.039600 491146.800000
146.047300 23257.600000
146.083700 3346.400000
147.055300 104317.000000
148.039400 7817.400000
148.063100 37019.000000
149.034500 26416.800000
149.071000 174802.400000
150.042400 28779.300000
150.054900 8466.600000
151.050200 32408.400000
151.086600 10010.300000
153.054300 4242.300000
154.086300 7624.000000
155.057600 52123.000000
158.071300 11808.300000
159.055300 41261.900000
159.079100 15973.900000
160.051000 46814.200000
160.063100 113994.500000
161.058800 175627.100000
161.070900 377745.500000
162.042400 196435.500000
162.066200 42206.500000
163.050200 1623450.200000
164.034200 50828.900000
165.065800 116277.900000
166.049800 5228.500000
168.065500 86659.800000
169.075800 4914.200000
170.083700 5082.400000
171.091500 30860.000000
173.071100 11191.500000
174.066200 7237.100000
175.050200 538121.800000
176.058000 53057.800000
176.106500 3237.800000
177.065900 133497.400000
178.061200 17048.200000
179.045100 13608.500000
180.065600 3355.500000
183.091800 7993.900000
184.099600 19278.900000
185.107300 6812.900000
186.066400 18556.200000
186.115000 10450.400000
187.074000 87627.200000
187.085100 4537.400000
188.082000 36347.600000
188.094400 12266.100000
189.089800 4416.700000
189.102100 16678.700000
190.097400 5853.200000
191.081500 578370.100000
192.076700 180977.500000
193.060800 378748.700000
197.071100 13025.900000
201.065600 4576.700000
202.110300 5268.100000
203.069400 17213.800000
205.084700 4759.200000
207.076400 50004.800000
212.094500 21866.200000
213.102500 13135.000000
214.061100 5485.200000
215.068800 112413.200000
216.076800 44727.400000
217.084500 10823.200000
218.092400 226290.500000
219.063900 5805.900000
219.112500 13178.900000
228.088600 6707.600000
230.092400 5946.000000
235.095200 12017.900000
236.103100 6655.700000
243.113400 16551.700000
245.079100 3834.200000
246.087300 110803.600000

>ms2
52.018200 4755.500000
53.002200 215421.900000
53.038600 25303.700000
53.997500 38078.100000
54.033800 7269.500000
55.017900 13113.500000
56.049500 90318.900000
58.065100 40150.000000
63.022900 28115.300000
65.038500 165125.700000
66.033800 9372.300000
67.041700 12222.600000
67.054200 66757.200000
67.989300 5122.600000
68.025700 9159.400000
68.049400 8284.200000
69.069800 1317956.500000
70.065100 132261.300000
71.072900 335423.000000
72.044300 6854.700000
74.096500 3563.800000
78.008800 5803.800000
78.033800 33338.900000
79.041600 32651.800000
79.054200 19614.400000
80.049400 66069.000000
81.033600 20085.100000
81.069900 5171.100000
85.028400 5913.500000
86.096400 732358.600000
88.018200 124915.900000
90.033900 85070.800000
91.041600 20666.500000
92.049500 275004.600000
93.021000 8189.100000
93.044800 6887.100000
93.057300 17833.100000
94.052500 52154.600000
94.065200 10241.600000
95.036500 17519.800000
95.049100 30480.300000
96.044400 26549.300000
97.064900 7606.800000
103.029100 37823.000000
104.036700 6184.000000
104.049400 16079.000000
105.044700 100947.900000
106.028800 21964.900000
106.052500 13530.200000
106.065100 31538.000000
107.036600 67120.600000
107.060400 228625.400000
108.044300 122278.900000
109.052300 27078.200000
109.064700 13845.800000
110.060100 177175.800000
111.044000 15724.100000
117.044700 185477.600000
117.057200 9861.300000
118.028800 26592.800000
118.052500 358298.000000
118.065000 19901.200000
119.060400 186011.200000
120.044400 124710.700000
120.068200 26567.800000
121.039700 52581.400000
122.023800 4368.900000
122.047500 24139.300000
122.060100 23715.200000
123.067800 6701.900000
124.039500 9338.400000
126.054800 16641.400000
131.060400 45681.700000
131.072900 3565.200000
132.031800 20747.800000
132.044300 3063.000000
132.055600 13089.100000
132.068100 16836.300000
133.039600 84123.500000
133.076100 65328.100000
134.047400 58113.400000
135.055200 115334.700000
136.039300 11177.800000
137.034600 7180.100000
137.070900 22528.800000
138.055000 22529.900000
139.062700 7851.100000
140.070600 665672.900000
143.060300 6474.000000
144.031800 88556.100000
144.068200 11377.800000
144.080600 12974.700000
145.039600 629546.100000
146.047400 50545.000000
146.084000 4696.400000
147.055300 92942.600000
148.039100 6387.800000
148.063000 38577.000000
149.034500 33235.400000
149.071000 73138.000000
150.042300 20258.500000
150.054700 6694.000000
151.050200 102855.200000
153.054600 4837.200000
154.086400 14986.700000
155.057700 78124.100000
158.071100 17974.800000
159.055300 41598.400000
159.079100 22590.000000
160.063100 244227.800000
161.058600 186965.800000
161.070800 249476.600000
162.042400 296750.200000
162.066200 22836.000000
163.050200 741594.400000
164.034200 60561.700000
165.065800 122689.200000
168.065400 41348.900000
169.076000 10372.400000
170.083700 6499.300000
171.091600 22683.900000
173.071100 14946.000000
174.066100 11564.800000
175.050200 222562.800000
176.058100 43622.500000
177.065800 55931.200000
178.061200 8316.200000
179.044900 10330.800000
183.091900 8111.800000
184.099500 12195.800000
186.066300 11367.900000
187.074000 69926.400000
187.087300 3674.100000
188.082100 15859.600000
188.094700 10025.700000
189.102400 4662.300000
191.081500 164831.200000
192.076700 29073.700000
193.060900 59591.100000
197.071100 9650.400000
201.065600 3393.800000
203.068800 9098.200000
207.076400 22704.900000
211.086700 3703.500000
212.094900 7709.200000
214.061100 3573.800000
215.068900 38734.100000
216.076800 12482.000000
218.092400 24521.600000
219.064100 3953.700000
230.092700 3398.600000
246.087300 5607.100000

