>compound LU16781636
>parentmass 230.0594
>ionization [M+H]+
>formula C8H11N3O3S
>rt 201.780000
>profile orbitrap
#smiles_iso C1[C@@H](O[C@@H](S1)CO)N2C=CC(=NC2=O)N
#smiles_can C1C(OC(S1)CO)N2C=CC(=NC2=O)N
#inchikey JTEGQNOMFQHVDC-RQJHMYQMSA-N
#pubchem_id 73339
#mb_accession LU090301,LU090302,LU090303,LU090304,LU090305,LU090306

>ms2peaks
112.050600 131643.100000

>ms2peaks
112.050600 132056.800000
146.023200 4079.200000

>ms2peaks
101.005800 2116.800000
112.050600 111377.000000

>ms2peaks
68.024300 10409.900000
69.044800 2196.000000
73.010600 2021.200000
79.005700 14731.200000
95.023900 3595.400000
96.055500 9225.400000
104.001000 16205.900000
110.046100 6123.600000
112.050600 104435.700000
132.032500 8497.400000
138.077400 1840.600000
146.022900 48062.400000

>ms2peaks
61.010700 2250.000000
69.044700 6134.900000
73.010500 2939.000000
94.040000 3036.300000
95.024000 16795.200000
112.050600 77269.800000

>ms2peaks
61.010700 3631.700000
69.044700 8470.100000
73.010700 2631.100000
94.040100 4352.300000
95.024100 26409.800000
112.050600 42078.600000

