>compound LU16225795
>parentmass 208.0968
>ionization [M+H]+
>formula C11H13NO3
>rt 771.420000
>profile orbitrap
#smiles_iso CC(=O)CC(=O)NC1=CC=C(C=C1)OC
#smiles_can CC(=O)CC(=O)NC1=CC=C(C=C1)OC
#inchikey SWAJJKROCOJICG-UHFFFAOYSA-N
#pubchem_id 21576
#mb_accession LU038801,LU038802,LU038803,LU038804,LU038805,LU038806

>ms2peaks
59.049200 90955.600000
85.028400 30266.700000
103.039100 2401.200000
122.060200 16428.700000
124.075800 979926.900000
148.075700 21036.200000
150.055100 195178.600000
166.087000 2382.900000
182.081300 2140.300000
190.086300 103459.400000
208.097000 306754.200000

>ms2peaks
59.049200 91854.900000
85.028400 47352.700000
92.025600 2118.300000
92.049300 2420.000000
93.057300 7190.900000
103.039000 4431.900000
109.052300 3102.100000
122.060100 41494.900000
123.067900 3449.500000
124.075800 1066263.000000
148.075700 36419.000000
150.055100 168338.900000
166.086200 3176.400000
182.081400 2378.600000
190.086400 88035.100000
208.097000 132013.800000

>ms2peaks
59.049100 85845.400000
65.038700 1702.000000
85.028400 80962.400000
92.049500 30212.200000
93.057400 30880.300000
109.052200 19468.600000
121.064900 6371.900000
122.060100 136941.300000
123.067900 5546.800000
124.075800 942287.300000
148.075700 64319.900000
150.055100 93964.800000
166.086500 2553.400000
190.086600 26048.800000
208.096900 7446.900000

>ms2peaks
59.049200 70755.600000
65.038500 2598.400000
81.057400 6340.600000
85.028500 92523.400000
92.049500 85244.400000
93.057400 108730.300000
94.065200 6144.600000
95.049200 12908.800000
108.044000 2211.900000
109.052300 52942.700000
110.060100 6160.400000
121.064900 19203.200000
122.060100 206320.000000
123.067800 10074.300000
124.075800 610338.400000
125.059900 2514.800000
148.075800 34853.700000
150.055000 30177.400000

>ms2peaks
53.038600 5882.000000
59.049200 50283.800000
65.038600 13848.000000
67.054200 2236.700000
79.054200 4054.500000
80.049400 3841.300000
81.057400 26059.100000
85.028500 71022.600000
92.025700 7431.800000
92.049500 113720.800000
93.057400 201272.000000
94.065100 6770.200000
95.049200 52633.500000
107.036700 4838.800000
108.044500 8162.000000
109.052300 84142.600000
110.060100 9814.100000
121.065000 23664.100000
122.060100 226651.500000
123.068000 11927.000000
124.075800 303225.400000
125.059700 9215.300000
148.075800 11332.300000
150.055000 5451.500000

>ms2peaks
53.038700 11749.800000
59.049200 36547.200000
65.038600 31007.300000
67.054300 12380.600000
79.054200 4913.200000
80.049500 14042.200000
81.057400 61905.100000
85.028500 49616.400000
92.025800 26632.500000
92.049600 101470.500000
93.057400 262097.000000
94.065300 10433.600000
95.049200 111207.400000
107.036700 10243.400000
108.044500 17155.600000
109.052300 91160.500000
110.060200 8827.900000
121.064900 16159.400000
122.060200 185239.800000
123.068000 11851.500000
124.075800 112005.200000
125.059800 8362.600000
148.075700 4153.500000

