>compound LU16221740
>parentmass 214.1226
>ionization [M+H]+
>formula C14H15NO
>rt 1101.060000
>profile orbitrap
#smiles_iso C1=CC=C(C=C1)CN(CC2=CC=CC=C2)O
#smiles_can C1=CC=C(C=C1)CN(CC2=CC=CC=C2)O
#inchikey GXELTROTKVKZBQ-UHFFFAOYSA-N
#pubchem_id 69297
#mb_accession LU075701,LU075702,LU075703,LU075704,LU075705,LU075706

>ms2
92.049400 53882.000000
93.057600 21918.800000
122.060300 47446.600000
122.072500 38825.600000
136.075700 136433.400000
137.083500 684454.800000
182.096100 61604.100000
183.104100 58871.800000
199.099600 104579.300000
214.122400 18630064.000000

>ms2
92.049500 147284.000000
93.057600 20085.000000
121.064800 23638.100000
122.059700 63149.900000
122.072600 108419.000000
136.075800 495381.100000
137.083500 2233251.500000
167.073300 26610.300000
182.096500 159326.900000
183.104300 167937.800000
199.099500 302298.700000
213.114700 13681.100000
214.122500 13276811.000000

>ms2
65.038400 34686.400000
91.054200 12324.500000
92.049400 664446.100000
93.057200 115776.700000
106.065100 25760.500000
108.080700 28622.100000
109.064600 11725.500000
121.052100 45287.100000
121.064700 70291.000000
122.060000 1095275.400000
122.072500 506623.800000
124.075600 17798.100000
136.075800 1956006.900000
137.083400 10646857.000000
165.070300 16190.600000
167.072800 145800.100000
171.104600 23289.900000
180.080700 11935.000000
182.096300 318689.400000
183.104200 544290.900000
184.075600 126601.100000
184.112300 11553.800000
198.091100 32093.000000
199.099200 952082.800000
213.114500 13049.000000
214.122400 5069585.500000

>ms2
65.038500 96590.400000
79.054300 23496.500000
81.069900 8767.000000
91.054200 55255.800000
92.049500 573008.400000
92.062000 46955.600000
93.057300 367690.400000
94.065100 33544.000000
95.049000 12256.800000
106.065100 75745.700000
107.049100 29291.100000
108.080900 22803.200000
109.064700 23064.400000
121.052300 182544.800000
121.064800 58423.400000
122.060000 5294672.500000
122.071800 444224.500000
124.075700 17505.300000
136.075800 1520700.200000
137.083400 8722035.000000
155.085400 15154.700000
156.081100 24219.100000
165.069800 17305.500000
167.072900 118064.600000
168.080800 13863.700000
169.088300 10483.100000
170.096700 37730.700000
171.104600 27033.700000
180.080700 11709.500000
181.088200 14931.000000
182.096500 154425.600000
183.104200 319833.300000
184.075700 367228.000000
198.091300 58993.100000
199.099500 426942.300000
214.122500 467415.300000

>ms2
53.038600 19770.900000
65.038500 236170.000000
66.046400 17982.600000
77.038700 16030.600000
79.054100 68676.800000
81.070000 22107.700000
91.054300 154639.900000
92.049500 454228.700000
92.062000 86116.700000
93.057300 1059326.800000
94.065100 332902.100000
95.049200 47415.600000
106.065100 135038.800000
107.049100 80207.900000
108.080800 13271.900000
109.065000 33064.500000
121.052300 308722.300000
121.064800 65134.600000
122.060000 11638051.000000
129.069900 30980.400000
136.075800 887039.500000
137.083500 4442084.000000
153.069900 13032.000000
156.081300 85735.700000
165.069900 23426.300000
167.073000 134440.300000
168.081000 35529.400000
169.088400 16604.300000
170.096500 64165.400000
180.081100 21431.700000
182.096500 166770.500000
183.104300 144507.700000
184.075700 426410.800000
198.091200 63703.800000
199.097900 106814.700000
214.122800 26713.200000

>ms2
53.038600 64774.500000
65.038500 407842.500000
66.046300 81820.200000
67.054200 45862.700000
77.038400 35492.200000
78.046400 42860.500000
79.054200 141694.600000
81.069800 15301.600000
91.054200 226794.000000
92.049500 250171.100000
92.062000 68651.600000
93.057300 1620963.400000
94.065100 1498158.500000
95.049100 172109.000000
106.065100 108681.000000
107.049100 89709.400000
109.065000 25429.900000
121.052400 193724.600000
121.064800 63068.700000
122.060000 12937595.000000
128.061900 39006.600000
129.069800 91623.700000
136.075700 315950.500000
137.083500 1259012.900000
153.070000 18994.800000
154.064900 15373.900000
155.073300 14278.400000
156.081300 110797.600000
165.069600 33038.200000
167.072900 127913.700000
168.081200 30383.100000
170.096500 52002.200000
180.080800 30315.300000
182.096500 119983.000000
183.067800 18565.500000
183.104200 34767.800000
184.075700 290275.800000
198.091200 45982.700000

