>compound LU17000316
>parentmass 266.0845
>ionization [M+H]+
>formula C13H15NO3S
>rt 997.230000
>profile orbitrap
#smiles_iso CC[C@H](C)[C@@H](C(=O)O)N1C(=O)C2=CC=CC=C2S1
#smiles_can CCC(C)C(C(=O)O)N1C(=O)C2=CC=CC=C2S1
#inchikey FUSYFEXGXRDJNB-KWQFWETISA-N
#pubchem_id 462368
#mb_accession LU085301,LU085302,LU085303,LU085304,LU085305,LU085306

>ms2peaks
69.069800 83672.700000
135.998300 14997.800000
152.016400 602025.700000
164.015900 10838.700000
220.078900 4396612.500000
248.073900 290081.800000
266.084400 1604514.600000

>ms2peaks
53.002200 7980.200000
67.054200 7825.100000
69.069800 949021.000000
73.064700 3124.300000
97.064800 9428.700000
135.998300 7195.700000
152.016400 3080248.000000
164.016400 62522.800000
220.079000 2922712.000000
248.074100 34488.700000
266.084500 107528.800000

>ms2peaks
53.002200 40172.100000
53.997500 6699.200000
57.033500 4062.200000
59.049200 5229.900000
67.054200 22614.200000
69.069800 2372958.800000
73.064700 23382.200000
97.064700 12328.600000
109.010700 7641.300000
137.005700 3978.300000
152.016400 3890588.200000
164.016400 152867.000000
178.032200 9830.500000
220.079000 296557.900000

>ms2peaks
53.002200 87762.900000
53.997500 17542.800000
55.054200 10345.600000
57.033600 4299.100000
59.049100 12204.500000
67.054200 35315.900000
67.989400 4078.100000
69.069800 1705031.800000
73.064700 40446.900000
105.033500 16675.100000
109.010700 75530.200000
111.026400 5200.300000
134.005800 5208.600000
135.997700 19212.400000
137.005500 24863.100000
152.016400 2630872.000000
164.016400 142291.800000
178.032400 10118.100000
220.078800 8953.200000

>ms2peaks
53.002200 130418.200000
53.997500 20898.000000
55.017900 3219.600000
55.054200 18864.800000
57.033500 3230.400000
59.049100 14486.200000
65.038600 6831.500000
67.054200 31000.700000
67.989200 2942.800000
69.069900 913408.100000
73.064800 38510.200000
80.049500 16709.500000
90.033900 4365.700000
95.049200 4048.400000
97.010400 2316.000000
105.033500 78819.900000
108.002900 3576.500000
109.010700 297493.400000
111.026400 20520.500000
124.021700 7373.700000
134.005900 51358.100000
135.997800 78869.700000
137.005600 48609.100000
152.016500 1907887.800000
164.016500 88809.700000
178.031900 4500.900000

>ms2peaks
53.002200 154232.200000
53.038700 17325.200000
53.997500 24570.500000
55.017900 6318.700000
55.054300 31482.800000
59.049200 17510.900000
65.038500 25300.700000
67.054200 23438.000000
67.989200 2903.400000
69.069900 384337.200000
73.064800 25102.500000
80.049500 62459.500000
90.033900 23033.900000
95.049200 15154.500000
105.033600 190900.300000
108.002900 28502.500000
109.010700 506327.100000
111.026400 26688.500000
124.021500 10820.500000
134.005900 155838.100000
135.997800 143717.300000
137.005600 33512.100000
151.008900 3241.900000
152.016500 1131052.800000
154.008500 2438.700000
159.042700 12379.600000
164.016500 32180.100000
166.032100 5880.900000
191.014600 14097.200000
192.022300 2109.200000

