>compound LU17743847
>parentmass 404.1623
>ionization [M+H]+
>formula C22H26ClNO4
>rt 916.260000
>profile orbitrap
#smiles_iso CCOC(=O)COC1=CC2=C(CCC(C2)NCC(C3=CC(=CC=C3)Cl)O)C=C1
#smiles_can CCOC(=O)COC1=CC2=C(CCC(C2)NCC(C3=CC(=CC=C3)Cl)O)C=C1
#inchikey RDJQCOBTKKAQAH-UHFFFAOYSA-N
#pubchem_id 10408902
#mb_accession LU024301,LU024302,LU024303,LU024304,LU024305,LU024306

>ms2peaks
154.041700 163196.300000
159.080300 32767.700000
172.052100 49036.900000
233.117100 1115669.100000
386.151700 2274004.500000
404.162200 15118682.000000

>ms2peaks
91.054100 17300.500000
118.065000 32347.500000
119.073000 26480.300000
128.062300 23787.900000
129.069300 48588.800000
131.085500 381265.400000
139.031000 39578.700000
145.064700 47747.100000
146.072500 61781.200000
147.080300 23936.800000
154.041800 2484926.200000
156.057200 22834.200000
157.064900 228299.200000
159.080400 4076625.800000
168.057300 49975.100000
172.052300 102255.900000
187.075300 113302.300000
187.111500 30179.400000
191.106600 59723.200000
205.085900 436809.400000
207.101600 38064.200000
233.117100 11618882.000000
260.128200 16211.300000
358.119900 18840.000000
386.151800 1421840.400000
404.162400 640671.000000

>ms2peaks
79.054200 22480.800000
91.054200 462567.600000
103.054200 76873.800000
105.069900 51475.700000
115.054100 49251.400000
116.062100 71957.100000
117.069900 105712.400000
118.065100 282416.300000
119.073000 380332.800000
127.054400 18892.500000
128.061800 128504.700000
129.069900 447794.800000
131.085500 5397955.000000
133.064700 11439.000000
139.031000 130806.500000
141.069900 146141.400000
142.077500 11222.800000
144.057000 108448.500000
145.064900 318734.900000
146.072600 495351.600000
147.080400 577310.700000
154.041800 2411224.500000
155.060400 28788.900000
157.076100 927862.100000
159.080400 10939899.000000
168.057500 16029.000000
169.075900 11365.700000
172.088100 16547.000000
174.091500 15467.400000
174.103500 22654.100000
175.111700 19778.000000
177.091200 34072.300000
187.075300 119911.900000
187.111900 72414.200000
191.106600 99528.200000
205.086000 1333423.500000
207.101800 34497.400000
233.117200 3029282.200000
358.120100 11037.600000
386.152100 27373.000000

>ms2peaks
51.022900 7598.600000
53.038600 22342.900000
55.017800 13121.700000
63.022800 8063.800000
65.038500 10330.800000
77.038300 8616.100000
79.054100 72230.200000
91.054200 2201763.800000
95.049000 10224.300000
102.046400 12798.000000
103.054200 238526.400000
105.069800 183613.100000
107.049200 9825.000000
115.054100 180256.300000
116.062000 476580.000000
117.057100 18805.200000
117.069800 354267.300000
118.065000 563972.700000
119.072900 1042644.600000
121.064700 16999.800000
125.014900 8513.000000
127.030900 13187.800000
127.053900 40660.600000
128.062000 1064076.600000
129.069800 1642687.600000
130.077700 24694.300000
131.085400 6879143.500000
132.057100 8385.500000
133.064600 44002.600000
137.015400 26164.500000
139.030900 94182.700000
141.069800 235235.500000
142.077600 35879.500000
143.060300 17346.100000
144.056900 279094.300000
145.064700 719087.100000
146.072500 824018.800000
147.080300 1773507.000000
154.041700 977352.400000
155.060300 196619.700000
157.075900 2644973.500000
158.072800 38695.900000
159.080300 4099034.500000
169.076000 22922.700000
172.088000 27594.100000
174.091000 10559.800000
174.103800 15145.700000
175.111600 7081.100000
177.090800 15470.000000
179.070000 12265.300000
187.075200 13543.300000
187.111700 17588.600000
191.106200 31405.500000
204.078100 40053.200000
205.085800 369708.000000
207.101200 7177.800000
233.117000 142352.600000

>ms2peaks
51.022900 6821.200000
53.038600 39653.700000
55.017900 12503.900000
63.022800 8956.400000
65.038500 31823.500000
75.022800 5616.100000
77.038600 12590.000000
79.054200 74370.600000
90.046500 4936.000000
91.054200 3626512.500000
92.062000 8369.000000
95.049100 24693.600000
102.046500 35461.900000
103.054200 385818.700000
104.049500 16986.600000
104.061900 6405.700000
105.069900 159576.500000
107.049100 44369.800000
115.054200 440264.900000
116.062100 900461.900000
117.057400 43103.000000
117.069900 603418.600000
118.065100 587771.600000
119.073000 1221629.200000
121.064700 23190.200000
125.015200 12776.400000
126.046000 5752.800000
127.030900 11551.900000
127.054200 126470.800000
128.062100 3639176.500000
129.069800 2198703.000000
130.077700 33019.800000
131.049200 305058.200000
131.085500 3130785.200000
132.057100 25030.900000
133.064700 41725.400000
137.015300 26754.300000
139.030900 40998.500000
141.069800 186484.300000
142.077600 41757.200000
143.060200 25189.900000
144.057000 300619.400000
145.064800 1192091.200000
146.072600 542335.400000
147.080400 1522824.200000
154.041800 232278.400000
155.060400 671397.200000
156.057200 6838.200000
157.076000 2249788.500000
158.072700 28424.000000
159.080400 730564.100000
161.096300 5669.000000
169.075700 14211.400000
172.088000 8800.300000
174.091100 7296.900000
179.070200 4959.300000
204.078200 11997.800000
205.085900 31595.000000

>ms2peaks
50.015100 8442.400000
51.023000 13166.500000
53.038600 57281.600000
55.017800 12951.500000
63.022900 14505.100000
65.038500 86154.100000
75.022800 9945.000000
77.038400 22808.400000
79.054200 44479.800000
89.038300 12664.000000
91.054200 4049466.200000
92.062000 25727.000000
95.049100 62065.900000
102.046400 65928.900000
103.054200 533099.400000
104.049400 47487.400000
104.062000 14287.500000
105.069900 104045.300000
107.049100 102958.600000
115.054200 838007.200000
116.062000 1168321.000000
117.057300 56518.100000
117.069900 677049.400000
118.065100 718497.400000
119.072900 983910.300000
121.064500 19192.200000
125.015300 13759.700000
126.046400 26863.700000
127.054200 385879.700000
128.062000 6598318.000000
129.069700 1702506.900000
130.077400 28615.700000
131.049100 492723.900000
131.085500 930795.300000
132.056900 55451.100000
133.064800 34909.900000
137.015200 17040.000000
139.030600 13061.600000
141.069800 138115.700000
142.077600 32828.300000
143.060500 22441.700000
144.057000 216752.200000
145.064700 1568086.000000
146.072600 243727.700000
147.080300 698752.100000
154.041600 39855.900000
155.060300 1175469.800000
157.076000 939945.000000
158.072700 13110.600000
159.080400 108758.100000

