>compound LU17143742
>parentmass 179.1179
>ionization [M+H]+
>formula C10H14N2O
>rt 729.360000
>profile orbitrap
#smiles_iso CC(C)NC(=O)C1=CC=CC=C1N
#smiles_can CC(C)NC(=O)C1=CC=CC=C1N
#inchikey FWQYJOPJMIEKHZ-UHFFFAOYSA-N
#pubchem_id 94411
#mb_accession LU068001,LU068002,LU068003,LU068004,LU068005,LU068006

>ms2peaks
72.044300 2954.200000
92.049400 2789.200000
120.044400 608948.900000
137.011700 14938.100000
151.027600 1950.300000
155.022300 9712.100000
165.006700 71722.900000
179.117900 47566.800000

>ms2peaks
72.044300 3927.100000
92.049500 2138.600000
120.044500 678899.200000
137.011800 21648.600000
151.027500 2618.700000
155.022500 11553.300000
165.006700 71056.700000
179.118000 34627.500000

>ms2peaks
65.038600 2780.000000
72.044300 4371.500000
92.049500 24261.400000
120.044400 658640.800000
137.011800 51938.600000
151.027300 6643.900000
155.022300 34122.600000
165.006700 28438.800000
169.038000 4815.800000
179.118100 2603.000000

>ms2peaks
65.038500 14691.500000
72.044300 4533.400000
92.049500 120445.400000
120.044400 547853.800000
122.072700 2339.300000
137.011800 63842.400000
151.027300 6644.000000
155.022300 34260.900000
165.006600 4432.200000
169.037800 4480.400000

>ms2peaks
65.038600 66721.000000
72.044400 1933.200000
79.054400 1601.300000
92.049500 301127.800000
110.060100 7385.100000
120.044500 403883.200000
122.072600 4662.600000
137.011900 38608.300000
139.999000 5019.600000
151.027400 4838.800000
151.999300 1949.900000
155.022400 28869.100000
169.038200 3898.700000

>ms2peaks
65.038600 161269.300000
79.054200 2220.200000
92.049500 330738.300000
110.060100 11215.900000
120.044500 163651.700000
137.011900 25355.600000
139.999100 4276.700000
151.027700 1596.400000
151.999000 1868.200000
155.022400 10850.800000

