>compound LU17315052
>parentmass 255.08379999999997
>ionization [M+H]+
>formula C16H14OS
>rt 1217.520000
>profile orbitrap
#smiles_iso CC(C)C1=CC2=C(C=C1)SC3=CC=CC=C3C2=O
#smiles_can CC(C)C1=CC2=C(C=C1)SC3=CC=CC=C3C2=O
#inchikey KTALPKYXQZGAEG-UHFFFAOYSA-N
#pubchem_id 79633
#mb_accession LU108101,LU108102,LU108103,LU108104,LU108105,LU108106

>ms2peaks
213.036900 281398.900000
255.083800 5984655.000000

>ms2peaks
184.034800 6029.900000
213.036800 2004426.500000
239.052300 4690.100000
240.060000 4038.700000
255.083700 3847368.000000

>ms2peaks
53.002300 16394.100000
184.034000 22187.300000
213.036800 4808913.000000
239.052000 5760.200000
240.060400 26577.800000
255.083800 790799.800000

>ms2peaks
53.002200 37425.800000
152.062100 9630.100000
184.034200 334493.000000
185.042000 74080.900000
212.029700 14530.000000
213.036800 4340851.000000
225.036700 8399.000000
239.052500 56328.400000
240.060300 31645.400000
255.083600 56982.700000

>ms2peaks
53.002200 41669.600000
95.049300 2512.900000
105.033600 6707.800000
115.054500 3103.900000
139.054200 4573.300000
141.069800 27784.200000
152.062100 55207.700000
180.057200 5907.800000
181.065000 4148.600000
183.026400 12770.100000
184.034200 1493793.200000
185.042000 176198.100000
197.042100 16760.700000
201.037100 6104.900000
212.029200 26808.300000
213.036900 2177145.000000
224.029000 4181.100000
225.036800 22014.600000
239.052600 126264.100000
240.060600 8348.400000
255.086700 2364.000000

>ms2peaks
53.002300 26427.700000
95.049300 4526.000000
105.033700 10936.100000
115.054600 6348.400000
139.054200 14775.200000
141.069900 29011.700000
152.062100 63264.600000
180.056800 5320.200000
181.065100 2601.500000
183.026500 21139.600000
184.034300 1428571.500000
185.042100 62676.500000
197.042300 20738.900000
201.036700 3550.600000
212.029300 11626.500000
213.037000 369013.600000
221.041900 5299.300000
224.029600 11037.300000
225.036600 10499.000000
239.052700 58603.500000

