>compound LU17351527
>parentmass 324.1594
>ionization [M+H]+
>formula C20H21NO3
>rt 1121.100000
>profile orbitrap
#smiles_iso CC(C)C1=C(C(=CC=C1)C(C)C)N2C(=O)C3=C(C2=O)C=C(C=C3)O
#smiles_can CC(C)C1=C(C(=CC=C1)C(C)C)N2C(=O)C3=C(C2=O)C=C(C=C3)O
#inchikey LAKWINYVWJPHQW-UHFFFAOYSA-N
#pubchem_id 11723708
#mb_accession LU024201,LU024202,LU024203,LU024204,LU024205,LU024206

>ms2
77.038600 3097.700000
240.065600 816816.700000
262.067700 6401.400000
282.112600 1496559.000000

>ms2
77.039100 7087.100000
91.054400 2619.400000
146.023700 2195.300000
240.065700 1895926.100000
242.061400 13996.300000
262.067500 49626.700000
264.102200 5913.600000
281.047700 5835.200000
282.112700 139251.700000

>ms2
77.039000 7321.100000
91.054200 7077.900000
111.044000 2428.900000
120.044400 5105.400000
121.028400 27722.200000
128.049200 2412.200000
130.028300 2237.600000
146.023600 35620.500000
149.023600 2935.300000
173.021500 2524.700000
204.081200 3233.400000
232.075900 8162.100000
240.065500 1926341.400000
242.061000 44624.100000
249.078700 4016.200000
262.068100 10543.600000
264.101800 5530.300000
281.047400 8990.300000
282.112600 7391.700000

>ms2
51.023000 1976.400000
53.002200 2556.900000
53.038600 28641.300000
65.038500 15021.700000
68.997100 2036.400000
77.038800 8910.800000
81.033400 2885.300000
90.033900 3419.100000
91.054200 6406.100000
93.033600 2355.000000
94.041300 2215.000000
95.049200 83314.500000
105.033400 6732.400000
111.043900 11777.700000
116.049700 3102.500000
120.044400 48840.500000
121.028400 244539.600000
128.049800 4677.000000
130.028800 8699.000000
138.010500 2482.700000
139.006200 2452.000000
146.023700 379558.900000
164.034400 13238.800000
166.065800 2247.700000
169.065000 2811.200000
173.020900 4336.500000
178.049900 24857.300000
184.075700 5372.300000
194.060300 2583.200000
196.076000 2888.600000
204.080900 8978.900000
212.070500 12009.000000
218.084000 3542.100000
222.055000 8893.200000
232.075500 12988.200000
240.065600 1303618.500000
242.061200 14995.200000
246.091500 2784.700000
248.071200 3030.500000
249.078100 7333.500000

>ms2
50.015100 4569.300000
51.023000 22287.500000
53.002200 5712.200000
53.038600 100605.400000
55.017900 7197.700000
63.022900 9036.200000
65.038500 37576.800000
77.038500 46573.900000
79.054400 1945.600000
81.033600 9517.800000
90.033800 19621.500000
91.054200 15657.300000
92.049300 6530.300000
93.033600 2881.000000
94.041500 10300.100000
95.049200 298617.400000
105.033500 8049.500000
109.064800 3955.800000
111.044000 23029.600000
115.054200 3504.900000
116.049300 6586.700000
120.044400 46037.800000
121.028400 256243.800000
128.049400 5334.300000
129.069500 2889.500000
136.039400 8661.900000
138.010500 2652.800000
139.005800 4492.900000
139.054000 2490.400000
141.070300 4595.400000
146.023700 560060.200000
146.034600 37320.000000
149.023300 4090.600000
156.081000 9175.000000
164.034300 14602.200000
166.065300 9646.600000
167.072800 4208.800000
169.064700 4374.500000
173.021200 3504.700000
178.049900 35072.500000
183.067900 2701.600000
184.075500 7724.700000
194.060200 5503.000000
196.075600 4722.600000
204.081100 9857.200000
212.070900 15881.800000
218.083800 5134.000000
220.076300 2449.300000
222.055400 7611.500000
232.075600 6433.800000
240.065600 280242.000000
242.061500 2173.800000
248.070500 5438.600000
249.077900 3214.600000

>ms2
50.015100 19641.900000
51.023000 55750.700000
53.038600 173709.800000
55.017800 9461.200000
63.022900 59904.700000
65.038600 74361.700000
68.997100 3115.000000
77.038600 105436.600000
79.054300 4366.500000
81.033600 19923.200000
90.033900 79061.000000
91.054300 15775.100000
92.049500 10940.800000
94.041400 21624.000000
95.049200 470249.800000
109.064900 5629.100000
111.044100 31964.500000
115.054400 9896.600000
116.049600 2512.300000
120.044500 25446.200000
121.028500 108210.400000
128.049500 4670.000000
129.070200 3767.400000
130.028900 2228.700000
136.039600 14239.900000
139.005500 3595.200000
139.054300 10209.300000
141.070000 6360.500000
146.023800 425590.600000
146.034000 77926.500000
156.080900 7078.900000
164.034200 7728.300000
166.065500 10394.000000
167.072700 7130.700000
169.064900 3873.700000
173.020900 3336.000000
178.050000 23414.200000
183.067800 2643.200000
184.076000 5094.200000
196.075700 3066.400000
204.080900 8655.200000
212.070500 6803.500000
218.084000 2204.100000
220.075700 5369.100000
222.054700 3857.700000
240.065600 33949.700000
246.091800 2484.200000
248.071000 4307.200000

