>compound LU17696626
>parentmass 315.1339
>ionization [M+H]+
>formula C17H18N2O4
>rt 901.740000
>profile orbitrap
#smiles_iso C1=CC(=CC=C1C(=O)OCCCOC(=O)C2=CC=C(C=C2)N)N
#smiles_can C1=CC(=CC=C1C(=O)OCCCOC(=O)C2=CC=C(C=C2)N)N
#inchikey YPACMOORZSDQDQ-UHFFFAOYSA-N
#pubchem_id 93312
#mb_accession LU029101,LU029103,LU029104,LU029105,LU029106

>ms2peaks
120.044600 9594.400000
178.086300 9611.300000
269.104700 2503.800000
283.071500 2386.700000
298.093800 3172.500000

>ms2peaks
67.017900 13412.700000
91.054300 4615.200000
120.044400 19267.900000
168.081000 3564.700000
178.086500 2555.800000
181.088700 3383.300000
182.096300 2352.300000
196.076000 2536.200000
198.091900 2586.100000
208.075800 3351.300000
209.084200 5995.200000
210.091400 22314.900000
226.086400 36000.900000
236.070600 7894.300000
241.073500 5342.200000
243.088900 8880.000000
254.081300 21449.100000
268.097200 22283.700000
269.105000 20495.400000
283.071400 4836.400000
298.095800 6304.000000

>ms2peaks
67.017800 11762.700000
91.054200 9770.800000
120.044500 15865.000000
168.080900 2941.200000
180.081000 5780.400000
182.096800 3165.000000
196.076100 3168.700000
208.076000 8955.100000
209.083500 4196.700000
210.091700 11299.000000
226.086100 15627.200000
236.070400 6445.500000
241.073600 3504.700000
243.089500 2240.600000
254.080800 6543.200000
268.097100 4657.700000
269.105700 1833.900000

>ms2peaks
67.017800 41930.500000
91.054300 6795.700000
92.049600 5079.400000
115.054400 2995.100000
120.044500 14579.700000
128.062200 3626.400000
139.054500 4668.600000
141.069900 5956.200000
152.062500 4651.200000
153.070100 7343.400000
166.065400 3629.100000
167.073000 5610.700000
168.081200 4863.900000
180.081100 22147.600000
181.088900 6530.900000
182.096700 6246.800000
196.075800 4862.900000
198.091500 5949.400000
208.075800 22688.700000
209.083800 5306.600000
210.091300 17016.400000
226.086600 15840.400000
236.070900 5555.500000
254.081800 2657.800000

>ms2peaks
67.017900 27137.200000
91.054400 6328.000000
92.049700 5306.200000
115.054400 5945.900000
120.044700 5939.500000
128.062300 3937.400000
139.054600 6027.400000
141.070400 5779.100000
152.062300 10437.900000
153.070200 10473.000000
166.065700 2948.800000
167.073400 6902.000000
168.081200 6887.700000
180.081000 20302.500000
181.089100 3065.900000
196.076300 3352.400000
198.091300 2164.500000
208.076100 9955.700000
209.083700 2865.800000
210.092000 5804.500000
226.086800 3472.700000

