>compound LU18042048
>parentmass 281.102
>ionization [M+H]+
>formula C14H16O6
>rt 988.680000
>profile orbitrap
#smiles_iso CCOC(=O)COC(=O)C1=CC=CC=C1C(=O)OCC
#smiles_can CCOC(=O)COC(=O)C1=CC=CC=C1C(=O)OCC
#inchikey PZBLUWVMZMXIKZ-UHFFFAOYSA-N
#pubchem_id 6785
#mb_accession LU055401,LU055402,LU055404,LU055405,LU055406

>ms2
149.115800 7325.200000
161.115600 6683.300000

>ms2
134.091900 4190.100000
135.099700 5262.100000
147.100000 6740.700000
149.023600 4904.900000
149.115400 59542.800000
161.115400 185103.700000

>ms2
79.054300 2170.400000
105.070100 8189.500000
119.068700 2118.400000
119.085600 3047.800000
131.068400 4958.600000
134.091900 16717.300000
135.099800 37830.300000
146.091700 38704.700000
147.099600 16915.200000
149.023300 3802.500000
149.115600 45169.400000
151.094800 4726.400000
161.115600 226037.800000

>ms2
91.054300 5341.500000
105.070000 16513.600000
106.077400 2087.700000
117.070000 2446.600000
119.068600 5132.900000
119.085600 3839.200000
131.068500 18143.200000
132.076200 5119.200000
133.084100 36957.400000
135.099700 37876.900000
146.091800 50776.900000
147.099600 6611.300000
149.023000 2369.500000
149.115400 26909.200000
151.094500 3828.200000
161.115500 75394.900000

>ms2
79.054300 7300.000000
91.054300 11419.200000
105.069900 20462.300000
106.077300 2228.600000
117.069800 2467.500000
131.068400 26424.900000
132.076300 3226.300000
133.084100 43458.800000
134.091900 5744.400000
135.099800 29138.000000
146.091700 26132.700000
147.100000 4395.500000
149.115500 15056.500000
151.094500 1963.000000
161.115400 19479.600000

