>compound LU18482824
>parentmass 477.2647
>ionization [M+H]+
>formula C27H37FO6
>rt 1116.180000
>profile orbitrap
#smiles_iso CCCCC(=O)O[C@@]1([C@H](C[C@@H]2[C@@]1(C[C@@H]([C@]3([C@H]2CCC4=CC(=O)C=C[C@@]43C)F)O)C)C)C(=O)CO
#smiles_can CCCCC(=O)OC1(C(CC2C1(CC(C3(C2CCC4=CC(=O)C=CC43C)F)O)C)C)C(=O)CO
#inchikey SNHRLVCMMWUAJD-SUYDQAKGSA-N
#pubchem_id 16533
#mb_accession LU066701,LU066702,LU066703,LU066704,LU066705,LU066706

>ms2
85.064900 2100.100000
95.085700 4315.500000
103.075500 2139.800000
107.085600 9814.800000
109.101300 6687.200000
119.085700 2237.000000
121.101100 2819.600000
123.080500 9045.000000
133.101200 4580.900000
135.080500 7007.900000
137.096100 8778.500000
147.080500 16839.500000
149.096000 6323.800000
151.075200 2364.200000
153.091200 30433.800000
159.080400 3907.300000
161.096100 6908.500000
167.106800 18969.500000
171.080600 9294.200000
173.096600 5937.500000
177.091500 4825.500000
185.096200 23541.800000
187.075500 13969.100000
199.112100 2650.400000
209.097100 2367.600000
213.127300 3214.200000
237.127500 2682.500000
239.106700 4069.900000
261.127100 5169.300000
263.143100 10655.000000
275.143400 9046.300000
277.158800 22493.000000
279.174600 176791.800000
289.159200 10842.900000
291.174500 33857.000000
297.185000 14356.100000
301.158900 17199.700000
307.169500 19144.700000
311.163000 3263.400000
319.169500 76085.500000
325.179900 19416.700000
337.180100 136530.600000
355.190600 230274.800000

>ms2
57.069900 5083.000000
69.069900 2934.500000
85.064800 5206.000000
93.069900 5619.900000
95.085500 13069.400000
103.075100 2583.500000
105.070000 3271.900000
107.085500 16808.800000
109.101200 13477.800000
119.085500 15608.300000
121.064700 15430.800000
121.101100 10991.900000
123.080400 16817.400000
131.085500 3422.500000
133.064600 2261.900000
133.101200 8690.900000
135.080300 27761.300000
137.096200 7847.600000
143.085300 2743.100000
145.064900 3523.500000
145.101100 3280.400000
147.080400 57004.700000
149.096100 14873.400000
153.091200 12842.800000
159.080400 18927.000000
161.096100 14059.500000
167.106300 9734.300000
169.065000 2692.500000
171.080400 36933.500000
171.116400 3737.600000
173.096100 19536.400000
177.091000 4423.800000
183.080900 3219.800000
185.096200 29344.400000
187.075500 21574.200000
187.111700 3608.900000
197.096200 7760.400000
199.111500 4301.300000
209.096000 3776.900000
211.111900 7628.100000
213.127500 7744.000000
221.095900 8925.000000
223.111900 17670.500000
225.126900 3231.100000
235.111800 5471.600000
237.127400 7178.000000
239.106600 3865.300000
239.142400 2593.000000
248.119300 3704.100000
249.127500 10988.100000
251.142700 3550.800000
259.112200 4448.900000
261.127600 6750.300000
262.134800 6493.700000
263.143300 26189.200000
264.150100 3436.500000
274.134500 3106.800000
275.143100 9021.900000
276.151100 4171.200000
277.158700 30470.300000
278.166500 30600.100000
279.174400 127411.900000
286.135100 5210.200000
289.159000 13820.100000
291.174600 30200.100000
297.184000 2243.200000
301.157500 12584.000000
307.169100 12154.500000
311.161200 2104.700000
319.169100 30072.800000
325.179200 3001.500000
337.179800 16528.700000
355.189800 4517.500000

>ms2
55.054300 3826.700000
57.069900 12740.800000
67.054200 6697.600000
69.033300 2891.800000
69.069800 8572.700000
79.054200 5467.900000
81.069900 6643.300000
83.085500 4078.600000
85.064900 5383.000000
91.054200 6671.000000
93.069900 16251.300000
95.049300 2786.200000
95.085500 21918.200000
105.070000 10764.900000
107.085600 27504.400000
109.065000 2090.600000
109.101300 14532.600000
117.069800 3116.200000
119.085600 30775.500000
121.064800 29469.200000
121.101100 19930.600000
123.080400 21290.000000
129.070300 3077.700000
131.085800 10601.100000
133.064500 2135.000000
133.101200 10524.800000
135.080500 33599.200000
137.096200 6129.200000
141.069900 2676.800000
143.085500 9993.000000
145.064800 4411.500000
145.101500 10421.800000
147.080400 78756.500000
149.096200 7627.300000
151.075900 2368.000000
153.090600 4953.700000
155.085300 4146.900000
157.101000 4365.200000
158.072700 5337.300000
159.080500 33034.100000
161.096200 13480.900000
169.064900 3063.000000
171.080500 50533.700000
171.116700 5017.200000
173.096200 24731.300000
179.085800 2617.600000
181.101300 3372.600000
183.080500 3296.000000
185.096200 23863.000000
187.075500 15336.500000
187.111800 2979.600000
193.101300 2671.200000
195.080500 2795.800000
197.096300 8760.000000
199.111500 2746.900000
208.088700 4546.500000
209.096500 9795.800000
210.103300 3329.900000
211.111800 7440.800000
213.127300 5080.900000
221.096500 12700.400000
222.104100 6770.100000
223.111900 24996.900000
225.127600 3456.400000
229.101000 2633.600000
234.104000 6345.800000
235.111700 11406.800000
236.120100 3674.600000
237.127400 9070.600000
239.106000 5286.500000
239.142500 3329.500000
243.116800 2442.600000
247.111000 2674.800000
248.119500 11460.100000
249.127600 11650.400000
251.143000 2701.100000
259.110900 3202.000000
260.119200 3421.800000
261.127400 8944.500000
261.163900 4348.700000
262.135600 14440.400000
263.142900 30931.000000
264.150500 10280.400000
271.113200 2772.500000
273.127100 2346.600000
274.135500 4144.600000
275.143200 5086.700000
276.150800 5909.200000
277.158600 10647.100000
278.166600 15653.100000
279.174700 26379.100000
286.134800 6112.300000
289.159000 4133.400000
291.174600 6556.100000
301.158900 2682.500000
319.169500 4135.800000

>ms2
53.038600 1739.500000
55.017900 2400.900000
55.054300 7021.200000
57.069900 14909.500000
65.038600 2135.400000
67.054300 16607.400000
69.033500 2783.000000
69.069800 5902.900000
79.054200 11463.100000
81.069800 5646.900000
83.085500 2783.700000
85.064800 3155.400000
91.054300 26762.100000
93.070000 17225.000000
95.049100 7005.100000
95.085700 18801.500000
103.054400 2603.400000
103.075700 2659.700000
105.070000 35218.900000
107.049200 3945.700000
107.085700 33448.700000
109.064900 2857.200000
109.101200 14207.900000
115.054300 4856.300000
116.062400 2360.100000
117.069900 5905.900000
119.085600 33796.000000
121.064900 41544.900000
121.101600 9499.000000
123.080400 12193.800000
128.062200 12122.000000
129.070000 6168.600000
130.077400 2118.500000
131.085700 12956.800000
132.057200 3571.500000
133.065300 3149.600000
133.101100 6710.100000
135.080500 21362.400000
141.069900 9394.000000
142.077800 4615.600000
143.085700 15761.100000
144.056900 3389.700000
145.064800 15253.500000
145.101200 7470.600000
146.072700 2848.800000
147.080500 69646.200000
153.070000 3288.900000
155.085700 7150.500000
156.093800 2084.300000
157.064900 2396.900000
157.101300 5407.000000
158.072900 11752.900000
159.080700 37060.600000
161.096100 9429.600000
165.070100 3191.000000
167.085800 4856.100000
169.065100 2905.300000
170.072300 3865.700000
171.080500 32608.100000
172.088100 3190.000000
173.096000 11480.700000
178.077900 3833.000000
179.085500 6097.600000
181.101400 2236.200000
182.073000 2656.700000
183.080500 3445.500000
185.096400 17965.400000
187.075600 7912.400000
191.085800 4802.500000
192.092900 3502.500000
193.101100 6080.900000
194.073000 3206.900000
195.080800 6014.600000
196.088500 4108.300000
197.096400 6854.700000
203.085600 2608.200000
205.101600 4388.100000
209.097000 11393.900000
210.104000 3330.700000
211.111700 4380.300000
216.093600 5283.300000
217.101300 2847.600000
219.080600 3875.600000
219.117200 3977.100000
221.096200 12311.500000
222.104000 8642.200000
223.112300 12313.700000
229.101200 4906.400000
231.080800 2722.400000
231.117000 4209.700000
232.087600 2988.200000
233.096000 6075.200000
234.104200 7188.800000
235.111400 11227.400000
236.119700 2496.000000
243.116800 5941.100000
245.096200 4695.000000
246.104300 5482.100000
248.119700 12070.800000
249.127600 11450.100000
259.111900 8022.600000
260.119300 2802.200000
261.163900 2853.100000
262.135000 7247.400000
263.143500 21015.900000
271.112600 4961.000000
273.127200 2548.900000
274.135400 4827.900000

>ms2
53.038600 5838.300000
55.054300 9926.400000
57.069800 10156.300000
65.038600 6135.700000
67.054100 21843.000000
69.033400 4575.000000
69.069700 3117.300000
77.038400 2390.600000
79.054200 20255.400000
81.069900 6746.700000
91.054200 65665.500000
93.069900 19297.600000
95.049000 13079.200000
95.085600 14777.900000
103.054200 4651.500000
105.069900 41589.600000
107.049200 7011.100000
107.085500 16460.900000
109.064800 3425.300000
109.101000 6486.400000
115.054300 19919.800000
116.061800 3724.700000
117.069900 13026.100000
119.085600 35888.700000
121.064800 38676.200000
121.101300 2802.300000
123.080400 5814.500000
128.062000 31732.300000
129.069800 12153.200000
130.077600 4709.100000
131.049000 3994.600000
131.085600 12752.200000
132.057000 9100.200000
133.064700 3072.000000
133.101400 6895.300000
135.080400 5271.600000
141.069900 19908.000000
142.077700 9988.000000
143.085600 15402.300000
144.057100 7828.600000
145.064800 15849.000000
145.101000 7000.300000
146.072500 5089.200000
147.080400 34395.900000
152.062000 3993.500000
153.069800 5921.000000
155.085500 9533.300000
156.093100 2627.100000
157.064800 2359.000000
158.072800 14023.300000
159.080300 21178.900000
161.096300 3943.700000
165.069700 12702.400000
166.077600 3936.900000
167.085300 3385.900000
168.057000 2458.200000
169.064500 6012.200000
170.072900 4091.000000
171.080400 18333.000000
172.088400 2371.200000
173.096000 7345.200000
178.077200 9978.200000
179.085300 8932.700000
180.093300 5802.100000
181.064700 5362.700000
181.100900 2402.300000
182.072400 4071.600000
183.080500 5563.400000
185.096200 8013.300000
189.070200 4616.600000
190.077600 5790.600000
191.085400 8320.400000
192.093100 6253.600000
193.101200 5496.900000
194.073000 3430.700000
195.080400 6674.400000
196.087900 4439.000000
197.096100 2742.600000
202.077700 3698.200000
203.085200 4572.000000
204.093600 3716.800000
205.065000 2318.400000
205.101000 6822.300000
206.072300 3055.400000
207.080300 5399.100000
207.116100 2914.700000
208.088400 11820.800000
209.096000 7554.700000
215.085200 7356.200000
216.093200 7271.000000
217.100800 2982.400000
218.073100 2422.600000
219.080300 8983.200000
219.117200 5358.800000
220.087500 3658.400000
221.096400 14428.600000
222.104000 3994.200000
223.111400 2971.600000
228.093100 3711.700000
229.101200 7815.700000
230.108800 5506.800000
231.080500 5208.300000
231.116900 4053.800000
232.088200 7181.900000
233.096600 13523.500000
234.104000 7739.100000
235.112100 7020.900000
243.116200 3241.800000
244.087700 2019.100000
245.096500 3930.700000
246.103600 5429.700000
247.111700 9820.100000
248.119500 6221.200000
249.127200 3288.700000
259.111300 6207.400000
261.127800 5618.800000
263.143200 4790.800000

>ms2
53.038600 9681.100000
55.017900 4567.900000
55.054300 9113.100000
57.069900 11565.400000
65.038600 10606.800000
67.054300 25195.800000
69.033500 3155.900000
69.069900 2186.700000
77.038700 2423.300000
79.054300 27487.100000
81.069900 8286.100000
91.054300 130792.700000
93.070100 19775.000000
95.049200 23441.500000
95.085600 9006.700000
103.054300 16719.400000
105.070000 37924.200000
107.049100 10752.900000
107.085500 6462.500000
109.064900 4918.200000
109.101700 3046.600000
115.054300 44989.700000
116.062100 17889.200000
117.070000 20158.800000
119.085600 30365.900000
121.065000 30783.000000
128.062100 53835.400000
129.070000 18636.100000
130.077700 5330.000000
131.049300 8060.100000
131.085700 8115.500000
132.057000 18892.700000
133.101100 2791.500000
135.080400 2770.900000
141.069900 23805.500000
142.077800 9076.000000
143.085700 12786.300000
144.057200 20009.400000
145.064800 13784.200000
146.073000 4288.200000
147.080700 14026.700000
152.062200 7600.800000
153.070200 8603.000000
155.085800 5961.700000
157.064800 6321.600000
158.072500 12973.700000
159.080500 6178.600000
165.069900 21081.600000
166.078100 5209.500000
167.085600 6801.200000
168.057200 2456.800000
169.065000 8406.700000
170.073000 7956.100000
171.080300 12277.500000
173.096600 2276.400000
178.077700 20372.700000
179.085800 11953.200000
180.093800 3487.900000
181.064400 9353.900000
181.101600 2906.400000
182.072800 3286.900000
185.096500 4210.000000
189.070200 10274.900000
190.077800 7666.400000
191.085500 9269.300000
192.093700 5499.400000
193.101600 6652.200000
194.072100 3466.100000
195.080700 8454.100000
196.088600 5084.500000
197.095800 2516.400000
202.077600 10821.900000
204.093500 4530.600000
205.064600 4073.200000
205.101300 8112.100000
206.072600 2273.600000
207.080500 7780.400000
207.116700 2641.600000
208.088500 5858.100000
209.095900 4501.600000
215.085700 19473.200000
216.093400 7416.900000
217.101500 4930.100000
218.073100 7908.100000
219.080700 13552.500000
219.116700 2531.500000
220.088400 2270.500000
221.096300 8592.700000
223.111500 2111.500000
228.093600 8792.700000
229.101300 14318.200000
230.109200 2493.500000
231.080900 8462.500000
231.116200 3547.400000
232.088500 7439.500000
233.096500 8206.800000
234.103700 4388.800000
235.111700 4285.400000
244.088700 4443.000000
245.096400 5617.400000
246.104100 3623.800000
247.111600 4847.900000
248.120000 3005.100000
259.112000 4419.300000
261.127200 2969.800000

