>compound LU18141383
>parentmass 363.172
>ionization [M+H]+
>formula C20H27O4P
>rt 1208.880000
>profile orbitrap
#smiles_iso CCCCC(CC)COP(=O)(OC1=CC=CC=C1)OC2=CC=CC=C2
#smiles_can CCCCC(CC)COP(=O)(OC1=CC=CC=C1)OC2=CC=CC=C2
#inchikey CGSLYBDCEGBZCG-UHFFFAOYSA-N
#pubchem_id 14716
#mb_accession LU122301,LU122302,LU122303,LU122304,LU122305,LU122306

>ms2peaks
158.964200 10378.600000
251.047100 78302.400000

>ms2peaks
158.964400 8078.700000
251.047000 82474.600000

>ms2peaks
53.038700 2458.800000
95.049200 12967.200000
152.062200 3569.400000
153.070100 12474.700000
175.015700 3353.700000
233.036800 5333.400000
251.047000 35690.600000

>ms2peaks
53.038600 2999.600000
95.049200 19193.000000
105.044900 5517.000000
152.062200 8242.100000
153.070100 5194.800000
175.015700 6910.800000
233.036300 5515.800000
251.046600 2952.100000

>ms2peaks
51.022900 1767.500000
53.038600 5132.100000
77.038500 2029.500000
95.049200 18094.400000
105.044800 6952.500000
152.062000 8028.200000
175.015500 2819.700000

>ms2peaks
51.022900 6835.300000
53.038600 6160.900000
77.038500 4134.500000
95.049200 17220.100000
152.062000 10541.000000

