>compound LU18293675
>parentmass 352.19070000000005
>ionization [M+H]+
>formula C22H25NO3
>rt 1162.680000
>profile orbitrap
#smiles_iso CC1(CCC(C2=C1C=CC(=C2)C(=O)NC3=CC=C(C=C3)C(=O)O)(C)C)C
#smiles_can CC1(CCC(C2=C1C=CC(=C2)C(=O)NC3=CC=C(C=C3)C(=O)O)(C)C)C
#inchikey SZWKGOZKRMMLAJ-UHFFFAOYSA-N
#pubchem_id 2126
#mb_accession LU033301,LU033302,LU033303,LU033304,LU033305,LU033306

>ms2
105.070000 9818.700000
133.101100 19861.000000
215.142300 26092.600000
352.190800 7514933.000000

>ms2
57.069900 5746.300000
69.069900 14036.500000
71.085600 5022.000000
91.054200 90861.100000
105.069900 295852.000000
111.116900 28967.500000
119.085600 326746.800000
120.044400 33422.600000
131.049300 5517.800000
133.101200 558665.700000
136.039600 10684.500000
145.064700 11991.800000
146.023700 10209.500000
159.080500 20116.000000
164.034300 247641.300000
173.132600 6743.000000
197.132800 12544.500000
215.143200 1243068.100000
242.081100 4655.700000
254.081000 9673.000000
264.102200 18225.500000
268.096900 206818.300000
282.112500 417915.000000
296.128300 217788.700000
310.143700 17594.000000
352.190900 4528414.500000

>ms2
55.054300 5292.700000
57.069900 9401.800000
65.038600 10036.000000
69.069800 45432.500000
71.085500 7403.100000
81.069800 4253.300000
91.054200 355438.300000
95.049200 11593.400000
105.069900 354035.800000
108.044400 12076.400000
111.116900 22961.000000
117.069900 5115.000000
118.041400 22440.700000
119.085600 403075.800000
120.044300 30577.000000
121.028500 34328.200000
124.075700 16734.600000
131.049200 146970.200000
131.085600 52161.300000
132.056900 8029.500000
133.101200 272052.400000
136.039400 154643.100000
139.039000 31360.600000
145.064800 244619.500000
145.101200 51992.700000
146.023700 29950.300000
146.072600 10517.500000
155.085600 6356.500000
159.080500 130388.400000
159.116600 11685.000000
164.034200 487952.900000
168.065900 5560.600000
172.124600 18164.700000
173.096200 15441.100000
173.132300 4577.700000
182.096400 5065.800000
187.148100 10856.900000
197.132600 16725.500000
200.119600 39945.900000
204.114400 4843.600000
205.158500 7005.000000
210.091000 14881.800000
215.143100 3601296.000000
224.106600 7288.000000
226.086000 4201.200000
236.070700 9281.000000
238.122600 7509.800000
242.080600 8371.800000
250.085900 19739.900000
254.081200 46587.400000
264.101900 105508.400000
268.096900 247091.100000
278.116800 5443.900000
282.112500 453688.900000
283.121000 6599.400000
296.128300 140017.200000
310.143600 21634.200000
352.190800 254519.500000

>ms2
53.002200 3736.700000
53.038700 6908.100000
55.054200 17069.800000
57.069900 33175.400000
65.038500 60669.100000
66.046400 7620.200000
67.054200 10454.900000
69.069800 53860.900000
71.085500 10992.900000
77.038600 3605.300000
79.054100 19228.800000
81.069900 27112.900000
83.085500 4509.200000
89.038600 3435.900000
90.046600 4039.400000
91.054200 567644.300000
92.049600 5240.300000
93.033500 4931.300000
93.069900 17031.700000
95.049100 47699.800000
95.085500 18169.500000
103.054200 18781.300000
105.069900 274454.000000
107.049100 4609.200000
107.085500 17603.500000
108.044300 103098.000000
111.043800 4769.400000
115.054000 25929.600000
116.062000 33680.700000
117.069800 87164.000000
118.041300 110816.600000
118.077600 11175.900000
119.085500 265228.900000
120.044300 23612.100000
121.028400 71387.400000
121.064800 8731.900000
121.101200 6093.400000
124.075700 32371.800000
128.062100 5718.400000
129.069700 22489.700000
130.077700 17429.200000
131.049100 343906.200000
131.085500 475630.100000
132.056900 32025.800000
132.093200 4616.200000
133.101200 65998.800000
135.044000 16147.700000
135.080400 19942.900000
136.039300 382662.600000
139.038900 56773.800000
143.085400 42370.800000
144.080900 8432.200000
144.093500 19292.800000
145.064800 654944.400000
145.101100 520388.600000
146.023400 15865.700000
146.072500 43176.000000
147.080400 9452.500000
147.116600 3560.700000
149.096300 9528.100000
150.067500 29101.400000
155.085600 8248.500000
157.101100 59535.400000
158.109000 35234.500000
159.080400 195348.100000
159.116800 143645.900000
164.034200 236109.000000
168.065600 11550.700000
171.117100 4141.800000
172.124500 219642.300000
173.096000 37457.600000
176.083200 6569.800000
182.096500 7190.400000
187.148100 43731.700000
192.081000 3748.700000
200.119500 351339.600000
204.114400 147880.700000
205.158800 10232.500000
208.076100 13413.900000
210.091300 25497.300000
215.143000 3316198.800000
226.086500 11358.700000
236.070400 13506.900000
250.085500 13685.700000
254.080900 19960.300000
264.101600 33666.800000
268.096400 37099.200000
282.112300 61704.400000
283.121100 3400.000000
296.128200 7832.500000

>ms2
53.002200 9318.900000
53.038600 14491.900000
55.017900 4504.500000
55.054200 19455.900000
57.069900 62719.900000
65.038600 204454.300000
66.046400 28785.200000
67.054200 32683.600000
69.069900 56862.400000
71.085400 6884.900000
77.038600 7037.700000
78.046400 9456.900000
79.054200 41805.200000
80.049400 3280.100000
81.033500 20044.600000
81.069900 44908.300000
83.085400 7611.500000
89.038600 9666.600000
90.033900 5168.000000
90.046400 23991.700000
91.054300 829819.300000
92.049600 6912.100000
93.033600 11293.400000
93.069900 40956.000000
94.041600 6319.000000
95.049200 55667.100000
95.085600 31764.200000
103.054300 78781.100000
104.062100 10013.200000
105.069900 313412.800000
107.049200 10020.700000
107.085500 30952.300000
108.044400 228283.200000
111.044100 9312.600000
115.054300 157853.800000
116.062100 230161.400000
117.069900 267557.900000
118.041300 128325.200000
118.077600 27413.200000
119.085600 168027.400000
120.044400 4512.000000
121.028400 66497.800000
121.064800 25255.700000
121.101300 6788.100000
122.036400 13248.300000
124.075800 23077.600000
128.062000 26143.000000
129.069900 141380.600000
130.077800 114506.500000
131.049300 218094.800000
131.085600 795439.500000
132.057000 25754.000000
132.093500 16146.500000
133.064800 6718.300000
133.101200 52884.000000
135.044100 12116.700000
135.080400 44606.000000
136.039400 231078.900000
136.051900 36935.500000
139.039000 24933.800000
141.070000 4980.300000
142.077500 22358.800000
143.085600 163172.000000
144.080900 3861.200000
144.093400 69765.400000
145.064900 405183.300000
145.101200 675496.400000
146.023700 4272.900000
146.072600 25598.100000
146.108900 3159.100000
147.080600 4279.400000
147.116600 4800.700000
148.052200 3467.600000
149.096200 9719.300000
150.067600 91733.800000
155.085700 6984.600000
156.093400 4247.200000
157.101300 345988.600000
158.109200 61110.200000
159.080500 92321.200000
159.116900 174882.000000
162.067500 7848.500000
164.034200 37475.200000
165.069800 7085.100000
168.066000 7081.300000
170.109100 10941.200000
171.117200 12269.500000
172.124700 358607.200000
173.095900 15939.900000
176.083000 14254.300000
180.080800 7163.100000
187.148300 28677.300000
192.081800 2849.600000
200.119700 308149.300000
204.114600 432112.200000
205.158800 5586.300000
208.076300 14633.300000
210.091100 3427.200000
215.143100 930680.800000
226.086300 6605.700000
236.070800 3043.400000
254.082500 2812.100000
264.102100 3613.400000

>ms2
53.002200 11958.600000
53.038600 30015.600000
55.017900 3799.500000
55.054200 23244.000000
57.069900 83087.000000
65.038500 273810.100000
66.046400 41598.500000
67.054200 34956.300000
69.069800 39542.700000
77.038600 7238.900000
78.046400 16577.100000
79.054200 79866.200000
80.049600 4716.600000
81.033500 43083.200000
81.069900 27021.800000
83.085500 5121.000000
89.038600 18184.000000
90.034000 11703.500000
90.046400 42696.800000
91.054200 1015571.500000
92.049400 6697.200000
93.033600 10479.400000
93.069900 23915.200000
94.041400 8249.100000
95.049100 61290.200000
95.085500 19098.200000
103.054200 143443.900000
104.061900 16294.100000
105.069900 295013.600000
107.049100 11638.800000
107.085500 19704.000000
108.044400 209568.100000
111.044100 8761.500000
115.054200 334821.500000
116.062100 396321.100000
117.069900 275734.400000
118.041400 46719.900000
118.077700 18327.500000
119.085600 106766.300000
121.028400 30664.800000
121.064700 21780.500000
121.101400 2579.000000
122.036200 19500.700000
124.076000 8489.100000
128.062000 91644.600000
129.069900 306428.100000
130.077800 196657.300000
131.049200 78472.800000
131.085600 462618.900000
132.057100 7046.900000
132.093500 9185.500000
133.064900 6675.900000
133.101200 39977.200000
135.044000 5775.500000
135.080400 29680.700000
136.039400 60357.200000
136.051900 35103.100000
139.039100 7310.200000
141.069900 14996.700000
142.077800 105868.800000
143.085600 239692.900000
144.093400 72886.500000
145.064900 116518.500000
145.101200 256303.700000
146.072800 6066.700000
146.109400 4273.900000
147.080700 2518.700000
147.117400 2409.600000
148.051900 8501.900000
150.067600 75629.300000
155.085700 7477.700000
156.093600 10397.400000
157.101200 497864.200000
158.108900 25198.500000
159.080600 16674.100000
159.116800 63873.200000
162.067700 24401.300000
164.034600 3900.400000
165.070200 4195.800000
167.073100 6322.500000
170.109100 6634.900000
171.116800 17670.500000
172.124600 159237.600000
173.096100 4698.600000
176.082500 6134.400000
180.080800 4902.500000
187.148100 2723.600000
200.119800 67993.100000
204.114500 256540.800000
208.075600 9874.500000
215.143100 103119.600000
226.086500 2854.300000

