>compound LU18287433
>parentmass 130.08629999999997
>ionization [M+H]+
>formula C6H11NO2
>rt 233.760000
>profile orbitrap
#smiles_iso CC(=O)CC(=O)N(C)C
#smiles_can CC(=O)CC(=O)N(C)C
#inchikey YPEWWOUWRRQBAX-UHFFFAOYSA-N
#pubchem_id 16278
#mb_accession LU092501,LU092502,LU092503,LU092504,LU092505,LU092506

>ms2
70.065100 7335.600000
72.044400 215281.300000
84.044200 1959.200000
84.080800 4141.200000
85.028500 42979.400000
88.075400 1481.800000
109.015000 1973.800000
112.075700 12405.100000
130.086300 110395.900000

>ms2
70.065200 8530.000000
72.044400 207526.500000
84.044400 2154.700000
84.080800 3993.100000
85.028400 40691.500000
88.075800 3086.600000
112.075800 14247.600000
130.086300 116679.100000

>ms2
70.065100 10004.600000
72.044400 205440.700000
84.080800 4934.800000
85.028400 46697.300000
109.015100 2111.200000
112.075600 13137.700000
130.086300 57077.000000

>ms2
70.065100 17992.300000
72.044400 217555.500000
84.044600 1541.100000
84.080900 5421.800000
85.028400 44589.800000
88.075700 2295.300000
109.015400 2468.000000
112.075700 5990.800000
130.086400 9492.700000

>ms2
56.049500 12046.600000
70.065100 8816.300000
72.044400 31394.200000
84.080800 121653.500000
85.028500 15920.300000
112.075800 267070.600000
130.086300 14112.300000

>ms2
56.049500 1971.200000
70.065100 21752.500000
72.044400 177962.300000
84.081000 4053.700000
85.028500 22620.900000

