>compound LU19389769
>parentmass 422.0936
>ionization [M+H]+
>formula C19H20ClN3O4S
>rt 873.420000
>profile orbitrap
#smiles_iso CS(=O)(=O)C1=C(C=C(C=C1)[C@@H](C[C@H]2CCC(=O)C2)C(=O)NC3=NC=CN=C3)Cl
#smiles_can CS(=O)(=O)C1=C(C=C(C=C1)C(CC2CCC(=O)C2)C(=O)NC3=NC=CN=C3)Cl
#inchikey XEANIURBPHCHMG-SWLSCSKDSA-N
#pubchem_id 10432339
#mb_accession LU098501,LU098502,LU098504,LU098505

>ms2
96.055600 136967.800000
203.062200 4111.200000
281.040400 3836.000000
299.049800 9287.400000
327.045200 2402.800000
404.083200 203353.000000
422.093800 385737.700000

>ms2
55.017900 8976.800000
78.984800 8501.500000
83.049000 12775.700000
95.049400 3573.000000
96.055600 552586.900000
97.039500 4631.900000
141.010300 13494.000000
162.023000 19448.000000
163.030900 5725.200000
167.085900 10080.600000
168.093600 15348.500000
175.031000 8093.600000
176.038800 3752.900000
177.046600 14323.900000
185.096200 5573.200000
201.046900 2984.300000
202.054300 41844.100000
202.993200 12555.900000
203.062300 66810.600000
241.008600 58457.500000
255.024000 20237.200000
281.039800 62627.900000
291.023900 24569.300000
299.050300 52870.900000
327.044900 16133.800000
404.083300 353407.500000
422.094600 11214.400000

>ms2
52.018300 4272.200000
55.017900 17286.300000
55.054200 5270.500000
69.044700 10349.500000
78.984800 13543.000000
83.049200 26872.300000
95.049200 7163.900000
96.055600 304130.900000
97.039700 40683.900000
115.054300 4476.200000
125.015400 8815.200000
128.062400 3870.700000
129.069700 5025.300000
141.010200 133813.200000
141.069900 13270.500000
142.077800 5547.500000
150.023200 10801.500000
153.070000 10322.900000
155.060500 2708.400000
160.087100 6158.600000
162.023100 55876.800000
163.030900 24948.100000
164.038800 7066.100000
165.070200 10056.100000
166.077900 6774.400000
167.085700 67873.000000
168.093300 20625.900000
175.030900 16408.900000
176.038600 15643.500000
177.046700 29144.000000
179.025900 9149.800000
185.096300 10269.400000
191.026000 9545.600000
193.041800 5650.200000
194.013400 3593.000000
201.046800 4307.700000
202.054600 13981.600000
202.993000 2564.900000
203.062100 4886.100000
212.039000 5323.500000
241.008500 19399.200000
246.102200 4388.500000
255.024100 2645.400000
291.024200 13668.200000

>ms2
52.018200 15301.400000
55.017900 19529.800000
55.054300 11756.600000
69.044700 20328.600000
78.984800 10496.400000
83.049100 35419.900000
95.049300 11865.200000
96.055600 299775.600000
97.039700 91899.600000
115.054300 20787.100000
125.015400 11380.600000
128.062000 17994.900000
129.070000 20577.300000
141.010200 177792.700000
141.069900 32546.900000
142.077700 20610.200000
150.023100 9375.100000
153.069900 22435.900000
155.060300 3772.600000
160.087100 2793.500000
162.023100 77657.500000
163.031000 26986.100000
164.038800 4262.100000
165.070000 20484.100000
166.077800 8179.200000
167.085700 72855.300000
168.093300 14517.000000
175.030900 20631.700000
176.038800 9907.300000
177.046600 24693.900000
179.025900 8198.200000
191.025700 7527.000000
193.042100 2947.900000
194.013300 8807.400000
201.046300 2569.600000
202.993100 2581.400000
212.038800 6595.300000
241.008200 6763.400000
246.102500 5310.100000

