>compound LU19753148
>parentmass 294.1601
>ionization [M+H]+
>formula C18H19N3O
>rt 923.130000
>profile orbitrap
#smiles_iso CC1=C2CC[C@@H](C(=O)N2C3=CC=CC=C13)CC4=C(NC=N4)C
#smiles_can CC1=C2CCC(C(=O)N2C3=CC=CC=C13)CC4=C(NC=N4)C
#inchikey AEKQMJRJRAHOAP-CYBMUJFWSA-N
#pubchem_id 208947
#mb_accession LU039301,LU039302,LU039303,LU039304,LU039305,LU039306

>ms2peaks
95.061000 36458.700000
149.070500 39234.900000
294.159900 25983488.000000

>ms2peaks
95.060400 535549.700000
96.068000 29251.900000
121.076000 25084.800000
135.091600 25432.600000
137.071000 158925.800000
144.080600 117156.900000
146.096400 57708.600000
149.071000 1884664.500000
158.096500 126031.500000
182.096700 33683.500000
200.107000 100441.600000
212.107300 34656.400000
266.165100 49925.100000
276.149400 46351.000000
294.160000 23011424.000000

>ms2peaks
54.033800 29014.300000
68.049400 14670.400000
80.049400 58052.900000
83.060400 30342.800000
94.065200 66974.000000
95.060400 4433565.000000
96.068100 470060.400000
97.075900 54283.000000
108.080800 32350.900000
109.075900 50627.700000
121.076000 680367.100000
122.083700 46924.000000
123.091700 114495.900000
127.086800 23830.800000
130.065100 16430.400000
132.081100 11833.800000
135.091600 397375.000000
137.071000 633676.400000
143.073300 16061.000000
144.080800 1763958.000000
146.096400 198490.500000
149.070900 11214569.000000
158.096400 1097068.000000
163.086700 32241.700000
170.096300 106287.900000
172.111800 18622.500000
180.080500 42757.100000
181.088600 175906.100000
182.096400 199339.900000
184.112100 54942.500000
198.091700 31272.600000
199.099400 11963.500000
200.106900 347307.300000
212.106900 127275.300000
250.122600 24211.900000
261.126400 21429.100000
266.165200 144846.800000
276.149500 200413.000000
294.160000 8103035.000000

>ms2peaks
54.033800 142585.900000
67.054200 49971.700000
68.049400 84534.200000
80.049400 572379.600000
81.044600 26205.400000
82.065100 12696.600000
83.060200 32512.000000
91.054200 20343.400000
93.057300 24663.700000
94.065100 641506.400000
95.060300 7505250.500000
96.068100 1116703.500000
97.075900 37175.500000
104.049400 54873.900000
106.065000 14112.400000
107.060200 38494.400000
108.080700 147311.200000
109.076000 76898.100000
117.057200 15896.600000
117.069800 48694.400000
118.065000 72494.400000
119.060200 36636.900000
120.068100 60093.600000
121.075900 2664875.500000
122.083700 142467.000000
123.091600 133609.200000
127.086600 27970.300000
129.070000 22250.100000
130.064900 42896.300000
131.073000 42836.500000
132.080900 17903.000000
133.075900 21855.200000
135.091600 566929.200000
137.070900 370668.000000
143.072900 169245.400000
144.080700 4226216.500000
145.088300 14397.500000
146.096300 118871.700000
149.070800 11366355.000000
151.086600 15326.500000
156.080800 16607.400000
157.087800 12185.800000
158.096300 1480377.100000
163.086700 18550.000000
167.072800 26907.200000
169.088500 16884.500000
170.096200 155122.400000
172.112000 23381.700000
180.080600 90605.100000
181.088500 212659.600000
182.096400 192771.900000
184.111900 67096.600000
194.096800 15820.300000
197.083600 14395.400000
198.091200 32464.400000
199.099000 16103.600000
200.106900 159834.000000
212.106600 56451.900000
250.122700 16168.700000
261.126200 82688.000000
266.164700 37233.100000
276.149300 92222.100000
294.159900 668964.700000

>ms2peaks
53.002200 9793.400000
53.038600 63943.000000
54.033800 454137.100000
55.017800 16061.100000
65.038600 28388.800000
67.054200 209239.300000
68.049400 222593.200000
69.057200 30194.200000
70.065100 10921.100000
77.038500 20397.800000
79.054200 9963.100000
80.049400 1861307.900000
81.044600 114910.400000
81.069900 36632.700000
82.065100 18051.400000
83.060300 32425.100000
91.054200 100378.800000
93.057300 127880.700000
94.065200 2067325.500000
95.060400 9443312.000000
96.068100 1606481.800000
97.076000 22384.600000
103.054200 52246.200000
104.049500 173350.400000
105.044700 50471.100000
105.057300 15858.100000
106.065000 30063.400000
107.060300 129578.400000
108.080800 209956.200000
109.076000 86835.900000
115.054200 81215.700000
117.057200 61195.000000
117.069900 266310.500000
118.065100 81398.700000
119.060500 94171.900000
120.068300 131831.800000
121.076000 4033475.000000
122.060000 13634.600000
122.083700 114780.200000
123.091600 83069.400000
127.086600 27239.200000
128.049400 47552.800000
128.061900 26583.200000
129.069800 39843.400000
130.065200 96868.000000
131.073000 98335.600000
131.085600 24934.600000
132.080700 33069.100000
133.076100 22954.100000
135.091700 261722.100000
137.071000 106742.700000
141.070000 26659.800000
143.073000 809210.000000
144.080800 5150478.000000
145.064800 56787.400000
145.088600 38846.700000
146.060200 30950.400000
146.096400 52252.800000
149.070900 5588289.000000
153.069600 14222.600000
154.065300 15248.100000
155.060500 75610.300000
155.072600 31308.200000
156.080900 36664.700000
157.088500 22422.100000
158.096400 1009723.800000
167.073000 67295.600000
168.080700 29592.100000
169.088400 25224.600000
170.096400 99225.100000
172.112000 14861.600000
180.080800 219375.300000
181.088500 120855.800000
182.096500 99539.500000
184.075700 16991.800000
184.111800 31640.400000
194.096300 9687.100000
197.083300 19111.100000
198.091400 22640.300000
200.107000 38626.400000
212.107000 13387.900000
246.102400 15442.800000
260.119400 11482.100000
261.125900 75370.400000
276.150100 11013.000000
294.159700 22820.900000

>ms2peaks
53.002200 30114.900000
53.038600 146956.900000
54.033900 737993.200000
55.017800 13190.000000
65.038600 51251.200000
67.054200 392240.200000
68.049400 257983.600000
69.057300 58088.900000
70.065200 9370.500000
77.038400 38881.600000
78.033800 14861.500000
79.054200 19391.500000
80.049500 2128087.500000
81.044700 177453.100000
81.069900 44770.300000
82.065100 20950.900000
83.060400 22330.600000
91.054200 188007.400000
92.049500 13580.000000
93.057400 245458.900000
94.065200 2289111.200000
95.060400 7369982.500000
96.068200 1162239.100000
97.076200 12460.100000
102.046500 8114.200000
103.054200 111282.300000
104.049500 184104.100000
105.044700 93621.500000
105.057500 9444.900000
106.065200 36949.600000
107.060400 154056.000000
108.080800 111851.200000
109.076100 49675.200000
115.054300 214822.900000
117.057300 131555.700000
117.069900 443371.100000
118.065100 62698.000000
119.060400 102382.300000
120.068300 110030.400000
121.076000 2259165.500000
122.060000 8775.800000
122.083700 40052.100000
123.091600 42066.600000
127.054300 33767.100000
127.086400 25821.700000
128.049500 128625.900000
128.062000 44571.100000
129.057500 12283.600000
129.069800 36770.000000
130.065100 145486.700000
131.073000 85343.100000
131.085600 17887.100000
132.080800 17013.100000
133.076100 8667.100000
135.091700 59997.300000
137.071000 21746.600000
141.069900 25968.300000
142.065200 38955.400000
143.073000 1342284.800000
144.080800 3070687.200000
145.064800 88134.800000
145.088600 21047.900000
146.060100 57533.400000
146.096200 9854.700000
149.071000 1223931.900000
153.069900 7432.700000
154.065200 33536.000000
155.060400 142208.700000
155.072300 31641.100000
156.080800 53189.800000
157.088800 38947.400000
158.096500 330452.800000
167.073100 62796.400000
168.080900 36434.600000
169.088600 23589.900000
170.096200 41776.000000
180.080800 176531.600000
181.088700 27124.800000
182.096500 19216.600000
183.067800 13847.800000
184.075900 12713.600000
184.112000 11850.200000
246.102900 14106.600000
260.118100 18259.800000

