>compound LU19904533
>parentmass 453.20830000000007
>ionization [M+H]+
>formula C24H30F2O6
>rt 1008.360000
>profile orbitrap
#smiles_iso C[C@]12C[C@@H]([C@]3([C@H]([C@@H]1C[C@@H]4[C@]2(OC(O4)(C)C)C(=O)CO)C[C@@H](C5=CC(=O)C=C[C@@]53C)F)F)O
#smiles_can CC1(OC2CC3C4CC(C5=CC(=O)C=CC5(C4(C(CC3(C2(O1)C(=O)CO)C)O)F)C)F)C
#inchikey FEBLZLNTKCEFIT-VSXGLTOVSA-N
#pubchem_id 6215
#mb_accession LU046601,LU046602,LU046603,LU046604,LU046605,LU046606

>ms2
59.049100 24779.200000
83.048900 3746.400000
95.049100 4051.900000
97.028300 3191.200000
105.069500 2724.000000
109.064700 4156.900000
113.059500 5205.000000
115.038700 3511.500000
121.064800 171285.000000
123.080500 2709.700000
125.059500 6259.000000
127.074800 2201.700000
133.064600 12815.100000
135.080400 22140.400000
137.059700 7432.200000
139.075100 4617.800000
145.064800 4656.300000
147.080400 16526.200000
149.059600 2489.400000
151.075100 11601.600000
153.054700 3109.000000
155.070300 18819.400000
159.080300 10272.600000
161.059100 3751.300000
161.096400 3629.200000
163.075300 6072.300000
165.070700 5621.800000
171.080300 9505.800000
173.096000 3216.100000
177.054400 2681.400000
179.070000 6704.200000
179.086800 8765.800000
181.086100 3672.100000
183.080900 4665.100000
185.059600 6917.100000
185.096000 5638.600000
187.075600 6885.600000
189.070600 3242.600000
195.081200 3222.100000
197.096200 11409.300000
201.090800 3810.900000
205.065900 4938.400000
209.095800 6477.900000
211.111900 10289.800000
213.091500 3545.500000
213.127000 3592.800000
221.096300 11511.900000
222.104300 4078.100000
223.076600 5586.100000
223.111700 59806.300000
225.091300 4224.400000
225.127700 4622.500000
227.106900 5072.600000
235.111900 23523.800000
237.090400 3541.800000
237.127400 26701.800000
239.106700 29485.800000
241.101600 4808.000000
241.122100 23133.800000
245.096600 3354.100000
247.111900 16507.400000
249.091100 4399.400000
249.127600 20819.200000
251.106700 25646.300000
251.143200 10058.800000
253.122300 110885.900000
255.118000 2169.400000
255.138200 6762.300000
257.133900 5890.900000
259.111200 14372.700000
261.127500 45689.300000
263.107600 17178.000000
263.142800 19203.400000
265.122600 14952.500000
267.138100 8660.200000
271.148800 3068.800000
273.127800 32429.500000
275.106400 8963.300000
275.143100 3983.000000
277.122200 58467.600000
279.119800 3257.900000
279.137800 59005.600000
281.118100 4115.100000
281.134000 16297.700000
281.153700 12602.200000
283.148800 4070.200000
289.122100 11407.300000
291.137900 87407.100000
293.117600 11053.400000
293.133800 5244.200000
295.132800 33586.400000
297.128600 14338.600000
297.148700 10515.500000
299.144500 13784.900000
301.122400 25301.900000
301.140500 8161.800000
307.132500 23651.900000
309.148300 67588.800000
311.144200 23581.800000
317.134500 7763.700000
319.132700 129686.700000
319.150900 17427.200000
329.154500 28869.600000
331.150000 18553.800000
337.143400 331116.800000
339.139000 65012.700000
347.165500 10195.500000
349.160800 21358.900000
355.154200 168922.000000
357.149700 99286.000000
359.145200 35419.800000
377.155700 59622.400000
381.150300 10739.800000
413.196100 370665.900000
453.208500 304914.400000

>ms2
55.017900 10602.400000
59.049200 74309.500000
67.054100 2563.700000
69.033500 11566.700000
79.054100 2550.500000
81.033400 3645.400000
81.069800 7930.300000
83.049000 4726.200000
87.044100 5595.200000
91.054300 4606.900000
93.070000 22544.600000
95.049300 11810.900000
95.085600 10180.000000
97.028500 16475.300000
97.064700 4147.100000
99.044300 5438.600000
99.060200 2791.500000
101.023300 4205.300000
105.070000 16285.400000
107.049200 4722.000000
107.085600 7167.800000
109.065000 17978.700000
111.044200 9805.200000
111.080500 4387.500000
113.059600 4711.000000
115.038900 10724.800000
117.069900 3716.800000
119.048900 2434.700000
119.085500 4591.000000
121.064800 492841.500000
123.080500 7146.600000
125.059800 13087.100000
127.075500 3191.200000
131.085100 4562.000000
133.064900 42091.400000
135.080500 73145.200000
137.059800 23105.600000
137.075900 13826.800000
139.055300 9279.100000
139.075400 8832.800000
141.054500 5509.100000
143.085500 2849.000000
145.064900 29491.400000
147.080400 43954.100000
149.059900 7791.900000
149.076100 3864.000000
151.038900 6024.400000
151.055800 3681.200000
151.075400 19714.300000
153.054700 7015.400000
153.071000 5586.200000
155.070200 13135.300000
158.072400 3862.300000
159.080500 51573.200000
161.059900 19302.400000
161.075900 4306.300000
161.096100 10330.100000
163.075400 13093.300000
165.071300 20939.900000
169.064900 13266.800000
171.080500 54615.300000
173.059900 6059.600000
173.096000 13413.400000
175.075300 12320.300000
177.054900 2685.800000
177.071100 8710.100000
179.070100 8284.600000
179.086700 15007.400000
181.066200 17907.700000
181.085600 2178.200000
185.059600 18567.500000
185.096300 24096.700000
187.075500 27924.900000
189.071200 13851.200000
189.091200 3648.500000
191.086600 14469.700000
195.081000 15447.300000
195.116800 8152.200000
197.096100 33204.600000
199.075600 6289.200000
199.112100 10459.200000
201.090900 5030.300000
203.070800 3330.400000
203.087100 4568.600000
205.066100 36861.400000
205.101500 3504.700000
208.088500 6409.400000
209.096300 29695.100000
211.075600 8730.000000
211.111800 61008.200000
212.120000 19316.400000
213.091100 7308.900000
213.127300 18526.900000
217.102100 2971.900000
219.080700 2585.500000
219.117300 5445.400000
221.096300 28426.700000
221.132300 4021.900000
223.076900 15448.400000
223.111900 92809.900000
225.091400 9933.800000
225.127300 20827.200000
229.102300 3147.000000
231.117600 12736.800000
233.096600 8804.300000
233.132500 7736.800000
234.103900 6131.000000
235.111800 49656.700000
236.119400 3854.200000
237.127500 61568.900000
238.099500 2932.600000
239.106900 44882.600000
239.143300 7010.100000
240.114700 9091.800000
241.101900 8995.800000
241.122300 63489.200000
243.117900 12403.600000
245.096400 4279.800000
245.132700 10832.700000
246.104200 9579.100000
247.112000 31034.300000
248.119900 8540.000000
249.091300 9444.700000
249.127600 64112.900000
250.135400 5784.600000
251.106900 53015.600000
251.143200 47182.500000
253.122400 108129.800000
255.117200 12130.000000
255.137900 9645.600000
257.133500 6413.300000
258.103900 10906.700000
259.111900 36680.000000
260.120000 10256.400000
261.127400 102200.500000
262.099100 9690.600000
263.108000 20366.200000
263.124500 3956.900000
263.143000 61190.900000
264.115700 3381.700000
265.122300 19072.700000
267.138300 18328.600000
271.112800 9900.100000
271.149700 3779.700000
273.127600 77156.200000
275.106800 13618.100000
275.143400 3544.100000
276.114600 16738.900000
277.105100 4172.900000
277.122400 80831.200000
279.119200 7514.500000
279.137900 109932.400000
281.118100 4143.900000
281.134100 30010.800000
281.153900 10529.200000
283.112500 7226.400000
283.149500 4529.900000
289.122500 29612.400000
291.138000 106284.600000
293.117600 13056.900000
293.134000 7426.900000
295.133000 32819.600000
297.129100 13148.700000
297.149000 10242.000000
299.144400 22851.300000
301.122500 37975.200000
301.140400 7430.100000
304.109800 12033.100000
307.133200 27007.800000
309.148400 33638.000000
311.144700 15233.700000
317.134900 5738.800000
319.132800 65862.700000
319.151200 6747.600000
329.154300 13603.400000
331.150600 6415.500000
337.143300 60828.500000
339.138900 17099.300000
347.165200 12305.500000
349.161100 5261.300000
355.154100 31588.500000
357.149800 13606.800000
359.145200 6275.400000
377.157000 5023.200000
381.152800 3002.100000
413.195900 3645.600000
453.210600 4316.200000

>ms2
53.038800 2741.800000
55.017900 18867.500000
55.054200 4464.800000
57.033500 3143.400000
59.049200 65153.000000
67.054200 8142.800000
69.033400 17771.800000
71.049200 4574.800000
79.054200 10617.100000
81.033500 5693.000000
81.069800 15315.200000
83.049100 6188.800000
87.044000 5394.400000
91.054300 22988.900000
93.070000 33905.100000
95.049200 20719.100000
95.085600 12936.300000
97.028400 11154.200000
97.064900 6357.000000
99.044100 3807.500000
99.060400 9797.400000
101.023400 7009.400000
103.054200 4940.300000
105.069900 46234.200000
107.049200 11102.300000
107.085600 15087.000000
109.045000 4356.700000
109.064800 22095.900000
111.044100 9383.300000
111.080500 5287.200000
115.039100 8359.000000
115.054300 6573.100000
117.069900 19603.000000
119.049200 6346.200000
119.085500 12775.800000
121.064800 534987.900000
123.044100 9462.000000
123.060500 6567.900000
123.080400 6758.600000
125.059900 7264.000000
125.076200 2664.100000
127.055300 6024.200000
128.061800 2784.100000
129.069700 12242.200000
131.085600 15206.400000
133.064800 41830.900000
133.101300 2193.900000
135.044200 8391.100000
135.080500 62289.800000
137.059700 15184.600000
137.076200 29438.700000
139.055600 19539.300000
139.075500 5448.200000
141.054800 4754.400000
141.070400 9160.900000
143.085500 16075.900000
145.064900 54491.900000
147.080500 58735.900000
149.059700 7196.400000
149.076100 14135.700000
151.039100 4364.100000
151.075500 4890.800000
153.054400 2565.100000
153.070900 7777.900000
155.085600 7326.300000
157.065300 10887.200000
158.072600 13121.500000
159.080500 75866.400000
161.059600 17629.000000
161.076300 6011.900000
161.096300 8533.500000
163.055700 5941.500000
163.075300 6938.300000
165.070900 18292.000000
167.085900 8774.700000
169.065000 21071.000000
169.101600 4315.900000
170.072800 2732.300000
171.080400 65857.000000
172.088100 2898.000000
173.059800 4374.600000
173.076100 3509.200000
173.096100 14741.400000
175.075200 12330.900000
177.071300 16703.300000
179.086500 10234.500000
180.093400 4068.800000
181.066200 20234.500000
181.101300 6491.700000
182.073000 7446.600000
183.080600 17249.500000
184.088500 3840.400000
185.059800 18214.800000
185.076600 3120.700000
185.096300 17276.500000
187.075800 21780.100000
189.071400 12045.700000
189.091600 2507.000000
190.078100 4881.300000
191.086500 15911.700000
192.093700 2920.400000
193.101400 14737.500000
194.072500 5871.100000
194.109200 2664.100000
195.080800 22377.000000
195.117200 16981.400000
196.088700 11106.000000
197.096300 27009.500000
198.104500 3759.100000
199.075700 2501.400000
199.112000 8118.500000
201.090900 2776.800000
202.077200 2813.100000
203.069800 3262.100000
203.086700 7860.600000
204.093300 4999.800000
205.066000 24992.100000
205.101500 16049.900000
206.073200 3473.800000
206.108700 2956.800000
207.080500 4818.900000
207.117300 9417.500000
208.088300 25312.500000
209.078100 2544.200000
209.096200 33975.200000
210.104300 10667.900000
211.075000 6353.500000
211.111800 47512.200000
212.119200 16901.900000
213.091200 3947.200000
213.127400 18205.400000
215.085600 6103.600000
216.093500 8173.700000
217.102000 8105.400000
218.109300 7963.800000
219.080700 6648.300000
219.117000 8847.700000
220.088100 4841.100000
221.096100 27929.100000
221.132700 4423.900000
222.104000 28479.100000
223.111900 69238.000000
224.083400 5297.500000
225.091000 7780.500000
225.127200 12882.500000
227.106900 5037.600000
229.102000 10035.700000
230.109300 9418.700000
231.080900 7844.200000
231.117400 16813.400000
232.088400 10520.500000
233.096500 17495.100000
233.132700 18141.700000
234.104200 21544.900000
235.075800 4478.800000
235.112000 54173.100000
236.082500 2835.200000
236.119700 9333.600000
237.091500 9238.800000
237.127500 32963.300000
238.098700 5364.200000
239.086400 6160.100000
239.106900 20429.100000
239.142700 4445.300000
240.094000 4823.900000
240.114300 4194.800000
241.101600 5507.700000
241.122200 16321.000000
242.109700 2862.900000
243.081900 2971.700000
243.117000 16671.500000
245.096300 10925.900000
245.132400 12732.600000
246.103600 30987.900000
247.111600 27723.800000
248.084000 2389.600000
248.119600 20424.100000
249.091500 6400.800000
249.127600 38603.500000
250.099000 6193.500000
250.135300 6101.000000
251.106600 29051.500000
251.143100 25781.500000
253.122400 29608.000000
255.117600 10373.200000
255.138200 3704.100000
257.095700 2600.600000
257.133300 2686.900000
258.104200 25583.100000
259.111900 24308.500000
260.119200 10908.200000
261.091500 7441.000000
261.127300 52632.400000
262.099000 11479.600000
263.107300 9691.800000
263.126600 3137.900000
263.142700 17840.900000
265.122600 7941.100000
267.138000 4219.200000
271.112900 4238.400000
273.127200 34251.200000
274.099100 7499.300000
275.106800 9130.700000
276.114300 14152.700000
277.105100 4491.300000
277.122300 23117.200000
279.120300 3839.500000
279.137700 22095.300000
281.134000 6134.900000
281.151800 2591.600000
283.112600 3964.500000
286.098900 7477.100000
289.122500 8534.100000
291.137700 19576.000000
293.117200 4214.200000
295.132600 3229.300000
301.122600 9592.100000
304.109600 3081.400000
329.155000 3176.000000

>ms2
53.038600 14886.400000
55.017900 44262.000000
55.054200 8469.400000
57.033400 2178.900000
59.049100 94168.400000
65.038600 5947.500000
67.054200 21307.000000
69.033500 31078.800000
71.012800 3991.600000
71.049100 3099.500000
77.038400 4597.400000
79.054200 40304.000000
81.033400 8190.100000
81.069900 23790.700000
83.049100 7127.000000
87.044100 2905.700000
91.054300 125614.700000
93.069900 71471.100000
94.041400 2798.800000
95.049200 50609.000000
95.085600 19300.400000
97.028400 13231.300000
97.044900 4562.800000
97.064900 7619.400000
99.060500 7383.200000
101.023400 2709.200000
103.054200 28285.100000
105.069900 100991.900000
107.049200 18355.200000
107.085500 23362.800000
109.044900 13788.400000
109.064800 31837.000000
111.044000 11423.500000
111.060300 3657.600000
111.080500 5856.600000
115.038900 7059.600000
115.054200 39234.900000
116.062100 6597.000000
117.069900 53140.700000
119.049200 8588.100000
119.085600 27693.500000
121.064800 680855.700000
123.044100 8070.300000
123.060500 12859.700000
123.080300 6531.100000
125.059800 3634.600000
125.076100 4627.700000
127.055200 5191.100000
128.062000 31939.200000
129.069900 49429.000000
130.077700 2688.500000
131.049200 7539.300000
131.085600 28704.600000
132.056900 7813.600000
133.064800 37009.700000
133.101200 5731.800000
135.044300 10275.300000
135.060500 17883.600000
135.080400 44767.100000
137.059700 7716.600000
137.076200 33042.400000
139.055400 33022.700000
139.075800 3143.700000
141.069900 28687.300000
142.077700 9335.800000
143.085400 25581.900000
144.056900 11812.200000
145.064800 89674.000000
146.052700 10090.700000
146.072700 5300.700000
147.060600 7085.200000
147.080400 51808.000000
149.059400 2507.000000
149.076100 22604.500000
151.055700 3517.300000
152.062100 4741.800000
153.070000 16532.300000
154.078000 2986.100000
155.085600 19268.200000
157.064900 17211.000000
158.072700 24231.900000
159.080500 76384.500000
161.060000 10991.700000
161.075900 4580.100000
161.096400 11554.100000
163.055600 10906.900000
163.075200 4418.900000
165.070400 32185.400000
166.077700 9358.800000
167.085400 18178.300000
168.056900 6261.200000
168.093200 3482.700000
169.064900 26441.200000
169.100800 4954.000000
170.072600 6963.200000
171.080500 91491.500000
172.088100 6708.200000
173.076200 6854.900000
173.096300 10216.900000
175.075400 8382.200000
176.063200 3086.100000
177.071100 22423.800000
178.077700 24094.900000
179.085600 36971.500000
180.093600 17747.300000
181.065300 23726.300000
181.101300 13777.500000
182.072600 19594.000000
183.080600 18302.300000
183.116700 6198.300000
184.088300 4898.200000
185.059800 27949.600000
185.075200 3074.500000
185.096300 14833.900000
187.075500 7869.900000
189.070800 19436.600000
190.077600 26042.900000
191.086000 23563.000000
192.093300 18812.200000
193.101300 33616.500000
194.072700 14538.200000
194.108900 7162.900000
195.080600 39131.900000
195.117000 16795.900000
196.088300 32611.300000
197.096200 45800.100000
198.104000 5615.000000
199.075400 3856.400000
199.111900 5521.300000
202.078100 15648.100000
203.085800 29704.400000
204.093300 13896.600000
205.065300 13221.800000
205.101300 27577.700000
206.073000 7330.900000
206.109300 8930.700000
207.080400 15432.400000
207.117200 15495.700000
208.088400 62691.800000
209.077100 3513.500000
209.096200 48896.900000
210.104000 15322.000000
211.075500 6864.700000
211.111700 25448.300000
212.119700 11702.800000
213.090500 2729.500000
215.085600 26924.900000
216.093500 23359.500000
217.101300 16151.300000
218.072500 5450.100000
218.109000 15149.100000
219.080500 24448.600000
219.117100 10441.100000
220.088400 21151.100000
221.096000 41868.200000
222.104000 46545.700000
223.111900 39382.600000
224.083300 9305.500000
225.091300 12205.300000
225.126900 5556.800000
226.078800 4571.800000
227.085800 8781.000000
228.093500 16338.000000
229.101400 18906.300000
230.109000 19086.700000
231.080500 23738.000000
231.116400 12834.600000
232.088600 17812.600000
233.096500 38412.700000
233.132100 11045.100000
234.103800 24659.900000
235.075700 6513.700000
235.111700 49617.400000
236.083300 5419.900000
236.119500 11055.400000
237.090600 6345.500000
237.127700 10412.800000
238.098300 11897.800000
239.106600 5622.400000
240.093900 8267.400000
241.102100 6747.700000
242.110000 2433.600000
243.080600 8076.700000
243.117300 12386.500000
244.088300 9079.300000
245.096400 27097.800000
245.132300 5541.000000
246.103900 41961.800000
247.075700 6457.700000
247.111700 18560.300000
248.084000 3136.200000
248.119200 17365.700000
249.090800 7047.100000
249.127300 15346.500000
250.098900 4294.200000
251.107100 7983.800000
251.143200 6902.100000
253.102200 5033.800000
253.122500 5691.000000
255.116300 4360.300000
257.096200 6941.800000
258.103900 34211.600000
259.111300 17103.700000
260.119700 6655.400000
261.127500 20180.600000
262.099200 9912.400000
263.086900 3637.100000
263.107200 8330.300000
264.115200 6830.800000
273.126900 11155.800000
274.098700 7789.600000
275.106800 7322.800000
276.114600 6414.500000
277.103900 2267.600000
277.122200 6489.300000
279.138100 3802.100000
286.098900 3130.100000
291.137800 3845.500000

>ms2
51.023000 2445.000000
53.002200 3575.600000
53.038600 36443.800000
55.017900 45263.200000
55.054200 7193.000000
59.049200 64578.100000
65.038700 13989.600000
67.054200 19114.200000
68.997100 3210.400000
69.033500 15722.200000
71.012700 2791.200000
71.049100 2248.000000
77.038500 10295.800000
78.046400 2855.900000
79.054200 52968.000000
81.033500 7590.700000
81.069900 19765.900000
83.049100 4522.000000
87.044200 2873.400000
91.054300 202926.400000
93.070000 63133.000000
94.041300 3474.700000
95.049200 96304.200000
95.085500 8294.100000
97.028400 6855.000000
97.045000 3006.300000
97.064800 2557.600000
99.060500 5830.900000
101.023400 3051.500000
103.054300 45750.200000
105.070000 79277.800000
107.049300 20080.000000
107.085600 12162.300000
109.044900 31306.200000
109.064900 22983.600000
111.044400 4318.800000
111.060700 2443.900000
111.080500 3138.100000
115.054300 86596.500000
116.062300 8866.800000
117.069900 54025.700000
119.049200 4021.900000
119.085700 18788.900000
121.064900 413110.800000
123.044100 3590.400000
123.060500 13747.800000
123.080300 2402.700000
125.040200 3267.900000
125.076300 3034.100000
127.054500 2630.200000
128.062100 63365.300000
129.069900 49345.900000
130.077800 7269.900000
131.049200 8326.200000
131.085600 21519.700000
132.057000 10385.900000
133.045000 7222.100000
133.064700 15837.400000
134.052500 3726.000000
135.043900 4622.500000
135.060500 8845.300000
135.080600 13993.500000
137.076200 14297.300000
139.055500 26806.000000
141.069900 33755.800000
142.078000 10327.300000
143.085700 19371.600000
144.057000 22022.900000
145.064900 65278.900000
146.052700 12124.900000
146.073100 4438.000000
147.060600 8388.300000
147.080500 19495.300000
149.076100 12674.900000
152.062200 10116.000000
153.070100 16809.500000
154.077600 5057.100000
155.085600 20000.700000
157.065000 15868.000000
158.072700 23726.100000
159.060600 6917.200000
159.080500 29164.300000
161.059800 4443.500000
161.075900 2786.100000
161.096300 3161.300000
162.047600 5453.600000
163.055300 5963.700000
165.070000 55086.400000
166.077900 16303.800000
167.085800 13088.400000
168.057200 7852.500000
168.092800 2702.200000
169.064800 22932.000000
169.101700 2699.700000
170.072900 7309.100000
171.059900 2404.200000
171.080500 38339.900000
172.088700 2496.300000
176.063300 4512.000000
177.070700 10656.500000
178.077900 41115.200000
179.085700 48854.400000
180.093600 20189.100000
181.065000 25176.600000
181.101400 6410.300000
182.072700 18959.500000
183.060500 2758.900000
183.080500 9110.300000
183.116900 2893.800000
184.088200 4626.300000
185.060000 9795.000000
185.096400 3474.000000
189.070300 26871.300000
190.077700 37055.800000
191.085500 28532.300000
192.093400 21921.200000
193.101500 28478.500000
194.072600 14607.900000
194.109000 5066.000000
195.080700 29485.200000
195.117200 6689.800000
196.088500 18252.500000
197.096300 20634.600000
202.077800 22053.600000
203.085900 40775.400000
204.093500 10137.700000
205.064800 12349.800000
205.101300 26592.600000
206.072800 6889.600000
206.109100 4507.500000
207.080800 20730.000000
207.116500 7141.300000
208.088400 47932.100000
209.096200 19770.400000
210.104100 5973.400000
211.075200 6553.700000
211.111900 7702.800000
215.085800 36014.300000
216.093600 15512.000000
217.101600 17582.000000
218.072900 13166.800000
218.109400 10012.100000
219.080800 29751.100000
220.088300 19147.100000
221.096100 27743.700000
222.103900 19669.200000
223.112200 8399.100000
224.083400 3390.600000
225.090900 4819.100000
226.078800 6346.000000
227.085100 12135.400000
229.101300 15838.600000
230.109600 8101.900000
231.080700 40435.700000
231.116900 4060.500000
232.088200 12781.100000
233.096200 28550.000000
234.103800 12088.800000
235.075800 4794.900000
235.112000 17049.600000
236.119800 3643.600000
237.090900 5179.000000
238.099600 3801.600000
239.086200 9269.000000
240.094100 3345.300000
241.101700 5397.600000
243.080900 7344.800000
243.117600 3340.000000
244.088100 3713.400000
245.096000 24678.600000
246.104400 13601.100000
247.075400 6546.200000
247.112400 6650.900000
248.119800 2882.500000
249.091400 7275.200000
249.126800 3818.600000
253.102100 3100.300000
257.096300 8398.600000
258.104300 12291.400000
259.111800 4064.300000
261.091300 11558.400000
261.127200 2612.100000
263.087100 3098.200000
263.105500 3002.200000
274.099300 2595.400000

>ms2
51.022900 5826.900000
53.002200 7579.800000
53.038600 61187.400000
55.017900 45458.000000
55.054300 11103.700000
59.049200 51883.500000
65.038600 34027.300000
67.054200 25066.500000
68.997100 2981.700000
69.033400 13445.500000
71.012600 3684.200000
77.038600 18909.100000
78.046400 6228.100000
79.054200 70547.800000
81.033400 10993.800000
81.069900 13494.600000
83.048900 2596.300000
91.054300 314731.900000
93.069900 51364.000000
94.041400 9296.700000
95.049200 153983.600000
97.028400 6180.700000
97.044900 4925.400000
103.054200 60526.600000
105.070000 67239.900000
107.049100 19766.900000
107.085600 3952.000000
109.044800 44725.600000
109.065000 12766.700000
111.044300 4992.000000
111.060000 2380.100000
115.054300 134428.000000
116.062100 23713.100000
117.069900 46999.000000
119.049300 6353.400000
119.085500 12696.000000
121.064900 237677.900000
123.060600 14905.100000
125.039700 2805.500000
127.054300 6180.200000
128.062100 108716.500000
129.069900 51685.700000
130.078000 4926.200000
131.049100 13624.200000
131.085600 11983.800000
132.057100 9532.800000
133.044800 12604.700000
133.065000 8039.800000
134.052700 6328.500000
135.060400 5667.000000
135.080800 4503.500000
137.076300 6101.600000
139.055400 17779.200000
141.069900 45300.200000
142.077900 12217.400000
143.085700 12017.600000
144.057100 25628.500000
145.064900 41919.300000
146.052700 17255.900000
146.072900 3567.300000
147.060600 7850.600000
147.080700 6302.700000
149.076400 2918.400000
152.062100 25752.900000
153.070000 31525.200000
154.077900 7675.600000
155.085500 15624.500000
157.064800 15307.600000
158.072800 15434.200000
159.060700 6022.600000
159.080500 12983.000000
162.047700 7899.300000
163.055400 2908.500000
165.070000 94228.400000
166.078000 17424.700000
167.085500 17117.000000
168.057200 12275.800000
168.093500 3423.500000
169.064800 21274.700000
169.101700 3395.500000
170.072900 3932.700000
171.060600 3492.000000
171.080400 16744.100000
173.076300 2644.000000
176.062700 5990.500000
178.077800 72200.600000
179.085700 65945.100000
180.093600 12754.200000
181.064900 44243.500000
182.072900 19483.500000
183.060400 4334.100000
183.080800 9349.800000
189.070100 52096.800000
190.077900 33801.000000
191.085600 39144.100000
192.093300 17352.300000
193.101100 14966.000000
194.072500 14762.200000
195.080700 30221.200000
196.088200 13430.700000
197.096600 8541.500000
202.077800 50002.800000
203.085700 41624.500000
204.093900 7391.000000
205.065000 19316.000000
205.101300 12909.200000
206.072700 6953.400000
207.080600 23983.700000
208.088400 27643.900000
209.076800 3303.900000
209.096500 8658.000000
211.075100 3007.600000
215.085700 54117.300000
216.093300 10476.100000
217.101300 19684.300000
218.072900 15337.700000
219.080600 35479.300000
220.088600 10873.900000
221.096200 19634.000000
222.104000 3690.800000
223.111900 3446.100000
225.090500 2527.000000
227.085600 14318.500000
228.092900 16186.000000
229.101400 15466.700000
231.080500 35714.300000
232.088500 8772.300000
233.096000 12650.800000
234.103700 3375.200000
239.086100 11556.000000
243.081200 4014.100000
244.088700 5044.000000
245.096100 23138.900000
247.112500 4070.800000
249.091300 2982.000000
257.096300 4350.600000
261.090700 5188.500000

