>compound LU19117159
>parentmass 226.1339
>ionization [M+H]+
>formula C14H15N3
>rt 1061.260000
>profile orbitrap
#smiles_iso CC1=CC(=NC(=N1)NC2=CC=CC=C2)C3CC3
#smiles_can CC1=CC(=NC(=N1)NC2=CC=CC=C2)C3CC3
#inchikey HAORKNGNJCEJBX-UHFFFAOYSA-N
#pubchem_id 86367
#mb_accession LU081001,LU081002,LU081003,LU081004,LU081005,LU081006

>ms2
58.065100 95444.100000
83.060300 95098.800000
226.133700 41015692.000000

>ms2
108.080600 44187.100000
185.107000 40619.000000
210.102200 48772.400000
226.133700 40471868.000000

>ms2
58.065100 106893.300000
67.054200 94173.300000
68.024300 144482.100000
80.049300 49573.400000
81.069800 48890.000000
82.065100 43353.900000
83.060400 70630.400000
91.054200 177010.400000
92.049400 140656.100000
93.057300 322007.600000
94.065100 49717.800000
106.065100 249926.000000
108.068200 83121.100000
108.080700 1183300.200000
109.076000 102093.800000
109.088500 47590.000000
116.049600 42112.300000
117.057100 47283.800000
118.052500 92121.100000
118.065100 143793.400000
119.060400 344031.500000
123.091600 152137.300000
131.060200 58641.300000
132.068000 88256.300000
133.076000 721682.100000
143.060300 75015.100000
144.080700 478972.200000
145.076000 78818.900000
159.091600 210653.900000
168.080900 60887.000000
169.075400 47067.700000
183.091700 51405.700000
184.086900 207312.600000
185.107300 398613.300000
194.083600 85652.600000
198.102800 97146.300000
208.099600 41670.200000
209.107500 365072.700000
210.102500 446399.900000
211.110500 206245.000000
224.118400 67539.700000
226.133800 35137460.000000

>ms2
53.038600 68212.100000
56.049500 51193.000000
58.065200 86949.400000
65.038600 304008.300000
66.046400 16361.500000
67.029100 32156.900000
67.041600 34658.700000
67.054200 415966.600000
68.024300 227689.000000
68.049400 184535.100000
77.038600 48986.400000
79.054200 426362.600000
80.049500 358530.600000
81.069900 363682.800000
82.065100 258535.300000
83.060400 94139.200000
84.080900 107033.700000
89.038500 32542.800000
91.054300 1072600.900000
92.049500 760985.000000
92.062000 135770.300000
93.057400 2555057.000000
94.065200 182412.200000
95.049200 124503.000000
96.080700 20578.600000
104.049500 157567.200000
105.044800 96688.700000
106.065200 1358294.400000
107.060400 55181.800000
107.073000 76778.800000
108.068400 354515.400000
108.080800 3394377.800000
109.064800 19770.500000
109.076100 280368.300000
109.088600 97476.600000
115.054300 76129.600000
116.049600 259212.000000
117.044700 33868.700000
117.057300 286962.400000
117.070000 40378.700000
118.052600 679615.300000
118.065100 534590.700000
119.060400 1236327.200000
123.091700 270320.500000
128.049400 24946.500000
130.065100 54417.200000
131.060400 339265.500000
132.068300 468961.400000
133.076100 1818045.200000
140.049300 19500.700000
141.070000 17104.700000
142.065100 169892.100000
143.060500 398050.900000
143.073000 63697.000000
144.080800 1080576.000000
145.076100 277998.500000
148.086800 25750.800000
150.102800 18429.600000
154.065000 24664.900000
155.060500 19793.800000
156.068300 20313.200000
156.080900 28779.600000
157.076300 80340.500000
158.083900 25870.400000
158.096400 67865.500000
159.091700 436925.000000
165.070100 43799.700000
166.065200 14614.500000
167.060200 29772.000000
167.072900 158559.800000
168.068700 74644.000000
168.080800 278897.900000
169.063600 18101.400000
169.076000 163948.500000
169.088400 20169.400000
170.083800 55387.500000
171.091700 76743.300000
181.076300 76236.600000
181.088600 14389.700000
182.084100 78634.300000
182.096500 72197.800000
183.079200 103426.400000
183.091700 155883.000000
184.087000 592994.200000
185.107400 511506.400000
191.072900 28034.600000
192.081000 43458.400000
193.076000 98530.300000
193.088200 31101.500000
194.084000 396218.600000
195.091400 29717.100000
196.086600 40258.900000
197.094700 126447.400000
197.107000 30048.600000
198.102800 222769.500000
199.111500 48075.700000
199.122100 46345.800000
200.118000 21458.500000
207.091900 134549.800000
208.099500 133299.300000
209.107400 709354.800000
210.102600 1073195.100000
211.110500 337279.700000
224.118200 217125.100000
225.126100 48447.100000
226.133900 14369992.000000

>ms2
51.023100 16485.100000
53.038600 245619.500000
54.033900 31014.600000
55.054200 27772.600000
56.049500 54815.800000
58.065100 17435.300000
65.038500 1237612.900000
66.033700 44753.600000
66.046400 108075.100000
67.029000 70393.400000
67.041600 125533.900000
67.054200 562884.600000
68.049400 399458.500000
70.065100 22955.300000
77.038400 115950.300000
78.033800 22677.200000
78.046300 55486.300000
79.054200 1296674.900000
80.049400 677922.900000
81.057300 65754.400000
81.069800 762569.800000
82.065100 388394.200000
83.060400 67525.600000
84.080800 145779.900000
89.038500 176284.400000
90.033900 12734.300000
91.054200 2253424.500000
92.049500 1348905.800000
92.062000 225565.500000
93.057300 5724787.000000
94.041200 22583.100000
94.065100 371772.400000
95.049100 649438.500000
96.080800 25808.800000
103.041600 18356.800000
103.054100 14543.200000
104.049500 340867.500000
105.044700 345511.900000
106.065100 1983855.600000
107.060300 87779.400000
107.073000 142149.300000
108.068300 525034.900000
108.080700 2885149.500000
109.064800 45350.300000
109.076000 259159.200000
109.088500 76562.800000
115.054200 134487.800000
116.049400 535869.700000
117.044600 72809.100000
117.057300 497981.600000
117.069800 66118.000000
118.052500 1571913.500000
118.065000 562074.600000
119.060300 1574967.000000
120.080900 18815.700000
121.076100 11588.300000
122.084000 10591.200000
123.091600 142119.200000
128.049400 50820.300000
128.062200 22330.200000
129.069600 13979.100000
130.040100 34370.500000
130.065000 62901.900000
131.060400 551357.100000
132.068200 789708.200000
133.076000 1107554.900000
134.071200 24840.900000
140.049400 70228.100000
141.069800 40966.700000
142.052300 11079.700000
142.065100 194136.200000
143.060400 571783.900000
143.072900 104415.400000
144.055800 54012.500000
144.080700 614137.700000
145.065500 18122.300000
145.075900 307215.300000
148.086800 36470.300000
150.102600 17755.900000
153.057300 15292.100000
154.064900 55618.900000
155.060500 32631.200000
156.068100 88982.900000
156.080800 32184.200000
157.076000 110453.300000
158.084300 44602.800000
158.096300 38734.800000
159.091600 268451.700000
160.086500 15386.200000
165.070000 84704.700000
166.065200 33272.600000
167.060800 79452.100000
167.072900 339592.300000
168.068300 156558.100000
168.080600 232356.400000
169.063700 40989.400000
169.075900 173881.500000
169.088900 21439.800000
170.083800 50492.700000
171.091600 61730.100000
179.060300 9973.500000
180.080900 40398.500000
181.076000 106995.600000
181.088700 23913.000000
182.071500 23167.500000
182.083800 139437.100000
182.096100 63028.200000
183.079200 169470.300000
183.091600 158928.700000
184.086900 402141.300000
184.099500 30910.000000
184.112300 22106.700000
185.107300 252214.500000
190.064800 15624.500000
191.072900 76186.000000
192.067300 14155.700000
192.080800 43723.700000
193.076100 304229.000000
193.088400 43523.000000
194.083900 523015.400000
195.091700 22661.700000
196.087200 55821.800000
197.094800 98452.600000
197.106300 17924.400000
198.102500 175765.400000
199.110300 49120.200000
199.122900 29584.700000
200.118600 15812.700000
206.083900 14910.500000
207.091600 292971.300000
208.087800 16460.000000
208.099300 161162.700000
209.107300 335656.000000
210.102500 990276.100000
211.110300 184300.400000
224.118100 237960.300000
225.126400 18518.700000
226.133800 2728062.500000

>ms2
50.015200 14729.900000
51.023000 8960.400000
53.038600 573826.200000
54.033800 40836.700000
55.029100 15579.700000
55.054200 30480.000000
56.049500 60780.300000
57.044700 8261.500000
58.065100 50054.600000
63.022900 35167.700000
65.038500 2107483.500000
66.033700 74874.800000
66.046400 367986.600000
67.029000 171009.900000
67.041600 249831.800000
67.054200 447191.700000
68.024300 345426.200000
68.049400 493224.700000
70.065100 15086.800000
77.038500 291636.400000
78.033700 61168.900000
78.046400 103621.800000
79.054200 1727795.600000
80.049400 773597.800000
81.057300 111786.100000
81.069900 693962.600000
82.065100 331071.200000
83.060500 56545.400000
84.080800 116996.800000
89.038500 390547.200000
90.033800 45355.500000
91.054200 2726172.500000
92.049500 1421912.800000
92.062100 155635.500000
93.057300 7098150.500000
94.041200 57046.600000
94.065100 408184.900000
95.049100 1337872.900000
96.080700 15496.600000
103.041600 34217.200000
103.054200 25398.600000
104.049400 359802.400000
105.044700 615975.400000
106.065100 1284744.400000
107.060400 73984.700000
107.072900 218816.600000
108.068200 445550.700000
108.080700 1293004.800000
109.064800 34595.700000
109.076100 114336.100000
109.088400 20247.600000
115.054200 180984.600000
116.049500 477151.700000
117.044700 82340.200000
117.057300 432113.500000
117.069900 35398.800000
118.052500 1710150.900000
118.065000 329142.700000
119.060400 1101670.600000
123.091700 29121.300000
128.049200 48027.000000
128.061900 14580.200000
129.069800 18833.500000
130.040000 61076.700000
130.065200 88511.800000
131.060300 617302.400000
132.068200 631167.400000
133.076000 375667.700000
134.071200 26448.400000
140.049400 99379.100000
141.069900 22460.900000
142.065200 106724.200000
143.060400 381965.200000
143.073000 83400.800000
144.055400 28998.800000
144.080700 196355.300000
145.064900 17998.300000
145.075900 161278.600000
148.086800 53492.200000
150.102200 12613.800000
152.061700 15628.200000
153.057300 9850.900000
154.064900 69961.000000
155.060300 38132.000000
156.068200 96061.200000
156.080600 14946.600000
157.075900 61173.400000
157.088700 13039.300000
158.083900 32831.400000
159.091500 93838.100000
165.070100 89942.800000
166.065200 74974.000000
167.061100 49499.600000
167.072800 373951.400000
168.068100 190733.500000
168.080500 137757.000000
169.063400 37953.500000
169.075900 139593.600000
170.083900 34925.400000
171.091600 37578.100000
179.060300 17479.400000
180.080800 58955.500000
181.076000 140366.200000
181.086000 13374.800000
181.088700 15724.000000
182.071500 39569.900000
182.083700 137280.900000
182.096200 27024.200000
183.079100 106957.700000
183.091700 78294.200000
184.086900 130404.800000
184.097200 11100.100000
184.099000 9164.800000
185.107300 62631.300000
191.073100 51367.400000
192.080700 17333.100000
193.076100 495522.300000
193.087400 24779.700000
194.083900 317781.200000
195.091600 20798.700000
196.086800 53636.800000
197.094300 65984.100000
198.102200 75852.700000
199.110400 10773.400000
199.123600 13273.900000
206.083600 54566.600000
207.091700 334243.500000
208.099400 78171.200000
209.107100 64594.200000
210.102500 554590.900000
211.110500 33849.400000
224.118200 142793.200000
226.133800 250881.900000

