>compound LU19494913
>parentmass 187.0536
>ionization [M+H]+
>formula C7H10N2O2S
>rt 695.520000
>profile orbitrap
#smiles_iso CCOC(=O)N1C=CN(C1=S)C
#smiles_can CCOC(=O)N1C=CN(C1=S)C
#inchikey CFOYWRHIYXMDOT-UHFFFAOYSA-N
#pubchem_id 31072
#mb_accession LU071901,LU071902,LU071903,LU071904,LU071905,LU071906

>ms2
56.049500 2778.000000
57.057300 12432.100000
74.005900 9226.300000
83.060200 2648.000000
88.021500 45983.900000
102.037200 5524.200000
111.091500 3162.600000
114.024500 10122.900000
115.032400 2251171.200000
141.048100 2987.500000
143.063700 666382.700000
159.022300 125029.500000
187.053600 586030.400000

>ms2
56.049500 4219.600000
57.057300 19955.700000
74.005800 14648.300000
83.060300 5693.200000
84.081000 2679.700000
85.088700 2771.200000
88.021600 64787.100000
102.037300 5530.000000
111.091600 3427.500000
114.024700 17299.600000
115.032500 2513111.000000
141.047900 4152.100000
143.063800 645940.200000
159.022300 105705.000000
187.053700 373865.900000

>ms2
56.049500 20955.000000
57.057300 141515.200000
58.995000 3408.700000
61.010600 5641.300000
70.065000 4595.700000
71.060300 8493.000000
74.005900 84844.100000
79.021300 3457.500000
82.052600 2985.000000
83.060400 19971.600000
84.080700 7092.800000
85.088600 6045.200000
88.021600 180856.500000
100.009100 5587.300000
102.037200 5784.500000
111.091800 5284.700000
113.016900 3488.800000
114.024600 38483.200000
115.032500 2444686.000000
128.040400 4658.700000
141.048200 5636.100000
143.063800 247423.400000
159.022400 15913.700000
187.053600 23366.300000

>ms2
54.033900 2567.700000
56.049500 75748.200000
57.057300 412547.900000
58.995000 17335.600000
61.010700 6304.200000
69.044800 4256.000000
70.065100 9015.900000
71.060400 23346.500000
73.010700 4573.700000
74.005900 150728.600000
79.021200 3731.400000
81.044700 2867.300000
82.052500 9795.000000
83.060400 45623.400000
84.080700 5316.900000
85.088500 4622.600000
86.005900 2205.200000
88.021600 279902.800000
100.009000 15027.300000
102.037300 3440.900000
109.076200 2615.100000
111.091700 3335.200000
113.016700 7695.800000
114.024700 52382.200000
115.032500 1778905.900000
128.040300 3539.400000
130.981900 3160.300000
141.047800 2051.500000
143.063800 63690.800000

>ms2
54.033800 2834.900000
56.049500 131476.800000
57.057300 589766.800000
58.995100 27914.900000
61.010700 6822.700000
69.044800 7744.000000
70.065100 10599.300000
70.995000 2564.800000
71.060400 30205.500000
73.010700 4180.500000
74.005900 167402.200000
81.044900 6871.900000
82.052600 21070.100000
83.060400 61461.100000
84.080800 2975.500000
86.005900 6149.900000
88.021600 248100.500000
97.007600 2398.900000
100.009000 26002.600000
109.076200 3307.600000
111.091900 1924.700000
113.016900 13968.700000
114.024800 41369.100000
115.032600 860029.900000
128.040200 2616.200000
130.982000 2754.500000
143.063900 9650.600000

>ms2
54.033800 5930.700000
56.049500 176675.800000
57.057300 585832.500000
58.995000 45479.100000
61.010700 7013.400000
69.044700 14083.200000
70.065000 8554.100000
70.994900 1777.100000
71.060400 33181.200000
74.005800 113934.900000
79.021300 2553.500000
81.044700 13336.000000
82.052600 26523.000000
83.060400 54496.300000
86.005900 7784.700000
88.021600 184185.300000
97.007800 2828.900000
100.009000 29447.300000
109.076000 1892.000000
113.016700 13858.800000
114.024700 32757.600000
115.032500 365850.000000
130.981700 1811.000000

