>compound LU19730352
>parentmass 311.2482
>ionization [M+H]+
>formula C21H30N2
>rt 1019.400000
>profile orbitrap
#smiles_iso CCC1=CC(=CC(=C1N)CC)CC2=CC(=C(C(=C2)CC)N)CC
#smiles_can CCC1=CC(=CC(=C1N)CC)CC2=CC(=C(C(=C2)CC)N)CC
#inchikey NWIVYGKSHSJHEF-UHFFFAOYSA-N
#pubchem_id 83656
#mb_accession LU031501,LU031502,LU031503,LU031504,LU031505,LU031506

>ms2peaks
162.128600 62530.900000
296.225800 38168.600000
311.248000 29828646.000000

>ms2peaks
117.069900 103736.500000
134.096300 35806.600000
145.101100 402049.200000
162.127600 2564024.000000
250.158200 34786.200000
265.182500 104346.400000
266.189600 59492.800000
294.221700 281481.400000
295.216200 75317.100000
296.225400 45971.900000
309.232400 145237.900000
311.248000 31810620.000000

>ms2peaks
91.054100 75617.200000
93.069900 25824.300000
103.054100 17558.300000
105.069800 181400.100000
106.065100 20989.400000
115.054100 61767.700000
116.061900 20920.500000
117.069800 1463760.800000
118.064800 30274.800000
119.085500 96599.600000
120.080800 19041.700000
128.061800 34691.500000
129.069700 50573.600000
130.077700 186190.100000
131.072800 30521.700000
131.085300 33224.800000
132.080700 77919.100000
133.088500 21030.600000
133.101000 88498.300000
134.096300 246197.300000
143.085600 85559.500000
145.101100 3614620.800000
146.096200 215929.600000
147.104200 143996.600000
147.116700 267050.600000
148.111900 106682.800000
149.120000 23116.500000
157.101100 23155.700000
160.112100 159916.600000
162.127500 17210052.000000
174.127600 99852.600000
193.101400 18997.100000
206.108700 24852.700000
207.104200 18712.000000
207.117000 18549.400000
208.111900 26007.100000
220.124300 21425.700000
221.119800 74248.000000
222.127300 53742.700000
233.132000 20299.200000
236.143200 481442.600000
237.151000 71450.000000
238.158700 66990.200000
248.155800 26740.700000
249.151000 18250.200000
250.158800 521956.100000
253.169600 18319.800000
264.174300 134035.900000
265.182300 899884.300000
266.190300 188993.200000
267.185800 23995.800000
278.189700 20644.600000
279.198100 21530.900000
281.200800 30819.500000
292.205900 43000.000000
294.221500 628140.200000
295.216500 250145.400000
296.224400 18824.200000
309.232400 505331.100000
311.247900 8184084.000000

>ms2peaks
67.054200 51479.900000
79.054100 52051.300000
91.054200 409441.400000
93.069700 53888.600000
94.065000 32627.500000
103.054100 49427.600000
105.069900 651914.400000
106.065100 56271.000000
107.085600 29453.700000
115.054100 425876.300000
116.062000 150758.500000
117.069800 2987750.200000
118.065000 94696.300000
119.072900 117477.500000
119.085500 203696.300000
120.080800 62036.300000
128.062000 140082.200000
129.069700 192465.600000
130.065600 39503.000000
130.077700 721173.600000
131.073100 80708.900000
131.085600 47931.300000
132.080700 235265.000000
133.088600 166942.700000
133.101100 91659.900000
134.096300 458152.700000
143.085500 212167.900000
144.080700 37336.500000
145.101100 3741802.200000
146.096300 773186.900000
147.104200 2092412.600000
147.116200 277135.900000
148.111800 104498.200000
149.119900 32789.500000
158.096300 25415.500000
159.104100 23411.900000
160.112200 219159.600000
161.120200 30504.700000
162.127600 22940108.000000
172.111900 31086.900000
174.128000 42152.200000
191.085400 26609.200000
193.089900 37277.100000
193.100900 37311.800000
194.096500 39204.700000
205.100800 55519.100000
206.096100 24030.300000
206.108900 50755.900000
207.104300 225275.200000
208.111900 142570.400000
209.119500 46736.800000
210.127900 26945.400000
219.116700 67126.800000
220.112300 29898.400000
220.124900 35508.800000
221.119700 623303.100000
222.127600 177383.300000
233.131700 56574.100000
234.127400 25199.700000
235.135500 80625.500000
236.143200 1054734.600000
237.150900 133758.900000
238.158600 74603.200000
250.158900 907060.200000
253.169700 32679.400000
264.174500 706298.100000
265.182400 691772.500000
266.190900 45492.500000
267.185500 67169.500000
278.190200 25377.300000
281.201400 60604.500000
292.205100 23503.300000
294.221400 83593.900000
295.217200 66721.000000
309.232600 134125.900000
311.248000 430113.600000

>ms2peaks
53.038600 25713.200000
65.038600 25993.000000
67.054100 55979.100000
77.038400 14199.300000
78.046400 18918.700000
79.054200 91096.200000
80.049500 47114.000000
91.054200 800261.300000
93.069900 56681.700000
94.065100 202924.000000
95.072900 21221.400000
103.054200 122261.500000
105.069900 1036496.800000
106.065100 117006.100000
107.072800 20800.500000
107.085500 31366.000000
108.080700 15859.800000
115.054200 1360044.000000
116.062100 372753.400000
117.069900 2361164.800000
118.065000 131839.600000
119.073000 494780.100000
119.085500 177885.200000
120.080700 83780.000000
121.088700 19473.400000
128.062000 326012.700000
129.069900 520527.400000
130.065400 122987.700000
130.077700 811602.900000
131.073000 125532.800000
131.085500 39193.800000
132.080800 719594.200000
133.088600 285368.600000
133.100800 39284.500000
134.096400 432674.000000
141.069500 30394.500000
142.077700 16056.400000
143.072900 28797.000000
143.085500 142599.500000
144.080800 76190.400000
145.088800 71956.500000
145.101200 1280882.400000
146.096400 3423728.000000
147.104200 5213266.000000
148.111900 46352.000000
155.060500 31932.000000
157.088500 29089.600000
158.096300 39946.000000
159.104100 14943.500000
160.112200 133966.000000
161.120300 17703.200000
162.127700 13941358.000000
165.070100 16260.900000
172.112000 22819.900000
174.127500 15769.900000
178.078000 39325.300000
179.085500 29632.100000
180.080800 63403.700000
181.088400 33883.700000
190.077700 15266.500000
191.085300 67138.000000
192.093100 24170.100000
193.088800 188954.800000
193.101000 27602.200000
194.096600 109440.200000
195.104100 22216.800000
203.085500 35475.000000
204.093600 59452.600000
205.100900 122328.800000
206.096400 353073.800000
206.108500 23660.700000
207.104300 551842.300000
208.111900 230754.500000
209.119800 46776.500000
210.127800 23620.700000
218.109200 26100.300000
219.116500 87763.700000
220.112200 166216.800000
220.124500 23383.000000
221.119900 1104189.100000
222.115100 24131.200000
222.127400 183136.700000
223.122800 15916.100000
223.135500 20131.200000
233.132500 45263.000000
234.127800 79804.800000
235.135600 230366.500000
236.143300 711159.200000
237.138400 33602.700000
237.151200 55089.500000
238.159000 44735.500000
248.143400 59544.200000
249.151200 54960.000000
250.159100 441293.100000
251.153900 29589.400000
253.170000 19837.500000
264.174600 874849.400000
265.169200 25431.800000
265.182600 67982.300000
266.174300 21255.400000
267.184600 37951.800000
278.189600 15792.900000
281.200900 28694.100000

>ms2peaks
53.038500 55908.500000
55.054200 8796.800000
65.038500 66808.800000
67.054200 43785.000000
77.038600 26207.100000
78.046300 52019.900000
79.054100 229885.000000
80.049400 139812.600000
89.038500 9905.100000
91.054200 1358487.600000
92.062000 44119.300000
93.057300 24221.400000
93.069800 57515.700000
94.065100 560188.200000
95.072900 68751.300000
103.054200 178812.300000
104.049300 85067.600000
104.062000 27628.500000
105.069900 1021554.100000
106.065000 186032.700000
107.072900 41979.900000
107.085400 27611.500000
108.080700 18864.700000
115.054200 2418124.200000
116.062000 508712.200000
117.069800 1407570.500000
118.065000 401366.700000
119.072900 1296393.600000
119.085400 109187.100000
120.080700 111421.800000
121.088400 13600.200000
128.062000 538217.200000
129.069800 970470.100000
130.065300 262374.200000
130.077600 661945.900000
131.073000 223145.500000
131.085400 45140.700000
132.080700 1546471.500000
133.088500 300827.700000
134.096300 301704.800000
141.069800 43841.600000
142.077600 23694.700000
143.072900 53444.100000
143.085700 76356.600000
144.080800 112999.200000
145.088900 84070.400000
145.101200 351193.000000
146.096300 8400146.000000
147.104100 5380642.500000
148.111900 9651.100000
154.077700 14452.000000
155.060300 56973.400000
155.085200 12291.800000
156.080900 40383.500000
157.088900 35020.400000
158.096400 26730.000000
160.111900 96637.000000
161.120000 10038.300000
162.127600 5800079.500000
165.069600 58103.500000
167.085300 28890.600000
170.096500 23186.000000
171.103800 17776.200000
172.111600 12568.100000
178.077400 82187.300000
179.085300 79166.500000
180.080600 175350.700000
181.088300 47240.200000
181.101100 14106.900000
182.096100 16820.500000
190.077800 73000.300000
191.085300 120169.900000
192.092800 38352.100000
193.088600 391769.300000
193.100700 36667.500000
194.096400 150331.400000
194.107300 10735.100000
195.104200 22965.200000
196.111600 17493.000000
203.085500 118973.100000
204.093300 114022.900000
205.088400 35945.100000
205.101000 111725.800000
206.096300 1276380.200000
207.104100 639255.800000
208.111800 176362.600000
209.107200 18504.600000
209.119800 32646.800000
210.127100 14337.900000
217.101200 48920.300000
218.108700 27244.800000
219.103900 55292.200000
219.116700 53896.900000
220.112000 511184.600000
221.119700 813434.100000
222.114800 27673.800000
222.127500 93556.100000
223.122400 23069.500000
223.135100 13917.000000
224.142800 12955.600000
233.132600 28566.000000
234.127600 171080.900000
235.135500 192194.000000
236.143200 269284.800000
237.138400 23702.400000
237.150900 9459.300000
238.159000 25892.500000
248.143200 203580.700000
249.151100 61120.100000
250.159000 101672.000000
251.153900 14603.900000
253.169600 8994.000000
264.174500 385686.900000
265.169400 46838.000000
266.174100 16949.500000
278.189800 8645.700000
281.201600 13502.100000

