>compound LU20649118
>parentmass 272.1644999999999
>ionization [M+H]+
>formula C17H21NO2
>rt 1081.380000
>profile orbitrap
#smiles_iso CCN(CC)C(=O)C(C)OC1=CC=CC2=CC=CC=C21
#smiles_can CCN(CC)C(=O)C(C)OC1=CC=CC2=CC=CC=C21
#inchikey WXZVAROIGSFCFJ-UHFFFAOYSA-N
#pubchem_id 27189
#mb_accession LU006601,LU006602,LU006603,LU006604,LU006605,LU006606

>ms2
57.033600 10053.700000
58.065100 82360.600000
72.080700 895723.800000
74.096400 4017400.500000
100.075600 51857.000000
100.112000 131923.500000
101.083500 14093.600000
114.091300 133630.500000
127.054300 11724.000000
128.107000 1367761.400000
129.114700 3667753.200000
171.080400 1444651.400000
199.075300 5144904.000000
272.164400 8290906.000000

>ms2
55.017900 7778.900000
57.033400 39434.800000
58.065100 752164.700000
72.080700 1709434.200000
73.088500 8058.200000
74.096300 3164420.200000
86.060000 12752.700000
100.075700 433656.700000
100.112000 250802.200000
101.083500 158584.300000
114.091300 1066057.600000
115.054100 10120.700000
128.107000 1039780.100000
129.114700 5854284.500000
143.085400 56891.900000
144.056900 12634.000000
153.069700 35902.700000
171.080400 5820881.000000
189.091200 12699.300000
199.075300 3846113.000000
272.164300 729727.300000

>ms2
55.017800 51573.400000
57.033400 153977.300000
58.065100 3130010.500000
72.044300 194961.100000
72.080700 1887288.100000
73.088500 43372.100000
74.096300 1740302.500000
86.060000 88944.600000
100.075600 1469008.200000
100.112000 432725.700000
101.083500 477966.200000
114.091300 1915038.200000
115.054300 25895.100000
128.062000 149315.000000
128.106900 512450.500000
129.114700 2586697.200000
141.070500 10207.400000
143.085500 819074.400000
144.057100 48720.800000
145.064700 29313.100000
152.061900 15912.500000
153.069800 299711.600000
171.080300 8360593.000000
199.075300 570999.000000
272.165400 10068.700000

>ms2
55.017900 134367.400000
56.049400 13243.600000
57.033500 411831.500000
58.065100 4292992.000000
72.044400 428780.400000
72.080800 1589898.900000
73.088600 22223.500000
74.096400 1082208.800000
86.060100 154989.800000
100.075700 1188380.900000
100.112100 424784.000000
101.083500 383915.600000
103.054100 30473.300000
114.091400 735167.800000
115.054200 125834.500000
116.062200 9670.800000
127.053900 15702.100000
128.062100 1149690.400000
128.107000 149868.500000
129.069900 255384.700000
129.114800 439020.400000
141.069900 63124.200000
143.085600 1941734.400000
144.057100 51200.500000
145.064900 129072.400000
152.062200 107983.700000
153.069900 863151.400000
155.085700 9423.400000
169.065400 30731.700000
170.072700 28891.400000
171.080500 4577308.500000
199.075700 29853.800000

>ms2
55.017800 166161.800000
56.049500 13069.200000
57.033500 679578.900000
58.065100 3953365.000000
60.080700 8871.100000
65.038400 10472.500000
72.044400 573235.600000
72.080700 1307918.600000
73.088600 6004.500000
74.096400 583858.900000
86.060000 137429.700000
91.054400 33649.000000
100.075700 593262.700000
100.112100 357268.100000
101.083500 139898.600000
103.054200 70924.300000
114.091300 169802.000000
115.054200 322855.900000
116.062200 38635.100000
117.069800 22224.500000
127.054100 67090.800000
128.062000 2769262.500000
129.069800 284955.800000
129.114800 42152.300000
131.049200 10845.600000
141.069800 143922.800000
142.077800 36053.000000
143.049400 100981.000000
143.085600 1600074.800000
144.056900 71812.300000
145.064800 340316.400000
152.062100 681446.700000
153.069900 1193921.900000
154.077600 18087.600000
156.057100 23093.700000
169.064900 89250.000000
170.072600 45715.000000
171.080400 1395866.400000

>ms2
55.017900 180256.000000
56.049500 14701.600000
57.033500 759405.200000
58.065100 2902488.200000
60.080900 12178.100000
65.038600 25473.900000
72.044400 411412.400000
72.080700 821164.200000
74.096400 300751.800000
86.060000 82048.700000
91.054200 98123.800000
100.075700 199428.100000
100.112000 200474.500000
101.083300 31075.000000
103.054200 108223.700000
114.091400 49108.600000
115.054200 481618.000000
116.062000 61369.900000
117.069900 29732.000000
127.054200 152804.700000
128.062000 3493358.000000
129.069800 152136.700000
131.048900 10062.200000
141.069900 159756.200000
142.077700 42640.100000
143.049200 61081.500000
143.085600 555041.800000
144.057000 73150.100000
145.064800 427422.000000
152.062100 1389026.600000
153.069800 711500.100000
154.077600 21500.100000
156.057000 11534.500000
169.064800 140401.700000
170.072400 32550.300000
171.080400 258692.800000

