>compound LU20696749
>parentmass 194.1176
>ionization [M+H]+
>formula C11H15NO2
>rt 1063.080000
>profile orbitrap
#smiles_iso CC(C)C1=CC(=CC=C1)OC(=O)NC
#smiles_can CC(C)C1=CC(=CC=C1)OC(=O)NC
#inchikey GYKXQTKSWLAUIT-UHFFFAOYSA-N
#pubchem_id 6143
#mb_accession LU074801,LU074802,LU074803,LU074804,LU074805,LU074806

>ms2peaks
121.088200 61717.500000
122.096600 24222.100000
134.059600 28573.200000
148.075800 16620.100000
151.062900 84576.900000
166.086400 1824826.000000
179.094200 769403.000000
194.117600 11547041.000000

>ms2peaks
107.073000 17473.900000
121.088300 83991.600000
122.096400 50598.800000
134.059700 43141.500000
148.075400 23353.600000
151.062800 248199.700000
166.086200 3055199.200000
178.086500 17276.000000
179.094000 1565096.600000
194.117500 9938142.000000

>ms2peaks
65.038400 6142.700000
106.065200 14656.700000
107.073000 185534.900000
120.080600 20024.200000
121.088600 140783.000000
122.096400 116649.400000
134.060000 626995.000000
135.067900 27295.500000
135.103900 7168.700000
148.075600 57029.200000
150.054800 58223.600000
151.062800 2799603.200000
164.070600 81794.500000
165.078800 7900.900000
166.086200 5223315.000000
178.086300 52048.400000
179.094000 3886292.000000
194.117600 2786691.800000

>ms2peaks
79.054200 7678.800000
106.065100 70649.900000
107.072900 449461.900000
120.080700 44837.200000
121.088500 99892.800000
122.096400 96275.500000
134.060000 2715141.200000
135.067800 60169.400000
148.075800 66333.700000
150.055100 352451.800000
151.062700 7249256.500000
164.070500 204338.700000
166.086200 2539992.000000
178.086100 80590.800000
179.094000 2069429.900000
194.117500 306237.300000

>ms2peaks
65.038600 9045.000000
79.054200 66553.900000
82.065100 11010.900000
95.049100 10247.000000
106.065100 275829.200000
107.072900 460071.900000
119.072800 7705.800000
120.080800 74480.300000
121.088600 64597.900000
122.096400 43722.900000
124.075700 9661.300000
134.060000 4895719.000000
135.067800 47996.900000
136.076000 14960.500000
148.075900 36272.800000
150.055100 1458346.500000
151.062700 7147485.500000
160.075700 13714.600000
164.070500 172361.900000
166.086200 621139.400000
178.086100 48726.200000
179.094000 415600.900000
194.117200 19293.200000

>ms2peaks
53.038600 24292.400000
65.038400 42572.600000
77.038600 12095.100000
79.054200 433447.100000
82.065100 42232.200000
91.054100 9032.500000
95.049100 51993.800000
104.049400 19112.900000
105.057300 19508.400000
106.065100 867309.800000
107.072900 305032.800000
108.080800 11579.300000
119.072400 17054.800000
120.080800 71243.400000
121.088600 28189.700000
122.096500 12187.900000
123.067900 12941.800000
124.075900 29095.500000
134.060000 6216335.000000
135.067900 14320.800000
136.075800 15673.300000
148.075900 19468.200000
150.055000 3192202.800000
151.062800 4116065.200000
160.075700 13613.500000
164.070500 90148.000000
166.086400 114883.100000
178.085800 18402.500000
179.094200 56701.600000

