>compound LU20568237
>parentmass 229.1118
>ionization [M+H]+
>formula C9H16N4OS
>rt 931.320000
>profile orbitrap
#smiles_iso CC(C)(C)C1=NN=C(S1)N(C)C(=O)NC
#smiles_can CC(C)(C)C1=NN=C(S1)N(C)C(=O)NC
#inchikey HBPDKDSFLXWOAE-UHFFFAOYSA-N
#pubchem_id 5383
#mb_accession LU055701,LU055702,LU055703,LU055704,LU055705,LU055706

>ms2
99.091600 15721.000000
116.027500 23008.200000
172.090300 4737827.500000
229.111600 10929590.000000

>ms2
57.070100 18489.700000
89.016700 37633.500000
99.091700 29733.800000
116.027600 99722.400000
157.066700 30214.500000
172.090200 11307452.000000
229.111600 5867015.000000

>ms2
57.044600 84488.400000
57.069800 102374.300000
62.005800 159985.900000
69.069800 30120.000000
74.005800 76102.300000
89.016700 607742.600000
99.091600 28640.600000
101.041900 16064.800000
116.027600 1753147.400000
141.047900 58997.300000
157.066800 400185.000000
172.090100 14557050.000000
229.111700 606397.200000

>ms2
55.054300 13172.800000
56.049400 18475.500000
57.044700 409651.700000
57.069800 358942.500000
58.028700 11375.400000
58.065100 14338.100000
58.994900 17771.700000
59.990200 44595.500000
61.010600 7277.600000
62.005900 786891.200000
65.038600 9237.900000
69.069800 59252.300000
71.060300 9399.400000
72.080800 12710.800000
73.010500 8022.600000
74.005800 488606.000000
75.001000 11129.200000
82.065200 18160.100000
83.072800 7314.100000
84.080700 28518.800000
84.985500 14040.000000
88.021600 59962.400000
89.016800 1307708.800000
99.026200 12866.200000
99.091600 30094.600000
101.041900 78043.700000
108.068100 9715.100000
116.027700 4519099.000000
124.087000 6961.700000
129.035400 11946.500000
131.063800 9682.800000
141.048000 101612.800000
142.043300 75538.600000
156.059000 36471.700000
157.066800 1075230.800000
170.074600 8440.600000
172.090200 6661026.500000
229.111800 18026.600000

>ms2
53.002200 13266.300000
54.033800 5795.200000
55.029000 5923.800000
55.054200 22254.700000
56.049500 37412.200000
57.044700 1009659.900000
57.069900 782070.200000
58.028800 34555.400000
58.065100 14341.400000
58.995000 77091.000000
59.990200 65475.500000
61.010600 15683.100000
62.005900 1556202.500000
65.038500 24014.900000
67.054200 28338.600000
69.069900 50207.500000
70.065100 7815.900000
71.060400 11353.200000
72.080800 21172.000000
72.997900 10325.400000
73.010600 11330.400000
74.005800 1437265.100000
75.001200 42684.900000
75.026200 9591.700000
82.039900 13278.900000
82.065200 25162.900000
83.072900 12083.600000
84.080800 44446.100000
84.985500 27358.100000
87.026200 5681.500000
88.021500 102802.200000
89.016800 1131947.100000
99.026300 18747.900000
99.091700 14205.800000
100.021500 14753.500000
101.029500 8385.400000
101.042000 151439.100000
108.068200 8766.500000
116.027700 5040103.500000
124.086900 12935.400000
129.035500 34570.400000
131.063600 7983.700000
141.048100 63708.400000
142.043400 351470.400000
156.059000 223600.300000
157.066900 1142751.200000
170.074800 7631.000000
172.090200 1789849.000000

>ms2
53.002300 26395.200000
54.033900 8065.900000
55.029100 5487.000000
55.054200 37170.600000
56.049500 39822.400000
57.044700 1484962.600000
57.069900 795942.100000
57.974600 5821.800000
58.028700 47926.700000
58.065200 9126.300000
58.982500 7467.500000
58.995000 129552.500000
59.990200 81518.500000
61.010700 15293.100000
62.005900 1637609.100000
65.038600 48637.200000
67.054200 44027.200000
68.049300 13060.800000
69.069800 25761.200000
70.065100 9612.000000
71.060400 9515.000000
72.080800 14925.500000
72.998000 17609.600000
73.010600 18852.600000
74.005900 1991654.200000
75.001100 65617.800000
75.026200 7673.600000
82.040000 10710.400000
82.065100 25831.900000
83.073000 15823.100000
84.080800 37927.500000
84.985500 42265.100000
87.026200 6671.600000
88.021600 84169.100000
89.016800 552861.900000
99.026200 13885.900000
100.021500 23851.300000
101.029400 11875.600000
101.042000 114367.200000
116.027700 2738574.000000
124.086700 14997.600000
129.035500 46455.800000
141.048200 13861.100000
142.043400 625642.600000
156.059000 407994.200000
157.066900 550599.400000
172.090300 277299.800000

