>compound LU20021457
>parentmass 198.0873
>ionization [M+H]+
>formula C8H11N3O3
>rt 187.920000
>profile orbitrap
#smiles_iso C1=CC(=C(C=C1N)[N+](=O)[O-])NCCO
#smiles_can C1=CC(=C(C=C1N)[N+](=O)[O-])NCCO
#inchikey GZGZVOLBULPDFD-UHFFFAOYSA-N
#pubchem_id 3465817
#mb_accession LU051701,LU051702,LU051703,LU051704,LU051705,LU051706

>ms2peaks
91.054200 4454.900000
95.060400 40578.600000
107.060400 8907.000000
108.067900 11773.900000
117.044400 2011.700000
119.048000 5165.500000
120.055600 6156.700000
122.071300 60102.700000
132.055700 4862.400000
133.063400 601272.400000
134.071300 24248.000000
134.083800 2430.500000
136.050600 114731.200000
136.063000 6650.500000
137.070900 6047.300000
138.066200 15877.200000
145.063400 7830.800000
149.058300 2806.400000
150.066200 189695.400000
153.053700 5568.500000
162.066200 12576.300000
163.074000 148221.700000
164.081900 10997.400000
166.060900 3821.500000
167.057600 2156.600000
180.076800 349303.900000
181.084600 10605.900000
198.087400 560108.700000

>ms2peaks
80.049700 2021.100000
81.044700 3818.100000
86.060100 9920.800000
91.054400 3713.500000
93.044700 3051.900000
95.060400 52962.700000
105.044600 2519.200000
107.060400 8154.900000
108.068300 14016.100000
109.039600 2717.000000
118.040200 6408.200000
119.047800 11222.200000
120.055600 5084.200000
121.063800 2087.300000
122.071300 57249.200000
123.055300 2212.400000
132.055700 4379.200000
132.068400 2475.400000
133.063400 655221.600000
134.071200 24458.400000
136.050600 139096.500000
137.070800 8502.100000
138.066200 11068.500000
145.063500 11818.200000
149.058500 3008.600000
150.066200 130958.700000
153.053200 13143.800000
162.066300 12272.200000
163.074000 120392.700000
164.081800 13761.100000
167.057900 2813.300000
180.076800 217506.300000
181.084500 9107.400000
198.087500 199031.800000

>ms2peaks
54.033900 3273.600000
55.054300 2856.200000
57.069800 7662.700000
66.033800 2198.600000
69.069700 2170.600000
71.085500 4828.400000
79.029000 1804.500000
80.049400 9364.300000
81.044800 10851.700000
82.052300 2228.300000
83.085400 2706.600000
86.060100 63797.400000
91.029100 14588.600000
91.054300 2879.900000
92.049500 1958.500000
93.044800 10642.100000
93.057300 3970.300000
94.052600 4139.500000
95.060400 122101.000000
105.033500 7789.100000
105.044700 8414.800000
105.057400 2587.000000
106.052600 1908.600000
106.065100 7230.000000
107.060400 18833.500000
108.068200 109676.100000
109.039600 7933.900000
110.059800 1841.600000
117.044900 3563.200000
118.039900 22738.800000
119.047900 61421.500000
120.044600 9816.100000
120.055600 14509.300000
120.068100 3687.500000
121.039200 1880.200000
121.063400 2677.400000
121.075900 18315.700000
122.071300 49712.600000
123.055200 4342.900000
132.055900 9185.000000
132.068100 9496.400000
133.063500 1057492.500000
134.071300 57355.300000
134.083800 6750.300000
135.091500 4326.600000
136.050600 148589.600000
137.047400 2200.400000
137.071000 30565.900000
138.066200 3937.900000
142.072500 2977.100000
145.063400 28893.100000
146.071300 6760.000000
149.058500 5929.000000
150.066300 75430.600000
153.053300 33851.100000
162.066200 19736.700000
163.074000 54526.100000
164.081900 16928.300000
166.060900 4662.500000
167.057700 6970.900000
180.076900 33279.100000
181.085000 3110.800000
198.087400 84630.000000

>ms2peaks
53.002100 2669.000000
53.038500 1784.400000
54.033900 8435.200000
55.054200 6190.100000
57.069900 15772.700000
64.018200 4384.800000
66.033900 4459.000000
67.017800 3847.200000
68.049500 3354.400000
69.033500 5036.000000
69.069800 6551.200000
71.085500 6874.000000
79.029200 2808.200000
80.049600 16029.900000
81.044700 17115.100000
81.057300 3382.200000
82.028800 7990.600000
82.052600 5226.100000
83.085700 2936.200000
86.060100 95090.300000
90.046600 1820.200000
91.029200 34920.200000
91.054300 3203.500000
92.036900 8022.600000
92.049500 6418.800000
93.044800 12139.300000
93.057400 13336.100000
94.052600 13325.200000
94.065400 2805.800000
95.060400 135751.700000
105.033500 6402.700000
105.044800 10612.800000
105.057300 3547.500000
106.052600 12413.300000
106.065200 16457.300000
107.060400 67236.100000
108.068200 146245.400000
109.039800 5236.400000
109.052500 2718.600000
109.075600 2198.200000
110.060200 2206.700000
111.055300 3468.900000
117.044800 4833.700000
117.057300 5357.700000
118.040000 28750.300000
118.052600 3506.800000
118.065200 3108.900000
119.047900 110985.200000
120.044400 11804.700000
120.055400 9006.000000
120.068400 2678.500000
121.063600 5117.500000
121.076000 35445.700000
122.071300 19066.700000
123.055400 3759.900000
131.060500 6876.700000
132.055700 13951.100000
132.068200 7687.000000
133.063500 994668.200000
134.071300 73201.600000
134.083900 4864.400000
135.055800 2225.500000
135.091900 9556.900000
136.050600 59772.400000
136.063400 3005.500000
137.047100 7425.900000
137.071000 36100.800000
142.072600 3240.700000
144.055800 6077.700000
145.063400 26783.000000
146.071200 9469.500000
149.058500 3169.800000
150.066300 21288.000000
153.053400 39279.000000
162.066300 22528.000000
163.074100 12339.000000
164.082000 3953.600000
166.061200 4076.100000
167.057600 3767.700000
198.087800 8864.200000

>ms2peaks
52.018100 1707.100000
53.002300 4111.500000
53.038600 4562.300000
54.033900 13003.500000
55.018000 1753.700000
55.054300 5070.800000
57.069900 13632.900000
63.023000 2588.000000
64.018200 7083.300000
65.038600 6388.200000
66.033800 6237.000000
66.046400 4060.200000
67.017800 4381.500000
67.041600 5947.300000
68.049400 5016.100000
69.033400 9090.500000
69.069900 2241.900000
71.085600 2173.600000
78.033800 8628.800000
79.029100 4833.000000
79.041600 5588.500000
80.049500 32848.500000
81.044800 16569.300000
81.057200 5449.900000
82.028700 9350.900000
82.052600 3567.600000
86.060100 73741.800000
89.038600 2562.800000
90.033900 3665.500000
90.046600 10041.000000
91.029100 43580.200000
91.041600 8256.800000
91.054200 2456.100000
92.036900 25076.700000
92.049500 12015.200000
93.044700 10152.400000
93.057300 26505.300000
94.052500 19684.400000
94.065200 11809.200000
95.060400 135432.600000
96.044400 2580.900000
97.052200 2113.600000
104.049700 5568.000000
105.033500 5733.900000
105.044700 29997.100000
105.057300 5026.100000
106.052600 46873.000000
106.065100 21832.500000
107.060400 148737.400000
108.068200 108369.200000
109.039700 3474.500000
109.052200 2517.100000
109.076000 2916.200000
110.060100 4884.400000
117.044700 6672.400000
117.057500 8507.200000
118.040100 16676.500000
118.052600 6871.900000
118.065200 7307.300000
119.047800 120376.600000
119.060400 16208.300000
120.044500 9960.300000
120.055300 10516.800000
120.068000 4101.000000
121.039700 5559.200000
121.076000 30893.800000
122.071100 9512.600000
131.060500 7847.500000
132.055700 22636.200000
132.068300 5294.400000
133.063500 889567.300000
134.071300 79534.500000
135.091500 7642.300000
136.050600 19655.400000
137.047400 6986.300000
137.070900 31194.100000
144.055900 9754.100000
145.063500 15591.600000
146.071200 10732.400000
150.066500 4971.500000
153.053300 19606.700000
162.066200 17927.900000
163.073900 1934.900000
198.089100 1789.100000

>ms2peaks
52.018300 2501.300000
53.002200 3011.100000
53.038600 5233.500000
54.033800 30085.700000
55.017900 2903.900000
55.054200 6013.700000
57.069900 9639.600000
63.022900 2859.900000
64.018200 21872.600000
65.038600 11970.600000
66.033800 5873.600000
66.046300 5930.700000
67.041700 9174.600000
68.049500 7465.800000
69.033500 12191.300000
69.069900 2067.100000
78.033900 11073.200000
79.029100 6903.900000
79.041700 12123.600000
80.049500 72378.900000
81.044800 13672.100000
81.057400 9957.800000
82.028700 14108.100000
82.052500 7351.000000
86.060100 47329.800000
89.038600 7578.200000
90.033900 5282.900000
90.046400 12760.800000
91.029200 30155.500000
91.041700 18092.700000
91.054200 4359.100000
92.036900 58373.200000
92.049400 18428.700000
93.044700 8366.100000
93.057400 37731.100000
94.052700 15048.000000
94.065200 12854.200000
95.060400 104777.900000
96.044500 5043.600000
97.052300 5246.500000
104.049600 10685.100000
105.044800 49095.600000
105.057500 4355.300000
106.052600 100020.500000
106.065200 25257.700000
107.060400 183775.200000
108.068200 51965.100000
109.052200 6352.900000
109.076000 2233.800000
110.060000 5895.800000
111.055400 3215.900000
117.044700 8527.200000
117.057400 6496.300000
118.040400 9372.400000
118.052600 6715.200000
118.065100 5543.800000
119.047900 70963.700000
119.060400 22962.600000
120.044700 4067.700000
120.055700 9126.300000
120.068300 3606.700000
121.039800 4461.000000
121.076100 18158.000000
122.071200 3729.700000
131.060400 6743.000000
132.055800 36987.000000
132.068200 4770.400000
133.063500 615521.600000
134.071300 56073.600000
135.055700 2279.500000
136.050600 5535.000000
137.047100 2171.900000
137.071000 22815.500000
144.055800 8222.800000
145.063700 4640.100000
146.071400 10275.500000
153.053400 6387.000000
162.066300 8719.100000

