>compound LU20199714
>parentmass 230.0552
>ionization [M+H]+
>formula C6H8ClN7O
>rt 559.320000
>profile orbitrap
#smiles_iso C1(=C(N=C(C(=N1)Cl)N)N)C(=O)N=C(N)N
#smiles_can C1(=C(N=C(C(=N1)Cl)N)N)C(=O)N=C(N)N
#inchikey XSDQTOBWRPYKKA-UHFFFAOYSA-N
#pubchem_id 16231
#mb_accession LU108501,LU108502,LU108503,LU108504,LU108505,LU108506

>ms2peaks
60.055600 1678381.800000
61.039600 33842.700000
86.034800 230942.500000
116.001200 10442.200000
145.027500 23978.000000
171.006600 652272.400000
188.033300 208794.600000
189.017300 1973218.900000
203.032500 24093.900000
213.028500 302017.100000
230.055000 10226902.000000

>ms2peaks
60.055600 3991401.200000
61.039600 52224.500000
86.034800 304106.000000
100.990400 9865.800000
145.027600 30148.900000
161.022400 65427.200000
170.022600 18747.200000
171.006700 1407676.200000
188.033500 202751.400000
189.017300 4896064.000000
196.001900 12777.900000
203.032900 59230.800000
213.028500 263952.200000
230.055100 4595788.500000

>ms2peaks
60.055600 5261207.000000
61.039700 33892.000000
63.994900 9940.900000
69.008300 7519.000000
86.034900 163966.600000
88.990000 7983.200000
100.989700 16073.500000
108.043200 23886.300000
116.001000 310713.700000
125.046000 18188.200000
143.011900 45955.400000
145.027500 18638.200000
161.022400 1317671.500000
170.023200 16804.700000
171.006800 1834108.600000
188.033400 33599.900000
189.017300 6109915.500000
196.001900 21097.800000
203.032900 67001.900000
213.028500 38912.500000
230.055100 327524.300000

>ms2peaks
55.029100 7184.300000
60.055600 4623370.000000
61.039600 11721.800000
61.979100 23012.600000
63.994800 97760.700000
69.008200 8628.100000
86.034800 80788.400000
88.990000 66019.400000
91.005700 32986.900000
100.990000 85458.800000
107.000700 5387.100000
107.035000 14547.400000
108.042900 222808.800000
116.000900 2342134.000000
125.045700 40960.400000
143.011800 231565.900000
145.027400 8168.600000
161.022300 3162678.800000
170.022700 7268.800000
171.006600 801875.100000
189.017200 3284894.200000
196.001500 14032.300000
203.032800 35884.000000

>ms2peaks
53.013400 7491.300000
55.029100 45244.200000
60.055600 4121832.000000
61.039700 8249.200000
61.979200 145768.400000
62.963300 7255.100000
63.994800 563747.200000
66.021200 11162.900000
69.008300 17472.500000
73.039500 10369.200000
73.979000 10337.500000
80.024200 18447.400000
82.039900 5603.500000
86.034900 50063.500000
88.990100 401843.300000
91.005800 70733.300000
100.990100 299642.700000
107.000600 9873.700000
107.035200 41623.400000
108.043000 636135.100000
116.001000 5513592.500000
125.045800 36820.600000
140.996200 10855.800000
143.012000 312417.900000
161.022500 2398640.500000
171.006800 241298.200000
189.017400 893305.400000
203.032400 9828.000000

>ms2peaks
53.013400 7291.700000
55.029100 95863.200000
56.037000 16807.800000
60.055600 2741835.000000
61.979100 373999.800000
62.963200 27449.200000
63.994800 1081091.400000
66.021200 54667.700000
69.008300 17548.100000
73.039500 9562.400000
73.979100 55580.100000
80.024300 29091.200000
82.040000 8230.700000
86.034900 26631.500000
88.990000 710354.800000
91.005700 42692.400000
100.990100 484088.200000
107.000600 10077.200000
107.035200 35364.000000
108.043000 717665.100000
116.000900 4643991.500000
125.045700 9843.400000
140.996200 7944.100000
143.011900 146056.300000
161.022400 658455.100000
171.006700 27933.700000
189.017200 120610.700000

