>compound LU20256666
>parentmass 145.0648
>ionization [M+H]+
>formula C10H8O
>rt 990.980000
>profile orbitrap
#smiles_iso C1=CC=C2C(=C1)C=CC=C2O
#smiles_can C1=CC=C2C(=C1)C=CC=C2O
#inchikey KJCVRFUGPWSIIH-UHFFFAOYSA-N
#pubchem_id 7005
#mb_accession LU113601,LU113602,LU113603,LU113604,LU113605,LU113606

>ms2peaks
91.054100 25219.100000
103.054200 204504.300000
115.054100 93797.500000
117.069800 2127345.800000
127.054100 101214.000000
144.057000 21727.500000
145.064600 10408644.000000

>ms2peaks
91.054100 22376.000000
103.054200 197964.100000
115.054100 89248.200000
117.069800 2143885.500000
127.054100 109886.900000
144.057100 20824.500000
145.064600 10416867.000000

>ms2peaks
91.054200 87535.200000
103.054200 389731.500000
115.054300 291824.600000
116.062200 12955.100000
117.069900 3257672.200000
127.054200 206626.600000
131.049300 23225.200000
144.057300 38336.900000
145.064700 7265992.500000

>ms2peaks
51.023000 5696.300000
77.038600 7733.200000
91.054200 421582.200000
95.049100 20482.600000
102.046400 8900.300000
103.054200 521068.500000
115.054300 1145834.400000
116.062100 55280.100000
117.069900 3549871.200000
126.046400 16603.900000
127.054200 529614.000000
128.062000 9490.700000
130.041100 5229.600000
131.049300 31101.500000
144.057000 74754.500000
145.064800 4205723.000000

>ms2peaks
50.015200 6460.000000
63.023000 9564.500000
65.038500 56494.600000
76.030700 16891.800000
89.038600 107782.200000
91.054200 953639.200000
101.038400 4066.300000
102.046400 3910980.200000
114.046500 4615.900000
115.054200 2178551.500000
116.062000 83604.200000
117.069900 130701.500000
130.041400 329170.000000
145.064800 28143.800000

>ms2peaks
50.015200 5968.500000
63.022900 25442.700000
65.038600 147410.000000
74.015000 14930.400000
75.023000 8741.500000
76.030700 68135.000000
81.033500 21057.300000
89.038600 219688.400000
91.054300 807982.700000
102.046400 4717732.500000
115.054300 1530779.500000
116.062000 53962.300000
117.069900 29945.000000
127.054200 5655.100000
130.041400 112837.500000
145.064900 9009.900000

