>compound LU20610140
>parentmass 341.1208
>ionization [M+H]+
>formula C18H14F2N4O
>rt 959.160000
>profile orbitrap
#smiles_iso CC(C)C1=NN=C2N1C=C(C=C2)C3=C(N=CO3)C4=C(C=CC(=C4)F)F
#smiles_can CC(C)C1=NN=C2N1C=C(C=C2)C3=C(N=CO3)C4=C(C=CC(=C4)F)F
#inchikey UACOXBQBNWQWOK-UHFFFAOYSA-N
#pubchem_id 9949821
#mb_accession LU047801,LU047802,LU047803,LU047804,LU047805,LU047806

>ms2
190.047700 58438.100000
341.120700 32733600.000000

>ms2
190.045800 202885.700000
217.057100 72874.800000
229.057200 29813.500000
272.062800 1575897.800000
326.097000 48756.600000
341.120700 27330380.000000

>ms2
67.041500 10557.900000
105.044700 168445.200000
106.052400 15211.700000
127.035200 60201.900000
130.039900 57290.800000
131.024000 17387.600000
140.030600 13848.300000
150.034800 19367.300000
152.030600 32351.800000
153.038500 18985.800000
161.094700 10749.300000
162.102600 26804.200000
165.050600 12456.300000
190.046100 6698010.500000
193.084700 23857.800000
197.050800 487322.700000
202.045900 113176.600000
203.053700 41677.600000
206.064300 11146.700000
209.050600 77423.100000
217.057100 3104542.000000
218.041000 360206.000000
220.056600 11042.100000
224.061700 913381.400000
225.045900 63263.700000
225.069400 25606.800000
227.041400 210915.600000
227.060800 38080.300000
228.049000 144975.100000
229.057100 1135595.200000
243.060200 100913.300000
244.067900 452613.800000
245.051900 359201.700000
247.067600 19624.100000
252.056700 76652.400000
272.062700 10414555.000000
273.047000 15134.900000
273.069900 51095.800000
299.073700 268585.300000
325.089200 169499.200000
326.097200 370589.000000
341.120700 9811238.000000

>ms2
67.041700 30746.200000
78.033800 83872.300000
93.044700 34498.900000
96.044300 18065.500000
103.029100 124653.000000
105.044700 343790.800000
106.052500 52462.800000
118.039900 24236.600000
119.024000 68243.900000
121.039700 58185.600000
125.019700 66336.000000
127.035400 122930.500000
130.040000 141607.300000
131.024000 28641.000000
139.035300 19783.200000
140.030700 63459.800000
151.035500 27888.500000
152.030800 104643.700000
153.038600 50410.800000
163.055300 18818.700000
164.043400 18900.600000
165.051100 110349.700000
166.046200 23142.200000
170.040400 89345.400000
172.056000 50268.600000
173.051000 41825.300000
175.035500 47081.100000
180.025700 18102.100000
182.040000 122605.400000
188.050800 153657.700000
189.037800 29402.400000
190.046300 17447454.000000
191.040900 66152.500000
195.055200 36819.500000
197.051000 1979221.400000
198.035100 27121.700000
198.046200 66157.000000
200.030700 73073.600000
202.046300 504705.500000
203.054100 116415.300000
204.056500 63844.500000
206.064900 19856.000000
207.035500 24175.900000
208.057200 24075.900000
209.050900 395970.300000
210.058800 50761.300000
213.046000 20435.800000
215.061800 50564.200000
216.049200 29053.300000
217.057200 6101005.000000
218.041200 723037.900000
220.056700 42211.000000
221.052200 20494.100000
223.053600 20575.000000
224.061900 1444558.800000
225.046000 156645.300000
225.069400 60679.900000
227.041500 451764.800000
227.060700 88912.300000
228.049300 649003.800000
229.057200 1171420.200000
243.060300 294302.600000
244.044500 24746.200000
244.068100 334319.500000
245.052000 305548.400000
252.057000 105212.500000
272.063000 2196977.000000
273.047100 17828.700000
299.073600 106206.700000
325.089500 475115.000000
326.097500 84570.900000
341.121000 413951.100000

>ms2
67.041600 30203.200000
76.018100 68981.900000
78.033800 265314.200000
79.029000 35050.200000
93.044700 54965.800000
96.044400 52376.900000
103.029100 469425.500000
105.044800 255845.500000
106.052600 42358.300000
118.039800 27297.700000
119.024000 102612.100000
121.039700 154212.600000
125.019700 148710.800000
127.035400 130816.900000
130.040000 117062.800000
131.024000 18482.700000
135.055300 20846.900000
139.035200 92319.200000
140.030600 225293.600000
140.049500 53275.400000
141.014800 29819.100000
143.029200 37322.300000
146.040200 41625.600000
147.024100 32943.500000
147.035400 25521.800000
148.030600 27867.200000
150.034600 57175.800000
151.035200 62147.900000
152.030800 100813.900000
153.038500 49913.200000
158.040500 28749.300000
163.035300 150484.400000
164.030600 89758.900000
164.043100 97184.400000
164.050600 51736.400000
165.051100 136614.600000
166.046300 28523.400000
168.044400 47747.100000
170.040100 408912.700000
171.035300 23213.700000
172.055900 57269.900000
173.051000 153109.600000
175.035400 169252.700000
176.030700 70168.900000
177.038100 25019.900000
177.045400 52696.800000
178.039800 18968.400000
181.046000 166905.100000
182.040500 624176.400000
183.035400 26228.200000
188.050800 992874.900000
189.037900 112001.400000
189.046000 21073.500000
190.046200 17283856.000000
191.030600 33706.600000
191.041300 578667.900000
195.055100 140858.000000
196.043200 21139.900000
197.051000 2134962.800000
198.035500 48742.500000
198.046200 384134.800000
200.030600 249273.300000
202.046200 417380.400000
203.054100 113540.400000
204.056300 74956.100000
205.033300 20470.100000
205.051200 18915.400000
207.035200 62593.700000
208.056900 32664.100000
209.050900 331995.200000
210.058800 48513.400000
215.042400 43948.800000
215.061800 58068.900000
216.049300 71499.800000
217.057200 2900620.800000
218.041200 542227.400000
220.056600 25272.000000
224.061900 509280.300000
225.046000 107805.100000
225.069600 25199.300000
226.053300 18281.300000
227.041400 241068.900000
227.060500 39064.500000
228.049300 644511.200000
229.057300 191048.000000
242.052800 38400.300000
243.060300 207707.100000
244.044200 24443.100000
244.067500 49566.900000
245.051900 84443.200000
252.057100 43402.000000
272.063100 166558.000000
325.089600 212753.500000

>ms2
64.018100 28142.800000
66.033700 19106.700000
67.041600 25355.600000
76.018100 347604.100000
78.033800 381094.700000
79.028900 53807.600000
82.028700 15876.500000
93.044700 60575.300000
99.022900 18489.400000
100.018100 30175.000000
101.019700 41105.100000
103.029000 711150.300000
104.036900 14445.900000
105.044700 169391.200000
106.052600 18287.800000
107.029100 23377.900000
115.035400 15095.700000
118.039900 28919.100000
119.024100 84178.600000
121.039600 155867.600000
121.044600 13701.600000
125.019700 279726.100000
127.035300 107571.900000
130.039900 62122.300000
133.044800 117282.200000
135.055400 23221.100000
139.035300 220122.600000
140.030600 405856.100000
140.049400 244634.800000
141.014700 57831.600000
143.029200 379389.800000
146.040100 108809.000000
147.024000 115024.500000
147.035000 72212.800000
148.030500 161429.300000
151.035200 78076.300000
152.030500 90032.800000
153.038400 52633.300000
154.028600 18767.200000
154.040100 34238.000000
158.040300 71436.500000
163.035300 608557.400000
163.055200 87435.300000
164.030600 469015.500000
164.043100 214960.400000
164.050600 78889.300000
165.051000 76031.100000
166.046100 23781.200000
167.030100 43377.300000
168.044400 339892.400000
170.040000 1118381.200000
171.035500 64737.000000
172.056000 42179.400000
173.050900 201754.900000
175.035400 266081.200000
176.030700 141408.200000
176.043200 32179.100000
177.036500 45195.500000
177.045400 102386.900000
178.040000 182798.700000
181.045900 464444.200000
183.035400 49809.400000
188.050700 2525090.000000
189.038200 425054.200000
189.045600 45255.400000
190.046200 12827208.000000
191.041300 1605925.500000
195.055300 215039.200000
196.042600 61161.500000
196.056700 24671.200000
197.050900 1330452.600000
198.046100 651607.100000
200.030600 342061.700000
201.037400 49825.100000
202.046200 250884.200000
203.054000 96833.100000
204.056400 47660.100000
205.033100 20873.300000
207.035200 69732.000000
209.050700 117488.500000
210.059100 42134.300000
215.041600 94954.900000
215.061300 27588.900000
216.049000 83666.400000
217.057100 817734.800000
218.041100 233726.500000
219.049100 24982.000000
222.046500 29780.900000
223.054000 12891.200000
224.061800 153650.500000
225.046100 44907.100000
226.053800 17284.900000
227.041200 116800.400000
228.049300 394952.800000
229.057600 29570.800000
245.051900 16451.800000
272.063100 26867.400000
325.089300 25065.300000

