>compound LU21440306
>parentmass 270.12370000000004
>ionization [M+H]+
>formula C15H15N3O2
>rt 1086.060000
>profile orbitrap
#smiles_iso CN(C)C1=CC=C(C=C1)N=NC2=CC=CC=C2C(=O)O
#smiles_can CN(C)C1=CC=C(C=C1)N=NC2=CC=CC=C2C(=O)O
#inchikey CEQFOVLGLXCDCX-UHFFFAOYSA-N
#pubchem_id 10303
#mb_accession LU050201,LU050202,LU050203,LU050204,LU050205,LU050206

>ms2peaks
148.075700 22808.100000
153.069900 54584.500000
162.127700 27451.500000
181.064600 16245.500000
181.088800 43497.100000
196.112100 141549.300000
209.083600 129825.100000
222.091400 32624.000000
224.107100 187200.900000
237.090400 13901.700000
238.099200 110491.100000
252.113100 7347857.000000
270.123700 12770582.000000

>ms2peaks
115.054200 18231.900000
121.028400 15953.800000
141.069800 17706.600000
148.075500 334947.700000
152.061800 41242.600000
153.069800 767324.400000
155.085400 52098.900000
162.127600 40549.700000
165.069800 92805.900000
166.077700 23260.100000
167.085500 38653.900000
168.093300 13115.700000
179.085800 19762.600000
180.056900 64493.800000
180.080600 132996.100000
181.064700 148167.700000
181.088500 624248.900000
183.080400 59023.800000
194.096300 108810.200000
195.104200 29162.200000
196.112000 1219404.000000
208.075500 42454.900000
209.083400 1306512.900000
222.091300 288353.000000
223.099000 146825.500000
224.106800 841653.800000
226.134000 25063.900000
237.089200 15548.200000
238.099200 55357.500000
252.112900 8352373.500000
270.123500 1661597.100000

>ms2peaks
53.038600 3851.200000
55.017800 3354.200000
57.069800 17141.000000
65.038600 3433.800000
68.049400 19374.800000
71.085400 7536.700000
72.080800 5546.900000
74.096300 66698.500000
77.038500 4980.700000
79.054100 9386.300000
81.033300 4278.800000
81.057200 8092.500000
90.010600 8114.200000
91.054100 20230.400000
93.069600 3321.400000
94.065100 24164.400000
95.049000 7716.700000
96.080800 5593.500000
115.054100 96595.900000
118.065000 30167.000000
120.080700 46397.200000
121.028300 16348.000000
121.088400 5302.300000
124.075800 5970.300000
128.061900 6721.000000
129.069700 21990.000000
131.072900 17262.600000
139.053700 4895.500000
141.069800 99102.400000
147.104600 6541.800000
148.075600 1488988.400000
151.055000 5261.100000
152.062000 390632.400000
153.069800 3177696.800000
154.065200 6807.300000
154.077600 77052.400000
155.073000 15059.100000
155.085300 210472.000000
162.127500 40389.400000
163.111400 12452.800000
165.069800 311512.900000
166.065100 126548.600000
166.077600 76595.800000
167.073400 19449.200000
167.085400 112232.500000
168.056700 11908.000000
168.080800 23856.000000
168.093200 50676.400000
169.065100 16832.600000
169.088300 6762.000000
177.070100 8350.300000
178.077600 30736.000000
179.060100 5233.300000
179.072700 8272.400000
179.085600 37158.100000
180.057000 251595.600000
180.080700 644307.200000
181.064900 342195.900000
181.088400 2216774.200000
182.072100 20196.300000
183.080300 56358.100000
191.072300 4772.200000
192.079800 3397.000000
193.064700 21580.500000
193.076200 8648.000000
193.088300 7254.800000
194.060100 17312.500000
194.096400 272582.600000
195.081500 12930.400000
195.104200 199838.700000
196.112000 1446773.000000
204.080400 20646.900000
206.096800 5366.700000
207.067800 42503.800000
207.104600 10496.600000
208.075600 358799.800000
209.083400 2055538.500000
212.047100 13731.200000
222.091200 504140.300000
223.099000 359666.500000
224.106800 486329.100000
226.133500 11314.600000
237.089900 3938.100000
238.098000 7075.700000
252.112900 1446925.600000
270.123600 30108.800000

>ms2peaks
53.002300 6401.000000
53.038600 18488.400000
57.069800 52686.800000
58.065100 11481.400000
65.038500 20375.200000
67.054100 7262.900000
68.049400 34237.700000
71.085400 21314.200000
72.044400 7436.200000
72.080800 28881.400000
74.096400 205594.000000
77.038500 13706.300000
79.054200 187308.700000
80.049500 24341.900000
81.033500 42082.400000
81.057200 18235.600000
82.028600 8602.800000
90.010300 5709.200000
91.054300 148360.600000
92.049400 11544.200000
92.062000 20860.900000
93.069900 68066.400000
94.065200 82285.800000
95.049100 48239.100000
96.080800 49855.600000
103.054200 55015.900000
104.049500 11892.500000
105.044800 17529.300000
105.057300 117779.300000
110.060000 15817.300000
115.054200 251868.600000
117.057200 10100.700000
118.065100 80934.000000
119.073100 26243.300000
120.080800 532372.000000
121.028300 10350.700000
121.039500 7391.300000
121.088500 7334.000000
124.075700 48720.500000
127.054300 14729.400000
128.061900 32480.000000
129.070000 72431.800000
130.065000 11451.700000
131.073000 34796.800000
132.081000 6441.500000
133.076300 5592.400000
134.083800 6333.500000
139.054200 15302.700000
140.062000 22383.300000
141.069900 169486.000000
145.064700 11767.500000
147.104200 17707.100000
148.075700 3149051.500000
151.054200 21454.500000
152.062100 2051185.800000
153.069900 4506318.500000
154.065000 23087.500000
154.077700 253257.100000
155.060300 20152.000000
155.074000 39875.500000
155.085500 243403.500000
157.088300 5576.500000
162.127600 28612.600000
163.111600 6725.000000
164.062000 6265.800000
165.070000 513391.300000
166.065200 1007991.800000
166.076800 112754.200000
167.073500 33631.000000
167.085600 140822.000000
168.057000 57477.000000
168.080600 39829.400000
168.093400 57348.500000
169.064900 113059.300000
169.088600 11258.300000
177.069900 13158.400000
178.064800 10085.100000
178.077700 80959.000000
179.060500 49838.200000
179.073100 62296.200000
179.085900 27914.900000
180.057100 521241.800000
180.080800 1930060.200000
181.065000 428863.300000
181.088500 2675328.500000
182.072600 25326.400000
182.083700 6211.900000
183.080200 21074.400000
191.072600 8994.400000
192.080600 13479.000000
193.064800 29690.900000
193.074200 6213.200000
193.088500 25761.900000
194.060400 73573.400000
194.096500 379981.600000
195.104300 418986.600000
196.075800 96179.500000
196.112100 432352.900000
204.080800 60659.600000
206.060000 12348.900000
207.067900 162842.400000
207.104200 10256.300000
208.075800 1167781.900000
209.083500 1069164.600000
212.047100 37967.700000
222.091400 607840.700000
223.099200 258166.800000
224.106900 82784.300000
236.081800 8591.200000
237.090000 7200.000000
251.105200 36769.900000
252.113300 87285.600000

>ms2peaks
53.002100 7705.400000
53.038600 55559.300000
54.033900 6384.900000
55.017900 4112.000000
57.069900 33890.700000
58.065200 20991.600000
63.022800 4105.800000
65.038600 48968.000000
67.054200 13363.600000
68.049400 25868.600000
72.044400 11194.000000
72.080800 24217.700000
74.096400 108947.500000
77.038500 31561.800000
78.046400 10503.100000
79.054200 463852.600000
80.049500 71427.800000
81.033500 45099.300000
81.057300 17285.400000
90.010400 5391.800000
91.054200 391294.900000
92.049500 39219.800000
92.062000 77991.000000
93.057300 20091.400000
93.069900 150066.100000
94.065200 80156.900000
95.049100 187842.200000
96.044200 8795.400000
96.080700 44395.200000
103.054200 131836.500000
104.049500 56437.100000
105.044800 58157.600000
105.057300 403813.200000
109.064700 5930.200000
110.060100 40538.600000
115.054200 227666.800000
117.057100 13751.800000
118.065100 131869.600000
119.060500 12525.700000
119.072900 58129.400000
120.080800 621774.600000
121.039500 5162.400000
122.060200 5647.000000
124.075600 49605.900000
127.054000 22755.600000
128.062000 53938.200000
129.069700 54641.000000
130.065300 12706.800000
131.073100 19551.000000
132.080800 17568.900000
133.076100 10774.100000
134.083700 9526.900000
136.075800 7053.800000
137.047200 7812.600000
138.091100 14031.300000
139.054100 69780.000000
140.049500 20271.700000
140.062200 37785.800000
141.069900 106162.700000
145.065000 38816.300000
146.095900 7063.800000
147.104400 23284.700000
148.075700 1585679.100000
150.046600 6151.700000
151.054400 36672.000000
151.062900 10393.000000
152.062100 2661716.200000
153.069800 1926434.100000
154.066200 31745.500000
154.077600 197874.200000
155.049200 6179.800000
155.060500 44580.900000
155.073300 21072.200000
155.085500 65930.300000
157.088200 6847.600000
162.127400 11445.400000
165.069900 330594.100000
166.065200 1379456.200000
167.049100 24973.500000
167.073200 25789.900000
167.085400 60538.800000
168.056900 45102.800000
168.080700 18708.000000
168.093300 6794.200000
169.064800 170016.200000
169.088800 8578.400000
171.080300 19743.800000
176.062200 8162.300000
177.070000 12282.400000
178.065100 14914.000000
178.077700 45013.300000
179.050200 6839.500000
179.060500 72303.900000
179.073000 70699.100000
179.085900 7554.400000
180.057100 327316.900000
180.080700 1763359.900000
181.064800 246315.000000
181.088500 726427.200000
182.073100 8576.400000
182.083900 5774.600000
183.080200 5530.400000
184.075300 4759.300000
190.065200 10938.000000
192.080700 8260.300000
193.065200 19021.100000
193.088800 17744.800000
194.060200 64414.000000
194.096400 241892.100000
195.104300 162030.900000
196.075800 126942.700000
196.112100 30552.100000
204.080900 28630.200000
206.060100 45727.600000
207.055600 17614.400000
207.067700 128234.600000
208.075800 750605.600000
209.083500 128910.200000
212.047100 34008.300000
222.091300 311825.400000
222.102100 17001.400000
223.099600 38071.300000
236.081700 17851.900000
251.105100 16741.500000

>ms2peaks
53.038600 89705.000000
54.033900 4268.000000
55.017900 3322.600000
57.069900 5290.100000
58.065200 6426.900000
63.023000 3231.600000
65.038600 59109.600000
67.054200 10293.000000
68.049400 16590.000000
72.044400 7003.200000
72.080600 2968.800000
74.096400 13774.400000
77.038500 33007.400000
78.046400 26968.900000
79.054200 329542.500000
80.049500 53620.900000
81.033600 18001.100000
81.057300 9252.900000
82.028700 3407.800000
91.054200 325402.400000
92.049500 38457.000000
92.062100 73794.800000
93.057300 21379.200000
93.069900 64835.700000
94.065100 38460.400000
95.049200 236946.600000
96.044300 8314.700000
96.080700 15262.100000
103.054300 78860.100000
104.049500 121566.000000
105.044800 96551.900000
105.057300 366692.000000
109.064700 6341.100000
110.060000 18250.400000
115.054200 129928.200000
117.057000 11972.800000
118.065100 92706.300000
119.060300 8212.300000
119.073000 52028.700000
120.080800 187552.700000
122.060100 4997.100000
124.075800 17742.400000
127.054100 18338.500000
128.062000 45304.600000
129.069700 18571.200000
130.065200 9129.800000
131.073200 4975.000000
132.080900 22253.300000
133.075900 12492.600000
136.076000 3082.200000
137.047100 6562.500000
138.091500 4989.100000
139.054200 126320.100000
140.049500 56735.400000
140.062200 24727.200000
141.069900 29561.400000
145.064900 34520.700000
146.096400 4725.600000
147.104300 8788.900000
148.075700 294057.100000
150.046500 7024.100000
151.054300 16695.900000
151.062800 11722.600000
152.062100 1535145.100000
153.069900 587996.100000
154.065300 15430.800000
154.077600 46906.100000
155.049000 7494.000000
155.060300 59745.900000
155.072800 3188.400000
155.085400 4256.100000
164.062300 4938.100000
165.070000 151050.200000
166.065200 672791.300000
167.049300 15714.900000
167.072900 11553.500000
167.085600 22216.200000
168.056800 16496.200000
168.081000 7504.800000
169.064800 117413.800000
171.080100 6486.200000
176.062400 5598.400000
177.070000 4318.500000
178.065100 20413.700000
178.077700 14517.900000
179.050000 4113.100000
179.060400 44656.800000
179.073000 32515.400000
180.057100 124962.600000
180.080700 636171.400000
181.064800 65829.400000
181.088600 65251.300000
183.080200 3123.000000
184.076000 3881.500000
190.064700 11478.500000
192.080900 4807.400000
193.088600 8820.200000
194.060100 16987.300000
194.096500 78660.100000
195.104100 21422.900000
196.075700 47574.900000
204.080700 7338.000000
206.060200 29495.200000
207.055600 18498.200000
207.067900 52620.000000
208.075900 144785.700000
209.083900 4336.800000
212.046900 7156.700000
222.091400 63787.400000
222.102500 11530.300000
236.082700 2825.000000

