>compound LU21316181
>parentmass 259.2056
>ionization [M+H]+
>formula C18H26O
>rt 1239.120000
>profile orbitrap
#smiles_iso CC1CC(C2=C(C1(C)C)C=C(C(=C2)C(=O)C)C)(C)C
#smiles_can CC1CC(C2=C(C1(C)C)C=C(C(=C2)C(=O)C)C)(C)C
#inchikey DNRJTBAOUJJKDY-UHFFFAOYSA-N
#pubchem_id 89440
#mb_accession LU067901,LU067902,LU067903,LU067904,LU067905,LU067906

>ms2
133.101200 23050.700000
161.096000 8645.000000
175.111700 551935.100000
189.127300 14316.700000
203.143500 6489.200000
215.179300 10827.600000
259.206000 1468592.600000

>ms2
57.069900 2668.800000
133.101200 37319.300000
145.101100 3346.600000
147.080500 8821.800000
159.116800 4800.000000
161.096000 53801.100000
175.111700 1114898.000000
189.127400 24907.400000
203.143000 15634.100000
215.179500 7732.200000
259.206200 376222.900000

>ms2
57.069800 8287.000000
69.069800 4600.800000
71.085500 4035.100000
83.085500 5131.500000
119.085700 11418.400000
133.101100 42371.400000
145.101100 2240.900000
147.080400 68138.600000
157.101100 3896.300000
159.116600 2865.000000
161.096000 101029.800000
175.111700 928849.300000
189.127400 18887.200000
203.142900 5462.700000

>ms2
55.054300 6135.700000
57.069900 25252.000000
69.069900 8574.700000
71.085400 2472.500000
83.085500 6203.200000
105.069900 16426.700000
119.085500 45520.300000
129.069700 10329.300000
133.101200 55535.100000
142.078100 2825.200000
143.085800 2972.900000
145.100700 2802.900000
146.072500 2513.700000
147.080400 128153.700000
157.101300 7191.200000
159.080600 2180.900000
161.096200 56934.600000
175.111800 350979.800000

>ms2
53.002200 8338.000000
55.054200 15380.600000
57.069900 68950.500000
69.069900 10523.300000
83.085500 4841.600000
91.054300 8401.500000
93.069900 3219.900000
105.070000 31765.000000
117.069900 5111.900000
119.085600 78373.200000
128.062200 4313.600000
129.069900 22682.100000
133.101300 36251.300000
142.077900 2315.800000
143.085700 3252.800000
147.080500 81229.600000
157.100100 2453.800000
159.080800 3707.900000
161.096200 12189.000000
175.111800 61354.700000

>ms2
53.002200 11074.700000
55.054200 23524.100000
57.069900 72532.600000
69.069900 7638.300000
83.085500 5359.400000
91.054300 39118.800000
93.069900 5703.800000
105.069900 57380.400000
117.069900 20360.800000
119.085600 106544.800000
128.062000 21347.600000
129.069900 34490.200000
133.101200 19076.100000
142.077900 5415.000000
146.072400 3452.600000
147.080500 46203.600000
159.080900 2390.600000
161.096400 3195.400000
175.111600 11413.100000

