>compound LU21794071
>parentmass 376.0381
>ionization [M+H]+
>formula C15H16Cl3N3O2
>rt 1107.300000
>profile orbitrap
#smiles_iso CCCN(CCOC1=C(C=C(C=C1Cl)Cl)Cl)C(=O)N2C=CN=C2
#smiles_can CCCN(CCOC1=C(C=C(C=C1Cl)Cl)Cl)C(=O)N2C=CN=C2
#inchikey TVLSRXXIMLFWEO-UHFFFAOYSA-N
#pubchem_id 73665
#mb_accession LU058001,LU058002,LU058003,LU058004,LU058005,LU058006

>ms2peaks
70.028800 5134.800000
239.974500 13602.300000
265.953800 32369.200000
280.006400 5418.800000
283.964500 2719.900000
297.979900 3830.600000
308.000900 632480.900000

>ms2peaks
53.002200 2239.900000
56.049500 3699.700000
60.044400 8423.200000
70.028700 157676.200000
70.065100 71249.900000
74.060000 5944.400000
85.088600 44858.300000
165.071200 2075.200000
174.971400 6511.700000
194.916900 8206.600000
201.982100 15688.800000
222.947800 19215.600000
237.958800 7122.300000
239.974300 10905.300000
245.037200 6763.900000
265.953700 49404.900000
280.006300 20844.300000
283.963800 2528.900000
297.980300 4646.900000
308.000700 187592.100000

>ms2peaks
53.002200 5642.000000
56.049500 21819.000000
57.057300 6709.800000
60.044400 5752.200000
70.028700 181808.400000
70.065100 138746.500000
74.060000 4062.700000
85.088600 26223.900000
98.060100 6265.100000
158.976100 3285.800000
161.963200 1945.000000
165.071500 2719.000000
174.971100 6462.900000
179.929900 2173.500000
194.916600 19102.400000
196.932300 8120.400000
201.981900 8943.300000
206.927900 8215.800000
222.947900 21698.300000
237.959100 2034.900000
245.037700 2319.500000
265.953800 16758.900000
308.000900 24334.800000

>ms2peaks
53.002200 5051.200000
56.049500 26689.900000
57.057400 4396.600000
70.028700 101515.700000
70.065100 68386.500000
74.060100 2959.400000
85.088300 2218.700000
98.060100 3026.900000
123.024000 4189.600000
158.976300 5544.500000
160.955500 2279.500000
161.963400 7900.300000
166.921900 5691.900000
194.916800 15411.100000
196.932300 8324.500000
206.928000 24332.100000
222.948400 4937.200000
265.953500 2954.500000

>ms2peaks
53.002300 3732.100000
56.049500 22822.000000
57.057400 2141.500000
60.044500 1656.700000
70.028700 53180.000000
70.065100 43340.600000
123.024200 4984.100000
132.960700 11216.600000
142.945100 3910.200000
158.976500 6227.200000
160.955600 5383.300000
161.963300 12946.000000
166.921700 19729.100000
178.921800 5819.000000
179.929800 4157.100000
194.917000 6601.800000
196.932600 2679.000000
206.928000 26445.400000
222.948800 2061.800000

>ms2peaks
53.002200 2863.800000
56.049500 14365.700000
70.028700 27950.000000
70.065100 21919.600000
132.960700 11951.900000
142.945000 15600.400000
161.963200 9293.800000
166.921800 18726.900000
178.921800 6040.700000
179.929600 1987.800000
206.928200 9488.300000

