>compound LU21244620
>parentmass 145.0648
>ionization [M+H]+
>formula C10H8O
>rt 941.340000
>profile orbitrap
#smiles_iso C1=CC=C2C=C(C=CC2=C1)O
#smiles_can C1=CC=C2C=C(C=CC2=C1)O
#inchikey JWAZRIHNYRIHIV-UHFFFAOYSA-N
#pubchem_id 8663
#mb_accession LU087701,LU087702,LU087703,LU087704,LU087705,LU087706

>ms2peaks
91.054100 25219.100000
103.054200 204504.300000
115.054100 93797.500000
117.069800 2127345.800000
127.054100 101214.000000
144.057000 21727.500000
145.064600 10408644.000000

>ms2peaks
91.054100 22376.000000
103.054200 197964.100000
115.054100 89248.200000
117.069800 2143885.500000
127.054100 109886.900000
144.057100 20824.500000
145.064600 10416867.000000

>ms2peaks
91.054200 87535.200000
103.054200 389731.500000
115.054300 291824.600000
116.062200 12955.100000
117.069900 3257672.200000
127.054200 206626.600000
131.049300 23225.200000
144.057300 38336.900000
145.064700 7265992.500000

>ms2peaks
51.023000 5696.300000
77.038600 7733.200000
91.054200 421582.200000
95.049100 20482.600000
102.046400 8900.300000
103.054200 521068.500000
115.054300 1145834.400000
116.062100 55280.100000
117.069900 3549871.200000
126.046400 16603.900000
127.054200 529614.000000
128.062000 9490.700000
130.041100 5229.600000
131.049300 31101.500000
144.057000 74754.500000
145.064800 4205723.000000

>ms2peaks
51.023000 6624.400000
53.038500 23889.500000
63.022900 4969.000000
65.038400 16998.700000
77.038400 17613.800000
89.038200 4533.100000
91.054200 1152845.800000
95.049100 79118.900000
101.038300 4871.600000
102.046400 14242.400000
103.054200 537196.400000
105.033400 4252.100000
115.054200 2279896.500000
116.062000 131251.200000
117.069800 2655736.500000
119.049400 7340.100000
126.046400 85997.300000
127.054200 1167988.800000
128.061900 19320.800000
130.041100 4457.400000
131.049300 28013.900000
143.049100 4448.100000
144.057000 130863.500000
145.064700 2858623.200000

>ms2peaks
51.023000 8694.400000
53.038600 109326.800000
63.022800 5747.700000
65.038500 60110.900000
74.015000 3152.100000
75.022800 16049.700000
77.038400 45601.200000
89.038400 11756.400000
91.054200 2057256.000000
95.049100 292541.500000
101.038500 12930.700000
102.046400 14064.900000
103.054200 405640.700000
105.033400 8071.400000
115.054200 2819375.500000
116.062000 221924.200000
117.069800 1343816.800000
119.049100 35125.300000
126.046400 279138.100000
127.054100 1634092.900000
128.061900 43388.600000
130.041200 3057.100000
131.049000 20115.000000
143.048900 6165.300000
144.057000 156829.200000
145.064700 1829405.100000

