>compound LU21470559
>parentmass 294.1004
>ionization [M+H]+
>formula C14H16ClN3O2
>rt 1058.220000
>profile orbitrap
#smiles_iso CC(C)(C)C(=O)C(N1C=NC=N1)OC2=CC=C(C=C2)Cl
#smiles_can CC(C)(C)C(=O)C(N1C=NC=N1)OC2=CC=C(C=C2)Cl
#inchikey WURBVZBTWMNKQT-UHFFFAOYSA-N
#pubchem_id 39385
#mb_accession LU055301,LU055302,LU055303,LU055304,LU055305,LU055306

>ms2
57.069900 92864.900000
69.069900 268093.300000
70.040000 7124.300000
87.080600 21679.600000
110.999800 3549.100000
115.075400 1465473.200000
129.010300 33971.600000
141.010200 59617.000000
155.025900 24089.200000
167.105500 18332.700000
169.004900 14095.700000
171.137800 8105.600000
197.072900 1571908.100000
225.067800 267494.700000
294.100500 3394398.200000

>ms2
53.002200 15556.000000
57.069900 495158.100000
67.054200 14401.300000
69.069900 2308215.800000
70.040000 5958.500000
70.077700 12900.900000
83.047800 10076.400000
85.064900 17547.400000
87.080500 3337.100000
103.031000 23712.600000
110.035100 3959.900000
110.999700 3023.600000
113.015800 2796.600000
115.075400 386040.200000
126.994600 25989.600000
129.010200 260894.100000
141.010200 346496.300000
155.025800 148393.200000
161.096100 21492.200000
167.105100 13568.700000
169.005100 7053.000000
171.138300 5948.300000
179.062300 4509.100000
190.098800 11123.700000
197.072900 2427452.200000
225.067700 77421.100000
294.100500 132776.900000

>ms2
53.002200 44561.600000
53.038600 4908.300000
53.997400 6158.100000
55.054200 21613.800000
57.069800 707064.400000
67.054100 31219.100000
69.069800 2464395.000000
70.077600 128680.000000
83.047700 11241.500000
85.064700 8891.200000
95.049000 3688.800000
98.999600 16236.800000
103.030900 18966.500000
105.033300 3626.000000
107.049000 3055.100000
110.034900 7409.000000
111.043800 3244.100000
113.015100 34451.900000
115.075200 3880.000000
121.064800 5333.700000
126.994400 181326.400000
129.010100 288004.500000
133.065000 2934.300000
139.005600 8681.100000
141.010000 436268.900000
147.080200 5577.100000
155.025700 192155.700000
159.020600 16864.300000
161.096000 25756.000000
162.103900 7965.000000
171.137700 2589.400000
179.061900 2538.400000
190.098400 10398.200000
197.072700 261828.600000

>ms2
53.002200 91128.400000
53.038600 11682.300000
53.997500 13664.500000
55.054300 89512.300000
57.069900 900673.400000
65.038600 7730.100000
67.054200 35287.700000
67.989200 3665.400000
69.069900 1427676.800000
70.077700 273812.100000
74.999600 5617.600000
75.022700 3384.000000
77.038500 2714.300000
79.017700 2514.800000
83.047800 7251.200000
85.064900 2794.700000
86.999600 11055.600000
91.054300 18169.000000
93.033600 4909.200000
94.041300 14739.700000
95.049300 18855.500000
98.999700 162478.800000
103.030900 7510.500000
105.033500 4946.800000
105.044800 8400.500000
107.049100 5806.100000
110.034900 8293.000000
110.999800 3011.200000
111.044200 20284.000000
113.015300 97361.600000
119.049300 9268.800000
119.060100 3275.600000
119.085600 2768.500000
120.056700 11246.100000
121.039600 6614.200000
125.015400 7928.600000
125.059700 2870.900000
126.994600 336901.200000
128.002300 3324.100000
129.010200 253415.600000
133.064600 2944.000000
139.005800 71825.400000
141.010200 348079.800000
146.072800 2138.600000
147.080500 10737.800000
155.025900 130214.400000
159.020900 34697.900000
161.096200 7965.700000
162.103800 2669.900000
175.075400 6809.700000
190.098900 6274.500000
197.072600 11671.500000

>ms2
50.015100 3044.600000
51.022900 4300.400000
53.002200 92459.900000
53.038600 21054.500000
53.997500 15802.100000
55.054200 160870.200000
57.069900 663350.600000
62.963200 2417.200000
63.022900 2527.600000
65.038600 20279.100000
67.054200 27723.300000
67.989300 3155.300000
69.069800 502903.900000
70.077700 215258.900000
72.983900 8574.000000
74.999500 5588.900000
75.022900 24650.200000
77.038400 4564.300000
78.008700 2855.800000
78.046200 2522.600000
79.018000 3373.100000
82.039900 5536.100000
83.047700 4163.600000
86.999700 23880.800000
91.054300 42873.900000
93.033600 9679.200000
94.041300 37808.400000
95.049100 44419.800000
98.999600 379276.100000
102.046600 6241.700000
105.033600 3454.300000
105.044800 20870.500000
105.069800 5351.400000
107.049100 6772.500000
109.064600 4599.400000
110.034900 8895.000000
110.999600 10437.300000
111.044100 34761.500000
113.015300 78210.400000
119.049000 11686.100000
119.060400 5366.800000
119.085300 2920.600000
120.057000 16172.400000
121.039600 12276.300000
121.064600 2388.700000
125.015300 6461.800000
125.059700 2889.500000
126.994500 207289.900000
128.002400 3405.800000
129.010100 158651.000000
137.015300 3156.000000
139.005700 143232.400000
141.010200 145894.000000
146.072400 3191.100000
147.080500 9395.500000
155.025700 33566.100000
159.020800 24142.100000

>ms2
50.015200 3628.300000
51.023000 10581.200000
53.002300 114420.000000
53.038600 31792.400000
53.997500 18228.700000
55.054300 232376.900000
57.069900 539419.600000
62.963300 2081.400000
63.023000 7494.200000
65.038600 44501.600000
67.054200 17597.600000
67.989300 2073.400000
69.069900 170750.600000
70.077700 117507.400000
72.984000 49198.700000
75.023000 94606.600000
77.038600 9068.800000
78.008800 2034.700000
78.046400 6362.200000
79.017900 5318.800000
82.040000 3870.300000
83.047800 1937.200000
86.999700 33286.400000
91.054300 67106.600000
94.041400 65923.000000
95.049200 65659.300000
98.999700 580731.900000
102.046500 7688.100000
105.033700 3214.000000
105.044800 27992.700000
105.069900 6022.500000
107.049200 6212.500000
109.065000 4574.500000
110.035000 6006.800000
110.999700 30687.400000
111.044100 38879.500000
113.015300 42575.100000
119.049200 6958.700000
119.060600 4246.700000
119.085700 6101.400000
120.057200 14692.800000
121.039700 11503.200000
125.015500 9651.000000
126.994600 94684.300000
128.002500 4873.100000
129.010200 132626.200000
137.015200 3042.400000
139.005900 189450.200000
141.010300 56819.300000
146.072800 2217.700000
147.080600 4534.500000
155.025900 11474.600000
159.020900 9257.400000
175.075500 8080.400000

