>compound LU21893905
>parentmass 159.09169999999997
>ionization [M+H]+
>formula C10H10N2
>rt 154.860000
>profile orbitrap
#smiles_iso C1=CC2=C(C=CC=C2N)C(=C1)N
#smiles_can C1=CC2=C(C=CC=C2N)C(=C1)N
#inchikey KQSABULTKYLFEV-UHFFFAOYSA-N
#pubchem_id 16720
#mb_accession LU054301,LU054302,LU054303,LU054304,LU054305,LU054306

>ms2
115.054100 3729.100000
118.064900 2962.800000
132.080600 4896.500000
142.065200 6828.700000
143.073000 21725.800000
158.083800 17660.600000
159.091700 1574053.500000

>ms2
115.053900 3908.600000
118.065300 4726.300000
132.080900 10277.000000
142.064800 10937.800000
143.073100 36488.200000
158.084000 22690.900000
159.091700 2405918.000000

>ms2
58.065200 1733.900000
91.053900 2220.100000
93.057400 2761.900000
115.054200 16034.500000
118.065100 26813.600000
128.049400 2061.000000
132.080700 36851.100000
142.065200 40403.400000
143.073000 148795.300000
158.084000 110732.900000
159.091700 1346481.800000

>ms2
58.065100 2891.600000
91.054200 6360.400000
93.057300 16195.300000
115.054200 113734.400000
117.057300 13738.900000
118.065100 89200.300000
128.049600 4842.100000
130.065300 8601.100000
132.080800 107073.400000
141.057400 3912.000000
142.065200 135105.300000
143.073000 450583.200000
158.083900 318175.800000
159.091800 843526.600000

>ms2
58.065100 2329.200000
91.054400 10609.200000
93.057400 28192.100000
97.007800 2892.500000
105.069900 4353.600000
115.054300 383676.100000
116.049500 6252.500000
116.062000 7013.700000
117.057300 36233.400000
118.065100 98468.700000
128.049600 3078.000000
130.065200 22351.800000
132.080900 111735.900000
140.049500 6692.400000
141.057400 19634.100000
142.065300 165873.300000
143.073000 595366.900000
157.076300 4088.200000
158.084000 486383.300000
159.092000 283502.900000

>ms2
91.054300 13850.800000
93.057300 28441.200000
97.007500 2797.000000
105.070000 9298.000000
115.054300 624212.900000
116.049500 12232.100000
116.062000 34831.600000
117.057400 48065.100000
118.065100 63204.000000
130.065300 34699.500000
132.080800 54283.800000
140.049600 10161.000000
141.057300 47495.100000
142.065300 102806.900000
143.073000 539451.800000
157.076300 14839.000000
158.084000 409796.800000
159.092200 62659.600000

