>compound LU22580245
>parentmass 403.3054
>ionization [M+H]+
>formula C22H42O6
>rt 1234.320000
>profile orbitrap
#smiles_iso CCCCC(CC)C(=O)OCCOCCOCCOC(=O)C(CC)CCCC
#smiles_can CCCCC(CC)C(=O)OCCOCCOCCOC(=O)C(CC)CCCC
#inchikey FRQDZJMEHSJOPU-UHFFFAOYSA-N
#pubchem_id 7185
#mb_accession LU084701,LU084702,LU084703,LU084704,LU084705,LU084706

>ms2
57.069900 10342.900000
99.044100 2510.900000
99.117000 2254.100000
171.137900 727538.600000

>ms2
57.070000 84442.800000
73.028400 12821.200000
99.043800 2412.300000
99.116800 8140.200000
101.059700 3323.400000
171.138100 811949.300000

>ms2
53.002200 2119.100000
57.069900 155095.800000
73.028400 59717.000000
85.064700 2161.900000
101.059800 15104.200000
109.101200 4200.000000
129.091200 3569.300000
171.138000 377123.200000

>ms2
53.002400 3230.100000
57.070000 262146.300000
73.028400 107479.000000
85.064800 2557.700000
101.059800 21911.400000
109.101400 4393.400000
129.091200 8041.000000
171.138100 122261.500000

>ms2
53.002400 2869.600000
57.070000 225610.300000
73.028400 73321.900000
99.044200 4425.300000
101.059700 17292.900000
129.091000 4612.400000
171.138100 15985.300000

>ms2
53.002400 4126.200000
57.070000 114339.900000
73.028400 33907.600000
99.044000 2128.500000
101.060000 5049.800000

