>compound LU22540141
>parentmass 385.05389999999994
>ionization [M+H]+
>formula C17H18Cl2N2O2S
>rt 881.160000
>profile orbitrap
#smiles_iso CN[C@H]1CC[C@H](C2=C1C=C(C=C2)S(=O)(=O)N)C3=CC(=C(C=C3)Cl)Cl
#smiles_can CNC1CCC(C2=C1C=C(C=C2)S(=O)(=O)N)C3=CC(=C(C=C3)Cl)Cl
#inchikey HGBGXSPIBLZGHS-SJCJKPOMSA-N
#pubchem_id 9908126
#mb_accession LU062801,LU062802,LU062803,LU062804,LU062805,LU062806

>ms2
128.061900 2533.200000
144.080900 15659.800000
158.976200 67403.400000
191.016300 6176.100000
208.042700 30374.600000
336.985200 17327.000000
354.011900 986804.200000

>ms2
128.062000 47849.700000
129.069800 3532.200000
131.049000 2450.500000
143.060300 2380.500000
144.080800 101515.900000
145.064700 6383.100000
155.060200 12795.800000
158.976300 1273219.400000
170.027100 10791.000000
179.016200 48228.300000
191.016100 45652.300000
208.042800 49201.100000
239.062400 6805.600000
273.023400 20524.700000
274.031000 85062.400000
291.033700 11150.300000
301.029300 47085.900000
319.042200 2730.000000
336.985300 44326.300000
354.011900 237183.700000

>ms2
91.054200 10196.400000
103.054300 4054.200000
106.065300 4682.300000
115.054000 10309.400000
122.999700 4809.100000
128.062000 121886.200000
129.070000 7175.900000
133.064900 5323.600000
143.060400 18165.100000
143.073400 2095.400000
144.080800 78678.900000
145.064800 24395.800000
155.060400 43367.500000
158.976300 1625233.400000
170.026900 7469.400000
179.015800 10437.300000
191.016100 13053.700000
202.077900 4609.000000
203.085700 17548.100000
204.093300 6638.800000
237.046600 5392.200000
238.054300 30117.300000
239.062100 32149.800000
259.007700 8067.200000
273.023400 9411.900000
274.031000 73366.900000
291.033700 3649.200000
301.029400 18360.700000
319.042900 3802.300000
354.012000 2580.000000

>ms2
79.054200 3356.400000
89.038600 3466.800000
91.054400 10713.400000
98.999700 5958.900000
103.054300 9447.600000
106.065200 7534.200000
115.054300 38035.600000
117.069900 9561.600000
122.999700 46350.300000
124.007600 8065.700000
125.015200 3383.600000
127.054200 4574.100000
128.062200 205122.300000
129.069800 11580.700000
131.049300 3509.500000
132.960800 4068.200000
133.065000 7308.500000
143.060500 15655.800000
143.073200 6069.100000
144.080900 54800.400000
145.065000 33801.000000
155.060500 63121.700000
158.976400 1942760.900000
170.026900 4189.500000
202.077900 10542.700000
203.085800 53247.900000
204.093600 34117.900000
237.046400 4158.700000
238.054800 25218.200000
239.062400 28271.600000
246.000100 4956.000000
259.007900 26550.000000
273.023000 4569.800000
274.031300 18725.300000
301.029500 3288.600000

>ms2
63.022900 2445.100000
72.983900 4585.000000
79.054300 3650.000000
89.038600 21989.600000
91.054300 7808.000000
96.984000 2490.800000
98.999700 25545.900000
103.054300 9476.000000
106.065200 4964.200000
115.054400 52720.600000
117.069900 6102.900000
122.999700 216777.800000
124.007600 50914.400000
125.015500 6089.500000
127.054400 15887.500000
128.062200 235467.600000
129.070100 12348.600000
132.960600 26191.100000
133.064700 3017.200000
143.060700 6439.200000
143.073100 8854.300000
144.080900 27907.300000
145.065000 46639.100000
155.060500 56406.500000
158.976500 1569488.900000
189.070100 5161.000000
202.077900 28192.600000
203.085800 68707.600000
204.093500 43417.800000
237.046700 2437.800000
238.054900 20084.100000
239.062400 7630.400000
259.007800 31557.000000

>ms2
63.022900 9209.800000
72.983900 18286.100000
79.054300 2726.500000
89.038600 103165.200000
91.054200 8027.000000
96.984000 10274.000000
98.999600 83584.400000
103.054300 9173.900000
115.054300 56967.300000
117.070000 5925.100000
122.999600 440400.000000
124.007500 118504.500000
125.015200 5541.200000
127.054200 26303.900000
128.062100 248360.700000
129.069900 9057.900000
132.960700 57330.600000
143.073200 10399.300000
144.081000 6520.600000
145.064900 34687.600000
155.060500 50979.600000
158.976400 979877.800000
189.070000 19323.200000
202.077900 58859.600000
203.085700 65516.700000
204.093500 35961.500000
238.054400 15014.400000
246.000100 3075.100000

