>compound LU22153169
>parentmass 287.0582
>ionization [M+H]+
>formula C15H11ClN2O2
>rt 996.900000
>profile orbitrap
#smiles_iso C1=CC=C(C=C1)C2=NC(C(=O)NC3=C2C=C(C=C3)Cl)O
#smiles_can C1=CC=C(C=C1)C2=NC(C(=O)NC3=C2C=C(C=C3)Cl)O
#inchikey ADIMAYPTOBDMTL-UHFFFAOYSA-N
#pubchem_id 4616
#mb_accession LU079901,LU079902,LU079903,LU079904,LU079905,LU079906

>ms2peaks
104.049900 8992.200000
166.005300 13324.400000
229.053900 10631.900000
231.068600 42181.900000
241.052500 509654.000000
242.035800 12889.200000
269.047500 3227452.800000
287.058000 7354447.000000

>ms2peaks
93.057300 5476.600000
104.049400 101375.500000
128.026100 79159.700000
153.021400 18877.200000
156.020900 60164.800000
163.005800 5584.500000
166.005400 151559.700000
207.067600 8468.600000
216.057300 31471.800000
231.068400 652542.100000
241.052600 4600612.000000
242.036400 69714.700000
257.048100 15955.600000
258.055400 21972.100000
259.063300 14428.700000
269.047500 4706685.000000
287.058200 1567767.900000

>ms2peaks
79.054200 9550.600000
93.057300 116336.900000
104.049500 1078050.500000
118.052600 8119.900000
128.026100 576389.900000
138.010500 40804.700000
153.021400 250902.900000
156.021100 62019.200000
163.005700 157674.000000
166.005400 238983.300000
181.016400 22692.100000
195.031800 9315.500000
195.091800 29167.800000
205.076300 9740.900000
206.083400 7297.700000
207.068000 64012.900000
214.041300 24351.000000
216.057500 36780.100000
229.053100 22775.900000
231.068500 1245879.100000
241.052700 7121166.500000
242.036600 65627.900000
257.047500 77961.000000
258.055400 18759.600000
259.063200 7163.000000
269.047600 886748.800000
287.057800 48513.000000

>ms2peaks
53.038600 19832.700000
77.038600 10928.800000
79.054200 31265.100000
92.049500 8130.900000
93.057300 504171.000000
95.049100 69270.500000
98.999400 6310.900000
104.049400 2550605.500000
105.033600 6462.400000
105.044800 28936.100000
110.999500 6290.400000
117.044700 10365.200000
118.052500 86690.400000
122.060000 16170.600000
126.010500 39156.500000
128.026100 760392.900000
129.010300 13292.400000
129.044800 16222.900000
135.055200 5590.800000
136.075700 24296.600000
138.010500 231585.500000
139.005600 41706.100000
145.050900 20853.900000
152.013600 15214.400000
152.062200 10855.400000
153.021300 563007.400000
154.005400 10405.800000
156.020900 31425.000000
163.005600 682116.800000
164.000800 24662.100000
166.005400 155387.000000
169.064700 5181.700000
178.065000 21676.600000
179.000600 8174.500000
179.072600 19259.300000
180.008300 5293.200000
180.080600 7414.400000
181.016200 130850.800000
181.088600 6980.600000
195.031900 73593.400000
195.091700 84900.400000
196.075600 6569.200000
199.026900 11935.100000
205.075900 64567.500000
206.084000 31790.800000
207.067800 87945.300000
214.041700 89487.000000
216.045500 4970.900000
216.057500 11632.800000
224.026100 9128.100000
229.052700 70738.600000
231.068300 408513.500000
239.037400 13951.100000
240.045200 11605.000000
241.052600 4833843.500000
242.036700 19260.000000
257.047500 112125.000000
258.055000 4978.400000
269.047600 76058.700000

>ms2peaks
50.015200 4515.600000
51.023000 7276.300000
53.038600 103495.400000
55.017800 8607.700000
63.022900 3953.700000
65.038600 7396.900000
66.046400 5277.900000
74.096400 3612.600000
75.022900 11341.800000
76.018000 6240.100000
77.038500 46817.400000
79.017800 3869.800000
79.054200 60952.800000
81.033500 18937.700000
86.999600 35301.400000
90.033900 37855.100000
91.041700 6903.200000
92.049500 16091.400000
93.057300 969479.800000
94.041300 10014.700000
95.049100 294926.300000
98.999600 33922.000000
100.018100 16671.500000
104.049400 3290055.000000
105.033500 7478.200000
105.044700 126797.100000
108.044300 6699.100000
110.999600 12989.100000
111.044200 12283.100000
117.044700 47551.800000
118.052500 297170.400000
122.059900 13797.200000
126.010500 133526.100000
127.018400 4054.200000
128.026100 431556.700000
129.010200 84173.800000
129.044700 32551.900000
130.040200 13888.200000
135.055400 16655.400000
135.994700 17948.400000
136.075800 22974.100000
138.010500 453556.500000
139.005700 208496.200000
145.050800 49363.800000
151.005800 14423.700000
151.054200 5251.400000
152.013700 30630.500000
152.062000 60634.800000
153.021400 497970.200000
154.005500 33799.800000
155.035500 3811.800000
156.021100 5923.100000
163.005700 1183500.100000
164.000900 226318.000000
165.069800 9040.800000
166.005400 84416.900000
168.080800 4748.500000
169.064700 44462.800000
177.057400 17719.600000
178.065000 55378.900000
179.000500 23611.900000
179.060600 14750.700000
179.073000 62177.500000
180.008900 3447.400000
180.080600 22561.500000
181.016300 221750.900000
184.051900 6168.900000
187.031000 14378.000000
194.083800 14495.100000
195.032000 156035.100000
195.091700 144339.100000
196.075300 7665.100000
199.026800 21865.100000
205.076000 226885.600000
206.059900 5866.300000
206.083800 54706.000000
207.067800 54835.700000
214.041700 138078.000000
216.045200 5914.500000
223.086600 3896.700000
224.026100 15603.500000
226.029500 4856.700000
229.052600 160131.200000
231.068400 52649.800000
238.073900 6245.400000
239.037100 45036.000000
240.044800 15998.000000
241.052600 2286386.500000
242.036300 5425.900000
257.047500 103898.500000
269.048200 3606.200000

>ms2peaks
50.015100 4342.800000
51.023000 8068.100000
53.038600 254925.600000
55.018000 13014.900000
63.022900 21551.200000
65.038500 20036.400000
66.046400 23647.100000
74.096500 6156.800000
75.022900 49536.700000
76.018200 21182.400000
77.038500 103610.600000
79.017900 8106.800000
79.054200 51380.200000
80.049400 7179.200000
81.033500 47894.300000
86.999700 54697.900000
90.033900 117245.900000
91.041700 36259.600000
91.054300 3648.700000
92.049500 18163.200000
93.057400 1038758.700000
94.041300 25517.400000
95.049200 676135.200000
98.999600 100347.100000
100.018200 109693.600000
104.049500 2655761.500000
105.044800 307566.600000
108.044500 10942.900000
110.999600 24994.200000
111.044100 16286.900000
117.044800 60720.100000
118.052600 512247.100000
122.059900 9835.700000
126.010500 189469.600000
127.018300 7627.400000
128.026200 136635.600000
129.010200 168465.200000
129.044700 19005.200000
130.040100 23294.200000
135.055300 14785.800000
135.994900 73681.000000
136.075900 19071.500000
138.010600 328836.600000
139.005800 361427.300000
145.051000 49263.400000
151.005800 38671.000000
151.054400 12276.800000
152.013600 44492.500000
152.062100 134166.900000
153.021500 229299.500000
154.005400 79883.300000
155.035000 11995.600000
163.005800 940728.800000
164.001000 540905.700000
165.069900 10139.900000
166.005300 33148.000000
167.073000 8649.400000
168.080800 7099.700000
169.064800 100809.400000
177.057300 35997.800000
178.065200 86539.000000
179.000800 28803.000000
179.060400 37329.100000
179.073000 95406.000000
180.080700 22516.900000
181.016300 200353.500000
184.051900 7441.200000
187.031100 13555.100000
194.084000 100295.000000
195.032000 124927.500000
195.091700 175004.900000
196.075800 11376.000000
199.026700 17799.000000
205.076100 287228.700000
206.059700 7825.400000
206.084000 37099.800000
207.067900 13182.300000
214.041800 93339.400000
224.026000 9867.900000
226.029600 6463.000000
229.052800 165504.700000
238.073300 12645.600000
239.037000 51080.100000
240.044800 11343.900000
241.052700 577814.600000
257.047700 30416.200000

