>compound LU22988137
>parentmass 163.0358
>ionization [M+H]+
>formula C5H10N2S2
>rt 591.540000
>profile orbitrap
#smiles_iso CN1CN(C(=S)SC1)C
#smiles_can CN1CN(C(=S)SC1)C
#inchikey QAYICIQNSGETAS-UHFFFAOYSA-N
#pubchem_id 10788
#mb_accession LU090504,LU090506

>ms2peaks
51.022900 2083.500000
53.038700 17012.100000
63.026300 2090.200000
88.952400 2229.100000

>ms2peaks
51.023100 9037.900000
53.038700 32896.600000
63.026400 2024.600000
88.952500 2585.300000

