>compound LU22788141
>parentmass 361.201
>ionization [M+H]+
>formula C21H28O5
>rt 1179.540000
>profile orbitrap
#smiles_iso C[C@]12CCC(=O)C=C1CC[C@@H]3[C@@H]2C(=O)C[C@]4([C@H]3CC[C@@]4(C(=O)CO)O)C
#smiles_can CC12CCC(=O)C=C1CCC3C2C(=O)CC4(C3CCC4(C(=O)CO)O)C
#inchikey MFYSYFVPBJMHGN-ZPOLXVRWSA-N
#pubchem_id 222786
#mb_accession LU112001,LU112002,LU112003,LU112004,LU112006

>ms2peaks
185.080800 81832.200000
361.198600 21729692.000000

>ms2peaks
129.018200 76775.200000
183.099200 64870.300000
185.080800 30824.900000
185.114900 67477.800000
331.188100 12098.800000
361.198800 9978962.000000

>ms2peaks
68.997200 4740.400000
129.018300 85503.800000
139.002800 6564.800000
183.100000 13388.500000
185.115100 26446.100000
303.156600 7325.800000
331.189100 3558.100000
361.199100 217016.500000

>ms2peaks
57.069900 4545.100000
68.997100 20502.000000
87.007600 6066.300000
111.007800 5995.700000
119.085800 4292.500000
129.018300 31917.300000
139.002700 6772.700000
218.093000 4815.700000

>ms2peaks
57.069900 3579.000000
68.997100 64448.200000
87.007800 3000.500000
111.008000 3952.000000
119.086200 2763.100000
218.092500 5560.200000

