>compound LU23467986
>parentmass 385.2373
>ionization [M+H]+
>formula C24H32O4
>rt 1106.640000
>profile orbitrap
#smiles_iso CC1=C[C@@H]2[C@H](CC[C@]3([C@H]2CC[C@@]3(C(=O)C)OC(=O)C)C)[C@@]4(C1=CC(=O)CC4)C
#smiles_can CC1=CC2C(CCC3(C2CCC3(C(=O)C)OC(=O)C)C)C4(C1=CC(=O)CC4)C
#inchikey RQZAXGRLVPAYTJ-GQFGMJRRSA-N
#pubchem_id 11683
#mb_accession LU072701,LU072702,LU072703,LU072704,LU072705,LU072706

>ms2
97.064700 4023.500000
99.080500 3399.400000
121.064600 4762.700000
135.080400 3896.200000
149.096000 5305.700000
151.111700 8950.300000
161.096200 5444.300000
169.101200 9049.100000
171.116900 5086.400000
173.095800 7440.000000
175.111600 12000.700000
177.127000 3314.700000
183.117200 5294.800000
187.111800 19727.200000
189.127600 7086.700000
201.128100 3133.400000
209.133100 4852.100000
211.147900 4744.000000
215.142900 4731.900000
223.148300 27827.700000
224.155900 24290.000000
225.163800 23954.100000
229.158600 4560.400000
231.138300 3602.900000
235.148300 2887.700000
237.164000 7780.800000
239.142900 6361.400000
241.158400 20038.500000
243.174600 9449.600000
247.148100 15796.600000
249.164200 27558.500000
253.159300 3655.200000
255.174400 94224.800000
263.179500 27899.200000
265.160500 12845.000000
265.195100 214773.900000
267.174300 515170.800000
281.189800 31406.600000
282.197800 48279.600000
283.205800 60685.000000
289.195500 26638.900000
307.205600 114058.400000
325.216200 1403173.800000
385.237500 2437344.800000

>ms2
59.049200 8660.600000
67.054300 2857.400000
69.069800 3286.400000
71.048900 3435.900000
81.069900 9447.700000
83.049100 24780.900000
83.085500 3331.900000
85.064700 14223.100000
91.054300 3297.700000
93.069900 11234.600000
95.085500 17958.500000
97.064800 51944.100000
99.080400 20547.100000
105.069900 5788.700000
107.085500 34163.500000
109.064700 3440.700000
109.101100 24108.500000
111.080300 14382.200000
113.059600 6375.400000
119.085600 16827.300000
121.064700 51827.600000
121.101100 15836.600000
123.080200 11390.200000
123.116800 5973.600000
129.069800 2714.400000
131.085600 6587.200000
133.101100 64240.300000
135.080200 18579.300000
135.116600 11835.000000
137.096200 17535.900000
141.069800 2827.600000
143.085500 9283.100000
145.064600 2888.800000
145.101100 43604.000000
147.080400 12020.100000
147.116700 22344.500000
149.096100 22752.900000
151.111800 39212.900000
155.085200 6331.500000
157.101200 35024.300000
159.080500 6044.100000
159.116700 35383.100000
161.096100 87269.100000
161.132400 6929.400000
163.111700 22247.200000
169.101100 61895.100000
171.080400 6289.600000
171.116700 53654.000000
173.096000 49391.200000
173.132300 20015.400000
175.111700 155883.100000
177.127600 14793.800000
181.101100 5974.000000
183.116800 116493.800000
185.096000 17348.500000
185.132500 25242.600000
187.111700 156123.300000
188.119300 3149.300000
189.127300 61597.300000
193.101600 5412.100000
195.116900 18822.700000
196.124000 4469.400000
197.132400 39417.300000
198.140200 24798.400000
199.111800 8720.900000
199.148100 29789.400000
200.156200 9236.100000
201.127700 21344.700000
201.163900 6290.900000
207.116600 14864.200000
208.124000 5492.300000
209.132400 60962.800000
210.140200 7221.000000
211.111300 6879.000000
211.148100 88894.800000
212.156400 5818.500000
213.127500 20911.400000
213.164000 15526.100000
215.143000 37794.000000
219.116500 3715.700000
221.132300 11495.100000
222.140400 6538.200000
223.148100 185996.100000
224.155900 764348.600000
225.163600 216453.100000
227.143200 12848.500000
229.159300 13487.500000
231.138200 8149.600000
233.131900 7395.300000
234.140600 15151.600000
235.148100 17673.400000
236.155800 3852.500000
237.127300 9372.700000
237.163600 68617.300000
239.142800 30260.900000
239.179600 7428.800000
241.158600 140556.900000
243.174300 30356.500000
246.139300 2364.000000
247.148000 30002.100000
248.155800 3203.200000
249.163700 130097.800000
250.171400 12291.000000
251.143000 10754.500000
253.158700 16974.500000
255.174200 151885.900000
260.155800 3381.800000
261.164300 3186.000000
263.179300 56483.400000
264.187200 23372.800000
265.159500 39363.400000
265.195000 357091.900000
266.166900 5783.700000
267.174200 1073709.400000
274.171700 4982.200000
279.173800 5162.400000
281.189900 154079.300000
282.197700 518570.500000
283.205500 177036.100000
289.194800 41107.800000
292.182000 3569.900000
307.205600 150181.100000
310.192700 4967.100000
325.216100 539855.900000
385.237700 51680.600000

>ms2
53.038600 3883.000000
55.017800 2520.100000
55.054200 9248.100000
57.069700 3555.800000
59.049100 12058.000000
67.054300 20023.900000
69.033500 3765.600000
69.069800 10384.900000
71.049100 7527.600000
79.054200 14500.200000
81.069900 35070.600000
83.049100 64492.800000
83.085500 4143.300000
85.064700 19212.800000
91.054200 19888.000000
93.069900 47246.800000
95.049100 4048.600000
95.085500 38695.300000
97.064800 125815.600000
99.080500 19664.000000
103.054200 3131.700000
105.069800 33047.800000
107.049100 6588.500000
107.085500 64678.300000
109.064800 11688.600000
109.101200 36483.600000
111.080500 26929.300000
113.059700 4281.600000
117.069800 8999.800000
119.085500 56583.200000
121.064800 53793.600000
121.101200 49591.000000
123.080300 25164.300000
123.116700 6309.400000
128.062100 4457.200000
129.069700 9076.700000
131.085500 42317.200000
133.101200 126069.300000
135.080500 20011.200000
135.116700 20001.400000
137.096200 25532.300000
141.069900 6175.900000
142.077800 9031.400000
143.085600 28935.800000
144.093000 2809.800000
145.064800 7833.600000
145.101200 95403.000000
147.080500 15446.800000
147.116800 49084.600000
149.095900 21366.900000
151.111700 17604.200000
154.077800 2952.800000
155.085500 27563.300000
156.093400 9286.600000
157.101300 101543.900000
158.072700 2712.600000
159.080500 16896.400000
159.116800 73901.500000
160.088300 3276.400000
160.124000 2729.200000
161.096100 110818.100000
161.132800 11908.500000
162.104000 6541.700000
163.111700 20688.200000
165.070400 4380.100000
167.085600 14813.400000
168.093500 7248.800000
169.101200 113258.600000
170.108800 5325.700000
171.080600 14481.000000
171.116800 93895.400000
172.088100 3185.200000
173.096200 62790.700000
173.132600 40280.700000
174.103900 9418.200000
175.111800 222837.800000
177.127700 5869.500000
179.085500 7212.900000
180.093700 3463.300000
181.101300 29622.800000
182.109200 7979.100000
183.116900 198237.900000
184.124800 6501.700000
185.096000 27623.100000
185.132600 43497.500000
186.140400 5611.200000
187.111800 173621.500000
188.119600 9047.200000
189.127400 43060.500000
193.101200 19973.500000
194.108800 18805.500000
195.116900 61439.900000
196.124400 12727.800000
197.132500 105487.900000
198.140400 101142.500000
199.111800 10798.800000
199.148300 65187.900000
200.119700 6032.600000
200.156200 14591.100000
201.127500 13878.200000
201.163800 8766.900000
205.101400 4188.900000
206.108700 5770.300000
207.117000 32123.800000
208.124900 24311.200000
209.132500 335760.700000
210.140500 44946.100000
211.148100 236493.500000
212.155900 18066.300000
213.127500 18699.800000
213.163900 14471.100000
215.142900 23175.800000
219.116900 15556.000000
220.124400 10104.700000
221.132700 24964.300000
222.140300 36810.000000
223.148200 192356.000000
224.156000 1134992.100000
225.128400 15591.300000
225.163700 243151.100000
226.135100 5034.500000
227.143100 11076.500000
228.151900 2831.000000
229.159100 3566.600000
231.118500 2704.300000
232.124700 6438.300000
233.132800 7637.900000
234.140300 53479.700000
235.148100 29798.400000
236.155900 12540.900000
237.126900 9579.500000
237.163800 54515.000000
238.134500 4130.100000
238.171600 3516.300000
239.142900 25800.800000
239.179700 16243.800000
240.150900 4591.300000
241.158600 57641.900000
243.174700 6477.800000
245.131500 3904.100000
246.139800 3601.600000
247.148000 15683.000000
248.156000 9072.000000
249.163800 118770.800000
250.171500 22268.100000
251.142800 14728.100000
252.151400 8276.100000
253.159200 15264.100000
255.174300 20192.100000
260.155600 3142.300000
261.162900 3329.900000
263.179400 21650.300000
264.187100 25250.900000
265.159400 22135.700000
265.195100 95381.400000
266.166200 17861.000000
267.174300 486490.700000
274.171300 6136.100000
277.159400 3153.400000
279.174100 4081.300000
281.190000 77860.400000
282.197800 361750.000000
283.205600 42248.900000
289.194700 7789.800000
292.182100 6428.200000
295.168800 5085.400000
307.206200 21441.500000
310.192400 13824.900000
325.216700 30191.400000

>ms2
53.002200 2790.200000
53.038600 2450.400000
55.017900 9353.500000
55.054300 24456.200000
57.069800 8580.200000
59.049100 16736.900000
65.038600 4336.000000
67.054200 46358.100000
69.033400 3718.000000
69.069900 19524.500000
71.049100 6598.100000
77.038600 2200.400000
79.054300 42993.800000
81.069900 48817.200000
83.049100 87735.600000
85.064800 14312.700000
91.054300 57385.500000
93.070000 77925.800000
95.049100 11956.900000
95.085600 37551.300000
97.064900 146020.800000
99.080500 4926.900000
103.054300 5569.000000
105.070000 100791.600000
107.049300 11091.500000
107.085600 69792.200000
109.064700 17300.400000
109.101200 31822.500000
111.080500 17088.100000
115.054300 5264.300000
117.069800 22027.100000
119.085600 96783.900000
121.064900 50758.900000
121.101300 38393.500000
123.080600 17842.500000
123.117000 3069.800000
128.062000 12955.300000
129.070000 32237.600000
130.077800 12702.800000
131.085600 85303.400000
132.093100 2844.900000
133.065100 15864.900000
133.101200 135675.800000
135.080400 15622.100000
135.116700 14058.600000
137.096000 16981.000000
141.069800 19477.300000
142.077800 49514.900000
143.085600 67916.200000
144.093200 12884.300000
145.064700 10731.700000
145.101200 118364.300000
146.072400 4563.700000
146.108900 4825.800000
147.080500 17961.900000
147.116900 47613.100000
149.096200 17459.300000
151.111700 4452.500000
153.070100 10578.000000
154.077600 7113.600000
155.085600 61325.500000
156.093500 31388.400000
157.101300 110289.700000
158.072900 9405.700000
158.108900 6536.800000
159.080600 16403.600000
159.116900 58124.700000
160.088300 25495.000000
160.124400 3331.000000
161.096100 64829.600000
161.132500 5483.800000
162.103500 7143.200000
163.111800 11184.900000
165.070000 15464.300000
166.077900 9412.000000
167.085600 48378.300000
168.093400 27147.800000
169.101200 134120.700000
170.072700 2888.800000
170.108800 18091.800000
171.080700 20756.900000
171.116900 81869.500000
172.088200 16482.900000
172.124500 4169.100000
173.096200 63318.600000
173.132600 25126.600000
174.103900 9988.300000
175.111800 163225.000000
177.127700 3008.500000
179.085600 42096.900000
180.093300 19318.700000
181.101300 65304.400000
182.109000 27924.000000
183.117000 237053.200000
184.124800 9220.700000
185.096400 17120.800000
185.132700 49588.000000
186.104500 3944.100000
186.140400 5311.900000
187.111800 101818.100000
188.119900 5679.800000
189.127300 12363.800000
191.085900 4050.600000
192.093400 10268.700000
193.101400 57744.800000
194.109200 73934.500000
195.117000 99688.000000
196.124600 28220.200000
197.096200 7355.300000
197.132600 130146.600000
198.140500 69234.100000
199.111800 9452.000000
199.148300 49814.500000
200.119900 2936.000000
200.156300 6547.500000
201.127400 5030.000000
204.092800 2579.000000
205.101400 12055.200000
206.109200 9777.500000
207.116900 54877.500000
208.124800 53610.400000
209.132600 841207.800000
210.140300 64129.900000
211.112100 30841.000000
211.148200 198614.700000
212.119600 6526.900000
212.156100 8771.700000
213.127100 6982.000000
213.164100 4762.100000
215.143500 4620.900000
217.101300 3231.400000
219.117000 32764.800000
220.125100 15860.800000
221.132400 35033.300000
222.140400 33500.800000
223.148200 185313.000000
224.156100 408088.400000
225.127700 25410.300000
225.163900 81082.100000
226.135400 8972.500000
227.142800 4816.400000
228.151400 2815.300000
232.124600 5236.300000
233.132300 13271.000000
234.140500 61545.300000
235.148400 39886.900000
236.156500 6269.900000
237.127600 10015.800000
237.163700 23508.200000
238.135100 6362.300000
238.171400 3196.000000
239.142900 20356.500000
239.179800 13395.200000
240.151300 3155.900000
241.159000 6361.000000
245.131200 4026.400000
248.155900 8661.200000
249.163900 113340.300000
250.171300 11076.300000
251.142900 29573.200000
252.150500 13227.000000
253.158100 16414.100000
263.179400 8256.400000
264.186900 6094.200000
265.159100 19861.100000
265.195200 22088.300000
266.166900 11155.400000
267.174500 365763.300000
274.172000 2965.200000
277.158300 5677.300000
281.190200 29902.300000
282.198100 59657.200000
283.205200 3577.900000
295.169400 7797.800000
310.193600 3606.800000
325.217500 2620.600000

>ms2
53.002300 2515.300000
53.038600 11871.900000
55.017900 18002.900000
55.054200 44715.600000
57.069800 10170.300000
59.049100 14855.600000
65.038500 4452.900000
67.054200 57092.600000
69.033400 4512.200000
69.069800 22636.300000
71.049000 3877.700000
79.054200 71447.200000
81.069900 53774.400000
83.049200 81273.600000
85.064600 7608.700000
91.054300 141141.100000
93.069900 87859.000000
95.049100 24855.600000
95.085600 31444.800000
97.064800 125876.300000
103.054200 13421.200000
105.069900 178366.300000
107.049100 24230.200000
107.085500 50852.900000
109.064900 19447.500000
109.101300 12275.900000
111.080400 9663.400000
115.054100 25426.600000
116.062000 7065.500000
117.069900 55512.000000
118.077600 2886.600000
119.085600 106516.200000
121.064800 33453.700000
121.101100 20909.400000
123.080400 11946.600000
128.062000 47868.700000
129.069900 75015.100000
130.077700 25440.300000
131.085600 90941.900000
132.057000 2911.700000
132.093400 2500.400000
133.064900 14038.600000
133.101200 92729.500000
135.080400 14274.200000
135.117000 6276.900000
137.096000 5080.200000
141.069900 50816.000000
142.077700 113845.300000
143.085600 89494.600000
144.056800 6111.900000
144.093500 23096.800000
145.064800 26037.200000
145.101300 91490.300000
146.073000 5669.000000
146.109000 7349.700000
147.080600 19213.900000
147.116900 22809.600000
149.095900 7324.600000
152.062100 5741.100000
153.069900 34885.300000
154.077600 28918.300000
155.085500 124094.700000
156.093400 52224.900000
157.064900 12235.000000
157.101200 76426.300000
158.072500 14067.900000
158.108900 7033.100000
159.080500 25546.300000
159.117000 31221.100000
160.088300 41373.500000
161.096100 30845.000000
161.132400 4559.300000
162.104000 2883.000000
165.069900 47940.900000
166.077800 26577.800000
167.085600 140316.200000
168.093400 48276.200000
169.101200 142224.900000
170.072500 2774.900000
170.109100 19134.400000
171.080700 23316.100000
171.116800 50530.200000
172.088200 27272.500000
172.125000 2713.700000
173.096300 64739.400000
173.132600 11154.700000
174.103800 5024.700000
175.111800 53375.100000
178.077600 18760.100000
179.085600 169948.000000
180.093300 45647.700000
181.101200 112801.400000
182.109200 37428.600000
183.116900 206503.700000
184.124600 10816.400000
185.096300 12658.500000
185.132600 33699.700000
186.103500 2730.600000
187.111700 46334.600000
188.119600 4157.100000
190.078100 3776.600000
191.085700 16945.300000
192.093400 26676.300000
193.101300 109196.700000
194.109100 246033.700000
195.116900 113315.000000
196.124800 35758.500000
197.096400 11149.500000
197.132500 98517.600000
198.104500 4216.100000
198.140500 17024.600000
199.112000 8059.000000
199.148100 20942.800000
203.085300 5011.900000
204.093600 8428.600000
205.101400 19067.700000
206.108900 16224.200000
207.116900 81026.000000
208.124700 65890.600000
209.132500 593481.700000
210.103700 5670.500000
210.140300 39794.700000
211.111700 28913.200000
211.148200 95747.000000
212.118900 10941.300000
213.127600 6777.800000
217.101000 7949.600000
218.109000 7384.300000
219.116800 52016.200000
220.124700 15905.000000
221.132600 29280.600000
222.104000 2498.700000
222.140400 10666.000000
223.111500 6561.800000
223.148200 125782.000000
224.120100 4228.900000
224.156000 55173.200000
225.127600 18475.100000
225.164000 20058.500000
231.117200 2982.600000
233.132700 13684.200000
234.140400 27082.600000
235.148000 25509.900000
236.119200 3346.700000
237.127500 21209.400000
237.163700 5636.200000
238.135400 10282.300000
239.143700 13625.700000
239.179500 5588.500000
244.123900 2966.000000
245.132800 3375.500000
247.148100 3768.300000
249.163700 50550.600000
251.142900 34521.700000
252.151200 13849.600000
253.158600 8430.200000
263.180000 3556.800000
265.158700 8699.100000
265.195100 4252.200000
266.167700 3993.400000
267.174400 120253.700000
281.191400 5034.400000
282.197300 3695.500000

>ms2
53.002100 9326.600000
53.038600 20614.800000
55.017800 21143.300000
55.054200 63519.900000
57.069800 8050.900000
59.049100 14208.200000
65.038500 20441.300000
67.054200 70627.100000
69.033300 7345.200000
69.069900 16906.200000
71.049100 2666.300000
77.038500 6312.200000
79.054200 111963.500000
81.069800 51617.700000
83.049100 71090.600000
91.054200 255298.600000
93.069900 85362.100000
95.049100 47912.700000
95.085500 20882.700000
97.064800 98149.200000
103.054200 31551.000000
105.069900 240883.600000
107.049100 24129.400000
107.085400 33056.400000
109.064800 18335.900000
109.100900 4575.600000
111.080500 5137.700000
115.054200 56010.200000
116.062100 19789.800000
117.069900 77448.300000
118.078100 4775.900000
119.085500 102313.600000
121.064800 31875.400000
121.101200 10035.700000
123.080400 7531.900000
128.062000 106240.000000
129.069800 118219.800000
130.077700 45194.000000
131.085500 95006.500000
132.056800 5201.900000
132.093200 4289.000000
133.064700 11903.300000
133.101100 46981.300000
135.080100 4375.600000
137.096200 3121.500000
141.069800 121451.800000
142.077700 127238.100000
143.085500 87502.700000
144.056900 8290.200000
144.093400 20436.600000
145.064800 45207.800000
145.101200 61030.100000
146.072500 10263.700000
147.080400 14167.800000
147.116700 14851.300000
152.062000 23912.000000
153.069800 87922.600000
154.077600 45665.700000
155.085500 151513.700000
156.093300 46490.500000
157.064900 24971.500000
157.101200 50269.300000
158.072400 15162.500000
158.108700 3741.600000
159.080500 29560.700000
159.116700 12819.800000
160.088300 34514.000000
161.096000 13222.700000
165.069900 125549.600000
166.077700 47830.800000
167.085500 198954.400000
168.093400 67191.800000
169.101200 138446.100000
170.072500 5220.400000
170.109100 20847.600000
171.080400 23282.900000
171.116800 26014.300000
172.088100 17785.100000
173.095900 42138.500000
174.104200 3110.700000
175.111500 13724.000000
178.077700 63643.900000
179.085500 380291.600000
180.093200 65676.400000
181.101100 139316.900000
182.109100 37204.400000
183.116900 115846.300000
184.124500 5789.600000
185.096000 6480.800000
185.132400 17909.800000
187.111800 11778.400000
190.077600 8153.000000
191.085300 27476.200000
192.093200 51599.000000
193.101200 154630.600000
194.109100 324580.300000
195.116900 97196.400000
196.124800 28388.900000
197.096100 8683.300000
197.132500 43466.300000
198.104000 5003.300000
198.139800 2785.700000
199.111600 4208.800000
199.148000 3944.100000
203.085300 14023.700000
204.093500 21049.500000
205.101200 35765.900000
206.108800 20011.500000
207.116900 67874.800000
208.124600 53301.300000
209.132500 218629.000000
210.104400 4358.300000
210.140200 15202.200000
211.111900 17053.600000
211.148000 23199.200000
212.119400 10714.100000
213.127300 2724.500000
217.101200 7121.000000
218.108900 6777.000000
219.116600 43282.600000
220.124800 12507.200000
221.132500 21281.100000
222.103800 3481.400000
222.141100 2528.600000
223.112000 9401.200000
223.148000 51209.100000
224.120100 4310.000000
224.155800 5793.800000
225.127500 10462.200000
225.163900 3248.400000
231.117000 3334.500000
233.132500 10781.100000
234.139700 11472.600000
235.147300 12235.400000
236.119900 5005.000000
237.127400 24223.500000
238.135500 7400.300000
239.142900 5734.300000
244.124500 2379.600000
249.164000 18032.200000
251.142800 15500.800000
252.150900 7816.800000
265.159000 3632.600000
266.165900 2570.400000
267.174300 22611.000000

