>compound LU23204454
>parentmass 364.0737
>ionization [M+H]+
>formula C14H13F4N3O2S
>rt 1074.480000
>profile orbitrap
#smiles_iso CC(C)N(C1=CC=C(C=C1)F)C(=O)COC2=NN=C(S2)C(F)(F)F
#smiles_can CC(C)N(C1=CC=C(C=C1)F)C(=O)COC2=NN=C(S2)C(F)(F)F
#inchikey IANUJLZYFUDJIH-UHFFFAOYSA-N
#pubchem_id 86429
#mb_accession LU025501,LU025502,LU025503,LU025504,LU025505,LU025506

>ms2peaks
57.070000 2356.300000
109.044800 2446.600000
124.056000 2707.800000
152.050700 132775.300000
152.087200 11144.000000
194.097700 325400.000000

>ms2peaks
57.070000 2739.000000
109.045000 16777.100000
124.055900 40986.800000
129.070100 1874.800000
143.085800 8075.400000
144.080800 5234.300000
152.050700 291537.900000
152.087100 24554.300000
166.102800 3987.200000
172.075600 7119.300000
175.956200 9439.700000
194.097900 26329.500000
346.038400 13472.500000

>ms2peaks
57.069800 2343.200000
97.044800 7556.200000
109.044900 44758.600000
124.055800 165906.700000
125.039800 2707.900000
128.062000 4244.400000
129.069900 3346.100000
143.085700 7829.400000
144.080700 5755.200000
152.050700 207249.500000
152.087100 35356.000000
166.102900 2956.500000
172.075800 3020.800000
175.956100 17242.900000
346.039200 6601.100000

>ms2peaks
97.044800 31927.800000
109.044900 59051.000000
115.054200 2847.600000
123.024100 6912.100000
124.055800 217172.900000
125.039700 2335.900000
128.062000 12022.000000
129.999100 2342.400000
144.080800 5145.200000
152.050700 71428.600000
152.087000 23025.800000
156.998200 2089.300000
166.965500 2428.400000
175.956000 19304.400000
176.960200 31260.000000

>ms2peaks
53.038500 2573.400000
74.015300 2339.000000
83.029200 2871.700000
91.054200 4041.100000
95.049100 4130.100000
96.036900 2401.500000
97.044900 52189.700000
104.049500 4158.900000
105.044800 2513.800000
109.044900 47606.600000
110.040200 3265.600000
110.981100 14042.200000
115.054300 4151.500000
123.024100 13209.700000
123.035300 3029.500000
124.055800 154945.800000
128.062200 16588.800000
128.991700 4855.500000
129.999700 4079.300000
134.039900 2208.000000
152.050900 17422.600000
152.087000 7204.200000
156.998100 4279.300000
166.965700 8666.800000
174.963300 8523.300000
175.955900 10187.100000
175.967000 5962.800000
176.960700 103609.600000

>ms2peaks
53.038600 5272.400000
74.015100 5061.800000
83.029200 14860.900000
91.054300 2963.600000
95.049200 13622.000000
96.037000 10510.100000
97.044900 62875.100000
104.049500 5154.300000
105.044800 4924.100000
109.044900 45775.200000
110.040000 2327.500000
110.981100 47184.400000
115.054300 6831.000000
123.024200 16720.500000
123.035200 12495.000000
124.055800 100688.500000
128.991600 5237.400000
129.999500 6677.900000
134.040200 2149.800000
152.050700 4651.400000
152.087300 3534.900000
156.998000 1823.000000
166.965300 10038.000000
174.964500 8868.900000
175.955500 3832.300000
175.967200 3567.400000
176.961000 95436.700000

