>compound LU23941756
>parentmass 474.1734000000001
>ionization [M+H]+
>formula C28H27NO4S
>rt 856.800000
>profile orbitrap
#smiles_iso C1CCN(CC1)CCOC2=CC=C(C=C2)C(=O)C3=C(SC4=C3C=CC(=C4)O)C5=CC=C(C=C5)O
#smiles_can C1CCN(CC1)CCOC2=CC=C(C=C2)C(=O)C3=C(SC4=C3C=CC(=C4)O)C5=CC=C(C=C5)O
#inchikey GZUITABIAKMVPG-UHFFFAOYSA-N
#pubchem_id 5035
#mb_accession LU023601,LU023602,LU023603,LU023604,LU023605,LU023606

>ms2peaks
112.112100 117488.000000
474.173600 13004857.000000

>ms2peaks
55.054200 23635.200000
56.049500 54868.900000
58.065100 43047.600000
69.069800 124376.400000
70.065100 25174.300000
84.080800 360891.400000
85.088600 582494.100000
86.096400 67901.700000
98.096400 37698.500000
110.096400 23047.600000
112.112000 6559842.000000
147.044000 168113.300000
269.026600 429002.100000
361.052700 9026.200000
362.061000 46804.300000
474.173400 7402955.000000

>ms2peaks
53.002200 41985.600000
55.054200 262454.000000
56.049500 499078.400000
57.057300 9573.500000
58.065100 338178.800000
67.054200 53893.400000
69.069800 932783.600000
70.065100 211756.200000
82.065100 35682.600000
83.073000 17851.900000
83.085500 38217.100000
84.080800 3360311.500000
85.088600 2034748.900000
86.096400 139722.500000
95.085400 8951.500000
97.088600 42536.700000
98.096400 92545.600000
103.017700 28764.600000
110.096500 137485.300000
112.112000 7605178.000000
121.028300 22362.000000
147.044000 331953.700000
197.059700 59986.900000
213.036800 33135.900000
241.031600 30591.800000
269.026600 751141.400000
305.062900 23697.900000
317.062700 9057.600000
319.042700 10007.300000
333.057500 27051.400000
361.052900 44706.800000
362.060700 86465.700000
474.173500 186979.800000

>ms2peaks
53.002200 72710.700000
53.038600 13887.700000
53.997500 11083.500000
55.054200 450668.400000
56.049500 858474.800000
57.057300 34657.800000
57.069900 6506.100000
58.065100 374414.600000
65.038600 20785.400000
67.054200 84806.400000
68.049500 7301.500000
69.069800 963217.400000
70.065100 344242.500000
71.073000 6739.000000
82.065100 69235.400000
83.072900 20122.900000
83.085500 26535.800000
84.080800 4991769.000000
85.088600 1105437.000000
86.096400 87920.200000
91.054200 36239.600000
96.080800 7877.100000
97.088600 38361.200000
98.096500 62398.300000
103.017800 66230.700000
110.096500 117713.100000
112.112100 2637876.000000
117.078600 5571.200000
121.028400 39665.500000
137.005300 5395.000000
147.044100 171641.400000
147.055200 14199.400000
185.041900 8221.200000
197.059700 211124.300000
213.036800 115052.500000
224.029600 7042.500000
240.023400 6347.100000
241.031800 43185.200000
251.016000 8674.500000
252.023900 9323.300000
253.032000 6539.900000
268.019000 9264.900000
269.026700 252681.300000
274.045100 5557.500000
287.052300 25822.200000
288.061300 5365.900000
290.040200 5498.900000
298.044300 5273.200000
300.060700 6924.300000
300.078500 7192.700000
303.047500 5414.800000
304.055300 8332.500000
305.063400 11900.400000
315.048000 5490.700000
316.054700 13286.400000
317.063700 10877.300000
319.043000 6486.200000
327.047000 6907.500000
343.042000 6977.100000
345.058600 24890.600000
361.052900 40452.700000
362.060500 8384.700000

>ms2peaks
53.002200 93278.800000
53.038600 19798.200000
53.997400 18147.500000
54.033800 8440.600000
55.054200 439962.900000
56.049500 996856.800000
57.057300 49041.900000
57.069800 10586.600000
58.065100 280675.300000
65.038500 74143.500000
67.054200 86957.300000
68.049500 8234.000000
69.069800 592212.400000
70.065100 448736.900000
75.022900 10896.800000
82.065100 78862.900000
83.073000 14406.700000
83.085500 8798.800000
84.080800 5186897.500000
85.088600 451754.100000
86.096400 66564.900000
91.054200 76689.100000
96.080700 8091.300000
97.088500 26788.600000
98.096400 46253.000000
103.017800 56562.500000
110.096400 73949.500000
112.112000 879491.700000
117.078300 5610.900000
119.049000 5514.600000
121.028400 50468.400000
121.039500 6237.100000
137.005400 6380.900000
137.059800 6101.300000
141.069700 20499.300000
147.044100 54603.400000
147.055400 12481.300000
152.061900 20316.900000
169.064700 24949.800000
181.064900 11992.300000
184.034100 15857.800000
185.042000 15456.900000
187.021300 6174.600000
195.026200 14469.600000
197.059700 278978.800000
213.036700 135067.500000
223.021200 5744.600000
224.029100 12884.900000
240.023900 10644.800000
241.032100 28832.700000
252.023300 13843.200000
255.080100 13904.600000
258.049600 12761.200000
259.057700 8328.800000
263.052700 6862.400000
268.018700 12767.700000
269.026800 55500.800000
271.057700 7085.300000
274.044100 15626.700000
275.052300 5694.700000
287.052300 42399.900000
288.060300 7239.500000
290.039500 7365.000000
298.044600 5498.200000
300.060100 8721.800000
300.077600 5574.000000
303.047500 13415.700000
305.062900 6436.100000
315.046800 7565.100000
316.055100 14921.500000
327.047600 21533.700000
343.042300 11819.500000
345.058000 9599.700000
361.052900 22778.300000

>ms2peaks
53.002200 123644.200000
53.038600 21508.600000
53.997500 21893.600000
54.033900 10667.400000
55.054300 385776.600000
56.049500 1191671.500000
57.057300 67980.600000
57.069800 8217.500000
58.065100 194411.700000
65.038600 143100.600000
67.054200 94345.900000
68.049400 19367.300000
69.069900 305873.800000
70.065100 476362.800000
74.015100 10266.000000
75.022900 22585.900000
82.065100 79126.400000
83.073000 6468.200000
84.080800 5034313.000000
85.088600 178376.200000
86.096500 41068.000000
91.054200 85205.500000
96.080800 7855.000000
97.088600 11013.200000
98.096400 23109.300000
103.017900 31764.200000
110.096400 34739.700000
112.112100 274751.000000
121.028400 38651.900000
121.039800 9879.900000
137.005700 5939.300000
141.069900 66911.800000
147.044500 13577.300000
147.055100 6305.600000
152.062100 40738.100000
169.064800 62613.300000
181.065200 18289.700000
184.034200 41084.800000
185.041900 18877.200000
187.021400 10448.900000
195.026600 19547.600000
197.059800 244245.800000
213.036900 70973.400000
224.029300 15967.500000
240.024300 12205.600000
241.031800 10300.600000
245.042600 8546.400000
252.023500 5384.000000
255.080000 18795.400000
258.049900 19699.800000
259.057900 11795.900000
261.037400 8885.500000
268.019000 8433.700000
269.026900 9293.100000
271.058200 13632.400000
271.074300 5654.400000
274.044800 12287.500000
275.052100 5987.900000
287.052600 49089.800000
298.045600 12304.800000
299.053600 7351.800000
303.048200 18496.800000
315.047400 7375.800000
316.055700 9046.300000
327.047300 10735.600000
343.042800 11604.600000
361.053900 6751.000000

