>compound LU23876107
>parentmass 282.2791
>ionization [M+H]+
>formula C18H35NO
>rt 1275.300000
>profile orbitrap
#smiles_iso CCCCCCCCCCCCN1CCCCCC1=O
#smiles_can CCCCCCCCCCCCN1CCCCCC1=O
#inchikey AXTGDCSMTYGJND-UHFFFAOYSA-N
#pubchem_id 42981
#mb_accession LU121201,LU121202,LU121203,LU121204,LU121205,LU121206

>ms2
282.279200 46650004.000000

>ms2
57.069900 61710.600000
69.069900 56428.500000
71.085600 56046.400000
96.080700 85842.600000
114.091400 1164907.500000
282.279000 44091764.000000

>ms2
53.002200 65451.600000
55.054200 82788.100000
57.069900 1553071.400000
67.054300 68037.700000
68.049500 132436.300000
69.069800 1106942.100000
71.085500 920733.600000
72.080700 66371.100000
79.054200 1189878.400000
81.069800 103875.400000
84.080700 42476.300000
85.101200 316658.200000
86.096400 67788.500000
96.080800 1650161.600000
97.064800 309618.600000
98.096400 140658.000000
110.096400 39624.000000
114.091400 11921941.000000
126.091100 103319.400000
128.106900 273773.800000
142.122700 125617.200000
156.138200 107781.200000
170.154100 52786.900000
184.205900 144401.900000
186.221700 52671.700000
254.283900 43091.200000
264.268600 192446.200000
280.263600 27006.800000
282.279100 23262702.000000

>ms2
53.002200 281685.100000
53.038600 35049.300000
53.997500 28718.500000
54.033800 29241.300000
55.017800 124858.100000
55.054300 291317.200000
56.049500 26028.100000
57.069900 3281701.500000
58.065000 22426.300000
67.054200 294462.900000
68.049500 350778.800000
69.069900 2931041.000000
70.065200 82843.900000
71.049100 107704.300000
71.085500 1315013.000000
72.044400 19643.900000
72.080800 234037.800000
77.038400 12584.200000
79.054200 3476929.500000
81.057300 61515.000000
81.069900 190894.900000
83.085600 45831.000000
84.080800 116616.900000
85.064900 40485.200000
85.101200 274696.800000
86.096500 198822.600000
94.065000 22239.400000
95.049200 101120.800000
96.080800 2921259.500000
97.064900 689078.600000
98.096400 282754.700000
99.080700 13557.900000
110.096400 49840.100000
114.091400 11741551.000000
126.091100 63647.700000
128.107000 195781.500000
142.122600 103869.900000
156.138300 92686.900000
170.153700 21238.000000
184.206200 89390.200000
186.221700 27212.400000
240.269600 22355.800000
254.284400 45586.200000
264.268600 99260.200000
280.262900 13716.000000
282.279200 2757679.000000

>ms2
53.002200 467115.400000
53.038600 90902.800000
53.997500 61048.500000
54.010000 8961.900000
54.033800 49745.500000
55.017900 221858.900000
55.054200 512972.900000
56.049400 44100.200000
57.069900 2553903.800000
58.065200 22580.600000
65.038600 12434.600000
67.054200 426814.800000
68.049500 428131.700000
69.069900 3009799.200000
70.065100 125544.300000
71.049100 124169.100000
71.085500 582517.900000
72.044300 31533.400000
72.080800 253696.700000
77.038400 44982.200000
79.054200 3574079.500000
80.049400 24068.400000
81.057300 141161.200000
81.070000 111596.900000
83.085400 12910.500000
84.080800 83521.500000
85.064800 36901.200000
85.101300 60376.600000
86.096400 206128.000000
94.041300 10994.600000
94.065100 48925.000000
95.049200 217058.600000
96.080800 2021193.800000
97.064800 517278.200000
98.096400 155882.600000
110.096600 14376.600000
114.091400 4383433.500000
126.091400 17182.000000
128.106900 31228.700000
142.122700 29063.500000
156.138300 18318.100000
282.278600 70033.800000

>ms2
53.002200 594034.500000
53.038700 171051.800000
53.997500 99757.300000
54.010100 18235.100000
54.033900 43201.500000
55.017900 312452.700000
55.054300 759180.200000
56.049500 47789.400000
57.069900 1671309.800000
58.065200 23034.100000
65.038600 26100.700000
67.054200 474402.500000
68.049500 358199.700000
69.069900 2430831.800000
70.065200 138553.700000
71.049100 90270.400000
71.085500 181241.400000
72.044400 24190.500000
72.080800 200312.500000
77.038600 48804.600000
79.054200 2791395.200000
80.049500 50539.600000
81.057400 161230.100000
81.069900 57928.100000
83.085200 8498.000000
84.080800 69660.200000
85.064800 23338.400000
86.096400 127791.300000
94.041300 18006.800000
94.065100 52740.500000
95.049200 399476.700000
96.080800 1098873.800000
97.064900 245102.900000
98.096500 94591.900000
114.091400 1445229.200000

