>compound LU23793080
>parentmass 280.1543
>ionization [M+H]+
>formula C15H21NO4
>rt 984.540000
>profile orbitrap
#smiles_iso CC1=C(C(=CC=C1)C)N(C(C)C(=O)OC)C(=O)COC
#smiles_can CC1=C(C(=CC=C1)C)N(C(C)C(=O)OC)C(=O)COC
#inchikey ZQEIXNIJLIKNTD-UHFFFAOYSA-N
#pubchem_id 42586
#mb_accession LU064301,LU064302,LU064303,LU064304,LU064305,LU064306

>ms2peaks
132.081100 11994.300000
148.111900 139583.500000
160.111900 126532.000000
162.127600 14005.000000
165.114800 32262.400000
188.107000 27481.400000
192.138200 1315115.500000
208.132800 27887.500000
220.133100 9047020.000000
221.012700 9499.400000
248.127900 4367190.500000
252.159000 29756.200000
280.154100 2328952.500000

>ms2peaks
121.088700 8949.000000
132.080700 9077.500000
133.088600 43654.700000
134.096400 71083.100000
146.096300 85092.200000
148.112000 815482.500000
160.112100 2345617.500000
161.083300 21018.500000
162.127700 264227.600000
165.114900 235159.500000
188.107100 73441.100000
192.138200 7444008.500000
208.060900 18547.300000
208.133600 44384.700000
220.133200 6400698.500000
221.012400 7542.700000
248.128000 358629.700000
252.160300 8944.800000
280.154200 63261.000000

>ms2peaks
59.049100 6004.200000
77.038500 6022.000000
105.070000 19041.300000
107.085600 6521.200000
118.065100 9506.700000
119.085600 22277.100000
121.088800 44238.800000
130.065000 8668.800000
131.073000 21352.000000
132.080800 82709.100000
133.088700 255132.200000
134.096400 441764.100000
135.104200 12574.700000
144.081000 17706.600000
145.088700 179215.200000
146.096500 362228.200000
147.103900 8520.000000
148.112100 993806.100000
150.091300 38633.500000
158.096500 14914.800000
160.112100 5544791.500000
161.083100 26521.000000
162.127700 850713.900000
164.107200 21049.900000
165.114800 151325.500000
188.107100 51295.100000
192.138300 3197190.200000
208.133500 6901.400000
220.133200 607139.200000

>ms2peaks
56.049500 9933.900000
59.049100 16661.400000
79.054200 10951.300000
91.054300 38057.500000
103.054200 9496.700000
105.070000 154566.000000
106.077700 18073.000000
107.085400 31039.000000
117.057400 23102.500000
117.069900 21326.500000
118.065100 58075.300000
118.077900 5563.700000
119.073100 20578.900000
119.085600 94060.000000
120.080800 29579.700000
121.088700 63631.300000
121.100800 10644.200000
123.080600 18696.100000
128.062000 26937.200000
130.065200 113351.900000
131.073100 116322.800000
131.085300 13066.700000
132.080900 479417.300000
133.088700 460546.400000
133.100900 24619.400000
134.096500 859078.400000
135.104300 25902.000000
143.085700 13510.500000
144.080900 81281.300000
145.088700 889683.400000
146.096500 362006.400000
147.104400 35373.400000
148.112100 938620.500000
150.091500 95489.700000
158.096500 41717.400000
159.104300 9048.200000
160.112200 3941442.800000
161.083500 21341.500000
161.119800 18548.900000
162.127800 815599.600000
164.107100 45289.900000
165.115200 27131.500000
188.107400 11597.500000
192.138400 373084.400000
208.060600 18409.900000
220.133300 53107.300000

>ms2peaks
53.038600 7417.600000
56.049500 13600.200000
59.049200 13394.900000
77.038700 3900.200000
79.054200 79301.900000
91.054300 122752.200000
93.070000 11555.300000
95.049200 17800.200000
103.054300 42366.400000
104.062300 6258.500000
105.069900 419045.600000
106.065200 16618.700000
106.077800 42204.500000
107.085600 44521.800000
115.054200 25804.300000
116.062100 7110.700000
117.057400 80462.500000
117.070000 42009.100000
118.065100 128790.600000
118.077800 16746.000000
119.073000 29260.400000
119.085600 107731.300000
120.080900 65919.600000
121.088700 63901.200000
121.101200 10747.300000
122.096300 4616.200000
123.080500 21967.600000
128.062200 37905.900000
129.069900 5977.000000
130.065200 387875.200000
131.073000 164362.900000
131.085400 27476.800000
132.080900 903615.700000
133.088700 342345.200000
133.100800 31792.700000
134.096500 838452.200000
135.068000 12631.900000
135.104400 14358.800000
143.073200 10683.900000
143.085800 15499.100000
144.080900 268690.800000
145.088700 948652.100000
146.096500 173605.000000
147.104400 36876.800000
148.112100 599945.200000
149.083700 14084.600000
150.091400 74973.300000
158.096600 25313.400000
159.104100 12324.500000
160.112200 1428353.100000
161.083300 9618.000000
161.120100 10621.600000
162.127800 313412.100000
164.107100 43200.500000
192.138500 26590.400000

>ms2peaks
53.038500 19130.500000
56.049500 5664.000000
59.049200 16658.000000
77.038400 9660.400000
79.054200 191180.200000
91.054300 243165.200000
93.069900 17051.600000
95.049200 50021.500000
103.054200 117650.300000
104.062000 10961.400000
105.069900 549927.500000
106.065200 51199.800000
106.077700 51230.100000
107.085600 25132.900000
115.054300 72863.400000
116.062000 17593.400000
117.057300 211880.100000
117.069900 55985.700000
118.065100 191052.100000
118.077700 23553.200000
119.073100 37640.800000
119.085500 76944.100000
120.080800 104537.100000
121.088700 50695.400000
121.101000 10228.700000
122.096500 6688.800000
123.080500 16723.900000
128.062000 35666.200000
129.070000 8374.700000
130.065200 698516.500000
131.073000 127760.000000
131.085400 21287.300000
132.080800 1044848.200000
133.088600 208005.000000
133.100800 21988.200000
134.096400 740788.500000
135.067800 40174.300000
135.104400 4208.000000
143.073000 21601.300000
144.080800 494036.700000
145.088600 594351.700000
146.096400 90947.500000
147.104300 18831.200000
148.112100 285674.100000
149.083600 29120.000000
150.091300 34592.800000
158.096500 19984.100000
159.104400 4672.900000
160.112100 401759.000000
162.127700 66314.400000
164.107200 28351.000000

