>compound LU24894682
>parentmass 151.0866
>ionization [M+H]+
>formula C8H10N2O
>rt 269.680000
>profile orbitrap
#smiles_iso CN(C)C1=CC=C(C=C1)N=O
#smiles_can CN(C)C1=CC=C(C=C1)N=O
#inchikey CMEWLCATCRTSGF-UHFFFAOYSA-N
#pubchem_id 8749
#mb_accession LU090701,LU090702,LU090703,LU090704,LU090705,LU090706

>ms2peaks
119.060400 6312.400000
120.080700 34175.900000
121.088600 111364.900000
133.076000 41184.300000
134.083800 528029.100000
151.086600 6244475.500000

>ms2peaks
119.060300 7834.300000
120.080800 30009.200000
121.088600 101713.000000
133.076000 43754.300000
134.083800 528829.200000
151.086600 5978664.500000

>ms2peaks
68.049300 17716.300000
81.057300 5826.600000
82.065100 10022.800000
93.044700 26484.700000
94.065200 10807.000000
95.085600 4804.600000
96.080800 7434.000000
106.065100 6804.400000
107.072900 11486.600000
119.060400 43366.700000
120.080800 158335.900000
121.088600 238004.300000
124.075800 11161.800000
133.076100 314326.800000
134.083800 1787947.500000
136.075900 18346.900000
139.086900 5237.300000
151.086600 4712198.000000

>ms2peaks
55.041700 4022.100000
65.038600 4752.200000
66.033700 2757.900000
66.046400 3978.300000
68.049500 88197.100000
79.054300 2245.000000
80.049500 5431.200000
81.057400 19820.700000
82.065100 21576.400000
92.049400 19588.400000
93.044800 124385.200000
93.057300 10045.300000
94.065200 31916.300000
96.080800 3727.800000
106.052700 4192.700000
106.065200 19705.000000
107.060400 9573.700000
107.072900 33245.900000
108.080600 23194.200000
110.060000 2615.600000
118.065200 2784.000000
119.060500 209377.600000
120.080900 278017.600000
121.088700 181522.100000
124.075900 11036.000000
133.076100 975847.000000
134.083900 1959535.600000
136.075900 25160.100000
139.086800 3154.900000
151.086700 1497748.500000

>ms2peaks
53.038700 2417.800000
54.033900 2595.400000
55.041700 10934.700000
65.038500 26353.400000
66.033800 9285.400000
66.046300 13874.100000
67.054100 5654.800000
68.049400 239339.900000
78.033800 2733.300000
78.046300 4712.600000
79.054200 16721.400000
80.049500 10641.100000
81.057200 39750.300000
81.069900 3080.700000
82.065100 53712.700000
91.041600 13368.700000
92.049400 145285.600000
93.044700 377296.500000
93.057200 23603.000000
94.065100 61237.600000
95.048900 4039.900000
96.081100 2598.600000
104.049600 5217.400000
105.044800 3663.700000
105.057400 4405.300000
106.052400 10562.900000
106.065200 66083.600000
107.060300 24785.200000
107.072900 63067.700000
108.080800 19404.900000
110.060000 9059.700000
117.057500 5441.300000
118.052500 14248.200000
118.065300 5272.500000
119.060400 628656.700000
120.080800 419837.800000
121.088600 97314.500000
124.075900 10357.900000
132.068300 7425.800000
133.076000 2185311.000000
134.083800 1625940.900000
135.055500 3266.600000
136.075700 31772.700000
139.086800 2325.100000
151.086600 517871.100000

>ms2peaks
53.038700 6607.700000
54.033900 3241.200000
55.041600 10374.300000
65.038500 143012.300000
66.033800 49785.500000
66.046400 21560.100000
67.054200 7022.100000
68.049400 385001.500000
78.033800 24156.600000
78.046500 8715.500000
79.054200 55348.200000
80.049400 22985.100000
81.057300 48221.300000
82.065100 88993.300000
90.033900 4883.700000
91.041700 26757.700000
92.049500 535909.200000
93.044800 657389.300000
93.057300 56912.900000
94.065100 68123.300000
95.049000 11811.000000
104.049600 10237.200000
105.044600 14308.500000
105.057400 13737.100000
106.052600 9933.100000
106.065100 176651.900000
107.060400 36947.300000
107.072900 58157.700000
108.080800 39632.400000
110.060000 37805.800000
117.057200 15103.100000
118.052500 64879.800000
118.065000 7770.700000
119.060400 934915.400000
120.080800 412364.600000
121.088600 38284.000000
124.075900 14874.600000
132.068300 43832.600000
133.076000 2577303.000000
134.083800 758745.000000
135.055300 6810.400000
136.075700 26995.500000
150.078600 2944.200000
151.086600 134509.800000

