>compound LU24306026
>parentmass 234.18519999999998
>ionization [M+H]+
>formula C15H23NO
>rt 1085.460000
>profile orbitrap
#smiles_iso CC(C)N(CC1=CC=CC=C1)C(=O)C(C)(C)C
#smiles_can CC(C)N(CC1=CC=CC=C1)C(=O)C(C)(C)C
#inchikey RJKCKKDSSSRYCB-UHFFFAOYSA-N
#pubchem_id 92299
#mb_accession LU062201,LU062202,LU062203,LU062204,LU062205,LU062206

>ms2peaks
57.069900 480164.100000
84.080800 364494.300000
91.054200 8198311.500000
114.091300 208678.900000
126.127700 284445.700000
133.101100 145140.800000
142.122700 856487.100000
156.138600 98745.700000
192.138300 1149134.400000
234.185200 27311796.000000

>ms2peaks
57.069900 1445041.900000
58.065100 56984.600000
65.038400 45449.500000
84.080800 1137081.000000
85.064700 40700.000000
91.054200 25349574.000000
105.069700 60565.300000
114.091300 492100.400000
126.127700 447227.000000
133.101100 412959.900000
142.122600 1705142.000000
156.138400 103526.000000
192.138200 2426977.800000
234.185200 13212962.000000

>ms2peaks
57.069900 2005174.500000
58.065100 135363.700000
65.038500 186656.000000
84.080800 1219059.500000
91.054200 39789340.000000
105.069800 169192.400000
114.091300 242023.200000
126.127700 74146.400000
133.101100 454318.000000
142.122600 618832.400000
192.138200 760935.500000
234.185200 753611.300000

>ms2peaks
57.069900 1825689.000000
58.065100 157448.800000
65.038500 563343.600000
84.080800 599778.400000
91.054200 40842812.000000
105.069900 262711.800000
114.091300 53405.100000
133.101200 318472.800000
142.122700 102750.400000
192.138100 80788.200000

>ms2peaks
57.069900 1574143.900000
58.065100 135393.300000
63.022900 49389.900000
65.038600 1597385.500000
84.080800 218498.300000
91.054200 41536000.000000
105.069900 311114.200000
133.101100 158680.000000

>ms2peaks
53.002200 58230.000000
57.069900 1057430.200000
58.065100 120222.100000
63.022900 81042.900000
65.038500 3478224.800000
79.054100 35695.700000
84.080800 64369.100000
91.054200 34640012.000000
105.069900 189452.900000
117.069900 69027.700000
133.101000 57020.600000

