>compound LU24842607
>parentmass 249.0902
>ionization [M+H]+
>formula C12H13ClN4
>rt 815.760000
>profile orbitrap
#smiles_iso CCC1=C(C(=NC(=N1)N)N)C2=CC=C(C=C2)Cl
#smiles_can CCC1=C(C(=NC(=N1)N)N)C2=CC=C(C=C2)Cl
#inchikey WKSAUQYGYAYLPV-UHFFFAOYSA-N
#pubchem_id 4993
#mb_accession LU136301,LU136302,LU136303,LU136304,LU136305,LU136306

>ms2
233.057900 21084.600000
249.090100 15351452.000000

>ms2
177.021100 32657.800000
233.058200 45723.400000
234.067100 18499.900000
249.089900 16065729.000000

>ms2
56.049500 15933.700000
60.055600 23413.800000
152.026100 85399.800000
163.030700 65547.800000
177.021300 1176213.200000
190.042000 37668.800000
196.087000 21614.000000
197.094900 35030.000000
207.068300 184057.400000
213.113500 69862.800000
232.063400 115273.900000
233.058800 1072386.600000
234.066600 295986.000000
249.090000 13143248.000000

>ms2
56.049500 88406.300000
60.055600 58785.700000
82.052500 12098.500000
95.060200 6325.000000
103.054100 9031.500000
115.054300 5927.800000
116.049600 11515.900000
117.057200 37883.400000
125.015200 83381.800000
127.054300 10648.900000
128.062000 160313.000000
129.009900 5646.000000
129.069800 6764.900000
130.077600 13291.800000
139.005800 11984.600000
142.052500 8879.300000
143.060500 11807.800000
145.064800 54250.400000
145.088300 27693.100000
149.015100 25982.400000
150.010400 27136.500000
150.023300 5263.200000
152.026100 337370.400000
154.065100 63999.500000
155.060600 64037.900000
155.072900 141504.700000
161.002300 5517.800000
163.030800 556392.400000
165.021500 14897.400000
165.046600 11877.100000
169.076100 10182.700000
170.083500 7761.500000
171.091300 11304.300000
172.099300 25584.300000
177.021300 4523870.500000
178.041500 7361.000000
179.036400 15534.200000
179.060400 9397.800000
180.057200 53265.600000
180.067900 12343.800000
182.071900 5558.400000
188.026600 31106.100000
190.041800 142850.000000
191.037000 12382.800000
191.049300 41585.000000
192.044700 39170.600000
194.048300 21740.800000
196.086900 114460.200000
197.083100 9562.300000
197.094600 125409.400000
198.089900 122043.200000
199.097500 29626.500000
204.032200 11227.000000
205.052700 24580.500000
207.068200 454689.300000
213.113400 181677.600000
214.120400 5782.500000
215.037100 44705.800000
217.040100 38547.700000
232.063500 128188.100000
233.058700 4073998.000000
234.066600 296105.200000
247.074600 14615.500000
249.090000 5211192.500000

>ms2
56.049500 136013.800000
57.057400 5299.900000
60.055600 33263.200000
67.029000 9472.500000
68.024300 5357.100000
68.049400 10178.800000
78.033800 6082.200000
81.044700 8556.800000
82.052500 19607.000000
85.050800 7011.300000
86.999600 16536.300000
89.038600 5118.000000
103.054200 37132.800000
110.999600 7471.300000
111.044200 4787.400000
114.033700 4861.600000
115.054200 52582.500000
116.049500 31795.200000
117.057300 165265.000000
122.999600 8483.700000
125.015300 170065.800000
127.054100 43700.700000
128.062000 672962.300000
129.010100 75390.200000
129.069700 18722.300000
130.065200 28740.500000
130.077600 24648.300000
131.060400 5164.800000
132.068200 5363.800000
137.015500 8601.600000
137.082300 10757.300000
138.010500 21010.100000
139.005700 150496.100000
140.049400 16342.200000
142.052500 70874.600000
143.060500 25690.100000
143.072900 9560.800000
144.080800 19422.500000
145.064800 199948.300000
145.088500 59873.300000
149.015300 72599.600000
150.010400 79086.100000
150.022200 13604.100000
151.018200 5752.900000
152.026200 300949.500000
153.057400 29316.200000
154.065100 212957.200000
155.060600 239099.400000
155.072800 299183.500000
156.068100 18220.100000
157.075800 18986.700000
159.079400 6461.100000
161.002600 31049.200000
162.010800 8274.700000
162.023100 12305.900000
163.030900 716403.900000
164.026300 8994.400000
165.021300 24478.100000
165.046500 7077.700000
168.021600 4853.600000
169.076100 26991.300000
170.060200 10918.500000
170.084100 15398.400000
171.091600 15768.100000
172.099300 39106.200000
174.010600 8600.900000
175.018100 5911.200000
176.013800 8007.800000
177.021400 4542482.000000
178.029800 5203.300000
178.041700 8795.500000
179.036600 12991.000000
179.060400 37731.600000
180.057100 48966.800000
180.068100 22227.300000
181.063700 5950.600000
181.075700 5904.900000
182.071900 17399.400000
188.026200 52155.300000
189.021800 15260.300000
190.041800 175756.100000
191.037100 26503.600000
191.049600 58073.400000
192.033700 6233.800000
192.044700 58679.700000
194.048400 6280.000000
196.086900 186621.000000
197.082300 82538.400000
197.094800 81666.400000
198.090000 884822.600000
199.097600 35685.100000
204.031900 6366.300000
205.053400 15815.700000
207.068300 187483.800000
213.113400 144602.400000
215.037100 39891.800000
216.032100 32340.800000
217.039900 30230.300000
232.051500 6541.900000
232.063700 30739.500000
233.058800 4114431.200000
234.066500 63581.900000
247.074600 10290.700000
249.090100 755438.600000

>ms2
56.049400 139136.700000
57.057300 4949.700000
60.055600 32512.300000
67.029000 37536.500000
68.024300 12546.100000
68.049400 13697.600000
74.096400 4030.600000
75.022800 34175.400000
78.033800 10642.000000
79.017800 13081.100000
81.044600 6013.900000
82.052600 20128.200000
85.050800 5673.800000
86.999600 90711.200000
89.038500 22201.300000
94.041300 10083.300000
95.060400 5248.200000
96.044400 5883.700000
103.054200 56751.300000
110.999400 37707.800000
111.044000 27837.900000
114.033500 14479.200000
115.054100 179629.100000
116.049400 42853.600000
117.057200 308898.200000
122.999500 52216.900000
125.015200 253505.600000
127.054200 139655.800000
128.062000 1497839.600000
129.010100 293714.800000
129.069700 32366.900000
130.065100 96392.500000
130.077500 30070.000000
131.060300 9859.500000
131.073000 6645.100000
132.068400 3699.400000
137.015300 22248.500000
137.082200 9813.900000
138.010500 37355.000000
139.005700 564764.600000
140.049400 81851.300000
142.052500 156542.700000
143.060300 22028.800000
143.072900 21902.800000
144.056400 4779.100000
144.080600 28138.000000
145.064700 341074.600000
145.088500 50333.400000
149.015200 120955.900000
150.010500 157137.700000
150.023000 13855.500000
151.018400 21427.200000
152.026100 146356.700000
153.046500 3836.000000
153.057300 73177.500000
154.065000 489004.900000
155.060400 523418.200000
155.072500 285281.800000
156.068100 233004.200000
157.076000 41291.100000
158.071300 11085.400000
159.079800 4843.400000
161.002600 210011.000000
162.010500 29173.200000
162.022700 26714.900000
163.030800 467279.100000
164.026100 44585.200000
165.021300 36072.100000
165.033500 4516.500000
168.020900 17047.200000
169.075900 71969.200000
170.060100 29366.500000
170.084000 12910.300000
171.091300 25647.800000
172.099300 21025.700000
174.010400 84548.500000
175.018400 9949.000000
176.013500 11984.100000
177.021300 2861832.000000
178.029100 6605.700000
178.041400 6938.200000
179.060200 93580.400000
180.068200 28577.700000
181.063300 86446.100000
181.075800 8822.000000
182.071300 28686.800000
185.081600 7566.100000
188.026200 43137.900000
189.021300 106420.300000
190.041700 186021.700000
191.037100 56998.400000
191.049500 36875.600000
192.032400 16582.100000
192.044900 49156.300000
196.086900 167330.200000
197.082300 150174.700000
197.094500 23977.200000
198.089900 2251844.500000
199.097600 23232.100000
204.031800 5920.400000
205.052900 7086.800000
207.068100 43855.600000
213.113400 71155.900000
215.037300 11879.400000
216.032200 147215.700000
217.040300 16881.100000
232.050500 6334.600000
232.062900 4106.700000
233.058700 2404844.200000
234.066200 4085.100000
247.074500 4773.200000
249.090100 66438.300000

