>compound LU24009809
>parentmass 257.0808
>ionization [M+H]+
>formula C15H12O4
>rt 1002.960000
>profile orbitrap
#smiles_iso C1=CC=C(C=C1)COC(=O)C2=CC=CC=C2C(=O)O
#smiles_can C1=CC=C(C=C1)COC(=O)C2=CC=CC=C2C(=O)O
#inchikey XIKIUQUXDNHBFR-UHFFFAOYSA-N
#pubchem_id 31736
#mb_accession LU072901,LU072903,LU072905,LU072906

>ms2peaks
91.054200 3451.500000

>ms2peaks
91.054400 3116.100000
135.044200 5482.400000

>ms2peaks
91.054400 3050.200000
135.044100 5693.500000
165.069800 3863.200000

>ms2peaks
91.054300 2897.200000
135.044300 5645.700000
165.070100 4925.000000

