>compound LU25064319
>parentmass 168.1383
>ionization [M+H]+
>formula C10H17NO
>rt 928.620000
>profile orbitrap
#smiles_iso C1CCC(CC1)N2CCCC2=O
#smiles_can C1CCC(CC1)N2CCCC2=O
#inchikey PZYDAVFRVJXFHS-UHFFFAOYSA-N
#pubchem_id 81278
#mb_accession LU068801,LU068802,LU068803,LU068804,LU068805,LU068806

>ms2
55.054100 88714.200000
69.033300 14642.300000
83.085400 451061.100000
86.060000 4288426.000000
168.138100 14006965.000000

>ms2
55.054100 83510.600000
69.033300 16635.300000
83.085400 438874.000000
86.060000 4285615.500000
168.138200 12740867.000000

>ms2
53.038600 10921.700000
55.054200 557824.400000
69.033400 86864.100000
83.085400 1596941.500000
86.059900 10096474.000000
168.138100 5591518.000000

>ms2
53.038600 35127.500000
55.054200 1686512.200000
68.049500 27420.100000
69.033500 282370.800000
83.085500 1947628.000000
86.060000 11270349.000000
168.138300 1325247.600000

>ms2
53.002200 29210.300000
53.038600 51731.600000
55.054200 2694954.200000
58.065100 11655.200000
68.049500 62959.000000
69.033400 576559.000000
83.085500 1221176.100000
86.060000 9219283.000000
168.138200 191626.500000

>ms2
53.002200 60851.000000
53.038600 59870.200000
53.997500 11600.500000
55.054200 3089235.200000
58.065200 18408.500000
68.049500 84764.000000
69.033500 815228.500000
83.085500 639644.700000
84.044500 8230.300000
86.060000 7185792.000000
168.138100 24660.400000

