>compound LU25982654
>parentmass 291.0895
>ionization [M+H]+
>formula C15H15ClN2O2
>rt 1078.020000
>profile orbitrap
#smiles_iso CN(C)C(=O)NC1=CC=C(C=C1)OC2=CC=C(C=C2)Cl
#smiles_can CN(C)C(=O)NC1=CC=C(C=C1)OC2=CC=C(C=C2)Cl
#inchikey IVUXTESCPZUGJC-UHFFFAOYSA-N
#pubchem_id 16115
#mb_accession LU091301,LU091302,LU091303,LU091304,LU091305,LU091306

>ms2peaks
72.044300 2572890.500000
164.094400 189129.900000
291.089400 14695985.000000

>ms2peaks
56.013200 23088.800000
72.044400 9914442.000000
118.065100 35617.600000
119.073000 77674.600000
126.994600 13330.400000
147.067900 106382.600000
149.070800 13854.800000
163.086500 37916.600000
164.094500 661841.300000
218.036700 140397.300000
246.031500 32853.900000
256.120800 10091.600000
291.089600 3172446.800000

>ms2peaks
56.013100 54576.900000
72.044300 11069132.000000
73.039600 13311.700000
94.041300 12412.900000
106.065100 53527.100000
118.065100 162822.600000
119.073000 131414.500000
120.080700 28043.000000
126.994400 27794.000000
147.067900 82789.700000
149.070900 26364.800000
163.030800 36441.900000
163.086700 68118.800000
164.094500 160712.700000
218.036700 506843.700000
246.032200 16400.200000
291.089600 68612.400000

>ms2peaks
56.013100 96779.900000
72.044300 11041997.000000
73.039600 11998.300000
94.041400 11599.000000
98.999600 16752.300000
106.065100 83046.300000
118.065100 205181.000000
119.073100 33876.800000
120.080900 28553.200000
126.994500 35763.400000
128.062000 57164.000000
129.010200 15004.700000
139.005800 29183.900000
145.065000 14584.800000
147.068000 13042.100000
154.065300 16226.100000
155.060400 26038.400000
155.072900 16226.400000
163.030800 266689.300000
163.086400 42560.400000
183.068000 30620.100000
190.041800 59432.200000
218.036700 428098.900000

>ms2peaks
56.013100 172487.400000
72.044300 9668572.000000
75.022900 21268.100000
79.054200 13118.300000
86.999600 23512.600000
94.041400 10901.100000
98.999600 46151.500000
106.065100 91010.600000
108.044400 13293.000000
110.999600 13941.500000
118.065100 139758.000000
120.080900 17647.600000
126.994700 13237.900000
127.054200 11029.100000
128.062000 195975.400000
129.010100 80095.000000
139.005700 141583.100000
145.064800 59276.800000
149.015300 17619.300000
154.065100 41919.000000
155.060400 81150.800000
155.072600 41764.900000
163.030800 258708.300000
168.056900 21968.400000
175.031200 12264.900000
183.067900 38384.900000
190.041800 63712.300000
191.025700 11146.400000
218.036600 136190.500000

>ms2peaks
56.013100 239712.200000
71.060400 10874.500000
72.044300 7635223.000000
75.022900 106240.200000
79.054200 21313.700000
86.999700 43242.300000
91.054200 10467.800000
94.041300 12898.400000
98.999600 45229.400000
103.054200 13690.800000
106.065200 73048.400000
108.044500 22061.900000
110.999500 44352.400000
111.044100 14574.600000
118.065100 121288.100000
120.080800 11096.000000
127.054300 17485.700000
128.062000 266108.800000
129.010200 128218.200000
132.044800 12318.600000
139.005700 239945.600000
145.064700 68269.500000
149.015300 26549.700000
154.065100 57559.100000
155.060400 103107.000000
155.072300 30059.900000
163.031000 101211.900000
168.056900 21783.300000
175.030500 8527.700000
183.067900 28093.400000
190.041900 25205.600000
218.036700 16231.000000

