>compound LU25486873
>parentmass 338.0522
>ionization [M+H]+
>formula C8H15N7O2S3
>rt 483.880000
>profile orbitrap
#smiles_iso C1=C(N=C(S1)N=C(N)N)CSCCC(=NS(=O)(=O)N)N
#smiles_can C1=C(N=C(S1)N=C(N)N)CSCCC(=NS(=O)(=O)N)N
#inchikey XUFQPHANEAPEMJ-UHFFFAOYSA-N
#pubchem_id 3325
#mb_accession LU112101,LU112102,LU112103,LU112104,LU112105,LU112106

>ms2
71.060300 159040.800000
113.017200 4952.400000
155.038200 14816.000000
157.054600 2612.200000
189.026300 791916.600000
242.052600 19723.900000
259.079400 2520842.000000

>ms2
54.033800 15805.800000
71.060400 705151.400000
113.016800 5929.400000
138.012200 6099.700000
155.038600 176786.300000
157.055000 10816.200000
171.999200 3692.300000
189.026400 3312082.500000
242.053100 31925.500000
259.079500 181745.300000

>ms2
54.033800 37839.100000
71.060300 610160.600000
86.005900 2342.500000
102.011900 15986.300000
113.016800 79350.200000
115.032600 2305.700000
133.006800 4079.200000
138.012000 66930.100000
147.004500 57514.000000
155.038600 1182545.600000
156.046100 4927.000000
157.054300 5129.800000
171.999900 29377.900000
189.026300 1786920.400000
242.053100 8172.900000

>ms2
54.033800 89179.200000
61.010600 2992.200000
69.044700 6990.000000
71.060300 688910.700000
84.985500 2501.800000
85.050800 8432.800000
86.005900 14890.000000
88.021600 4421.800000
102.012000 49457.600000
103.032300 3817.300000
113.016800 623791.700000
114.024700 5911.600000
115.032400 5711.400000
131.027200 3044.800000
133.006500 4303.900000
134.059700 2680.400000
138.012000 425479.600000
147.004500 149053.800000
155.038500 2128917.500000
156.022400 4531.800000
156.046300 30505.000000
157.054400 5496.800000
170.038300 6051.900000
171.999700 92327.100000
189.026300 527944.900000

>ms2
54.033900 134871.000000
61.010800 2670.200000
68.024400 7649.200000
69.044700 26041.700000
70.995000 117738.300000
71.060400 506445.600000
76.021500 3410.300000
79.029200 7479.900000
84.985300 3175.900000
85.050900 32554.000000
86.005900 56002.200000
88.021600 15937.800000
102.012100 43890.800000
103.032500 7999.000000
111.001300 13756.700000
113.016900 1212435.500000
114.024700 31891.400000
115.032500 9293.100000
131.027500 7004.900000
138.012200 706855.700000
139.020000 9646.200000
145.043500 5855.600000
147.004600 68738.400000
155.038700 930300.900000
156.022900 8586.300000
156.046500 52605.200000
170.038600 9413.700000
171.999900 39681.600000
189.026500 53666.200000

>ms2
54.033900 213376.400000
61.010700 7020.800000
68.024300 22106.700000
69.044700 62703.200000
70.995000 370978.000000
71.060400 365756.300000
76.021600 6093.300000
79.029100 13654.100000
84.985600 7295.800000
85.050900 78209.100000
86.005900 150866.000000
88.021600 18274.100000
102.012100 37764.900000
103.032400 6677.300000
111.001200 30598.500000
113.016800 1226403.800000
114.024600 88675.100000
115.032700 5410.400000
131.027400 9493.400000
138.012100 560523.400000
139.020000 29868.700000
145.042900 5846.700000
147.004500 21655.400000
155.038600 204990.500000
156.022500 6267.300000
156.046500 36617.900000
170.038500 5155.000000
171.999900 5751.800000

