>compound LU25105061
>parentmass 163.039
>ionization [M+H]+
>formula C9H6O3
>rt 996.660000
>profile orbitrap
#smiles_iso CC1=CC2=C(C=C1)C(=O)OC2=O
#smiles_can CC1=CC2=C(C=C1)C(=O)OC2=O
#inchikey ZOXBWJMCXHTKNU-UHFFFAOYSA-N
#pubchem_id 88069
#mb_accession LU019401,LU019402,LU019403,LU019405,LU019406

>ms2peaks
53.038600 6603.400000
77.038700 6125.700000
79.054200 15221.400000
92.025600 4254.000000
95.049200 19375.400000
105.033500 65188.400000
107.049000 4710.800000
133.028400 205671.000000
135.044100 156669.000000
163.039000 3128898.200000

>ms2peaks
53.038600 4038.100000
77.038500 3570.600000
79.054200 9501.700000
92.025500 4290.900000
95.049100 11598.300000
105.033500 21132.000000
107.049400 3082.800000
133.028500 146819.200000
135.044100 122319.000000
163.039000 2259109.200000

>ms2peaks
51.023100 2205.500000
53.038600 35236.100000
55.018000 2141.100000
77.038300 10858.000000
79.054200 64984.600000
81.033500 5976.300000
91.054100 2191.400000
92.025600 12321.000000
94.041400 4090.900000
95.049200 116782.900000
105.033500 52000.100000
107.049100 13718.700000
120.020800 1844.900000
133.028400 373118.200000
135.044100 393939.000000
138.031200 11256.300000
163.039000 1206909.800000

>ms2peaks
50.015100 9204.900000
51.022900 22220.900000
53.038600 265082.500000
55.017900 16409.200000
63.022900 4347.700000
64.030800 4105.700000
67.054200 4476.500000
68.997000 1889.800000
77.038500 97512.400000
79.054200 130728.200000
81.033500 27539.900000
91.054300 12643.900000
92.025700 335339.400000
94.041400 27702.300000
95.049200 806031.500000
105.033600 209151.400000
107.049200 18432.700000
120.020700 12148.700000
133.028500 193209.200000
135.044100 226757.700000
138.031200 55057.900000
163.039000 93108.900000

>ms2peaks
50.015200 17042.200000
51.022900 45415.400000
53.038600 247341.300000
55.017800 10918.200000
63.022900 18837.300000
64.030700 12133.300000
67.054200 8393.500000
68.996900 1952.200000
77.038500 153187.600000
79.054200 50362.700000
81.033500 25139.800000
91.054300 10363.500000
92.025700 528521.800000
94.041400 29490.000000
95.049200 745040.700000
105.033600 105459.400000
107.049200 5819.200000
120.020700 6780.800000
133.028500 57917.000000
135.044100 58799.000000
138.031200 31337.500000
163.039000 13318.600000

