>compound LU26396790
>parentmass 116.0165
>ionization [M+H]+
>formula C4H5NOS
>rt 233.640000
>profile orbitrap
#smiles_iso CN1C(=O)C=CS1
#smiles_can CN1C(=O)C=CS1
#inchikey BEGLCMHJXHIJLR-UHFFFAOYSA-N
#pubchem_id 39800
#mb_accession LU122801,LU122802,LU122803,LU122804,LU122805,LU122806

>ms2
54.033800 5926.600000
58.028700 8706.800000
61.010600 7176.600000
70.995000 105063.300000
73.010600 50594.300000
84.974300 17646.000000
86.989900 8978.600000
88.021600 15608.400000
98.005900 73055.700000
98.989900 117045.300000
100.992900 27457.400000
116.016500 5144558.000000

>ms2
54.033900 6142.300000
58.028800 6079.400000
61.010700 10991.600000
70.995000 106964.400000
73.010600 51620.300000
84.974200 19656.700000
86.989900 11518.600000
88.021600 18765.500000
98.005900 76077.900000
98.989900 129888.100000
100.993000 29159.600000
116.016500 5816225.500000

>ms2
54.033800 5746.900000
58.028700 7103.400000
58.994900 8250.600000
61.010700 8824.600000
68.979300 5256.000000
69.033500 5315.500000
69.974600 6260.700000
70.995000 106430.100000
73.010700 55411.500000
84.974200 19133.100000
86.989900 7647.400000
88.021700 18562.000000
98.005900 84681.100000
98.989900 124636.700000
100.993100 34424.000000
116.016500 4811703.500000

>ms2
53.002300 6802.400000
54.033800 30113.000000
57.987100 7975.300000
58.028700 50016.000000
58.994900 17569.400000
59.990200 9580.800000
61.010600 23501.100000
62.005900 7301.400000
68.979300 10773.300000
69.033400 23603.800000
69.974500 19835.500000
70.995000 359145.200000
72.044300 7114.800000
73.010600 118562.100000
84.974300 77070.400000
86.989900 19558.100000
88.021600 35635.500000
98.005900 185380.300000
98.989900 256205.500000
100.993000 151032.700000
114.001000 9289.600000
116.016400 4214433.000000

>ms2
52.018200 8082.300000
53.002200 17232.400000
54.033900 63406.300000
55.017900 7120.200000
56.979400 10757.800000
57.987200 8108.100000
58.028800 105606.400000
58.995000 44095.700000
59.966400 7577.500000
59.990100 12413.500000
61.010600 31444.800000
62.006000 15577.900000
68.979300 17774.000000
69.033500 46059.700000
69.974600 44891.900000
70.995000 552152.000000
72.044400 9032.000000
72.998000 15963.300000
73.010600 150634.900000
74.005800 5228.600000
83.036500 3875.700000
83.990200 3628.200000
84.974300 148536.800000
86.990000 29070.000000
88.021600 39598.600000
98.005900 252738.300000
98.989900 278774.500000
100.993000 314156.100000
114.000900 7995.900000
116.016500 2729453.500000

>ms2
52.018200 12277.500000
53.002200 50058.300000
54.033900 84964.500000
55.017900 9458.500000
56.979400 20202.400000
57.987200 21359.700000
58.028800 193544.500000
58.995000 67185.400000
59.966500 13348.600000
59.990300 19863.700000
61.010700 34221.700000
62.005900 19779.200000
68.979300 18382.900000
69.033500 57902.200000
69.974600 71669.500000
70.995000 637849.700000
72.044400 10120.600000
72.998100 49325.500000
73.010600 110448.100000
74.005800 3394.900000
83.036700 3566.600000
83.990400 6360.000000
84.974300 224097.600000
86.990000 23923.900000
88.021600 25886.700000
98.005900 209880.600000
98.989900 209284.300000
100.993000 464893.500000
114.001000 11551.000000
116.016500 1531231.000000

