>compound LU26707341
>parentmass 204.1019
>ionization [M+H]+
>formula C12H13NO2
>rt 977.760000
>profile orbitrap
#smiles_iso CCCCN1C(=O)C2=CC=CC=C2C1=O
#smiles_can CCCCN1C(=O)C2=CC=CC=C2C1=O
#inchikey DLKDEVCJRCPTLN-UHFFFAOYSA-N
#pubchem_id 73812
#mb_accession LU093101,LU093102,LU093103,LU093104,LU093105,LU093106

>ms2peaks
160.112100 47029.300000
176.106600 32296.500000
189.078100 67401.100000
204.101700 27249724.000000

>ms2peaks
118.064900 27995.500000
132.080400 34709.800000
145.088700 56444.500000
148.112000 84672.500000
160.112000 166087.500000
176.106700 90099.600000
189.078200 142924.300000
204.101700 26050856.000000

>ms2peaks
67.017800 20570.700000
70.065000 35652.900000
91.054200 101827.700000
103.054200 62425.800000
105.069900 45701.500000
115.054200 45266.900000
116.062000 63161.000000
117.057400 115770.600000
117.069900 95830.100000
118.065100 223615.600000
120.080800 22736.900000
130.065200 161016.800000
131.049200 47010.300000
131.073000 242907.300000
132.080800 418212.200000
133.088600 136634.400000
134.096600 22983.300000
138.091500 33622.300000
144.080800 513619.200000
145.088600 736532.400000
146.096400 159621.000000
148.112100 1646950.400000
158.096500 176780.600000
159.044000 57630.300000
159.104300 131039.700000
160.112100 1017708.900000
161.083500 505589.000000
162.091600 63573.500000
164.070300 31207.700000
174.091500 26572.000000
176.107000 806998.800000
188.070200 47237.600000
189.078500 508551.800000
204.101900 18670482.000000

>ms2peaks
53.038600 8083.600000
55.041700 12240.800000
56.049400 25538.700000
67.017700 76974.400000
67.054200 43833.300000
68.049400 13751.300000
70.065000 192443.700000
72.044300 26271.000000
77.038400 8595.900000
79.054100 69949.600000
81.069900 10439.400000
82.065000 21571.800000
91.054200 328655.200000
93.069600 13299.600000
94.065100 24887.200000
95.049200 18657.900000
96.044300 26751.100000
103.054100 360914.500000
104.049300 20279.700000
104.061800 17099.500000
105.069800 332161.300000
106.065100 46375.400000
107.049000 20118.000000
107.072800 21963.300000
107.085500 52793.100000
108.080800 12555.100000
109.064600 12970.100000
115.054200 249841.600000
116.062000 249262.500000
117.057200 389642.700000
117.069700 258938.800000
118.065000 592280.800000
119.072800 45021.200000
119.085300 33087.100000
120.080700 99365.800000
121.088500 114195.800000
122.059700 8423.000000
122.096300 13640.900000
123.068000 8085.400000
128.061900 26685.500000
129.069900 39777.400000
130.065100 513979.600000
131.049100 161476.000000
131.072900 561590.800000
132.056900 87787.500000
132.080700 1108791.500000
133.088500 1164513.600000
134.059900 30721.000000
134.096300 121235.500000
135.080200 12738.500000
136.075600 94740.000000
137.083200 10411.100000
138.091400 68847.900000
143.072900 78550.500000
144.080700 1737799.600000
145.088500 1483633.400000
146.059900 71006.200000
146.096300 556021.700000
147.067900 62405.700000
147.104000 80979.100000
148.111900 5330286.500000
158.096300 540613.600000
159.043900 120187.500000
159.104200 365151.500000
160.075600 272504.300000
160.112000 1003956.200000
161.083400 2065219.600000
162.091200 165542.700000
164.070200 108569.300000
174.091200 95696.300000
175.099100 69180.400000
176.106800 1011500.400000
186.091300 22965.500000
187.098700 18902.700000
188.070400 347198.900000
189.078200 686364.300000
202.086200 26156.100000
203.093800 21825.200000
204.101700 7536605.000000

>ms2peaks
53.038600 26109.200000
55.017800 16207.000000
55.041700 37046.100000
55.054300 7277.300000
56.049500 46060.400000
58.065100 11565.000000
63.022900 10193.200000
65.038400 29753.200000
67.017800 78570.200000
67.054200 80329.700000
68.049500 14046.400000
70.065100 345015.200000
72.044300 52942.600000
77.038600 17889.900000
78.046400 10016.700000
79.054200 283457.300000
81.057300 6754.300000
81.069800 7589.100000
82.065100 43342.000000
89.038500 12181.100000
90.046100 6465.800000
91.054200 544234.600000
92.049100 5469.100000
93.057300 10831.200000
93.070000 19373.000000
94.041300 8401.600000
94.065100 49463.600000
95.049100 56000.600000
96.044300 23811.300000
102.046400 9536.600000
103.054200 718385.400000
104.049400 25255.600000
104.062000 78853.000000
105.069800 731648.400000
106.065000 56342.100000
107.049100 34804.000000
107.072900 48540.600000
107.085400 81311.500000
108.080800 43795.700000
109.064900 20160.700000
115.054200 498519.300000
116.062000 370320.800000
117.057300 416512.800000
117.069800 248874.800000
118.065000 1034966.900000
119.049200 11345.900000
119.072800 56710.300000
119.085500 27966.000000
120.080700 233713.100000
121.088600 375039.300000
122.059900 10940.700000
122.096600 37004.800000
123.067700 14365.500000
128.061900 31282.100000
129.069800 32625.800000
130.065100 578396.100000
131.049100 192447.000000
131.072900 478756.700000
132.056900 160819.000000
132.080700 1805636.500000
133.088500 2423925.000000
134.060100 40201.000000
134.096300 198918.500000
136.075700 197970.200000
137.083600 14816.100000
138.091300 47057.800000
142.065300 9704.800000
143.072900 157424.600000
144.080800 2087335.000000
145.088600 841128.400000
146.059900 179445.200000
146.096400 771037.600000
147.067900 92623.500000
147.104200 253117.300000
148.112000 4493634.500000
157.088500 18522.000000
158.096400 594880.900000
159.043900 48385.600000
159.068000 27617.300000
159.104200 310700.500000
160.051800 84035.600000
160.075600 1026565.400000
160.112000 264688.200000
161.083400 2241148.500000
162.091300 109608.700000
164.070500 110533.900000
165.078100 13331.600000
174.091300 138803.900000
175.099100 97837.800000
176.106900 321095.800000
186.091700 14907.800000
187.099100 8362.700000
188.070500 776645.900000
189.078300 319060.600000
202.086100 15652.400000
203.094300 15386.000000
204.101800 1278167.100000

>ms2peaks
53.038600 63431.900000
55.017900 24179.200000
55.041700 79366.800000
55.054300 9040.900000
56.049500 47443.400000
58.065100 12691.300000
63.022900 11790.600000
65.038500 71604.000000
67.017800 68095.300000
67.054200 117000.200000
68.049400 32687.000000
70.065100 305415.500000
72.044300 60371.700000
77.038300 38231.000000
78.046300 35845.200000
79.054200 586787.700000
81.057400 7325.700000
81.069800 12827.800000
82.065200 49467.800000
89.038500 25576.300000
90.046500 12156.600000
91.054200 771143.100000
92.049500 15445.400000
93.057300 20559.600000
93.069800 28941.900000
94.041600 8336.700000
94.065100 69868.100000
95.049100 190949.400000
96.044400 30221.200000
102.046400 36202.200000
103.054200 961294.800000
104.049400 35396.700000
104.062000 190633.200000
105.069900 851797.300000
106.065100 94835.600000
107.049100 38289.100000
107.073000 96025.100000
107.085500 50016.400000
108.080700 81526.900000
109.064700 17608.200000
115.054200 904366.800000
116.062100 482074.900000
117.057300 452435.000000
117.069900 218924.600000
118.065100 1550294.500000
119.049200 11446.600000
119.072900 74566.600000
119.085600 20690.700000
120.080800 580965.900000
121.088600 607156.100000
122.060100 12678.200000
122.096400 43539.600000
123.067800 15012.800000
128.061900 34590.600000
129.069800 33994.500000
130.065200 581672.900000
131.049200 287956.300000
131.073000 383378.800000
132.057200 244912.100000
132.080800 3119530.800000
133.088500 2444539.200000
134.060100 40224.100000
134.096300 194512.200000
135.080400 6092.500000
136.075700 197884.200000
137.083400 20569.200000
138.091000 29857.600000
142.065100 63151.700000
143.073000 202825.300000
144.080800 1871904.100000
145.088500 268887.700000
146.060000 301096.000000
146.096400 987470.200000
147.067800 55325.300000
147.104200 348749.900000
148.112000 1971591.400000
157.088800 34452.100000
158.096400 519581.900000
159.043900 19009.900000
159.067700 45448.800000
159.104200 116902.200000
160.075600 1910585.100000
161.083400 1229537.800000
162.091100 31860.200000
164.070300 59132.100000
165.078600 8226.700000
174.091300 145790.100000
175.099400 65724.400000
176.107000 66271.700000
188.070500 910579.800000
189.078300 73381.200000
202.085700 5290.300000
204.102000 136886.300000

