>compound LU26627727
>parentmass 198.1277
>ionization [M+H]+
>formula C14H15N
>rt 749.880000
>profile orbitrap
#smiles_iso C1=CC=C(C=C1)CNCC2=CC=CC=C2
#smiles_can C1=CC=C(C=C1)CNCC2=CC=CC=C2
#inchikey BWLUMTFWVZZZND-UHFFFAOYSA-N
#pubchem_id 7656
#mb_accession LU035901,LU035902,LU035903,LU035904,LU035905,LU035906

>ms2peaks
65.038600 18789.200000
91.054200 11271238.000000
106.065100 598058.800000
181.101100 1179556.000000
198.127600 3609627.800000

>ms2peaks
65.038600 17267.600000
91.054200 13117997.000000
106.065200 528038.400000
166.077800 28254.400000
181.101200 968188.600000
198.127800 1672907.000000

>ms2peaks
65.038500 75194.600000
79.054000 24709.500000
91.054200 15894285.000000
106.065100 332285.900000
165.070000 24267.900000
166.077700 103722.200000
179.085600 19474.300000
181.101100 327758.500000
198.127400 142591.200000

>ms2peaks
65.038500 237992.900000
79.054200 60358.100000
91.054200 17538496.000000
93.057200 18786.400000
106.065100 215915.500000
165.069900 79594.600000
166.077800 125081.900000
179.085100 21183.700000
181.101200 59936.300000
198.127400 26709.100000

>ms2peaks
65.038600 726768.000000
79.054200 66293.300000
91.054200 16631599.000000
93.057200 17060.200000
106.065100 116057.500000
141.070100 22730.700000
165.069900 93648.100000
166.077800 68539.800000

>ms2peaks
63.022900 48375.600000
65.038500 1848407.200000
79.054200 64590.900000
91.054200 14932918.000000
93.057200 23329.600000
106.065100 68326.500000
141.069800 17816.800000
165.069900 115505.600000
166.077800 31563.300000

