>compound LU26225815
>parentmass 609.2807000000001
>ionization [M+H]+
>formula C33H40N2O9
>rt 919.800000
>profile orbitrap
#smiles_iso CO[C@H]1[C@@H](C[C@@H]2CN3CCC4=C([C@H]3C[C@@H]2[C@@H]1C(=O)OC)NC5=C4C=CC(=C5)OC)OC(=O)C6=CC(=C(C(=C6)OC)OC)OC
#smiles_can COC1C(CC2CN3CCC4=C(C3CC2C1C(=O)OC)NC5=C4C=CC(=C5)OC)OC(=O)C6=CC(=C(C(=C6)OC)OC)OC
#inchikey QEVHRUUCFGRFIF-MDEJGZGSSA-N
#pubchem_id 5770
#mb_accession LU101301,LU101302,LU101303,LU101304,LU101305,LU101306

>ms2
195.065400 20714.300000
397.212200 70399.000000
577.254700 11644.200000
609.281200 3288257.800000

>ms2
70.065100 3210.200000
71.049100 4113.900000
94.065100 6569.900000
106.065100 4059.400000
111.044000 6960.600000
120.080800 4826.200000
123.080000 4399.000000
126.091300 3817.200000
131.085600 3279.800000
132.080300 5240.800000
144.080800 3138.400000
148.075600 34561.800000
159.067700 4059.200000
160.075500 29012.400000
161.083300 3547.800000
162.091100 11930.700000
163.075200 2838.400000
167.070400 7038.700000
172.075800 6092.400000
174.091300 814060.600000
175.075100 6345.800000
176.107100 21937.400000
178.086100 10131.600000
181.086000 3210.600000
186.091400 11388.500000
187.075400 3297.300000
188.107000 33808.800000
190.086000 9250.700000
192.101700 111177.400000
193.086000 4736.400000
195.065200 1514302.600000
199.098600 2662.100000
200.107100 30117.800000
201.102600 6347.000000
204.102100 31382.600000
207.101600 4703.800000
212.106900 5067.200000
214.109900 9353.500000
215.117700 31824.400000
222.112200 17618.200000
224.128000 116612.400000
227.117600 5539.200000
228.125100 7820.400000
229.133700 10026.000000
236.128000 226813.600000
238.122700 7078.000000
248.107300 3432.100000
250.121600 5127.200000
253.133700 8036.100000
262.122800 3502.700000
265.133200 3465.800000
276.138800 7902.000000
288.138200 11072.500000
289.144900 4199.700000
290.117300 7175.400000
304.132900 8277.800000
305.165000 7274.000000
316.133400 9109.900000
322.143800 17388.600000
333.159900 14557.400000
336.159600 64795.200000
337.190000 7351.200000
348.159500 37429.800000
365.185900 221092.700000
368.149300 23190.700000
368.185300 36619.500000
382.188000 4732.200000
395.196700 7737.400000
397.212200 799740.200000
402.154700 5351.700000
413.207200 13436.100000
434.180500 22875.700000
448.196700 383912.000000
577.254600 59086.200000
609.280600 365105.200000

>ms2
53.038700 2881.900000
56.049600 6076.800000
65.038500 4189.100000
67.054200 2722.600000
68.049400 3402.100000
70.065100 8873.100000
71.049000 12671.100000
75.044000 5262.100000
79.054200 18081.900000
80.049400 7277.100000
81.033600 6101.400000
81.069900 11754.200000
85.028400 4219.800000
91.054200 21682.700000
93.070000 3911.100000
94.041400 3101.100000
94.065100 27483.000000
95.049100 4993.600000
96.057000 3562.800000
97.064900 7970.400000
101.059500 3134.000000
103.054200 3392.800000
105.069800 7638.600000
106.065000 12862.300000
108.056900 8909.300000
108.080700 5998.600000
109.064700 25451.100000
111.044000 28170.000000
111.080500 5392.600000
113.023500 2940.400000
113.059900 3034.200000
115.054300 8351.300000
116.062000 2636.500000
117.069900 9440.300000
118.065000 16212.300000
120.080800 25425.600000
121.028600 3046.200000
121.064800 7515.200000
122.036100 8174.200000
122.072300 3818.400000
123.080400 9027.100000
124.051700 15405.000000
126.091700 3954.500000
128.046800 6314.400000
129.069900 6168.800000
130.065500 12319.000000
131.048900 3970.100000
131.072900 21414.100000
131.085600 9385.200000
132.080700 33722.700000
135.044700 3500.600000
135.080700 3617.700000
136.075700 7834.500000
137.059700 5275.100000
139.075400 53681.000000
141.018200 8529.000000
142.065200 6515.400000
143.073100 37688.200000
144.080700 35236.700000
145.064700 5194.000000
145.088700 7580.700000
146.059900 5008.200000
146.096400 5466.200000
147.068300 6642.900000
147.080200 24998.800000
148.075700 46526.900000
149.059800 10501.200000
150.091400 8700.300000
151.038500 3805.100000
152.046800 54255.300000
156.041600 14691.900000
156.080500 3217.800000
157.088500 3769.700000
158.059900 7348.500000
159.067900 76927.800000
160.075700 82882.300000
161.059900 5826.900000
161.083400 31165.200000
162.091400 22498.300000
163.075500 5375.500000
164.106700 12998.100000
167.070200 21272.700000
169.086100 6365.500000
172.075500 18017.100000
173.083400 14822.400000
174.091400 1406106.100000
175.075300 11924.900000
176.107000 17077.200000
178.085900 12519.500000
179.069700 6134.000000
181.086400 6404.600000
183.068900 2719.700000
184.037300 3604.900000
184.075600 7961.900000
185.081100 40496.800000
186.091400 34091.400000
187.075500 3522.200000
187.099300 11592.500000
188.107100 49146.000000
190.085900 19121.700000
192.101900 112830.400000
193.086000 7871.500000
195.065200 1562412.200000
197.083200 4598.800000
198.091400 11396.400000
199.087000 4728.100000
199.099000 15423.700000
200.107000 52912.900000
201.102200 10951.900000
204.101900 53867.500000
206.117500 4599.400000
207.101900 3133.300000
210.091500 10355.100000
211.098400 5583.100000
212.106700 12615.800000
213.102300 4328.400000
214.109700 15500.600000
215.118000 16356.900000
222.111900 4847.700000
223.098800 4391.700000
224.106800 10285.500000
224.128000 35627.900000
225.114800 2915.100000
226.122800 8855.300000
227.117800 25544.300000
228.125000 4476.900000
229.133900 3602.600000
234.091100 3163.500000
235.098800 4151.800000
236.108300 12903.200000
236.128200 107862.800000
237.102800 3866.500000
237.114900 12254.200000
238.110000 4032.900000
238.122400 19367.100000
239.117900 3356.800000
247.099800 3367.100000
248.108200 12249.700000
249.115000 6936.900000
250.109400 4008.700000
250.122500 11873.100000
251.117900 11344.600000
252.125300 7310.200000
253.133600 14219.100000
260.107100 3725.100000
261.114500 6892.000000
262.122400 14258.200000
264.125200 5774.600000
264.139400 4384.100000
265.133300 25323.500000
273.114300 6131.900000
274.122400 13407.000000
276.138200 32115.100000
288.138300 18445.700000
289.146900 6213.500000
290.117200 7108.900000
291.149000 6343.900000
304.133400 15417.600000
305.165000 10159.900000
316.133400 6380.300000
322.143700 10063.000000
333.159200 8727.400000
336.159100 34457.500000
337.192100 4086.100000
348.158900 11099.400000
350.162900 13227.100000
364.171700 4523.600000
365.186100 91624.900000
368.148700 3871.900000
368.185900 4578.400000
382.188800 8162.300000
395.196000 6444.500000
397.212300 47295.300000
402.153400 5087.400000
413.208900 3147.600000
434.181800 4860.000000
448.197300 16915.100000

>ms2
53.038600 23989.400000
55.017800 2878.200000
55.054400 6620.400000
56.049500 9751.700000
65.038500 13890.500000
66.046500 3033.600000
67.054200 14098.700000
68.049500 5710.000000
69.033500 2963.700000
70.065100 9695.100000
71.049000 17728.700000
75.044000 11897.500000
77.038500 3484.900000
78.046400 4377.800000
79.054200 83296.000000
80.049400 12932.900000
81.033500 47399.400000
81.069900 42336.100000
82.065000 4312.000000
83.049100 3909.100000
85.028400 4018.900000
91.054200 59701.600000
92.049500 3656.400000
93.033400 6517.600000
93.057400 5604.000000
93.069900 7442.200000
94.041400 15314.400000
94.065200 30026.300000
95.049200 45469.400000
96.057000 33621.700000
97.064800 8902.300000
99.044000 3565.900000
101.059700 5978.600000
103.054200 12551.600000
105.033500 3033.900000
105.044700 12772.500000
105.069800 9995.500000
106.041500 2770.300000
106.065100 16912.000000
107.049100 10935.900000
107.072800 5345.900000
108.056900 25062.900000
108.080700 9196.700000
109.028600 9038.200000
109.064800 63621.900000
111.044000 22252.000000
111.080500 11797.600000
113.023300 4111.900000
113.059700 11460.800000
115.054200 37294.700000
116.062200 8774.000000
117.057200 13408.500000
117.069900 22096.200000
118.065100 17429.500000
119.049300 6325.300000
119.085500 3264.100000
120.081000 23014.700000
121.028600 9076.800000
121.064900 19837.500000
122.036300 46354.200000
122.072700 4545.300000
123.044300 3920.200000
123.080400 5932.000000
124.051900 84367.500000
125.059900 5708.400000
128.047100 7227.600000
128.062100 4108.800000
129.069800 12294.100000
130.065200 45836.500000
131.049000 7026.400000
131.073000 136746.000000
132.044500 2935.400000
132.057100 9527.400000
132.080900 43253.100000
133.064900 5942.900000
134.060200 4077.400000
135.044000 6305.000000
135.080300 6240.500000
136.075800 6075.200000
137.023200 15038.700000
137.059700 5866.300000
139.075400 140520.400000
141.018400 10150.500000
142.065200 27959.600000
143.073000 148964.600000
144.056800 10036.000000
144.080800 51589.700000
145.052100 8902.200000
145.064900 10062.100000
145.088600 13397.500000
146.060100 22435.900000
146.096500 11139.000000
147.068000 17851.700000
147.080400 43033.700000
148.075800 33889.700000
149.059800 14064.300000
150.091500 4832.400000
151.039100 19054.600000
152.046800 191622.200000
154.064000 5631.600000
156.041600 21346.700000
156.080800 7678.200000
157.088600 9335.100000
158.060100 14063.500000
158.072500 3235.900000
159.067900 348186.100000
160.075700 86570.800000
161.059900 8604.900000
161.083600 32218.500000
162.091300 15755.600000
163.075600 3929.900000
164.107200 6133.000000
167.070400 27469.400000
168.080700 4353.400000
169.051700 2664.500000
169.088500 8023.700000
170.059400 8874.600000
171.067900 5223.400000
172.075800 20814.600000
173.083700 45004.000000
174.091400 903891.600000
175.075000 6808.300000
176.107000 9522.700000
178.086500 7038.300000
179.070100 3033.800000
181.087800 7737.900000
182.059800 3940.100000
183.068200 3909.900000
184.036800 10891.800000
184.076100 19229.000000
185.081400 55308.200000
186.091400 40412.700000
187.099300 15951.000000
188.107200 25418.700000
190.086200 10729.800000
192.102000 30275.800000
193.087200 4693.000000
195.065300 603064.700000
196.075800 5964.700000
197.083400 12383.800000
198.091400 25341.600000
199.086700 21329.500000
199.099200 11501.000000
200.106600 22623.800000
201.102300 6033.700000
204.081400 3288.700000
204.101900 15148.100000
205.088300 5169.200000
206.096500 5839.900000
206.118100 5355.800000
207.104000 4328.200000
210.091200 17614.300000
211.099500 6437.300000
212.094300 8746.300000
212.106900 9520.500000
213.102500 6258.000000
214.109400 5894.900000
215.117600 6793.000000
220.075300 3403.700000
221.083700 3269.300000
222.091300 14216.900000
223.087400 4296.800000
223.099300 8333.400000
224.107100 19780.400000
225.102900 5057.000000
225.114300 3757.900000
226.122400 3508.000000
227.118400 13895.700000
231.103600 6184.700000
234.091300 9364.100000
235.086800 2652.300000
235.099500 7169.600000
236.095000 3722.400000
236.106900 13482.100000
236.128200 7746.800000
237.102500 6347.700000
237.114800 9475.900000
238.110800 3473.200000
238.122600 15890.300000
239.117800 10156.300000
245.120300 6591.000000
246.091100 7275.100000
247.099100 10520.600000
248.106800 20915.800000
249.102300 7843.700000
249.114900 6129.700000
250.109700 6699.800000
250.122900 11502.000000
251.117900 32479.000000
252.125100 3473.100000
253.133700 9895.300000
258.091700 6392.500000
259.099200 3785.500000
260.106900 15281.100000
261.115100 10603.700000
262.122800 15606.500000
264.125500 7161.000000
264.139400 4113.400000
265.133600 26584.300000
273.114700 5518.000000
274.123300 12490.200000
276.101800 3121.000000
276.137500 16570.300000
288.139100 6406.200000
290.117300 5028.600000
291.149000 6252.900000
304.133100 4413.400000
305.164300 7909.100000
336.158900 3791.300000
350.161900 7799.100000
364.173900 2717.900000
365.185300 8535.900000

>ms2
51.023000 4096.900000
53.038600 75400.100000
55.017800 6836.000000
55.054300 8127.300000
56.049400 4716.500000
65.038600 31025.000000
66.046400 15088.000000
67.054200 22670.300000
68.025600 3744.800000
68.049400 4715.100000
68.996800 3474.200000
69.033400 5792.800000
70.065000 3896.200000
71.049100 13546.700000
75.044100 7231.500000
77.038500 7858.700000
78.046500 15402.500000
79.054200 123475.900000
80.049400 16954.600000
81.033500 141959.800000
81.069900 44583.000000
82.041300 3404.100000
82.065200 4395.300000
83.049200 4882.300000
85.028500 3951.600000
90.046500 3516.500000
91.054300 89935.700000
92.025700 10212.700000
92.049500 6282.200000
93.033400 16253.300000
93.057300 12985.400000
93.069900 4478.200000
94.041400 27162.600000
94.065200 23529.700000
95.049200 101108.200000
96.057000 76427.100000
97.064900 12109.100000
99.044100 4123.700000
101.059900 3214.100000
103.054300 20970.300000
104.049600 4285.000000
104.062200 5829.500000
105.033600 11817.900000
105.044800 31436.700000
105.069900 16037.300000
106.041300 6070.400000
106.065300 15225.500000
107.012800 12021.000000
107.049100 14163.900000
107.072900 8556.500000
108.057000 36421.200000
108.080600 5129.500000
109.028400 25919.200000
109.064900 67900.200000
111.044200 20383.200000
111.080500 15013.200000
113.059700 14227.900000
115.054200 70509.800000
116.062100 17003.000000
117.057400 41764.900000
117.069900 23142.000000
118.041300 3353.600000
118.065100 25875.600000
119.049300 8180.100000
119.073200 5504.900000
119.085600 7790.300000
120.080900 10224.400000
121.028500 32844.000000
121.065000 19834.200000
122.036200 69613.500000
122.072800 5101.200000
123.044300 8988.500000
123.080400 3131.500000
124.051900 100777.200000
125.060100 2950.800000
128.062200 9900.100000
129.069900 16831.800000
130.065200 137017.700000
131.073000 379664.100000
132.044400 11182.600000
132.057000 13083.200000
132.080800 35763.500000
133.052300 9444.600000
133.064800 8914.300000
134.059900 5011.000000
135.080500 8603.500000
136.075400 7139.600000
137.023400 59994.300000
139.075400 95911.400000
141.018400 5317.900000
142.065200 26644.100000
143.073000 250962.400000
144.057000 11841.600000
144.080800 59752.000000
145.052200 19695.600000
145.065000 11740.900000
145.088600 19535.900000
146.060000 40024.400000
146.096400 7547.700000
147.068100 20919.400000
147.080500 32735.300000
148.075700 21823.900000
149.059800 7229.500000
150.091400 2780.500000
151.039100 64232.500000
152.046900 207134.000000
154.065300 12279.000000
155.060400 7320.400000
155.072900 11405.100000
156.042200 4325.200000
156.080600 13656.300000
157.088700 15869.200000
158.060100 41714.300000
158.072100 3538.300000
159.068000 421509.400000
160.075800 72457.300000
161.059800 4596.400000
161.083500 21161.800000
162.091400 9972.500000
164.107000 3061.100000
167.072000 11962.100000
168.081100 10046.800000
169.088600 7512.400000
170.060200 26471.900000
171.068100 6322.700000
172.075700 30429.800000
173.083700 62406.700000
174.091500 368336.800000
180.080700 5702.400000
181.088400 6470.600000
182.060000 8915.100000
182.096200 6379.400000
183.068100 13364.100000
184.036700 8574.100000
184.063400 4139.800000
184.076000 31048.600000
184.099000 5871.300000
185.071000 4759.800000
185.082100 25332.200000
186.091600 30910.000000
187.099000 6230.700000
188.107100 11129.100000
190.086400 4630.500000
192.081000 6130.900000
192.102200 5025.500000
193.088700 9337.000000
194.096200 7467.900000
195.065400 117303.700000
196.076100 10644.700000
197.083500 12383.700000
198.091700 21499.300000
199.086800 19591.800000
199.098200 5242.400000
200.107200 8276.400000
201.102700 4332.600000
204.080900 8153.300000
205.088800 11072.100000
206.096300 6936.100000
207.092300 2812.700000
208.075900 10895.500000
209.083500 5267.500000
210.091300 21220.600000
211.087600 3739.400000
211.099500 7570.900000
212.094600 6052.900000
212.106300 4628.100000
213.102300 6520.100000
217.088800 9675.500000
218.096400 9340.600000
219.104700 4857.400000
220.075700 7218.100000
221.083900 6675.800000
222.090800 17575.100000
222.115000 3462.800000
223.087000 6053.500000
223.099600 7561.600000
224.107000 12403.600000
225.102100 3853.100000
227.118200 6154.600000
230.096500 9636.200000
231.104500 7051.100000
232.075700 7946.200000
232.112400 4834.600000
233.083200 9320.700000
233.119700 4445.100000
234.091600 10658.600000
235.086400 3980.500000
235.099700 6817.600000
236.094500 9991.000000
236.107300 12298.200000
237.102400 10215.500000
237.114700 3639.900000
238.110500 4791.100000
238.122600 4197.500000
239.118200 6214.600000
244.111300 5011.300000
245.120000 4122.000000
246.091100 17400.000000
247.099100 14576.700000
248.107400 12788.200000
249.102300 14016.600000
249.115400 5214.800000
250.110000 9068.000000
250.123100 3961.000000
251.118000 28675.800000
253.134700 5729.200000
258.091300 5750.300000
259.100200 5070.200000
260.107500 9778.800000
261.114900 8205.400000
262.123000 9655.300000
263.118000 3459.700000
265.133700 11919.400000
273.114900 4667.700000
274.123100 6595.000000
276.101100 3363.900000
276.139500 3814.500000
290.119000 3405.200000

>ms2
51.023000 7170.400000
53.038700 130911.300000
55.017800 10639.000000
55.054300 7141.200000
56.049500 5868.800000
65.038600 43816.600000
66.046400 34793.800000
67.054200 33756.900000
68.025600 5337.400000
68.049500 3631.700000
68.997000 3701.400000
69.033400 4465.800000
70.065100 4948.700000
71.049100 7916.600000
75.044200 4705.000000
77.038400 17924.300000
78.046400 30958.600000
79.054200 93519.900000
80.049500 19726.400000
81.033500 216420.500000
81.069900 27435.200000
82.041300 6164.600000
83.049200 4551.500000
85.028400 4082.500000
90.046500 5835.400000
91.054300 115150.700000
92.025700 20590.300000
92.049500 6274.700000
93.033600 12116.500000
93.057400 18150.900000
93.069900 5076.100000
94.041400 39992.000000
94.065200 17660.100000
95.049200 127024.900000
96.057000 72583.700000
99.043900 4957.200000
103.054300 30564.900000
104.049400 6239.300000
104.062200 13085.000000
105.033700 15092.300000
105.044800 35714.400000
105.069900 15812.600000
106.041500 7215.500000
106.065100 15422.300000
107.012900 28904.500000
107.049300 13580.400000
107.072900 7069.300000
108.057000 31979.600000
108.080600 3214.800000
109.028500 49046.000000
109.064900 32744.200000
111.044200 16553.800000
111.080400 4654.800000
113.059800 6984.500000
115.054300 100595.800000
116.062100 26120.100000
117.057400 75512.700000
117.070100 21133.800000
118.041400 4327.100000
118.065100 25208.300000
119.049200 7291.300000
119.073100 3262.300000
119.086000 3032.800000
120.080700 8543.700000
121.028500 57553.700000
121.064700 14589.700000
122.036300 59396.700000
123.044100 8059.600000
124.052000 49258.400000
125.059900 2557.200000
128.062200 13957.500000
129.069800 11223.100000
130.065200 291586.300000
131.073000 517768.400000
132.044600 23557.800000
132.049600 3600.600000
132.051400 2148.700000
132.056700 16957.700000
132.080800 20215.400000
133.052300 9510.100000
133.065000 7399.400000
134.060100 8857.000000
135.044400 3583.700000
135.080800 4345.500000
136.075700 5433.200000
137.023400 88340.900000
139.075500 24728.900000
142.065300 35235.500000
143.073100 236116.400000
144.057300 12281.400000
144.080900 55042.400000
145.052300 27309.200000
145.065000 7482.500000
145.088700 14731.000000
146.060100 46255.800000
146.096200 4902.700000
147.068100 17756.800000
147.080500 17017.700000
148.075800 11651.100000
151.039000 85202.900000
152.046900 86096.100000
154.065300 20007.100000
155.060600 6253.500000
155.073000 20453.800000
156.080900 17871.100000
157.088700 16714.900000
158.060100 60813.600000
158.072000 3179.300000
159.068000 280272.200000
160.075800 43205.200000
161.083800 5952.500000
168.081000 16309.600000
169.052000 7494.600000
169.088700 5442.600000
170.060100 37761.100000
171.068100 5821.900000
172.075700 25113.400000
173.083600 44962.600000
174.091500 105840.400000
180.080700 19081.300000
181.088200 13248.600000
182.060600 12673.800000
182.096900 5111.700000
183.068100 12839.300000
184.062700 4052.600000
184.076100 18488.500000
184.099700 5461.400000
185.071000 3124.100000
186.091400 10300.100000
192.080800 15181.400000
193.088700 12874.900000
194.096800 11446.300000
195.066200 17504.800000
196.076000 11636.300000
197.083500 8160.600000
198.091700 9290.000000
199.087000 12395.200000
204.081000 28917.700000
205.088500 15838.600000
206.096500 11178.500000
207.091800 10080.200000
207.103300 4554.200000
208.075900 15543.200000
209.083900 5142.400000
210.091400 14188.800000
211.086700 3809.700000
212.094800 4881.200000
217.088500 15640.900000
218.096300 17338.500000
219.104800 7025.200000
220.076000 9255.300000
221.083800 7589.900000
222.091700 13731.200000
222.115100 3390.900000
223.087500 5345.500000
223.098800 5274.500000
224.107100 6059.000000
225.102200 3563.100000
230.096600 14765.100000
231.104000 8863.400000
232.075800 8495.800000
232.112300 7092.200000
233.083700 8279.600000
233.120300 4962.700000
234.090900 14209.200000
235.087000 4586.900000
235.099300 4024.400000
236.094400 12132.600000
236.106400 4572.300000
237.101800 3355.000000
239.119000 3977.100000
244.112100 4023.600000
246.091200 20355.600000
247.099300 7625.600000
248.107200 6386.100000
249.102400 10901.200000
250.110200 6244.400000
251.117900 10614.500000
260.107900 8012.700000
262.123500 5567.300000
263.117900 4560.200000

