>compound LU26171783
>parentmass 334.1680999999999
>ionization [M+H]+
>formula C18H24ClN3O
>rt 1158.600000
>profile orbitrap
#smiles_iso CC(C)C1CCC(C1(CN2C=NC=N2)O)CC3=CC=C(C=C3)Cl
#smiles_can CC(C)C1CCC(C1(CN2C=NC=N2)O)CC3=CC=C(C=C3)Cl
#inchikey QTYCMDBMOLSEAM-UHFFFAOYSA-N
#pubchem_id 86211
#mb_accession LU091101,LU091102,LU091103,LU091104,LU091105,LU091106

>ms2peaks
70.040000 2454783.000000
125.016500 55657.300000
191.062400 25342.400000
247.124500 42154.200000
334.168100 19313804.000000

>ms2peaks
67.054000 21585.500000
69.069800 19024.100000
70.039900 16199353.000000
81.069900 27381.500000
83.085400 31584.900000
95.085600 61355.200000
97.101400 22412.600000
109.101200 174659.800000
121.101200 21078.400000
125.015300 344853.900000
139.031000 31957.500000
151.030900 77645.000000
163.030900 49351.200000
165.046600 36774.800000
177.046600 95459.500000
191.062200 210581.200000
205.078200 23258.300000
247.124700 63240.400000
334.168100 2428860.000000

>ms2peaks
55.054300 28674.400000
59.049000 25304.200000
67.054200 61215.600000
69.069800 29370.900000
70.039900 15264843.000000
79.054200 17379.200000
81.069900 45973.600000
83.085400 24514.200000
95.085400 66197.000000
109.101200 161999.100000
121.101200 23922.900000
125.015300 1096830.400000
139.030900 47997.900000
151.031000 101856.000000
163.030800 118150.500000
165.046400 38610.800000
177.046500 85819.600000
191.062100 115255.000000
334.168300 24105.900000

>ms2peaks
55.054300 48593.300000
59.049100 39625.600000
67.054200 170750.000000
69.069800 55205.800000
70.039900 21115594.000000
79.054200 49112.100000
81.069900 90202.400000
89.038300 28268.400000
93.070000 41031.300000
95.085500 77628.900000
109.101100 130111.600000
115.054300 34320.100000
116.062000 36483.300000
125.015200 2414308.800000
128.062100 49823.700000
130.077500 26338.900000
139.030800 53971.500000
142.077600 44703.900000
149.015300 25043.400000
151.030900 116665.500000
155.060300 24677.700000
156.093300 47475.900000
163.030800 173473.700000
165.046800 28469.700000
177.046300 48209.000000
191.062200 41303.900000

>ms2peaks
55.054300 35592.000000
59.049200 25349.000000
67.054200 95469.700000
69.069800 20354.700000
70.039900 11640693.000000
79.054100 33760.100000
81.069900 51611.700000
89.038600 70203.800000
91.054300 13234.000000
93.069900 18964.700000
95.085500 35561.400000
98.999600 32698.400000
103.054200 22833.500000
109.101100 24345.100000
115.054200 42476.900000
116.062000 66812.300000
125.015300 1671503.000000
128.062000 66138.900000
129.070100 17200.700000
130.077800 25458.800000
139.030800 16288.400000
141.069800 27696.800000
142.077800 41099.500000
145.064800 13998.600000
149.015200 22351.000000
151.030900 41302.300000
155.060600 18646.300000
156.093500 19032.300000
163.031000 36865.000000

>ms2peaks
53.038700 29327.600000
55.054200 101570.100000
59.049000 39010.400000
65.038600 27819.200000
67.054200 195554.100000
69.069800 39584.600000
70.039900 23045004.000000
79.054100 77043.900000
81.069900 78237.100000
89.038600 488529.300000
91.054300 45463.100000
93.070000 26721.300000
95.049000 32804.300000
95.085500 28841.400000
98.999600 200352.500000
103.054200 64105.100000
115.054200 149602.500000
116.062000 157061.500000
125.015300 3499989.500000
128.062000 178623.700000
129.069600 47499.200000
130.077700 54140.700000
141.069900 100195.000000
142.077700 72119.300000
145.064900 26362.900000
149.015500 42360.700000
151.030800 27054.400000
155.060500 34925.400000
163.030700 27286.100000

