>compound LU26527241
>parentmass 480.2129
>ionization [M+H]+
>formula C26H29N3O6
>rt 894.960000
>profile orbitrap
#smiles_iso CC1=C(C(C(=C(N1)C)C(=O)OCCN(C)CC2=CC=CC=C2)C3=CC(=CC=C3)[N+](=O)[O-])C(=O)OC
#smiles_can CC1=C(C(C(=C(N1)C)C(=O)OCCN(C)CC2=CC=CC=C2)C3=CC(=CC=C3)[N+](=O)[O-])C(=O)OC
#inchikey ZBBHBTPTTSWHBA-UHFFFAOYSA-N
#pubchem_id 4474
#mb_accession LU044201,LU044202,LU044203,LU044204,LU044205,LU044206

>ms2
58.065100 15853.700000
91.053900 91712.300000
148.112000 1981566.200000
166.122600 5241185.500000
315.097400 3472395.000000
359.123600 905976.900000
480.213000 12738328.000000

>ms2
58.065100 81914.600000
65.038500 16196.100000
74.060000 43601.800000
91.054200 2583126.500000
105.069900 298257.000000
148.112000 6358727.000000
166.122600 3495956.000000
210.090800 22309.900000
226.086400 42819.100000
239.081500 12529.000000
254.080700 54327.300000
255.076400 14825.500000
267.089300 34832.000000
268.096200 41024.700000
269.104700 196398.500000
283.071100 194842.200000
297.087000 12014.000000
298.094700 209083.700000
299.078600 65011.000000
301.094700 36143.100000
313.082200 24785.300000
315.097300 11556859.000000
331.091800 39686.000000
359.123700 2837430.000000
480.213700 47583.100000

>ms2
56.049500 18014.600000
58.065100 95417.000000
65.038500 68471.400000
67.015900 9263.000000
67.017900 114614.300000
74.060000 113166.400000
84.044500 8676.800000
91.054300 8664739.000000
105.069900 627487.700000
111.044100 101851.900000
117.070200 9582.300000
119.085500 17018.100000
148.112100 2481003.200000
165.078400 36570.700000
166.122700 819693.800000
168.057100 9877.800000
168.080900 24589.300000
171.067800 10169.500000
171.104200 36676.800000
173.083600 18091.300000
176.034300 12015.500000
180.065600 24133.300000
181.088800 14620.300000
182.096600 21776.600000
183.104200 30191.400000
184.112400 13859.300000
192.065800 12418.200000
193.109800 74812.900000
196.075700 26604.400000
197.068400 59387.100000
197.083800 19673.900000
198.091200 31042.700000
199.099300 14395.300000
200.034400 34604.100000
202.086500 10233.100000
208.075600 22622.300000
209.083300 98375.500000
210.091400 345010.400000
211.087100 12444.200000
211.099100 92068.400000
212.094800 8848.500000
213.077900 10560.800000
214.049900 14078.500000
214.086300 24060.300000
215.094200 18863.400000
217.060900 35527.100000
225.078600 21344.900000
226.086300 862203.000000
227.081600 78407.700000
228.052900 11923.000000
228.101600 23124.400000
229.110000 32296.200000
235.062700 14708.100000
236.070500 62292.400000
237.065900 14188.600000
237.078700 26569.600000
238.073900 49623.900000
239.081500 111388.800000
239.094000 9427.800000
240.065800 16182.000000
240.089400 12338.700000
240.102300 42697.900000
241.060700 25205.900000
241.073600 62110.900000
241.109600 37954.400000
242.081000 74471.800000
243.089100 101915.300000
249.086600 26189.100000
253.073500 31507.200000
254.081200 635229.100000
255.076400 204365.600000
255.089000 12560.300000
256.097000 88713.100000
257.068700 11159.900000
257.091500 48900.000000
257.104700 34731.800000
266.069000 28057.600000
267.089100 272001.900000
268.096900 688227.400000
269.104800 1484089.800000
270.061700 30245.400000
270.099500 63992.000000
280.084900 9531.500000
281.092000 33157.100000
283.071300 842441.200000
284.092100 67009.400000
285.063600 49598.000000
285.099700 25642.200000
287.102500 32201.600000
297.087300 67022.300000
298.095000 1023281.500000
299.078900 423162.000000
301.094600 797259.400000
313.082000 94411.200000
313.130500 74460.800000
315.097600 3914430.000000
317.089300 9873.500000
327.097400 59313.100000
331.092200 25564.400000
345.121000 138694.800000
359.123900 1270538.000000

>ms2
56.049400 18821.400000
58.065100 71956.400000
65.038500 205880.400000
67.017800 753520.900000
74.060000 71450.300000
79.054100 24422.900000
91.054200 11599317.000000
103.054200 13245.900000
105.069900 504027.500000
106.065100 12140.200000
111.044000 148033.800000
128.062000 16361.400000
133.052100 24193.000000
134.060000 55140.600000
140.061700 22298.500000
141.070000 12359.600000
148.112000 409695.200000
150.055100 20779.000000
153.069700 16212.800000
154.065000 14193.800000
158.096500 15526.400000
165.070000 12542.100000
165.078300 142607.400000
166.064900 13173.000000
166.122700 92355.500000
167.072800 17945.900000
168.057200 39849.300000
168.080700 179541.700000
169.088500 13043.000000
170.059700 14721.000000
170.096300 14724.300000
171.067700 26258.500000
171.104200 82829.700000
172.075300 16512.200000
173.083600 44659.600000
174.055000 31186.500000
176.034100 86615.000000
179.073000 27516.100000
179.093700 18296.600000
180.056700 24202.600000
180.065500 117502.200000
180.080600 117387.600000
181.088500 144172.100000
182.096400 140604.500000
183.104200 79274.500000
184.075700 36099.300000
184.111800 15477.000000
185.083300 20460.200000
186.054700 24939.700000
186.091200 12077.800000
189.065600 27556.400000
192.065500 15458.000000
192.101700 59123.700000
193.088400 12317.100000
193.109700 185066.000000
194.060100 26357.600000
194.096300 25360.200000
195.067900 13721.300000
196.075700 175176.700000
196.111700 28487.300000
197.068300 319989.400000
197.083100 57410.100000
198.054600 12100.400000
198.091300 88484.300000
199.098800 12124.300000
200.034200 91190.400000
200.070600 30255.600000
202.086000 27463.400000
207.067800 53325.000000
208.075700 352091.500000
209.083400 333779.800000
210.091300 1072129.800000
211.086900 14550.200000
211.099100 242451.800000
212.070600 40962.000000
213.078300 38444.800000
214.049400 17294.700000
214.085900 53519.500000
215.094300 28223.600000
217.060700 84929.300000
221.071100 24538.800000
222.054800 19900.400000
223.062400 21092.300000
224.070500 43043.900000
224.106600 17080.500000
225.078200 64006.000000
226.086200 1643824.900000
227.081500 100342.800000
228.065300 12903.700000
228.101600 30336.800000
229.109700 12938.300000
231.088900 12144.700000
235.062800 55324.900000
236.070500 389421.500000
237.065500 23195.700000
237.078300 77472.500000
238.073400 58011.400000
238.086000 23440.500000
239.081200 47500.400000
239.093900 31655.500000
240.065500 46271.100000
240.089300 11705.300000
240.101700 163163.200000
241.060500 26147.600000
241.073100 265192.600000
241.109500 34841.700000
242.068400 12221.200000
242.080900 73857.200000
243.089000 326784.700000
249.065800 30401.000000
249.086700 18153.500000
252.065300 18744.100000
253.073200 105347.000000
253.097000 14717.400000
254.081100 818862.400000
255.076000 141435.200000
255.089300 29162.200000
256.096700 124831.400000
257.068100 43911.400000
257.091500 26594.400000
257.104900 13682.000000
266.068400 59139.400000
267.053300 36680.900000
267.089000 202494.200000
268.096700 984802.100000
269.069100 106032.200000
269.104700 672783.000000
270.062200 34293.300000
270.099500 36713.000000
281.091800 97411.400000
283.070600 236940.100000
284.091800 44037.200000
285.063100 168668.100000
285.099300 11711.200000
297.086900 25047.100000
298.094800 281046.000000
299.078800 318988.900000
301.094400 716772.600000
313.081700 27916.800000
313.130300 32260.200000
315.097400 296538.000000
327.097700 18135.900000
345.120500 76534.100000
359.123600 69720.000000

>ms2
53.002200 15671.100000
53.038600 12789.000000
56.049400 19700.500000
58.065100 58381.000000
63.022900 13678.800000
65.038600 476817.200000
67.017800 1451545.800000
74.060000 36208.400000
79.054200 69104.000000
80.049300 12884.700000
91.054200 11937440.000000
95.049000 19751.400000
99.044000 14733.300000
102.046500 14351.800000
103.054300 45389.800000
104.049500 16229.700000
105.069900 308778.800000
106.065100 45196.900000
108.044400 16354.300000
111.044000 106987.000000
115.054100 49930.800000
118.041300 38772.000000
128.062000 59999.000000
129.069800 45116.200000
130.041300 30686.300000
133.052200 84661.200000
134.060000 172896.100000
139.054200 52226.600000
140.061900 86773.900000
141.069800 111330.100000
142.041300 12137.400000
142.065100 16046.400000
143.073200 28259.600000
145.088700 24445.600000
146.036100 19776.600000
147.044100 20753.800000
148.039000 13064.200000
148.112100 45869.800000
150.055000 98393.200000
152.062000 79981.900000
153.069800 134568.500000
154.041100 15696.700000
154.065000 47370.700000
154.077500 14417.800000
155.049600 22803.400000
155.060500 20366.100000
155.072900 24329.200000
156.056800 15303.700000
156.080800 26097.500000
157.039600 12446.200000
157.064500 28228.200000
158.096200 14936.400000
160.075700 13078.200000
164.070300 15395.200000
165.069900 60981.300000
165.078400 200977.400000
166.065200 86223.400000
166.077700 12630.500000
167.049000 13278.800000
167.072900 115103.900000
168.057200 50394.600000
168.080800 338506.100000
169.064800 27510.800000
169.088400 19689.500000
170.059800 22151.500000
170.096500 54245.300000
171.067700 29001.400000
171.104300 67761.100000
172.075500 17620.300000
173.083600 18822.700000
174.055100 22177.500000
176.034200 79219.900000
178.064900 41725.000000
179.073100 59064.300000
179.093900 17456.100000
180.066300 130320.700000
180.080700 585207.200000
181.064700 40488.000000
181.088600 315609.400000
182.060200 29592.200000
182.096400 315838.900000
183.067600 44138.900000
183.104200 58472.700000
184.075700 89377.500000
184.112200 19620.300000
185.083300 13091.800000
186.031000 18120.000000
186.054300 22626.400000
186.091200 15171.200000
189.065700 38339.000000
190.064900 14539.000000
191.072600 12642.700000
192.080600 18182.700000
192.101900 94400.300000
193.064400 14240.200000
193.075900 15911.600000
193.088300 20847.200000
193.109700 53019.500000
194.060000 102313.700000
194.096700 42716.500000
195.067700 32210.200000
196.075700 285402.500000
196.111900 19461.200000
197.068300 331160.100000
197.083200 67918.300000
198.091300 194441.800000
200.034100 37864.500000
200.045800 16143.800000
200.070400 65318.800000
202.085900 17055.200000
203.057700 15866.100000
206.060000 30738.700000
207.067900 54430.800000
208.075700 994383.800000
209.071500 19066.300000
209.083500 345130.400000
210.091300 1249181.100000
211.062600 16114.100000
211.099100 95963.600000
212.070500 52410.000000
213.078100 38645.500000
214.086200 37279.800000
215.094100 16010.100000
217.060800 30802.100000
221.070800 74103.300000
222.054900 45380.300000
222.077200 13107.800000
223.062600 17289.300000
224.070600 62981.200000
224.107200 14918.000000
225.078300 73504.100000
226.086200 1256676.200000
227.057300 13091.800000
227.081600 45039.500000
228.065000 13101.000000
228.101400 20114.100000
235.062600 32263.000000
236.070600 449364.700000
237.065700 14738.400000
237.078400 51386.100000
238.073200 18428.100000
238.086300 23829.300000
239.057700 22956.500000
239.081200 12372.200000
239.094100 19810.000000
240.065200 28442.900000
240.101800 169225.700000
241.073200 249391.800000
242.081200 36487.700000
243.089000 133369.900000
249.065800 19306.400000
252.065800 31008.300000
253.073500 70951.300000
254.081100 391105.500000
255.076100 22040.800000
255.088300 20081.500000
256.096800 47528.200000
257.067800 57605.400000
266.068600 23535.700000
267.052600 37117.500000
267.089300 66449.400000
268.096800 370428.400000
269.068200 70231.500000
269.104800 113487.800000
281.091900 33764.500000
285.063300 122752.500000
298.095100 20660.100000
299.078900 138159.500000
301.094300 139813.800000

>ms2
53.002200 45200.700000
53.038600 25875.600000
56.049500 16031.100000
58.065100 48751.200000
63.022800 37810.900000
65.038500 1063919.900000
67.017800 1906733.600000
74.060000 21384.200000
77.038500 23270.400000
78.046200 19032.900000
79.054100 105064.700000
80.049500 37175.000000
89.038400 29580.400000
90.046400 17644.000000
91.054200 12713554.000000
95.049000 62528.900000
99.044000 16022.900000
102.046400 43064.600000
103.054200 81577.300000
104.049500 82955.400000
105.069900 200446.100000
106.065000 108253.100000
107.073000 22150.300000
108.044600 21628.600000
111.043900 48656.600000
115.054200 202800.800000
116.062000 19865.800000
118.041300 66732.700000
122.059900 19813.100000
126.046400 33919.800000
127.054200 29021.900000
128.062000 183999.400000
129.033400 33471.800000
129.069700 142706.300000
130.041200 35603.400000
130.065200 25769.000000
132.044300 46459.800000
132.080800 15901.600000
133.052100 162100.000000
134.060000 310898.200000
139.054100 247879.900000
140.049500 56723.500000
140.061900 144042.300000
141.057600 19401.900000
141.069800 378632.800000
142.041300 17505.800000
142.065000 42826.400000
143.049200 14989.000000
143.073000 60187.200000
144.080700 33291.700000
145.064600 49554.600000
145.088600 39464.000000
147.043900 17282.300000
148.039200 17234.100000
150.054900 271555.700000
152.062000 353906.600000
153.069800 470586.300000
154.041300 19579.100000
154.065000 132339.500000
154.077700 18933.700000
155.049300 45087.000000
155.060400 64562.300000
155.072600 47720.500000
155.085500 18504.200000
156.057000 13959.300000
156.080700 46234.400000
157.064600 40490.300000
157.088800 13616.700000
158.096300 20707.100000
160.075700 19962.900000
163.054200 30454.700000
164.049200 20997.000000
164.070600 27974.200000
165.069900 144281.300000
165.078400 136960.200000
166.065000 215452.000000
167.049300 20538.500000
167.072900 400259.900000
168.057300 61488.300000
168.080700 427471.000000
169.064600 94103.300000
169.088400 45763.300000
170.059900 49344.400000
170.096300 94196.500000
171.068000 17543.900000
171.104300 27948.300000
172.075700 34739.700000
176.034100 17186.400000
178.065000 121594.800000
179.072900 89090.400000
180.065700 83569.600000
180.080600 1166046.900000
181.064700 93685.600000
181.088400 368590.200000
182.060000 49563.400000
182.096400 363910.500000
183.067700 80958.900000
183.104200 17034.700000
184.075600 151906.000000
184.112200 14660.800000
185.059600 13827.100000
185.082900 20799.200000
186.031100 22871.900000
186.091300 27415.300000
189.065600 20207.600000
190.064900 41866.600000
191.072600 37200.600000
192.080600 38607.000000
192.101700 88100.700000
193.052200 17331.800000
193.064600 15453.100000
193.075700 26463.000000
193.088000 30934.400000
194.060000 135301.800000
194.096500 31537.600000
195.067600 71328.000000
196.075600 283018.400000
197.068300 211062.200000
197.083700 79238.000000
198.091200 279823.800000
199.062300 12803.700000
200.046100 16882.900000
200.070500 62582.700000
203.057600 14164.500000
206.060000 33018.800000
207.067800 78658.100000
208.075600 959751.900000
209.083300 252524.200000
210.091200 851349.500000
211.062500 31212.500000
211.099400 14576.900000
212.070800 46620.700000
213.077700 22806.500000
214.086200 22547.800000
221.070800 53926.800000
222.054800 26124.300000
223.062800 12727.300000
224.070600 39477.100000
225.078400 77425.300000
226.086100 620759.300000
227.057700 14247.400000
235.062600 17669.400000
236.070400 180334.900000
237.078400 25185.100000
239.057400 34277.200000
240.065300 16690.200000
240.101500 74369.800000
241.073100 123136.400000
243.089100 23477.000000
252.064800 24131.100000
253.073400 30579.100000
254.081100 82577.300000
256.096600 16204.700000
257.068200 38805.100000
267.052400 24502.800000
267.088400 16373.100000
268.096600 73543.700000
269.068300 22025.200000
285.063000 67574.900000
299.078600 40238.200000

