>compound LU26296269
>parentmass 236.07400000000004
>ionization [M+H]+
>formula C12H13NO2S
>rt 941.160000
>profile orbitrap
#smiles_iso CC1=C(SCCO1)C(=O)NC2=CC=CC=C2
#smiles_can CC1=C(SCCO1)C(=O)NC2=CC=CC=C2
#inchikey GYSSRZJIHXQEHQ-UHFFFAOYSA-N
#pubchem_id 21307
#mb_accession LU045601,LU045602,LU045603,LU045604,LU045605,LU045606

>ms2
86.990100 19544.400000
93.057100 18327.500000
117.036900 106593.300000
124.021600 60456.600000
132.044500 28765.100000
143.016200 4589327.000000
146.060100 6117.000000
165.024300 10419.500000
166.032200 47724.000000
174.055000 17002.500000
208.042700 174648.700000
218.063400 10152.400000
236.074000 3024933.800000

>ms2
58.995100 7133.700000
61.028400 10163.100000
73.010600 19732.700000
86.989600 26240.900000
89.005600 7487.600000
93.057300 94542.900000
99.026300 22293.800000
117.036900 141786.300000
120.044300 9817.000000
124.021600 227707.200000
132.044400 82380.600000
143.016100 6197524.500000
146.060200 16451.600000
162.037200 8954.100000
165.024200 36899.800000
166.032100 108522.600000
174.054900 33710.900000
190.032100 10645.800000
208.042700 188992.500000
218.062700 12014.200000
236.074000 850151.400000

>ms2
57.033500 5546.300000
58.995000 47605.900000
61.028400 39330.900000
73.010600 54989.000000
75.044000 24787.600000
86.989800 53259.800000
89.005600 19564.800000
92.049500 13781.400000
93.057300 522010.300000
94.065100 5839.700000
99.026200 39283.300000
104.049400 10255.500000
115.021300 23808.200000
117.036900 72597.300000
120.044400 26246.000000
124.021600 400323.600000
132.044400 118932.200000
138.037400 10514.200000
143.016100 4409668.000000
146.060000 54321.800000
148.021400 5678.800000
162.037200 27588.900000
164.016700 5747.700000
165.024300 71191.000000
166.032100 110899.900000
174.054900 16288.400000
190.031700 20537.500000
208.042800 56030.600000
218.063500 4934.900000
236.074200 43744.200000

>ms2
53.038600 4212.400000
55.054300 7815.000000
57.033500 3038.600000
58.995000 112413.500000
61.010600 12133.400000
61.028400 48940.200000
65.038600 5261.900000
66.046400 6548.100000
73.010600 64273.800000
75.044000 34241.400000
77.005600 2358.900000
80.049500 24685.500000
83.049300 2976.300000
86.989900 61371.600000
89.005500 32733.400000
92.049600 32927.500000
93.057300 997579.000000
94.065200 16081.500000
95.049100 12778.200000
97.010700 3272.000000
99.026300 32494.900000
101.005600 5340.800000
104.049500 38110.200000
109.011000 3025.500000
115.021300 19195.500000
117.036900 23917.600000
118.065100 4845.700000
120.044400 29846.900000
124.021600 398290.300000
128.049600 4670.400000
130.065300 2485.000000
132.044400 147026.100000
138.037400 13478.400000
143.016200 1964364.200000
146.060000 54041.300000
147.067700 4612.400000
148.021400 14639.700000
162.037200 29144.700000
164.016900 3190.400000
165.024300 50225.600000
166.032100 58581.500000
174.055100 3131.300000
190.032000 9890.500000
208.042600 8922.500000

>ms2
53.038600 7651.500000
55.017900 4683.300000
55.054200 4242.000000
57.033600 3707.800000
58.995000 108558.100000
61.010700 13436.700000
61.028400 29527.300000
65.038500 15120.400000
66.046400 21592.700000
70.994900 5512.300000
73.010600 43475.100000
75.044000 21010.900000
77.005500 3767.700000
77.038600 3668.800000
80.049400 73626.200000
83.049200 2491.500000
86.989900 47122.400000
89.005600 25505.100000
91.054300 2834.000000
92.049500 58255.300000
93.057300 1314852.800000
94.065100 25604.000000
95.049100 29953.800000
97.010500 5622.400000
99.026300 20442.800000
101.005500 4028.600000
104.049500 58893.400000
106.064900 3281.300000
109.010600 12672.100000
115.021400 11046.900000
117.036900 5617.000000
118.065100 7712.300000
120.044400 18220.900000
121.010100 2100.300000
124.021600 285519.700000
128.049500 20691.700000
130.065300 1963.900000
132.044400 136814.100000
136.021800 2786.000000
138.037200 9163.200000
143.016200 551066.100000
146.060100 36528.300000
147.067700 2760.600000
148.021400 14772.000000
162.037100 25853.800000
164.016700 2497.000000
165.024300 23531.600000
166.031900 14688.600000
190.032600 2311.700000

>ms2
53.038600 22847.500000
55.017800 3719.700000
55.054300 4387.400000
58.995000 87491.400000
61.010700 16018.800000
61.028400 11009.800000
65.038500 23569.600000
66.046400 61584.200000
70.995000 3546.600000
73.010600 26070.600000
75.044000 9273.800000
77.038500 9138.100000
80.049500 136895.700000
86.990000 27089.400000
89.005700 9981.600000
91.054200 7335.200000
92.049500 63501.100000
93.057400 1310871.900000
94.065200 30054.300000
95.049200 55612.100000
97.010700 9863.900000
99.026500 11849.700000
104.049500 69670.700000
106.065300 4619.100000
109.010700 14640.400000
115.021300 2915.700000
118.065100 7811.200000
120.044300 8510.900000
121.010900 2542.400000
124.021600 141489.600000
128.049400 27328.700000
130.065000 4863.600000
132.044500 100386.300000
136.021700 5004.500000
138.037400 3041.000000
143.016200 109831.900000
146.060100 20125.200000
148.021500 9072.200000
162.037100 11365.300000
165.024600 4991.600000
166.032500 5169.000000

