>compound LU26893615
>parentmass 433.1792
>ionization [M+H]+
>formula C22H28N2O5S
>rt 1013.940000
>profile orbitrap
#smiles_iso CC(C)[C@@H](C(=O)N[C@H]1CC2=CC=CC=C2[C@H]3CCC[C@H](N3C1=O)C(=O)O)SC(=O)C
#smiles_can CC(C)C(C(=O)NC1CC2=CC=CC=C2C3CCCC(N3C1=O)C(=O)O)SC(=O)C
#inchikey FXKFFTMLFPWYFH-RDGPPVDQSA-N
#pubchem_id 9824131
#mb_accession LU133801,LU133802,LU133803,LU133804,LU133805,LU133806

>ms2
89.042000 4429.300000
131.052600 85673.900000
159.047500 129179.200000
184.112100 15505.400000
201.138300 8614.000000
229.133800 28172.600000
230.117700 119670.400000
257.128400 68229.600000
258.112700 5607.700000
275.139100 332611.600000
299.138800 30042.700000
311.175300 6149.900000
317.167800 5005.200000
345.163400 223372.700000
357.181500 25905.900000
359.179200 30210.200000
373.158300 706848.900000
387.173900 913097.500000
391.168800 528349.400000
415.168800 3633575.500000

>ms2
55.054300 7624.900000
56.049500 7325.200000
89.041900 267117.400000
91.054600 2727.500000
114.055200 3944.900000
128.070500 24757.700000
129.070000 3566.000000
131.052500 1176508.400000
134.063500 4292.600000
141.069600 6100.000000
143.086100 3923.000000
146.096500 11467.700000
158.096300 19078.800000
159.047400 304713.300000
167.085600 13011.400000
169.101100 57078.100000
170.096400 17905.100000
182.096200 7260.100000
184.112000 1749134.500000
186.127700 38270.800000
194.096600 5569.300000
196.112200 2762.500000
197.095800 4104.800000
200.106800 4259.300000
201.138600 208826.900000
202.123000 8589.000000
211.123100 3884.500000
212.106800 20963.400000
216.101800 71882.900000
228.101700 55566.600000
229.133500 524188.900000
230.117500 1215685.000000
232.133200 14661.300000
240.102000 33804.700000
247.144100 64778.300000
255.112700 7615.700000
257.128100 41645.800000
258.112300 15784.300000
271.143800 37888.400000
275.138900 300545.000000
299.138400 18501.200000
301.173400 8416.300000
311.175100 124637.100000
317.168000 301640.500000
327.152200 24812.500000
345.163000 1736491.400000
357.181600 14186.800000
359.178500 385417.800000
363.174100 9713.500000
373.157900 506861.400000
387.173500 611318.900000
391.168400 50623.200000
415.168500 117416.500000

>ms2
55.054200 55949.400000
56.049500 93045.500000
57.069800 4365.200000
68.049400 6765.500000
70.065100 8264.400000
74.023600 4382.000000
82.065100 7267.700000
89.041900 1094870.200000
91.054100 4219.800000
99.026100 4083.200000
105.069800 4264.100000
114.055000 14911.500000
115.054200 6671.200000
117.069700 15633.600000
128.070400 34967.700000
129.069900 15501.500000
131.052500 954941.900000
132.080800 11017.100000
134.063300 11095.700000
141.069900 125553.300000
143.085300 22279.200000
144.080800 7519.000000
146.096500 97605.800000
156.080800 44766.800000
157.101300 6285.200000
158.096400 239970.500000
159.047400 48363.700000
167.085500 93647.900000
169.101300 103173.500000
170.096300 56974.900000
182.096600 159136.700000
184.112100 3682053.500000
185.119300 6024.900000
186.127800 141503.800000
194.096600 21745.700000
197.095900 3959.100000
200.107200 17226.000000
201.138700 223911.400000
202.122600 116721.600000
210.091400 7810.700000
211.122900 9932.500000
212.106900 50907.900000
216.101800 104122.600000
227.118200 29274.500000
228.101900 220673.500000
229.133600 362154.000000
230.117600 1739159.500000
232.132900 7634.100000
240.101700 15889.300000
247.144400 76148.000000
255.111800 3721.100000
257.128100 7217.000000
271.144100 6188.400000
275.139200 29335.200000
301.173000 12732.800000
311.175200 23769.100000
317.168200 172724.000000
327.154100 6214.900000
345.163100 181634.700000
359.179400 16144.100000
363.173000 3942.200000
373.158600 6274.600000

>ms2
53.038500 7324.600000
55.054200 196906.700000
56.049500 191368.600000
57.069900 11610.100000
61.010800 3160.000000
68.049400 21557.500000
70.065000 12652.800000
74.023600 12976.500000
80.049500 7376.800000
82.065100 22182.400000
89.041900 1408395.100000
91.054200 17558.300000
99.026200 3166.600000
103.054200 3249.200000
105.069800 11323.300000
114.054900 13155.100000
115.054100 20322.500000
117.069900 32413.200000
128.062300 13187.700000
128.070500 27848.400000
129.069800 69993.700000
130.065100 51121.900000
131.052500 313962.800000
131.085500 93216.600000
132.080700 25861.800000
134.063500 4033.500000
141.069800 402353.700000
142.064800 3936.300000
143.072900 32760.000000
143.085500 40284.700000
144.080700 21546.300000
146.096400 156749.000000
152.061900 7713.100000
153.070200 5012.000000
155.085200 13777.000000
156.080800 276524.800000
157.065200 3223.500000
157.088600 4714.900000
157.101200 14157.000000
158.096400 616131.400000
159.081000 3242.800000
160.075400 7387.400000
165.070200 10240.300000
167.085500 199236.300000
168.080700 14995.300000
169.088700 16223.900000
169.101100 73739.200000
170.096400 91875.100000
172.111600 8753.800000
180.081000 9601.600000
182.096500 650995.800000
183.103700 13408.900000
184.112100 2655817.500000
185.119900 20065.400000
186.127700 149816.100000
189.078300 7745.500000
194.096600 36798.400000
200.107000 23931.800000
201.138700 56986.200000
202.122600 200346.800000
210.091200 7091.300000
211.122700 11838.200000
212.106900 62975.200000
216.083800 5488.900000
216.101800 76588.400000
227.118100 5915.200000
228.101900 502692.300000
229.133300 40661.900000
230.117500 886587.600000
240.102100 5078.100000
247.143800 19120.000000
301.172500 3200.900000
317.168600 6528.300000

>ms2
53.002100 2322.300000
53.038600 17659.600000
54.033700 3390.200000
55.054200 385578.500000
56.049500 184541.300000
57.069800 3616.300000
61.010700 3835.000000
68.049400 31863.700000
70.065100 11895.800000
74.023500 16016.300000
80.049400 21907.300000
82.065000 36010.600000
89.041900 1012076.900000
91.054200 59405.500000
103.054100 12209.800000
105.069900 14646.700000
114.055000 9563.700000
115.054200 66280.500000
116.049500 3786.200000
116.062100 8116.700000
117.057400 5619.700000
117.069800 53952.400000
128.062100 55209.600000
128.070200 12981.400000
129.069900 162517.800000
130.065100 139854.600000
131.052700 45431.600000
131.085600 192343.800000
132.080800 33798.100000
133.064900 5353.100000
141.069900 579673.300000
142.065200 18041.200000
142.077900 7389.500000
143.073000 145242.800000
143.085400 35575.000000
144.080800 38331.400000
145.064700 3332.500000
145.088600 11749.800000
146.096400 115551.100000
152.062000 32333.300000
153.070100 8369.600000
154.065300 7469.400000
154.077600 9534.200000
155.073100 10193.600000
155.085400 23564.100000
156.080800 568572.300000
157.064700 7048.300000
157.088400 7791.000000
157.101200 9030.600000
158.096500 648221.800000
159.080600 5664.400000
160.075600 19069.100000
165.070100 36512.500000
166.077400 15656.700000
167.085500 186487.700000
168.080800 72011.500000
169.065000 3963.000000
169.088700 43763.000000
169.101100 30446.600000
170.096500 113888.900000
171.104500 17363.000000
172.112000 9382.000000
174.091500 3209.400000
180.080800 50377.400000
181.088200 4929.100000
182.096500 939055.200000
183.104200 52828.600000
184.112100 1186905.800000
185.119800 35117.100000
186.127700 64235.800000
188.070900 3650.000000
189.078500 13668.800000
194.096600 28992.800000
200.107200 9647.900000
201.138500 7965.500000
202.086400 10944.400000
202.122600 114568.000000
210.091500 3445.300000
212.106800 24176.600000
216.083900 4522.300000
216.101900 27799.500000
228.101800 463297.900000
230.117600 225975.100000

>ms2
53.002300 3621.600000
53.038600 39516.200000
54.033800 9855.900000
55.054200 653503.200000
56.049500 187783.400000
57.069800 5862.100000
61.010700 6380.100000
68.049500 42960.600000
70.028500 2469.400000
70.065000 14214.700000
74.023600 13009.600000
80.049500 27196.900000
82.065100 34586.500000
89.042000 658023.900000
91.054200 154679.700000
103.054200 44943.500000
105.069900 34545.200000
114.054900 4706.800000
115.054200 242452.100000
116.049500 23544.900000
116.062000 29210.300000
117.057400 24844.900000
117.069900 81493.400000
128.062000 119830.700000
128.070700 7409.500000
129.069900 250931.000000
130.065200 252233.900000
131.085500 226759.300000
132.080800 36940.100000
133.064600 6600.600000
141.069900 709327.600000
142.065200 34360.800000
142.077600 12860.500000
143.073000 337973.500000
143.085500 23500.600000
144.080800 69793.900000
145.064700 13422.800000
145.088900 13187.400000
146.096400 82135.100000
152.062200 76168.200000
153.069900 20683.500000
154.065000 24736.300000
154.077600 15558.800000
155.073000 22132.200000
155.085200 21188.600000
156.080800 790985.300000
157.064700 6212.300000
157.088800 12744.300000
157.101300 6201.900000
158.096400 511399.100000
159.080700 4153.300000
160.075600 26034.500000
165.069900 74243.600000
166.077800 24136.400000
167.085400 113201.400000
168.080800 208766.000000
169.064500 5113.500000
169.088600 69717.800000
169.101300 6917.800000
170.096400 122106.000000
171.104300 10422.500000
172.112100 6795.300000
174.091200 5339.400000
180.080800 122780.800000
181.088400 11730.900000
182.096500 828252.000000
183.104300 71668.100000
184.112100 534963.900000
185.119800 23414.300000
186.127600 20439.100000
188.070200 6284.700000
189.078100 8119.400000
200.106900 8423.800000
202.086100 4872.900000
202.122500 24209.000000
210.090700 4137.400000
212.107100 5304.600000
216.102000 4584.900000
228.101900 228831.500000
230.117600 30251.600000

