>compound LU27110878
>parentmass 344.2193
>ionization [M+H]+
>formula C17H25N7O
>rt 626.100000
>profile orbitrap
#smiles_iso C[C@@H]1CN(C[C@@H](N1C2=NC(=NC=C2)[C@@H](C)O)C)C3=NC(=NC(=N3)C)C
#smiles_can CC1CN(CC(N1C2=NC(=NC=C2)C(C)O)C)C3=NC(=NC(=N3)C)C
#inchikey FTEQMUXMWCGJAF-GRYCIOLGSA-N
#pubchem_id 10132209
#mb_accession LU029201,LU029202,LU029203,LU029204,LU029205,LU029206

>ms2peaks
326.208900 99897.900000
344.219200 18788372.000000

>ms2peaks
122.071200 15010.100000
135.091700 15570.600000
136.087200 24355.900000
162.102600 760504.900000
164.118200 29394.300000
165.113500 845015.400000
180.113200 313210.600000
191.129000 17720.600000
192.124200 30188.500000
202.133900 235111.800000
203.129300 21466.500000
205.144800 1060857.200000
220.144300 86153.600000
229.119300 22002.800000
244.156100 19085.000000
268.155600 12476.600000
269.150500 41673.500000
271.144100 13867.500000
285.182600 16091.000000
287.161000 25513.300000
300.193600 16491.400000
326.208800 4671399.000000
344.219400 11941014.000000

>ms2peaks
55.029200 12395.100000
56.049500 104566.800000
67.029100 15094.500000
68.049400 23181.800000
69.044700 13986.900000
79.054200 23162.500000
80.049500 15385.100000
81.044600 15746.100000
81.069900 105631.500000
82.065100 81835.000000
83.060300 320016.300000
84.055800 7890.100000
84.080800 11021.900000
94.065000 14798.000000
95.060300 6681.600000
96.080800 37937.500000
97.076100 35600.300000
98.096400 112285.400000
105.044800 26894.600000
106.065200 13624.800000
107.060400 23848.000000
108.055600 74331.800000
108.080800 16116.400000
109.076100 57509.800000
110.071200 13730.800000
111.091600 16795.400000
121.076100 100213.900000
122.071200 143059.200000
123.091600 248057.800000
124.076000 37677.500000
124.086900 281525.200000
125.071000 17543.800000
125.082200 87642.200000
133.063300 13635.500000
134.071200 47032.100000
135.091700 251078.000000
136.086900 240464.300000
136.099600 20861.400000
137.082200 94517.300000
137.094500 7637.000000
137.107400 33209.600000
138.102600 37888.800000
140.082000 10389.000000
140.118200 33329.000000
142.097600 52345.000000
146.071200 17734.600000
147.066400 49877.500000
147.079000 52424.200000
147.091600 43239.200000
148.086900 10748.800000
149.081800 24778.500000
149.095000 31402.800000
150.102500 32674.800000
151.097900 8370.700000
160.086800 13837.200000
161.107100 10116.500000
162.102600 4092708.800000
163.097600 40104.100000
164.118300 604977.900000
165.113500 3047644.500000
176.118200 115767.700000
177.113600 29086.000000
180.113100 502589.400000
187.098000 9412.800000
189.113400 18457.700000
191.129100 33110.000000
192.124400 119916.400000
202.133900 961850.400000
203.129200 66894.600000
205.144800 6645884.500000
206.140100 25357.300000
217.144700 43138.200000
220.144400 174754.500000
221.140100 11507.600000
229.119500 161176.900000
243.135100 10390.300000
244.155600 151526.000000
247.130000 14823.900000
262.165900 25084.700000
268.155500 71239.000000
269.150800 110464.700000
285.182000 23399.700000
287.161300 20426.100000
300.193200 12337.600000
309.182200 9997.100000
326.208700 2430374.200000
344.219400 1065470.100000

>ms2peaks
52.018300 4932.500000
53.002200 15669.600000
53.038600 13184.900000
54.033700 33884.000000
55.029000 69802.300000
55.054200 42415.700000
56.049500 602438.900000
58.065100 36680.800000
65.038500 7939.400000
67.029000 92241.800000
67.041700 15534.100000
67.054100 11812.400000
68.049400 153039.500000
69.044700 166739.000000
69.069800 32674.800000
70.065100 43842.300000
78.033800 11425.800000
79.054100 211939.400000
80.049400 102880.100000
81.044700 141600.500000
81.069800 381731.900000
82.065100 554478.100000
83.060300 945894.800000
84.055600 23362.700000
84.080700 174498.000000
91.054200 6038.900000
92.049400 21006.200000
93.044800 5757.800000
93.057600 5663.500000
93.069900 21621.100000
94.065100 157707.400000
95.049100 11601.500000
95.060300 81193.100000
95.073000 12811.100000
96.055500 31971.100000
96.080700 220683.600000
97.076000 111086.200000
97.088500 8867.900000
98.096400 138435.300000
103.054000 4085.200000
105.044700 179470.100000
106.065100 158832.600000
107.060300 120154.000000
108.055500 409399.000000
108.068200 48186.500000
108.080700 150147.800000
109.076000 342717.100000
110.060000 10172.700000
110.071200 78154.300000
110.083700 28507.300000
110.096500 24775.800000
111.091600 106224.100000
118.065100 49077.000000
119.060400 22533.800000
120.055900 6326.500000
120.068300 17908.800000
120.080800 40286.300000
121.076000 439360.800000
122.071200 432360.700000
123.091600 799305.200000
124.075800 204612.400000
124.086900 527032.600000
125.070900 21705.800000
125.082100 152385.100000
126.042300 6195.400000
126.066200 12690.300000
132.068200 17352.400000
133.063400 87716.400000
133.075900 23761.300000
134.071200 336944.900000
135.091600 980204.700000
136.086900 424048.400000
136.099400 98695.800000
137.082100 276413.600000
137.107300 135920.100000
138.102500 127382.200000
140.081900 16281.100000
140.118100 29350.900000
142.097400 61797.000000
145.075800 32452.800000
146.071200 50309.200000
146.083400 7510.600000
147.066500 188556.200000
147.079100 246044.800000
147.091600 176002.200000
148.086800 59195.800000
149.082200 138511.700000
149.094700 118298.000000
150.102600 19991.400000
151.097900 20060.900000
159.091500 7153.500000
160.086800 51881.700000
161.107200 32958.900000
162.102500 3000679.000000
163.097800 102915.400000
164.118200 1173766.800000
165.113400 1290828.600000
172.086600 8915.800000
174.102600 5724.100000
175.097800 6639.800000
176.118100 163113.600000
177.113200 20653.000000
180.113000 135106.800000
186.102800 6165.300000
187.097700 18725.200000
187.109600 9152.900000
189.113400 12358.000000
191.129000 11655.700000
192.124200 54648.000000
202.133800 447864.900000
203.129000 23847.000000
205.144700 3751568.800000
206.139800 7667.600000
217.144400 14059.100000
220.143900 37150.300000
221.140200 4419.200000
226.108100 6002.400000
229.119500 67881.400000
243.135600 4575.800000
244.155600 90268.100000
268.155700 27216.900000
269.150300 24346.800000
326.208500 119385.600000
344.218500 14281.700000

>ms2peaks
52.018200 9474.300000
53.002200 39690.500000
53.038600 52683.200000
54.033800 148494.100000
55.029100 181460.900000
55.054200 155938.300000
56.049500 1177676.800000
57.044700 6332.400000
57.057300 11498.900000
58.065100 62278.500000
65.038500 52148.400000
66.033800 11055.900000
66.046400 6112.800000
67.029000 200398.400000
67.041600 53420.800000
67.054200 47591.400000
68.036800 18515.600000
68.049400 358168.200000
69.044700 626046.600000
69.069800 67388.100000
70.065100 105699.300000
78.033800 72356.900000
79.029000 26177.800000
79.054200 486546.300000
80.049500 251227.000000
81.044700 359554.900000
81.057400 62999.600000
81.069900 401657.900000
82.065100 807303.300000
83.060400 1146181.200000
84.055700 33730.400000
84.080800 456252.300000
91.054300 35750.500000
92.049500 58060.100000
93.044700 20486.200000
93.057500 16620.900000
93.069900 42901.000000
94.040000 17517.600000
94.065100 288008.300000
95.049300 39467.800000
95.060400 156456.900000
95.072900 30290.800000
96.044400 19572.800000
96.055600 57157.000000
96.080800 329650.800000
97.076100 120451.000000
97.088600 11046.400000
98.096400 75709.100000
103.054200 5729.200000
104.049500 5528.700000
105.044800 484254.000000
106.052500 17577.200000
106.065100 257293.400000
107.060400 229815.900000
108.055600 685072.100000
108.068200 118077.800000
108.080800 309409.200000
109.076100 460145.100000
110.060100 33584.000000
110.071300 154310.200000
110.083800 24264.800000
110.096400 41905.200000
111.055300 13894.100000
111.091600 79092.900000
112.050400 8830.600000
117.057200 5599.200000
118.065100 101982.300000
119.060500 34568.700000
120.056000 10577.700000
120.068300 73281.800000
120.080800 45103.000000
121.076000 543917.400000
122.071300 498737.000000
122.084000 25787.000000
123.079200 42766.100000
123.091700 600162.700000
124.075800 246854.600000
124.086900 394028.100000
125.071000 18976.800000
125.082200 106386.000000
126.042300 7161.400000
126.066300 40155.500000
132.055800 4767.400000
132.068100 44675.300000
133.063600 122744.800000
133.076000 37607.700000
134.071300 800114.900000
135.091700 993298.000000
136.087000 342060.700000
136.099400 139540.500000
137.082200 159533.200000
137.094900 15830.600000
137.107300 129618.600000
138.042800 6766.500000
138.102500 83445.800000
140.081900 9582.000000
140.118200 10013.000000
142.097500 17448.800000
145.076000 35083.900000
146.071300 127558.400000
146.083900 13763.900000
147.066700 185874.000000
147.079100 354313.700000
147.091600 138893.900000
148.086900 114284.300000
149.082200 213670.600000
149.094700 111866.700000
150.102800 7704.900000
151.097800 12894.500000
159.091200 5792.300000
160.087100 74058.800000
161.107300 15756.900000
162.102600 1277641.800000
163.097900 52218.300000
164.118200 493991.900000
165.113500 285489.500000
172.086900 12454.700000
174.102500 5365.100000
175.097700 6432.000000
176.118300 71341.700000
177.113500 8377.800000
180.113300 17111.300000
186.102700 11501.000000
187.098100 8466.600000
187.110500 13018.100000
189.113500 5062.200000
192.124100 9939.500000
202.133900 86456.400000
205.144800 704468.800000
229.119400 8045.100000
244.155700 16280.600000

>ms2peaks
52.018200 21505.200000
53.002200 69592.300000
53.038600 93349.100000
54.033800 321718.400000
55.029100 276105.200000
55.054200 268530.200000
56.049500 1286117.400000
57.044700 19545.800000
57.057200 20436.700000
58.065100 59822.200000
65.038600 83197.900000
66.033800 11197.200000
66.046300 16479.000000
67.029000 259301.800000
67.041600 110862.400000
67.054200 83661.400000
68.036800 27417.500000
68.049400 423649.500000
69.044700 1008425.800000
69.069800 66869.000000
70.065100 97155.900000
78.033800 232311.500000
79.029000 35707.900000
79.054200 573602.800000
80.049400 318332.300000
81.044700 419405.500000
81.057300 116239.900000
81.069800 238803.000000
82.065100 577575.200000
83.060300 828860.000000
84.055700 32689.500000
84.080800 460859.400000
91.054200 49447.500000
92.049500 61723.000000
93.044800 40710.100000
93.057200 37059.500000
93.069900 32855.600000
94.039900 24603.100000
94.065100 296582.600000
95.049200 86423.200000
95.060400 154064.000000
95.072900 34348.600000
96.044400 49973.800000
96.055600 61914.100000
96.080700 199934.400000
97.076000 58242.200000
97.088500 5917.800000
98.096500 28775.000000
104.049300 10294.100000
105.044700 643899.500000
106.052500 38815.300000
106.065100 200397.600000
107.060400 229561.200000
108.055600 618677.400000
108.068200 135158.800000
108.080700 318937.600000
109.076000 289108.800000
110.060100 36254.800000
110.071300 122551.700000
110.084100 7261.200000
110.096300 17539.800000
111.055200 22228.100000
111.091700 28003.000000
112.050500 7222.500000
117.057200 14543.900000
118.065100 79356.900000
119.060400 47039.700000
120.055600 21183.600000
120.068200 85177.000000
120.080800 29980.300000
121.076000 326490.400000
122.071200 338973.700000
122.083800 18230.500000
123.079100 27668.900000
123.091600 159825.000000
124.075800 119334.900000
124.086900 161396.100000
125.070900 9884.200000
125.082300 22868.900000
126.042400 5921.900000
126.066200 68669.900000
132.055600 5738.500000
132.068100 30584.100000
133.063500 84764.500000
133.076000 30728.800000
134.071200 906007.300000
135.091600 515124.000000
136.087000 138379.900000
136.099500 90672.700000
137.082100 44235.700000
137.107200 42226.700000
138.042300 4925.100000
138.102600 30951.500000
140.081700 8806.600000
142.097700 7823.900000
145.076100 31077.500000
146.071200 138976.800000
147.066500 94649.700000
147.079000 236039.000000
147.091400 48093.300000
148.086800 128261.300000
149.082200 141956.100000
149.094600 56845.600000
160.086900 47365.100000
162.102500 309640.200000
163.097700 19495.500000
164.118200 80688.400000
165.113300 51788.900000
172.086900 19625.400000
175.098400 4763.300000
176.117900 17596.300000
186.102200 13887.600000
187.110600 4592.300000
202.133500 12454.800000
205.144800 64821.200000
226.108900 5946.400000

