>compound LU27499530
>parentmass 360.1770000000001
>ionization [M+H]+
>formula C21H23F2NO2
>rt 1194.660000
>profile orbitrap
#smiles_iso CCOC1=C(C=CC(=C1)C(C)(C)C)C2COC(=N2)C3=C(C=CC=C3F)F
#smiles_can CCOC1=C(C=CC(=C1)C(C)(C)C)C2COC(=N2)C3=C(C=CC=C3F)F
#inchikey IXSZQYVWNJNRAL-UHFFFAOYSA-N
#pubchem_id 153974
#mb_accession LU118001,LU118002,LU118003,LU118004,LU118005,LU118006

>ms2peaks
57.070000 279492.500000
141.015400 1042747.400000
158.041300 463958.400000
165.091000 264686.600000
177.127400 1891186.400000
203.143000 335132.700000
261.109300 187511.200000
304.114400 3229443.500000
317.171200 1712691.400000
360.176900 82528616.000000

>ms2peaks
56.049400 54328.500000
57.069900 7506704.000000
91.054100 220894.200000
95.048900 72770.200000
107.049100 128547.900000
113.019600 42269.700000
119.049000 324488.600000
119.085500 144448.000000
121.064700 2174496.000000
137.059700 140563.500000
140.030600 57709.100000
141.014500 35990672.000000
145.064800 36629.500000
147.080300 1807241.800000
149.059700 53859.900000
158.041200 3517317.800000
159.080200 36582.400000
162.055000 41046.100000
163.111700 280673.800000
165.090900 1309092.800000
174.104100 59782.900000
175.111700 701016.100000
176.119500 66173.700000
177.127300 10955882.000000
182.041000 374413.700000
184.056800 200735.000000
186.072400 105980.600000
190.085700 115152.300000
197.076100 69501.200000
198.072800 118606.400000
203.143000 2467849.800000
204.138000 43888.800000
205.122200 42651.700000
217.081900 141102.400000
218.117600 121677.800000
219.161600 813430.200000
233.076900 746984.800000
258.072300 193283.300000
261.072400 716402.600000
261.108300 2147542.000000
273.144800 276039.400000
276.082900 69247.300000
286.103700 503830.800000
289.139500 242706.800000
304.114200 12633732.000000
316.150500 84688.700000
317.170900 2968838.200000
360.176700 11108526.000000

>ms2peaks
53.002200 101235.600000
56.049500 85487.600000
57.069900 11179368.000000
63.023000 77138.200000
91.054200 1457357.000000
107.049100 213080.500000
113.019600 83024.500000
119.049100 1008138.500000
119.085500 450799.300000
121.064800 1515918.400000
127.035300 117715.800000
137.059700 185894.200000
139.035900 111380.900000
140.030800 200576.400000
141.014500 74691872.000000
145.065000 89323.000000
147.080300 1532378.900000
158.041200 2713240.500000
159.080500 424634.800000
159.116800 88284.500000
161.096100 82851.100000
162.055100 88386.500000
162.103900 230812.200000
163.111500 229773.000000
165.091100 118882.100000
174.104000 81907.700000
175.111500 240601.300000
176.119600 193455.500000
177.127400 3531537.800000
182.041100 324763.700000
187.112100 102508.500000
188.119300 191236.800000
190.086300 79915.400000
198.072400 75032.500000
203.143200 527816.500000
204.138300 174675.500000
219.161600 462097.900000
233.077200 627351.800000
258.072300 200703.800000
261.072000 109554.500000
261.108500 297708.200000
273.108600 100201.800000
286.104000 175645.700000
304.114300 804188.300000

>ms2peaks
53.002200 238083.600000
56.049500 130578.800000
57.069900 10411577.000000
63.022800 322951.400000
91.054200 2818309.000000
93.069900 90056.100000
107.049200 175930.600000
111.024000 225133.300000
113.019500 236488.100000
119.049200 830864.200000
119.085500 438264.500000
121.064800 561901.100000
127.035200 199155.400000
129.070100 114037.400000
131.030400 205070.100000
139.035700 176581.200000
140.030800 346067.200000
141.014600 84226992.000000
144.093200 100171.800000
147.080300 538967.400000
158.041200 1152655.400000
159.080500 806858.200000
159.116500 146503.200000
161.095800 164246.900000
162.103900 437245.100000
163.111400 141370.200000
173.096300 235181.700000
177.127400 806273.800000
182.041600 133440.200000
187.111800 119504.000000
188.119300 163313.500000
204.138400 416251.700000
258.072200 144704.300000
273.108100 98826.000000

>ms2peaks
53.002200 308204.700000
56.049400 146710.500000
57.069900 6681883.000000
63.022900 1373275.600000
69.013500 135693.300000
79.054200 79864.500000
83.029100 194836.900000
89.019700 187989.100000
91.054200 3284179.800000
93.013400 87367.500000
93.069800 77891.100000
95.049100 81966.500000
97.008400 302273.900000
103.054100 147397.900000
105.069800 95742.000000
107.049200 168139.600000
109.028300 94098.900000
111.024100 920529.200000
113.019600 908715.000000
117.014600 75841.000000
117.070000 163055.100000
119.049100 398239.100000
119.085500 254834.300000
121.064900 230317.400000
127.035300 151829.200000
129.069900 194063.400000
131.030300 982668.600000
131.049000 273316.400000
131.085600 248652.900000
133.064900 74817.400000
134.059900 90667.100000
140.030800 456060.300000
141.014800 69250568.000000
144.092900 185203.200000
145.064700 76129.300000
147.080300 396886.300000
148.030300 169846.900000
158.041000 227666.000000
159.080500 747521.600000
159.116400 81527.100000
161.095700 133623.800000
162.103900 227423.700000
173.096000 256220.500000
177.127400 81521.000000
204.138200 240781.200000

>ms2peaks
53.002200 358419.500000
53.997400 67031.300000
56.049500 116678.700000
57.069900 3581213.000000
62.015100 209698.600000
63.022900 5631259.000000
65.038500 161444.000000
67.989200 45424.600000
69.013400 249884.000000
73.008400 92005.400000
79.054300 90683.100000
83.029100 338229.500000
89.019700 439430.200000
91.054200 3368277.000000
93.013500 374670.800000
95.049100 94779.800000
97.008400 529314.900000
100.018200 135233.800000
103.054200 160166.300000
105.069900 125508.000000
106.065100 60592.000000
107.049100 133035.900000
109.028400 208568.600000
111.024100 1980637.000000
113.019700 2804390.200000
115.054400 115291.000000
116.049500 70969.600000
117.014600 111753.500000
117.069900 277740.000000
119.049100 173557.200000
119.085500 134988.800000
121.064700 88224.200000
127.035300 167648.500000
128.062000 135863.500000
129.034600 144512.500000
129.069900 348170.500000
130.022700 94900.300000
131.030300 2278896.200000
131.049100 497629.300000
131.085500 326479.800000
132.056900 49638.300000
133.064900 126705.000000
134.060000 76968.200000
138.035000 51862.300000
140.030800 249267.400000
141.015200 40889544.000000
142.022900 125132.800000
143.050000 81490.400000
144.093300 77356.200000
145.064500 115665.200000
147.080400 340331.400000
148.030500 293748.600000
148.088100 55939.600000
158.040800 42163.900000
159.080500 380812.100000
160.075800 93333.100000
161.095800 65303.900000
162.104000 52168.500000
173.096300 138337.600000
183.060200 55049.300000

