>compound LU27516319
>parentmass 216.088
>ionization [M+H]+
>formula C10H9N5O
>rt 675.120000
>profile orbitrap
#smiles_iso C1=COC(=C1)CNC2=NC=NC3=C2NC=N3
#smiles_can C1=COC(=C1)CNC2=NC=NC3=C2NC=N3
#inchikey QANMHLXAZMSUEX-UHFFFAOYSA-N
#pubchem_id 3830
#mb_accession LU078101,LU078102,LU078103,LU078104,LU078105,LU078106

>ms2peaks
53.038500 20394.600000
81.033500 3199938.800000
136.061800 42944.300000
148.061700 1485198.400000
166.072500 11822.700000
173.069700 79005.500000
188.093000 218216.900000
198.077400 10630.800000
216.087900 7250097.000000

>ms2peaks
53.038500 51906.800000
81.033400 5903763.500000
136.061700 106918.600000
148.061600 1367300.600000
166.072200 7334.500000
171.066600 7935.300000
173.069500 139215.500000
188.092900 419390.100000
198.077400 22944.200000
216.087800 3948457.800000

>ms2peaks
53.038600 189222.800000
81.033400 8967817.000000
119.035200 10092.600000
135.066300 19473.400000
136.061700 195233.900000
137.045700 9893.600000
148.061700 920397.400000
161.082000 9870.400000
162.077500 12475.600000
171.066300 49403.700000
173.069500 176597.100000
188.093000 445488.900000
198.077200 33334.300000
216.087900 515346.400000

>ms2peaks
53.038600 586062.100000
70.065200 13006.400000
81.033500 9800500.000000
119.035300 38302.300000
121.050900 40325.600000
135.066400 53159.600000
136.061700 207669.900000
137.045500 23541.200000
144.055300 14850.800000
146.058800 11892.000000
147.066600 9909.700000
148.061700 619506.800000
161.082100 32556.700000
171.066400 78119.900000
172.061900 14667.200000
173.069600 171423.000000
188.093100 229502.100000
198.077100 22747.800000
216.088000 38573.300000

>ms2peaks
53.038600 1089065.100000
70.065100 18372.600000
80.049500 8564.600000
81.033500 7699251.000000
94.039900 20755.800000
107.060400 9673.200000
119.035200 108736.500000
121.051000 59582.800000
135.066500 38956.500000
136.061800 155487.700000
137.045700 39397.500000
144.055700 11342.300000
146.058700 18437.700000
148.061700 268083.300000
161.082100 26325.100000
171.066500 42041.600000
172.061600 32060.400000
173.069600 86422.000000
188.093000 46704.000000

>ms2peaks
53.038600 1795993.800000
67.029100 17178.500000
70.065100 17496.300000
71.049100 6212.100000
80.049400 8576.300000
81.033500 5971555.000000
92.024200 24419.100000
94.040000 42641.100000
96.044500 8780.000000
107.060300 10446.100000
118.039900 5980.400000
119.035200 205812.900000
121.050900 52010.400000
135.055200 9575.000000
135.066500 21927.200000
136.061800 97018.000000
137.045800 56486.000000
144.055500 12611.000000
145.051000 12943.200000
146.058700 17645.600000
148.061700 98124.300000
161.082200 8254.800000
171.066600 16704.300000
172.061600 45363.100000
173.069500 37355.300000
188.093200 9263.200000

