>compound LU28728575
>parentmass 412.32099999999997
>ionization [M+H]+
>formula C27H41NO2
>rt 921.000000
>profile orbitrap
#smiles_iso C[C@H]1C[C@@H]2[C@H]([C@H]([C@]3(O2)CC[C@H]4[C@@H]5CC=C6C[C@H](CC[C@@]6([C@H]5CC4=C3C)C)O)C)NC1
#smiles_can CC1CC2C(C(C3(O2)CCC4C5CC=C6CC(CCC6(C5CC4=C3C)C)O)C)NC1
#inchikey QASFUMOKHFSJGL-LAFRSMQTSA-N
#pubchem_id 442972
#mb_accession LU065401,LU065402,LU065403,LU065404,LU065405,LU065406

>ms2
412.320900 9848225.000000

>ms2
67.054200 52994.200000
70.065100 11384.200000
81.069800 24284.200000
84.080800 288807.500000
85.064800 58397.400000
93.069800 6965.200000
95.085600 12845.800000
96.080800 29835.100000
98.096400 46556.500000
99.080500 14681.100000
100.075500 10143.900000
102.091300 178345.500000
105.069900 9112.600000
107.085700 19193.700000
109.101200 406874.300000
110.096400 8869.100000
112.075700 41801.000000
114.091400 728054.300000
119.085500 7284.900000
121.101400 18251.400000
124.112100 26229.300000
125.096200 8139.100000
126.127700 442829.300000
131.085700 7140.100000
133.101100 67265.600000
135.116800 16574.900000
140.107000 32130.100000
142.122700 23365.000000
143.085500 8516.200000
145.101200 30482.400000
147.116700 17024.100000
151.111700 31036.900000
157.101100 29652.300000
159.116800 41645.600000
161.132500 21987.100000
163.111900 9716.500000
171.117200 23214.500000
173.132500 29136.300000
183.116800 9550.100000
185.132800 15439.100000
195.116900 7641.300000
197.132500 13292.300000
209.132300 7599.900000
211.147900 9349.300000
213.163800 69529.200000
223.147900 7444.500000
239.179100 7649.100000
251.179900 10970.200000
253.195300 43142.200000
271.205300 9500.200000
279.210400 29810.300000
281.190300 8542.500000
287.200400 16570.500000
295.206100 7230.400000
297.221300 48838.800000
299.236700 11833.400000
321.221500 82480.200000
335.237400 46640.400000
359.273100 8287.200000
377.284100 88980.100000
394.310700 157607.800000
395.295200 10426.900000
412.321200 6895165.000000

>ms2
53.002200 4326.700000
53.038700 6232.300000
55.017800 4060.500000
55.054200 40682.600000
56.049400 5715.600000
57.033500 3568.800000
57.069800 30220.700000
58.028700 3313.300000
58.065100 7608.300000
65.038500 12019.200000
67.054100 741431.500000
68.049400 5371.400000
69.033500 5687.900000
69.057400 3679.500000
69.069800 31177.200000
70.065000 89910.500000
72.044400 8156.600000
77.038700 3360.800000
79.054100 53261.400000
80.049600 4518.100000
81.069800 270456.800000
82.065000 20632.700000
83.049000 37800.900000
83.085500 12051.800000
84.080700 894711.600000
85.064700 391564.500000
91.054100 34146.100000
93.069800 80616.800000
94.065100 6452.000000
95.049200 3975.800000
95.085500 73325.000000
96.080700 97956.900000
97.064700 8958.700000
97.101200 7123.100000
98.096300 98504.900000
99.080300 16437.800000
100.075600 32952.700000
102.091300 301517.000000
105.069900 90829.000000
107.085500 141250.400000
109.101100 1692747.200000
110.096300 34789.000000
111.080500 7620.600000
112.075600 106516.500000
112.112100 8192.100000
114.091300 1604651.400000
117.069700 21048.500000
119.085500 86467.500000
121.064900 6759.400000
121.101100 86245.400000
123.080500 7699.900000
123.116600 16313.300000
124.112000 61092.100000
125.096000 24055.700000
126.127600 525182.300000
128.062300 2873.200000
129.070100 14012.000000
131.085400 55668.200000
133.101100 311032.700000
135.116700 70076.800000
137.096400 8786.900000
140.106900 85114.300000
141.069800 6354.900000
142.077900 5421.100000
142.122800 22195.500000
143.085400 70880.800000
144.093600 4252.000000
145.101100 244424.200000
147.116700 84652.300000
148.111900 7455.200000
149.096000 5287.000000
149.132300 12470.200000
150.127800 18724.200000
151.111700 56809.600000
155.085400 23930.200000
156.093200 4254.300000
157.101100 285816.500000
159.116700 208233.800000
161.096000 7319.500000
161.132300 100649.600000
162.127400 5694.900000
163.111600 29254.300000
163.148300 8250.700000
167.085400 3855.600000
169.101000 38989.800000
170.108300 3961.100000
171.116700 160637.900000
173.132400 102907.900000
175.111600 19850.200000
175.148000 12359.300000
177.127300 7190.400000
181.101000 15041.900000
183.116800 56242.800000
184.124100 5873.400000
185.132400 84322.200000
187.148200 23235.600000
189.127600 4053.300000
195.116800 42204.300000
196.124900 4623.900000
197.132400 75237.600000
198.140300 4769.800000
199.147900 35940.200000
201.163800 9350.300000
203.143500 5058.800000
207.117000 8834.000000
208.124600 3095.600000
209.132200 33655.900000
210.141400 3030.300000
211.148000 72275.400000
213.163500 174062.400000
221.132200 6112.800000
223.148000 29259.900000
224.156100 3530.100000
225.163100 22085.700000
227.143000 5246.400000
227.179100 10552.700000
229.158700 4306.000000
233.131800 3127.300000
235.148300 9084.300000
237.163600 27037.000000
239.179300 21991.300000
241.195200 9436.600000
247.147800 4086.300000
249.164300 8584.500000
250.172100 5690.300000
251.179300 24060.700000
253.194800 69677.700000
264.187600 7261.600000
265.195500 9111.200000
269.190200 11942.600000
271.205000 6386.500000
275.179200 4162.500000
279.210700 63616.400000
281.189800 19124.400000
281.226100 18851.500000
287.200400 25734.200000
289.194100 3036.900000
295.206100 24222.000000
297.221300 40174.800000
299.237700 8729.700000
303.210500 5739.300000
307.205700 9057.600000
311.237900 4741.500000
319.241100 4366.400000
321.221200 137846.800000
335.236500 43702.200000
337.251900 3660.000000
359.273700 8757.200000
377.283900 77613.100000
394.310400 103817.400000
395.295200 6830.100000
412.320900 561312.900000

>ms2
53.002200 14833.000000
53.038500 15875.500000
53.997400 3103.900000
54.033800 3433.600000
55.054200 110121.100000
56.049500 13017.300000
57.033500 8340.700000
57.069900 81942.600000
58.028800 9299.500000
58.065100 13777.500000
65.038600 39902.000000
67.054200 1473023.200000
68.049400 13228.300000
69.033400 19753.000000
69.069800 74344.400000
70.065100 125914.200000
72.044400 24102.900000
74.096300 3953.100000
77.038400 3514.800000
79.054200 162252.900000
80.049500 18636.900000
81.057200 40017.200000
81.069900 501621.500000
82.065100 29526.700000
83.049100 72681.400000
83.085500 9851.000000
84.080800 778104.400000
85.064800 473720.000000
91.054200 129402.000000
92.061700 3303.300000
93.069900 163363.300000
94.065100 19046.200000
94.077700 6358.000000
95.049100 17836.900000
95.085500 86683.600000
96.080800 161841.400000
97.064800 11073.900000
97.101000 3858.800000
98.096400 55129.700000
99.080400 7629.800000
100.075700 19279.500000
102.091300 86080.600000
103.054200 5971.100000
105.069900 247541.800000
107.085500 193744.200000
109.101200 1035976.600000
110.096400 30861.000000
111.080400 5477.400000
112.075700 85669.300000
112.112000 10433.600000
114.091400 1009379.600000
115.054200 9289.600000
116.061900 3268.400000
117.069900 95030.600000
119.085600 167594.600000
121.064700 7851.100000
121.101200 83886.300000
123.080500 14909.200000
123.116700 7131.600000
124.112100 42777.000000
125.096100 11542.800000
126.127800 86434.100000
128.061900 19377.000000
129.069800 48144.600000
130.077700 22375.600000
131.085500 127019.000000
132.093200 3068.700000
133.101200 283225.300000
135.080500 3430.800000
135.116700 41443.200000
137.096100 6589.900000
140.107000 49168.300000
141.069800 22015.400000
142.077700 55352.900000
143.085600 125945.000000
144.093200 21936.100000
145.101200 314029.200000
146.108900 2894.900000
147.116800 58719.500000
148.112100 9651.400000
149.096200 5657.300000
149.132200 8844.700000
150.127600 9364.200000
151.111600 9873.500000
153.070500 3922.900000
154.077700 4491.600000
155.085500 63340.500000
156.093400 34790.000000
157.101200 381472.900000
158.108900 18737.600000
159.116800 233988.700000
161.095900 7912.600000
161.132400 57455.100000
162.128000 4219.000000
163.111900 12480.700000
164.143300 3750.100000
165.070100 6310.600000
166.077200 3394.500000
167.085300 15270.200000
168.093600 15469.100000
169.101200 73224.300000
170.108800 17658.600000
171.116800 181874.400000
173.132500 73900.200000
175.111600 12043.300000
175.148000 4953.400000
176.143300 4414.700000
177.127400 4628.600000
179.085100 10083.100000
180.093300 7575.200000
181.101100 27001.200000
182.108900 21531.600000
183.116900 66152.300000
184.124700 17096.300000
185.132600 58044.100000
187.147900 13597.000000
189.127300 5859.200000
193.101300 13455.600000
194.108800 11087.700000
195.116900 51603.600000
196.124600 18017.300000
197.132500 64431.400000
198.140100 7758.800000
199.148100 25526.800000
201.163400 4446.200000
206.109200 3204.300000
207.116800 12750.800000
208.124300 7288.300000
209.132500 39730.000000
210.140500 5389.400000
211.148100 45977.200000
213.163700 70705.300000
219.117300 3577.800000
221.132500 15349.800000
222.140000 6473.300000
223.148300 19883.200000
224.155900 4626.100000
225.163600 11024.600000
227.142000 4487.700000
227.179000 5891.900000
229.159400 3262.600000
233.132700 6219.700000
235.148100 13673.600000
236.155400 6262.900000
237.164000 16999.400000
239.179100 10155.300000
247.148100 6386.500000
249.163700 11679.400000
250.170900 4274.600000
251.179200 12178.100000
253.194900 12964.100000
264.186800 8334.600000
279.211100 12695.700000
281.189900 5812.900000
281.225700 4873.400000
287.201100 3258.300000
289.194600 4303.300000
295.204800 5915.200000
321.221200 16009.400000
394.310000 6574.800000
412.322300 5640.800000

>ms2
53.002200 36837.000000
53.038600 36160.200000
53.997400 2832.300000
54.033800 12511.500000
55.017900 12150.000000
55.054200 202719.300000
56.049500 18849.900000
57.033500 12767.100000
57.069900 123190.700000
58.028700 13099.500000
58.065000 14141.600000
65.038500 80721.900000
67.054200 1588999.000000
68.049400 26495.100000
69.033400 17822.400000
69.057300 6914.500000
69.069800 93829.700000
70.065100 120714.300000
72.044400 36344.300000
74.096400 4386.000000
77.038400 5853.600000
79.054200 297599.300000
80.049500 54333.400000
80.062000 7440.500000
81.057400 71287.900000
81.069900 550907.900000
82.065100 33923.500000
83.049100 58154.800000
83.085400 8303.900000
84.080800 584949.600000
85.064800 317720.200000
91.054200 268608.600000
93.069900 150309.000000
94.065200 26417.700000
94.077800 13595.400000
95.049100 45852.900000
95.085500 62641.700000
96.080800 163393.000000
97.064900 9558.100000
98.096400 30407.300000
100.075600 4550.100000
102.091400 18394.600000
103.054200 17368.000000
105.069900 415035.100000
107.085500 172682.300000
109.065000 22697.100000
109.101200 343717.900000
110.096300 19365.100000
112.075700 44942.900000
112.112000 6873.800000
114.091300 494412.700000
115.054100 35249.400000
116.062000 10443.400000
117.069900 153719.900000
118.077700 7168.200000
119.085600 169530.600000
121.064800 7021.400000
121.101200 51007.600000
123.080500 11634.500000
123.117000 3533.200000
124.112000 22970.600000
125.096100 3480.900000
126.127800 8408.500000
128.062000 66683.800000
129.069800 123137.700000
130.077700 69950.500000
131.085500 162042.800000
132.093000 3641.500000
133.101200 160167.700000
135.080400 3778.600000
135.116900 17360.100000
140.107000 22644.900000
141.069800 60675.800000
142.077700 167074.800000
143.085500 155089.800000
144.093400 49168.700000
145.101200 194962.900000
146.109200 4172.500000
147.116800 23034.700000
148.112100 9415.600000
150.127600 4217.900000
153.069800 16495.500000
154.077700 15954.200000
155.085500 87096.200000
156.093400 81624.200000
157.101200 238342.000000
158.109000 19302.800000
159.116800 104395.200000
161.096200 5186.500000
161.132400 11457.000000
162.127900 5446.100000
164.143600 2701.400000
165.070000 19174.300000
166.077800 9218.700000
167.085500 35344.400000
168.093400 34004.200000
169.101200 73822.300000
170.109100 24477.700000
171.116800 101489.100000
173.132400 28818.300000
176.143400 3962.300000
178.077800 6080.700000
179.085500 22141.800000
180.093400 19675.800000
181.101100 44798.700000
182.109200 29041.300000
183.116900 46041.700000
184.124800 10986.600000
185.132600 27848.400000
187.148400 3263.200000
191.085300 4099.200000
192.093100 6753.000000
193.101100 23493.700000
194.109200 17227.500000
195.116900 35470.700000
196.125100 14008.900000
197.132500 28462.600000
198.140300 5480.000000
199.148100 5303.600000
205.100800 6431.400000
206.109200 5777.800000
207.117100 19194.900000
208.124600 10698.400000
209.132300 26365.400000
210.140600 5694.000000
211.147900 12480.000000
213.163700 6767.000000
217.102400 3266.600000
219.116500 6361.300000
221.132300 12914.700000
222.140500 8483.300000
223.148000 12065.000000
224.155300 2785.100000
225.164400 4929.800000
233.132300 3746.200000
235.148000 9992.900000
236.155700 2683.100000
237.164000 5848.100000
249.163800 10134.700000
264.186900 3584.500000
275.178900 3774.400000

>ms2
53.002200 60610.900000
53.038600 71380.100000
53.997500 9281.600000
54.033800 19099.100000
55.017800 15508.200000
55.054200 284011.900000
56.049500 24200.400000
57.033500 18534.000000
57.069900 136133.300000
58.028700 18859.700000
58.065100 15157.400000
65.038500 148475.800000
67.054200 1429342.400000
68.049400 41596.200000
69.033500 10510.200000
69.057400 15183.100000
69.069800 103765.700000
70.065100 103752.300000
72.044400 39447.700000
77.038500 13366.000000
79.054200 449190.800000
80.049400 107532.700000
80.061900 12737.000000
81.057300 97409.900000
81.069800 449098.700000
82.065100 36348.400000
83.049100 37698.400000
83.085800 3448.000000
84.080800 443271.800000
85.064800 181958.000000
91.054200 486473.900000
92.062100 4549.900000
93.069900 120173.900000
94.065100 34341.700000
94.077700 13151.400000
95.049100 88977.400000
95.085500 36776.700000
96.080700 125828.900000
97.064900 7845.200000
98.096500 18209.600000
102.091100 2871.300000
103.054200 43947.000000
105.069900 470791.800000
107.085400 87523.100000
109.064800 22085.400000
109.101200 95987.900000
110.096500 10322.700000
112.075600 21806.800000
112.112000 3616.500000
114.091400 188973.600000
115.054200 85452.900000
116.062000 28224.900000
117.069800 170230.500000
118.077600 13028.600000
119.085500 136647.500000
121.064800 8481.800000
121.101000 20840.400000
123.080200 12944.200000
124.112100 8868.800000
128.062000 157043.600000
129.069800 175410.200000
130.077700 92495.200000
131.085500 130891.900000
132.093500 4866.400000
133.101100 61598.900000
140.107100 3852.400000
141.069800 135534.700000
142.077700 237018.600000
143.085600 140115.200000
144.093300 46275.000000
145.101100 91743.700000
147.116900 5762.200000
148.112100 7841.800000
150.127700 3083.600000
153.069800 42920.900000
154.077600 31193.400000
155.085500 100099.900000
156.093300 75154.300000
157.101100 100032.600000
158.109100 9514.100000
159.116800 34024.400000
165.069900 44837.300000
166.077600 26432.700000
167.085500 52470.200000
168.093400 27331.600000
169.101200 62128.100000
170.109100 16391.200000
171.116900 29812.600000
173.132200 6169.200000
178.077500 12054.500000
179.085500 40126.400000
180.093300 16088.400000
181.101200 46503.300000
182.109200 14270.300000
183.116700 27077.100000
184.124800 4149.300000
185.133100 5463.400000
191.085700 10203.200000
192.093300 10029.000000
193.101300 26904.800000
194.108800 12506.500000
195.117000 21006.300000
197.132700 9861.300000
198.140300 2751.900000
205.101300 10166.300000
206.109000 7006.900000
207.117200 12078.800000
208.125100 5426.900000
209.132600 10715.900000
211.148500 3143.200000
217.101400 5110.700000
219.116400 3658.300000
221.133000 7454.300000
223.147800 3288.700000
235.147600 4680.300000
249.164300 4051.300000

