>compound LU28486424
>parentmass 276.08199999999994
>ionization [M+H]+
>formula C12H18ClNO2S
>rt 1041.960000
>profile orbitrap
#smiles_iso CC1=CSC(=C1N(C(C)COC)C(=O)CCl)C
#smiles_can CC1=CSC(=C1N(C(C)COC)C(=O)CCl)C
#inchikey JLYFCTQDENRSOL-UHFFFAOYSA-N
#pubchem_id 91744
#mb_accession LU058601,LU058602,LU058603,LU058604,LU058605,LU058606

>ms2
73.064700 23212.300000
121.064800 238424.600000
138.994500 431044.800000
152.017400 5442.900000
168.084100 35310.300000
204.024600 8266.000000
244.055700 5129417.500000
276.080900 1225958.400000

>ms2
73.064700 87755.500000
76.978900 5908.800000
91.054100 6037.400000
93.069800 8112.400000
111.026300 29079.600000
116.026200 10524.900000
121.064800 456799.300000
138.994500 725975.900000
151.057500 24429.500000
152.016700 5996.800000
166.068400 7150.300000
167.076300 24239.800000
168.084200 570845.500000
186.013900 22650.000000
204.024500 24455.300000
244.055700 5538443.000000
276.080400 57755.500000

>ms2
53.002200 5243.900000
53.038700 3355.900000
56.049500 6519.100000
58.995000 11098.800000
70.065000 2362.400000
73.064700 123841.100000
76.978800 64337.700000
91.054200 25444.600000
93.069900 78908.900000
94.065200 4288.700000
95.049100 8188.400000
95.072900 8860.500000
99.026200 5559.800000
101.041700 4120.400000
103.054300 28170.500000
107.085500 2612.800000
108.080700 17903.700000
111.026300 315144.800000
112.034200 5190.900000
113.029500 2510.500000
113.041800 16097.600000
114.037300 4502.100000
116.026200 18827.800000
117.069800 8382.700000
120.080900 3491.700000
121.064800 535841.100000
122.096400 6917.400000
123.026000 2358.200000
124.034000 9272.300000
125.041900 38318.800000
126.037200 85694.000000
127.021200 21111.100000
127.045000 10756.000000
127.057600 22208.200000
128.028700 2815.600000
128.052800 32954.300000
129.010000 6214.300000
129.036700 20847.800000
132.081100 2519.800000
133.088500 3245.000000
134.096500 15900.000000
135.104200 44401.100000
137.029400 14503.000000
138.037200 42302.800000
138.994500 638382.100000
140.052800 16480.200000
141.073300 2757.400000
144.987500 2616.700000
147.002800 4436.700000
149.042100 6021.600000
150.037200 30152.300000
151.057600 96306.200000
152.016300 16980.100000
152.052800 58232.900000
153.024300 42471.100000
153.060500 9689.900000
154.032000 10415.300000
154.068400 9543.500000
159.003100 2428.500000
166.032100 26659.100000
166.068500 42123.400000
167.076400 149655.700000
168.084100 2175481.200000
174.014300 13843.700000
186.013900 116991.200000
202.008800 28909.100000
203.016500 76016.300000
204.024500 42150.400000
244.055700 2096353.100000

>ms2
50.015300 2310.600000
51.023100 2843.100000
53.002300 9655.800000
53.038600 17049.000000
55.017900 3593.900000
55.054300 4532.400000
56.049500 21925.700000
58.995000 33554.300000
65.038600 5062.800000
67.054200 13252.000000
70.065100 3027.500000
70.995000 3122.700000
73.010700 5281.200000
73.064800 99463.500000
75.994900 4467.900000
76.978900 130630.400000
78.046400 6011.900000
79.018000 3010.900000
79.054200 12124.900000
82.065200 4302.600000
85.010800 5810.000000
86.999700 7466.200000
91.054300 89364.500000
93.070000 170126.700000
94.041200 3558.200000
94.065200 25076.200000
95.049200 45575.700000
95.073000 48929.600000
96.080700 3061.000000
97.010800 10733.700000
99.026400 27905.600000
101.042200 12406.600000
103.054300 98143.800000
104.049800 2882.300000
105.057400 7228.900000
105.070100 4134.700000
106.065100 4411.100000
107.085500 12088.400000
108.080900 41594.600000
110.018500 4423.100000
111.026400 749524.000000
112.021600 5268.200000
112.034200 36749.000000
113.029600 14608.100000
113.042000 52292.500000
114.037300 13348.500000
115.054200 5037.800000
116.026200 12221.800000
117.057300 11020.700000
117.070000 29986.300000
118.065100 12313.500000
118.077800 5120.300000
119.073000 3798.300000
120.080900 31735.200000
121.064900 338545.900000
122.096500 19281.600000
123.026300 12792.800000
124.021700 3488.900000
124.034200 35037.400000
125.029600 5275.400000
125.042100 82185.300000
126.037300 326691.800000
127.021300 29919.000000
127.045200 41437.400000
127.057700 49424.000000
128.029200 6259.500000
128.052900 98203.000000
129.010200 30490.700000
129.037000 34011.200000
132.081100 5680.600000
133.088700 8771.300000
134.096500 53357.600000
135.026400 9456.200000
135.104300 133568.200000
136.021800 8115.200000
136.034200 7935.400000
137.029500 58231.300000
138.037300 138753.500000
138.994700 420603.100000
139.005200 72712.000000
140.052800 33823.000000
141.073500 6347.800000
142.008100 3242.600000
144.987700 4316.900000
147.003100 6194.000000
149.042500 10396.500000
150.037400 95680.600000
151.045900 23734.500000
151.057700 148487.900000
152.016600 47529.700000
152.053000 194624.500000
153.024400 104308.800000
153.060800 53992.500000
154.032300 32086.300000
154.068200 14737.800000
158.036500 5934.700000
159.003400 4977.600000
166.032400 45361.600000
166.068700 44089.900000
167.076500 117704.900000
168.084300 1361766.400000
171.998300 4110.600000
174.014100 9242.100000
183.998700 2262.500000
186.014000 84625.500000
202.008900 15835.000000
203.016800 49848.300000
204.024600 16086.300000
244.055900 291644.500000

>ms2
50.015200 2664.000000
51.023000 3185.600000
53.002200 14550.300000
53.038600 43510.400000
55.017800 7615.400000
55.054300 6367.600000
56.049500 18448.500000
58.995000 68268.200000
65.038500 20540.600000
67.054200 58320.200000
69.069900 2946.700000
70.065000 2558.300000
70.994900 12011.100000
73.010600 14197.700000
73.064800 75946.800000
75.022900 9922.700000
75.994800 9129.800000
76.978800 123046.700000
77.038500 14881.100000
78.046400 18045.400000
79.017900 3204.200000
79.054200 38826.100000
80.049500 10203.800000
81.033500 5528.900000
81.057400 2657.300000
81.069900 2548.500000
82.065100 12086.400000
85.010600 16537.900000
86.999600 24807.900000
91.054300 185820.000000
92.049500 3198.300000
93.057400 20305.700000
93.069900 172868.500000
94.041300 11622.600000
94.065200 65449.200000
95.049200 137357.100000
95.073000 128115.900000
96.056700 2358.800000
96.080800 4530.000000
97.010700 34372.800000
98.018600 5378.800000
99.026300 57896.500000
100.021600 3174.900000
101.042100 26871.600000
102.046500 3873.500000
103.054200 188611.400000
104.049500 15785.000000
105.057300 28890.000000
105.069900 9101.900000
106.065100 10649.400000
107.073000 7536.400000
107.085500 10661.300000
108.080800 52157.900000
109.010600 6840.300000
110.018500 9289.900000
110.060400 2824.900000
111.026300 899660.400000
112.021600 11426.500000
112.034100 77063.000000
113.029500 20844.700000
113.041900 63042.200000
114.037100 11227.800000
115.054200 8674.500000
116.026200 3184.500000
117.057400 20754.800000
117.069900 39528.300000
118.065100 30031.400000
118.077700 9150.400000
119.073100 21702.100000
120.080800 86006.700000
121.064800 164517.200000
122.096300 19476.300000
123.013900 5130.100000
123.026200 20781.400000
124.021600 17206.400000
124.034200 42533.800000
125.029500 23265.800000
125.042000 101745.300000
126.037200 574385.600000
127.021200 24214.500000
127.045000 52499.300000
127.057600 24255.900000
128.029000 6377.800000
128.052800 120233.600000
129.010200 68594.200000
129.036900 21875.100000
132.080700 7708.800000
133.088600 13932.500000
134.096400 62716.600000
135.026200 14399.000000
135.104200 115876.400000
136.021600 31968.300000
136.034200 12270.400000
137.029400 90284.000000
138.037300 242501.500000
138.994600 225654.600000
139.005600 159638.700000
140.052800 28650.900000
141.073500 3821.700000
142.008200 4899.200000
144.987300 2920.500000
147.003300 5524.700000
149.042000 15806.100000
150.037200 109427.200000
151.045500 26474.300000
151.057600 82589.900000
152.016600 102441.700000
152.052900 255134.200000
153.024300 112122.100000
153.060700 71324.900000
154.032000 31444.700000
154.068500 14620.900000
158.036800 6630.800000
159.002800 5525.800000
166.032100 35283.200000
166.068500 35433.500000
167.076300 31526.900000
168.047700 18616.000000
168.084200 360373.100000
171.998000 4631.100000
174.013700 4827.100000
183.998100 2597.600000
186.013900 34240.700000
202.009200 4605.500000
203.016700 11939.600000
244.055700 22456.700000

>ms2
51.023000 4910.800000
53.002200 18268.700000
53.038600 62063.900000
55.017900 6879.900000
55.054300 7427.400000
56.049500 18868.800000
58.995000 78567.300000
65.038500 52967.300000
67.054200 108672.600000
69.069800 3317.300000
70.994900 27349.300000
73.010600 6037.300000
73.064800 30279.300000
75.022900 32129.300000
75.994800 6354.600000
76.978900 62791.900000
77.038600 26996.600000
78.046400 44833.600000
79.017800 4212.300000
79.054200 43666.200000
80.049600 22791.700000
81.033400 8426.900000
81.057400 10464.000000
81.069800 6525.700000
82.065100 25859.100000
85.010600 23462.900000
86.999600 24773.900000
91.054300 171188.200000
92.049500 8591.200000
93.057400 46652.000000
93.069900 82420.000000
94.041400 16834.900000
94.065200 132821.500000
95.049200 195660.900000
95.073000 178664.400000
96.056900 3900.200000
96.080700 3283.200000
97.010700 56547.100000
98.018500 8152.500000
99.026300 64645.700000
100.021600 4294.600000
101.042000 15009.600000
102.046400 6168.200000
103.054300 159690.300000
104.049500 29594.000000
105.057300 57330.300000
105.069800 6588.000000
106.065100 18803.000000
107.072900 8631.800000
107.085600 7463.300000
108.080800 44358.900000
109.010700 16285.500000
110.018600 12723.900000
110.060000 5626.800000
111.026300 642100.800000
112.021700 13166.100000
112.034100 60417.500000
113.029400 19243.900000
113.041900 39480.200000
114.037100 10198.800000
115.054200 12681.200000
117.057400 27122.100000
117.069800 20611.300000
118.065200 37198.400000
118.077600 5175.700000
119.073000 46095.300000
120.080800 97454.500000
121.064800 42756.900000
122.096500 9386.900000
123.013700 11170.700000
123.026300 22503.000000
124.021600 29281.700000
124.034200 26972.900000
125.029500 32051.800000
125.042000 62854.400000
126.037200 492738.000000
127.021400 10738.500000
127.045100 29663.100000
127.057700 7043.100000
128.052800 59718.600000
129.010200 65506.300000
129.036800 9086.300000
132.080700 6867.200000
133.088500 6148.100000
134.096400 58475.100000
135.026200 16864.200000
135.104200 42110.600000
136.021600 58908.000000
136.034000 10654.800000
137.029400 67040.000000
138.037200 224900.200000
138.994700 70504.500000
139.005700 142598.600000
140.053000 14545.700000
142.007600 2122.200000
144.987000 2406.000000
149.042000 6797.000000
150.037200 76373.300000
151.045100 14393.300000
151.057400 16178.200000
152.016500 159175.000000
152.052900 154717.100000
153.024300 44639.000000
153.060700 40564.100000
154.032200 18255.700000
154.068400 7452.100000
158.036900 2283.300000
159.003500 3073.400000
166.032200 15009.400000
166.068800 12892.000000
167.075800 5339.900000
168.048100 2983.800000
168.084100 53327.300000
186.014100 6236.500000

