>compound LU28077596
>parentmass 353.22240000000005
>ionization [M+H]+
>formula C22H28N2O2
>rt 1094.760000
>profile orbitrap
#smiles_iso CCC1=CC=C(C=C1)C(=O)NN(C(=O)C2=CC(=CC(=C2)C)C)C(C)(C)C
#smiles_can CCC1=CC=C(C=C1)C(=O)NN(C(=O)C2=CC(=CC(=C2)C)C)C(C)(C)C
#inchikey QYPNKSZPJQQLRK-UHFFFAOYSA-N
#pubchem_id 91773
#mb_accession LU127001,LU127002,LU127003,LU127004,LU127005,LU127006

>ms2peaks
72.080800 3054.600000
131.049400 2275.700000
133.064900 68213.100000
162.128200 2261.600000
269.038400 214830.500000

>ms2peaks
72.080800 12299.000000
91.054300 21052.900000
92.057600 15204.600000
119.049300 3766.400000
123.080600 2146.800000
133.064900 111196.800000
162.127900 3599.400000
241.010100 2087.000000
242.015400 2358.100000
269.038400 100516.900000

>ms2peaks
65.038500 3495.700000
72.080700 8683.500000
91.054300 109553.000000
92.057600 72072.600000
105.069900 3226.300000
119.049100 10468.700000
123.080500 4333.100000
131.049200 1929.700000
133.064900 84586.600000
162.127900 4580.300000
241.007400 12361.500000
242.014800 8803.900000
269.038300 21192.400000

>ms2peaks
65.038600 5102.100000
66.041900 1986.700000
72.080800 7106.400000
79.054200 5281.400000
91.054200 47156.500000
92.057600 25726.500000
103.054300 4788.300000
105.070000 18306.800000
119.049000 2508.100000
123.080500 11675.200000
131.049300 1691.000000
133.064800 65711.000000
133.075900 8039.800000
160.051900 3812.900000
162.127800 3167.300000
241.007600 3180.700000

>ms2peaks
65.038600 7787.200000
66.041900 3050.900000
72.080700 5493.800000
79.054300 14537.900000
81.033200 2012.100000
91.054300 26043.100000
92.057700 14441.600000
95.049100 5798.600000
103.054200 12704.900000
105.044800 2975.100000
105.070000 31512.100000
123.080500 11849.300000
133.064900 22654.800000
133.076000 5906.900000
160.051300 5767.500000
241.007800 2151.700000

>ms2peaks
65.038600 32047.100000
66.041900 12870.300000
72.080700 2013.600000
79.054200 23218.500000
81.033800 2357.800000
91.054300 52046.300000
92.057600 32789.600000
95.049200 11370.900000
103.054200 15578.500000
105.044700 5121.200000
105.069900 22570.500000
123.080200 3216.600000
133.064600 4571.400000
133.076200 3081.900000
160.051300 23194.300000
241.006600 7797.200000

