>compound LU28960373
>parentmass 195.0877
>ionization [M+H]+
>formula C8H10N4O2
>rt 675.120000
>profile orbitrap
#smiles_iso CN1C=NC2=C1C(=O)N(C(=O)N2C)C
#smiles_can CN1C=NC2=C1C(=O)N(C(=O)N2C)C
#inchikey RYYVLZVUVIJVGH-UHFFFAOYSA-N
#pubchem_id 2519
#mb_accession LU119901,LU119902,LU119903,LU119904,LU119905,LU119906

>ms2
138.066300 156068.300000
180.064700 3205.400000
195.087800 2705389.500000

>ms2
110.071200 10947.000000
138.066300 457047.400000
151.097900 4899.300000
180.064300 4125.900000
195.087900 3326709.200000

>ms2
56.049600 5386.600000
69.044700 35853.700000
83.060300 21050.300000
97.007600 4088.600000
97.039500 3920.400000
109.039700 7197.000000
110.071300 198879.300000
111.055400 10309.800000
112.087300 2288.900000
122.071100 2995.300000
123.042800 6028.600000
135.066800 2704.400000
136.074700 2204.000000
138.066300 1961130.600000
151.097800 10546.800000
156.076800 5755.100000
180.064200 5276.200000
181.071900 6908.600000
195.087800 1663123.500000

>ms2
56.049400 26431.500000
57.044700 5459.900000
67.029100 4155.700000
69.044700 161965.500000
70.028900 2243.200000
80.013100 2177.700000
81.044700 10695.100000
82.052600 6964.500000
83.060300 120016.300000
93.044800 3465.100000
97.007600 14378.500000
97.039700 14696.900000
108.055600 4228.300000
109.039700 36392.300000
110.071300 491951.300000
111.055200 29126.300000
112.087100 2346.200000
122.071500 2566.800000
123.042600 38905.600000
135.066500 4329.800000
136.074200 3801.000000
138.066200 1708302.100000
151.097600 5199.900000
154.061300 4070.000000
156.076800 4689.500000
180.064200 4473.100000
181.071800 3865.500000
195.087700 332062.100000

>ms2
54.033900 6217.700000
56.049500 69237.900000
57.044800 7087.100000
67.029000 7364.600000
68.036900 5757.100000
69.044600 249619.600000
70.028600 3546.500000
80.012900 1864.000000
81.044700 29894.600000
82.052500 13121.000000
83.060300 246447.100000
93.044700 6060.700000
97.007500 21094.400000
97.039700 16768.900000
108.055700 10988.500000
109.039600 70614.800000
110.071200 460008.000000
111.055200 30711.900000
113.034600 3861.700000
122.071100 2558.000000
123.042700 112712.100000
135.066300 4059.500000
136.074400 2821.400000
138.066200 778856.200000
154.060700 3800.100000
156.076200 1738.600000
195.087600 45283.400000

>ms2
54.033900 17160.300000
56.049500 117937.900000
67.029100 19569.700000
68.036800 28829.900000
69.044700 252202.200000
70.028800 4058.100000
80.013000 2198.200000
81.044700 45953.500000
82.052500 22111.800000
83.060400 298823.500000
93.044800 5563.500000
97.007600 34169.600000
97.039700 12419.700000
108.055700 12537.000000
109.039700 64402.700000
110.071300 235981.300000
111.055200 17581.600000
113.034400 2804.700000
123.042700 180880.000000
135.066600 4329.800000
138.066200 242863.500000
154.061300 2097.200000
195.087700 4564.300000

