>compound LU28540376
>parentmass 194.0812
>ionization [M+H]+
>formula C10H11NO3
>rt 707.460000
>profile orbitrap
#smiles_iso CC(=O)NC1=CC=C(C=C1)CC(=O)O
#smiles_can CC(=O)NC1=CC=C(C=C1)CC(=O)O
#inchikey MROJXXOCABQVEF-UHFFFAOYSA-N
#pubchem_id 2018
#mb_accession LU119801,LU119802,LU119803,LU119804,LU119805,LU119806

>ms2peaks
67.017800 4466.700000
106.065200 1170173.500000
107.049200 51712.700000
148.075700 4049219.800000
152.070600 110059.600000
166.086400 12520.000000
176.070700 5327.500000
194.081300 3278196.500000

>ms2peaks
67.017800 5357.100000
105.057000 5293.900000
106.065100 2170876.000000
107.049200 79738.600000
135.044000 6376.800000
148.075600 4274559.000000
152.070600 148901.100000
166.086300 17386.700000
176.070700 9919.200000
194.081200 2123981.500000

>ms2peaks
67.017900 11419.900000
106.065100 6398536.500000
107.049000 136499.000000
135.044100 10983.000000
148.075600 1953180.500000
152.070600 154023.100000
166.086000 25756.400000
176.070500 21901.600000
194.081200 267913.900000

>ms2peaks
67.017700 8933.800000
79.054200 34895.300000
93.057500 14093.400000
106.065100 8109021.500000
107.049000 97785.200000
135.044200 13127.100000
148.075600 335306.600000
152.070600 67353.500000
166.086300 15296.500000
176.070600 12775.000000
194.081400 16413.600000

>ms2peaks
53.038500 8780.400000
67.017800 8652.800000
79.054200 111027.500000
93.057400 27824.100000
95.049200 28229.100000
106.065100 7599211.500000
107.049000 68922.800000
148.075600 38362.500000
152.070700 18527.600000

>ms2peaks
53.038500 30705.100000
77.038300 14475.500000
79.054200 359321.900000
80.049300 21369.400000
89.038500 25620.200000
93.057300 85553.300000
95.049100 97384.600000
96.044300 19595.500000
106.065100 7208234.000000
107.049000 52415.000000

