>compound LU29238905
>parentmass 289.1215
>ionization [M+H]+
>formula C15H17ClN4
>rt 1065.660000
>profile orbitrap
#smiles_iso CCCCC(CN1C=NC=N1)(C#N)C2=CC=C(C=C2)Cl
#smiles_can CCCCC(CN1C=NC=N1)(C#N)C2=CC=C(C=C2)Cl
#inchikey HZJKXKUJVSEEFU-UHFFFAOYSA-N
#pubchem_id 6336
#mb_accession LU070501,LU070502,LU070503,LU070504,LU070505,LU070506

>ms2peaks
70.039900 1943421.500000
125.015000 55823.800000
151.031200 9643.500000
163.019600 7359.700000
193.077600 15269.400000
203.062400 7247.300000
220.088600 70470.700000
289.121400 5353363.000000

>ms2peaks
55.054200 12832.400000
70.039900 7116579.000000
74.096300 7203.500000
81.070000 11804.000000
82.065100 17410.700000
83.047800 17068.500000
95.072800 13258.800000
108.080600 11395.300000
125.015200 709764.600000
151.030900 182014.800000
163.030800 7970.000000
164.026000 54567.800000
165.034100 25200.600000
166.041700 53993.600000
167.085400 7822.100000
168.093400 23672.400000
175.031000 9130.800000
178.041700 64200.800000
185.120000 12762.400000
192.057300 23073.300000
193.077800 97837.200000
203.062000 81071.000000
220.088600 277330.600000
289.121200 1001101.800000

>ms2peaks
55.054200 32749.200000
57.069900 15297.700000
70.039900 5490646.500000
81.069800 24699.900000
82.039900 12666.300000
82.065200 22461.200000
83.047700 24938.700000
95.072900 20818.500000
97.064600 5882.300000
108.080600 7265.300000
109.064800 5598.000000
115.054200 10124.000000
125.015200 1442526.400000
130.065100 15672.800000
139.030900 14728.000000
143.073000 6055.400000
149.015300 15296.500000
150.010400 18207.100000
151.030900 401455.700000
153.069800 8022.100000
163.030600 11944.700000
164.026100 116440.300000
165.034100 40364.900000
165.046800 6422.600000
166.041800 53135.300000
167.085600 14430.400000
168.093500 45536.500000
175.030900 26613.200000
178.041700 86532.300000
184.112100 9124.500000
185.120000 10538.000000
191.049400 8153.900000
192.057600 19494.000000
193.077900 27541.100000
203.062100 35366.300000
220.088700 42717.000000
289.121700 10383.000000

>ms2peaks
55.054300 36799.700000
57.069900 23439.900000
67.054200 7984.600000
70.039900 5291299.000000
74.096400 5945.500000
79.054000 5721.100000
80.049400 8382.800000
81.069900 27275.800000
82.040000 37082.100000
82.065200 12083.100000
83.047800 31683.400000
89.038500 27343.600000
94.065100 11423.800000
95.073000 17088.300000
97.064700 6546.400000
98.999500 9117.000000
115.054300 50949.700000
116.062100 56668.000000
125.015300 2186899.000000
128.049500 19282.100000
128.062000 6301.500000
129.069900 7105.000000
130.065200 47109.500000
131.073000 16614.200000
137.015200 20951.900000
139.031200 16805.400000
142.077700 8395.800000
143.060400 6024.000000
143.073100 14482.000000
149.015300 32657.200000
150.010500 49087.700000
151.031000 395876.300000
153.069900 20576.700000
156.081100 10836.900000
163.030900 5708.800000
164.026200 138496.800000
165.034100 26345.500000
165.046600 9185.600000
166.042000 28558.600000
167.085600 15247.700000
168.093400 25572.500000
170.096300 9618.200000
175.031100 23195.300000
178.041900 66687.000000
184.112100 7558.800000
185.119900 8361.200000
191.049800 6048.500000
192.057400 8129.500000
203.062300 5918.700000

>ms2peaks
53.002200 6752.300000
55.054200 37383.800000
57.069800 15559.700000
63.022900 9231.200000
66.046300 4734.600000
67.054200 7798.800000
70.039900 4647574.500000
79.054100 15356.000000
80.049500 10063.800000
81.069900 23594.700000
82.040000 55507.200000
82.065100 9564.600000
83.047800 22619.800000
89.038500 147455.900000
90.046500 22060.800000
91.054300 9881.700000
94.065200 11252.100000
95.073000 9042.400000
97.064800 6347.900000
98.999600 53001.100000
102.046500 15250.400000
103.054300 8629.100000
115.054200 119222.800000
116.062000 181182.700000
119.049000 5265.700000
122.999600 5570.100000
125.015300 2538139.800000
128.049400 68201.200000
128.062100 9365.300000
129.044600 11253.600000
129.069900 13455.900000
130.065100 60112.600000
130.077700 9130.200000
131.073000 17532.900000
133.065100 6028.100000
137.015200 50791.600000
139.031000 11006.200000
142.077800 10242.900000
143.060500 13769.900000
143.072900 29465.200000
143.085700 11419.700000
146.060000 6954.300000
149.015300 36858.100000
150.010500 66210.200000
151.030900 219110.400000
152.062200 7174.600000
153.070000 28959.600000
156.081200 11784.800000
157.088600 5362.900000
164.026100 88668.400000
165.046400 4701.800000
166.042100 7044.000000
167.085700 13453.200000
168.093700 7915.200000
170.096500 7926.600000
175.031100 13816.100000
177.033800 6099.100000
178.041900 22032.000000
184.112200 7803.900000

>ms2peaks
53.002200 7763.900000
53.038600 4966.200000
55.054200 36311.800000
57.069900 8485.300000
63.022900 19952.500000
65.038500 13008.800000
66.046400 13236.400000
67.041600 5776.900000
70.039900 3943102.800000
72.984000 13239.900000
79.054200 19211.300000
80.049500 12414.100000
81.069900 13391.200000
82.040000 71928.600000
82.065100 4669.700000
83.047800 11749.100000
89.038600 392464.800000
90.046400 73182.400000
91.054300 18120.700000
93.057300 4215.200000
94.065200 10738.800000
95.049200 10913.300000
98.999600 177443.800000
102.046400 42621.000000
103.054200 15711.100000
115.054200 156430.400000
116.062000 239374.100000
119.049100 9830.400000
122.999500 19368.000000
125.015300 2152135.000000
128.049500 70077.400000
128.061900 15759.000000
129.044700 30505.600000
129.069700 17467.300000
130.065100 67219.700000
131.073100 11092.600000
133.064800 9768.300000
137.015300 44849.100000
139.030800 4342.700000
141.070000 6074.300000
142.077700 6435.500000
143.060600 11592.600000
143.072800 27657.400000
143.085600 8667.300000
146.060100 9384.100000
149.015200 35541.800000
150.010500 53360.000000
151.030900 67222.500000
152.062100 10579.500000
153.069900 25535.400000
156.081000 11843.400000
164.026100 37270.700000
167.085400 9078.200000
168.020800 4803.300000
175.030900 8257.900000
178.041400 5570.600000
184.112300 5601.500000

