>compound LU29326344
>parentmass 119.0637
>ionization [M+H]+
>formula C4H10N2S
>rt 415.820000
>profile orbitrap
#smiles_iso CNC(=S)N(C)C
#smiles_can CNC(=S)N(C)C
#inchikey JAEZSIYNWDWMMN-UHFFFAOYSA-N
#pubchem_id 2779938
#mb_accession LU088601,LU088602,LU088603,LU088604,LU088605,LU088606

>ms2
74.005900 11794.200000
88.021600 92539.900000
119.064200 4183.500000

>ms2
58.065200 1352.300000
74.005900 14330.400000
88.021600 97662.100000
119.064500 3069.100000

>ms2
74.005900 14260.900000
88.021600 95672.000000
119.064600 2714.100000

>ms2
56.049400 1667.700000
58.065200 1951.500000
59.072900 5430.900000
74.005900 18241.900000
88.021600 109262.900000

>ms2
56.049500 4567.700000
58.065200 5819.800000
59.073000 3708.700000
72.998100 5956.400000
74.005900 22704.300000
88.021600 93846.300000

>ms2
56.049500 2747.700000
58.065200 6838.200000
59.073000 3371.700000
72.998100 15468.800000
74.005900 28717.700000
88.021600 86777.100000

