>compound LU29384650
>parentmass 585.2906
>ionization [M+H]+
>formula C29H44O12
>rt 715.080000
>profile orbitrap
#smiles_iso C[C@H]1[C@@H]([C@H]([C@H]([C@@H](O1)O[C@H]2C[C@H]([C@@]3([C@@H]4[C@@H](CC[C@@]3(C2)O)[C@]5(CC[C@@H]([C@]5(C[C@H]4O)C)C6=CC(=O)OC6)O)CO)O)O)O)O
#smiles_can CC1C(C(C(C(O1)OC2CC(C3(C4C(CCC3(C2)O)C5(CCC(C5(CC4O)C)C6=CC(=O)OC6)O)CO)O)O)O)O
#inchikey LPMXVESGRSUGHW-HBYQJFLCSA-N
#pubchem_id 439501
#mb_accession LU047201,LU047203,LU047204,LU047205,LU047206

>ms2peaks
111.043900 2524.100000
129.054500 7948.300000
157.101400 3853.200000
319.169000 5474.700000
337.179500 17051.900000
349.178700 3861.100000
355.190400 28933.400000
367.190200 13921.500000

>ms2peaks
57.033400 2708.100000
67.054100 3093.400000
71.049100 20433.900000
79.054100 3067.400000
81.069900 3349.800000
83.049300 8322.900000
85.028400 31764.500000
91.054300 4656.500000
93.070100 5080.000000
105.070000 6979.900000
107.085400 3707.700000
111.044200 5144.500000
117.069900 10344.400000
119.085400 4405.100000
121.065100 2680.100000
125.059500 2511.300000
129.054600 3477.200000
129.070100 11613.100000
131.085700 13655.100000
133.101300 5595.500000
141.069900 18416.500000
143.085600 22020.700000
145.101200 13043.400000
147.080500 4492.200000
155.085600 7363.000000
157.101200 51348.600000
159.080700 8585.900000
159.116900 9426.000000
163.075900 2669.800000
167.085800 5417.600000
169.101200 8714.500000
173.096200 3622.200000
179.085400 3354.200000
181.101200 6566.100000
183.116800 5660.600000
193.101100 4141.200000
195.117200 5471.800000
219.117300 3693.400000
259.148800 4479.100000
273.163800 6881.000000
319.169300 8212.600000
337.180000 6218.200000
349.180200 7816.800000
355.190200 6086.400000
367.189600 4007.000000

>ms2peaks
55.054400 3051.600000
57.033600 3315.800000
67.054300 2572.500000
71.049200 12167.700000
79.054300 4596.200000
81.070000 2985.700000
83.049300 5869.700000
85.028500 15240.800000
91.054300 13090.100000
93.070000 3805.800000
105.070100 7917.300000
107.085500 3306.600000
109.065000 2370.500000
111.044200 2392.900000
115.054300 3842.200000
117.069800 10742.900000
119.085700 4377.300000
121.065100 2393.000000
125.060300 2458.100000
128.062300 4403.600000
129.070000 22616.600000
131.085700 15773.800000
133.101700 2740.400000
141.070000 14054.600000
142.078200 2687.400000
143.085800 17440.700000
145.101500 10153.900000
147.080800 4061.800000
155.085900 6507.800000
157.101300 23571.200000
159.081200 3702.500000
159.117100 3958.300000
163.076100 2407.300000
167.086100 5360.300000
169.101700 4603.100000
173.096400 3673.600000
179.085500 2036.900000
180.094500 2300.700000
181.101500 5692.100000
183.116500 2870.300000
193.101500 3711.100000
195.117500 2860.000000
217.101500 2502.600000
219.116600 2848.200000
259.147900 2408.100000
273.162900 2487.300000

>ms2peaks
55.054300 4066.200000
57.033500 4396.100000
67.054300 4507.500000
71.049200 14966.900000
79.054100 9990.500000
81.069900 2529.800000
83.049200 2424.200000
85.028400 14642.000000
91.054400 24461.200000
93.070000 5324.700000
95.049200 2921.900000
105.069900 18443.300000
109.064900 2335.600000
111.044200 1967.800000
115.054300 9557.800000
116.062100 3970.900000
117.069900 17190.900000
119.085600 8479.400000
128.062200 16370.500000
129.069900 31003.300000
130.077800 2362.500000
131.085600 13635.400000
141.070100 18295.600000
142.077900 10400.500000
143.085500 16146.500000
145.064600 2441.800000
145.101500 6000.100000
154.078100 3689.400000
155.085400 7061.800000
157.101300 11195.300000
159.080500 3960.300000
159.117500 2330.900000
165.070000 4190.400000
166.077800 3489.600000
167.085600 3530.900000
169.101600 4304.300000
178.077700 2797.000000
179.085600 4652.900000
181.101400 4174.600000
193.100800 2196.300000
195.117100 2847.600000
203.085300 4089.200000
217.101400 2652.600000

>ms2peaks
55.054200 5552.200000
57.033500 5224.700000
67.054300 8283.800000
71.049000 10839.700000
79.054200 16505.200000
85.028600 5433.600000
91.054200 41939.900000
93.070200 5043.500000
95.049300 7252.800000
105.069800 15494.700000
115.054300 21633.800000
116.062100 8468.500000
117.070000 14356.400000
119.085600 6286.200000
128.062000 35492.300000
129.069900 33521.700000
130.077600 3330.100000
131.085300 10569.600000
141.069900 20603.400000
142.077800 13204.500000
143.085800 8651.800000
145.064900 3426.400000
145.101100 3273.000000
154.077900 3895.600000
155.085800 5985.100000
157.101400 2975.200000
165.069900 10421.400000
166.077900 5485.500000
167.085900 4793.300000
178.077700 4601.900000
179.085700 3367.300000
180.093700 3160.200000
181.101300 3646.500000
193.101500 2990.700000
203.085900 3012.200000

