>compound LU29886815
>parentmass 230.1167
>ionization [M+H]+
>formula C9H16ClN5
>rt 1041.640000
>profile orbitrap
#smiles_iso CCNC1=NC(=NC(=N1)Cl)NC(C)(C)C
#smiles_can CCNC1=NC(=NC(=N1)Cl)NC(C)(C)C
#inchikey FZXISNSWEXTPMF-UHFFFAOYSA-N
#pubchem_id 22206
#mb_accession LU099101,LU099102,LU099103,LU099104,LU099105,LU099106

>ms2peaks
104.001200 16168.500000
146.022700 184422.200000
146.047800 18795.600000
152.118300 32386.300000
188.069700 1867293.200000
230.116600 16053927.000000

>ms2peaks
57.069900 103616.400000
79.005700 106844.300000
96.055600 71887.400000
132.032300 98252.300000
138.077100 26187.200000
146.022600 82252.900000
174.054000 16856310.000000
230.116600 5288529.500000

>ms2peaks
57.069900 320930.900000
61.979300 20184.700000
68.024200 143786.700000
71.060300 149273.200000
79.005700 1135461.800000
90.010600 25679.400000
96.055600 1118125.900000
104.000900 284620.900000
110.046100 74901.900000
132.032300 1053920.400000
138.077400 294096.700000
146.022800 892518.700000
174.054100 16243585.000000
230.116700 285322.500000

>ms2peaks
53.002200 39129.600000
61.979000 44760.500000
68.024300 1115591.600000
79.005700 1679117.100000
85.076000 64753.500000
104.000900 2288170.200000
110.046100 1011663.600000
110.071200 149887.000000
146.022700 10101703.000000
152.093200 35611.600000
152.118100 20158.600000
188.069700 2144304.000000
230.116600 160193.300000

>ms2peaks
53.002200 15583.400000
57.069900 433863.700000
61.979200 227923.700000
68.024300 3093403.800000
71.060300 1404362.000000
74.096200 8005.900000
79.005700 2806936.800000
90.010500 139883.000000
96.055600 3051800.500000
104.001000 3147910.800000
107.037000 16832.000000
110.046100 410556.300000
132.032300 1621587.800000
138.077400 453728.500000
146.022800 1188938.500000
172.038300 14452.000000
174.054100 1638097.500000

>ms2peaks
53.002200 11720.000000
53.013500 5287.900000
57.069900 311358.900000
61.979200 533901.600000
68.024300 4675317.000000
71.060300 1249271.600000
74.096300 6665.300000
79.005700 2147828.800000
90.010500 81762.100000
96.055600 1616476.600000
104.001000 3303338.500000
107.037200 5787.700000
110.046100 302069.900000
132.032300 572779.600000
138.077400 167303.700000
146.022800 461606.600000
172.038700 7513.900000
174.054100 235155.100000

