>compound LU30553417
>parentmass 160.11210000000003
>ionization [M+H]+
>formula C11H13N
>rt 533.280000
>profile orbitrap
#smiles_iso CN(CC#C)CC1=CC=CC=C1
#smiles_can CN(CC#C)CC1=CC=CC=C1
#inchikey DPWPWRLQFGFJFI-UHFFFAOYSA-N
#pubchem_id 4688
#mb_accession LU050401,LU050402,LU050403,LU050404,LU050405,LU050406

>ms2
56.049500 17587.100000
68.049400 15445.500000
82.065200 2201.400000
91.054300 630311.400000
117.069700 2101.900000
128.062100 2493.000000
129.069900 50201.200000
131.085700 13512.700000
143.085300 2149.600000
145.088500 6577.400000
160.112100 227714.200000

>ms2
56.049400 12598.200000
68.049500 16584.100000
82.065200 2668.700000
91.054200 538613.300000
117.069800 1981.000000
128.062400 2208.000000
129.069900 49030.800000
131.085500 14984.900000
145.089000 6320.000000
160.112100 205583.900000

>ms2
56.049400 14530.900000
65.038600 3753.900000
68.049500 13681.300000
82.065100 4334.000000
91.054200 1008399.900000
117.069900 2328.400000
118.065000 2694.500000
128.062100 17838.900000
129.069800 85412.900000
130.065200 3031.800000
131.072900 3017.900000
131.085600 19863.100000
132.080800 2603.800000
143.085800 1914.600000
144.080700 4245.600000
145.088800 16064.500000
160.112100 97709.700000

>ms2
56.049500 11333.100000
65.038600 12819.000000
68.049400 10509.200000
82.065200 2206.200000
91.054300 1051642.400000
105.069900 3436.300000
116.062000 2113.900000
117.069800 4068.800000
118.065300 2301.000000
128.062100 32399.900000
129.070000 63903.700000
130.065300 5106.700000
131.073100 2797.500000
131.085700 13727.600000
132.080500 2629.600000
144.080900 13513.000000
145.088800 15445.400000
160.112000 18578.300000

>ms2
56.049500 7790.900000
65.038600 31510.900000
68.049500 10652.400000
91.054300 861130.200000
103.054300 2098.300000
105.069800 1622.800000
115.054200 2133.200000
116.062500 1812.600000
117.069900 5100.000000
118.065700 2365.000000
128.062200 38876.000000
129.069900 30015.100000
130.065200 5852.000000
131.073100 3113.700000
131.085500 3427.500000
144.081000 17004.300000
145.088800 5718.900000
160.112300 5327.800000

>ms2
56.049500 4190.300000
65.038600 93543.800000
68.049400 10501.300000
91.054300 867984.900000
103.054400 4402.600000
115.054200 7694.100000
116.062200 3657.800000
117.069800 7568.600000
128.062100 41875.700000
129.070000 14619.400000
130.065400 8177.100000
131.085500 2509.600000
144.080800 19868.800000
145.088700 3798.300000
160.113000 1768.400000

