>compound LU30472812
>parentmass 431.1197
>ionization [M+H]+
>formula C19H18N4O8
>rt 1039.860000
>profile orbitrap
#smiles_iso COC1=CC(=NC(=N1)OC2=C(C(=CC=C2)OC3=NC(=CC(=N3)OC)OC)C(=O)O)OC
#smiles_can COC1=CC(=NC(=N1)OC2=C(C(=CC=C2)OC3=NC(=CC(=N3)OC)OC)C(=O)O)OC
#inchikey RYVIXQCRCQLFCM-UHFFFAOYSA-N
#pubchem_id 443031
#mb_accession LU016201,LU016202,LU016203,LU016204,LU016205,LU016206

>ms2
125.035200 7953.500000
157.060800 47119.100000
260.043000 10328.300000
275.065900 7555180.500000
387.129500 83526.700000
413.109100 1684400.600000

>ms2
72.044300 19892.900000
114.055000 8642.700000
116.034300 30361.700000
119.012800 63501.200000
125.035300 8995.500000
126.018500 12737.600000
137.023400 10810.900000
139.050200 126669.500000
140.034200 48599.000000
157.060800 202622.800000
171.076100 17805.300000
176.033900 16905.300000
201.024800 7155.600000
216.053100 6539.000000
218.045000 10470.300000
231.075800 19917.000000
243.040100 196724.100000
249.087200 11731.500000
256.071400 8270.700000
257.056000 14473.300000
260.042200 13318.800000
261.050600 117739.200000
263.102700 20781.400000
267.040200 6849.400000
274.081800 14271.000000
275.066200 6013065.000000
280.071400 21473.700000
288.098000 71488.100000
289.081800 225004.700000
300.061600 92281.400000
312.097900 52894.800000
314.076900 47503.200000
321.109500 6643.800000
324.061500 97760.500000
330.108100 6873.000000
337.093000 75627.500000
342.073100 7075.200000
343.116700 15971.600000
345.120100 10940.500000
355.103600 13399.100000
356.088000 43892.600000
366.059700 12229.700000
369.119400 36920.800000
370.103500 83456.200000
381.083100 454999.200000
387.129500 37985.800000
413.109400 1648787.100000

>ms2
55.017800 2472.800000
56.013200 3271.200000
58.028600 2591.800000
63.022900 5877.800000
68.013000 3876.100000
68.997100 13361.800000
69.992300 34066.100000
71.060300 45537.700000
72.044300 127990.300000
82.028700 36898.400000
83.012700 30729.900000
83.023900 42779.500000
90.033800 3448.400000
91.017800 43107.300000
95.049000 4488.300000
95.060100 4168.200000
96.044400 6474.200000
100.039300 13092.900000
107.024000 150131.700000
108.044300 12172.200000
109.039500 5786.300000
112.039400 2878.300000
114.055000 23030.500000
116.034200 75586.100000
116.049400 4868.100000
118.064800 3348.800000
119.012800 1089672.500000
125.034500 24686.600000
126.018600 59488.300000
126.054900 16165.000000
128.049000 5046.900000
130.065100 3882.200000
132.044600 18116.000000
134.059800 5159.400000
136.039400 10297.000000
137.023400 86115.400000
139.050200 722630.600000
140.034200 144149.300000
143.060400 8884.800000
144.044400 7137.800000
145.052600 2717.000000
146.059900 23662.400000
147.055300 7093.300000
148.039400 3695.600000
148.063200 4507.200000
150.055300 12830.300000
151.039000 7441.400000
153.065700 11883.300000
155.060300 10521.800000
157.060800 299369.200000
158.060100 10209.900000
159.031900 4090.500000
159.055100 8530.500000
160.027300 3851.300000
160.075700 4749.900000
161.071100 4336.000000
162.018600 9022.500000
162.055100 10850.500000
169.039800 14211.500000
169.075900 4520.700000
171.055400 39109.800000
171.076400 201788.100000
172.039300 6971.100000
172.047600 4015.100000
172.063300 3009.400000
173.047000 6588.600000
174.042600 5115.800000
174.055200 11022.900000
175.050200 28329.600000
176.034100 30414.500000
176.070900 5581.800000
177.044000 3098.600000
180.055600 3207.100000
183.055600 3802.300000
184.027000 6676.200000
185.034800 5110.900000
185.071000 22212.700000
185.092100 9268.600000
186.018600 9513.900000
186.055200 14329.300000
187.050000 12310.600000
188.058100 24425.000000
188.070400 6232.300000
189.042100 5217.900000
189.065900 8288.200000
190.050000 7462.200000
195.055100 3536.400000
196.050700 3248.400000
196.063200 3291.100000
197.034700 4549.000000
197.071200 6459.200000
198.042500 11607.300000
198.066500 4726.600000
199.050200 80789.700000
200.034000 7986.600000
200.058200 5196.800000
200.081700 3782.600000
201.065900 15391.300000
202.037600 3006.900000
203.044900 3425.700000
203.081400 5680.000000
204.065600 5285.500000
207.076700 26859.400000
209.058300 4628.800000
211.050500 6497.200000
212.082000 10089.000000
213.029700 3632.700000
213.065300 15008.300000
215.045000 110586.900000
216.052900 23225.100000
217.060900 21613.800000
218.044800 18664.300000
219.040000 26943.500000
224.045600 3787.800000
224.058100 3667.600000
224.069900 5295.900000
224.081500 7225.900000
225.065600 8008.100000
226.060900 21937.500000
227.045000 7527.100000
228.076300 6021.600000
229.060700 23411.200000
230.068400 4786.700000
230.092600 7799.300000
231.076400 27294.200000
232.048100 13985.700000
232.060300 7661.900000
237.053200 7023.400000
238.061200 7671.800000
239.045600 5984.200000
239.068800 6442.000000
240.040100 4474.300000
240.052900 6390.400000
240.077100 7284.000000
241.048000 14712.200000
241.060500 3441.900000
242.032200 8057.300000
242.055300 13306.400000
243.040000 1032927.800000
244.108300 5727.500000
245.056100 7726.000000
245.092000 24898.600000
247.072600 3685.000000
249.087400 6900.200000
250.060900 12121.600000
251.056500 4591.700000
251.068800 5875.200000
252.053200 8966.600000
252.076600 30749.600000
253.048200 4336.400000
253.060900 20322.400000
254.056000 5225.200000
255.076900 5266.900000
256.048200 3104.300000
256.071500 33799.700000
257.055700 84600.800000
259.071200 5016.400000
260.042700 16314.600000
261.050600 683192.100000
263.055900 4122.000000
263.102500 21454.800000
264.040000 5149.500000
264.063900 18613.500000
265.048100 26682.900000
265.072200 7022.600000
266.056300 9856.500000
267.039800 32810.600000
268.035200 15400.200000
268.071700 16467.000000
269.079700 10765.600000
272.066500 6164.400000
274.081800 17621.200000
275.066200 1934269.500000
278.057200 2986.000000
280.071700 116515.700000
281.055400 22846.700000
283.059000 7048.000000
284.043500 3453.600000
284.066500 4215.700000
285.050400 27454.000000
288.098000 52066.700000
289.081800 225658.200000
293.066700 4097.500000
294.051500 18859.100000
296.066800 20059.000000
298.083100 7185.200000
300.061500 36219.500000
300.096500 6506.700000
307.094300 58948.700000
309.038100 9516.100000
312.098000 94869.500000
314.077500 23507.000000
321.062200 7602.200000
321.108600 5789.700000
322.069300 29164.300000
323.077500 18389.200000
324.061500 236689.500000
330.107400 4053.700000
337.092800 33005.400000
342.072700 19045.900000
342.108400 36743.200000
343.116500 9294.100000
345.120100 6759.400000
355.102800 5755.000000
356.087700 9843.200000
366.059600 43099.600000
369.119400 7674.800000
370.103200 79572.700000
381.083100 112248.000000
413.109600 52846.900000

>ms2
53.002200 3231.300000
54.033900 4225.000000
55.017900 11042.600000
55.041600 3445.900000
56.013100 6798.500000
58.028800 7162.600000
63.022900 28328.100000
65.038600 10194.100000
67.005300 10502.800000
68.013100 21746.600000
68.997100 67697.200000
69.992300 84276.200000
71.060300 201816.200000
72.044400 109513.400000
75.022900 5594.700000
79.029100 8633.800000
79.054300 7728.700000
80.036700 2935.100000
80.049500 5434.000000
81.033600 5215.800000
81.044700 13029.500000
82.028800 66832.400000
83.012800 35486.600000
83.024000 192937.800000
84.044300 4476.300000
89.038600 11660.300000
90.033800 10774.500000
91.017900 362338.000000
92.049700 3645.300000
93.008300 15437.900000
93.033500 3617.200000
95.049300 27033.300000
95.060400 4898.100000
96.044500 4771.300000
100.039300 43545.900000
103.041900 3077.600000
103.054300 7866.900000
104.049500 10074.200000
105.057300 4281.300000
106.028900 3077.600000
107.024000 181044.200000
108.044500 29675.100000
109.039700 28092.600000
110.023900 5097.900000
112.039200 12770.300000
114.034000 14109.300000
114.055000 14976.400000
115.054400 5388.100000
116.034200 38077.200000
116.049500 28575.400000
117.057400 8390.600000
118.029000 3842.900000
118.065300 10636.600000
119.012800 2456444.200000
120.044300 12160.500000
121.028500 6274.100000
122.036200 9141.900000
124.039700 3870.600000
125.034600 84293.800000
126.018600 79095.000000
126.055000 8427.600000
127.050200 4894.600000
128.037500 3332.200000
128.049600 26114.500000
129.044700 8770.100000
129.057300 10607.400000
130.028900 8948.200000
130.052500 2866.800000
130.065300 19639.400000
131.060600 8246.400000
132.044400 37418.000000
133.052200 7435.100000
134.059900 21394.200000
135.031600 4486.100000
135.055300 3893.800000
136.039400 8767.400000
137.023400 101109.500000
139.050300 790133.400000
140.034200 77970.100000
140.049300 4930.600000
141.044600 13872.700000
142.029000 3621.500000
142.037900 3155.100000
142.052700 13901.800000
142.064800 3399.800000
143.036900 5874.200000
143.060400 26217.900000
144.044500 29518.200000
145.039600 3784.700000
145.052400 19168.000000
145.076600 3076.200000
146.023700 3662.100000
146.047600 3450.300000
146.060100 36057.100000
147.055300 13621.300000
148.039400 5277.500000
148.063300 10186.900000
149.047300 4053.100000
150.031400 5716.600000
150.055200 8403.800000
151.039000 4967.300000
153.044700 30392.200000
153.065700 4016.800000
154.026000 5912.300000
154.052500 3197.300000
155.060600 29938.600000
156.031900 5763.300000
156.044300 9794.200000
156.068300 4740.600000
157.060800 270464.300000
158.023700 3313.400000
158.047600 10249.000000
158.060200 17839.600000
159.031600 6915.200000
159.055300 30559.300000
160.026900 10715.800000
160.039400 7793.600000
160.063300 4238.900000
160.075600 4053.300000
161.047200 8808.000000
161.071100 9502.000000
162.018300 16035.800000
162.055100 14732.200000
165.044500 4787.600000
165.054800 4280.700000
167.060300 4423.600000
168.032400 3128.700000
168.042200 8052.500000
168.055900 3497.100000
168.068500 5732.700000
169.039500 26580.300000
169.076700 7213.500000
170.024000 4119.300000
170.047500 11099.000000
171.055300 79621.200000
171.076400 187986.700000
172.039800 15397.500000
172.047700 3018.500000
172.062800 6241.900000
173.034800 8010.700000
173.047300 12776.200000
173.070900 10361.000000
174.042400 16341.500000
174.054900 22474.400000
175.050300 23441.400000
176.034200 24882.600000
176.070700 10806.400000
177.042000 3946.300000
179.021700 7984.400000
179.060200 3244.800000
180.055600 12017.000000
181.040000 5179.400000
181.050700 4771.600000
181.064000 5005.100000
182.071200 3484.700000
183.055200 10821.300000
184.027000 17931.000000
184.050900 5152.100000
184.063200 6119.800000
185.034700 5876.100000
185.058300 5464.600000
185.071100 42111.400000
185.092000 9100.200000
186.018700 7071.400000
186.042900 13335.200000
186.055100 17663.900000
186.065000 4713.300000
187.050300 29440.100000
188.058200 21530.000000
189.041900 6475.400000
189.065800 6439.000000
190.049900 13352.900000
192.055100 4775.500000
193.063000 3323.400000
194.034500 3810.900000
194.045800 2989.100000
194.071000 4083.500000
195.055200 6253.200000
196.050700 12012.900000
196.062200 6195.800000
197.034700 11797.600000
197.071300 8704.700000
198.033100 3108.900000
198.042600 21493.300000
198.066300 6693.200000
199.050200 143335.000000
200.024100 3648.600000
200.034200 19512.800000
200.058100 8508.900000
200.081800 6787.100000
201.029300 3975.800000
201.066000 30892.800000
202.037600 5631.700000
202.060800 3107.700000
203.045100 6103.500000
203.081600 4122.900000
204.066000 3500.500000
207.076300 6650.100000
209.058400 11147.200000
210.042900 6846.400000
210.066500 11247.400000
211.014000 8507.000000
211.050300 14158.600000
212.045600 8789.600000
212.081800 5863.900000
213.029900 4434.300000
213.053500 7191.700000
213.066200 10998.400000
214.037800 5856.100000
214.061300 6511.700000
215.045100 133277.000000
216.052800 16920.400000
217.061000 31845.900000
218.044700 8372.500000
219.040300 25300.000000
220.050600 6419.800000
222.066400 6316.300000
223.050300 4767.600000
224.045600 8462.900000
224.057800 5731.700000
224.069400 6501.100000
224.081800 7435.400000
225.053700 6229.900000
225.066300 8526.100000
226.061100 19941.700000
227.045300 18256.300000
228.076800 11089.800000
229.060900 30081.800000
230.045400 6010.600000
230.068900 4492.200000
231.040600 4309.400000
231.076400 13982.800000
232.047700 15536.200000
232.060200 6367.400000
234.053700 3149.100000
235.038200 5146.200000
236.045500 11245.500000
237.030100 7021.400000
237.052900 13483.200000
238.037600 2692.000000
238.061000 13785.100000
239.045500 7790.800000
239.069000 7512.100000
240.040300 8130.000000
240.053000 13721.400000
240.076900 7819.700000
241.048300 22177.600000
241.060400 4465.400000
242.032500 5851.700000
242.056100 11477.800000
243.040100 334371.900000
244.107400 3546.300000
245.055800 4376.800000
245.092600 5196.200000
250.048400 6726.200000
250.061600 14036.200000
251.032600 7489.800000
251.056700 6018.400000
251.069400 4014.600000
252.040400 7495.700000
252.053300 4230.000000
252.076800 16379.100000
253.048000 5188.400000
253.060900 30680.100000
254.055900 15512.400000
255.077100 7214.500000
256.048000 3070.100000
256.071500 15287.500000
257.056000 30198.400000
259.071600 8675.500000
261.050700 256416.600000
263.056200 9326.400000
263.102200 3697.200000
264.040400 11712.600000
264.064300 11712.100000
265.048500 24958.200000
265.072100 5108.500000
266.056200 16718.200000
267.039400 34517.000000
268.035900 7213.900000
268.071800 15154.100000
269.079900 6902.800000
272.067000 6949.400000
275.066500 149147.100000
278.057300 3273.700000
280.072000 62722.200000
281.055500 16578.300000
282.050900 5476.400000
284.042200 4707.900000
284.066400 6930.200000
285.050500 36923.800000
288.097600 7987.100000
289.082400 12333.000000
293.066900 5032.400000
294.051300 13394.600000
296.067100 17171.300000
298.083000 6124.300000
299.066600 7681.300000
300.061600 5260.600000
300.096500 4119.400000
307.094100 3641.200000
309.038100 9348.800000
312.097900 37119.400000
321.061800 4518.100000
322.069800 3253.300000
323.078100 5761.300000
324.061700 95411.400000
342.108500 9388.500000
370.103400 6018.800000

>ms2
53.002200 13956.500000
53.038600 11706.700000
53.997500 2950.200000
54.033800 16646.400000
55.017900 18310.000000
55.029200 4196.300000
55.041700 4540.500000
56.013100 16270.500000
57.044700 13407.000000
58.028700 16264.000000
62.015100 9207.200000
63.022900 111088.100000
65.038500 43364.800000
66.033600 2441.700000
66.046300 3783.200000
67.005200 19736.900000
67.041800 2779.100000
68.013000 56603.900000
68.049200 4336.500000
68.997000 186493.200000
69.992300 137965.500000
71.060300 331043.000000
72.044300 89733.600000
75.022900 31142.800000
77.038500 7582.900000
78.046400 4545.600000
79.017700 3948.500000
79.029000 16167.300000
79.054300 12299.400000
80.013000 3868.500000
80.036700 5443.600000
80.049300 4987.400000
81.033400 19051.800000
81.044700 35454.100000
82.028700 107860.200000
83.012700 39704.100000
83.023900 472699.800000
84.044400 7246.100000
89.038500 35666.400000
90.033800 32528.400000
90.046400 3020.700000
91.017800 1110094.400000
92.025500 14728.000000
92.049500 9258.900000
93.008300 86303.800000
93.033400 9155.700000
93.992300 3477.000000
95.049200 53705.400000
95.060200 4784.700000
96.007900 3331.600000
96.044400 5536.600000
100.039200 61262.600000
102.033800 4496.000000
102.046300 6050.200000
103.041700 8070.400000
103.054200 15770.300000
104.049300 29583.200000
105.033500 7548.000000
105.044800 13861.400000
105.057200 7096.100000
106.028700 9274.500000
106.065100 7003.400000
107.012700 30841.000000
107.023900 132613.600000
108.020500 7597.800000
108.044200 31312.100000
109.028300 3161.000000
109.039600 52266.300000
110.023700 9937.000000
110.059900 3292.800000
111.044000 10058.100000
112.039200 10357.600000
114.033800 60012.400000
114.054800 13003.700000
115.041900 12854.800000
115.054200 9683.200000
116.034200 10850.400000
116.049500 67022.200000
117.020900 5592.200000
117.057200 35028.100000
118.028700 7847.800000
118.041600 5136.600000
118.052600 4824.100000
118.065200 11356.200000
119.012700 2007381.900000
120.020800 2887.400000
120.044600 16383.300000
121.028500 8997.100000
121.039500 3495.000000
122.036200 38094.500000
124.039500 5256.700000
125.034500 109319.600000
126.018500 71435.700000
127.041600 7396.100000
127.050200 12195.700000
128.036800 9687.600000
128.049500 51817.000000
129.044800 28008.300000
129.057200 25107.100000
130.028600 17510.300000
130.039800 6570.400000
130.052600 10772.900000
130.065000 25923.600000
131.036200 3040.700000
131.060400 15747.500000
132.044300 54855.900000
133.015800 9369.500000
133.052200 16077.100000
134.059900 29141.100000
135.031400 7238.900000
135.044100 4695.100000
136.039500 3617.900000
137.023300 63247.600000
139.050200 457219.000000
140.033800 20976.300000
140.049400 6962.200000
141.044600 34315.500000
142.028700 9992.600000
142.037300 7152.300000
142.052600 30433.600000
142.065100 4870.900000
143.036500 21897.700000
143.060300 31324.900000
144.031900 7830.300000
144.044300 58757.000000
145.039600 13227.400000
145.052000 24877.200000
145.075900 3775.000000
146.023500 10598.900000
146.047600 8330.400000
146.059900 36818.900000
147.055100 16254.800000
148.039200 10238.000000
148.063000 6479.100000
149.046900 5837.500000
150.030800 5980.300000
150.054500 3701.200000
151.039300 4271.900000
153.044600 68808.400000
154.026700 11307.500000
154.039700 16167.100000
154.052500 10270.800000
155.023900 13114.200000
155.060200 37084.000000
156.032100 15745.900000
156.044400 21911.600000
156.068100 8642.000000
157.039800 15731.600000
157.052500 14027.700000
157.060700 155809.400000
158.023700 4937.400000
158.047600 24842.000000
158.059800 18030.700000
159.031500 7877.800000
159.055300 43171.900000
160.027000 8681.400000
160.039300 12331.900000
160.062800 3787.600000
160.075300 3266.500000
161.046900 13971.200000
161.070900 8997.700000
162.018500 19418.300000
162.054800 23295.800000
165.044400 10385.500000
165.054200 3683.500000
166.051900 4114.000000
167.047600 6457.900000
167.060400 9464.100000
168.032800 4454.200000
168.041900 13934.100000
168.055300 6052.900000
168.068000 7156.700000
169.039400 18978.800000
169.062800 3280.300000
169.075800 6484.300000
170.023700 13642.400000
170.034600 3555.100000
170.047400 27286.300000
171.055200 75052.300000
171.076300 140185.300000
172.039300 17594.400000
172.049500 2898.000000
172.062900 5094.800000
173.034500 13690.600000
173.047200 5269.300000
173.070800 11900.400000
174.042300 15706.400000
174.054900 22241.600000
175.050200 13199.900000
176.034100 15592.900000
176.070700 9691.300000
177.041700 6007.600000
178.039800 5862.800000
179.021300 10481.800000
179.047400 6794.000000
179.060200 4081.500000
180.055500 23355.000000
181.039300 9793.200000
181.050600 2964.400000
181.063400 6076.200000
182.034800 3797.400000
182.048200 6769.500000
182.071300 3794.500000
183.055300 13995.900000
184.026800 17999.400000
184.050300 8062.900000
184.063300 10668.500000
185.034600 9899.000000
185.058500 6346.200000
185.070700 24444.500000
185.091700 3506.900000
186.018600 5446.200000
186.042200 21665.500000
186.054800 14150.000000
186.066100 5537.200000
187.050100 39316.900000
188.057800 10682.800000
188.070400 4717.700000
189.042100 11169.100000
189.066300 6238.400000
190.040300 4568.300000
190.049800 10676.500000
192.055700 8433.400000
193.050900 4125.900000
193.063500 4115.800000
194.034700 5367.500000
194.045800 4411.000000
194.071100 7390.200000
195.042800 10886.800000
195.055000 12664.200000
196.050500 22779.100000
197.034800 13578.500000
197.070600 5932.800000
198.042200 15652.400000
198.066000 7227.500000
199.050100 61370.000000
200.024200 4457.800000
200.034100 26651.800000
200.058000 7184.100000
200.081400 6956.700000
201.029500 3671.800000
201.065600 21162.300000
202.050100 7759.200000
202.060500 3057.200000
204.065200 3543.800000
205.051100 3556.500000
206.035000 7409.700000
208.050300 8081.200000
209.058100 14701.600000
210.042300 9314.600000
210.066000 15721.300000
211.013500 8253.100000
211.037600 11745.900000
211.050000 20463.400000
212.045300 16912.500000
212.056700 5383.700000
212.081700 5852.700000
213.029700 7551.100000
213.053800 5676.500000
213.065700 8328.700000
214.037100 4995.900000
214.061100 7631.200000
215.045100 51941.600000
216.053100 6425.300000
217.060600 27732.800000
218.044800 6832.700000
219.040200 5653.800000
220.050000 7350.400000
222.066000 8562.000000
223.049500 4869.000000
224.045300 11484.000000
224.081300 6917.500000
225.053300 9583.100000
225.065200 7627.000000
226.060700 12612.100000
227.044600 17406.800000
228.076000 7904.100000
229.060900 24280.700000
230.044800 3265.900000
231.040400 3828.700000
231.076100 3820.000000
232.048000 6034.800000
234.053100 5569.200000
235.037700 4000.300000
236.045000 12185.400000
237.029300 10861.500000
237.053000 12343.300000
238.037600 2845.000000
238.060900 7445.600000
239.045200 19510.200000
239.067900 5257.700000
240.040200 6617.300000
240.053100 9359.900000
240.076600 5911.800000
241.047800 10861.600000
241.060500 6102.600000
242.032000 5184.100000
242.056600 4376.400000
243.039800 34555.000000
245.056500 2795.800000
250.048100 4643.200000
250.061200 6006.000000
251.032200 9522.900000
252.039900 4553.200000
252.077000 9710.700000
253.047900 3206.700000
253.060600 27417.500000
254.055800 9588.100000
256.071500 5609.500000
257.055400 8335.900000
259.071300 3401.800000
261.050800 23579.100000
263.056300 3085.000000
264.040500 13349.100000
265.047900 10642.300000
266.056200 10356.400000
267.039300 28198.500000
268.071800 5713.200000
269.079400 3492.400000
275.066100 4511.500000
280.071400 11952.800000
281.055200 6377.800000
282.050400 3151.200000
283.058400 5458.400000
284.042500 4591.400000
284.065700 5345.400000
285.050500 23186.500000
294.051000 6650.000000
296.066700 6361.600000
299.065400 4120.900000
324.060900 9592.600000

>ms2
53.002200 42598.200000
53.038600 23416.000000
53.997500 8497.300000
54.033900 26123.200000
55.017900 29463.600000
55.029100 7304.900000
55.041600 6958.200000
56.013100 32106.900000
56.049500 3958.800000
57.044700 21322.700000
58.028700 23094.500000
62.015000 18958.900000
63.022900 267370.100000
65.038500 80022.400000
66.033700 4353.700000
66.046300 6272.100000
67.005200 32819.400000
67.041600 7044.500000
68.013000 80701.000000
68.049400 4391.700000
68.997000 283049.000000
69.992300 161755.600000
71.060300 277316.600000
72.044300 69966.600000
75.022800 59523.500000
77.038400 15125.400000
78.046300 8788.600000
79.017800 9409.200000
79.029100 23360.700000
79.054200 16250.800000
80.012900 6772.400000
80.036800 10479.200000
80.049300 11300.800000
81.033400 30214.900000
81.044600 49190.400000
82.028700 113592.200000
83.023900 638262.900000
84.044400 8238.200000
89.038600 75054.500000
90.033800 46003.400000
90.046500 12185.500000
91.017800 1591109.600000
92.025600 33754.900000
92.049400 10197.800000
93.008300 208602.500000
93.033400 10471.800000
93.992400 3100.600000
95.049100 78929.600000
95.060300 12447.600000
96.008100 3542.600000
96.044300 7585.400000
100.039300 40224.800000
102.033800 16583.400000
102.046500 13191.600000
103.041700 18285.000000
103.054100 25753.800000
104.049400 46445.600000
105.033500 14088.200000
105.044800 27386.600000
105.057200 11807.600000
106.028700 14272.900000
106.065000 5074.200000
107.012700 103587.400000
107.024000 83469.600000
108.020500 26422.600000
108.044300 24875.400000
109.028000 3959.100000
109.039600 39602.200000
110.023500 8163.300000
110.060100 2810.900000
111.044000 14653.900000
112.039200 3886.800000
114.033800 124535.900000
114.055000 14297.800000
115.041600 35351.300000
115.054100 8982.300000
116.049500 84055.600000
117.020700 13669.600000
117.057300 63012.200000
118.028700 12845.600000
118.041200 9903.900000
118.052400 9731.300000
118.065100 20187.200000
119.012700 917705.400000
120.020500 3065.100000
120.044400 29435.300000
121.028200 8649.900000
121.039300 4368.900000
122.036200 42860.500000
124.039100 7853.800000
125.034500 83206.100000
126.018500 41390.300000
127.041800 15679.000000
127.050000 10654.300000
128.037000 24327.600000
128.049400 60867.200000
129.044700 46830.500000
129.057100 24430.900000
130.028800 25129.700000
130.040000 20052.300000
130.052600 15672.400000
130.065100 32283.400000
131.036700 5222.000000
131.060300 13519.000000
132.044300 57525.000000
133.015900 13379.200000
133.052000 14878.200000
134.059900 32402.700000
135.031200 11636.300000
135.044200 3246.900000
135.055100 5676.300000
136.015200 3379.000000
137.023400 37597.400000
139.050200 176919.800000
140.049400 18643.000000
141.044600 40447.500000
142.028700 13651.100000
142.037400 4360.600000
142.052500 44172.400000
143.036500 20336.800000
143.060300 21518.500000
144.031900 16536.900000
144.044300 65836.300000
145.039600 19882.800000
145.052000 23454.900000
145.075700 3164.600000
146.023500 9972.200000
146.047300 9122.700000
146.059900 39403.400000
147.055000 9751.100000
148.039000 9832.400000
148.062900 3663.300000
149.047100 5004.500000
150.030900 3934.300000
153.044600 60175.700000
154.026600 8558.200000
154.039900 34731.100000
154.052100 12699.500000
155.024100 19277.000000
155.060200 36092.200000
156.031800 8974.700000
156.044200 13735.900000
156.068200 6442.700000
157.039700 30238.100000
157.052200 9402.300000
157.060600 70556.400000
158.023500 3635.300000
158.047800 23030.900000
158.060100 19809.200000
159.031200 7768.300000
159.055300 41248.000000
160.026600 11346.800000
160.039300 16161.600000
160.075500 4443.000000
161.046900 14774.900000
161.070700 5613.400000
162.018400 15656.800000
162.054600 15626.700000
165.044800 12859.700000
166.052400 3632.600000
167.047600 8519.600000
167.060000 9746.500000
168.031400 7136.700000
168.041600 8641.000000
168.055300 9179.000000
168.068200 6188.100000
169.039700 21085.800000
169.062900 5799.400000
169.075900 8442.600000
170.023900 12260.200000
170.034400 4784.400000
170.047400 24419.900000
171.055200 59320.200000
171.076200 71020.800000
172.039300 19357.100000
172.046700 3134.500000
172.050300 3376.500000
172.062700 3324.000000
173.034200 13446.400000
173.070800 9388.400000
174.042200 9654.400000
174.055100 12904.200000
175.050000 6069.700000
176.034000 6445.700000
176.070400 3857.600000
177.042000 8317.700000
178.040200 12050.700000
179.021100 8979.600000
179.047100 4417.700000
179.060000 4844.200000
180.055600 24949.300000
181.039200 7052.100000
181.062900 5875.200000
182.035000 5985.900000
182.047100 5310.000000
182.071300 4829.400000
183.055400 13694.200000
184.026700 14376.600000
184.050200 13158.000000
184.062200 2978.300000
185.034400 9683.400000
185.058100 5872.600000
185.071200 16784.300000
186.042400 16264.800000
186.054600 8626.000000
186.066100 7268.700000
187.050200 24769.900000
188.058100 2732.800000
189.041700 12082.500000
189.065800 5445.600000
190.039600 6771.300000
193.050800 3694.800000
194.034900 3771.600000
195.042300 6127.200000
195.055200 10060.700000
196.050700 19949.500000
197.034200 8718.400000
197.071100 6387.400000
198.030200 2767.900000
198.042200 5832.900000
198.066700 6533.600000
199.049800 24120.500000
200.023800 3652.600000
200.034000 19395.800000
200.081700 7828.000000
201.065500 17870.900000
202.037000 5340.300000
202.049300 4432.200000
202.060000 3172.000000
203.044500 3719.900000
205.051100 3575.000000
206.034500 7652.300000
208.050400 7210.600000
209.057900 9437.600000
210.042100 4286.600000
210.065800 6138.300000
211.013400 4728.800000
211.037400 7962.800000
211.049700 16400.000000
212.045300 11346.700000
212.056300 2839.000000
213.029100 4260.700000
213.052700 3189.300000
213.065400 4967.200000
214.037300 4810.700000
214.060900 4924.900000
215.044700 8532.900000
216.052800 3420.900000
217.060200 13510.800000
222.065800 5107.100000
224.045400 6410.900000
225.052700 5078.200000
225.065300 5671.000000
226.060200 7491.700000
227.044800 7517.100000
228.076400 3110.500000
229.060300 11631.400000
231.038800 3497.600000
235.037400 4479.100000
236.044900 13012.700000
237.028900 10009.200000
237.052700 4827.500000
238.060400 6070.500000
239.045100 21352.200000
240.040200 6871.600000
251.032300 6799.900000
252.040000 5016.800000
252.076100 3622.300000
253.060700 8169.700000
254.056100 3458.000000
264.039200 3234.100000
267.039500 10409.200000
285.050300 12344.900000

