>compound LU30070904
>parentmass 196.1332
>ionization [M+H]+
>formula C11H17NO2
>rt 547.380000
>profile orbitrap
#smiles_iso CC1=CC=C(C=C1)N(CCO)CCO
#smiles_can CC1=CC=C(C=C1)N(CCO)CCO
#inchikey JUVSRZCUMWZBFK-UHFFFAOYSA-N
#pubchem_id 76497
#mb_accession LU014201,LU014202,LU014203,LU014204,LU014205,LU014206

>ms2
120.080400 172791.600000
132.080700 84232.500000
133.088600 594544.300000
134.096400 598001.500000
150.091400 20987.400000
151.099200 811233.600000
152.107000 430419.600000
160.112100 397257.400000
178.122600 2111513.000000
196.133100 17721408.000000

>ms2
107.072900 17853.500000
108.080600 36037.200000
118.064900 20783.700000
119.073000 27165.200000
120.080600 330397.500000
132.080700 135510.700000
133.088500 924666.600000
134.096300 1153298.200000
135.104100 31452.100000
145.088500 47864.600000
150.091400 31606.600000
151.099100 1402591.800000
152.106900 636154.400000
160.112000 597975.400000
163.098600 24467.100000
178.122500 2862900.500000
196.133100 12372804.000000

>ms2
65.038500 7954.300000
77.038500 5594.000000
91.054000 51254.700000
92.062100 5081.600000
93.057300 8030.300000
93.069900 45479.000000
105.069800 25909.700000
106.065000 30686.300000
107.072900 161090.500000
107.085500 11818.800000
108.080800 164910.100000
109.064600 7225.500000
115.054400 11132.900000
117.057200 29534.600000
117.069800 42845.200000
118.065100 144557.900000
119.073000 327218.600000
120.080800 3110377.800000
128.062000 8488.100000
130.065300 20762.300000
131.073000 50309.000000
132.080800 538369.400000
133.088600 2228874.500000
134.096300 4782516.000000
135.104100 80178.200000
143.085600 12011.800000
144.080800 42508.600000
145.088600 204422.300000
147.104200 7568.700000
148.112000 6894.400000
149.083300 5742.300000
150.091300 56621.600000
151.099100 2725228.500000
152.106900 743826.200000
158.096300 21972.300000
160.112100 812492.400000
163.099100 35416.100000
176.107000 6275.300000
178.122600 2714467.000000
196.133200 2735199.800000

>ms2
65.038500 12157.200000
79.054100 18648.300000
91.054100 225312.100000
92.061900 40492.900000
93.057200 46206.400000
93.069900 103933.100000
94.065200 7597.300000
103.054100 9786.100000
105.069900 90064.900000
106.065100 101467.700000
106.077700 10290.100000
107.072900 348389.900000
107.085400 52067.500000
108.080700 234186.600000
109.064900 39042.500000
115.054200 69349.300000
117.057300 100252.100000
117.069800 169411.900000
118.065100 334611.400000
119.073000 1005901.600000
120.080700 7544157.000000
128.061900 12718.300000
130.065100 62544.300000
131.072900 72944.000000
132.080800 942021.600000
133.088600 1922337.000000
134.096300 5150226.000000
135.104000 66903.900000
143.085700 7717.400000
144.080700 93127.900000
145.088500 228389.000000
146.096100 10300.900000
150.091400 32048.100000
151.099100 1097430.400000
152.106900 213848.300000
158.096300 28417.200000
160.111900 300178.900000
163.099200 14927.100000
178.122500 666972.200000
196.133100 236579.000000

>ms2
53.038700 8464.600000
65.038500 34091.900000
67.054200 8445.000000
74.096300 9110.900000
77.038500 9417.200000
79.054100 51070.900000
80.049400 8938.600000
91.054200 558886.100000
92.062000 114959.800000
93.057300 92276.800000
93.069900 155142.500000
94.065200 8504.900000
95.049000 24484.300000
103.054300 15618.000000
104.049500 25280.400000
105.069900 119727.500000
106.065100 216454.700000
106.077800 12498.700000
107.072900 472321.900000
107.085400 59073.300000
108.080700 164501.000000
109.064800 68866.700000
115.054200 129743.500000
117.057300 147053.700000
117.069900 176793.000000
118.065200 669473.900000
119.073100 1299852.600000
120.080700 8413698.000000
128.061900 11263.700000
130.065100 106714.300000
131.073000 53985.400000
132.080800 1148449.800000
133.088600 877186.600000
134.096300 2432835.200000
135.103900 18235.200000
144.080700 105094.200000
145.088500 111657.300000
146.096400 13259.000000
150.091600 14577.500000
151.099100 144088.600000
152.106900 24461.300000
158.096200 15349.100000
160.112000 44654.500000
178.122500 70818.000000

>ms2
53.038600 21265.000000
65.038500 131422.000000
77.038500 13206.000000
79.054200 120841.200000
80.049400 13330.800000
91.054200 1251279.500000
92.062000 282037.000000
93.057300 158901.000000
93.069900 303096.400000
94.065100 13343.200000
95.049100 77834.700000
103.054300 36372.100000
104.049500 60816.500000
105.069900 137990.600000
106.065100 345632.600000
107.072900 481867.600000
107.085300 36929.200000
108.080700 110620.600000
109.064800 111469.600000
115.054200 177488.100000
116.061900 10128.800000
117.057300 213972.100000
117.069900 115382.000000
118.065200 1157453.600000
119.073000 1065931.200000
120.080700 8384668.500000
128.061800 15249.100000
130.065100 107315.100000
131.072900 34351.900000
132.080800 1150765.800000
133.088500 308995.000000
134.096400 851078.000000
143.072900 10595.100000
144.080700 115699.200000
145.088500 29473.800000
146.096200 25121.100000
151.099400 19413.100000
158.096600 10025.300000

