>compound LU30291304
>parentmass 303.2319
>ionization [M+H]+
>formula C20H30O2
>rt 1088.990000
>profile orbitrap
#smiles_iso C[C@]12CCC(=O)C=C1CC[C@@H]3[C@@H]2CC[C@]4([C@H]3CC[C@]4(C)O)C
#smiles_can CC12CCC(=O)C=C1CCC3C2CCC4(C3CCC4(C)O)C
#inchikey GCKMFJBGXUYNAG-HLXURNFRSA-N
#pubchem_id 6010
#mb_accession LU107201,LU107202,LU107203,LU107204,LU107205,LU107206

>ms2
83.049100 7136.300000
95.085500 9029.200000
97.064800 142742.700000
109.064700 67750.500000
123.080800 7631.900000
177.127300 9184.600000
177.163800 19282.600000
185.132500 6883.400000
189.163900 54591.900000
201.163700 8308.000000
203.179700 13652.800000
211.147800 11582.100000
227.179500 26571.800000
229.158800 8594.800000
245.189600 17250.300000
267.210900 65046.300000
285.221300 252768.800000
303.231800 6396209.000000

>ms2
67.054300 4040.200000
69.070000 6082.700000
71.049200 4183.300000
79.054100 8196.400000
81.069900 25640.200000
83.049100 62837.000000
83.085500 6773.900000
85.064800 17696.000000
93.069900 15753.600000
95.085600 111746.100000
97.064800 1106050.000000
99.080500 11162.800000
105.070000 11889.500000
107.049200 2745.900000
107.085500 50916.800000
109.064800 697548.100000
109.101200 54130.500000
111.080500 8299.000000
119.085600 28138.000000
121.064900 29744.200000
121.101300 66059.000000
123.080400 60977.400000
123.116900 10471.000000
131.085600 8783.800000
133.101100 35666.300000
135.080300 5283.300000
135.116800 53870.000000
137.096000 10702.900000
137.132500 12031.400000
143.085500 7286.800000
145.101200 30792.000000
147.080900 3130.600000
147.116800 30420.000000
149.096200 11370.300000
149.132500 32653.600000
151.111700 13799.000000
155.085400 4946.600000
157.101100 18204.700000
159.116800 73928.600000
161.096000 8773.600000
161.132600 50122.900000
163.111700 25273.700000
163.148100 34648.900000
169.101000 4213.400000
171.116800 29471.100000
173.132600 40267.800000
175.111700 14674.500000
175.148200 50429.700000
177.127500 76154.200000
177.163800 96347.800000
183.116700 8358.900000
185.132500 43444.300000
187.148300 24034.800000
189.127300 19456.800000
189.163800 224557.300000
191.143200 17349.500000
197.132900 16720.700000
199.148300 24337.500000
201.127500 4640.400000
201.164000 46832.300000
203.143100 10683.100000
203.179500 63018.000000
211.148200 70590.900000
213.163700 6628.800000
215.142600 15382.900000
215.179700 31091.100000
217.158900 6025.700000
225.163500 28994.800000
227.179500 145058.100000
229.158700 46715.200000
239.179500 9126.200000
241.195200 9789.800000
243.174600 18880.000000
243.210500 7345.200000
245.190000 114697.100000
267.210700 314935.800000
285.221400 608114.200000
303.231900 1971582.100000

>ms2
55.017900 7538.000000
55.054300 8404.800000
57.069900 3139.100000
67.054200 29667.500000
69.033500 2610.000000
69.069900 25878.100000
71.049100 9024.300000
79.054200 64659.700000
81.069900 120394.200000
83.049200 114372.400000
83.085500 14981.800000
85.064800 11208.300000
91.054200 26688.100000
93.070000 95491.100000
95.085600 241256.000000
97.064900 1940683.900000
99.080400 7655.400000
105.069900 64978.500000
107.049200 10261.300000
107.085600 168287.200000
109.064900 1641957.600000
109.101200 87862.600000
111.080300 13746.200000
117.069900 9466.200000
119.085600 119617.900000
121.064800 52760.100000
121.101200 171935.600000
123.080500 162083.100000
123.116900 20453.700000
125.096200 6248.600000
129.069800 6219.600000
131.085600 32900.400000
133.101200 123381.200000
135.080300 10206.700000
135.116800 79411.400000
137.096200 25267.000000
137.132500 20911.000000
143.085700 17239.900000
144.093600 3286.300000
145.101300 62395.100000
147.080500 9361.300000
147.116900 72795.200000
149.096200 28520.500000
149.132600 64615.300000
151.112000 7535.500000
155.085500 11329.300000
157.101300 41431.700000
159.116900 113912.500000
161.096200 12588.900000
161.132600 75266.700000
163.111700 37464.800000
163.148200 27112.400000
169.101400 17550.500000
171.116900 63571.000000
173.132600 50551.800000
175.111700 17122.400000
175.148300 66987.500000
177.127500 73967.000000
177.163800 64010.000000
183.117200 13561.200000
185.132500 57396.900000
187.148200 46242.600000
189.127500 24797.500000
189.163900 130490.400000
191.143000 14969.800000
197.132700 26821.500000
199.148300 27101.100000
201.127400 5053.600000
201.163900 47165.700000
203.143100 8035.600000
203.179600 23641.500000
211.148200 62592.500000
213.163700 6376.200000
215.143100 15784.600000
215.179600 29289.900000
217.158400 3818.000000
225.164000 27574.700000
227.179500 136316.000000
229.158400 21424.500000
239.179400 10479.800000
241.195100 5162.300000
243.174200 9520.500000
243.211100 4416.000000
245.190100 56054.400000
252.187400 5659.400000
267.210900 131918.900000
285.221400 114016.500000
303.232000 89188.700000

>ms2
53.002200 5425.100000
53.038600 11106.400000
55.017900 25988.800000
55.054300 36323.700000
57.033500 2357.900000
57.069900 6669.600000
65.038600 6677.600000
67.054200 103131.400000
69.033500 9238.200000
69.069800 80903.000000
71.049100 12859.700000
77.038300 3737.800000
79.054200 235321.500000
81.069900 276659.400000
83.049200 133333.900000
83.085500 14738.600000
85.064900 5400.700000
91.054300 84903.500000
93.069900 231822.800000
94.041500 5176.200000
95.049200 26218.900000
95.085600 287302.700000
97.064800 2017915.100000
105.069900 143314.200000
107.049100 19585.400000
107.085600 232448.600000
109.064800 1892013.100000
111.080300 11953.900000
115.054000 2942.900000
117.069900 28926.300000
119.085600 176585.300000
121.064800 74357.200000
121.101200 166648.700000
123.080500 241146.800000
123.116800 16590.800000
125.096000 5648.900000
128.062100 2530.300000
129.069900 15899.700000
131.085600 65557.400000
133.101200 133824.100000
135.080200 12867.000000
135.116900 50822.800000
137.096200 21283.500000
137.132500 9050.100000
141.070000 4833.000000
142.077500 8104.700000
143.085500 36228.600000
144.093300 4828.600000
145.101200 74869.800000
147.080300 7073.900000
147.116900 59428.600000
149.096200 37326.300000
149.132600 36694.900000
151.111500 5057.700000
155.085800 18806.400000
156.093200 9964.200000
157.101300 53772.900000
158.108800 3221.500000
159.116900 84617.600000
161.096100 11500.800000
161.132500 47532.400000
163.111900 24771.100000
163.147900 8158.000000
169.101200 21193.600000
170.109000 4174.100000
171.116900 50189.700000
173.132500 32042.300000
175.111700 7839.800000
175.148300 24525.600000
177.127400 28274.300000
177.163600 9968.700000
181.100400 3259.000000
183.117000 19940.400000
185.132600 39368.700000
187.148300 29024.200000
189.127200 9827.000000
189.163900 24882.800000
196.124500 3204.600000
197.132400 14928.800000
199.148400 14342.400000
201.127200 3890.700000
201.163800 17556.500000
211.148300 25041.600000
213.163800 2688.100000
215.142800 8691.200000
215.179100 6230.900000
225.163800 11203.000000
227.179300 37601.900000
229.158500 4674.400000
241.194900 2606.700000
243.173600 2944.200000
245.190100 4744.400000
252.187000 4942.500000
267.211100 11204.200000
285.221500 5425.100000

>ms2
53.002200 13431.100000
53.038600 34325.100000
55.017900 58844.800000
55.054300 78635.800000
57.033500 6437.600000
57.069900 6779.000000
65.038600 21204.600000
66.046400 5288.800000
67.054200 222228.000000
69.033600 17855.900000
69.069900 118065.800000
71.049100 10743.300000
77.038500 8801.100000
79.054200 520652.700000
81.069900 468062.600000
82.041200 3106.300000
83.049100 133724.700000
83.085500 9951.300000
85.064700 3989.700000
91.054300 234503.500000
92.062100 2890.500000
93.069900 289242.000000
94.041300 13886.500000
95.049200 73724.200000
95.085600 255108.700000
97.064800 1755702.900000
103.054200 9856.400000
105.069900 246852.600000
107.049200 26007.500000
107.085600 198919.800000
108.057000 5657.800000
109.064800 1523834.000000
111.080400 10756.400000
115.054100 9906.500000
116.061700 3085.200000
117.069900 46754.600000
119.085600 174252.200000
121.064800 62996.300000
121.101200 95751.800000
123.080500 219671.800000
125.096100 5804.100000
128.062000 12573.300000
129.069800 29787.800000
130.077700 8937.500000
131.085600 68413.300000
133.101200 97239.000000
135.080300 6880.500000
135.116900 23560.400000
137.096100 10469.600000
141.070000 12493.700000
142.077800 20678.500000
143.085500 37109.400000
144.093600 15042.500000
145.101200 59404.300000
146.108600 2684.400000
147.080300 6936.500000
147.116900 29946.400000
148.088400 3468.900000
149.096200 15174.300000
149.132400 7930.000000
154.078000 2746.300000
155.085400 21533.700000
156.093400 16984.000000
157.101300 38131.600000
158.108900 6296.800000
159.116800 44913.700000
161.095600 2921.600000
161.132500 12808.700000
163.111500 7430.000000
167.085800 3333.700000
169.101200 18613.900000
170.108600 5142.000000
171.117000 22484.400000
173.096100 2336.300000
173.132700 13500.300000
175.148300 6246.400000
177.127500 5370.000000
181.100900 3775.200000
182.109500 3312.800000
183.116800 12014.500000
185.132100 11691.600000
187.148200 9580.600000
189.127400 5261.300000
189.163600 2323.000000
195.116700 5509.000000
196.124000 2852.000000
197.132200 7505.700000
199.147800 4950.600000
200.119500 2705.900000
201.163700 4852.800000
211.147800 6194.700000

>ms2
51.022900 2501.200000
53.002200 24003.700000
53.038600 69397.500000
55.017900 94570.900000
55.054200 105574.100000
57.033400 11768.300000
57.069900 3618.600000
65.038600 45524.800000
66.046400 7815.700000
67.054200 273654.900000
69.033400 22010.400000
69.069800 123621.300000
71.049100 8677.100000
77.038500 12474.600000
79.054200 692478.100000
81.069900 501677.800000
82.041400 4749.000000
83.049100 97758.000000
91.054200 358641.100000
92.062100 5302.900000
93.069900 222138.000000
94.041300 24901.200000
95.049100 136900.500000
95.085500 171837.300000
97.064800 1041800.100000
103.054300 19692.700000
105.069900 225578.300000
107.049200 31394.500000
107.085500 93666.500000
108.057000 5730.000000
109.064800 866253.200000
111.080500 5300.900000
115.054200 18989.700000
116.062100 10776.200000
117.069900 49265.400000
119.085600 120205.700000
121.064800 51942.300000
121.101200 29515.000000
123.080400 121292.300000
128.061900 22392.100000
129.069900 40328.600000
130.077600 12487.300000
131.085600 50997.500000
133.101100 37869.500000
135.080300 2969.600000
135.116600 5430.500000
137.096100 2610.300000
141.069800 16408.200000
142.077800 27008.200000
143.085400 29961.300000
144.093500 14167.300000
145.101300 32948.100000
146.109000 2312.600000
147.080500 3344.000000
147.116800 7981.200000
148.088100 5889.500000
149.096100 8164.300000
154.077900 2923.400000
155.085600 18085.000000
156.093400 13170.800000
157.101400 18340.200000
158.109300 2641.500000
159.116700 13870.900000
161.096200 3543.600000
167.085500 8181.100000
169.101400 10534.200000
170.109200 4026.000000
171.116900 7313.400000
181.101200 5433.500000
182.109100 4214.600000
183.116800 5995.100000
185.132000 4310.600000
195.117100 3117.100000
197.132300 4998.600000
200.119800 2888.900000

