>compound LU30963814
>parentmass 327.1955
>ionization [M+H]+
>formula C21H26O3
>rt 1133.460000
>profile orbitrap
#smiles_iso CCCCCCCCOC1=CC(=C(C=C1)C(=O)C2=CC=CC=C2)O
#smiles_can CCCCCCCCOC1=CC(=C(C=C1)C(=O)C2=CC=CC=C2)O
#inchikey QUAMTGJKVDWJEQ-UHFFFAOYSA-N
#pubchem_id 15797
#mb_accession LU043401,LU043402,LU043403,LU043404,LU043405,LU043406

>ms2
114.066300 11113.000000
140.081600 3346.600000
150.102000 6512.600000
154.096900 6419.000000
160.087100 10377.000000
162.102300 5542.100000
164.081700 5431.900000
166.097500 127067.700000
167.105300 44891.700000
178.097200 6358.700000
178.133600 9282.800000
180.113000 14000.600000
180.149500 11159.800000
186.127700 77406.400000
188.081500 3365.200000
192.149500 39261.000000
194.128900 11878.500000
200.082000 11220.500000
204.149300 5473.700000
206.129000 13362.500000
208.144500 45804.600000
212.082000 10904.300000
212.117900 2302.000000
214.133700 15373.100000
226.134000 2540.800000
228.149300 8238.800000
240.149400 6554.600000
254.128900 30578.200000
254.165300 4641.200000
256.145100 7389.400000
256.180800 33004.200000
268.180800 38917.100000
282.160000 29121.800000
327.193000 367856.600000

>ms2
55.017800 4032.900000
55.054300 3087.700000
69.069800 4209.100000
79.054300 7091.700000
91.054200 5557.700000
93.069900 14563.000000
95.085600 6349.600000
114.066200 5346.400000
120.055300 3558.300000
132.055600 2382.700000
134.071600 4033.800000
138.066100 4149.800000
139.074000 3776.000000
140.081800 3812.900000
148.087200 2487.800000
150.102700 17151.900000
154.097500 4839.900000
160.050300 5902.800000
160.087000 28003.100000
161.094500 3989.800000
162.102700 11247.400000
164.082000 11283.300000
166.097500 123557.300000
167.105300 94077.500000
170.070500 1960.800000
172.087500 1976.400000
178.097600 9283.700000
178.133300 2634.000000
180.113100 13234.000000
180.149800 9116.900000
181.121300 2938.200000
184.086700 3265.200000
185.095600 2050.700000
186.066300 4046.900000
186.102800 2522.300000
186.127700 30583.500000
188.081900 9702.300000
190.134100 4126.900000
192.113000 5398.800000
192.149500 25662.800000
194.128500 14617.600000
200.081900 14103.600000
204.149900 3281.900000
206.128900 4012.900000
208.144400 39684.000000
212.082100 23889.800000
213.089700 5215.700000
214.096500 4504.700000
214.134000 13018.400000
224.082500 3455.300000
226.133900 6045.400000
228.150000 7629.900000
238.097700 3474.300000
239.105900 4077.700000
240.112900 3686.500000
240.149500 17620.700000
254.128700 47688.900000
254.165800 4641.800000
256.144600 3808.400000
256.181300 10163.500000
268.180700 56378.200000
282.159900 23485.700000
327.194700 21900.200000

>ms2
53.038600 4165.600000
55.017900 11307.500000
55.054300 9483.300000
63.023000 6496.900000
65.038600 10281.200000
67.054300 8070.300000
69.033400 3998.800000
69.069800 4220.300000
79.054200 9951.300000
81.033700 2370.100000
81.070000 3486.500000
91.054300 16922.200000
93.033800 2924.100000
93.069900 33001.200000
95.049300 8894.100000
95.085500 8192.300000
103.054200 2501.800000
105.069900 2106.300000
110.071300 3111.700000
111.044100 9479.300000
114.066600 2135.600000
120.055700 3952.300000
122.071100 3356.300000
128.062300 2552.000000
132.055800 9037.300000
133.064100 2625.900000
134.071200 10007.600000
136.086600 2119.800000
138.066200 20560.200000
138.102700 5019.700000
139.074100 23000.400000
146.071100 4043.200000
147.079300 4383.400000
148.086900 4246.400000
150.065800 3674.400000
150.102700 18900.100000
152.082100 7956.000000
158.071700 5487.700000
160.050700 13177.500000
160.087000 14142.100000
161.095200 2794.500000
162.102700 7802.300000
164.082000 7102.600000
164.118600 4760.700000
166.097600 90588.600000
167.105400 73708.100000
170.071500 2896.000000
172.087400 4395.700000
173.058600 3714.300000
178.097700 7499.600000
180.113200 6087.300000
180.149700 3465.700000
181.122000 2135.900000
183.079100 1973.600000
184.087100 6789.900000
185.095100 3475.300000
186.066300 3551.600000
186.102200 3272.500000
188.081900 9003.400000
192.113100 2827.700000
192.149900 11916.700000
194.129000 20315.200000
197.093600 3443.700000
198.066700 2398.400000
198.101000 8314.100000
199.074400 7670.400000
200.082400 13117.400000
208.144900 8632.400000
210.103000 3941.500000
212.082400 18787.700000
212.118500 6360.300000
213.089400 4514.900000
214.060900 3390.400000
214.096800 3484.500000
214.134100 5754.300000
224.082300 3854.600000
225.126300 11684.400000
226.134100 6372.100000
238.097800 4955.900000
239.106300 2813.200000
240.113200 2273.400000
240.149600 20805.700000
254.129200 11474.600000
268.181000 40462.000000
327.193800 2293.200000

>ms2
53.038600 12989.800000
55.017900 19114.000000
55.054300 15359.100000
57.069900 3227.200000
63.022900 26281.200000
65.038600 34836.300000
67.054300 18519.000000
69.033500 4566.800000
69.069900 3670.500000
79.054200 14693.600000
81.033500 4350.500000
81.069900 2425.200000
91.054300 40748.800000
93.033500 7760.300000
93.070000 29061.500000
95.049200 27651.100000
95.085600 6750.500000
103.054300 4100.200000
105.069900 4745.400000
108.055800 3763.900000
110.071400 8456.500000
111.044100 22901.400000
111.079000 6454.000000
115.054100 9524.100000
120.055600 7723.600000
122.071400 12045.200000
128.062300 1925.500000
132.055800 17306.000000
133.063800 6126.600000
134.071500 10422.500000
136.086800 3634.300000
138.066300 49846.300000
138.102600 6218.600000
139.074100 40900.100000
145.063800 2234.800000
146.071300 8855.400000
147.079100 7054.500000
148.086800 5033.100000
150.066400 6213.500000
150.102800 20196.200000
152.082300 10314.700000
158.071600 14460.800000
160.050600 13702.700000
160.086900 12159.900000
161.094700 3276.800000
162.102800 5685.900000
164.082100 6053.600000
164.118000 6370.500000
166.097700 45573.100000
167.105400 25470.800000
170.071900 4151.800000
172.087200 6439.800000
173.058100 5142.100000
178.097900 4942.900000
180.113000 4784.100000
182.071100 2410.200000
183.079000 2511.700000
184.087100 14095.800000
186.066600 9877.400000
186.102800 5789.800000
188.081900 6084.300000
190.134500 2157.400000
192.149700 4029.100000
194.129000 14404.200000
196.087100 15978.000000
197.094600 5016.900000
198.066700 4404.900000
198.101700 8040.800000
199.074900 5330.700000
200.082000 13859.700000
208.145400 2427.900000
210.066700 4392.600000
210.102300 4663.500000
212.082000 9597.000000
212.118500 14230.100000
213.089300 1766.500000
214.062000 2168.800000
214.096200 2901.900000
214.134300 4454.300000
224.082100 6469.600000
225.125800 19644.000000
226.133600 3975.100000
238.097700 4097.800000
238.133900 4839.900000
240.149400 10480.600000
268.181100 12678.800000

>ms2
50.015200 2671.900000
51.022900 5510.400000
53.002300 8112.300000
53.038600 68953.900000
55.018000 2184.800000
57.069900 26155.800000
77.038500 14531.200000
81.033500 308591.900000
95.049200 142460.300000
115.054200 2482.300000
141.069900 3879.400000

>ms2
50.015200 2976.300000
51.023100 6881.800000
53.002300 8182.900000
53.038600 34191.000000
55.017900 40955.300000
55.054300 15394.600000
63.022900 58969.100000
65.038600 129889.900000
67.054200 22226.600000
69.033600 6714.800000
77.038600 8537.100000
79.054200 21179.400000
81.033500 7291.100000
81.069900 2514.400000
91.054300 61450.100000
93.033700 9266.600000
93.070000 8040.600000
95.049200 51536.400000
103.054300 9476.800000
105.070000 2816.300000
108.055800 5183.500000
110.071300 18627.300000
111.044100 27875.400000
111.079200 5159.500000
115.054200 29785.100000
120.055800 5433.400000
122.071400 10049.000000
128.062300 8367.500000
132.055800 12157.600000
133.063700 7135.500000
134.071600 9811.700000
136.087500 2504.200000
138.066200 31024.400000
139.074300 7730.900000
141.070000 3873.800000
145.064300 3986.300000
146.071300 8229.800000
147.079300 2547.600000
148.087100 6606.300000
150.066500 8171.600000
150.102700 2845.000000
152.081900 4978.400000
158.071100 21095.200000
160.050600 3959.300000
160.087000 4988.300000
166.097700 4742.200000
170.070900 13654.200000
172.087300 6975.200000
182.071800 13411.000000
183.079400 5907.600000
184.087300 6535.800000
186.066500 4859.800000
196.087300 33239.600000
197.094500 2758.400000
198.066800 2523.200000
199.075800 3011.300000
200.082000 9169.300000
210.066600 6139.900000
210.102900 7354.000000
212.081900 4287.500000
238.133400 3102.800000

