>compound LU30947300
>parentmass 123.0553
>ionization [M+H]+
>formula C6H6N2O
>rt 146.700000
>profile orbitrap
#smiles_iso C1=CC(=CN=C1)C(=O)N
#smiles_can C1=CC(=CN=C1)C(=O)N
#inchikey DFPAKSUCGFBDDF-UHFFFAOYSA-N
#pubchem_id 936
#mb_accession LU025101,LU025102,LU025103,LU025104,LU025105,LU025106

>ms2peaks
53.038600 8337.400000
78.033700 15232.100000
79.041600 9398.400000
80.049400 747363.100000
95.060400 7992.700000
96.044400 206527.100000
105.044700 7099.600000
106.028700 62995.400000
123.055200 6970661.000000

>ms2peaks
53.038700 6939.400000
78.033700 16550.000000
79.041700 10590.400000
80.049500 688772.900000
95.060500 7132.900000
96.044400 201296.500000
106.028800 55963.400000
123.055300 6471912.000000

>ms2peaks
53.038500 12062.600000
78.033800 22996.200000
79.041600 11673.000000
80.049400 1036365.900000
95.060400 8959.900000
96.044400 286153.400000
105.044600 6337.000000
106.028700 81768.200000
123.055200 6280316.500000

>ms2peaks
53.038500 43781.000000
68.049400 16502.900000
78.033800 73556.000000
79.041500 8535.800000
80.049400 2691365.500000
95.060200 22612.900000
96.044300 796616.200000
105.044800 23256.500000
106.028700 151984.800000
123.055200 4358024.500000

>ms2peaks
53.038600 148008.100000
54.033900 7196.600000
68.049400 44301.400000
78.033800 142559.200000
79.041400 12855.000000
80.049400 4019098.800000
95.060300 26357.100000
96.044300 1199021.800000
105.044700 30488.000000
106.028700 124754.800000
123.055200 2095162.800000

>ms2peaks
51.022900 4360.200000
52.018200 6868.200000
53.038600 332042.800000
54.033800 7190.500000
68.049400 52560.500000
78.033800 169672.400000
79.041500 19176.500000
80.049400 3819997.000000
95.060400 17479.600000
96.044400 1240817.400000
105.044800 26662.400000
106.028700 67613.900000
123.055300 778606.800000

