>compound LU30777834
>parentmass 181.076
>ionization [M+H]+
>formula C12H8N2
>rt 594.180000
>profile orbitrap
#smiles_iso C1=CC2=C(C3=C(C=CC=N3)C=C2)N=C1
#smiles_can C1=CC2=C(C3=C(C=CC=N3)C=C2)N=C1
#inchikey DGEZNRSVGBDHLK-UHFFFAOYSA-N
#pubchem_id 1318
#mb_accession LU017601,LU017602,LU017603,LU017604,LU017605,LU017606,LU100801,LU100802,LU100803,LU100804,LU100805,LU100806

>ms2peaks
180.068200 5522.300000
181.076000 5194820.500000

>ms2peaks
181.075900 14512208.000000

>ms2peaks
181.075900 5801528.000000

>ms2peaks
154.065000 91929.500000
179.060800 17669.800000
180.068600 17274.200000
181.075900 12377027.000000

>ms2peaks
65.038500 17020.700000
97.007600 4315.400000
105.044900 3672.300000
127.054200 11296.300000
128.049500 4162.600000
141.070200 3622.100000
154.065100 229885.600000
155.060400 15287.400000
179.060500 43534.900000
180.068400 16897.800000
181.076000 3323803.000000

>ms2peaks
65.038500 22616.100000
105.044600 8705.900000
127.054200 229707.000000
128.049400 109738.900000
153.057300 53314.900000
154.065100 2285082.800000
155.060300 303193.100000
179.060500 460317.700000
180.068300 88206.600000
181.075900 7060271.500000

>ms2peaks
181.075900 7721881.000000

>ms2peaks
181.075700 12009440.000000

>ms2peaks
181.075900 8874173.000000

>ms2peaks
154.065200 43678.700000
179.060500 8822.400000
181.076000 5331077.000000

>ms2peaks
65.038500 12513.700000
127.054200 42236.500000
128.049500 14287.300000
153.057700 14249.600000
154.065000 953287.800000
155.060300 86206.900000
179.060600 171256.800000
180.068400 47381.900000
181.075800 12175946.000000

>ms2peaks
65.038500 18449.700000
97.007700 5343.800000
103.054200 20169.600000
127.054200 158286.200000
128.049400 72503.100000
141.057200 15747.700000
152.049400 9107.100000
153.057400 32109.300000
154.065000 1549373.900000
155.060200 202639.200000
179.060400 304003.000000
180.068200 59842.000000
181.075900 4790038.500000

