>compound LU31958217
>parentmass 407.1514
>ionization [M+H]+
>formula C22H19FN4O3
>rt 914.040000
>profile orbitrap
#smiles_iso C1=CC=C(C=C1)OC2=NC=CC(=N2)C3=C(N=CN3C(CO)CO)C4=CC=C(C=C4)F
#smiles_can C1=CC=C(C=C1)OC2=NC=CC(=N2)C3=C(N=CN3C(CO)CO)C4=CC=C(C=C4)F
#inchikey ZDKIAVFEUPUCMR-UHFFFAOYSA-N
#pubchem_id 9931156
#mb_accession LU034101,LU034102,LU034103,LU034104,LU034105,LU034106

>ms2
234.120700 21698.000000
333.114400 399932.100000
407.151600 18020236.000000

>ms2
187.066700 33701.100000
230.072500 128277.700000
240.056800 15582.300000
290.108700 219340.300000
333.114600 15432547.000000
389.140600 22553.700000
407.151600 5283284.000000

>ms2
53.038600 24160.100000
57.033400 10868.700000
77.038700 11500.200000
91.054100 13897.500000
95.049200 72623.600000
104.049500 1108610.900000
105.044700 25034.600000
109.039700 24641.400000
118.065100 76024.600000
122.040200 15821.200000
124.055700 129277.500000
131.085500 76013.800000
132.088800 60685.900000
133.044500 37868.700000
136.055800 12692.400000
142.065300 12484.300000
146.060100 104644.200000
147.055200 17598.400000
156.038800 31341.300000
157.041900 18317.000000
157.075800 19940.200000
158.079500 11420.800000
159.080500 143266.800000
160.055700 159037.000000
160.075700 87070.900000
160.083800 122519.200000
161.039600 109265.000000
163.066700 20404.900000
169.076000 307164.800000
171.055200 68749.200000
178.066200 293120.700000
182.071600 19039.000000
184.087000 34320.600000
185.051200 13254.800000
185.071000 11199.700000
187.066600 1832290.600000
188.061800 287373.700000
206.089300 21469.200000
207.056800 17099.800000
210.066200 15115.000000
212.081800 323245.900000
213.045900 10850.400000
213.069700 66896.100000
230.072400 1601838.600000
234.120600 40695.700000
236.086900 13693.100000
239.072700 137793.100000
240.056700 317563.800000
241.064600 144783.800000
257.083400 106912.900000
263.098000 76866.100000
264.093100 259552.300000
288.092800 57731.300000
290.108700 3376794.200000
305.119400 101950.900000
306.103600 86134.800000
313.108600 11955.900000
333.114600 10757935.000000
359.128900 20845.700000
407.151300 48148.700000

>ms2
50.015100 3835.500000
51.022900 10833.900000
53.002200 28011.700000
53.038600 213590.200000
54.033800 5822.200000
55.017800 11240.800000
57.033500 16847.100000
71.023900 5633.300000
74.096400 7498.100000
78.046600 5163.500000
81.033400 24818.800000
81.044600 38860.800000
82.028600 7555.000000
91.054200 79844.700000
92.049400 5146.000000
92.057500 11098.800000
93.044700 6912.400000
95.049100 656743.600000
97.044700 24580.300000
104.049400 2512677.800000
105.044600 249922.300000
109.039600 108796.200000
109.044600 35395.500000
109.064800 6294.700000
116.049600 19057.700000
117.057200 13228.100000
117.065100 4706.800000
117.069600 6128.800000
118.039800 15723.800000
119.072900 10929.500000
120.044400 20218.800000
120.076300 5299.600000
122.040000 78513.400000
124.055700 214237.900000
127.050000 9954.300000
128.062100 12670.700000
129.057300 7342.900000
129.065100 8604.900000
129.069800 13477.300000
130.065200 30130.700000
130.073100 14288.100000
131.085500 79680.100000
132.044100 5485.200000
132.088800 66049.600000
133.044700 762524.900000
134.039800 24766.800000
134.059400 4182.100000
135.042500 8522.200000
135.047900 4123.200000
136.050400 41675.700000
136.055700 47761.900000
141.044700 7901.600000
142.065100 143122.900000
143.060400 33626.600000
145.064900 10346.200000
145.075500 17247.900000
147.055100 32860.700000
148.083700 13125.100000
155.060000 40061.700000
156.038700 14345.200000
156.068100 6268.400000
157.042300 8960.400000
157.076000 152719.600000
158.040000 101490.900000
158.079400 25630.500000
159.080400 40664.700000
160.055600 1348815.000000
160.075500 392410.300000
161.039600 327132.100000
161.050800 37060.600000
163.066400 44457.900000
167.060300 48815.600000
168.055600 5225.800000
168.067900 63171.000000
169.075800 1134465.400000
171.055100 135162.500000
172.055700 6715.900000
173.050900 37832.500000
174.059100 5232.000000
174.091200 6303.400000
175.066600 6159.900000
176.050200 4659.100000
178.066100 918281.400000
182.071200 51092.300000
184.063100 10169.900000
184.086800 110266.400000
185.050900 173478.500000
185.070600 41042.400000
186.058600 119971.500000
187.066400 3474397.000000
188.061600 1067275.000000
189.045300 6750.200000
192.081900 40714.300000
194.071200 52695.300000
195.055000 4771.300000
197.050800 60734.100000
201.046100 5297.600000
203.061400 53346.800000
204.056600 8323.500000
206.089500 4798.400000
207.056400 43840.400000
210.066100 16391.600000
211.052800 4174.900000
212.061800 589870.100000
212.081100 342186.900000
213.046400 68188.100000
213.057800 24997.700000
213.069400 456595.800000
214.077200 53204.400000
215.061100 8489.600000
216.080900 6092.700000
219.066300 5810.000000
222.045700 8697.500000
230.072200 641751.400000
234.071600 6478.600000
235.079300 20837.700000
236.086900 69714.800000
237.076700 20760.600000
239.072500 265105.700000
240.056500 445865.000000
241.064300 164837.500000
243.091000 16006.800000
257.083000 316986.800000
261.081600 12820.600000
262.089600 12436.800000
263.097700 251158.700000
264.092900 410640.800000
270.101900 28796.000000
273.081600 22980.000000
275.084500 8912.700000
288.092800 134418.000000
289.100700 9793.300000
290.108500 2634839.000000
291.116200 6788.200000
305.119400 48142.200000
306.103400 116017.800000
313.108400 12736.400000
331.099600 5886.900000
333.114300 980039.400000
359.129600 4517.100000

>ms2
50.015100 5840.000000
51.022800 19175.700000
52.018300 4399.300000
53.002200 86996.400000
53.038600 531214.100000
54.033900 9563.900000
55.017800 29532.700000
57.033500 9951.300000
63.022900 3730.700000
64.018000 7377.900000
65.038500 11320.400000
66.033700 9751.000000
67.054200 5164.800000
68.997100 3508.300000
70.028700 4465.500000
74.096400 7095.700000
77.038500 202464.200000
79.028900 3151.700000
79.054100 4099.700000
81.033400 49042.900000
81.044700 68530.300000
81.069900 3637.600000
82.028800 19226.200000
89.038600 10388.800000
91.054200 158133.600000
92.049400 14504.800000
93.044700 22911.300000
93.057300 7060.000000
94.041300 48038.600000
95.049100 1619351.600000
97.044800 42790.200000
103.054200 6041.400000
104.049400 1894559.500000
105.044700 579764.300000
106.040100 7561.600000
107.029200 14712.800000
109.039700 92128.200000
109.044800 82001.300000
111.044100 3484.600000
113.039200 5029.100000
114.033800 27619.700000
115.054200 315090.200000
116.049400 78169.600000
117.057300 44286.000000
118.040000 35121.300000
118.065100 174745.400000
119.048700 4394.300000
120.044400 44009.500000
121.044900 5115.000000
122.040000 138849.900000
123.035500 4299.600000
124.055700 107376.800000
127.050100 9421.500000
128.049400 142259.700000
129.044600 11663.300000
130.065100 101247.100000
132.036700 7666.000000
133.044800 3048187.200000
134.034900 6751.100000
134.039900 123635.000000
135.042500 11727.200000
135.047800 18607.300000
136.050500 106009.100000
136.055800 53402.000000
140.049400 158098.900000
141.044600 56529.900000
141.057300 5409.000000
142.065100 302992.100000
143.060400 39517.300000
143.072900 6429.000000
145.076200 17317.300000
146.040600 18138.700000
146.060000 292819.300000
147.048400 6872.200000
147.055100 31714.600000
148.055700 8626.400000
152.050600 24958.100000
153.044800 6082.800000
155.060400 76387.900000
156.031800 3725.300000
156.055700 9337.000000
156.068100 28262.300000
157.076000 130958.300000
158.040100 547681.600000
159.035600 18247.400000
159.047800 9545.300000
159.055300 31026.800000
160.055700 1588404.800000
160.075500 364585.300000
161.039700 148147.600000
161.050800 152882.500000
162.034800 4480.900000
163.066400 43914.900000
164.050600 9349.800000
165.044500 28799.300000
167.060300 114317.100000
168.056200 28383.800000
168.068100 170055.900000
169.076000 879414.400000
170.040200 15895.700000
171.047700 12144.100000
171.055200 80047.400000
172.055500 9228.900000
173.050900 61022.100000
173.070800 5358.300000
174.058800 6882.900000
175.066700 12688.500000
176.050400 30048.700000
177.045500 7853.700000
178.066200 389285.000000
182.071300 42370.300000
183.053900 4414.800000
183.079300 13314.000000
184.063000 6088.600000
184.087000 49046.900000
185.051000 387720.200000
185.070600 45953.700000
186.058700 402425.000000
187.066600 1666409.100000
188.061800 1099071.000000
189.045800 13171.800000
190.065700 9416.200000
192.055400 15405.100000
192.081700 43820.500000
193.063100 5999.000000
194.071300 81250.600000
195.055000 9984.100000
197.050800 88213.000000
198.046100 10017.000000
202.041000 4033.600000
203.061400 88730.500000
204.056800 21457.800000
204.067300 4163.500000
207.056500 45536.500000
209.075800 4176.200000
210.065100 17603.300000
212.061800 670110.400000
212.081500 82366.600000
213.046800 56671.600000
213.057800 27342.000000
213.069500 372093.900000
214.040800 5599.800000
214.077400 100472.400000
215.061400 13894.200000
216.080900 15030.300000
217.076700 17086.200000
219.066600 5382.900000
222.046100 16232.300000
222.071200 5797.400000
230.072400 64742.000000
234.071100 11198.300000
235.079300 69209.200000
236.074300 6525.300000
236.086800 68956.100000
237.080300 14278.500000
239.072700 116719.500000
240.056700 117841.100000
242.082900 18165.700000
243.092000 17522.100000
246.071500 7027.800000
247.067000 7005.800000
249.082800 3627.900000
257.083200 180905.900000
260.073800 8808.300000
261.082300 20087.400000
262.089800 22782.000000
263.097900 131516.600000
264.093000 125446.200000
270.102400 20309.300000
273.082300 15062.500000
288.093200 72875.200000
289.101000 4724.600000
290.108700 524739.000000
305.119900 4294.200000
306.103500 24170.000000
333.114500 20326.600000

>ms2
50.015100 10592.400000
51.022900 25761.600000
52.018300 11057.100000
53.002200 134959.100000
53.038600 751389.900000
54.033900 25939.100000
55.017900 48677.300000
57.013500 6506.500000
64.018100 28428.600000
66.033700 19244.800000
67.029000 11385.700000
68.013000 8336.100000
68.997200 5181.700000
70.028700 10025.800000
71.024000 7905.100000
77.038500 352988.600000
78.046300 12221.500000
81.033500 86748.400000
81.044700 114108.000000
82.028700 23768.800000
91.054200 356936.000000
92.049400 19596.300000
92.057600 45925.300000
93.044900 17353.900000
94.041400 65916.800000
95.049100 2207359.500000
97.044800 46981.600000
103.054300 28103.400000
104.049500 875025.300000
105.044700 803347.100000
106.040200 16329.400000
107.029100 64560.900000
109.039700 59141.600000
109.044800 121380.300000
109.064700 15231.300000
115.054200 608204.600000
116.049500 120477.100000
116.062100 27352.500000
117.057300 86640.400000
117.065400 16503.400000
118.039900 47609.800000
118.065100 115431.100000
119.073000 23883.200000
120.044400 55533.400000
120.076400 18062.600000
121.044800 13358.700000
122.040000 162048.700000
123.035200 18221.100000
124.055700 34776.100000
128.049500 181583.300000
128.062000 144505.300000
129.044700 34074.400000
129.057300 25395.500000
129.065400 100887.200000
129.070000 26191.700000
130.065100 145978.900000
130.073300 29070.300000
131.085800 15629.700000
132.037000 46937.300000
132.044200 28202.800000
132.088600 6892.700000
133.044800 5083563.000000
134.040000 301552.300000
134.059600 19078.200000
135.042900 6828.100000
135.047900 45413.000000
136.050500 122906.900000
136.055900 37421.100000
140.049400 357218.500000
141.044700 146503.900000
142.065200 243026.600000
143.060500 33074.000000
145.065100 27505.600000
145.075900 7578.500000
146.040100 43614.300000
146.060000 185701.800000
147.035500 7945.600000
147.055200 23399.400000
147.080600 16076.100000
148.055700 21532.800000
148.083700 8336.700000
152.050600 74590.600000
155.060300 127790.400000
156.055700 17882.700000
157.076000 90459.200000
158.040100 1411801.600000
159.035900 18691.700000
159.047800 64433.000000
159.055300 62932.800000
160.055700 815104.800000
160.075600 192413.900000
161.040200 29117.700000
161.050900 262276.600000
163.066500 28846.700000
164.050200 22179.800000
165.044700 61873.900000
167.060400 112847.900000
168.055500 47994.900000
168.068100 207513.500000
169.076000 314515.100000
170.039900 54448.000000
171.048200 25056.200000
171.054200 23550.100000
172.055800 10785.700000
173.050800 48389.600000
174.058500 5392.800000
174.091300 5283.100000
175.066600 6186.600000
176.050500 68562.900000
178.066200 101856.900000
182.071300 24764.600000
183.079300 14707.300000
184.062900 7626.400000
184.086800 13120.800000
185.051000 382943.100000
185.070400 33925.000000
186.058700 568584.700000
187.066500 609749.800000
188.061700 702254.200000
189.045800 15860.200000
190.065600 14249.900000
192.055500 17417.900000
192.081700 12284.100000
193.063700 9445.400000
194.071200 41052.500000
195.055400 13876.000000
197.050900 68549.100000
198.046000 21315.900000
198.058600 7989.700000
201.045900 5958.400000
203.061500 68391.200000
204.056700 14436.300000
207.056000 21868.000000
209.076100 11131.400000
211.054100 29163.900000
212.061800 401226.300000
213.046700 42039.100000
213.057400 20104.700000
213.069700 132187.500000
214.077400 115501.900000
216.080700 14374.000000
217.077500 12656.900000
222.045900 11480.500000
230.072400 19318.500000
234.071100 17711.200000
235.079200 94652.900000
236.074400 7738.200000
236.086400 31131.300000
237.080500 6042.800000
238.064700 5746.200000
239.072600 27445.300000
242.083800 23080.400000
243.091600 8893.900000
257.083300 41648.000000
260.074200 18288.800000
261.082600 22731.400000
262.090200 17979.600000
263.098100 34053.000000
270.101600 8992.900000
273.082100 7275.900000
288.093200 22397.500000
290.108500 74449.700000

