>compound LU31730244
>parentmass 566.2543999999999
>ionization [M+H]+
>formula C28H35N7O4S
>rt 852.180000
>profile orbitrap
#smiles_iso CCCOC1=C(C=C(C=C1)S(=O)(=O)N2CCN(CC2)CC)C3=NC4=C(N(N=C4C(=O)N3)CC5=CC=CC=N5)CC
#smiles_can CCCOC1=C(C=C(C=C1)S(=O)(=O)N2CCN(CC2)CC)C3=NC4=C(N(N=C4C(=O)N3)CC5=CC=CC=N5)CC
#inchikey NIBCDDKWFDEBEP-UHFFFAOYSA-N
#pubchem_id 135430996
#mb_accession LU123001,LU123002,LU123003,LU123004,LU123005,LU123006

>ms2peaks
566.254500 6720289.000000

>ms2peaks
56.049500 45282.100000
57.057300 62165.700000
58.065100 522101.200000
70.065100 38110.700000
71.072900 28413.000000
72.080700 495312.200000
84.068300 16092.100000
84.080800 67165.800000
85.076000 4851.200000
93.057300 21763.400000
94.065200 35690.400000
98.083900 27164.300000
99.091700 244579.500000
110.060100 36970.500000
111.091700 74850.500000
112.099500 46584.200000
113.107300 1034879.900000
114.115200 270071.100000
115.123000 53744.500000
177.069300 51348.000000
253.072600 4263.900000
254.079700 9838.300000
267.088000 4494.500000
295.119000 14082.400000
296.127000 9097.000000
328.116600 12424.700000
346.129800 440596.000000
347.137800 22139.500000
348.144600 16900.900000
360.145600 6889.500000
362.124700 306563.100000
390.192400 58864.400000
404.172000 9210.300000
421.174400 26067.600000
538.223300 160135.900000
566.254500 3382043.500000

>ms2peaks
56.049400 163945.800000
57.057300 135712.900000
58.065100 843853.000000
65.038500 36142.500000
70.065100 181570.900000
71.072900 126286.300000
72.080700 1984288.800000
80.049400 22733.200000
82.065100 10532.900000
83.060300 18374.200000
84.068100 61341.100000
84.080700 241738.900000
85.076100 23771.100000
92.049300 34060.300000
93.057300 244965.600000
94.065100 93167.700000
96.068200 5600.000000
96.080500 7092.200000
97.076100 13305.100000
98.080200 5759.500000
98.083800 100130.600000
99.091600 518668.600000
106.065000 3177.800000
110.060000 403088.500000
111.091600 97698.400000
112.099400 28432.600000
113.107200 823687.800000
114.115100 80739.800000
115.122900 69455.800000
117.057000 5272.400000
124.075600 4679.900000
134.060200 2414.100000
145.064800 8299.900000
161.059500 3457.000000
177.069200 9321.300000
182.060100 6781.300000
184.075700 2867.200000
209.070700 22358.500000
212.081800 3758.000000
213.113500 3341.200000
225.077000 8479.200000
226.085200 19326.800000
227.093000 3246.100000
239.092500 15694.100000
247.119100 5824.000000
253.071800 67974.500000
254.079600 121844.600000
255.087500 38756.900000
263.092500 4310.700000
267.087500 38841.200000
269.067100 6611.900000
269.103500 12583.900000
271.083000 4001.100000
283.082300 26756.800000
286.069700 19530.400000
295.119100 23964.500000
296.126500 36743.200000
318.135100 120064.700000
319.118400 20095.400000
328.117000 96723.400000
330.098600 4244.600000
346.129700 824359.600000
348.144800 32793.700000
362.124500 543125.200000
379.126800 19895.800000
389.185700 26542.200000
390.192600 22307.600000
404.172100 7639.000000
421.174200 62071.700000
538.223100 11916.400000
566.253900 23356.900000

>ms2peaks
53.002300 2983.400000
56.049500 226688.000000
57.057300 99800.400000
58.065100 564546.100000
65.038600 195194.900000
66.046400 7335.600000
67.041600 4073.300000
68.049400 12669.800000
70.065100 272272.200000
71.072900 121775.800000
72.080700 2152932.000000
80.049400 59393.200000
82.052600 3065.700000
82.065100 12178.900000
83.060400 35150.300000
84.068200 63414.400000
84.080800 267671.200000
85.076100 12462.000000
92.049500 177960.000000
93.057300 439022.400000
94.065100 104111.400000
96.044400 10042.200000
96.068200 9533.700000
96.080700 9045.100000
97.076100 17140.000000
98.083900 110763.900000
99.091700 376592.700000
106.040200 12860.900000
106.065100 6575.300000
107.047800 9416.100000
107.060300 3237.700000
108.044700 3308.500000
110.060000 1042404.200000
111.091700 49912.600000
112.099300 15037.800000
113.107300 274242.000000
114.115100 5124.500000
115.123000 35118.900000
117.057200 15775.000000
118.065100 6158.600000
119.060300 6277.200000
120.044400 3531.800000
120.080800 4100.500000
124.075600 13216.900000
130.065100 4849.600000
131.060200 3872.900000
136.050700 6809.000000
138.066100 2946.700000
145.064800 9953.300000
145.075900 4768.800000
147.091400 3437.400000
154.060000 4425.400000
154.065900 5555.300000
155.060400 4532.400000
156.068400 3010.000000
161.059400 3102.800000
169.076200 7305.900000
170.071400 4777.000000
181.075800 4672.400000
182.060000 14906.500000
184.075500 3558.200000
184.086700 11012.500000
185.071500 3295.800000
186.102300 5116.600000
196.087000 3878.300000
197.071200 8055.000000
198.066400 2996.500000
201.076800 9062.000000
209.070600 20748.600000
210.066400 5280.900000
211.061500 9028.200000
211.097900 13084.600000
212.081900 12274.800000
224.081400 4254.600000
225.076900 46163.100000
226.085000 140495.200000
227.092700 7938.400000
236.082400 5938.800000
239.056200 8977.900000
239.092700 58155.500000
240.100500 6432.800000
247.119500 5317.400000
252.064200 4113.700000
253.071900 82279.400000
254.079700 165577.900000
255.087500 49917.800000
256.071400 9611.900000
263.092900 7497.100000
267.087600 62028.200000
269.067200 15552.000000
269.103400 14210.400000
283.082500 35752.100000
286.069600 71830.900000
296.126700 5312.200000
318.134800 96129.900000
319.118500 9632.500000
328.117400 23748.500000
330.098600 4842.500000
346.129900 114606.500000
347.137800 11515.600000
348.144500 6941.900000
360.145600 3725.800000
362.124600 93778.300000
421.174100 9920.500000

>ms2peaks
53.002300 8438.500000
53.038600 4305.000000
54.033900 8970.600000
55.041800 2544.300000
55.054300 3910.600000
56.049500 254534.100000
57.057300 61109.800000
58.065200 376560.400000
65.038600 502352.300000
66.046300 15215.000000
67.041700 5395.900000
68.049500 14617.300000
70.065100 315125.800000
71.060400 7876.900000
71.073000 85364.600000
72.080800 1974272.100000
78.034000 4545.900000
80.036800 7777.500000
80.049500 72163.000000
81.044700 4557.600000
82.052600 4795.500000
82.065200 7213.800000
83.049400 3001.900000
83.060500 41240.000000
84.068200 60320.600000
84.080800 216477.900000
85.076000 10879.700000
91.054200 4484.700000
92.049500 339812.500000
93.057400 502764.600000
94.065200 65522.700000
95.060400 6540.300000
96.044400 16332.700000
96.068300 13023.600000
96.080800 4456.700000
97.076100 18772.300000
98.080200 4714.700000
98.083900 87825.300000
99.091700 243427.100000
105.044900 7339.500000
106.040000 34894.400000
106.065000 4164.700000
107.047700 16878.000000
107.060300 8329.400000
108.044500 4913.400000
110.060100 1017977.200000
111.091800 19032.400000
112.099400 4743.100000
113.107300 82870.000000
115.054200 6196.800000
115.123000 19054.600000
117.057200 18882.100000
118.028600 2614.300000
118.052700 3270.500000
118.065100 8416.300000
119.060300 11282.500000
120.044500 8215.700000
120.055700 5426.300000
120.080500 3106.900000
124.075700 12236.700000
128.049200 3031.200000
129.044400 3192.900000
130.065000 8077.800000
131.060300 6366.300000
134.060100 3142.300000
136.050600 12300.500000
138.066400 3549.200000
142.065200 6403.800000
143.060100 2947.500000
144.055600 6815.000000
145.039500 3765.000000
145.076000 6738.500000
146.071100 5142.100000
147.091500 3011.900000
153.057600 6733.800000
154.060000 4351.500000
155.060300 12063.100000
156.055400 4767.100000
156.068200 6694.700000
156.081500 4420.000000
157.063500 4591.800000
157.076000 5041.700000
167.073100 2997.100000
168.068400 8055.200000
169.076000 21381.100000
170.059900 3594.500000
170.071400 15513.000000
171.055200 4664.100000
172.050400 5779.500000
179.060300 4097.800000
180.055600 4745.800000
181.063500 4748.200000
181.075800 10319.200000
182.051300 3107.900000
182.060000 21142.700000
182.071400 7135.800000
183.066800 5796.700000
184.075600 3077.700000
184.087000 17228.300000
186.066200 11142.200000
186.102500 2866.400000
193.075900 2947.700000
196.086600 4166.800000
197.071100 9218.900000
197.082100 21090.300000
198.066400 8942.000000
198.090300 11732.700000
201.077200 8152.500000
210.066300 12772.900000
211.061500 39375.400000
211.098000 20196.100000
212.081600 21516.500000
213.077500 5854.300000
213.113300 2956.600000
224.069200 9815.600000
224.081200 6209.600000
225.077100 78118.600000
226.085000 110670.800000
227.093000 14841.900000
230.079800 19672.400000
236.082300 5161.200000
238.084500 4629.300000
239.056100 14879.500000
239.092700 47043.600000
240.100700 5564.600000
252.064000 4705.300000
253.072100 60378.900000
254.079800 38111.500000
255.088000 27952.000000
256.071400 7602.400000
267.088000 22159.700000
269.067000 4599.500000
269.103800 4366.900000
271.082100 3785.300000
283.083000 14305.600000
286.069400 23583.500000
379.126100 5372.100000

>ms2peaks
53.002200 14088.400000
53.038600 6902.100000
54.033800 12378.600000
55.041600 3205.600000
55.054300 4481.000000
56.049500 264678.000000
57.057300 42173.800000
58.065100 264093.200000
65.038600 786632.600000
66.046400 35463.900000
67.041600 16580.000000
68.049400 17145.200000
70.065100 273297.300000
71.060400 3645.500000
71.073000 48809.300000
72.080800 1568101.900000
78.033800 9343.300000
80.036900 9800.700000
80.049500 67231.400000
81.044800 9990.700000
82.052600 6201.200000
82.065100 9660.300000
83.049100 4628.900000
83.060400 46419.700000
84.068300 53290.700000
84.080800 141450.700000
85.076100 10892.300000
91.054300 3986.400000
92.049500 372854.600000
93.057400 466381.200000
94.065200 45015.900000
95.060500 3726.900000
96.044400 28352.200000
96.068100 9959.700000
97.076100 19088.200000
98.083900 65881.700000
99.091700 125910.500000
105.044900 14764.600000
106.040100 42956.600000
106.065100 4161.100000
107.047700 7469.800000
107.060500 7309.000000
108.044500 3633.000000
110.060100 676782.600000
111.091600 5426.400000
113.107400 16843.600000
115.054200 13556.200000
115.123100 4888.500000
117.057200 17406.900000
118.028800 2804.600000
118.052700 8003.400000
118.065100 6564.100000
119.060400 10260.600000
120.044500 11168.300000
120.055500 4681.200000
124.075600 5782.400000
128.049400 11584.200000
129.044700 12902.700000
130.065200 12590.800000
131.060500 10968.600000
134.060200 2961.700000
136.050800 8064.600000
142.065300 11719.500000
143.060400 13733.400000
144.055600 13723.500000
145.039800 9901.000000
145.064500 7999.900000
145.076100 3475.400000
146.071300 7236.400000
153.057200 3247.200000
154.066000 22095.100000
155.060300 31751.700000
156.055600 8674.600000
156.068200 3780.800000
156.081200 4848.600000
157.063800 5193.300000
157.076100 9777.800000
167.073100 3572.700000
168.068200 10247.000000
169.076200 20991.000000
170.059800 8031.200000
170.071300 27460.800000
171.055200 4777.500000
172.050700 8136.900000
179.060300 5880.400000
180.055500 9094.600000
181.063400 4406.700000
181.075900 11525.400000
182.047100 5740.900000
182.060000 13828.500000
182.071400 9468.600000
183.066600 10676.100000
184.075800 3463.600000
184.087100 18438.400000
185.071600 3231.700000
186.066300 14587.500000
193.076200 3274.000000
196.086900 2966.700000
197.071300 11158.500000
197.082200 31109.600000
198.066400 12156.000000
198.090100 7545.300000
201.077000 2919.400000
209.070700 5840.700000
210.066300 8655.500000
211.061600 53913.300000
211.098100 12239.000000
212.081700 8076.000000
213.077500 5468.200000
224.069100 9959.100000
224.081300 3054.500000
225.077100 55566.000000
226.085100 21904.400000
227.092900 6136.700000
230.080300 11116.700000
238.084500 3716.400000
239.056300 7781.000000
239.092500 15181.600000
253.071900 34686.800000
255.088100 5158.800000
267.087700 4016.400000
286.069400 6089.800000

