>compound LU31817647
>parentmass 202.08539999999996
>ionization [M+H]+
>formula C7H12ClN5
>rt 914.280000
>profile orbitrap
#smiles_iso CCNC1=NC(=NC(=N1)Cl)NCC
#smiles_can CCNC1=NC(=NC(=N1)Cl)NCC
#inchikey ODCWYMIRDDJXKW-UHFFFAOYSA-N
#pubchem_id 5216
#mb_accession LU085801,LU085802,LU085803,LU085804,LU085805,LU085806

>ms2peaks
71.060500 20844.000000
96.055500 19020.900000
104.000900 12902.100000
124.086900 336269.000000
132.032300 251212.600000
166.108500 38470.100000
174.054100 90795.400000
202.085300 9578885.000000

>ms2peaks
68.024400 14190.100000
71.060300 47772.800000
96.055600 76024.300000
104.000900 41151.600000
124.087000 861279.600000
132.032300 690062.300000
138.077400 10113.500000
166.108700 119703.100000
174.054100 219351.500000
202.085300 9073597.000000

>ms2peaks
61.979100 18501.600000
68.024200 168971.300000
71.060300 538538.700000
74.096400 4564.200000
79.005700 72653.600000
90.010500 67355.600000
96.055600 836412.000000
104.000900 637261.400000
107.037100 22915.900000
110.046000 7032.600000
118.041300 7965.300000
124.086900 2450601.000000
132.032200 2501073.200000
138.077300 55976.100000
145.028300 3755.300000
146.022700 46299.300000
146.035900 19322.300000
166.108600 356937.300000
174.054000 579424.800000
187.061900 5366.000000
200.069700 10828.100000
202.085300 3630627.200000

>ms2peaks
53.013400 2968.400000
61.979100 90742.000000
68.024300 942775.300000
71.060300 1340824.000000
74.096400 3106.800000
79.005700 189606.300000
89.038500 5062.300000
90.010500 104178.300000
90.046500 17444.600000
96.055600 1924414.100000
104.000900 1980646.900000
107.037100 22412.900000
110.046100 23555.800000
118.041300 22678.500000
124.086900 1588411.100000
132.032300 2022603.900000
138.077300 79979.300000
145.028300 12993.100000
146.022800 75216.200000
146.036100 13416.200000
166.108700 252139.800000
174.054100 338446.500000
200.069700 6897.800000
202.085300 625336.800000

>ms2peaks
61.979200 247800.000000
66.046500 8602.500000
68.024300 1989059.900000
71.060300 1347943.600000
74.096500 3178.100000
79.005700 162298.200000
89.038500 45751.900000
90.010500 82626.700000
90.046400 64349.100000
96.055600 1572475.600000
104.000900 2303195.800000
107.037100 9086.900000
110.046100 30823.100000
118.041300 30490.300000
124.086900 447441.800000
132.032200 720707.200000
138.077200 50597.700000
145.028300 25827.300000
146.022800 50884.700000
146.036100 10114.500000
166.108500 59228.300000
174.054000 89900.200000
202.085300 53251.300000

>ms2peaks
53.013400 3722.100000
61.979200 558323.100000
66.046300 5470.400000
68.024300 2902770.800000
71.060300 1034147.600000
74.096300 4753.100000
79.005700 168313.000000
89.038600 74190.600000
90.010500 35359.800000
90.046500 46162.000000
96.055600 824412.500000
104.001000 1851554.600000
107.037000 6209.000000
110.046100 22193.200000
118.041600 13950.300000
124.086900 85282.000000
132.032300 182344.500000
138.077300 13453.500000
145.028100 10258.000000
146.022800 23583.200000
146.036000 4319.700000
166.108500 4774.600000
174.054100 12491.200000

