>compound LU31256076
>parentmass 356.1776
>ionization [M+H]+
>formula C22H26ClNO
>rt 959.580000
>profile orbitrap
#smiles_iso COC1=CC=CC(=C1)C2=C(C=C(C=C2)/C=C\CN3CCCCCC3)Cl
#smiles_can COC1=CC=CC(=C1)C2=C(C=C(C=C2)C=CCN3CCCCCC3)Cl
#inchikey ZDPINFKDQWCRTF-FPLPWBNLSA-N
#pubchem_id 9798769
#mb_accession LU110301,LU110302,LU110303,LU110304,LU110305,LU110306

>ms2peaks
98.096500 225359.400000
100.112000 18923.900000
221.096000 50960.700000
222.103900 240348.600000
229.041300 44607.100000
229.077800 45967.200000
257.072800 5308586.000000
356.177600 15729660.000000

>ms2peaks
55.017900 13684.700000
98.096400 470402.800000
100.111900 51582.400000
165.070400 12359.200000
178.077400 32513.200000
191.085400 12679.200000
192.093200 17762.700000
193.101300 108887.000000
194.108900 119279.600000
201.046700 27947.200000
204.093400 15891.100000
206.072800 26854.800000
215.026000 14749.800000
221.096200 847627.400000
222.103800 8642301.000000
225.046400 58109.900000
226.054200 22988.500000
227.061900 18160.200000
229.041500 1249154.900000
229.077600 1088638.100000
239.062000 13903.400000
242.049100 656102.600000
255.056500 23944.000000
255.970900 13928.600000
257.072600 11112599.000000
267.067400 13459.000000
356.177300 462140.900000

>ms2peaks
98.096400 340203.700000
100.112000 37739.800000
149.015400 17409.200000
165.069900 69983.500000
166.077800 29641.000000
178.077600 129757.200000
179.085500 200435.700000
181.064800 21981.100000
189.046900 37270.900000
189.069800 31089.500000
190.077800 118680.100000
191.085500 265923.200000
192.093300 225494.600000
193.101300 367367.300000
194.072700 199574.300000
194.109000 564220.200000
195.080500 17627.900000
199.031000 73350.600000
201.046700 145256.300000
203.085300 69148.100000
204.093600 50622.200000
205.064600 21365.800000
205.101300 33520.900000
206.072700 237957.000000
207.080400 1354684.500000
212.038800 18842.100000
214.018000 19286.600000
214.054600 30252.600000
215.026200 38882.300000
216.033900 24923.300000
217.040900 36136.000000
221.096200 1693011.500000
222.103800 14912713.000000
225.046400 203218.500000
226.054300 96938.900000
227.025700 57747.100000
227.062000 62217.900000
228.034200 19928.100000
229.041500 1882516.400000
229.077600 598177.400000
239.062000 30997.700000
241.041300 17365.500000
242.049200 1628394.200000
255.058000 28927.000000
257.072700 1417133.400000

>ms2peaks
55.017800 19359.400000
56.049500 8641.600000
98.096400 188787.000000
100.112200 30757.200000
104.062000 10761.900000
107.049100 68060.100000
115.054200 18263.600000
128.062000 14455.100000
129.069600 14677.200000
130.041200 7120.000000
131.049000 8868.300000
145.064500 11186.400000
149.015300 31377.700000
151.054500 8340.000000
152.061800 32887.200000
153.069900 18943.000000
154.077700 17373.000000
165.069800 242935.600000
166.077600 110172.800000
167.085200 11418.700000
176.062200 15571.000000
177.069600 13981.300000
178.077600 564604.100000
179.085400 2244032.000000
181.064800 52351.600000
182.072700 8265.900000
186.023000 99495.100000
187.030900 12398.200000
189.046700 17403.500000
189.069800 167315.800000
190.077700 400871.600000
191.085500 828564.600000
192.093200 328055.800000
193.101100 335992.300000
194.072600 343302.900000
194.108900 415384.400000
195.080400 60493.200000
199.030800 425642.100000
200.038600 6952.600000
201.046600 187389.200000
202.077400 46211.100000
203.085400 102085.100000
204.093300 54072.300000
205.064700 95844.900000
205.100800 60832.200000
206.072700 438449.300000
207.080400 5939015.000000
208.088900 9728.400000
212.038600 43182.600000
213.046600 19694.700000
214.018000 173225.000000
214.054400 75592.400000
215.025600 50013.500000
216.033500 8718.500000
217.041400 65885.500000
219.080300 14180.900000
220.088300 17089.300000
221.096100 1755588.600000
222.103800 6945514.500000
225.046400 132846.200000
226.054300 90218.700000
227.025700 269893.700000
227.036800 31994.200000
227.061300 22632.700000
228.033300 19695.300000
229.041300 1020045.000000
229.077200 59494.600000
241.041200 52988.100000
242.049100 919434.600000
255.057300 16708.800000
257.072500 54362.700000

>ms2peaks
55.017800 45442.200000
55.054300 21795.300000
56.049400 13742.900000
79.054300 11808.500000
91.054300 18008.300000
98.096400 104233.300000
100.112200 12261.400000
102.046300 10459.200000
103.054200 7926.500000
104.062000 16684.900000
107.049200 86163.200000
115.054000 43591.600000
116.062100 20324.600000
125.015400 14575.300000
128.062000 27704.000000
129.069600 24884.000000
130.041300 8743.800000
131.049300 12131.200000
145.064800 12537.000000
149.015400 32836.700000
151.054400 9273.100000
152.062000 117887.500000
153.069800 58222.400000
154.077600 24006.500000
163.054500 15649.100000
164.062300 24127.900000
165.069900 559113.700000
166.077700 210905.900000
167.085400 16599.500000
168.057000 19566.300000
176.062300 36623.300000
177.070100 98683.500000
178.077800 2391828.000000
179.085500 6730436.000000
180.057000 14025.500000
181.064700 85987.800000
182.072200 7780.400000
186.023100 436328.700000
189.069900 668706.400000
190.077700 538277.800000
191.085500 1363494.800000
192.057200 35176.200000
192.093400 230939.500000
193.065000 38375.100000
193.101200 298135.000000
194.072700 291727.500000
194.109000 133665.000000
195.080500 116559.900000
199.030900 1099366.200000
201.046600 110799.700000
202.077800 98843.400000
203.085500 139770.000000
204.093800 26185.100000
205.064900 296247.200000
205.101400 47350.200000
206.072700 454100.000000
207.080400 6664234.500000
212.038600 56642.800000
213.047200 26408.600000
214.018000 247878.800000
214.054200 51771.700000
215.025900 46491.900000
217.041500 32594.100000
217.076500 7642.100000
219.080500 39160.100000
220.088400 18849.000000
221.096100 1465255.800000
222.103900 1451992.400000
225.046500 67968.600000
226.054000 25039.300000
227.025800 256891.900000
227.036500 18077.300000
228.034000 14017.100000
229.041400 320103.300000
241.041400 81832.300000
242.049200 192499.100000
255.057400 11127.900000

>ms2peaks
55.017800 68665.600000
55.054200 29770.600000
56.049500 21226.000000
79.054200 19740.800000
91.054200 28684.200000
95.049200 14683.400000
98.096400 52160.500000
100.112100 9767.700000
102.046600 15122.600000
103.054100 13625.100000
104.062200 9061.200000
107.049100 47766.800000
115.054200 88524.600000
116.061900 10659.800000
125.015000 11017.100000
128.061800 35250.700000
129.069800 17773.800000
131.049000 19392.000000
139.054200 18640.800000
149.015200 48982.300000
151.054200 8574.800000
152.062000 421116.300000
153.069800 131318.600000
154.077500 16533.200000
163.054100 46532.900000
164.062100 67422.600000
165.069900 999696.100000
166.077700 177122.100000
167.085800 30520.500000
168.056900 75021.500000
176.062100 122560.500000
177.070100 431987.900000
178.077700 7211804.500000
179.085400 7632629.500000
180.056700 26993.000000
181.064500 120904.000000
186.023100 822679.000000
189.069800 1312276.000000
190.077700 549934.000000
191.085500 1312451.400000
192.056900 65588.700000
192.093400 101423.000000
193.064800 38865.900000
193.101200 183564.500000
194.072600 156235.700000
194.108800 18471.800000
195.080400 106760.800000
199.030900 1461128.100000
201.046400 49882.300000
202.077700 147695.100000
203.085500 117617.800000
204.093400 12408.000000
205.064800 518879.300000
206.072600 385472.500000
207.080400 3076450.200000
209.096300 7737.500000
212.038500 67051.200000
213.046900 26154.200000
214.017900 138009.500000
214.053800 15810.900000
215.025600 35796.900000
217.075900 10208.000000
219.080500 58545.900000
220.088300 8279.900000
221.096000 904983.900000
222.103800 145949.200000
225.046100 28601.600000
227.025800 80971.600000
229.041200 52372.100000
241.041600 62626.500000
242.049200 22631.400000

