>compound LU31729064
>parentmass 181.072
>ionization [M+H]+
>formula C7H8N4O2
>rt 608.920000
>profile orbitrap
#smiles_iso CN1C2=C(C(=O)N(C1=O)C)NC=N2
#smiles_can CN1C2=C(C(=O)N(C1=O)C)NC=N2
#inchikey ZFXYFBGIUFBOJW-UHFFFAOYSA-N
#pubchem_id 2153
#mb_accession LU111801,LU111802,LU111803,LU111804,LU111805,LU111806

>ms2peaks
69.044700 3151.600000
96.055600 5516.800000
124.050600 192700.900000
137.082300 11039.800000
142.061200 10865.900000
149.023400 68703.500000
163.038900 35745.700000
181.072000 2135589.200000

>ms2peaks
69.044700 4932.900000
96.055700 8920.100000
124.050600 315008.700000
137.082300 16165.000000
142.061300 15675.900000
149.023400 84752.900000
163.039000 40838.300000
163.060800 4562.200000
167.056400 3135.700000
181.072000 2562036.800000

>ms2peaks
69.044700 44943.100000
81.044800 3262.300000
83.023800 2776.400000
93.044800 3706.300000
93.069800 2365.500000
96.055600 122765.500000
97.039800 4679.200000
108.055700 4400.800000
110.071400 10134.800000
113.034700 2170.900000
120.055700 7079.800000
121.028500 4518.000000
124.050600 1280875.800000
133.028500 3758.700000
135.044100 3403.300000
137.082200 39125.800000
142.061200 116482.000000
149.023400 73096.300000
163.039000 34422.900000
163.061200 3845.100000
166.048300 2970.100000
167.055900 12303.100000
181.072000 1348602.800000

>ms2peaks
65.038600 5311.100000
69.044700 189340.800000
79.054100 3601.400000
81.044700 5580.700000
83.024000 19480.500000
83.060300 3368.600000
91.054400 2353.000000
93.033600 2436.100000
93.044700 6981.100000
93.070000 3049.700000
94.040000 8746.600000
95.024100 1915.100000
95.049100 3787.000000
96.055600 338431.200000
97.039700 15769.600000
108.055500 13531.100000
109.026900 4109.100000
110.071200 13683.900000
113.034500 4311.500000
120.055500 9090.600000
121.028500 18091.200000
121.039600 3968.300000
122.059000 4080.500000
124.050600 1312298.900000
133.028300 6183.100000
135.044000 7158.800000
137.082200 23864.600000
140.045600 4988.900000
142.061200 151903.000000
149.023400 36724.300000
149.045500 4579.200000
163.038900 18169.900000
163.061500 5253.900000
166.048600 1937.800000
167.056000 13686.700000
181.072000 339184.300000

>ms2peaks
54.033800 1973.200000
65.038600 20077.700000
67.029100 4781.900000
68.036900 4894.400000
69.044700 389501.900000
81.044800 11464.800000
83.024000 35440.300000
83.060300 2755.500000
91.054300 2028.800000
93.033600 1934.200000
93.044800 10164.400000
93.070100 3073.400000
94.040000 24857.100000
95.024000 3894.500000
95.049100 10519.100000
96.055700 461765.500000
97.039700 20376.500000
105.044900 5522.000000
108.055600 11360.200000
109.027100 27458.300000
110.071300 11202.200000
111.044300 4570.700000
112.050600 3716.000000
113.034600 2259.700000
120.055800 4948.600000
121.028600 13228.200000
121.039800 5448.900000
121.050900 4115.400000
122.058800 7051.800000
124.050600 813801.000000
126.066200 3880.100000
133.028500 4771.600000
135.044300 6480.200000
137.082200 7214.700000
139.062600 3196.600000
140.045600 7230.300000
142.061200 111650.100000
149.023400 21961.900000
149.045400 2435.200000
163.038800 5734.700000
163.061500 4294.300000
167.055800 12760.800000
181.072100 63648.100000

>ms2peaks
65.038600 49979.000000
69.044700 378925.100000
79.054300 3531.200000
81.044800 13922.300000
83.024000 29406.900000
83.060400 2622.300000
91.054200 2350.500000
93.033500 5580.700000
93.045000 7932.300000
94.040000 31757.600000
95.024000 6284.700000
95.049200 13276.900000
96.055600 244268.800000
97.039700 14973.600000
108.055700 5066.600000
109.027100 35026.000000
110.071400 3851.300000
111.044100 7258.100000
112.050900 2495.400000
113.034600 4138.900000
121.028300 11753.400000
121.039700 8817.300000
122.058700 4945.000000
124.050600 224908.400000
126.066200 2201.400000
133.028400 4822.900000
135.044000 4066.000000
137.082500 1817.300000
140.045600 5189.000000
142.061100 28025.200000
149.023600 8795.000000
163.038600 1595.400000
167.056300 3611.700000
181.071800 4877.700000

