>compound LU32306449
>parentmass 227.1543
>ionization [M+H]+
>formula C15H18N2
>rt 609.360000
>profile orbitrap
#smiles_iso CC1=C(C=CC(=C1)CC2=CC(=C(C=C2)N)C)N
#smiles_can CC1=C(C=CC(=C1)CC2=CC(=C(C=C2)N)C)N
#inchikey WECDUOXQLAIPQW-UHFFFAOYSA-N
#pubchem_id 13283
#mb_accession LU032201,LU032202,LU032203,LU032204,LU032205,LU032206

>ms2
120.080600 293093.200000
193.100900 17350.500000
210.127600 16070.400000
227.154200 14697506.000000

>ms2
120.080800 1460461.400000
129.069700 16595.300000
178.077800 52502.000000
193.101200 120535.300000
195.104300 75658.400000
210.127600 94884.800000
227.154200 13509467.000000

>ms2
54.033900 9965.800000
68.049400 18823.300000
79.054100 9352.700000
80.049500 38037.600000
81.057300 59477.100000
91.054200 8599.700000
103.054200 58360.600000
105.069800 12926.800000
118.065200 20312.300000
120.080800 7594327.500000
128.062100 12157.700000
129.069900 175963.600000
141.070100 7714.700000
142.077700 16567.600000
143.085700 32290.400000
144.081000 10981.700000
145.088400 13298.200000
154.077500 10975.000000
155.085600 45924.300000
157.101100 17194.300000
165.069900 15653.300000
166.077700 13789.700000
167.086200 18752.700000
168.080700 15458.200000
168.093400 15253.200000
169.101200 38773.700000
178.077800 542460.200000
180.080700 128916.500000
181.088900 37508.800000
181.100800 20619.600000
182.096500 58172.200000
183.116900 43290.600000
192.093100 12116.700000
193.101300 701407.400000
194.096400 75051.900000
195.104400 645081.800000
208.112400 45392.800000
209.119300 15615.700000
210.127700 297922.300000
211.123100 12400.100000
225.138700 42206.200000
226.147100 17139.800000
227.154300 5945731.000000

>ms2
53.038600 11858.300000
54.033800 13209.600000
68.049400 25806.700000
79.054100 34140.500000
80.049400 46884.900000
81.057300 57584.100000
91.054200 53097.300000
93.069800 43810.600000
94.065100 15179.800000
103.054200 202288.500000
105.044600 11129.100000
105.069800 27851.900000
107.073000 21439.900000
118.065100 36328.900000
119.073000 18016.600000
120.080700 10715956.000000
128.061800 39996.100000
129.069700 237937.700000
141.069800 32228.200000
142.077600 40464.100000
143.085400 38205.900000
144.080600 21412.700000
145.088300 23272.800000
152.062000 13471.000000
153.069600 15351.900000
154.077700 38370.500000
155.085400 86239.200000
157.100800 20886.200000
165.069700 41043.700000
166.077600 24598.200000
167.073000 20612.000000
167.085600 26675.100000
168.080800 29315.400000
168.093200 42915.800000
169.101200 41215.100000
170.096100 12094.400000
177.069900 19937.300000
178.077600 1005716.100000
179.085600 28444.800000
180.080600 609019.800000
181.088400 59683.900000
181.101100 19344.300000
182.096400 55983.500000
183.116700 31403.600000
191.084900 11505.500000
192.093200 42441.800000
193.089200 34231.000000
193.101100 482433.800000
194.096400 320088.100000
195.104200 766168.400000
208.111900 51299.000000
209.119700 21527.500000
210.127500 124256.500000
211.123000 28136.800000
225.138200 27620.000000
226.143300 12461.200000
227.154100 742765.200000

>ms2
53.038600 48977.500000
54.033800 19433.300000
65.038600 13269.400000
67.054200 11417.400000
68.049400 21971.900000
77.038300 26832.000000
79.054200 67431.300000
80.049400 73889.700000
81.057400 39701.400000
91.054200 211617.800000
92.049500 23447.700000
93.057300 30248.300000
93.069900 116280.900000
94.065200 30414.700000
102.046400 12371.400000
103.054300 382769.200000
105.044700 61222.500000
105.057400 21639.900000
105.070000 23047.700000
107.073000 35768.100000
115.054200 12974.500000
117.057300 13885.900000
118.065200 54726.800000
119.073100 54131.300000
120.080800 11175653.000000
128.062000 91964.600000
129.069800 161615.200000
130.065200 41188.800000
141.069900 32069.300000
142.077700 48085.500000
143.085700 19037.900000
144.080800 24765.100000
145.088500 12584.900000
152.061700 40363.600000
153.069700 54111.600000
154.077700 48368.100000
155.060400 15472.800000
155.085500 82320.100000
157.088700 13920.100000
165.069800 59981.900000
166.077600 24528.700000
167.073000 41480.000000
167.085600 29606.300000
168.081000 24884.100000
168.093200 36651.500000
169.101000 19837.700000
170.096400 21709.800000
176.061900 12625.000000
177.069900 24887.700000
178.077700 1044712.400000
179.085600 59074.100000
180.080700 1063896.800000
181.088600 42975.100000
182.096600 27717.200000
191.085300 28050.000000
192.093400 54019.900000
193.088700 64260.700000
193.101200 149700.000000
194.096500 658512.000000
195.104300 380939.200000
208.112200 37012.700000
209.119500 18851.500000
210.127800 26623.200000
211.123200 32295.300000
225.138500 12639.600000
227.154200 49744.600000

>ms2
53.038600 124568.100000
54.033900 28790.100000
65.038600 39290.900000
67.054100 17747.900000
68.049400 14193.600000
77.038400 56423.500000
78.046300 14737.800000
79.054200 104100.200000
80.049400 125078.000000
81.057300 47160.600000
91.054200 415964.600000
92.049400 45068.100000
93.057300 63007.500000
93.069900 190937.000000
94.065200 64391.300000
102.046500 31856.800000
103.054200 487505.400000
104.049500 15586.000000
105.044700 141962.900000
105.057300 50970.600000
105.069800 14284.900000
106.065100 28283.400000
107.072800 41944.300000
115.054300 24234.800000
117.057000 23122.500000
118.065200 75601.400000
119.073100 115817.500000
120.080800 9369151.000000
128.062000 149186.500000
129.069800 74421.500000
130.065000 43952.900000
141.069900 43654.000000
142.077700 35774.800000
143.072900 12413.600000
143.085400 9432.200000
144.080600 26666.800000
152.062000 113696.800000
153.069800 127532.600000
154.065200 14338.800000
154.077600 33856.400000
155.060400 22041.100000
155.085500 47466.400000
156.080900 17296.900000
157.088500 14331.000000
165.069900 77928.700000
166.077900 18166.000000
167.073100 38452.600000
167.085500 51534.000000
168.081100 19543.700000
168.093200 14749.300000
170.096400 13352.800000
176.061900 29059.200000
177.069900 92316.500000
178.077700 744512.800000
179.085600 61759.600000
180.080700 1138368.400000
181.088100 13510.200000
182.096100 12501.100000
191.085600 34020.400000
192.093500 39702.400000
193.088600 115695.600000
193.101000 22630.700000
194.096500 609499.800000
195.104200 96465.000000
208.112000 25952.000000
211.122900 19230.600000
225.138600 10797.300000

