>compound LU32088380
>parentmass 137.07089999999997
>ionization [M+H]+
>formula C7H8N2O
>rt 665.040000
>profile orbitrap
#smiles_iso C1=CC=C(C=C1)NC(=O)N
#smiles_can C1=CC=C(C=C1)NC(=O)N
#inchikey LUBJCRLGQSPQNN-UHFFFAOYSA-N
#pubchem_id 6145
#mb_accession LU102901,LU102902,LU102903,LU102904,LU102905,LU102906

>ms2peaks
50.015300 1783.200000
53.038600 9468.200000
77.038600 5313.000000
86.003700 12576.600000
92.049500 70168.700000
93.057100 4464.400000
94.065200 1735424.600000
95.049100 31214.700000
105.044800 13418.700000
120.044500 288103.600000
137.071000 1017098.900000

>ms2peaks
65.038600 5722.600000
68.049400 3941.600000
86.003600 15502.400000
92.049500 22874.500000
94.065200 523981.700000
95.049000 5540.700000
110.060100 8741.400000
120.044400 2705499.500000
137.071000 822270.000000

>ms2peaks
51.023000 2202.200000
53.038700 30086.300000
67.054300 3340.600000
77.038600 12339.300000
81.033600 3129.100000
81.069900 2704.700000
86.003600 36468.200000
92.049600 120679.200000
93.057200 8898.700000
94.065200 2094060.500000
95.049200 80063.600000
105.044800 32336.500000
120.044500 285232.200000
137.071100 447398.500000

>ms2peaks
53.038600 17301.400000
54.033900 3922.100000
55.017900 4711.700000
65.038500 84255.700000
68.049500 52684.500000
69.033600 4902.200000
77.038700 2910.000000
78.033800 6076.900000
79.017700 9734.200000
82.028700 3187.900000
86.003600 108283.600000
91.054400 3548.300000
92.049500 332519.200000
93.057300 6354.000000
94.065200 659202.900000
95.049200 40097.900000
96.044200 8082.800000
105.044700 20260.700000
108.044300 8569.300000
110.060100 130177.300000
119.060400 4004.800000
120.044400 2696228.200000
137.071000 66177.300000

>ms2peaks
50.015100 2247.200000
53.002200 2667.300000
53.038600 38101.000000
54.033900 5518.800000
55.017900 5755.000000
65.038600 321987.700000
67.054200 3948.700000
68.049400 75423.000000
69.033500 7125.500000
77.038600 12645.200000
78.033900 9053.700000
79.017800 14174.600000
81.033500 2492.900000
82.028700 3663.300000
86.003600 136011.300000
91.054200 5533.500000
92.049500 673077.800000
93.057200 12540.700000
94.065100 471922.500000
95.049100 106899.600000
96.044300 10648.600000
104.014000 2523.500000
105.044700 45313.500000
108.044500 13651.300000
110.060100 226369.100000
119.060400 7253.300000
120.044400 1631751.400000
137.071100 10096.800000

>ms2peaks
50.015200 11997.100000
51.022900 20973.400000
53.038600 311536.700000
55.017800 17508.100000
65.038500 42253.800000
67.054200 34465.100000
77.038500 125082.900000
81.033500 32251.700000
81.069900 2393.500000
86.003600 118423.800000
92.049500 117455.100000
93.057300 91701.700000
94.065200 1162392.900000
95.049100 858511.800000
96.044300 5698.200000
105.044800 383902.400000
120.044400 18835.200000
137.071400 2292.200000

