>compound LU32709422
>parentmass 268.075
>ionization [M+H]+
>formula C11H13N3O3S
>rt 747.480000
>profile orbitrap
#smiles_iso CC1=C(ON=C1C)NS(=O)(=O)C2=CC=C(C=C2)N
#smiles_can CC1=C(ON=C1C)NS(=O)(=O)C2=CC=C(C=C2)N
#inchikey NHUHCSRWZMLRLA-UHFFFAOYSA-N
#pubchem_id 5344
#mb_accession LU063601,LU063602,LU063603,LU063604,LU063605,LU063606

>ms2peaks
65.038600 5507.300000
68.049400 19058.500000
70.065000 5764.900000
71.060300 4670.000000
86.060000 75016.200000
92.049200 43061.200000
94.065100 8330.500000
95.060500 11316.700000
96.044300 10079.100000
106.065100 544564.500000
107.068400 394558.700000
108.044300 131260.200000
110.059900 4173.300000
111.055200 4060.200000
112.063400 6619.900000
113.070900 1902157.800000
140.016300 21361.500000
156.011300 3369731.800000
162.055100 5662.200000
163.058300 4821.300000
173.014100 8514.900000
174.021900 16231.400000
175.017000 5726.200000
180.065200 25232.700000
181.068900 30834.500000
251.048800 3503.900000
268.075000 1992627.600000

>ms2peaks
53.038600 5950.900000
54.033800 10109.700000
55.017800 18113.100000
58.065100 8700.600000
62.018500 16806.700000
65.038400 13716.900000
68.049400 140733.600000
69.033500 5409.500000
70.065100 7046.500000
71.060300 55515.000000
72.044300 7044.700000
78.033800 13822.600000
79.017800 15697.200000
85.076000 3965.900000
86.060000 69176.100000
92.049400 266748.100000
93.057300 4394.300000
94.065100 9244.800000
95.060400 13693.500000
96.044400 59728.300000
106.065100 882055.700000
107.068400 640390.500000
108.044300 890648.300000
110.060000 40701.600000
112.063200 7702.800000
113.070900 2819882.200000
120.055600 21397.200000
140.016300 29596.500000
156.011300 3608287.000000
162.055000 10984.000000
163.057900 14986.200000
173.014200 12506.000000
174.021500 16272.100000
175.017300 12296.100000
180.065400 97643.600000
181.068900 118975.300000
268.074900 146791.000000

>ms2peaks
53.002200 6240.700000
53.038500 18634.200000
54.033800 13003.700000
55.017800 63986.400000
58.065100 11069.600000
61.010700 3622.500000
62.018400 25974.900000
65.038500 107921.000000
67.017800 4184.200000
67.041600 2982.600000
68.049400 420190.300000
69.033400 27988.600000
70.028700 3035.900000
70.065100 6459.600000
71.060300 184274.500000
72.044300 28319.600000
78.033800 42003.400000
79.017800 52130.900000
79.054200 3195.200000
80.049400 17676.700000
82.028700 9782.500000
85.076000 15425.400000
86.060000 40037.000000
92.049500 804516.900000
93.057300 8478.900000
94.065100 5305.500000
95.036600 10559.400000
95.060300 8030.700000
96.044400 200012.900000
106.065100 616725.800000
107.068500 452640.300000
108.044300 1864657.100000
109.052200 6840.200000
110.060000 245738.800000
112.063100 10170.700000
113.070900 1709547.500000
120.055600 52776.000000
124.076000 4346.300000
140.016400 21289.800000
156.011300 1034175.800000
162.055200 13520.100000
163.058100 18571.100000
173.014200 8688.500000
174.021700 3770.100000
175.017200 3281.700000
180.065500 144407.600000
181.069000 165837.400000
194.081400 3158.800000
195.084900 4171.500000

>ms2peaks
53.002200 8378.900000
53.038600 18015.600000
54.033800 18040.700000
55.017800 126181.000000
58.065100 13832.300000
61.010600 3410.000000
62.018400 20515.200000
65.038600 478053.200000
67.017800 6411.100000
67.041700 3517.200000
68.049400 459489.800000
69.033500 17094.700000
70.065000 10402.300000
71.060300 219128.700000
72.044300 33577.800000
78.033800 30041.000000
79.017800 46362.800000
79.054200 8940.500000
80.049400 88023.300000
80.057600 5032.600000
82.028700 8260.500000
83.049300 2388.400000
85.076000 21326.100000
86.060000 14796.600000
92.049500 1292813.500000
93.057400 8437.200000
94.065100 2861.700000
95.036600 11565.600000
95.060400 6965.800000
96.044400 217748.600000
106.065200 627186.100000
107.068500 446069.600000
108.044300 1735659.000000
109.052200 14750.100000
110.060000 457475.000000
112.063300 6462.600000
113.070900 640330.300000
120.055600 45273.500000
124.075800 9070.700000
134.060200 7058.500000
135.063000 5492.600000
140.016200 13892.400000
156.011300 153184.700000
162.054900 20137.100000
163.058100 23045.100000
173.014300 3023.100000
180.065500 184604.900000
181.068900 225624.600000
194.081400 2746.000000
195.085000 4934.900000

>ms2peaks
53.002200 15103.000000
53.038600 18672.100000
54.033900 16240.300000
55.017900 181763.500000
56.049600 2940.500000
58.065100 13951.300000
61.010600 3130.900000
62.018500 20682.500000
63.022900 2175.900000
65.038600 1330742.600000
66.033700 3155.600000
67.017800 3631.700000
67.054200 3157.700000
68.049500 393985.800000
69.033400 9490.000000
70.065000 9301.700000
71.060400 159651.600000
72.044300 27411.800000
78.033800 16485.200000
79.017800 23895.200000
79.054200 36472.200000
80.049500 296407.700000
80.057500 16369.100000
82.028600 4484.000000
83.049100 7142.100000
85.076100 18571.900000
86.060000 10190.900000
90.033700 2794.300000
92.049500 1462426.800000
93.057400 12381.700000
94.065400 3277.400000
95.036500 4427.700000
95.049200 13437.400000
95.060300 6107.900000
96.044400 142319.000000
105.044600 3817.700000
106.065200 571642.500000
107.068500 420065.700000
108.044400 1394909.000000
109.052200 11091.000000
110.060100 457493.600000
113.070900 185758.000000
120.044500 6818.400000
120.055600 21391.600000
121.047700 4931.000000
124.075800 11173.400000
134.060100 25175.800000
135.063200 22318.500000
140.016400 12976.000000
156.011300 17273.200000
162.054900 16288.300000
163.058200 22875.200000
180.065600 177557.400000
181.069000 199599.600000
195.084600 5378.200000

>ms2peaks
53.002300 23155.500000
53.038600 30867.900000
54.033900 15940.100000
55.017900 159133.800000
56.049500 9284.500000
58.065100 13940.400000
61.010700 4677.500000
62.018600 12897.600000
63.022800 6686.100000
65.038600 2121557.800000
66.033800 6348.100000
67.017800 2402.500000
67.041700 4349.500000
67.054100 2859.700000
68.049500 248662.900000
69.033500 3310.900000
70.028700 2908.100000
70.065100 5848.600000
71.060400 66569.700000
72.044500 16391.900000
78.033800 13257.400000
79.017800 7606.100000
79.054300 76200.200000
80.049500 567105.800000
80.057500 39687.700000
82.028700 2459.300000
83.049200 8301.200000
85.076100 10366.100000
90.033900 4455.300000
92.049500 978132.100000
93.057400 6919.000000
95.049200 30428.900000
95.060500 5511.200000
96.044400 50215.700000
105.044800 9892.500000
106.065200 412172.200000
107.068500 303351.700000
108.044400 867452.500000
109.052300 6160.500000
110.060100 238181.500000
113.070900 36807.400000
120.044400 12587.300000
120.055600 7436.100000
121.047800 9934.900000
124.075900 7810.500000
134.060200 28645.600000
135.063400 25265.200000
140.016700 5247.100000
162.054900 9286.900000
163.058500 13780.500000
180.065600 91025.600000
181.069000 111545.500000
194.081900 2891.800000
195.084400 4155.000000

