>compound LU32556371
>parentmass 180.1383
>ionization [M+H]+
>formula C11H17NO
>rt 611.940000
>profile orbitrap
#smiles_iso CCN(CCO)C1=CC=CC(=C1)C
#smiles_can CCN(CCO)C1=CC=CC(=C1)C
#inchikey KRNUKKZDGDAWBF-UHFFFAOYSA-N
#pubchem_id 7067
#mb_accession LU054801,LU054802,LU054803,LU054804,LU054805,LU054806

>ms2
108.080700 62463.900000
120.080600 340802.700000
132.080400 28050.400000
133.088600 115173.800000
134.096400 472420.500000
135.104200 876456.400000
136.112100 671358.100000
147.104200 205143.600000
151.099100 632124.100000
152.107000 870083.400000
160.112300 49452.300000
162.127700 1869907.500000
180.138200 17841498.000000

>ms2
107.072900 23586.200000
108.080700 104806.900000
119.072800 22532.600000
120.080600 529428.600000
132.080800 47951.100000
133.088600 139725.400000
134.096300 757062.100000
135.104100 1311841.100000
136.112000 965515.600000
147.104200 308144.900000
151.099100 930932.600000
152.106900 1161197.200000
160.112000 70948.800000
162.127600 2450494.800000
180.138100 17437052.000000

>ms2
91.054000 40967.200000
93.057300 16788.300000
93.070000 40905.800000
105.069900 17126.900000
106.064900 37464.600000
107.072900 168898.500000
108.080700 423201.200000
110.060000 35346.100000
117.069800 22813.400000
118.065100 35248.400000
119.072900 206569.900000
120.080700 3671171.500000
121.088500 95146.100000
132.080800 376103.000000
133.088600 342988.600000
134.096400 2856377.800000
135.104100 3398127.200000
136.112000 1597557.200000
138.091100 29865.100000
146.096500 19041.700000
147.104200 720079.000000
150.091300 23764.800000
151.099100 1554047.800000
152.106900 1319224.100000
160.112100 173041.100000
162.127600 2958718.000000
180.138200 4801185.500000

>ms2
91.054200 168272.200000
92.062200 29907.900000
93.057400 54425.500000
93.069900 125152.800000
105.069800 50276.400000
106.065100 183948.600000
107.073000 533037.900000
108.080800 659672.300000
109.065100 13848.500000
110.060100 48457.500000
115.054200 34045.600000
117.057200 21691.300000
117.070000 96290.400000
118.065200 197583.200000
119.073100 692653.400000
120.080800 9846450.000000
121.088500 261227.100000
131.072900 15072.900000
132.080800 932645.900000
133.088700 458888.900000
134.096400 3613256.000000
135.104200 2816090.000000
136.112100 1094912.100000
138.091500 12570.500000
146.096700 27183.500000
147.104200 479708.900000
150.091400 12130.100000
151.099200 670433.400000
152.107000 440766.500000
160.112100 132709.400000
162.127700 1174460.100000
180.138300 634283.100000

>ms2
65.038400 47333.200000
79.054200 45005.700000
91.054300 529868.000000
92.062100 104792.400000
93.057300 173719.300000
93.069900 210455.800000
94.065200 15494.300000
95.049100 31438.300000
104.049600 20130.400000
105.069800 81787.900000
106.065200 495815.400000
107.073000 798404.700000
108.080800 531667.800000
109.064800 69120.800000
110.060100 44729.600000
115.054100 92032.200000
117.057300 70811.400000
117.069900 118619.400000
118.065200 567041.900000
119.073100 1008942.900000
120.080800 14268737.000000
121.088500 288124.000000
131.072900 33345.000000
132.080800 1216589.900000
133.088600 293581.200000
134.096400 2207186.500000
135.104300 1075676.900000
136.112100 352613.600000
145.088400 16701.800000
146.096500 53610.900000
147.104200 151277.300000
151.099300 133175.600000
152.106900 69335.300000
160.111800 47093.500000
162.127700 198912.100000
180.138200 51081.400000

>ms2
53.038700 26763.200000
65.038500 167544.500000
77.038600 18518.100000
79.054100 93313.600000
80.049500 19978.300000
91.054200 1467907.600000
92.049500 32028.400000
92.062000 327548.100000
93.057300 311832.300000
93.069900 496498.500000
94.065200 23381.500000
95.049100 83264.500000
103.054200 54831.300000
104.049600 49559.500000
105.057400 21287.900000
105.069900 112424.700000
106.065100 840503.100000
107.072900 903519.900000
108.080800 359046.100000
109.064900 182547.000000
110.060100 24495.500000
115.054300 134254.600000
117.057300 135053.400000
117.069900 88941.400000
118.065200 1067254.900000
119.073100 882209.000000
120.080800 15523349.000000
121.088500 195137.600000
130.065300 21230.400000
131.072900 37726.600000
132.080800 1036045.100000
133.088500 127431.100000
134.096400 971377.700000
135.104200 228475.000000
136.112000 98940.800000
146.096400 49576.800000
147.104100 39793.600000
151.099300 21388.800000
162.127500 23221.200000

