>compound LU32564593
>parentmass 286.07009999999997
>ionization [M+H]+
>formula C10H12ClN5O3
>rt 650.220000
>profile orbitrap
#smiles_iso C1[C@@H]([C@H](O[C@H]1N2C=NC3=C(N=C(N=C32)Cl)N)CO)O
#smiles_can C1C(C(OC1N2C=NC3=C(N=C(N=C32)Cl)N)CO)O
#inchikey PTOAARAWEBMLNO-KVQBGUIXSA-N
#pubchem_id 20279
#mb_accession LU134301,LU134302,LU134303,LU134304,LU134305,LU134306

>ms2
69.033400 2366.600000
71.049100 4040.500000
73.028500 5217.400000
99.044100 18233.300000
117.054700 185494.600000
170.022900 1407386.000000
207.969200 5960.400000
286.070300 548718.600000

>ms2
57.033500 6391.800000
69.033500 8775.900000
70.040000 4214.500000
71.049100 20845.000000
73.028400 27639.600000
81.033500 8879.700000
99.044100 83496.200000
117.054700 288632.800000
134.046400 3350.000000
152.057200 1976.600000
170.022900 1306352.800000
207.968600 2086.700000
286.070100 19678.400000

>ms2
53.002200 2789.800000
53.038600 5485.600000
57.033500 17461.700000
69.033500 32175.800000
70.039900 4665.000000
71.049100 65483.000000
73.028400 88129.300000
75.044000 3700.600000
81.033500 28569.200000
99.044100 130933.700000
105.033400 2651.900000
117.054600 164953.300000
134.046100 63849.700000
135.030100 9868.200000
152.056700 46908.000000
160.973800 2390.300000
170.022800 1312494.600000

>ms2
53.002200 3411.100000
53.038600 7937.300000
55.017900 3582.300000
57.033500 19386.200000
69.033500 46809.800000
70.039900 2781.600000
71.049100 58031.900000
73.028400 91304.100000
75.044100 2070.500000
81.033600 25165.700000
99.044100 53707.900000
107.035400 11781.000000
117.054700 33811.700000
134.046200 288930.900000
135.030200 26530.400000
152.056800 119800.600000
170.022900 792566.400000

>ms2
53.002200 8755.300000
53.038600 9849.100000
57.033600 12633.600000
69.033500 43023.500000
70.040000 2962.300000
71.049200 32057.700000
73.028400 59471.500000
80.024400 10008.800000
81.033500 17150.600000
92.024400 9138.800000
99.044200 16278.000000
105.033600 2211.700000
107.035300 64832.300000
117.054500 3187.500000
134.046200 528670.300000
135.030200 30490.500000
152.056800 109589.700000
160.973300 2560.900000
170.022900 273590.200000
171.006800 1983.700000

>ms2
53.002200 7740.900000
53.038600 16036.200000
55.018000 1997.700000
57.033500 6207.600000
69.033500 31585.300000
70.040000 2007.200000
71.049100 15317.300000
73.028400 37305.400000
80.024300 28717.700000
81.033500 8312.000000
92.024300 23026.400000
99.044200 3849.100000
107.035200 148174.000000
117.054600 1863.800000
134.046200 512167.600000
135.030100 12485.000000
152.056800 49812.000000
170.022900 66417.900000
171.006900 4624.500000

