>compound LU33308128
>parentmass 373.095
>ionization [M+H]+
>formula C19H17ClN2O4
>rt 1166.100000
>profile orbitrap
#smiles_iso CCOC(=O)C(C)OC1=CC=C(C=C1)OC2=CN=C3C=C(C=CC3=N2)Cl
#smiles_can CCOC(=O)C(C)OC1=CC=C(C=C1)OC2=CN=C3C=C(C=CC3=N2)Cl
#inchikey OSUHJPCHFDQAIT-UHFFFAOYSA-N
#pubchem_id 53518
#mb_accession LU043001,LU043002,LU043003,LU043004,LU043005,LU043006

>ms2
163.006800 7861.300000
273.042100 9725.400000
285.041600 18276.500000
299.058200 1654423.000000
327.052700 17830.200000
345.064100 25226.600000
373.095000 6836112.000000

>ms2
55.017900 5082.800000
72.080800 8184.900000
73.028400 16222.900000
73.064700 8895.200000
91.054200 427372.200000
111.044100 5078.800000
119.049100 116290.500000
121.028400 126629.400000
121.064800 23705.500000
147.043900 6639.800000
163.006900 15576.000000
180.008600 8511.500000
181.016300 31707.200000
207.091600 16788.800000
208.098800 7389.200000
235.086400 10916.000000
236.094400 100823.900000
243.068400 141080.500000
244.039700 23875.200000
249.066200 7550.200000
253.052700 23039.600000
255.031900 56471.200000
256.039700 9363.500000
257.047700 7588.300000
270.019600 14077.500000
271.063300 654299.000000
272.034500 178986.700000
273.042500 82813.300000
281.047400 46241.900000
284.035500 11663.000000
299.058200 5037746.000000
327.053600 31649.000000
345.063900 93526.200000
373.095000 423463.600000

>ms2
53.038600 2364.400000
55.017900 22782.000000
65.038500 61912.500000
67.054100 2732.200000
69.033400 9164.300000
72.080800 6069.300000
73.028400 48721.500000
73.064700 6246.700000
74.036200 7587.900000
77.038400 2613.600000
79.054200 3610.000000
81.033400 5877.400000
81.069900 6157.100000
91.054200 1636862.400000
92.062000 13417.500000
93.033600 11483.700000
93.069900 11400.400000
94.041300 7504.700000
95.012900 7300.000000
95.048900 14352.600000
103.054400 12963.100000
105.044700 16289.000000
107.049100 5891.400000
109.064800 30725.600000
110.036200 3047.700000
111.044100 28396.700000
119.049200 307405.600000
120.057000 62030.200000
121.028400 247512.400000
121.064700 104782.800000
126.010500 10702.000000
135.043900 12149.700000
137.059700 25242.900000
138.010300 3250.900000
140.013700 5766.100000
147.044000 21697.300000
147.055500 4034.500000
151.005700 9485.100000
152.013400 6074.400000
153.021600 8358.100000
163.005700 105736.300000
164.013500 36680.800000
165.021400 42881.500000
177.021300 17020.000000
178.029000 7868.900000
179.000700 46932.100000
179.036800 6722.600000
180.008600 40839.500000
181.016300 418401.500000
189.021400 10252.500000
189.033900 6698.400000
190.029500 5287.400000
191.037100 11695.600000
192.068100 55252.400000
193.076000 38352.400000
195.032000 38726.700000
196.003500 38752.000000
199.027100 5037.700000
203.037100 66582.700000
205.016600 8174.600000
207.091700 78712.800000
208.099600 77921.700000
209.070500 16809.800000
215.037100 90366.200000
216.020800 7081.000000
216.044900 131684.400000
217.052700 28038.400000
218.084100 19262.600000
219.091500 5861.500000
220.063200 8261.700000
221.070900 50595.600000
227.037200 40805.900000
228.045100 51482.300000
229.052600 52456.500000
235.086500 75605.400000
236.094400 195735.100000
237.065700 21653.300000
239.036700 6895.900000
240.045200 6557.100000
241.052800 8400.100000
242.024100 5152.100000
242.061400 6302.500000
243.032100 35052.300000
243.068400 658071.400000
244.039800 413162.900000
245.047800 28642.100000
249.066000 56099.500000
253.052700 204849.000000
254.060700 7789.000000
255.032000 806500.200000
256.039800 119871.300000
257.047400 28325.200000
263.081400 7732.200000
270.019100 36881.700000
270.055200 6722.200000
271.028300 69261.400000
271.063200 1017570.100000
272.034500 216250.100000
273.042400 154616.900000
281.047700 69971.900000
283.027200 6224.800000
284.034800 46780.200000
285.042100 3018.100000
299.058200 1030700.700000
317.068000 3047.300000
327.055000 3780.200000
345.063800 27700.600000

>ms2
53.002300 3649.800000
53.038500 12113.900000
55.017800 40632.000000
63.023000 5075.000000
65.038500 339466.000000
67.054100 10388.400000
69.033500 10688.800000
72.080800 5855.600000
73.028300 45233.200000
73.064700 3469.400000
74.036100 9538.800000
75.022900 5968.800000
76.018200 2731.500000
77.038500 4197.200000
78.033700 13114.900000
79.054200 15139.000000
81.033300 15994.500000
81.069900 23523.000000
89.038400 3059.100000
90.033700 6219.100000
90.046600 2881.800000
91.054200 1496122.600000
92.025700 7556.100000
92.062000 22164.700000
93.033500 15888.800000
93.069900 37248.300000
94.041300 27594.100000
95.012700 10336.300000
95.049100 31530.000000
98.999500 12664.500000
100.018300 5191.000000
103.054200 45111.900000
105.033500 3034.400000
105.044700 35040.100000
107.049000 14352.700000
109.028300 6717.100000
109.064700 40978.900000
110.036200 11406.100000
111.044000 47708.700000
113.002700 9254.200000
116.049800 3384.600000
119.049100 149713.500000
120.056900 73447.300000
121.028300 149243.100000
121.064700 112168.300000
123.994800 16870.100000
125.002600 3014.200000
125.059600 4933.300000
125.986400 4063.500000
126.010400 56920.000000
131.049000 2705.900000
135.043900 10671.300000
135.994900 5203.100000
137.002400 11766.400000
137.059700 24476.900000
138.010400 6237.900000
140.013400 11847.300000
142.052800 2729.400000
147.044100 10716.900000
151.005700 23455.500000
152.013500 37009.000000
153.021300 9287.100000
154.005200 12736.200000
154.065000 5684.700000
161.034700 6800.900000
163.005700 457862.400000
164.001000 84921.800000
164.013300 85150.200000
164.049200 6467.100000
165.021400 73745.000000
167.072900 2875.900000
168.008500 14629.300000
168.068200 7432.600000
168.992400 4014.800000
173.015400 3990.700000
177.021300 43499.600000
178.029200 19976.300000
179.000600 110963.200000
179.045300 8373.500000
180.008500 44904.200000
180.068200 4050.100000
180.080700 8176.200000
181.016200 537894.100000
181.075900 83811.100000
182.059700 11773.700000
182.083900 6706.400000
183.067900 3630.700000
189.021500 24752.700000
189.033800 8565.700000
190.064900 3390.300000
191.036800 7849.300000
191.060200 5306.200000
192.068100 466236.800000
193.076000 96507.600000
194.083800 9368.400000
195.032000 118329.100000
196.003300 93034.900000
197.047500 3163.600000
199.027000 11972.900000
200.026000 24610.600000
201.021900 4224.700000
201.033700 6057.800000
202.029100 44846.100000
203.037000 99099.400000
205.016600 7897.200000
205.076200 8081.700000
206.083700 4995.500000
207.091600 134626.100000
208.063400 8226.200000
208.099400 101215.900000
209.071000 75162.300000
210.078400 16188.100000
215.036900 269085.700000
216.044900 238410.600000
217.052600 27682.500000
217.075700 5957.800000
218.083800 66444.000000
219.032400 2934.600000
219.091200 6919.300000
220.063300 18833.700000
221.070900 75618.500000
226.029200 22965.000000
227.037000 119959.400000
228.044700 149054.300000
229.017100 3409.400000
229.052600 58211.600000
235.086500 58136.000000
236.057000 2747.200000
236.094400 38900.400000
237.065600 21297.200000
239.037200 9446.500000
240.044900 7594.100000
241.052800 24888.700000
242.024000 8196.000000
242.060300 12733.800000
243.031900 45829.000000
243.068300 301352.500000
244.039700 418235.000000
249.065300 14808.900000
253.052600 137260.200000
254.060800 4117.200000
255.031800 1167872.600000
256.039600 83562.100000
263.080700 5133.300000
269.047700 6690.500000
270.019300 17782.700000
270.055300 6020.500000
271.026800 62781.200000
272.034500 24669.800000
273.042300 75458.600000
283.026800 3726.500000

>ms2
53.002200 12532.700000
53.038600 32111.700000
55.017800 46904.700000
63.022800 21174.800000
64.030700 6290.200000
65.038500 649246.400000
66.046400 5818.000000
67.054200 8726.800000
69.033400 7272.400000
72.080800 4174.800000
72.983900 5212.400000
73.028400 34664.600000
74.036100 10743.600000
75.022900 24776.200000
76.018100 11018.600000
76.030700 3061.400000
77.038600 10092.400000
78.033800 69405.900000
78.046400 6496.700000
79.017700 8625.800000
79.054200 26521.300000
81.033500 41056.600000
81.069900 36175.600000
82.041300 11599.500000
84.983800 3955.000000
86.999900 2647.500000
89.038600 4033.900000
90.033900 32380.900000
90.046600 3098.700000
91.054200 1025446.600000
92.025600 15708.600000
92.062100 20992.100000
93.033500 10104.800000
93.069900 43059.700000
94.041300 34970.000000
95.049100 85666.900000
96.044400 7772.900000
97.991800 5994.100000
98.036500 3260.100000
98.999600 39798.600000
100.007400 5658.000000
100.018100 44416.000000
102.034000 6143.900000
103.054200 59154.900000
105.033500 9017.900000
105.044700 44622.600000
107.049100 12107.300000
108.044300 8155.200000
109.028400 6076.600000
109.064700 26236.200000
110.036200 19830.400000
111.044000 28211.600000
111.994800 5470.600000
113.002600 42923.200000
116.049400 3467.700000
118.028600 16683.800000
119.036700 8673.700000
119.049100 51826.700000
120.056900 36337.100000
121.028400 69291.600000
121.039700 4676.600000
121.064800 69312.500000
123.994900 42785.200000
125.002700 19701.600000
125.059600 5927.700000
125.986700 8583.300000
126.010500 58357.600000
128.002300 2470.700000
128.997700 5980.600000
130.005300 6192.700000
131.013500 5024.800000
131.049000 5037.900000
135.044200 5757.000000
135.994800 35629.600000
137.002700 46065.500000
137.059800 7382.700000
138.010600 8886.300000
139.006300 5689.400000
140.013500 4012.300000
140.049400 4108.900000
141.057000 4081.500000
142.052700 7344.700000
144.992700 5255.500000
147.044200 4548.500000
149.015200 3339.600000
150.010400 8845.100000
151.005800 16223.500000
151.018200 3390.500000
152.013600 59571.800000
153.021300 8675.600000
154.005500 51346.800000
154.065300 49673.600000
155.035400 7674.100000
155.060300 8499.700000
161.034300 5078.700000
163.005700 553890.900000
164.001000 320399.100000
164.012900 80782.800000
164.049400 51297.000000
165.021400 53614.300000
165.045000 5251.700000
165.057300 61006.600000
166.052900 5899.400000
166.065100 15681.100000
167.060600 2870.600000
167.073000 6304.300000
168.008500 8542.900000
168.068300 26126.200000
168.992700 9174.600000
169.052000 15577.400000
173.015200 12318.100000
174.010500 16340.600000
177.021500 44384.800000
178.029600 16902.800000
179.000700 97568.500000
179.045100 13272.400000
179.060300 18942.100000
180.008700 12354.600000
180.067800 21390.300000
180.080800 11885.400000
181.016300 323368.700000
181.076000 233406.800000
182.060100 35748.700000
182.084000 19112.300000
183.067900 31901.400000
188.025900 5596.200000
189.021500 27749.300000
190.029300 34193.200000
190.052100 2486.800000
190.064800 4690.100000
191.037400 2367.400000
191.060300 41861.400000
192.068200 996700.000000
193.076000 104120.400000
194.083900 11789.400000
195.031900 144217.200000
196.003400 61142.600000
197.047500 9466.300000
200.026100 50660.300000
201.022300 13099.600000
201.033500 13749.300000
202.029400 53006.100000
203.037100 59061.900000
205.016200 4821.100000
205.076200 7034.100000
206.084000 7719.500000
207.091700 147396.900000
208.063300 35358.600000
208.099500 46772.200000
209.070900 84330.300000
210.079000 21579.800000
215.037000 384670.800000
216.020700 11142.400000
216.044900 169755.700000
217.052600 20956.900000
217.076200 12288.800000
218.083700 50177.000000
219.032000 7469.200000
219.066700 2509.000000
219.091800 7335.700000
220.063100 17762.800000
221.070900 54338.000000
223.086600 3426.900000
226.029200 71038.100000
227.037000 124179.400000
228.044800 100329.800000
229.016200 3487.200000
229.052400 24828.400000
235.086400 25530.600000
236.058200 4797.300000
237.065700 6494.800000
239.036800 10231.700000
240.044800 3913.600000
241.052700 22350.000000
242.023900 5967.100000
242.060400 12117.100000
243.031700 39229.900000
243.068300 39977.700000
244.039700 123003.500000
245.047600 28946.500000
253.052700 31079.100000
255.031900 453023.000000
256.039900 25081.500000
257.047600 7540.500000
269.048000 6201.100000
270.020100 2885.200000
271.026800 35086.800000
271.063300 11691.100000
273.041900 11587.200000

>ms2
53.002200 18977.900000
53.038600 48066.100000
55.017900 62342.000000
63.022900 46230.600000
64.030700 13715.800000
65.038600 721974.400000
66.046400 16518.400000
67.054200 7125.300000
69.033400 5271.800000
72.984000 10300.200000
73.028400 21865.200000
74.036200 7159.700000
75.022900 53622.900000
76.018100 16512.500000
76.030800 8543.000000
77.038500 15448.800000
78.033800 124368.700000
78.046400 16633.800000
79.017800 20674.700000
79.054200 37414.300000
81.033500 65707.100000
81.070000 27293.700000
82.041300 20284.500000
84.984000 5154.800000
86.999800 3563.600000
89.038600 10592.200000
90.033900 60355.100000
90.046500 9788.400000
91.054300 699077.900000
92.025700 20063.200000
92.062000 13995.500000
93.033600 3306.100000
93.069900 35946.100000
94.041300 44872.700000
95.049200 127787.400000
96.044500 13801.400000
97.991800 6382.000000
98.036200 5021.300000
98.999600 49754.600000
100.007600 15311.700000
100.018200 166612.800000
102.033800 50782.400000
103.054300 56110.900000
105.033600 14739.800000
105.044800 61431.000000
107.049300 9411.200000
108.044400 13215.800000
109.028500 7116.000000
109.065000 11607.300000
110.036400 18742.700000
111.044100 17335.500000
111.994800 11858.400000
113.002700 75580.500000
116.049500 4270.900000
118.028700 72045.400000
119.036700 14393.900000
119.049200 23420.100000
120.057000 9230.600000
121.028500 33442.300000
121.039400 2990.000000
121.064800 24378.900000
123.994900 60963.300000
125.002700 34603.500000
125.986700 13792.800000
126.010600 43351.900000
128.002300 17442.100000
128.997700 8498.200000
130.005600 8492.300000
131.013300 11847.500000
131.049200 4627.000000
135.044300 2874.500000
135.994900 99853.600000
137.002800 84129.800000
138.010800 9810.600000
139.005800 10271.800000
140.049500 20276.600000
141.057700 16286.800000
142.052600 11791.600000
144.992700 13760.900000
147.054800 2455.000000
149.015300 10636.100000
150.010600 10736.800000
151.005800 6908.400000
151.018500 4890.000000
152.013700 62268.400000
153.021600 5939.000000
154.005500 70316.700000
154.065200 117270.300000
155.035300 7893.600000
155.060300 30472.600000
161.034500 5478.300000
163.005800 369853.000000
164.001000 520409.200000
164.013700 35939.000000
164.049500 191711.100000
165.044700 9055.400000
165.057400 166707.100000
166.052600 19597.900000
166.065000 32195.100000
167.060500 5245.800000
167.073200 8590.200000
168.008700 6802.800000
168.056800 3015.400000
168.059800 3218.800000
168.068200 37547.900000
168.992500 14879.700000
169.052400 29218.000000
173.015500 21744.200000
174.010600 33023.700000
177.021500 46205.300000
178.029100 5765.700000
179.000700 43277.400000
179.045500 7981.300000
179.060400 50969.400000
180.068300 53898.200000
180.081000 18183.300000
181.016400 171522.100000
181.076100 221179.000000
182.060100 47169.900000
182.084100 18248.400000
183.068000 68555.900000
188.025800 17846.900000
189.021700 21035.700000
190.029300 29008.700000
190.052800 8894.900000
190.065300 11352.900000
191.060500 135624.500000
192.068300 873249.500000
193.076200 83641.800000
194.084000 8081.500000
195.032100 95061.000000
196.003500 31375.300000
197.047400 7666.000000
199.027000 10748.800000
200.026100 35836.300000
201.021400 12051.800000
202.029300 48349.800000
203.037000 27250.800000
205.016900 3481.100000
205.076200 10679.200000
206.084500 15427.900000
207.091800 93677.000000
208.063100 40586.400000
208.099600 9194.200000
209.071100 42419.400000
210.078900 11048.900000
215.037100 332735.100000
216.044900 55887.600000
217.053100 4751.600000
217.076300 16284.800000
218.084000 23865.800000
219.032600 5141.900000
219.066500 3499.500000
220.063500 7752.000000
221.071000 26551.300000
223.086600 6932.900000
226.029300 78904.100000
227.037100 82021.800000
228.044900 34093.600000
229.052400 3799.500000
235.086800 8051.200000
236.058300 4723.300000
239.036900 5979.000000
242.023900 4573.800000
243.031800 20215.300000
243.068500 4181.100000
244.039800 19348.900000
245.047800 7375.100000
255.031900 78376.500000
271.027200 10282.100000

