>compound LU33654005
>parentmass 462.23509999999993
>ionization [M+H]+
>formula C28H29F2N3O
>rt 952.980000
>profile orbitrap
#smiles_iso C1CN(CCC1N2C3=CC=CC=C3NC2=O)CCCC(C4=CC=C(C=C4)F)C5=CC=C(C=C5)F
#smiles_can C1CN(CCC1N2C3=CC=CC=C3NC2=O)CCCC(C4=CC=C(C=C4)F)C5=CC=C(C=C5)F
#inchikey YVUQSNJEYSNKRX-UHFFFAOYSA-N
#pubchem_id 16362
#mb_accession LU020501,LU020502,LU020503,LU020504,LU020505,LU020506

>ms2
462.235200 19633000.000000

>ms2
84.080800 69477.300000
98.096400 216350.100000
109.044800 215299.500000
135.055200 38335.000000
135.060500 17047.100000
147.060500 231334.400000
149.076100 134951.500000
173.070900 126500.600000
201.102200 1062388.600000
203.066500 30161.700000
218.128700 69254.000000
230.128900 44561.800000
243.097900 48475.500000
274.140100 89869.700000
326.171400 389274.700000
328.187100 2204103.800000
462.235100 14297539.000000

>ms2
53.038600 8780.800000
55.054200 164840.900000
56.049500 91841.600000
58.065200 5773.200000
65.038600 9221.300000
67.054200 143499.700000
68.049300 6486.700000
69.069900 32167.800000
70.065100 277882.000000
80.049500 6077.600000
82.065100 93245.400000
83.029100 10586.800000
83.072900 44328.400000
84.080800 605879.800000
86.096300 18860.100000
96.080800 115310.700000
97.088600 26813.700000
98.096400 2795336.800000
107.060400 8883.400000
109.044800 4394938.000000
110.096400 125616.100000
111.104300 5494.300000
112.112100 82736.200000
119.060200 4453.000000
121.044900 60069.000000
122.096400 9699.700000
123.060500 227780.000000
124.112100 239070.700000
125.120000 32881.400000
126.127400 8862.200000
129.069900 11949.900000
130.065100 22383.600000
131.072900 10294.600000
133.044800 16508.600000
134.047200 7862.200000
134.052700 5829.200000
135.055200 309051.200000
135.060500 207664.900000
145.065200 18005.900000
145.075800 34641.100000
146.052600 19572.700000
147.060500 3610797.800000
149.076100 1322316.400000
155.060400 32707.100000
159.055300 4632.900000
173.070900 2364076.000000
177.069800 13811.100000
178.102800 32251.800000
183.059900 20386.200000
186.078900 9935.400000
187.086600 84346.700000
192.118400 16666.300000
197.076200 59748.400000
201.102200 2144168.800000
202.058700 5306.100000
203.066600 568248.400000
214.059000 14504.300000
215.066700 15311.400000
217.082300 266536.800000
218.128600 45221.000000
230.128800 201287.600000
232.149300 49556.600000
243.097900 207153.000000
274.140100 226660.100000
326.171500 1158753.600000
328.187100 2984227.200000
366.198400 5765.700000
460.219900 12278.100000
462.235400 1000895.000000

>ms2
53.002200 11185.500000
53.038500 25082.800000
55.054200 628650.800000
56.049500 226323.300000
57.069900 12712.000000
58.065100 14964.100000
65.038500 44617.700000
67.054200 350161.000000
68.049400 28601.300000
69.057200 18866.100000
69.069800 80754.000000
70.065100 732362.100000
80.049500 31482.800000
81.057300 16878.000000
82.065100 248004.800000
83.029100 79450.800000
83.072900 116635.000000
84.080700 552860.700000
86.096300 14403.100000
89.038700 9761.000000
92.049400 14565.400000
94.065000 12601.200000
95.073000 19314.100000
96.080700 314342.200000
97.088600 65273.100000
98.096400 2288000.500000
103.054200 250304.100000
107.060300 41357.900000
108.080900 14649.200000
109.044800 8110599.000000
110.096300 399148.400000
111.104200 8476.100000
112.112000 64421.900000
115.054300 17572.900000
117.069800 8401.400000
118.064900 17148.500000
119.060400 48627.200000
121.044700 292521.400000
122.096300 68191.200000
123.060400 494156.900000
124.112000 337429.500000
125.119800 17395.300000
126.127800 9584.400000
128.062000 8635.100000
130.065100 242592.500000
131.072900 161593.500000
133.044800 32052.200000
134.047100 15935.100000
134.052600 40379.000000
135.055200 408109.600000
135.060400 319743.100000
145.065000 156359.000000
145.075900 266297.200000
146.052600 138588.600000
146.059600 13353.700000
147.060400 2872658.000000
149.076000 1418601.500000
155.060200 222581.300000
158.047400 27948.100000
161.070900 12241.000000
171.054900 21771.400000
172.063000 16843.400000
173.070800 2912230.800000
176.061900 12265.400000
177.069700 89141.900000
178.102500 17539.500000
183.060300 352689.200000
186.078600 10615.200000
187.086500 228425.300000
192.118400 12892.100000
196.068200 38388.800000
197.076000 214314.500000
201.051000 82322.200000
201.102100 365999.500000
202.058900 51531.100000
203.066500 1118327.200000
211.066800 8686.500000
214.058800 22423.200000
215.066800 37267.000000
217.082200 198466.400000
228.074500 9396.100000
230.128400 57866.300000
232.149300 24177.000000
243.097800 25591.800000
274.139500 21485.600000
326.171400 229780.500000
328.187000 140657.300000

>ms2
53.002200 17099.900000
53.038600 53851.700000
54.033800 9704.600000
55.054200 873733.700000
56.049500 235347.800000
57.013500 22029.000000
57.069900 13375.100000
58.065200 23114.100000
59.029200 11000.500000
65.038600 71823.300000
67.041600 27744.600000
67.054200 347721.100000
68.049500 53254.400000
69.057300 36255.900000
69.069800 79872.000000
70.065100 664059.800000
77.038500 13525.500000
79.054200 9420.000000
80.049400 73386.500000
81.057300 26978.400000
81.069900 10957.200000
82.065100 239103.500000
83.029100 290354.800000
83.072900 97106.100000
84.080800 306991.600000
89.038500 27250.600000
91.054200 23789.400000
92.049500 44378.900000
94.065100 26767.400000
95.049100 45495.400000
95.073000 25454.200000
96.080800 270304.200000
97.088600 51789.400000
98.096400 874749.300000
103.054200 643256.100000
105.044900 18778.100000
107.060400 97734.500000
108.080700 19237.300000
109.044800 8564379.000000
110.096400 344346.900000
112.112100 21608.000000
115.054200 56701.800000
117.057400 9193.100000
117.069400 10468.900000
118.065200 57564.000000
119.049200 10961.600000
119.060400 105682.500000
121.044800 339168.600000
122.096500 84912.400000
123.060400 407236.100000
124.112100 196168.900000
127.054200 55671.300000
128.049600 33880.800000
128.062300 21748.800000
129.044800 50991.500000
129.069900 103848.200000
130.065200 571228.500000
131.061300 19641.600000
131.072900 373361.400000
133.044800 43122.900000
134.047200 18765.300000
135.055200 320404.200000
135.060500 252589.000000
145.065100 273329.100000
145.075900 531566.500000
146.052700 314699.700000
146.059700 37581.600000
147.060500 1128772.900000
148.075700 14157.300000
149.076100 608679.400000
155.060300 375633.900000
156.044300 19114.200000
158.047500 114375.400000
159.091500 8584.000000
170.052700 11771.500000
171.054900 43307.400000
172.062900 44133.300000
173.071000 1349390.000000
177.069800 139636.200000
183.060500 1209833.200000
184.068500 9866.500000
185.071000 10502.400000
187.086600 189129.700000
188.042800 9382.300000
195.060400 13890.800000
196.068400 113291.500000
197.076100 130223.500000
201.051000 270494.200000
201.102100 50673.100000
202.058900 90390.100000
203.066600 697584.200000
214.059100 26519.500000
215.066700 24164.300000
217.082600 28183.900000
228.074500 9945.200000

>ms2
53.002200 28599.800000
53.038600 95399.600000
54.033800 17432.300000
55.054200 850223.100000
56.049500 199465.600000
57.013400 53822.000000
57.069900 9397.000000
58.065200 17996.100000
59.029100 33546.300000
63.022800 39451.500000
65.038600 113457.800000
67.041600 39380.600000
67.054200 248147.700000
68.049500 64764.500000
69.057200 43388.000000
69.069900 51171.300000
70.065100 386694.700000
75.022800 24207.900000
79.054300 12268.000000
80.049500 122970.500000
81.057200 23060.700000
81.069800 11921.300000
82.065100 219562.700000
83.029100 773871.300000
83.072900 62763.300000
84.080800 175500.600000
89.038500 69397.000000
90.033800 17198.700000
91.054200 70105.200000
92.049400 94141.900000
93.057400 24156.800000
94.065000 36871.800000
95.049200 135727.900000
95.073000 22369.100000
96.080800 213268.400000
97.044900 15431.400000
97.088600 21781.900000
98.096400 280756.800000
101.038600 16079.900000
103.054200 889638.800000
104.049500 16207.400000
105.044800 58895.900000
107.060400 140586.600000
108.080900 11872.300000
109.044800 8003855.500000
110.096400 254884.200000
115.054200 109239.500000
117.057200 20843.200000
118.065100 110506.900000
119.049200 42093.800000
119.060400 133495.500000
121.044800 226968.700000
122.096400 61652.600000
123.060500 175246.300000
124.112100 127397.700000
127.054200 86399.500000
128.049400 76757.200000
128.062000 50169.000000
129.044700 118981.200000
129.069900 64267.600000
130.065100 673256.900000
131.061100 24689.500000
131.072900 356095.400000
133.044800 89862.000000
134.047400 21093.200000
134.052700 110287.400000
135.055300 216238.900000
135.060600 152339.700000
144.068200 10299.000000
145.065100 240103.200000
145.075900 428543.500000
146.052700 504793.900000
146.059700 47961.100000
147.060500 345303.500000
148.075600 11377.700000
149.076100 170706.900000
155.060300 363000.600000
156.044200 19844.900000
158.047500 169901.400000
159.091800 9333.100000
169.065000 16119.000000
170.052600 41315.500000
171.055100 69190.200000
172.063200 42195.200000
173.070900 367049.400000
176.061900 85900.800000
177.069600 67149.100000
183.060500 1794315.500000
185.070500 10263.000000
187.086600 87690.000000
188.042800 33900.600000
195.060800 16607.900000
196.068300 161594.100000
197.076100 44488.300000
201.051100 534013.800000
202.058800 105241.900000
203.066700 191970.500000
214.058400 34392.300000
215.067100 8485.600000

