>compound LU33135566
>parentmass 166.08629999999997
>ionization [M+H]+
>formula C9H11NO2
>rt 1149.320000
>profile orbitrap
#smiles_iso CCOC(=O)C1=CC=CC=C1N
#smiles_can CCOC(=O)C1=CC=CC=C1N
#inchikey TWLLPUMZVVGILS-UHFFFAOYSA-N
#pubchem_id 6877
#mb_accession LU114001,LU114002,LU114003,LU114004,LU114005,LU114006

>ms2peaks
58.028700 5795.100000
79.054200 6744.700000
81.069900 36305.800000
91.054100 15926.400000
94.041300 15400.700000
107.049100 16317.100000
109.064800 5289019.500000
166.086200 33047.900000

>ms2peaks
58.028800 7525.900000
81.069800 43678.000000
91.054200 13500.100000
94.041300 18150.300000
107.049200 15554.200000
109.064800 5826253.000000
166.086300 38220.000000

>ms2peaks
58.028700 24981.800000
65.038400 13468.300000
79.054200 30769.800000
81.069900 204358.300000
91.054200 77956.100000
94.041300 81359.700000
107.049100 87839.100000
109.064800 4999029.500000
111.043900 8556.100000

>ms2peaks
53.038600 6126.000000
55.018000 6696.500000
58.028700 43181.000000
65.038500 41995.400000
66.046500 6028.200000
67.054300 4897.900000
79.054200 87730.800000
81.069900 475385.200000
91.054200 279260.300000
94.041300 285677.100000
95.049000 3811.500000
107.049200 227202.600000
109.064800 3378964.000000
111.044000 34293.800000

>ms2peaks
53.002300 4883.400000
53.038600 17453.100000
55.017900 15252.800000
58.028800 82046.000000
65.038600 180224.200000
66.046400 14442.000000
67.054300 9092.300000
79.054200 205363.800000
81.069900 666504.000000
91.054300 634575.000000
93.033600 5677.600000
94.041400 817814.600000
95.049200 11483.400000
107.049200 427014.600000
108.057200 4728.800000
109.064800 2206160.000000
111.044100 86779.800000

>ms2peaks
53.002100 9727.800000
53.038600 39511.200000
55.017800 26713.200000
58.028700 122948.600000
65.038500 437532.400000
66.046400 55537.200000
67.054100 5426.200000
77.038600 2577.500000
79.054200 342600.400000
81.069900 590149.200000
91.054200 866406.900000
93.033400 10735.100000
94.041300 1490820.900000
95.049100 33659.800000
107.049100 514603.400000
108.056800 4181.400000
109.064800 1125864.800000
111.044000 106422.800000

