>compound LU34351540
>parentmass 177.05459999999997
>ionization [M+H]+
>formula C10H8O3
>rt 843.960000
>profile orbitrap
#smiles_iso CC1=CC(=O)OC2=C1C=CC(=C2)O
#smiles_can CC1=CC(=O)OC2=C1C=CC(=C2)O
#inchikey HSHNITRMYYLLCV-UHFFFAOYSA-N
#pubchem_id 5280567
#mb_accession LU020701,LU020702,LU020703,LU020704,LU020705,LU020706,LU096701,LU096702,LU096703,LU096704,LU096705,LU096706

>ms2peaks
55.017800 4435.900000
79.054300 4170.400000
91.054300 3764.400000
105.070000 53821.100000
115.054200 4752.200000
121.064800 16923.700000
133.064700 16036.800000
149.059800 6890.400000
177.054700 3725081.200000

>ms2peaks
68.997000 4212.400000
79.054100 6008.600000
103.054100 4226.700000
105.069900 71484.500000
115.054300 4636.600000
121.064800 29431.900000
133.064800 24149.700000
149.059800 8632.500000
177.054700 3376655.000000

>ms2peaks
53.038600 3503.300000
55.017900 28101.900000
68.997100 27103.300000
77.038500 2808.400000
79.054200 70846.600000
81.069900 28605.100000
91.054300 21096.400000
93.069900 35887.000000
95.049200 7977.200000
103.054300 58231.800000
105.069900 422050.600000
107.049200 11455.800000
109.065100 2546.400000
115.054300 27360.300000
121.064800 258439.400000
131.049200 15971.900000
132.057100 3445.300000
133.064800 75899.600000
149.059900 43875.400000
177.054700 2255614.500000

>ms2peaks
51.023000 2970.700000
53.038600 19417.000000
55.017900 60900.200000
65.038500 3814.100000
68.997100 121856.100000
77.038500 8732.100000
79.054200 220893.900000
81.069900 84810.900000
91.054200 125733.400000
93.069900 178520.500000
95.049200 68464.600000
103.054200 268814.300000
105.069900 564252.100000
107.049200 32208.500000
109.064900 3050.700000
115.054300 70298.500000
121.064800 587364.900000
131.049300 37367.700000
132.057100 9874.200000
133.064800 49204.600000
134.036200 5475.100000
135.044000 5585.900000
137.023400 4587.300000
149.059800 47242.200000
177.054600 826649.600000

>ms2peaks
50.015100 3323.100000
51.023000 4112.100000
53.038600 66112.900000
55.017800 59797.900000
65.038500 7981.500000
67.054000 2422.600000
68.997100 218857.500000
77.038500 18271.900000
78.046400 4549.600000
79.054200 264517.300000
81.033500 8443.200000
81.069900 88425.700000
91.054200 283392.800000
93.069900 261875.700000
94.041400 7129.600000
95.049100 217456.900000
102.046400 5854.000000
103.054200 506942.400000
105.069900 301529.400000
106.041300 3640.000000
107.049100 36991.000000
109.064800 3778.000000
115.054200 66046.600000
116.061900 4009.700000
121.064800 472875.000000
131.049100 34723.800000
132.056900 13434.800000
133.064700 17630.000000
134.036000 13117.500000
135.043900 6153.400000
137.023400 3576.100000
149.059900 20092.400000
177.054600 180357.400000

>ms2peaks
50.015200 7050.500000
51.022900 12906.500000
53.038600 126495.100000
55.017900 55222.800000
65.038600 23168.100000
67.054200 2032.100000
68.997100 250788.200000
77.038500 52761.900000
78.046400 15703.100000
79.054200 215203.100000
81.033500 14738.200000
81.069900 54335.400000
91.054300 371066.200000
93.069900 179856.900000
94.041400 17985.500000
95.049200 384430.000000
102.046400 16622.700000
103.054200 539281.100000
105.069900 93962.600000
106.041500 4095.400000
107.049200 30932.200000
109.065000 2722.400000
115.054300 50946.800000
116.062200 2700.600000
121.064800 207072.900000
131.049100 26711.100000
132.056900 10733.300000
133.064600 1982.800000
134.036200 18858.000000
149.059800 2703.400000
177.054700 31231.500000

>ms2peaks
79.054100 4871.000000
91.054200 4774.800000
93.069800 4212.600000
103.054000 4459.700000
105.069800 63420.700000
121.064700 21900.000000
133.064700 22414.300000
149.059800 5450.400000
177.054500 4192468.800000

>ms2peaks
55.017800 4699.900000
79.054100 8697.700000
103.054300 7600.500000
105.069900 86034.700000
115.054000 4705.000000
121.064800 28496.200000
133.064800 28949.000000
149.059800 12920.700000
177.054600 3898895.500000

>ms2peaks
53.038600 3858.800000
55.017800 30712.800000
68.997000 37682.000000
79.054200 83784.600000
81.069800 31568.100000
91.054200 24863.500000
93.069800 43013.900000
95.049100 12155.000000
103.054200 84120.100000
105.069900 505725.100000
107.049000 13510.800000
109.064800 3191.600000
115.054200 41018.400000
121.064700 324074.000000
131.049100 19600.400000
132.057000 6008.700000
133.064800 97240.600000
149.059800 50244.700000
177.054500 2731435.500000

>ms2peaks
51.023000 2896.600000
53.038600 23462.300000
55.017900 62360.100000
67.017700 2305.100000
68.997100 125051.700000
77.038400 9389.300000
79.054200 221764.100000
81.069900 84035.000000
91.054300 115062.800000
93.069900 184245.200000
94.041600 2923.900000
95.049200 70308.800000
102.046300 1813.600000
103.054300 271680.600000
105.069900 598475.400000
107.049200 36327.200000
109.064800 2905.100000
115.054200 72126.800000
116.062000 2548.700000
118.041300 2356.000000
121.064800 634070.400000
131.049300 38718.700000
132.057000 12659.700000
133.064800 60458.800000
134.036500 3733.000000
135.044100 5484.500000
137.023400 4786.800000
149.059800 50515.800000
177.054700 896870.800000

>ms2peaks
50.015200 2697.000000
51.022900 3692.400000
53.038600 85195.300000
55.017900 66203.600000
65.038400 9767.200000
68.997000 264527.100000
77.038500 22525.000000
79.054200 322817.800000
81.033400 11612.400000
81.069900 105689.700000
89.038400 2019.600000
91.054200 327910.800000
93.069900 325884.800000
94.041300 9327.300000
95.049100 264076.800000
102.046500 8813.600000
103.054200 603831.400000
104.062000 2427.600000
105.069900 374751.600000
106.041100 3063.600000
107.049100 54315.900000
109.064900 5008.300000
115.054200 79452.500000
116.062100 3973.300000
118.041300 4215.500000
119.049500 2593.800000
121.064800 551041.500000
131.049100 37171.600000
132.056900 15623.000000
133.064800 19976.700000
134.036100 13008.800000
135.044100 4293.800000
137.023300 7037.800000
147.043600 2774.200000
149.059600 19464.900000
177.054600 214152.900000

>ms2peaks
50.015200 6138.000000
51.022900 9298.700000
53.038600 135648.900000
55.017900 54485.100000
65.038600 25087.800000
67.017900 1871.400000
68.997100 263679.500000
77.038500 59735.900000
79.054200 239309.200000
81.033500 19281.000000
81.069900 62891.600000
89.038600 7293.200000
91.054300 393815.300000
93.069900 201419.700000
94.041400 18108.300000
95.049200 434104.800000
102.046400 18039.400000
103.054300 578108.500000
104.062000 5069.000000
105.069900 99692.500000
106.041400 5013.300000
107.049200 39202.300000
109.064700 4713.000000
115.054300 56278.300000
118.041500 3291.300000
119.048600 1982.700000
121.064800 227887.800000
131.049300 30803.300000
132.057000 11331.500000
134.036200 18116.900000
135.044100 2801.900000
137.023400 2980.200000
147.044200 2622.200000
149.059700 4246.300000
177.054700 27705.800000

