>compound LU34091130
>parentmass 297.14449999999994
>ionization [M+H]+
>formula C14H20N2O5
>rt 1035.960000
>profile orbitrap
#smiles_iso CCOC1=CC(=C(C=C1N2CCOCC2)OCC)[N+](=O)[O-]
#smiles_can CCOC1=CC(=C(C=C1N2CCOCC2)OCC)[N+](=O)[O-]
#inchikey KNHGNICBXADRMC-UHFFFAOYSA-N
#pubchem_id 66571
#mb_accession LU047401,LU047402,LU047403,LU047404,LU047405,LU047406

>ms2
208.120800 20272.200000
209.092500 11619.300000
223.120500 8437.000000
237.123600 24959.800000
238.131200 9614.800000
251.102800 10513.400000
253.117900 11228.000000
268.105100 32939.700000
269.114400 17945.200000
280.141700 166610.600000
297.144400 7949079.000000

>ms2
73.064700 6930.700000
94.028700 12587.400000
105.044500 7352.100000
134.023700 18771.900000
134.059800 6100.600000
137.070800 7217.600000
148.039400 12033.500000
149.046800 10517.700000
149.070700 6742.500000
150.054800 16580.000000
151.050200 5030.400000
151.062700 9042.500000
154.013200 9051.300000
162.054600 5893.500000
162.091200 5730.700000
163.049900 9703.900000
163.086500 6713.700000
164.070500 14482.700000
165.065900 21397.900000
166.049600 7106.700000
166.086100 5335.300000
176.070600 39764.600000
177.029400 10799.800000
177.078200 17708.200000
178.073600 5554.400000
178.086300 25146.200000
179.045600 13605.900000
179.081300 17423.500000
179.094100 54204.500000
179.117600 6355.100000
180.052900 5074.500000
180.089000 8985.700000
181.024600 9185.000000
181.096700 12604.800000
182.044600 9056.300000
190.086000 14484.100000
192.065200 6754.900000
192.102000 49464.100000
193.060800 6512.700000
193.097300 79569.400000
193.108700 7856.800000
194.081100 180971.100000
195.040300 13861.400000
195.089000 9121.000000
196.047800 16223.100000
197.055700 43157.200000
205.060900 5497.100000
205.110000 20814.800000
206.068400 8515.800000
206.117600 7019.600000
207.076200 22225.000000
207.125400 12939.800000
208.084200 33714.000000
208.120700 206680.800000
209.056200 14959.500000
209.092200 191827.000000
209.104200 19305.100000
209.128400 94983.300000
210.076000 7693.800000
220.133400 11384.900000
221.092500 13288.300000
222.112300 104105.800000
223.071200 37258.000000
223.120200 151132.700000
224.079100 78085.200000
225.087000 125976.200000
226.094500 13610.800000
234.099700 7681.100000
236.128100 187665.100000
237.086800 33009.200000
237.123300 142214.100000
238.107400 37892.000000
238.130900 34516.500000
239.066200 16759.700000
239.102500 7932.200000
239.115400 10547.700000
240.074500 23826.200000
241.082200 21175.400000
250.143200 5400.700000
251.102600 38457.100000
251.151400 15193.700000
252.110300 80527.300000
252.123400 13562.400000
253.082100 15559.100000
253.118200 149478.400000
254.125900 26378.700000
263.139900 11211.100000
267.097500 8384.500000
268.105300 234630.000000
269.113200 395688.200000
280.141700 194883.800000
297.144500 4858541.500000

>ms2
52.018200 4239.400000
53.038600 3268.600000
54.033800 5897.900000
55.017800 5281.000000
56.049500 12423.000000
57.057400 4812.200000
58.065100 3052.400000
65.038700 2373.200000
67.041500 5347.100000
67.054000 2983.400000
68.013000 6849.600000
68.049400 13060.000000
69.033500 3483.900000
70.028700 3739.900000
70.065000 3946.700000
72.044400 12709.400000
73.064800 6372.300000
74.096300 2411.600000
78.033600 6036.900000
80.049500 25819.100000
81.033400 2854.800000
82.028700 10464.500000
82.065200 3933.400000
84.044400 4676.500000
85.052100 3142.500000
86.060100 15478.400000
90.034000 2409.000000
91.054300 3973.800000
92.049500 4492.300000
93.044600 5636.500000
93.057200 6489.700000
94.028700 49795.000000
94.065100 11341.300000
95.036500 3021.300000
95.060300 6118.300000
96.044300 11012.500000
96.080600 2464.700000
98.060000 3627.900000
104.049300 6620.100000
105.044700 28349.800000
105.057300 4798.300000
106.028600 6849.300000
106.065000 15407.900000
107.012700 2882.900000
107.024000 2971.000000
107.060400 7322.700000
108.044300 7350.600000
108.068200 3815.300000
108.080600 2643.600000
109.028100 3719.400000
109.052300 5973.000000
109.076200 3277.700000
110.023600 9447.900000
110.060000 12095.000000
111.068000 5741.600000
112.075600 5387.300000
118.065100 7704.300000
119.060400 8603.400000
119.073100 3801.900000
120.044400 15066.200000
120.080700 3399.000000
121.039700 6813.600000
121.052200 9788.600000
121.064700 3862.200000
121.076000 8707.800000
122.023600 10689.200000
122.059900 36193.200000
123.031700 5727.900000
123.044000 3840.900000
123.055100 16045.900000
123.067800 7387.300000
124.039400 13397.900000
124.052100 4560.100000
124.062900 3846.300000
124.075700 7346.100000
125.034500 6577.400000
126.054900 4282.300000
132.044500 5418.800000
133.039700 5206.400000
133.052300 19174.900000
133.075900 9249.400000
134.023600 81184.400000
134.047400 5930.800000
134.060000 36052.500000
135.031500 9685.700000
135.043900 7057.400000
135.055200 19883.400000
135.067900 9115.400000
135.091800 5055.500000
136.039300 22362.600000
136.063000 20053.300000
136.075600 23786.600000
137.047200 11982.700000
137.070900 63630.400000
137.083500 4779.400000
138.018700 4734.200000
138.054900 19447.400000
138.091100 3104.400000
139.050100 10570.900000
139.062700 5463.800000
140.034200 4403.000000
140.070500 5795.800000
147.055200 4499.000000
147.067800 4547.000000
148.039200 101175.300000
148.075800 19474.600000
149.034500 16766.200000
149.047100 56031.000000
149.070900 58482.700000
149.083100 4073.200000
150.054900 201881.900000
150.078400 12978.100000
151.050400 20591.100000
151.062700 74402.800000
151.086500 30071.200000
152.034400 5424.500000
152.058000 7116.500000
152.070400 20888.500000
152.094000 2940.400000
153.029300 11459.000000
153.065800 7947.800000
153.079000 2667.000000
154.013400 27134.000000
160.076000 2544.600000
161.034500 8703.900000
161.070700 9814.400000
162.042100 7970.400000
162.054700 30490.800000
162.091300 26545.300000
163.013400 3683.300000
163.050100 35060.200000
163.062200 13351.900000
163.086500 25237.200000
163.098900 7090.300000
164.034000 13517.100000
164.070500 112136.700000
164.106900 9477.700000
165.029400 4954.800000
165.065900 75416.500000
165.077900 18684.600000
165.102200 9638.300000
166.049800 71204.600000
166.086100 22078.000000
167.045200 9202.700000
167.057600 5640.200000
167.081700 6293.100000
168.029500 2548.000000
169.024200 23331.300000
175.049900 4193.300000
175.062800 4980.200000
176.070600 112476.900000
176.106800 6568.000000
177.029400 13924.000000
177.065800 23470.000000
177.078300 40153.500000
177.102000 12845.200000
178.037200 7997.100000
178.073800 14067.900000
178.086200 63888.700000
179.045200 30288.200000
179.081400 61486.800000
179.094000 97577.800000
179.117900 10470.100000
180.052900 18399.700000
180.065600 21822.500000
180.089200 25100.200000
180.101900 9724.900000
181.024300 100596.500000
181.060500 18271.400000
181.073300 9794.800000
181.097100 114758.200000
182.032100 36359.200000
182.044700 10984.700000
182.081300 5531.500000
183.040200 4595.400000
189.065500 3695.300000
190.086100 25722.800000
191.081500 18726.500000
191.093400 4330.600000
192.065300 21999.900000
192.101900 166876.300000
193.060700 22465.900000
193.097200 158002.400000
193.109400 16089.500000
194.081200 832300.200000
195.040100 54599.900000
195.050400 3665.900000
195.076700 12495.500000
195.089000 48283.500000
196.047900 114913.500000
197.055600 234169.300000
204.102300 9287.000000
205.060400 10696.500000
205.109900 12717.200000
206.068800 21925.700000
206.079600 4119.600000
206.117600 9931.500000
207.040000 5770.800000
207.076500 52846.300000
207.089100 9774.600000
207.113100 8052.100000
207.125200 40599.900000
208.084400 44689.800000
208.096800 52098.000000
208.120600 81111.200000
208.133000 24285.100000
209.055700 124913.200000
209.092100 169292.100000
209.104400 16934.300000
209.128400 125590.500000
210.063400 27533.200000
210.076100 24373.500000
210.100100 5140.900000
210.112000 5714.800000
211.034600 10934.100000
211.071400 15267.300000
211.083200 4724.700000
218.117500 5469.800000
220.133100 17915.800000
221.055400 5071.700000
221.092100 27935.000000
221.103600 4721.200000
222.112300 126136.700000
223.071400 58673.600000
223.120200 125236.900000
224.079100 110983.900000
224.115300 5715.500000
225.050900 41252.000000
225.086800 222575.900000
226.094800 22216.200000
234.099700 10659.300000
235.108000 10995.600000
236.128000 511692.500000
237.086800 122258.300000
237.123200 33058.500000
238.107400 48956.700000
238.130000 3719.200000
239.066100 104842.900000
239.102400 25444.900000
239.115200 57073.900000
240.073800 86544.800000
241.081600 51633.400000
250.144000 18942.900000
251.101700 14797.800000
251.152600 3411.400000
252.110300 97175.900000
252.123000 10209.200000
253.081800 65186.200000
253.118200 66473.300000
254.125000 12189.200000
263.138400 5661.400000
267.097600 16614.900000
268.105300 187022.100000
269.113000 267602.500000
280.141200 6194.300000
295.128900 6024.900000
297.144500 450969.200000

>ms2
52.018100 10940.900000
53.002300 4977.100000
53.038700 7522.300000
54.033800 15990.200000
55.017900 44869.800000
55.041700 2997.200000
56.049500 19898.600000
57.057300 4829.400000
58.065200 3686.900000
65.038500 12602.300000
66.033700 3991.500000
66.046400 4841.300000
67.041700 21887.700000
67.054200 8562.100000
68.013000 16517.600000
68.025800 2890.400000
68.049400 32770.300000
68.997100 3441.400000
69.033500 6804.100000
69.057200 4531.000000
70.028800 13772.100000
70.065100 13516.300000
72.044300 16159.100000
73.064900 3021.200000
74.096200 3213.200000
78.033900 21247.400000
79.017900 5189.700000
79.041700 5144.100000
79.054300 19998.400000
80.049500 80442.600000
81.033600 9101.400000
81.044900 3066.900000
81.057400 9859.100000
82.028800 11837.200000
82.041300 4086.600000
82.065100 15168.500000
83.036500 5881.300000
84.044400 9764.700000
85.052300 5653.000000
86.060100 19193.500000
87.067800 2623.000000
88.075800 4239.800000
90.034100 2718.600000
91.041800 9557.000000
91.054100 15170.300000
92.049500 32867.300000
93.033700 3879.100000
93.045000 11387.900000
93.057400 27005.100000
93.070000 9253.500000
94.028900 91419.000000
94.065200 61467.300000
95.036700 7931.200000
95.049300 15083.100000
95.060500 9818.200000
95.073000 8066.000000
96.044400 39303.300000
96.080900 5449.200000
97.052300 4508.000000
98.023800 3724.600000
98.060200 5662.800000
103.054200 4519.000000
104.049500 23937.700000
105.033600 4079.200000
105.044800 26512.200000
105.057400 8727.800000
105.070000 3441.400000
106.028800 21823.900000
106.065200 65495.400000
107.012800 11600.600000
107.024300 3316.800000
107.036700 7167.200000
107.049200 11609.700000
107.060500 13460.300000
107.072900 4664.000000
108.020600 4933.300000
108.044500 28341.800000
108.068200 6425.400000
108.080900 13884.000000
109.028600 15718.300000
109.052300 21851.400000
109.076200 10606.800000
110.023800 8594.300000
110.036300 5937.100000
110.047600 7730.600000
110.060000 28212.000000
111.031600 6358.700000
111.044200 7911.400000
111.055400 8967.900000
111.068100 9864.000000
112.039300 11873.500000
112.075800 7722.400000
114.055100 3419.500000
117.044900 6321.200000
117.057500 3831.400000
118.065200 26054.600000
119.036500 8967.200000
119.049400 6751.500000
119.060500 12509.100000
119.073300 4318.300000
120.044500 57118.300000
120.080800 24875.600000
121.028500 3123.800000
121.039900 12704.300000
121.052300 31048.000000
121.064700 6125.600000
121.076000 19130.500000
122.023600 17795.800000
122.060100 159841.700000
123.031600 8208.100000
123.044200 11640.200000
123.055400 40638.900000
123.068000 22414.300000
123.091700 3162.400000
124.039400 24978.700000
124.052200 4952.200000
124.063400 6295.900000
124.075900 19646.600000
125.034400 3894.100000
125.047400 4994.000000
126.055200 5620.200000
130.065200 3407.000000
131.049200 5184.600000
131.060400 5527.200000
132.044500 31604.200000
132.080700 7614.000000
133.039700 4746.700000
133.052300 29128.700000
133.076000 8117.600000
134.023700 73161.000000
134.047700 7892.000000
134.060100 135458.400000
135.031500 34561.700000
135.044200 12259.900000
135.055400 36911.700000
135.067800 25328.600000
135.091700 8815.800000
136.039400 79467.300000
136.063300 19842.200000
136.075800 96792.500000
137.034700 10665.600000
137.047200 41336.600000
137.071100 111752.900000
138.018600 5373.300000
138.055000 62977.900000
138.091500 8347.000000
139.039400 2918.400000
139.050200 17616.100000
139.062900 6811.400000
140.034400 10004.600000
140.070800 5771.200000
146.060200 12597.600000
147.043700 2693.400000
147.055500 6858.000000
147.067800 12150.800000
148.039400 202707.700000
148.075700 75572.300000
149.034900 17510.700000
149.047300 83629.600000
149.071000 95331.000000
150.018800 27885.300000
150.055100 459599.200000
151.026500 5988.100000
151.050600 31703.200000
151.062900 104378.300000
151.086700 38728.500000
152.034300 32259.600000
152.058100 10781.800000
152.070700 39827.700000
153.029900 11486.000000
153.066000 14505.500000
153.078800 3872.300000
153.102400 6665.400000
154.013600 20595.700000
158.059800 3013.600000
160.075900 9384.400000
161.034500 8345.900000
161.047400 4695.600000
161.071100 12166.000000
161.083300 5486.000000
162.042700 5408.300000
162.055100 52386.000000
162.091500 25564.300000
163.014000 4601.400000
163.026600 5709.000000
163.050500 43348.100000
163.062700 45378.700000
163.086800 35342.900000
163.099000 19560.100000
164.034400 27463.000000
164.070700 273524.600000
164.106900 18025.400000
165.029600 8119.000000
165.042400 4222.700000
165.066100 60943.300000
165.078300 26063.600000
165.102200 8505.900000
166.050000 197561.000000
166.086300 63963.400000
167.045500 11077.700000
167.057600 14213.800000
167.081500 7018.900000
167.093600 2937.200000
168.029300 7550.900000
169.024500 31364.000000
170.032100 5205.200000
174.055100 3938.000000
175.050600 5024.800000
175.062900 5967.000000
176.070800 136172.500000
177.029600 4946.800000
177.066000 8829.100000
177.078700 17580.800000
177.102400 9479.200000
178.037500 8098.800000
178.050100 15332.400000
178.073900 10990.700000
178.086400 65415.900000
179.045100 15977.400000
179.057800 17789.800000
179.081600 44812.900000
179.094200 41697.100000
179.117800 5310.600000
180.053100 22217.100000
180.065700 29472.800000
180.089200 16068.000000
180.102300 18823.600000
181.024500 285570.000000
181.097200 139965.500000
182.032300 140362.200000
183.040100 28632.600000
189.066000 4460.500000
190.074800 2135.500000
190.086200 16537.900000
191.081700 10331.500000
191.094200 5262.300000
192.065600 35260.500000
192.102000 133356.200000
193.061000 35448.200000
193.073500 10251.000000
193.097400 79999.000000
193.109600 12650.000000
194.081400 613553.800000
195.040200 58641.600000
195.051100 3388.000000
195.077000 9310.900000
195.089200 42038.900000
196.048000 83926.300000
197.055900 177484.800000
204.102100 3600.400000
205.060800 7710.100000
206.068900 11532.800000
206.081600 8962.400000
206.117600 7028.300000
207.040500 4113.300000
207.076700 32083.100000
207.089200 20036.100000
207.113000 8127.900000
207.125500 26612.200000
208.060700 5388.400000
208.084700 12288.200000
208.097000 54290.300000
208.121000 6651.300000
208.133400 19289.800000
209.055800 163034.800000
209.092200 43687.000000
209.128500 33052.800000
210.063700 21947.300000
210.076200 12491.500000
210.112800 4660.300000
211.035300 23885.200000
211.071500 26906.200000
211.083900 6256.600000
218.118500 2658.600000
220.133100 7492.100000
221.055800 7476.700000
221.092200 13862.500000
221.103500 3104.200000
222.112600 35842.100000
223.071700 21832.000000
223.120900 14368.200000
224.079500 28235.100000
224.115600 4552.600000
225.050900 57097.300000
225.087100 40955.000000
236.128300 173421.400000
237.087100 84853.800000
238.107700 20257.700000
239.066500 82388.300000
239.102500 14275.200000
239.115400 56014.700000
240.074300 25681.200000
241.082000 13785.100000
250.144100 7063.400000
252.110300 16193.400000
253.082200 34169.100000
253.117700 3896.500000
267.097400 8131.200000
268.105500 15655.600000
269.113600 22396.300000
297.144700 9685.300000

>ms2
52.018300 11772.800000
52.030800 3058.200000
53.002200 13275.000000
53.038600 27357.900000
54.033800 31204.000000
55.017900 143618.100000
56.049500 29383.700000
57.057300 9149.000000
58.065100 4245.900000
64.018200 2282.400000
65.026000 3276.000000
65.038600 33776.500000
66.033800 9495.500000
66.046400 11724.800000
67.017800 6836.500000
67.041600 47159.400000
67.054200 37296.700000
68.013000 39522.700000
68.025600 12192.500000
68.049400 65053.100000
68.997100 12801.900000
69.033400 15335.100000
69.057300 4364.700000
70.028700 23375.300000
70.065100 29964.700000
71.012800 4420.200000
72.044400 13732.100000
72.080600 2578.600000
77.038500 4942.200000
78.033800 35105.400000
78.046300 6763.300000
79.017800 10797.700000
79.041600 15872.300000
79.054200 67639.600000
80.049500 159112.400000
81.033500 34937.400000
81.044700 5700.500000
81.057300 26019.600000
81.069800 4333.400000
82.028800 24940.600000
82.041200 9931.000000
82.065100 33815.100000
83.012700 8008.100000
83.036500 10989.200000
83.049100 3598.400000
84.044500 12589.100000
85.052100 6353.100000
86.060000 23715.800000
87.068000 4720.200000
88.075700 4631.300000
90.033800 6016.700000
91.041800 17563.500000
91.054300 55195.100000
92.049500 116560.400000
93.033600 11666.600000
93.044800 10122.500000
93.057400 51880.300000
93.069900 15276.200000
94.028800 123050.000000
94.041300 14615.100000
94.065100 161682.700000
95.012800 3460.300000
95.036700 20002.600000
95.049200 65165.900000
95.060300 16785.600000
95.073000 14021.100000
96.044400 83684.400000
96.080700 5375.200000
97.028400 7948.700000
97.052200 4055.100000
98.023700 2934.000000
98.059900 7302.900000
103.054200 18876.500000
104.049500 76870.300000
105.033600 14160.500000
105.044700 26601.800000
105.057400 21551.900000
105.069800 5258.900000
106.028800 34111.100000
106.065200 150985.800000
107.012800 16423.100000
107.036600 22479.100000
107.049200 25056.100000
107.060300 26018.800000
107.072800 15785.000000
108.020700 14326.800000
108.044400 90700.100000
108.068100 6667.700000
108.080800 34400.800000
109.028500 31145.800000
109.052200 43021.400000
109.064800 9454.600000
109.076000 12688.800000
110.023600 12220.600000
110.036200 10464.400000
110.047500 8424.400000
110.060100 60070.900000
111.031400 15490.300000
111.044100 20808.400000
111.055400 15366.700000
111.068000 12885.600000
112.039300 16547.000000
112.075900 4180.100000
114.054800 3206.300000
117.044600 5355.200000
117.057200 11200.800000
117.069900 3382.500000
118.065100 44290.200000
119.036700 11453.300000
119.049100 10990.100000
119.060500 20935.500000
119.072900 6776.400000
120.044400 151032.900000
120.080800 37353.000000
121.028300 7730.100000
121.039500 17146.300000
121.052200 45563.500000
121.064900 14193.700000
121.076000 27875.100000
122.023800 15944.500000
122.060000 284585.700000
123.031400 20136.800000
123.044000 18554.200000
123.055300 42996.600000
123.067900 26388.900000
123.091600 3776.400000
124.039300 60214.300000
124.063300 4432.100000
124.075800 19623.400000
125.034500 4999.800000
125.047100 8261.200000
126.055000 8151.000000
130.065300 8912.100000
131.049300 7458.800000
131.060500 4640.600000
132.044400 79766.700000
132.080700 11658.500000
133.028500 4385.100000
133.039600 5134.000000
133.052200 38610.900000
133.076100 13546.700000
134.023700 40969.000000
134.047700 7989.900000
134.060100 153216.200000
135.031500 72500.600000
135.044000 10810.300000
135.055400 47063.500000
135.067800 42012.000000
135.091600 7736.100000
136.039400 187982.600000
136.075700 136877.700000
137.034600 5173.300000
137.047200 47365.700000
137.071000 93989.900000
137.083600 8116.200000
138.018600 4797.000000
138.055000 76866.900000
138.091300 11124.900000
139.038700 3055.900000
139.050100 14200.300000
139.062500 3474.100000
140.034400 14285.700000
140.070600 4744.300000
144.055600 5816.200000
146.060000 18360.200000
147.044300 3895.500000
147.055200 9097.400000
147.068000 15870.300000
148.039400 216857.800000
148.075700 113437.000000
149.034600 12134.100000
149.047200 81118.900000
149.071000 65688.600000
149.083600 7811.800000
150.018600 99005.500000
150.055000 427522.000000
151.026600 20179.700000
151.050300 43009.500000
151.062700 69106.700000
151.086600 18410.800000
152.034200 78983.700000
152.057900 12541.800000
152.070500 35747.500000
153.029700 5865.000000
153.065900 10293.900000
153.102200 13392.800000
154.013500 7202.500000
158.060100 4846.000000
160.039200 4037.700000
160.075900 15735.900000
161.034600 5079.900000
161.047200 4239.800000
161.071100 9277.600000
161.083600 3190.900000
162.043100 3717.600000
162.055000 68220.300000
162.091500 11349.100000
163.026400 8223.900000
163.050500 24476.900000
163.062700 51270.800000
163.086600 20588.900000
163.099400 10432.700000
164.034200 38057.400000
164.070600 257242.000000
165.029600 5297.500000
165.042000 5702.000000
165.066100 19291.100000
165.078100 16391.500000
166.049900 139533.200000
166.086300 52373.200000
167.045000 7401.600000
167.057700 14589.000000
167.081900 2712.800000
167.093500 3263.600000
168.029400 5485.300000
169.024300 28366.200000
170.032300 3630.600000
174.054700 6709.900000
175.063000 5933.600000
176.070700 113324.500000
176.107200 5895.400000
177.065800 4010.200000
177.078800 8095.400000
177.101900 2410.300000
178.049800 30578.900000
178.073700 6717.100000
178.086300 37300.000000
179.045400 6798.800000
179.057600 25963.000000
179.081500 19468.000000
179.094100 12530.800000
180.052900 8229.000000
180.065600 18389.100000
180.089000 11437.200000
180.102000 7241.000000
181.024400 392459.900000
181.097200 71046.800000
182.032200 99183.800000
182.081200 5245.500000
183.040100 27510.400000
189.066000 3157.900000
190.086000 10425.100000
191.082300 2762.200000
191.093900 3616.800000
192.065600 30178.100000
192.101900 40192.200000
193.060800 19018.400000
193.073700 7661.100000
193.097100 22430.100000
194.081300 179084.700000
195.040200 32537.800000
195.052800 10046.200000
195.076700 4937.200000
195.089100 14839.900000
196.047800 18656.200000
197.055700 40299.600000
205.061300 3828.600000
206.081400 4897.600000
207.076200 7813.500000
207.088900 7747.200000
207.125600 6117.800000
208.060500 7194.800000
208.097000 17659.900000
208.132800 3812.000000
209.055800 81134.100000
209.092100 5799.600000
210.063700 5195.700000
210.075700 4027.400000
211.035000 10236.700000
211.071300 9037.500000
211.082500 3489.500000
221.055500 5924.000000
222.112200 5783.700000
223.071300 3879.300000
224.079100 5097.100000
225.050700 18151.500000
236.128400 19069.100000
237.087200 18394.900000
239.066200 21560.900000
239.103100 3747.900000
239.114900 12047.200000
253.082200 3848.900000
267.098700 2551.100000

>ms2
52.018200 19539.000000
52.030900 4760.700000
53.002200 19306.400000
53.038600 53446.200000
54.033800 43987.200000
55.017800 186164.700000
55.041700 9487.000000
56.049500 31952.900000
57.057300 4472.400000
58.065200 5681.500000
64.018100 2649.600000
65.026000 7717.100000
65.038500 86556.800000
66.033800 15242.500000
66.046400 25488.000000
67.017800 10018.200000
67.041600 84371.500000
67.054200 61417.700000
68.013000 58453.300000
68.025600 18495.900000
68.049400 84959.000000
68.997100 24790.200000
69.033500 17907.600000
69.057400 4795.800000
70.028700 27177.600000
70.065100 26385.300000
71.012700 3848.100000
72.044400 10220.600000
72.080800 2404.400000
74.096400 3543.700000
77.038400 13050.700000
78.033800 50613.100000
78.046400 12984.200000
79.017900 30493.500000
79.041600 33800.600000
79.054200 105621.000000
80.049500 236199.500000
81.033500 77121.500000
81.044800 5554.900000
81.057300 29387.000000
81.069900 9580.900000
82.028700 28762.400000
82.041400 9229.600000
82.065100 34050.400000
83.012800 7072.700000
83.036600 10690.100000
83.049300 5669.800000
84.044400 10823.800000
85.052300 4376.700000
86.060000 26934.100000
88.075700 5281.500000
90.033700 3200.700000
91.041600 19745.500000
91.054300 104004.800000
92.049500 163747.600000
93.033600 10113.300000
93.044800 11107.300000
93.057300 81981.600000
93.069800 12566.900000
94.028800 122094.700000
94.041400 20802.200000
94.065100 194813.800000
95.012900 7758.500000
95.036600 27392.600000
95.049200 100079.600000
95.060300 15977.700000
95.073000 17257.500000
96.044400 105072.100000
96.080800 6332.600000
97.028500 7980.300000
97.052300 6765.900000
98.023600 3666.700000
98.060200 6699.100000
103.054200 21922.300000
104.049500 132936.500000
105.033500 15091.900000
105.044700 41167.700000
105.057300 26773.500000
105.070100 5874.200000
106.028700 26223.900000
106.065100 150642.500000
107.012700 17584.500000
107.036500 52974.100000
107.049100 34415.000000
107.060300 20565.600000
107.072900 13369.100000
108.020500 27268.700000
108.044400 134338.700000
108.080700 37261.900000
109.028400 35447.300000
109.052200 45116.000000
109.065000 11524.800000
109.075800 15458.900000
110.023800 7819.600000
110.036300 6608.600000
110.047500 6403.500000
110.060000 57607.000000
111.031600 12118.200000
111.044000 35739.800000
111.055300 16118.800000
111.067700 4110.300000
112.039300 15401.300000
112.075600 3981.800000
114.055100 5500.000000
117.044800 6287.500000
117.057300 20369.200000
117.069800 2751.400000
118.065100 49719.500000
119.036700 11554.700000
119.049200 11797.400000
119.060300 16721.400000
119.073100 9762.700000
120.044400 163300.500000
120.080800 34731.900000
121.028400 4620.800000
121.039500 18838.800000
121.052300 37945.800000
121.064800 3343.400000
121.076100 18480.400000
122.023500 13434.200000
122.060000 204185.000000
123.031400 15826.100000
123.044000 16799.600000
123.055200 31286.000000
123.067700 19334.700000
123.091900 3563.700000
124.039300 58205.100000
124.063500 3296.200000
124.075800 14751.000000
125.034700 3064.600000
125.047200 9067.500000
126.055000 10259.800000
130.065000 13936.400000
131.049100 7392.300000
131.060400 4540.800000
132.044400 72413.200000
132.080900 8757.100000
133.028600 7235.900000
133.039800 4042.700000
133.052200 35386.800000
133.075900 10613.300000
134.023700 20942.100000
134.060000 123279.400000
135.031400 96239.000000
135.044300 8206.000000
135.055300 31453.700000
135.067900 30401.800000
136.039300 179036.900000
136.075800 88511.200000
137.034700 4564.500000
137.047200 28668.500000
137.070900 42098.700000
137.083600 5044.000000
138.018700 5434.400000
138.054900 47722.400000
138.091400 8237.600000
139.050600 4793.800000
140.034300 7482.200000
144.055800 7425.800000
146.060100 23033.800000
147.055600 7343.200000
147.068000 18194.200000
148.039300 182815.200000
148.075600 74025.600000
149.035000 4407.800000
149.047200 47630.300000
149.070900 27266.000000
149.083700 5827.500000
150.018600 164901.200000
150.055000 192361.700000
151.026500 26177.900000
151.050300 28306.100000
151.062700 21308.900000
151.086700 9507.500000
152.034200 70942.500000
152.058000 5324.500000
152.070600 10670.600000
153.102300 12297.600000
154.013700 2502.000000
158.059700 2861.500000
160.039900 3075.000000
160.075800 8029.100000
161.034500 2399.400000
161.047500 5903.400000
161.071200 6156.800000
162.055000 62138.300000
163.026600 3254.300000
163.050400 8824.000000
163.062800 32630.600000
163.086500 9288.500000
164.034100 24935.500000
164.070600 111886.400000
165.029300 4985.200000
165.042700 2987.500000
165.066100 5586.500000
165.079000 4484.100000
166.049900 47215.600000
166.086200 18804.000000
167.057900 12157.700000
168.028900 2658.700000
169.024700 5719.500000
174.055100 2888.200000
175.050700 3567.800000
175.063400 2737.600000
176.070600 50684.100000
176.107300 2937.200000
177.078700 2969.900000
178.049800 28575.900000
178.073800 3225.800000
178.086300 15028.900000
179.057700 15984.300000
180.065700 7974.300000
181.024400 254336.600000
181.096900 17777.900000
182.032200 23726.200000
183.040100 12091.800000
190.087300 3086.100000
192.065300 12464.400000
192.102300 7228.800000
193.061400 4114.900000
193.073700 5317.100000
193.097900 2912.500000
194.081100 21759.300000
195.040400 8274.700000
195.052800 7724.800000
195.088900 2726.000000
197.055900 5556.700000
208.097400 2851.300000
209.055700 19899.300000
211.083900 2678.500000
239.066500 3171.600000

