>compound LU34990028
>parentmass 409.0573
>ionization [M+H]+
>formula C16H13ClF4N2O4
>rt 1087.080000
>profile orbitrap
#smiles_iso CCOC(=O)COC1=C(C=C(C(=C1)N2C(=O)C(=C(C=N2)C(F)(F)F)C)F)Cl
#smiles_can CCOC(=O)COC1=C(C=C(C(=C1)N2C(=O)C(=C(C=N2)C(F)(F)F)C)F)Cl
#inchikey DNUAYCRATWAJQE-UHFFFAOYSA-N
#pubchem_id 3083546
#mb_accession LU018501,LU018502,LU018503,LU018504,LU018505,LU018506

>ms2peaks
59.049200 21803.800000
307.025800 9151.200000
335.020500 1085576.100000
353.031200 1198551.100000
363.015200 66523.800000
363.051700 68563.700000
367.047200 11370.300000
381.026100 1682320.900000
381.061400 412921.200000
409.057400 7732723.500000

>ms2peaks
59.049100 106141.900000
136.036800 24426.200000
144.000900 16194.500000
156.985000 35414.300000
199.990900 32494.700000
243.054600 11467.500000
266.024800 54518.900000
267.012900 37466.900000
271.048700 88677.500000
272.056600 32757.400000
279.030500 13784.400000
287.019200 158972.200000
291.030800 10844.800000
299.043700 140850.800000
300.051400 62921.100000
307.025400 1736394.900000
315.014100 144639.700000
318.018000 11519.500000
335.020300 9344661.000000
353.030900 807645.300000
363.015500 101349.200000
363.051800 130161.600000
367.046800 10705.600000
381.026000 374668.200000
381.060600 18931.500000
409.057400 116023.200000

>ms2peaks
59.049100 45529.600000
62.963100 4762.000000
70.028700 7307.000000
71.029100 6492.200000
77.019600 4919.100000
83.029200 7806.500000
84.983900 5218.800000
89.019700 17514.300000
98.999600 6811.100000
101.019700 12800.800000
104.030600 6838.700000
108.024200 4685.000000
109.032400 3876.700000
111.024200 3828.600000
116.030600 41668.400000
116.990100 23945.000000
121.026000 57786.400000
122.021200 12472.800000
123.994700 10467.300000
126.034900 12518.400000
126.994500 8706.800000
128.990100 17966.300000
132.001100 4233.800000
136.019200 5942.900000
136.036900 75444.600000
142.005300 7024.900000
143.006000 3614.400000
144.001100 245167.800000
144.985100 12422.600000
145.009000 4353.900000
147.000600 3610.400000
147.035500 8635.200000
148.036900 5969.600000
150.035000 15865.300000
151.042700 28697.500000
151.989800 8936.500000
156.001200 9806.000000
156.020600 5834.900000
156.985200 234225.000000
156.996200 76319.800000
158.016900 5113.000000
159.000900 4002.400000
159.996300 4625.500000
162.010800 9363.800000
163.023900 4645.500000
164.031700 33807.300000
170.016800 19583.700000
171.996000 49760.500000
172.980100 4847.100000
173.003800 26475.100000
173.050700 3557.600000
174.011500 9067.300000
174.059000 13942.400000
175.066700 4898.600000
177.058100 4176.800000
179.042600 24518.600000
185.003900 38844.800000
186.011700 5315.500000
190.029000 10980.600000
195.041800 6630.600000
198.011700 28729.700000
199.007100 70168.300000
199.991000 103013.000000
200.014600 6767.700000
202.053700 31539.100000
202.993900 9636.200000
203.061600 65890.500000
204.049300 26466.500000
210.035200 14823.100000
211.019300 30071.400000
212.007300 5848.500000
213.046100 7808.000000
215.002000 4935.500000
215.047700 6562.900000
216.043000 20342.400000
217.998100 11334.100000
218.024200 10316.400000
219.011900 8713.700000
219.996200 4943.900000
223.006900 19966.100000
223.047700 64125.100000
224.032100 5510.100000
224.055600 72455.500000
225.039200 14535.700000
232.013700 12526.100000
236.015000 28584.100000
237.022600 137308.100000
238.030500 137595.900000
239.004500 6162.000000
239.018300 99054.000000
240.002300 40819.400000
242.046100 3819.100000
243.054200 144295.000000
244.038900 13991.500000
244.061600 31920.200000
245.009100 25929.300000
245.045100 14882.800000
247.007000 60127.500000
251.042800 117856.500000
252.050400 131493.700000
253.058800 15525.000000
254.005100 10443.400000
254.046200 4184.400000
255.054000 6627.600000
257.033300 7892.500000
259.024400 119060.300000
260.008500 62243.400000
262.004600 6317.000000
264.991600 22953.100000
265.016800 18568.400000
266.000400 48025.500000
267.013200 373413.800000
269.992800 10595.400000
270.016700 3692.600000
271.048900 763482.400000
272.056700 262179.200000
279.030500 141847.200000
280.014600 58844.700000
283.049900 4006.800000
283.068200 5569.400000
285.003800 43725.900000
286.011700 9490.100000
287.019400 938199.400000
289.999100 156449.100000
291.030800 43646.600000
292.002000 500303.800000
299.043900 491770.000000
300.051700 124166.100000
305.010300 40838.400000
305.028200 5670.800000
306.018500 9389.800000
307.025600 3496005.800000
313.059900 10807.900000
315.014300 247380.600000
317.009800 21137.300000
318.017900 19403.400000
327.076100 5097.000000
335.020600 1692195.900000
353.031100 6667.200000
363.015800 5501.000000
363.052000 10482.700000

>ms2peaks
55.017800 4833.300000
57.013400 7273.700000
59.049100 16537.900000
62.963100 9173.900000
63.022900 3305.900000
64.018100 6898.800000
66.014800 3242.200000
70.028500 3262.200000
71.029100 21191.900000
72.983800 13101.400000
74.015000 5249.200000
75.004100 15236.000000
77.019700 9206.600000
79.017700 4257.100000
82.028700 5692.000000
83.029100 42367.000000
84.984000 18927.100000
86.963100 4098.600000
89.019700 63112.200000
90.974500 3730.700000
96.024300 3970.200000
96.983800 7634.000000
98.999600 68344.600000
99.023900 10190.700000
101.019700 86828.000000
104.030500 23231.300000
104.990200 9905.700000
106.028600 5325.700000
107.010200 3676.400000
108.024400 36102.700000
108.983900 23325.900000
109.032100 24207.500000
110.040100 3174.900000
111.024100 27689.500000
111.047900 3297.100000
112.031900 8569.000000
112.978900 2852.300000
113.039600 4713.300000
114.015000 28898.700000
114.034900 6277.600000
116.030600 102983.700000
116.990100 153906.000000
119.030200 11691.900000
121.026000 103662.700000
122.021300 18116.100000
122.040000 14476.300000
123.035200 5638.500000
123.994900 51418.300000
124.019100 3087.600000
124.036900 10565.600000
126.035000 59593.600000
126.994600 24142.200000
128.030500 3092.500000
128.049800 2816.300000
128.990100 124268.800000
129.034600 6627.900000
129.997900 9239.800000
130.993300 4949.800000
132.001000 6114.300000
132.025500 20014.100000
132.985000 5202.300000
133.045700 3719.800000
134.021100 39861.500000
134.040000 3075.800000
135.029000 11675.700000
135.047700 5243.000000
136.019200 11216.900000
136.036700 35215.300000
136.042800 8036.900000
137.027300 7559.600000
138.034900 10743.800000
139.030200 5868.600000
140.050500 8276.700000
141.025900 10062.100000
142.005200 17160.400000
143.005800 7857.700000
143.050100 3301.000000
144.001100 316187.800000
144.025500 29897.400000
144.985100 32828.500000
145.009800 18799.600000
145.992900 5485.100000
146.016300 3338.700000
146.052400 16605.100000
147.000800 27977.600000
147.035000 22148.100000
148.019200 3640.700000
148.030700 5860.800000
148.036800 16065.500000
148.055800 13434.700000
150.034900 27985.000000
151.035900 5270.800000
151.042600 40586.500000
151.989700 9046.700000
153.044800 2880.800000
154.005300 9529.400000
155.060200 47084.100000
156.001000 36384.400000
156.020900 3559.800000
156.985100 205891.500000
156.996200 239944.400000
158.040200 3854.800000
159.000700 4018.200000
159.047700 4548.700000
161.051000 3085.400000
162.034900 15904.500000
163.023700 5218.100000
164.000900 7853.200000
164.031600 36032.100000
164.050400 5925.300000
166.029300 4834.900000
167.005700 10029.800000
168.000900 8754.200000
169.009000 7294.600000
169.025900 4596.500000
170.016600 72610.400000
170.988300 7062.200000
171.995900 62464.600000
172.037100 3219.300000
172.980100 7807.100000
173.003800 69245.600000
173.051000 33348.900000
174.011600 11484.200000
174.058800 63686.700000
175.042700 6015.300000
175.066500 32681.600000
176.030800 28331.400000
176.050600 8161.800000
177.038500 11191.800000
177.058200 9835.300000
178.005700 4447.200000
179.042700 44092.400000
182.016400 5992.200000
183.055300 11183.000000
183.996100 45085.900000
184.043500 28304.800000
185.003900 69805.100000
186.058800 4782.600000
187.030400 4372.800000
189.021500 9532.500000
190.029200 37196.300000
192.001200 17751.800000
192.025400 3935.100000
195.041900 24697.000000
196.036800 29265.700000
196.991100 15157.900000
197.999000 101573.300000
198.011500 39926.200000
199.007000 89480.000000
199.990900 61920.500000
200.014700 8163.400000
201.045800 15278.300000
202.053700 79216.100000
203.042600 67153.200000
203.061500 204750.400000
204.049300 166942.300000
205.033400 11077.300000
205.057500 16026.500000
207.011900 4139.600000
208.019600 6720.100000
209.003400 8956.900000
210.013100 10853.600000
210.035300 23929.300000
211.019700 35944.900000
212.007100 30009.300000
212.037700 9946.700000
213.045500 9261.100000
214.047700 5588.100000
215.001700 11612.000000
215.048200 4209.800000
216.043100 52433.600000
217.015600 4564.400000
217.997900 46841.000000
218.024000 33431.200000
219.012200 30994.100000
219.995900 17575.600000
220.019800 5656.000000
220.038000 6498.500000
221.051700 18089.800000
222.011600 11975.500000
222.040100 10090.400000
223.006900 51238.800000
223.047700 239673.000000
223.990700 12347.200000
224.032200 19356.200000
224.055500 207799.000000
225.039400 36451.600000
225.062900 15829.800000
225.986400 21739.000000
226.027200 16109.900000
227.033200 15178.300000
229.038800 15167.300000
230.021400 5627.000000
231.056000 18080.300000
232.013500 41612.700000
232.044100 51021.900000
233.052200 9867.800000
236.015200 44243.100000
237.022500 303459.500000
238.030300 108065.600000
239.018200 162040.600000
240.002100 87813.600000
241.038300 5940.900000
241.997900 15654.500000
243.054000 173998.300000
244.038800 17578.400000
244.061700 49487.500000
245.009100 13593.700000
246.017400 7272.000000
247.007000 95137.400000
251.042600 310925.200000
252.050400 224282.300000
253.058200 29344.900000
254.005100 7864.500000
254.045800 8185.200000
257.009300 4784.200000
257.033100 45709.000000
259.024200 106762.600000
260.008300 64893.100000
262.004500 6198.000000
264.991100 41204.700000
265.999100 43961.000000
266.025000 56470.400000
267.013100 301490.700000
269.053300 11171.700000
269.992800 13237.900000
270.040800 11140.200000
271.048800 897000.500000
271.995900 34351.900000
272.056700 217191.900000
273.003500 11510.700000
279.031000 98728.100000
280.015100 24563.700000
284.040500 21999.300000
286.011500 20501.000000
287.019300 515584.300000
289.999000 136695.400000
291.030500 17194.200000
292.002000 438338.900000
299.043800 204345.200000
303.014500 12575.700000
305.010200 29300.600000
305.029000 4046.600000
307.025500 772375.500000
313.059800 5291.800000
315.014200 43963.400000
317.010200 31281.900000
318.018700 3650.600000
335.020600 63653.700000

>ms2peaks
53.002100 8803.500000
54.033800 8446.000000
55.017900 5915.600000
57.013500 36491.900000
59.049200 5407.000000
62.015100 2605.100000
62.963200 19136.000000
63.022800 15786.000000
64.018200 53196.100000
66.015100 2794.800000
66.033600 3577.200000
66.974500 8286.300000
67.041600 4717.300000
68.994600 20883.000000
69.013300 3908.400000
70.008700 2473.800000
70.021300 5579.800000
70.028800 2904.800000
71.029100 30078.400000
72.024400 3298.400000
72.983900 47377.500000
74.015100 20857.600000
75.004100 48722.800000
75.023000 7868.700000
76.018100 7538.500000
77.002200 6586.200000
77.019600 21204.900000
78.033800 3170.900000
79.017800 9075.200000
81.013500 31533.800000
81.033500 4904.800000
82.028700 7358.600000
83.029200 149033.200000
84.024400 5427.300000
84.983900 41950.300000
85.032300 6309.000000
86.963300 29641.000000
88.011900 2799.700000
88.018200 4393.600000
89.019800 112002.100000
90.033800 7537.200000
90.974500 20228.100000
91.017700 5644.400000
93.013500 15932.600000
94.021300 8347.000000
95.010200 6345.200000
96.024400 11840.400000
96.036800 4558.900000
96.044500 3855.300000
96.984000 28648.400000
97.008500 5872.900000
98.040200 9126.200000
98.999600 135339.500000
99.024100 10654.800000
100.018700 9180.000000
101.019800 179397.500000
102.046400 4428.600000
103.982200 3369.800000
104.013100 4326.100000
104.030700 37043.700000
104.049600 4397.000000
104.990300 16536.700000
106.028700 11419.200000
106.969500 4322.500000
107.010300 12488.300000
107.029100 8040.200000
108.024400 90955.200000
108.984000 174733.500000
109.032200 76788.900000
110.040200 9254.900000
111.024100 62879.700000
111.047900 6186.600000
111.994700 4671.800000
112.031800 15373.900000
112.978700 16694.800000
113.039700 7569.500000
114.010500 4719.200000
114.015000 76327.000000
114.035000 19720.400000
114.974300 3172.300000
116.030700 110084.900000
116.990200 354760.900000
117.998000 5089.600000
118.028900 8542.900000
119.030500 14795.800000
120.024200 6940.200000
120.037000 3582.400000
120.044200 3184.700000
121.026000 81644.300000
121.032100 7961.600000
121.044900 6754.900000
122.021300 12625.100000
122.040100 50421.300000
122.999400 3821.200000
123.024000 5745.000000
123.035300 16086.100000
123.047900 12236.400000
123.994900 88473.000000
124.019400 10404.900000
124.036500 6331.200000
126.010500 5646.300000
126.015200 5655.400000
126.035000 85924.400000
126.994500 29213.900000
127.041900 6806.900000
128.030600 10250.400000
128.049700 10513.100000
128.990200 253061.800000
129.034400 15152.500000
129.998100 21789.800000
130.052700 5494.300000
130.969700 3413.300000
130.993300 5596.100000
132.001100 11114.700000
132.025400 61805.100000
132.985200 9924.700000
133.045500 12622.200000
134.021200 44427.300000
134.040100 11220.500000
135.029000 17995.700000
135.047900 25285.200000
135.994900 4090.700000
136.019400 9457.800000
136.031600 3521.100000
136.037000 9611.400000
136.043200 13863.400000
136.055600 5391.300000
137.027300 24932.800000
138.035000 39244.700000
139.005900 4458.100000
139.018100 4872.500000
139.030000 3231.400000
140.030900 3045.900000
140.050700 11642.700000
141.026000 25723.900000
141.985600 9778.600000
142.005200 20566.000000
142.029000 3488.000000
143.005900 18254.100000
143.050400 7976.200000
144.001100 186619.300000
144.025500 42501.400000
144.985200 27186.100000
145.009300 41522.000000
145.032600 3760.100000
145.992900 10331.200000
146.016000 4838.200000
146.021600 7472.700000
146.040600 15363.100000
146.052700 30487.100000
147.000800 39679.300000
147.029400 5252.900000
147.035300 26257.100000
147.048000 12468.700000
147.060700 9726.000000
148.019300 5160.700000
148.030500 17551.600000
148.036900 20933.200000
148.055700 51341.200000
149.026500 4232.900000
149.032900 4021.700000
149.039700 8246.600000
149.051200 3690.300000
150.010500 4548.100000
150.034900 27377.300000
151.029500 3032.300000
151.035800 6246.600000
151.042600 41148.800000
151.990000 16124.400000
152.013800 5358.200000
152.031200 18494.600000
152.050600 8470.000000
153.038700 5483.100000
153.044900 12116.200000
154.005500 17246.000000
154.029500 8069.800000
154.052700 16408.300000
155.060400 182195.600000
156.001200 45393.700000
156.018200 4294.700000
156.024900 4545.200000
156.068100 5107.800000
156.985400 97792.100000
156.996400 299861.200000
158.016600 6125.900000
158.039900 13117.400000
159.035800 6535.100000
159.047800 12518.100000
160.043100 9011.600000
161.051100 6505.700000
162.010400 21721.200000
162.035000 47686.700000
163.023600 14692.200000
163.029800 5155.600000
164.001200 17469.900000
164.025100 4477.300000
164.031700 39337.700000
164.038300 9021.800000
164.050700 9242.400000
166.046500 5100.300000
167.005700 17709.100000
168.001300 21411.800000
169.008900 16480.400000
169.025900 23129.500000
170.016700 110777.300000
170.988200 14407.800000
171.011900 5236.000000
171.054900 3912.100000
171.996000 42283.200000
172.037000 6048.100000
173.003900 72515.200000
173.051100 120511.700000
174.011400 9096.600000
174.035200 15761.900000
174.058800 125402.200000
175.016700 4004.100000
175.035200 10821.600000
175.042900 14622.800000
175.066600 67930.500000
176.030800 114136.100000
176.050200 17843.700000
177.038500 55834.400000
177.046300 4101.300000
177.058300 11006.500000
178.005500 9100.000000
178.033800 3398.000000
178.046500 5612.900000
179.042700 61099.400000
180.025700 3483.800000
181.040400 10391.900000
182.017100 13327.200000
182.021100 17050.500000
182.047800 5564.700000
183.037200 27568.100000
183.055400 22974.200000
183.996000 28667.500000
184.043400 67005.900000
185.004000 45958.800000
185.027500 3701.100000
185.051400 8241.800000
186.011700 18027.200000
186.042200 8326.500000
186.058700 5315.600000
187.030300 5860.900000
188.039200 2998.900000
188.050500 11280.300000
189.021200 31490.700000
189.046600 5573.100000
190.006100 4770.600000
190.020300 4374.500000
190.029300 40183.500000
190.986900 8078.800000
191.041400 11508.200000
192.001100 38993.100000
192.025600 14329.900000
193.009000 9099.400000
194.041400 13045.200000
195.012300 12675.700000
195.042000 30927.200000
195.996200 43481.800000
196.991400 28321.300000
197.044400 41781.400000
197.999300 270304.900000
199.007100 52706.400000
199.048000 25099.300000
199.990800 15299.000000
202.053800 118973.900000
203.042500 114612.500000
203.061600 234291.300000
204.049500 281387.300000
205.033300 24763.200000
205.056900 25987.500000
206.041400 7190.800000
207.011800 8942.500000
207.028100 6328.400000
208.020200 12321.300000
211.019200 29033.000000
212.007000 37028.700000
212.038200 11668.500000
213.046100 6132.400000
214.006700 6574.600000
215.001800 20408.400000
215.042100 3550.000000
216.043100 62316.800000
217.039500 3174.000000
217.997900 40284.500000
218.024100 20340.400000
219.996200 12622.100000
220.019600 7048.700000
221.003800 4587.200000
221.051900 26281.900000
222.011800 11235.900000
223.007100 50708.300000
223.047800 326048.600000
223.990800 9717.600000
224.055600 168934.400000
225.039500 40539.700000
225.063300 17807.800000
225.986600 26450.600000
226.027200 44934.500000
227.033400 21954.700000
229.016900 5457.400000
229.038600 31571.100000
230.021900 6383.600000
231.037200 43582.500000
231.055600 6965.700000
232.043800 28339.700000
233.052000 16252.900000
235.048100 11462.900000
236.015400 29108.000000
237.022600 230002.700000
238.010400 25496.900000
238.030600 25602.900000
239.004600 6531.300000
239.018200 77968.800000
240.002200 65392.300000
241.038300 10641.100000
241.058100 3090.400000
241.997800 20628.100000
242.046200 14208.800000
243.054100 92265.500000
244.037700 10800.100000
244.061700 21424.400000
244.985100 7436.500000
245.009500 8627.700000
245.045300 15598.300000
245.992800 26228.700000
246.017400 6114.100000
247.007100 50633.800000
251.042800 337672.000000
252.050500 103801.100000
253.058400 33424.600000
254.046500 7627.300000
255.053700 13540.800000
257.009200 5435.000000
257.033200 71335.900000
259.024000 38052.000000
259.048500 6293.500000
260.008400 28175.100000
264.991300 53618.100000
265.017200 10750.900000
266.000500 12063.200000
267.013200 92103.900000
269.053400 8290.400000
269.992800 9973.300000
270.016600 6709.700000
270.041300 10534.700000
271.048900 482045.100000
271.995900 30309.400000
272.056600 50355.800000
273.003900 15587.900000
274.999500 3740.900000
279.030500 14889.500000
283.050000 3739.800000
283.067800 14279.100000
284.040100 23936.500000
285.003900 31148.900000
286.011500 11751.600000
287.019400 114518.100000
289.999300 40075.500000
292.002100 113535.000000
299.043700 40285.800000
305.010200 22855.500000
306.018100 10956.400000
307.025600 70123.400000
317.010100 23569.200000

>ms2peaks
53.002300 15025.200000
54.033900 8341.200000
55.017900 4860.900000
57.013500 104020.900000
62.015100 6670.700000
62.963100 15512.800000
63.022900 46454.600000
64.018200 127510.500000
66.033800 10934.700000
66.974500 33427.400000
67.041600 7340.600000
68.994700 38097.100000
69.013500 5570.400000
70.008700 6317.000000
70.021300 14629.100000
71.029100 25006.300000
72.024500 5711.400000
72.983900 111717.700000
74.015100 101792.000000
75.004100 99531.300000
75.022900 22288.300000
76.018100 19302.400000
77.002200 8377.400000
77.019800 20317.600000
78.033800 11601.000000
79.017900 9104.400000
81.013500 56159.300000
81.033500 10133.700000
82.028800 13825.100000
83.029200 248512.000000
84.024400 7087.700000
84.983900 35741.800000
85.032300 14615.100000
86.963300 55522.400000
88.011900 4524.300000
88.018300 8699.600000
89.019800 106175.100000
90.033900 16029.300000
90.974500 61326.100000
91.017800 5135.900000
93.013500 43095.400000
94.021400 36617.600000
95.010200 13159.100000
96.024500 24856.200000
96.036900 14116.300000
96.044500 11964.400000
96.984000 47490.600000
97.008400 5065.500000
98.040000 9273.100000
98.999600 121566.500000
99.024200 13193.900000
100.018200 23273.100000
101.019800 208449.000000
102.046400 6226.700000
103.982500 4965.600000
104.013100 9581.700000
104.030600 18009.400000
104.049500 11520.400000
104.990100 14865.900000
106.028700 15256.600000
106.969500 5299.000000
107.010200 17670.900000
107.029200 23226.100000
108.024400 109773.900000
108.984000 384653.500000
109.032300 115010.600000
110.040000 15950.800000
111.024100 44325.600000
111.047800 4957.500000
111.995000 4021.000000
112.031800 17665.300000
112.978900 11864.500000
113.039600 19098.100000
114.010600 6027.200000
114.015100 94630.700000
114.034900 37215.800000
114.974400 5041.100000
116.030700 109074.300000
116.990200 423371.100000
117.997900 8451.200000
118.028900 14081.800000
119.030300 11983.400000
120.024600 10507.300000
120.037000 14076.200000
120.044500 5326.200000
121.026000 41836.900000
121.032200 14234.700000
121.044600 5069.300000
122.040100 82269.700000
122.999400 5858.200000
123.024200 8015.600000
123.035300 33231.100000
123.047700 19443.200000
123.994900 94893.200000
124.019300 14274.100000
126.010400 7117.900000
126.015200 8805.200000
126.035000 91650.500000
126.994600 10414.400000
127.041800 21712.200000
128.030600 11283.300000
128.049600 41036.800000
128.990200 240833.500000
129.998000 31341.600000
130.052700 7484.900000
130.969600 5675.300000
130.993400 5262.700000
132.001100 7620.400000
132.025300 86053.100000
132.985100 11378.200000
134.021200 26803.100000
134.040000 18548.400000
135.029100 9582.800000
135.047900 30846.800000
135.995100 6478.700000
136.019300 6573.400000
136.031800 3939.500000
136.043500 17994.900000
136.056000 4007.300000
137.027100 18766.100000
138.035000 46387.200000
139.005900 4632.300000
139.018400 3031.200000
139.029900 3080.900000
140.030800 7051.400000
140.050500 9311.500000
141.026000 30537.400000
141.985600 17882.200000
142.005400 16582.400000
142.029100 4416.400000
143.005800 17072.300000
143.050000 3368.500000
144.001100 71016.800000
144.025500 32588.800000
144.984900 14292.300000
145.009200 53615.200000
145.032300 11177.300000
145.993100 8220.900000
146.021400 10110.000000
146.040300 37939.300000
146.052700 33492.100000
147.000700 31864.000000
147.029400 5485.800000
147.035100 14062.900000
147.048000 30585.000000
147.060400 7311.100000
148.030600 24476.500000
148.036900 21389.700000
148.055700 91601.700000
149.026100 3888.300000
149.032800 6144.400000
149.039800 10482.300000
149.051200 3651.200000
150.010300 3882.200000
150.034900 18575.900000
151.029600 3646.800000
151.035500 20191.800000
151.042800 31912.900000
151.990100 8331.000000
152.013800 4104.000000
152.030700 35469.400000
152.050600 14265.100000
153.038300 11186.700000
153.044900 33625.100000
154.005500 10996.200000
154.029100 8898.400000
154.052600 20978.800000
155.060400 229353.500000
156.001100 28549.700000
156.018000 14563.400000
156.024800 20622.300000
156.068000 13143.500000
156.985600 32249.900000
156.996400 212231.600000
158.016900 4160.400000
158.040200 38032.700000
159.035400 7583.800000
159.047900 14168.300000
159.996000 3649.600000
160.043300 22195.800000
161.051100 5604.000000
162.010600 9745.700000
162.034900 38847.200000
163.030100 6797.700000
164.001200 15789.400000
164.025000 4801.500000
164.031400 42118.900000
164.037600 5875.200000
164.050300 15510.400000
166.029200 2993.300000
166.046300 8927.000000
167.005800 20058.900000
168.001300 27891.400000
169.008900 14947.300000
169.026000 38819.100000
170.016500 53968.800000
170.988300 20575.200000
171.012200 5242.300000
171.055300 12452.300000
171.995700 26051.500000
172.037500 11285.000000
173.003800 29771.600000
173.051000 205726.000000
174.035100 27587.400000
174.058900 107732.500000
175.017300 3616.000000
175.035300 20225.400000
175.042900 28199.800000
175.066700 49264.700000
176.030700 201263.300000
177.038500 70234.500000
177.046500 3701.000000
177.058500 5109.500000
178.005400 4398.200000
178.033500 6038.400000
178.046400 8108.700000
179.042900 40454.300000
180.025500 10751.000000
181.040000 12585.500000
182.016700 9984.600000
182.021000 14619.800000
182.048100 3332.200000
183.037000 42905.300000
183.054900 13861.500000
183.996200 12156.600000
184.043600 72613.300000
185.004000 11655.300000
185.027500 5918.400000
185.051500 14755.400000
186.011700 16471.800000
186.042300 8936.800000
186.058500 7426.600000
187.030400 5066.300000
188.039200 4919.100000
188.050200 5353.800000
189.046300 4937.900000
190.006000 5954.500000
190.020700 7582.700000
190.029300 10328.900000
190.987200 5631.700000
191.041600 27895.200000
192.001100 52815.400000
192.025300 17493.300000
193.008800 10636.000000
194.041400 15546.900000
195.012100 9214.100000
195.042000 13546.900000
195.996100 40398.300000
196.036900 81920.300000
196.991300 14239.500000
197.044400 30272.800000
197.999300 188994.900000
199.007000 21271.100000
199.048100 15500.500000
201.046200 26253.400000
202.053800 109523.700000
203.042200 85917.700000
203.061600 87013.600000
204.049400 195633.000000
205.033000 18122.400000
205.057200 29466.000000
206.041500 7919.400000
207.012200 12283.000000
207.027900 16776.000000
208.019000 7175.600000
209.003600 6969.300000
210.012900 13264.000000
212.006600 17541.900000
213.045900 5593.900000
214.047700 8312.400000
215.001700 10356.800000
215.042300 6533.000000
216.043100 38330.100000
217.016000 9427.800000
217.039700 3427.200000
218.024000 7034.400000
220.038000 10349.300000
221.051900 18714.100000
222.011800 5548.800000
222.040100 60306.000000
223.007000 31101.000000
223.047800 237093.500000
224.032300 24895.600000
224.055500 59074.700000
225.039700 15407.800000
225.063300 8921.700000
225.986600 19359.900000
226.027200 21127.800000
227.033300 12346.000000
229.017000 4551.000000
229.038700 24330.200000
231.036900 29974.700000
232.013300 10604.100000
232.044100 8983.500000
233.051700 6689.400000
235.047900 11739.500000
236.015000 20882.700000
237.022500 108367.900000
238.010400 18995.700000
239.018200 19346.900000
240.002200 23852.400000
241.058000 3808.800000
241.997900 10892.200000
242.045900 10009.500000
243.054100 41641.400000
244.037800 5009.000000
244.985000 3377.300000
245.992600 10217.200000
247.006900 11679.800000
251.042600 157698.400000
253.058900 13691.200000
254.046400 7781.700000
255.053800 8942.800000
257.009600 6113.100000
257.033200 34178.400000
259.024100 4256.700000
259.049000 4270.200000
264.991400 19445.500000
267.013100 21155.700000
271.048700 108528.500000
271.996000 12181.000000
273.003600 7535.100000
275.000000 3521.200000
283.068200 8033.000000
284.040600 5989.500000
285.003800 10296.400000
289.999300 4122.800000
292.002300 8595.000000
299.044000 5145.500000
303.014100 3437.400000
305.009800 9058.600000
306.017700 3002.500000
317.009900 10396.200000

