>compound LU34669015
>parentmass 197.0597
>ionization [M+H]+
>formula C13H8O2
>rt 1073.100000
>profile orbitrap
#smiles_iso C1=CC=C2C(=C1)C(=O)C3=CC=CC=C3O2
#smiles_can C1=CC=C2C(=C1)C(=O)C3=CC=CC=C3O2
#inchikey JNELGWHKGNBSMD-UHFFFAOYSA-N
#pubchem_id 7020
#mb_accession LU019801,LU019802,LU019803,LU019804,LU019805,LU019806

>ms2peaks
77.038800 6223.300000
197.059900 3760235.500000

>ms2peaks
77.038700 4833.900000
197.059800 2679603.000000

>ms2peaks
77.038700 5178.100000
141.070000 8714.700000
169.064900 5401.900000
197.059800 3016355.500000

>ms2peaks
53.038600 6426.300000
77.038700 5969.200000
95.049200 26271.100000
105.033500 3558.600000
115.054300 37734.600000
121.028500 16677.500000
141.070000 203995.400000
152.061900 3459.500000
168.057000 18220.500000
169.064900 48811.300000
196.052600 5535.900000
197.059900 2873296.800000

>ms2peaks
50.015100 3675.600000
51.023000 6374.500000
53.038600 37572.900000
55.017900 3784.800000
77.038400 14114.500000
81.033300 2727.600000
91.054300 3798.100000
92.025800 5314.700000
94.041600 3544.100000
95.049200 118762.900000
105.033600 4897.300000
115.054300 193060.500000
121.028500 46223.100000
139.054300 4129.600000
141.069900 434409.300000
152.062000 7913.400000
168.057100 48184.500000
169.064900 51588.100000
196.051800 5040.700000
197.059900 1166790.800000

>ms2peaks
50.015100 10955.300000
51.023000 22079.100000
53.038600 85859.500000
55.017800 5912.300000
77.038500 57045.700000
81.033600 10043.500000
91.054300 13536.600000
92.025600 19205.600000
94.041400 9525.000000
95.049200 267395.700000
105.033500 7931.300000
115.054300 592905.600000
121.028400 89815.300000
139.054200 14235.200000
141.069900 507342.600000
152.062000 13604.500000
168.057100 104290.300000
169.064800 43999.200000
196.051900 8126.200000
197.059800 524923.700000

