>compound LU34235823
>parentmass 484.2516
>ionization [M+H]+
>formula C28H37NO4S
>rt 943.380000
>profile orbitrap
#smiles_iso CC1=CC(=C(C=C1CO)C(C)(C)C)SC2=C(C[C@@](OC2=O)(CCC3=CC=C(C=C3)N)C(C)C)O
#smiles_can CC1=CC(=C(C=C1CO)C(C)(C)C)SC2=C(CC(OC2=O)(CCC3=CC=C(C=C3)N)C(C)C)O
#inchikey ZUBPKHVCBGWWGO-NDEPHWFRSA-N
#pubchem_id 54687772
#mb_accession LU041501,LU041502,LU041503,LU041504,LU041505,LU041506

>ms2peaks
106.065200 16184.500000
392.167900 30793.100000
448.230600 20916.400000

>ms2peaks
106.065200 54756.500000
120.080900 9836.700000
132.081000 7347.200000
172.112200 4061.200000
277.089500 4251.000000
392.168700 23319.900000
448.232000 5134.700000

>ms2peaks
106.065200 74741.400000
120.080900 11458.900000
132.081000 6555.500000
277.090300 6139.800000

>ms2peaks
106.065200 85853.500000
118.065100 4295.600000
120.080600 3253.900000
172.111800 2281.500000

>ms2peaks
79.054200 5417.900000
91.054200 3040.100000
106.065200 124047.400000
118.065000 3660.500000
120.080900 4714.300000
132.080900 2738.600000
157.088700 4411.300000

>ms2peaks
79.054200 10599.000000
91.054300 6457.400000
106.065200 76124.600000
157.088500 2718.500000

