>compound LU34997324
>parentmass 310.2165
>ionization [M+H]+
>formula C21H27NO
>rt 928.620000
>profile orbitrap
#smiles_iso CCC(=O)C(CC(C)N(C)C)(C1=CC=CC=C1)C2=CC=CC=C2
#smiles_can CCC(=O)C(CC(C)N(C)C)(C1=CC=CC=C1)C2=CC=CC=C2
#inchikey USSIQXCVUWKGNF-UHFFFAOYSA-N
#pubchem_id 4095
#mb_accession LU051301,LU051302,LU051303,LU051304,LU051305,LU051306

>ms2
57.033600 53530.900000
91.054500 24237.600000
105.033100 166993.000000
105.069700 26413.800000
159.116500 36118.400000
187.112100 63775.900000
223.111900 88571.400000
247.148200 67162.100000
265.158500 19913112.000000
310.216400 22133622.000000

>ms2
57.033500 2721059.500000
77.038500 23829.600000
91.054200 550936.800000
95.049100 23207.500000
105.033400 6174897.500000
105.069800 1019847.100000
117.069700 164177.500000
119.085500 58662.900000
129.069600 121536.300000
131.085300 82566.100000
135.080300 119800.900000
143.085600 108501.300000
145.065100 48590.200000
145.101000 39594.000000
147.080100 79556.400000
155.085300 38943.500000
159.080300 108180.800000
159.116700 1090527.600000
161.096000 67787.200000
169.101000 122114.100000
183.080200 36216.000000
187.111700 905290.700000
191.085300 36513.800000
195.116700 757146.900000
205.101100 156328.700000
207.116900 215828.300000
218.109100 115216.800000
219.116700 1394843.000000
221.132600 57993.000000
223.111600 2762142.000000
232.124300 39504.100000
236.119700 36785.500000
247.148000 1572144.000000
265.158500 23021038.000000
310.216400 673013.400000

>ms2
53.038500 77157.400000
55.054100 23307.500000
57.033500 4066543.800000
69.033400 78536.900000
69.069900 37852.700000
77.038300 82779.900000
79.054100 24858.600000
85.064900 17583.000000
91.054200 2846211.500000
95.049100 253813.400000
103.054100 28403.300000
105.033500 15463369.000000
105.069700 1875420.200000
107.049300 71176.800000
115.054200 38996.700000
117.069800 1591519.600000
119.085400 89075.300000
128.062000 25593.200000
129.069800 565466.500000
131.049000 15488.700000
131.085500 245989.700000
135.080400 216505.200000
141.069500 52576.200000
143.085400 264131.600000
145.064800 283615.700000
145.101200 105049.800000
147.080300 180006.500000
154.077600 18596.200000
155.085600 49931.900000
158.072400 30591.100000
159.080500 249732.100000
159.116700 1088126.000000
161.095800 46909.200000
165.070000 17741.400000
167.085500 216494.800000
169.101100 193062.600000
178.077400 43967.100000
179.085500 97658.700000
183.080000 42126.300000
187.111700 331688.800000
191.085300 134421.900000
192.093100 24792.100000
193.101000 22916.700000
194.072400 89429.900000
195.080700 114720.300000
195.116800 1870273.100000
203.085700 43982.000000
204.093300 398847.800000
205.101100 497782.300000
206.108900 23327.400000
207.116700 203303.100000
209.096000 17521.500000
209.132600 35071.900000
217.100700 51300.300000
218.108900 598616.100000
219.116700 2922448.500000
221.132000 24130.200000
223.111600 2350903.200000
224.118800 57762.400000
232.124600 177960.000000
236.119400 182821.500000
247.148000 515734.800000
265.158500 1530610.100000

>ms2
53.038600 439498.200000
55.054200 29281.100000
57.033500 2856473.500000
65.038500 28968.100000
69.033400 111390.300000
69.069700 24276.400000
77.038500 240718.300000
79.054100 102184.900000
81.033500 51594.200000
91.054200 5067641.500000
94.041200 32048.200000
95.049100 1295855.600000
103.054300 83804.400000
105.033500 17509818.000000
105.069700 1846673.800000
107.049100 97186.800000
115.054200 227557.700000
116.062100 22915.700000
117.069900 2888541.200000
119.085600 48482.000000
128.062000 146814.000000
129.069800 830271.600000
130.077700 33870.700000
131.049200 48320.700000
131.085500 291978.000000
135.080400 113966.800000
141.069800 162384.000000
143.085500 217648.100000
145.064800 381560.900000
145.101200 82689.400000
147.080400 147616.700000
154.077700 89131.200000
155.085600 31998.100000
158.072500 67721.400000
159.080500 154664.300000
159.116800 260803.800000
165.069600 57759.800000
166.077800 64845.700000
167.085500 724367.800000
169.100900 98725.500000
178.077700 178980.500000
179.085700 142000.400000
180.093200 36753.200000
181.101100 25384.200000
187.111900 38533.100000
190.077500 69859.700000
191.085500 250440.200000
192.093400 38411.800000
193.101500 35443.300000
194.072600 284290.300000
195.080500 96979.700000
195.116900 572013.100000
202.077800 43153.700000
203.085600 351041.000000
204.093400 1543918.800000
205.101200 393952.200000
206.109000 49141.600000
207.116700 33104.700000
208.088400 33756.800000
209.096400 33507.000000
217.101200 282560.700000
218.109000 818833.800000
219.116800 1097340.600000
221.095400 79687.200000
223.111700 233706.000000
224.119900 42138.700000
232.124700 132598.500000
236.119600 141695.300000
247.148300 29560.600000
265.158300 18761.500000

>ms2
50.015000 18289.400000
53.038600 1145461.000000
55.017900 55947.900000
55.054300 30023.300000
57.033500 1713947.100000
65.038500 113747.800000
67.054200 13389.600000
69.033500 115244.800000
69.069900 16193.400000
72.080700 32840.500000
77.038500 514619.800000
79.054200 242528.400000
81.033500 105598.000000
81.069900 37127.800000
91.054200 5645543.500000
94.041300 109609.500000
95.049100 3260767.000000
103.054300 229309.400000
105.033600 12835649.000000
105.069800 1543329.900000
107.049100 105984.700000
109.064900 34826.500000
115.054200 767620.500000
116.062100 36274.600000
117.069900 2287261.200000
119.085500 15650.200000
128.062100 372959.200000
129.069800 772675.300000
130.077900 59586.500000
131.049100 62747.000000
131.085600 210788.800000
135.079900 20225.800000
141.069800 220396.300000
142.077500 18379.000000
143.049300 20295.000000
143.085400 74719.800000
144.057000 28501.100000
145.064800 262696.600000
145.100800 22864.300000
147.080600 55295.900000
152.062000 147941.000000
153.069900 40942.600000
154.077600 104876.400000
155.085100 14165.900000
157.065100 19147.800000
158.072400 71393.600000
159.080400 58240.500000
159.116800 30085.300000
165.069900 252984.600000
166.077700 134839.500000
167.085600 777443.100000
169.101100 27378.600000
178.077700 257751.100000
179.085700 132832.800000
180.093200 22464.500000
181.101100 38609.000000
189.069700 44813.100000
190.077600 131922.200000
191.085400 247784.600000
192.093200 40376.000000
193.101300 36937.700000
194.072700 441977.700000
195.080400 31262.600000
195.116600 53398.500000
202.077800 179767.100000
203.085500 808192.100000
204.093400 1722302.400000
205.101300 146297.100000
206.108800 25747.400000
207.117100 14670.100000
208.087800 25034.000000
209.096200 14293.500000
215.084700 22478.600000
216.093000 21801.400000
217.101100 605804.500000
218.109000 376177.700000
219.116900 170346.200000
221.096100 68389.500000
223.112100 14628.100000
231.116000 19093.200000
232.124300 47934.300000
235.111600 16646.100000
236.119400 20672.800000

>ms2
50.015100 21725.300000
53.038600 1812883.600000
55.017800 85784.500000
55.054200 18464.200000
57.033500 836787.200000
65.038500 264489.800000
67.054300 15031.000000
69.033400 88734.900000
72.080700 23396.400000
77.038500 786069.700000
79.054200 419116.500000
81.033500 183822.900000
81.070000 25571.500000
91.054200 5590995.000000
93.070000 10088.400000
94.041400 193406.200000
95.049200 5362952.500000
97.053600 10883.300000
103.054300 426392.000000
104.062000 11253.100000
105.033600 7173376.000000
105.069800 1028555.400000
107.049200 78695.200000
109.065000 42176.400000
115.054200 1439654.600000
116.062100 73363.700000
117.069900 1449750.500000
119.085800 15469.500000
127.054300 41445.800000
128.062000 645737.100000
129.069800 538141.400000
130.077700 43974.000000
131.049200 68058.300000
131.085600 130029.400000
135.081200 9806.700000
141.069800 223356.100000
142.078000 26505.000000
143.049100 14392.600000
143.085700 29823.100000
144.057000 34007.000000
145.064800 182642.500000
147.080400 19411.900000
152.062100 334244.700000
153.069700 79997.400000
154.077600 59021.200000
155.085900 14404.300000
157.064900 25063.600000
158.072700 42643.700000
159.080500 21943.100000
165.069900 639139.100000
166.077700 220284.300000
167.085500 413819.100000
178.077700 327000.300000
179.085600 91269.800000
180.093400 27953.200000
181.101000 20355.300000
189.070000 108724.900000
190.077800 118167.200000
191.085500 197447.100000
192.093500 33316.300000
193.100700 18437.400000
194.072700 506370.500000
202.077700 516454.200000
203.085600 1068373.800000
204.093400 1079910.400000
205.101300 30478.000000
207.080100 22431.100000
208.087700 11010.300000
215.085500 89372.300000
216.093400 58441.400000
217.101100 510834.400000
218.109000 67677.400000
219.117000 17286.600000
221.096100 31480.300000
231.116700 10920.200000

