>compound LU34195907
>parentmass 339.1955
>ionization [M+H]+
>formula C22H26O3
>rt 1237.560000
>profile orbitrap
#smiles_iso CC(=C[C@@H]1[C@H](C1(C)C)C(=O)OCC2=COC(=C2)CC3=CC=CC=C3)C
#smiles_can CC(=CC1C(C1(C)C)C(=O)OCC2=COC(=C2)CC3=CC=CC=C3)C
#inchikey VEMKTZHHVJILDY-UXHICEINSA-N
#pubchem_id 162381
#mb_accession LU018301,LU018302,LU018303,LU018304,LU018305,LU018306

>ms2
91.054300 19186.100000
95.085400 2817.600000
117.070300 3851.400000
119.085700 1996.400000
121.101200 14663.200000
123.116900 5268.400000
133.101200 2482.600000
135.116900 4974.000000
139.111800 4382.100000
141.091100 6837.300000
143.085400 2073.300000
149.095900 8438.500000
159.116900 4331.800000
167.106800 27115.400000
171.080500 172859.700000
173.096000 5387.000000
173.132700 2883.500000
175.148400 9954.000000
181.122500 16380.200000
185.096200 4712.000000
187.111900 2510.100000
199.112500 9506.800000
203.143000 12513.400000
205.122400 4786.600000
225.127700 18502.800000
226.136300 2094.200000
237.127900 3200.200000
239.143300 12312.800000
251.143100 8656.300000
253.122500 1909.800000
275.179900 2382.100000
283.132700 5672.900000
293.190100 59645.000000
321.185300 42535.400000
339.195700 442498.400000

>ms2
67.053800 1832.200000
69.069700 5214.100000
81.069800 6247.400000
83.049000 3006.700000
91.054300 95358.800000
93.069800 3668.300000
95.049200 3462.500000
95.085600 12326.700000
105.033500 5635.900000
105.070000 4487.900000
107.085500 6650.300000
109.065000 3031.100000
111.044200 1938.300000
115.054100 2783.500000
117.069900 8615.500000
119.085500 5404.000000
121.064900 5979.600000
121.101300 40563.600000
123.116700 10223.800000
125.059800 6328.700000
128.062000 3394.400000
129.069800 2374.300000
131.085400 2805.200000
133.101000 3856.000000
135.080600 3559.400000
135.116900 12282.700000
139.112000 8870.600000
141.070000 2105.100000
141.090900 7122.700000
143.085600 56166.400000
147.080300 3132.500000
149.096200 22631.700000
155.085600 2650.400000
157.101400 2950.900000
159.080400 2585.700000
159.117000 10173.300000
161.096100 3759.900000
161.132500 3528.100000
167.106700 11458.800000
171.080500 149527.500000
173.096000 2662.400000
173.132500 5828.100000
175.148300 12129.700000
181.122100 2572.000000
185.096000 6938.900000
187.112500 2347.100000
197.132500 7874.000000
199.111800 14971.200000
203.143300 11497.000000
205.122700 4787.200000
209.132700 3162.000000
219.116700 2580.500000
225.127600 19218.700000
226.135500 3712.700000
237.127500 7558.900000
239.143200 10790.600000
247.132700 6062.600000
251.143500 8858.900000
253.123100 2797.700000
275.178600 3001.200000
283.132900 2855.700000
293.190300 31389.600000
321.184700 8872.100000
339.194900 19457.200000

>ms2
55.054200 3741.100000
57.069900 2280.600000
59.049200 3852.800000
65.038400 2111.500000
67.054100 4108.000000
69.033500 1917.100000
69.069900 10020.800000
79.054200 3864.800000
81.069900 13359.900000
83.049000 3274.300000
91.054300 146086.300000
93.069800 12893.900000
95.049100 4088.800000
95.085600 12080.900000
97.064900 3590.300000
103.054200 2350.200000
105.033600 29033.300000
105.070100 10222.400000
107.085600 9787.200000
109.064900 7586.800000
111.044200 1792.200000
115.054300 8860.100000
117.069900 7112.200000
119.085500 11908.600000
121.064900 13531.000000
121.101200 38611.600000
123.116900 4005.800000
125.059600 2264.800000
128.062100 36679.800000
129.069900 5223.400000
131.085500 8027.000000
133.064800 2437.600000
133.101300 7364.600000
135.080400 10006.900000
135.117000 8271.900000
139.111800 3232.100000
141.069800 3933.000000
143.085600 93135.700000
145.065000 3352.800000
145.101600 2329.600000
147.080400 8073.600000
149.096200 12623.300000
155.085500 6114.400000
157.101300 3298.100000
159.080400 5270.100000
159.116900 10253.400000
161.096200 5098.800000
161.132200 3130.000000
169.100900 2980.400000
171.080500 48198.500000
173.096000 2406.500000
173.132300 10914.000000
175.148000 3032.700000
187.111900 3293.200000
197.132300 6532.200000
199.111900 7014.200000
201.127800 3814.300000
203.143000 2785.700000
209.133000 1818.500000
219.117400 2294.300000
225.126900 2865.300000
226.135500 2271.500000
237.127600 2352.600000
239.142700 2673.700000
247.132600 4767.400000
251.143500 1874.700000
293.191000 3326.800000

>ms2
55.017900 2073.300000
55.054300 10715.100000
57.069900 1977.800000
59.049300 3278.800000
65.038600 7508.100000
67.054200 10987.500000
69.033600 2287.500000
69.069900 9206.700000
79.054200 10966.000000
81.069900 22627.900000
83.049100 4153.700000
85.064900 3213.300000
91.054300 215784.900000
93.070000 21365.900000
95.049300 6864.600000
95.085700 13907.000000
97.065000 2381.700000
103.054400 3818.400000
105.033600 50882.000000
105.070000 26192.100000
107.085500 16478.800000
109.064900 13837.300000
115.054400 19821.400000
117.069900 18952.800000
119.085700 17924.300000
121.064900 18141.100000
121.101200 26118.500000
128.062100 100741.300000
129.069700 10300.000000
131.085600 10207.400000
133.064700 3333.800000
133.101400 7917.500000
135.080800 6466.900000
135.117100 4786.000000
141.070000 8992.000000
142.077500 3040.900000
143.085700 54896.500000
144.093800 2559.600000
145.065100 8082.800000
145.101400 2720.900000
147.080700 4853.200000
149.096500 4480.200000
152.062800 2080.700000
153.070200 5558.600000
155.085700 5889.300000
159.080900 7867.900000
159.117300 9112.000000
161.096500 5024.200000
165.070300 2851.200000
169.101200 2488.700000
171.080500 9138.500000
173.133200 3109.900000
179.086000 2619.400000
187.112200 3866.100000
197.132400 2632.100000
199.111900 3376.600000
201.127700 2023.600000

>ms2
53.038600 5497.100000
55.018000 3150.700000
55.054300 10265.500000
57.070000 2654.800000
59.049300 4392.800000
65.038600 13793.400000
67.054200 11677.400000
69.069900 7697.000000
77.038300 1922.900000
79.054300 19955.700000
81.070000 13207.900000
83.049200 3262.600000
85.065000 2841.300000
91.054300 190765.100000
93.070000 14735.400000
95.049300 11346.000000
95.085600 6460.200000
103.054300 7353.600000
105.033600 33686.600000
105.070000 30422.900000
107.085600 7460.800000
109.065000 7952.000000
115.054300 25684.700000
116.062100 2049.500000
117.069800 18161.900000
119.085500 18415.100000
121.064900 10862.500000
121.101400 8265.700000
128.062100 109214.700000
129.069900 9569.200000
131.085600 9164.800000
133.065000 3543.400000
133.101200 3339.500000
135.080900 3851.300000
141.070000 11535.400000
142.078100 5136.400000
143.085600 18899.500000
144.093400 2177.600000
145.064900 9420.900000
145.101100 2139.600000
152.062200 4889.200000
153.070200 7059.600000
155.085400 4929.800000
159.080600 4183.600000
159.117200 2621.700000
165.070400 2759.600000
169.101100 1865.800000
171.080500 2589.800000
179.086000 2075.000000

>ms2
53.038700 8914.400000
55.017900 3407.000000
55.054200 10587.000000
59.049200 3537.600000
65.038600 26678.900000
67.054200 12047.600000
69.033500 1924.800000
69.069800 2665.800000
77.038500 2606.500000
79.054200 27538.700000
81.069900 12167.700000
91.054300 236896.600000
93.069900 14377.000000
95.049200 21069.000000
95.085400 5450.900000
103.054400 9649.300000
105.033500 21820.200000
105.070000 32101.900000
107.085700 4960.600000
109.064900 3753.800000
115.054300 36604.500000
116.062000 3235.700000
117.069900 14318.200000
119.085700 13481.000000
121.064900 5388.700000
121.101200 3191.600000
128.062100 121751.600000
129.069800 8802.500000
131.085700 4999.400000
133.065100 1681.200000
141.069900 14732.700000
142.077900 6322.000000
143.085700 8066.300000
144.093800 2299.600000
145.065000 10055.400000
152.062300 8434.200000
153.070100 5595.300000
155.085700 4012.600000
165.069900 4397.400000

