>compound LU34045151
>parentmass 381.1609
>ionization [M+H]+
>formula C22H21FN2O3
>rt 1000.900000
>profile orbitrap
#smiles_iso CC(C)(C1=CC=C(C=C1)CNC(=O)C2=C(N=CC=C2)OC3=CC=C(C=C3)F)O
#smiles_can CC(C)(C1=CC=C(C=C1)CNC(=O)C2=C(N=CC=C2)OC3=CC=C(C=C3)F)O
#inchikey UHBUSMAHWHZQKS-UHFFFAOYSA-N
#pubchem_id 10407399
#mb_accession LU109301,LU109302,LU109303,LU109304,LU109305,LU109306

>ms2peaks
119.085500 14475.500000
131.085500 129362.100000
149.096200 124417.700000
216.045500 104759.700000
245.072100 33720.600000
323.119600 7272.200000
363.150400 4885036.000000

>ms2peaks
57.033500 74936.400000
59.049100 12353.000000
91.054200 57850.900000
105.069900 9141.100000
107.085500 52141.300000
115.054200 6188.200000
116.062000 9748.100000
119.085600 32070.900000
121.101300 10072.900000
129.069900 9980.600000
131.085500 3490140.200000
134.072500 5135.000000
147.104600 5036.700000
149.096100 1085097.500000
216.045600 919419.900000
245.072000 24133.800000
323.119200 8936.000000
363.150400 882601.400000

>ms2peaks
57.033500 231523.300000
59.049200 20893.700000
65.038500 3389.900000
91.054300 298592.600000
93.069900 6376.400000
103.054400 8494.800000
105.070000 51957.200000
107.085600 198929.300000
109.065000 6111.800000
115.054200 19733.200000
116.062100 70598.800000
119.085700 38935.400000
121.101200 29939.300000
128.062100 3533.700000
129.070000 72243.800000
131.085600 3147387.000000
132.080700 4611.900000
133.064900 3640.900000
134.072700 67968.000000
147.104700 11474.900000
149.096200 475219.900000
188.050900 20902.300000
216.045700 1206350.100000
251.118100 3587.600000
363.149300 5838.800000

>ms2peaks
53.038600 8522.900000
57.033500 167937.000000
59.049100 13975.200000
65.038600 10310.400000
74.096300 3024.500000
77.038600 2428.300000
79.054200 18827.200000
91.054200 744465.900000
92.062100 4496.900000
93.070000 12685.200000
95.049000 2548.000000
96.044400 7635.100000
103.054200 21903.900000
105.069900 113956.700000
107.085500 269604.800000
109.064900 11894.100000
115.054200 57235.900000
116.062100 230293.900000
119.060400 8602.100000
119.085600 21000.400000
121.101100 20182.800000
123.080400 3909.900000
128.061900 13071.600000
129.069900 156161.500000
130.077800 5116.800000
131.085600 1600775.800000
132.080400 11420.400000
133.044800 51537.100000
133.064700 12764.300000
134.072600 184028.500000
140.049700 2483.300000
143.060500 7018.500000
147.104300 7851.600000
149.096100 75976.400000
160.055700 50043.900000
188.050700 190841.000000
216.045500 950288.300000
234.056700 9131.700000

>ms2peaks
53.002200 2772.700000
53.038700 17473.700000
57.033500 84700.100000
59.049100 12081.700000
65.038600 26625.200000
74.096200 2195.400000
75.022500 2301.000000
78.033900 7411.600000
79.054200 43501.800000
89.038500 5947.200000
91.054300 1096510.100000
92.062100 12646.800000
93.069900 9239.300000
95.012900 2903.500000
95.049100 12619.100000
96.044400 38292.000000
103.054200 43962.800000
105.069900 145860.000000
107.085600 184194.200000
109.064900 31540.400000
113.039600 3031.200000
115.054300 114823.600000
116.062100 360463.800000
119.060400 16199.700000
119.085600 10927.500000
121.101100 9104.700000
122.040300 4897.900000
123.035000 3897.600000
123.080500 4407.300000
128.062100 31407.700000
129.069900 138235.000000
130.077700 8708.200000
131.085600 502414.200000
132.080800 13327.600000
133.044800 236108.400000
134.072600 211834.100000
140.049500 19477.600000
143.060300 7811.600000
145.064400 4808.400000
146.040100 5464.000000
146.096000 3288.900000
148.019100 3509.900000
149.095900 5108.000000
152.050500 3378.100000
155.060300 4200.000000
158.040000 6356.600000
158.059900 2501.200000
160.055800 148648.500000
164.050500 5418.300000
168.044600 5447.100000
168.056000 2703.400000
188.050700 303777.700000
216.045600 356869.800000
234.055900 6111.300000

>ms2peaks
51.023000 4179.700000
53.002300 4423.200000
53.038600 19579.400000
57.033500 39390.800000
59.049200 14230.300000
65.038600 68217.000000
75.022900 6505.600000
77.038300 3362.200000
78.033800 18502.300000
79.054200 58333.100000
89.038500 5356.600000
91.054200 1204143.000000
92.062000 21801.400000
93.069900 7615.700000
95.012900 4966.300000
95.049100 23768.300000
96.044400 52213.700000
103.054200 55239.200000
105.069900 155915.900000
107.085500 95729.500000
109.064900 30008.900000
113.039400 14612.700000
115.054300 208670.100000
116.062100 349313.000000
119.060400 20072.400000
119.085500 5300.700000
121.101200 3076.000000
122.040100 4239.900000
123.035200 14266.400000
123.080300 2460.300000
128.062000 49463.900000
129.069900 91981.100000
130.077600 5902.200000
131.085600 124480.400000
132.080800 5867.800000
133.044800 477812.300000
134.072600 131806.000000
140.049500 36783.300000
143.060600 3017.200000
145.064900 8703.600000
146.040000 6174.700000
148.019300 3647.600000
152.050400 14169.600000
155.060500 10854.900000
158.040100 16650.100000
158.060300 2970.700000
160.055700 121110.600000
164.050600 5726.200000
168.043800 2272.900000
168.055500 4304.800000
188.050700 158727.400000
216.045500 80300.800000

