>compound LU35563951
>parentmass 403.18159999999995
>ionization [M+H]+
>formula C25H23FN2O2
>rt 970.380000
>profile orbitrap
#smiles_iso C1CN(CCC1C2=CC=CC(=C2)CN)C(=O)C3=CC=C(O3)C#CC4=CC=CC=C4F
#smiles_can C1CN(CCC1C2=CC=CC(=C2)CN)C(=O)C3=CC=C(O3)C#CC4=CC=CC=C4F
#inchikey FTLQSQQQFMZPKO-UHFFFAOYSA-N
#pubchem_id 9801235
#mb_accession LU047901,LU047902,LU047903,LU047904,LU047905,LU047906

>ms2peaks
56.049500 23116.500000
157.046300 14685.800000
213.036300 69477.900000
217.133400 134814.800000
303.081500 954624.200000
358.160300 99460.600000
375.186300 11155.800000
386.155200 942874.700000
403.181600 10708726.000000

>ms2peaks
55.017800 6609.300000
55.054200 41783.500000
56.049500 1449236.400000
58.065100 25103.100000
67.054100 14489.500000
81.033500 5993.500000
82.065100 215927.200000
84.080700 214216.600000
91.054200 10930.400000
95.012800 4907.400000
95.049200 6130.700000
98.060000 77061.700000
109.044800 19704.000000
110.060000 44580.100000
117.069900 12835.100000
123.024100 16134.000000
124.075600 18374.700000
129.069700 13105.000000
131.085500 195348.600000
133.044800 8605.300000
141.069900 4609.400000
143.085500 23332.800000
145.101300 4495.700000
147.024100 9519.300000
155.085300 33580.400000
157.044400 15512.200000
157.101100 44206.400000
170.052700 8464.400000
171.060300 139335.000000
172.075300 13515.000000
172.111900 100101.900000
174.127700 158192.000000
179.085500 34846.800000
181.101100 8566.200000
190.122400 17606.900000
191.085700 7798.800000
193.101200 5073.800000
199.055300 374985.000000
200.106900 113973.500000
201.071100 4551.800000
204.137700 4707.700000
209.076400 5745.100000
210.127600 42583.100000
213.034500 485861.100000
217.133400 218292.900000
218.117700 17439.000000
226.078200 10339.100000
227.050800 15814.700000
227.085600 11732.700000
230.061600 4556.300000
233.076000 35247.600000
235.091300 23787.000000
238.122300 58646.100000
242.061000 36053.500000
244.068900 7096.000000
246.083200 27485.500000
247.091600 244859.400000
248.099300 7980.400000
249.107400 7847.000000
253.101300 4887.700000
255.080500 9624.600000
256.133200 30492.000000
257.076900 9058.000000
258.083300 5875.200000
259.091500 43370.100000
260.099600 6977.800000
261.107500 68432.300000
270.083900 6267.200000
271.091600 22869.600000
272.099700 12917.600000
273.107200 99221.800000
274.114800 4513.800000
275.086600 126923.400000
275.122600 44374.700000
277.101200 5667.900000
284.100200 6015.700000
285.107300 48411.700000
286.115500 14195.600000
287.087000 12965.400000
287.122800 64519.100000
289.102400 59529.900000
290.097200 17769.200000
292.148900 6909.400000
297.107800 30623.400000
299.122500 30836.000000
300.130800 12963.800000
301.102600 22364.300000
301.138300 9393.700000
303.081400 4488793.000000
311.123400 13008.900000
313.102000 11447.300000
313.138200 20055.900000
314.133300 15261.900000
315.118300 54181.400000
316.149500 74486.200000
317.134500 7575.800000
318.129200 31244.400000
325.103500 6176.100000
329.134100 23669.400000
330.164300 40709.800000
331.112800 443378.800000
335.108300 19227.300000
338.153100 13607.400000
339.117900 7568.900000
340.149300 22360.600000
341.133200 24635.500000
344.143700 18623.500000
347.191900 12719.100000
358.160000 850504.200000
366.149000 12330.700000
375.186400 13121.200000
386.155100 1479220.000000
403.181700 461202.800000

>ms2peaks
53.038500 8273.800000
55.017800 46126.400000
55.054200 100453.700000
56.049400 1434708.400000
58.065100 8744.000000
65.038600 4476.600000
67.054100 34402.900000
68.049400 5250.200000
70.065100 3382.000000
79.017800 2722.600000
79.054200 4937.200000
80.049400 12369.900000
81.033500 20712.500000
82.065100 153065.300000
84.080700 130724.600000
91.054200 109711.700000
95.012700 37148.300000
98.059900 10172.100000
105.033400 3371.700000
105.069900 6444.800000
109.044700 99141.800000
110.060000 26604.700000
115.054100 14867.900000
116.062000 12750.300000
117.069700 41366.600000
118.064800 14526.400000
119.085400 7573.100000
121.044600 7762.800000
123.024000 30629.900000
123.060200 6897.400000
124.075600 7733.800000
128.062000 12343.200000
129.069700 74300.900000
130.064900 12228.900000
131.085500 419900.400000
133.044700 45780.900000
135.060200 13664.300000
141.069800 21212.900000
142.077600 34978.600000
143.073100 8796.100000
143.085500 48811.300000
144.080600 25382.400000
144.093300 4724.900000
145.064300 2979.800000
145.101100 4320.600000
146.059800 4741.400000
147.023800 20594.800000
147.060300 12088.000000
149.039400 4905.400000
153.069800 13269.900000
154.077700 4327.500000
155.048800 5460.900000
155.085400 60517.200000
157.044700 624578.100000
157.101000 95187.300000
158.096500 4009.100000
159.060400 10309.700000
165.069700 23690.100000
166.077700 9350.100000
167.085600 15094.600000
168.056700 3053.800000
169.064600 22085.800000
169.101300 2700.200000
170.052500 142919.600000
171.060300 551344.700000
172.075500 34290.200000
172.111900 232130.500000
174.071200 6701.700000
174.127700 64174.000000
178.077500 5219.700000
179.060300 9586.600000
179.085600 23664.100000
181.064000 5788.700000
181.101100 9078.500000
183.060400 8229.900000
183.080700 3428.200000
186.071000 10522.400000
187.055100 7253.800000
190.122300 24094.000000
191.085300 9517.200000
193.101000 14916.700000
194.071900 2792.000000
199.055300 542984.100000
200.106900 65434.500000
201.071100 6050.200000
202.077700 4096.200000
203.085800 5068.800000
204.137700 3780.600000
207.080200 4641.500000
209.076200 12315.400000
210.127600 8096.400000
213.034500 2072473.500000
214.066000 8308.500000
215.050700 4864.500000
215.085300 4802.200000
217.133100 9946.000000
218.117500 4742.700000
219.080500 3873.400000
220.068400 11555.900000
221.075700 11213.500000
222.084400 7375.000000
225.070000 3970.800000
226.077400 77361.700000
227.050300 61153.900000
227.085300 223767.000000
228.093300 3679.500000
230.061000 6869.000000
233.075900 106806.900000
234.083500 14908.900000
235.091500 70194.900000
238.122100 14357.200000
239.085500 7407.000000
241.101300 12908.200000
242.060800 32019.000000
244.068500 5159.000000
245.060500 7641.400000
245.076200 10257.700000
246.083800 236540.400000
247.091600 1674207.600000
248.099200 21346.100000
249.107300 11675.400000
252.093100 14954.700000
253.101000 18191.200000
255.080300 61991.400000
255.115900 7053.800000
256.134100 3652.200000
257.075800 39279.300000
258.083800 47463.500000
259.091500 100034.700000
260.099500 44771.500000
261.107200 115649.800000
262.102400 3431.200000
265.101500 8503.800000
266.108400 4185.300000
270.083700 38542.600000
271.091500 67070.700000
272.099100 55016.300000
273.070900 10177.400000
273.107100 67207.400000
274.078900 37788.000000
274.114800 24978.400000
275.086500 306841.500000
275.122200 41449.100000
276.093900 11807.400000
283.091400 17158.600000
283.109800 5925.600000
284.099800 19484.500000
285.107200 104200.800000
286.077100 4150.000000
286.115900 24110.500000
287.087300 16702.100000
287.123400 34653.400000
288.094200 12216.200000
289.102200 87234.800000
290.097400 17089.700000
292.148000 3829.900000
295.091800 9242.400000
296.099300 14451.800000
297.106800 23776.900000
299.087100 8169.600000
299.123300 18525.100000
300.094900 3916.600000
300.130500 11869.300000
301.103000 18223.300000
301.139900 5745.100000
302.110200 10806.500000
303.081400 1040446.400000
308.099200 5320.300000
310.114800 3945.500000
311.124000 6332.400000
313.139300 4814.900000
314.109900 6763.100000
314.133100 5650.400000
315.118700 14388.300000
316.149000 11196.200000
317.134600 3351.300000
318.128500 8563.100000
325.103600 5115.100000
329.133000 8797.500000
330.163600 13796.300000
331.112800 120112.700000
338.154000 18571.300000
339.117600 3449.400000
340.149200 9453.800000
341.132200 4063.500000
344.144100 20598.900000
349.123600 6354.000000
358.160100 105854.900000
366.149500 3866.700000
386.154700 27076.100000

>ms2peaks
53.038600 12492.700000
55.017900 46450.600000
55.054200 109848.300000
56.049500 840532.000000
58.065100 4124.900000
65.038500 10514.800000
67.041600 8585.100000
67.054200 29103.300000
68.049500 5626.200000
79.017800 3666.800000
79.054200 11809.400000
80.049400 11979.300000
81.033400 25948.200000
82.028700 13318.200000
82.065100 81791.900000
83.029300 3705.100000
84.080700 52149.500000
91.054200 325236.400000
95.012700 53792.800000
103.054200 21727.700000
105.033400 7986.300000
105.069900 12945.000000
109.044800 128157.200000
110.060000 9171.600000
115.054200 45265.200000
116.062000 63148.600000
117.057100 4299.500000
117.069800 62132.400000
118.065100 19558.100000
119.085600 8617.700000
121.044700 18415.100000
123.024100 27529.500000
123.060200 6666.500000
128.061900 44337.200000
129.069800 156189.000000
130.064900 18183.800000
130.077400 4373.100000
131.085500 263104.100000
133.044800 67579.200000
135.060400 10862.000000
141.069900 46310.500000
142.077700 81928.900000
143.072900 26231.200000
143.085600 41366.700000
144.080700 49406.200000
144.093700 6046.300000
145.044800 6190.000000
145.064800 10211.000000
145.101400 5800.100000
147.024100 37965.200000
147.060400 11962.300000
151.054400 11647.800000
152.061900 13974.500000
153.069700 28898.300000
154.077900 6506.500000
155.049300 13386.000000
155.060400 11075.600000
155.085600 47432.700000
156.080900 8603.500000
157.044800 3572195.500000
158.096400 8013.900000
159.060400 30683.600000
165.069900 47129.900000
166.077800 10010.000000
167.073200 4732.800000
167.085500 10708.700000
169.064800 104162.300000
170.052600 562689.900000
171.060400 398630.100000
172.075600 23409.400000
172.112000 115352.500000
173.051000 3614.000000
174.071400 6357.800000
174.128100 7275.400000
177.070200 7049.800000
178.077400 15662.500000
179.060300 38591.700000
179.085600 26028.500000
181.064900 7919.400000
181.101200 4611.400000
183.060400 12851.800000
183.080000 6151.100000
185.063200 3595.800000
186.071200 6158.800000
187.055500 23303.300000
189.070400 4858.400000
190.077000 4391.100000
191.085300 16374.800000
193.065000 5322.900000
193.101200 6432.700000
194.072200 3734.800000
196.067400 3975.000000
197.051400 6368.400000
199.055300 411555.600000
200.107000 10134.100000
201.070900 4350.300000
202.078000 8766.900000
203.085700 8434.000000
207.080200 6371.600000
209.076400 15596.500000
213.034600 1248618.100000
215.085500 11729.400000
219.080300 6622.600000
220.068100 51529.800000
221.075700 19007.100000
222.084000 5093.500000
225.071400 4342.400000
226.077700 410377.200000
227.050700 40547.400000
227.085400 374846.300000
228.093300 10995.000000
233.076000 145616.300000
234.083900 19899.200000
235.091500 56528.000000
239.085600 23982.100000
240.093800 14733.500000
241.101200 16845.500000
242.061100 8300.300000
244.068900 13051.800000
245.061200 8020.700000
245.076100 42278.000000
246.083900 811332.400000
247.091700 1042022.300000
248.099400 12090.400000
249.107600 6558.400000
252.093300 31284.200000
253.100900 20735.900000
255.080400 52563.300000
255.116400 6949.100000
257.076000 109615.800000
258.083800 64703.200000
259.091600 131784.300000
260.099500 48748.900000
261.107400 47448.200000
262.102300 4109.300000
265.101600 16425.900000
266.108600 7960.900000
270.083700 97208.300000
271.091700 104088.400000
272.099300 43962.700000
273.070700 21648.100000
273.107500 29478.000000
274.078800 50262.800000
274.115100 13089.100000
275.086700 94586.000000
275.123000 7920.800000
276.093600 9013.200000
277.100600 3717.900000
283.091900 41596.900000
283.111900 12587.700000
284.099700 25463.000000
285.107500 72683.200000
286.077600 5434.400000
286.115600 10027.300000
287.123500 5423.600000
288.094400 7308.300000
289.102100 19365.500000
294.083500 3767.900000
295.092300 13987.300000
296.099500 15224.700000
297.108100 15809.000000
299.087200 4848.500000
299.123300 9720.200000
300.095700 4205.600000
301.102700 11491.600000
303.081500 38670.100000
313.102000 10534.800000
331.113400 4197.300000
338.153700 5236.300000
344.144600 4884.700000
358.159500 9561.000000

>ms2peaks
53.038700 13240.000000
55.017900 37595.900000
55.054300 95704.700000
56.049500 514356.500000
65.038600 15588.800000
67.041600 9491.700000
67.054200 18238.100000
79.017900 10547.200000
79.054200 9399.000000
80.049400 11391.600000
81.033500 21590.900000
82.065100 49987.800000
83.029000 13241.300000
84.080900 17678.200000
91.054300 477467.100000
95.012800 52359.100000
95.049300 11078.600000
103.054200 32826.800000
105.033500 8205.900000
105.069900 14176.200000
107.029200 10480.000000
109.044900 104007.800000
115.054300 105866.800000
116.062100 114436.800000
117.069900 50784.200000
118.065000 21593.200000
119.085500 5999.300000
121.044700 18115.400000
123.024300 18025.100000
127.054200 7781.000000
128.062100 103839.700000
129.069900 131676.300000
130.065100 24882.000000
131.029200 7755.800000
131.049300 9199.500000
131.073000 6391.000000
131.085600 79266.900000
133.044800 75339.700000
141.069900 57642.200000
142.065300 6688.400000
142.077800 74860.000000
143.073100 38439.200000
143.085900 15429.500000
144.080800 39196.300000
145.044900 16578.700000
145.065100 17302.500000
146.052700 10901.300000
147.024200 57072.900000
147.060500 10633.700000
150.046400 12740.600000
151.054300 17548.200000
152.062000 35966.200000
153.069700 31634.800000
154.077800 12066.400000
155.049200 7477.100000
155.060600 27663.700000
155.085600 28098.300000
156.036900 8391.400000
156.081300 25549.600000
157.044900 5732332.500000
159.060200 24954.200000
165.070000 67511.200000
166.077500 8325.000000
167.085500 12542.200000
169.064900 175669.700000
170.052700 839303.100000
171.060400 148274.900000
172.075400 7117.800000
172.112100 21909.600000
173.051600 16772.200000
177.070300 6619.400000
178.077700 29682.200000
179.060400 43824.100000
179.085600 13155.900000
181.064500 7514.300000
183.060700 19242.100000
183.080300 6809.000000
185.063200 6432.400000
187.055700 28714.800000
189.069700 10632.900000
190.077600 11445.500000
191.085700 15251.500000
196.068700 11972.100000
197.050800 11137.000000
199.055500 155522.800000
202.078200 14078.100000
203.085800 7217.200000
209.076100 11565.800000
213.034700 210893.000000
215.085600 18033.300000
220.068300 82890.500000
221.076200 25531.200000
225.070500 6311.000000
226.077800 702420.600000
227.050900 14800.800000
227.085600 171514.900000
228.093100 11255.200000
233.076100 144348.700000
234.084100 11796.400000
235.091600 21764.500000
239.085900 51368.600000
240.093500 10551.600000
241.100900 9526.200000
244.068300 33949.400000
245.076300 103807.100000
246.084000 1084048.900000
247.091800 222939.800000
250.078100 6918.600000
252.093100 39314.900000
253.101500 13730.200000
255.080200 25842.300000
257.076200 136582.200000
258.084000 46031.800000
259.076500 6368.800000
259.091900 109541.900000
260.099700 19752.400000
261.107100 6769.900000
265.101100 20882.200000
268.087900 6912.100000
270.084000 148499.000000
271.091700 75099.500000
272.099900 21291.200000
273.071100 26513.600000
273.107600 16155.600000
274.079300 18915.300000
275.086900 23085.400000
276.093100 6204.400000
283.092400 52820.500000
283.111400 9094.200000
284.100900 16911.300000
285.108300 25029.400000
287.086300 8226.700000
294.084000 10597.200000
295.091500 16481.000000
297.107600 7897.300000

>ms2peaks
53.038600 21458.200000
55.017800 29453.400000
55.054300 78369.700000
56.049500 287956.900000
65.038500 34337.700000
67.041600 10499.400000
67.054200 15430.000000
79.017800 11083.900000
79.054200 12584.400000
80.049500 11137.600000
81.033400 18855.200000
82.065100 24316.100000
83.029100 63315.300000
87.023000 9736.000000
91.054200 502444.800000
95.012800 39802.400000
95.049100 18739.500000
103.054200 37470.400000
105.069900 14686.700000
107.029100 73250.800000
109.044800 95224.800000
115.054200 155138.000000
116.062000 137580.000000
117.057300 8623.200000
117.069800 29560.800000
118.065100 16564.500000
121.044800 11511.300000
123.024000 11652.900000
125.038600 13049.200000
127.054200 11840.300000
128.062000 123803.100000
129.069800 89632.100000
130.065100 19898.500000
131.029200 57587.600000
131.085500 22953.900000
133.044800 83259.000000
137.038600 43880.100000
141.069900 84032.400000
142.065000 8961.700000
142.077700 45635.600000
143.072900 33351.300000
144.080600 17541.500000
145.044800 31562.000000
145.064900 23249.000000
146.052500 11827.100000
147.024100 79829.800000
150.046500 55269.900000
151.054300 18471.900000
152.062000 54869.900000
153.069900 29851.900000
155.060500 24181.500000
155.085600 9933.100000
156.036800 25193.500000
156.081100 32482.000000
157.044800 6408764.000000
159.060500 11285.000000
163.055500 11429.900000
165.069900 82109.500000
169.064800 167176.900000
170.052600 880641.400000
171.060500 46965.000000
173.051200 24887.200000
176.062500 6896.000000
178.077500 29561.600000
179.060400 43659.000000
179.085500 10422.600000
183.060500 26971.600000
187.055500 38167.800000
189.069500 20366.300000
190.077400 6702.800000
191.085200 8241.100000
196.068500 11959.800000
197.050600 13378.800000
199.055200 36388.400000
202.077800 21932.100000
209.076200 12574.100000
213.034500 14308.300000
215.085300 17029.000000
220.068200 115354.800000
221.075900 14347.900000
225.070100 6638.300000
226.077700 670259.800000
227.085500 46083.500000
228.093100 12858.900000
231.060400 11436.500000
233.076100 125862.400000
235.091500 7070.200000
239.085500 73021.500000
240.093200 7480.700000
244.068300 101951.100000
245.076100 152024.500000
246.083900 878628.500000
247.091500 35923.400000
250.078000 14650.200000
252.093600 36900.400000
253.101400 8146.100000
255.080400 10389.700000
257.076100 165899.000000
258.083700 29600.100000
259.091800 74678.400000
263.085700 13642.300000
265.100900 13960.900000
270.083900 161897.800000
271.091700 38676.500000
272.099500 8224.300000
273.070900 23382.500000
276.093400 6893.700000
283.091900 53218.900000
284.099600 12402.100000
294.084700 12831.900000
295.092100 6429.300000

