>compound LU35484734
>parentmass 505.0164
>ionization [M+H]+
>formula C23H12Cl2F2N2O5
>rt 1050.780000
>profile orbitrap
#smiles_iso C1=CC=C(C(=C1)C(=O)O)N2C=C(C(=O)C3=CC(=C(C=C32)Cl)NC4=C(C=C(C=C4Cl)F)F)C(=O)O
#smiles_can C1=CC=C(C(=C1)C(=O)O)N2C=C(C(=O)C3=CC(=C(C=C32)Cl)NC4=C(C=C(C=C4Cl)F)F)C(=O)O
#inchikey OEMJXSVJXPIFMA-UHFFFAOYSA-N
#pubchem_id 24798733
#mb_accession LU048001,LU048002,LU048003,LU048004,LU048005,LU048006

>ms2peaks
487.006400 284417.600000
505.017100 3019980.200000

>ms2peaks
443.016400 12340.200000
459.012000 7824.700000
468.993800 2943.300000
487.006300 533691.600000
505.017000 2527560.800000

>ms2peaks
161.991700 58680.400000
224.026300 5009.300000
225.034100 57249.000000
229.029200 7945.100000
241.057400 3215.600000
253.029000 58282.800000
269.024300 6464.700000
311.978900 3720.200000
315.072600 4374.400000
316.080900 26343.000000
317.088600 16334.600000
343.067700 63097.200000
344.076100 12379.000000
345.083100 19711.100000
349.033900 4690.200000
350.042800 3161.600000
351.049500 13434.200000
352.057500 44904.100000
354.036000 2832.000000
356.053800 3137.500000
360.045700 5841.000000
361.011400 4411.900000
361.079100 3491.000000
372.071600 8074.000000
373.078600 16928.100000
375.027100 7299.700000
377.028700 19422.800000
380.052000 13969.500000
385.011200 16249.900000
386.018400 3650.900000
387.026600 25742.900000
388.042100 7095.000000
391.021100 9178.400000
392.998600 3900.500000
396.047800 5452.300000
397.011800 10812.000000
403.022500 6101.000000
406.031900 115394.500000
407.039800 5734.200000
408.046800 15597.000000
413.005800 36610.800000
417.001500 16465.600000
441.000900 48775.300000
443.016400 240470.900000
444.995900 41792.100000
459.011300 194991.900000
468.995600 44836.300000
487.006300 186367.000000
505.017000 975796.500000

>ms2peaks
68.997000 4053.100000
101.019900 5146.600000
105.033300 2790.600000
127.022700 4443.100000
134.980600 13380.300000
144.025600 19092.600000
161.991800 150240.500000
178.065500 12909.500000
180.002200 6545.200000
190.065100 20958.400000
205.076500 4096.000000
206.060200 6788.400000
213.034300 7283.800000
224.026500 11943.600000
225.034100 221089.800000
229.029200 25872.800000
234.055200 9849.200000
240.021400 5599.700000
241.057300 8032.300000
245.025100 3988.300000
246.054400 10792.600000
253.029000 118400.300000
268.043000 3490.700000
269.024200 24225.600000
290.078200 21324.000000
291.072300 2984.000000
296.074500 3194.200000
297.082200 27301.100000
303.072700 3316.700000
304.081500 3604.700000
305.089500 6039.000000
311.978900 9795.400000
314.065100 9841.100000
315.073000 120067.600000
316.081000 164001.400000
317.088800 106957.100000
319.068600 7558.100000
324.039200 4526.100000
325.077000 12417.500000
327.073300 14079.700000
331.043300 9518.900000
331.066900 4597.200000
332.075300 8123.700000
344.075700 41718.300000
345.083500 33653.400000
349.034200 41566.300000
350.042100 15970.500000
351.049400 27302.900000
352.057600 90904.900000
354.036300 8705.100000
356.053000 5409.100000
359.038900 4813.300000
360.023800 3471.100000
360.046300 21969.600000
361.010400 13730.900000
361.078000 2987.100000
362.042400 3018.900000
365.006300 12180.300000
371.063100 16900.700000
372.071400 13937.700000
373.078400 50713.000000
375.026600 9492.000000
377.028900 36912.600000
378.037000 310631.400000
380.052000 8708.800000
385.010800 92286.600000
386.019500 13271.100000
387.027600 12696.000000
388.042600 13550.900000
391.021300 3122.700000
392.999200 8327.700000
396.048100 4488.100000
397.011000 17744.100000
403.021000 4881.100000
406.032100 124132.800000
407.039600 6220.000000
408.046900 7024.100000
413.006000 15528.900000
417.001100 6753.600000
441.001800 4970.800000
443.016400 47167.300000
444.995600 7322.900000
459.011500 23420.100000
468.998600 3068.000000
505.016800 24629.400000

>ms2peaks
68.997000 4911.300000
101.019800 18711.600000
105.033500 3130.200000
116.990200 7297.300000
126.015100 3026.300000
127.022700 10974.600000
134.980800 42857.800000
144.025600 19360.900000
152.062200 3139.200000
161.991700 81648.200000
166.065300 6039.900000
169.064800 5584.500000
177.057300 23497.100000
178.065300 40641.100000
179.073000 4122.000000
180.002200 6534.600000
189.057400 3821.900000
190.065200 130124.000000
201.034500 4868.600000
202.018000 5248.200000
202.046600 4317.600000
204.068200 2663.000000
205.076100 22986.300000
206.059900 20897.200000
207.067800 5988.900000
213.034400 9274.200000
214.046500 13132.700000
218.060200 8719.700000
224.026200 12940.600000
225.034100 197992.500000
229.029200 16669.200000
239.041000 3001.700000
240.021600 11234.900000
240.049400 4647.200000
241.029100 10406.300000
241.057000 8428.500000
245.024800 3140.400000
246.055100 25566.000000
248.007900 3372.200000
253.029100 72302.400000
255.012000 5172.800000
269.024300 11334.200000
269.063500 2395.700000
275.018400 12094.300000
287.054700 7694.200000
288.062200 7178.700000
289.069900 9653.300000
290.078100 60150.600000
291.073400 21369.300000
294.058700 16625.700000
295.066500 21262.200000
296.074100 13407.200000
297.082400 74134.400000
298.090000 13420.600000
302.065300 4729.200000
303.072900 4689.200000
304.080800 13248.800000
305.089000 14189.000000
307.066900 5211.200000
312.049600 2945.900000
313.056200 9093.600000
314.065400 61303.400000
315.073000 488870.200000
316.081000 199749.200000
317.088700 55921.300000
319.068400 5240.400000
320.076400 4373.400000
324.038600 7140.200000
325.076600 21311.300000
326.064400 5816.600000
327.073100 28120.500000
330.035500 12204.100000
331.066500 6796.400000
332.051500 16202.200000
332.075200 5300.200000
333.083400 6412.500000
343.067900 263154.300000
344.076200 28842.700000
345.083500 6973.600000
346.055300 6127.700000
349.034200 66964.800000
350.042500 17128.400000
351.050400 9899.700000
352.057600 12677.400000
359.039000 7912.400000
360.024700 3993.800000
362.041500 5541.100000
371.063300 17661.400000
372.069800 3920.200000
373.078700 10703.300000
377.028500 13986.300000
378.037100 61103.700000
385.010700 59122.700000
397.011700 4424.300000
406.031200 9551.000000

>ms2peaks
68.997000 3990.800000
101.019700 16793.800000
116.990200 5728.100000
126.015100 3026.500000
127.022900 18065.900000
134.980900 52751.100000
144.025700 9881.600000
152.062300 7028.200000
161.991700 30754.800000
166.065300 16330.800000
169.064900 24699.400000
177.057300 58632.300000
178.065300 71952.900000
179.072800 2935.700000
180.002400 5950.600000
189.057400 16657.400000
190.065200 286600.600000
201.034700 7627.800000
202.018100 6293.000000
202.046300 5431.700000
204.068200 3558.000000
205.076200 31028.400000
206.060100 25130.200000
207.068000 4732.400000
214.046400 28130.000000
218.059800 6293.700000
224.026400 15153.300000
225.034200 91161.400000
234.055700 4831.000000
239.041800 10471.900000
240.021300 7486.900000
240.049500 15414.300000
241.029100 4261.800000
241.057900 5306.100000
248.007200 6841.800000
253.029000 19675.500000
255.011900 9617.400000
268.043100 5134.200000
269.064000 26015.900000
275.018400 7096.000000
287.054000 36882.200000
288.063100 25394.600000
289.071100 23174.800000
290.078500 43533.600000
291.073100 24800.600000
294.058900 84627.800000
295.066800 67675.100000
297.082500 85916.400000
298.090400 7112.500000
302.065000 7770.000000
303.072000 9761.600000
304.080500 12354.500000
305.089200 8376.000000
307.067100 4964.900000
312.048800 8387.300000
313.056900 26320.100000
314.065200 130146.500000
315.073100 517191.900000
316.080900 116430.100000
317.089100 9399.100000
320.075600 2583.800000
324.038600 5095.500000
325.077600 16070.700000
326.065500 8572.200000
327.073900 11101.400000
330.035500 17199.000000
331.043500 26519.700000
331.067100 5597.600000
332.051600 3584.500000
333.083800 2969.000000
343.067900 73444.500000
344.074800 12963.100000
346.055900 4370.200000
349.034500 33683.300000
350.041900 6379.400000
365.006000 5640.200000
371.062900 4106.000000
377.029000 3550.000000
385.010800 6775.400000

