>compound LU35464606
>parentmass 312.1376
>ionization [M+H]+
>formula C14H21N3O3S
>rt 970.980000
>profile orbitrap
#smiles_iso CC1=CC=C(C=C1)S(=O)(=O)NC(=O)NN2CCCCCC2
#smiles_can CC1=CC=C(C=C1)S(=O)(=O)NC(=O)NN2CCCCCC2
#inchikey OUDSBRTVNLOZBN-UHFFFAOYSA-N
#pubchem_id 5503
#mb_accession LU027201,LU027202,LU027203,LU027204,LU027205,LU027206

>ms2
61.039600 99881.300000
68.049400 57882.000000
82.065100 23411.100000
91.055000 10721.000000
96.080800 42161.400000
97.088600 379773.400000
98.096400 169743.600000
113.107300 115286.700000
115.123000 1554151.400000
140.118300 15314.300000
141.102200 222553.200000
155.016000 80645.200000
156.113200 169416.000000
157.121000 305979.600000
172.042700 24026.900000
312.137500 8163875.500000

>ms2
55.017800 5729.500000
55.041600 4697.900000
55.054200 5514.000000
56.049500 10579.800000
57.057300 15625.000000
59.060400 11946.300000
61.039600 408448.400000
65.038400 23387.900000
67.054200 18532.800000
68.049400 595820.700000
69.057300 78113.000000
69.069800 47111.500000
70.065100 65102.100000
82.065100 272273.800000
84.080800 9846.700000
91.054200 90986.900000
95.049200 8638.800000
96.080800 288198.400000
97.088600 1418204.500000
98.096400 1058180.600000
99.104200 168304.000000
108.057200 5312.300000
109.064800 195124.300000
113.107300 464270.700000
114.091200 14187.900000
114.115300 7820.100000
115.123000 4385659.500000
119.060400 331035.700000
131.094000 12779.100000
139.086600 60326.500000
140.118300 41776.200000
141.102200 1384416.400000
155.016100 1051438.600000
156.113100 264653.400000
157.120900 248147.600000
172.042600 201534.200000
227.117900 6703.500000
312.137600 1005998.900000

>ms2
53.002200 3875.000000
53.038600 3904.200000
54.033800 11185.600000
55.017800 21906.200000
55.041700 15025.700000
55.054200 31972.400000
56.049500 51130.500000
57.057300 156530.500000
59.060400 69520.600000
61.039600 275591.800000
63.023000 2815.700000
65.038500 141411.800000
67.054200 64572.800000
68.049400 873907.300000
69.057300 140002.000000
69.069800 53106.100000
70.065100 428899.200000
71.023900 4228.800000
71.072800 3765.200000
74.096400 4888.000000
79.054100 4245.100000
81.069800 6632.600000
82.065100 444905.200000
83.072900 4343.800000
83.085500 8146.800000
84.080700 50727.400000
85.064600 3178.800000
85.076000 6097.300000
91.054200 674063.100000
95.049100 23747.700000
96.080800 230993.400000
97.088600 503592.900000
98.096400 1181425.100000
99.104200 888919.200000
108.057000 19222.600000
109.064800 817521.600000
113.107300 418099.400000
114.066300 3014.000000
114.091400 47535.300000
114.115100 24663.900000
115.122900 2763522.800000
119.060400 1202575.600000
120.057400 7197.300000
123.080100 4579.700000
131.094100 66304.500000
139.086600 88993.800000
140.118100 11923.700000
141.102200 1654218.100000
155.016100 774544.400000
156.113000 43933.300000
157.120900 10669.200000
172.042600 63875.700000
227.117800 6561.800000
312.136900 9324.300000

>ms2
53.002200 8753.500000
53.038600 4607.300000
54.033800 28254.400000
55.017800 21853.000000
55.041600 35326.700000
55.054200 76180.800000
56.049500 155578.500000
57.057300 545642.800000
59.060400 154996.800000
61.039600 170204.100000
63.022900 3728.400000
65.038500 259499.900000
67.041600 4738.800000
67.054200 91458.200000
68.049400 810083.800000
69.057200 140195.100000
69.069800 107003.500000
70.065000 1382929.400000
71.023900 11533.200000
71.060300 4000.500000
71.072900 12559.700000
72.068100 8154.500000
79.054000 15109.100000
80.049300 4583.800000
81.069800 19772.100000
82.065100 424147.700000
83.072900 9049.400000
83.085300 9104.300000
84.080700 152878.500000
85.064800 6310.100000
85.075900 13716.100000
91.054200 1854916.000000
93.069800 6385.400000
95.049100 27648.700000
96.080700 174510.900000
97.088600 118850.200000
98.096400 1111768.900000
99.104200 1390453.500000
108.057000 21493.200000
109.064700 856781.400000
113.107200 292269.900000
114.091300 79075.700000
114.115200 23597.500000
115.122900 1399266.400000
119.060300 1183429.500000
120.057400 5630.500000
123.080400 2890.800000
131.094000 82141.300000
139.086600 62827.900000
141.102100 823925.100000
155.016000 171844.800000
156.112800 6130.800000
172.042500 8214.600000
227.117400 3193.900000

>ms2
53.002200 15393.400000
53.038600 7589.500000
54.033800 42213.000000
55.017900 10440.100000
55.041600 43397.000000
55.054200 123287.300000
56.049500 284511.200000
57.057300 815576.400000
58.065200 5079.500000
59.060400 201579.400000
61.039600 112447.700000
63.022900 7815.900000
65.038600 520110.200000
67.041600 7659.200000
67.054200 70333.000000
68.049500 594760.800000
68.062000 36398.400000
69.057300 93159.200000
69.069800 110727.600000
70.065100 2211171.000000
71.024000 22833.500000
71.060300 4662.900000
71.072900 18065.100000
72.068100 11947.100000
74.096300 4655.100000
79.054200 16307.800000
80.049400 7435.700000
81.057400 5231.500000
81.069900 25267.500000
82.065100 315615.000000
83.072900 8713.300000
83.085500 14665.300000
84.080800 230908.400000
85.076100 28631.000000
91.054200 2881350.800000
93.070000 3994.400000
95.049100 17609.200000
96.080800 124523.900000
97.088700 24394.100000
98.096500 894481.500000
99.104300 892540.600000
108.057100 10265.800000
109.064800 504752.500000
113.107300 156016.700000
114.091400 47163.800000
114.115300 15384.500000
115.123000 513699.300000
119.060400 619182.200000
123.080400 3009.600000
131.094100 56670.600000
139.086600 24149.800000
141.102200 204358.100000
155.016200 24349.000000

>ms2
53.002200 24375.100000
53.038500 10901.900000
54.033800 48388.800000
55.041700 43397.600000
55.054200 145233.600000
56.049500 399518.900000
57.057300 864970.000000
58.065200 7106.600000
59.060400 206920.000000
61.039600 69206.300000
63.022900 17540.200000
65.038500 981470.600000
67.041600 8350.000000
67.054200 57395.100000
68.049400 457276.800000
68.062000 37730.000000
69.057300 43285.300000
69.069800 117232.200000
70.065100 2497918.800000
71.024000 21327.800000
71.072900 22501.700000
72.068100 12327.900000
74.096300 3230.500000
79.054000 21065.100000
80.049300 10560.700000
81.057300 9731.100000
81.069900 23075.900000
82.065100 203634.400000
83.073000 6383.400000
83.085300 8580.900000
84.080800 270898.400000
85.076100 20101.700000
91.054200 2877802.200000
93.070100 2970.800000
95.049100 10159.900000
96.080700 70328.400000
97.088600 5333.400000
98.096400 629393.800000
99.104200 318962.000000
108.056900 4282.300000
109.064800 180150.000000
113.107200 56637.500000
114.091400 16878.400000
114.115200 3397.300000
115.122900 140672.000000
119.060400 224329.700000
131.094100 19124.300000
139.086300 4309.900000
141.102200 41507.200000

