>compound LU35299999
>parentmass 334.1349
>ionization [M+H]+
>formula C13H24N3O3PS
>rt 1166.820000
>profile orbitrap
#smiles_iso CCN(CC)C1=NC(=CC(=N1)OP(=S)(OCC)OCC)C
#smiles_can CCN(CC)C1=NC(=CC(=N1)OP(=S)(OCC)OCC)C
#inchikey TZBPRYIIJAJUOY-UHFFFAOYSA-N
#pubchem_id 31957
#mb_accession LU062301,LU062302,LU062303,LU062304,LU062305,LU062306

>ms2
182.128700 1583812.500000
198.105900 2869269.500000
306.103500 1823462.100000
334.134700 64182024.000000

>ms2
114.961300 498089.800000
136.086900 57544.700000
154.097300 106337.400000
164.118300 583492.000000
170.074500 415518.600000
171.023800 60682.700000
182.128800 14664573.000000
196.090700 54484.900000
198.105900 49322560.000000
210.160500 107751.000000
226.137000 80705.500000
260.061700 755307.900000
278.072200 1412740.100000
306.103500 4792656.000000
334.134800 10664527.000000

>ms2
67.029000 191233.400000
71.060300 48598.800000
84.044300 259763.000000
88.021500 53877.400000
95.060300 364926.300000
96.950800 343441.900000
98.096300 93560.200000
99.091600 1162951.200000
100.021500 258890.000000
108.055500 1014428.600000
109.004900 339717.200000
109.039600 59374.300000
109.076000 98337.500000
114.961300 2636466.800000
116.052700 295004.500000
123.091500 58218.600000
124.982100 100771.700000
126.066200 65222.500000
127.032400 50031.800000
128.976900 106619.000000
136.086900 497785.600000
137.070700 89477.500000
139.122900 281912.400000
142.043300 360505.600000
153.048000 136484.600000
154.097400 1732720.600000
157.079400 942413.800000
164.118200 1862040.900000
168.058700 56357.000000
170.074600 6789176.500000
180.112900 51953.600000
182.128800 13532756.000000
196.090500 337383.500000
198.105800 44904380.000000
210.160200 88975.900000
226.137100 71998.100000
260.061600 498658.800000
278.072300 193230.000000
306.103500 109687.400000
334.135000 81497.200000

>ms2
58.995100 70050.000000
59.990200 44794.200000
64.978600 74269.400000
66.033900 28204.800000
67.029000 1366267.800000
68.049400 35258.000000
69.008300 64985.800000
70.065100 207980.700000
71.060300 729946.600000
72.080600 81017.100000
74.096400 332440.700000
78.940100 25252.100000
83.060300 266035.300000
84.044400 1883064.200000
84.985500 70946.400000
88.021600 301145.800000
94.065000 97018.100000
95.060400 1154676.000000
96.950800 786426.100000
97.039600 154221.500000
98.096500 328325.400000
99.091700 6481418.000000
100.021500 2483815.000000
108.055600 3705161.500000
109.004900 629509.900000
109.039600 582644.600000
109.076100 307648.900000
110.966400 66632.300000
111.026300 27961.200000
111.091600 79054.300000
112.021600 74789.200000
112.075800 101528.500000
112.999800 43174.300000
113.016800 241426.700000
114.961300 5077387.500000
115.032400 566349.200000
116.052800 723849.400000
119.060400 47742.700000
120.067900 23564.100000
123.091700 155920.500000
124.982000 30484.200000
125.016800 428467.700000
126.037300 43814.000000
126.066200 548488.700000
127.032500 187356.800000
128.052900 141334.500000
128.977000 180455.800000
136.087000 1201095.000000
137.071000 831329.500000
138.066300 22729.200000
139.123000 965609.600000
141.035500 109439.400000
141.102300 79531.600000
142.043400 2842495.500000
143.063700 73392.800000
152.081800 57214.000000
153.048200 1334134.500000
154.097500 4987726.000000
157.079400 1595060.600000
164.118300 2671374.000000
166.097500 29355.800000
168.059000 335860.300000
169.066800 75309.800000
170.074600 16336260.000000
180.113200 113433.100000
182.128800 7307197.500000
196.090400 446200.900000
198.106000 18639624.000000
232.030200 97623.000000
260.061900 75285.000000
278.072500 25242.200000

>ms2
54.033900 21371.400000
56.049500 27198.900000
58.065200 22867.100000
58.995000 303916.000000
59.990300 136416.000000
64.978700 299595.500000
66.021300 15514.900000
66.033800 132822.300000
67.029000 3856196.000000
68.013100 39647.300000
68.049500 84877.500000
69.008300 264496.400000
70.065100 302367.900000
71.060300 2578993.000000
72.044500 30746.000000
72.080700 75290.000000
74.096400 435695.900000
78.940200 51526.500000
82.065200 38585.600000
82.994900 77933.700000
83.060400 516735.000000
84.044400 3401977.500000
84.985500 379449.900000
85.010700 46081.800000
88.021500 377776.900000
93.044600 19169.600000
94.065200 263934.800000
95.060400 1522632.500000
96.950800 775439.900000
97.039700 218890.100000
98.096500 238244.700000
99.091700 8762867.000000
100.021500 5893985.500000
101.016700 22031.300000
107.060400 17174.600000
108.055600 5651189.500000
109.004900 535169.700000
109.039600 1384690.000000
109.076000 391397.600000
110.047300 25671.600000
110.966400 65376.600000
111.026300 81266.000000
111.091700 55381.600000
112.021600 287933.300000
112.075700 115404.500000
112.999800 31667.100000
113.016800 390557.200000
114.961300 6080772.000000
115.032400 1093080.600000
116.052800 330337.000000
119.060200 70929.100000
120.068200 86783.000000
122.995600 27905.200000
123.091700 101177.100000
125.016800 1656537.200000
126.024600 45808.300000
126.037200 160937.700000
126.066200 885161.100000
127.032400 195842.700000
128.052700 133007.100000
128.976900 216893.500000
132.972000 23962.600000
134.071600 18031.500000
136.021500 101350.700000
136.086900 1039661.200000
137.071000 1341974.600000
138.024500 23314.500000
138.066000 75224.200000
139.123000 679094.100000
141.035400 278767.200000
141.102300 90924.100000
142.043400 4119748.200000
142.992800 14814.100000
143.063700 60542.400000
152.081800 74533.200000
153.048100 2105350.800000
154.043300 336801.200000
154.097500 3096233.800000
157.079400 451874.300000
164.118300 1009448.600000
166.097700 15591.600000
168.059000 494669.200000
169.066600 48300.200000
170.074600 8932865.000000
180.113400 79966.600000
182.128800 1569092.600000
196.090200 221478.600000
198.106000 2975526.200000
232.030000 19184.000000

>ms2
54.033900 50792.700000
56.049400 84586.500000
58.065200 29408.800000
58.995000 530961.100000
59.990200 256079.500000
64.978700 744455.900000
66.021300 22235.400000
66.033800 313414.600000
67.029000 6298792.500000
68.013000 148397.000000
68.049400 119383.800000
69.008300 699879.700000
70.065100 184625.300000
71.060300 3859466.500000
72.044400 16222.400000
72.080700 78308.200000
74.096300 302428.800000
78.940100 172689.300000
82.065100 65014.400000
82.994900 338844.400000
83.060400 437657.100000
84.044400 3791189.200000
84.985500 776295.200000
85.010700 78600.100000
88.021600 261475.700000
93.044800 40940.300000
94.065200 337655.700000
95.060400 1015466.900000
96.950800 796928.100000
97.039700 160746.800000
99.091700 5597066.000000
100.021500 7197097.000000
101.016800 28428.300000
107.060500 28047.700000
108.055600 4689336.500000
109.004900 418793.800000
109.039700 1773768.800000
109.076000 273040.300000
110.047600 30646.000000
110.966500 49425.300000
111.026400 51309.600000
111.091700 27947.000000
112.021500 317411.600000
112.075800 63530.100000
113.016800 319901.600000
114.961300 5909158.000000
115.032400 1058655.900000
116.052800 72798.300000
119.060400 66666.700000
120.068200 99433.800000
122.995400 29583.400000
125.016800 2964754.800000
126.024800 47269.300000
126.037200 175263.000000
126.066200 537306.800000
127.032400 133404.700000
128.053000 70711.300000
128.977000 227434.000000
132.971800 28116.200000
134.071400 21688.900000
136.021600 121342.200000
136.086900 428699.200000
137.071000 941051.200000
138.024600 27624.000000
138.066300 115692.700000
139.123100 215928.600000
141.035400 337844.500000
142.043400 2561910.500000
143.063800 33797.700000
152.081900 62839.300000
153.048100 1339760.000000
154.043300 480234.900000
154.097400 1070902.600000
157.079400 66120.500000
164.118100 188764.100000
168.059000 441755.600000
170.074600 2320936.000000
180.113400 29384.700000
182.128900 210347.700000
196.090500 38501.600000
198.105900 273075.100000

