>compound LU35539252
>parentmass 152.0706
>ionization [M+H]+
>formula C8H9NO2
>rt 482.460000
>profile orbitrap
#smiles_iso CC(=O)NC1=CC=CC=C1O
#smiles_can CC(=O)NC1=CC=CC=C1O
#inchikey ADVGKWPZRIDURE-UHFFFAOYSA-N
#pubchem_id 11972
#mb_accession LU069501,LU069502,LU069503,LU069504,LU069505,LU069506

>ms2peaks
65.038700 4203.200000
82.065100 2934.000000
92.049500 8784.700000
93.033600 4004.100000
110.060100 1421741.400000
111.044000 22088.500000
134.060000 41811.300000
152.070600 2658040.800000

>ms2peaks
65.038600 6413.800000
82.065000 3522.000000
92.049600 10895.900000
93.033600 6349.400000
110.060000 1754351.800000
111.044100 25118.800000
134.060000 49713.000000
152.070600 3287439.500000

>ms2peaks
65.038500 29496.300000
67.054100 4272.500000
82.065100 22822.200000
92.049500 57549.500000
93.033600 30666.300000
109.052200 5690.300000
110.060100 3100476.000000
111.044000 95369.700000
134.060100 69237.900000
152.070600 1458147.000000

>ms2peaks
65.038500 154117.800000
67.041600 4003.000000
67.054100 9910.500000
80.049400 4587.700000
82.065100 79837.100000
92.049500 210311.100000
93.033500 124987.700000
93.057400 9592.100000
109.052400 12829.000000
110.060100 2902807.800000
111.044000 350047.200000
125.059500 3834.800000
134.060000 51235.600000
152.070600 298543.000000

>ms2peaks
55.017900 3223.300000
55.054300 3879.500000
65.038600 562555.100000
67.041600 13239.600000
67.054200 21435.600000
68.049500 3801.100000
69.033300 2257.900000
80.049400 14643.700000
81.057400 7464.100000
82.065200 131727.400000
83.049100 5759.100000
92.049500 337244.900000
93.033600 216570.500000
93.057300 31282.700000
107.048900 2033.700000
109.052300 38474.500000
110.060100 1900448.000000
111.044000 585536.200000
125.059800 8152.200000
134.060000 29445.500000
152.070700 46195.000000

>ms2peaks
53.002300 5429.800000
55.017900 5489.600000
55.054200 8860.200000
65.038500 1162695.200000
67.041600 34927.900000
67.054200 16375.300000
68.049400 3105.400000
69.033600 2956.700000
79.017700 2444.400000
80.049400 28169.700000
81.057300 11095.000000
82.065100 138112.400000
83.049100 7756.500000
92.049500 362005.800000
93.033500 201679.500000
93.057300 61073.400000
109.052300 68088.800000
110.060000 960821.100000
111.044000 596026.800000
125.059600 6764.100000
134.060200 7582.500000
152.070700 4657.300000

