>compound LU35729982
>parentmass 330.05929999999995
>ionization [M+H]+
>formula C10H20NO5PS2
>rt 1079.160000
>profile orbitrap
#smiles_iso CCOC(=O)N(C)C(=O)CSP(=S)(OCC)OCC
#smiles_can CCOC(=O)N(C)C(=O)CSP(=S)(OCC)OCC
#inchikey KLGMSAOQDHLCOS-UHFFFAOYSA-N
#pubchem_id 17434
#mb_accession LU121301,LU121302,LU121303,LU121304,LU121305,LU121306

>ms2peaks
116.034300 3816.800000
170.970000 3137.100000
198.964800 5341.800000
199.001200 8044.000000
226.996000 38805.100000

>ms2peaks
114.961300 7807.600000
116.034300 9944.200000
132.011400 4659.400000
142.938500 6644.300000
156.954800 2299.400000
170.970000 9400.100000
171.024000 4503.600000
198.964600 7016.300000
199.001200 5362.100000
226.995500 2647.000000

>ms2peaks
114.961400 21008.400000
116.034200 11234.700000
128.922900 3463.500000
132.011500 3753.500000
142.938600 19169.700000
156.954200 3537.600000
170.970100 3267.500000
171.024300 2571.500000

>ms2peaks
58.028700 2840.300000
114.961400 17035.700000
116.034200 3750.400000
128.922800 2784.100000
142.938700 7309.700000

>ms2peaks
58.028800 4912.300000
114.961400 26935.700000
116.034300 2878.000000
128.923100 4068.000000
142.938600 3846.300000

>ms2peaks
58.028800 4193.400000
114.961500 20199.600000
116.034100 2216.000000
128.922800 2228.300000

