>compound LU35943241
>parentmass 210.11249999999998
>ionization [M+H]+
>formula C11H15NO3
>rt 910.560000
>profile orbitrap
#smiles_iso CC(C)OC1=CC=CC=C1OC(=O)NC
#smiles_can CC(C)OC1=CC=CC=C1OC(=O)NC
#inchikey ISRUGXGCCGIOQO-UHFFFAOYSA-N
#pubchem_id 4944
#mb_accession LU036501,LU036502,LU036503,LU036504,LU036505,LU036506

>ms2
111.044000 9788.400000
153.090700 3919.000000

>ms2
83.085700 1614.800000
111.044200 14855.600000
128.107400 3346.900000
153.090800 1714.500000

>ms2
83.085500 2979.100000
111.044200 16175.300000
128.107300 2842.800000
140.107000 4078.700000

>ms2
58.028600 1750.200000
83.085700 1855.200000
93.033800 1927.800000
98.060300 3255.900000
111.044100 14753.200000
140.107100 5598.300000

>ms2
55.054200 1684.600000
65.038600 5014.800000
93.033500 3770.400000
98.060000 5497.300000
111.044100 8788.000000
140.107200 3835.500000

>ms2
55.054200 2435.800000
58.028600 1422.900000
65.038600 8221.100000
98.060000 4107.000000
111.044200 4448.800000

