>compound LU35615217
>parentmass 321.2173
>ionization [M+H]+
>formula C18H28N2O3
>rt 1065.660000
>profile orbitrap
#smiles_iso CC1=CC=C(C=C1)C(C)NC(=O)[C@H](C(C)C)NC(=O)OC(C)C
#smiles_can CC1=CC=C(C=C1)C(C)NC(=O)C(C(C)C)NC(=O)OC(C)C
#inchikey NWUWYYSKZYIQAE-WMCAAGNKSA-N
#pubchem_id 10958189
#mb_accession LU048201,LU048202,LU048203,LU048204,LU048205,LU048206

>ms2peaks
116.070600 28220.300000
117.102300 5929.400000
119.085600 267176.800000
144.065600 34369.700000
158.117800 9220.700000
171.138000 9835.300000
186.112700 56152.300000

>ms2peaks
72.080700 7182.700000
91.054300 2615.700000
98.060100 2131.000000
116.070700 75000.900000
117.070000 2408.400000
117.102200 13490.700000
119.085600 308606.600000
144.065500 19811.700000
158.117700 7699.100000
171.138000 8997.200000
186.112400 3227.200000

>ms2peaks
72.080800 20513.100000
91.054200 19816.700000
98.060100 11191.200000
116.070700 89360.200000
117.069800 13506.300000
117.102300 5931.600000
119.085600 418795.400000
125.015300 6031.800000
171.138000 4801.800000

>ms2peaks
55.054200 5306.000000
57.069900 2054.600000
72.080800 22671.700000
79.054200 3588.800000
91.054300 48158.800000
93.070000 3366.500000
98.060100 20788.600000
103.054100 3628.000000
104.062200 3692.300000
116.070700 29893.700000
117.070000 37655.500000
117.102200 2346.700000
119.085600 280422.400000
126.018500 2491.200000

>ms2peaks
55.054300 14134.600000
57.069900 3611.900000
65.038600 2907.100000
72.080800 33700.800000
79.054200 7877.100000
91.054300 128818.400000
93.070000 6033.500000
95.049200 3653.100000
98.060100 19025.100000
103.054300 13039.100000
104.062000 10214.700000
109.065000 2469.300000
115.054600 5614.600000
116.070700 12483.500000
117.069900 72540.400000
119.085600 199268.000000

>ms2peaks
55.054300 21401.400000
57.070000 1845.900000
65.038500 9247.000000
72.080800 25833.100000
79.054200 9766.200000
91.054300 144794.000000
93.069900 9366.400000
95.049200 11156.400000
98.059900 6640.500000
103.054300 29234.000000
104.062000 21620.800000
109.064600 4091.400000
115.054300 16429.000000
116.070800 3499.700000
117.069900 68083.000000
119.085600 88584.200000
125.015300 4186.400000
126.018700 2049.400000

