>compound LU36814613
>parentmass 289.1039
>ionization [M+H]+
>formula C12H20N2O2S2
>rt 973.800000
>profile orbitrap
#smiles_iso C1CCC(=O)N(CC1)SSN2CCCCCC2=O
#smiles_can C1CCC(=O)N(CC1)SSN2CCCCCC2=O
#inchikey LGBYJXBCVZKJBL-UHFFFAOYSA-N
#pubchem_id 90282
#mb_accession LU050301,LU050302,LU050303,LU050304,LU050305,LU050306

>ms2
96.080800 30825.200000
114.091600 3648.300000
148.025200 4948.500000
176.020000 32444.800000
289.103300 8774.500000

>ms2
82.065200 2930.400000
83.073000 4668.900000
96.080800 57483.900000
114.091400 3482.200000
148.025000 4581.700000
176.020000 5168.800000
289.102600 3211.200000

>ms2
69.069800 3841.300000
82.065200 6647.600000
83.072900 8899.700000
96.080800 50290.900000
114.091500 6225.300000
148.025200 3439.500000

>ms2
55.054200 2467.400000
56.049600 2825.000000
61.010600 1833.800000
69.069900 6249.300000
82.065200 7848.500000
83.072900 9027.100000
96.080800 25425.400000
114.091400 3945.300000

>ms2
55.054300 5508.500000
56.049500 2813.100000
69.069900 8083.500000
82.065200 6406.800000
83.072900 6087.300000
96.080900 12714.100000
114.091500 2757.700000

>ms2
55.054300 6506.700000
56.049500 2176.200000
61.010700 1846.600000
69.070100 8240.700000
82.065300 6633.000000
83.072900 2636.700000
96.081000 5370.600000
114.091300 2178.300000

