>compound LU36077964
>parentmass 330.11000000000007
>ionization [M+H]+
>formula C19H14F3NO
>rt 1008.360000
>profile orbitrap
#smiles_iso CN1C=C(C(=O)C(=C1)C2=CC(=CC=C2)C(F)(F)F)C3=CC=CC=C3
#smiles_can CN1C=C(C(=O)C(=C1)C2=CC(=CC=C2)C(F)(F)F)C3=CC=CC=C3
#inchikey YWBVHLJPRPCRSD-UHFFFAOYSA-N
#pubchem_id 43079
#mb_accession LU070401,LU070402,LU070403,LU070404,LU070405,LU070406

>ms2
315.085000 52505.100000
329.102900 52744.900000
330.109700 46723812.000000

>ms2
309.094500 50050.600000
310.103700 907977.600000
315.085700 78324.300000
329.103900 55640.200000
330.109900 49588992.000000

>ms2
242.096100 183872.800000
249.070500 46732.800000
260.107100 33767.500000
262.102500 94728.800000
270.091500 46302.100000
275.072700 54591.600000
287.091200 77483.100000
289.091200 44709.500000
290.097500 1726620.500000
302.114800 188052.500000
309.096000 1802683.200000
310.103700 11426508.000000
315.086300 42437.300000
329.102700 33388.200000
330.109900 31301384.000000

>ms2
53.038500 13377.900000
91.054200 296742.200000
95.049000 36494.500000
103.054200 133134.100000
104.049300 23033.200000
105.033400 29486.200000
115.054200 219698.800000
116.062000 41995.100000
117.057200 28631.400000
117.069700 32471.800000
118.065100 177533.000000
128.062000 33542.300000
129.069900 128951.000000
130.065300 15720.200000
131.049100 14651.700000
131.072900 12931.700000
132.080800 18541.100000
133.044700 20773.400000
143.072900 32428.000000
145.025400 13303.800000
151.035400 85399.700000
156.080700 23849.600000
157.088600 30728.100000
159.041500 108640.900000
159.060700 45256.100000
164.043000 17607.400000
165.050900 55742.800000
166.045800 14770.700000
171.041500 100261.800000
172.036900 23553.000000
173.021000 45701.000000
177.051200 28264.100000
183.041600 191238.100000
184.055500 42084.000000
186.052800 50834.200000
191.085400 48415.700000
192.093400 38390.500000
197.057600 50307.900000
201.069800 29594.000000
202.077700 200066.500000
203.085400 14092.600000
204.062000 20905.100000
204.093000 37586.400000
208.111700 40212.000000
209.075600 26238.000000
209.115600 65066.500000
212.050600 23190.000000
215.085700 209042.200000
216.080800 41341.400000
216.093500 46014.900000
217.088300 32027.400000
218.096900 51226.600000
219.080300 15320.600000
220.068300 146102.800000
221.064700 18598.200000
221.076200 309995.200000
227.072700 42786.400000
229.064900 16720.300000
231.104100 18651.100000
232.056400 15431.200000
232.112000 49184.300000
233.076200 82281.800000
233.119700 54367.900000
234.071900 13079.100000
234.084100 29644.200000
235.092000 21754.500000
242.096400 1581225.900000
243.067900 13501.800000
243.081400 18577.500000
243.104300 26302.600000
244.075400 39474.300000
245.083600 33289.400000
246.090900 13616.300000
247.079100 127675.800000
248.063400 40105.700000
249.071000 358181.400000
251.066100 72089.100000
253.082600 16095.500000
255.066700 14471.900000
258.072300 16027.800000
258.091400 20567.000000
259.074600 51177.100000
259.099200 230952.600000
260.087200 52290.400000
260.107000 336219.900000
261.071200 39772.100000
261.094800 296341.800000
262.079400 192522.600000
262.102600 903637.900000
263.086500 40629.100000
266.077400 35126.400000
267.085200 46392.300000
269.083300 41527.300000
270.064800 29824.700000
270.091300 509743.300000
272.070200 13374.600000
272.087300 50246.500000
273.094800 120040.000000
274.066000 131203.900000
275.074000 511868.200000
276.082300 14360.600000
280.093500 17619.700000
281.100900 18674.900000
282.109000 68439.500000
286.083900 194206.700000
287.091700 1027152.000000
288.082300 118433.200000
289.089900 459693.600000
290.097600 4493936.500000
291.089100 172660.200000
292.093300 20212.100000
294.072400 527732.900000
295.080200 139222.400000
300.100900 44248.000000
301.107900 31375.200000
302.115200 337322.600000
308.088000 81173.700000
309.096000 12087078.000000
310.103800 11183338.000000
312.099800 12681.800000
314.078900 132464.700000
315.086100 72703.200000
328.094200 59268.500000
330.110100 7997170.000000

>ms2
53.038600 86681.200000
65.038500 43667.300000
77.038500 31824.500000
79.054100 14798.600000
89.038500 29266.000000
90.046400 17616.900000
91.054300 931917.600000
95.049200 203156.600000
102.046300 51641.000000
103.054200 668424.100000
104.049500 95122.200000
105.033500 92546.300000
105.070000 56406.100000
109.044800 89093.400000
113.038600 10422.400000
115.054300 1036358.700000
116.049400 28450.000000
116.062100 241846.700000
117.057300 171664.700000
117.069900 106439.800000
118.065100 251522.300000
121.044800 9440.800000
125.019800 9918.200000
127.035300 28535.500000
127.054300 18248.400000
128.062000 146276.100000
129.033300 10962.800000
129.069900 215247.400000
130.065100 85516.300000
130.077300 14874.100000
131.049000 15238.800000
131.073200 55079.300000
132.080800 23819.100000
133.044800 145291.500000
139.054100 31323.200000
140.049400 28494.900000
140.062100 10302.800000
141.069600 31616.100000
143.073100 64177.000000
144.056800 26699.800000
144.080900 19771.500000
145.026000 99760.900000
145.044700 11575.400000
145.064600 18156.200000
146.052600 11409.500000
151.035500 569422.400000
153.057200 9794.400000
154.065100 46411.100000
155.072800 16085.700000
156.080800 71447.400000
157.026100 13802.400000
157.044900 30415.900000
157.088600 68225.000000
158.040000 35837.700000
159.041700 336477.600000
159.060300 62160.500000
163.035700 13011.100000
163.055300 16759.200000
164.043300 88759.400000
165.051100 156933.500000
165.069800 53712.500000
166.046300 32640.900000
166.065100 10041.100000
167.072900 39673.900000
168.080700 31434.300000
169.045500 21219.300000
170.033800 34687.600000
171.041600 248819.300000
172.036900 40478.900000
173.021400 51422.200000
177.051200 81675.500000
178.046100 18609.500000
178.077600 14882.600000
180.062300 17533.300000
182.033900 16313.300000
182.059500 14113.800000
183.041600 358464.900000
184.047600 16439.500000
184.075800 13209.900000
185.044900 11328.600000
185.063900 42287.500000
186.053200 70507.900000
189.069700 71926.900000
190.077600 34797.700000
191.085500 274351.500000
192.093100 104423.400000
197.056800 78674.800000
198.052600 21448.300000
200.061900 28639.500000
201.059600 12142.200000
201.069800 49432.700000
202.077700 576931.000000
203.085500 46883.400000
204.062200 34844.100000
204.093400 58022.900000
205.064800 25908.700000
205.088700 9260.600000
206.096100 11486.500000
208.036800 11632.300000
208.111900 32694.200000
209.075900 33810.400000
209.115400 52884.300000
212.051300 17497.300000
214.078000 22497.000000
215.085500 495843.200000
216.080700 93549.700000
216.093200 45268.800000
217.088700 257528.100000
218.072000 44166.900000
218.096600 149054.500000
219.080400 60546.600000
220.068300 640020.200000
221.076100 351234.200000
223.055500 11110.300000
224.068200 20593.700000
225.075700 14780.800000
226.078200 10674.900000
227.073200 183152.300000
228.080800 29450.000000
229.065500 17252.900000
230.061300 11306.000000
230.095900 42914.800000
231.080900 16537.800000
231.104300 59496.900000
232.056800 17981.300000
232.112400 109243.100000
233.057600 20790.300000
233.076100 245783.900000
233.119900 54926.300000
234.071500 21563.700000
234.082800 18786.300000
235.079600 18013.600000
235.091800 34055.900000
236.085800 10118.200000
238.058800 14603.800000
241.089000 429036.200000
242.096400 1205095.400000
243.067600 33221.000000
243.080000 16042.700000
243.103300 20405.000000
244.076500 40698.600000
245.063400 30857.700000
245.084000 154494.300000
246.070100 197122.500000
246.092300 57008.200000
247.079200 435278.100000
248.063200 74322.500000
248.086800 28152.300000
249.071000 255994.100000
251.066500 149753.700000
252.062400 17363.000000
253.082400 12819.600000
255.068000 30537.700000
256.074900 15752.300000
257.084300 8917.400000
258.072100 33181.400000
258.091500 167138.000000
259.075700 158328.000000
259.099200 1635826.500000
260.087000 235383.700000
260.107000 446972.100000
261.071800 68961.200000
261.094900 554064.400000
262.079300 220249.600000
262.102700 762059.900000
263.086500 29656.100000
266.077800 147498.000000
267.062100 24601.500000
267.085400 88164.300000
268.074600 11659.400000
269.083900 66537.100000
270.066200 96450.900000
270.091300 450265.100000
271.078100 37119.000000
272.068300 23929.300000
272.087000 94187.400000
273.094900 87582.500000
274.066300 400502.300000
275.074200 483011.200000
276.082100 56709.400000
277.073000 31930.400000
280.093300 137574.200000
281.101200 35057.300000
282.108900 60234.900000
283.072900 19933.900000
285.075400 70972.300000
286.083900 545637.800000
287.091800 1051965.900000
288.082000 238519.200000
289.089900 435560.800000
290.097700 1117973.600000
291.089100 1562267.400000
292.093600 52316.700000
293.065500 18819.400000
294.072600 3300642.000000
295.080500 125831.300000
298.084300 19123.000000
300.099300 72196.300000
301.107300 30617.800000
302.114900 57465.100000
307.080700 13339.100000
308.088400 295554.000000
309.096100 8867992.000000
310.103800 1535623.600000
311.091200 16172.400000
312.099500 16860.100000
314.078700 352300.000000
315.085800 46953.000000
328.094800 89301.200000
330.110100 583985.500000

>ms2
51.023000 24189.100000
53.038600 246691.700000
65.038500 207788.000000
77.038500 142161.800000
79.054200 39522.000000
89.038600 112369.600000
90.046400 88949.000000
91.054300 1665152.000000
94.041300 32209.200000
95.049200 710551.200000
102.046400 303542.700000
103.054200 1273844.000000
104.049500 133684.600000
105.033600 91709.100000
105.070000 62994.000000
109.044800 311470.000000
113.038300 13065.600000
115.054200 2316911.500000
116.049500 121075.100000
116.062100 319956.100000
117.057300 394582.300000
117.069800 97895.300000
118.065100 200283.100000
121.044700 13099.500000
125.019700 21808.000000
127.035400 47822.900000
127.054300 28317.900000
128.062000 339947.500000
129.033600 30963.300000
129.069900 198417.200000
130.065200 153928.000000
130.077500 10925.100000
131.049200 29036.300000
131.073000 62817.300000
132.081200 16667.300000
133.044800 380774.400000
139.035400 49140.900000
139.054300 84164.700000
140.049500 122441.500000
140.061800 16290.100000
141.069700 25948.700000
143.072900 60683.100000
144.057100 23325.600000
144.080800 33067.900000
145.026000 339157.800000
145.044800 35948.300000
145.065000 59520.400000
146.052600 29457.100000
151.035400 1629359.000000
153.057300 32003.200000
154.065200 99071.400000
155.073000 28453.000000
156.080900 111724.500000
157.026100 28177.000000
157.044800 117385.900000
157.088700 56421.600000
158.040200 87104.900000
159.041700 487442.800000
159.060600 69322.300000
163.035500 35773.900000
163.055200 30272.800000
164.043200 219256.100000
165.051100 143357.700000
165.070000 163746.400000
166.046500 54042.100000
166.065300 19089.200000
167.072900 49668.000000
168.080700 17180.100000
169.045800 90465.500000
170.033800 58311.800000
171.041600 248776.200000
172.036800 74606.600000
173.021100 37864.300000
177.051100 153490.800000
178.046500 16631.300000
178.077900 27593.600000
180.062300 11716.600000
182.033600 77557.000000
182.060300 34113.200000
183.041500 402252.700000
184.047600 14908.000000
184.056300 140348.300000
184.075600 24375.300000
185.044900 37682.100000
185.063800 55998.300000
186.054700 78914.300000
189.069900 307546.200000
190.077600 129161.300000
191.085600 616515.300000
192.093300 61634.600000
197.057400 68337.900000
198.052200 16042.500000
200.062000 174926.000000
201.059300 14530.900000
201.069700 111756.700000
202.077700 867748.900000
203.085500 129869.800000
204.062500 40031.100000
204.093300 59949.700000
205.064800 53361.900000
205.088200 16987.300000
206.096600 12677.700000
207.059800 41873.300000
208.037100 17574.100000
208.112000 42535.600000
209.075900 30632.200000
209.115600 53850.500000
214.077800 53974.800000
215.085500 553101.000000
216.080700 201601.200000
216.091600 14819.000000
217.088600 766377.100000
218.072800 88020.700000
218.096300 144634.900000
219.080100 94547.400000
220.068200 1098767.100000
221.064300 18597.500000
221.075900 175927.500000
223.055600 29800.500000
224.068400 44323.700000
225.076300 14928.300000
226.077200 18353.500000
227.073000 390171.200000
228.080800 68884.900000
229.064400 13560.700000
230.060500 14794.800000
230.096400 232507.800000
231.080500 96504.300000
231.104000 87835.600000
232.111900 92571.100000
233.057300 41342.900000
233.076100 357899.100000
234.071400 14829.600000
234.083000 18524.500000
235.079200 20284.000000
235.090100 8985.000000
236.087300 11198.500000
238.058400 108662.000000
241.088700 454401.800000
242.096100 502303.100000
243.067800 72006.900000
243.080800 16901.900000
243.103900 9379.500000
244.076600 256904.500000
245.063300 96660.000000
245.083600 251533.500000
246.070800 455299.000000
246.092500 66131.600000
247.079100 465802.200000
248.062600 42528.300000
248.086700 47596.800000
249.071000 119639.400000
251.066400 194740.400000
252.062100 21470.800000
255.067900 27972.900000
256.075100 16510.700000
257.083500 93791.800000
258.091400 878129.600000
259.075800 232314.000000
259.099200 2690711.500000
260.087000 362729.000000
260.106900 297068.700000
261.071200 66432.300000
261.094700 334346.500000
262.078400 65762.600000
262.102500 307990.800000
266.077700 282161.600000
267.061600 162555.600000
267.085700 38299.500000
268.075500 24710.700000
269.083700 57303.700000
270.065000 94865.200000
270.091100 149638.000000
271.078600 44998.100000
272.068400 45746.200000
272.086700 72975.000000
273.094400 25767.300000
274.066300 659113.200000
275.074400 169273.700000
276.082000 63952.900000
277.073200 66451.400000
280.093200 271210.200000
281.101100 21516.400000
283.073300 31217.100000
285.076000 222878.500000
286.083800 417977.700000
287.091500 339102.700000
288.082000 265031.700000
289.089900 119659.600000
290.097300 149005.800000
291.089000 2761882.000000
292.093400 34541.500000
293.064800 80663.700000
294.072500 4644838.000000
295.079800 38959.100000
298.083800 24076.900000
300.099700 53315.600000
302.114800 9792.100000
307.080000 26375.400000
308.088100 301741.800000
309.096000 2104095.800000
310.103500 82103.200000
311.091900 11644.800000
314.078900 351340.000000
315.085800 20402.400000
328.094300 71786.700000
330.110200 22687.200000

