>compound LU36142187
>parentmass 301.0754
>ionization [M+H]+
>formula C14H12N4O2S
>rt 839.100000
>profile orbitrap
#smiles_iso C1=CC=C2C(=C1)N=CC(=N2)NS(=O)(=O)C3=CC=C(C=C3)N
#smiles_can C1=CC=C2C(=C1)N=CC(=N2)NS(=O)(=O)C3=CC=C(C=C3)N
#inchikey NHZLNPMOSADWGC-UHFFFAOYSA-N
#pubchem_id 5338
#mb_accession LU041201,LU041202,LU041203,LU041204,LU041205,LU041206

>ms2
92.049700 25825.100000
94.065200 7786.700000
108.044300 45911.700000
146.071300 145724.500000
152.081600 6658.700000
156.011400 2227102.000000
208.017500 13119.400000
226.027800 7080.300000
235.097900 28189.500000
301.075400 4988713.000000

>ms2
53.038600 6474.300000
65.038400 16555.200000
68.049500 80490.900000
78.033700 11332.900000
79.017800 10355.900000
92.049400 179889.900000
94.065100 21846.300000
96.044400 10656.400000
108.044400 650282.600000
110.060100 28414.800000
120.055700 14163.800000
144.055500 8181.300000
145.063400 10044.400000
146.071300 530505.500000
152.082000 7984.400000
156.011300 5780991.000000
174.021900 6492.700000
208.017400 46199.900000
226.028100 54394.300000
235.097900 79203.700000
237.113500 19299.100000
301.075400 1131347.200000

>ms2
53.002200 9227.800000
53.038600 25011.600000
54.033800 23565.200000
55.017900 25877.400000
65.038600 165425.700000
67.017800 9664.900000
67.041600 2795.000000
68.049500 484545.100000
69.033500 39832.500000
74.096200 3473.800000
78.033900 52428.900000
79.017900 79805.200000
80.049500 31491.400000
81.033300 3896.400000
82.028900 11708.400000
92.049500 1159768.100000
93.057300 8717.400000
94.065200 30466.100000
95.036600 15436.400000
96.044400 66155.200000
107.036700 3456.700000
107.060400 4964.500000
108.044400 2777977.200000
109.052200 10976.900000
110.060100 307245.200000
118.052500 25566.700000
119.060600 4268.700000
120.055700 71411.900000
124.075900 5624.100000
129.045100 3342.300000
144.055700 61820.300000
145.063600 83300.300000
146.071300 633209.100000
147.055400 7307.200000
152.082100 6358.200000
156.011400 1972197.100000
162.066100 14594.200000
208.017900 16660.100000
226.028200 35250.500000
235.098000 59830.600000
237.113900 9541.500000
301.075300 10264.700000

>ms2
53.002200 15141.400000
53.038600 24929.100000
54.033800 20397.300000
55.017800 24652.600000
65.038600 637331.600000
67.017800 5717.700000
67.041600 7431.000000
68.049500 423495.300000
69.033500 29917.100000
74.096300 2913.400000
78.033800 49839.400000
79.017800 72629.300000
80.049400 126978.300000
81.033500 4437.600000
82.028800 13983.300000
83.049100 3657.500000
90.033800 3698.000000
92.049500 1764738.900000
93.057300 11076.200000
94.065100 17553.500000
95.036600 16449.200000
96.044400 62872.400000
107.060400 5829.700000
108.044400 2709170.800000
109.052200 16660.000000
110.060000 633387.700000
117.044700 9148.900000
118.052500 105212.100000
119.060400 11108.300000
120.055600 70662.200000
124.075800 13723.600000
129.044600 13458.900000
130.039500 3274.600000
131.060500 5260.700000
144.055600 45475.500000
145.063400 68527.200000
146.071300 521722.600000
147.055300 55510.700000
156.011400 273469.900000
161.070600 3472.900000
162.066200 8087.800000
226.027600 5614.100000
235.097700 33128.800000

>ms2
53.002300 16170.100000
53.038600 17240.400000
54.033900 10650.000000
55.017900 12992.000000
55.054300 2535.700000
56.049500 4953.000000
63.022900 3952.900000
65.038600 1804617.500000
66.033900 2987.100000
67.017800 3571.300000
67.054200 3870.200000
68.049500 221038.200000
69.033500 18282.600000
74.096400 2279.300000
78.033800 25320.500000
79.017900 38818.000000
80.049500 435344.700000
81.033600 3264.800000
82.028800 7675.900000
83.049200 6974.600000
90.033900 15160.900000
91.041700 4357.700000
92.049500 2058170.900000
93.057400 17658.000000
94.065400 10984.300000
95.036600 9231.200000
95.049200 2835.100000
96.044500 34634.400000
102.034100 2992.700000
107.060500 7374.100000
108.044400 2109894.000000
109.052300 20394.100000
110.060100 628301.000000
117.044800 22488.700000
118.052600 188156.500000
119.060500 11686.900000
120.044500 4835.000000
120.055700 36603.800000
124.075800 23421.400000
129.044800 80921.600000
130.040300 13243.800000
131.060500 4107.200000
135.055100 3954.300000
144.055700 28089.300000
145.063400 23965.600000
146.071400 353056.700000
147.055300 159089.000000
156.011400 25775.200000
161.071100 7429.300000
162.066000 2400.500000
218.072000 3386.800000
234.089600 2678.600000
235.097700 8995.900000

>ms2
53.002200 29619.600000
53.038600 34590.500000
54.033900 4415.400000
55.017800 5578.500000
55.054300 10468.300000
56.049500 10443.300000
63.022900 7663.100000
65.038500 3047845.000000
66.033900 6853.600000
67.054200 7419.300000
68.049400 76579.700000
69.033500 7123.700000
78.033800 11122.400000
79.017900 12373.900000
80.049400 827897.800000
81.033500 5280.000000
83.049100 14136.900000
90.033900 26393.300000
91.041700 17577.300000
92.049500 1494804.600000
93.057200 17090.400000
94.065200 8521.400000
95.049200 5323.900000
96.044400 8258.700000
102.033900 10517.100000
107.060400 6204.800000
108.044400 1377048.100000
109.052200 8667.300000
110.060000 387942.900000
117.044700 13160.000000
118.052500 224637.200000
119.060500 13407.700000
120.044300 19830.000000
120.055500 12537.100000
124.075800 14967.100000
129.044700 155784.800000
130.040000 58276.300000
135.055700 3828.200000
144.055700 8372.900000
145.063300 6427.300000
146.071200 153776.100000
147.055300 164797.000000
156.011300 3740.600000
161.070800 16323.100000

