>compound LU36552052
>parentmass 280.1366
>ionization [M+H]+
>formula C15H21NO2S
>rt 850.320000
>profile orbitrap
#smiles_iso CC(C)(C(=O)C1=CC=C(C=C1)SC)N2CCOCC2
#smiles_can CC(C)(C(=O)C1=CC=C(C=C1)SC)N2CCOCC2
#inchikey LWRBVKNFOYUCNP-UHFFFAOYSA-N
#pubchem_id 92387
#mb_accession LU138601,LU138602,LU138603,LU138604,LU138605,LU138606

>ms2
88.075600 263334.100000
128.106900 326709.500000
146.072200 15612.500000
165.073200 651961.400000
193.068100 97210.400000
265.112700 31638.500000
280.136300 10881830.000000

>ms2
59.049100 11876.900000
70.065100 58018.500000
86.060000 21006.200000
88.075700 2088123.100000
114.091300 59251.000000
117.069800 29781.000000
128.106900 1315945.100000
135.026200 8351.900000
137.041800 14698.200000
145.064800 27033.900000
146.072500 224059.800000
150.049700 11065.700000
153.036600 18710.000000
156.102000 5089.800000
165.073200 4953049.500000
193.068100 419909.800000
265.113600 11330.000000
280.136500 4639259.000000

>ms2
59.049100 16241.700000
70.065000 399054.200000
84.080800 19898.800000
86.059900 20224.900000
88.075600 3314255.800000
91.054100 14379.700000
114.091300 113969.600000
115.054000 40799.000000
117.069800 621821.900000
118.077500 66562.600000
123.026100 7977.100000
124.034200 8173.000000
125.041800 25867.800000
128.106900 1143223.500000
131.049000 12388.100000
135.026200 15760.300000
137.041900 318602.000000
145.064700 58706.600000
146.072500 700062.800000
149.042000 10538.000000
150.049600 106399.300000
153.036700 22334.500000
165.073100 7572927.000000
167.052700 19842.200000
178.044400 8619.100000
193.068100 161506.500000
280.136400 270521.100000

>ms2
58.065000 4987.900000
59.049100 8609.600000
61.010600 6690.500000
68.049400 16696.400000
70.065100 763902.900000
78.046400 4346.800000
84.080800 63434.100000
86.060000 18451.500000
87.026200 13218.000000
88.075700 2388884.500000
91.054200 67022.200000
93.069900 4688.500000
103.054200 5255.200000
109.010600 30597.000000
114.091400 77686.500000
115.054200 254279.800000
116.062100 20296.900000
117.069800 1943713.400000
118.077600 454818.500000
119.085600 12766.000000
122.018500 12546.900000
123.026300 33300.800000
124.034100 48698.500000
125.041900 128954.700000
128.106900 780696.800000
131.049100 121415.600000
134.018300 4904.800000
135.026300 88518.200000
137.041900 1244057.600000
145.064800 80135.000000
146.072600 646337.200000
149.042000 53821.200000
150.049700 438650.200000
151.020900 8771.800000
153.036400 5512.300000
165.073200 4198359.000000
167.052600 17238.300000
178.044800 9200.300000
193.068100 8418.700000

>ms2
53.002200 6421.800000
53.038600 4578.400000
55.054500 2666.300000
56.049500 7610.000000
58.065200 4689.700000
58.995000 11061.900000
59.049000 3666.700000
60.044300 6476.200000
61.010600 17854.000000
65.038500 3584.000000
68.049400 26822.500000
70.065100 889361.800000
74.096400 3654.700000
78.046300 22017.900000
79.054100 4034.700000
84.080800 96239.900000
86.060200 13911.200000
87.026300 9990.700000
88.075700 1402779.100000
91.054200 223833.900000
93.070000 13449.600000
95.049000 3311.600000
97.010500 6210.000000
103.054200 24988.100000
104.062000 12858.500000
105.069700 14917.700000
109.010700 97653.200000
110.018400 6435.400000
111.026300 4693.100000
114.091400 32939.000000
115.054300 644811.300000
116.062100 72167.300000
117.069900 2417963.000000
118.077600 819832.000000
119.085600 7168.200000
121.010500 5445.500000
122.018500 93133.100000
123.026400 31582.000000
124.034200 79426.800000
125.042000 194298.100000
128.107000 515451.600000
129.069700 7023.600000
131.049200 335177.100000
134.018200 16595.600000
135.026300 323483.800000
137.042000 1731690.500000
145.064800 154213.900000
146.072600 345967.300000
147.025800 3276.100000
149.042100 96760.700000
150.049800 625741.900000
151.021000 9788.100000
165.073300 1234173.100000
167.052500 4915.100000
178.044600 6934.400000

>ms2
53.002200 15456.200000
53.038500 6282.200000
55.054300 3968.000000
56.049500 13781.700000
58.065100 4685.000000
58.995000 12354.700000
59.049100 3530.500000
60.044300 6349.900000
61.010600 14538.800000
63.022900 3345.900000
65.038500 13717.500000
68.049400 32820.600000
70.065100 749876.400000
77.038400 3753.900000
78.046400 75141.900000
79.054200 16237.200000
84.080800 150795.500000
86.060100 13906.500000
87.026400 4647.400000
88.075700 721599.700000
91.054300 459022.600000
93.069900 22730.900000
95.049200 10791.900000
97.010600 9752.300000
103.054200 95610.800000
104.062000 37895.400000
105.069900 39452.800000
109.010700 193190.400000
110.018600 27215.900000
111.026400 15197.200000
114.091400 7125.200000
115.054300 944364.000000
116.062100 109146.100000
117.069900 2482984.800000
118.077700 703212.600000
121.010500 28653.800000
122.018500 337866.800000
123.026300 20177.200000
124.034200 82712.500000
125.042000 133098.600000
128.107000 277678.800000
129.069700 7770.200000
131.049200 503789.200000
134.018500 43565.900000
135.026300 566810.300000
137.042000 1506534.900000
145.064800 199185.400000
146.072700 123847.000000
147.026300 3984.100000
149.042000 125100.100000
150.049800 522968.800000
165.073300 267942.800000

