>compound LU36826074
>parentmass 124.03930000000001
>ionization [M+H]+
>formula C6H5NO2
>rt 148.800000
>profile orbitrap
#smiles_iso C1=CC(=CN=C1)C(=O)O
#smiles_can C1=CC(=CN=C1)C(=O)O
#inchikey PVNIIMVLHYAWGP-UHFFFAOYSA-N
#pubchem_id 938
#mb_accession LU048801,LU048802,LU048803,LU048804,LU048805,LU048806

>ms2
78.033700 15102.900000
79.041600 5981.200000
80.049400 254643.700000
96.044400 160663.100000
124.039300 5538168.000000

>ms2
68.049400 5404.400000
78.033700 12950.500000
79.041600 5645.400000
80.049400 241284.600000
96.044400 146713.900000
124.039300 4884340.000000

>ms2
53.038600 7704.600000
68.049500 6014.600000
78.033700 16736.000000
80.049400 331584.200000
96.044400 212524.800000
124.039300 4161907.200000

>ms2
53.038600 38667.000000
68.049400 24807.500000
78.033800 67442.700000
79.041700 5774.700000
80.049400 1157239.400000
96.044400 823489.400000
122.023700 6579.400000
124.039300 3887643.500000

>ms2
52.018300 9052.300000
53.038600 108897.600000
68.049500 52200.300000
78.033800 109419.800000
79.041400 12813.000000
80.049500 1787556.200000
96.044400 1379616.500000
106.028900 4911.600000
111.031600 8401.100000
112.039400 7100.000000
122.023600 9458.900000
124.039400 2109975.500000

>ms2
52.018200 12791.100000
53.038600 212981.400000
68.049500 57733.100000
78.033800 138276.200000
79.041700 26669.900000
80.049500 1750965.200000
96.044400 1443063.100000
106.028600 3354.900000
111.031500 21557.100000
112.039200 7185.800000
122.023700 6126.000000
124.039400 817020.000000

