>compound LU37485846
>parentmass 326.0518
>ionization [M+H]+
>formula C12H9F2N5O2S
>rt 754.980000
>profile orbitrap
#smiles_iso CC1=NC2=NC(=NN2C=C1)S(=O)(=O)NC3=C(C=CC=C3F)F
#smiles_can CC1=NC2=NC(=NN2C=C1)S(=O)(=O)NC3=C(C=CC=C3F)F
#inchikey RXCPQSJAVKGONC-UHFFFAOYSA-N
#pubchem_id 91759
#mb_accession LU030401,LU030402,LU030403,LU030404,LU030405,LU030406

>ms2
128.031300 25906.200000
129.038300 525519.200000
182.025700 37862.800000
191.992500 67584.600000
215.023800 15441.200000
242.083700 19480.300000
262.089800 98565.200000
326.051600 11592567.000000

>ms2
57.013400 14052.400000
77.019700 11704.200000
82.028700 11039.000000
84.024400 121586.700000
93.044900 8140.500000
104.030600 23539.000000
106.039700 17248.000000
112.019300 10679.300000
114.999000 14681.700000
124.050700 8663.900000
128.030700 176892.200000
129.038400 7825484.500000
132.025600 9747.900000
134.058700 116186.600000
135.042700 16516.700000
135.066500 91902.400000
136.050500 19490.300000
143.042100 12308.100000
144.025500 311834.700000
145.033300 65666.100000
146.041400 28427.900000
151.061500 8733.600000
153.023000 27211.000000
182.025700 216917.600000
183.033500 44087.900000
191.992500 556391.300000
197.013000 42608.800000
201.070100 8307.100000
215.023300 214424.900000
222.077900 7834.700000
242.083600 162673.700000
262.089900 941976.800000
306.046100 9665.500000
326.051800 2665964.200000

>ms2
57.013400 29777.900000
66.033800 20140.900000
68.049400 30643.600000
77.019600 17037.000000
82.028700 15821.600000
84.024400 167871.600000
93.044700 32680.200000
97.039700 30361.400000
101.019500 20274.900000
104.030500 31298.100000
106.040000 87695.800000
107.047800 30229.500000
109.063500 53022.800000
111.055300 136723.200000
112.019400 20363.600000
114.999000 25295.500000
124.050700 32642.600000
126.035200 33616.700000
128.030800 451120.300000
129.038400 11462826.000000
132.025700 16196.700000
134.058700 469284.100000
135.042700 123918.000000
135.066600 73342.600000
143.041800 37310.300000
144.025600 514770.900000
145.033200 34624.900000
146.041200 73218.400000
153.022900 109645.800000
155.015300 13270.600000
165.046000 11564.400000
170.052500 26072.500000
182.025600 114333.200000
183.033200 13015.300000
191.992500 86479.700000
194.052800 13279.400000
197.012800 57941.600000
200.061600 21610.000000
201.069700 61949.900000
215.023400 69610.700000
215.072700 32588.700000
220.067800 20119.100000
222.077700 23635.000000
235.079000 14140.800000
242.083600 110541.900000
245.063000 11976.600000
262.089900 341762.400000
326.051800 51469.500000

>ms2
57.013500 23703.400000
65.026000 10530.000000
66.033800 52608.600000
67.029000 11969.900000
68.049400 50261.600000
79.029100 13393.700000
80.036900 10483.100000
81.044700 16215.800000
82.021400 11321.200000
82.052500 54887.800000
84.024400 101815.100000
89.026000 13017.600000
92.036900 11735.500000
93.044700 64072.300000
94.040000 17995.900000
97.039700 83021.700000
101.019700 101486.600000
102.027500 34995.700000
104.030600 16928.100000
106.040000 112421.900000
107.047800 149486.200000
108.024400 72643.300000
108.031800 10594.900000
109.032300 146747.900000
109.063500 42467.400000
111.055300 234539.600000
112.019400 11923.100000
114.999000 11257.100000
124.050700 32462.600000
126.035100 136342.300000
128.030800 414320.400000
129.038400 10351412.000000
132.025600 10585.000000
134.058700 471579.500000
135.042700 128592.500000
135.066500 37438.000000
143.041600 34957.600000
144.025600 397891.300000
145.033200 22920.500000
146.041300 58675.000000
153.022900 75076.200000
154.033500 10645.800000
155.015100 21433.200000
165.046200 14850.200000
170.052200 14506.100000
173.051200 16606.100000
182.025500 29627.600000
197.012900 13222.000000
200.062000 25290.200000
201.069700 53099.800000
215.072700 24851.200000
220.068000 11363.300000
242.083300 19323.600000
262.089600 23146.800000

>ms2
52.018200 28624.300000
53.002200 16068.500000
54.033800 11962.100000
55.029100 11372.200000
56.049400 20055.400000
57.013500 44623.500000
62.015100 30178.300000
63.022900 17853.800000
65.026000 33868.500000
66.033800 105204.500000
67.029100 23406.800000
68.049400 69422.300000
69.044700 11269.800000
77.019700 9734.300000
78.033800 38305.700000
79.029100 27941.200000
79.041600 9749.900000
80.036800 32513.600000
81.013400 28424.300000
81.044700 24133.600000
82.021300 55391.100000
82.052600 102610.000000
84.024400 36030.600000
89.026000 55875.600000
92.036900 25977.800000
93.044700 86795.100000
94.040000 30822.000000
97.039700 122407.700000
98.036300 10418.500000
100.019300 10083.600000
101.019700 252408.300000
102.027600 132469.200000
106.039900 65914.700000
107.047800 234855.200000
108.024400 168378.900000
108.031800 15853.800000
109.032300 692229.600000
110.047600 12495.700000
111.055300 354457.600000
116.030600 27212.400000
124.019300 42129.700000
124.050700 12425.500000
126.035100 184126.000000
128.030800 236277.900000
129.038400 9247021.000000
134.058700 243738.400000
135.042600 43413.700000
135.066500 19519.200000
143.041800 18813.900000
144.025500 254957.200000
145.033100 15731.100000
146.041200 41134.900000
153.022700 29974.300000
200.061700 16885.200000
201.069700 22585.100000

>ms2
52.018200 57923.700000
53.002200 40456.200000
53.038600 9182.700000
54.033900 20814.100000
55.017900 8234.500000
55.029100 13107.400000
56.049500 25050.300000
57.013500 108016.100000
62.015100 118427.400000
63.022900 94947.200000
65.026000 75011.800000
66.021300 11236.600000
66.033800 176031.100000
67.029100 47257.200000
67.041600 13750.100000
68.024300 19276.300000
68.049500 85452.800000
69.044700 14972.900000
70.021300 9790.900000
72.037000 27284.300000
75.004100 23104.000000
76.018100 14427.500000
77.019700 25253.700000
78.033800 54441.900000
79.017800 17504.100000
79.029100 32533.100000
79.041700 29244.400000
80.025800 14794.900000
80.036900 64426.500000
81.013500 106791.600000
81.044700 29270.300000
82.008700 20169.300000
82.021300 219923.300000
82.052600 109471.400000
83.028900 14235.100000
84.024400 12780.000000
89.026000 213820.900000
92.024400 20936.400000
92.036900 29955.200000
93.044800 122810.500000
94.040100 27337.700000
96.044400 11759.300000
97.039700 81975.700000
98.036300 42398.300000
98.040100 10834.200000
99.024100 27287.400000
100.019500 16366.000000
100.032000 20340.900000
101.019800 397564.800000
102.027600 332037.900000
104.013200 11023.600000
106.028900 11477.300000
106.040000 41344.700000
107.047800 180015.800000
108.024500 221077.000000
109.032300 1703111.400000
110.047600 12030.500000
111.055300 373337.900000
116.030700 38975.800000
117.032200 11788.700000
119.035200 15829.500000
124.019300 57539.600000
126.035100 150113.200000
127.043000 22322.100000
128.030800 122727.500000
129.038400 6984158.500000
134.058800 83461.900000
135.042800 11886.000000
135.066500 7211.600000
142.034100 7049.800000
143.041500 8438.300000
144.025600 125525.400000
146.041200 18360.300000
147.035300 7796.700000
153.022800 14600.100000
154.033800 7451.100000
173.051200 23188.400000
200.061800 10661.500000

