>compound LU37686949
>parentmass 372.2322
>ionization [M+H]+
>formula C26H29NO
>rt 1047.300000
>profile orbitrap
#smiles_iso CC/C(=C(\C1=CC=CC=C1)/C2=CC=C(C=C2)OCCN(C)C)/C3=CC=CC=C3
#smiles_can CCC(=C(C1=CC=CC=C1)C2=CC=C(C=C2)OCCN(C)C)C3=CC=CC=C3
#inchikey NKANXQFJJICGDU-QPLCGJKRSA-N
#pubchem_id 2733526
#mb_accession LU107301,LU107302,LU107303,LU107304,LU107305,LU107306

>ms2
72.080700 1093971.100000
372.232200 28716640.000000

>ms2
56.049400 78142.800000
57.057300 91669.500000
58.065100 564602.500000
70.065100 480202.400000
72.080700 24141872.000000
91.054200 367130.400000
105.069800 135922.300000
107.049100 120320.300000
119.085500 64411.900000
129.069700 652144.300000
167.085300 81639.900000
178.077300 33109.000000
179.085200 47092.700000
207.116700 214889.400000
209.096000 155822.500000
221.095800 35842.600000
249.127000 115797.000000
298.135000 74591.000000
299.142400 46344.600000
300.150800 76150.900000
327.174300 231659.800000
372.232100 5954424.000000

>ms2
56.049500 282915.000000
57.057300 313615.900000
58.065100 517916.800000
70.065100 1532806.800000
72.080700 25319370.000000
91.054200 596680.300000
105.069800 171922.500000
107.049100 91444.300000
128.062000 42697.700000
129.069800 988146.100000
147.080500 26064.300000
165.069700 26386.200000
167.085400 80406.500000
171.080400 28261.400000
178.077500 131992.100000
179.085500 80806.400000
191.084900 36838.500000
192.093500 30531.200000
193.101100 117210.600000
194.072600 26689.700000
205.101000 43016.500000
206.108700 67704.800000
207.080400 61117.500000
207.116700 35751.500000
208.088200 31045.900000
209.096000 96644.900000
221.095900 68348.900000
222.103700 38572.900000
234.103800 37087.400000
243.116600 31838.900000
249.127500 25557.000000
253.101500 26404.800000
254.109200 51216.600000
255.116500 27986.900000
271.111800 34893.300000
283.111400 48668.500000
285.127100 79704.200000
298.135000 63558.300000
300.151200 25719.100000
372.232200 40541.800000

>ms2
56.049500 502565.500000
57.057300 560412.200000
58.065100 392656.900000
70.065100 2218011.200000
71.073000 39210.700000
72.080700 19208480.000000
91.054200 631508.700000
103.054200 38363.600000
105.069900 148019.000000
107.049100 66740.000000
115.054100 48356.800000
117.069800 28978.100000
128.062000 179721.400000
129.069800 756224.200000
145.064600 23629.700000
165.069900 62420.700000
166.077700 22079.400000
167.085500 53002.200000
178.077600 290168.800000
179.085400 71798.700000
183.080600 38406.100000
191.085500 117944.300000
192.093300 49544.300000
193.101300 71577.800000
194.072700 50804.500000
203.085000 34488.100000
204.093300 19598.500000
205.101100 35045.400000
206.108800 35117.900000
207.080500 153425.800000
208.088200 19252.700000
209.095800 25792.400000
215.085100 30671.700000
221.096300 45810.900000
228.093300 43332.300000
229.100700 20297.600000
239.085500 27425.000000
240.092900 21396.200000
241.101200 37850.400000
242.108600 29589.300000
243.116300 20998.500000
252.092900 28808.100000
253.101000 104473.400000
254.108900 63188.800000
255.116100 25793.800000
265.101300 32123.800000
270.104000 26735.200000
279.116600 24569.200000
283.111600 45661.600000

>ms2
56.049500 711235.300000
57.057300 822190.600000
58.065100 286711.200000
65.038500 33587.500000
70.065100 2412249.200000
71.072900 55549.500000
72.080700 12824293.000000
79.054000 37992.600000
91.054300 596408.900000
95.049100 23260.400000
103.054200 71265.900000
105.069900 104588.900000
107.049200 52909.800000
115.054100 72675.800000
117.069900 12843.800000
128.062000 398732.800000
129.069800 371054.200000
131.049100 13317.400000
141.069900 27338.200000
145.064800 45497.300000
152.062000 39858.000000
153.069800 24026.700000
165.070000 118209.000000
166.077500 33346.600000
167.085300 34547.200000
178.077700 394067.400000
179.085400 69791.800000
183.080500 27071.700000
189.069800 22036.600000
190.077800 36324.400000
191.085500 184670.500000
192.093500 39514.500000
193.101500 31765.500000
194.072700 53098.900000
202.077800 50237.400000
203.085000 45052.200000
204.093500 27457.700000
205.101300 28389.000000
207.080500 116743.200000
215.085700 53663.300000
219.079500 13209.900000
221.096100 16430.900000
228.093300 69465.900000
229.100900 12847.900000
239.085600 65673.500000
240.093700 28056.100000
241.101400 62676.800000
242.108800 22013.300000
252.093300 101865.200000
253.101300 139254.900000
254.108900 31627.300000
255.116900 21259.200000
265.100800 38719.500000
267.116600 16449.100000
269.095100 17049.100000
283.111600 19558.400000

>ms2
53.038600 15552.300000
55.017800 10131.500000
56.049500 965472.900000
57.057300 860453.000000
58.065100 238132.100000
65.038500 59674.800000
70.065100 2217677.500000
71.072900 63957.300000
72.080700 7435035.000000
79.054100 48219.500000
91.054200 539561.500000
95.049100 40925.300000
103.054200 73236.800000
105.069900 84642.700000
107.049200 40695.200000
115.054200 99481.600000
117.069700 11038.500000
127.054300 29537.200000
128.062000 502127.000000
129.069800 160659.800000
131.049100 10694.200000
141.069700 25965.200000
145.064800 54417.300000
152.062200 69525.100000
153.069800 22548.700000
155.085500 8481.100000
165.069900 169498.800000
166.077600 22870.600000
167.085800 13602.800000
177.070200 22449.900000
178.077700 470287.300000
179.085500 41511.000000
181.064900 20817.700000
183.080500 8362.400000
189.069800 60519.400000
190.077700 58097.000000
191.085500 171826.900000
192.093600 20362.600000
194.072600 32056.500000
202.077800 82455.900000
203.085500 50690.100000
204.093300 14468.400000
205.101300 12869.400000
207.080600 93423.500000
215.085500 67183.100000
227.086000 19849.000000
228.093500 56127.700000
229.101600 11949.500000
239.085600 121020.200000
240.092500 22736.100000
241.100900 53681.900000
252.093200 187294.200000
253.101200 94437.300000
254.109300 20281.300000
255.116800 9582.300000
265.101100 44727.500000
268.087900 11571.900000
269.096000 9174.700000

