>compound LU37891121
>parentmass 363.0217
>ionization [M+H]+
>formula C14H16ClO5PS
>rt 1117.680000
>profile orbitrap
#smiles_iso CCOP(=S)(OCC)OC1=CC2=C(C=C1)C(=C(C(=O)O2)Cl)C
#smiles_can CCOP(=S)(OCC)OC1=CC2=C(C=C1)C(=C(C(=O)O2)Cl)C
#inchikey BXNANOICGRISHX-UHFFFAOYSA-N
#pubchem_id 2871
#mb_accession LU024801,LU024802,LU024803,LU024804,LU024805,LU024806

>ms2
98.984200 50891.400000
127.015500 254395.800000
129.019800 5787.200000
155.046800 953595.900000
157.051200 23351.500000
208.931500 123034.900000
211.016400 6548.100000
225.985500 3717.200000
226.992800 56163.500000
288.948600 8127.000000
290.015200 3088.700000
306.959300 365202.900000
317.038300 77265.800000
334.990500 469559.200000
363.021700 2813408.500000

>ms2
91.054200 19267.400000
98.984200 463308.000000
100.988200 11606.000000
109.005000 7442.400000
114.961200 13459.800000
116.994700 4967.500000
119.049100 4442.400000
121.028600 5733.600000
122.031800 6950.000000
127.015500 532435.100000
129.019700 11854.500000
131.010400 7405.400000
131.085100 4263.800000
155.046800 298422.400000
157.051000 6237.900000
191.016400 7950.100000
207.937800 6156.200000
208.931500 395672.900000
211.015700 143428.400000
224.977400 8284.600000
225.985800 5949.900000
226.992900 1431069.900000
242.988200 2396.300000
255.023500 10752.100000
270.937500 2466.300000
288.948600 230577.700000
289.043000 26921.900000
290.015100 18361.000000
290.982000 21688.000000
306.959200 805686.400000
317.038100 185960.100000
320.975000 33875.300000
334.990500 405612.500000
363.021700 198621.100000

>ms2
65.038600 3155.900000
91.054200 68479.400000
98.984100 854929.400000
100.988300 20725.600000
103.054200 5117.700000
109.004900 13134.900000
114.961300 80501.900000
115.054200 10263.600000
116.994700 13537.500000
119.049100 8987.300000
121.028600 4648.200000
122.031700 6050.300000
127.015400 159571.400000
131.010400 14064.100000
131.049200 9528.800000
131.085600 6165.500000
132.057000 8688.000000
147.026200 23847.400000
148.033900 4828.300000
155.046700 21592.900000
163.021200 14206.700000
164.029000 10312.300000
169.968300 6555.000000
171.002400 2769.000000
173.962500 93966.900000
191.016100 17896.500000
193.004800 4838.500000
194.013100 29239.500000
196.982200 8634.400000
198.997200 3453.300000
207.937700 2679.900000
208.931400 253853.000000
210.008000 6169.900000
211.015600 342911.800000
224.977300 42734.600000
225.985000 80303.700000
242.987700 3260.300000
255.023500 5755.300000
256.975400 3213.500000
270.938000 8304.800000
272.008300 11575.500000
273.011800 23595.400000
288.002900 3110.100000
288.948400 282935.800000
289.007000 19113.900000
289.043100 22786.000000
290.982000 47775.600000
306.959000 95033.300000
317.037800 24612.200000
320.974700 48747.400000
334.990600 18208.500000

>ms2
65.038600 9501.000000
68.997100 3455.100000
91.054300 62046.200000
96.950700 5361.800000
98.984200 1625195.800000
102.046400 7408.100000
103.054200 33016.000000
108.984000 3158.700000
112.960300 3821.000000
114.961400 182552.300000
115.054300 131158.200000
116.994800 27976.600000
119.049200 12597.700000
121.028700 3130.300000
122.031900 2566.800000
123.026200 3964.200000
124.996900 3518.200000
125.015600 2578.800000
127.015500 43433.200000
128.976700 7462.600000
129.019800 2402.000000
131.049200 97019.100000
132.056900 73687.800000
134.018700 5947.700000
135.026300 41821.700000
136.034000 2856.500000
137.015200 9298.100000
139.031300 3109.400000
147.026400 162568.900000
147.044100 24700.400000
148.034000 32469.400000
148.051800 23089.500000
149.015500 18200.900000
150.023100 96337.200000
155.025800 16286.600000
159.044100 16197.300000
162.013600 7588.400000
163.021200 74754.200000
164.029100 87388.100000
165.010200 20975.400000
166.018100 62180.200000
167.025900 6214.000000
168.987400 3202.200000
169.968500 19622.800000
171.003200 29791.300000
172.954800 8405.300000
172.969000 9792.000000
173.962700 348817.500000
175.039100 11359.700000
181.005200 7555.700000
182.013000 6397.000000
188.968000 3209.900000
191.016200 53934.800000
192.024100 13784.200000
193.004800 10953.400000
194.013100 160908.800000
196.982200 35009.700000
197.991400 2515.600000
198.964100 7699.300000
198.997600 7678.200000
208.931500 145259.300000
209.000300 14198.000000
210.007900 26449.200000
211.015800 352453.800000
224.977200 44786.100000
225.985100 311078.500000
226.992900 1333811.500000
256.976500 31398.100000
270.937800 22447.600000
272.008800 5048.400000
273.011700 31247.900000
288.002900 7209.100000
288.948600 107868.200000
289.006500 21482.200000
290.982100 39611.300000
306.958100 4601.700000
320.974100 20624.400000

>ms2
53.038500 3066.200000
55.017900 2416.200000
63.022900 3481.700000
64.978600 11032.900000
65.038500 31339.200000
68.979300 15212.500000
68.997000 6987.100000
75.022700 5138.500000
77.038500 3005.200000
89.038500 3660.400000
91.054200 134698.100000
94.041200 2495.700000
95.049200 8390.800000
98.015000 4233.800000
98.984200 845610.900000
100.988400 18913.600000
102.046300 31913.600000
103.054200 91683.800000
104.062100 10184.600000
109.005000 14977.400000
112.960200 10109.800000
114.046200 2921.300000
114.961400 244517.000000
115.054300 285741.800000
116.994800 19077.000000
118.041300 5117.600000
119.049200 34364.700000
121.010700 9876.400000
121.028300 2351.500000
122.999800 3595.600000
123.026300 8228.700000
124.996900 3598.600000
128.976900 11065.200000
129.044800 3132.400000
131.010400 17589.300000
131.049200 245673.900000
132.057000 98392.800000
132.971900 3060.700000
133.010700 2257.600000
134.018500 17578.000000
134.980800 7514.400000
135.026300 106668.700000
136.007700 2590.600000
136.034300 10571.600000
137.015300 27703.100000
138.023200 7219.200000
139.030900 3456.000000
147.026300 214663.000000
147.044100 46456.000000
148.034100 36925.200000
148.051900 62189.500000
149.005600 4221.200000
149.015300 40555.900000
150.023100 80973.600000
153.010200 7373.700000
159.044100 57570.800000
159.055300 4450.400000
162.013400 23659.900000
163.021200 120261.400000
164.029100 144974.600000
165.002700 4399.000000
165.010200 43042.100000
166.018100 105769.700000
167.025900 2499.400000
167.979000 5171.300000
168.987300 14261.800000
169.969000 11118.200000
171.003000 34275.100000
172.954900 8259.400000
172.969000 5206.400000
173.962600 200606.900000
175.038900 14990.500000
180.987200 7323.400000
181.005200 16160.500000
182.012800 49190.600000
191.016100 62275.500000
192.023900 11453.400000
193.004800 9110.000000
194.013000 152632.600000
196.982400 43820.700000
197.990500 14500.000000
198.963400 3552.800000
198.996200 5048.800000
207.974500 3131.200000
208.931400 10937.200000
208.999900 9263.900000
210.007900 25517.400000
210.048000 10591.800000
211.015700 130179.000000
217.029000 3950.200000
224.977200 15814.000000
225.985000 233080.100000
226.992900 363025.500000
256.976600 41391.500000
270.938200 5525.700000
272.008700 4326.400000
273.012000 19904.500000
288.003300 7056.200000
288.948600 12441.100000
289.006600 25196.900000
290.982100 7517.900000

>ms2
53.038500 12399.800000
55.017800 2692.200000
63.022800 11505.300000
64.978700 48111.900000
65.038500 50155.700000
68.979300 39557.200000
68.997100 12851.600000
75.022900 16663.200000
77.038600 9086.100000
89.038500 19408.100000
91.054200 299161.200000
94.041300 3941.300000
95.049100 39917.700000
96.950700 5045.000000
98.015100 60182.200000
98.984200 1485535.800000
102.046400 121057.700000
103.054200 213267.600000
104.062100 13992.400000
108.983900 3971.900000
109.004900 14273.800000
112.960200 40706.400000
114.046600 5013.100000
114.961300 338209.200000
115.054200 410556.600000
116.994800 30605.500000
118.041300 12188.200000
119.049200 85938.800000
121.010600 37107.300000
122.999500 10048.300000
123.026200 8504.400000
124.996600 19185.800000
125.015300 35219.200000
128.976900 12372.600000
129.044400 13819.400000
131.010500 26143.100000
131.049200 455253.200000
132.057000 100528.500000
132.971300 3238.400000
133.010700 8451.400000
134.018500 72493.900000
134.981000 58052.300000
135.026200 177374.200000
136.007500 4708.500000
136.034100 18354.600000
137.015200 42258.000000
138.023000 14286.000000
139.031000 3241.700000
147.026300 206359.300000
147.044000 120273.200000
148.034100 20640.700000
148.051900 84209.900000
149.005500 13338.700000
149.015300 73075.000000
150.023100 31879.000000
153.010200 12349.900000
155.026000 27527.200000
159.044100 91969.100000
159.055100 27292.700000
162.013400 45788.400000
163.021200 209607.700000
164.029000 143496.800000
165.002800 14222.600000
165.010100 82425.300000
166.018100 92404.800000
167.979400 6019.800000
169.968500 16785.800000
171.002700 24158.100000
172.968800 10321.400000
173.962600 357574.200000
175.039000 14087.900000
180.987200 9569.400000
181.005000 16695.800000
182.012900 98029.400000
188.968000 2727.600000
191.016100 44766.300000
192.024100 5419.500000
194.013000 76308.100000
196.982300 27475.200000
197.990200 15954.100000
198.963100 4061.000000
198.996300 3762.700000
207.974400 3032.200000
210.047800 4307.900000
211.015700 39165.400000
217.028600 3165.600000
225.984900 107682.600000
226.992700 64547.500000
256.976500 19220.400000
289.006000 6251.400000

