>compound LU37704301
>parentmass 232.1332
>ionization [M+H]+
>formula C14H17NO2
>rt 1058.280000
>profile orbitrap
#smiles_iso CCN(CC)C1=CC2=C(C=C1)C(=CC(=O)O2)C
#smiles_can CCN(CC)C1=CC2=C(C=C1)C(=CC(=O)O2)C
#inchikey AFYCEAFSNDLKSX-UHFFFAOYSA-N
#pubchem_id 7050
#mb_accession LU043201,LU043202,LU043203,LU043204,LU043205,LU043206

>ms2peaks
188.069700 83953.400000
203.094000 1443562.900000
204.101900 1035493.100000
232.133000 28084136.000000

>ms2peaks
96.044300 39344.900000
175.063000 28480.800000
175.099300 57572.900000
176.071000 60691.900000
176.107000 38285.200000
188.070500 316224.900000
188.143200 39406.200000
202.086700 94837.700000
203.094200 6451112.500000
204.102000 3494609.200000
232.133200 24668818.000000

>ms2peaks
67.017800 19925.400000
68.013000 91123.100000
72.080600 38571.300000
91.054200 17006.100000
96.044300 121291.300000
103.054200 15323.700000
105.069900 36175.600000
115.054300 17960.200000
116.062000 11353.300000
117.057100 15966.100000
117.070000 36845.200000
118.065000 40311.700000
130.065300 42918.900000
131.049100 11899.800000
131.072800 58634.100000
131.085700 13494.000000
132.080700 148295.300000
133.064800 23113.100000
134.060000 19195.400000
134.096400 18496.300000
138.091300 26834.400000
144.080800 220221.500000
145.088500 28928.200000
146.096300 32263.700000
147.067900 14708.300000
148.075500 29756.600000
148.112000 55958.800000
158.096400 73628.600000
159.044100 19226.600000
159.104300 99604.200000
160.075600 221392.400000
160.112100 148769.700000
161.059300 13482.700000
161.119800 15494.500000
162.091000 39004.500000
172.111900 47118.700000
173.119800 45252.700000
174.091400 87263.500000
175.062800 173391.300000
175.099200 996062.300000
176.070500 258800.800000
176.107000 348662.800000
176.143300 399399.700000
186.127300 52518.300000
188.070600 4463012.000000
188.143300 414532.300000
189.078100 18690.700000
189.115100 64967.200000
190.122800 24003.800000
202.086300 343885.500000
203.094100 10284008.000000
204.101800 3588875.000000
204.137900 284012.500000
216.101900 57120.400000
217.109800 114658.400000
230.117700 23026.500000
232.133100 11251574.000000

>ms2peaks
58.065100 29110.900000
67.017800 82948.100000
68.013000 327328.900000
70.065100 20548.100000
72.080700 75283.800000
74.096300 22568.200000
77.038600 14516.200000
79.054200 27066.100000
82.065100 14241.100000
91.054100 99315.100000
93.069900 30985.500000
96.044300 180478.100000
98.096400 15475.500000
103.054000 83232.600000
105.069900 188416.500000
106.065000 47757.900000
107.085300 13752.900000
109.064800 42881.000000
110.060100 16864.800000
115.054100 89573.500000
116.062000 59713.200000
117.057300 74190.700000
117.069800 148304.100000
118.065100 127941.500000
119.072800 48571.600000
120.080700 53748.100000
121.064700 33447.000000
128.062000 16266.400000
129.069400 13562.400000
130.065100 148414.100000
131.048900 46294.200000
131.072900 130090.200000
131.085100 36842.800000
132.056900 49487.500000
132.080700 451218.400000
133.064600 56366.900000
133.088500 24533.900000
134.060000 96793.000000
134.096400 51937.200000
135.080400 17391.800000
138.091200 51136.100000
143.073200 16947.600000
144.080800 739844.900000
145.088500 82961.300000
146.059700 40584.000000
146.096500 119787.900000
147.067700 158781.000000
147.104100 63640.900000
148.075700 95587.200000
148.112000 323437.100000
157.088800 14352.700000
158.096400 256052.900000
159.043900 23349.400000
159.080300 14018.000000
159.104200 121485.800000
160.075600 1980740.600000
160.112100 250240.500000
161.059600 52845.400000
161.083500 38911.500000
161.119800 146994.500000
162.091100 52190.700000
162.127600 24939.900000
172.111900 187762.300000
173.119800 87993.200000
174.067800 53145.500000
174.091400 511739.200000
174.127700 28948.800000
175.062600 220493.100000
175.099100 2203920.500000
176.070600 239614.000000
176.106900 396202.200000
176.143300 1182746.600000
186.091300 15898.600000
186.127800 90899.400000
188.070500 12521190.000000
189.078100 35587.900000
189.114800 121909.700000
190.122700 33187.500000
192.041600 14994.200000
192.101500 38454.200000
202.086300 781684.600000
203.094000 3536406.800000
204.101900 1214894.500000
204.138100 279490.200000
216.101800 174983.200000
217.109600 104908.900000
230.117900 20212.100000
232.133100 3271234.800000

>ms2peaks
55.017900 19171.500000
56.049500 18700.700000
58.065100 30043.600000
65.038600 16458.300000
67.017800 140674.200000
67.054200 26282.900000
68.013000 501746.100000
70.065000 28556.500000
72.080700 69309.200000
74.096300 16087.400000
77.038600 21249.800000
79.054200 119891.500000
91.054200 266906.900000
93.069900 134273.100000
94.065100 22218.300000
95.049000 38402.500000
96.044300 97903.500000
103.054200 284701.900000
104.049500 40971.100000
104.061900 38223.800000
105.069900 431040.900000
106.065000 120342.300000
107.049000 17518.700000
107.085500 18493.500000
109.064800 66796.800000
110.060100 23006.000000
115.054200 294849.500000
116.062000 367331.900000
117.057200 180225.500000
117.069900 223717.800000
118.065100 208929.500000
119.072900 161835.400000
120.080700 171748.600000
121.064700 176445.800000
122.059900 41265.300000
128.062000 21364.700000
129.069600 30008.000000
130.065200 246875.000000
131.049100 145326.500000
131.073000 145956.100000
131.085300 38237.800000
132.057000 296118.400000
132.080700 918731.400000
133.052400 28724.700000
133.064800 98181.600000
133.088500 79548.400000
134.060000 108150.100000
134.096400 99259.400000
135.080400 22390.500000
136.076200 16126.200000
138.091300 59501.100000
142.065000 51916.500000
143.073000 92212.900000
144.080800 1057921.600000
145.052500 19089.700000
145.064700 16637.600000
145.088500 73048.200000
146.060000 175756.100000
146.096400 334405.400000
147.067800 325539.600000
147.104200 119436.300000
148.075600 100335.100000
148.112100 427116.400000
157.088700 32588.800000
158.096500 243971.000000
159.044300 53991.400000
159.104300 51217.900000
160.075600 5433627.000000
161.059600 72050.400000
161.083700 53856.200000
161.119700 208789.600000
162.091200 61141.000000
162.127700 21103.200000
172.112000 216078.300000
173.083600 22539.100000
173.119600 42506.700000
174.067700 248181.300000
174.091300 1022849.600000
174.127300 62697.200000
175.062800 113649.300000
175.099200 1257578.100000
176.070700 94675.500000
176.106900 196537.900000
176.143300 867333.000000
186.127700 27120.200000
188.070500 15717371.000000
189.078200 38332.400000
189.115100 57643.600000
190.122300 23193.700000
192.041900 55560.600000
192.101600 30670.400000
202.086200 835328.300000
203.094000 491264.500000
204.101800 249130.600000
204.138400 90112.000000
216.102000 185033.200000
217.109400 16094.300000
232.133100 475336.600000

>ms2peaks
53.038600 50356.800000
55.017900 22565.400000
56.049500 11893.800000
58.065200 14446.200000
65.038500 52444.400000
67.017800 189898.900000
67.054200 31944.700000
68.013100 429809.700000
70.065000 11785.200000
72.080700 24561.900000
77.038600 33849.500000
79.054200 267617.000000
81.069800 13445.900000
82.065100 10764.500000
89.038600 12104.500000
91.054200 623854.400000
92.049400 22470.000000
93.057400 21647.800000
93.069900 278367.300000
94.065000 13718.600000
95.049200 130744.500000
96.044400 31864.200000
102.046600 14876.000000
103.054200 723399.100000
104.049500 221603.800000
104.062000 103879.300000
105.069900 742022.600000
106.065100 148413.600000
107.049300 22597.900000
109.064800 127281.400000
110.060100 34660.300000
115.054200 832406.600000
116.062100 1028495.400000
117.057300 461385.100000
117.069800 287602.500000
118.065100 304218.200000
119.073000 214758.800000
119.085800 14505.400000
120.080800 187390.500000
121.064800 362670.000000
122.060000 100875.200000
128.049500 22395.000000
128.062100 24462.500000
129.069800 44467.600000
130.065200 314867.100000
131.049200 567227.100000
131.072900 122542.400000
132.057000 1430234.000000
132.080800 1311536.200000
133.052200 18869.400000
133.064700 152104.800000
133.088500 81344.200000
134.060100 54576.200000
134.096500 82824.700000
135.080500 17840.600000
136.076000 16189.100000
138.091400 21593.500000
141.070200 10036.900000
142.065200 134108.000000
143.073000 180335.100000
144.080800 763039.200000
145.052200 81612.500000
145.064900 41130.200000
145.088600 35153.000000
146.060100 424903.800000
146.096400 339431.800000
147.067800 276082.800000
147.104300 50214.000000
148.075600 45079.300000
148.112100 228142.700000
150.091200 17931.600000
156.081000 15961.800000
157.088600 21432.900000
158.060000 35882.100000
158.096600 133584.500000
159.044200 77629.200000
159.067800 47716.900000
160.075700 6391415.000000
161.059600 72142.500000
161.083600 26711.500000
161.119800 87655.200000
171.104500 13357.500000
172.112000 87559.700000
173.059500 12627.600000
173.083500 18148.300000
174.055600 40122.600000
174.067700 454802.000000
174.091400 779453.800000
174.128100 40424.900000
175.062900 42770.900000
175.099200 301785.800000
176.070600 21638.300000
176.107000 38676.300000
176.143400 205914.600000
186.091900 10387.400000
188.070600 9687349.000000
189.078700 9928.300000
192.041700 56352.300000
192.102200 10674.300000
202.086300 369771.600000
203.094000 33260.300000
204.102100 35886.700000
216.102000 76354.300000
232.133200 33076.700000

