>compound LU38121463
>parentmass 225.087
>ionization [M+H]+
>formula C10H12N2O4
>rt 1085.010000
>profile orbitrap
#smiles_iso CC1=CN(C(=O)NC1=O)[C@H]2C=C[C@H](O2)CO
#smiles_can CC1=CN(C(=O)NC1=O)C2C=CC(O2)CO
#inchikey XNKLLVCARDGLGL-JGVFFNPUSA-N
#pubchem_id 18283
#mb_accession LU106602,LU106603,LU106605,LU106606

>ms2peaks
90.010600 14974.400000
91.013600 4853.400000
119.000900 2114.500000
121.084200 2105.500000
137.011900 28920.400000
146.996100 28240.500000
151.027400 8505.300000
155.022600 17323.700000
165.006800 315431.400000
169.038100 4633.000000
179.022500 80793.100000
181.072100 14094.000000
183.017500 72343.200000
207.076900 4059.800000
225.087900 63439.300000

>ms2peaks
90.010600 49035.400000
91.013900 15028.500000
119.001300 13120.800000
121.084400 5161.900000
137.011800 142529.600000
146.996200 20202.800000
151.027500 42944.900000
155.022400 75347.300000
165.006800 171073.600000
169.038100 21665.300000
179.022400 43420.100000
181.071900 15550.100000
183.017500 30856.300000
207.077400 2781.600000
225.087200 21096.700000

>ms2peaks
53.038600 2592.200000
55.054200 8501.700000
61.039700 8394.200000
79.054300 7375.100000
80.057700 3171.000000
83.085400 3300.900000
90.010600 33266.300000
91.013900 12063.100000
91.054300 2205.600000
92.057600 2817.300000
95.049300 7081.900000
104.049500 4037.300000
106.065200 9017.600000
116.057800 3528.400000
117.057600 3735.600000
118.060800 4611.900000
118.065300 1757.700000
119.001200 10494.400000
119.068800 1985.500000
121.988300 12920.500000
124.050600 3592.600000
131.068500 4017.600000
132.081000 7771.300000
133.084200 28574.800000
133.088900 12490.600000
136.004000 4375.500000
137.011800 176280.200000
139.998900 12891.600000
145.084400 6840.200000
151.027400 49155.200000
154.014700 5497.800000
155.022400 145080.400000
165.006900 7446.500000
169.038100 39810.900000
179.022800 2628.900000
183.017300 2378.900000
183.053700 6457.000000

>ms2peaks
53.038600 1990.300000
55.054200 6840.200000
61.039600 4398.600000
79.054100 3109.700000
80.057500 2134.800000
83.085700 2117.300000
90.010600 28605.300000
91.014000 10132.400000
91.054200 4633.300000
92.057500 6006.300000
95.049200 4554.100000
104.049200 2031.500000
106.065100 2764.300000
116.057700 2366.500000
117.057500 8702.500000
118.060800 16321.900000
118.064900 2677.600000
119.001200 5931.200000
119.068600 4523.200000
121.988300 26005.500000
124.050700 2227.300000
131.068400 4426.300000
132.081100 16374.200000
133.084100 45043.600000
133.088900 9182.900000
136.003900 6679.900000
137.011800 100759.200000
139.998800 20287.500000
145.084300 10358.700000
151.027500 29043.500000
154.014300 5102.200000
155.022400 61393.400000
169.038000 17617.100000
183.054000 4193.800000

