>compound LU38990961
>parentmass 215.0582
>ionization [M+H]+
>formula C9H11ClN2O2
>rt 959.760000
>profile orbitrap
#smiles_iso CN(C(=O)NC1=CC=C(C=C1)Cl)OC
#smiles_can CN(C(=O)NC1=CC=C(C=C1)Cl)OC
#inchikey LKJPSUCKSLORMF-UHFFFAOYSA-N
#pubchem_id 15629
#mb_accession LU095502,LU095505

>ms2peaks
60.044400 21596.100000
62.060000 70999.000000
98.999600 3011.000000
103.976600 1909.100000
126.010500 248994.000000
127.018300 37072.800000
148.063100 206303.400000
183.031800 14377.200000

>ms2peaks
60.044400 8194.100000
62.060100 3492.200000
98.999600 150063.500000
103.976900 2953.500000
126.010500 109448.900000
127.018400 85769.200000
148.063100 20278.900000
183.032500 7069.900000

