>compound LU38149521
>parentmass 269.13180000000006
>ionization [M+H]+
>formula C13H20N2O2S
>rt 1048.080000
>profile orbitrap
#smiles_iso CN(C1CCCCC1)S(=O)(=O)C2=CC=CC=C2N
#smiles_can CN(C1CCCCC1)S(=O)(=O)C2=CC=CC=C2N
#inchikey IPEHSCPRVOWQFQ-UHFFFAOYSA-N
#pubchem_id 116814
#mb_accession LU122901,LU122902,LU122903,LU122904,LU122905,LU122906

>ms2peaks
83.085500 5538.200000
92.049600 1529.600000
156.011300 2608.100000
174.022000 38779.800000
187.053600 166794.400000
188.038800 2173.400000
193.158000 2227.500000
195.138000 26757.600000
269.132700 27837.100000

>ms2peaks
55.054300 3526.800000
83.085400 11842.000000
92.049600 13186.200000
108.044500 5423.900000
109.101200 2440.200000
135.080500 2684.100000
137.096300 2226.700000
139.075500 2582.200000
140.016700 2296.800000
151.148700 3071.600000
156.011400 8325.700000
174.022100 121597.700000
187.053700 58970.600000
188.037300 2589.700000
193.158900 1871.900000
195.138000 25736.700000
269.135200 6199.600000

>ms2peaks
55.054300 12437.100000
57.069900 4703.600000
65.038500 2207.400000
83.085500 16508.000000
92.049600 92777.900000
95.085500 2273.400000
107.085500 2735.100000
108.044600 26285.100000
109.101300 6561.700000
135.080300 3717.400000
137.096300 2358.200000
139.075300 4375.300000
140.016500 2417.900000
151.148300 2635.000000
156.011500 6234.400000
167.142900 2839.500000
174.022200 84052.600000
187.054100 4721.600000
188.037400 4620.500000
195.138100 4834.100000

>ms2peaks
55.054300 16077.500000
57.070000 5299.000000
65.038500 8007.100000
73.064800 1897.000000
80.049600 2321.200000
83.085500 8274.400000
92.049500 145069.800000
95.085500 1846.900000
107.085700 2659.800000
108.044400 29709.300000
109.101400 6037.200000
110.060200 2004.800000
135.080600 3058.500000
139.075700 1841.900000
167.143500 1728.000000
174.022100 10639.800000

>ms2peaks
55.054300 20582.600000
57.069900 4664.200000
65.038600 28969.700000
67.054300 2363.900000
73.064800 2454.700000
80.049500 10313.800000
83.085600 6077.100000
92.049500 117718.900000
95.085800 2305.000000
108.044500 22499.400000
109.101500 3128.300000
110.060000 1918.400000

>ms2peaks
55.054300 18970.200000
57.069800 3409.700000
65.038600 53745.900000
67.054100 1988.900000
80.049400 16588.800000
92.049500 72499.200000
108.044400 11533.700000
110.060300 2386.300000

