>compound LU38141354
>parentmass 354.30029999999994
>ionization [M+H]+
>formula C21H39NO3
>rt 1310.580000
>profile orbitrap
#smiles_iso CCCCCCCC/C=C\CCCCCCCC(=O)N(C)CC(=O)O
#smiles_can CCCCCCCCC=CCCCCCCCC(=O)N(C)CC(=O)O
#inchikey DIOYAVUHUXAUPX-KHPPLWFESA-N
#pubchem_id 6912870
#mb_accession LU033601,LU033602,LU033603,LU033604,LU033605,LU033606

>ms2peaks
81.069900 2628.500000
90.055000 1419413.900000
95.085600 4236.900000
97.101300 2115.600000
121.101300 6068.600000
135.117100 4549.900000
149.132300 3374.500000
247.242000 11155.000000
265.252500 17503.000000
354.300500 998963.600000

>ms2peaks
55.054300 9702.000000
57.070000 11109.900000
67.054300 14218.300000
69.069900 29883.400000
71.085500 6880.200000
79.054100 3767.900000
81.069900 24149.600000
83.085600 29079.800000
85.101300 4341.700000
90.055100 1380403.200000
93.070000 7057.600000
95.085600 34992.400000
97.064900 7603.700000
97.101300 28822.200000
107.085500 12708.900000
109.101300 18079.800000
111.080800 2433.000000
111.117000 11199.000000
121.101200 38196.200000
123.117000 4710.100000
135.116900 30771.300000
149.132400 13646.400000
163.148300 5446.100000
247.242500 12013.400000
265.253100 7072.500000
354.300900 30818.700000

>ms2peaks
53.038600 2093.700000
55.054300 59794.900000
57.033500 1870.300000
57.069900 26406.900000
67.054200 53593.700000
69.069900 93999.800000
71.049100 2560.800000
71.085600 9440.000000
79.054200 27281.600000
81.069900 59190.700000
83.085500 69609.500000
85.101200 5961.400000
90.055000 904115.600000
91.054100 2791.600000
93.069900 34273.600000
95.085600 59601.700000
97.064900 13341.200000
97.101200 37001.200000
107.085600 23816.600000
109.101300 22805.600000
111.080500 4550.300000
111.117000 7811.000000
121.101300 40325.100000
123.117000 5270.400000
135.116900 24751.600000
149.132600 7019.500000
163.148500 2626.600000

>ms2peaks
53.002200 4991.300000
53.038600 2861.900000
55.054200 127735.700000
57.069900 26655.400000
65.038500 3154.200000
67.054200 78754.800000
69.069800 109002.000000
71.049300 2095.000000
71.085500 10125.600000
79.054200 42495.600000
81.069900 72866.300000
83.085500 46522.800000
90.055000 383893.300000
91.054300 8757.400000
93.069900 48255.100000
95.049300 3149.700000
95.085500 44850.100000
97.064800 11741.000000
97.101200 15574.400000
107.085600 15834.100000
109.101100 12879.800000
111.080500 4213.300000
111.117100 2250.200000
121.101200 18750.000000
123.117400 2487.400000
135.116900 8463.000000
149.132700 2593.800000

>ms2peaks
53.002200 7075.300000
53.038600 7914.800000
55.054300 124422.900000
57.033500 1841.700000
57.069900 17835.100000
65.038500 3555.500000
67.054200 75599.100000
69.069900 70339.500000
79.054200 43091.100000
81.069900 44398.800000
83.085600 20226.800000
90.055000 113234.500000
91.054200 11547.300000
93.069900 28100.400000
95.049100 4888.200000
95.085600 25496.300000
97.064900 7332.700000
97.101000 2322.700000
107.085600 8526.200000
109.101200 4085.100000
121.101300 4209.700000

>ms2peaks
53.002300 13307.400000
53.038700 10461.500000
55.054300 175894.500000
57.069900 15204.700000
65.038600 6324.300000
67.054200 88774.900000
69.069900 52813.300000
79.054200 48051.400000
81.069900 44117.600000
83.085500 12221.700000
90.055000 42104.500000
91.054300 17361.200000
93.069900 23860.900000
95.049000 9966.900000
95.085600 15393.800000
97.065000 5411.600000
107.085700 5224.400000

