>compound LU38412931
>parentmass 186.2216
>ionization [M+H]+
>formula C12H27N
>rt 567.720000
>profile orbitrap
#smiles_iso CCCCCCCCCCCCN
#smiles_can CCCCCCCCCCCCN
#inchikey JRBPAEWTRLWTQC-UHFFFAOYSA-N
#pubchem_id 13583
#mb_accession LU119501,LU119502,LU119503,LU119504,LU119505,LU119506

>ms2
114.127500 1146530.500000
142.159000 287749.000000
144.174600 596943.400000
186.221600 45162392.000000

>ms2
102.127500 55340.000000
114.127600 1921383.800000
142.159000 518917.500000
144.174700 1063397.100000
186.221600 44225676.000000

>ms2
58.065100 88798.800000
60.080700 173527.300000
72.080800 53409.200000
86.096400 152635.200000
100.112000 299325.900000
102.127700 941357.900000
114.127700 13447009.000000
142.159000 2936151.200000
144.174600 5837603.500000
186.221600 27267152.000000

>ms2
58.065100 415487.800000
60.080700 620152.200000
72.080700 315759.300000
86.096400 1277147.600000
100.112000 913077.500000
102.127700 2371645.500000
114.127700 25679404.000000
142.159000 3367561.800000
144.174600 5735674.000000
186.221600 6972924.000000

>ms2
58.065100 979591.800000
60.080800 789366.300000
72.080700 1417383.100000
86.096400 4390177.000000
100.112100 1137125.500000
102.127700 2007344.500000
114.127700 24437238.000000
142.159100 1727549.100000
144.174700 2173767.800000
186.221700 843894.800000

>ms2
58.065100 1619353.200000
60.080800 659818.400000
72.080700 3119671.200000
86.096400 8095553.000000
100.112000 876292.900000
102.127700 1038108.600000
114.127700 16560655.000000
142.159000 518742.200000
144.174600 501529.000000
186.221500 87897.300000

