>compound LU38350889
>parentmass 224.11819999999997
>ionization [M+H]+
>formula C14H13N3
>rt 930.840000
>profile orbitrap
#smiles_iso C1CC(N2C=NC=C2C1)C3=CC=C(C=C3)C#N
#smiles_can C1CC(N2C=NC=C2C1)C3=CC=C(C=C3)C#N
#inchikey CLPFFLWZZBQMAO-UHFFFAOYSA-N
#pubchem_id 59693
#mb_accession LU075901,LU075902,LU075903,LU075904,LU075905,LU075906

>ms2
224.118100 44862168.000000

>ms2
106.065000 106218.100000
121.076000 46270.400000
131.060300 94813.100000
183.091800 110772.900000
207.091900 63673.800000
208.087000 41224.200000
209.094800 135058.500000
223.111100 50322.100000
224.118100 40443488.000000

>ms2
65.038500 149028.800000
66.033700 49969.900000
77.038700 44330.700000
79.054200 395152.000000
80.049400 164467.300000
82.065100 87208.900000
90.033800 89817.200000
92.049400 46688.000000
93.057200 51460.500000
94.065100 290440.500000
95.049200 79616.000000
104.049400 508536.800000
105.044900 54147.500000
106.065100 1944443.600000
107.060300 122099.900000
107.072900 108087.400000
115.054200 77684.600000
118.064900 96443.600000
119.060300 255104.900000
121.076000 653948.800000
129.069900 31436.600000
130.065000 26838.600000
131.060300 1051464.900000
132.068100 255368.600000
140.049400 26688.700000
142.065100 280442.000000
143.060400 278745.600000
143.072900 39920.500000
146.071200 76656.500000
147.079000 146708.800000
156.080800 108160.200000
159.091800 87607.100000
166.065200 147645.200000
167.072700 90031.700000
168.068200 197299.600000
169.076100 28331.800000
180.080600 273935.100000
181.075900 65595.100000
182.083800 271297.800000
183.091700 841090.000000
184.086900 259646.900000
184.099000 53325.700000
192.068000 166908.300000
195.091700 97182.100000
196.099900 48856.000000
197.107300 192886.300000
205.075800 27241.900000
206.083900 301827.400000
207.091700 723436.500000
208.087000 278002.000000
208.099400 126558.800000
209.094700 1214692.800000
222.102600 214095.000000
223.110600 262310.700000
224.118100 26649934.000000

>ms2
53.038600 263534.800000
54.033900 25625.300000
56.049600 9065.600000
63.022900 72819.400000
65.038500 541398.400000
66.033800 377693.700000
67.029000 140007.500000
67.041600 35698.200000
67.054200 56356.300000
68.049400 56402.200000
70.065100 11115.400000
77.038500 219014.600000
78.033800 18612.100000
78.046400 58663.800000
79.054200 1679544.500000
80.049400 510339.100000
81.044700 8995.200000
81.057300 50427.300000
82.065100 195040.400000
89.038500 41567.800000
90.033800 424932.800000
91.029100 9548.800000
91.041700 19646.800000
91.054200 78256.500000
92.049500 161967.400000
93.044700 31615.300000
93.057300 203110.500000
94.065100 909135.900000
95.049100 580851.600000
104.049500 1871808.600000
105.044700 319456.500000
105.057400 33793.600000
106.065100 5095264.500000
107.060300 412983.800000
107.072900 190566.500000
114.033600 9558.100000
115.054200 322447.300000
116.049500 81029.300000
117.057300 66249.800000
118.052600 74272.800000
118.065100 325669.400000
119.060400 730625.100000
120.068600 13326.900000
121.076000 1229927.600000
128.049500 29181.100000
128.062200 19994.700000
129.044900 32923.200000
129.069800 121017.300000
130.052700 12863.200000
130.065100 69655.100000
131.060400 1750928.900000
132.068200 468773.700000
139.054100 57628.200000
140.049400 148434.200000
141.057300 16117.300000
141.069900 17258.500000
142.065100 726680.300000
142.077700 75859.700000
143.060400 809835.900000
143.072800 97826.100000
145.076100 17577.000000
146.071200 90444.400000
147.079000 338512.200000
148.086900 20057.000000
152.061900 35551.300000
153.069800 66684.800000
154.065300 41104.500000
155.060400 30860.900000
155.072800 10873.500000
156.068500 14301.500000
156.080800 153134.500000
157.076200 65570.200000
157.088700 31306.100000
158.084100 28277.800000
158.096500 14202.900000
159.091700 155102.300000
166.065100 290660.800000
167.060800 56447.100000
167.073000 192770.600000
168.068200 585509.200000
169.064500 14197.200000
169.075600 48504.600000
170.084200 14827.200000
170.096200 40531.200000
178.065000 19295.700000
179.060900 11558.700000
179.072600 51449.100000
180.080700 618505.300000
181.075800 221307.000000
181.088600 42366.400000
182.083900 839071.100000
183.079300 49650.000000
183.091600 767111.400000
184.087000 469004.200000
184.099600 82678.900000
190.065100 81198.000000
191.072800 19510.000000
192.068100 487394.100000
193.076400 13340.000000
194.071500 26225.100000
194.083800 24033.700000
195.091600 153278.600000
196.088300 11225.000000
196.099400 110467.900000
197.095500 32091.800000
197.107000 188514.800000
198.102400 21237.400000
205.076000 253709.600000
206.083800 1044098.800000
207.091600 1074955.000000
208.087000 595485.800000
208.099400 180088.900000
209.094700 1505782.500000
221.095100 22138.800000
222.102500 509509.900000
223.110400 324964.000000
224.118100 7966143.500000

>ms2
52.018100 7304.600000
54.033800 455590.200000
55.041700 106632.100000
68.049400 80229.100000
69.044700 49488.200000
80.049500 40209.000000
81.044700 5670767.500000
82.052500 7055715.000000
83.060300 8397.100000
89.038500 48297.300000
94.065200 17089.700000
95.049100 14636.100000
95.060400 274368.200000
103.054200 68614.200000
104.049600 15989.100000
107.060400 103406.600000
108.068200 260250.500000
115.054200 80234.800000
116.049400 534568.900000
121.076000 26979.900000
128.062100 46746.600000
129.069800 126259.800000
130.065100 84458.100000
140.049400 23287.900000
142.065100 82428.700000
146.096400 8862.500000
154.065200 7104.000000
155.060400 15548.300000
156.080600 51382.900000
169.076100 12339.800000
180.080600 9534.000000
182.071100 7261.100000
224.118200 143346.100000

>ms2
52.018200 13251.000000
53.038600 9540.900000
54.033800 773111.000000
55.041700 205576.700000
67.041600 8597.100000
68.049400 87703.200000
69.044600 31822.800000
80.049500 79002.400000
81.044700 5187957.500000
82.052500 6022468.000000
89.038500 135019.800000
91.054200 8229.100000
94.065100 12758.100000
95.049100 21201.000000
95.060400 146960.400000
103.054200 98371.400000
104.049300 11071.800000
105.044700 8154.000000
107.060400 112789.500000
108.068200 106117.800000
115.054200 115223.300000
116.049400 523487.600000
121.076000 8519.200000
128.049900 7235.600000
128.062000 79333.700000
129.069800 63974.400000
130.065100 35662.700000
140.049500 34316.800000
141.057200 8309.500000
142.065200 44806.500000
145.064600 8868.700000
146.096600 7404.600000
154.065000 10810.300000
155.060300 22896.600000
156.080800 8492.500000
169.075700 8166.900000
224.118000 7801.900000

