>compound LU38643781
>parentmass 226.16620000000003
>ionization [M+H]+
>formula C10H19N5O
>rt 879.360000
>profile orbitrap
#smiles_iso CC(C)NC1=NC(=NC(=N1)OC)NC(C)C
#smiles_can CC(C)NC1=NC(=NC(=N1)OC)NC(C)C
#inchikey ISEUFVQQFVOBCY-UHFFFAOYSA-N
#pubchem_id 4928
#mb_accession LU088701,LU088702,LU088703,LU088704,LU088705,LU088706

>ms2
142.072300 397486.000000
170.103600 2744041.500000
184.119300 2585440.500000
226.166100 82516208.000000

>ms2
57.069800 103152.800000
86.034900 125784.700000
96.055500 184381.800000
100.050400 327994.300000
110.071300 102735.000000
114.066100 180912.000000
142.072300 2682979.800000
152.118200 367404.800000
170.103500 11599599.000000
184.119300 10980526.000000
226.166100 72998800.000000

>ms2
53.002100 26784.800000
57.044700 712530.400000
57.069900 514775.700000
58.028900 72279.700000
68.024300 818595.800000
69.008200 189051.700000
71.060300 429796.800000
75.055300 1298717.400000
82.039900 120568.100000
83.024000 98499.500000
85.050900 63512.300000
85.076000 956915.800000
86.034900 2673597.200000
96.055600 1587492.900000
97.039600 679628.200000
99.066500 269617.200000
100.050500 3871904.500000
110.046200 58198.200000
110.071300 760564.800000
113.082200 81281.900000
114.066200 2294564.800000
127.097900 60920.900000
128.081800 862995.000000
138.077600 171865.300000
142.072300 20877768.000000
152.093100 72167.200000
152.118200 730265.100000
153.076900 39669.500000
156.113200 54878.400000
168.088000 74323.200000
170.103600 25361762.000000
184.119300 20971988.000000
226.166200 19287446.000000

>ms2
53.002200 73311.500000
53.997600 36928.600000
57.044800 3774252.500000
57.069900 560183.100000
58.028700 311962.800000
61.039700 39098.700000
68.024300 2921022.800000
69.008300 1332687.800000
71.060400 1361206.000000
74.071200 38935.600000
75.055300 3554778.500000
82.040000 598293.700000
83.024000 424644.100000
85.051000 260381.200000
85.076100 1715915.000000
86.034900 10000682.000000
96.055700 2395535.800000
97.039700 1820731.000000
99.066600 1026195.500000
100.050600 9137842.000000
110.046200 210578.500000
110.071300 754821.100000
113.082200 88552.400000
114.066200 3149051.200000
125.045900 69052.400000
127.097800 92371.800000
128.081900 1575570.800000
138.077600 355035.000000
142.072400 26236486.000000
152.093200 74938.500000
152.118200 177248.000000
153.077200 89052.900000
168.088000 105522.200000
170.103600 10283400.000000
184.119400 6936894.000000
226.166300 1561147.100000

>ms2
53.002300 139943.100000
53.997400 16829.200000
57.044700 7759289.000000
57.069800 442295.200000
58.028700 1124048.400000
61.039600 71102.900000
68.024300 5720270.000000
69.008300 3298094.000000
71.060300 1677195.800000
74.071200 70062.200000
75.055200 4446681.500000
82.039900 1281607.200000
83.023900 983568.200000
85.050900 459023.200000
85.076000 1223482.400000
86.034800 14573177.000000
96.055600 1866338.600000
97.039600 1650996.600000
99.066500 1548328.800000
100.050500 11449712.000000
110.046100 436876.100000
110.071300 253451.500000
111.030300 19723.800000
113.082000 74792.600000
114.066200 1712328.200000
125.045700 116948.100000
127.097800 40735.800000
128.081800 1090597.900000
138.077400 177261.900000
142.072300 14031059.000000
152.092900 36402.500000
153.076900 43090.500000
168.087900 72895.900000
170.103500 2055770.800000
184.119200 1053223.800000
226.166100 61973.500000

>ms2
53.002200 148693.200000
53.997500 24568.900000
57.044700 9961523.000000
58.028700 2353978.800000
61.039700 62012.000000
68.024300 7607060.500000
69.008300 4589138.000000
71.060300 1208743.100000
74.071400 50586.300000
75.055300 3407255.800000
82.040000 1320686.100000
83.024000 1311952.200000
85.050900 426665.200000
85.076000 591565.100000
86.034900 10664774.000000
96.055600 1079446.000000
97.039700 773876.000000
99.066600 964204.600000
100.050500 9143050.000000
110.046100 364195.700000
110.071300 53438.600000
111.030200 19406.000000
113.082100 25127.800000
114.066200 598460.200000
125.045800 77194.200000
128.081900 439672.900000
138.077200 65191.600000
142.072400 4252173.500000
168.087500 24254.800000
170.103600 309488.200000
184.119300 74850.100000

