>compound LU39701780
>parentmass 442.147
>ionization [M+H]+
>formula C19H19N7O6
>rt 663.000000
>profile orbitrap
#smiles_iso C1=CC(=CC=C1C(=O)N[C@@H](CCC(=O)O)C(=O)O)NCC2=CN=C3C(=N2)C(=O)N=C(N3)N
#smiles_can C1=CC(=CC=C1C(=O)NC(CCC(=O)O)C(=O)O)NCC2=CN=C3C(=N2)C(=O)N=C(N3)N
#inchikey OVBPIULPVIDEAO-LBPRGKRZSA-N
#pubchem_id 6037
#mb_accession LU045202,LU045204

>ms2
120.044400 17314.800000
176.056800 9313.000000
295.094100 149554.500000

>ms2
120.044400 33604.300000
176.056800 50546.700000
295.094200 2054.900000

