>compound LU39705056
>parentmass 383.1521
>ionization [M+H]+
>formula C22H23ClN2O2
>rt 1065.240000
>profile orbitrap
#smiles_iso CCOC(=O)N1CCC(=C2C3=C(CCC4=C2N=CC=C4)C=C(C=C3)Cl)CC1
#smiles_can CCOC(=O)N1CCC(=C2C3=C(CCC4=C2N=CC=C4)C=C(C=C3)Cl)CC1
#inchikey JCCNYMKQOSZNPW-UHFFFAOYSA-N
#pubchem_id 3957
#mb_accession LU123701,LU123702,LU123703,LU123704,LU123705,LU123706

>ms2peaks
337.110200 273476.100000
383.152000 24477676.000000

>ms2peaks
88.039100 16532.800000
102.054900 25885.100000
126.054900 13773.800000
154.086100 47311.600000
228.057100 52419.200000
248.094400 20098.600000
258.127400 76213.600000
259.135500 604098.200000
267.080900 578404.400000
268.088300 37525.000000
270.055400 33850.100000
279.080700 48075.900000
281.096500 264116.700000
282.104300 456147.400000
292.088300 45444.400000
294.104300 866059.600000
302.141200 84875.900000
311.130600 113543.800000
320.084400 13929.600000
322.087000 64885.300000
337.110100 12918929.000000
339.162000 297951.000000
348.183100 39907.200000
355.120500 225707.500000
383.152000 11997474.000000

>ms2peaks
58.065000 25305.900000
67.054200 14053.500000
80.049300 15315.200000
82.065100 86846.800000
88.039300 53393.000000
102.054900 83503.900000
106.065100 5728.300000
110.096400 11121.000000
116.070100 6254.900000
118.065000 6592.600000
126.054900 71667.900000
130.065000 11337.300000
144.080700 6193.700000
154.079600 7522.800000
154.086100 80899.400000
193.088700 18363.400000
217.088500 9071.000000
218.096500 6887.300000
219.104300 8922.200000
226.041800 27816.100000
227.049500 13077.600000
228.057200 312739.000000
229.065100 281867.900000
230.095700 23280.700000
231.103900 53085.300000
232.112100 55508.800000
233.119900 52612.200000
240.057300 18384.000000
242.072800 13332.200000
242.095200 6208.300000
243.104100 83670.000000
244.111900 77496.800000
245.119800 89963.000000
246.127600 193172.800000
247.086200 27251.400000
247.135500 93445.500000
248.094200 161501.600000
251.049300 9067.600000
252.057200 71115.700000
253.065200 325996.800000
254.072200 29706.900000
256.112500 19363.700000
257.119800 96142.200000
258.127600 757585.200000
259.135400 3384876.800000
260.143000 13669.100000
264.058000 10470.800000
265.065500 19226.700000
266.073000 839743.200000
267.080700 5170889.500000
268.088400 158074.500000
270.055300 198425.200000
277.065700 17884.800000
278.073000 63185.700000
279.080800 849342.200000
280.088600 926755.300000
281.096400 2316036.800000
282.104100 1124952.600000
283.062900 208647.500000
286.110300 9720.800000
287.118100 6815.700000
292.088500 427522.000000
293.060400 7445.900000
294.104100 2342867.800000
301.133000 46075.400000
302.141200 401448.200000
310.136400 9466.000000
311.130700 127396.600000
320.083300 48377.100000
322.086500 434910.500000
335.094600 60437.800000
337.109900 5591920.500000
339.162000 357750.900000
348.183000 34619.500000
354.112600 8440.700000
355.120600 80756.300000
381.136300 11091.800000
383.151900 412726.200000

>ms2peaks
55.054200 9041.400000
58.065100 41627.600000
65.038400 4284.400000
67.041500 11569.500000
67.054100 18863.800000
80.049400 40781.600000
82.065100 192487.400000
88.039200 41094.500000
93.057200 32553.600000
94.064900 7793.600000
102.054900 37494.000000
106.065000 11436.600000
110.096400 7234.600000
117.057200 12994.400000
118.065000 22132.600000
126.054900 65738.100000
130.065300 29364.800000
131.072800 22496.900000
132.080500 17157.100000
143.072900 5420.000000
144.080500 13660.500000
154.065100 7690.900000
154.086000 18700.300000
156.081300 5683.900000
163.030700 7355.800000
165.069500 8535.900000
175.031200 5897.600000
191.073100 6349.700000
192.080600 40217.800000
193.088700 112911.300000
194.096400 6594.300000
199.030500 7246.300000
204.081600 11136.100000
205.088200 9909.400000
214.041700 469705.000000
215.085900 5367.000000
216.080900 13801.000000
217.088500 40948.100000
218.096300 78073.500000
219.092400 7333.000000
219.103900 43183.000000
220.099000 38403.800000
220.110300 7277.300000
226.041600 52479.900000
227.050000 36141.400000
228.057300 369368.200000
229.065100 275210.800000
230.096100 115810.900000
231.104100 424525.400000
232.112000 279389.000000
233.119800 99667.700000
238.042200 37855.200000
239.049600 8175.500000
240.057600 38735.200000
241.052600 18224.600000
241.087900 12023.900000
242.072600 29307.400000
242.094700 27240.600000
243.104100 346597.500000
244.111900 470562.100000
245.119800 261252.300000
246.127600 468131.200000
247.086500 8764.000000
247.135500 152111.900000
248.094200 89172.800000
251.049000 58666.600000
252.057300 774931.100000
253.065100 630118.900000
254.073100 45385.000000
254.096900 7301.300000
256.111700 84431.000000
257.119800 143107.900000
258.127600 1874615.100000
259.135400 2606703.500000
260.143100 38776.500000
264.057200 78495.500000
265.065300 94081.600000
266.073000 2488774.500000
268.088100 60933.600000
270.055400 100444.400000
276.057400 8457.400000
278.073000 386279.200000
279.080800 1329766.200000
280.088600 2158847.000000
281.096400 1328373.900000
282.104100 574029.300000
283.062600 99190.100000
286.110300 8913.300000
287.117600 19842.700000
290.072700 15473.900000
292.088500 555892.900000
293.096500 52634.400000
294.104200 656605.400000
296.121000 12475.100000
301.132800 15123.000000
302.141200 100459.600000
310.136100 15220.100000
320.083300 8062.100000
322.086400 158001.400000
335.093900 37996.700000
337.110000 259222.000000
339.162200 63323.900000

>ms2peaks
53.038600 5180.700000
55.054300 13127.400000
56.049700 5705.300000
58.065100 37468.800000
65.038600 21163.700000
67.041600 28544.600000
67.054200 23356.100000
68.049500 9988.200000
80.049400 94349.400000
82.065100 226789.500000
88.039300 21089.400000
91.054300 9987.900000
93.057300 56656.700000
94.065200 8277.600000
96.044300 6573.100000
102.054900 8717.700000
103.054200 5823.600000
106.065300 19966.600000
110.096800 5329.200000
115.054000 7062.800000
117.057300 28690.100000
118.065200 32124.600000
125.015100 7480.400000
126.054800 20296.900000
128.062100 7506.700000
130.065100 66250.800000
131.073100 26952.500000
132.081000 14961.200000
134.060200 6813.700000
141.070000 7116.100000
142.065200 7826.400000
142.077700 8008.300000
143.072800 12919.900000
144.080900 26283.000000
154.065000 12845.200000
156.080900 13404.400000
165.069700 38226.300000
166.077600 12045.300000
167.073000 7210.600000
168.080700 11840.100000
170.096400 6845.100000
175.030600 9223.600000
178.078300 9047.500000
179.073000 27372.100000
179.085500 14170.400000
191.072800 31898.100000
191.085400 11219.700000
192.080800 89323.300000
193.088600 225733.600000
194.096900 24945.100000
199.031000 11660.300000
202.076800 10297.300000
204.080700 64265.100000
205.089000 19469.400000
206.096600 10141.000000
213.034000 19635.700000
214.041700 801435.100000
215.085900 20376.900000
216.080800 108504.200000
217.088500 319882.200000
218.096400 288255.800000
219.091700 31622.600000
219.104200 70729.300000
220.099600 69645.600000
226.041900 66958.000000
227.049600 58909.700000
228.057400 347289.300000
228.080300 32804.800000
229.065300 90496.800000
229.088500 74939.800000
229.101000 12874.500000
230.096300 425202.700000
231.104200 1120677.100000
232.112000 536004.000000
233.119800 66943.400000
238.041900 131272.700000
240.057400 30606.800000
240.081400 6709.700000
241.053100 34222.200000
241.088000 48847.800000
242.096300 208211.200000
243.104300 1283078.200000
244.112000 1039304.200000
245.119800 903241.600000
246.127700 455860.700000
247.135700 68551.900000
248.094700 17029.100000
249.045800 10808.600000
251.049500 353893.900000
252.057400 2014800.400000
253.065200 449036.800000
254.072500 40581.300000
254.096300 10429.600000
255.105700 7255.800000
256.112000 229125.900000
257.119900 179228.100000
258.127700 2610347.500000
259.135500 898262.400000
260.143300 23415.300000
264.057500 204137.600000
265.065300 247774.100000
266.073000 3809000.000000
267.080800 1889714.600000
268.088300 20075.500000
270.055600 9103.700000
277.065000 162944.200000
278.073000 806350.600000
279.080900 685996.400000
280.088600 2034258.200000
281.096400 216224.600000
282.104200 158206.700000
283.063000 16059.300000
287.117800 6773.800000
290.072700 42840.600000
291.081400 13050.700000
292.088600 345738.700000
293.060100 7393.300000
293.096700 15393.300000
294.104200 93198.300000
296.120700 8327.800000
302.140500 8949.000000
322.086600 22477.600000
337.109900 6944.600000

>ms2peaks
53.038600 16037.300000
55.054300 21082.600000
56.049500 7366.500000
58.065200 24546.200000
65.038600 39939.300000
67.041700 65322.700000
67.054300 10770.500000
68.049500 6411.000000
80.049500 110639.900000
82.065200 176168.300000
88.039300 6109.300000
91.054300 21096.300000
93.057400 62516.500000
94.065200 12674.300000
96.044300 13520.900000
103.054400 12315.800000
106.065300 22403.500000
115.054200 27334.300000
117.057300 51612.500000
118.065200 46385.000000
125.015500 17221.100000
126.055000 6336.200000
128.062200 16742.600000
130.065200 81897.500000
131.072900 18182.400000
132.080800 18426.100000
134.060200 11954.000000
141.069900 14482.500000
142.065400 10385.700000
142.077500 8999.400000
143.073000 24935.100000
144.080800 28874.800000
154.065200 23761.900000
154.077700 4986.000000
156.080700 32946.400000
165.069900 89904.800000
166.077900 18637.800000
167.073200 23483.700000
168.080700 20117.400000
170.096400 9314.700000
175.030800 9992.000000
178.077700 17807.400000
179.073000 154526.500000
179.085500 16159.300000
191.073000 86442.400000
191.085100 23143.200000
192.080900 176128.300000
193.088700 294960.400000
194.096900 29340.200000
199.031100 30969.100000
202.077600 53175.400000
204.080900 146811.600000
205.088300 29821.200000
206.096400 24052.200000
213.034200 36106.800000
214.041900 690230.700000
215.085700 31268.300000
216.080900 473204.100000
217.088700 1020773.400000
218.096500 391805.200000
219.091800 35187.700000
219.104400 73620.700000
220.099700 29829.000000
220.110800 6374.900000
226.042100 76254.000000
227.049400 59613.200000
228.057700 302871.400000
228.080600 186814.300000
229.065700 19777.400000
229.088800 293495.500000
229.101000 15157.800000
230.096600 1278913.100000
231.104400 1546787.400000
232.112100 471462.500000
233.120000 21144.600000
238.041800 210916.400000
239.049700 11036.400000
240.080300 12002.800000
241.053000 27170.200000
241.088700 204265.600000
242.096600 728361.700000
243.104400 2511786.800000
244.112100 1336996.600000
245.119900 1067410.000000
246.127700 223482.200000
247.135500 12501.400000
249.046400 24247.700000
251.049700 998001.100000
252.057500 1726677.100000
253.065300 150899.100000
254.073500 24550.900000
254.096400 37392.400000
255.104400 18426.800000
256.112100 495094.600000
257.120000 181357.200000
258.127800 1713511.100000
259.135700 150095.700000
260.144700 6893.100000
264.057500 354289.100000
265.065400 469606.000000
266.073100 2721773.800000
267.081000 371746.100000
268.088000 7550.400000
276.057700 81158.100000
277.065400 210199.100000
278.073200 557761.800000
279.081100 184689.400000
280.088800 977040.400000
281.096500 15290.200000
282.103900 21769.200000
291.080900 9410.700000
292.088600 150783.000000

