>compound LU39837879
>parentmass 388.1059
>ionization [M+H]+
>formula C19H18ClN3O4
>rt 1122.480000
>profile orbitrap
#smiles_iso COC(=O)N(C1=CC=CC=C1COC2=NN(C=C2)C3=CC=C(C=C3)Cl)OC
#smiles_can COC(=O)N(C1=CC=CC=C1COC2=NN(C=C2)C3=CC=C(C=C3)Cl)OC
#inchikey HZRSNVGNWUDEFX-UHFFFAOYSA-N
#pubchem_id 6422843
#mb_accession LU037501,LU037502,LU037503,LU037504,LU037505,LU037506

>ms2
59.012800 6124.200000
75.043900 3474.100000
104.049300 4363.700000
118.065100 21418.200000
126.010300 7624.600000
132.044200 21523.300000
134.060100 56812.200000
149.046800 21344.700000
162.055000 212108.500000
163.062800 394137.300000
164.070600 1004582.900000
166.086500 15516.800000
174.054900 6545.500000
179.057700 8143.500000
185.070700 5094.600000
188.070500 6104.200000
193.016800 4475.600000
194.081300 3437079.200000
196.096800 4978.200000
207.979000 11876.000000
253.052700 6383.300000
261.089900 4318.600000
281.047500 12305.700000
296.058700 701409.900000
300.065300 7732.600000
324.053500 125734.700000

>ms2
59.012800 5258.600000
75.044000 25476.500000
77.038500 4248.300000
91.054200 11960.600000
104.049300 22703.100000
105.057200 6606.800000
106.065100 21257.800000
107.072900 8706.900000
109.064800 15937.800000
116.049400 3066.200000
117.057300 7401.500000
118.065100 87056.300000
119.036500 33852.000000
120.044400 7312.000000
121.064600 3514.400000
125.015100 3088.300000
126.010500 10576.600000
129.057200 3175.500000
130.028500 7734.900000
132.044400 129190.600000
133.052200 95074.900000
134.060000 268633.500000
135.067600 5830.800000
137.059600 10976.400000
138.010700 5528.600000
140.026100 3061.500000
144.044200 4083.600000
144.080600 2840.200000
146.060000 55568.800000
149.047100 500907.100000
151.062700 9616.300000
156.044300 4860.000000
159.055200 13871.500000
160.075700 3431.000000
162.055000 475750.800000
163.062700 2558929.800000
164.070500 1508310.600000
166.086200 47174.800000
174.054900 39434.700000
179.057700 39506.600000
180.021100 4896.300000
185.070700 3269.600000
188.070500 9367.500000
193.016200 15162.400000
194.081200 488350.800000
196.097000 8455.300000
202.049800 3542.400000
218.083400 5295.100000
232.086900 3993.800000
233.094400 4136.700000
241.052800 9574.000000
253.052900 22571.200000
260.081700 4443.700000
261.089700 55469.800000
268.063400 8185.900000
281.048100 13019.300000
296.058500 391394.100000
300.065400 5746.500000
324.053300 55028.800000

>ms2
59.012900 4057.000000
65.038400 6223.200000
75.044100 17565.000000
77.038700 3614.200000
79.054100 11871.200000
89.038700 4074.500000
91.054200 55065.700000
92.025600 3524.300000
94.041400 10489.000000
95.049200 11758.800000
103.041500 3102.900000
104.049400 90973.500000
105.057300 169738.700000
106.065200 67948.700000
107.049200 6400.500000
107.072900 29997.500000
108.044300 4485.700000
109.064800 28102.300000
116.049500 23500.200000
117.057300 33907.800000
118.065100 80709.700000
119.036600 172623.100000
120.044400 101763.200000
121.051900 3085.500000
121.064800 37658.700000
123.067900 59514.100000
126.010400 6516.400000
128.049500 6570.800000
130.028800 30979.000000
130.065200 6684.300000
131.060300 4375.100000
132.044400 352113.900000
133.052200 807654.600000
134.060000 205359.300000
135.043900 3455.500000
135.067900 13820.400000
137.059500 5194.100000
138.010500 12562.200000
139.005600 8819.500000
139.018400 3703.500000
143.060500 5827.500000
144.044500 8801.000000
144.080500 6873.400000
146.060000 81028.900000
148.039400 11827.100000
149.047200 1045654.400000
151.018100 4288.000000
151.062800 17936.900000
156.044400 7729.600000
159.055300 8894.000000
161.046900 4705.600000
162.055000 311164.200000
163.062800 2331767.200000
164.070500 281847.200000
166.086400 13771.600000
174.055000 4366.700000
178.049500 6433.000000
179.057700 29866.600000
180.021400 5646.700000
188.070800 6064.400000
193.016700 7508.200000
194.081300 17045.300000
204.081400 3613.300000
207.979000 9183.700000
218.084000 27841.600000
219.091600 7552.800000
232.075800 14016.800000
232.087300 4653.200000
233.094800 9739.100000
234.077800 3332.100000
241.052400 7658.100000
253.052700 44303.100000
261.089700 52598.600000
267.056300 6645.600000
268.063500 10560.600000
281.047500 9097.100000
296.058600 83917.500000
324.052900 4912.600000

>ms2
51.023100 3573.500000
53.038700 10075.900000
59.012800 2213.100000
65.038500 13783.800000
66.046400 14545.800000
75.044100 10664.200000
77.038600 3540.000000
78.046400 19310.100000
79.054200 30158.200000
80.049400 5667.800000
81.057200 3196.400000
89.038600 7949.900000
91.041700 8909.400000
91.054200 103868.900000
92.025600 10513.000000
92.049500 10796.800000
93.033500 4647.000000
93.057500 4103.000000
94.041500 17233.000000
95.049100 30267.300000
96.044400 3665.500000
98.999600 8343.400000
103.041600 7806.400000
104.049500 279269.300000
105.057400 705417.100000
106.065200 100677.600000
107.049200 9158.500000
107.073000 35180.300000
108.044500 22684.900000
109.052300 3129.300000
109.064800 16863.900000
110.060000 2855.400000
111.044100 3753.400000
116.049500 27455.200000
117.057400 37918.000000
118.065100 82496.400000
119.036600 260404.000000
120.044400 384230.800000
121.052300 12259.000000
121.064800 105443.800000
122.060000 6525.400000
123.067900 136967.300000
125.015500 2791.200000
126.011100 3050.100000
128.049500 21775.200000
129.010400 11545.500000
129.057500 6277.900000
130.028800 47058.000000
130.040000 5807.700000
130.065100 5062.400000
131.060400 3477.100000
132.044500 455918.000000
133.052300 981072.900000
134.023700 35591.400000
134.060000 115826.000000
135.044000 2967.600000
135.067800 10376.600000
136.075600 3907.600000
137.047300 5881.600000
137.083500 6354.800000
138.010500 11502.800000
139.005800 24399.200000
142.052500 3350.500000
143.060300 3451.100000
144.044400 10074.800000
144.081200 3614.100000
146.023700 3242.900000
146.060100 61246.900000
147.031800 3944.500000
148.039300 56780.600000
149.047200 725009.600000
150.010800 3178.700000
151.018200 5201.000000
151.062900 11637.600000
153.021900 3659.100000
159.055100 3808.100000
160.075700 3219.400000
161.047200 6185.500000
162.055000 241436.500000
163.062800 765784.100000
164.070500 32397.500000
178.049600 3267.800000
179.057800 7586.200000
180.020900 2958.100000
193.016400 2907.800000
204.081100 14543.200000
218.084000 33562.100000
219.091700 9330.700000
232.075600 13489.400000
232.086800 4240.100000
233.094500 7054.800000
234.078600 3639.300000
241.052500 6911.900000
243.078800 25444.100000
253.052700 34583.800000
260.082100 2651.000000
261.089600 11601.000000
267.056000 7975.300000
268.063500 4049.900000
296.058800 4502.600000

>ms2
51.023000 3590.600000
53.038600 27400.800000
55.017900 2614.400000
58.028700 5678.700000
63.022900 2908.900000
65.038500 41397.400000
66.046400 31406.200000
75.022900 8576.500000
75.044000 7346.700000
77.038500 15514.400000
78.033800 6441.000000
78.046400 59008.400000
79.054200 42096.700000
80.049500 14225.300000
81.033500 3782.900000
81.057200 2889.900000
81.069900 2663.500000
86.999500 5363.600000
89.038500 20022.400000
90.033800 7014.000000
90.046300 5937.200000
91.041700 41572.200000
91.054200 155725.000000
92.025700 24242.200000
92.049500 35218.500000
93.033500 7185.900000
93.057500 14838.300000
93.069900 3214.800000
94.041400 27373.500000
95.049200 80410.800000
96.044600 14419.600000
98.999500 5272.300000
103.041700 18980.400000
104.049500 838686.900000
105.057300 1022938.800000
106.028800 48069.100000
106.065100 148553.700000
107.049100 12140.000000
107.072900 32729.400000
108.044400 52271.000000
109.052200 6071.000000
109.064900 14809.100000
110.060100 6949.500000
110.999700 4908.600000
111.044100 8973.200000
116.049500 35250.200000
117.057400 45907.400000
118.065100 95412.000000
119.036600 319939.800000
120.044400 755603.600000
121.052000 14084.700000
121.064800 157328.300000
122.059900 10554.600000
123.067900 118526.100000
125.014800 2791.100000
126.010600 3079.800000
128.049500 35380.700000
129.010200 17696.500000
129.044700 5238.100000
129.057400 5701.800000
130.028800 78463.200000
130.040000 20826.400000
130.065000 6968.700000
131.060200 5776.700000
132.044400 581550.100000
133.052200 524525.100000
134.023600 148206.200000
134.060000 89433.400000
135.044000 7734.400000
135.067800 5447.700000
136.075700 7960.200000
137.047200 20727.500000
137.083400 4055.100000
138.010600 17261.200000
139.005800 39347.500000
139.018300 2742.400000
142.052700 4536.200000
144.044300 10713.200000
144.080700 4650.300000
146.023300 4661.400000
146.060100 39885.600000
147.031700 3204.500000
148.039300 109835.600000
149.047200 382264.000000
150.010700 2933.700000
151.018400 5827.200000
151.062600 5415.800000
161.047200 3866.100000
162.055000 265127.600000
163.062800 169827.800000
164.070700 12904.200000
204.080700 16993.200000
216.068000 3643.100000
218.084100 30875.200000
219.091500 11369.800000
232.075400 5357.300000
232.087000 7457.200000
233.095100 4307.300000
241.052300 5275.200000
243.079300 23190.900000
253.052700 23981.400000

>ms2
51.022900 5679.000000
53.038600 52929.300000
55.017900 4311.900000
58.028700 4392.300000
63.022900 9821.300000
65.038600 94550.600000
66.046400 36188.400000
75.022900 23429.400000
77.038500 32985.700000
78.033800 34691.300000
78.046400 148037.400000
79.054200 58980.800000
80.049400 16684.600000
81.033600 7420.200000
81.057200 5460.200000
81.070000 2928.600000
86.999600 6871.700000
89.038600 33345.400000
90.033900 8857.000000
90.046400 12392.600000
91.041700 94916.400000
91.054200 206369.800000
92.025700 42741.200000
92.049500 94637.600000
93.033600 10170.600000
93.057500 20990.900000
93.069900 9259.800000
94.041400 29490.600000
95.049200 177272.500000
96.044400 29887.500000
98.999600 5891.400000
103.041600 20176.400000
104.049500 1357772.900000
105.057300 624545.100000
106.028800 149751.600000
106.065100 161009.700000
107.049200 10491.100000
107.072800 17188.000000
108.044400 50475.300000
109.052300 15973.100000
109.064900 7605.200000
110.060100 26417.400000
110.999600 6283.200000
111.044100 18467.600000
116.049500 22592.100000
117.057300 44337.200000
118.065200 88810.000000
119.036600 300720.400000
120.044400 734794.500000
121.052300 11305.500000
121.064800 145378.500000
122.060100 10090.300000
123.067900 38435.600000
125.015400 4472.700000
128.049500 36962.800000
129.010200 24377.600000
129.044700 5993.100000
129.057400 10408.800000
130.028800 114574.400000
130.040000 38664.000000
131.060500 6056.200000
132.044400 534200.800000
133.052200 144591.800000
134.023700 187308.900000
134.060000 54765.200000
135.044300 5809.800000
136.075800 17554.200000
137.047200 24489.600000
138.010600 9418.400000
139.005800 38648.000000
142.052900 5541.500000
144.044400 5047.100000
146.023700 9127.400000
146.060200 12795.200000
148.039400 82336.100000
149.047200 101436.600000
150.010300 3890.900000
151.018500 5123.200000
151.062900 4138.200000
161.047100 3250.700000
162.055000 198214.500000
163.062700 28562.400000
204.081000 13919.900000
216.068600 4919.700000
218.084000 25600.500000
219.091600 3922.500000
232.087300 4445.300000
243.079400 4817.500000
253.052500 9730.900000

