>compound LU39521083
>parentmass 307.1904
>ionization [M+H]+
>formula C18H26O4
>rt 1206.660000
>profile orbitrap
#smiles_iso CCCCCOC(=O)C1=CC=CC=C1C(=O)OCCCCC
#smiles_can CCCCCOC(=O)C1=CC=CC=C1C(=O)OCCCCC
#inchikey IPKKHRVROFYTEK-UHFFFAOYSA-N
#pubchem_id 8561
#mb_accession LU061301,LU061302,LU061303,LU061304,LU061305,LU061306

>ms2peaks
149.023300 58269.900000
163.039200 2127.800000

>ms2peaks
149.023400 87897.000000
163.039100 2287.800000
181.049800 1815.600000
232.075800 2958.600000

>ms2peaks
121.028400 2233.800000
149.023300 73018.600000
163.039000 2098.600000
181.049300 2017.900000
208.075900 3103.300000
222.091300 2975.500000
230.096600 1915.600000
232.075800 11990.900000
233.060200 3238.100000
246.092300 2072.700000

>ms2peaks
65.038600 2065.700000
121.028600 9487.400000
149.023500 68809.000000
222.091500 3099.000000
230.096200 2855.600000
232.075800 17030.300000
233.059700 2369.600000
246.091900 3466.100000

>ms2peaks
65.038600 8737.100000
93.033700 2954.200000
111.044300 3600.600000
121.028400 22477.600000
149.023400 33904.900000
181.050500 1807.900000
204.081100 4305.300000
230.096500 2922.400000
232.075800 12514.100000
233.060000 2140.500000
246.091900 4090.800000

>ms2peaks
65.038600 23671.700000
93.033600 3243.000000
111.044200 2498.600000
121.028500 12006.700000
149.023200 10133.900000
204.081000 6547.300000
208.075400 2063.500000
230.096600 2441.600000
232.076200 11359.500000
246.091400 2116.100000

