>compound LU39225105
>parentmass 559.2603
>ionization [M+H]+
>formula C33H35FN2O5
>rt 1069.410000
>profile orbitrap
#smiles_iso CC(C)C1=C(C(=C(N1CC[C@H](C[C@H](CC(=O)O)O)O)C2=CC=C(C=C2)F)C3=CC=CC=C3)C(=O)NC4=CC=CC=C4
#smiles_can CC(C)C1=C(C(=C(N1CCC(CC(CC(=O)O)O)O)C2=CC=C(C=C2)F)C3=CC=CC=C3)C(=O)NC4=CC=CC=C4
#inchikey XUKUURHRXDUEBC-KAYWLYCHSA-N
#pubchem_id 60823
#mb_accession LU035801,LU035802,LU035803,LU035804,LU035805,LU035806,LU138501,LU138502,LU138503,LU138504,LU138505,LU138506

>ms2peaks
250.104500 7797.300000
292.149500 17493.700000
294.165300 14037.300000
336.139000 12006.700000
413.202900 22939.400000
422.212500 229656.200000
430.182000 22379.600000
440.223200 4795840.000000
448.192000 146404.500000
466.202500 962059.800000

>ms2peaks
79.054100 19106.400000
83.049100 15122.900000
89.023100 12898.900000
92.049300 6972.700000
99.080500 7963.500000
101.059800 13420.900000
107.049100 7591.300000
120.044400 51093.100000
125.059600 11040.500000
237.094900 6062.500000
238.102700 49974.900000
248.087800 6515.300000
249.094700 23132.100000
250.102600 854711.000000
251.110900 9187.500000
252.118100 41153.700000
262.102700 27331.500000
264.081600 4778.300000
264.117700 5617.300000
276.082700 32146.500000
276.118300 367636.500000
277.125600 15424.000000
278.133900 6884.800000
279.141500 48940.700000
280.149600 104997.100000
290.133600 15281.100000
292.149600 1609272.000000
294.092900 23883.000000
294.165200 251359.800000
300.118600 4521.900000
302.098000 19202.400000
302.134100 40514.700000
304.149800 13302.600000
306.128800 29622.900000
316.150100 11721.800000
318.131300 36764.100000
318.165100 173904.700000
320.109700 6408.700000
320.144400 72726.300000
334.195800 13468.300000
336.140400 27612.000000
336.175800 54065.200000
344.144600 45246.200000
344.181300 15313.300000
346.123500 3680.800000
358.196800 5055.000000
360.140200 28194.800000
362.155100 370094.100000
369.140600 17749.200000
376.170200 4500.900000
380.165900 910304.100000
388.134800 26900.400000
402.186200 51620.300000
404.202100 216184.600000
406.145000 32474.900000
406.181000 12886.200000
413.202600 11428.200000
422.212800 793464.200000
430.181600 53251.600000
440.223400 3537057.200000
448.191600 40220.500000
466.202800 456840.400000

>ms2peaks
53.038600 8902.600000
55.054300 31783.400000
57.033500 12695.500000
59.049200 5032.200000
65.038700 5659.500000
69.069800 9249.900000
71.012700 34288.900000
71.049100 14627.800000
79.054200 128980.700000
81.033500 5531.200000
81.069900 12270.400000
83.049100 103431.200000
89.023400 44183.400000
91.054300 11348.300000
92.049500 86359.800000
94.064900 5167.000000
95.049200 29149.800000
97.028500 13357.000000
97.064800 20873.800000
99.080600 24336.700000
101.059800 73771.900000
104.049500 5816.800000
105.044700 10080.400000
106.065200 5331.900000
107.049100 14005.800000
109.044800 15513.100000
113.059700 10103.200000
115.054200 16653.000000
117.057300 7371.800000
120.044400 133352.400000
122.040200 8612.200000
125.059700 25164.300000
129.069800 19819.700000
132.044500 14713.700000
133.044700 17451.500000
135.047800 5202.300000
143.070600 4975.800000
143.085700 4441.800000
185.076300 8659.500000
200.086500 4319.300000
203.085800 9157.900000
209.075900 38870.200000
223.091100 20348.900000
230.096500 25756.200000
233.076200 59735.800000
234.083400 6655.100000
235.079400 26545.600000
236.087100 13588.800000
237.095100 53401.400000
238.102800 353998.300000
248.087200 103419.200000
249.095000 340743.700000
250.102700 4282354.000000
251.110300 33450.800000
252.118200 126589.300000
259.091900 5438.800000
260.086200 4489.400000
261.095000 29282.100000
261.108500 5272.400000
262.102800 232138.500000
263.109800 14319.900000
264.082300 58402.900000
264.118300 84537.900000
274.102300 32394.400000
275.110300 22103.400000
276.082800 186011.000000
276.118300 1695901.100000
277.126000 76258.500000
278.097600 22009.300000
278.134000 40709.700000
279.141900 42396.700000
280.149700 63887.800000
287.111100 6124.200000
288.118700 39721.900000
289.126500 26199.400000
290.134200 92392.200000
291.142000 8576.600000
292.149700 727239.800000
294.092900 12285.500000
294.165300 84718.600000
300.118400 33187.500000
301.126300 10352.600000
302.098100 79514.100000
302.134100 245398.900000
303.106100 5714.000000
303.142200 29218.900000
304.150000 15360.900000
306.128900 145520.800000
314.133700 4775.700000
316.113600 10833.600000
316.149600 83546.400000
317.157300 7778.000000
318.130200 68108.800000
318.165200 186743.300000
320.112000 22916.600000
320.144700 187736.200000
328.115300 6666.600000
334.124200 33056.700000
336.175900 61045.900000
344.144800 85226.900000
344.181400 11096.200000
360.139800 12734.400000
362.155200 329225.800000
369.140300 8750.000000
380.166100 182520.700000
388.134600 8732.200000
402.187500 5706.500000
404.202200 21119.600000
406.181600 55920.000000
422.213500 19932.800000
430.180900 6802.500000
440.223700 36142.700000
466.202800 80832.000000

>ms2peaks
53.002300 8319.800000
53.038600 32905.300000
55.018000 9265.000000
55.054200 62368.800000
57.033400 43011.800000
59.049100 16132.800000
61.028400 6633.900000
65.038600 19631.700000
67.054100 16063.700000
68.997200 3216.000000
69.069800 17209.100000
71.012700 53784.100000
71.049100 44541.200000
73.028500 12067.000000
77.038700 10280.400000
79.054200 164118.400000
80.049600 8568.000000
81.033500 8004.300000
81.069900 17923.700000
83.049100 138274.700000
85.065000 4634.300000
89.023300 25039.600000
91.054200 41112.100000
92.049400 208760.200000
94.065300 9727.600000
95.049100 100550.700000
97.028400 37384.500000
97.064800 18883.300000
99.080600 6098.900000
101.059700 67665.400000
103.054100 15969.600000
104.049400 69668.000000
105.044700 42862.000000
106.065100 15066.000000
107.049200 10012.800000
109.044800 52751.000000
109.048800 3307.900000
113.059700 7098.800000
115.054200 132661.900000
116.049600 6657.800000
117.057200 61326.700000
117.070100 9172.300000
120.044400 95930.300000
121.044600 18062.200000
122.040000 83667.800000
123.060500 3234.800000
124.075800 9126.100000
125.059800 11663.400000
127.054200 7033.200000
128.061900 20847.700000
129.069800 74660.300000
130.064900 21803.000000
132.044500 12705.600000
133.044700 102992.900000
134.040200 3286.500000
134.060300 3137.200000
135.047900 29763.300000
136.055800 3766.800000
141.070200 12244.900000
142.065200 5757.400000
142.077800 5279.500000
143.073300 11308.900000
143.085400 6369.500000
145.065000 10162.500000
146.052800 7092.700000
146.059900 6623.100000
147.060500 38445.000000
148.055700 13971.600000
152.062000 3292.300000
153.069700 13771.200000
154.065000 78788.600000
155.060400 14027.900000
155.073300 3595.100000
155.085700 12538.800000
156.080900 9056.000000
159.060700 5937.000000
160.055900 6994.800000
160.075700 5888.400000
161.063800 5952.500000
165.070100 9290.400000
166.065400 3638.900000
167.073000 15406.900000
168.080700 4715.100000
171.060600 3691.500000
172.055700 53498.800000
172.075300 16863.900000
173.051200 7759.000000
174.071500 9050.300000
178.065900 7900.500000
179.085500 8558.900000
180.080800 27023.900000
181.088800 5478.400000
182.096600 11031.400000
183.060700 5704.600000
185.063800 8524.400000
185.076400 11961.100000
190.066000 9110.700000
191.085400 5209.500000
192.081300 4044.500000
196.068500 8747.700000
197.076300 10877.200000
198.071400 23904.500000
200.087100 14267.400000
202.077300 25319.800000
203.085400 103917.600000
204.080700 4135.200000
206.096300 4222.700000
208.068300 5607.100000
209.076000 136238.100000
211.080100 4543.100000
211.091500 5564.200000
217.088600 14557.900000
217.100400 5444.300000
218.096100 24579.600000
220.068500 11166.100000
221.076100 36242.900000
222.071400 26198.800000
222.084000 22884.700000
223.079600 6878.200000
223.091400 69042.500000
224.086700 7902.600000
228.080500 3933.000000
229.088700 4544.600000
230.096400 135932.300000
233.076100 322808.100000
234.072300 4907.600000
234.083800 36193.400000
235.079100 249242.700000
236.086900 48800.500000
236.099500 4842.800000
237.094700 117943.400000
238.102500 301868.600000
239.085300 5745.200000
241.088300 4857.800000
242.096600 6851.700000
246.084300 10093.400000
247.091400 10398.800000
248.087000 447313.300000
249.094800 529109.700000
250.102500 3116502.000000
251.110100 18101.200000
252.118100 79834.900000
256.111600 7426.900000
258.085000 5250.000000
259.079000 4265.000000
259.092400 31271.700000
260.086900 15022.200000
260.100500 4564.600000
261.094600 127267.200000
261.106700 7126.900000
262.102500 290112.700000
263.110200 35501.900000
264.081800 153271.100000
264.118000 127518.000000
271.092400 3947.000000
272.086200 5612.000000
273.093800 5837.800000
274.102500 123088.400000
275.110500 65823.000000
276.082500 150789.500000
276.118100 1324540.000000
277.126000 66704.400000
278.098100 20164.000000
278.134000 35965.100000
280.149700 4234.100000
283.092000 4181.400000
286.102400 10699.200000
287.110200 22338.200000
288.118300 104107.000000
289.126100 35543.900000
290.134000 99322.700000
291.105400 12004.000000
291.141600 6774.500000
292.149700 90450.400000
294.164400 4692.200000
298.104300 3722.700000
300.118300 39762.900000
301.125900 18895.000000
302.097900 42015.000000
302.133800 191157.800000
303.105200 11142.300000
303.141600 37861.900000
304.113000 13950.500000
304.149400 11221.000000
306.128400 57371.400000
314.134100 9172.000000
316.115100 5512.600000
316.149600 45505.100000
318.129200 24545.900000
318.164800 34965.200000
320.108000 32711.700000
320.144300 20574.900000
328.113400 5269.100000
336.175900 3201.300000
344.144000 12455.700000
346.123700 3640.800000
362.154800 112371.100000
406.181600 5430.000000

>ms2peaks
50.015200 3820.400000
51.023100 3654.000000
53.002300 8992.900000
53.038600 64437.900000
55.017800 18279.700000
55.054300 72525.600000
57.033500 45028.700000
59.049200 12614.300000
61.028500 4540.700000
65.038600 45640.300000
67.054200 18353.700000
68.997200 4783.700000
69.033500 44942.300000
69.070000 11090.200000
71.012700 50809.800000
71.049100 49230.600000
73.028500 9558.400000
77.038600 26289.000000
79.054200 127132.900000
80.049500 11019.000000
81.033600 10261.000000
81.070000 5868.900000
83.049100 100567.000000
89.023500 5462.700000
91.054300 70311.400000
92.049500 206585.900000
94.041600 7473.400000
94.065200 8983.000000
95.049200 167716.100000
97.028500 24512.700000
97.065000 8335.000000
101.059800 21708.100000
103.054300 51412.100000
104.049500 133155.600000
105.044800 73176.000000
105.070000 3860.900000
106.065300 10645.300000
109.044800 91703.800000
109.048900 5138.400000
115.054300 218045.700000
116.049400 13872.400000
116.062200 10591.600000
117.057400 85451.300000
117.070100 13427.100000
120.044400 37544.200000
121.044800 42983.800000
122.040100 147378.400000
123.060000 3692.000000
124.075900 7320.800000
127.054100 19705.900000
128.049700 17047.400000
128.062100 84670.600000
129.045000 7630.100000
129.069900 89054.900000
130.065200 40930.100000
132.044500 12060.400000
133.044800 163386.500000
134.040100 9109.700000
134.053000 4687.900000
134.059900 7700.200000
135.047900 50612.300000
135.060600 7974.700000
136.055400 3880.500000
140.049900 6574.400000
141.069900 23541.600000
142.065200 13967.900000
142.077700 4347.800000
143.072900 18446.600000
143.085700 3804.400000
145.045200 5742.800000
145.064800 76336.800000
146.040100 6835.100000
146.052800 41972.500000
146.060100 31897.000000
147.060400 40630.900000
148.055700 31128.200000
152.062200 18734.800000
153.057500 7686.400000
153.070000 47019.000000
154.065200 204044.600000
155.060400 109746.400000
155.072700 9215.800000
155.085100 15919.900000
156.080800 11875.700000
159.060500 12239.700000
160.055900 12579.600000
160.076000 9349.500000
161.063600 18546.500000
163.055500 10873.200000
164.050800 12096.700000
165.069900 25287.000000
166.065200 14428.000000
167.073000 35629.800000
168.080900 9437.000000
169.064700 4507.400000
170.052700 5842.900000
170.060100 17176.600000
171.047900 7396.900000
171.060300 19317.100000
172.055700 122068.100000
172.075700 31741.800000
173.051100 41552.600000
173.063500 9433.100000
174.072000 14584.000000
177.070100 9700.400000
178.065900 12565.100000
178.077500 4932.500000
179.085100 3975.100000
180.044500 6832.700000
180.055900 4917.100000
180.080900 49759.600000
181.088500 8886.400000
182.096800 13900.000000
183.060700 25907.800000
184.055700 7747.600000
185.063600 19789.400000
185.076600 5325.300000
186.071700 6641.100000
189.069900 12669.400000
190.066200 21145.200000
191.085400 10621.600000
192.080900 5748.200000
193.088800 4718.400000
194.096800 8025.100000
196.068000 28752.000000
197.076000 10445.300000
198.071600 33330.200000
199.079200 6234.000000
200.087200 16646.300000
201.069800 3801.600000
202.077700 130037.100000
203.085600 154256.200000
204.081100 15548.500000
206.096500 5713.700000
207.060500 11908.000000
208.068100 21838.600000
209.076200 207657.800000
210.083000 5355.600000
211.079200 13078.200000
211.091000 6894.500000
212.087500 6278.800000
215.085800 11776.100000
216.080800 12202.300000
217.088800 44998.500000
217.100400 3082.100000
218.096500 32146.600000
219.080500 5440.200000
220.068200 60587.100000
221.076200 97749.800000
222.071300 68013.300000
222.084000 63445.900000
223.079300 11378.700000
223.091400 58401.000000
224.087100 11830.600000
226.077700 6053.200000
227.072900 6791.300000
228.081200 27107.200000
229.088500 12974.500000
230.096500 169653.500000
233.076300 410258.900000
234.071000 14174.300000
234.084000 37771.300000
235.079300 508001.200000
236.087100 75573.100000
237.073000 13991.000000
237.094900 106811.700000
238.102700 96287.500000
239.085600 12025.600000
241.088500 15799.900000
242.096100 13275.100000
243.103600 3963.500000
245.063500 3794.800000
246.071000 18584.500000
246.084100 22681.400000
247.080800 13618.900000
247.091300 15466.800000
248.087100 725739.300000
249.094900 358691.800000
250.102700 1216213.900000
251.110300 4089.700000
252.118700 16568.500000
256.112000 11790.600000
257.076000 9791.500000
258.084200 11385.000000
259.078700 13814.300000
259.091800 34848.900000
260.086900 58352.000000
260.100800 4358.100000
261.094900 227465.600000
262.102600 228008.600000
263.074200 10454.400000
263.110100 44569.800000
264.082100 77767.600000
264.118200 82466.400000
270.083500 9094.800000
271.091600 6809.200000
272.086600 21803.000000
273.095000 12417.300000
274.102600 171515.800000
275.073900 7901.400000
275.110400 56732.200000
276.082500 79079.400000
276.118300 551757.300000
277.126100 14328.500000
278.097700 7546.500000
278.133600 13423.800000
283.092400 7588.100000
285.094400 8854.200000
286.103000 20827.800000
287.110700 27199.800000
288.118400 79032.000000
289.126500 16049.800000
290.097400 20500.600000
290.134000 53071.600000
291.105500 5203.400000
292.149100 6815.100000
298.103200 9133.500000
300.118500 37135.600000
301.125800 12305.400000
302.097900 21103.000000
302.134000 76428.400000
303.141300 9936.500000
304.113200 11484.600000
304.149800 9263.000000
306.128800 6249.600000
314.133600 7170.600000
316.149100 9876.500000
320.107900 4624.700000
362.154800 7205.300000

>ms2peaks
51.023000 5855.200000
53.002200 12211.500000
53.038600 74577.900000
54.033800 3921.500000
55.017900 13827.600000
55.054200 69716.200000
57.033500 32545.200000
59.049100 9645.500000
61.028200 3431.300000
65.038500 73453.100000
67.054200 20976.800000
68.997000 8030.000000
69.033400 50348.300000
69.069800 6823.100000
71.012800 31304.300000
71.049100 28391.700000
73.028400 8488.100000
77.038500 37272.900000
79.054200 80983.600000
80.049500 9857.900000
81.033500 7904.100000
81.069900 6788.800000
83.049100 74908.800000
89.023500 3230.000000
91.054200 86011.200000
92.049500 181180.700000
94.041500 5853.800000
94.065300 3680.300000
95.049100 275691.200000
97.028400 8115.200000
97.064600 4077.200000
101.059700 9363.100000
103.054200 83442.200000
104.049400 121853.200000
105.044700 98380.600000
106.065300 4595.900000
107.049000 2647.700000
109.044800 103926.800000
115.054200 258347.800000
116.049400 21894.100000
116.062200 18023.000000
117.057300 85721.700000
117.069800 17930.900000
118.065000 5427.800000
120.044400 13085.500000
121.044800 46189.200000
122.040000 145810.000000
123.035300 14505.800000
124.075800 6890.200000
127.054100 72298.300000
128.049700 39684.900000
128.062000 159738.700000
129.044800 22001.600000
129.069800 52825.500000
130.065100 37126.300000
132.044400 6076.300000
133.044800 196437.300000
134.039900 14815.500000
134.052600 8066.800000
134.060100 7634.500000
135.047800 50748.300000
135.060700 6439.700000
140.049700 9986.600000
141.069900 29484.700000
142.065200 11559.300000
142.077500 5970.000000
143.049100 8403.500000
143.073000 23229.600000
145.044900 25007.700000
145.064800 141774.600000
146.039900 12388.800000
146.052600 83945.800000
146.060000 46675.000000
147.060300 21272.900000
148.055700 22894.800000
152.062000 49872.300000
153.057500 25991.700000
153.069700 65776.200000
154.065100 187312.000000
155.060300 174324.700000
155.072800 14335.500000
156.080900 12549.900000
159.060300 14716.000000
160.055900 13841.200000
160.075500 5128.300000
161.063400 14097.200000
163.055300 43097.500000
164.050600 28990.900000
165.069900 40632.700000
166.065100 22762.900000
167.073000 42092.100000
167.085300 5249.500000
168.080900 10213.700000
169.064900 14341.000000
170.052400 14334.500000
170.060100 34428.800000
171.047900 19574.700000
171.060200 24588.200000
172.055600 136608.400000
172.075000 20561.400000
173.051000 92548.300000
173.064000 8881.800000
174.071200 11086.800000
177.070100 10127.900000
178.077700 9530.600000
179.085400 3868.000000
180.055600 13065.700000
180.080700 45042.200000
181.088000 9168.400000
182.096500 10079.800000
183.060400 66170.000000
184.055400 7780.800000
185.063700 28324.600000
186.071500 4578.600000
189.069800 39626.600000
190.065900 18890.800000
191.085900 7131.700000
192.080800 8295.900000
193.088800 8394.400000
194.096300 4972.300000
196.067900 45894.400000
197.076800 6030.200000
198.055000 3933.300000
198.071300 30965.200000
199.079500 3980.900000
200.087500 11504.300000
202.077600 256407.300000
203.085400 89628.300000
204.080500 15936.300000
206.096300 4821.200000
207.060200 51920.900000
208.068000 33588.200000
209.076100 164825.100000
210.071500 7386.900000
210.083200 4834.500000
211.079200 24012.800000
212.087200 4245.600000
215.074000 5125.300000
215.085600 18165.800000
216.081100 24845.600000
217.088600 48414.000000
218.096300 14184.100000
219.080300 13566.100000
220.068100 153314.500000
221.076000 107326.400000
222.071300 83288.400000
222.083900 62990.200000
223.079000 11123.000000
223.091900 14000.100000
224.087300 9597.000000
226.077600 11883.900000
227.073100 18824.300000
227.085400 6601.600000
228.080800 53624.600000
229.088600 17029.000000
229.100300 5260.800000
230.096300 91238.300000
233.076100 377096.900000
234.071300 66344.800000
234.083900 19926.300000
235.079200 520698.400000
236.087100 66799.500000
237.071000 10015.800000
237.094800 49057.800000
238.103000 14808.800000
239.085300 16847.100000
241.088500 27021.700000
242.096600 16310.000000
243.104500 5195.300000
245.075900 6575.200000
246.071200 23643.300000
246.083900 36734.800000
247.079000 28059.800000
247.092000 16439.700000
248.087000 724155.600000
249.094700 140064.400000
250.102600 286288.800000
254.096200 17773.700000
255.104700 3960.600000
256.112300 6349.900000
257.075900 20221.400000
258.084300 7260.800000
259.079000 34113.700000
259.092300 20737.800000
260.086900 90601.000000
260.101800 5650.500000
261.094700 188970.200000
262.102600 131907.400000
263.074000 9973.800000
263.110100 17609.900000
264.082000 13742.800000
264.118100 26112.100000
267.104500 5578.100000
270.083900 9733.100000
272.086600 47468.800000
273.094900 20652.900000
274.102500 126931.000000
275.073800 3901.800000
275.110200 26370.800000
276.082500 34339.700000
276.118200 184681.100000
283.092700 4106.900000
285.094900 16273.900000
286.103100 32358.700000
287.110200 24298.700000
288.082200 3279.800000
288.118500 35414.800000
289.126900 3960.500000
290.097400 8355.900000
290.134000 11071.000000
298.103200 7140.900000
300.118400 19237.400000
301.126100 3662.900000
302.133800 18715.900000
304.113100 4400.500000
314.134100 3242.500000
318.129500 3396.000000

>ms2peaks
250.104700 8948.000000
292.150100 10581.200000
294.164100 6771.100000
336.139700 9221.600000
380.166400 11402.400000
404.203000 10860.000000
413.204400 17179.500000
422.212900 200123.300000
424.155400 16031.800000
430.181900 25849.200000
440.223600 4152522.200000
448.192200 124181.600000
466.203000 908426.000000
541.249600 23985.400000

>ms2peaks
79.054200 18713.100000
83.049000 14225.700000
89.023200 14010.600000
92.049400 8668.400000
101.059800 13774.600000
107.048900 7393.600000
120.044400 45196.500000
125.059700 12092.800000
197.095900 3529.600000
237.094200 5188.100000
238.102500 44686.300000
248.087800 5057.800000
249.094700 24444.600000
250.102700 812293.600000
251.110800 10843.900000
252.118400 42927.800000
262.102400 29813.900000
264.118800 5321.700000
276.083000 26141.000000
276.118300 347641.300000
277.125500 14119.200000
279.141700 43774.100000
280.149600 101525.100000
290.134500 14854.900000
291.141700 3801.300000
292.149700 1471195.600000
294.092800 21570.200000
294.128700 13140.700000
294.165300 241096.200000
300.117700 4651.600000
302.098500 15417.400000
302.134000 41548.900000
304.150100 9597.300000
306.129100 31939.600000
316.149100 15533.400000
318.165300 178246.400000
320.144400 74574.400000
334.125200 4011.600000
336.140400 24721.300000
336.175800 48835.400000
344.144800 44701.700000
344.181000 12874.600000
360.140000 29334.200000
362.155200 381110.600000
370.123800 13463.400000
380.165900 884774.300000
380.200800 65003.800000
386.192100 9089.000000
388.134500 24381.100000
398.176500 179238.200000
404.202300 210605.900000
406.181800 14293.200000
411.186600 12878.600000
413.202700 8546.900000
422.212800 708654.400000
424.156100 36056.600000
430.181800 48478.100000
440.223500 3147977.500000
448.192300 39102.500000
466.202900 417000.600000
541.250300 4220.000000

>ms2peaks
53.038500 7023.700000
55.054200 23817.100000
57.033400 10657.100000
67.054200 3682.100000
69.069800 5498.800000
71.012700 21735.600000
71.049000 11213.800000
79.054200 92654.100000
81.069800 7752.600000
83.049100 82563.900000
89.023300 34992.800000
91.054200 7910.300000
92.049400 74285.900000
95.049100 22786.200000
97.028400 13431.200000
97.064800 17627.300000
99.080400 20943.000000
101.059700 52821.300000
104.049600 6668.300000
105.044500 9220.400000
106.065000 5166.400000
107.049200 11493.700000
109.044800 15998.400000
113.059600 7542.100000
115.054200 7741.200000
117.057200 6906.200000
120.044400 103210.700000
122.039900 8641.500000
125.059700 20034.900000
129.069700 11098.000000
132.044300 12504.600000
133.044600 14870.000000
135.047900 3894.100000
143.085200 4435.200000
147.060400 5403.600000
148.055800 3759.600000
154.064800 4240.700000
155.085500 4508.300000
172.055700 4044.300000
180.081000 4066.000000
182.097000 4219.600000
185.076100 5657.600000
197.095800 3991.800000
203.085400 9795.600000
209.076100 26442.800000
221.076400 5595.500000
222.070700 5165.600000
223.091100 17391.900000
230.096100 20782.500000
233.076000 57486.100000
235.079100 24639.200000
236.087100 6841.000000
237.094900 53365.900000
238.102700 279713.200000
248.086900 78074.500000
249.094900 278160.300000
250.102600 3417895.200000
251.110100 20547.400000
252.118300 101204.100000
259.092300 7515.800000
261.094900 18306.600000
261.108600 4463.700000
262.102700 184507.700000
263.110300 11029.800000
264.082000 41703.900000
264.118300 73931.500000
274.102600 27983.500000
275.110200 23880.200000
276.082700 128668.600000
276.118200 1295358.600000
277.088700 4433.300000
277.125900 62402.100000
278.097800 16840.100000
278.134100 29044.100000
279.141800 26921.800000
280.149700 56046.300000
287.110800 4051.000000
288.118700 32563.800000
289.126100 23852.100000
290.134100 77314.700000
291.141800 11444.200000
292.149600 556295.200000
294.092300 6845.400000
294.128300 32235.700000
294.165200 69341.200000
300.118400 27155.300000
301.126400 6668.300000
302.098200 54627.200000
302.133900 184327.500000
303.141700 20320.400000
304.149900 16973.800000
305.121000 5683.200000
306.128900 118331.500000
316.113000 8263.200000
316.149600 69765.100000
318.130300 58170.700000
318.165100 152548.900000
320.111700 16459.200000
320.144600 147157.900000
326.134000 9880.700000
328.112800 5431.600000
334.123900 19434.700000
336.175700 49314.000000
342.128400 15132.100000
344.144700 75030.300000
344.181200 9586.800000
360.139800 11732.600000
362.155100 267264.100000
370.123400 10926.200000
380.166000 152536.200000
380.200700 17289.200000
388.134200 6363.100000
398.176600 8801.600000
404.203200 18232.500000
406.181200 43199.800000
422.212600 19688.800000
466.202800 50377.800000

>ms2peaks
51.023100 2700.500000
53.002300 5486.700000
53.038600 26593.900000
55.018000 7457.100000
55.054300 52289.300000
57.033500 34201.100000
59.049200 10184.200000
61.028600 4504.000000
65.038600 17719.500000
67.054200 7696.200000
68.997100 6246.700000
69.069900 14716.100000
71.012700 47625.800000
71.049100 41225.200000
73.028400 8071.100000
77.038700 9130.900000
79.054200 127433.600000
80.049500 5745.400000
81.033600 6690.100000
81.070000 10568.600000
83.049100 119822.100000
89.023200 22285.700000
91.054200 28928.900000
92.049500 160632.900000
94.065200 5923.800000
95.049200 83502.100000
97.028500 25891.300000
97.064800 14973.800000
99.080500 4111.700000
101.059800 53274.400000
103.054300 14017.800000
104.049500 56629.900000
105.044700 36309.700000
105.070000 5021.800000
106.065300 12889.300000
107.049200 8264.400000
109.044900 46016.200000
113.059900 4952.000000
115.054200 99061.200000
117.057300 46185.700000
117.069900 4872.400000
120.044400 79921.400000
121.044800 18841.600000
122.040100 74346.800000
124.056100 5168.700000
124.075900 6420.900000
125.059900 6636.800000
128.062200 13947.400000
129.069900 63295.000000
130.065000 19300.000000
132.044500 10402.400000
133.044800 97025.700000
134.039800 4916.900000
135.047800 26042.000000
135.060700 3278.200000
136.055900 3180.000000
141.070100 10105.300000
142.065400 6622.200000
142.078200 4595.300000
143.072700 4410.200000
143.085200 3991.400000
145.064900 10037.000000
146.053200 4839.700000
146.060000 4958.600000
147.060500 28068.600000
148.055900 11200.200000
153.069800 7963.800000
154.065200 67918.700000
155.060500 10933.600000
155.085100 14170.200000
156.080900 5713.100000
160.056500 4431.100000
160.075900 4263.500000
165.070200 7027.800000
167.073100 17845.300000
171.059700 3462.600000
172.055600 34745.900000
172.075600 16639.300000
173.051600 3826.300000
174.071900 8002.800000
179.085400 6090.500000
180.080900 16018.900000
181.089000 3236.800000
182.096800 9296.500000
183.061100 5931.200000
185.063700 8652.000000
185.076000 7064.400000
190.066400 7850.500000
192.080700 2905.800000
193.088900 2786.800000
194.095900 3361.900000
196.068300 3522.000000
197.076100 3778.400000
198.071600 18035.700000
199.079900 3781.300000
200.086900 12483.600000
202.077700 19434.000000
203.085600 90675.600000
206.096400 3287.400000
208.068300 4745.900000
209.076200 113461.200000
210.083600 3933.000000
211.079800 5415.700000
211.090900 3150.500000
212.087200 3720.100000
217.088400 12057.200000
218.096300 24904.800000
220.068600 8547.500000
221.076200 32984.800000
222.071300 18215.200000
222.084000 20132.000000
223.079400 8432.800000
223.091500 50063.800000
224.087500 7437.600000
226.102900 5625.900000
229.088600 4028.700000
229.100900 4121.900000
230.096500 119722.200000
233.076200 255287.600000
234.083800 21111.900000
235.079300 213085.100000
236.086900 32324.500000
237.072200 5083.200000
237.094900 82587.700000
238.102700 253658.000000
239.085700 4399.600000
241.088400 6134.100000
242.096900 5258.500000
246.084300 8942.900000
247.079100 4043.700000
247.091700 9001.100000
248.087200 360277.400000
249.094900 464404.900000
250.102700 2593773.500000
251.110600 13725.900000
252.118400 62642.500000
256.111900 6251.400000
259.092200 34229.500000
260.086300 13899.100000
260.100400 4437.800000
261.094700 112069.500000
261.106500 6358.700000
262.102700 224240.500000
263.110300 30820.100000
264.082100 124794.900000
264.118300 117368.100000
271.092700 4031.300000
272.086200 3298.800000
274.102700 101135.500000
275.073800 6111.600000
275.110600 51535.900000
276.082700 116586.900000
276.118300 1075182.500000
277.126200 66583.100000
278.097600 14064.900000
278.133800 28801.300000
280.149400 3895.500000
281.085700 4371.000000
285.108300 6191.500000
286.102600 6801.800000
287.110900 19754.800000
288.118500 71519.600000
289.126400 30444.400000
290.134200 81488.900000
291.105000 8606.400000
292.149700 85382.700000
298.102700 4152.700000
300.118400 38637.900000
301.125800 11234.300000
302.098600 30910.800000
302.134100 156194.200000
303.141900 29095.500000
304.113100 11946.100000
304.148900 9421.900000
305.121900 4331.500000
306.128700 50465.100000
314.134600 8965.500000
316.113400 3433.800000
316.149500 34011.900000
318.129600 17062.900000
318.164600 28642.200000
320.109100 25727.100000
320.144800 20750.000000
326.134500 4206.200000
328.113300 5186.300000
336.177500 4800.100000
342.128700 5098.800000
344.144500 8616.900000
362.155200 88930.800000

>ms2peaks
51.023000 4094.700000
53.002300 8829.900000
53.038600 58502.100000
55.017800 15316.100000
55.054200 71858.600000
57.033500 44810.500000
59.049200 14364.600000
61.028500 6604.200000
65.038600 42918.900000
67.054300 18569.500000
68.997200 6658.800000
69.033500 44163.200000
69.069800 9661.400000
71.012700 43775.800000
71.049100 42678.900000
73.028400 12385.700000
77.038600 17579.200000
79.054200 119976.900000
80.049500 11781.900000
81.033700 8847.400000
81.069900 6180.700000
83.049100 102955.300000
89.023400 9829.200000
89.038700 3132.900000
91.054300 64484.000000
92.049500 193384.300000
94.041400 4937.500000
94.065000 7317.300000
95.049200 162382.800000
97.028500 25587.000000
97.064800 11999.100000
101.059800 21161.400000
103.054200 48149.800000
104.049500 123586.500000
105.044800 62994.600000
105.069600 5613.000000
106.065100 16055.200000
109.044800 81029.700000
115.054200 185675.000000
116.049500 15651.000000
116.062400 6642.000000
117.057300 79969.900000
117.070000 8984.000000
120.044500 37426.100000
121.044800 33709.700000
122.040100 131850.000000
124.056500 3319.200000
124.075900 7330.700000
127.054100 17593.200000
128.049500 15669.300000
128.062000 73261.500000
129.044900 5009.900000
129.069900 87530.700000
130.065100 33134.700000
132.044600 12807.500000
133.044800 149083.800000
134.040200 10707.800000
134.052800 6135.400000
134.060000 3875.700000
135.047900 40318.200000
135.060600 5375.300000
136.055900 4475.100000
140.050000 7911.200000
141.070100 16634.800000
142.065200 14660.100000
142.077900 4446.500000
143.049300 4928.400000
143.072700 21476.000000
143.085800 4326.600000
145.044700 4962.500000
145.064800 59887.200000
146.052700 34266.500000
146.060100 24840.700000
147.060500 44367.000000
148.055900 32701.900000
152.049900 5759.900000
152.062200 17356.200000
153.057100 6319.900000
153.069900 45242.700000
154.065200 176215.500000
155.060400 94810.200000
155.073000 8327.900000
155.085400 11485.000000
156.080900 14375.800000
159.060700 12932.300000
160.056000 14869.000000
160.068500 3171.300000
160.075600 6427.700000
161.063400 13568.700000
163.055000 18300.800000
164.050700 12563.000000
165.069600 19695.600000
166.065200 9852.800000
167.072900 31017.100000
168.081100 8186.100000
169.064700 4027.300000
170.053000 5113.500000
170.059800 15919.700000
171.048100 6663.400000
171.060700 15290.700000
172.055700 114534.900000
172.075500 32939.500000
173.051000 38980.700000
173.063900 8408.600000
174.071300 13323.000000
177.070400 8162.300000
178.065600 10611.700000
178.077700 5146.600000
179.085400 5469.900000
180.056300 6602.900000
180.080800 42162.800000
181.088700 7418.500000
182.096400 9203.800000
183.060700 28707.900000
184.055700 3931.500000
185.063300 22872.000000
185.076300 4631.700000
186.070900 3809.500000
189.070200 13391.800000
190.066300 19695.100000
191.073400 3155.000000
191.085700 4825.400000
192.080800 8205.000000
194.096700 6087.000000
196.068500 27058.800000
197.076400 7465.700000
198.071500 33802.700000
199.079800 6153.800000
200.087400 13846.700000
202.077700 121205.000000
203.085600 156060.700000
204.080600 6414.000000
206.097000 6259.900000
207.060700 10859.500000
208.067900 22892.400000
209.076200 190399.400000
210.071400 4834.900000
210.083400 5011.500000
211.079800 14873.500000
211.090600 4089.300000
212.087100 3426.600000
213.070100 2752.000000
215.085500 9595.800000
217.088800 40128.300000
218.096400 29299.900000
219.080700 5925.800000
220.068100 52685.900000
221.076100 78491.200000
222.071400 69195.400000
222.084000 55498.400000
223.079400 17743.700000
223.091800 49650.200000
224.087500 10138.400000
226.078300 3506.100000
227.073400 5531.900000
227.085600 4376.300000
228.081000 23379.700000
229.076500 5504.400000
229.088600 15724.600000
229.100500 5760.400000
230.096600 159293.700000
233.076200 407165.200000
234.071400 15245.600000
234.084100 33181.300000
235.079300 461658.800000
236.087000 79051.700000
237.071400 12774.600000
237.095000 93462.700000
238.102700 85665.400000
239.085400 11174.700000
241.088600 10943.600000
242.096300 11727.400000
243.104700 4554.100000
246.072600 15439.200000
246.083600 18360.900000
247.066600 4070.100000
247.079300 9745.200000
247.091500 14777.900000
248.087100 697826.300000
249.094900 347018.100000
250.102700 1063205.000000
251.110900 6040.900000
252.118800 14671.500000
254.096200 6806.800000
255.104000 4921.100000
256.112500 9991.100000
257.076300 9417.200000
258.084300 8636.800000
259.078900 11772.300000
259.092100 29436.500000
260.086900 51052.400000
260.100700 4791.700000
261.094900 188756.800000
262.102700 198259.400000
263.074300 6498.600000
263.110300 40506.400000
264.082100 69951.000000
264.118400 73632.800000
270.084300 6316.900000
272.086600 19573.300000
274.102600 149462.200000
275.074500 5975.300000
275.110600 45799.000000
276.082500 75687.700000
276.118300 509181.700000
277.088500 4536.800000
277.126400 11284.400000
278.097900 6025.600000
278.134400 8287.500000
281.084400 3604.800000
285.093900 4818.700000
285.109000 4156.900000
286.102600 23913.600000
287.110700 21178.700000
288.118500 70710.200000
289.126400 16615.400000
290.098200 13701.600000
290.133900 40512.200000
291.104900 6355.300000
292.149800 5416.500000
298.102000 4152.300000
299.110600 3950.100000
300.118000 40463.300000
301.126400 10823.500000
302.098600 18036.300000
302.134200 70333.200000
303.142500 10497.400000
304.112900 9383.500000
304.149500 6401.600000
306.129000 5464.100000
316.149900 4434.800000
318.128900 9493.400000
318.164900 3717.500000
320.108000 10676.900000
362.155500 6822.600000

>ms2peaks
51.023000 8345.300000
53.002200 12235.900000
53.038600 86244.700000
55.017800 14512.000000
55.054200 76139.100000
57.033500 36260.000000
59.049100 10965.400000
61.028400 3472.000000
65.038500 84880.600000
67.054100 17247.400000
68.997200 6017.900000
69.033400 49752.500000
69.069800 7524.900000
71.012700 30819.300000
71.049100 37297.500000
73.028400 10021.900000
77.038500 38827.500000
79.054200 88482.600000
80.049400 10597.000000
81.033500 9270.700000
81.069800 3322.000000
83.049100 72970.500000
89.038400 8713.800000
91.054200 90929.900000
92.049400 165211.200000
94.041300 8110.200000
94.065200 5520.800000
95.049100 235047.800000
97.028500 9438.000000
97.064700 3570.300000
101.059800 7547.300000
103.054200 86069.600000
104.049400 127993.900000
105.044700 93951.300000
106.065200 8471.300000
109.044800 110069.900000
115.054200 249309.100000
116.049400 21692.200000
116.061900 15051.200000
117.057200 90816.200000
117.069700 9833.200000
120.044200 18676.100000
121.044800 38107.000000
122.040000 142198.200000
124.075800 6362.400000
127.054100 74464.200000
128.049700 36511.700000
128.061900 156925.800000
129.044700 21474.400000
129.069800 54421.700000
130.065100 45239.700000
132.044500 8087.500000
133.044700 186440.500000
134.040000 17069.100000
134.052600 15675.500000
134.059700 5414.000000
135.047700 55498.100000
135.060300 4458.100000
136.055700 6536.200000
140.049700 13947.300000
141.069800 40916.900000
142.064900 13562.000000
142.077600 5713.900000
143.049000 5899.200000
143.072800 26197.800000
145.044500 20030.700000
145.064800 141049.500000
146.052600 91544.600000
146.060000 48738.700000
147.060200 28658.600000
148.055400 28168.800000
152.050000 14563.600000
152.062000 50822.100000
153.057600 22170.900000
153.069700 62973.300000
154.065100 185963.000000
155.060300 189656.300000
155.072600 9747.900000
156.080900 13433.500000
159.060400 16092.100000
160.055700 8256.800000
160.068700 3419.400000
160.075900 3668.500000
161.063700 14497.900000
163.055400 42005.100000
164.050500 24165.400000
165.069800 34925.000000
166.065200 19018.300000
167.073000 46123.500000
168.080900 9618.900000
169.064500 16013.400000
170.052400 13445.600000
170.060000 38780.300000
171.047900 20385.200000
171.060400 27794.800000
172.055600 126170.100000
172.075600 15405.200000
173.051000 92485.600000
173.063900 8697.600000
174.071500 11849.400000
177.069800 14064.900000
178.065400 11137.700000
178.077500 9169.200000
179.085400 4134.500000
180.055700 9398.100000
180.080600 42851.000000
181.088800 7929.200000
182.096600 9757.700000
183.060400 70398.600000
184.055500 8030.300000
185.063400 35451.100000
186.071400 7578.400000
189.069800 44972.000000
190.066000 18902.600000
191.073000 6716.000000
191.085700 7476.900000
192.080500 6822.300000
193.088500 7783.300000
194.096300 4040.100000
196.068000 39548.600000
197.076600 6192.600000
198.071300 39379.200000
199.078800 5302.800000
200.087000 8927.800000
202.077600 243014.200000
203.085400 79414.100000
204.080900 12192.500000
206.096000 6945.700000
207.060300 57535.600000
208.068100 34500.800000
209.076000 165463.000000
210.071700 6409.900000
210.082900 6384.600000
211.078800 20349.800000
212.087000 6386.600000
213.069900 16641.000000
215.085600 22587.400000
217.088500 45007.800000
218.096700 17595.100000
219.080400 15536.200000
220.068000 158499.100000
221.076000 108731.700000
222.071300 83671.400000
222.083900 60858.100000
223.079100 10888.600000
223.091900 16625.200000
224.087200 10071.500000
226.078100 13950.200000
227.072800 17690.900000
227.085500 8906.800000
228.080800 55782.000000
229.075800 7830.800000
229.088600 18095.300000
229.100300 4441.100000
230.096500 87945.300000
233.076100 388304.200000
234.071300 75274.100000
234.084000 18806.600000
235.079100 496390.400000
236.086900 68370.200000
237.072100 6330.900000
237.094600 59251.800000
238.102600 19182.700000
239.085500 12239.400000
241.088600 22054.700000
242.096200 16242.200000
243.104200 4748.800000
246.071000 22836.300000
246.084000 23514.800000
247.065800 5008.600000
247.079000 30239.700000
247.091900 14491.400000
248.086900 751266.900000
249.094600 137240.000000
250.102600 289391.500000
254.095900 17315.900000
255.104200 3578.100000
256.111800 7723.000000
257.075800 26551.000000
258.084600 5689.800000
259.079000 39947.900000
259.092200 18820.900000
260.086900 96439.100000
260.101800 6573.700000
261.094800 196149.300000
262.102600 140784.200000
263.074100 12255.300000
263.110600 26092.700000
264.081900 18949.000000
264.118100 27409.900000
270.083100 10659.600000
271.092000 4768.000000
272.086400 43740.200000
274.102400 118099.100000
275.110200 24305.100000
276.081900 31113.700000
276.118200 185039.000000
285.094600 12771.700000
286.102400 23346.400000
287.110000 23129.300000
288.118400 34242.800000
290.097000 12709.400000
290.134500 13076.100000
298.102500 10979.300000
299.109300 3650.600000
300.118300 16644.000000
302.133800 21681.300000
314.132600 3825.100000

