>compound LU39731155
>parentmass 151.0866
>ionization [M+H]+
>formula C8H10N2O
>rt 250.290000
>profile orbitrap
#smiles_iso CC1=C(C=C(C=C1)C(=O)N)N
#smiles_can CC1=C(C=C(C=C1)C(=O)N)N
#inchikey VYBKAZXQKUFAHG-UHFFFAOYSA-N
#pubchem_id 88043
#mb_accession LU094701,LU094702,LU094703,LU094704,LU094705,LU094706

>ms2
108.080800 16146.000000
119.060500 7101.700000
120.080700 27957.200000
121.088600 100302.800000
133.076000 40859.800000
134.083800 490035.000000
136.075800 7081.200000
151.086600 5517275.500000

>ms2
108.081000 20013.000000
120.080800 31393.100000
121.088700 98057.400000
133.076000 40740.000000
134.083900 464163.700000
151.086600 5395119.000000

>ms2
91.054200 34910.500000
93.057400 305591.900000
95.085500 4334.900000
106.065200 16754.100000
108.080800 3769042.000000
109.064900 11373.700000
119.060500 5706.400000
124.075800 35963.700000
134.060000 181704.800000
151.086600 169287.000000

>ms2
65.038600 9182.200000
66.046300 3399.300000
67.054200 3254.800000
79.054200 15244.400000
80.049500 3825.000000
81.069900 6253.100000
91.054200 132642.500000
92.049200 2930.800000
93.057400 902786.000000
95.049200 4691.900000
106.065200 62636.700000
107.049200 2674.900000
107.073000 5299.800000
108.080800 2518945.200000
109.064800 30078.200000
110.060200 3121.900000
119.060500 19126.600000
124.075800 70630.200000
134.060100 125949.400000
151.086600 18927.900000

>ms2
55.041700 6430.100000
65.038500 21120.000000
66.033800 9171.200000
66.046400 11719.500000
68.049400 192893.900000
78.046300 3728.500000
79.054100 14376.000000
80.049400 10347.300000
81.057300 35490.700000
81.070300 2638.300000
82.065100 45069.000000
91.041700 9684.700000
91.054100 4344.300000
92.049500 123204.100000
93.044800 302060.100000
93.057300 31840.400000
94.065100 50300.000000
96.044500 2163.100000
105.044600 2920.300000
106.052500 9319.500000
106.065200 51829.700000
107.060400 22247.600000
107.073000 47432.900000
108.080800 26246.500000
110.060200 7728.100000
116.049400 3461.100000
117.057400 3564.100000
118.052200 10771.000000
119.060400 527276.500000
120.080800 340686.900000
121.088600 88997.100000
124.075700 7432.200000
132.068300 7339.400000
133.076100 1770914.100000
134.083800 1343386.900000
135.055200 3389.800000
136.075800 28984.600000
151.086600 434480.300000

>ms2
53.038600 9181.700000
65.038600 73843.000000
66.046300 27735.400000
67.054200 8327.900000
77.038900 2647.100000
79.054200 124046.600000
80.049500 9646.100000
81.069900 11594.600000
91.054200 471220.000000
92.049500 15170.500000
93.057300 2166981.500000
95.049100 32403.700000
105.044700 12584.500000
106.065100 138223.100000
107.049200 3700.300000
107.072900 15353.100000
108.080800 634782.400000
109.064900 39112.400000
110.060200 3507.000000
119.060400 18254.000000
124.075800 38520.300000
134.060000 15532.300000

