>compound LU39464145
>parentmass 217.0794
>ionization [M+H]+
>formula C12H12N2S
>rt 736.080000
>profile orbitrap
#smiles_iso C1=CC(=CC=C1N)SC2=CC=C(C=C2)N
#smiles_can C1=CC(=CC=C1N)SC2=CC=C(C=C2)N
#inchikey ICNFHJVPAJKPHW-UHFFFAOYSA-N
#pubchem_id 8765
#mb_accession LU093601,LU093602,LU093603,LU093604,LU093605,LU093606

>ms2
97.010500 2252179.200000
119.060300 539305.700000
120.068000 44928.800000
121.075800 21568.700000
157.010800 171613.000000
171.026200 17247.400000
217.079000 15959427.000000

>ms2
61.010700 17008.800000
97.010700 6295238.000000
119.060400 1256342.900000
120.068200 130444.000000
121.076000 70423.900000
133.076100 12094.900000
157.011000 253587.500000
171.026600 20968.700000
217.079300 11742777.000000

>ms2
53.038500 35064.900000
61.010600 85064.700000
97.010500 16381360.000000
119.060300 1933303.000000
120.068100 393476.600000
121.075900 197661.700000
124.021200 28292.200000
133.076000 56896.500000
157.010900 228845.000000
171.026400 20337.000000
217.079200 3042820.500000

>ms2
53.038500 132172.900000
61.010600 155131.000000
68.979200 47481.000000
97.010500 19712698.000000
119.060300 1577582.100000
120.068100 347443.900000
121.075900 256856.500000
133.076000 99435.900000
157.010700 81393.500000
217.079300 341165.700000

>ms2
53.038600 421598.800000
61.010600 121954.900000
68.979300 117785.600000
97.010500 17917358.000000
119.060300 1251673.200000
120.068100 164533.500000
121.075900 240345.400000
124.021400 20713.200000
133.076000 67092.500000
141.987500 23831.300000
157.010800 18641.000000
217.079400 20519.900000

>ms2
51.023000 2696.600000
53.038600 30517.400000
55.054200 14008.900000
61.010600 75711.800000
80.049500 1259041.100000
93.057400 191653.100000
97.010700 128354.900000
111.023400 24966.500000
124.021600 1893268.900000
141.987500 30017.800000
157.011100 6367.900000
171.026400 95790.200000
199.045100 403343.800000
215.063900 20927.900000
216.071200 10260.900000

