>compound LU39144109
>parentmass 245.1285
>ionization [M+H]+
>formula C14H16N2O2
>rt 514.380000
>profile orbitrap
#smiles_iso COC1=C(C=CC(=C1)C2=CC(=C(C=C2)N)OC)N
#smiles_can COC1=C(C=CC(=C1)C2=CC(=C(C=C2)N)OC)N
#inchikey JRBJSXQPQWSCCF-UHFFFAOYSA-N
#pubchem_id 8411
#mb_accession LU055801,LU055802,LU055803,LU055804,LU055805,LU055806

>ms2peaks
213.102100 90935.500000
214.110300 18908.100000
228.089400 48285.100000
230.105000 524065.800000
245.127800 7773797.500000

>ms2peaks
181.076000 10809.800000
182.083600 13124.600000
187.086100 14482.200000
198.078800 44104.100000
199.087100 5161.100000
201.102200 12182.000000
213.102300 686376.000000
214.110100 97517.700000
215.081300 45208.600000
228.089400 242317.900000
229.097700 17836.300000
230.104600 2814090.500000
244.121100 12190.400000
245.127700 5049540.500000

>ms2peaks
123.067900 12087.100000
130.065300 5239.300000
154.064800 11655.200000
162.091200 12638.700000
166.065200 7644.300000
168.081200 3853.600000
169.076100 4963.000000
170.083800 56874.600000
171.091600 7982.700000
181.076100 45052.500000
182.084000 59915.500000
183.067700 5023.100000
183.092200 5232.800000
185.071300 4532.400000
186.091300 21385.400000
186.106400 3977.600000
187.086700 385661.900000
196.075700 11799.700000
197.070600 3804.400000
197.083500 3800.800000
198.078800 617770.700000
199.086800 50332.700000
200.094400 5875.400000
201.102200 92824.200000
213.102300 1355751.500000
214.110100 123603.800000
215.081500 836607.100000
228.089500 122767.200000
229.097500 25001.000000
230.104600 3769001.500000
244.120800 24724.200000
245.128000 522859.400000

>ms2peaks
52.018200 4547.600000
80.049400 3420.200000
97.007800 2782.800000
108.044400 5037.800000
115.054300 3615.600000
123.067600 13387.200000
130.065300 23050.700000
131.072900 7854.300000
139.054400 4588.300000
141.070000 3581.700000
143.072900 39866.600000
144.080900 2937.100000
146.060100 5272.400000
147.067800 10021.700000
153.057500 21339.600000
154.065000 60224.100000
155.060400 5362.200000
155.073200 6662.700000
158.083900 11432.100000
162.091500 22842.600000
166.065200 11668.500000
167.073300 11853.100000
168.080900 6626.700000
169.075900 63164.700000
170.083800 683018.600000
171.067900 24707.900000
171.091600 57738.100000
181.052200 7891.300000
181.076000 82182.000000
182.059800 10965.600000
182.083900 173454.500000
183.067900 19238.100000
183.091800 6387.600000
184.075900 4335.200000
185.071000 43416.400000
185.081200 3120.400000
186.078900 43219.700000
186.091500 35926.800000
186.106000 3666.300000
187.086400 2679596.800000
196.075700 15476.100000
197.071000 32187.700000
197.083400 7014.000000
198.078800 1232008.400000
199.086600 92099.300000
201.102200 138580.500000
212.094700 7081.400000
213.066000 37236.300000
213.102200 479993.200000
214.110000 39380.700000
215.081500 1250064.000000
228.089600 9165.600000
229.097800 13322.400000
230.104900 1131490.200000
244.120700 8762.100000
245.128000 14197.500000

>ms2peaks
97.007800 7018.600000
105.070200 1720.500000
115.054300 3084.400000
130.065300 3446.800000
143.073100 21523.200000
153.057400 5867.400000
154.064900 12721.800000
155.073300 2382.800000
158.083900 9177.700000
166.066400 1808.600000
169.076100 17652.000000
170.084000 85307.500000
171.068400 5447.500000
171.091900 7059.000000
181.076500 5232.900000
182.084200 13779.800000
185.071500 3610.800000
186.079000 8884.400000
186.091500 1918.200000
187.086900 299108.700000
197.071600 6173.600000
198.079000 40767.500000
199.087000 3767.800000
201.102400 7753.200000
213.066400 2721.500000
213.102800 2722.400000
215.081700 27078.800000
230.105100 9154.600000

>ms2peaks
52.018300 9791.300000
80.049500 67821.100000
97.007600 15464.100000
108.044500 26465.600000
115.054300 233675.800000
117.057300 42055.500000
123.067700 5838.300000
130.065200 101736.900000
131.073000 25774.700000
132.080900 68236.200000
139.054200 23865.000000
143.073000 948182.600000
144.081000 8481.800000
146.060000 64818.000000
147.067800 14221.100000
153.057400 140810.900000
154.065200 330419.600000
155.060400 75305.500000
155.072700 30113.700000
156.080700 7002.200000
158.084000 273650.600000
166.065300 9352.900000
167.073100 18536.700000
169.076100 599887.100000
170.083900 864718.800000
171.068000 45616.500000
171.091700 145099.800000
181.052300 12258.800000
181.076100 130353.600000
182.060300 14310.200000
182.084000 145637.900000
183.068800 6342.100000
184.076000 6413.300000
185.071000 29614.300000
186.079000 93321.200000
186.091300 11230.400000
187.086300 4174570.000000
197.071000 70454.900000
198.078800 117236.600000
199.086500 9323.200000
201.102400 29365.400000
215.081700 39693.800000

