>compound LU40095063
>parentmass 335.2217
>ionization [M+H]+
>formula C20H30O4
>rt 1253.640000
>profile orbitrap
#smiles_iso CCCCCCOC(=O)C1=CC=CC=C1C(=O)OCCCCCC
#smiles_can CCCCCCOC(=O)C1=CC=CC=C1C(=O)OCCCCCC
#inchikey KCXZNSGUUQJJTR-UHFFFAOYSA-N
#pubchem_id 6786
#mb_accession LU131401,LU131402,LU131403,LU131404,LU131405,LU131406

>ms2
85.101200 4872.200000
149.023400 98150.900000
163.039200 2376.100000
181.049900 2752.400000

>ms2
85.101300 2740.300000
149.023400 125969.000000
163.039100 3501.900000
181.049600 4641.400000

>ms2
121.028500 1815.500000
149.023400 96925.100000
181.050000 1825.900000

>ms2
65.038500 2454.600000
121.028400 8857.900000
149.023400 59955.800000
163.039000 1984.100000
181.049600 2394.300000

>ms2
65.038700 14237.200000
93.033700 2161.300000
111.044300 2489.600000
121.028400 22749.200000
149.023500 37901.900000

>ms2
65.038600 21695.700000
93.033700 3142.400000
111.044100 4294.400000
121.028400 13428.900000
149.023500 10411.400000

