>compound LU40323487
>parentmass 142.0611
>ionization [M+H]+
>formula C5H7N3O2
>rt 457.800000
>profile orbitrap
#smiles_iso CC1=NC=C(N1C)[N+](=O)[O-]
#smiles_can CC1=NC=C(N1C)[N+](=O)[O-]
#inchikey IBXPYPUJPLLOIN-UHFFFAOYSA-N
#pubchem_id 3090
#mb_accession LU060701,LU060702,LU060703,LU060704,LU060705,LU060706

>ms2peaks
54.033800 7443.200000
55.041600 26644.000000
56.049500 567886.200000
72.068300 3026.200000
81.044700 29695.300000
95.060300 61987.300000
96.068100 123401.400000
97.039500 4069.500000
112.063100 335527.100000
142.061100 1854667.100000

>ms2peaks
54.033800 10891.700000
55.041600 35978.000000
56.049500 773885.600000
72.068100 7877.500000
81.044700 41262.300000
83.060300 2833.800000
95.060400 97520.400000
96.068200 156772.000000
97.039600 3831.900000
112.063100 455465.700000
142.061100 2781086.000000

>ms2peaks
54.033800 22794.500000
55.041600 40255.800000
56.049500 783169.200000
57.044700 3771.500000
69.044700 2589.800000
72.068200 7506.700000
73.039500 2011.100000
81.044700 77807.500000
83.060400 4188.200000
95.060400 183155.200000
96.068200 151575.100000
97.039700 3885.700000
111.042800 3164.600000
112.063100 422972.100000
142.061100 1056779.100000

>ms2peaks
54.033900 95103.400000
55.041700 88590.600000
56.049500 973573.200000
57.044700 3452.200000
58.028700 2356.700000
68.049500 5113.400000
69.044900 2208.600000
71.012600 2879.600000
72.068100 7473.500000
81.044800 311340.100000
83.060400 5011.100000
85.039600 3844.900000
95.060400 592141.800000
96.068200 196951.200000
97.039600 6173.400000
112.063200 505905.200000
142.061200 357941.200000

>ms2peaks
54.033800 240289.200000
55.041700 118919.700000
56.049500 626864.600000
57.044700 2297.100000
58.028700 3292.700000
68.036800 4455.800000
68.049400 13902.800000
69.044800 2420.000000
71.012900 3349.100000
72.068300 5434.500000
81.044700 549686.800000
83.060400 3445.100000
95.060400 892576.000000
96.068200 126834.400000
97.039700 2605.700000
111.043000 1743.700000
112.063100 308232.300000
142.061200 74352.100000

>ms2peaks
54.033900 426808.700000
55.041700 143554.500000
56.049500 391101.100000
57.044900 2842.300000
58.028900 1749.300000
68.036800 3331.300000
68.049400 30298.200000
71.012700 5316.500000
81.044700 838749.700000
95.060400 1066191.600000
96.068200 66341.800000
97.039700 2258.900000
112.063100 154568.300000
142.061100 14207.900000

