>compound LU40875002
>parentmass 408.1143
>ionization [M+H]+
>formula C19H22ClN3O3S
>rt 1075.080000
>profile orbitrap
#smiles_iso CS(=O)(=O)C1=C(C=C(C=C1)[C@@H](CC2CCCC2)C(=O)NC3=NC=CN=C3)Cl
#smiles_can CS(=O)(=O)C1=C(C=C(C=C1)C(CC2CCCC2)C(=O)NC3=NC=CN=C3)Cl
#inchikey QULLOTSYPAOTIW-OAHLLOKOSA-N
#pubchem_id 59086459
#mb_accession LU100401,LU100402,LU100403,LU100404,LU100405,LU100406

>ms2peaks
96.055500 331796.700000
205.078100 9768.500000
285.070500 17104.800000
390.104500 35178.300000
408.114200 7497908.500000

>ms2peaks
52.018100 6900.400000
69.044600 11158.100000
69.069800 32007.700000
78.984700 19809.200000
81.069800 85831.900000
96.055500 6319136.000000
97.039600 97610.500000
123.042600 8661.300000
139.031000 9684.400000
141.010200 6687.600000
149.015300 9401.600000
150.023200 13026.800000
162.023000 6577.800000
163.030800 117371.100000
164.038600 93804.900000
171.116700 135807.900000
177.046300 51377.600000
178.054200 9262.800000
191.062100 8189.900000
202.993100 23025.300000
205.077800 362861.900000
206.085600 1280769.400000
216.069900 10440.500000
217.008300 101351.200000
229.008700 9235.000000
285.070900 557915.800000
310.041000 40292.000000
317.096900 18538.400000
390.103500 99560.500000
408.114300 1186059.600000

>ms2peaks
52.018300 24996.300000
55.054300 15285.800000
67.054200 10968.900000
69.044600 31346.900000
69.069800 136695.200000
78.984800 101447.100000
79.054000 12276.600000
81.069900 93330.100000
95.085600 21293.600000
96.055600 5125593.000000
97.039600 227268.900000
115.054500 8986.500000
123.042600 7579.900000
125.015200 16327.500000
128.062100 9820.400000
129.069800 54996.800000
138.023000 50685.500000
139.030900 21262.800000
141.010100 207228.300000
149.015200 24994.400000
150.023100 119136.000000
151.031000 16456.900000
155.025800 87273.900000
162.023200 56312.300000
163.030900 755908.600000
164.038700 480469.900000
169.101400 5795.800000
170.109100 13937.200000
171.116800 805135.400000
177.046500 615282.900000
178.054300 64908.400000
191.062200 53803.200000
202.992800 100092.700000
205.077900 161540.900000
206.085700 1120494.800000
216.070200 8198.700000
217.008400 239264.900000
229.008500 10822.800000
243.024200 7509.800000
285.071100 138285.200000
310.041800 16228.300000
317.096800 5237.300000

>ms2peaks
52.018200 49071.100000
53.002200 7904.000000
55.054200 31023.500000
62.989900 5286.600000
65.038600 4963.300000
67.054100 30231.500000
69.044700 70945.600000
69.069800 165724.400000
78.984800 174295.000000
79.028900 10264.300000
79.054100 21090.200000
80.062000 7223.300000
81.069800 115471.500000
91.054100 32807.300000
93.069800 5768.300000
95.048600 4919.100000
95.085500 22323.900000
96.055600 4082216.500000
97.039600 467583.900000
103.054400 13729.900000
105.033400 6421.000000
105.069700 4687.800000
111.055300 8525.800000
115.054200 69528.900000
117.069900 25843.200000
119.049100 6077.300000
123.042700 5101.800000
125.015100 30274.300000
127.030900 5849.000000
128.062000 79635.400000
129.069800 369018.200000
137.015000 6277.400000
138.023000 206299.100000
139.030900 27282.200000
141.010100 551271.900000
143.085500 110419.900000
145.064600 22323.400000
149.015300 28108.700000
150.023000 203480.700000
151.031100 25034.700000
155.025700 141463.700000
155.060100 22816.300000
162.023000 49076.800000
163.030800 1159793.900000
164.038600 534040.100000
165.046500 5950.600000
169.076000 7425.200000
169.101000 7344.300000
170.109000 11384.300000
171.116700 636668.800000
176.038500 4919.500000
177.046500 1076815.900000
178.054200 74804.200000
191.062000 73639.600000
202.992700 88620.000000
205.077800 23631.600000
206.085600 173557.900000
217.008400 101039.900000
229.008500 5290.300000
231.023800 5598.700000
285.071500 4656.200000

>ms2peaks
51.010400 5265.800000
51.023000 5131.600000
52.018200 86219.400000
53.002200 15252.800000
53.038600 12395.800000
55.054300 36798.000000
62.989900 13341.500000
65.038500 19929.200000
67.054200 44348.400000
69.044700 130770.100000
69.069800 125402.000000
77.038400 24087.900000
78.046100 3690.000000
78.984800 140742.000000
79.029100 12702.200000
79.054100 40015.200000
80.062000 6114.100000
81.069900 95094.300000
89.038600 13399.200000
91.054200 93052.300000
93.070200 3051.900000
95.049200 25378.700000
95.085600 16525.700000
96.055600 2939067.500000
97.039600 824802.200000
100.007400 8356.100000
102.046500 8049.000000
103.054200 76609.700000
105.033600 34072.000000
105.044600 11404.200000
105.070000 16335.800000
107.049100 4552.900000
109.064800 7999.100000
111.010900 3955.200000
111.055200 20379.200000
112.007300 9308.400000
113.015100 6066.700000
115.054200 219955.900000
116.062100 9346.100000
117.069900 63760.900000
119.049100 12061.400000
120.056800 22600.600000
124.007400 10683.200000
125.015200 44522.500000
127.030800 14729.200000
127.054200 10039.100000
128.062000 307336.700000
129.069800 767001.100000
137.015100 9562.600000
138.023100 253740.000000
139.030900 30253.400000
141.010100 692607.600000
141.069800 61851.000000
142.077700 329415.600000
143.085500 190183.500000
145.064800 75835.900000
149.015300 51749.600000
150.023100 122275.800000
151.030900 27448.200000
155.025800 82345.500000
155.060400 96532.800000
162.023000 51327.900000
163.030900 893228.000000
164.038700 238998.700000
169.076000 31252.200000
169.101200 4331.200000
171.116800 194188.000000
176.038900 5423.500000
177.046500 809376.800000
178.054400 22681.500000
188.039000 3873.800000
191.062000 25582.600000
202.992800 53802.000000
205.078200 4936.700000
206.085400 7567.600000
217.008300 14264.000000

>ms2peaks
51.010400 4824.600000
51.023100 2762.400000
52.018200 157988.400000
53.002300 23650.700000
53.038600 41147.300000
55.054300 38536.700000
62.989900 26361.300000
63.022900 3769.400000
65.038600 34001.700000
67.054200 57516.500000
69.044700 202162.300000
69.069800 81764.300000
74.096300 6921.300000
77.038500 73174.900000
78.046300 8757.600000
78.984800 106709.300000
79.029000 21818.400000
79.054200 58726.000000
80.062000 5380.000000
81.069900 83915.000000
89.038500 46019.300000
91.054300 163117.200000
93.069900 4262.800000
95.049200 95282.600000
95.085500 8171.500000
96.055600 1928000.000000
97.039600 1160044.000000
100.007400 10533.500000
102.046300 27801.800000
103.054200 203810.200000
105.033500 91012.500000
105.044700 38524.700000
105.069900 20189.900000
107.049100 3780.800000
109.064900 8474.400000
111.055200 28528.500000
112.007500 20526.500000
113.015200 8172.300000
115.054200 382336.500000
116.062100 19591.100000
117.069900 92244.400000
119.049200 17351.200000
120.056900 30322.000000
124.007400 20779.300000
125.015300 50123.600000
127.030800 8861.800000
127.054200 27560.400000
128.062000 723043.600000
129.069800 816256.000000
131.049000 5386.400000
137.015500 13244.900000
138.023100 172679.200000
139.031000 19615.000000
141.010200 614623.200000
141.069800 177059.300000
142.077700 645009.400000
143.085600 147690.400000
145.064800 124248.300000
149.015300 78627.600000
150.023000 40754.100000
151.031000 11545.300000
154.077600 4511.400000
155.025700 27233.200000
155.060400 156438.100000
156.093400 21439.200000
159.080500 24916.300000
162.023100 79332.600000
163.030900 521674.400000
164.038800 73891.500000
165.046900 2728.000000
169.075900 42430.400000
169.101200 3665.400000
171.116900 36774.400000
177.046600 349021.500000
178.054300 2716.400000
191.062400 4147.400000
202.992700 13928.200000

