>compound LU40984409
>parentmass 316.075
>ionization [M+H]+
>formula C15H13N3O3S
>rt 869.700000
>profile orbitrap
#smiles_iso COC(=O)NC1=NC2=C(N1)C=C(C=C2)S(=O)C3=CC=CC=C3
#smiles_can COC(=O)NC1=NC2=C(N1)C=C(C=C2)S(=O)C3=CC=CC=C3
#inchikey BEZZFPOZAYTVHN-UHFFFAOYSA-N
#pubchem_id 40854
#mb_accession LU043801,LU043802,LU043803,LU043804,LU043805,LU043806

>ms2
159.043100 3958.500000
191.068900 54919.400000
207.064400 4146.500000
223.058900 19848.600000
239.035400 12557.400000
284.048900 101880.100000
299.072000 15785.200000
316.075200 3461857.000000

>ms2
125.005700 25595.100000
133.063300 4223.200000
159.042700 94266.400000
174.029900 5484.600000
175.037700 30374.000000
191.032800 96427.900000
191.069000 647551.500000
207.009700 21730.900000
207.063900 69850.500000
223.058800 562616.600000
236.082200 2639.800000
239.035900 144331.900000
266.038700 6265.700000
267.046200 12657.200000
284.048900 1002057.500000
298.063500 2501.300000
299.072300 233530.200000
316.075200 1035203.400000

>ms2
69.008400 3149.900000
97.010800 5163.300000
119.060500 11169.400000
125.005700 46658.400000
131.048100 4357.200000
133.039800 2957.800000
133.063500 14807.800000
134.047100 2247.900000
135.042700 4041.900000
146.071400 32761.500000
147.042800 3644.300000
158.034800 2244.800000
159.042800 637604.000000
174.030100 16619.900000
175.037800 144433.400000
190.006700 2830.600000
191.032700 926047.000000
191.069000 457292.300000
193.037100 3434.200000
206.001900 6767.100000
207.009900 231388.800000
207.064000 36229.800000
223.058900 626767.900000
236.081600 2826.500000
239.036000 120609.400000
266.038400 50227.500000
267.046300 234035.000000
284.049100 320867.100000
298.064200 14481.800000
299.072500 155770.700000
316.075400 25805.900000

>ms2
69.008200 4009.800000
77.026000 2052.800000
97.010700 14583.300000
103.041700 1958.300000
104.036900 6756.000000
105.044700 3231.900000
106.052700 2676.400000
118.052700 9911.300000
119.048100 3046.500000
119.060400 20527.400000
125.005700 29028.300000
131.047900 49427.900000
133.039800 3669.100000
133.063600 13880.000000
134.047400 4902.000000
135.042900 4965.600000
146.035000 3139.800000
146.071200 40435.100000
147.042700 30246.700000
158.035500 3347.000000
159.042800 803662.900000
160.050600 4197.600000
174.029800 13934.000000
175.037700 105294.600000
190.006700 2082.600000
191.032600 1374338.900000
191.068800 90732.700000
193.036900 5232.800000
198.037800 3869.200000
199.044800 12260.300000
206.002100 6176.200000
207.009800 263530.100000
223.058800 148239.300000
224.040500 4481.300000
225.024000 2763.500000
225.048500 3980.700000
234.066200 6168.000000
235.074200 10456.100000
236.082200 2434.900000
238.043500 5825.600000
239.036200 19967.000000
239.050500 4385.700000
252.023200 2696.400000
266.038400 172710.000000
267.046100 181276.300000
284.049100 10624.000000
298.063600 4409.700000
299.071800 11907.000000

>ms2
52.030800 5778.400000
53.038700 2892.900000
67.041600 2339.100000
69.008300 3626.700000
77.025800 10147.100000
79.041600 11149.400000
91.041700 3604.800000
92.037000 2973.200000
95.036800 4524.500000
96.044200 1942.100000
97.010800 20337.900000
97.052200 8188.400000
103.041700 6061.800000
104.036900 59202.900000
105.044800 16674.100000
106.052400 3536.900000
116.036900 7332.700000
118.052500 18740.300000
119.047800 13505.800000
119.060400 27959.400000
122.006100 2819.700000
122.047500 3125.700000
125.005600 14192.600000
129.044700 2839.400000
130.039900 4944.000000
131.047900 315300.400000
132.055700 4487.900000
133.039900 3790.100000
133.063300 9838.800000
134.047600 3121.400000
135.042900 6698.600000
136.026600 4286.700000
146.071300 43840.900000
147.042800 51870.800000
147.055200 5115.000000
159.042800 777100.900000
160.050700 6173.900000
163.036900 2369.600000
171.026500 5121.600000
172.033900 2471.800000
174.030000 52656.600000
175.037600 53221.900000
178.007100 5808.800000
190.007000 14820.200000
191.032600 1554458.200000
193.037100 6891.300000
196.021700 5676.300000
198.037300 15985.700000
199.045000 11791.600000
207.009800 140450.900000
211.033100 3633.500000
223.058900 23648.900000
224.040400 14492.200000
225.023900 3343.400000
225.047900 5092.600000
234.066500 5551.300000
235.073900 17660.800000
238.043400 23957.800000
239.051400 7076.200000
241.044300 2516.100000
252.022700 6988.700000
265.031300 7192.700000
266.038400 247006.500000
267.046400 42954.900000

>ms2
52.030800 11685.300000
53.038700 5877.500000
67.041700 4982.000000
69.008300 3443.600000
77.026000 81108.100000
79.041700 37711.000000
91.041600 19651.000000
92.037000 9880.500000
95.036600 25676.600000
96.044500 8136.700000
97.010800 20685.100000
97.052300 31352.800000
103.041800 23329.300000
104.037000 297685.500000
105.044800 66393.600000
106.052700 6398.800000
116.036900 20121.700000
118.052600 29949.300000
119.048000 25034.200000
119.060500 36318.700000
122.006000 12763.700000
122.047600 9131.800000
125.006000 4999.200000
129.044800 6940.100000
130.040100 18920.100000
131.047900 736461.700000
132.055900 4657.500000
133.063600 7572.700000
134.047800 7502.900000
136.027000 21171.000000
146.034900 2698.000000
146.071400 32045.800000
147.042900 40837.200000
147.055400 8683.200000
158.035000 3815.300000
159.042900 604505.700000
160.050900 2720.900000
163.038000 2667.500000
171.026300 24095.200000
172.034300 4982.200000
174.030000 73554.700000
175.037600 16195.900000
178.007200 3283.500000
190.007100 34929.900000
191.032700 1167501.200000
193.037100 6014.500000
196.022000 24392.900000
198.037300 28144.100000
199.045300 8423.800000
207.009900 39910.600000
211.032500 19746.600000
223.059400 3014.900000
224.040300 32942.400000
225.048200 2115.800000
234.066700 5064.500000
235.074400 15133.000000
238.043600 43574.100000
239.051400 4962.900000
241.043700 6107.400000
252.022900 6464.800000
265.030900 23437.200000
266.038500 142818.900000
267.046400 3670.600000

