>compound LU40890701
>parentmass 203.11390000000003
>ionization [M+H]+
>formula C7H14N4O3
>rt 559.920000
>profile orbitrap
#smiles_iso CN=C(NCC1CCOC1)N[N+](=O)[O-]
#smiles_can CN=C(NCC1CCOC1)N[N+](=O)[O-]
#inchikey YKBZOVFACRVRJN-UHFFFAOYSA-N
#pubchem_id 197701
#mb_accession LU133401,LU133402,LU133403,LU133404,LU133405,LU133406

>ms2peaks
73.063500 7110.600000
87.079300 13800.200000
100.087100 5517.800000
112.087100 4256.900000
113.094900 14302.300000
114.102700 22696.000000
128.118600 3696.300000
129.089800 37419.800000
129.126400 2879.200000
145.084900 5417.000000

>ms2peaks
73.063400 8391.200000
87.079200 16240.000000
100.086900 8971.100000
112.087100 3831.800000
113.094900 10052.900000
114.102700 19048.500000
128.118400 1677.600000
129.089700 31582.800000
129.126400 2019.000000
145.085000 3629.700000

>ms2peaks
72.044400 2928.700000
73.063400 14491.900000
87.079100 14399.700000
100.086900 10581.400000
112.087000 6038.900000
113.094700 3156.200000
114.102700 11659.400000
129.089800 12881.800000

>ms2peaks
57.044800 2913.600000
58.052700 2720.000000
72.044300 7704.100000
73.063400 17001.400000
87.079100 11650.900000
100.086900 9669.900000
112.086900 8244.800000
113.094700 1504.600000
114.102600 7299.700000
129.089700 4060.000000

>ms2peaks
56.049600 2807.400000
57.044800 4391.800000
58.052500 2598.500000
72.044300 9810.800000
73.063500 9874.600000
87.079200 4515.400000
100.086800 4229.200000
112.087000 4439.400000

>ms2peaks
56.049600 3332.700000
57.044800 5312.400000
58.052800 2268.000000
72.044500 5675.500000
73.063500 3894.900000
87.079300 2221.600000
100.086900 1481.500000
112.087300 2574.700000

