>compound LU40108717
>parentmass 317.1642
>ionization [M+H]+
>formula C13H24N4O3S
>rt 1036.560000
>profile orbitrap
#smiles_iso CCCCC1=C(N=C(N=C1OS(=O)(=O)N(C)C)NCC)C
#smiles_can CCCCC1=C(N=C(N=C1OS(=O)(=O)N(C)C)NCC)C
#inchikey DSKJPMWIHSOYEA-UHFFFAOYSA-N
#pubchem_id 38884
#mb_accession LU035501,LU035502,LU035503,LU035504,LU035505,LU035506

>ms2
108.012200 77888.700000
150.102100 32050.400000
166.097000 57926.700000
192.149200 33741.500000
208.143600 31357.100000
209.152200 111512.100000
210.159800 78952.900000
237.207100 238090.600000
272.106000 129550.500000
317.163900 22994162.000000

>ms2
96.044400 11823.700000
96.080900 11731.100000
97.039800 32111.000000
108.011400 1686993.000000
110.096700 22164.400000
112.112000 52879.500000
137.107500 13493.700000
138.066200 21686.800000
138.091400 16264.000000
138.102900 9249.100000
139.073900 24160.300000
140.037500 15302.400000
140.107000 95721.900000
142.097400 27139.800000
148.086900 43968.300000
150.102600 978750.400000
151.123000 107442.900000
152.081900 14888.600000
153.089500 58530.000000
154.097600 28962.100000
164.118800 9226.500000
165.089800 18423.000000
165.102400 50396.800000
166.097500 2913541.200000
167.105300 349483.800000
180.113200 40797.500000
180.149600 189598.600000
181.121000 73657.100000
182.128700 14108.700000
191.117900 10928.300000
192.149600 393549.000000
193.133700 153845.200000
194.128800 237708.600000
196.132100 48046.800000
208.144500 1345290.900000
209.152300 880799.600000
210.160100 1751857.000000
224.175700 89729.600000
228.080000 13334.900000
237.207400 1784803.800000
253.202300 37419.800000
254.095600 39027.400000
262.085400 43300.900000
272.106300 2405555.200000
317.164200 8872810.000000

>ms2
53.038600 7385.700000
55.017900 18796.100000
55.054300 23926.600000
57.069900 6603.300000
67.054200 6457.800000
69.008300 60947.900000
69.044700 20746.700000
69.069700 15955.600000
70.065100 26479.700000
71.060300 50818.200000
79.054100 8269.100000
80.049300 6843.700000
81.069900 15207.200000
82.065100 19083.300000
83.060300 13018.700000
84.044400 16300.900000
84.080800 45595.100000
85.075900 7141.500000
86.071200 60765.700000
91.054200 7479.800000
93.069900 17083.800000
94.065100 7016.300000
95.060300 27672.900000
95.085600 38775.100000
96.044400 122512.000000
96.080800 56994.000000
97.039700 142629.500000
97.064800 21408.100000
98.060000 98038.300000
106.065000 7076.900000
107.072900 9632.400000
108.011400 5475229.000000
109.076000 36919.700000
110.060000 14581.700000
110.071300 13741.000000
110.096400 131024.100000
111.091700 6514.100000
112.050500 23801.600000
112.111900 25993.800000
114.066300 9164.400000
120.080900 34064.200000
121.064500 7543.200000
121.075800 8552.100000
122.071200 36482.200000
122.096300 12633.000000
123.055500 19675.100000
123.079300 5708.400000
123.091700 19729.300000
124.063100 8480.900000
124.076000 6262.500000
124.086900 17687.100000
125.058500 16827.100000
126.022000 25648.400000
126.066200 6282.700000
136.087300 9805.600000
137.058400 6240.500000
137.094700 9597.100000
137.107500 49232.000000
138.066100 152780.500000
138.091400 77959.600000
138.102600 76375.000000
139.074000 180882.800000
139.086600 13785.500000
139.122900 34714.800000
140.037400 44428.400000
140.107000 721514.500000
142.097500 12064.900000
148.086900 161458.000000
149.107300 16833.900000
150.102600 1253884.400000
151.073900 24469.000000
151.122900 115277.700000
152.081800 124538.500000
152.118100 26185.400000
153.089500 33612.300000
154.097400 35350.800000
156.052900 9222.600000
163.086800 13016.900000
164.082100 30032.100000
164.118300 24520.600000
165.090000 336766.700000
165.102200 465981.100000
166.097500 4989911.500000
167.105300 549914.000000
178.064800 14225.000000
179.129200 21056.300000
180.113300 140582.200000
180.149500 288203.300000
181.120900 84448.700000
182.128900 149090.900000
190.134200 8631.400000
191.117700 48358.700000
192.149500 154002.700000
193.133600 368493.900000
194.128800 501159.200000
196.131700 21133.600000
196.144100 11768.900000
198.099800 11356.500000
206.128200 12579.800000
208.144500 2047168.500000
209.152300 88180.900000
209.175700 14826.100000
210.160100 2956695.000000
224.175700 219620.200000
228.079900 32633.000000
237.207300 1007366.800000
244.074800 24624.400000
254.095600 36935.000000
262.085600 203918.500000
272.106300 674866.400000
317.164200 271784.900000

>ms2
53.038600 19328.000000
54.033800 7061.100000
55.017900 90506.900000
55.054200 94112.100000
56.049500 17520.600000
57.044700 6219.900000
58.065200 9020.300000
65.038500 9268.900000
67.054200 68251.000000
68.049500 26552.200000
69.008300 186009.600000
69.044700 65016.800000
69.057400 13764.300000
69.069800 27241.100000
70.065100 154548.200000
71.060300 218742.600000
72.044300 5569.300000
79.054100 30971.700000
80.049500 22118.700000
81.033500 17239.800000
81.044700 23834.200000
81.057300 17530.700000
81.069900 59289.400000
82.065100 69701.000000
83.024000 7808.700000
83.060400 22090.400000
83.072900 4551.000000
84.044400 32445.400000
84.080800 71884.500000
85.076000 31868.800000
86.071300 135110.000000
91.054300 20019.400000
92.049600 6628.700000
93.069900 69625.400000
94.065100 32342.800000
95.024000 12605.600000
95.049200 12792.600000
95.060400 83632.300000
95.073000 13394.400000
95.085600 93866.000000
96.044400 681123.600000
96.080800 69244.600000
97.039700 195887.400000
97.065000 19975.200000
97.076200 25139.400000
98.060100 614628.600000
105.070000 11825.700000
107.060400 8267.500000
107.073000 55762.700000
108.011400 3514195.500000
109.039600 6938.200000
109.063500 25962.500000
109.076000 73852.200000
110.060100 64516.800000
110.071300 67395.600000
110.096500 129771.400000
111.055500 10408.800000
111.079100 22829.900000
111.091700 6502.000000
112.050400 42364.500000
112.112000 21899.300000
114.066200 7091.100000
120.080800 53383.200000
121.065100 12296.300000
121.075900 33117.800000
122.071200 157218.800000
122.083700 16805.900000
122.096300 43650.100000
123.055300 63850.400000
123.079300 21319.900000
123.091600 41076.000000
124.050500 9241.100000
124.063000 34400.800000
124.075900 23157.600000
124.086900 33621.100000
125.058500 9975.500000
125.071000 8554.200000
126.022100 17243.300000
126.066300 11795.700000
126.127800 13498.700000
128.070800 16205.400000
135.091900 10558.300000
136.087000 34087.500000
136.990400 9689.800000
137.058300 35046.300000
137.094700 48664.500000
137.107500 23021.600000
138.066200 327984.700000
138.091500 75020.700000
138.102600 108624.300000
139.074000 297629.800000
139.086600 22951.200000
139.123100 36617.600000
140.107000 1355995.800000
148.086900 78180.500000
149.071100 18418.400000
149.107600 8013.400000
150.102600 789102.900000
151.074100 33116.100000
151.097500 5271.200000
151.110400 45730.700000
151.123000 28203.100000
152.081900 141221.300000
152.118300 16749.700000
153.089400 8142.700000
154.097600 17052.100000
156.052700 29498.900000
162.102900 5085.800000
164.082000 114596.300000
164.119000 20420.800000
165.089900 423720.000000
165.102300 590939.100000
166.097500 2847167.800000
167.105300 240675.600000
168.113200 10201.800000
177.102200 7734.300000
179.129200 60499.000000
180.113200 128755.000000
180.149500 91922.800000
181.120400 20631.900000
182.128900 273844.200000
191.117800 25942.500000
192.149700 48370.400000
193.133600 270124.800000
194.128900 374739.300000
196.144300 20509.900000
198.099800 11670.200000
206.127900 4845.200000
208.144500 422841.000000
209.176300 31923.500000
210.160100 1220910.200000
224.175800 65602.400000
237.207300 218058.700000
244.074800 9340.300000
262.085400 48625.600000
272.106500 16147.700000

>ms2
53.002200 5977.700000
53.038600 65334.100000
54.033800 24004.700000
55.017900 274340.700000
55.029100 16663.500000
55.054200 191261.300000
56.049500 41050.100000
57.044700 36561.000000
57.057200 4997.100000
57.069900 6410.400000
58.065100 18397.000000
65.038500 18902.700000
67.054200 170723.500000
68.049400 114067.200000
69.008300 388748.700000
69.033500 33406.600000
69.044700 110263.000000
69.057300 62225.700000
69.069800 40940.200000
70.065100 448274.800000
71.060300 446113.300000
72.044100 6127.900000
78.033700 5700.700000
79.054200 78638.000000
80.049400 59610.200000
81.033400 18908.000000
81.044700 93929.000000
81.057300 45556.500000
81.069900 100831.200000
82.052500 14413.800000
82.065100 114037.700000
83.024000 14044.200000
83.049100 11840.700000
83.060300 22018.300000
83.072900 39442.000000
84.044300 38616.100000
84.055600 6734.700000
84.080800 81542.200000
85.076100 47094.900000
86.034900 6685.300000
86.071300 124244.200000
91.054100 49293.500000
92.049500 16843.600000
93.044900 6147.600000
93.069900 99030.400000
94.065100 60822.000000
95.024000 18786.100000
95.049300 23931.500000
95.060400 202786.900000
95.072900 29068.000000
95.085500 140608.100000
96.044400 1315727.400000
96.080800 78145.800000
97.039700 197675.500000
97.076100 30240.000000
98.060000 1224122.500000
103.054100 12848.600000
104.975200 11540.400000
105.044900 8005.900000
105.069900 17225.600000
106.065200 10810.600000
107.060400 14781.700000
107.073000 116428.500000
108.011400 1565301.900000
109.039700 7641.500000
109.063500 90632.800000
109.076000 128084.300000
110.060000 129143.300000
110.071300 125102.900000
110.096500 77522.700000
111.055300 12104.700000
111.079100 61045.100000
112.050500 44776.000000
112.112100 24545.700000
114.066200 16446.200000
120.080700 57551.600000
121.064600 9762.300000
121.076100 55264.300000
122.071200 243273.600000
122.083800 28312.900000
122.096300 44992.100000
123.055300 75852.000000
123.079100 45220.500000
123.091700 37462.100000
124.050700 8551.700000
124.063200 42317.700000
124.075700 66007.200000
124.087000 36854.900000
125.058400 11842.400000
125.071100 7193.100000
126.021900 7115.700000
126.066100 10561.400000
126.127600 15144.800000
128.070600 41000.200000
133.076100 7847.800000
135.079000 15934.900000
135.091600 10321.500000
136.086900 140124.100000
136.990400 6054.100000
137.058400 52193.700000
137.094900 68899.000000
137.107300 11299.200000
138.066200 410776.000000
138.091500 31577.500000
138.102600 76213.500000
139.074000 246451.300000
139.123100 22515.300000
140.107000 979995.300000
148.086700 29225.800000
149.070900 43634.000000
149.107500 5284.400000
150.102600 418306.500000
151.074100 25027.100000
151.097900 11291.100000
151.110300 40722.400000
151.122700 10271.400000
152.081800 147880.100000
152.118400 11855.800000
153.089600 8775.400000
154.097500 7733.700000
156.052800 34549.700000
162.102400 6854.400000
164.081900 190321.000000
164.118200 14368.300000
165.090000 195703.900000
165.102100 308646.000000
165.125900 17213.100000
166.097500 1116837.200000
167.105200 91756.000000
168.112800 4721.000000
177.102300 16778.900000
179.129100 89900.900000
180.113100 46739.100000
180.149500 15554.000000
181.121000 12289.600000
182.128900 165665.600000
191.117800 5247.400000
192.149800 23103.200000
193.133600 118779.300000
194.128800 173328.600000
196.144300 8955.400000
198.100300 6281.400000
208.144500 39939.300000
209.176000 7599.700000
210.160100 251392.200000
224.175700 8946.100000
237.207000 23590.700000

>ms2
53.002200 10250.000000
53.038600 105087.500000
54.033800 61445.600000
55.017900 460396.900000
55.029100 52990.800000
55.054300 223958.800000
56.049500 44705.300000
57.044700 41505.200000
57.057300 9841.100000
57.069900 9608.000000
58.065200 25590.100000
65.038600 35989.700000
67.054200 230456.700000
68.049500 246814.900000
69.008300 451420.700000
69.033500 61880.100000
69.044700 110070.000000
69.057300 119212.400000
69.069900 32606.900000
70.065100 710672.700000
71.060400 419317.300000
72.044400 5529.700000
78.033700 4685.400000
79.054200 87900.700000
80.049500 104764.100000
81.033400 22662.100000
81.044800 152291.900000
81.057400 63555.400000
81.069900 66669.700000
82.052600 20039.900000
82.065100 129776.200000
83.024000 16795.900000
83.049300 8614.100000
83.060400 13927.800000
83.073000 65106.600000
84.044500 40322.200000
84.055700 9486.900000
84.080800 51726.700000
85.076100 22615.000000
86.035100 8401.100000
86.071300 98712.400000
91.054300 70941.700000
92.049500 16075.300000
93.044700 18368.100000
93.069900 68298.000000
94.065200 69363.100000
95.049200 42482.500000
95.060400 232263.900000
95.072900 32015.800000
95.085600 85787.600000
96.044400 1058916.400000
96.080800 70293.000000
97.039700 87548.900000
97.063900 8301.800000
97.075900 29706.100000
98.060100 1104665.000000
103.054300 6736.000000
104.975500 14393.100000
105.044900 21064.400000
105.069900 14934.800000
106.065300 15095.700000
107.060600 24324.700000
107.073000 111574.000000
108.011400 487121.700000
109.039400 8353.300000
109.063500 94387.500000
109.076100 123819.600000
110.060100 114722.200000
110.071300 174769.700000
110.096500 39989.400000
111.055400 14839.900000
111.079100 69779.200000
112.050800 23163.400000
112.112100 11990.600000
114.066300 8313.300000
120.081000 30839.400000
121.076200 47206.000000
122.071300 183616.800000
122.083800 28364.500000
122.096500 18965.900000
123.055300 67366.600000
123.079000 36886.300000
123.091700 19043.400000
124.050500 11854.400000
124.063400 25292.000000
124.075700 51275.300000
124.086900 40478.500000
125.071300 9102.800000
128.070600 23609.100000
133.076200 9058.000000
135.079300 15748.700000
135.091800 9299.500000
136.087000 182081.300000
137.058400 15358.000000
137.094800 42076.300000
137.107200 5290.000000
138.066200 301913.900000
138.102600 44091.800000
139.074100 117542.600000
140.107000 324529.000000
148.087000 12118.200000
149.071100 31277.700000
150.102700 146802.000000
151.074000 19188.000000
151.098000 13018.300000
151.110400 20307.500000
152.081900 87145.900000
153.089100 5796.700000
156.053000 19279.600000
162.102800 7348.600000
164.082000 163698.100000
164.118200 16483.000000
165.090100 41400.900000
165.102200 116962.300000
165.125800 6841.100000
166.097600 260189.900000
167.105300 22309.400000
177.102500 6913.800000
179.129200 53494.700000
180.113000 19037.100000
182.128900 37925.500000
192.149600 7315.800000
193.133600 20081.200000
194.129100 43894.100000
210.160100 25221.500000

