>compound LU40629568
>parentmass 384.9949
>ionization [M+H]+
>formula C9H22O4P2S4
>rt 1180.560000
>profile orbitrap
#smiles_iso CCOP(=S)(OCC)SCSP(=S)(OCC)OCC
#smiles_can CCOP(=S)(OCC)SCSP(=S)(OCC)OCC
#inchikey RIZMRRKBZQXFOY-UHFFFAOYSA-N
#pubchem_id 3286
#mb_accession LU052101,LU052102,LU052103,LU052104,LU052105,LU052106

>ms2peaks
142.938600 3944.300000
170.970000 8322.100000
199.001200 16502.300000
215.032400 17456.500000

>ms2peaks
114.961300 21010.500000
142.938600 30635.100000
170.969900 13670.200000
199.001400 2168.900000
215.032500 6452.100000

>ms2peaks
114.961300 30346.100000
142.938500 23439.300000

>ms2peaks
63.026400 2288.400000
114.961400 38300.200000
142.938500 12055.900000

>ms2peaks
114.961400 31220.700000
142.938600 4045.800000

>ms2peaks
63.026300 1600.800000
114.961500 41834.000000

