>compound LU40832188
>parentmass 403.1751
>ionization [M+H]+
>formula C22H26O7
>rt 1152.540000
>profile orbitrap
#smiles_iso CCCC1=C(C=CC(=C1O)C(=O)C)OCCCOC2=CC=C(C=C2)OCC(=O)O
#smiles_can CCCC1=C(C=CC(=C1O)C(=O)C)OCCCOC2=CC=C(C=C2)OCC(=O)O
#inchikey HBBVCKCCQCQCTJ-UHFFFAOYSA-N
#pubchem_id 6603901
#mb_accession LU035301,LU035302,LU035303,LU035304,LU035305,LU035306

>ms2
123.044500 5196.400000
135.080400 20387.400000
137.059600 5664.500000
149.059600 13881.000000
150.067600 11487.000000
151.075300 55128.900000
153.091100 49559.100000
163.075300 1333676.900000
165.091000 183274.400000
181.049400 40804.100000
191.070400 79265.400000
191.106600 68380.200000
193.086200 26042.500000
193.122400 388440.400000
195.101600 333529.700000
205.122200 33923.500000
207.101600 31387.700000
209.080800 106019.700000
233.117200 7787.000000
235.132700 44911.000000
285.148500 5525.300000
297.147700 12708.800000
315.159200 393238.700000
343.154400 95117.600000
357.169700 321060.200000
361.164600 227328.200000
403.175300 5183209.500000

>ms2
55.017900 7415.200000
65.038600 3472.000000
69.033500 3566.900000
77.038600 6999.500000
79.054200 18721.900000
91.054200 6262.700000
93.069900 3405.800000
95.049100 33288.000000
103.054200 4664.400000
105.033500 3280.200000
105.070000 28605.100000
107.049200 190564.000000
107.085600 13345.800000
109.028400 29788.300000
109.064800 9212.000000
111.044100 22335.800000
117.070000 12818.700000
121.064700 9583.200000
123.044100 132528.300000
125.059800 6998.600000
133.064800 24553.700000
135.044100 60383.200000
135.080500 591295.400000
137.059800 162071.600000
145.064800 7713.900000
149.059800 135892.500000
150.067600 162653.000000
151.075400 413264.600000
153.054600 74163.600000
153.091000 126915.500000
161.059700 8303.500000
163.075400 3262507.200000
165.054800 57940.200000
165.091000 659441.600000
167.033900 85581.200000
175.075600 24135.000000
177.091000 69526.900000
179.070400 31312.200000
181.049600 583091.800000
189.091100 22924.600000
191.070400 28327.500000
191.106700 149429.500000
193.086200 216911.700000
193.122400 650258.900000
195.101700 1001931.800000
203.106900 4519.500000
205.086600 16824.500000
205.122300 74452.900000
207.101700 443031.300000
209.080900 58073.500000
215.070000 5897.000000
217.122300 6200.900000
233.117400 70802.000000
235.133000 52085.300000
255.137800 8086.200000
257.117200 13003.200000
273.111400 3929.800000
285.148100 5392.300000
297.148400 7965.500000
315.158800 54502.800000
343.154700 11379.500000
357.169800 183848.800000
361.164800 35065.600000
403.175400 127992.600000

>ms2
51.023000 2693.100000
53.002100 5125.500000
53.038500 15063.000000
55.017800 30033.300000
57.033600 3001.700000
65.038500 11750.900000
67.054200 18285.400000
68.997000 6132.100000
69.033500 7632.100000
77.038200 12983.700000
79.054200 202232.400000
81.033500 12304.200000
81.069900 6995.400000
83.049100 4297.100000
91.054100 39701.100000
92.025700 4490.400000
93.033500 23518.900000
93.069900 29905.500000
94.041400 8132.700000
95.049100 328076.800000
103.054200 27000.500000
105.033500 30590.000000
105.069900 202260.200000
107.049100 767930.500000
107.085500 54424.200000
109.028400 265081.300000
109.064800 56259.300000
110.035900 3792.600000
111.044000 78091.000000
115.054100 16232.100000
117.069900 44599.300000
119.048900 3905.200000
119.085700 4302.900000
120.056900 3902.900000
121.028500 11262.700000
121.064800 46193.200000
122.036100 15264.700000
123.044000 495326.400000
124.051800 9724.100000
125.059600 32430.700000
131.049100 4285.100000
131.085700 4911.200000
133.064700 63213.000000
134.072900 3721.900000
135.044100 323097.800000
135.080400 1062066.000000
137.059700 300003.900000
139.074900 3332.800000
145.064600 11934.600000
147.043900 54509.100000
147.080300 10978.100000
148.051900 10379.800000
149.059700 192203.700000
150.067500 306935.800000
151.075300 536680.900000
153.054600 165473.800000
153.090900 81174.700000
155.070500 2614.600000
161.060000 42980.800000
162.067700 5057.700000
163.075300 1140375.800000
165.054600 150688.500000
165.091000 318044.600000
167.033800 104079.600000
173.096000 3170.700000
174.068200 3100.000000
175.075400 67886.700000
177.091000 307693.300000
179.070300 94181.800000
181.049500 515276.300000
189.090900 72308.500000
191.069800 4874.000000
191.106700 52020.900000
192.078100 4777.200000
193.085900 113025.600000
193.122300 128169.700000
195.101600 578364.800000
203.106400 9292.800000
205.085600 18399.000000
205.122200 10096.200000
207.101500 232661.200000
209.081400 3591.000000
215.070700 2913.000000
217.122500 4150.300000
233.117200 21794.000000
235.133300 16535.300000
257.116700 3511.200000
357.170700 3180.500000

>ms2
51.023000 4179.000000
53.002200 10187.400000
53.038600 51055.200000
55.017900 72276.800000
57.033600 4175.700000
65.038500 81096.500000
67.054200 72510.900000
68.997000 14067.500000
69.033300 12972.300000
75.023000 3092.700000
77.038400 39908.800000
78.046700 2772.800000
79.054200 547196.600000
81.033500 64292.800000
81.069900 16197.800000
83.012700 2768.600000
83.049100 5835.800000
91.054200 133975.300000
92.025600 23562.700000
93.033500 93493.600000
93.069900 55155.700000
94.041300 31805.600000
95.049100 621507.800000
103.054200 90645.800000
105.033600 83908.400000
105.069900 546560.400000
107.049100 843955.100000
107.085400 68104.800000
108.057000 3195.200000
109.028400 529711.400000
109.064800 77428.900000
110.036100 9363.900000
111.044000 123019.200000
115.054200 43593.900000
116.062100 3129.900000
117.069900 56569.200000
118.041300 5439.600000
119.049200 17346.800000
119.085600 6769.600000
120.057000 11699.200000
121.028400 35752.900000
121.064700 64387.800000
122.036200 46474.300000
123.044000 562469.300000
124.051700 16783.300000
125.059700 46352.700000
128.061900 3922.800000
131.049200 25477.000000
131.085600 5363.600000
132.057000 8053.900000
133.064700 101460.000000
134.036200 3814.500000
134.072600 4364.400000
135.044000 271916.500000
135.080400 472932.500000
137.059700 189055.600000
139.075700 2827.600000
140.047100 4682.400000
141.054400 7497.900000
144.057100 3321.200000
145.064700 11489.300000
146.072900 4308.300000
147.044000 160681.700000
147.080600 17612.600000
148.051800 11234.700000
149.059700 163243.300000
149.096200 14808.700000
150.067500 207607.000000
151.075400 362216.700000
153.054600 81876.100000
153.090900 25456.800000
154.062800 5023.000000
155.070500 4062.700000
159.080500 7192.800000
161.059800 73509.700000
162.067800 4597.100000
163.075300 227122.700000
165.054600 101544.600000
165.091000 122034.500000
167.034000 26503.900000
173.096100 4124.900000
175.075300 43028.700000
177.091000 222757.400000
179.070100 55097.800000
181.049400 78337.300000
189.091000 36034.800000
191.069700 4851.800000
191.106500 14336.100000
192.077800 2903.600000
193.086100 26513.900000
193.122100 21163.000000
195.101600 96173.700000
203.106600 9628.500000
205.086000 10339.800000
207.101700 42646.800000
233.118400 3552.300000
235.132800 6296.300000

>ms2
50.015200 4946.600000
51.023000 5241.700000
53.002200 12721.100000
53.038600 130235.200000
55.017800 106549.400000
55.054200 7754.100000
63.023000 6008.700000
64.030700 2999.000000
65.038600 206506.900000
66.046400 8285.300000
67.054200 150650.800000
68.997100 19404.700000
69.033500 13910.100000
75.023000 19741.500000
77.038500 132953.500000
78.046400 3669.700000
79.054200 731227.400000
81.033500 228944.800000
81.069900 21107.500000
82.004900 3050.800000
83.012700 3740.600000
83.049200 4607.500000
90.046400 2770.000000
91.054300 261769.100000
92.025700 99470.700000
93.033500 104751.300000
93.069900 50633.200000
94.041400 70234.200000
95.049200 717052.400000
103.054300 225291.200000
104.062100 3034.800000
105.033600 110006.000000
105.069900 580906.700000
107.049200 602189.100000
107.085500 37010.700000
109.028500 585812.400000
109.064800 63325.700000
110.036300 13130.200000
111.044100 121352.200000
115.054300 65559.100000
116.062100 10071.600000
117.069900 30084.400000
118.041100 12372.100000
119.049300 36102.100000
119.085500 13409.600000
120.057200 11890.400000
121.028500 58421.700000
121.064800 69099.000000
122.036300 54663.200000
123.044100 349825.700000
124.052100 13328.000000
125.059700 37251.700000
128.062000 11524.400000
129.069900 9271.300000
131.049200 43075.000000
131.085600 9063.300000
132.057100 7730.400000
133.028500 10430.700000
133.064800 76804.700000
134.036200 6928.900000
134.072900 3697.300000
135.044100 179698.400000
135.080400 106927.700000
136.051800 3248.600000
137.059800 75091.000000
140.046900 8597.400000
141.054600 5442.600000
141.070100 2871.800000
144.057200 6123.100000
145.064900 8716.100000
146.072600 4829.200000
147.044000 171143.400000
147.080700 12855.500000
148.051600 8148.400000
149.059800 73711.900000
149.096300 19398.100000
150.067600 94622.400000
151.039300 7257.100000
151.075400 141447.100000
153.054600 17015.500000
154.062400 5388.700000
159.080500 7996.300000
161.059700 42806.700000
163.075400 39964.600000
165.054700 40338.100000
165.091100 38359.200000
167.033900 3682.400000
174.067800 6560.000000
175.075600 14477.100000
177.054400 12584.900000
177.091100 67122.800000
179.070100 10668.300000
181.049400 5569.900000
189.090800 10940.400000
193.086000 6438.200000
193.122500 4323.700000
195.101700 8387.400000
207.101400 4770.800000

>ms2
50.015100 7035.300000
51.023000 7646.600000
53.002200 22441.700000
53.038600 212484.900000
55.017900 113279.300000
55.054200 13988.200000
63.022900 23600.800000
64.030700 17545.400000
65.038600 337646.400000
66.046400 23982.900000
67.054200 189893.300000
68.997100 21798.300000
69.033500 15824.000000
75.022900 46988.400000
77.038500 192705.800000
78.046400 14457.400000
79.054200 725137.200000
81.033500 426991.900000
82.004800 9983.800000
83.012700 3450.500000
83.049000 5472.000000
90.046400 4529.700000
91.054300 369669.600000
92.025700 182953.500000
93.033600 60699.300000
93.069900 35504.200000
94.041400 111297.300000
95.049200 776483.800000
103.054300 305404.000000
104.062000 7326.200000
105.033600 122165.700000
105.069900 393375.700000
107.049200 413120.100000
108.057100 5569.200000
109.028500 415145.200000
109.064900 32816.000000
110.036300 14817.300000
111.044100 86442.600000
115.054200 82732.600000
116.062000 15083.800000
117.069900 17567.600000
118.041300 23100.500000
119.049200 42503.000000
119.085500 6909.300000
120.056900 12740.600000
121.028500 52955.600000
121.064800 50431.800000
122.036300 41121.100000
123.044100 182116.200000
124.051800 5020.800000
125.059800 16409.700000
128.062100 13517.300000
129.069800 7330.700000
131.049300 45924.000000
131.085700 4487.600000
132.056900 7148.400000
133.028400 8140.000000
133.064800 46530.400000
134.036200 7429.600000
134.072600 5399.300000
135.044100 102394.500000
135.080300 19267.600000
136.051900 3321.100000
137.059600 27799.500000
140.046800 5972.400000
141.069600 3307.500000
144.056900 3901.700000
145.064800 9994.300000
146.072000 2534.800000
147.044100 101515.200000
147.080300 9616.700000
149.059700 34954.100000
149.095900 4888.800000
150.067600 31020.600000
151.039000 9367.000000
151.075500 39612.900000
153.054400 2513.100000
154.061900 3508.800000
159.080600 3683.900000
161.059800 17363.700000
163.075200 9331.600000
165.054600 7665.600000
165.090900 8576.700000
175.075200 6921.300000
177.054700 5607.000000
177.090800 12674.000000

