>compound LU40588154
>parentmass 601.2707
>ionization [M+H]+
>formula C32H42Cl2N4O3
>rt 1000.200000
>profile orbitrap
#smiles_iso CN(C)C(=O)C1(CCN(CC1)CC[C@]2(CN(CCO2)C(=O)C3=CC=CC=C3)C4=CC(=C(C=C4)Cl)Cl)N5CCCCC5
#smiles_can CN(C)C(=O)C1(CCN(CC1)CCC2(CN(CCO2)C(=O)C3=CC=CC=C3)C4=CC(=C(C=C4)Cl)Cl)N5CCCCC5
#inchikey RVQZVVJLIUXDPN-YTTGMZPUSA-N
#pubchem_id 46919619
#mb_accession LU053901,LU053902,LU053903,LU053904,LU053905,LU053906

>ms2peaks
58.065100 490325.300000
126.091400 56517.400000
138.127800 566235.100000
516.182300 312295.900000
601.271400 5550210.500000

>ms2peaks
53.038600 6167.100000
56.049400 7484.600000
58.065100 1921963.200000
69.069800 9899.000000
70.065000 8924.500000
72.044300 20878.700000
84.080600 13526.000000
86.060000 54574.000000
98.096100 5707.000000
104.049500 5613.400000
105.033400 151078.100000
110.096600 18427.400000
124.112100 20818.600000
126.091300 2154333.800000
138.127600 4955933.500000
148.075500 475900.400000
149.059500 26124.200000
152.143000 8515.000000
166.086100 5954.100000
178.086100 33115.800000
226.018400 84167.000000
228.034000 222948.500000
244.028800 13947.800000
252.033200 15748.500000
270.044500 10672.300000
318.044300 11491.700000
332.060300 5070.700000
334.039400 198758.400000
362.070900 51215.100000
373.087400 17653.900000
391.097300 3715077.200000
516.181700 34374.700000
601.268400 6201.600000

>ms2peaks
53.002200 4362.600000
53.038500 28482.600000
55.054200 22555.100000
56.049500 26572.300000
58.065100 1271039.500000
67.054000 5601.600000
69.069800 82546.000000
70.065100 32855.400000
72.044300 217912.800000
72.080800 42840.000000
74.059900 33806.600000
77.038200 17444.200000
81.033400 10160.700000
82.064900 16932.700000
83.049100 20789.600000
84.080800 109834.300000
86.060000 152051.100000
86.096300 15571.900000
95.049100 55612.900000
96.080700 22819.200000
98.096400 77145.300000
104.049400 274043.700000
105.033500 2714935.500000
108.080500 5812.600000
110.096400 89853.200000
112.112000 6774.700000
122.059800 9058.300000
124.112300 21135.200000
126.091300 3804859.000000
136.075800 5542.100000
136.112100 5845.400000
138.127700 4245732.000000
148.075600 1578034.100000
149.059700 385490.300000
150.127300 6623.000000
152.143400 6922.900000
158.976100 19518.600000
166.085700 4724.000000
178.086100 43005.000000
191.049600 7078.300000
193.065200 5413.200000
196.991800 8814.100000
199.007400 9839.800000
212.003000 9111.100000
214.018400 70038.200000
224.003000 5403.200000
226.018400 256589.900000
227.026200 10190.600000
228.034000 875027.900000
240.034100 22903.300000
244.029000 70689.900000
252.033700 24495.100000
256.028700 23752.900000
270.044600 81697.900000
318.044300 47182.600000
332.060300 34973.900000
334.039500 134780.500000
362.070900 126178.400000
373.087100 14854.000000
391.097600 348393.900000

>ms2peaks
50.015000 4750.000000
51.023000 8477.000000
53.002200 9202.000000
53.038500 121761.200000
55.054200 81655.700000
56.049400 72016.300000
58.065100 886554.700000
67.054200 17853.800000
68.049400 9692.600000
69.069800 220285.900000
70.065100 69555.500000
72.044300 791109.300000
72.080700 113896.600000
74.059900 30008.100000
77.038300 45332.500000
79.054100 7004.600000
80.049400 5443.600000
81.033500 32325.500000
81.069800 16290.400000
82.065100 54379.900000
83.049100 51412.100000
84.080700 334063.500000
86.060000 70892.000000
86.096400 50688.500000
91.054200 6931.000000
93.069700 6677.600000
94.041300 9333.200000
94.065300 5005.300000
95.049100 308511.600000
96.080700 55238.000000
98.096400 261312.300000
104.049500 760703.300000
105.033500 4470983.000000
108.080500 19819.300000
110.096400 174658.200000
112.112100 7932.700000
122.060200 7196.100000
124.112000 12312.200000
126.091300 3014315.800000
136.075600 9140.700000
136.112000 18766.300000
138.127600 2792998.000000
148.075600 660707.500000
149.059700 321433.100000
150.023100 20563.200000
158.976100 65827.600000
162.023100 12611.900000
163.031100 6740.500000
164.038500 16566.600000
179.050300 7942.200000
184.991900 14510.200000
191.049500 34235.100000
192.057400 9198.200000
193.065200 32089.800000
196.991700 16949.400000
199.007600 13116.400000
203.049600 5417.800000
205.065600 6659.000000
208.991800 7056.900000
212.002700 8267.800000
213.010500 9851.500000
214.018400 49673.300000
226.018300 136673.200000
227.026100 11931.100000
228.034000 516351.300000
240.034200 20396.700000
244.029100 26131.700000
256.028700 10663.400000
270.044500 25707.400000
332.060700 16785.100000

>ms2peaks
50.015100 5366.200000
51.023000 6817.800000
53.002200 22266.200000
53.038600 311582.700000
54.033800 9012.500000
55.017900 15383.900000
55.054200 177500.800000
56.013200 7484.700000
56.049500 131778.700000
58.065100 647399.900000
65.038600 4058.600000
67.054200 38432.800000
68.049500 23539.800000
69.069900 210260.600000
70.065100 106640.700000
72.044400 1344383.600000
72.080800 158720.100000
74.060000 9140.100000
77.038500 93188.000000
79.054200 15494.000000
80.049400 7526.800000
81.033500 49419.800000
81.057300 8826.000000
81.069900 33130.800000
82.065100 90421.600000
83.049200 52213.300000
83.072900 5417.000000
84.080800 531101.800000
86.060000 26389.900000
86.096400 73181.800000
91.054300 9410.700000
93.069900 9367.300000
94.041300 19586.600000
94.065200 7680.000000
95.049200 757619.000000
96.080800 57201.300000
97.088700 9506.200000
98.096500 359919.500000
104.049500 770708.000000
105.033600 3749978.800000
105.044400 303103.700000
108.080800 26936.400000
109.064700 6790.000000
110.096400 168555.100000
112.111900 8917.300000
115.054300 13140.900000
123.104200 5513.700000
124.112300 5254.400000
126.091400 1566378.000000
128.062500 5197.200000
129.069800 14082.100000
136.075700 6174.200000
136.112200 22048.700000
138.127800 1264682.500000
148.075700 153110.800000
149.015200 35792.800000
149.059800 107238.400000
150.023100 68870.300000
156.080700 5586.100000
158.976400 67550.700000
162.023100 27255.400000
163.031000 8077.800000
164.026500 3919.800000
164.038700 24854.800000
170.976300 9483.900000
172.992100 6580.700000
177.034100 11814.900000
178.041600 6785.200000
179.049400 8787.600000
182.976300 9145.400000
184.992100 19988.800000
190.042000 9669.300000
191.049700 44284.200000
193.065400 51235.800000
196.991800 9445.300000
197.986700 3878.200000
199.007800 5737.000000
203.049600 6168.700000
208.991300 6616.800000
212.002900 14203.900000
213.010700 13198.300000
214.018600 20064.100000
224.003200 8985.000000
226.018500 66920.400000
227.025900 7072.500000
228.034200 143559.000000
240.034400 9067.600000

>ms2peaks
50.015100 6093.100000
51.023000 5850.400000
53.038600 577567.000000
54.033800 19405.500000
55.017800 20550.300000
55.054300 240473.000000
56.013200 17292.500000
56.049500 201687.200000
58.065100 541207.400000
65.038600 7897.000000
67.041700 8324.800000
67.054200 44529.300000
68.049500 33272.100000
69.069800 174662.100000
70.065100 110067.000000
72.044400 1873818.800000
72.080700 185414.000000
74.060200 4866.800000
77.038500 161173.300000
79.054200 24326.800000
80.049500 10471.200000
81.033500 73026.600000
81.057200 8269.700000
81.069900 41319.600000
82.065100 99005.400000
83.049200 42507.800000
83.073000 8135.600000
84.080800 592936.200000
86.060000 13881.100000
86.096500 93291.800000
91.054300 11868.000000
93.070000 6556.600000
94.041300 43958.000000
94.065200 15311.200000
95.049200 1398266.100000
96.080800 52422.200000
97.088600 6070.300000
98.096400 350627.500000
104.049500 651743.600000
105.033600 2606530.500000
105.044500 570178.300000
108.080800 31821.600000
109.065000 9724.300000
110.096500 126709.500000
115.054300 50359.200000
123.104300 4562.900000
124.112300 3663.800000
126.091400 676028.000000
128.062000 10622.000000
129.070000 30883.700000
136.075700 5900.900000
136.112400 16056.500000
138.127800 501598.500000
148.075600 37230.600000
149.015400 46214.500000
149.059900 37297.300000
150.023100 75254.400000
156.080700 6976.000000
157.088600 7219.500000
158.976300 72997.000000
162.023100 42398.000000
163.031000 5324.200000
164.026300 7427.300000
164.038700 7364.400000
170.976400 8053.900000
177.033900 11780.000000
178.041600 11110.500000
179.049600 6929.900000
182.976200 4552.100000
184.991800 8536.800000
190.041800 12670.700000
191.049600 41273.400000
192.057400 39384.200000
193.065200 20238.200000
205.066300 5030.800000
212.003000 9998.400000
213.010900 10005.700000
214.018600 4366.500000
224.003100 9690.300000
226.018700 25520.500000
227.025600 4144.000000

