>compound LU41609098
>parentmass 364.11099999999993
>ionization [M+H]+
>formula C19H19ClFNO3
>rt 1109.400000
>profile orbitrap
#smiles_iso CC(C)OC(=O)C(C)N(C1=CC(=C(C=C1)F)Cl)C(=O)C2=CC=CC=C2
#smiles_can CC(C)OC(=O)C(C)N(C1=CC(=C(C=C1)F)Cl)C(=O)C2=CC=CC=C2
#inchikey IKVXBIIHQGXQRQ-UHFFFAOYSA-N
#pubchem_id 40520
#mb_accession LU035701,LU035702,LU035703,LU035704,LU035705,LU035706

>ms2
53.038700 2732.700000
77.038600 7800.700000
95.049200 9546.200000
105.033600 1964419.900000
152.051000 2890.700000
172.032500 90175.200000
276.058800 78330.400000
304.053800 349628.000000

>ms2
51.022900 3180.200000
53.038500 16133.300000
77.038200 10303.900000
95.049200 55232.400000
105.033500 2668932.800000
152.050700 5486.900000
172.032300 39066.700000
276.058600 13577.100000
304.053500 4620.600000

>ms2
50.015100 2725.600000
51.022900 4100.600000
53.038600 58603.900000
77.038500 24530.200000
81.033500 6341.500000
94.041400 7872.800000
95.049200 169264.000000
105.033500 2305062.000000
172.032300 24235.700000

>ms2
50.015200 5447.800000
51.022900 14474.100000
53.038600 150251.500000
55.017900 8217.100000
77.038500 39403.500000
81.033500 14301.200000
81.070000 2684.800000
94.041400 14699.400000
95.049200 456292.200000
105.033600 1851409.000000
106.041800 3013.200000
109.065000 6466.600000
137.063700 4369.900000
172.032400 16821.100000

>ms2
50.015200 13061.200000
51.023000 26484.300000
53.038600 273590.400000
55.017900 10932.400000
77.038600 73205.500000
81.033600 23553.000000
81.070000 2845.700000
94.041400 27072.700000
95.049200 751831.900000
105.033600 1026466.800000
106.041700 2410.400000
109.064800 11348.400000
136.055900 4122.100000
137.063900 5018.600000
172.032400 5597.700000

>ms2
50.015100 24832.400000
51.023000 59795.500000
53.038600 343033.900000
55.017900 13830.200000
77.038600 134199.300000
81.033400 37312.600000
81.069800 6585.800000
94.041300 33477.400000
95.049200 994438.500000
105.033600 476264.000000
109.065000 12096.000000
136.055700 5919.800000

