>compound LU41427175
>parentmass 238.08629999999997
>ionization [M+H]+
>formula C15H11NO2
>rt 1109.640000
>profile orbitrap
#smiles_iso CC1=C(C2=C(C=C1)C(=O)C3=CC=CC=C3C2=O)N
#smiles_can CC1=C(C2=C(C=C1)C(=O)C3=CC=CC=C3C2=O)N
#inchikey ZLCUIOWQYBYEBG-UHFFFAOYSA-N
#pubchem_id 6702
#mb_accession LU077301,LU077302,LU077303,LU077304,LU077305,LU077306

>ms2
238.086400 2148656.000000

>ms2
105.033400 3630.300000
160.039200 3001.200000
223.062700 8817.200000
238.086300 1979803.400000

>ms2
72.044200 3275.200000
91.054200 7431.500000
105.033500 41333.900000
130.028800 7903.300000
132.044300 3397.100000
134.060000 3187.500000
160.039300 39166.600000
165.069900 22726.200000
167.072800 9301.600000
180.081400 2488.800000
181.088200 3076.700000
182.096300 6971.700000
192.080800 10011.800000
193.064900 31122.400000
193.089100 5097.100000
194.096600 3254.500000
195.068100 14155.300000
197.059500 1974.700000
209.082900 8828.800000
210.091300 30200.700000
211.075000 9716.600000
220.075700 32527.900000
221.060100 9973.100000
222.055300 2056.700000
223.062800 100478.200000
236.070900 9634.100000
238.086200 1404523.900000

>ms2
72.044200 2257.500000
91.054300 24981.200000
95.049300 4754.000000
104.049600 6491.700000
105.033600 83096.700000
115.054300 3908.600000
130.028900 18270.900000
132.044100 4975.800000
133.028500 6881.700000
134.060000 34863.900000
141.069900 2903.700000
152.061900 6240.100000
153.069700 2479.100000
155.085300 9150.700000
160.039400 42790.900000
165.070000 117507.700000
166.077800 3999.000000
167.073000 64700.400000
180.080800 13056.800000
181.088700 15500.200000
182.096800 14613.800000
183.080800 5722.800000
190.065500 5480.300000
191.073000 10341.500000
192.080800 26844.700000
193.065000 64165.700000
193.088500 14512.400000
194.059800 2778.800000
194.072800 5833.500000
194.096300 2263.800000
195.068000 85268.600000
198.067400 3880.900000
208.075900 6762.500000
209.083400 20891.500000
210.091500 38332.000000
211.075400 15882.500000
220.075900 33483.700000
221.059900 14963.900000
222.055000 6028.700000
223.062900 213704.600000
236.070700 14073.700000
238.086300 375578.200000

>ms2
53.038700 6078.500000
65.038600 6477.100000
72.044300 3828.900000
77.038700 1921.400000
79.054300 4914.300000
91.054300 17686.100000
95.049100 13496.300000
104.049500 10364.600000
105.033600 59889.300000
106.065200 19920.600000
115.054400 7782.800000
124.076100 5274.000000
128.062100 2461.600000
130.029000 10857.600000
132.044800 2771.700000
133.028600 4646.100000
134.060100 60775.900000
139.054400 2026.600000
141.070100 7677.100000
152.062000 11856.700000
153.070100 5756.200000
155.085800 9408.200000
160.039400 17163.100000
165.070000 192743.900000
166.065600 4199.700000
166.078000 5162.300000
167.073100 156930.100000
168.056900 10070.800000
169.064300 1756.300000
177.057600 6211.900000
180.080800 33980.700000
181.065000 2832.300000
181.088900 20595.200000
182.059800 1750.600000
182.097000 7023.000000
183.080600 3072.000000
190.065400 10719.300000
191.073100 10087.400000
192.080700 13950.700000
193.065100 33552.200000
193.088200 12515.700000
194.060300 6177.600000
194.073100 4730.600000
195.068000 133676.700000
197.059900 1985.100000
198.068700 1964.800000
208.075800 5421.800000
209.083600 13300.900000
210.091400 17203.800000
211.075800 5198.400000
220.076200 9925.300000
221.060100 8376.600000
222.055100 14544.500000
223.062900 106734.400000
236.071100 4656.400000
238.086300 48638.800000

>ms2
53.038700 13300.800000
65.038500 7167.800000
72.044400 2823.300000
77.038600 4268.500000
79.054300 25727.900000
91.054300 18517.300000
95.049200 40525.100000
104.049600 14672.400000
105.033600 47588.700000
106.065200 50954.600000
115.054300 20375.600000
124.075800 8130.200000
128.062100 6854.800000
130.028900 4555.400000
133.028500 3556.900000
134.060100 76532.800000
139.054400 12417.000000
141.069900 10085.800000
152.062100 22908.900000
153.070100 14451.300000
155.085700 4855.200000
160.039400 6322.500000
165.070000 272708.400000
166.065300 36575.100000
166.078100 6532.000000
167.073100 267804.400000
168.057000 37360.700000
169.064900 2737.100000
177.057100 9167.700000
180.080900 70278.300000
181.064900 3057.900000
181.088800 19305.700000
182.060700 2141.200000
182.096900 2722.900000
183.080700 1862.800000
190.065200 15017.900000
191.073100 10182.300000
192.080900 7047.400000
193.065100 19005.600000
193.088900 7324.600000
194.060200 11767.400000
194.071900 4090.500000
195.068000 141374.300000
208.075900 9193.700000
209.083600 7176.700000
210.091200 2352.600000
211.076200 2221.100000
220.075900 3125.300000
221.059800 2715.800000
222.055100 17047.700000
223.063000 39011.100000
236.071100 4041.600000
238.086300 4939.300000

