>compound LU41599385
>parentmass 140.0342
>ionization [M+H]+
>formula C6H5NO3
>rt 1067.340000
>profile orbitrap
#smiles_iso C1=CC(=CC=C1[N+](=O)[O-])O
#smiles_can C1=CC(=CC=C1[N+](=O)[O-])O
#inchikey BTJIUGUIPKRLHP-UHFFFAOYSA-N
#pubchem_id 980
#mb_accession LU120201,LU120202,LU120203,LU120205

>ms2
112.015900 8638.100000
112.039400 2226.300000
140.034300 304028.900000

>ms2
112.015800 9805.300000
112.039300 2355.400000
140.034300 407228.000000

>ms2
112.015900 5521.700000
112.039000 3465.500000
140.034300 192749.500000

>ms2
112.015800 7787.800000
112.039300 45816.500000
140.034200 270479.300000

