>compound LU41478315
>parentmass 333.0756999999999
>ionization [M+H]+
>formula C20H12O5
>rt 949.260000
>profile orbitrap
#smiles_iso C1=CC=C2C(=C1)C(=O)OC23C4=C(C=C(C=C4)O)OC5=C3C=CC(=C5)O
#smiles_can C1=CC=C2C(=C1)C(=O)OC23C4=C(C=C(C=C4)O)OC5=C3C=CC(=C5)O
#inchikey GNBHRKFJIUUOQI-UHFFFAOYSA-N
#pubchem_id 16850
#mb_accession LU078801,LU078802,LU078803,LU078804,LU078805,LU078806

>ms2
333.075600 13310947.000000

>ms2
333.075800 13449941.000000

>ms2
231.080300 18811.900000
259.075300 30359.200000
271.075300 245272.800000
287.070300 467601.700000
289.086000 234085.400000
305.081000 193696.000000
315.065500 66917.000000
316.071400 14265.000000
333.075800 12853707.000000

>ms2
55.017800 10684.200000
65.038600 36237.900000
68.997100 27022.500000
81.033500 9723.700000
94.041300 5334.000000
95.012700 7323.500000
95.049200 17925.900000
105.033600 34032.500000
115.054100 5987.200000
121.028400 5426.800000
131.049000 8028.800000
133.028400 28361.100000
137.023500 8798.800000
139.054200 10203.600000
165.069800 8688.500000
167.048800 12881.700000
168.057100 26652.000000
171.043900 9642.700000
178.077900 7707.800000
181.065000 9130.300000
183.044100 6122.900000
184.052000 20106.100000
189.069500 25575.500000
190.077700 22663.800000
191.085600 44199.700000
195.044100 11462.000000
196.052100 29379.400000
197.060000 7565.200000
199.038800 14493.600000
202.077600 119047.700000
203.085500 163875.400000
204.093600 5476.400000
205.065000 10629.900000
205.101200 14072.600000
207.080200 11018.300000
213.069700 31107.300000
214.077700 9297.500000
215.085600 200505.100000
217.064600 7693.100000
218.072700 47833.300000
219.080400 22790.500000
221.059500 11123.700000
224.046900 9387.200000
228.041400 9577.700000
229.049700 101808.800000
229.063600 6456.400000
230.073000 6955.000000
231.080500 543909.000000
232.088400 8933.400000
233.059900 7188.200000
233.096000 55126.100000
234.067100 14617.500000
235.075500 9649.100000
241.049500 6855.200000
241.064800 25257.000000
242.072700 49230.400000
243.080600 103332.900000
244.088600 9113.800000
245.060000 18784.700000
246.067900 11262.800000
247.075400 75803.700000
249.054600 17227.200000
255.029000 12409.100000
258.067700 92105.000000
259.075400 460343.100000
260.083200 69945.800000
261.091100 171316.600000
262.062800 8944.200000
263.070400 39269.900000
269.059900 12046.000000
270.067800 18619.200000
271.075400 889206.000000
273.054600 11129.200000
274.062800 22671.300000
277.085800 8924.000000
286.062600 63926.200000
287.070400 2607348.500000
288.078100 17631.600000
289.086000 1391978.100000
297.055000 9555.300000
298.063000 20737.100000
302.057600 7853.400000
303.065000 6658.800000
304.074500 7504.800000
305.081000 306307.200000
313.048900 7764.100000
314.057500 7936.700000
315.065400 267130.600000
316.073100 28398.200000
332.067500 5930.300000
333.076000 5116189.000000

>ms2
53.002100 4619.400000
53.038600 24509.500000
55.017800 27954.400000
65.038500 107426.200000
67.017600 2866.600000
68.997100 107423.100000
71.012700 8063.300000
77.038500 6404.400000
81.033400 24132.000000
91.054100 5891.700000
93.033500 6990.900000
94.041300 15225.100000
95.012600 11319.800000
95.049100 45056.400000
103.054300 9084.300000
105.033500 70169.500000
107.049100 6423.000000
109.028100 3074.900000
111.043900 9681.000000
115.054100 50841.800000
117.069900 3921.500000
119.012700 6512.800000
121.028400 12890.100000
127.054300 3700.100000
128.062000 25504.100000
131.049100 35995.300000
133.028400 24880.800000
137.023400 16158.600000
139.054200 86617.600000
140.061900 21713.600000
141.069900 20288.300000
143.049000 12991.000000
145.064700 14279.300000
147.044200 3176.800000
149.023900 3078.300000
152.061800 15371.600000
153.069800 11689.000000
155.049200 40804.300000
156.056900 2645.000000
159.044000 6907.000000
165.069800 75213.200000
167.049100 32115.400000
167.085200 6692.000000
168.056900 103557.700000
169.064600 11017.200000
171.043800 39797.400000
173.059600 9138.000000
176.061600 14894.100000
177.069800 21235.300000
178.077600 79413.900000
179.085200 26633.000000
181.064700 34622.300000
183.043900 14558.700000
184.051900 82193.200000
187.038700 8780.800000
189.069800 212539.300000
190.077600 145505.600000
191.085400 131695.300000
192.056700 3661.300000
193.064800 6905.500000
193.100500 3659.000000
194.072400 4905.800000
195.043900 14317.900000
195.080600 5885.800000
196.051800 51544.000000
197.059600 15403.800000
199.038900 42248.400000
200.062100 8689.800000
201.054900 32999.500000
201.069500 22341.700000
202.077700 1103385.000000
203.085500 616492.100000
204.093300 45637.800000
205.064700 72614.500000
205.101000 24132.100000
206.072500 11475.400000
207.080300 33066.600000
209.059300 7401.700000
211.038900 11605.100000
212.046900 6191.300000
213.069800 153365.200000
214.077700 51414.000000
215.085500 689855.400000
216.056000 3451.000000
216.093300 11569.700000
217.064600 22043.500000
218.072600 174973.200000
219.080300 72025.100000
220.052000 2806.900000
221.059600 25896.900000
224.047100 5459.200000
224.061400 5726.500000
225.068700 3572.500000
226.077600 16905.300000
227.033900 8882.600000
228.042100 13975.100000
229.049700 231547.100000
229.064400 36758.200000
230.072700 52668.100000
231.080400 1226098.600000
232.088100 36078.200000
233.059600 44503.400000
233.095900 169410.800000
234.067500 62615.100000
235.075500 21969.100000
237.054000 7436.700000
241.050000 7846.100000
241.064300 57646.400000
242.072500 226489.400000
243.080400 209194.500000
244.088000 50269.600000
245.059600 53924.000000
246.067400 30959.000000
247.075300 114854.600000
248.083800 6407.300000
249.054300 20703.800000
249.091500 4927.700000
250.062300 7835.600000
253.063400 5264.400000
255.028700 3544.000000
255.080800 4660.600000
257.059600 9685.600000
258.067500 459827.200000
259.075300 815785.400000
260.083000 162161.300000
261.091000 210571.800000
262.062500 19482.300000
263.070100 27395.700000
269.058600 37666.200000
270.067600 37755.300000
271.075300 728499.600000
272.083000 9578.900000
273.055000 15579.700000
274.062100 46877.800000
275.069600 10036.100000
277.085800 8288.800000
285.054400 17379.800000
286.062500 154994.900000
287.070200 2097135.500000
288.078000 19783.100000
289.085800 867470.100000
297.055000 11196.000000
298.061600 16274.900000
299.070700 8509.200000
302.058200 14028.000000
303.065400 8182.400000
304.073000 5597.700000
305.080700 54831.100000
313.048900 8845.600000
315.065100 181616.000000
316.073500 3908.300000
333.075900 534080.200000

>ms2
53.002300 7995.900000
53.038600 30964.700000
55.017800 37747.800000
65.038600 140391.300000
67.017700 3331.100000
68.997100 163866.000000
71.012800 7019.400000
77.038400 14825.000000
81.033400 26728.200000
91.054200 19588.800000
93.033500 6505.400000
94.041400 9740.500000
95.012800 6989.800000
95.049100 74883.200000
103.054200 32092.000000
105.033600 67918.100000
107.049200 9458.000000
109.028400 3159.200000
111.044000 10653.000000
115.054200 157518.800000
117.069800 28039.800000
119.012800 11004.000000
121.028500 12481.200000
127.054200 32168.000000
128.062100 70991.900000
131.049100 79047.500000
133.028400 10139.900000
134.035700 3756.300000
137.023400 17470.200000
139.054200 187125.500000
140.062000 50502.000000
141.069800 25873.100000
143.049200 22556.800000
145.064800 54832.600000
147.044300 4200.200000
152.062000 50423.400000
153.069900 23589.800000
155.049200 130949.500000
156.057000 12966.400000
157.064800 8060.400000
159.043800 7250.000000
165.069900 152624.600000
167.049100 21269.200000
167.085300 7002.700000
168.057000 120382.600000
169.065000 21432.300000
171.044000 34670.300000
173.059800 28548.100000
176.062000 59063.600000
177.069800 44446.500000
178.077700 181316.900000
179.085600 29360.900000
181.064700 38035.300000
183.044000 19772.300000
184.051900 112412.600000
187.039200 11763.100000
187.054400 10394.100000
189.069900 667112.100000
190.077700 223958.500000
191.085500 120130.500000
192.056900 10797.700000
193.064800 11138.700000
194.072600 11669.000000
195.043800 6488.000000
195.080500 6107.200000
196.052100 26719.000000
197.059800 14694.600000
199.039000 21874.700000
200.062000 49205.300000
201.054700 71972.300000
201.070000 48779.700000
202.077700 2621617.500000
203.085500 619048.400000
204.093400 49952.400000
205.064800 183487.300000
205.101100 12001.400000
206.072700 17828.100000
207.080400 31193.900000
209.059300 3630.000000
211.039100 12817.500000
213.069900 381881.200000
214.077700 98799.800000
215.085500 752951.300000
216.057000 8040.900000
216.093500 15800.800000
217.064800 30523.700000
218.072600 227384.500000
219.080400 84811.400000
220.051900 4830.900000
221.059500 34971.900000
224.062200 14631.700000
225.070100 4702.900000
226.077400 24114.900000
228.042600 13372.500000
229.049600 136496.300000
229.064700 131803.500000
230.072600 99424.600000
231.080500 948340.600000
232.088500 30006.400000
233.059800 49738.100000
233.096000 127701.200000
234.067400 86746.900000
235.074600 16190.200000
237.055300 3325.400000
241.064500 39267.100000
242.072600 284390.200000
243.080400 183922.600000
244.088300 35890.500000
245.059600 77079.900000
246.067600 37276.200000
247.075300 65588.000000
248.082900 5040.300000
249.054300 11852.500000
250.062100 9148.100000
253.064800 9660.700000
255.081400 4545.700000
257.059800 24049.300000
258.067600 603636.100000
259.075400 611449.800000
260.083200 124647.500000
261.090800 45704.100000
262.062200 18243.200000
263.070400 11838.400000
269.059300 50104.500000
270.067300 30618.200000
271.075300 380516.200000
273.054100 4437.300000
274.062300 24463.900000
275.070500 12763.900000
285.054800 30750.300000
286.062400 94299.500000
287.070300 921510.400000
288.078900 5424.600000
289.085800 140538.900000
297.054800 6204.600000
298.062500 4398.400000
299.070200 4219.800000
302.057600 11409.600000
305.080700 3072.500000
313.048100 3738.100000
315.065300 52769.600000
333.075800 18056.300000

