>compound LU41451076
>parentmass 381.1784
>ionization [M+H]+
>formula C20H23F3N2O2
>rt 942.720000
>profile orbitrap
#smiles_iso COC1=C(C=C(C=C1)OC(F)(F)F)CN[C@H]2CCCN[C@H]2C3=CC=CC=C3
#smiles_can COC1=C(C=C(C=C1)OC(F)(F)F)CNC2CCCNC2C3=CC=CC=C3
#inchikey ZIWFCOIGUNPHPM-HKUYNNGSSA-N
#pubchem_id 9821217
#mb_accession LU044301,LU044302,LU044303,LU044304,LU044305,LU044306

>ms2
160.112000 11257680.000000
205.046600 124790.900000
364.151700 84839.200000
381.178300 34224908.000000

>ms2
82.065000 108798.600000
91.054400 160772.200000
131.085600 78075.000000
132.080800 329795.400000
160.112000 54711324.000000
205.047100 2024320.900000
364.151900 297801.900000
381.178600 1743695.600000

>ms2
55.054300 53497.300000
56.049500 103781.500000
68.049400 154277.700000
82.065100 1164162.100000
91.054200 1182693.200000
103.054100 103045.100000
109.044800 172756.500000
111.060400 90574.800000
115.054200 349943.300000
117.057300 162106.600000
117.069800 516408.400000
118.064900 56185.200000
119.073100 145913.400000
128.062000 273423.800000
130.065100 318081.400000
131.085600 698342.500000
132.080800 4346260.000000
143.085600 275051.200000
158.096600 155539.300000
160.112000 51948684.000000
175.036500 660213.200000
177.052100 358588.000000
193.046800 64843.000000
203.042400 221828.700000
205.047100 2819469.200000

>ms2
53.038500 31895.800000
54.033800 50652.400000
55.054200 269000.300000
56.049400 229459.600000
58.065100 42255.700000
65.038500 113280.400000
67.041500 112829.800000
68.049400 396501.400000
68.994500 74998.700000
69.057200 120636.400000
79.054100 24917.500000
80.049400 109148.000000
82.065100 2504862.500000
83.029100 81030.700000
91.054200 3868755.200000
103.054200 568751.600000
104.049300 172535.700000
105.069800 285509.400000
106.065000 40801.600000
109.044800 1466334.200000
111.060400 124019.000000
115.054200 1774969.400000
116.062000 51753.200000
117.057300 1217906.400000
117.069800 1386670.600000
118.065000 188283.600000
119.049000 37696.100000
119.060400 28928.300000
119.072900 544102.800000
128.062000 958942.400000
129.069800 143002.500000
130.065100 1721632.100000
131.073400 146714.500000
131.085500 1459173.100000
132.080700 9935597.000000
141.069600 61608.600000
143.085500 389606.800000
144.080600 35834.100000
145.064600 47201.200000
145.088700 59329.700000
155.060600 57187.800000
158.096400 211870.300000
159.103700 62662.400000
160.111900 24853386.000000
175.036400 2049964.900000
177.052100 304991.400000
193.046700 66168.600000
203.042300 288144.200000
205.047000 895188.100000

>ms2
50.015200 13213.300000
51.022900 14494.000000
53.002200 14298.900000
53.038600 49977.800000
54.033800 115471.700000
55.054200 498839.100000
56.049500 241365.200000
58.065100 74901.700000
59.029200 24779.200000
63.022900 23671.700000
65.038500 256881.700000
67.041600 236321.700000
68.049500 383027.300000
68.994600 376585.100000
69.057200 183266.500000
70.065200 19033.300000
77.038700 34608.900000
78.046400 14777.300000
79.054200 76440.900000
80.049400 203601.300000
81.057200 9800.400000
82.065100 2134928.500000
83.029100 579521.700000
83.073000 39238.900000
89.038400 80526.400000
90.046400 20725.400000
91.054200 7264470.500000
92.062100 15785.300000
95.049100 61004.300000
102.046600 9000.600000
103.054200 1655686.200000
104.049500 330542.900000
105.069900 788608.800000
106.041400 41537.100000
106.065100 40816.400000
109.044800 3129139.500000
111.060500 54110.900000
115.054200 3604099.500000
116.049200 16664.400000
116.062100 145485.000000
117.057300 3232296.000000
117.069800 1425689.500000
118.065100 285626.100000
119.073000 764584.700000
127.035400 74060.600000
127.054200 20016.900000
128.062000 1392693.600000
129.069800 242186.700000
130.065200 3296232.500000
131.073100 321653.900000
131.085500 1057159.900000
132.080700 8438964.000000
133.064600 14348.800000
141.069900 84131.100000
142.077700 24554.800000
143.072900 36766.800000
143.085500 208483.000000
144.080600 77434.500000
145.064700 69788.300000
145.088300 58361.300000
155.060400 97419.400000
158.096400 167943.900000
159.104000 66430.500000
160.112000 7146878.000000
175.036500 1394061.500000
177.052100 79922.100000
193.047000 12090.700000
203.042600 67010.000000
205.047100 87316.500000

>ms2
50.015100 13137.600000
51.022900 18536.900000
53.002200 12080.600000
53.038600 116509.500000
54.033800 179035.300000
55.054200 672668.400000
56.049400 182128.400000
57.013500 51263.000000
58.065200 44444.100000
59.029100 50067.300000
63.022700 63399.300000
65.038500 582410.600000
67.041600 366671.000000
68.049400 401340.900000
68.994600 1032703.200000
69.057300 171002.300000
70.065100 34766.600000
77.038400 60997.300000
78.046300 86775.200000
79.054200 179268.800000
80.049400 203811.400000
81.057200 18127.600000
82.065100 1307482.400000
83.029100 1601526.100000
83.072900 87131.800000
89.038500 242708.800000
90.046400 78402.400000
91.054200 9987930.000000
92.061900 24058.400000
95.049100 234155.400000
102.046300 46662.900000
103.054200 3165862.800000
104.049400 590093.500000
105.069900 1221519.400000
106.041200 36205.300000
106.065100 43825.800000
109.044800 3251166.200000
111.060300 18850.400000
115.054200 4935769.000000
116.049400 24475.700000
116.062000 220414.000000
117.057300 5251289.000000
117.069700 1000802.200000
118.065000 543642.100000
119.072900 699859.900000
127.035300 92563.700000
127.054100 43720.100000
128.062000 1519252.400000
129.069800 227370.200000
130.065100 4371589.000000
131.073000 484397.700000
131.085500 558393.400000
132.080700 4823155.000000
133.064300 15490.300000
141.069700 86926.700000
142.077800 21345.600000
143.072800 70735.500000
143.085400 72352.200000
144.080700 121757.000000
145.064800 103292.600000
145.088500 42844.700000
155.060200 120403.600000
158.096300 128934.300000
159.104000 52108.000000
160.112000 1746517.200000
175.036400 494509.200000
177.052500 11515.700000

