>compound LU42068406
>parentmass 270.12550000000005
>ionization [M+H]+
>formula C14H20ClNO2
>rt 1085.750000
>profile orbitrap
#smiles_iso CCC1=CC=CC(=C1N(COCC)C(=O)CCl)C
#smiles_can CCC1=CC=CC(=C1N(COCC)C(=O)CCl)C
#inchikey VTNQPKFIQCLBDU-UHFFFAOYSA-N
#pubchem_id 1988
#mb_accession LU117401,LU117402,LU117403,LU117404,LU117405,LU117406

>ms2peaks
59.049200 9275.100000
95.012800 5039.500000
148.112200 8518.200000
162.127800 19991.800000
208.088700 6091.300000
220.089100 3028.500000
224.083800 41525.900000
238.099500 156159.400000

>ms2peaks
57.069900 1612.200000
59.049100 32127.700000
90.010500 4173.300000
131.085300 2252.000000
148.112000 59217.200000
158.049500 65776.800000
214.112200 111842.300000
224.083800 51458.800000

>ms2peaks
57.069900 6667.300000
59.049100 19851.100000
74.096300 8970.100000
90.010500 5506.500000
116.027800 2523.600000
131.085400 3047.900000
133.088600 9308.800000
148.112100 57558.800000
158.049600 432706.900000
214.112200 95156.100000
224.084000 4930.700000

>ms2peaks
53.038600 2453.400000
57.069900 7337.300000
58.065100 2212.400000
59.049100 7990.100000
65.038600 2759.700000
74.096400 13309.200000
79.054300 72146.500000
80.049400 8671.700000
81.033500 9914.700000
81.057200 3111.600000
90.010400 3310.900000
91.054300 26565.600000
92.049500 4133.000000
92.061700 9917.800000
93.070000 23521.000000
94.065100 4301.500000
95.049300 9397.000000
96.080900 11725.500000
103.054200 13982.500000
104.049500 2508.400000
105.057400 31775.400000
110.060000 3976.000000
116.027800 9375.100000
118.065000 9990.800000
119.072900 3404.100000
120.080800 93618.000000
124.075600 12791.000000
133.088600 16389.000000
138.091300 3245.000000
148.075800 1157817.500000
158.049600 275348.800000
214.112700 4610.200000

>ms2peaks
53.038600 20232.500000
54.033800 3602.800000
57.069900 8914.200000
58.065100 2659.100000
59.049200 2561.900000
65.038500 6088.100000
74.096500 11069.000000
77.038600 6342.200000
79.054300 137303.400000
80.049500 17244.100000
81.033600 13703.000000
81.057300 5076.600000
90.010600 2232.800000
91.054300 79769.800000
92.049600 11441.300000
92.062000 19599.200000
93.057300 5594.700000
93.069900 43897.300000
94.065100 8231.100000
95.049200 43720.700000
96.044500 3324.800000
96.080800 9539.400000
103.054300 32379.100000
104.049600 11858.400000
105.057400 115168.500000
110.060100 14612.100000
116.027700 20971.000000
118.065300 26866.600000
119.061000 1988.800000
119.073100 14056.400000
120.080900 131853.500000
124.075700 11328.500000
132.081000 4111.200000
133.088700 22965.100000
138.091700 3680.000000
148.075800 565171.400000
158.049600 135337.300000

>ms2peaks
53.038600 81860.600000
54.033900 5202.900000
57.070000 4362.600000
65.038500 37648.300000
74.096300 3299.900000
77.038500 22555.200000
79.054200 322034.400000
80.049500 53310.700000
81.033500 15676.100000
81.057100 9560.100000
91.054300 266547.000000
92.049600 31916.600000
92.062000 58656.400000
93.057300 18393.300000
93.069900 70622.800000
94.065200 18573.700000
95.049200 192746.100000
96.044500 7325.100000
96.080800 8462.300000
103.054300 65060.800000
104.049500 81666.500000
105.057200 322135.900000
110.060000 22633.700000
116.027700 16809.800000
118.065100 71774.500000
119.061200 2725.400000
119.073000 31459.500000
120.080800 131894.000000
124.075700 12575.200000
132.080600 5544.400000
133.088700 16144.000000
148.075700 345506.400000
158.049500 29218.500000

