>compound LU42604548
>parentmass 215.04849999999996
>ionization [M+H]+
>formula C8H10N2O3S
>rt 497.880000
>profile orbitrap
#smiles_iso CC(=O)NC1=CC=C(C=C1)S(=O)(=O)N
#smiles_can CC(=O)NC1=CC=C(C=C1)S(=O)(=O)N
#inchikey PKOFBDHYTMYVGJ-UHFFFAOYSA-N
#pubchem_id 8482
#mb_accession LU086601,LU086602,LU086603,LU086604,LU086605,LU086606

>ms2peaks
79.021300 3919.300000
93.033700 2516.600000
93.057300 34659.000000
94.065200 3574.500000
108.044400 27376.300000
134.060100 53650.200000
135.067900 35338.400000
136.075800 146254.700000
137.964000 2635.800000
150.054900 22772.100000
152.070700 6248.500000
156.011600 7357.700000
166.967100 2426.500000
173.038300 2700.100000
198.022100 533261.600000
215.048600 280108.400000

>ms2peaks
61.010700 2528.700000
65.038700 3171.100000
79.021200 12926.100000
93.033600 6737.300000
93.057400 121194.300000
94.065100 17153.300000
108.044400 56687.600000
126.010600 3948.600000
134.060100 120683.400000
135.067900 55509.000000
136.075800 205722.800000
137.964100 4503.200000
148.063200 3896.400000
150.055100 29639.500000
152.070900 9554.500000
156.011300 15227.300000
166.967400 1920.100000
198.022000 381779.000000
215.048500 94536.400000

>ms2peaks
61.010700 5409.100000
65.038600 38985.500000
79.021200 22721.200000
79.980200 2116.400000
92.049600 7469.800000
93.033600 43498.600000
93.057400 477324.100000
94.065200 92780.700000
106.065400 1921.200000
108.044400 92858.100000
110.060200 7140.400000
111.044300 2146.900000
134.060100 188178.600000
135.067900 43471.200000
136.075800 176985.000000
150.054900 12810.800000
152.070700 7259.500000
153.959400 6421.800000
156.011300 15835.800000
198.022200 63898.200000
215.048700 8249.600000

>ms2peaks
61.010700 5836.900000
65.038600 98341.000000
66.046400 3549.000000
79.021300 30438.100000
79.980200 4583.500000
92.049500 15758.100000
93.033600 44892.500000
93.057400 607162.700000
94.065200 146888.300000
95.049300 1818.700000
106.065100 4381.900000
108.044500 61157.700000
110.060100 10645.400000
111.043900 1880.400000
134.060100 62454.100000
135.068000 7273.100000
136.075800 46227.100000
153.959600 5479.800000
156.011500 4799.500000
173.038300 2004.200000
198.022500 3197.900000

>ms2peaks
53.038600 2880.400000
55.054200 2333.400000
61.010600 5562.200000
63.997600 1836.700000
65.038600 117884.900000
66.046300 7516.900000
79.021200 25703.100000
79.054200 5712.000000
79.980100 5657.400000
80.049400 2897.900000
92.049500 25027.500000
93.057300 666407.100000
94.065100 133217.800000
95.049200 7099.500000
105.044600 2719.200000
106.065100 4784.900000
108.044400 38448.100000
110.060000 10057.700000
134.060000 12187.400000
136.075700 6964.600000
153.959300 2155.900000

>ms2peaks
53.038600 6900.200000
55.054200 2737.400000
61.010700 6805.800000
63.997700 4182.800000
65.038500 115107.100000
66.046400 30543.500000
79.021200 25076.700000
79.054200 4010.200000
79.980200 2698.400000
80.049300 8643.100000
92.049500 26016.700000
93.057300 697868.100000
94.065100 101168.400000
95.049100 13246.400000
105.044600 4014.700000
106.065200 2953.300000
108.044200 24078.700000
110.060100 4591.400000
134.059900 3067.300000

