>compound LU42981996
>parentmass 216.07860000000002
>ionization [M+H]+
>formula C10H14ClNO2
>rt 933.540000
>profile orbitrap
#smiles_iso C1=CC(=CC(=C1)Cl)N(CCO)CCO
#smiles_can C1=CC(=CC(=C1)Cl)N(CCO)CCO
#inchikey MVQUJEUCFOGFJU-UHFFFAOYSA-N
#pubchem_id 66688
#mb_accession LU076301,LU076302,LU076303,LU076304,LU076305,LU076306

>ms2
119.073000 14529.000000
132.080700 17129.600000
140.026700 20047.800000
144.080800 5900.500000
145.088600 19812.700000
152.026300 7302.800000
153.034000 27549.700000
154.041800 197369.100000
163.099200 31957.100000
171.044900 6661.400000
172.052400 100313.500000
180.057500 127946.500000
198.068100 861985.600000
216.078600 4919853.500000

>ms2
91.054400 5017.300000
110.999600 3053.900000
117.057300 4979.200000
118.065200 6311.900000
119.073000 45951.800000
128.026200 6686.600000
130.065200 5323.900000
132.080800 53689.800000
138.010500 14171.200000
144.080800 22235.400000
145.088600 71199.000000
152.026000 19333.500000
153.034000 111280.300000
154.041800 761228.200000
155.049800 3051.800000
163.099100 63880.100000
171.044700 31859.900000
172.052400 182907.600000
174.054300 5150.300000
180.057500 305933.700000
198.068100 1429834.900000
216.078600 3017974.200000

>ms2
75.022700 3123.300000
91.054100 13062.800000
93.057200 5891.100000
103.054200 5984.300000
113.015300 3514.100000
117.057200 36314.400000
118.065000 65973.000000
119.072900 336082.400000
128.026100 37818.600000
130.065100 42882.800000
132.080700 249351.500000
138.010400 75777.400000
139.004900 3014.100000
140.026100 143583.900000
144.080700 81651.800000
145.088500 190773.000000
151.018500 9495.400000
152.026200 58173.800000
153.034000 278335.800000
154.041700 2394855.500000
155.049200 11920.500000
162.091400 8506.000000
163.099000 56112.400000
164.026300 9999.700000
165.033800 5362.500000
170.036700 3758.800000
171.044500 66626.400000
172.052300 148396.700000
174.054100 11418.600000
178.041600 6994.100000
180.057400 350474.300000
198.067900 932539.600000
216.078500 472864.400000

>ms2
53.038600 2887.000000
77.038500 3000.700000
86.999700 4115.600000
91.054200 36237.800000
92.062100 9724.600000
93.057400 26924.900000
95.049100 8910.300000
103.054200 22410.800000
104.049400 28821.400000
110.999600 2510.000000
112.007600 4177.800000
113.015200 7564.200000
117.057300 83077.800000
118.065100 368031.300000
119.073000 815642.900000
125.015100 6414.300000
126.010500 7131.200000
127.018300 15294.300000
127.030700 3412.100000
128.026200 48411.800000
129.009900 16133.700000
130.065200 97739.200000
132.080800 281937.400000
134.059900 2800.700000
137.015100 3882.800000
138.010500 94080.000000
139.005800 16970.200000
140.026200 383342.700000
143.072700 9716.900000
144.080800 120408.000000
145.088600 158718.600000
151.018400 23109.100000
152.026200 114957.100000
153.034100 268509.400000
154.041800 2164294.800000
155.049500 8763.000000
162.091400 3647.800000
163.099000 9702.300000
164.026100 20560.500000
165.034000 7619.400000
171.044600 25311.500000
172.052300 27636.000000
174.053900 3455.600000
178.041300 11054.100000
180.057400 92642.000000
198.068000 138356.500000
216.078400 20073.200000

>ms2
51.023000 2104.600000
53.038600 7449.300000
75.022900 3101.300000
77.038600 3912.600000
86.999600 7373.000000
91.054200 86807.100000
92.062000 41660.400000
93.057400 53945.500000
95.049200 24632.500000
98.999600 5478.000000
102.046400 7846.200000
103.054300 27987.700000
104.049400 120116.300000
105.057300 6378.400000
106.065200 3095.300000
109.064700 3382.300000
110.999400 4311.400000
112.007400 20748.400000
113.015300 7810.500000
115.054200 6685.600000
116.049700 2756.800000
117.057300 117899.900000
118.065100 988765.900000
119.073000 943339.200000
125.015300 9346.900000
126.010600 22874.500000
127.018400 31136.200000
127.030800 2689.800000
128.026100 41668.000000
129.010200 36250.300000
130.065100 112535.600000
131.073100 2458.700000
132.080800 252292.700000
134.060100 2018.600000
137.015400 5046.400000
138.010500 57569.400000
139.005800 45049.100000
140.026200 573451.600000
143.072900 11230.100000
144.080800 112795.000000
145.088600 52299.900000
151.018400 20850.600000
152.026200 169536.800000
153.034000 134059.700000
154.041800 983713.800000
164.026000 26768.900000
165.034000 4270.300000
166.041900 5469.800000
172.051600 3220.400000
178.042000 4719.800000
180.057500 12202.000000
198.068100 7603.900000

>ms2
51.022900 2339.400000
53.038600 18392.800000
75.022900 25718.200000
77.038600 8805.200000
86.999700 22307.600000
91.054200 149384.700000
92.062100 79544.600000
93.057400 96176.400000
95.049200 54612.700000
98.999600 18591.500000
102.046400 11949.300000
103.054200 23170.500000
104.049500 235559.300000
105.057300 32230.900000
106.065100 4925.500000
109.064700 3490.200000
110.999600 12328.500000
112.007500 51598.000000
113.015500 12164.300000
115.054300 13595.600000
116.049500 4886.900000
117.057300 205114.000000
118.065100 1468226.800000
119.073000 632440.200000
125.015100 12000.500000
126.010600 24232.000000
127.018300 54364.100000
128.026100 26637.400000
129.010100 60122.900000
130.065100 98131.200000
131.073000 5761.500000
132.080800 208647.300000
134.059500 3322.700000
137.015100 4249.900000
138.010500 19128.400000
139.005700 89451.700000
140.026100 674118.000000
143.072900 13345.800000
144.080800 92068.000000
145.088600 14254.800000
151.018300 20013.200000
152.026200 182096.400000
153.034000 43672.900000
154.041800 331707.200000
164.026100 25579.800000
166.041800 13029.100000
180.057600 2214.300000

