>compound LU43985665
>parentmass 575.3756
>ionization [M+H]+
>formula C35H47FN4O2
>rt 874.140000
>profile orbitrap
#smiles_iso CCN1C(=CC(=N1)CC2=CC=CC=C2)C3CCN(CC3)C[C@H]4C[C@@H](C[C@@H]4C5=CC(=CC=C5)F)N(C)[C@H](C(C)C)C(=O)O
#smiles_can CCN1C(=CC(=N1)CC2=CC=CC=C2)C3CCN(CC3)CC4CC(CC4C5=CC(=CC=C5)F)N(C)C(C(C)C)C(=O)O
#inchikey ZTENZJJCFACIAK-ADWVOTLJSA-N
#pubchem_id 5481119
#mb_accession LU121801,LU121802,LU121803,LU121804,LU121805,LU121806

>ms2peaks
444.281100 1421235.400000
475.323200 157696.900000
529.371400 8730.400000
575.376000 5003633.500000

>ms2peaks
58.065100 18563.500000
70.065000 14130.100000
79.054200 6652.500000
86.096400 58536.200000
91.054200 10168.200000
98.096500 55786.300000
109.044900 33911.000000
132.101900 27080.000000
147.060500 16180.800000
175.091700 45500.900000
187.123300 7013.200000
206.133800 26592.800000
239.154400 9706.300000
258.166000 8262.300000
270.196200 52122.400000
282.196400 238406.000000
304.171100 10881.500000
306.186600 17136.600000
416.249600 11371.800000
444.281100 5548312.500000
529.369900 7387.900000
575.376000 84594.400000

>ms2peaks
53.038600 4175.600000
55.054200 30276.200000
56.049500 35216.000000
58.065100 320888.400000
69.069800 4465.600000
70.065100 299452.600000
71.072900 3416.200000
72.080700 8161.300000
79.054200 161107.500000
80.049400 3033.700000
81.069800 5048.600000
82.065100 31945.900000
83.029100 3087.800000
83.072900 3627.200000
84.080800 215216.300000
86.096400 236096.000000
91.054200 345205.000000
94.065100 8016.900000
95.049200 8378.000000
95.072900 3610.800000
96.080700 78482.200000
97.044900 3506.700000
98.096400 720450.900000
105.044800 6768.900000
105.069900 3005.600000
109.044800 970584.800000
110.096400 3983.100000
123.091700 14343.100000
129.069800 6726.300000
132.101900 16674.500000
133.044800 127670.700000
135.060500 12328.800000
135.091400 4515.400000
137.107500 7511.800000
146.052500 12664.200000
147.060400 681161.600000
148.099400 5493.600000
149.076100 98293.800000
149.107300 23338.600000
155.060400 6884.000000
155.085500 11483.100000
159.060200 4002.300000
160.068300 134919.800000
161.107300 19210.300000
163.122700 5183.500000
164.086700 6890.100000
173.076000 19037.500000
175.091700 439327.200000
187.122900 182599.600000
190.133500 3712.900000
192.149400 43925.300000
199.123100 24009.500000
201.138700 10949.100000
204.118300 79680.400000
204.149800 7081.200000
206.134000 91594.200000
211.123100 26136.000000
213.138800 68014.300000
216.118100 5046.200000
223.122900 3563.500000
225.138500 130581.000000
227.154200 8359.500000
239.154200 222344.300000
241.169800 101840.000000
242.165100 10401.600000
253.170000 15699.100000
254.165000 13823.800000
256.148900 19424.200000
258.165300 32427.700000
270.196300 352081.100000
282.196300 623492.900000
304.170900 10069.800000
306.186400 3685.900000
416.249700 102737.800000
475.323100 111734.300000

>ms2peaks
53.038600 14909.500000
55.054200 67174.200000
56.049500 83845.800000
57.013700 3816.500000
58.065100 361995.900000
65.038600 16516.000000
67.054200 13304.500000
68.049400 18374.900000
69.069900 10164.800000
70.065100 367989.700000
71.072900 11673.700000
72.080800 9362.100000
79.054200 206776.800000
80.049500 9050.400000
81.057500 4040.400000
81.069900 7572.000000
82.065200 45034.100000
83.029200 27036.200000
83.073100 5943.200000
84.080800 199852.400000
86.096400 224111.300000
91.054300 860365.800000
94.065200 26965.900000
95.049200 29788.600000
95.073000 24997.700000
96.080800 88446.300000
97.044700 3606.800000
98.096500 348292.100000
103.054300 12082.300000
105.044800 11926.000000
105.070000 6709.500000
107.060500 3673.700000
108.080900 11146.200000
109.044900 1752303.400000
110.096800 6046.300000
115.054300 5412.400000
117.069800 6628.300000
120.080800 3556.900000
121.045000 4706.900000
121.076100 9686.700000
122.096500 14101.200000
123.060500 3749.600000
123.091600 20669.400000
125.071400 3299.400000
127.054300 6372.300000
128.062300 3240.300000
129.069900 21402.700000
133.044900 253965.800000
133.076200 16166.300000
134.052800 10542.400000
134.083900 4615.000000
135.060500 37051.100000
135.091800 37022.100000
137.107400 20662.800000
145.064900 49312.800000
146.052700 71868.500000
147.060500 894863.100000
147.091800 49635.200000
148.099700 5889.000000
149.076100 163686.400000
149.107400 46576.400000
153.070200 12806.100000
155.060300 64002.300000
155.085500 19404.300000
159.060400 25587.000000
160.068300 275417.900000
161.107400 65847.900000
163.122800 25487.500000
164.087200 9515.500000
171.091700 8293.900000
172.099400 6617.200000
173.076000 23824.300000
175.091800 138814.700000
176.118200 3590.300000
185.107500 14671.500000
187.122900 115868.500000
190.133800 6818.000000
192.149800 20740.000000
197.107100 6110.200000
199.123000 29221.500000
201.138400 4964.700000
204.118400 49283.500000
204.149400 6033.300000
206.134200 19401.400000
209.107500 3885.800000
211.123100 65518.500000
213.138400 64861.600000
216.118500 3288.100000
223.122800 6518.000000
225.138600 124306.300000
227.154400 10892.800000
239.154300 132697.500000
241.169900 86654.800000
242.165200 11834.400000
253.170100 10046.700000
254.165500 17973.500000
256.149500 3637.400000
258.164800 3146.600000
270.196400 61938.900000
282.196500 82935.800000
304.172600 2674.300000
444.281200 37230.900000

>ms2peaks
53.002200 4305.700000
53.038600 34151.100000
55.054200 148914.800000
56.049500 101490.200000
57.013500 7357.900000
58.065100 333517.100000
59.029200 6396.000000
65.038500 50724.400000
67.041600 6064.700000
67.054100 15457.100000
68.049500 33467.100000
69.069900 10798.400000
70.065100 323147.200000
71.072900 17511.900000
72.080600 9052.800000
77.038600 9653.000000
79.054200 182833.700000
80.049500 17757.200000
81.044800 18785.600000
81.057200 11556.800000
81.069800 9037.800000
82.065100 35243.800000
83.029100 108553.000000
83.072900 7596.300000
84.080800 99181.200000
86.096400 210854.000000
89.038600 13541.700000
91.054200 1310127.100000
93.057600 3297.500000
94.065200 38576.900000
95.049100 75519.900000
95.060400 8938.200000
95.072900 26900.100000
96.080700 67551.200000
97.044900 6813.900000
98.096400 121547.300000
99.055500 3349.200000
103.054200 31132.800000
105.044800 27403.000000
105.069800 22054.400000
106.065200 11046.300000
107.029400 3029.600000
107.060400 20704.400000
107.072900 5240.600000
108.080800 11503.200000
109.044800 2159075.000000
110.096400 4946.200000
115.054300 29298.200000
117.069700 13221.600000
119.060400 7836.300000
120.080900 7904.400000
121.044800 8848.600000
121.075900 21925.800000
122.096600 10778.600000
123.055100 2866.800000
123.060500 3860.200000
123.091600 10300.800000
125.070600 2950.300000
127.054200 22056.400000
129.069900 40106.300000
132.068300 5041.300000
133.044800 319898.700000
133.076000 59870.400000
134.052700 35549.400000
134.083700 6302.500000
135.060400 48739.400000
135.091700 58399.800000
137.107300 18779.900000
141.070100 5794.900000
142.077700 4667.700000
144.080800 5602.500000
145.064800 126153.300000
146.052600 205606.200000
147.060400 578933.100000
147.091600 42221.900000
149.076100 95109.100000
149.107300 38488.300000
152.062200 9162.000000
153.069800 20235.500000
155.060300 167422.600000
159.060500 99142.100000
160.068300 300269.600000
161.107400 56457.400000
163.055000 2914.800000
163.122900 20970.600000
164.087000 5034.700000
171.091900 15755.400000
173.051100 7215.900000
173.075800 12854.700000
175.091700 20246.900000
176.118300 4907.900000
183.092000 5771.600000
185.107400 16080.600000
187.122800 21579.800000
188.087200 3527.600000
197.107100 5052.300000
199.122800 9081.700000
204.118500 15426.200000
204.149800 3736.000000
209.106600 4225.900000
211.123100 44615.800000
213.138500 36376.200000
223.122500 5089.900000
225.138700 40539.500000
239.154300 24010.900000
241.170200 21315.000000
254.164300 3069.500000

>ms2peaks
53.002200 5290.300000
53.038600 47963.600000
55.054300 176442.500000
56.049500 84224.000000
57.013400 19081.000000
58.065100 259594.400000
59.029200 12785.800000
65.038600 116740.800000
67.041600 10767.100000
67.054300 17339.500000
68.049500 31137.000000
69.069900 5686.600000
70.065100 204990.000000
71.072900 37796.500000
72.080700 9329.700000
77.038600 11507.600000
79.054200 143299.700000
80.049500 31140.700000
81.044700 35690.600000
81.057300 11328.000000
81.069800 6939.800000
82.065200 28418.000000
83.029200 265816.200000
84.080800 33508.100000
86.096400 146381.200000
89.038600 28126.400000
91.054200 1481944.600000
93.057400 5380.500000
94.065100 49477.600000
95.049100 98826.800000
95.060300 10006.100000
95.072900 23446.000000
96.080800 33926.700000
97.044800 6882.200000
98.096500 36165.900000
99.055400 3336.600000
103.054200 54524.400000
105.044700 47769.100000
105.069900 26392.700000
106.065100 13813.500000
107.028900 5320.600000
107.060400 39212.800000
107.073000 5186.000000
108.080800 12836.000000
109.044800 2113207.200000
115.054200 53551.700000
119.060400 15438.900000
120.080800 8557.800000
121.044900 7088.100000
121.075900 19809.300000
122.096500 6971.200000
123.055200 6103.600000
123.060500 6425.300000
123.091800 10202.000000
125.071100 9455.700000
127.054200 45744.000000
128.062200 32397.300000
129.070000 29585.100000
132.068400 11392.400000
133.044800 336677.700000
133.076100 69566.100000
134.052600 44017.400000
135.060500 31139.700000
135.091700 51006.700000
137.107400 9002.700000
141.070000 9756.000000
142.077900 3793.800000
144.080800 6014.000000
145.064800 146898.500000
146.052600 349910.200000
147.060500 272299.000000
147.091500 33836.100000
149.076300 31358.300000
149.107200 15030.800000
152.062100 17415.200000
153.069900 23360.800000
155.060400 206539.700000
159.060500 209328.900000
160.068300 199736.500000
161.107400 19195.800000
163.055400 7254.700000
163.123000 11406.000000
171.091600 14285.000000
172.099100 3145.600000
173.050900 16894.100000
173.076400 5502.400000
183.091800 3885.200000
185.107500 6727.900000
187.122000 3172.100000
188.087200 5332.800000
197.107200 5485.800000
199.122600 4246.800000
209.107400 5398.100000
211.123100 11436.700000
213.138600 12242.600000
225.138700 12984.100000
239.153500 5069.600000
241.169100 3746.100000

