>compound LU43801597
>parentmass 274.27410000000003
>ionization [M+H]+
>formula C16H35NO2
>rt 1037.880000
>profile orbitrap
#smiles_iso CCCCCCCCCCCCN(CCO)CCO
#smiles_can CCCCCCCCCCCCN(CCO)CCO
#inchikey NKFNBVMJTSYZDV-UHFFFAOYSA-N
#pubchem_id 352309
#mb_accession LU030801,LU030802,LU030803,LU030804,LU030805,LU030806

>ms2
256.262800 35874.800000
274.273900 29712612.000000

>ms2
57.069900 149689.100000
70.065100 135044.600000
71.085500 105951.300000
85.101200 59975.500000
88.075700 608112.400000
102.091300 171371.900000
106.086300 834549.900000
230.247800 85953.400000
256.263500 1013786.100000
274.274000 27256666.000000

>ms2
53.002300 53682.700000
53.997500 10434.600000
55.054300 39393.100000
56.049400 14844.700000
57.069900 2039938.000000
58.065100 107575.400000
60.044400 18057.700000
62.060000 155459.700000
67.989200 14455.200000
68.049400 30598.300000
69.069800 41564.800000
70.065100 2659024.800000
71.085500 1108518.200000
72.080700 18605.400000
74.060200 22626.600000
83.085500 12355.900000
84.080700 9902.200000
85.101200 429654.500000
86.060000 58411.200000
88.075700 5390345.500000
102.091400 1551405.900000
104.070600 24141.600000
106.086300 3194733.200000
212.237400 146836.100000
230.247900 332487.600000
256.263500 2072969.200000
274.274000 8313105.500000

>ms2
53.002200 201951.400000
53.997500 34032.200000
55.041700 5339.600000
55.054300 72770.600000
56.049500 21995.300000
57.069900 2901871.500000
58.065100 226052.200000
60.044400 47657.200000
62.060000 149949.100000
67.989300 23233.800000
68.049500 81548.500000
69.069800 39237.700000
70.065100 4440973.500000
71.085500 971519.900000
72.080700 25752.700000
74.060100 32419.000000
83.085400 6886.700000
84.080800 15421.300000
85.101200 212851.100000
86.060100 59580.700000
88.075700 4270513.500000
102.091400 1028047.900000
104.070600 12108.900000
106.086300 1305767.100000
212.237300 64425.600000
230.247900 96591.300000
256.263500 287631.800000
274.274100 485450.400000

>ms2
53.002200 283549.200000
53.997500 46172.400000
55.041600 14983.900000
55.054200 112941.800000
56.049500 40918.300000
57.069900 2261496.000000
58.065200 228509.200000
60.044400 38003.100000
62.060000 65722.800000
67.989300 29125.400000
68.049500 122046.500000
69.069800 32266.200000
70.065100 3541861.800000
71.085500 326811.900000
72.080800 25255.500000
74.060000 41092.900000
84.080900 8911.500000
85.101200 39735.100000
86.060100 29279.700000
88.075700 1520308.900000
102.091400 316676.100000
106.086300 258007.000000

>ms2
53.002200 337430.200000
53.997400 49914.000000
55.041600 22093.800000
55.054300 123972.500000
56.049500 43109.300000
57.069900 1467417.500000
58.065100 166651.800000
60.044400 35810.600000
62.060000 36615.700000
67.989200 23170.700000
68.049400 136669.400000
69.069900 20487.700000
70.065100 2318855.200000
71.085500 93254.500000
72.080700 14475.800000
74.060100 28510.100000
84.080900 10840.600000
85.101000 8266.800000
86.060100 16166.400000
88.075700 560545.900000
102.091400 93253.600000
106.086200 47204.800000

