>compound LU43355651
>parentmass 302.3054
>ionization [M+H]+
>formula C18H39NO2
>rt 1086.600000
>profile orbitrap
#smiles_iso CCCCCCCCCCCCCCN(CCO)CCO
#smiles_can CCCCCCCCCCCCCCN(CCO)CCO
#inchikey CPHJEACXPATRSU-UHFFFAOYSA-N
#pubchem_id 12942137
#mb_accession LU100201,LU100202,LU100203,LU100204,LU100205,LU100206

>ms2
302.305100 31941442.000000

>ms2
57.069600 111460.100000
70.065000 126115.500000
71.085400 88387.100000
85.101100 47629.300000
88.075600 527104.200000
102.091300 131510.300000
106.086200 813156.000000
258.279000 85640.600000
284.294600 961214.100000
302.305100 31544706.000000

>ms2
53.002200 74738.000000
53.997500 11987.700000
55.054200 42798.600000
56.049400 11714.400000
57.069900 2160328.200000
58.065100 128131.600000
60.044300 25929.300000
62.060000 174650.200000
68.049400 38234.100000
69.069800 39296.200000
70.065000 3056900.800000
71.085400 1235757.100000
72.080700 27513.600000
74.060000 13206.200000
83.085500 17936.600000
85.101100 546544.100000
86.060000 68343.900000
88.075700 6058234.500000
102.091300 1715404.900000
104.070600 27482.400000
106.086200 3681860.500000
240.268400 132225.700000
256.263800 12650.000000
258.279100 387020.600000
284.294700 2615581.000000
302.305300 9620948.000000

>ms2
53.002200 234130.700000
53.997500 35244.600000
54.010100 5511.600000
55.041700 9356.100000
55.054200 99687.800000
56.049500 26642.300000
57.069900 2856286.500000
58.065100 229912.500000
60.044400 47265.100000
62.060000 151688.300000
67.989300 12835.400000
68.049400 79041.700000
68.997100 8185.300000
69.069800 55361.300000
70.065000 4503611.000000
71.085400 918663.200000
72.080700 30314.900000
74.059900 37823.600000
83.085500 13904.100000
84.080800 14836.100000
85.101100 270745.000000
86.060000 72785.300000
88.075700 4071596.800000
91.054000 6924.300000
102.091300 1002578.300000
104.070700 14809.200000
106.086200 1224259.500000
240.268600 45352.400000
256.262800 7373.100000
258.279100 61613.900000
284.294600 203421.100000
302.305200 284272.500000

>ms2
53.002300 379093.200000
53.997500 51955.000000
54.010100 13445.300000
55.017900 12575.900000
55.041700 14389.400000
55.054300 144067.600000
56.049500 42490.500000
57.069900 2700378.000000
58.065100 252594.900000
60.044400 61081.900000
62.060100 88533.100000
67.989200 23529.200000
68.049400 160003.300000
68.997100 16201.800000
69.069800 52594.200000
70.065100 4393450.500000
71.085500 385538.000000
72.080700 23264.200000
74.060100 46731.800000
84.080900 11805.200000
85.101100 57334.000000
86.060100 41738.300000
88.075700 1927314.500000
102.091400 385068.300000
104.070600 5902.900000
106.086300 327058.900000

>ms2
53.002300 399949.000000
53.997500 71978.800000
54.010000 7236.100000
55.018000 9548.100000
55.041800 30253.100000
55.054300 134831.400000
56.049500 55705.900000
57.069900 1630550.100000
58.065200 198807.200000
60.044400 32073.700000
62.060000 32198.400000
67.989200 25566.300000
68.049500 149774.100000
68.997100 12813.900000
69.069900 29729.700000
70.065100 2713685.200000
71.085500 93619.700000
72.080800 16322.100000
74.060000 37067.800000
84.080800 10360.900000
86.060100 20525.900000
88.075700 637560.100000
91.054400 7615.700000
102.091400 113012.600000
106.086300 66555.600000

