>compound LU43273543
>parentmass 233.1285
>ionization [M+H]+
>formula C13H16N2O2
>rt 813.600000
>profile orbitrap
#smiles_iso CCC1(CCC(=O)NC1=O)C2=CC=C(C=C2)N
#smiles_can CCC1(CCC(=O)NC1=O)C2=CC=C(C=C2)N
#inchikey ROBVIMPUHSLWNV-UHFFFAOYSA-N
#pubchem_id 2145
#mb_accession LU117301,LU117302,LU117303,LU117304,LU117305,LU117306

>ms2
86.060000 19405.900000
148.075700 4622.400000
159.068000 7925.100000
162.091400 7124.100000
174.091400 3239611.000000
187.008000 3439.000000
188.107400 8951.900000
191.117900 34944.400000
198.091400 8121.400000
204.102300 9950.300000
205.001100 18587.100000
215.118000 6154.000000
216.101900 414341.800000
233.128500 347726.200000

>ms2
72.044400 13558.200000
86.060100 24771.200000
130.065400 4183.300000
143.073000 5973.800000
148.075600 4346.700000
159.068000 29873.900000
162.091600 9306.500000
174.091400 3691462.200000
188.107300 12897.200000
191.118000 10985.500000
198.091300 28249.500000
204.101800 10539.100000
205.001100 13860.600000
215.117800 4558.800000
216.102000 377606.100000
233.128400 42578.600000

>ms2
72.044300 20334.100000
86.060000 21893.100000
91.054300 4366.500000
115.054200 9240.000000
117.057400 3269.100000
117.069800 14076.600000
118.065400 5118.100000
129.069800 5930.500000
130.065400 5253.100000
131.073000 24612.000000
133.052500 4081.200000
142.065200 21656.700000
143.073000 103336.500000
144.080900 39510.700000
145.064700 4765.400000
146.059900 3259.500000
146.096400 9024.700000
147.080400 19121.400000
148.075800 6549.400000
155.073400 3570.600000
159.067900 428945.300000
160.076000 5311.500000
162.091500 12937.700000
170.096600 5741.400000
173.083800 13009.500000
174.091400 3214268.800000
183.068200 5289.500000
186.055100 3325.500000
188.107200 19209.200000
198.091400 46134.100000
201.078500 6409.000000
204.102000 5532.600000
216.102000 138948.000000

>ms2
72.044400 22181.600000
86.060000 14886.400000
91.054300 18069.100000
107.049300 3079.800000
108.057000 3726.700000
115.054300 45652.600000
117.057300 5721.300000
117.069900 47407.800000
118.065100 17742.800000
119.085700 4075.500000
128.062100 2741.700000
129.069900 8038.600000
130.065100 41162.000000
131.073000 250331.900000
132.057000 11235.600000
133.052200 6547.700000
134.059900 5565.900000
142.065300 55142.600000
143.073000 373530.600000
144.080800 89310.900000
145.064900 8472.500000
145.088700 2694.400000
146.060000 10698.700000
146.096400 17809.000000
147.067800 13277.200000
147.080400 42700.900000
148.075800 4561.900000
154.065100 6141.500000
155.060400 6743.900000
155.072800 6408.500000
156.080800 3594.000000
158.060000 21983.600000
159.067900 1178033.200000
160.075700 18379.000000
162.091500 22769.600000
167.073300 3935.000000
170.072100 1995.600000
170.096300 7913.100000
172.075500 4086.200000
173.083700 30810.500000
174.091400 1574119.500000
183.067600 13264.800000
186.055000 7783.100000
188.107000 6900.500000
198.091300 24266.600000
201.078700 5499.100000
204.102500 2414.100000
216.101800 19673.300000

>ms2
72.044300 25629.500000
77.038700 1777.800000
78.046400 4937.700000
79.054400 2139.300000
80.049500 5350.900000
86.060000 9549.000000
91.054300 43260.700000
95.049200 3949.600000
103.054200 7128.100000
104.049500 3703.500000
104.062100 8145.900000
105.057400 5038.500000
106.065100 3401.800000
107.049200 7018.300000
108.057000 6838.600000
115.054200 111222.200000
116.049500 8341.000000
116.062000 8855.900000
117.057300 20223.900000
117.069900 59573.700000
118.065000 18456.700000
119.085700 4707.800000
120.044500 2594.300000
121.052000 2324.900000
121.064700 5602.900000
128.049500 2597.100000
128.062200 10059.700000
129.069900 11303.000000
130.065200 269076.000000
131.073000 774970.600000
132.044500 8556.200000
132.056900 22717.400000
133.052200 10285.200000
134.059900 15863.200000
137.047300 7290.700000
140.049500 4087.900000
141.057500 3161.300000
142.065200 60283.400000
143.073000 573771.400000
144.044500 3992.200000
144.080800 79399.500000
145.065000 9608.800000
145.088700 4202.700000
146.059900 17645.100000
146.096100 10341.800000
147.067900 27537.400000
147.080400 31034.100000
148.075900 5075.200000
154.065100 7928.800000
155.060400 8830.000000
155.073000 14776.800000
158.060100 60796.100000
159.067900 1397413.500000
160.075800 22914.800000
162.091500 12701.000000
167.072900 4311.900000
168.081100 2643.100000
170.071600 2486.300000
170.096700 3003.600000
172.075500 5277.400000
173.083500 40812.900000
174.091400 508629.900000
183.068000 21964.400000
186.054700 10743.100000
198.091700 8902.500000

>ms2
72.044400 23066.800000
77.038500 2680.500000
78.046400 16903.300000
79.054100 2993.200000
80.049400 8307.900000
86.060000 4965.700000
91.054200 58978.100000
95.049200 8692.300000
103.054200 20474.500000
104.049400 12015.200000
104.062100 22912.500000
105.057400 11866.200000
106.065100 5730.200000
107.049300 7349.100000
108.056900 7114.200000
115.054300 164478.900000
116.049500 20361.200000
116.062100 24330.500000
117.057400 38812.200000
117.069900 36369.500000
118.065200 12120.700000
120.044400 8672.400000
121.052100 4912.800000
121.064800 2495.000000
128.049500 6286.100000
128.062100 10788.200000
129.070300 5647.600000
130.065200 802531.600000
131.073000 969964.900000
132.044500 21309.800000
132.056900 28196.700000
133.052200 18149.600000
134.060100 20523.500000
137.047300 17885.200000
140.049300 9652.300000
141.057300 8800.300000
142.065300 50062.800000
143.073000 473428.700000
144.044400 6182.300000
144.080800 37543.400000
145.065000 9509.700000
145.088400 3315.400000
146.060000 16854.200000
147.068000 20348.800000
147.080200 12355.900000
154.065200 13959.000000
155.060600 11115.900000
155.072800 13397.700000
156.081100 2482.200000
158.060200 92254.200000
159.067900 711978.200000
160.075800 14744.300000
162.091000 2455.100000
167.072900 3525.900000
168.080600 3464.600000
172.075700 5419.800000
173.083600 21651.800000
174.091400 84385.200000
183.068000 12439.300000
186.055100 5475.000000

