>compound LU43860399
>parentmass 458.1477
>ionization [M+H]+
>formula C23H24ClN3O5
>rt 1043.680000
>profile orbitrap
#smiles_iso C1[C@H]([C@H](CN1C(=O)[C@@H]([C@H](CC2=CC=CC=C2)NC(=O)C3=CC4=C(N3)C=CC(=C4)Cl)O)O)O
#smiles_can C1C(C(CN1C(=O)C(C(CC2=CC=CC=C2)NC(=O)C3=CC4=C(N3)C=CC(=C4)Cl)O)O)O
#inchikey GVDRRZOORHCTAN-MJUUVYJYSA-N
#pubchem_id 6451325
#mb_accession LU031001,LU031002,LU031003,LU031004,LU031005,LU031006

>ms2
58.065300 3227.100000
68.049400 4494.400000
74.096300 2645.800000
86.059900 9681.900000
91.054500 3953.900000
104.070500 2234884.800000
120.080800 29613.900000
132.080600 37897.900000
133.064200 2670.300000
161.059800 21986.400000
162.076000 3329.000000
178.006700 86640.100000
236.010400 2697.600000
246.112400 11126.900000
263.138900 2810.900000
281.149400 89257.100000
307.128800 39307.700000
309.078800 8447.900000
327.089400 1516940.500000
341.024000 35909.700000
355.084300 1579860.900000
440.137300 821129.300000

>ms2
58.065100 12365.000000
68.049400 26459.900000
69.033300 4553.300000
86.023700 3907.400000
86.060100 47774.000000
91.054200 125424.400000
104.070600 1282929.900000
105.069800 6161.900000
115.054100 26699.100000
120.080800 415475.000000
123.000100 7712.600000
130.049900 107500.000000
132.080800 1445805.100000
133.064700 48698.800000
143.049100 39978.700000
144.065600 19812.700000
146.060200 5848.000000
148.060400 31012.800000
150.091300 234981.200000
152.026100 79024.300000
158.060000 23065.900000
159.076400 8287.300000
160.075800 43511.900000
161.059600 32048.800000
162.076000 126447.700000
164.026000 3809.100000
178.005400 2395321.800000
192.045300 3100.000000
194.117600 6023.000000
195.032100 33980.700000
206.117100 3982.700000
209.047700 5336.400000
218.117100 4362.200000
236.011100 25910.000000
242.073400 10333.100000
246.112500 67941.400000
263.139000 34440.500000
264.123000 69466.500000
266.073300 25080.600000
281.149600 293182.500000
309.079000 157584.700000
327.089500 1559854.900000
339.073400 4139.000000
355.084300 33670.200000
387.963100 4177.400000
440.137300 415718.600000

>ms2
58.065100 44374.700000
68.049400 62193.400000
69.033400 15556.400000
86.023600 35789.700000
86.060000 131735.400000
91.054200 230370.400000
93.070000 6528.200000
102.055000 9384.300000
103.054300 14762.400000
104.070600 837713.900000
105.069900 40183.500000
115.054200 152065.200000
117.057200 38066.700000
117.069900 11242.100000
120.080800 880568.900000
122.999300 30062.200000
130.049900 117353.800000
130.065000 23818.700000
132.080800 911671.600000
133.064700 71834.000000
143.049200 62450.300000
144.065500 90403.000000
146.060100 7564.700000
148.060300 32405.300000
150.091400 291523.200000
152.026000 64447.700000
158.059900 21480.400000
159.076400 8452.800000
160.060600 7935.800000
160.075600 66698.100000
162.076100 293429.000000
164.026100 5283.300000
164.997700 7041.900000
168.021200 10815.000000
178.005400 5227252.500000
192.044500 5778.800000
195.032200 6180.700000
218.117400 19969.800000
246.112300 31807.100000
261.031300 6246.500000
262.038900 23982.500000
263.139100 10253.300000
264.123000 25304.100000
305.047500 8348.100000
309.078900 11909.400000
327.089400 20619.200000
440.137600 6166.500000

>ms2
55.017900 7994.600000
58.028800 7933.300000
58.065100 82537.600000
65.038600 5444.600000
68.049400 110732.100000
69.033500 23251.100000
70.065100 5019.300000
79.054300 5587.100000
80.049400 5817.200000
81.033500 9371.900000
84.044400 6004.200000
86.023600 43628.600000
86.060000 210668.700000
90.033900 51376.200000
91.054200 298810.400000
93.069900 20042.200000
98.059900 6526.800000
98.999600 53383.300000
102.033800 5918.200000
102.055000 5096.400000
103.054200 70414.800000
104.070600 491554.000000
105.069900 66316.400000
108.044500 9875.600000
110.999600 7028.400000
115.054300 241299.600000
116.070500 6881.800000
117.057300 114184.900000
117.069800 22972.500000
119.036600 12710.400000
120.080800 921717.500000
122.999600 211652.600000
126.010600 36772.600000
129.010100 9888.200000
130.040100 7977.700000
130.049900 32633.400000
130.065200 31961.500000
131.072700 5788.900000
132.080800 390721.400000
133.052300 55483.500000
133.064800 98332.500000
139.005700 15829.600000
143.049200 27919.400000
144.065500 127004.200000
145.064900 13719.600000
146.060200 9993.900000
148.060400 8478.100000
150.010500 90952.700000
150.091400 113508.400000
151.018600 13928.700000
152.026100 34233.900000
158.059900 8095.000000
160.075700 34106.900000
162.076200 148233.100000
164.997600 82225.300000
166.005500 24784.700000
168.021100 144805.100000
178.005400 4972730.000000
183.008200 75817.700000
197.023900 12428.700000
246.111900 6226.700000

>ms2
53.038700 3242.000000
54.033800 3071.300000
55.017900 10082.300000
56.049500 4795.900000
57.033500 15610.200000
58.028700 8172.800000
58.065100 109219.100000
60.044300 5193.400000
63.022800 3347.100000
65.038600 18072.400000
68.049400 153984.900000
69.033400 18567.600000
70.028700 5576.000000
70.065100 14889.200000
72.044300 10127.000000
79.054300 15305.800000
80.049500 14227.500000
81.033600 24554.100000
84.044400 6640.600000
86.023600 25623.100000
86.060000 226947.000000
86.999600 5367.900000
90.033900 144245.300000
91.054300 373868.200000
93.069900 55053.900000
94.064900 3059.400000
95.049200 18754.300000
98.060100 9826.100000
98.999600 147988.400000
102.033900 9068.800000
102.055100 4435.600000
103.054300 223405.200000
104.070600 305764.200000
105.069900 86899.600000
108.044400 24771.600000
110.999700 17432.200000
114.033700 4483.100000
115.054300 275827.800000
116.070700 11133.300000
117.057300 168492.800000
117.069900 32285.000000
118.065000 3720.000000
119.036600 33663.700000
119.073000 3453.100000
120.080800 776110.200000
122.999600 1335680.400000
123.995100 7070.400000
126.010600 101570.400000
126.055100 7695.700000
126.994500 7295.800000
129.010100 25427.600000
130.040100 28064.800000
130.049700 6507.100000
130.065200 32960.900000
131.073100 13559.200000
132.044500 24384.800000
132.080800 163970.200000
133.052200 146711.500000
133.064700 68385.300000
137.002500 5162.100000
139.005700 44356.800000
140.026100 6355.200000
143.049200 9246.800000
144.065600 85740.800000
145.005200 9224.900000
146.060100 4375.300000
148.060500 3896.500000
150.010600 279760.600000
150.091400 23997.200000
151.018400 29123.000000
152.026100 18134.600000
154.005200 5398.300000
155.060700 4119.700000
160.075700 7014.800000
162.054900 5694.500000
162.076200 37038.200000
164.001100 6806.300000
164.026400 3040.800000
164.997600 202958.300000
166.005400 62381.800000
167.013200 5146.200000
168.021100 402245.300000
178.005400 2836994.500000
179.984900 4516.200000
182.036500 9126.500000
183.008300 168252.600000
197.024000 32766.000000
218.117400 6080.800000

>ms2
53.038700 11515.700000
55.017900 11523.900000
56.049500 9413.500000
57.033500 12029.700000
58.065100 121154.700000
60.044500 7391.500000
65.038600 31695.300000
68.049400 171548.200000
69.033400 12548.300000
70.065000 16571.600000
72.044500 6413.300000
72.984000 9989.400000
79.054300 22363.600000
80.049400 17716.300000
81.033500 23871.700000
84.044400 4078.500000
86.060100 154551.800000
86.999600 8467.700000
90.033900 142676.700000
91.054200 420390.700000
93.069900 67846.000000
95.049200 46721.300000
98.060200 9041.600000
98.999600 141566.400000
102.034000 9661.900000
103.054200 387606.300000
104.070600 129605.800000
105.044800 14961.600000
105.069900 76068.300000
108.044300 23707.000000
110.999700 13340.900000
114.034000 17620.700000
115.054300 255668.800000
116.070700 7277.800000
117.057300 173808.800000
117.069900 31280.900000
118.065200 9682.900000
119.036600 34194.200000
119.073300 4105.000000
120.080800 480711.000000
122.999600 3341321.200000
123.995000 10016.800000
126.010600 94372.100000
126.055000 7332.400000
126.994600 9568.900000
129.010300 17368.300000
130.040000 31457.400000
130.065000 32195.300000
131.073200 11695.000000
132.044400 21060.700000
132.080800 55192.200000
133.052200 95967.500000
133.064600 28424.300000
137.002800 8303.600000
139.005700 36428.000000
140.026200 4563.200000
144.065600 29534.800000
145.005300 4317.600000
145.064800 4592.600000
150.010600 309797.700000
151.018400 24265.900000
152.026500 4153.400000
155.000700 3815.500000
155.060200 6458.200000
162.055200 9505.000000
162.075900 6712.100000
164.001200 6262.800000
164.025900 3400.500000
164.997600 201791.300000
166.005400 63065.400000
168.021100 312097.100000
178.005400 952184.700000
179.984900 4634.000000
182.037000 8639.100000
183.008200 165792.500000
197.024100 32748.900000
218.117300 3442.900000

