>compound LU43203590
>parentmass 696.2581
>ionization [M+H]+
>formula C36H40ClF2N5O3S
>rt 788.820000
>profile orbitrap
#smiles_iso CC1=NC2=CC=CC=C2N1C3CC4CCC(C3)N4CCC5(CCN(CC5)C(=O)C6=CC(=C(C=C6Cl)F)S(=O)(=O)NC)C7=CC(=CC=C7)F
#smiles_can CC1=NC2=CC=CC=C2N1C3CC4CCC(C3)N4CCC5(CCN(CC5)C(=O)C6=CC(=C(C=C6Cl)F)S(=O)(=O)NC)C7=CC(=CC=C7)F
#inchikey AWXQYTLSBPWDMJ-UHFFFAOYSA-N
#pubchem_id 53257735
#mb_accession LU065801,LU065802,LU065803,LU065804,LU065805,LU065806

>ms2
564.189500 2452366.500000

>ms2
58.065100 19849.600000
70.065000 74157.100000
93.069900 74325.800000
95.085500 26261.900000
96.080700 19806.500000
110.096400 38021.000000
124.112000 19871.400000
133.075900 55418.100000
138.127600 1037443.100000
149.076100 19888.500000
150.127600 149968.200000
161.076000 91554.600000
187.091700 24912.600000
249.973400 886471.400000
279.000000 54367.500000
427.068900 506381.700000
536.158200 120934.500000
564.189500 6482575.000000

>ms2
53.038600 14720.800000
55.054200 12747.300000
56.049500 56696.300000
58.065100 128425.000000
65.038500 8776.200000
67.054200 133665.100000
68.049400 49178.400000
69.057200 10525.200000
69.069800 42500.400000
70.065100 721809.700000
79.054200 18613.400000
81.069900 18081.200000
82.065100 124490.600000
83.072900 50714.300000
84.080800 24704.400000
91.054200 153795.800000
93.069900 270789.200000
93.995900 12762.100000
94.065100 30793.000000
95.049100 37114.900000
95.085500 214261.400000
96.080700 228545.800000
97.088600 22817.300000
105.044700 13574.600000
105.069900 13329.600000
108.080700 65490.900000
109.044800 86365.700000
109.088600 72132.800000
110.096400 325978.400000
111.104200 66154.600000
122.096400 97447.000000
124.112100 107700.700000
127.982600 7776.600000
133.076000 105618.900000
135.060200 17689.400000
136.112100 25097.800000
137.119800 44350.000000
138.127700 1118093.800000
141.069800 7048.400000
147.060400 21357.300000
149.076100 157000.200000
150.127700 329479.600000
155.978000 41039.100000
159.060400 22451.300000
159.091800 9798.800000
161.076000 786909.900000
186.011600 51076.600000
187.091700 86484.000000
206.133900 29417.300000
220.947000 104779.100000
229.967400 129262.300000
249.973400 6997170.500000
279.000000 399345.200000
427.069100 428072.000000
536.158000 67051.000000
564.189700 207457.200000

>ms2
53.002200 7994.000000
53.038600 36182.100000
54.033900 15180.600000
55.041700 12268.800000
55.054200 37726.000000
56.049500 62975.600000
58.065100 83141.500000
65.038600 39533.700000
67.054200 351162.800000
68.049400 112245.900000
69.057300 33116.100000
69.069800 39612.900000
70.065100 653198.900000
77.038500 11215.200000
79.054200 32799.000000
80.049500 50487.000000
81.057200 26478.300000
81.069900 36092.300000
82.065100 242478.900000
82.077900 18197.500000
83.072900 116024.100000
84.080700 32576.900000
84.984000 9912.600000
91.054200 231485.900000
92.049500 20988.800000
93.069900 172395.400000
93.995700 22913.200000
94.065100 76073.600000
95.049200 95085.300000
95.073000 26855.400000
95.085500 174256.700000
96.080800 255329.800000
97.088600 23652.500000
98.096400 16012.200000
102.033700 10351.400000
105.044800 31186.900000
108.080800 105848.800000
109.044900 145807.600000
109.088700 92234.900000
110.096500 203068.100000
111.104200 30486.800000
116.990300 20225.600000
120.044500 14811.800000
122.096400 103938.900000
124.112100 76344.600000
125.986700 48042.600000
127.982300 6655.900000
128.990500 7584.100000
130.040100 17118.000000
133.044800 26809.800000
133.076100 111347.600000
136.112100 33075.400000
137.120000 10341.400000
137.986700 106888.900000
138.010500 114081.600000
138.127800 236005.400000
138.994500 71491.800000
139.005600 8897.100000
140.973800 7448.500000
141.069800 12672.800000
143.005900 6383.100000
144.985000 12427.700000
145.075900 11052.900000
146.052600 201990.600000
147.060400 34573.600000
149.076100 77753.700000
150.127700 75102.200000
153.981500 7746.800000
154.005500 7368.800000
155.977900 39722.700000
156.996300 156065.200000
158.016700 7157.400000
159.060400 32352.800000
159.091800 17997.800000
161.076100 306414.100000
166.005500 127610.800000
169.976500 358900.200000
171.008100 10280.900000
172.980100 486602.700000
176.086900 25383.100000
182.000000 10158.000000
183.996000 12463.000000
186.011800 68250.500000
190.102500 10960.900000
190.936700 6740.600000
202.956500 97519.000000
206.134300 24878.900000
220.947000 902502.800000
229.967400 816592.800000
247.957700 12317.000000
249.973500 6163454.500000
427.068700 9276.900000

>ms2
50.015200 3245.500000
53.002100 20250.200000
53.038600 44089.800000
54.033800 19338.800000
54.046400 4169.800000
55.017900 6830.400000
55.041600 22296.200000
55.054200 45972.500000
56.049500 61890.500000
57.013600 5177.400000
58.028800 5931.500000
58.065100 39368.200000
62.005900 39305.500000
62.963200 3572.200000
63.023000 14240.300000
65.038500 70383.400000
67.041700 19692.900000
67.054200 360462.300000
68.049500 116419.800000
68.997200 5832.700000
69.057300 29455.300000
69.069900 22538.500000
70.065100 439208.700000
71.072900 4008.800000
72.983900 21749.600000
73.008300 4661.600000
74.015200 4254.700000
78.033800 9893.400000
79.017800 47123.900000
79.054300 38998.500000
80.049400 94273.800000
81.033600 9673.200000
81.057300 24945.000000
81.069900 21742.800000
82.065100 224999.300000
83.029100 18795.500000
83.072900 87045.800000
84.080700 18630.200000
84.983900 67573.500000
85.991700 7124.900000
86.963300 5556.300000
86.999600 7709.500000
90.974600 12922.100000
91.054300 192443.800000
92.049500 51320.100000
93.057300 8922.800000
93.069900 80359.700000
93.995700 20737.100000
94.065200 80211.800000
95.049200 99702.500000
95.073100 18925.900000
95.085500 103492.400000
96.044300 14417.100000
96.080800 178129.200000
96.984000 11896.800000
97.008400 16736.400000
97.028500 11627.300000
97.088600 10629.000000
98.096600 7037.300000
98.999700 18591.700000
102.033800 46055.800000
103.982500 6197.000000
104.049500 9082.500000
104.990300 15617.100000
105.044700 35244.400000
105.069900 4519.500000
106.065200 3411.400000
106.969400 5213.200000
107.012700 23891.100000
107.990300 12301.600000
108.080800 116178.400000
108.983900 28286.900000
109.044800 158989.200000
109.088600 45121.400000
109.991700 45591.500000
110.096400 90934.500000
110.999600 12477.200000
111.024100 66067.400000
111.104300 6979.900000
112.031800 47137.700000
112.978800 11068.600000
115.054200 9664.400000
116.990200 183004.800000
119.005800 19002.700000
120.044400 51577.500000
120.080800 10512.900000
122.096400 72056.300000
123.035500 7063.600000
123.047800 18352.700000
123.060200 6397.400000
124.112200 27053.500000
125.986700 382205.300000
126.994500 9525.700000
127.018700 10083.300000
127.982300 48717.900000
129.010200 24927.400000
130.005300 22826.200000
130.028800 12025.100000
130.040000 53929.300000
131.006000 8304.400000
131.036800 3665.100000
131.977400 9780.700000
132.068200 6358.400000
133.076000 111038.200000
134.946800 7147.400000
136.112000 31628.600000
137.986700 210417.500000
138.010500 274593.900000
138.127700 62934.300000
138.994600 132592.300000
139.005500 45414.900000
139.018400 20061.900000
140.973800 25135.200000
141.070000 12457.600000
142.989300 9794.400000
143.005800 8206.700000
143.050300 4430.600000
143.966900 32636.500000
143.977000 5695.200000
144.985100 100711.200000
145.076300 10890.100000
146.016700 13507.500000
146.052600 256738.100000
146.966300 3921.300000
147.000700 61796.800000
148.055900 4037.800000
150.981900 41736.300000
151.042700 7177.100000
152.984900 7328.500000
153.029500 4924.100000
153.981600 11742.200000
154.005400 17569.100000
154.969500 8879.900000
154.989400 15621.700000
155.977200 48278.200000
156.985200 534299.900000
156.996300 615949.300000
158.016900 16791.900000
158.964300 14334.000000
158.984600 3943.100000
159.000700 10334.500000
159.091800 15654.800000
160.068500 6143.900000
161.076100 74085.800000
166.005500 175509.100000
168.950900 9874.600000
169.976500 1012862.700000
171.008100 54612.300000
171.972200 39150.000000
172.980000 1303607.800000
173.977300 4755.000000
174.011600 28989.400000
176.086900 16424.400000
183.961600 14461.400000
183.996000 10749.900000
186.995300 6663.800000
187.967100 326035.700000
190.102500 4722.600000
202.956500 158046.700000
203.944200 16037.200000
206.133900 15296.800000
220.947000 885671.800000
229.967300 593711.800000
247.957500 4270.400000
249.973500 1641543.200000

>ms2
50.015200 5782.600000
51.023000 5363.500000
53.002200 38958.400000
53.038600 55043.000000
54.033800 29391.000000
54.046400 8164.900000
55.017800 10246.100000
55.041600 30952.400000
55.054200 60944.700000
56.049500 60842.900000
57.013500 14233.600000
58.028700 14195.500000
58.065100 22040.200000
62.005900 57776.500000
62.963200 6917.500000
63.022900 70188.000000
65.038500 119398.500000
67.041600 32278.800000
67.054200 371665.500000
68.049400 139969.800000
68.997000 18792.100000
69.057200 25999.600000
69.069800 13255.900000
70.065100 319993.400000
72.983900 51827.200000
73.008400 5183.500000
74.015000 27759.500000
77.038500 20618.100000
78.033700 17072.300000
79.017800 139733.200000
79.054200 36856.300000
80.049400 131539.600000
81.033500 34099.700000
81.057300 34309.900000
81.069900 19027.600000
82.065100 202947.700000
82.077700 18069.800000
83.029100 69371.600000
83.072900 53565.600000
84.080800 12194.600000
84.983900 77073.500000
85.991800 8460.800000
86.963100 27151.600000
86.999500 27054.600000
90.974500 49914.900000
91.054200 181101.100000
92.049400 97765.600000
93.057400 13815.200000
93.069900 39710.500000
93.995800 20804.900000
94.065100 93180.400000
95.049100 124044.300000
95.073000 11163.800000
95.085500 58437.400000
96.044300 26203.300000
96.080800 127802.800000
96.984000 52018.900000
97.008400 29077.200000
97.028400 36470.300000
98.096500 4412.200000
98.999600 65353.600000
102.033800 86111.000000
103.982300 13061.800000
104.049400 54358.200000
104.990100 35451.900000
105.044800 54118.300000
106.065000 6923.500000
106.969500 12365.400000
107.012800 104193.500000
107.990200 17982.700000
108.080700 102384.400000
108.983900 142982.300000
109.044800 161233.600000
109.088500 18710.600000
109.991700 173088.500000
110.096400 43146.800000
110.999700 35164.500000
111.024100 101309.500000
112.031900 49621.800000
112.978900 12011.900000
115.054100 17022.700000
116.990200 560023.100000
119.005900 28387.900000
120.044300 53699.800000
120.080900 10948.800000
122.096400 39291.300000
123.035400 22047.000000
123.047800 36359.100000
123.060400 6361.900000
124.112000 9343.100000
125.986700 592055.900000
126.994600 10836.200000
127.018700 15325.000000
127.982300 298368.800000
128.990100 125845.900000
129.010100 24462.800000
130.005500 41312.300000
130.039900 78639.000000
131.006100 12010.900000
131.036900 4126.900000
131.977300 17649.300000
132.068100 3783.100000
133.044800 41216.900000
133.076000 86314.300000
134.946700 13677.600000
135.060300 15160.800000
136.112200 22053.300000
137.986600 191159.500000
138.010500 184301.000000
138.127900 19072.300000
138.994500 93953.400000
139.005600 56811.600000
139.018400 34912.300000
140.973800 27646.700000
142.989400 14043.900000
143.005800 6325.400000
143.050300 8906.100000
143.967000 29416.300000
143.977100 21805.500000
144.985100 253535.600000
146.016800 18553.000000
146.052600 222463.200000
146.966400 13461.900000
147.000700 101751.700000
148.056000 4562.400000
149.076100 11699.600000
150.127700 4497.600000
150.981900 86717.300000
151.042500 8264.600000
152.984800 35232.500000
153.029400 25401.600000
154.969600 23405.700000
154.989500 14517.100000
155.977100 89326.300000
156.985200 396552.500000
156.996300 834283.900000
158.016700 14737.900000
158.964500 35218.300000
158.984500 6574.300000
159.000800 9507.900000
159.091800 8520.200000
161.076000 16423.600000
166.005400 87715.700000
168.951200 8144.100000
169.976500 1044691.400000
171.008100 73623.700000
171.972200 34335.800000
172.980000 1257949.900000
173.977300 5127.900000
174.011600 23183.700000
182.000200 13405.400000
186.011800 18876.000000
186.995500 14820.400000
187.967100 754809.000000
190.936400 56535.100000
202.956400 66150.000000
203.944400 9725.000000
206.134400 7021.300000
220.947000 291435.800000
229.967200 144114.300000
249.973500 192360.600000

