>compound LU43890558
>parentmass 183.0652
>ionization [M+H]+
>formula C9H10O4
>rt 738.060000
>profile orbitrap
#smiles_iso COC1=C(C(=CC=C1)OC)C(=O)O
#smiles_can COC1=C(C(=CC=C1)OC)C(=O)O
#inchikey MBIZFBDREVRUHY-UHFFFAOYSA-N
#pubchem_id 15109
#mb_accession LU059901,LU059902,LU059903,LU059904,LU059905,LU059906

>ms2peaks
165.054700 163233.000000
183.065400 5054.100000

>ms2peaks
123.080300 1842.600000
165.054700 168320.600000
183.065000 3970.700000

>ms2peaks
122.036200 2366.300000
123.080300 2350.000000
150.031000 7303.800000
165.054700 144482.100000
168.041500 10448.100000

>ms2peaks
79.054300 2971.200000
95.049300 2529.300000
107.012800 5162.500000
107.049300 2910.300000
109.064900 2973.400000
122.036200 17659.000000
125.059900 2244.600000
135.044100 3844.900000
150.031100 22921.000000
165.054700 84921.800000
168.041700 23027.200000

>ms2peaks
53.038700 1660.500000
77.038700 1648.000000
79.054300 5905.000000
92.026000 2087.300000
95.049300 4782.900000
107.012800 25715.400000
107.049300 2528.700000
109.064800 2392.900000
122.036300 41556.600000
125.023100 1854.500000
125.060000 2928.700000
135.044500 2703.500000
150.031400 20266.700000
165.054800 25361.200000
168.041900 24721.000000

>ms2peaks
53.038700 2092.400000
77.038600 1821.600000
92.025700 4776.500000
95.049200 6335.000000
107.012800 50723.400000
122.036300 36262.700000
125.023400 2955.200000
150.031200 8098.900000
165.054600 5783.400000
168.041600 11937.500000

