>compound LU43163700
>parentmass 199.0866
>ionization [M+H]+
>formula C12H10N2O
>rt 1003.260000
>profile orbitrap
#smiles_iso C1=CC=C(C=C1)NC2=CC=C(C=C2)N=O
#smiles_can C1=CC=C(C=C1)NC2=CC=C(C=C2)N=O
#inchikey OIJHFHYPXWSVPF-UHFFFAOYSA-N
#pubchem_id 9074
#mb_accession LU079801,LU079802,LU079803,LU079804,LU079805,LU079806

>ms2
100.075700 18318.300000
169.088500 41700.100000
181.075800 32290.200000
182.084000 68422.400000
199.086600 7550321.000000

>ms2
77.038800 6950.600000
100.075700 21582.500000
169.088600 112252.900000
181.076000 86409.100000
182.084000 207095.300000
199.086600 6916936.500000

>ms2
72.044300 6026.900000
77.038900 6649.800000
83.085600 7025.800000
100.075700 15650.600000
130.065200 19918.100000
144.044600 5832.800000
154.064900 15470.300000
155.072800 19838.500000
168.080900 87672.800000
169.088700 573348.400000
181.076100 1170582.200000
182.084000 1032189.300000
184.075500 23850.200000
198.078300 4538.400000
199.086700 3795072.500000

>ms2
55.054300 7249.400000
66.046400 12991.800000
72.044400 14528.300000
77.038700 5299.600000
78.046400 5921.000000
83.085500 10130.300000
100.075600 8616.900000
115.054200 4923.000000
128.049600 8374.000000
129.057400 6424.500000
130.065100 83117.600000
142.077600 6348.600000
144.044500 14767.600000
146.059900 4513.600000
154.065100 48298.600000
155.061400 11519.700000
155.072900 54558.300000
156.080800 6600.300000
165.057600 4777.400000
167.073400 12930.500000
168.080800 405597.800000
169.088600 668961.200000
181.076000 4210472.000000
182.083800 901733.200000
183.067900 6743.100000
184.075600 48802.400000
199.086600 1089439.600000

>ms2
55.054300 9687.400000
66.046400 45951.500000
72.044300 10910.300000
77.038600 5992.100000
78.046400 21400.100000
92.049500 6130.600000
95.049100 7974.600000
104.049500 6369.100000
105.044800 11555.100000
115.054300 8674.700000
128.049500 58968.400000
129.057300 12214.200000
129.070100 8779.000000
130.065200 113345.100000
141.069900 7213.500000
142.078000 14692.300000
143.073200 12345.700000
144.044400 17514.900000
146.060000 73015.800000
154.065100 111881.000000
155.060800 21341.400000
155.072900 37887.400000
156.080600 10788.000000
165.057200 8569.200000
167.073000 47176.800000
168.080800 529616.600000
169.088600 214497.100000
180.068000 7360.900000
181.076000 5013395.500000
182.083900 219383.400000
183.067900 6316.500000
184.075500 37311.400000
199.086700 131341.200000

>ms2
53.038500 15503.600000
55.054200 15520.800000
65.038600 15966.400000
66.046300 82581.100000
77.038300 12309.500000
78.046400 45935.200000
79.041700 8718.500000
92.049400 20159.800000
95.049200 46982.100000
97.007700 10717.900000
102.046500 6919.300000
103.041600 5268.500000
103.054100 21396.900000
104.049400 9141.200000
105.044800 31850.800000
115.054200 14878.200000
117.057400 6848.900000
127.054100 11605.000000
128.049500 454400.900000
129.057300 21515.900000
129.070000 15695.400000
130.065100 153843.100000
141.069800 28562.300000
142.077800 10193.400000
143.073000 13244.500000
144.044300 22648.900000
145.064700 20500.200000
146.060000 432788.800000
154.065100 432794.000000
155.060400 50593.600000
155.072300 23375.200000
156.068100 5932.700000
156.080700 12453.000000
160.075700 13925.800000
165.057100 11553.400000
167.073000 155559.100000
168.080800 446230.900000
169.088600 54180.500000
179.060300 12755.300000
180.068400 38947.200000
181.076000 5219902.000000
182.083800 41271.000000
183.068000 5773.600000
184.075200 15135.700000
199.086200 10901.500000

