>compound LU44579811
>parentmass 167.10670000000002
>ionization [M+H]+
>formula C10H14O2
>rt 1001.010000
>profile orbitrap
#smiles_iso CCCCCC1=CC=CC(=O)O1
#smiles_can CCCCCC1=CC=CC(=O)O1
#inchikey MAUFTTLGOUBZNA-UHFFFAOYSA-N
#pubchem_id 33960
#mb_accession LU079501,LU079502,LU079503,LU079504,LU079505,LU079506

>ms2peaks
55.017900 3751.100000
55.054200 7115.400000
57.033400 2673.100000
65.038600 1495.400000
67.054200 26446.900000
69.033500 2126.200000
69.069900 4217.700000
79.054200 15324.800000
81.069800 18621.400000
83.049200 15683.400000
93.033500 4644.600000
93.070000 19765.200000
95.049100 2401.600000
95.085500 2420.000000
97.028400 34483.300000
97.064900 2805.400000
107.049100 10025.000000
107.085500 5463.900000
111.044100 7282.400000
121.101200 8109.800000
125.059600 2891.300000
125.095900 1921.800000
131.085700 6405.500000
139.112000 3882.600000
149.096200 2317.200000
167.106700 1035165.800000

>ms2peaks
55.054300 9151.200000
65.038500 2766.600000
67.054300 26948.600000
69.069800 9556.500000
79.054200 18944.500000
81.069900 22566.600000
83.049200 12910.700000
93.033600 2807.400000
93.069900 21316.100000
95.049100 2052.400000
95.085300 2493.900000
97.028500 43793.200000
97.064800 5753.300000
99.044100 1941.100000
107.049200 9190.700000
107.085800 4226.500000
110.036300 2482.800000
111.044100 6496.300000
121.064800 2552.200000
121.101300 11699.400000
131.085600 7116.200000
139.112000 2721.700000
149.096200 4675.000000
167.106800 1157462.500000

>ms2peaks
53.038600 2237.400000
55.017900 7865.600000
55.054200 23483.000000
57.033500 3898.700000
65.038600 10642.000000
67.054200 79909.200000
69.033500 10121.200000
69.069900 15350.700000
71.049100 2513.600000
79.054200 47834.900000
81.033400 3146.900000
81.069900 47896.300000
83.049100 45129.600000
91.054200 7560.900000
93.033500 13033.600000
93.069900 39143.700000
95.049200 7679.900000
95.085500 5479.700000
97.028500 102447.300000
97.064800 11011.300000
105.070100 4764.800000
107.049200 24520.000000
107.085500 7301.000000
110.036300 1964.200000
111.044100 13237.800000
121.064800 4103.000000
121.101200 11240.400000
131.085500 9142.500000
139.111700 1894.600000
149.096200 3136.600000
167.106700 338277.800000

>ms2peaks
53.038600 5036.300000
55.017900 16788.400000
55.054300 29095.700000
57.033600 3647.600000
65.038600 28999.100000
67.054200 81537.800000
69.033500 16515.600000
69.069900 9385.800000
73.028300 3064.300000
79.017900 3979.700000
79.054200 56682.000000
81.069900 31261.800000
83.049200 49271.200000
91.054200 7259.300000
93.033700 13662.900000
93.069900 23618.000000
95.049300 10032.200000
95.085700 4654.700000
97.028500 98028.300000
97.064900 8350.700000
105.070000 3402.500000
107.049100 12857.100000
107.085500 3399.000000
110.036400 3385.400000
111.044100 6249.300000
121.065100 1876.800000
121.101300 3727.900000
122.036500 2085.100000
131.085600 2813.300000
167.106800 53280.400000

>ms2peaks
51.023100 1820.100000
53.002200 6318.500000
53.038700 9214.700000
55.017900 39379.700000
55.054300 41260.600000
57.033500 6164.000000
65.038600 66043.500000
67.054200 99747.300000
69.033500 46364.900000
69.069800 7450.700000
71.049400 2227.000000
79.017900 10821.000000
79.054200 67390.700000
81.033500 3133.200000
81.069900 26877.800000
82.041300 3304.600000
83.049100 54607.900000
91.054200 13277.800000
93.033500 14609.700000
93.070000 18204.900000
95.049100 15314.300000
97.028500 104044.200000
105.069900 3683.400000
107.049200 16464.800000
109.028600 3835.500000
110.036300 7501.800000
121.065100 1671.400000
167.106600 8588.900000

>ms2peaks
53.002300 11060.800000
53.038600 15878.300000
55.017900 53487.200000
55.054300 51856.700000
57.033500 5351.500000
65.038600 84855.100000
67.054200 79962.400000
69.033500 67220.900000
69.069800 4860.000000
79.017900 21575.600000
79.054300 64771.100000
81.069900 17984.500000
82.041400 10581.000000
83.049200 33759.100000
91.054300 17292.200000
93.033500 7566.700000
93.070000 10019.300000
95.049200 27145.700000
97.028500 65343.800000
105.070000 2435.900000
107.049200 9815.700000
110.036400 9631.300000

