>compound LU44662754
>parentmass 391.16519999999997
>ionization [M+H]+
>formula C23H22N2O4
>rt 1123.200000
>profile orbitrap
#smiles_iso CC1=C(N=C(O1)C2=CC=CC=C2)CCOC3=CC=CC4=C3C=CN4CCC(=O)O
#smiles_can CC1=C(N=C(O1)C2=CC=CC=C2)CCOC3=CC=CC4=C3C=CN4CCC(=O)O
#inchikey OMSPUVWUIHNYCS-UHFFFAOYSA-N
#pubchem_id 10134976
#mb_accession LU026601,LU026602,LU026603,LU026604,LU026605,LU026606

>ms2peaks
164.071100 31492.300000
174.091400 22633.600000
186.091300 943982.500000
194.081200 90645.600000
206.081400 36200.300000
218.081000 36255.800000
270.112600 67395.200000
323.019000 17111.900000
391.165200 12929072.000000

>ms2peaks
83.049100 483762.700000
104.049400 1007129.900000
105.033500 145651.500000
122.059900 21475.400000
143.073100 12109.900000
144.080800 342148.100000
146.059900 58900.400000
149.047100 14678.600000
162.054600 16678.700000
163.063200 69489.300000
164.071500 19745.500000
174.091400 220513.400000
186.091300 10610125.000000
187.098900 65212.100000
188.070100 15451.200000
194.081100 12436.000000
205.073700 15405.000000
206.081200 251025.100000
210.091100 37128.500000
218.081100 589886.800000
228.101700 28973.800000
270.112400 204027.700000
299.058400 15337.900000
323.018900 11273.400000
391.165300 1318645.800000

>ms2peaks
53.038600 6585.500000
55.017800 4980.400000
55.054200 37100.000000
69.033400 10919.600000
77.038700 9851.000000
83.049100 901310.100000
91.054300 11000.400000
95.049100 15284.100000
104.049400 2568714.000000
105.033500 541522.300000
115.054500 4653.600000
117.069700 25302.400000
118.065300 6769.100000
119.036500 7222.700000
120.040200 4927.600000
120.044600 4265.700000
122.059900 18913.500000
128.062100 27087.400000
130.065200 19903.600000
131.085400 4103.100000
132.044500 10352.500000
133.052300 32138.900000
134.055500 23592.600000
134.060200 6694.200000
135.063200 6145.900000
136.075600 28461.400000
141.069900 5479.900000
143.073000 52294.300000
144.080800 859311.400000
145.064900 7786.100000
146.060000 244127.000000
148.076200 5031.800000
149.047100 38207.900000
158.059900 36019.100000
158.096200 32621.500000
162.054900 11954.400000
162.091800 7065.700000
163.063300 66781.800000
167.073200 4374.500000
168.080700 21752.300000
170.059800 4745.300000
172.075700 95637.200000
174.091300 38048.800000
176.070600 24563.000000
182.096500 9595.800000
184.075900 7180.200000
185.083600 9793.400000
186.091300 4039431.200000
187.099200 65058.200000
188.070400 12769.000000
190.086100 25476.700000
197.083200 13223.900000
200.070800 11636.700000
205.073500 36539.500000
206.081200 46868.700000
210.091100 53247.200000
214.086400 4408.300000
218.081100 463790.100000
228.101600 39994.600000
255.088400 4140.400000
270.112300 60455.600000
299.058400 4383.000000
331.143800 6955.100000

>ms2peaks
51.023000 5421.200000
53.038600 33364.400000
55.017900 11714.300000
55.054300 96186.400000
65.038700 5858.500000
69.033500 37533.200000
73.028400 9905.300000
74.096500 3638.900000
77.038300 14494.600000
81.033600 4677.900000
83.049100 540178.900000
84.057000 9817.300000
91.054200 24482.900000
92.057600 3519.200000
95.049200 78198.900000
103.054300 11623.200000
104.049500 2634065.800000
105.033500 922937.200000
106.065100 7655.700000
115.054200 22057.600000
116.062000 3019.900000
117.057400 8551.000000
117.069900 98281.000000
118.065000 30203.500000
119.036600 12072.400000
120.039900 7684.900000
120.044400 18540.700000
120.080800 6606.800000
121.047700 13084.400000
121.064900 5378.300000
122.060100 12948.500000
123.067800 5926.700000
128.049500 3912.500000
128.062100 53871.600000
129.069900 8682.800000
130.065200 119865.100000
131.085300 8159.000000
132.044400 19506.000000
133.052400 57661.600000
134.055500 28189.100000
134.060200 8657.100000
135.063200 3346.000000
136.075800 23363.200000
141.069900 10364.100000
143.073000 128444.500000
144.080800 756684.400000
145.065000 16376.000000
146.060100 326878.700000
148.039200 4115.000000
148.075800 15282.800000
149.047200 32428.000000
154.064900 7096.300000
155.060300 19503.500000
158.060100 65108.300000
158.096400 48405.300000
159.067900 9236.400000
160.075300 5394.500000
162.054900 11473.300000
162.091800 13445.900000
163.063300 22891.300000
167.072900 12528.100000
168.080700 22434.300000
170.060200 14138.400000
171.067600 3446.000000
172.075700 195528.400000
173.083300 6680.000000
176.070700 24314.800000
182.060000 3337.300000
182.096300 9099.400000
184.075600 10058.000000
185.083500 28388.100000
186.091400 899744.700000
187.099300 14143.800000
188.070800 7182.200000
190.086400 40881.600000
195.067400 3608.400000
196.076100 7925.400000
197.083300 13407.100000
200.070800 13337.200000
205.073600 23823.500000
206.081200 3285.900000
210.091600 30459.400000
214.086700 4099.900000
218.081200 143797.300000
228.102000 11710.200000
255.088900 11018.100000
270.112600 10864.600000

>ms2peaks
50.015100 4157.900000
51.023000 5113.800000
53.038600 85126.200000
55.017900 22848.900000
55.054300 112749.800000
65.038500 12632.100000
66.046400 3352.600000
69.033400 49940.900000
70.041300 3701.800000
73.028400 11368.100000
74.096300 5138.400000
77.038400 30932.300000
78.046500 5436.100000
79.054300 4889.300000
80.049400 3696.100000
81.033500 9761.300000
83.049100 270645.800000
84.056900 3428.200000
91.054200 56392.400000
94.041300 9134.200000
95.049100 254558.300000
96.052500 2881.100000
103.054300 38389.500000
104.049500 2564034.200000
105.033500 933508.300000
105.044500 105041.500000
106.065000 11466.800000
109.064800 5469.500000
115.054200 55206.500000
116.049400 4685.000000
116.062000 6498.000000
117.057300 31166.400000
117.069900 158069.300000
118.065100 62354.600000
119.036500 14994.300000
120.039900 5460.500000
120.044300 24823.600000
120.080900 14703.000000
121.047800 19097.000000
121.064800 7682.100000
122.060000 15154.000000
122.068000 5300.300000
123.068100 5658.700000
127.054200 6749.500000
128.049600 7504.200000
128.062000 61813.600000
129.069900 13861.500000
130.065100 217351.200000
131.049100 7618.200000
131.073000 7814.900000
131.085500 5598.000000
132.044300 19434.400000
133.052300 29309.600000
134.023700 8121.800000
134.060300 14692.400000
136.075800 22945.900000
141.069900 16421.800000
142.065200 7515.200000
143.073000 152749.700000
144.080800 427918.300000
145.052400 6704.400000
145.064700 34942.400000
146.060000 336013.600000
148.039400 3854.000000
148.075700 17629.600000
149.023200 2756.100000
149.047400 15368.000000
154.065200 13714.300000
155.060400 44291.100000
156.080800 5370.200000
157.052100 5509.600000
158.060100 40275.500000
158.096500 37199.600000
159.067800 12965.000000
160.076000 3276.200000
161.046800 3543.100000
162.055000 9819.800000
162.091500 7118.900000
167.072800 31646.300000
168.080800 29020.800000
170.059800 24919.800000
171.068000 5650.100000
172.075700 163986.500000
176.070700 10308.000000
182.060100 5134.100000
184.075500 17047.900000
185.083600 11179.800000
186.091300 216324.400000
190.086200 19223.600000
195.068200 5610.700000
196.075800 18130.900000
197.083900 6650.800000
200.070600 4288.500000
205.073500 3059.700000
210.091500 15127.900000
218.081300 19647.800000
255.088800 4475.800000

>ms2peaks
50.015200 4880.900000
51.023000 8138.300000
53.038600 193932.300000
55.017800 30103.300000
55.054200 98282.400000
65.038500 19544.300000
66.046400 4603.100000
69.033500 47980.700000
70.041300 2698.200000
73.028400 9871.900000
77.038500 66518.600000
78.046400 9285.500000
79.054100 9080.300000
80.049400 4796.800000
81.033400 24213.600000
83.049100 128098.700000
91.054200 143456.300000
92.057500 6250.100000
94.041400 23860.600000
95.049200 552979.300000
96.052400 3798.700000
103.054300 71449.800000
104.049500 2460582.500000
105.033500 793410.900000
105.044600 204726.400000
106.065100 10504.700000
109.064700 7781.500000
115.054300 135144.200000
116.049500 12626.100000
116.062000 24351.100000
117.057300 89496.200000
117.069900 164693.400000
118.065100 114484.100000
119.036500 10214.700000
120.040200 5088.900000
120.044300 29470.700000
120.080800 8543.800000
121.047800 16596.200000
121.064700 8431.600000
122.059900 12485.500000
122.067900 4052.200000
127.054200 16165.000000
128.049700 20408.500000
128.062000 78705.800000
129.069800 18501.500000
130.065200 229088.000000
131.049000 7264.000000
131.072900 9430.300000
131.085600 3850.800000
132.044500 24686.700000
133.052600 22536.200000
134.023300 6394.900000
134.060300 14227.800000
136.075800 23649.900000
141.069900 23029.400000
142.064900 22705.700000
143.073000 180708.600000
144.080800 184786.500000
145.052000 4989.300000
145.064900 36593.200000
146.060000 248486.300000
148.075500 8950.500000
149.047200 4249.400000
154.065100 26558.700000
155.060300 47974.600000
156.080800 9108.200000
157.052000 3777.300000
158.060100 27103.600000
158.096400 29771.400000
159.067900 8358.500000
160.075200 4041.800000
161.046600 3731.500000
162.054600 7602.100000
162.091700 3052.800000
167.073000 50480.800000
168.080900 22776.700000
170.059900 31778.400000
171.067700 4150.300000
172.075700 85874.700000
182.060100 4859.600000
184.075600 21025.300000
186.091400 68717.300000
195.067900 5635.200000
196.075400 12088.500000
210.091000 6946.400000

