>compound LU44859001
>parentmass 173.1648
>ionization [M+H]+
>formula C9H20N2O
>rt 943.920000
>profile orbitrap
#smiles_iso CCCCNC(=O)NCCCC
#smiles_can CCCCNC(=O)NCCCC
#inchikey AQSQFWLMFCKKMG-UHFFFAOYSA-N
#pubchem_id 74523
#mb_accession LU018801,LU018802,LU018803,LU018804,LU018805,LU018806

>ms2peaks
57.069900 816464.700000
74.096400 8186674.500000
117.102400 9804.100000
173.165000 5521903.500000

>ms2peaks
53.002200 7450.900000
57.069900 800932.100000
74.096400 7288617.000000
100.075600 13617.900000
117.102100 9378.100000
173.164800 4328098.500000

>ms2peaks
53.002200 29676.600000
55.054200 9962.800000
57.069900 2309007.800000
74.096400 5348451.000000
83.049300 11085.000000
100.075800 9615.000000
117.102300 22850.800000
173.164900 566598.100000

>ms2peaks
53.002200 58854.200000
53.997400 6919.600000
55.054200 23398.800000
57.069900 2685020.500000
59.049100 4958.400000
61.039700 5590.600000
72.080600 3634.300000
74.096400 1697488.200000
83.049200 18864.900000
117.102300 18376.600000
173.164700 28700.900000

>ms2peaks
53.002200 94854.400000
53.997500 15883.000000
55.054300 26891.500000
57.069900 2214848.500000
59.049200 4147.400000
61.039700 15159.800000
74.096400 474066.600000
83.049200 10504.200000
117.102300 5741.600000

>ms2peaks
53.002200 116686.000000
53.997400 14678.000000
55.054200 33609.700000
57.069900 1377552.600000
59.049100 5638.200000
61.039700 18387.000000
72.080800 3721.600000
74.096400 118316.200000
83.049000 4422.400000

