>compound LU44764542
>parentmass 374.2126
>ionization [M+H]+
>formula C22H28FNO3
>rt 818.120000
>profile orbitrap
#smiles_iso COC1=CC=CC(=C1OC)[C@@H](C2CCN(CC2)CCC3=CC=C(C=C3)F)O
#smiles_can COC1=CC=CC(=C1OC)C(C2CCN(CC2)CCC3=CC=C(C=C3)F)O
#inchikey HXTGXYRHXAGCFP-OAQYLSRUSA-N
#pubchem_id 5311271
#mb_accession LU089301,LU089302,LU089303,LU089304,LU089305,LU089306

>ms2
152.086900 101888.700000
356.202300 5577071.000000
374.212800 28632768.000000

>ms2
82.065000 33966.400000
85.088600 62590.200000
96.080800 24257.600000
98.096400 85295.800000
103.054200 54830.500000
123.060400 1654225.800000
136.051700 42687.100000
151.075400 134721.800000
152.086900 4575815.000000
166.102600 153287.500000
178.102600 244943.100000
189.091100 44150.600000
191.106500 55952.800000
204.118300 1599080.800000
205.122100 81356.900000
206.133700 23403.900000
217.122300 83087.700000
218.133900 113325.900000
232.133100 228763.400000
234.148600 30524.700000
246.148800 24447.200000
250.143600 21354.600000
324.175800 49746.400000
341.178500 162057.300000
356.201900 21322456.000000
359.188500 21589.200000
374.212600 6939357.500000

>ms2
56.049400 57828.200000
58.065100 22411.900000
67.054200 93464.200000
70.065000 34504.700000
77.038500 21618.200000
79.054200 27922.200000
81.070000 17563.600000
82.065100 502548.100000
84.080700 268990.400000
85.088600 417226.200000
94.065100 61234.300000
95.049100 50862.300000
95.072900 33895.300000
96.080700 225405.400000
98.096400 1028444.900000
103.054200 1949401.900000
108.080700 26597.600000
109.044800 64024.800000
109.088500 20925.300000
121.064900 93628.100000
122.052700 47567.600000
123.060400 15924388.000000
124.051800 32614.000000
129.070000 16483.300000
132.080800 97717.100000
135.043800 22237.700000
135.060500 105166.500000
135.080400 23263.900000
136.051800 828758.900000
137.059500 118014.900000
138.071400 19664.600000
139.075300 90189.900000
144.056900 27198.100000
145.064700 29083.900000
146.072600 19121.500000
147.080300 27225.700000
149.059600 49732.100000
149.075800 69365.900000
150.071800 125919.200000
151.075300 830735.400000
152.086900 4363814.500000
158.072600 82493.100000
159.080500 97139.700000
160.088300 95411.500000
161.059500 34188.700000
161.075900 30398.100000
163.075200 30120.300000
164.087600 57530.700000
165.091200 27961.100000
166.102700 290426.600000
167.069900 39865.100000
171.080300 32398.000000
173.096000 80172.500000
174.067500 74845.000000
174.103800 190252.300000
175.075100 59331.400000
175.111400 25083.800000
176.085700 54700.500000
177.090900 99668.700000
178.102600 1013764.500000
185.096100 58043.200000
186.104000 39380.900000
188.083200 27417.600000
188.119400 20195.600000
189.090500 139111.800000
190.098500 122149.600000
191.106500 185317.300000
202.103000 125050.600000
202.122200 24603.100000
204.118200 8616019.000000
205.122300 222676.700000
206.133800 147302.500000
207.141300 18115.900000
214.122200 77374.200000
217.122200 119669.700000
218.133900 364522.900000
219.137800 21810.000000
232.133100 1391402.100000
234.149000 63805.800000
246.148200 56532.900000
250.143200 70770.700000
310.160500 48312.900000
312.175100 16680.100000
324.175800 185246.200000
326.155000 89402.400000
340.171100 140591.400000
341.178600 301384.800000
342.186500 55043.200000
344.165900 74171.200000
356.202100 3937571.500000
374.212800 1174990.800000

>ms2
53.038600 122033.000000
55.054200 26160.800000
56.049500 119558.000000
58.065200 38945.100000
65.038500 24080.100000
67.054200 193778.800000
68.049400 24200.600000
69.069900 37857.900000
70.065100 100446.000000
77.038300 71659.500000
79.054200 48070.100000
80.049400 52678.800000
81.069700 42321.300000
82.065100 699476.900000
84.080800 436070.500000
85.088600 202247.600000
91.054200 154464.800000
93.069900 41935.900000
94.065100 218806.800000
95.049100 359169.200000
95.073000 171892.900000
96.080700 352228.000000
97.044800 55349.900000
98.096400 1277245.400000
102.046400 79833.300000
103.054200 8279298.500000
105.069900 38322.400000
107.049300 41715.500000
108.080700 54508.700000
109.044800 225886.400000
109.064900 47509.000000
109.088700 29144.700000
115.054100 51995.900000
116.062000 30414.300000
117.057300 38655.800000
117.070000 39525.500000
119.049300 30017.800000
121.044800 48819.600000
121.064900 203595.700000
122.052700 69231.900000
123.060400 20306006.000000
124.051600 95810.300000
128.061900 29115.400000
129.070000 51528.200000
130.077600 46114.100000
131.048900 36421.500000
131.085600 43074.400000
132.080800 109065.400000
133.044900 22043.500000
133.065000 22650.000000
135.043800 118598.000000
135.060500 142370.100000
135.080500 25561.700000
136.051900 2021040.400000
137.059600 322508.200000
139.075300 107670.400000
143.049400 49311.900000
143.085500 68535.600000
144.057000 66782.500000
145.064900 90804.000000
146.072700 48360.200000
147.080300 67210.600000
148.056100 61870.600000
149.058700 42018.000000
149.075900 57891.800000
150.071600 242426.500000
151.075300 720056.300000
152.086900 936408.200000
157.065000 64912.000000
158.072600 190918.500000
159.043600 21503.600000
159.080400 304965.400000
160.088300 126339.800000
161.059700 96329.500000
161.075900 26591.000000
161.095900 25209.100000
163.075500 32433.400000
164.082700 31853.800000
164.086900 36857.300000
166.102500 64640.500000
171.080400 130624.300000
172.088200 22608.700000
173.059400 21995.200000
173.096100 122921.100000
174.067300 75234.300000
174.104000 223794.200000
175.075300 114793.700000
175.111500 21581.500000
176.086200 121933.900000
177.090400 59850.200000
178.102600 322983.900000
185.096000 60790.000000
186.103800 25075.200000
187.075200 28800.200000
188.083100 36577.800000
189.092000 94414.900000
190.098700 105085.800000
191.106500 46204.800000
201.091100 22245.500000
202.102800 133794.900000
202.122400 26205.800000
203.106400 52650.800000
204.118300 4445626.000000
205.122300 34060.900000
206.134000 46368.500000
214.122200 69724.900000
216.102000 22249.700000
217.122100 21103.300000
218.133700 48602.100000
232.133100 587996.200000
324.175600 44797.700000
326.155100 50113.800000
340.170700 118009.100000
342.186300 36232.800000
344.165900 21015.400000
356.202200 73161.900000

>ms2
51.023000 25837.000000
53.038600 495021.100000
55.017900 22151.700000
55.054200 57542.400000
56.049400 129796.600000
58.065100 33841.100000
65.038500 95488.600000
67.041600 38606.800000
67.054200 271760.900000
68.049400 34162.100000
69.069800 42079.600000
70.065000 139786.000000
75.022800 15044.700000
77.038400 221183.300000
79.054200 100107.400000
80.049400 103150.200000
81.033400 52893.700000
81.057200 34492.600000
81.069800 60052.700000
82.065000 573822.500000
84.080700 348649.000000
85.088600 56146.300000
91.054200 538573.400000
93.069800 74415.900000
94.041200 57660.800000
94.065100 219118.000000
95.049100 1347175.600000
95.072900 306373.800000
96.080700 328469.100000
97.044700 147737.600000
98.096400 1011095.200000
102.046400 233568.700000
103.054100 14809404.000000
105.069900 86743.700000
106.041400 28651.600000
107.049100 142999.800000
108.056800 62803.900000
108.080700 41435.100000
109.028200 27540.800000
109.044700 356854.900000
109.064700 111222.100000
115.054100 188882.200000
116.062000 34520.700000
117.057300 50696.800000
117.069800 80072.400000
119.049100 54101.300000
119.085400 31602.700000
121.044800 110904.300000
121.064700 197635.100000
122.036200 26379.500000
122.052600 73318.100000
123.060300 14800496.000000
124.051700 113810.800000
128.061900 119039.200000
129.069800 202033.300000
130.077700 73361.300000
131.049000 92551.400000
131.085500 62484.800000
132.080600 56468.000000
133.044900 41586.500000
133.064500 50908.600000
135.043700 465155.100000
135.060200 99320.900000
136.051800 2105433.200000
137.059500 247021.900000
138.071600 14893.900000
139.075200 52550.200000
141.069600 46595.300000
142.077500 27979.200000
143.049000 92764.800000
143.085500 124679.300000
144.056800 140290.600000
145.064700 153672.700000
146.052600 25229.700000
146.072500 75684.300000
147.043900 17838.200000
147.060300 40074.800000
147.080200 74392.100000
148.055700 120996.900000
149.058700 53773.700000
149.076000 25464.400000
150.071600 232636.900000
151.075200 445400.700000
152.086900 163583.800000
153.069400 20815.200000
155.085500 23596.200000
157.064800 106850.900000
158.072500 166301.100000
159.043900 30511.000000
159.080300 468027.300000
160.088200 85676.000000
161.059400 151082.800000
161.096100 17700.000000
162.071300 16440.600000
163.075400 16237.200000
164.082900 29346.000000
169.064600 19270.400000
170.072300 31227.800000
171.080300 104994.600000
173.059200 17434.200000
173.096100 105415.800000
174.067500 33041.100000
174.103800 49505.700000
175.075200 140537.900000
176.087300 93488.600000
178.102500 51904.400000
185.095400 23950.400000
187.075700 16938.400000
188.084200 15311.600000
189.092700 46057.400000
190.100400 25876.600000
202.102700 86200.600000
203.106800 16591.200000
204.118100 768218.800000
216.101700 29939.900000
232.132900 74637.800000
298.159800 41055.400000
340.171200 18628.800000

>ms2
51.023000 32965.900000
53.038600 937151.200000
55.017800 68655.100000
55.054200 95612.100000
56.049400 114628.800000
58.065100 19788.400000
65.038500 191672.700000
66.046300 23326.300000
67.041700 55092.300000
67.054200 286300.100000
68.049400 41180.100000
69.069800 44325.600000
70.065100 157356.300000
75.022800 49033.100000
77.038400 456865.600000
78.046400 60653.900000
79.054200 188773.400000
80.049400 133583.500000
80.062000 25879.600000
81.033500 119107.600000
81.057200 28656.600000
81.069800 54746.100000
82.065100 357936.500000
84.080700 316673.500000
89.038500 16189.100000
91.054200 999700.900000
93.069900 63421.100000
94.041300 141184.600000
94.065100 204405.100000
95.049100 3246473.500000
95.072800 231566.400000
96.080700 206070.300000
97.044800 285161.500000
98.096400 657943.600000
102.046400 433748.000000
103.054100 16116847.000000
105.069700 133009.200000
106.041400 32248.300000
107.049000 263095.100000
108.056800 87068.600000
108.080700 28439.600000
109.028300 55639.700000
109.044800 442829.200000
109.064700 107317.500000
115.054200 367763.300000
116.062000 78770.200000
117.057300 45426.500000
117.069800 125401.100000
119.049200 84444.800000
119.085700 39685.200000
121.044800 226075.100000
121.064700 162713.800000
122.036100 44631.900000
122.052700 57591.300000
123.060400 6991716.500000
124.051700 84439.800000
128.061900 214955.100000
129.069800 265973.700000
130.065000 24430.800000
130.077800 53781.700000
131.049000 126011.100000
131.085400 104486.600000
132.056900 30044.500000
132.080600 17527.000000
133.044700 55770.600000
133.064700 72986.800000
135.043800 1030921.800000
135.060100 59291.500000
136.051800 1342258.200000
137.059400 142539.400000
139.075300 20054.700000
141.069700 66756.700000
142.077600 21075.700000
143.049100 71554.100000
143.085400 86221.200000
144.056800 189187.500000
145.064600 169044.900000
146.052600 28091.300000
146.072600 53095.100000
147.043800 27561.400000
147.060100 26916.700000
147.080300 69055.800000
148.055700 142838.700000
149.059600 28951.700000
150.071600 113884.200000
151.039100 22127.900000
151.075200 173805.400000
152.086900 28150.000000
153.069600 20714.900000
157.064700 103729.300000
158.072600 131081.400000
159.043800 27076.400000
159.080400 341665.400000
160.051800 25135.400000
160.088100 22129.400000
161.059300 102655.100000
162.071300 26369.000000
170.072400 26069.800000
171.080600 42075.500000
173.059800 17139.500000
173.096000 51384.600000
174.067100 16640.800000
175.075000 97291.500000
176.087100 36948.700000
189.094100 20222.600000
202.102700 36009.900000
204.118100 81393.600000
216.101800 31097.200000

