>compound LU44280745
>parentmass 369.2173
>ionization [M+H]+
>formula C22H28N2O3
>rt 1050.000000
>profile orbitrap
#smiles_iso CC1=CC(=CC(=C1)C(=O)N(C(C)(C)C)NC(=O)C2=C(C(=CC=C2)OC)C)C
#smiles_can CC1=CC(=CC(=C1)C(=O)N(C(C)(C)C)NC(=O)C2=C(C(=CC=C2)OC)C)C
#inchikey QCAWEPFNJXQPAN-UHFFFAOYSA-N
#pubchem_id 105010
#mb_accession LU027801,LU027802,LU027803,LU027804,LU027805,LU027806

>ms2
133.064800 9733.600000
149.059800 88862.600000
309.099000 7546.000000

>ms2
72.080700 3032.300000
133.064900 30112.600000
149.059900 133616.500000
309.099000 2679.300000

>ms2
72.080700 2690.800000
91.054300 5152.300000
93.070000 4558.600000
105.070100 2867.900000
119.060400 3276.900000
123.080600 2451.800000
133.064900 30586.600000
133.076000 2034.700000
139.075300 2239.300000
149.059900 89796.300000

>ms2
65.038600 3788.100000
79.054300 3602.000000
91.054200 23885.600000
93.069900 10677.100000
95.049200 3685.500000
103.054300 3281.800000
105.069900 13404.400000
109.065000 12396.400000
119.060400 7959.600000
123.080500 10080.700000
133.064800 16495.300000
133.076300 3444.200000
139.075200 4223.400000
149.059800 37856.200000

>ms2
65.038600 6631.700000
72.080900 2168.400000
79.054300 9304.500000
91.054300 48522.900000
93.070000 7048.900000
95.049100 6352.000000
103.054300 7206.400000
105.044800 3588.300000
105.070000 21728.900000
109.064900 13136.500000
119.060300 8030.400000
123.080400 6885.000000
133.064800 8847.200000
133.076200 4085.700000
149.059800 7838.500000

>ms2
65.038600 9926.200000
79.054300 16433.800000
91.054300 54359.400000
93.069900 2585.100000
95.049100 8782.200000
103.054300 7555.100000
105.044700 4098.300000
105.070000 17658.200000
109.065000 5410.100000
119.060600 3118.900000
123.080600 2943.600000

