>compound LU45585603
>parentmass 197.0305
>ionization [M+H]+
>formula C6H4N4O4
>rt 672.480000
>profile orbitrap
#smiles_iso C1=C(OC(=C1)[N+](=O)[O-])C2=NN=C(O2)N
#smiles_can C1=C(OC(=C1)[N+](=O)[O-])C2=NN=C(O2)N
#inchikey VTWQUFUBSCXPOW-UHFFFAOYSA-N
#pubchem_id 77406
#mb_accession LU096902,LU096904,LU096906

>ms2
53.002100 2532.700000
54.010100 3552.700000
54.033900 13934.600000
55.018000 2355.300000
56.013000 2959.400000
67.041500 2248.300000
68.025600 2832.000000
68.036800 18668.600000
71.012700 4170.200000
82.004900 231728.700000
94.028800 22623.700000
96.020600 5888.000000
108.031800 32402.000000
111.042800 8287.900000
123.042400 8460.800000
134.011300 2353.200000
137.011900 2874.800000
151.037700 32383.800000
154.024700 26332.200000
169.035800 5184.300000
180.004000 81583.600000
197.030600 446425.700000

>ms2
52.018300 8403.200000
52.030900 1702.200000
53.002300 4907.600000
53.026100 2193.700000
54.010200 3799.300000
54.034000 3741.400000
55.018000 2046.700000
56.013200 3046.300000
66.010100 4785.800000
66.034000 3891.200000
67.041800 2800.000000
68.025700 6252.600000
68.037000 8008.100000
68.997100 3434.600000
69.992200 2640.600000
71.012800 2419.400000
78.021200 2782.900000
79.018000 4978.800000
79.028900 8208.500000
80.013500 2089.400000
80.036900 28782.700000
82.005000 111335.800000
86.034900 2467.900000
94.005400 1770.300000
94.028900 7380.100000
96.020800 3077.600000
108.031800 21305.800000
111.043000 4834.300000
123.042800 27371.700000
134.011300 5541.100000
137.011900 7652.500000
151.037800 5881.200000
154.024600 5363.500000
155.022400 7309.900000
180.004300 11109.700000
197.031000 3002.800000

>ms2
52.018300 33807.100000
52.030900 4209.200000
53.002300 20100.300000
53.026100 6862.800000
54.010100 8997.400000
54.033900 2762.900000
55.017900 2234.300000
66.010000 13031.400000
66.033800 8153.000000
67.041600 4838.100000
68.025600 4249.200000
68.036900 9167.800000
68.997000 2132.900000
69.992300 1855.700000
71.012800 1905.600000
78.021300 6972.300000
79.017900 12829.400000
79.029100 34644.600000
80.013100 3825.700000
80.036900 38137.100000
82.005000 59200.100000
86.034900 4088.500000
94.005100 8812.000000
94.028900 3126.500000
108.031900 16569.400000
123.042800 6753.400000
137.011800 3693.800000
155.022300 3255.100000
169.035400 1788.100000

