>compound LU45391861
>parentmass 309.0379
>ionization [M+H]+
>formula C11H17O4PS2
>rt 985.020000
>profile orbitrap
#smiles_iso CCOP(=S)(OCC)OC1=CC=C(C=C1)S(=O)C
#smiles_can CCOP(=S)(OCC)OC1=CC=C(C=C1)S(=O)C
#inchikey XDNBJTQLKCIJBV-UHFFFAOYSA-N
#pubchem_id 8292
#mb_accession LU034801,LU034802,LU034803,LU034804,LU034805,LU034806

>ms2peaks
96.951500 15272.600000
139.021400 17603.800000
157.031700 192294.600000
173.008900 169427.500000
185.063200 85174.500000
201.040200 238534.000000
234.964700 291630.200000
236.998600 30914.500000
252.975300 955005.300000
262.995800 206935.100000
264.003900 131110.000000
266.990900 20652.000000
281.006500 5526897.000000
294.014000 51068.900000
295.021700 20560.700000
309.037700 13346453.000000

>ms2peaks
78.967100 6763.500000
94.041000 26126.800000
98.984100 11130.400000
104.062000 5923.900000
105.069900 14866.400000
109.004800 24377.700000
110.018300 20254.900000
114.961400 32685.200000
122.072400 6151.400000
125.005800 9457.700000
138.049400 9972.600000
139.021000 22989.500000
140.028800 86203.500000
141.000600 6036.000000
142.008300 14929.000000
154.998400 17782.800000
156.006200 128998.600000
157.031800 3300479.500000
157.985600 15016.500000
168.060300 9524.700000
172.001100 7776.600000
173.008900 2988655.200000
175.015500 21772.000000
184.037600 9895.700000
185.063100 182850.000000
189.984800 15797.500000
190.992400 35911.000000
201.040200 410677.500000
202.992500 9134.600000
217.961100 6156.600000
218.016100 23098.800000
218.987300 16157.100000
219.024200 26469.400000
234.964700 3067806.500000
235.972400 172940.100000
236.998000 738338.500000
237.951600 155943.900000
252.975100 5786923.500000
262.995900 268361.000000
264.003700 279053.000000
265.982900 144889.700000
266.990800 266279.400000
281.006400 4541973.500000
292.035200 35059.400000
294.014200 111943.900000
295.022300 20768.800000
309.037800 880213.700000

>ms2peaks
62.989900 33636.500000
63.997700 6209.000000
78.967000 36151.400000
91.054200 11065.200000
94.041300 283259.600000
95.049100 13109.600000
96.950800 8098.500000
98.984100 65040.400000
104.061900 8717.800000
105.069900 24949.500000
107.049200 11409.800000
109.004900 187947.600000
109.010600 15545.100000
109.028600 17105.800000
110.018500 190448.400000
111.026200 23735.200000
114.961400 278862.800000
122.072500 14458.300000
123.026200 9877.600000
123.997800 6581.400000
124.034200 13201.000000
125.005600 150992.000000
128.976800 8318.100000
137.041900 7997.100000
138.049500 21117.000000
139.021200 43747.800000
140.029000 815312.600000
140.982400 12549.300000
141.000800 15247.400000
142.008300 286122.800000
142.992900 7979.100000
154.998500 47722.400000
156.006300 914137.800000
157.031800 6124686.500000
157.985400 277861.400000
168.060000 20504.500000
170.039700 7644.000000
170.993400 100806.300000
171.023700 6927.600000
171.974400 13511.900000
172.001100 59827.300000
173.009000 4904597.500000
174.007600 6379.800000
175.015100 19724.300000
184.037700 26617.100000
185.063100 62596.100000
186.016700 12497.500000
187.969000 8197.800000
189.985000 120609.300000
190.992500 93492.600000
201.040400 75114.400000
202.992900 21041.100000
217.962000 129816.600000
218.015300 6825.300000
218.987400 18496.200000
219.024300 6906.200000
219.941000 75886.400000
219.995400 60479.500000
221.974500 45369.500000
234.964800 3579108.500000
235.972600 264670.500000
236.998100 1859751.500000
237.951700 543873.600000
249.987900 22454.300000
251.967700 10415.300000
252.975300 1622180.900000
262.995900 25940.600000
264.003700 70604.500000
265.983100 52485.000000
266.990900 361550.300000
281.006500 200206.300000
292.035200 12424.900000
294.014400 10151.400000

>ms2peaks
51.023000 5720.100000
53.038600 6961.700000
62.989900 166074.400000
63.997700 5662.400000
64.978600 16275.900000
65.038500 8145.200000
66.046300 11989.900000
67.054300 4606.100000
78.046200 15610.500000
78.967000 81002.100000
81.033400 12785.100000
91.054100 16366.500000
94.041300 1156523.900000
95.049100 64378.200000
96.002600 28148.900000
96.950700 29660.500000
97.010500 38490.600000
98.984100 276785.300000
104.062200 10980.500000
105.069900 31877.900000
107.049100 25398.500000
108.002700 7916.300000
108.056900 11172.700000
109.004900 372113.900000
109.010600 89958.300000
109.028500 40565.200000
110.018400 655242.900000
111.026200 57464.300000
114.961300 733834.600000
116.994400 6313.900000
120.057000 6037.000000
121.064500 6097.800000
122.072500 12907.100000
123.026400 32559.300000
123.997500 25286.300000
124.034100 39161.900000
125.005500 558830.900000
126.013200 13586.700000
128.977000 19829.000000
132.971600 6430.200000
135.026100 10710.300000
136.033900 11176.700000
137.005600 10620.600000
137.041600 8913.900000
138.049700 11421.500000
139.021200 218698.400000
140.029000 2884186.500000
140.982600 113014.600000
141.000300 124973.500000
142.008200 1415442.400000
142.992700 8691.300000
142.998100 18556.500000
152.983000 5385.500000
153.036200 6323.100000
154.971500 29031.300000
154.998400 440487.200000
155.969900 257127.700000
156.006100 2475891.800000
157.031700 4351326.500000
157.985300 1095303.200000
168.060200 29462.700000
169.013900 4915.800000
170.039500 14971.200000
170.993200 201326.100000
171.974000 115959.600000
172.001000 201331.800000
173.008800 2566113.800000
174.007600 33678.900000
175.014900 19094.100000
184.037400 31236.700000
185.063100 14308.700000
185.989700 8987.300000
186.017000 9675.000000
186.961100 12332.300000
187.968400 27650.700000
188.977100 12342.000000
189.984700 216127.500000
190.992300 58777.000000
201.040200 6549.000000
201.984900 19109.100000
202.992500 116000.000000
203.964000 12141.100000
217.961800 480794.600000
218.987600 16445.900000
219.941100 274388.500000
219.995200 391350.500000
220.966700 8953.600000
221.974500 264288.800000
234.964600 1759239.200000
235.972400 153943.700000
236.997900 1307662.400000
237.951600 279907.800000
249.987900 72090.900000
251.967100 35768.200000
252.975100 136953.000000
264.003500 6924.400000
265.983400 4531.200000
266.990700 152843.700000

>ms2peaks
53.038600 21674.300000
55.017900 5278.100000
62.989900 197679.200000
63.943500 8850.300000
64.978600 51109.000000
65.038500 24813.800000
66.046300 72860.300000
67.054200 16428.100000
68.979200 7205.000000
69.987000 7705.400000
70.995000 5849.600000
77.038500 11429.500000
78.046400 38161.700000
78.967000 60798.700000
79.017800 11016.600000
79.054200 9804.600000
81.033400 34855.700000
84.002800 19531.400000
85.010600 12749.600000
91.054200 42801.700000
92.025700 15777.700000
92.062000 12381.900000
94.041300 2311664.200000
94.994900 10391.700000
95.049100 77871.500000
96.002700 98148.300000
96.950800 44550.800000
97.010600 140585.400000
98.984200 495043.900000
104.062000 7214.500000
105.069800 23921.600000
107.049200 38978.500000
108.002800 22810.400000
108.057100 19897.800000
109.005000 329650.700000
109.010600 131512.500000
109.028300 46243.100000
110.018500 1456544.400000
111.026300 98765.100000
111.997700 9382.800000
113.005600 14818.600000
114.961300 1087637.100000
116.994500 7681.500000
120.056900 4749.200000
121.010700 11892.300000
122.018600 4318.600000
122.072600 13935.200000
122.989500 4852.500000
123.026200 60527.100000
123.997800 38774.700000
124.034100 53364.100000
125.005600 951346.300000
126.013400 11822.900000
126.967200 4416.500000
127.021400 6713.300000
127.974700 24162.900000
127.992500 9018.300000
128.977000 29461.600000
128.982100 7162.100000
132.971900 10415.200000
134.018400 4288.900000
135.026400 7342.500000
136.034300 12107.800000
137.005700 12779.000000
137.042200 4650.500000
138.049900 10933.100000
139.021300 769931.100000
140.029000 3811218.500000
140.982700 504034.200000
141.000400 392025.200000
142.008200 1908177.600000
142.998200 8698.500000
146.987200 5082.800000
152.982700 8849.800000
153.036700 8177.800000
154.998400 989194.500000
155.969900 475472.700000
156.006100 2474392.000000
156.977700 391749.100000
157.031700 1308775.900000
157.985400 1124222.500000
166.044600 4079.100000
168.060400 12111.100000
169.013800 7322.100000
170.039800 7506.800000
170.993200 51662.800000
171.974100 186324.300000
172.001000 150161.800000
173.008900 564598.700000
174.007700 109138.800000
175.015100 9782.300000
184.037000 8860.700000
185.989900 30132.900000
186.016600 4241.400000
186.961400 27428.600000
187.968800 29847.900000
188.977100 6108.600000
189.984800 74456.100000
190.992200 12139.700000
201.984800 18109.700000
202.992700 126824.600000
203.964300 13915.200000
204.971900 4610.600000
217.961800 302110.700000
218.987400 6538.600000
219.941200 175042.600000
219.995200 404392.900000
220.967100 6111.500000
221.974500 286049.000000
234.964700 321707.000000
235.972400 44137.800000
236.998100 304419.800000
237.951700 65660.500000
249.988400 36826.600000
251.967500 18981.600000
252.974600 9422.100000
266.991600 30268.600000

>ms2peaks
51.023000 5766.200000
53.038600 57065.800000
55.017800 13642.400000
62.989900 140976.400000
63.943600 13969.900000
64.978600 148113.100000
65.038500 92999.000000
66.046400 261383.100000
67.054100 38048.000000
68.979300 13569.400000
69.987200 39466.800000
70.995000 15323.500000
77.038300 20419.000000
78.046400 76910.400000
78.967100 21495.000000
79.017800 10970.200000
79.054200 22736.900000
80.025900 4294.000000
81.033500 77639.600000
84.002800 86004.500000
85.010600 61004.300000
91.054200 74139.000000
92.025600 26527.400000
92.062100 17148.700000
94.041300 3471495.500000
94.995000 31187.400000
95.049100 140169.200000
96.002800 170695.100000
96.950800 49602.700000
97.010700 313735.600000
98.984100 643172.100000
104.062100 9622.800000
105.069900 25208.800000
107.049100 83030.600000
108.002800 111302.400000
108.057000 15447.200000
109.004900 254931.600000
109.010600 221818.400000
109.028300 42092.300000
110.018500 2061366.200000
111.026200 195309.500000
111.997700 27404.500000
113.005500 91548.500000
114.961300 1311054.000000
116.994700 7520.000000
120.057100 5327.500000
121.010600 15319.700000
121.064300 5006.300000
122.018700 8926.000000
122.989900 13917.500000
123.026300 66304.000000
123.997700 35247.800000
124.034100 58348.600000
125.005500 1826618.400000
126.013400 8690.300000
126.966900 34239.500000
127.021300 4576.300000
127.974900 28693.800000
127.992500 27712.500000
128.976900 40644.100000
128.982600 29101.100000
132.971700 10707.200000
134.018200 4699.000000
135.026500 8450.400000
136.033800 8165.100000
137.005600 10611.900000
138.049800 5384.800000
139.021300 1210455.600000
140.029000 3129935.500000
140.982700 1113603.900000
141.000300 746851.900000
142.008200 1349689.100000
142.998300 7123.300000
146.987100 8189.700000
152.982700 5806.100000
153.036900 9395.700000
154.971500 51829.000000
154.998400 970018.900000
155.969800 389719.100000
156.006100 1506429.600000
156.977600 467865.800000
157.031700 291160.500000
157.985400 631234.400000
168.060000 5142.200000
169.013600 7008.500000
170.993200 12293.600000
171.974100 142299.000000
172.001100 45134.600000
173.008900 81417.000000
174.007600 116345.600000
185.990000 68089.300000
186.960900 25162.200000
187.969000 44337.700000
188.977300 7164.800000
189.984800 11224.200000
202.992600 72224.900000
203.964300 9553.800000
204.971300 4996.800000
217.961800 69259.800000
219.941200 43092.300000
219.995300 179366.900000
220.967200 6042.600000
221.974600 128545.700000
234.964100 28335.400000
235.972400 8916.400000
236.997800 42680.800000
237.951800 16994.400000
249.987500 8199.700000
251.967800 10033.900000

