>compound LU45054611
>parentmass 202.04330000000002
>ionization [M+H]+
>formula C10H7N3S
>rt 668.700000
>profile orbitrap
#smiles_iso C1=CC=C2C(=C1)NC(=N2)C3=CSC=N3
#smiles_can C1=CC=C2C(=C1)NC(=N2)C3=CSC=N3
#inchikey WJCNZQLZVWNLKY-UHFFFAOYSA-N
#pubchem_id 5430
#mb_accession LU120101,LU120102,LU120103,LU120104,LU120105,LU120106

>ms2
175.031600 33555.000000
201.035400 33991.500000
202.043300 32967880.000000

>ms2
175.032300 113478.900000
202.043200 34075740.000000

>ms2
92.049400 60898.000000
131.060400 71924.300000
143.060300 53529.300000
158.071100 73083.500000
175.032400 2956667.200000
202.043200 32921086.000000

>ms2
65.038400 106243.200000
92.049400 446621.700000
119.060400 30316.800000
131.060300 1109061.800000
143.060400 267908.700000
157.063500 39451.000000
158.071200 379550.200000
169.063100 46647.400000
170.071400 108615.700000
175.032400 12312806.000000
202.043200 19743656.000000

>ms2
65.038600 975489.300000
92.049500 1639372.000000
104.049400 101821.100000
118.052400 37725.000000
119.060400 44073.900000
129.044700 34691.700000
131.060400 6304164.500000
134.005800 64731.100000
142.052800 28048.300000
143.060400 648921.900000
144.055800 19667.100000
148.021800 24907.300000
151.032600 22632.200000
157.063600 122372.600000
158.071300 614797.900000
161.017000 31903.300000
162.024800 25013.200000
168.055800 27875.300000
169.063300 93922.600000
170.071300 231700.600000
174.024800 30166.000000
175.032400 18509476.000000
202.043300 8439644.000000

>ms2
65.038500 3282552.500000
74.005800 14086.900000
77.038600 19785.200000
83.990300 24580.900000
92.049400 2751305.800000
93.057200 36182.700000
104.049400 680171.100000
111.001000 36031.300000
116.049400 24989.500000
117.057300 33771.100000
118.052500 138094.500000
119.060300 48239.500000
129.044700 74375.400000
131.060300 11943360.000000
134.005800 280583.700000
142.052500 77879.100000
143.060400 972388.100000
148.021500 48442.600000
151.032600 17246.700000
156.055500 19194.400000
157.063300 144715.200000
158.071200 352840.400000
161.016500 34439.300000
162.024400 27709.500000
168.055600 47306.200000
169.063300 74981.600000
170.071200 219644.400000
174.024600 46390.700000
175.032400 11719890.000000
202.043300 2067583.900000

