>compound LU45063241
>parentmass 643.1988
>ionization [M+H]+
>formula C31H35ClN4O7S
>rt 1038.900000
>profile orbitrap
#smiles_iso CCOC(=O)O[C@H](C)OC(=O)C1=CC2=C(C=C1)N(C(=C2)C(=O)NC3CCN(CC3)C(C)C)CC4=NOC(=C4)C5=CC=C(S5)Cl
#smiles_can CCOC(=O)OC(C)OC(=O)C1=CC2=C(C=C1)N(C(=C2)C(=O)NC3CCN(CC3)C(C)C)CC4=NOC(=C4)C5=CC=C(S5)Cl
#inchikey GJTKAAFWJZWEPS-LJQANCHMSA-N
#pubchem_id 53316384
#mb_accession LU121901,LU121902,LU121903,LU121904,LU121905,LU121906

>ms2
126.127500 12168.300000
509.141200 2362247.000000
553.169100 10748.300000
599.172900 275182.000000
643.199000 7328642.000000

>ms2
55.054200 11699.700000
56.049500 30970.200000
72.080800 18717.500000
82.065200 16458.900000
84.080800 186311.900000
98.096500 10562.800000
124.112100 280673.100000
126.127700 1512513.000000
127.086600 34892.100000
144.950900 253686.600000
169.133500 149162.800000
188.034400 13296.200000
197.977400 40144.900000
223.050200 106592.200000
243.039900 22293.700000
312.170800 29759.000000
329.173100 16486.200000
341.014500 190550.600000
357.009500 44822.200000
366.009400 9443.300000
366.994400 30600.900000
385.004400 185962.000000
413.036000 30058.900000
466.122300 9368.700000
467.093700 25946.000000
509.141100 8843037.000000
553.168100 90022.900000
599.172100 37113.500000
643.199000 90360.200000

>ms2
53.002200 3878.300000
53.038500 4584.000000
55.054200 100518.000000
56.049500 288191.800000
57.069900 6547.100000
58.065100 59400.900000
65.038400 6787.100000
67.041600 4186.000000
67.054200 56406.400000
69.057300 4402.800000
69.069800 41252.600000
70.065100 59769.600000
71.072900 5404.400000
72.080700 115649.500000
72.984000 10948.300000
80.049300 19949.700000
82.065100 309257.100000
84.080800 1154969.100000
86.096400 12416.400000
96.081000 5963.500000
98.096400 50624.300000
108.080800 4830.800000
109.088700 3257.400000
110.096400 92403.400000
112.112100 15989.600000
122.096400 44639.700000
124.112100 1168006.800000
126.127700 2815681.800000
127.086500 73199.900000
127.122800 6969.800000
129.057500 7587.800000
130.065300 9850.600000
130.971800 7463.400000
137.107500 7116.300000
139.122900 13262.200000
141.138500 19997.200000
142.028800 7283.500000
142.971600 130213.800000
144.044500 31806.100000
144.055500 5105.800000
144.950900 1537718.900000
153.102500 4496.100000
155.060500 4356.600000
157.052400 34143.800000
158.059900 6279.600000
161.047100 26295.900000
162.000900 6181.800000
167.118000 17653.700000
167.967100 9588.500000
169.039400 25020.700000
169.133500 116209.500000
169.982400 128881.600000
170.966600 9592.900000
172.039100 4427.800000
172.062900 8639.400000
174.054800 19154.900000
183.055200 7461.300000
187.050300 29202.600000
188.034200 670443.400000
189.041900 8564.000000
195.055300 14093.600000
195.962200 3576.700000
196.063600 4059.600000
197.070900 8499.200000
197.977500 656049.100000
199.050100 26526.500000
202.049600 20192.900000
204.052800 13686.300000
213.065600 10282.200000
214.049800 9329.400000
215.988000 5418.700000
216.029000 7934.600000
216.066200 5000.800000
223.050200 174233.800000
225.066200 11738.200000
227.045400 3739.600000
230.003600 12322.600000
239.044900 21344.600000
243.039900 192438.600000
270.013200 3612.600000
277.042300 18770.300000
278.050800 14272.400000
278.068600 8821.700000
297.183700 55963.500000
305.038300 33270.100000
306.045400 46473.900000
311.003900 11560.400000
312.170500 140220.700000
313.019400 28280.900000
314.003900 32834.000000
321.032900 70194.100000
322.040600 74098.500000
329.173200 91866.000000
336.020200 4913.000000
338.998800 59085.200000
341.014400 420883.500000
344.002700 12579.600000
357.009400 193639.000000
370.040400 29043.000000
371.996700 66394.200000
384.020300 178687.600000
385.004500 243854.600000
413.035800 10478.700000
422.035900 9746.700000
466.122700 53892.400000
467.094100 27865.200000
509.140900 1567553.900000

>ms2
53.002200 12034.500000
53.038600 9856.500000
55.054200 293937.200000
56.049500 770094.100000
57.069900 26708.300000
58.065100 105857.900000
65.038600 16680.600000
67.041600 21733.600000
67.054200 125487.500000
68.049500 13182.700000
68.979500 3568.900000
69.057200 6470.500000
69.069800 68345.900000
70.065100 93245.600000
71.072900 5671.800000
72.080700 124860.400000
72.983900 76900.000000
78.940300 14114.000000
80.013200 15254.100000
80.049400 45230.600000
81.057200 3712.400000
82.065100 631918.900000
84.080800 1493459.900000
86.096400 11680.200000
90.033700 3637.400000
95.060300 5771.100000
96.080900 5858.500000
98.096500 46240.400000
104.049400 8315.200000
108.002800 14485.100000
108.044600 4962.500000
108.080900 10960.400000
110.096400 209522.500000
112.112100 18880.800000
114.033800 18447.100000
116.049300 9375.400000
116.955900 21831.600000
117.057200 7489.700000
119.036600 5215.200000
122.096400 34264.900000
124.112100 704349.800000
126.127700 1363416.000000
127.086500 56605.300000
127.123000 8678.000000
128.049400 11059.800000
129.057200 44003.300000
130.065200 27252.700000
130.971600 14348.300000
132.044500 16431.200000
132.950800 21315.400000
133.028400 14334.800000
134.006300 5613.600000
134.060100 18592.000000
135.013800 30027.000000
137.107300 14947.300000
139.122900 6636.700000
140.049500 16746.600000
141.138600 7282.900000
142.028800 46546.400000
142.065200 7421.500000
142.971700 489705.300000
143.967300 4895.300000
144.044400 62315.100000
144.950900 2100774.500000
146.059900 3597.100000
150.054900 10820.800000
153.102200 10337.400000
154.971800 5229.700000
155.060300 9938.400000
156.044200 11133.500000
157.052100 34249.200000
158.060100 11190.300000
160.039200 15289.300000
161.047100 119557.000000
162.001000 16166.800000
162.054700 4806.500000
163.008700 22801.700000
167.060700 17644.100000
167.117700 4200.600000
167.967100 19669.500000
168.068200 12285.000000
168.951100 11636.600000
169.039600 48925.000000
169.050800 4059.600000
169.076200 7988.900000
169.133600 51360.300000
169.982500 343635.800000
170.034800 29449.600000
170.966600 26621.600000
171.055400 12112.300000
172.063100 26213.100000
173.047000 10658.300000
174.055000 29740.700000
175.026400 24486.800000
178.049600 6524.000000
183.055100 9487.500000
183.974300 4062.900000
186.042300 12354.000000
188.034200 839058.900000
189.041800 20506.100000
190.050100 5748.200000
195.055300 55471.900000
195.962000 12635.800000
196.063400 6550.600000
197.070700 7394.500000
197.977500 732405.600000
199.050100 40786.400000
200.057900 14962.800000
202.049600 32132.200000
204.052800 44067.200000
205.037100 13754.100000
205.076000 13330.500000
211.050200 9847.900000
213.065800 21723.400000
215.044900 47506.500000
215.988200 13453.500000
216.028900 39012.300000
216.066400 11179.800000
223.050800 66370.500000
225.066100 8024.800000
226.037100 10221.100000
226.049500 4605.100000
227.045400 7996.900000
228.053000 4849.400000
230.003900 28260.500000
230.032400 33243.400000
231.040200 4347.500000
233.070800 14920.400000
239.045100 51618.200000
243.040000 143855.200000
245.070900 6531.500000
247.032400 4409.400000
249.048200 40139.400000
250.055900 24884.900000
261.047800 22432.500000
261.065800 13184.800000
269.005600 4452.600000
276.035200 31366.600000
277.043200 112636.700000
277.060600 13979.800000
278.050700 24256.200000
278.068600 48873.100000
279.034100 7044.400000
289.061000 5575.600000
293.038000 20516.100000
304.029200 9703.000000
305.037800 83295.400000
306.045300 37231.400000
311.004300 34842.500000
313.019400 18606.800000
314.003600 50673.500000
321.032800 162217.900000
322.040600 55765.400000
336.020300 14384.400000
340.006700 46529.000000
341.998600 5679.400000
357.009300 69478.500000
366.009000 3928.800000
366.995200 6328.200000
370.040500 8569.000000
371.996500 68125.800000
382.987800 7286.000000
384.020400 57096.900000
422.036100 4762.800000

>ms2
53.002200 24871.700000
53.038600 22341.900000
53.997400 3859.000000
54.033900 3782.700000
55.054200 490022.800000
56.049500 950964.300000
57.069900 31827.600000
57.987200 5741.700000
58.065100 97378.300000
63.023000 5051.200000
65.038600 42470.400000
67.041600 51760.200000
67.054200 156442.400000
68.049400 20474.600000
68.979300 10008.600000
69.057200 12605.700000
69.069900 38801.000000
69.987100 7920.400000
70.065100 89453.500000
70.994800 3864.400000
71.072900 3670.400000
72.080700 85795.000000
72.983900 381760.700000
77.038700 3086.000000
78.046300 3564.500000
78.940400 49974.300000
79.054200 6472.600000
80.013100 32088.800000
80.049500 86096.700000
81.069800 9531.700000
82.065100 800924.700000
84.080800 1035200.600000
86.096400 6326.500000
89.038500 12402.300000
90.033800 7253.400000
91.041900 6638.200000
91.054300 3949.900000
92.025600 6773.600000
92.049300 4362.000000
94.065100 4316.100000
95.049300 4242.200000
95.060400 6360.700000
96.044200 3082.900000
96.080800 8438.600000
98.096400 33145.700000
98.990000 8316.100000
98.999600 9302.500000
102.046400 11978.700000
103.054400 5886.200000
104.049500 45166.700000
104.955900 3427.400000
108.002800 80699.100000
108.044400 18302.400000
108.080800 17663.600000
109.088700 6963.800000
110.096500 206254.000000
112.112100 14730.900000
114.033900 109597.400000
115.041700 6498.500000
115.054200 9816.700000
116.049400 28735.200000
116.956000 88254.000000
117.057300 9338.500000
119.036600 8180.500000
121.010500 2946.900000
122.096400 17534.000000
124.112100 283851.400000
126.127800 401454.400000
127.086600 23032.400000
127.122900 4061.500000
128.049400 27977.200000
129.044900 6973.800000
129.057400 54661.100000
130.028600 14792.300000
130.065200 39762.600000
130.971700 16768.100000
132.044400 59824.900000
132.950900 49539.300000
132.997900 24787.800000
133.028400 86432.000000
134.006000 31322.200000
134.059900 33513.400000
135.013700 123799.200000
136.021600 4015.100000
137.107200 9390.700000
139.122900 4348.400000
140.049500 69540.300000
141.057400 6500.600000
142.028800 145652.700000
142.065200 7735.500000
142.971800 659148.100000
143.036500 43390.300000
143.967000 4226.200000
144.044600 40333.300000
144.055300 17761.400000
144.950900 2239050.200000
150.054800 15196.900000
152.016300 10896.500000
153.102100 12872.600000
154.052300 6439.800000
154.065100 12031.000000
154.971900 6987.600000
155.060300 22621.700000
156.044500 29016.800000
157.052300 19089.500000
158.060200 15279.300000
160.039400 33903.100000
161.047100 135301.800000
162.000800 22792.800000
162.018400 4269.800000
162.054800 7006.400000
163.008600 30939.800000
165.044600 12390.900000
166.052500 8683.500000
167.060700 30989.000000
167.073000 6752.300000
167.117800 4027.200000
167.967100 24910.800000
168.068300 19096.400000
168.951000 16996.800000
169.039600 26244.400000
169.050700 16701.700000
169.076100 12271.800000
169.133500 11557.800000
169.982600 410023.000000
170.034900 45953.600000
170.966700 53738.600000
171.055100 13090.000000
172.039500 11877.300000
172.063100 13430.400000
173.046900 5017.700000
174.055100 27587.600000
175.026500 54695.400000
177.041900 7592.000000
178.049600 28548.800000
183.055200 17663.900000
183.974500 4373.200000
184.039300 10899.400000
186.042400 18040.000000
187.050100 8292.300000
188.034300 551709.100000
189.042100 12756.200000
190.065200 6168.000000
193.038400 12756.300000
195.055300 41556.400000
195.962000 10668.500000
197.977600 301035.900000
200.057900 10255.100000
202.049800 23717.200000
203.060200 5969.500000
204.052800 23699.000000
205.037200 21926.600000
205.076100 53131.800000
206.083700 9153.500000
210.036900 6537.100000
211.050300 16320.400000
213.065700 12783.300000
214.049900 16336.600000
215.045200 47012.800000
215.060100 3503.900000
215.988100 9502.000000
216.068000 27911.100000
217.076200 14070.700000
222.037100 31634.500000
223.048800 16438.800000
226.037100 9789.300000
226.049500 4220.700000
228.053200 6431.000000
230.032200 34223.500000
231.039700 3782.300000
232.063000 10085.900000
233.071100 39495.200000
239.045200 23864.900000
243.040200 27390.400000
245.071200 15226.200000
247.032400 22788.800000
248.040200 69622.800000
249.048000 77087.600000
250.055900 22209.300000
259.032500 11745.800000
260.040400 11328.200000
261.048100 56581.800000
261.065600 13649.800000
269.005400 7017.100000
270.013200 6896.600000
275.027300 21005.100000
276.035400 36783.700000
277.042900 123560.700000
277.060800 31427.400000
278.068400 68666.200000
279.033200 8294.000000
289.060800 14981.600000
293.037900 28644.700000
305.038000 65147.900000
306.045300 10380.600000
311.004000 35681.200000
321.032900 147642.500000
338.999200 12720.300000
340.006800 11694.100000
341.014700 3929.800000
344.002700 16007.500000
349.027100 24013.200000
371.996900 4540.600000
382.988000 7313.400000

>ms2
53.002200 29982.000000
53.038600 29880.900000
53.997400 4012.300000
54.033900 9716.200000
55.054300 566572.000000
56.049500 887320.600000
57.069900 23811.100000
57.987200 9853.200000
58.065100 54637.200000
63.022900 14125.100000
65.038600 39173.000000
67.041700 69671.200000
67.054200 116853.900000
68.049400 20558.900000
68.979300 22080.700000
69.057200 15674.200000
69.069900 22404.000000
69.987200 11547.800000
70.065100 65920.800000
70.994900 7934.400000
71.072800 4950.900000
72.080800 39447.000000
72.983900 930716.100000
77.038300 3299.000000
78.046300 5996.300000
78.940400 80295.000000
79.054200 6107.700000
80.013100 22650.900000
80.049500 99505.800000
81.057500 5516.100000
81.069900 9210.000000
82.065200 638142.600000
84.080800 495214.600000
89.038500 48327.200000
90.033900 15919.800000
91.041900 18096.700000
91.054300 6707.500000
92.025600 8131.300000
92.049600 6504.000000
94.065200 8348.900000
95.049200 16163.300000
95.060400 11927.000000
96.044300 8889.900000
96.081000 5017.300000
98.096300 11241.000000
98.989900 7457.500000
98.999600 42697.600000
102.046500 38104.200000
103.054200 10498.700000
104.049500 65839.600000
104.956100 9105.200000
108.002900 229618.400000
108.044500 19581.800000
108.080700 15084.400000
110.096500 129543.200000
112.112000 8194.700000
114.033900 219594.400000
115.041700 24987.500000
115.054200 22495.100000
116.049400 40449.300000
116.956000 130478.000000
117.057200 11286.500000
119.036500 11225.300000
121.010800 9513.900000
124.112200 65500.200000
126.127800 79696.900000
127.086400 3768.200000
128.049500 66763.700000
129.044800 10269.600000
129.057300 48839.600000
130.028700 31365.900000
130.065300 36991.900000
130.971700 18799.200000
132.044400 67552.500000
132.951000 76447.600000
132.998200 38441.300000
133.028500 207267.600000
134.006000 57048.300000
134.060000 38743.700000
135.013800 197965.800000
136.021400 5038.500000
140.049500 118712.900000
141.057200 13849.400000
142.028800 119050.400000
142.971800 469049.000000
143.036700 36134.700000
143.967000 8868.000000
144.044500 32713.300000
144.055500 8519.700000
144.951000 1471157.100000
146.060100 25310.400000
150.055100 11544.400000
152.016400 13426.500000
153.102300 6902.900000
154.052400 3866.500000
154.065100 19759.600000
154.971800 8306.700000
155.060400 22882.800000
156.044500 30495.200000
157.052100 7516.500000
158.060100 11410.600000
161.047100 94648.100000
162.001000 17874.500000
162.018600 7975.700000
163.008800 17839.000000
165.045000 23191.800000
166.052600 16579.000000
167.060500 21991.300000
167.073200 5412.000000
167.967300 17227.900000
168.068500 15035.300000
168.950700 9231.100000
169.039700 10505.300000
169.050900 11363.900000
169.076000 5989.100000
169.982600 284751.700000
170.035000 22004.500000
170.966600 44632.400000
171.055100 8248.800000
172.039300 13995.600000
174.055000 16620.100000
175.026500 58825.200000
177.042000 12606.700000
178.050000 29184.200000
183.055300 15162.200000
184.039300 10924.300000
186.042400 12811.100000
188.034400 227049.400000
189.042000 8419.300000
190.050400 7124.400000
190.065200 20575.200000
193.037900 7001.600000
195.055300 17536.000000
195.962100 3665.500000
197.977700 75602.400000
199.050400 7277.300000
203.060600 19903.700000
205.036700 11446.600000
205.076100 86417.000000
206.083600 8468.300000
210.037300 10178.100000
214.050100 6190.500000
215.045100 8917.900000
215.060300 10427.900000
215.988300 3886.000000
216.068400 41981.000000
217.076300 19765.700000
222.037000 41593.900000
230.032300 10953.300000
232.063300 13294.600000
233.071100 36817.300000
247.032400 43415.000000
248.040400 97972.200000
249.048000 73182.200000
250.055400 8094.300000
259.032500 25015.400000
260.040200 13467.300000
261.048000 51935.200000
270.013200 3986.100000
275.027200 20188.300000
276.035400 34183.100000
277.042800 65297.100000
277.060700 27299.800000
278.068500 27672.100000
293.038100 18126.300000
304.028900 3923.200000
305.038400 30497.300000
311.004000 14065.400000
344.002800 3246.600000
349.026900 5397.100000

