>compound LU45204887
>parentmass 532.2330000000001
>ionization [M+H]+
>formula C31H33NO7
>rt 1114.920000
>profile orbitrap
#smiles_iso CCCCC1=NC2=C(C=C1)[C@@H]([C@H]([C@@H]2C3=C(C=C(C=C3)OC)C[C@H](C)C(=O)O)C(=O)O)C4=CC5=C(C=C4)OCO5
#smiles_can CCCCC1=NC2=C(C=C1)C(C(C2C3=C(C=C(C=C3)OC)CC(C)C(=O)O)C(=O)O)C4=CC5=C(C=C4)OCO5
#inchikey IUHMIOAKWHUFKU-YINIXLNUSA-N
#pubchem_id 186002
#mb_accession LU031101,LU031102,LU031103,LU031104,LU031105,LU031106

>ms2peaks
177.091000 95219.800000
294.148800 31035.300000
338.138600 123643.300000
514.222900 70220.700000
517.211900 20347.500000
532.233200 19250324.000000

>ms2peaks
121.064700 9704.900000
122.036000 7962.300000
130.065000 44240.000000
144.057000 5653.600000
146.060000 23697.900000
149.023200 69632.800000
149.096200 41634.500000
159.080200 36928.900000
162.067400 10276.900000
170.096000 6267.900000
172.112000 204595.000000
174.054900 15342.500000
175.075400 12294.500000
177.090900 5386642.000000
188.106700 92051.400000
194.096300 30653.400000
210.091700 5457.700000
216.101500 23255.400000
222.091200 187257.400000
224.143200 30768.700000
236.143200 47493.100000
237.078900 5971.000000
238.086000 17918.500000
248.069900 6299.700000
250.086000 524878.400000
251.093800 28978.900000
252.101400 18290.200000
252.138200 16541.000000
262.123100 6265.900000
263.094000 5543.000000
264.138000 338597.900000
266.081200 12299.800000
266.153300 8897.400000
278.080600 5406.800000
280.133000 9818.400000
282.148500 6435.500000
290.117100 6791.000000
292.133100 1345912.400000
293.141600 29183.200000
294.148600 3229397.500000
295.083700 6114.500000
296.091400 15482.700000
308.127600 25212.000000
310.143600 118958.000000
320.127900 1680276.200000
337.130000 8331.600000
338.138400 5043812.000000
340.153400 14049.200000
346.180500 7381.000000
348.195800 10166.100000
352.154000 23437.300000
374.174800 5492.600000
392.184900 40644.100000
414.207600 6307.700000
440.222000 8882.300000
458.196100 53424.100000
468.217100 72945.400000
478.201800 8839.900000
486.227600 642607.300000
489.177900 6834.600000
496.211300 83212.700000
514.222700 497161.500000
517.211600 6770.600000
532.233100 3910507.800000

>ms2peaks
57.069800 13452.500000
69.033400 8248.600000
91.054200 11248.400000
115.054100 4117.100000
118.064900 4623.100000
121.028300 20164.000000
121.064700 125067.200000
122.036200 46370.100000
129.069700 7926.300000
130.065100 411820.800000
131.073200 8558.600000
131.085600 4991.500000
132.044500 12319.300000
133.052100 8251.400000
134.072500 5534.700000
135.043900 50973.600000
135.080300 8671.000000
143.072900 29365.100000
144.057000 64829.500000
144.080600 6395.200000
145.064900 6531.300000
146.060000 248008.300000
147.080500 29062.400000
149.023300 526613.200000
149.096100 75469.000000
151.038900 10078.700000
152.061700 4869.300000
153.069700 11239.200000
155.072900 13294.000000
156.044300 7901.900000
156.080700 10422.300000
157.088600 74959.700000
159.080400 317959.400000
160.075500 6126.400000
160.112300 25489.600000
162.067200 25950.600000
165.069700 5344.300000
165.091300 6170.900000
170.096400 86758.500000
171.104200 7309.100000
172.112000 588070.000000
173.120200 12875.700000
174.054900 118532.200000
175.075200 65045.000000
177.090900 2501550.800000
178.122800 5678.700000
180.080800 46306.900000
181.064600 13212.500000
182.096900 6386.300000
188.107000 165260.800000
190.065500 4074.600000
192.081200 7693.400000
193.088200 42934.900000
194.096400 569732.200000
196.075800 15988.000000
198.091200 38337.100000
206.059800 8740.600000
206.096500 11066.000000
207.067900 12168.300000
207.104300 10273.100000
208.075500 97062.700000
208.111900 10395.200000
209.083400 7942.900000
210.091300 42556.800000
211.075800 5021.600000
216.101900 19919.400000
220.075600 28651.700000
221.082500 40430.300000
222.091300 1105444.100000
223.098900 36332.800000
224.070300 8342.300000
224.143400 138031.800000
233.084800 4665.700000
234.054300 9026.100000
234.091300 12377.900000
234.127900 21237.100000
235.099100 63421.100000
236.107100 25587.600000
236.143300 422696.400000
237.078600 111291.800000
238.086200 174838.300000
238.159200 22128.100000
239.093300 4191.400000
248.070500 105423.100000
249.078700 18076.400000
249.114400 16635.800000
250.086200 2397314.500000
251.094000 494732.500000
252.101800 157986.800000
252.138200 78908.600000
253.073200 65337.300000
254.081000 8108.500000
261.078500 6551.300000
261.114300 4592.800000
262.122600 124169.100000
263.057200 26002.700000
263.093800 75332.000000
263.129400 8711.200000
264.103700 47332.400000
264.138200 738602.100000
265.073000 4699.600000
265.108800 19823.900000
266.081300 52572.700000
266.117700 10109.100000
266.153800 93824.400000
267.087800 7807.200000
276.065800 9297.000000
276.101600 8721.000000
276.138300 8079.800000
277.073300 148501.600000
277.108400 20366.900000
278.081000 32974.500000
278.117800 5798.900000
280.133000 43051.400000
281.068400 53787.400000
282.148300 36218.400000
290.117600 71900.900000
290.154200 9887.700000
291.088200 6885.300000
291.161300 4906.600000
292.133200 1353258.200000
293.141000 202256.200000
294.148700 4010582.200000
295.083100 19211.600000
295.120900 6390.000000
296.091500 57529.600000
296.128300 26659.000000
304.169500 11144.200000
308.127200 31928.900000
310.143600 253197.300000
318.149900 4725.100000
318.184900 19148.400000
319.119700 7910.700000
320.128100 1817289.900000
330.185400 7778.000000
336.159500 6462.900000
337.130900 22004.900000
338.138600 1422093.400000
340.154300 10534.800000
346.180700 31481.200000
348.195700 13747.300000
352.154700 8962.900000
369.136500 6231.700000
370.143400 9878.100000
374.173800 5577.900000
382.180300 9755.900000
392.184800 19322.700000
396.158200 5133.400000
398.175400 14554.100000
400.191200 6162.000000
407.191200 4183.400000
410.174500 7664.600000
411.182800 9512.200000
412.191300 46862.600000
414.205900 31461.600000
424.189700 7053.300000
426.207100 16693.800000
440.221900 58519.500000
441.229200 23481.900000
456.181400 12098.300000
458.196100 139366.700000
468.217300 119906.600000
478.201800 10055.800000
486.227600 144245.100000
496.212300 9546.500000
514.222300 18265.900000
532.232100 9384.000000

>ms2peaks
51.023100 3816.100000
53.002200 9682.300000
55.054200 4268.100000
57.069900 26734.500000
65.038500 23914.400000
69.033400 16664.200000
77.038500 7221.300000
79.054200 8023.000000
80.049200 9201.800000
91.054200 90655.200000
93.033500 5414.900000
93.069900 12096.400000
94.064700 4967.300000
95.012700 6772.200000
95.049100 13065.600000
103.054200 39198.000000
104.049300 36616.800000
105.069800 6657.600000
106.065000 11231.800000
107.049400 8789.800000
109.028600 4340.000000
109.064900 8926.700000
111.044200 15787.800000
115.053900 19621.100000
116.049300 7229.200000
116.062200 6970.300000
117.057300 30783.400000
117.069900 21189.800000
118.065000 41841.900000
119.049100 4251.100000
119.085600 21403.200000
121.028400 68252.100000
121.064700 297617.800000
122.036200 100843.900000
123.044000 6740.000000
126.046600 4528.200000
128.049500 9049.100000
128.062000 30434.100000
129.057200 177337.500000
129.069600 38643.200000
130.065100 1017453.800000
131.049000 7730.700000
131.072900 58647.200000
131.085500 10427.200000
132.044200 20352.100000
132.057000 5895.100000
132.080700 5233.600000
133.052100 21651.900000
134.059800 29063.800000
134.072600 15571.600000
135.044000 180262.900000
135.080400 18006.700000
137.060300 7163.500000
139.038900 12020.700000
141.070000 5451.500000
142.065200 6287.900000
143.072900 100600.800000
143.085500 5758.200000
144.056900 255895.900000
144.080600 37893.200000
145.052500 4513.800000
145.064700 17185.600000
145.088700 4292.600000
146.060000 386145.400000
147.044100 15129.700000
147.080300 75645.500000
148.075600 12946.600000
149.023300 723917.900000
149.096000 120786.100000
151.038900 7946.700000
152.061700 19056.000000
153.069800 50564.000000
154.065200 16095.900000
155.072800 79984.000000
156.044500 19396.300000
156.080800 187422.800000
157.088500 215447.400000
159.080400 464933.800000
160.075400 9775.900000
160.111900 49321.400000
161.059700 7422.400000
161.083400 15566.700000
162.067400 66016.700000
162.091300 8715.300000
165.069800 46437.200000
165.090900 17278.400000
166.065300 10930.300000
167.072900 24972.800000
167.085200 37040.500000
168.080800 46080.800000
169.088700 14401.200000
170.096400 204875.200000
171.104100 43089.200000
172.112000 455373.200000
173.119700 36489.600000
174.054900 263387.800000
175.075100 48341.700000
177.090900 809894.100000
178.065000 25967.800000
178.078100 5980.400000
178.122500 5760.000000
179.072800 29377.000000
180.080700 269502.500000
181.064700 43467.200000
181.088400 77383.200000
182.060100 5785.000000
182.096400 48676.500000
185.060500 4319.300000
187.062800 20638.900000
188.106900 67866.900000
190.064800 8832.100000
191.072800 36125.600000
192.080700 134914.300000
193.088600 487094.600000
194.096400 1708736.100000
195.067800 11472.200000
195.079700 6971.700000
195.104200 46709.000000
196.075800 53911.000000
197.083500 6463.600000
198.055000 11810.000000
198.091400 44396.600000
204.080500 25960.700000
205.088800 17104.000000
206.059800 56092.900000
206.096300 86382.700000
207.067900 72135.600000
207.104200 94976.300000
208.075600 242621.900000
208.112000 47946.500000
209.059800 8034.200000
209.083400 97781.200000
210.091300 120862.500000
211.075100 10443.500000
211.099500 5667.000000
216.102200 4244.900000
218.096100 6604.800000
219.067500 40560.500000
219.103900 11020.600000
219.115900 7599.100000
220.075600 337501.700000
220.111300 19697.400000
221.083400 255570.400000
221.119900 35167.200000
222.091200 1216211.600000
223.099000 231204.800000
223.135400 17420.800000
224.070600 29527.000000
224.107100 15863.300000
224.143300 154723.000000
225.077900 12093.500000
226.086700 4693.000000
232.075400 8243.800000
232.111800 6923.000000
233.083600 27557.500000
234.054900 45409.800000
234.091300 55198.500000
234.127600 115669.700000
235.063300 10387.700000
235.099100 129033.500000
235.135300 9865.900000
236.070800 79664.700000
236.107000 61937.000000
236.143300 723342.000000
237.078300 345674.300000
238.086100 226548.600000
238.159000 29385.300000
239.093600 27731.100000
244.111400 4349.000000
245.120800 5711.300000
246.092200 5605.500000
246.127700 5440.400000
247.062900 20596.300000
247.099200 17679.400000
247.134600 5616.700000
248.070500 189449.800000
248.106900 31592.800000
248.142900 11232.000000
249.078500 117986.300000
249.114500 48919.000000
250.086100 3661215.000000
251.093900 1752614.100000
252.065200 16593.900000
252.101600 144235.500000
252.138100 97816.100000
253.073100 281390.200000
254.081000 10834.300000
260.107200 11763.900000
260.144200 11773.100000
261.078200 19640.300000
261.114300 17590.500000
262.087100 18699.300000
262.122600 223810.000000
263.058100 75984.600000
263.093900 272411.300000
264.065800 63926.800000
264.102100 171931.900000
264.138000 485492.300000
265.073500 9622.700000
265.109100 35190.200000
265.145300 19041.100000
266.081100 59843.600000
266.116600 8998.300000
266.153700 108669.400000
267.088500 59405.900000
274.085900 6526.800000
274.122500 5797.800000
275.093600 12092.000000
275.130700 11101.700000
276.065600 103871.100000
276.101500 80498.800000
276.137700 35363.200000
277.073200 551191.800000
277.109200 88251.000000
278.080900 63188.500000
278.117700 20532.800000
278.153000 9462.000000
280.096500 12683.000000
280.132800 71086.600000
281.068300 105970.400000
282.148200 31449.400000
290.081400 11920.700000
290.117600 87666.200000
290.153500 38237.100000
291.089100 14635.400000
291.125300 22165.600000
291.162200 18716.600000
292.133100 542458.400000
293.140900 205495.300000
294.148700 1485743.000000
295.083300 28667.400000
295.120100 16081.900000
296.091400 23868.500000
296.127400 22477.800000
298.122800 5940.800000
304.169400 31271.100000
308.127700 24018.300000
310.123800 5684.200000
310.143400 87691.600000
318.149300 8983.100000
318.185500 14418.300000
319.119700 9458.800000
320.128000 421553.000000
325.111200 5665.500000
326.117300 5008.900000
330.184200 9688.300000
336.159200 6310.700000
338.117600 10080.100000
338.138400 75381.500000
339.125300 7488.000000
340.096400 8261.000000
340.133700 11434.800000
340.169300 6207.600000
346.181100 6125.800000
355.119800 11643.700000
356.128100 16233.300000
365.140500 9125.700000
368.127900 47217.300000
368.164800 14661.100000
369.136800 19761.000000
369.173700 7323.800000
370.144000 58942.900000
370.179800 14365.000000
380.165700 6887.700000
382.143100 15225.500000
382.179500 33049.100000
384.159200 11690.900000
396.159400 28221.200000
398.174800 56521.200000
400.191600 6307.300000
407.187400 4757.600000
410.139100 11394.100000
410.174700 18594.700000
411.182900 4625.500000
412.191000 79819.500000
414.206700 23318.400000
424.190000 17961.300000
426.205300 22441.800000
440.220800 7426.500000
441.228600 5689.400000
456.180100 7548.300000
458.195900 14061.600000
468.216600 9733.000000

>ms2peaks
53.002100 19745.800000
53.038600 15635.000000
57.069900 19890.700000
63.022800 5217.100000
65.038500 103025.200000
67.054100 6630.700000
68.997000 17729.500000
69.033400 11197.900000
77.038500 10587.500000
78.046400 16849.700000
79.054100 29402.400000
80.049500 17677.000000
81.033400 5691.300000
89.038600 10946.900000
91.054200 249375.500000
93.057500 6481.100000
93.069900 14681.100000
94.041400 5659.100000
94.065200 4146.400000
95.012700 14135.900000
95.049100 44517.400000
102.046300 22327.700000
103.054200 173604.700000
104.049400 59870.500000
104.061900 10196.200000
105.033500 11519.600000
105.057200 8031.200000
105.069700 10510.100000
106.065000 17776.100000
107.049100 18296.200000
109.028500 14136.300000
109.064800 16644.800000
111.043900 19563.600000
115.054200 53242.400000
116.049400 20017.500000
116.062000 36142.400000
117.057200 66894.200000
117.069900 39616.600000
118.065000 85301.200000
119.049100 10840.800000
119.073100 7007.400000
119.085700 25525.000000
121.028300 133401.500000
121.064800 222107.300000
122.036200 138034.000000
123.043900 5770.500000
125.023600 5725.200000
126.045900 4195.100000
127.054200 6702.000000
128.049400 31701.700000
128.062000 75413.600000
129.057200 629244.400000
130.065100 1074038.200000
131.049300 13487.600000
131.072900 78955.300000
131.085200 4663.900000
132.044500 12303.800000
132.057000 19674.000000
133.052200 27987.300000
133.064800 15002.500000
134.060000 47684.600000
134.072500 15544.700000
135.044000 222851.900000
136.075500 4362.300000
137.059700 6394.600000
139.039000 27159.900000
139.054400 12966.400000
140.049000 3958.000000
141.057200 5257.000000
141.070000 17892.900000
142.065000 38779.600000
143.072900 143925.800000
143.085400 8620.200000
144.056900 284643.800000
144.080800 61196.300000
145.052400 19359.400000
145.064700 40919.400000
145.088600 11684.300000
146.060000 360264.600000
147.043800 48727.300000
147.067800 15291.100000
147.080400 52260.800000
148.075600 14174.200000
149.023300 415397.800000
149.096000 70849.500000
151.054200 4079.200000
152.062000 175887.000000
153.057700 6889.700000
153.069800 93644.000000
154.065100 75903.700000
154.077500 7628.500000
155.072900 141187.500000
156.080800 365860.000000
157.052100 15637.100000
157.088500 139993.800000
159.068000 16841.000000
159.080400 233191.400000
160.075700 5642.100000
160.111900 13189.700000
161.047000 8365.300000
161.059600 8708.500000
161.083500 51058.600000
162.067500 74060.300000
163.053700 4103.500000
165.069800 277553.700000
166.065100 44895.100000
166.077300 31711.700000
167.073000 146094.500000
167.085300 105068.500000
168.057000 11763.600000
168.080700 117924.400000
169.064800 44853.500000
169.088500 26479.400000
170.060200 15829.100000
170.096300 95299.000000
171.067900 5419.400000
171.104100 29092.000000
172.112000 111954.500000
173.120100 21182.000000
174.055000 176883.000000
175.075300 12729.100000
176.062000 14408.700000
177.057300 35705.800000
177.070200 28423.800000
177.090900 144443.500000
178.065100 154598.600000
178.077200 24043.100000
179.072900 155738.600000
180.080700 553942.600000
181.064700 56298.600000
181.088500 216305.300000
182.059700 22899.700000
182.096400 70780.400000
183.068100 14697.600000
183.080100 6772.800000
184.075900 8360.300000
185.047100 5068.400000
187.062600 27903.100000
188.107100 15000.000000
190.064900 44947.000000
191.072900 252598.500000
192.080700 631250.200000
193.088600 1521566.200000
194.096400 1730077.900000
195.067800 69082.600000
195.080300 22446.800000
195.104100 65006.300000
196.075600 107480.000000
197.083300 29352.000000
198.055200 7796.200000
198.090600 18106.200000
199.062800 11520.900000
202.077800 4917.700000
203.072900 6206.800000
203.085100 6840.500000
204.080700 91489.800000
205.052400 8328.500000
205.064600 5975.100000
205.088400 69272.000000
206.060000 105019.000000
206.096400 309091.900000
207.067800 119249.400000
207.104200 128145.200000
208.075600 263568.600000
208.111800 45001.800000
209.059500 21713.000000
209.083400 170889.800000
209.094900 8802.100000
210.054700 8031.900000
210.091200 120445.800000
211.063300 9023.400000
211.074300 4064.200000
211.099400 6472.400000
212.071200 6288.100000
217.088600 18557.500000
218.060100 12765.000000
218.096300 55080.600000
219.067800 126546.200000
219.104500 36954.900000
219.115700 7745.700000
220.075600 775951.800000
220.111700 83950.100000
221.083400 447126.600000
221.119500 43021.700000
222.091200 747713.900000
223.062900 20680.500000
223.075400 15174.700000
223.099100 234823.000000
223.135200 32688.000000
224.070400 63487.800000
224.107100 13422.500000
224.143100 53323.100000
225.078100 28401.800000
226.086400 6894.800000
230.096000 9114.500000
231.104000 12380.300000
232.075700 21298.900000
232.112200 19843.000000
233.083300 60754.700000
233.119900 10286.500000
234.055000 23397.800000
234.091200 130628.200000
234.127500 123759.000000
235.063400 27206.000000
235.075700 6193.300000
235.099100 95690.400000
235.135800 14989.900000
236.070500 115715.000000
236.107000 59599.600000
236.143200 356910.100000
237.078300 278455.900000
238.086100 107466.600000
238.122700 7998.000000
238.158700 9479.500000
239.093800 18171.300000
244.112300 9598.200000
246.091100 29566.900000
246.128000 13242.100000
247.062600 42769.600000
247.099000 36900.300000
247.135900 10621.200000
248.070600 151966.700000
248.106700 88526.100000
248.143200 8918.700000
249.078400 181318.700000
249.114600 30026.000000
250.086100 2557609.500000
251.093900 1106078.600000
252.065500 37994.300000
252.102200 36586.300000
252.138200 33884.700000
253.073100 227330.200000
254.081500 4603.000000
255.104600 4063.400000
256.112100 6454.800000
259.098500 4208.900000
260.107100 24399.100000
260.143200 12281.500000
261.077900 16616.800000
261.114400 18784.000000
261.150600 6483.000000
262.086300 50908.500000
262.122500 100889.000000
263.057800 42592.400000
263.093800 214111.000000
263.129600 11556.600000
264.066500 25904.100000
264.101900 180492.000000
264.137900 123288.900000
265.073500 8855.000000
265.109900 13540.900000
265.146000 13202.600000
266.080900 84825.400000
266.097400 4407.000000
266.153900 30964.000000
267.088900 33419.900000
267.104700 7650.300000
267.125300 6046.700000
268.112000 8414.000000
269.120000 4655.200000
270.091500 4475.600000
270.127300 4124.700000
274.086000 13345.200000
274.122500 11922.000000
275.093900 13037.700000
275.131300 6836.700000
276.065500 227081.500000
276.101500 128935.600000
276.137600 36139.300000
277.073100 243172.500000
277.108900 52861.800000
278.080900 19227.400000
278.097900 4718.500000
278.117400 27362.100000
278.153500 5779.900000
280.096600 15853.000000
280.113400 6700.800000
280.132500 26427.800000
281.068100 29385.900000
283.099500 6259.400000
284.106200 10298.500000
290.080600 24059.000000
290.117300 21562.900000
290.153600 27452.000000
291.125100 9774.200000
292.132900 68104.500000
293.140600 54635.800000
294.148600 175716.600000
295.099600 5789.700000
296.107000 14092.100000
297.114900 16631.900000
298.122000 16553.300000
299.130100 31851.800000
304.168300 20208.000000
308.107100 6059.900000
308.127600 7773.400000
310.122800 12748.400000
311.094100 8947.800000
311.131200 9558.000000
312.101700 15861.700000
312.138600 9973.200000
313.109800 6684.600000
314.119000 4421.300000
320.127600 17321.300000
324.101800 11581.400000
325.109400 35186.500000
326.117000 34928.000000
327.124900 45400.900000
337.111000 9349.200000
338.117100 19928.900000
339.124700 10787.500000
340.096500 14895.300000
340.132400 24696.000000
340.170000 9174.800000
341.104200 6107.300000
350.116600 8177.400000
352.132800 7876.600000
353.104500 10200.600000
354.112400 36499.600000
355.120700 10569.400000
356.127800 13684.000000
364.133200 7017.300000
365.142700 5618.800000
368.128300 63657.000000
368.163700 25626.800000
369.136000 15888.200000
369.171000 8790.400000
370.143800 37876.900000
370.180700 19953.400000
380.163600 7166.300000
382.147900 7047.500000
382.180600 15236.000000
384.160800 8095.300000
396.159500 27043.700000
398.175400 26357.300000
410.140100 4347.700000
410.174600 7214.600000
412.191200 12689.500000
424.190500 6247.400000

>ms2peaks
51.022900 7854.300000
53.002200 25556.100000
53.038500 45647.100000
55.054300 9106.300000
57.069900 10740.700000
63.023000 13383.600000
65.038500 309878.900000
67.054100 12071.600000
68.997100 31216.700000
69.033500 9318.900000
77.038500 26949.400000
78.046300 51577.600000
79.054200 61824.900000
80.049500 23373.300000
81.033400 7897.000000
89.038400 24589.200000
91.054200 400912.300000
93.033500 7673.400000
93.057300 13843.500000
93.069900 12655.000000
94.041300 7571.500000
94.065000 3449.200000
95.012800 23267.500000
95.049100 119294.200000
102.046400 97046.400000
103.054200 415692.800000
104.049400 87588.100000
104.062000 16149.500000
105.033600 31840.200000
105.057300 21042.700000
105.069900 21623.700000
106.065000 20713.000000
107.049000 27141.100000
109.028300 11331.900000
109.064800 21123.400000
111.044200 21008.300000
115.054200 141174.000000
116.049400 49693.000000
116.062000 72516.200000
117.057300 132267.200000
117.069900 40804.000000
118.065100 131678.000000
119.049100 26610.600000
119.072700 6322.300000
119.085600 17962.600000
121.028400 180375.800000
121.064700 156869.100000
122.036200 120572.200000
125.023200 8468.400000
127.054000 29837.900000
128.049500 78384.500000
128.062000 115130.800000
129.057300 719200.200000
130.065100 891915.100000
131.049000 34278.400000
131.072900 71233.500000
131.085400 3651.700000
132.044400 12174.000000
132.056900 17667.300000
132.080600 10657.400000
133.052200 22904.600000
133.064600 11691.600000
134.060000 45621.400000
134.072300 17067.200000
135.044000 157568.700000
136.075400 5488.300000
139.039000 36644.000000
139.054100 36824.100000
140.049400 20179.300000
141.057200 14681.200000
141.069800 49958.900000
142.065100 72620.200000
143.072900 170417.100000
144.057000 207363.200000
144.080700 49201.500000
145.052000 27030.100000
145.064800 49488.900000
145.088700 5843.400000
146.060000 344065.400000
147.044000 74880.400000
147.067800 17268.500000
147.080500 23729.700000
148.075500 10455.300000
149.023400 219659.900000
149.096100 30237.300000
151.054200 21500.100000
152.062000 585734.400000
153.058200 24415.200000
153.069800 167070.800000
154.065100 202390.300000
154.077500 13560.400000
155.072900 155945.300000
156.080700 514234.400000
157.052300 22403.200000
157.088500 66470.200000
159.068100 8670.300000
159.080500 70929.000000
160.075700 9374.600000
161.047100 17980.600000
161.059500 5092.300000
161.083500 56645.800000
162.067400 45786.500000
162.091200 7668.000000
163.053900 12615.500000
165.069900 831216.400000
166.065200 108495.400000
166.077600 76318.300000
167.072900 412592.600000
167.085000 109162.200000
168.057000 57552.100000
168.080700 176567.700000
169.064700 220818.900000
169.088200 26760.300000
170.059900 45427.600000
170.096400 38519.100000
171.067500 11728.600000
171.104000 14572.200000
172.112000 26814.300000
173.119800 14676.500000
174.055000 72835.800000
176.061900 54891.300000
177.057200 160523.800000
177.069700 59170.500000
177.090500 17952.900000
178.065100 486594.500000
178.077500 54292.100000
179.072900 307110.300000
180.080700 783741.900000
181.064700 63517.500000
181.088500 269149.900000
182.059900 36581.800000
182.096500 61106.900000
183.068100 25912.400000
183.079800 8753.800000
184.075500 13918.900000
185.046900 12141.700000
185.059000 4708.600000
187.062800 20737.400000
188.107000 4729.100000
190.065200 239800.700000
191.073000 862923.900000
192.080700 1388042.600000
193.088600 2195615.500000
194.096400 1162756.100000
195.067700 118824.800000
195.080100 25617.200000
195.104100 51025.600000
196.075600 152697.900000
197.083600 36710.500000
198.055100 6533.500000
198.091600 6694.800000
199.062400 23600.800000
202.077500 13571.800000
203.072800 25718.100000
203.084300 6533.000000
204.080700 279118.800000
205.051900 15724.900000
205.064400 10839.200000
205.088600 151854.600000
206.060100 128479.800000
206.096400 544246.300000
207.067800 124150.700000
207.104200 83775.800000
208.075600 232528.500000
208.111900 30128.500000
209.059600 18491.300000
209.083500 163849.100000
209.094700 9052.600000
210.054700 13683.500000
210.091100 82234.900000
211.062400 18487.900000
211.074000 6775.500000
212.070400 6957.500000
217.088500 56093.800000
218.060100 33570.800000
218.096300 139057.900000
219.067800 199321.100000
219.104100 51183.500000
220.075600 824779.300000
220.111700 138826.800000
221.083400 315534.800000
221.119300 22258.600000
222.091200 548968.900000
223.062500 31967.600000
223.074800 10261.000000
223.099100 110364.300000
223.135200 22912.600000
224.070500 83993.400000
224.106500 13249.600000
224.142500 11377.100000
225.078300 30630.900000
230.096300 25251.800000
231.104500 17498.500000
232.075500 47865.300000
232.111800 28103.200000
233.083400 80135.200000
233.119200 13618.600000
234.054800 21428.000000
234.091400 151039.200000
234.127600 72407.800000
235.062400 29069.200000
235.075000 7173.800000
235.098900 51298.400000
235.135500 8048.700000
236.070500 91240.700000
236.107000 37829.900000
236.143300 109982.700000
237.078300 130358.100000
238.086100 61146.600000
238.122200 4271.800000
239.094100 6410.600000
244.111600 13833.700000
245.119700 9498.100000
246.091200 47584.300000
246.127800 4586.500000
247.062100 18791.300000
247.098800 42523.900000
247.135500 11719.200000
248.070600 145509.300000
248.106800 79369.100000
248.142600 9509.600000
249.078300 111352.600000
249.114600 12217.700000
250.086100 1169846.000000
251.093900 328439.300000
252.065300 30587.000000
252.101800 13682.500000
252.138500 7421.100000
253.073400 84140.800000
255.104500 10592.300000
256.112300 8900.600000
259.099100 7476.300000
260.106800 26924.700000
260.143000 11725.200000
261.077900 9361.200000
261.114900 10413.500000
261.150900 6965.600000
262.086300 40506.300000
262.122300 24364.800000
263.058000 19071.400000
263.094000 98835.400000
264.065800 10024.000000
264.101900 90643.900000
264.137700 28252.900000
265.073400 6582.600000
266.081200 55303.000000
266.096300 8980.100000
267.089100 8108.600000
267.103900 18404.700000
267.124300 3548.000000
268.112000 45266.700000
269.119900 16468.200000
270.090600 4850.500000
270.127300 19757.700000
274.086600 10089.200000
275.094700 6622.500000
275.130200 6264.100000
276.065500 198228.100000
276.101600 73299.400000
276.138400 24527.300000
277.073000 37192.000000
277.109300 16539.700000
278.081000 5263.400000
278.096400 7145.700000
278.117300 7111.700000
280.096100 9819.200000
280.112100 17261.200000
280.132600 7462.000000
281.067300 5426.900000
283.098700 18920.200000
284.107300 19301.700000
290.080800 8985.100000
290.117800 5689.400000
290.153900 10234.000000
294.148600 15220.000000
295.098800 15830.700000
296.107000 40402.200000
297.114800 37230.600000
298.122500 52740.600000
299.130600 70694.100000
308.106200 14497.500000
310.122700 26952.400000
311.094100 20601.700000
311.130000 9370.100000
312.102300 22505.400000
312.137600 6028.800000
313.109700 12339.000000
314.118400 4541.900000
324.101600 36737.100000
325.109700 84373.800000
326.117300 56076.200000
327.125200 39824.300000
337.109600 9525.700000
338.118400 32300.700000
339.124800 14492.000000
340.096700 8506.800000
340.132100 17161.100000
341.103700 4012.600000
350.117200 9769.400000
352.132500 5969.600000
353.104100 13051.000000
354.112900 22580.100000
364.132000 4600.600000
368.128000 35159.900000
368.164800 7857.100000
369.135600 3621.200000
370.143300 5275.500000

