>compound LU45642264
>parentmass 211.12300000000002
>ionization [M+H]+
>formula C14H14N2
>rt 847.200000
>profile orbitrap
#smiles_iso CCN1C2=C(C=C(C=C2)N)C3=CC=CC=C31
#smiles_can CCN1C2=C(C=C(C=C2)N)C3=CC=CC=C31
#inchikey OXEUETBFKVCRNP-UHFFFAOYSA-N
#pubchem_id 8588
#mb_accession LU080901,LU080902,LU080903,LU080904,LU080905,LU080906

>ms2peaks
182.084000 238689.200000
183.092000 19000.700000
194.096900 9030.100000
210.115500 7857.200000
211.122800 5790364.000000

>ms2peaks
179.072600 6152.800000
182.083900 603391.200000
183.091800 57738.600000
194.096600 17948.500000
195.091200 5873.000000
195.103900 8337.100000
210.115300 30869.300000
211.122700 5209954.500000

>ms2peaks
137.011600 6992.700000
145.088600 10480.300000
166.065200 72838.900000
167.072900 6853.200000
168.080500 2642.500000
170.096500 7541.400000
179.073100 25494.000000
180.080900 29913.900000
181.076100 17467.800000
182.083900 2618876.000000
183.091700 255301.200000
184.112000 8962.600000
194.096500 85191.700000
195.091900 29944.900000
195.104300 84480.200000
209.107400 16634.400000
210.115300 154959.500000
211.122900 2594298.500000

>ms2peaks
117.057300 5238.400000
130.065100 8132.200000
137.011900 10955.000000
145.088800 14464.800000
152.062200 5257.000000
154.065100 5328.700000
155.073000 8391.500000
156.081200 7951.700000
166.065200 190105.800000
167.073000 46801.800000
167.085600 8724.200000
168.080800 6480.900000
170.096300 5128.500000
178.065600 7541.000000
179.073100 177832.300000
180.080900 144914.400000
181.076000 76335.500000
182.084000 3625692.000000
183.091700 241368.300000
184.111700 12840.800000
192.081000 6674.300000
193.089000 25357.500000
194.096600 101153.500000
195.091900 162283.700000
195.104300 80139.300000
209.107600 19648.300000
210.115300 173355.500000
211.123100 529117.100000

>ms2peaks
115.054400 5006.100000
116.049900 4921.700000
117.057600 7076.100000
129.057600 3435.900000
129.070100 5591.100000
130.065100 43102.200000
137.011700 12407.100000
139.054400 12649.800000
140.049800 4813.600000
141.070000 3452.100000
143.073300 6176.500000
145.088800 6871.700000
152.062200 31936.400000
153.057700 7453.700000
153.070300 5299.900000
154.065200 25404.800000
155.061300 4848.600000
155.073000 49718.300000
156.080800 16720.400000
165.057300 7267.700000
165.069800 10982.100000
166.065200 206672.800000
167.073100 110643.200000
167.084600 10387.200000
168.081200 16862.600000
178.065100 75794.800000
179.073100 335594.700000
180.080800 206306.700000
181.076100 369488.100000
182.083900 2859358.800000
183.091700 90399.400000
184.112100 3908.400000
192.080700 15911.700000
193.088700 50899.500000
194.096500 47968.800000
195.091800 313040.900000
195.103900 29941.800000
209.107100 10221.300000
210.115300 67999.200000
211.123100 49807.600000

>ms2peaks
115.054200 11162.400000
116.049600 5189.500000
117.057300 11910.800000
129.057400 16184.900000
129.070000 10961.300000
130.065200 101301.400000
137.011900 6558.600000
139.054200 39237.600000
140.049400 36749.800000
141.070000 5375.200000
143.073000 5776.800000
152.062200 103503.600000
153.057400 39752.500000
153.070000 6815.100000
154.065100 130577.600000
155.060500 15926.500000
155.073000 123632.900000
156.080900 23280.800000
165.057500 28173.400000
165.069900 29778.000000
166.065200 184620.600000
167.073000 166732.200000
168.081100 16808.600000
176.062500 3566.900000
178.065200 405245.800000
179.073200 373114.900000
180.080900 225205.600000
181.076100 1018025.900000
182.083900 1682441.500000
183.091700 29152.800000
192.080900 33642.600000
193.088800 37309.000000
194.096700 17076.400000
195.091800 351008.100000
209.107000 5332.200000
210.115500 13019.200000

