>compound LU45776841
>parentmass 381.0323
>ionization [M+H]+
>formula C18H15Cl3N2O
>rt 1009.080000
>profile orbitrap
#smiles_iso C1=CC(=CC=C1COC(CN2C=CN=C2)C3=C(C=C(C=C3)Cl)Cl)Cl
#smiles_can C1=CC(=CC=C1COC(CN2C=CN=C2)C3=C(C=C(C=C3)Cl)Cl)Cl
#inchikey LEZWWPYKPKIXLL-UHFFFAOYSA-N
#pubchem_id 3198
#mb_accession LU064601,LU064602,LU064603,LU064604,LU064605,LU064606

>ms2
69.044600 43504.300000
125.014700 252811.900000
193.052600 90643.800000
381.032000 14693053.000000

>ms2
69.044700 1309253.600000
89.038300 18996.700000
125.015200 12892148.000000
158.976600 26665.000000
193.052700 774830.900000
282.984000 52075.100000
381.032200 4574091.000000

>ms2
69.044700 1163383.900000
82.052600 29180.600000
89.038400 121514.700000
98.999400 45010.400000
125.015100 21518374.000000
158.976600 24538.200000
193.052700 48053.900000
248.015200 35892.900000
381.032400 77856.100000

>ms2
63.022700 39323.000000
69.044700 894598.500000
81.044700 48728.300000
82.052600 68247.900000
89.038500 599605.400000
90.046300 66343.200000
98.999600 212960.300000
125.015100 21996728.000000
137.015300 22086.200000
158.976500 33454.600000
170.975900 24476.200000
171.983700 22773.600000
212.038300 22732.600000
248.015100 27056.100000

>ms2
63.022800 101980.900000
65.038500 38977.900000
66.046400 43878.400000
69.044700 624333.900000
72.983800 35527.700000
74.999600 20111.300000
79.054200 19961.800000
81.044700 77468.700000
82.052500 64628.700000
89.038500 1826336.000000
90.046400 300944.400000
98.999600 737597.900000
125.015200 16747397.000000
137.015200 25943.800000
158.976400 22159.400000
171.983900 20727.700000
178.077700 37509.000000
212.038400 18538.300000

>ms2
62.014900 28064.300000
63.022900 332561.000000
65.038500 126425.400000
66.046300 149549.800000
69.044700 532299.500000
72.983900 136019.100000
74.999500 78953.100000
79.054200 30904.600000
81.044700 131829.900000
82.052500 72432.200000
89.038500 3969592.500000
90.046400 903332.100000
91.054300 23228.800000
94.041200 17837.900000
98.999600 1874995.900000
102.046300 19448.600000
125.015200 13440977.000000
136.007000 23080.300000
137.015000 30184.800000
158.976600 19481.900000
178.077600 54641.400000
212.038600 14844.000000

