>compound LU46696230
>parentmass 285.0756999999999
>ionization [M+H]+
>formula C16H12O5
>rt 1064.520000
>profile orbitrap
#smiles_iso COC1=CC=C(C=C1)C2=COC3=CC(=CC(=C3C2=O)O)O
#smiles_can COC1=CC=C(C=C1)C2=COC3=CC(=CC(=C3C2=O)O)O
#inchikey WUADCCWRTIWANL-UHFFFAOYSA-N
#pubchem_id 5280373
#mb_accession LU096001,LU096002,LU096003,LU096004,LU096005,LU096006

>ms2peaks
270.051100 13420.100000
285.075600 7471089.000000

>ms2peaks
123.044100 26516.300000
149.023300 28142.100000
152.010500 9307.600000
153.018200 13822.800000
170.020900 25407.300000
179.034000 9302.800000
229.086000 55353.900000
253.049400 25640.900000
257.080900 23366.100000
269.044200 8949.400000
270.052100 94956.700000
285.075700 6986929.000000

>ms2peaks
67.017800 7323.500000
68.996900 12669.900000
79.054100 4383.600000
103.054300 11488.000000
105.069900 22079.000000
107.049100 46230.800000
111.007600 7619.400000
118.041300 92260.200000
119.049200 9113.700000
121.028400 11346.800000
123.044000 269202.200000
124.015500 30899.500000
131.049200 8704.700000
133.064700 58796.900000
135.043900 8988.500000
139.039000 28724.800000
145.065000 6328.500000
147.044100 6349.600000
149.023300 268998.200000
151.038900 5040.300000
152.010400 147247.400000
153.018200 161004.500000
158.036200 26801.300000
159.044300 3829.700000
159.080300 5590.700000
161.059800 3955.900000
161.095900 7065.800000
163.038900 18927.200000
167.033800 9465.900000
169.064600 9504.300000
170.020900 499814.900000
173.060000 11363.600000
179.033900 92788.300000
183.044100 6481.000000
183.080500 9788.000000
184.036700 39443.500000
186.067400 4357.300000
187.075300 10025.000000
192.041700 6240.400000
197.059500 29721.100000
199.075700 7258.700000
200.046800 3933.600000
201.054700 27760.200000
201.090800 10366.700000
211.075100 7768.000000
213.054600 47098.100000
214.062600 19722.900000
215.070900 13389.600000
216.041300 3594.900000
224.046900 4074.900000
225.054600 11800.700000
226.062400 7834.900000
229.086000 491048.800000
239.070000 7086.800000
241.049000 16889.100000
242.057300 255200.000000
243.065000 4833.200000
252.041600 64192.400000
253.049500 346700.600000
254.056000 3834.800000
255.065100 16393.800000
257.080800 41368.400000
261.075800 4059.200000
267.064600 7224.300000
269.044400 240361.900000
270.052200 838810.700000
285.075700 3470581.000000

>ms2peaks
55.017800 6415.800000
65.038500 8477.500000
66.046300 4215.600000
67.017800 27615.900000
67.054200 2736.500000
68.025500 3714.200000
68.997000 72992.100000
78.009900 4786.500000
79.054100 35877.200000
81.033500 4050.100000
84.020500 5454.100000
89.038300 2920.900000
90.046400 29310.600000
91.054100 14768.400000
95.012700 24052.300000
95.049200 20391.100000
96.020500 4333.600000
97.028400 3144.700000
103.054200 43059.200000
105.033500 4763.600000
105.069900 62545.800000
107.049100 44560.200000
108.057300 3388.100000
109.064500 3353.600000
111.007600 40639.900000
111.044000 6825.600000
115.054200 8925.800000
117.033600 6443.100000
117.070000 2752.500000
118.041300 300112.500000
119.049100 23239.600000
121.028300 55718.400000
121.064700 22454.600000
123.044000 277215.500000
124.015500 297407.100000
126.030700 5080.500000
128.062000 4535.700000
129.069600 8259.600000
130.041400 7557.400000
131.049200 23778.300000
132.020600 14073.800000
132.057000 16004.300000
133.064700 163002.800000
135.044100 18992.300000
137.023300 4952.200000
139.039000 25244.300000
140.061900 2594.400000
141.069900 30689.400000
144.057200 16463.300000
145.028500 10395.800000
145.064800 39841.100000
146.072600 9745.000000
147.043900 6581.200000
148.051800 3086.100000
149.023300 341940.800000
151.039100 6320.700000
152.010400 221636.700000
153.018200 333132.700000
155.048900 8609.200000
156.056700 3790.300000
157.064600 7064.800000
158.036200 261083.500000
158.072500 20900.800000
159.043500 10907.200000
159.080400 14072.700000
160.051900 5778.700000
161.059500 21234.000000
161.095800 22717.100000
163.038800 21600.000000
165.070100 4484.300000
167.033900 13591.100000
168.056900 28629.500000
169.064800 37795.500000
170.020900 690560.800000
171.043700 8605.100000
171.080200 4784.900000
172.051800 20146.800000
173.059700 28242.100000
173.095800 4931.100000
175.038700 4592.700000
176.046600 10997.400000
179.033900 84651.400000
181.064600 10661.200000
183.044300 21854.800000
183.080400 24482.500000
184.036600 48463.700000
184.050700 13014.000000
185.059700 29037.200000
186.030800 4298.100000
186.067500 63743.100000
187.075200 19264.700000
192.041000 4710.100000
196.051900 24273.200000
197.059700 156233.500000
198.067400 20378.200000
199.075400 9209.700000
200.046700 18408.100000
201.054700 28102.000000
201.090900 15293.800000
210.031300 4629.400000
211.038700 13137.400000
211.075400 17542.500000
212.047300 12391.900000
213.054600 559953.700000
214.062400 106220.600000
215.069900 5578.500000
216.041500 24593.100000
224.046600 17734.700000
225.054500 67860.700000
226.062500 18883.700000
227.033600 6397.700000
228.042200 5468.200000
229.085900 377948.100000
239.069800 9408.500000
241.049500 190607.000000
242.057200 783052.400000
243.064800 4045.800000
252.041700 72197.700000
253.049500 423006.600000
254.057100 3293.700000
255.064800 6407.100000
257.081000 11354.700000
261.075900 3626.300000
267.064600 6533.700000
269.044400 557969.400000
270.052100 529099.000000
285.075600 467677.900000

>ms2peaks
50.015200 2844.800000
52.030800 2725.800000
53.002300 3382.500000
53.038600 17878.400000
55.017900 22182.600000
63.023000 2809.500000
65.038500 27438.400000
66.010000 3726.300000
66.046300 35047.100000
67.017800 60877.800000
67.054100 11407.300000
68.025600 19889.300000
68.997000 166615.900000
69.033400 18116.100000
71.012700 5190.600000
76.030700 2899.200000
77.038600 6677.700000
78.010000 7416.000000
78.046400 8103.500000
79.017900 6792.600000
79.054200 97843.400000
81.033500 7959.900000
83.012700 5131.500000
84.020700 5486.800000
89.038500 48800.800000
90.046400 195462.400000
91.017700 4094.000000
91.054200 30893.700000
92.025700 9108.400000
94.041300 6065.000000
95.012700 32257.200000
95.049200 56247.700000
96.020600 27909.500000
97.028400 9381.200000
102.046400 24236.100000
103.054200 93009.400000
104.062200 4662.400000
105.033400 11045.900000
105.069900 52990.400000
106.041200 3841.300000
107.049100 23576.300000
108.020700 4026.700000
108.056900 5510.600000
109.065000 3434.200000
111.007700 61521.600000
111.044100 5799.200000
115.054200 53155.600000
116.062000 13148.000000
117.033400 47337.400000
117.070000 17273.800000
118.041300 378282.600000
119.049200 19036.100000
121.028400 96502.500000
121.064900 49638.000000
123.044100 135410.300000
124.015500 516390.800000
125.023400 2717.700000
126.031100 16193.500000
127.054300 4084.200000
128.062100 19043.100000
129.033700 3680.700000
129.069800 28840.500000
130.041400 28243.900000
130.077800 9203.300000
131.049100 51429.500000
132.020700 8536.700000
132.057000 26606.300000
133.064800 145445.400000
134.036400 7673.700000
135.044000 18559.600000
137.023200 8076.100000
139.038900 6906.900000
139.054300 10949.800000
140.062000 24619.800000
141.069800 78756.000000
143.049100 11253.600000
144.057000 38985.800000
145.028600 14070.200000
145.064900 71197.000000
146.072600 6526.100000
147.044300 10180.100000
148.052100 3353.100000
149.023400 142785.300000
151.039400 2449.600000
152.010400 99110.900000
152.062000 22624.500000
153.018200 337888.200000
155.049200 24121.200000
156.057100 7038.600000
157.064800 37558.900000
158.036300 319309.100000
158.072500 37386.600000
159.044100 23560.600000
159.080500 14181.500000
160.051800 9813.900000
161.059900 14507.100000
161.096200 5129.600000
163.038800 12774.400000
165.070400 4584.700000
167.033800 4517.300000
168.057000 106131.200000
169.064900 66898.700000
170.021000 294961.500000
171.044100 52246.100000
171.080700 5092.600000
172.052000 24737.200000
173.059800 23184.400000
173.096000 3505.300000
175.039100 8336.200000
176.046900 16335.900000
179.033800 25502.900000
179.049100 4657.100000
181.064800 12127.900000
182.036300 3062.100000
183.044200 27187.100000
183.080400 19157.800000
184.037000 18232.200000
184.051800 34260.800000
185.059800 141660.300000
186.031500 5696.300000
186.067600 99217.400000
187.038900 5468.400000
187.075400 9273.400000
188.046800 5845.400000
195.044800 4919.900000
196.052100 34215.900000
197.059800 213383.000000
198.067900 14825.500000
199.038900 15218.400000
199.075400 3925.900000
200.046700 33375.000000
201.054400 13837.000000
201.090800 5115.400000
203.034000 5703.900000
210.031200 3075.100000
211.039300 13783.000000
211.075500 10168.100000
212.046900 18850.500000
213.054600 1071010.900000
214.062500 106514.900000
216.041700 64563.800000
224.046600 32833.100000
225.054600 91642.800000
226.062500 13316.700000
227.033800 16325.600000
228.041700 7958.700000
229.086000 82159.400000
241.049500 361953.600000
242.057300 317306.500000
252.042000 20827.100000
253.049500 188843.800000
269.044500 343357.200000
270.052200 63521.900000
285.075800 22297.500000

>ms2peaks
50.015200 4950.900000
52.030800 2713.500000
53.002200 11032.700000
53.038600 30199.700000
55.017900 33523.800000
63.022900 10545.100000
65.038500 56305.700000
66.010000 6277.800000
66.046300 74235.100000
67.017800 82799.800000
67.054200 12684.600000
68.025600 46415.400000
68.997000 312841.300000
69.033400 28354.700000
71.012600 6248.000000
76.030700 3386.500000
77.038300 14158.300000
78.009900 30268.700000
78.046400 14878.300000
79.017900 13184.800000
79.054200 105938.600000
81.033400 14699.200000
83.012800 9671.000000
84.020500 6201.700000
89.038600 198192.300000
90.046400 442552.900000
91.017900 5112.000000
91.054300 57294.800000
92.025600 20821.300000
94.041300 9114.300000
95.012800 21862.500000
95.049100 100432.300000
96.020600 40215.600000
97.028400 19881.600000
102.046400 87303.900000
103.054200 111478.800000
104.062000 9130.700000
105.033500 19979.500000
105.069900 25716.800000
106.041300 3849.100000
107.049200 12306.800000
108.020500 8528.800000
108.057000 4649.200000
109.064800 3571.000000
111.007600 47466.100000
111.044100 8901.900000
115.054200 167499.900000
116.062000 30300.600000
117.033400 74392.000000
117.069800 30133.200000
118.041300 315202.800000
119.049100 21019.100000
121.028400 85047.000000
121.064700 36329.100000
123.044000 43203.200000
124.015500 453809.000000
125.023700 3721.800000
126.031200 30176.700000
127.054100 12065.100000
128.062000 65332.100000
129.033400 6210.200000
129.069800 80241.700000
130.041400 42895.200000
130.077700 9847.000000
131.049200 73485.300000
132.056900 22280.600000
133.064700 67155.600000
134.036300 8033.700000
135.043900 15185.400000
137.023200 19381.600000
139.054100 61648.300000
140.062000 51434.400000
141.069800 111958.300000
143.049100 43436.600000
144.056900 37970.700000
145.028500 16494.500000
145.064800 74526.800000
146.072400 4431.400000
147.044100 16067.800000
149.023300 35750.500000
152.010400 29726.100000
152.061900 35555.200000
153.018200 223179.900000
155.049200 37839.800000
156.056700 4503.100000
157.064800 104762.500000
158.036200 151944.700000
158.072600 26352.800000
159.044000 20039.900000
159.080300 5395.000000
160.051800 18893.500000
161.060100 6306.700000
163.038900 6161.400000
165.069600 3641.500000
168.057000 112426.200000
169.064700 66967.300000
170.021000 96678.400000
171.044000 141330.100000
172.051900 8941.200000
173.059500 13218.400000
175.039000 10439.000000
176.046600 10327.700000
179.034300 5330.600000
179.049100 9866.400000
181.064700 9244.900000
182.035800 2283.900000
183.044100 22054.500000
183.080600 4005.800000
184.036600 7635.300000
184.051800 45092.800000
185.059700 237229.000000
186.067600 49989.400000
187.039400 10780.000000
188.046900 7639.600000
195.044100 15568.900000
196.051800 18198.700000
197.059700 170144.300000
198.067100 2827.600000
199.038900 28523.300000
200.046900 16312.800000
201.054500 9955.000000
203.034000 6441.400000
211.038700 10236.100000
211.075300 4653.000000
212.047000 4913.300000
213.054600 941934.100000
214.062100 33276.700000
216.041600 52625.200000
224.046500 15371.100000
225.054700 51092.100000
226.062000 4627.900000
227.033700 19842.900000
228.041000 2801.300000
229.086000 4768.900000
241.049500 296101.800000
242.057300 51164.100000
252.041600 3768.300000
253.049400 64558.700000
269.044400 117621.900000
270.052500 2920.700000

