>compound LU46755314
>parentmass 446.1857
>ionization [M+H]+
>formula C21H27N5O4S
>rt 981.180000
>profile orbitrap
#smiles_iso CC1=CN=C(C=N1)C(=O)NCCC2=CC=C(C=C2)S(=O)(=O)NC(=O)NC3CCCCC3
#smiles_can CC1=CN=C(C=N1)C(=O)NCCC2=CC=C(C=C2)S(=O)(=O)NC(=O)NC3CCCCC3
#inchikey ZJJXGWJIGJFDTL-UHFFFAOYSA-N
#pubchem_id 3478
#mb_accession LU046701,LU046702,LU046703,LU046704,LU046705,LU046706

>ms2peaks
83.085500 4539.500000
93.045100 2861.700000
100.112100 247061.300000
167.016400 3750.700000
286.064100 4561.900000
304.075000 20813.700000
321.101800 960350.400000
322.085700 18236.300000
347.081000 297324.500000

>ms2peaks
55.054200 2036.300000
83.085500 13190.600000
93.045100 3585.400000
100.112100 129301.500000
103.054500 6790.700000
107.049100 2223.400000
111.055400 6001.900000
120.055700 36153.700000
121.064900 6314.000000
131.060400 28063.500000
139.050300 29347.800000
148.021600 11874.600000
149.005800 4614.000000
150.066200 28417.200000
166.032200 15072.800000
167.016200 336118.800000
184.042800 12155.200000
201.046700 2076.000000
211.086300 2367.300000
222.102700 3461.200000
226.097300 3005.400000
240.113200 15740.500000
255.100000 4820.200000
256.108200 40345.700000
258.069800 5841.300000
286.064600 281775.900000
304.075200 159960.800000
321.101800 233816.100000
322.085900 30382.700000
347.081500 32255.000000

>ms2peaks
53.038600 6729.000000
55.054200 9616.100000
77.038400 4624.000000
79.054200 3584.300000
83.085600 26039.200000
93.069900 3123.700000
95.049300 14677.900000
95.060400 2119.100000
100.112100 56661.700000
103.054200 71152.700000
104.062100 3492.800000
105.044800 5854.000000
107.049100 22893.700000
111.055300 109532.900000
118.041200 3592.600000
119.049100 19729.800000
119.073100 7351.900000
120.055700 35519.600000
120.080800 4536.500000
121.064800 85307.900000
131.060400 201090.000000
139.021200 14124.900000
139.050300 106192.300000
148.021500 31238.000000
149.005600 18802.800000
150.066300 78918.400000
166.032200 23706.900000
167.016200 269803.900000
183.092000 4644.000000
184.043000 15557.200000
195.091500 2314.500000
201.046400 2412.600000
210.021700 6935.400000
211.086400 18140.500000
223.087400 2634.300000
226.097300 9323.800000
238.097400 15193.500000
240.113100 22174.100000
255.100000 2434.000000
256.108200 14795.200000
258.069600 14952.700000
286.064600 67647.700000
304.075000 4243.600000

>ms2peaks
52.018200 4022.900000
53.038600 15009.100000
55.017900 2289.400000
55.054300 16030.700000
66.033800 26632.000000
77.038600 6500.900000
79.054300 4030.700000
83.085600 36938.200000
91.054300 8953.500000
93.044800 4897.100000
93.070000 2676.200000
95.049300 39283.700000
95.060400 7480.000000
100.112100 20077.000000
102.046500 4864.700000
103.054300 252470.200000
104.049400 2504.400000
104.062100 15127.000000
105.044800 18629.700000
107.049200 26652.900000
111.055400 305888.200000
118.041200 4210.000000
119.049200 29769.100000
119.073100 16910.100000
120.055900 34342.700000
120.080900 10328.900000
121.064900 91551.500000
125.071000 5848.100000
131.060500 207999.600000
139.021300 16437.400000
139.050300 86634.700000
148.021700 17882.800000
149.005800 3789.100000
150.066300 54491.200000
166.032300 9904.100000
167.016200 36130.400000
168.080900 3206.900000
182.083900 2183.500000
183.091900 22618.400000
184.042800 2965.000000
184.099800 2195.200000
195.091900 5562.500000
201.046300 3060.400000
210.022500 3175.300000
211.086900 7744.900000
220.087100 1976.700000
222.102900 18033.900000
223.087200 3443.300000
226.097700 4007.600000

>ms2peaks
52.018200 15315.600000
53.038600 34098.800000
55.017900 2343.900000
55.054300 27628.400000
65.038600 3617.900000
66.033800 64208.200000
68.049500 2803.600000
77.038500 10903.600000
78.046400 3244.400000
79.054400 3007.200000
81.033600 5185.900000
83.085600 23449.700000
91.054300 30177.600000
92.062000 2037.500000
93.044800 6504.200000
93.070000 4375.400000
94.041300 2562.600000
94.052600 4763.900000
95.049200 80744.400000
95.060400 8604.000000
100.112100 5961.000000
102.046500 13413.700000
103.054300 302226.000000
104.049600 3119.100000
104.062000 20539.400000
105.044800 33713.500000
107.049200 21763.800000
111.055400 341755.700000
115.054300 2903.200000
118.041000 3834.800000
119.049200 17544.400000
119.072900 19922.800000
120.080800 11827.900000
121.064900 36773.800000
125.071000 4139.900000
126.042400 6504.800000
131.060400 59785.500000
134.059800 4415.200000
139.021200 8714.900000
139.050400 35090.500000
148.021600 4759.500000
150.066300 26352.200000
165.069900 4127.900000
166.032000 2778.500000
167.016200 2275.600000
167.080800 3126.800000
182.083800 3604.400000
183.092000 21748.600000
184.099600 3106.800000
195.091800 5493.200000
222.102700 3658.300000
238.097400 3242.000000

>ms2peaks
52.018200 32416.500000
53.038600 58238.400000
55.017800 2745.100000
55.054300 30468.700000
65.038600 5609.800000
66.033800 118064.200000
68.049500 3562.400000
77.038600 15098.600000
78.046300 6812.400000
79.054200 3596.300000
81.033500 4774.500000
83.085500 19225.400000
91.054300 41719.100000
92.062000 5070.300000
93.044700 12132.100000
94.041500 5002.500000
94.052500 6570.900000
95.049200 149766.100000
95.060600 12664.300000
102.046400 16295.600000
103.054300 214608.700000
104.049600 3065.200000
104.062100 18512.000000
105.044800 61994.300000
107.049200 14929.300000
111.055300 254890.500000
115.054300 7340.200000
119.049200 9325.700000
119.073000 12602.700000
120.055700 12039.000000
120.080900 5447.800000
121.064800 10302.900000
125.070900 3564.200000
126.042400 6285.700000
131.060400 13332.700000
134.060000 4549.100000
139.021500 3726.100000
139.050000 11230.300000
148.021700 2079.100000
150.066500 6899.800000
165.069800 5276.100000
167.081200 2690.100000
168.080700 2668.000000
182.083600 4106.900000
183.091800 7536.000000
220.087200 6870.700000

