>compound LU46387855
>parentmass 292.0266
>ionization [M+H]+
>formula C8H10ClN5O3S
>rt 670.380000
>profile orbitrap
#smiles_iso CN1COCN(C1=N[N+](=O)[O-])CC2=CN=C(S2)Cl
#smiles_can CN1COCN(C1=N[N+](=O)[O-])CC2=CN=C(S2)Cl
#inchikey NWWZPOKUUAIXIW-UHFFFAOYSA-N
#pubchem_id 107646
#mb_accession LU124101,LU124102,LU124103,LU124104,LU124105,LU124106

>ms2peaks
69.044700 3791.900000
99.055500 1885.000000
131.967000 118952.300000
174.973000 6003.900000
180.046500 4181.200000
181.054500 8740.200000
210.057100 58146.100000
211.065000 335567.200000

>ms2peaks
69.044700 3129.800000
122.071300 5978.000000
131.967100 190084.300000
138.012300 2620.100000
151.020300 2146.700000
160.993700 3089.800000
174.972800 10813.500000
179.039200 1661.600000
180.046600 24361.200000
181.054400 67758.000000
199.065100 6012.400000
210.057000 26127.200000
211.065100 210962.300000

>ms2peaks
61.010500 1960.100000
69.044700 32621.900000
70.995000 5464.100000
99.001000 6235.700000
112.021400 3063.300000
113.016900 3370.500000
122.071300 30735.600000
123.079200 2439.200000
125.016700 7349.400000
131.966900 253119.200000
138.012100 3619.100000
139.032400 6419.900000
151.019800 10061.700000
152.027700 22277.200000
160.993400 2006.900000
174.972700 11139.300000
179.038500 2475.200000
180.046400 16995.700000
181.054300 149407.000000
199.064900 13261.700000
210.057000 2985.200000
211.064900 51541.900000

>ms2peaks
57.044800 1839.400000
61.010700 2585.300000
67.041700 3918.500000
69.044700 46114.400000
70.995000 23202.200000
87.995000 2032.800000
95.060400 2698.800000
98.005800 2846.100000
99.001100 9512.700000
99.055100 1874.700000
108.055600 18771.400000
112.021500 4536.400000
113.016800 2859.300000
122.071300 43198.500000
123.079100 10899.500000
125.016800 15532.300000
131.967000 232974.400000
138.012200 7237.200000
139.032500 6524.700000
151.019900 13985.500000
152.027700 57783.600000
165.023100 2216.300000
174.972600 6789.000000
179.038600 2396.200000
180.046700 3668.200000
181.054300 60201.200000
199.064400 3906.300000
211.064800 3891.800000

>ms2peaks
61.010700 2430.500000
67.041700 7643.800000
69.044800 29260.200000
70.995100 45244.600000
78.940500 3285.700000
81.044800 4211.200000
82.982600 1655.100000
87.994900 2892.000000
95.060400 3586.400000
97.039700 2670.900000
98.005900 7151.800000
99.001300 5179.700000
108.055700 40756.400000
111.001100 1705.300000
112.021700 5476.300000
113.016900 2772.300000
122.071400 18079.000000
123.079300 7924.300000
124.009000 3238.700000
125.016800 14001.800000
131.967000 127379.600000
132.975100 4038.400000
138.012000 4282.500000
151.019800 8792.800000
152.027900 35752.700000
174.972700 2272.100000
181.054400 6472.800000

>ms2peaks
57.044800 4556.800000
67.041700 12253.200000
69.044700 24974.500000
70.995000 75131.600000
78.940400 5499.700000
81.044800 9086.600000
82.982500 3832.900000
87.994900 10847.700000
95.060500 4869.000000
97.039900 5681.400000
98.006000 18598.100000
99.001200 2913.600000
108.055700 60318.300000
111.001200 6367.800000
112.021700 5972.400000
113.016800 2431.100000
122.071300 15120.300000
123.079400 6675.700000
124.009000 6758.600000
125.016700 11669.400000
131.967000 111804.500000
132.975000 3465.300000
138.012300 6051.400000
151.020000 5686.300000
152.027800 17666.700000
165.022900 2057.800000

