>compound LU46129647
>parentmass 329.186
>ionization [M+H]+
>formula C19H24N2O3
>rt 815.040000
>profile orbitrap
#smiles_iso CC(CCC1=CC=CC=C1)NCC(C2=CC(=C(C=C2)O)C(=O)N)O
#smiles_can CC(CCC1=CC=CC=C1)NCC(C2=CC(=C(C=C2)O)C(=O)N)O
#inchikey SGUAFYQXFOLMHL-UHFFFAOYSA-N
#pubchem_id 3869
#mb_accession LU022001,LU022002,LU022003,LU022004,LU022005,LU022006

>ms2peaks
91.054800 76525.200000
133.100900 14570.700000
162.054700 82240.200000
164.070500 12855.600000
179.081500 156240.800000
190.086200 12237.400000
207.112900 463007.400000
294.148900 193495.200000
311.175300 7882572.500000
312.159100 52395.300000
329.186000 4079480.000000

>ms2peaks
77.038700 3386.600000
91.054200 1706485.000000
105.069900 8690.000000
133.101100 124734.000000
134.059800 6840.700000
136.075800 9871.500000
147.044200 12444.800000
148.111900 9393.500000
159.080600 3368.100000
161.059800 13330.500000
162.054900 3259664.200000
164.070500 549466.800000
165.054600 44370.400000
179.081500 1289746.400000
180.065400 85142.500000
190.086200 540549.400000
194.081200 68039.700000
207.112800 1614854.100000
208.096800 66901.900000
222.112200 9663.700000
252.102100 16589.500000
294.148800 2254625.200000
311.175300 2700028.500000
312.159300 511452.500000
329.186300 31348.600000

>ms2peaks
65.038500 36038.700000
79.054200 10444.100000
89.038400 7834.700000
91.054200 5150070.000000
92.049400 7629.700000
94.065200 18839.600000
95.049100 7058.900000
105.069900 19519.600000
106.065100 85604.500000
107.049100 35776.800000
116.049500 10812.300000
118.065000 10617.400000
119.049100 29870.100000
120.044300 36103.900000
121.064700 9216.200000
133.052100 9319.500000
133.101100 40667.400000
134.060000 267540.700000
135.043900 47478.000000
136.075700 40831.300000
144.044500 46677.800000
145.028100 17312.300000
146.060100 6225.500000
147.043900 49507.800000
148.075500 8148.700000
148.112200 17895.500000
159.080700 19120.900000
161.059800 34883.500000
162.054900 5943682.000000
163.038800 12228.200000
164.070500 558110.100000
165.054500 586812.700000
179.081400 200249.200000
180.065400 519259.100000
190.086200 565840.000000
194.081200 129300.200000
207.112700 133440.000000
208.096800 97034.900000
222.112200 9647.600000
252.101800 14689.800000
294.148700 444339.800000
311.175500 29561.000000
312.159200 127289.500000

>ms2peaks
53.038500 8192.700000
55.054200 11060.800000
65.038500 129833.400000
77.038600 10097.100000
79.054100 153559.400000
80.049400 29340.900000
89.038200 22306.700000
91.054200 7375618.500000
92.049300 43690.600000
93.033500 9846.300000
94.065100 73063.900000
95.049100 53472.000000
105.069900 33504.800000
106.065100 523487.000000
107.049100 215682.900000
116.049400 93844.200000
117.033500 20254.700000
117.057200 29390.900000
118.065000 33366.600000
119.049100 92835.500000
120.044300 142700.000000
121.052300 8144.600000
121.064700 11229.600000
133.052100 71462.600000
134.059900 1123244.900000
135.043900 184035.600000
136.075600 28358.200000
144.044300 196174.900000
145.028400 40601.400000
146.060000 11687.500000
147.043800 61971.400000
160.039400 9346.000000
161.059800 17731.400000
162.054800 3962569.800000
163.038500 18612.500000
164.070500 117112.800000
165.054500 727485.100000
172.075500 11477.800000
179.070300 10287.200000
180.065300 313882.100000
190.086200 69758.400000
194.081100 76011.000000
208.096500 10088.500000
294.147700 8237.300000

>ms2peaks
53.038600 20052.000000
55.017900 10500.800000
55.054300 9591.600000
63.023000 10820.700000
65.038500 310874.700000
67.054200 12192.400000
68.997100 11052.500000
77.038400 16413.400000
79.054200 549467.700000
80.049500 46964.600000
89.038600 68709.200000
91.054200 7083706.000000
92.049400 88584.600000
93.033500 17555.000000
94.065100 74486.800000
95.049100 84022.200000
96.044400 10239.900000
105.044500 19277.700000
105.069800 23816.900000
106.065100 984962.000000
107.049100 356451.200000
110.060100 8980.900000
116.049400 224599.200000
117.033400 38172.500000
117.057200 75213.900000
118.065100 28299.200000
119.049200 104571.700000
120.044400 125206.800000
133.052200 126958.700000
134.060000 1286038.500000
135.044000 231995.300000
136.075700 11128.600000
144.044400 198181.200000
144.055400 12247.800000
145.028600 37661.700000
146.060100 8736.100000
147.044000 34581.900000
151.039100 9538.700000
162.054900 1192817.500000
163.039000 17076.300000
164.070600 11963.600000
165.054600 353593.100000
172.075600 8838.000000
180.065500 84138.700000
194.081600 19467.400000

>ms2peaks
53.002200 15233.900000
53.038600 58896.900000
55.017800 26542.600000
63.022900 35544.800000
65.038600 844100.200000
67.054200 15719.600000
68.997200 14007.700000
77.038500 29161.100000
79.054200 1252411.600000
80.049500 93564.600000
81.033400 18041.500000
89.038600 225202.400000
91.054200 8585131.000000
92.049400 113497.100000
93.033600 22889.400000
94.065200 51912.900000
95.049100 211927.000000
96.044400 35682.700000
103.054400 8758.500000
104.049300 16113.500000
105.033500 21176.900000
105.044800 88663.200000
105.069900 21085.800000
106.065200 1147447.000000
107.049100 462172.000000
110.060200 10511.400000
116.049500 352123.800000
117.033400 37327.400000
117.057300 121084.400000
118.065100 16916.400000
119.049200 88057.800000
120.044400 87441.400000
132.044500 9131.200000
133.052300 191318.400000
134.060000 972100.000000
135.044000 191865.200000
144.044400 126952.500000
144.055700 17076.700000
145.028600 13636.800000
147.044000 15371.300000
148.075700 8902.800000
151.038900 15996.700000
162.054900 324291.000000
163.039200 8860.300000
165.054700 150892.600000
180.065700 15289.800000

