>compound LU46996490
>parentmass 399.0969
>ionization [M+H]+
>formula C15H18N4O7S
>rt 934.380000
>profile orbitrap
#smiles_iso CCCOC1=NN(C(=O)N1C)C(=O)NS(=O)(=O)C2=CC=CC=C2C(=O)OC
#smiles_can CCCOC1=NN(C(=O)N1C)C(=O)NS(=O)(=O)C2=CC=CC=C2C(=O)OC
#inchikey JTHMVYBOQLDDIY-UHFFFAOYSA-N
#pubchem_id 177355
#mb_accession LU139001,LU139002,LU139003,LU139004,LU139005,LU139006

>ms2
116.045500 30352.500000
158.092500 231864.500000
199.006000 203338.300000
209.985600 25007.200000
227.996300 2331.200000
282.017900 3519.700000

>ms2
58.028700 2461.000000
99.055200 5527.100000
114.029900 10905.000000
116.045500 186663.800000
135.044100 36524.000000
146.023700 3126.900000
158.092500 91305.900000
168.995400 12145.500000
199.006100 212166.400000
209.985700 77109.300000
227.996400 3040.800000
282.017900 10826.000000

>ms2
53.038600 4017.700000
58.028800 9122.500000
79.054200 9152.400000
81.033500 2001.000000
90.034000 5584.200000
95.049200 12398.900000
99.055200 2223.300000
105.033700 3224.300000
105.044800 4734.100000
107.049300 3408.200000
114.029900 13879.600000
116.045500 235034.200000
120.020500 2418.500000
135.044100 154032.500000
138.031100 8722.300000
146.023700 23348.900000
168.995300 15940.100000
199.006000 74509.900000
209.985600 43129.200000

>ms2
53.038600 12988.200000
58.028700 16300.700000
77.038600 3751.700000
79.054300 19862.200000
81.033600 7137.200000
90.033900 33056.600000
92.025900 6743.100000
95.049200 39975.500000
105.033700 5332.000000
105.044800 17059.800000
107.049300 2764.500000
114.030000 5498.700000
116.045500 199303.200000
120.020900 2529.200000
135.044100 99078.800000
138.031400 6146.600000
146.023700 17854.800000
168.995700 7579.800000
199.006200 9528.000000
209.985800 3631.400000

>ms2
51.023000 5682.700000
53.038600 24004.000000
58.028800 25486.600000
59.024100 5134.400000
77.038700 6562.700000
79.054300 13949.500000
81.033500 13872.700000
90.033900 48594.000000
92.025700 30831.900000
95.049200 68812.000000
105.033800 7543.300000
105.044800 28724.000000
107.049500 1664.700000
116.045500 149325.700000
120.020900 2389.000000
130.040100 3645.500000
135.044200 29085.000000
138.031400 6833.700000
146.023800 5972.700000
168.995700 2969.100000

>ms2
51.023000 8938.100000
53.038600 24688.900000
58.028800 30752.400000
59.024100 5784.200000
77.038600 13813.400000
79.054400 6377.600000
81.033500 11111.900000
90.033900 43249.500000
92.025700 40311.700000
95.049200 59207.100000
105.033600 2737.200000
105.044800 24534.700000
116.045500 80151.200000
120.020900 2157.300000
130.040300 2778.900000
135.044300 5212.700000
138.031300 4373.600000

