>compound LU46904566
>parentmass 306.16350000000006
>ionization [M+H]+
>formula C16H23N3OS
>rt 1155.240000
>profile orbitrap
#smiles_iso CC(C)N1C(=NC(C)(C)C)SCN(C1=O)C2=CC=CC=C2
#smiles_can CC(C)N1C(=NC(C)(C)C)SCN(C1=O)C2=CC=CC=C2
#inchikey PRLVTUNWOQKEAI-UHFFFAOYSA-N
#pubchem_id 50367
#mb_accession LU040201,LU040202,LU040203,LU040204,LU040205,LU040206

>ms2peaks
57.069900 951797.900000
85.076100 21584.200000
86.059900 27717.200000
106.065200 394450.100000
116.052900 1864756.400000
141.138700 85726.200000
142.122800 26991.300000
145.043000 188101.200000
201.105700 9841191.000000
208.053800 39243.700000
250.101000 340471.300000
264.117100 28278.100000
306.163600 3498601.200000

>ms2peaks
53.002200 12781.600000
57.069900 5598311.000000
59.990200 84164.600000
85.076000 91427.100000
86.060100 639695.300000
102.037200 145701.600000
106.065200 2405312.500000
116.052900 3828185.200000
134.060000 14613.600000
141.138400 20889.700000
142.122800 100335.300000
145.043100 1235658.100000
149.071500 8498.100000
201.105700 2350240.800000
208.054000 387234.900000
250.100900 217345.100000
264.116600 26208.000000
306.163000 63341.000000

>ms2peaks
53.002100 39730.100000
57.069900 7211502.000000
59.990200 597996.100000
79.054200 13371.200000
85.076000 139080.100000
86.060000 1539795.500000
102.037200 237492.800000
102.996000 49172.300000
106.065100 3590907.800000
116.052900 626975.800000
134.060000 20335.300000
142.122800 15766.600000
145.043000 591383.500000
149.071200 15369.100000
201.105200 60808.000000
208.054100 311358.800000

>ms2peaks
51.023200 9081.900000
53.002200 84376.500000
53.038600 12553.600000
53.997500 14893.700000
57.069900 5649016.000000
59.990300 1296309.200000
77.038500 12165.700000
79.054300 76360.700000
85.076000 54278.100000
86.060100 840742.900000
95.049100 18983.700000
102.037200 101642.100000
102.996100 89439.700000
105.045100 8916.400000
106.065200 4008614.800000
116.052800 35563.500000
134.060100 18764.600000
145.042900 63334.300000
208.054000 51242.400000

>ms2peaks
53.002200 87926.900000
53.038600 31840.900000
53.997400 11718.700000
57.069900 4076734.800000
59.990300 1638348.500000
77.038500 20121.200000
78.046500 27625.100000
79.054200 198013.100000
85.076000 17013.400000
85.969500 15857.100000
86.060100 199651.500000
95.049200 79202.400000
102.037200 18784.600000
102.996000 63606.000000
104.049400 8337.100000
105.044800 44694.400000
106.065200 3552214.200000

>ms2peaks
51.023000 11435.300000
53.002200 97052.600000
53.038600 112369.500000
53.997500 20305.900000
57.069900 2726363.200000
59.990300 1924170.900000
77.038500 40394.200000
78.046400 66067.000000
79.054200 474645.300000
85.969600 36543.000000
86.060100 43004.100000
95.049200 309235.200000
102.996100 45393.900000
104.049400 21494.200000
105.044800 121982.300000
106.065200 2888082.800000

