>compound LU46406092
>parentmass 201.06179999999998
>ionization [M+H]+
>formula C6H8N4O4
>rt 485.640000
>profile orbitrap
#smiles_iso CN1C(=CN=C1COC(=O)N)[N+](=O)[O-]
#smiles_can CN1C(=CN=C1COC(=O)N)[N+](=O)[O-]
#inchikey PQFRTXSWDXZRRS-UHFFFAOYSA-N
#pubchem_id 5094
#mb_accession LU089201,LU089202,LU089203,LU089204,LU089205,LU089206

>ms2
55.041700 6267.100000
110.047500 2599.800000
140.045500 180997.200000
201.062000 10551.500000

>ms2
55.041700 11578.300000
110.047700 7096.000000
140.045500 159709.100000
201.063600 2521.300000

>ms2
54.033800 4604.200000
55.041700 49191.800000
110.047600 7632.800000
140.045500 74731.400000

>ms2
54.033900 5338.300000
55.041700 57385.100000
67.041600 1989.500000
72.044400 2857.900000
94.052700 3072.000000
110.047500 3055.700000
140.045500 15110.300000

>ms2
54.033800 7246.600000
55.041700 47107.700000
67.041600 3669.400000
94.052600 3635.300000

>ms2
72.044400 930420.000000

