>compound LU46587039
>parentmass 343.0399
>ionization [M+H]+
>formula C18H12Cl2N2O
>rt 1045.440000
>profile orbitrap
#smiles_iso C1=CC=C(C(=C1)C2=CC=C(C=C2)Cl)NC(=O)C3=C(N=CC=C3)Cl
#smiles_can C1=CC=C(C(=C1)C2=CC=C(C=C2)Cl)NC(=O)C3=C(N=CC=C3)Cl
#inchikey WYEMLYFITZORAB-UHFFFAOYSA-N
#pubchem_id 213013
#mb_accession LU131601,LU131602,LU131603,LU131604,LU131605

>ms2
139.989900 75331.300000
307.063500 115761.600000
343.040300 877239.600000

>ms2
96.044300 2898.100000
112.039300 4464.800000
114.010800 4652.300000
139.989800 286285.600000
271.086600 22801.800000
272.094100 22311.000000
289.052600 2489.000000
307.063400 824317.100000
343.040000 142673.200000

>ms2
78.033800 2020.400000
96.044400 36220.500000
111.994900 5965.700000
112.039300 52366.200000
114.010500 20133.700000
130.005300 8679.700000
139.989800 295923.300000
243.091400 6799.200000
244.099100 3527.100000
253.076000 5091.300000
254.083600 10000.900000
264.058000 2381.000000
270.078900 3177.800000
271.086600 276571.800000
272.094400 251798.200000
279.067300 2140.000000
289.052700 46777.100000
305.048100 2235.500000
307.063300 554134.400000
343.040100 3537.300000

>ms2
51.022900 4362.300000
76.018100 5973.400000
78.033800 18233.600000
84.959700 3360.600000
96.044400 82935.100000
111.994800 18699.500000
112.039300 112557.100000
114.010500 15061.200000
130.005500 36369.000000
139.989800 147726.800000
152.062100 8194.500000
167.060100 2259.300000
177.057200 3299.600000
202.077300 3866.700000
216.080100 4888.300000
217.089200 4206.700000
227.073000 5430.300000
228.080900 6594.400000
229.088600 5198.600000
242.083600 13800.300000
243.091800 46595.000000
244.075900 2290.000000
244.099600 20237.600000
245.071000 2220.600000
253.076200 26453.800000
254.083700 36342.300000
262.041900 3755.200000
264.057300 5495.200000
270.079000 10510.200000
271.086700 301995.500000
272.094400 276534.800000
279.066400 2910.500000
289.052600 51493.400000
305.047600 2745.200000
307.063300 82175.900000

>ms2
51.022900 5660.500000
76.018200 19761.800000
78.033900 35232.300000
84.959700 2229.100000
96.044400 97555.200000
111.994900 47254.400000
112.039300 81307.100000
114.010500 10121.400000
130.005500 51961.900000
139.989800 42729.000000
152.062100 13776.600000
167.060700 3308.600000
177.057400 7175.900000
202.077700 5241.300000
216.081000 10647.200000
217.088600 7621.800000
227.073000 17984.800000
228.080900 12234.600000
229.088400 4012.200000
242.084200 35160.100000
243.091800 69447.500000
244.075800 7100.800000
244.099500 23893.400000
245.071000 3874.800000
253.076000 39567.400000
254.083900 29507.600000
262.042800 2711.900000
270.078900 12807.100000
271.086700 196075.300000
272.094400 80747.800000
289.052000 13285.100000
305.047400 3496.800000
307.062200 3594.600000

