>compound LU46891000
>parentmass 354.0752
>ionization [M+H]+
>formula C17H12ClN5O2
>rt 1057.560000
>profile orbitrap
#smiles_iso CC1=C2C(=NN1)NC3=C(C=C(C=C3)[N+](=O)[O-])C(=N2)C4=CC=CC=C4Cl
#smiles_can CC1=C2C(=NN1)NC3=C(C=C(C=C3)[N+](=O)[O-])C(=N2)C4=CC=CC=C4Cl
#inchikey UVLBAPBHAHFJSY-UHFFFAOYSA-N
#pubchem_id 86287525
#mb_accession LU048401,LU048402,LU048403,LU048404,LU048405,LU048406

>ms2
354.075500 5587952.500000

>ms2
165.071100 6675.600000
184.074400 4895.700000
195.066300 9197.800000
196.074300 40127.900000
225.064400 4443.400000
228.064200 24228.100000
242.067300 52905.900000
261.113100 7019.800000
273.113500 9263.100000
278.078100 3838.700000
289.108600 18892.100000
307.074600 39463.400000
308.082300 139727.100000
311.069700 43397.200000
312.078600 4415.900000
319.106300 19220.300000
323.069500 10177.400000
327.064500 41434.900000
337.072800 7414.600000
340.072400 302025.400000
354.075300 3779799.800000

>ms2
70.052400 5809.800000
96.055500 3646.300000
123.023800 6062.900000
125.015100 7971.900000
154.052400 3941.400000
165.070400 3015.200000
168.068300 4492.800000
169.063400 4549.200000
174.023000 3274.600000
183.066500 2926.300000
184.074100 15392.200000
186.042200 4807.000000
190.064900 3284.900000
195.066600 74483.500000
196.074400 140361.200000
198.023000 6443.500000
199.061900 4345.400000
200.057700 4039.400000
202.018000 15798.600000
204.068700 13202.000000
204.078500 3000.200000
205.076100 43720.900000
213.034000 28045.200000
214.041600 2962.000000
216.064300 3769.300000
217.075100 2485.300000
219.092100 3541.900000
220.086200 3430.500000
221.070900 4498.100000
225.034100 24694.500000
225.064200 19207.100000
228.064000 138942.200000
229.059200 14177.000000
229.073000 4355.900000
230.071200 16161.700000
231.079100 2804.700000
232.087100 22336.800000
238.029100 3101.300000
239.037000 53759.300000
240.044600 20182.900000
242.067300 45850.300000
243.091300 3567.100000
245.107700 21533.500000
246.102600 21463.800000
253.052300 3874.900000
256.086700 28991.600000
258.089600 7232.300000
260.106200 2687.500000
261.113500 96096.100000
264.032400 3092.500000
265.052100 4478.800000
266.048100 17363.100000
267.055900 4611.400000
271.097300 13127.800000
272.034900 3846.000000
272.105500 43658.000000
273.113400 267302.100000
276.101100 26663.300000
278.078900 2617.500000
279.068300 16887.800000
281.073000 11576.900000
287.092400 2624.000000
288.100200 3592.400000
289.108300 49083.400000
290.047900 17825.600000
291.055700 3837.200000
292.063300 10720.500000
293.058800 8117.400000
295.074500 5526.800000
299.045200 5852.600000
304.095000 5247.700000
307.074400 715145.800000
308.082300 538568.200000
311.069300 141417.300000
312.076900 16056.500000
313.061600 22878.400000
318.098800 6546.400000
319.106500 46142.000000
323.069200 41583.200000
327.063300 16336.900000
337.073600 5038.500000
340.072200 1135218.900000
354.075200 666800.700000

>ms2
55.029100 5015.900000
69.044600 2762.400000
70.052600 12227.900000
96.055700 8578.700000
103.041500 2515.300000
118.052800 2857.100000
123.024300 13322.300000
125.015300 11019.600000
128.037100 2405.400000
129.044700 3625.200000
139.054500 2882.800000
140.049500 2702.900000
141.057100 5332.400000
142.052600 13794.100000
152.036900 2611.300000
154.052600 4050.500000
155.047800 5576.100000
157.063600 4703.200000
163.054500 3544.800000
165.070500 4306.100000
166.065200 8808.200000
167.049400 3743.000000
167.060600 4631.800000
167.072400 3684.100000
168.055600 9269.900000
168.068500 8677.400000
169.063600 24184.900000
170.071400 4845.400000
174.023200 14244.800000
177.057400 8216.400000
178.065200 17243.200000
179.047500 2789.000000
179.073000 7762.600000
180.081000 4779.900000
183.066700 11206.000000
183.078700 4694.600000
184.074200 7995.300000
186.023000 14380.700000
186.042500 7735.700000
190.065300 28659.800000
191.073900 3506.500000
192.068200 4650.400000
193.076300 12427.100000
194.059800 2947.600000
195.066700 134235.800000
196.074600 70399.600000
197.082500 8222.300000
198.023400 24363.700000
199.031100 12374.100000
199.062200 4297.800000
200.026300 3539.900000
200.058000 5718.600000
201.034100 5215.300000
201.053400 6306.200000
202.018200 58480.300000
203.073000 5490.200000
204.068400 64584.400000
204.080900 18230.700000
205.076200 319055.500000
206.083700 3132.200000
211.038200 4084.000000
212.026100 7874.600000
213.034200 112061.800000
213.054500 6818.500000
214.041900 20489.000000
215.025700 3356.500000
215.069200 6065.200000
216.034300 6885.200000
216.068000 5297.500000
216.079800 2724.100000
217.076100 19018.900000
217.088600 8792.200000
218.084900 3749.800000
218.096700 9178.000000
219.080000 3909.400000
219.091700 41108.600000
220.063600 2882.800000
220.075600 6024.900000
220.086800 4905.800000
221.071000 37852.500000
223.087100 5728.400000
224.026300 8811.000000
225.034200 25415.500000
225.064300 3538.200000
228.064400 98481.400000
228.080100 6851.500000
229.060100 4473.800000
229.076300 42772.500000
230.036800 7788.300000
230.071600 67752.900000
230.084200 7160.100000
231.079200 16089.300000
231.091200 4748.200000
232.087100 44029.400000
234.102800 2999.000000
235.087200 4890.000000
236.058200 10795.400000
238.029100 5834.500000
238.042000 6473.700000
239.037200 280838.300000
241.052800 4775.600000
242.067700 2118.400000
242.083300 5337.200000
243.091700 36687.000000
244.086600 13183.400000
244.099800 14216.400000
245.094900 4847.000000
245.107400 68971.400000
246.102700 71378.900000
251.036700 11548.900000
252.045200 3095.700000
252.058300 4989.800000
253.052900 47882.700000
254.072000 13696.700000
255.032200 21162.100000
255.079400 7366.300000
256.087100 103970.100000
257.081700 3244.100000
257.095000 12845.300000
258.090400 43160.300000
259.099000 3995.800000
260.105800 10581.000000
261.113700 85393.600000
262.042600 4149.700000
263.037200 26145.500000
264.032500 27776.600000
265.052900 17012.300000
266.048200 53239.900000
267.055900 3913.100000
269.047700 3265.300000
270.018500 2618.300000
271.097700 24836.800000
272.035300 9364.400000
272.105800 129990.700000
273.113600 294187.800000
276.101000 29664.600000
277.053200 4087.200000
278.047700 7244.600000
279.068700 116629.300000
280.063700 135406.900000
281.057000 3663.000000
281.072000 8705.600000
282.079500 9361.100000
288.101100 4377.200000
289.108500 6460.900000
290.048100 121974.700000
291.056100 11261.700000
292.048700 17362.300000
292.064900 7826.900000
293.059100 10077.800000
295.074800 9828.200000
299.045000 3073.700000
303.087600 2917.400000
304.096700 3529.600000
306.067100 10134.900000
307.074800 910945.900000
308.082600 134887.600000
311.069600 24051.900000
312.079500 2627.800000
313.061600 24562.600000
318.098600 6419.100000
323.069300 17884.400000
340.072400 224297.400000
354.075800 12649.100000

>ms2
55.029100 12716.600000
69.044900 5834.200000
70.052600 3756.900000
90.033900 2874.300000
90.046500 2702.600000
91.041800 3921.900000
95.049300 2882.100000
103.041800 4704.600000
104.049900 2413.300000
105.044900 5276.400000
115.041900 3919.300000
115.054300 6163.000000
116.049900 2195.800000
117.057400 4211.600000
118.052700 6847.900000
123.024200 8800.600000
125.015400 11803.300000
128.037000 6672.800000
128.049700 3744.300000
129.044700 17270.300000
130.052700 3565.000000
132.056900 3393.400000
139.054400 10224.500000
140.049700 14360.500000
141.045300 3778.500000
141.057600 9577.300000
142.052600 36775.100000
142.065600 2638.400000
143.048100 3666.800000
143.060500 11613.600000
152.036900 6633.400000
152.061900 10941.700000
153.070100 6622.300000
154.040200 3644.200000
154.052600 5234.700000
154.065400 3683.900000
155.048200 8067.600000
155.060700 8293.300000
156.055900 12387.100000
157.063700 5148.900000
163.054200 23932.500000
164.048600 2527.900000
165.069900 12359.600000
166.065200 36233.500000
167.049000 6377.400000
167.060800 11222.800000
167.073200 7084.100000
168.056000 31865.000000
168.068600 5554.600000
169.064300 47328.700000
170.060100 2560.700000
170.071500 14029.700000
171.054900 12298.400000
174.023200 16687.200000
176.062200 4457.700000
177.057400 60997.400000
178.065200 89416.000000
179.047700 4125.900000
179.060700 18764.100000
179.072900 23665.100000
180.044200 3487.500000
180.056300 4557.900000
180.080900 9055.700000
183.066800 12378.800000
183.079800 4919.100000
185.070900 2391.400000
186.023200 33310.600000
188.049500 3938.500000
189.070000 2311.500000
190.065300 62640.500000
191.060700 5287.500000
191.073000 8817.100000
192.068400 13818.400000
192.079700 2686.700000
193.052900 2992.100000
193.076400 20334.500000
194.060200 32982.600000
195.066700 141326.800000
196.051200 3220.800000
196.075100 35904.400000
197.082500 4686.300000
198.023200 26185.900000
199.031000 19835.600000
200.026000 11063.400000
201.033900 3215.200000
201.054900 7446.100000
202.018200 70440.300000
202.052800 7796.000000
202.065300 12355.700000
203.060600 49801.700000
203.073100 21988.600000
204.056200 13434.400000
204.068500 131258.200000
204.080700 23252.900000
205.076200 545021.500000
206.083600 3301.300000
207.067900 4404.100000
211.018100 2808.500000
211.038100 3617.200000
212.026200 22658.200000
213.034100 120087.800000
213.054700 7978.300000
214.041900 22440.400000
215.025900 5399.100000
215.059900 16625.100000
215.070500 5466.200000
216.033300 4449.200000
216.068300 18807.400000
216.081200 8075.900000
217.063900 7636.900000
217.076200 30438.700000
217.088700 20568.700000
218.084000 14352.800000
218.096600 9694.400000
219.055200 6488.500000
219.080300 4003.600000
219.091600 62938.400000
220.063900 4603.700000
220.075800 13988.600000
220.087300 5867.900000
221.071100 77901.800000
223.086700 5541.800000
224.026300 37233.800000
225.034300 3520.000000
227.060800 2793.400000
227.073100 8286.300000
228.065000 28318.000000
228.081400 7078.100000
229.076100 77443.700000
230.013500 12316.900000
230.036900 7300.600000
230.071500 83352.700000
230.083800 10269.800000
231.079400 28243.800000
231.091900 8525.000000
232.087300 29839.900000
234.102600 3391.100000
235.063200 5159.600000
235.086500 8701.400000
236.058200 18206.700000
237.021700 6713.900000
238.029200 12066.900000
238.042000 16837.200000
239.037100 587394.400000
240.044300 4765.200000
241.052800 6717.200000
242.083800 18756.400000
243.091700 80309.700000
244.086900 18271.200000
244.099800 22331.800000
245.023900 5008.200000
245.070800 3998.800000
245.094900 7728.700000
245.107800 18035.200000
246.102600 30690.700000
249.021700 4687.700000
251.037100 26946.700000
251.049600 3866.400000
252.045000 10240.500000
252.057900 7463.600000
253.052800 114715.900000
254.036800 7570.200000
254.071800 32183.800000
255.032100 50194.300000
255.079400 19542.800000
256.086900 51383.800000
257.082200 9269.900000
257.095300 14039.300000
258.090100 43888.700000
259.098100 5290.100000
260.105900 16872.700000
261.113600 23405.500000
262.042500 5179.000000
263.037200 72094.100000
264.032300 41490.900000
264.046800 2856.700000
265.053000 14666.000000
266.048200 34351.700000
269.047500 5645.700000
270.019300 4807.300000
271.097900 45991.900000
272.034800 6596.400000
272.105800 116173.300000
273.113600 54697.800000
276.101200 15580.500000
277.053700 16498.900000
278.047900 9558.300000
279.068500 77396.300000
280.063700 104515.600000
281.059100 3922.400000
282.079100 2854.900000
290.048000 93648.300000
291.056500 9378.000000
292.050900 25018.600000
293.058500 4548.500000
295.074600 5414.400000
303.088100 6001.200000
304.096400 2586.400000
305.061000 2825.300000
306.067400 19708.000000
307.074700 174440.000000
308.081900 7299.000000
313.060900 3056.100000
340.072500 12380.700000

>ms2
55.029100 7776.100000
69.044800 8352.900000
70.052400 2305.800000
90.033900 3224.500000
90.046600 4112.600000
91.041800 12736.000000
95.049200 7751.800000
103.041700 9431.500000
104.049600 7695.500000
105.044900 4448.200000
115.041800 9866.300000
115.054200 16154.700000
116.049500 5757.400000
117.057200 5329.600000
118.052900 5296.300000
123.024200 8038.400000
125.015500 8165.300000
128.037200 11231.900000
128.049600 8311.900000
129.044800 30409.100000
130.052300 2735.400000
132.057000 4209.700000
139.054300 23173.800000
140.049600 44105.600000
141.044900 10593.300000
141.057500 7348.300000
142.052600 40758.900000
142.065500 4571.300000
143.048100 3826.400000
143.060500 12775.800000
152.037100 12245.100000
152.062100 41053.200000
153.070200 10737.900000
154.040300 8698.200000
154.065600 4773.200000
155.060400 12636.000000
156.055900 11845.500000
157.063700 5609.500000
163.054300 111430.400000
164.049400 13198.500000
165.070000 18784.700000
166.065300 50481.900000
167.049100 6673.200000
167.060600 7920.000000
167.073200 9536.700000
168.056000 49386.900000
168.068700 5260.000000
169.064900 183340.100000
170.060200 12214.700000
170.071700 7526.800000
171.055500 21746.900000
174.023300 11531.200000
176.062400 16176.800000
177.057500 241901.400000
178.065300 201749.000000
179.060600 70109.200000
179.073200 39792.000000
180.044600 24695.400000
180.055300 4571.600000
180.080800 7464.200000
185.071000 4661.700000
186.023300 55153.300000
188.049400 13036.300000
189.069900 8768.600000
190.065200 89294.000000
191.060800 10612.400000
191.073000 16909.900000
192.068300 30493.200000
192.079500 4535.900000
193.053100 13066.600000
193.075000 10623.200000
194.060200 145695.800000
195.066700 82549.500000
196.051000 9941.800000
196.075700 32342.700000
198.023200 25342.600000
199.030900 23097.700000
200.026600 9484.700000
200.062100 3680.700000
201.034500 3722.200000
201.057600 25460.100000
202.018200 40784.300000
202.052800 33878.100000
202.065300 21210.900000
203.060700 150884.200000
203.072900 29968.700000
204.056100 68548.900000
204.068500 180272.500000
204.080300 15703.700000
205.076200 471539.000000
206.084300 2982.700000
207.068000 6645.500000
211.018500 9821.800000
212.026400 33805.900000
213.034200 95731.700000
214.041700 15795.800000
215.060100 19644.700000
215.072300 7852.100000
216.068500 29739.500000
216.081200 24424.600000
217.063700 12653.100000
217.076200 26372.400000
217.089000 21630.600000
218.084100 27214.600000
218.095600 4290.000000
219.055500 16970.500000
219.079900 7159.100000
219.091700 42799.800000
220.064300 4418.100000
220.087200 4966.500000
221.071000 99168.800000
224.026500 57344.600000
225.033900 2995.000000
227.060700 5050.100000
227.073300 9552.100000
228.081200 6372.500000
229.076200 66499.000000
230.013000 18330.400000
230.037100 5445.800000
230.071600 92375.100000
230.083600 5737.900000
231.079300 21109.600000
231.092500 8302.800000
232.087100 6180.900000
235.063200 5580.600000
235.087100 8051.700000
237.021800 16127.000000
238.029600 21718.100000
238.042500 9288.500000
239.037200 528611.100000
241.053300 4759.300000
242.083800 38112.000000
243.091800 80611.700000
244.087100 15010.800000
244.099800 9910.400000
245.025200 3095.700000
245.070900 9045.800000
245.095200 5304.400000
245.108200 2625.800000
246.103100 8354.500000
249.021400 6755.800000
251.037600 11370.100000
251.050600 4475.800000
252.045300 10864.000000
252.058100 3730.800000
253.052900 111769.500000
254.036800 10079.700000
254.071600 38303.000000
255.032100 72559.000000
255.079200 9961.600000
256.087100 21725.600000
257.082200 17028.800000
257.095100 5034.500000
258.090500 15543.600000
259.098100 6972.800000
260.106200 9793.300000
261.113700 3052.800000
262.042900 5374.600000
263.037200 51931.700000
264.032500 33746.600000
264.047700 3201.800000
265.052700 4488.400000
266.048100 10793.700000
269.047900 5058.700000
270.019400 5470.000000
271.097900 36645.000000
272.105800 30651.900000
273.114900 4060.300000
276.100100 2759.800000
277.053000 18105.400000
278.047500 3474.300000
279.068800 16115.300000
280.063600 24221.200000
290.048200 24308.200000
292.050900 12191.600000
305.059600 2691.900000
306.066800 6997.400000
307.074200 11355.700000

