>compound LU47768507
>parentmass 358.1449
>ionization [M+H]+
>formula C20H20FNO4
>rt 942.220000
>profile orbitrap
#smiles_iso CC(=O)C1=CC2=C(C=C1)OC([C@@H]([C@H]2NC(=O)C3=CC=C(C=C3)F)O)(C)C
#smiles_can CC(=O)C1=CC2=C(C=C1)OC(C(C2NC(=O)C3=CC=C(C=C3)F)O)(C)C
#inchikey RCLXAPJEFHPYEG-ZWKOTPCHSA-N
#pubchem_id 193943
#mb_accession LU115201,LU115202,LU115203,LU115204,LU115205,LU115206

>ms2peaks
59.049200 102015.600000
119.049100 7945.200000
123.023900 29560.000000
140.050700 198393.600000
159.080500 10970.500000
161.059800 930264.900000
177.091100 2877031.800000
189.091200 15372.900000
201.091100 155682.300000
219.101600 2350284.200000
286.087500 86809.300000
340.134600 76586.600000
358.145000 2498023.000000

>ms2peaks
59.049100 498067.300000
97.044900 5115.100000
107.049200 13102.900000
119.049200 28459.100000
123.024000 221266.300000
133.064600 20933.900000
135.080500 24992.800000
140.050600 362198.700000
147.080400 6581.500000
149.059600 59628.900000
149.096200 8110.600000
159.080400 83656.600000
161.059700 1157671.200000
175.075400 7824.800000
177.090900 4786814.500000
189.090600 20679.300000
191.106300 15337.700000
201.091000 194574.300000
219.101500 1293215.200000
286.086900 9667.600000
358.144900 11773.300000

>ms2peaks
59.049100 683833.800000
74.096400 3379.600000
97.044800 15393.200000
107.049200 101150.300000
119.049200 25235.900000
121.028400 3874.700000
121.064800 10331.400000
123.024100 378323.600000
131.085600 20149.800000
133.064800 38370.800000
135.044000 6889.200000
135.080400 89804.400000
140.050600 269351.300000
147.080400 15941.100000
149.059700 198870.300000
159.080500 123890.600000
161.059700 324350.000000
163.039000 20662.300000
163.075400 10080.200000
165.054700 49873.700000
173.059700 6584.200000
175.075300 8064.900000
177.091000 2736666.000000
181.049300 8096.200000
189.091300 5263.900000
191.106400 15430.400000
201.091100 121410.200000
219.101600 238353.200000

>ms2peaks
55.054300 3268.900000
59.049200 707628.100000
71.029200 2152.900000
74.096600 2477.200000
79.054200 4896.200000
91.054300 22978.900000
93.070000 8078.100000
95.029200 1974.000000
95.049200 6520.900000
97.044900 19057.000000
105.069900 7374.300000
107.049200 162594.300000
113.039600 14576.800000
115.054300 2111.300000
119.049300 15416.400000
119.085600 4226.800000
121.028600 8959.400000
121.064800 31310.800000
123.024100 460844.300000
129.069900 3272.500000
131.049200 4515.200000
131.085600 29316.000000
133.064800 20419.100000
134.035900 2497.500000
135.044300 6233.700000
135.080500 53758.800000
140.050700 114905.000000
141.070000 5476.100000
144.057100 10912.800000
147.080400 7318.300000
149.059800 208128.500000
158.072500 3189.500000
159.080500 74184.500000
161.059800 42876.600000
163.039000 15124.100000
163.075500 4299.600000
165.054700 70480.300000
169.076400 3342.200000
173.060000 18695.200000
175.075700 3671.300000
177.091100 451167.600000
181.049700 7590.200000
201.091100 64428.200000
219.101500 17647.200000

>ms2peaks
51.023100 5889.100000
53.002200 3505.600000
53.038600 6034.500000
55.054300 4945.300000
59.049200 689366.200000
71.029100 7062.500000
75.022900 8492.500000
79.017900 2084.800000
79.054300 12303.400000
91.054300 52913.900000
93.069900 27586.000000
95.029200 3575.300000
95.049200 26247.000000
97.045000 27823.300000
103.054400 3343.100000
105.069900 10232.000000
106.041500 2085.200000
107.049200 160497.400000
111.044100 3141.800000
113.039800 51573.100000
115.054300 6190.100000
116.062100 3554.000000
119.049300 9109.600000
119.085600 2605.000000
121.028500 6716.200000
121.064900 63023.300000
123.024100 422819.900000
129.069900 5504.300000
131.049200 4686.000000
131.085600 19658.400000
133.064800 6656.800000
134.036300 8804.700000
135.044000 4843.200000
135.080500 12259.300000
140.050800 26059.600000
141.070000 7335.100000
144.057100 19495.300000
147.080300 4147.000000
149.059800 135041.800000
158.036300 5615.400000
158.072600 7826.500000
159.080600 36226.600000
161.060000 4186.200000
163.039100 9938.700000
165.054800 33909.200000
173.059900 15136.700000
177.091000 35585.200000
181.049400 2503.500000
190.062800 13943.100000
201.091400 24706.000000

>ms2peaks
51.023000 11667.800000
53.002200 3449.800000
53.038600 15322.100000
55.054200 5082.700000
59.049200 545804.800000
71.029100 11928.200000
75.022900 24002.800000
79.017800 4649.400000
79.054200 22355.000000
91.054300 94416.800000
93.069900 32433.200000
95.029200 11804.300000
95.049200 50775.600000
97.044800 18735.300000
103.054200 5726.000000
105.069900 9198.300000
106.041400 3436.500000
107.049200 111991.700000
111.043800 4403.700000
113.039700 91739.800000
115.054300 16600.400000
116.062000 9335.400000
119.049100 3002.900000
121.028300 3377.900000
121.064800 49956.800000
123.024100 240324.700000
129.069800 5657.700000
131.049200 6531.100000
131.085600 5078.500000
134.036000 8545.800000
135.080200 2267.600000
140.050700 5415.300000
141.069900 5344.200000
144.057000 16536.100000
149.059900 46791.900000
158.036000 4373.100000
158.072700 8378.700000
159.080500 15482.200000
163.038600 1843.700000
165.054700 5463.900000
169.076300 1809.100000
171.043800 1948.000000
173.059900 5623.000000
190.062500 21143.200000
201.091100 6259.700000

