>compound LU47038642
>parentmass 278.21149999999994
>ionization [M+H]+
>formula C17H27NO2
>rt 1248.120000
>profile orbitrap
#smiles_iso CC1=CC(=C(C(=C1)C(C)(C)C)OC(=O)NC)C(C)(C)C
#smiles_can CC1=CC(=C(C(=C1)C(C)(C)C)OC(=O)NC)C(C)(C)C
#inchikey PNRAZZZISDRWMV-UHFFFAOYSA-N
#pubchem_id 15967
#mb_accession LU107901,LU107902,LU107903,LU107904,LU107905,LU107906

>ms2
121.089400 70009.400000
151.062200 144277.600000
166.086300 974863.800000
278.211300 31603738.000000

>ms2
107.072900 43040.700000
121.089200 70205.100000
122.096400 69174.000000
134.060500 27195.700000
150.055300 33664.200000
151.062700 1878900.400000
166.086200 15143368.000000
263.187700 112479.000000
278.211400 21856850.000000

>ms2
91.054200 36125.800000
107.072900 426124.800000
117.069800 28813.900000
120.080700 23319.600000
121.088600 62316.400000
122.096500 352184.200000
134.060000 97066.100000
148.075700 29788.000000
150.055100 233711.100000
151.062800 13638708.000000
152.070600 30237.200000
166.086200 22844028.000000
263.187700 24791.700000
278.211500 1869015.100000

>ms2
55.054300 34899.000000
91.054100 34741.400000
106.065100 140117.600000
107.072900 991780.100000
120.080500 73893.300000
121.088600 107775.300000
122.096400 368354.800000
134.060000 1093719.900000
148.075700 61750.800000
150.055200 1586202.500000
151.062700 28970798.000000
166.086200 9981408.000000
278.211200 42283.200000

>ms2
55.054200 61517.400000
57.069900 34749.000000
65.038600 28209.700000
79.054200 81699.300000
91.054200 29613.800000
106.065100 684516.600000
107.072900 979071.100000
120.080700 60810.200000
121.088600 112490.700000
122.096400 139299.800000
134.060000 4820005.500000
148.075600 42633.500000
150.055100 6397930.000000
151.062700 27208074.000000
166.086200 2008151.000000
191.085600 35996.100000

>ms2
53.038600 36206.900000
55.054200 54879.700000
57.069800 26148.100000
65.038300 77007.700000
77.038200 22564.400000
79.054100 402106.900000
91.054200 46113.700000
95.049100 82844.400000
104.049300 58755.100000
105.033500 16775.900000
106.065000 1278812.500000
107.072800 514494.400000
117.069600 12954.800000
120.080600 68945.200000
121.088600 67091.800000
122.096400 34518.400000
123.067500 47235.000000
132.044200 42141.800000
134.059900 8133491.500000
150.054900 10679489.000000
151.062500 12916016.000000
166.086100 252899.000000
178.077700 17114.000000
191.085000 22535.200000

