>compound LU47091597
>parentmass 557.2064
>ionization [M+H]+
>formula C27H32N4O7S
>rt 935.820000
>profile orbitrap
#smiles_iso CC(C)C1=C2C(=CC(=C1)OC)S(=O)(=O)N(C2=O)COC3=CC(=O)N4C=CC=C(C4=N3)OCCN5CCCCC5
#smiles_can CC(C)C1=C2C(=CC(=C1)OC)S(=O)(=O)N(C2=O)COC3=CC(=O)N4C=CC=C(C4=N3)OCCN5CCCCC5
#inchikey DRZXDZYWZSKFDL-UHFFFAOYSA-N
#pubchem_id 9872438
#mb_accession LU051001,LU051002,LU051003,LU051004,LU051005,LU051006

>ms2peaks
74.096400 12732.400000
112.112100 1532981.000000
217.060800 50569.600000
302.150100 398845.000000
557.207300 3651964.500000

>ms2peaks
56.049300 16998.600000
58.065100 8731.100000
69.069800 25508.500000
74.096300 9817.600000
84.080900 21063.400000
112.112000 8091558.000000
217.060700 127926.500000
239.037500 13264.300000
268.063800 417752.900000
302.150000 117856.400000
557.206300 11324.900000

>ms2peaks
53.002200 8234.200000
55.054200 29367.100000
56.049500 56234.700000
58.065100 24560.100000
69.069800 112521.000000
84.080800 79838.900000
91.054200 11777.500000
110.096600 18230.300000
112.112000 6889580.500000
115.054100 7683.500000
147.080400 56543.300000
149.059800 21703.800000
149.071000 7650.300000
153.036700 23528.800000
161.059800 7969.300000
161.083600 8444.900000
163.062900 8575.900000
165.037000 20201.900000
175.075200 12988.000000
176.083400 9326.800000
176.107000 18335.500000
189.078400 43306.600000
193.031800 38811.900000
193.049300 11367.500000
195.047400 9907.300000
204.102000 28156.900000
211.042500 9375.600000
217.060800 100852.500000
221.068300 108917.300000
232.107300 16234.400000
239.037200 87767.000000
268.063700 250866.200000

>ms2peaks
53.002300 13438.100000
55.054200 66331.500000
56.049500 153830.000000
58.065100 79208.500000
67.054200 14964.800000
69.069900 295667.100000
70.065000 13710.100000
74.096400 10990.600000
79.054300 6128.500000
81.069900 15673.700000
83.085500 11482.800000
84.080800 192529.100000
91.054300 51652.300000
93.070000 5766.400000
97.088600 8160.000000
105.070000 16208.700000
107.049200 9902.400000
109.065000 6197.500000
110.096500 41601.500000
112.112100 5454440.500000
115.054200 34292.700000
116.062200 6608.100000
117.070000 17874.900000
121.064800 19380.100000
132.057100 31926.900000
133.064800 66637.100000
138.013500 5481.500000
143.048900 6607.800000
144.057100 6420.500000
145.065000 5652.000000
146.060200 11421.400000
147.080400 76394.000000
148.088200 7660.000000
149.059800 49784.900000
149.070800 27773.300000
150.013600 12465.200000
153.037000 48962.100000
159.080400 16764.200000
160.075800 12252.600000
161.059800 80173.000000
161.083500 28932.800000
162.067600 23135.400000
163.062900 10740.500000
165.037000 84680.800000
175.075400 39682.900000
176.083400 20901.300000
176.107000 24902.800000
177.036900 8488.600000
177.091200 6490.100000
189.078500 51396.100000
193.031900 48122.900000
195.011400 8532.000000
195.047400 20806.200000
208.073300 7728.000000
211.042400 6120.800000
217.060900 51662.900000
221.068300 115868.200000
239.037200 26980.300000
268.063800 20433.400000

>ms2peaks
53.002200 31126.100000
53.038600 8529.800000
53.997400 5323.500000
55.054300 137752.900000
56.049500 282256.200000
58.065100 121394.200000
67.054200 25858.300000
68.049400 3677.800000
69.069900 443889.700000
70.065200 18385.300000
74.096400 5766.600000
78.046400 6038.900000
79.054300 16582.600000
82.065100 13912.800000
83.073000 4013.500000
83.085700 13085.300000
84.080800 265708.900000
91.054300 96994.100000
93.070000 4788.700000
95.048900 5510.900000
97.088800 13325.800000
103.054300 17228.300000
104.062100 18920.800000
105.069900 86998.400000
106.041400 5244.900000
107.049200 17005.600000
108.057000 7708.500000
109.064900 12405.400000
110.096500 52632.100000
112.112100 3470149.500000
115.054300 77579.900000
116.062100 19337.400000
117.033700 8285.700000
117.069900 39157.300000
118.041500 13327.600000
118.065100 10027.600000
119.049300 8296.500000
119.085500 5264.100000
120.057000 6853.900000
121.039800 12299.300000
121.064900 17940.200000
122.018500 9979.200000
128.062000 7179.700000
130.065100 6903.800000
131.049000 16118.300000
132.044700 7307.300000
132.057000 57083.500000
132.080900 15948.100000
133.064800 152606.100000
134.018800 5181.500000
134.072700 9550.300000
135.055200 5827.300000
135.080600 5930.900000
138.013500 7595.100000
143.049300 5067.600000
144.057000 21697.200000
144.080600 12414.000000
145.064900 6628.100000
145.088700 9316.700000
146.060100 44077.400000
146.072500 6203.100000
147.044100 8044.600000
147.068200 4277.700000
147.080400 58390.300000
148.088200 6787.700000
149.059800 22937.100000
149.071000 28651.400000
150.013500 22645.900000
151.021400 5922.700000
151.075400 17423.100000
152.029200 5432.900000
153.036900 28063.300000
159.080600 14417.000000
160.051900 7065.800000
160.075800 26200.100000
161.059800 158953.900000
161.083600 28925.500000
162.067600 15878.100000
163.062600 5953.900000
165.037000 60632.300000
174.055000 7062.600000
175.075500 62317.000000
176.083300 6745.400000
176.106900 8174.500000
177.037200 3972.900000
178.049700 6548.800000
180.078100 7618.800000
189.078600 16175.800000
193.031500 13225.000000
193.049300 6098.300000
195.010900 4567.500000
221.068300 50374.700000

>ms2peaks
53.002200 52539.600000
53.038600 12305.900000
53.997500 8417.100000
55.054300 188542.100000
56.049500 420119.400000
58.065100 141824.100000
66.046300 5973.400000
67.054200 38268.200000
68.049400 3885.800000
69.069900 460935.300000
70.065100 27050.000000
74.096500 7275.900000
78.046500 18629.900000
79.054200 39327.000000
81.069900 4933.800000
82.065100 19728.000000
83.073000 7389.300000
83.085600 11070.600000
84.080800 271761.400000
89.038500 13886.700000
91.054300 137081.300000
95.049100 21148.000000
95.085400 2766.400000
97.088700 14435.800000
103.054300 50348.300000
104.062000 35773.600000
105.069900 181214.500000
106.041300 13173.400000
107.049200 13611.800000
108.057100 11388.700000
109.065000 10377.900000
110.096500 62628.300000
112.112100 1852388.800000
115.054200 118874.000000
116.062100 27621.300000
117.033500 24765.600000
117.069900 51155.200000
118.041400 62307.300000
118.065100 26938.700000
119.049100 21226.400000
119.085700 6762.200000
120.057100 19839.100000
121.010700 8073.800000
121.039600 15506.400000
121.064800 15137.900000
122.018400 17653.600000
128.062100 8165.500000
129.069900 2702.900000
130.065200 10497.800000
131.049300 25120.900000
132.044700 7903.100000
132.057000 56628.300000
132.080800 31170.700000
133.064800 182177.300000
134.018700 11300.800000
134.072800 7169.500000
135.055300 6406.700000
138.013500 9313.000000
143.049500 5052.200000
144.057100 27287.600000
144.080700 17037.700000
145.065000 9413.300000
145.088500 6052.500000
146.060100 72012.700000
147.044100 17293.300000
147.067700 4210.200000
147.080500 34981.800000
149.070900 20070.800000
150.013700 15467.700000
151.021300 7038.700000
151.075500 33408.500000
152.029400 5674.400000
153.037000 10396.300000
159.080800 4567.400000
160.051800 5120.200000
160.075700 31294.300000
161.059800 134063.700000
161.083600 17079.900000
162.067700 5735.900000
165.037300 15194.100000
166.026200 4100.000000
174.055100 9534.900000
175.075500 52827.200000
177.036800 4378.200000
178.050000 3923.400000
221.068500 10550.500000

