>compound LU47631125
>parentmass 164.04549999999998
>ionization [M+H]+
>formula C7H5N3O2
>rt 604.740000
>profile orbitrap
#smiles_iso C1=CC2=C(C=C1[N+](=O)[O-])NC=N2
#smiles_can C1=CC2=C(C=C1[N+](=O)[O-])NC=N2
#inchikey XPAZGLFMMUODDK-UHFFFAOYSA-N
#pubchem_id 7195
#mb_accession LU092201,LU092202,LU092203,LU092204,LU092205,LU092206

>ms2
94.052500 24757.400000
106.052300 17304.500000
118.052400 930246.600000
134.047300 179896.900000
150.042300 1582415.400000
164.045200 10221101.000000

>ms2
94.052600 26561.300000
106.052500 20468.500000
118.052400 911545.700000
134.047400 166916.000000
150.042300 1690733.200000
164.045300 10299732.000000

>ms2
54.033800 12640.400000
91.041500 7032.700000
93.044700 13563.700000
94.052600 71918.400000
106.052500 115401.600000
117.044800 11180.900000
118.052500 3707551.500000
134.047400 389044.700000
150.042300 5266359.500000
152.046600 24760.700000
164.045300 5418601.500000

>ms2
54.033800 23383.100000
72.044300 8262.700000
91.041600 35095.600000
93.044800 18085.300000
94.052600 107598.700000
106.052600 200704.900000
109.039700 7296.900000
117.044800 7237.400000
118.052500 3953202.800000
133.039600 39335.200000
134.047400 289679.700000
150.042300 7086364.000000
152.046600 27484.800000
164.045400 1148201.000000

>ms2
54.033800 31415.900000
79.041600 20029.500000
91.041600 265630.600000
93.044700 12554.900000
94.052500 107732.000000
106.052500 229910.500000
109.039700 9476.400000
117.044600 19160.600000
118.052500 4542491.500000
133.039600 178592.400000
134.047400 190974.200000
150.042300 7421976.500000
152.046500 33248.300000
164.045400 182687.200000

>ms2
52.018100 5961.300000
54.033800 20164.500000
63.022800 12908.200000
64.030700 21460.200000
65.026000 10043.700000
67.041700 12674.500000
78.033700 8357.000000
79.041600 34252.900000
90.033800 8333.200000
91.041600 1044517.300000
92.036800 7611.100000
93.044800 14275.700000
94.052500 79398.900000
95.036600 6600.000000
96.044400 20820.600000
105.044800 9615.100000
106.052500 143340.100000
109.039600 6490.200000
117.044700 61933.400000
118.052500 4480392.500000
133.039600 342124.800000
134.047300 117557.500000
150.042300 5384583.000000
152.046500 23182.900000
164.045500 21743.000000

