>compound LU48606968
>parentmass 217.0495
>ionization [M+H]+
>formula C12H8O4
>rt 911.880000
>profile orbitrap
#smiles_iso COC1=C2C(=CC3=C1OC=C3)C=CC(=O)O2
#smiles_can COC1=C2C(=CC3=C1OC=C3)C=CC(=O)O2
#inchikey QXKHYNVANLEOEG-UHFFFAOYSA-N
#pubchem_id 4114
#mb_accession LU102101,LU102102,LU102103,LU102104,LU102105,LU102106

>ms2
161.059400 31116.800000
173.059800 40974.700000
185.023500 56582.400000
189.054700 52476.300000
202.026100 245153.100000
217.049400 11047098.000000

>ms2
115.054200 15377.100000
117.069900 23022.300000
145.065000 17488.600000
158.036300 16469.200000
161.059700 160311.000000
173.059800 141391.900000
174.030800 25428.300000
185.023400 180858.400000
189.054700 195293.300000
202.026100 848275.600000
217.049500 8563412.000000

>ms2
55.054100 4002.000000
83.049100 6524.600000
89.038800 9946.800000
91.054200 28455.900000
103.054200 5300.600000
105.033400 22795.100000
105.069900 24360.900000
111.044100 9885.200000
115.054200 182095.200000
117.069800 112366.600000
118.041300 12335.300000
127.053800 4221.200000
129.033300 10430.700000
130.041300 7424.300000
131.049100 69768.500000
133.028300 4226.300000
133.064700 31995.100000
143.049100 35153.600000
144.057100 3942.500000
145.064800 72255.700000
146.036200 32191.600000
147.043700 4165.200000
157.028300 50982.600000
158.036200 128058.400000
161.059600 1252214.900000
162.030900 4797.400000
171.043900 9027.900000
173.059700 311288.500000
174.031100 492080.800000
185.023300 518133.900000
189.054500 518531.400000
201.018100 7339.300000
202.026000 3757978.500000
217.049400 3425585.000000

>ms2
55.017800 10458.000000
55.054200 11851.100000
63.022800 3959.300000
66.046400 11249.100000
78.046300 9588.600000
79.054100 23594.300000
83.049100 15969.600000
89.038200 19974.500000
90.046400 33553.900000
91.054200 70602.500000
94.041300 5755.200000
95.049200 12066.700000
97.007700 9771.700000
101.059600 5422.200000
102.046500 16651.900000
103.054200 31153.400000
105.033500 19055.800000
105.069900 86674.800000
111.044000 8356.600000
115.054200 376086.500000
116.062200 13573.900000
117.069900 84234.200000
118.041200 209548.400000
121.028400 12296.900000
129.033400 57471.400000
130.041400 26044.300000
131.049100 237530.000000
132.020400 10434.200000
132.056800 6857.600000
133.028400 15572.100000
133.064600 46170.900000
143.049100 39972.800000
144.056800 9839.800000
145.028400 65359.800000
145.064800 60474.200000
146.036200 363276.600000
147.044000 8896.400000
157.028400 177085.200000
158.036200 140634.000000
159.044000 6888.400000
161.059700 1977840.000000
162.030900 26169.700000
171.043900 9134.400000
173.024100 13085.000000
173.059700 98032.200000
174.031100 2705128.500000
178.025200 4869.900000
185.023300 275881.600000
189.054600 253752.600000
202.026000 3665038.200000
217.049500 508029.100000

>ms2
53.038600 12566.600000
55.017800 13974.100000
55.054200 13145.200000
63.023000 5746.700000
64.030600 3963.800000
65.038500 20878.400000
66.046300 92017.200000
68.025600 7303.200000
75.022900 5877.000000
77.038500 8373.700000
78.046300 4818.500000
79.054200 58830.500000
81.033500 7498.900000
83.049200 8715.800000
89.038500 159725.200000
90.046400 371444.000000
91.054200 84706.300000
92.025600 7342.000000
93.033600 4899.900000
94.041300 17358.000000
95.049100 41162.100000
97.007600 28942.100000
101.038700 11922.700000
102.046400 46313.200000
103.054200 93127.900000
104.062000 10415.600000
105.033500 9182.400000
105.069900 103454.600000
111.023100 6186.800000
115.054200 311527.200000
116.062100 13230.400000
117.033500 7099.500000
117.069800 26585.100000
118.041300 834183.500000
119.049200 8575.200000
121.028300 12737.200000
122.036300 9749.700000
129.033400 110642.100000
130.041200 25730.900000
131.049100 307159.000000
132.020400 13206.300000
132.056800 15121.300000
133.028400 15236.800000
133.064700 23850.500000
134.036300 7573.900000
135.044100 3995.000000
143.049500 14016.400000
144.056900 5317.200000
145.028400 301394.100000
145.065200 15260.100000
146.036200 674189.100000
147.044600 4961.800000
150.030800 4762.000000
157.028400 136635.900000
158.036200 71099.200000
159.044300 4712.700000
161.059700 1111464.000000
162.030800 25582.100000
173.023400 13235.800000
173.059500 14176.100000
174.031100 3802914.000000
178.026000 22295.500000
185.023300 59795.600000
189.054400 43498.800000
202.026000 1199775.200000
217.049500 31344.100000

>ms2
51.023000 5148.100000
53.038600 31358.800000
55.017800 18158.100000
55.054300 13179.400000
63.022800 24278.300000
64.030600 13468.100000
65.038500 59217.500000
66.046400 278928.700000
68.025500 16706.300000
75.022800 28501.200000
77.038500 27211.800000
78.046300 10813.300000
79.054200 88760.000000
81.033500 13254.900000
83.049000 7245.300000
89.038500 1033843.200000
90.046400 1586396.600000
91.054200 81537.400000
92.025600 46027.100000
93.033400 10936.500000
94.041300 39881.400000
95.049100 130432.200000
97.007600 52199.200000
101.038600 33659.200000
102.046400 101959.600000
103.054200 135570.000000
104.062000 18084.400000
105.033600 15451.400000
105.069900 84110.400000
107.048900 23796.000000
108.056800 6434.500000
111.023300 11994.000000
115.054200 265899.200000
116.061900 10774.400000
117.033500 58350.700000
117.069800 7512.700000
118.041300 1755023.200000
119.049000 11416.000000
121.028400 15702.100000
122.036000 25655.600000
129.033400 137671.700000
130.041300 22368.300000
131.049100 264734.900000
132.020600 9170.300000
132.056700 11657.100000
133.028600 11385.200000
133.064600 10224.400000
134.036000 5192.200000
135.044100 25317.800000
143.049300 4327.300000
145.028400 767637.200000
146.036200 663990.100000
147.044000 3196.300000
150.030900 3897.500000
157.028500 69441.700000
158.036200 33040.600000
161.059700 473096.100000
162.030900 24456.400000
173.023400 12752.800000
174.031100 3147135.800000
178.026100 35101.800000
185.023300 6614.400000
189.054300 8833.000000
202.026000 299481.600000

