>compound LU48633344
>parentmass 189.14200000000002
>ionization [M+H]+
>formula C9H20N2S
>rt 984.420000
>profile orbitrap
#smiles_iso CCCCNC(=S)NCCCC
#smiles_can CCCCNC(=S)NCCCC
#inchikey KFFQABQEJATQAT-UHFFFAOYSA-N
#pubchem_id 2723622
#mb_accession LU135301,LU135302,LU135303,LU135304,LU135305,LU135306

>ms2peaks
57.069900 283336.600000
59.990200 74664.600000
74.096400 3358637.800000
116.052800 260793.800000
189.141900 1765169.600000

>ms2peaks
57.069900 523772.100000
59.990200 121288.600000
74.096400 3970853.500000
116.052800 332000.000000
189.141900 1296330.800000

>ms2peaks
55.054300 3038.600000
56.049500 15343.800000
57.069900 1400399.500000
58.065100 14688.900000
59.990300 291709.600000
74.096400 2182145.200000
96.068200 5829.300000
104.049400 7718.800000
106.065100 4763.400000
116.052900 230127.900000
117.057400 2789.000000
118.065300 4174.600000
120.080900 3387.100000
130.065200 7280.200000
131.073100 11068.800000
132.080900 6186.000000
146.084000 11698.700000
147.091700 13324.100000
189.142000 89697.100000

>ms2peaks
55.054300 2290.400000
56.049500 28184.300000
57.069900 1621973.600000
58.065100 25702.900000
59.990200 306267.800000
65.038700 3108.800000
74.096400 710228.600000
91.054200 5508.900000
95.060300 3494.000000
96.068300 7550.900000
103.054300 3232.600000
104.049500 20793.000000
106.065100 11561.300000
116.052900 49080.900000
117.057300 2172.300000
117.069900 5795.100000
118.065300 10268.000000
120.080800 8129.100000
130.065100 11455.300000
131.072800 13915.600000
132.080900 5132.700000
145.075900 1855.200000
146.083900 13744.700000
147.091700 20353.800000

>ms2peaks
55.054300 3307.800000
56.049500 37635.600000
57.069900 1309924.900000
58.065200 24885.100000
59.990300 281626.100000
65.038600 5250.200000
69.057400 2576.000000
74.096400 191293.100000
79.054200 3140.900000
81.044900 2759.700000
91.054200 8527.200000
95.060400 2001.600000
96.068200 3734.400000
103.054300 2154.200000
104.049500 20256.200000
105.044500 4281.500000
106.065300 17916.600000
115.054300 3941.600000
116.052900 6350.100000
117.057300 3788.700000
117.070100 6291.700000
118.065200 8438.600000
120.080800 4434.800000
130.065300 13280.700000
131.060700 2634.900000
131.073100 11884.900000
132.068200 3425.200000
132.080800 4705.000000
145.075600 4825.500000
146.083800 4648.600000
147.091600 12396.800000

>ms2peaks
55.054200 7138.800000
56.049500 49286.700000
57.069900 823507.300000
58.065100 16449.500000
59.990300 284898.100000
65.038600 6496.900000
69.057200 1789.500000
74.096400 49565.700000
79.054200 4714.700000
81.044800 3072.100000
91.054300 9593.400000
95.060400 2496.200000
96.068200 2622.100000
103.054100 3263.300000
104.049500 15191.300000
105.044800 8303.800000
106.065100 17244.700000
115.054300 6120.700000
117.057600 3649.400000
117.070000 3869.700000
118.065300 3924.100000
130.065000 7833.200000
131.060600 4613.200000
131.073100 4157.600000
132.068400 4606.400000
132.080900 2606.900000
145.076200 4585.200000
147.091700 4143.200000

