>compound LU48997124
>parentmass 323.988
>ionization [M+H]+
>formula C13H10INO
>rt 976.320000
>profile orbitrap
#smiles_iso C1=CC=C(C=C1)NC(=O)C2=CC=CC=C2I
#smiles_can C1=CC=C(C=C1)NC(=O)C2=CC=CC=C2I
#inchikey LJOZMWRYMKECFF-UHFFFAOYSA-N
#pubchem_id 27195
#mb_accession LU020301,LU020302,LU020303,LU020304,LU020305,LU020306

>ms2
105.033400 69470.200000
120.044400 98625.200000
197.083600 116633.600000
202.936100 22303.700000
230.930000 577667.500000
323.987900 11497135.000000

>ms2
76.031200 12580.100000
78.046500 8911.500000
92.049500 95652.100000
94.041300 41410.900000
95.049100 32272.400000
105.033600 1006288.900000
120.044400 520907.200000
197.083700 235478.500000
202.934700 16800.300000
229.946200 8491.000000
230.930200 7692548.000000
305.977800 40253.400000
323.988100 3557515.000000

>ms2
52.030800 10789.700000
53.038600 21036.400000
76.031100 27175.000000
92.049500 174606.800000
94.041300 1324961.200000
95.049200 80409.500000
104.025400 15888.300000
105.033500 881559.100000
120.044400 197585.700000
196.075600 14168.300000
197.083500 27964.200000
202.935100 28867.400000
220.945800 25543.000000
230.930200 9874184.000000
305.977200 24013.700000
323.988200 234113.500000

>ms2
50.015200 6843.000000
51.023000 7837.800000
52.030800 44157.300000
53.038600 42491.600000
54.046400 35438.000000
55.017900 25036.900000
63.022900 5203.600000
64.030700 43390.900000
65.038500 12046.800000
66.046400 30394.200000
76.030700 210321.500000
77.038400 11571.200000
78.046400 10277.300000
79.017900 16178.900000
80.025700 20955.000000
81.033500 115086.500000
91.017800 7050.300000
92.025700 47893.800000
92.049500 133500.000000
94.041300 4156347.500000
95.049100 130604.200000
96.045400 9050.000000
104.025700 35694.900000
105.033600 544895.100000
108.056900 47295.200000
120.044400 31602.600000
178.935300 5961.100000
196.075800 15622.400000
202.935100 43344.500000
219.937600 9071.500000
220.945900 220713.300000
230.930100 4816725.500000
231.937100 5184.000000
323.987800 5172.500000

>ms2
50.015000 12297.000000
51.022800 12271.500000
52.030700 71718.700000
53.002200 17403.100000
53.038600 135033.800000
54.046400 63407.900000
55.017800 89188.400000
63.022700 12686.200000
64.030700 86104.500000
65.038500 26186.000000
66.046300 160918.500000
75.023000 8498.400000
76.030700 1272541.400000
77.038400 22222.000000
78.046400 30155.900000
79.017800 69937.800000
79.054200 12079.500000
80.025600 37941.900000
81.033500 527450.000000
91.017800 46080.500000
92.025700 107416.100000
92.049500 77210.100000
94.041300 4778636.000000
95.049000 209592.500000
96.045500 11584.500000
104.025500 72720.500000
105.033500 345041.400000
108.056900 70889.500000
120.044400 10035.500000
178.065100 7297.100000
178.934800 8381.400000
196.075400 14025.100000
202.934900 58671.400000
219.937900 19438.500000
220.945700 444768.100000
230.930300 1698825.200000

>ms2
50.015000 15517.400000
51.023000 10988.400000
52.030800 78395.500000
53.002200 37101.100000
53.038600 210733.800000
54.046400 63063.300000
55.017900 157950.400000
63.022800 18084.400000
64.030700 86180.100000
65.002100 15975.200000
65.038500 34948.400000
66.046400 444479.500000
75.022900 21678.800000
76.030700 2663811.000000
77.038500 36018.000000
78.046400 51343.900000
79.017900 128744.600000
79.054300 22547.500000
80.025700 24342.600000
80.049500 3128.200000
81.033500 956972.500000
91.017900 78706.000000
91.054100 5565.600000
92.025700 88394.600000
92.049400 42944.200000
93.033500 5000.600000
94.041300 3006729.500000
95.049100 262025.000000
96.045400 3413.500000
104.025600 64304.500000
105.033500 167863.500000
108.056900 67277.000000
178.065500 7307.400000
178.935300 8365.600000
196.076000 12230.100000
202.935300 40892.600000
219.937800 14063.500000
220.945800 336530.500000
230.930200 374433.000000
231.938500 4821.100000

