>compound LU48012166
>parentmass 316.1076
>ionization [M+H]+
>formula C16H15F2N3Si
>rt 1100.400000
>profile orbitrap
#smiles_iso C[Si](CN1C=NC=N1)(C2=CC=C(C=C2)F)C3=CC=C(C=C3)F
#smiles_can C[Si](CN1C=NC=N1)(C2=CC=C(C=C2)F)C3=CC=C(C=C3)F
#inchikey FQKUGOMFVDPBIZ-UHFFFAOYSA-N
#pubchem_id 73675
#mb_accession LU055501,LU055502,LU055504,LU055505,LU055506

>ms2peaks
158.027100 4420.800000
187.058700 24692.500000
201.074300 4203.000000
316.107600 409894.800000

>ms2peaks
53.038600 52438.300000
70.039900 20018.000000
77.038500 51913.200000
81.000200 125281.200000
91.054200 656252.100000
95.015800 447924.800000
95.049100 186218.100000
103.054200 17265.000000
105.044700 69124.600000
105.069900 82043.600000
109.031500 101758.400000
109.045100 49975.100000
115.054300 16596.200000
128.062000 24898.700000
141.000300 40810.300000
141.069800 128023.100000
151.037200 58547.900000
152.062100 183466.600000
153.069800 146411.300000
158.026900 77755.400000
165.069800 4115725.200000
166.077600 1179540.800000
167.085500 24996.500000
169.028300 69439.600000
169.047700 580579.600000
171.043400 328464.100000
171.080200 19412.400000
173.042900 26366.000000
175.021800 45660.600000
178.077900 43090.100000
179.085500 147538.600000
181.075800 29347.000000
181.101000 80969.600000
182.042700 21513.600000
185.043100 23865.800000
185.076100 427179.100000
187.058400 15814099.000000
189.037400 55015.100000
193.076200 50042.500000
201.074000 1976986.800000
205.068900 209203.700000
217.047600 63068.900000
219.043800 22454.700000
232.051700 54888.100000
235.058500 58057.800000
237.053700 47649.700000
243.083300 24992.700000
245.058700 32231.900000
245.079400 116621.900000
249.074300 18779.900000
263.090300 30309.600000
267.064300 16308.200000
316.107400 6963572.500000

>ms2peaks
51.023000 13167.800000
53.038600 902164.600000
63.006400 23781.000000
65.038600 40427.100000
67.054300 16113.100000
70.039800 15464.000000
77.038500 432654.000000
79.054200 729892.800000
81.000300 795867.900000
89.038600 33633.500000
91.054300 1071218.400000
94.041400 101957.500000
95.016000 1216244.400000
95.049100 2450292.500000
97.044800 57958.000000
102.046500 22428.700000
103.054200 379477.400000
105.044800 969000.100000
105.069900 1254607.000000
109.031600 242090.800000
109.044800 682458.100000
111.010800 38828.400000
113.026500 11965.800000
115.054200 323202.400000
119.049000 18291.500000
121.022900 24952.900000
121.044900 15855.100000
123.060500 81669.500000
128.062000 139109.700000
129.044800 25068.800000
131.060600 23648.800000
139.054200 85959.200000
140.062300 15155.700000
141.000400 47064.800000
141.016800 20984.100000
141.069800 377632.900000
145.064900 41239.400000
151.037200 72445.300000
152.062100 844318.200000
153.069900 933954.600000
155.012400 28437.600000
155.060300 53034.100000
155.085500 121505.300000
157.032300 14509.100000
159.060400 100512.000000
164.062200 213793.100000
165.069900 11542612.000000
166.077600 620095.900000
167.032200 93720.400000
167.085500 19072.800000
168.056900 187016.500000
169.028100 43021.700000
169.047900 233058.700000
169.064800 72994.900000
170.052600 128329.600000
171.043500 505398.500000
171.080500 61908.200000
173.043000 125146.000000
173.076300 24654.400000
175.022100 389743.200000
177.069900 15679.200000
178.077800 364387.200000
179.060600 26514.700000
179.085500 267245.900000
181.075900 83158.300000
183.060500 783442.100000
184.068200 106032.900000
185.043000 196219.000000
185.076100 1438267.400000
187.058500 1534501.200000
189.037800 26390.400000
193.076400 13793.100000
196.051700 57122.300000
197.076400 27430.700000
199.038400 82300.100000
199.057600 12102.500000
201.074100 161528.300000
203.033400 22282.800000
203.066700 26511.600000
217.048100 185880.100000
219.043500 28811.000000
229.047500 16320.400000
231.043500 51710.700000
232.051300 46688.100000
235.038500 66367.300000
235.058600 161211.900000
237.054200 255656.700000
245.059500 30175.000000
245.079400 106228.500000
249.054300 26734.400000
249.074300 35091.200000
253.048900 85597.000000
261.074300 19564.000000
263.089900 29426.500000
267.064200 49829.000000

>ms2peaks
53.038600 25010.800000
55.054100 1878.900000
63.006300 2121.100000
65.038600 10341.600000
77.038500 6647.100000
79.054200 22166.000000
81.000300 17787.300000
89.038800 2564.600000
91.054300 63712.600000
95.015900 36850.000000
95.049200 73236.000000
103.054200 16253.200000
105.044800 35094.500000
105.069900 28764.500000
109.031600 7994.400000
109.044900 47703.400000
111.010700 2181.200000
113.026900 1694.000000
115.054300 19436.400000
123.060500 3906.100000
128.062000 4339.200000
129.069900 3815.700000
139.054100 8395.600000
141.070100 5431.600000
152.062200 40102.300000
153.070000 14147.900000
155.060600 2694.500000
155.085700 3256.000000
163.054400 4309.700000
164.062000 7372.300000
165.070000 268642.400000
166.077800 2254.800000
168.057100 13330.100000
169.047800 2582.400000
169.064800 6187.000000
171.043400 2347.200000
173.076300 1951.600000
175.022300 12028.700000
178.077800 11459.600000
179.060700 3096.400000
179.085600 3859.600000
183.060600 37836.400000
184.069000 3121.000000
185.043100 5149.800000
185.076100 17263.100000
187.058500 15054.600000
196.051700 4883.000000
201.073900 2337.800000
235.038500 2023.000000
235.059500 3242.200000
253.049300 4262.000000
267.064400 3247.800000

>ms2peaks
51.023100 18231.800000
53.038600 631655.200000
55.054300 41510.400000
63.006400 14952.100000
65.038600 894079.400000
67.054200 8227.900000
70.040000 13528.500000
77.038500 347136.900000
79.054200 816172.200000
81.000300 213875.000000
89.038600 221234.400000
90.046500 30191.800000
91.054300 2539655.800000
94.041400 71254.800000
95.015900 621071.900000
95.049200 1780722.400000
97.045000 20384.900000
102.046500 72923.800000
103.054300 560605.500000
105.044800 708581.800000
105.069900 511125.200000
109.031700 149140.700000
109.044800 2567902.000000
111.010900 55105.000000
115.054300 964497.300000
119.049300 21712.000000
121.022900 26067.900000
121.044900 9178.600000
123.060500 99142.400000
128.062100 139773.200000
129.044500 29675.200000
129.069900 65656.700000
131.060300 12363.500000
139.054300 543929.600000
140.062100 52507.200000
141.069700 60060.300000
145.064900 96422.800000
146.052700 77880.400000
150.046400 170678.500000
152.062100 1818830.800000
153.069900 187879.600000
154.077900 10575.100000
155.012300 40901.500000
155.060400 127231.700000
155.085900 17037.400000
157.031800 16490.800000
159.060500 167330.600000
163.054300 458517.400000
164.062100 518968.200000
165.069900 6908927.500000
166.077600 12157.100000
167.032300 105435.700000
168.057000 564891.600000
169.064800 497032.800000
170.052600 541848.900000
171.043700 12630.700000
171.080900 8604.200000
173.042800 33432.000000
173.076200 25814.100000
175.022200 214032.300000
177.070100 48113.700000
178.077700 394660.800000
179.060400 123869.700000
181.076300 10780.400000
183.060500 1551986.900000
184.068300 160510.800000
185.042800 168643.500000
185.076100 152797.500000
187.058600 188730.900000
189.038100 9562.500000
191.032400 32393.200000
196.052000 188261.700000
197.076500 18663.600000
199.038000 36456.700000
199.058400 20341.600000
201.074300 21106.900000
203.033900 42828.500000
203.053500 13096.400000
217.047900 59025.600000
229.048400 8031.000000
231.043500 13223.200000
235.038600 75629.800000
235.058700 59584.700000
237.054000 29472.600000
249.073900 16507.700000
253.049200 139737.700000
267.065100 41394.700000

