>compound LU49703400
>parentmass 198.10259999999997
>ionization [M+H]+
>formula C12H11N3
>rt 1034.220000
>profile orbitrap
#smiles_iso C1=CC=C(C=C1)N=NC2=CC=C(C=C2)N
#smiles_can C1=CC=C(C=C1)N=NC2=CC=C(C=C2)N
#inchikey QPQKUYVSJWQSDY-UHFFFAOYSA-N
#pubchem_id 6051
#mb_accession LU131301,LU131302,LU131303,LU131304,LU131305,LU131306

>ms2peaks
53.038600 667419.200000
68.049400 12580.800000
77.038400 295475.100000
92.049400 63283.300000
93.057300 37501.200000
94.041400 61363.900000
95.049100 2026389.600000
105.044700 1282744.800000
109.065000 18134.300000
120.055800 14076.300000
153.069800 20458.000000
169.088200 19306.000000
170.096600 18134.200000
198.102500 12105114.000000

>ms2peaks
51.023000 9889.300000
53.038600 1068323.400000
65.038700 9186.700000
68.049500 24280.300000
77.038500 370828.100000
79.054200 8057.800000
81.070000 18316.700000
92.049400 97316.200000
93.057300 79554.300000
94.041400 101513.900000
95.049100 3118319.200000
105.044700 1675981.900000
109.064700 26318.400000
120.055700 16399.800000
128.062000 7848.300000
153.069800 30725.800000
169.088700 23965.400000
170.096800 13997.600000
181.076300 12175.800000
198.102500 7754754.500000

>ms2peaks
51.023000 9587.900000
53.038600 1340520.000000
65.038500 35618.000000
67.054300 4148.800000
68.049400 28515.400000
77.038500 384977.300000
79.054200 13359.900000
81.069900 18117.300000
91.054300 7718.500000
92.049500 150052.000000
93.057300 148446.100000
94.041400 148740.600000
94.065200 8504.000000
95.049100 4103217.200000
105.044700 1783607.600000
106.052500 10312.700000
106.065100 8934.700000
107.049300 6755.000000
107.060700 4745.900000
109.064800 46170.700000
120.055800 10546.000000
128.062100 7632.800000
143.085400 4614.900000
152.062100 28176.300000
153.069900 32787.700000
169.088500 33337.200000
170.096500 6433.400000
181.076100 12379.500000
196.086900 8045.900000
198.102500 1006804.100000

>ms2peaks
50.015200 14231.400000
51.022900 20622.000000
53.038600 2480985.800000
65.038500 213170.100000
67.054200 14170.800000
68.049500 23881.300000
77.038500 1019185.300000
79.054100 22305.700000
81.069900 34366.300000
91.054300 11754.500000
92.049500 357180.000000
93.057300 353922.500000
94.041400 266134.600000
94.065200 15503.800000
95.049100 7845727.500000
105.044700 3225232.500000
106.052500 90492.900000
106.065000 18369.300000
107.049200 11772.300000
107.060600 18660.500000
107.073200 8767.900000
109.064800 85888.700000
128.062100 20750.000000
152.062000 76005.600000
153.069800 18972.900000
154.065200 9491.900000
169.088400 44197.500000
181.075900 18169.200000
198.102500 162891.900000

>ms2peaks
50.015100 26611.500000
51.022900 28858.400000
53.038600 2138847.200000
65.038600 343776.100000
66.046400 19343.900000
67.054200 26385.600000
68.049400 11440.600000
77.038600 1316676.000000
79.041700 30237.800000
79.054200 24600.700000
80.049300 9323.300000
81.069900 30326.700000
91.054200 10115.200000
92.049500 245694.000000
93.057400 352427.600000
95.049100 6385167.000000
105.044800 2506874.200000
106.052600 166921.300000
106.065000 26786.200000
107.049100 9665.000000
107.060200 13077.600000
107.072600 6424.500000
109.064800 70652.100000
128.061800 15709.800000
152.062100 64814.400000
154.065100 6863.800000
168.080600 12607.200000
169.088800 22951.000000
181.075900 16808.500000
198.102400 8224.000000

>ms2peaks
50.015100 56726.300000
51.022900 56773.500000
53.038600 1882680.400000
65.038500 457703.200000
66.046400 51686.600000
67.054200 43351.800000
76.030600 8527.000000
77.038500 1662704.800000
78.033800 7745.000000
79.041600 85013.700000
79.054200 19127.000000
80.049500 24249.200000
81.069900 21532.100000
91.054300 12264.800000
92.049400 151808.900000
93.057300 354104.700000
94.041400 215862.900000
95.049100 5582759.000000
105.044700 2361160.200000
106.052500 170498.500000
106.065000 29071.500000
107.049200 8100.400000
107.060400 16508.400000
109.064900 50538.300000
128.062100 10016.700000
152.061900 64726.400000
154.065200 9282.700000
168.080700 17149.700000
169.064500 6386.600000
169.088600 11865.400000
181.076200 8994.400000
196.086900 7253.000000

