>compound LU49125193
>parentmass 464.1439
>ionization [M+H]+
>formula C25H22FN3O3S
>rt 1050.180000
>profile orbitrap
#smiles_iso CC[C@@H](C1=CC=CC=C1)NC(=O)C2=C(C=CC(=C2)F)NS(=O)(=O)C3=CC=CC4=C3N=CC=C4
#smiles_can CCC(C1=CC=CC=C1)NC(=O)C2=C(C=CC(=C2)F)NS(=O)(=O)C3=CC=CC4=C3N=CC=C4
#inchikey VYUUPUMKBLIKJV-NRFANRHFSA-N
#pubchem_id 9981849
#mb_accession LU100301,LU100302,LU100303,LU100304,LU100305,LU100306

>ms2
91.054200 246214.400000
119.085500 928088.100000
128.044600 10204.100000
129.058500 28098.200000
137.028300 10133.100000
154.055000 11787.100000
210.021700 54901.600000
265.076500 75940.200000
329.038900 1608417.500000
346.065300 8790979.000000
464.143800 7300325.000000

>ms2
65.038400 11094.900000
91.054200 4902559.500000
106.065000 12783.800000
119.085500 2881400.800000
129.058300 13839.300000
134.096300 166386.500000
138.034900 49218.400000
154.053500 144910.000000
160.021500 28462.600000
161.029200 19909.700000
192.011200 68769.600000
210.021800 586252.400000
224.037300 8908.200000
236.074500 6155.900000
243.092600 109369.200000
264.069200 37308.700000
265.077000 6138782.000000
272.132300 17026.600000
329.038800 5752429.500000
346.065400 1030646.900000
464.143800 13289.000000

>ms2
65.038400 55120.300000
91.054100 8969221.000000
105.057300 14405.400000
106.065000 63106.700000
119.085400 775992.400000
128.049300 218629.500000
129.057400 13542.200000
134.096300 373890.100000
137.027100 13320.300000
138.034900 469177.400000
144.044400 26132.300000
146.059900 324558.800000
154.053500 257620.300000
155.037600 101669.500000
156.044400 10430.500000
156.055200 11414.100000
160.021400 101590.600000
160.075400 37092.400000
161.029200 78119.100000
170.061000 15763.200000
174.055100 15583.000000
177.024100 17953.200000
192.011200 213718.200000
194.027000 18867.300000
210.021800 499269.000000
217.075900 16350.400000
224.037300 15984.100000
236.074500 30770.900000
237.082400 53853.000000
243.092600 32682.300000
264.069300 156053.200000
265.076900 9797871.000000
329.038800 237043.800000

>ms2
56.049400 15076.800000
63.022900 10026.300000
65.038500 155931.700000
91.054100 9823988.000000
105.057300 43922.400000
106.065000 65740.200000
109.032100 14928.200000
110.040000 46987.600000
117.057000 19822.200000
117.069700 30653.500000
119.085500 123574.300000
128.049300 635396.800000
129.044400 15181.100000
129.057000 47242.800000
132.044100 24375.200000
134.096300 421735.900000
137.026900 32975.700000
138.034900 744684.900000
144.044300 69632.600000
145.052100 11336.900000
146.059900 781363.200000
154.053600 117652.300000
155.037500 357083.400000
156.044200 16616.800000
156.055300 25961.700000
160.021400 116362.600000
160.075500 106790.500000
161.029200 77370.500000
169.053100 14362.600000
170.061100 20694.400000
174.055100 19372.200000
177.024000 17859.700000
190.064900 32779.900000
192.011200 153007.800000
194.026800 31455.000000
210.021800 126149.900000
216.067900 86489.000000
217.075800 254074.800000
221.070600 15006.300000
222.071100 15239.800000
237.082100 286405.800000
238.066300 34266.500000
245.070900 80085.200000
247.066300 105416.200000
263.061400 19557.400000
264.069300 805255.700000
265.076900 6280899.500000

>ms2
53.038600 14994.300000
56.049500 47816.200000
65.038500 317745.800000
75.022900 14406.300000
77.038500 21320.800000
79.054100 20696.300000
83.029100 44570.400000
89.038300 16052.000000
91.054200 10019448.000000
95.049000 54824.000000
102.046400 12406.300000
105.044600 13040.200000
105.057300 71343.800000
106.065000 59210.700000
108.044400 13190.400000
109.032200 87070.600000
110.016000 35861.500000
110.040000 249549.700000
117.057200 62870.000000
117.069700 94909.400000
119.049100 40994.800000
119.085600 17094.800000
127.042500 12877.200000
128.049400 1027523.400000
129.044600 104190.500000
129.057100 96714.800000
132.044300 26628.600000
134.059900 63528.000000
134.096300 319057.500000
137.027000 48350.300000
138.034900 742646.900000
142.052300 15375.400000
144.044300 107222.100000
145.052400 16108.500000
146.059900 789598.300000
148.021500 38873.100000
154.053500 24514.300000
155.037600 461308.100000
156.044500 17501.800000
156.055200 28592.100000
160.021500 96507.400000
160.075500 105696.200000
161.029200 59841.700000
161.047200 16838.500000
166.065100 14631.900000
169.053500 17494.100000
170.060900 24433.900000
174.054700 23309.900000
176.016500 14928.600000
177.024100 10855.600000
183.060400 34599.100000
190.064900 138461.100000
191.072800 20151.700000
192.011300 27640.900000
194.060200 12208.600000
197.063500 13535.600000
208.055700 11212.700000
208.075500 13027.300000
209.063300 145017.600000
210.021700 14243.500000
216.068100 432097.100000
217.075900 424769.300000
218.083800 25204.800000
221.070800 12259.200000
222.071300 17169.100000
227.059500 16966.300000
235.066700 49070.700000
236.074300 1575962.500000
237.082100 285613.400000
238.066100 63114.400000
244.063000 16051.500000
245.070800 76748.200000
246.078300 19412.800000
247.066400 190785.000000
263.061500 26842.200000
264.069200 1429252.100000
265.077000 1876522.500000

>ms2
53.002200 20020.300000
53.038600 47504.500000
56.049500 85929.300000
57.013500 12462.100000
63.022900 51208.000000
65.038500 675722.200000
75.022900 67477.600000
77.038500 46626.100000
80.049400 14990.300000
83.029100 147029.500000
89.038500 47576.900000
91.054200 10118892.000000
101.038500 49527.800000
102.046400 60985.600000
104.049500 22625.500000
105.044700 63990.700000
105.057200 75191.100000
106.065000 60437.000000
108.044400 41110.600000
109.032200 279897.300000
110.016100 89298.000000
110.040000 551705.500000
116.049400 24215.000000
117.057200 79973.800000
117.069800 115262.100000
119.049100 118963.200000
127.042500 30039.200000
128.049400 1146101.800000
129.044700 297905.300000
129.057000 179508.000000
132.044300 30766.200000
134.059900 98401.700000
134.096300 175354.500000
137.027000 34757.300000
138.034900 457241.200000
142.052500 26392.800000
144.044300 107238.200000
145.052200 15368.500000
146.059900 473562.900000
148.021300 35681.200000
155.037600 352059.800000
156.055400 15065.100000
160.021400 61411.000000
160.075500 70812.600000
161.029400 42415.100000
161.047000 40157.700000
163.054000 19545.700000
166.064900 17285.600000
169.053200 11452.400000
170.060700 16860.000000
174.055100 17682.900000
183.060400 81301.500000
190.065000 205349.400000
191.060400 17159.300000
191.072800 35171.400000
194.059900 21336.400000
197.063500 24356.500000
208.055600 63876.900000
208.075600 15583.000000
209.063300 353576.500000
215.060000 30375.900000
216.068100 601645.200000
217.075900 211859.200000
218.059700 12806.000000
218.083600 43031.000000
222.071300 17239.800000
226.066300 10165.600000
227.060200 26115.400000
234.058900 31692.100000
235.066500 230782.800000
236.074300 2377886.500000
237.082100 103273.700000
238.066200 38799.100000
244.063000 11147.700000
245.070900 30779.200000
247.066400 119641.500000
263.061500 36195.800000
264.069200 788276.600000
265.077000 268693.100000

