>compound LU49787236
>parentmass 278.0455
>ionization [M+H]+
>formula C9H7N7O2S
>rt 643.620000
>profile orbitrap
#smiles_iso CN1C=NC(=C1SC2=NC=NC3=C2NC=N3)[N+](=O)[O-]
#smiles_can CN1C=NC(=C1SC2=NC=NC3=C2NC=N3)[N+](=O)[O-]
#inchikey LMEKQMALGUDUQG-UHFFFAOYSA-N
#pubchem_id 2265
#mb_accession LU126201,LU126202,LU126203,LU126204,LU126205,LU126206

>ms2
57.974600 2864.100000
67.029100 11005.700000
69.008400 2284.200000
69.044700 2233.900000
74.005900 3746.100000
84.985500 52735.600000
85.969600 2321.100000
90.001100 1981.100000
100.980400 4312.100000
113.016700 3038.600000
121.051000 2300.900000
136.038100 12466.600000
142.007000 1745689.000000
152.015300 4373.100000
164.015000 9069.500000
165.023200 5049.300000
177.021900 1790.200000
199.072600 18103.100000
205.041700 16921.400000
231.044900 37710.600000
232.052700 690053.200000
248.047400 14875.400000
278.045500 269046.400000

>ms2
57.974600 13927.500000
58.028700 9082.200000
67.029100 96714.400000
69.008300 3503.400000
69.044700 26204.400000
72.985500 2900.400000
72.998000 6653.400000
74.005800 17984.700000
81.031900 2084.500000
81.044700 12658.200000
84.985500 278642.600000
85.969400 7284.000000
90.000800 3884.900000
100.980400 20519.800000
112.009000 5036.300000
113.016800 25054.700000
121.050700 25307.200000
134.058500 3837.900000
136.038000 32333.100000
137.045700 3322.300000
142.007000 1283075.200000
152.015200 32782.100000
152.032800 4214.100000
153.023200 2484.100000
159.053800 3909.500000
160.061900 4364.800000
164.015000 56158.900000
165.023000 75291.800000
172.062000 4093.100000
173.069500 3237.500000
174.077300 20380.100000
177.023000 23129.000000
191.025900 10474.300000
199.072700 210074.400000
200.080700 4272.100000
204.033600 4636.300000
205.041700 191821.100000
215.025800 13099.300000
231.044800 84941.500000
232.052600 840524.300000
248.047200 7748.700000
278.045300 8713.600000

>ms2
57.974600 55277.800000
58.028800 16331.500000
58.982400 2138.500000
67.029100 240799.500000
69.008300 15064.500000
69.044700 31538.800000
72.985500 3788.700000
72.998100 26243.600000
74.005800 73275.800000
81.032200 9993.000000
81.044700 68431.600000
84.985500 429814.900000
85.969500 7247.800000
86.005800 10079.000000
90.000800 6908.400000
100.980400 30655.200000
108.043000 5329.500000
109.026900 2324.800000
112.008800 10280.600000
113.016800 91645.600000
119.035200 25162.600000
120.043000 19537.200000
121.050800 30710.000000
134.058700 7944.500000
136.038000 44293.100000
137.045900 14013.100000
142.007000 478702.800000
145.050800 2611.100000
146.046100 10498.200000
147.053700 4327.300000
147.066900 2178.200000
152.015100 102428.300000
152.032600 14054.800000
153.023000 8239.800000
158.058800 4627.800000
159.054000 12035.700000
160.061800 14035.200000
164.015100 115326.900000
165.023000 182478.800000
172.061800 50500.400000
173.069700 9654.200000
174.077500 50287.100000
176.014800 3843.600000
177.023000 55252.800000
178.030900 3703.300000
182.025900 3208.400000
187.072600 4290.200000
188.014500 3243.300000
190.017900 5241.700000
191.026100 27219.100000
199.072700 372150.200000
200.080500 10171.900000
204.033900 70291.400000
205.041700 360056.200000
214.041600 2778.500000
215.026200 20911.200000
231.044800 138571.800000
232.052600 168504.900000

>ms2
54.021300 5934.500000
54.033800 6078.500000
57.974600 80471.600000
58.028700 11445.000000
58.982400 2138.400000
59.990200 3206.200000
67.029100 266091.200000
69.008300 29766.500000
69.044700 33077.200000
71.990200 2320.100000
72.985500 2302.100000
72.998000 28448.200000
74.005900 134354.100000
81.032200 17100.500000
81.044700 108347.900000
84.985500 311279.900000
85.969600 6578.300000
86.005900 27204.100000
90.000900 5960.700000
92.024400 6163.500000
94.039900 3980.500000
100.980500 18769.600000
106.040300 3252.200000
108.043000 19518.000000
109.027100 4705.100000
112.009200 4621.000000
113.016800 106826.800000
119.035300 101574.900000
120.043000 28202.600000
121.050900 28912.300000
124.050800 8144.500000
125.004200 6756.900000
133.051100 4184.800000
134.058800 17733.300000
135.030100 2970.300000
135.996700 3843.400000
136.038000 32224.300000
137.004500 4125.100000
137.045800 21463.600000
138.012200 2780.000000
142.007000 105615.900000
145.050800 15927.300000
146.046000 27563.000000
147.054000 3513.300000
147.066600 8155.800000
148.061600 2437.900000
152.015200 135837.100000
152.033000 12809.700000
153.022900 17187.200000
158.058700 16378.100000
159.054200 23337.800000
160.061900 15441.000000
164.015100 187253.900000
165.023000 154112.400000
172.061800 119599.700000
173.069800 4291.000000
174.077600 46338.200000
176.015200 11939.200000
177.023000 78748.500000
178.030900 4564.800000
181.018000 2973.200000
182.026000 3826.100000
187.072700 7268.100000
188.015000 4580.300000
190.018200 9040.600000
191.025800 11572.500000
198.065000 3707.000000
199.072700 207879.800000
200.080300 5433.200000
204.034000 159915.600000
205.041800 146410.200000
214.042100 4449.000000
215.026100 6705.800000
217.029200 2128.600000
231.044800 98642.400000
232.052500 12555.500000

>ms2
52.018200 1725.200000
54.021200 8701.300000
54.033900 14099.400000
57.974600 95697.000000
58.028700 8282.800000
58.995000 8344.600000
59.990200 4055.000000
61.010700 3046.800000
65.013400 1865.800000
66.021300 5453.200000
67.029100 255162.800000
69.008300 48165.300000
69.044700 51464.300000
70.039900 3343.600000
72.998000 23526.500000
74.005900 185222.700000
79.029100 3509.500000
81.032200 27518.500000
81.044700 105378.700000
84.985500 165647.800000
85.969600 2725.800000
86.005900 42832.800000
90.001000 2808.100000
92.024300 28099.900000
94.040000 8369.400000
97.993300 3259.100000
100.980600 6335.600000
106.040000 8704.800000
108.019200 3725.700000
108.043100 26291.500000
109.027100 6684.300000
111.001200 5447.900000
112.009100 2588.400000
113.016800 95837.500000
118.040100 5747.300000
119.035300 176366.200000
120.043100 37126.500000
120.056000 2884.500000
121.050900 48034.600000
124.050600 27804.300000
125.004200 26532.500000
131.035300 3577.800000
132.043100 5234.000000
133.051000 8243.400000
134.058700 26052.700000
135.030400 4494.500000
135.996400 9671.000000
136.037900 18985.100000
137.004300 3845.700000
137.045900 29163.400000
138.012200 8211.600000
142.007000 21178.500000
145.050900 33534.800000
146.046100 36252.200000
147.066800 12322.200000
148.061800 2603.700000
149.004500 5696.500000
151.020000 3683.000000
152.015100 120914.400000
152.033000 24846.200000
153.023200 13557.100000
158.058700 21513.400000
159.054000 29437.200000
160.061900 13812.600000
163.007300 4722.600000
164.015100 170116.300000
165.023000 97622.800000
170.045900 3085.400000
172.061800 125791.700000
173.069800 4253.400000
174.077300 21006.300000
176.015200 22888.700000
177.022900 79454.500000
178.030600 4152.000000
181.018200 3332.500000
187.072500 3208.400000
188.015700 5512.200000
190.018400 5052.700000
191.025400 2369.100000
198.065300 4438.400000
199.072700 75201.200000
200.080900 2730.600000
204.033900 167778.600000
205.041800 22258.100000
214.042100 4772.000000
215.026300 2591.900000
217.029100 2414.000000
231.044800 39127.200000

>ms2
52.018300 2567.300000
54.021300 15810.800000
54.033800 17727.600000
57.974600 100813.000000
58.028800 6013.500000
58.995000 26488.900000
59.990300 3919.000000
61.010700 5949.400000
65.013400 11025.800000
66.021200 17782.900000
67.029100 220100.900000
69.008300 61698.300000
69.044700 81885.300000
70.040000 13243.200000
71.990200 4247.500000
72.985400 1836.800000
72.998100 18631.700000
74.005900 187592.000000
79.029200 7227.600000
81.032200 36138.800000
81.044800 78562.300000
84.985500 83906.600000
86.005900 59896.700000
92.024300 59907.000000
94.040000 26643.200000
97.993300 13759.800000
100.980300 3025.400000
106.040000 13393.900000
108.019400 5343.400000
108.043100 23484.900000
109.027000 9701.900000
111.001200 12012.000000
113.016800 73690.000000
118.040000 22031.500000
119.035300 213604.000000
120.043100 46441.400000
120.055700 4705.800000
121.050900 57858.300000
124.050600 43599.500000
125.004300 44096.000000
131.035300 3214.600000
132.043200 12115.100000
133.051300 9737.200000
134.058700 32729.400000
135.030400 3989.000000
135.996600 20589.000000
136.037800 10928.400000
137.004300 3265.800000
137.045800 23082.900000
138.012300 7324.700000
142.007000 4338.200000
145.051000 51822.500000
146.046200 37771.600000
147.066500 8220.900000
149.004300 18637.400000
151.020000 4628.000000
152.015100 65029.000000
152.032900 28376.000000
153.023000 8179.500000
158.058900 11165.400000
159.054000 24985.100000
160.061700 14274.200000
163.007600 4377.200000
164.015200 104036.900000
165.023100 42279.800000
170.046400 6675.000000
172.061800 79401.200000
173.070000 2683.100000
174.077600 10159.100000
176.015400 29113.300000
177.023000 69616.700000
181.018100 5082.500000
187.072900 6808.600000
188.015000 3057.500000
198.065600 4902.500000
199.072700 17506.700000
204.034000 107488.500000
231.045300 8844.100000

