>compound LU50415188
>parentmass 256.0225
>ionization [M+H]+
>formula C7H14NO3PS2
>rt 843.480000
>profile orbitrap
#smiles_iso CCOP(=O)(N=C1SCCS1)OCC
#smiles_can CCOP(=O)(N=C1SCCS1)OCC
#inchikey ILBONRFSLATCRE-UHFFFAOYSA-N
#pubchem_id 13689
#mb_accession LU107801,LU107802,LU107803,LU107804,LU107805,LU107806

>ms2peaks
61.010600 1009725.800000
139.956500 666068.200000
167.987900 2448814.800000
196.019300 4392208.500000
199.960000 1830894.600000
227.991300 6154804.500000
256.022500 11426907.000000

>ms2peaks
59.990400 18994.800000
61.010600 3882673.200000
64.978600 10232.600000
80.973600 10263.500000
89.041900 10585.500000
107.984300 9414.200000
109.004800 21016.400000
119.993600 7066.400000
133.959100 9455.500000
139.956500 5434638.000000
167.987800 7051758.500000
177.948800 10914.000000
196.019200 3920721.200000
199.959900 4013223.000000
227.991100 4356007.500000
256.022400 2176538.200000

>ms2peaks
59.990200 133974.500000
61.010600 6907735.500000
64.978800 23650.900000
80.973800 20677.800000
81.981500 22611.500000
109.005000 101196.300000
114.961300 17491.600000
119.993800 15864.100000
133.959100 25673.200000
139.956500 14681232.000000
167.987800 3383865.500000
196.019200 461244.600000
199.959900 1737245.200000
227.991200 461034.200000
256.022700 47889.600000

>ms2peaks
58.994900 18274.400000
59.990200 1254592.100000
61.010600 9163774.000000
64.978700 24411.400000
80.973700 20910.200000
81.981500 18154.900000
86.005800 18293.300000
109.004900 199598.700000
114.961300 150467.000000
119.993700 38583.600000
133.959300 29716.400000
139.956400 17462792.000000
140.976800 28437.500000
167.987800 591177.100000
196.019400 18701.800000
199.959900 346222.100000

>ms2peaks
58.995000 61186.700000
59.990200 3794653.200000
61.010600 8490406.000000
64.978700 30158.800000
74.096400 12138.100000
79.021200 15402.300000
80.973500 12120.200000
86.005800 28441.600000
96.950600 40124.400000
109.004900 184839.500000
114.961300 390440.800000
119.993700 47992.600000
128.976600 22747.300000
137.923300 15921.500000
139.956500 11588491.000000
140.976500 26612.400000
199.959900 41318.100000

>ms2peaks
58.995000 108525.300000
59.990300 7017163.500000
61.010600 8631026.000000
64.978600 77542.900000
74.096400 12829.000000
80.973500 11370.600000
86.005900 31860.500000
96.950900 61572.600000
109.005000 182678.500000
114.961400 680382.600000
116.994700 18065.500000
119.993600 45300.900000
128.977000 24067.800000
137.923200 10397.200000
139.956600 6433665.500000
140.976900 20855.200000
155.933800 30318.900000

