>compound LU50774936
>parentmass 310.1761
>ionization [M+H]+
>formula C15H23N3O4
>rt 1222.116000
>profile orbitrap
#smiles_iso CCCN(CCC)C1=C(C=C(C=C1[N+](=O)[O-])C(C)C)[N+](=O)[O-]
#smiles_can CCCN(CCC)C1=C(C=C(C=C1[N+](=O)[O-])C(C)C)[N+](=O)[O-]
#inchikey NEKOXWSIMFDGMA-UHFFFAOYSA-N
#pubchem_id 36606
#mb_accession LU134401,LU134403,LU134404,LU134405,LU134406

>ms2peaks
58.065100 3461.800000
194.092600 16500.000000
206.092400 34439.100000
208.072100 3347.800000
210.087400 19916.400000
218.093000 3221.100000
219.113100 4921.200000
222.087500 18245.600000
226.082200 22274.200000
234.123600 10628.500000
264.134400 26573.600000

>ms2peaks
53.002300 3230.800000
57.033600 11394.100000
58.065200 4671.600000
69.069900 2893.100000
70.040100 4717.400000
79.054100 2050.300000
91.054300 2991.800000
104.049500 2401.300000
105.033300 4034.800000
106.065200 2202.900000
117.057900 2238.500000
118.065300 10605.900000
130.065000 3808.600000
131.060500 12743.400000
132.068300 1850.900000
133.076300 9155.400000
133.089000 1766.900000
134.096600 3667.300000
135.055400 4205.700000
145.076200 10442.900000
147.055500 5546.500000
147.091700 4802.000000
148.099900 8792.800000
149.022300 7054.500000
149.070900 2659.200000
159.091700 2346.700000
160.063200 2104.400000
160.086900 2699.100000
160.100100 1643.700000
161.070900 15515.000000
163.086800 4131.600000
172.099500 1633.700000
173.107700 2198.000000
175.086700 7878.600000
176.094600 5684.600000
177.066200 6588.900000
179.081700 5439.400000
187.123000 3192.400000
188.131000 3466.400000
189.102600 5606.700000
190.061200 3793.500000
191.081600 17242.400000
193.097500 5189.800000
194.092700 11686.900000
195.076400 10023.500000
203.093500 2577.700000
203.118300 8418.500000
205.084900 6048.600000
205.097300 1811.200000
206.092700 30727.400000
208.071900 65216.200000
209.079800 14615.900000
210.087700 11293.400000
218.092700 21583.600000
219.113000 9640.000000
222.087500 34770.600000
226.082500 40615.800000
233.116400 2864.400000
234.124000 26528.400000
264.134400 9249.900000
276.171600 5636.000000

>ms2peaks
52.018200 2064.500000
53.002200 4155.600000
55.054300 4883.800000
57.033500 6158.800000
57.070000 3323.100000
58.065100 2848.800000
67.054200 1801.600000
69.069900 6058.200000
79.054300 6504.700000
81.069700 2369.100000
83.085500 2224.100000
91.054200 13582.900000
92.049500 2349.900000
93.070000 4471.300000
94.065100 4221.600000
95.049300 2633.000000
104.049600 4658.800000
105.044800 3422.900000
105.070100 2507.000000
106.065200 6364.600000
116.049600 3860.600000
117.057200 4686.100000
118.065100 20127.700000
119.060600 4645.200000
120.080600 1819.900000
121.076100 2181.300000
122.060000 2689.500000
130.065100 8205.000000
131.060400 9033.500000
132.043900 1986.400000
132.068300 5767.800000
132.080600 5471.100000
133.076100 21597.400000
133.088700 6665.500000
134.047700 2457.500000
134.060400 3099.800000
134.096300 8017.500000
135.055400 7495.700000
143.060500 3206.600000
144.068100 1797.800000
145.076100 20927.800000
146.083800 3129.200000
147.055300 10480.100000
147.091700 7853.100000
149.022100 7696.900000
149.071100 3835.700000
159.092100 5129.800000
160.063300 4405.400000
160.099600 2664.800000
161.070900 20454.100000
163.086800 7211.600000
171.091900 3960.000000
172.099800 9382.300000
173.107500 5904.300000
175.086700 21517.800000
176.094600 6376.000000
177.066100 3521.300000
187.087200 2511.200000
187.123700 3414.800000
188.131200 7467.400000
189.102400 6022.000000
190.061200 6520.600000
191.069300 6927.000000
191.081700 19423.900000
193.097300 5501.000000
194.056400 9284.100000
195.076600 3578.500000
201.138800 1997.500000
203.117700 22889.700000
206.092500 11132.400000
208.071700 16900.200000
209.079500 10726.400000
218.092600 12906.500000
219.113100 2169.400000
222.087400 9701.200000
226.083500 2896.100000
234.123700 15708.400000

>ms2peaks
52.018200 1988.300000
53.002200 7581.100000
53.038600 4031.400000
55.054300 6834.300000
57.033500 3004.100000
57.069900 2517.000000
58.065300 2428.500000
65.038500 4785.400000
67.054300 7150.400000
69.069800 3498.700000
78.046500 2768.800000
79.054300 11364.300000
80.049600 3676.400000
89.038500 2432.600000
91.054200 25728.300000
92.049600 3466.000000
93.057300 4281.100000
93.070000 3049.400000
94.065200 5229.700000
95.049200 5355.900000
103.054300 2450.400000
104.049500 9321.700000
105.044800 7355.100000
105.069900 3558.800000
106.065200 17094.800000
115.054000 2445.300000
116.049400 9673.400000
117.057300 15017.700000
117.069900 2279.500000
118.052600 4427.500000
118.065200 26653.600000
119.060400 6049.000000
119.072900 3814.300000
120.080800 5718.400000
121.039900 3186.300000
122.060400 2210.600000
128.049500 2504.200000
130.065000 11295.400000
131.060500 11405.600000
131.073200 2707.400000
132.044500 1957.600000
132.068300 11483.400000
132.080600 8936.700000
133.039300 2055.800000
133.076000 24161.300000
133.088700 5352.500000
134.047300 2797.700000
134.059900 4496.500000
134.096500 6493.500000
135.055500 4770.200000
143.060800 5065.700000
144.068400 6693.000000
145.076200 23593.900000
146.084000 2237.600000
147.055300 11939.700000
147.091800 6408.600000
149.022100 3089.900000
149.071100 3472.900000
157.076200 4746.100000
159.091800 4422.400000
160.063500 3495.900000
160.099700 6602.800000
161.071100 23660.900000
163.086800 5853.500000
164.058400 2653.100000
171.091700 13487.400000
172.099500 8670.100000
173.107400 15314.300000
175.086700 24755.200000
176.094200 3444.700000
187.086200 4452.500000
187.123300 4241.900000
188.131000 5276.400000
189.102300 3309.700000
190.061200 8680.900000
191.069300 4225.300000
191.081600 10271.600000
194.056200 12133.100000
201.139300 1771.100000
203.117800 22925.100000
206.092600 2646.900000
209.079600 3874.000000
218.092200 3421.700000

>ms2peaks
52.018300 2004.500000
53.002300 7168.400000
53.038600 3930.500000
55.054300 3778.600000
57.033500 1757.400000
58.065100 2101.400000
65.038500 8171.800000
67.054300 5041.100000
69.069800 1983.900000
78.046500 3911.400000
79.054200 14362.000000
80.049600 4823.600000
89.038700 4169.100000
91.054300 33069.000000
92.049600 4487.400000
93.057500 5048.200000
94.065300 5022.800000
95.049300 7830.500000
103.054400 6138.100000
104.049700 9452.000000
105.044700 9648.400000
105.069900 5652.000000
106.065100 17424.800000
115.054200 4285.900000
116.049600 11969.600000
117.057400 17456.800000
117.069900 4907.100000
118.052600 5516.000000
118.065100 34829.200000
119.060300 4774.900000
119.073000 2389.200000
120.080900 4120.100000
121.039600 3734.100000
121.075900 3885.600000
122.060000 1723.000000
128.049600 3239.300000
130.065400 11035.600000
131.060400 12863.100000
131.072900 2163.300000
132.068200 9707.500000
132.080800 8097.000000
133.039700 1749.000000
133.076100 13679.900000
134.047700 2621.100000
134.060200 6347.100000
135.055500 2873.200000
143.060200 3729.600000
144.068100 9935.700000
145.076100 21016.900000
147.055400 9099.700000
147.091900 3912.000000
157.076100 5691.400000
159.091700 5441.600000
160.099700 2333.800000
161.070800 11872.800000
164.058500 2297.900000
171.091600 16103.600000
172.099400 2658.000000
173.107100 13311.900000
175.086800 10326.400000
187.123400 4749.200000
190.061200 2466.800000
191.068700 2400.400000
191.082000 2679.700000
194.055900 2987.300000
203.118100 8773.700000

