>compound LU50861486
>parentmass 276.17070000000007
>ionization [M+H]+
>formula C15H21N3O2
>rt 637.500000
>profile orbitrap
#smiles_iso C[C@@]12CCN([C@@H]1N(C3=C2C=C(C=C3)OC(=O)NC)C)C
#smiles_can CC12CCN(C1N(C3=C2C=C(C=C3)OC(=O)NC)C)C
#inchikey PIJVFDBKTWXHHD-HIFRSBDPSA-N
#pubchem_id 5983
#mb_accession LU097901,LU097902,LU097903,LU097904,LU097905,LU097906

>ms2peaks
58.065100 5473.300000
147.067900 6312.300000
161.083300 2152.400000
162.091400 295913.200000
176.107000 35769.000000
188.106800 17454.700000
219.112900 1479102.000000
233.128600 152205.000000
245.128600 169225.200000

>ms2peaks
58.065200 3997.700000
147.067400 4387.000000
160.075600 2355.900000
162.091300 1207059.800000
176.107000 239885.600000
188.107000 119027.300000
219.112800 514925.500000
233.128500 90567.500000
245.128500 102739.500000

>ms2peaks
58.065100 6110.200000
134.096300 9998.200000
147.067800 52124.800000
160.075800 2464.200000
161.083500 36212.400000
162.091300 1590310.400000
173.083400 9513.600000
176.107000 367957.900000
188.107000 253543.500000
219.112800 34411.200000
233.128700 8458.200000
245.128500 9988.900000

>ms2peaks
56.049500 4636.200000
58.065100 5981.300000
105.070000 1813.300000
121.064800 10474.000000
133.064800 3526.400000
134.096400 54063.800000
144.080800 6337.100000
145.064800 4102.500000
145.088700 7276.700000
146.060000 17701.900000
147.067900 359590.600000
148.075700 3155.100000
148.111900 4064.600000
160.075800 18514.000000
160.112400 13527.900000
161.083600 179691.000000
162.091300 1192636.900000
170.096200 2398.800000
172.075400 4355.200000
173.083500 63759.300000
176.107000 251447.600000
188.107100 206815.200000

>ms2peaks
56.049500 7560.600000
58.065100 8251.600000
91.054200 8599.700000
93.069900 9899.600000
94.065100 2044.600000
95.049300 2047.700000
95.072900 3003.700000
103.054200 7725.900000
105.069700 5193.500000
107.049100 3434.700000
115.054200 2357.400000
117.069800 6288.000000
118.065200 3370.100000
119.072900 2927.600000
119.085300 2470.600000
121.064800 29530.900000
128.062200 2400.800000
130.065000 2328.100000
131.049200 6218.500000
133.051900 3616.600000
133.065000 3135.300000
134.060000 5841.200000
134.096400 63647.300000
144.080800 17245.500000
145.064700 6229.500000
145.088500 15503.700000
146.060100 93182.200000
147.067900 745863.800000
148.075600 3416.700000
148.111900 2192.900000
159.104300 2363.300000
160.075800 71517.000000
160.111900 11832.800000
161.083600 256365.100000
162.091300 505866.900000
172.075700 25535.800000
173.083600 137809.800000
176.107100 84573.500000
188.107100 88968.100000

>ms2peaks
56.049500 6271.500000
58.065100 6129.600000
91.054300 21374.700000
93.070000 19187.200000
94.065300 3373.600000
95.049200 5251.800000
95.073100 2715.900000
103.054300 21303.700000
105.070000 7560.400000
107.049100 8046.400000
115.054100 4899.500000
117.070100 6243.500000
118.065000 16603.700000
119.073000 13459.800000
119.085500 4038.200000
121.064900 29668.000000
128.061900 3612.600000
130.065100 6889.600000
131.049200 7340.100000
133.052100 4481.400000
133.064900 3173.800000
134.060300 3806.400000
134.096500 35399.700000
144.081000 19114.500000
145.065000 5423.200000
145.088700 20413.500000
146.060200 270265.000000
147.067900 724458.700000
148.075900 2615.800000
159.104500 2303.900000
160.075800 153505.800000
161.083600 199149.200000
162.091400 126431.000000
170.097000 1911.600000
172.075800 65558.000000
173.083600 112335.200000
176.106900 14352.300000
188.107300 16013.700000

