>compound LU50046703
>parentmass 264.1019
>ionization [M+H]+
>formula C17H13NO2
>rt 1150.680000
>profile orbitrap
#smiles_iso C1=CC=C2C=C(C=CC2=C1)OC(=O)C3=CC=CC=C3N
#smiles_can C1=CC=C2C=C(C=CC2=C1)OC(=O)C3=CC=CC=C3N
#inchikey YJFCKXVXEKHSEC-UHFFFAOYSA-N
#pubchem_id 62217
#mb_accession LU069002,LU069003,LU069004,LU069005,LU069006

>ms2
110.060200 5504.100000
120.044500 19437.300000
180.102000 7980.000000

>ms2
110.060100 28921.300000
120.044300 14206.000000
180.102100 9145.400000

>ms2
92.049600 11275.400000
110.060200 23328.700000
120.044500 21588.000000

>ms2
65.038500 5663.300000
92.049500 17411.300000
110.060100 8225.400000
111.044100 3201.800000
120.044500 12282.000000
172.112400 2027.000000

>ms2
65.038500 11238.500000
92.049400 8233.400000
110.060100 7890.600000
111.043900 3022.200000
120.044400 2101.600000
172.112200 2123.900000

