>compound LU50129409
>parentmass 414.1846
>ionization [M+H]+
>formula C22H27N3O3S
>rt 853.800000
>profile orbitrap
#smiles_iso CCN(CC)CCNC1=C2C(=C(C=C1)CNC=O)SC3=C(C2=O)C=C(C=C3)OC
#smiles_can CCN(CC)CCNC1=C2C(=C(C=C1)CNC=O)SC3=C(C2=O)C=C(C=C3)OC
#inchikey GWLFIMOOGVXSMZ-UHFFFAOYSA-N
#pubchem_id 9909677
#mb_accession LU071601,LU071602,LU071603,LU071604,LU071605,LU071606

>ms2peaks
72.080700 38774.400000
100.111900 8070230.500000
296.073600 71603.800000
341.095200 235574.600000
369.163100 31387.500000
396.172800 9896.600000
414.184200 9232053.000000

>ms2peaks
72.080700 735698.600000
86.096500 28306.400000
100.111900 19191100.000000
284.073600 46685.100000
296.073800 1379500.100000
341.095300 260800.600000
369.163200 22779.600000
414.184700 94935.700000

>ms2peaks
70.065100 38700.800000
72.080700 2161908.200000
74.096300 15075.700000
86.096400 47076.100000
98.096500 15196.700000
100.111900 14825088.000000
253.055400 45331.400000
268.079400 19048.300000
278.063200 66861.400000
279.071000 39056.400000
281.050300 102788.800000
284.073700 89047.500000
296.073900 1726627.100000
323.084600 96233.600000
341.095400 38230.700000

>ms2peaks
56.049500 11981.300000
70.065100 63648.500000
72.080700 3246420.200000
74.096300 14764.800000
85.088700 13438.500000
86.096500 34917.400000
98.096600 16678.800000
100.112000 8217753.500000
212.028700 10093.100000
224.052800 12512.500000
225.060600 22686.900000
236.053100 15054.800000
241.055700 16862.700000
252.047800 33937.200000
252.101800 19737.600000
253.055500 574622.100000
254.063500 22644.300000
255.047900 17409.900000
264.048300 19177.800000
264.101700 15746.900000
266.063700 15802.300000
268.079500 14916.500000
269.050400 24904.900000
278.063300 67437.700000
279.071500 49929.200000
280.042100 24456.500000
280.066300 64387.400000
281.050500 305115.700000
282.058200 11968.700000
284.073900 65545.500000
296.074000 763445.700000
308.061300 9978.000000
323.084900 39193.500000

>ms2peaks
56.049400 13456.600000
58.065200 5972.500000
70.065100 98066.800000
72.080800 3503121.200000
74.096400 12198.200000
85.088600 13677.300000
86.096500 34454.600000
98.096500 22018.600000
100.112100 4246949.500000
117.057400 4990.300000
165.069900 6217.600000
180.080500 13262.300000
184.034200 25937.800000
191.072800 33701.800000
192.080900 25449.200000
193.088800 7974.300000
197.041900 8872.800000
198.049700 11400.500000
204.080800 5964.700000
207.067700 5364.900000
208.034500 4366.100000
208.075700 27571.900000
209.083500 58140.200000
210.037100 13786.700000
211.045100 12078.500000
212.029000 10942.500000
212.052900 13924.400000
213.061000 6699.200000
219.068300 26242.600000
220.075900 31486.600000
223.045100 37368.300000
224.052900 149909.900000
225.060700 147138.800000
226.045000 5855.400000
227.039800 9136.500000
227.052500 10199.900000
235.045000 36118.600000
236.028900 8841.800000
236.052900 74761.700000
237.060500 7399.900000
237.078400 10822.600000
238.032300 16127.300000
239.039600 10025.600000
239.052000 4812.300000
240.024400 4493.000000
240.047700 34262.500000
241.055400 57660.800000
247.100200 4581.700000
248.052800 14626.200000
249.079100 8313.600000
251.039500 4478.400000
251.064100 8301.600000
252.047800 234481.500000
253.055700 1042548.800000
254.063400 26897.000000
255.047100 5065.400000
263.040000 9701.900000
264.048100 34782.000000
264.102000 25819.300000
266.063700 10550.000000
267.034300 6483.800000
268.042500 21552.200000
268.078700 6622.800000
269.049900 17875.000000
278.063400 37370.000000
279.071700 25021.300000
280.042600 41118.700000
280.066500 71562.800000
281.050600 132965.600000
282.058000 26289.100000
284.073900 12777.200000
294.058600 10957.000000
296.074100 132650.800000
323.085500 8336.800000

>ms2peaks
56.049400 24588.400000
58.065200 5043.700000
70.065100 106398.200000
72.080800 2576963.000000
74.096400 12151.300000
85.088600 16525.200000
86.096400 19719.500000
98.096500 10269.900000
100.112100 1739134.000000
117.057400 9283.100000
165.070100 46391.700000
180.080700 57761.700000
181.088700 14255.800000
184.034200 65182.800000
191.073000 216919.500000
192.080800 92637.700000
193.088700 19465.000000
196.033700 5969.300000
197.041900 59961.600000
198.049900 37154.100000
204.080800 35079.100000
207.068100 15686.100000
208.034100 22572.500000
208.075900 70990.500000
209.083600 80168.100000
210.037200 47400.300000
211.021300 6179.900000
211.044900 28461.100000
212.029100 9624.300000
212.052900 41330.200000
213.036700 10106.500000
213.060800 10568.000000
219.067900 96984.700000
220.075800 52773.600000
222.037200 11922.000000
223.045100 122972.500000
224.052900 439162.700000
225.060700 192757.300000
226.044600 9191.000000
227.040200 20927.400000
232.075900 10361.300000
235.045000 50860.600000
235.060200 3220.500000
235.063200 2789.300000
236.029400 9221.900000
236.052900 173210.500000
237.060700 4807.200000
237.078400 7817.700000
238.032300 15027.500000
239.040400 29902.700000
240.047800 61661.100000
241.055500 35403.300000
247.099600 4113.800000
248.052400 8883.900000
249.078600 11689.600000
251.039900 6162.600000
251.063800 15771.400000
252.047800 337719.100000
253.055600 475966.200000
254.063200 14429.200000
263.039700 13182.600000
264.047800 18658.700000
264.102400 8020.000000
265.057100 4413.600000
266.063300 7421.400000
267.034800 7631.400000
268.042800 18755.700000
269.049900 3918.700000
270.057900 6059.900000
278.063100 18722.100000
280.042500 22115.900000
280.066200 19333.800000
281.050600 16865.200000
282.058500 8062.500000
294.058300 7978.900000
296.073700 8842.600000

