>compound LU50233168
>parentmass 355.2015999999999
>ionization [M+H]+
>formula C21H26N2O3
>rt 757.020000
>profile orbitrap
#smiles_iso CC[C@@]12CCCN3[C@@H]1C4=C(CC3)C5=CC=CC=C5N4[C@](C2)(C(=O)OC)O
#smiles_can CCC12CCCN3C1C4=C(CC3)C5=CC=CC=C5N4C(C2)(C(=O)OC)O
#inchikey RXPRRQLKFXBCSJ-GIVPXCGWSA-N
#pubchem_id 15376
#mb_accession LU016801,LU016802,LU016803,LU016804,LU016805,LU016806

>ms2peaks
296.186800 28883.500000
337.190900 864550.400000
355.201400 26683954.000000

>ms2peaks
70.065100 42340.500000
84.080800 17467.100000
110.096500 19165.900000
112.112000 19767.200000
124.112200 13351.300000
144.080700 351927.500000
152.107000 51569.600000
156.080800 10044.800000
158.096500 11387.800000
180.102000 16227.900000
185.107300 9809.200000
194.117600 85423.800000
212.128000 486550.000000
222.128000 18484.700000
224.143400 16237.600000
236.143400 35219.500000
239.094600 10420.700000
246.128000 20291.300000
248.143500 11071.100000
250.158900 64446.900000
252.103500 10042.500000
253.169800 38631.400000
254.117700 10998.600000
264.102900 9511.400000
266.117000 19731.600000
266.154000 13784.400000
267.125700 27293.200000
268.133100 187726.100000
274.123100 13078.100000
277.169700 75807.100000
278.177800 25119.500000
279.125800 9772.700000
280.133100 407375.100000
282.148900 43617.700000
292.133700 9791.900000
294.148800 569711.300000
295.180400 350055.300000
305.164900 49305.000000
306.148900 67371.600000
307.143800 17031.700000
308.165600 643962.900000
309.160000 28501.800000
310.180200 207114.800000
320.165200 32037.300000
324.160100 20307.700000
325.191700 20449.000000
326.176200 56827.600000
337.190900 9422233.000000
338.174800 42875.100000
355.201400 8237725.000000

>ms2peaks
56.049500 28244.600000
58.065100 12428.300000
67.054100 2979.800000
68.049400 11153.900000
70.065100 99561.700000
79.054200 3460.500000
81.069800 4268.100000
82.065300 5111.500000
83.049200 24778.800000
84.080700 16570.400000
91.054100 7555.000000
93.069900 16909.000000
94.064900 2670.900000
95.085400 12329.400000
96.080800 9221.500000
98.096400 16255.000000
105.069600 4374.800000
106.065100 4033.600000
107.085400 15346.000000
108.080800 9372.400000
109.064900 9537.800000
109.101000 3356.800000
110.059900 4152.000000
110.096500 72553.600000
111.104200 15432.800000
112.112200 26441.900000
117.069900 9156.800000
118.064800 3978.600000
119.085600 4758.600000
120.080400 3409.900000
121.064900 10059.400000
122.059900 9703.900000
122.096500 16277.000000
123.080500 17743.900000
124.075800 4982.600000
124.112100 52750.100000
129.070300 3412.200000
130.065200 33662.700000
132.080800 11751.600000
133.064800 4946.000000
134.096500 35754.600000
135.080500 19454.700000
136.075500 6608.000000
136.112200 4595.600000
138.091300 3150.000000
138.127800 10601.500000
143.072500 4086.900000
144.080800 979548.100000
146.096500 12566.800000
150.091400 10615.800000
151.075500 12040.100000
152.107000 290872.800000
154.065200 3382.200000
154.086200 8321.100000
156.081000 21458.500000
158.096500 50490.200000
159.091800 4001.500000
160.075600 3448.400000
160.111900 5867.800000
162.091300 46241.100000
163.075400 4216.900000
164.106900 14208.100000
165.091000 9754.900000
167.071000 3584.900000
168.080700 6892.900000
169.077100 2853.100000
169.086300 8955.200000
170.060100 10974.100000
170.096700 21074.100000
171.091500 10996.100000
172.099400 5527.000000
172.112300 10543.000000
174.091400 5589.700000
177.091600 6053.600000
180.081000 11068.500000
180.101700 11690.100000
181.088300 19095.400000
182.081300 7769.900000
182.096400 16264.600000
184.075800 7463.100000
184.099600 4137.800000
184.112100 8723.700000
185.107600 6512.900000
186.091000 5980.000000
192.101900 9340.300000
193.088600 4611.800000
194.096500 12392.100000
194.117700 85162.100000
195.103400 6312.600000
196.097200 9756.200000
196.111800 9690.500000
197.107300 10381.300000
197.119700 3715.300000
198.092100 13714.600000
198.127600 9795.200000
199.086900 3431.400000
202.086500 8795.600000
204.081100 4381.400000
204.101200 3186.900000
205.088700 5670.300000
206.096400 21331.100000
206.117500 7308.000000
207.104400 8009.600000
207.116400 2892.500000
208.075900 7710.400000
208.112100 26528.800000
209.119900 28765.500000
210.115900 4806.500000
210.127800 27279.300000
212.128200 413859.000000
216.101900 9722.900000
217.088900 5096.500000
218.096300 6316.900000
218.117200 6269.100000
219.104000 13673.800000
220.112000 24932.900000
221.108400 5000.600000
221.119900 32808.600000
222.127700 67458.700000
223.135100 13696.700000
224.108600 2920.400000
224.129900 22268.300000
224.143300 47725.900000
225.138100 3995.700000
226.085700 5512.000000
226.122800 8137.100000
228.103000 3382.100000
232.112600 7329.600000
233.084000 5270.500000
233.119500 4959.100000
234.114800 4736.500000
234.127800 69684.500000
235.123100 5303.800000
235.135500 35969.600000
236.107200 12874.000000
236.143400 80380.000000
237.077000 3270.700000
237.138900 5150.500000
237.150500 17260.900000
238.086400 7816.400000
238.122700 12092.900000
238.159000 8684.300000
239.093900 39760.500000
239.155000 5413.100000
240.102000 18397.000000
242.117300 5923.000000
246.127800 34442.900000
247.099700 2779.000000
247.135500 6801.300000
248.106700 4881.900000
248.130300 13031.400000
248.143400 52670.700000
249.114800 3984.300000
249.138300 17636.700000
249.151400 31720.200000
250.123000 6392.700000
250.159000 80107.600000
251.094400 5705.800000
251.153900 5267.900000
252.102000 37426.500000
252.138500 15307.400000
253.110000 28566.600000
253.169900 40135.500000
254.117500 22978.300000
258.112200 3966.700000
260.142800 17122.200000
262.123200 18982.100000
264.101800 13303.000000
265.109900 75105.000000
266.117600 74678.800000
266.153900 32251.700000
267.125400 114655.600000
268.133200 303057.300000
274.122800 11652.200000
275.117400 5308.700000
276.102300 6975.000000
276.125600 26411.500000
276.139500 8390.100000
277.109300 6392.400000
277.133700 12073.300000
277.169800 114107.500000
278.117400 19151.900000
278.154300 14880.700000
278.177700 31112.400000
279.108700 5242.700000
279.125500 82670.600000
280.133200 1027730.200000
281.141900 7517.500000
282.149000 68425.000000
290.117500 16644.100000
291.125300 45786.700000
292.133300 57572.000000
293.141700 54517.800000
294.148900 1229383.600000
295.180600 234710.500000
305.164900 35519.300000
306.149100 55218.000000
307.143500 81096.200000
308.166300 601013.500000
309.159700 41993.100000
309.194800 4034.600000
310.180200 61534.100000
320.164500 54474.500000
322.167400 7190.800000
324.159700 6676.000000
325.190800 6124.400000
326.176300 20186.200000
337.191100 1845663.200000
338.175400 17440.800000
355.201700 280657.900000

>ms2peaks
53.038600 10065.200000
55.018000 11094.900000
55.054200 48173.500000
56.049500 128154.600000
58.065100 45826.600000
59.049100 10071.700000
65.038500 4734.700000
67.054200 109678.900000
68.049400 61126.900000
69.033400 8425.800000
69.057200 5334.900000
69.069800 19149.500000
70.065100 400888.500000
72.044400 4170.100000
72.080600 8048.000000
79.054200 72235.600000
80.049500 30634.700000
81.033600 10907.300000
81.069900 46354.200000
82.065200 30234.400000
83.049100 230464.000000
83.073000 12292.300000
84.080800 67899.800000
85.064800 9647.700000
91.054300 121758.000000
92.049400 7893.100000
93.057400 10081.900000
93.069900 140021.800000
94.065200 33968.400000
95.049200 45472.400000
95.072900 13014.900000
95.085500 209732.300000
96.044400 5073.000000
96.080800 52749.500000
98.096500 62134.500000
100.075700 9116.000000
103.054400 21846.200000
105.069900 119610.300000
106.065000 28837.600000
107.049200 10187.100000
107.085500 136078.100000
108.080800 62218.700000
109.064900 40124.500000
109.088500 7858.500000
109.101300 19270.000000
110.096400 329867.800000
111.104200 65410.800000
112.112100 96175.600000
115.054200 30763.900000
117.057200 11785.900000
117.069900 194289.300000
118.065200 34734.400000
119.049300 6671.700000
119.073200 12331.000000
119.085400 33145.500000
120.080800 39166.800000
121.064800 67902.300000
121.088500 8520.500000
122.060100 71349.600000
122.096400 71562.600000
123.080500 137733.500000
123.104200 30718.600000
124.075600 48335.900000
124.112100 315641.200000
128.049600 8001.400000
128.062100 8215.600000
129.069900 40126.200000
130.065100 161515.900000
131.073000 36387.200000
131.085300 4948.600000
132.057200 8134.600000
132.080800 73657.300000
133.064800 48192.800000
133.088600 6180.500000
134.096400 298820.200000
135.080400 101068.900000
135.104200 17107.100000
136.075700 40358.400000
136.112300 32653.600000
137.096200 10407.700000
138.091200 7781.100000
138.127800 31081.200000
142.065300 13508.500000
143.073200 91597.900000
144.080800 2941232.800000
145.065000 21069.300000
145.088600 15850.000000
146.060100 7360.800000
146.096400 46250.300000
147.080200 7606.900000
148.075600 17345.400000
148.112100 8701.400000
150.091300 30622.000000
150.128000 10377.300000
151.075500 37056.300000
152.107000 888655.300000
153.070100 5968.500000
153.115000 8259.800000
154.064700 21374.800000
154.086100 29543.500000
155.060300 14764.100000
155.072800 14454.300000
156.080800 145019.100000
157.088800 34947.500000
158.060100 13722.300000
158.096400 166716.500000
160.075700 18491.900000
160.111800 27822.500000
162.091300 166870.600000
163.075400 13829.100000
164.107000 26717.600000
165.069800 14943.600000
165.091100 16811.200000
166.078300 6048.200000
166.122700 15707.200000
167.073000 36829.200000
168.080800 101164.200000
169.076100 6062.500000
169.087700 26445.600000
170.060000 93403.500000
170.096400 127788.700000
171.091700 35639.800000
172.075600 10853.600000
172.099400 16489.000000
172.111900 48836.900000
174.091500 21027.600000
177.091100 6974.400000
178.077900 19033.700000
179.085400 36009.800000
180.080700 139313.800000
180.101700 10272.600000
181.075600 11982.600000
181.088600 102592.600000
181.101200 16573.100000
182.082500 8214.900000
182.096400 113627.900000
183.092000 8249.400000
183.103800 21072.200000
184.075800 35231.800000
184.099900 11754.300000
184.112100 33906.600000
185.107400 14536.700000
186.091100 30047.700000
186.127900 11492.200000
188.070200 7792.400000
190.064700 7534.800000
191.073000 31444.400000
191.084600 5994.100000
192.080700 43080.300000
192.092400 25111.900000
192.101800 9757.000000
193.088700 64370.200000
193.101200 34242.700000
194.059900 10380.600000
194.096500 131803.600000
194.117700 82145.800000
195.104200 59351.000000
196.075900 19426.200000
196.096900 16968.600000
196.112100 70238.200000
197.084200 4643.800000
197.107500 25620.100000
197.119300 7251.900000
198.091800 21826.200000
198.127900 44095.700000
199.086900 4974.200000
202.086100 15789.800000
204.080700 80960.300000
204.102100 6841.500000
205.088700 163267.100000
206.096500 252139.000000
207.104300 98893.700000
207.116900 45872.500000
208.075500 28534.000000
208.112000 283051.600000
209.107800 12629.000000
209.119800 139060.800000
210.091700 11678.900000
210.127600 84049.400000
211.123200 12009.900000
212.107400 17165.900000
212.128100 233634.000000
214.086500 9209.000000
216.102500 7559.200000
217.088300 43410.900000
218.096400 102782.900000
219.104300 236647.600000
220.112100 331153.800000
221.083400 9328.300000
221.107500 20469.900000
221.119800 163686.100000
222.091500 19777.000000
222.127600 305294.400000
223.099200 12663.100000
223.122900 27793.400000
223.135700 42598.100000
224.107600 22434.700000
224.130700 69889.700000
224.143400 122173.400000
225.077700 6572.700000
225.138500 19880.500000
226.086200 13754.500000
226.122600 65392.400000
228.102400 9205.300000
230.097000 8738.600000
231.104000 34699.800000
232.075800 5622.900000
232.111900 68140.600000
233.083400 33804.500000
233.107300 12680.300000
233.120000 58089.500000
234.127700 524484.100000
235.123000 16511.000000
235.135400 116283.400000
236.106900 47538.400000
236.143300 140140.600000
237.078600 54801.200000
237.116100 10347.600000
237.138500 65808.100000
237.151500 23515.900000
238.086200 61809.900000
238.122600 68881.300000
238.159000 17114.200000
239.094000 158437.100000
239.154400 28615.500000
240.101600 28728.900000
242.117400 6593.300000
244.111500 5399.200000
245.120000 16763.500000
246.092200 6830.500000
246.127700 67635.200000
247.099300 19016.000000
247.122900 31689.700000
247.135800 10560.700000
248.107000 17073.000000
248.130400 51527.600000
248.143500 173126.900000
249.102100 5555.500000
249.114900 17295.800000
249.138400 85507.600000
249.151400 73734.900000
250.086500 79768.200000
250.122800 24958.400000
250.158900 130434.100000
251.093900 72256.000000
251.154300 17266.200000
252.102000 168531.700000
252.138000 33526.100000
253.109600 153095.500000
253.170100 37307.900000
254.117600 40437.100000
260.143400 32116.500000
261.138500 5740.100000
262.086400 10633.500000
262.122800 72186.800000
262.146300 19388.300000
263.154300 17340.800000
264.101900 343870.500000
265.109700 699115.800000
266.117600 424850.700000
266.153000 40964.400000
267.125300 436868.100000
268.133200 421280.200000
274.122900 9620.300000
275.118000 31713.800000
276.102100 36494.100000
276.123700 27966.800000
276.138900 13839.500000
277.109500 9652.600000
277.134500 22509.700000
277.169900 120577.000000
278.117500 298128.400000
278.178100 34123.500000
279.125500 614719.200000
280.133200 2090073.400000
281.142100 23792.000000
282.148700 39836.800000
290.117600 103141.700000
291.125200 94897.500000
292.133400 301285.900000
293.142200 123581.100000
294.148900 1570766.500000
295.180300 144793.900000
304.133900 7414.100000
305.164500 17590.700000
306.148700 29644.600000
307.144000 288674.100000
308.166600 373429.700000
309.159700 30537.800000
310.179400 5944.000000
320.164300 37758.500000
322.169000 5002.500000
337.191100 236447.200000
355.201900 13867.000000

>ms2peaks
53.002200 8649.500000
53.038600 44779.000000
55.017800 39177.500000
55.054200 130634.000000
56.049500 135092.200000
57.069800 6203.200000
58.065100 38349.300000
59.049100 11617.600000
65.038500 33274.900000
67.054100 389795.200000
68.049400 115572.400000
69.033400 16685.000000
69.057300 9636.700000
69.069800 28664.500000
70.065000 458039.400000
72.044200 7608.100000
72.080800 4803.000000
77.038600 15095.500000
79.054100 269674.800000
80.049400 82714.200000
81.033500 29731.200000
81.057300 12366.100000
81.069800 133886.500000
82.065100 83573.600000
83.049100 318266.400000
83.072800 18331.600000
84.080700 71137.400000
85.064800 10655.300000
91.054200 408024.200000
92.049400 15173.100000
93.057300 24427.300000
93.069900 252295.900000
94.065100 105070.100000
95.049100 110176.400000
95.073000 51309.900000
95.085500 467185.100000
96.044300 15771.500000
96.080700 135209.300000
97.088600 17103.400000
98.096400 75819.200000
100.075700 6518.200000
103.054100 88441.000000
104.049500 13629.400000
105.044700 23169.000000
105.069900 254459.900000
106.065100 66890.500000
107.049000 20376.700000
107.072800 16602.800000
107.085500 160825.800000
108.044200 8611.900000
108.080700 131539.400000
109.064800 48862.600000
109.088500 35489.600000
109.101200 18471.500000
110.096400 394172.200000
111.104200 49784.800000
112.112000 66988.300000
115.054200 175867.100000
116.049300 11871.800000
117.057300 64813.000000
117.069800 471174.600000
118.065000 63760.800000
119.049200 7891.200000
119.060200 8477.700000
119.072800 50445.900000
119.085500 21695.800000
120.080800 61381.500000
121.064800 80336.100000
121.088500 9931.300000
122.060100 72844.200000
122.096400 65224.600000
123.067700 21884.400000
123.080400 144853.000000
123.104300 44062.100000
124.075700 83491.100000
124.112000 366847.900000
127.054200 9347.300000
128.049500 29865.200000
128.062000 45038.500000
129.057300 6004.900000
129.069800 116344.500000
130.065000 272088.800000
131.072900 92233.900000
131.085500 8502.000000
132.057000 13947.200000
132.080700 118651.500000
133.064800 32046.700000
133.088400 8621.600000
134.096300 312096.600000
135.080300 79385.100000
135.104200 13598.900000
136.075700 68592.300000
136.112000 22582.700000
137.096200 9240.600000
138.127600 23604.300000
140.049100 5957.300000
141.070000 18814.700000
142.065100 55236.100000
143.072900 363809.800000
144.080700 2808714.000000
145.064700 71119.200000
145.088500 17759.500000
146.060000 32828.500000
146.096400 48052.700000
147.081100 5635.700000
148.075900 11263.600000
148.112100 10874.700000
150.091400 19316.100000
150.127700 7347.900000
151.075300 14646.100000
152.106900 435309.600000
153.069900 24033.300000
153.114700 13706.400000
154.064900 67122.100000
154.086100 9681.500000
155.060400 79302.800000
155.072700 57369.400000
155.085600 5315.700000
156.080700 155925.500000
157.076000 7440.800000
157.088500 60668.700000
158.060300 12614.400000
158.096300 124419.000000
160.075400 20249.000000
160.112000 19568.700000
162.091200 73263.700000
163.075000 6588.500000
164.107100 19017.500000
165.069700 73515.200000
166.065400 11481.200000
166.077500 30193.800000
166.122700 6113.300000
167.072900 131366.300000
167.085700 15486.600000
168.080600 203611.200000
169.075800 20406.300000
169.088400 50595.700000
170.060000 104216.000000
170.083500 9952.900000
170.096200 96726.100000
171.091500 39352.100000
172.075400 6472.900000
172.112100 22760.900000
174.091100 20442.300000
178.064700 6653.200000
178.077600 82232.700000
179.073000 16783.400000
179.085400 65544.600000
180.080600 327321.900000
181.076100 19244.900000
181.088400 178992.700000
181.100500 33691.600000
182.083700 8968.600000
182.096400 135644.200000
183.091800 19968.800000
183.104200 26919.100000
184.075400 31643.700000
184.099700 7895.800000
184.111800 29273.500000
186.091700 12574.900000
186.127300 9957.500000
188.071000 11200.000000
189.070600 6570.500000
190.065000 33400.300000
190.077600 7096.200000
191.072900 150074.700000
191.085300 26595.800000
192.080700 146878.300000
192.093100 64303.100000
193.088600 268777.100000
193.101000 55774.400000
194.059800 13756.600000
194.096400 273646.300000
194.117600 19396.600000
195.091900 21640.200000
195.104100 87309.000000
196.075800 26087.800000
196.099000 9407.900000
196.111900 66510.100000
197.083500 17934.900000
197.106800 27722.900000
197.119000 5230.800000
198.091100 6352.300000
198.127300 25724.800000
202.077500 16870.200000
202.086900 8960.600000
203.073400 8660.700000
203.085200 8581.600000
204.080700 422569.800000
205.088500 377006.500000
206.096300 519323.100000
207.104200 209319.100000
207.116300 20757.400000
208.075700 30330.200000
208.111900 464963.600000
209.083700 11995.600000
209.107300 44900.700000
209.119800 141678.200000
210.091200 26396.800000
210.116700 8807.900000
210.127600 65935.600000
211.098800 7140.400000
211.122900 18260.400000
212.106500 14308.000000
212.128000 18791.500000
214.085200 6198.900000
215.085100 16146.900000
216.080800 13677.900000
217.088500 148460.900000
218.096300 333698.800000
219.092500 26297.000000
219.104000 449213.900000
220.111800 553750.300000
221.083400 13235.300000
221.107300 38947.400000
221.119700 157399.100000
222.091500 43571.000000
222.115800 17206.100000
222.127500 288424.000000
223.099100 19481.000000
223.122900 62666.200000
223.135400 16185.900000
224.070400 10231.100000
224.107400 25933.700000
224.130500 52849.300000
224.143300 45811.700000
225.078300 14602.400000
225.138900 13949.600000
226.086700 5458.700000
226.122500 42601.300000
230.096500 36333.800000
231.104400 49907.000000
232.075600 21941.200000
232.099600 9579.000000
232.111800 159632.700000
233.083600 24964.400000
233.107100 42546.500000
233.119800 69884.800000
234.091600 23970.700000
234.127500 429730.700000
235.122500 23653.900000
235.135500 53211.800000
236.070100 10632.600000
236.106900 42774.500000
236.143400 57032.800000
237.078400 72432.000000
237.101600 7788.000000
237.115200 12245.900000
237.138300 82112.400000
237.151100 6441.100000
238.086100 222326.800000
238.122200 28059.900000
239.093900 186126.200000
239.154200 20707.300000
244.111700 16341.800000
245.119800 12662.300000
246.091300 12330.200000
246.127300 30789.500000
247.099100 20090.800000
247.122700 128689.600000
247.136000 13131.800000
248.070900 7867.500000
248.106700 23602.200000
248.130300 32362.600000
248.143300 102936.400000
249.078400 12307.500000
249.101700 6253.700000
249.138300 64268.700000
249.151500 19681.000000
250.086000 243210.600000
250.122400 22606.900000
250.158100 24907.300000
251.093900 270416.500000
252.101700 368364.100000
253.109600 160710.900000
253.169500 14813.800000
254.117400 17300.000000
260.142900 13507.200000
261.138900 18352.800000
262.086000 18737.600000
262.123000 25001.500000
262.146500 12648.400000
263.094400 34032.700000
263.153700 9448.100000
264.101700 1301692.200000
265.109500 802864.900000
266.117400 706632.100000
267.125100 237437.100000
268.133000 100904.700000
275.094200 13660.600000
275.117300 39241.800000
276.101900 54965.900000
277.109800 24601.800000
277.169300 34436.200000
278.117300 693026.200000
279.125500 346791.300000
280.133000 764451.900000
281.141100 8852.100000
290.117200 111906.200000
291.126100 34279.800000
292.133900 285173.600000
293.142900 43153.800000
294.148800 265151.400000
295.180800 17551.900000
304.133300 11727.500000
307.143900 160758.700000
308.166600 32713.500000

>ms2peaks
53.002200 3634.800000
53.038600 35683.100000
55.017900 13851.500000
55.054300 89440.500000
56.049500 40239.900000
57.069900 2995.200000
58.065100 12301.700000
59.049100 3907.600000
65.038500 29857.700000
67.054200 209602.100000
68.049400 51892.700000
69.033400 4219.400000
69.057300 6698.900000
69.069900 11429.300000
70.065000 120831.300000
77.038500 5608.000000
79.054200 127748.500000
80.049400 52111.800000
81.033500 14310.800000
81.057100 6846.400000
81.069800 50149.200000
82.065100 37204.900000
83.049100 79844.100000
83.072800 6723.300000
84.080800 19464.200000
85.064600 2668.500000
91.054200 216815.700000
92.049500 11353.000000
93.057400 17631.900000
93.069900 77880.600000
94.065100 50019.900000
95.049100 66269.900000
95.072900 28688.000000
95.085500 135663.800000
96.044300 5383.100000
96.080700 57593.900000
97.088700 5625.200000
98.096400 22628.800000
103.054200 56088.000000
104.049400 7201.400000
105.044800 22947.800000
105.069900 83722.500000
106.065100 32267.700000
107.049000 5995.800000
107.072900 7948.000000
107.085500 31926.100000
108.044400 3798.600000
108.080800 39429.800000
109.064800 13805.100000
109.088700 15409.700000
109.101100 2446.800000
110.060000 5922.600000
110.096400 92756.000000
111.104200 5050.800000
112.111900 13607.300000
115.054200 138354.500000
116.049500 7889.100000
117.057200 48052.600000
117.069800 180128.000000
118.065100 35275.600000
119.049100 3886.800000
119.060300 5474.500000
119.072900 18339.900000
119.085400 3019.500000
120.080900 21793.800000
121.064800 10231.200000
122.060100 18887.900000
122.096300 19052.600000
123.067900 7945.600000
123.080600 21110.200000
123.104300 5003.800000
124.075600 25074.600000
124.112100 75287.800000
127.054100 10871.700000
128.049400 30676.700000
128.061900 37155.600000
129.057300 5375.400000
129.069800 52017.500000
130.065100 115645.600000
131.072900 32043.500000
131.085000 2931.000000
132.057000 3059.700000
132.080700 25987.800000
133.064800 6198.700000
133.088100 2559.900000
134.096400 49574.500000
135.080400 7871.700000
136.075600 18414.500000
136.112200 2955.300000
140.049600 2837.400000
141.069700 11474.700000
142.065200 21193.900000
143.073000 217073.600000
144.080800 551702.600000
145.064700 39807.300000
145.088600 3560.700000
146.060000 19728.800000
146.096300 8467.900000
148.075600 3402.700000
152.106900 36432.900000
153.069900 14636.200000
154.065000 40764.200000
155.060400 50657.700000
155.072500 24869.800000
155.085200 3315.500000
156.080800 48941.000000
157.076300 3027.700000
157.088600 27624.700000
158.059900 4450.900000
158.096300 21747.000000
160.075800 9179.700000
160.112000 2482.600000
162.091200 4774.000000
165.069900 44549.500000
166.065100 13199.700000
166.077600 14851.900000
167.072900 95171.800000
167.085600 6326.700000
168.080700 71827.800000
169.076000 8306.000000
169.088500 14758.700000
170.059800 20136.600000
170.084200 3282.900000
170.096400 21969.200000
171.091400 8135.500000
178.065100 12654.200000
178.077700 46325.100000
179.072600 9093.300000
179.085500 30764.900000
180.080700 164285.400000
181.075900 9115.700000
181.088400 51637.000000
181.101400 6227.100000
182.083900 4031.400000
182.096400 32367.200000
183.091700 6701.500000
183.104100 4153.600000
184.075700 7069.000000
184.111900 5428.800000
185.107300 3308.500000
188.070500 4935.300000
189.070000 5092.700000
190.065100 20490.600000
190.077400 9106.500000
191.072900 92279.200000
191.085100 16339.400000
192.080700 87961.600000
192.093000 15988.900000
193.088600 161666.200000
194.096400 120636.400000
195.091800 12092.100000
195.104100 26815.800000
196.075600 11859.700000
196.099800 3197.900000
196.112100 15910.800000
197.083200 3170.100000
197.107800 4439.400000
202.077100 7045.900000
203.072900 14974.500000
203.085400 7729.600000
204.080800 289040.800000
205.088600 167831.800000
206.096300 217454.900000
207.104100 66723.900000
208.075600 18499.400000
208.111900 96143.000000
209.083300 7471.500000
209.107300 18633.900000
209.119800 12224.800000
210.091400 13155.700000
210.127600 8345.000000
211.099000 2938.800000
211.122700 3525.100000
215.085300 10858.400000
216.080900 14996.600000
217.088500 103587.500000
218.096400 192742.600000
219.091800 16148.500000
219.103900 117443.900000
220.111800 138848.900000
221.083900 13137.700000
221.107300 13599.700000
221.119700 25486.700000
222.091500 27186.700000
222.115200 6529.400000
222.127600 54087.000000
223.099200 6080.700000
223.122700 22034.700000
224.070800 5496.300000
224.106800 8403.400000
224.130900 5528.000000
224.143300 4599.800000
225.078200 3003.900000
230.096400 26941.200000
231.104100 16640.800000
232.075900 7535.800000
232.099600 5597.900000
232.111800 53220.700000
233.083800 5759.300000
233.107000 13420.900000
233.120000 13632.400000
234.091000 10656.600000
234.115200 4263.400000
234.127500 54281.500000
235.123000 5448.500000
235.135800 7082.100000
236.070100 12307.600000
236.107100 11154.000000
236.143400 7272.900000
237.078200 12385.900000
237.102600 3560.900000
237.138800 14977.700000
238.086200 115063.900000
239.094200 25599.700000
244.112100 6003.500000
246.091800 6014.000000
246.127600 4215.400000
247.122800 38980.600000
248.071000 6570.100000
248.108100 2845.000000
248.130900 6141.900000
248.143600 8020.900000
249.078500 14998.600000
249.138700 11730.600000
250.086200 98004.900000
251.093900 172460.000000
252.101800 121233.300000
253.109300 21543.200000
261.138500 5679.700000
262.086000 13680.500000
263.093800 30721.400000
264.101800 484444.900000
265.109500 84133.400000
266.117500 156928.700000
267.125300 14505.800000
275.093600 13985.300000
275.117600 5583.400000
276.101700 34225.300000
277.109900 14367.100000
277.169900 3211.600000
278.117400 167369.300000
279.110700 4109.100000
279.126600 18304.100000
280.133100 32667.300000
290.117500 18183.000000
292.134900 36792.600000
294.148400 5275.100000
307.144600 8507.800000

