>compound LU50280433
>parentmass 350.059
>ionization [M+H]+
>formula C17H13ClFNO4
>rt 1097.460000
>profile orbitrap
#smiles_iso C[C@H](C(=O)OCC#C)OC1=CC=C(C=C1)OC2=C(C=C(C=N2)Cl)F
#smiles_can CC(C(=O)OCC#C)OC1=CC=C(C=C1)OC2=C(C=C(C=N2)Cl)F
#inchikey JBDHZKLJNAIJNC-LLVKDONJSA-N
#pubchem_id 92431
#mb_accession LU131501,LU131502,LU131503,LU131504,LU131505,LU131506

>ms2peaks
91.054300 14881.400000
111.044000 7934.000000
112.051700 7372.800000
129.985800 4974.300000
131.049100 18856.900000
157.064700 10690.200000
158.072200 7641.300000
204.078200 22938.100000
238.006800 32354.100000
238.043000 21831.900000
239.013700 12851.400000
240.022300 7738.600000
252.023400 8925.200000
266.037800 4940037.500000
276.022500 27783.600000
277.030100 109933.000000
278.037800 36403.200000
292.017200 22399.300000
294.032800 75224.400000
304.053500 71488.500000
311.035600 27403.300000
350.059000 4008471.800000

>ms2peaks
55.017900 13354.100000
65.038600 10168.600000
91.054200 1600969.000000
92.062000 6045.100000
102.046400 7572.500000
103.054200 10822.800000
111.044000 10434.300000
112.051700 13512.300000
119.049200 316845.700000
120.057000 50898.300000
121.028400 109109.100000
121.064800 35085.000000
123.044000 5797.200000
129.069700 33202.700000
130.041300 14999.100000
131.049200 101828.900000
132.057000 29906.300000
147.044100 14586.700000
147.995900 72229.600000
157.064800 19255.600000
158.016700 13063.700000
158.072600 26063.000000
203.073900 18633.600000
204.078100 18549.600000
210.048000 65820.400000
214.066000 6112.900000
222.011600 118759.000000
224.027300 5804.200000
230.060900 16569.000000
231.068800 33435.400000
238.006900 101971.400000
238.042900 1408284.600000
239.014300 212091.200000
240.022300 37128.700000
248.027000 16360.100000
249.035600 5817.400000
252.022400 19956.800000
260.028100 17793.000000
266.037800 5677858.500000
268.076600 7077.100000
269.084200 6467.600000
276.022000 85448.300000
277.029900 85617.000000
278.037900 28141.500000
292.017400 7145.200000
294.032700 24394.800000
304.053600 21808.000000
311.035400 82875.000000
350.059000 49270.700000

>ms2peaks
53.002200 6341.100000
53.038600 7634.100000
55.017900 31208.500000
63.022900 4586.700000
65.038500 96566.700000
67.054200 4405.200000
91.054200 4228065.500000
92.062000 110986.000000
93.033400 7175.700000
93.069900 7213.400000
94.041300 20222.800000
95.049000 8147.800000
102.046400 21163.300000
103.054200 40633.600000
109.028400 11118.400000
109.064800 64956.100000
111.044000 14862.900000
112.051800 6150.800000
115.054200 6959.900000
119.049200 459084.500000
119.059800 32808.900000
120.057000 299715.000000
121.028400 165087.000000
121.064700 92676.800000
123.044000 9999.800000
128.062000 22513.300000
129.069800 30556.700000
130.041100 12889.000000
130.077800 6119.800000
131.049100 127269.400000
132.001000 17750.600000
132.057000 35433.000000
146.016600 7417.700000
146.988100 9471.600000
147.044200 15335.100000
147.060800 14650.100000
147.995900 195173.900000
154.065100 20905.400000
155.060400 6313.800000
156.001200 5087.200000
157.064600 11023.900000
158.072400 18198.200000
159.079900 4714.400000
160.068100 4526.200000
162.011500 27155.800000
169.008700 16518.500000
170.016800 20330.500000
174.071600 20067.200000
175.055300 5106.800000
175.079300 21356.000000
176.050600 60126.700000
178.006500 22642.600000
182.016600 61851.300000
182.060000 5962.600000
183.067900 10216.800000
184.055700 10964.600000
185.063400 40568.200000
187.042900 13651.100000
188.050400 4890.800000
194.016800 12015.000000
195.024600 22493.500000
198.011500 4967.400000
202.066200 73331.900000
203.074100 130330.000000
204.045400 9689.200000
206.017100 4865.400000
210.011900 21012.400000
210.047900 144261.400000
211.019500 25416.700000
214.066000 17511.800000
216.045600 13402.900000
218.037000 22006.300000
219.024700 8533.300000
220.032300 88567.800000
222.011600 1101871.200000
223.018900 27145.000000
230.061200 48566.800000
231.069000 88700.400000
235.019800 5812.300000
238.006600 363367.900000
238.042800 1199108.600000
239.014300 305043.400000
240.021600 16861.500000
246.031500 6667.200000
248.027000 26196.000000
251.014500 8948.900000
252.022100 17492.600000
266.037700 699584.700000
276.022100 111542.900000
277.030300 6964.200000
278.038000 7580.400000
311.035500 7131.900000

>ms2peaks
53.002200 12008.400000
53.038500 19624.300000
55.017800 35387.100000
56.025600 6609.200000
63.022700 16760.800000
65.038500 348363.100000
67.054200 9465.600000
69.033400 6324.400000
75.022900 29319.700000
77.038600 7706.700000
78.046400 6933.300000
79.054200 7830.200000
80.062200 4527.800000
81.033500 8096.900000
89.038300 5984.500000
90.046200 4243.600000
91.054200 3734468.000000
92.025600 47797.200000
92.062000 186325.700000
92.990200 6009.600000
93.033600 4562.300000
93.069900 31603.200000
94.041300 38621.600000
95.049100 32828.100000
102.046400 35555.700000
103.054200 72259.300000
105.033400 9001.900000
105.044400 12166.100000
107.049000 8776.200000
108.057000 6759.200000
109.028400 30697.600000
109.064800 54204.100000
111.044000 11769.700000
113.038600 4083.700000
115.054200 13476.300000
118.041400 4128.100000
119.049100 202172.400000
119.059900 26210.000000
120.056900 222393.000000
121.028300 86606.000000
121.064700 89160.600000
127.054300 3893.500000
128.062100 31934.600000
129.033400 10663.700000
129.069700 19896.400000
129.985400 11291.900000
130.041400 7958.200000
131.049100 128584.600000
132.001200 21164.500000
132.057100 21079.800000
133.044500 4874.600000
136.051900 6195.200000
143.984700 9401.900000
144.001000 3864.000000
145.064700 9443.800000
146.988000 13198.900000
147.043600 12225.400000
147.060500 23331.900000
147.995900 298668.200000
149.039800 7448.700000
154.065000 30198.800000
155.060300 11824.500000
155.072800 5987.700000
156.000900 7291.000000
157.064800 9118.500000
158.016600 20345.500000
158.040100 71384.100000
159.047800 325605.000000
160.055700 6938.500000
160.068200 5562.200000
162.011500 40682.200000
167.005800 30483.800000
167.036500 7347.500000
168.001200 14464.000000
169.008800 52349.200000
170.016500 15986.300000
172.055400 3821.900000
174.010800 28884.600000
174.071200 20127.700000
175.079200 26965.400000
176.050600 257074.900000
178.006500 5796.200000
182.016600 82414.600000
182.060200 9079.500000
183.068100 7893.200000
184.055500 24264.300000
185.063600 58620.300000
186.011500 3954.200000
186.071000 7105.100000
187.042700 148332.100000
188.050800 15579.200000
190.041400 8193.800000
192.020900 8619.500000
193.008700 16700.800000
194.016800 82681.600000
195.024400 45813.200000
196.032500 14462.700000
201.058500 4301.500000
202.066200 53757.900000
203.074000 81040.500000
204.020900 4561.600000
204.045500 34491.100000
206.017000 4955.300000
210.011600 51840.200000
211.019600 49711.700000
213.058500 5728.400000
214.066400 15877.000000
216.045500 25525.700000
218.036700 10906.600000
219.024200 22361.200000
219.032800 21398.800000
220.016200 8427.800000
220.032200 56726.200000
222.011500 1632465.600000
223.019100 19761.300000
224.027300 13573.600000
230.060900 40248.100000
231.069000 25744.300000
232.033000 4345.900000
238.006500 477920.800000
238.042700 173743.400000
239.014100 92704.800000
240.021900 6615.200000
248.026800 19330.100000
251.014800 4490.400000
252.022400 5713.800000
260.027300 7892.500000
276.022100 70218.800000

>ms2peaks
50.015100 3360.900000
51.023000 4848.800000
53.002300 21317.200000
53.038600 44434.100000
53.997400 3622.200000
54.046500 9859.000000
55.017800 36039.900000
56.025700 4304.600000
57.013500 20411.400000
62.015200 3195.800000
63.022900 79504.200000
64.030800 19061.400000
65.038600 765890.200000
66.046500 8370.900000
67.054200 4939.400000
69.033500 5524.800000
72.984000 9810.900000
74.015100 11691.100000
75.022900 145571.400000
76.030800 7293.600000
77.038500 20509.600000
78.046300 6504.000000
79.017900 6853.700000
79.054200 14756.900000
80.062100 5705.500000
81.033500 42044.100000
84.984000 3617.300000
85.032400 3027.300000
89.038500 7758.500000
90.033900 14213.400000
90.046400 7316.000000
91.054200 2948517.500000
92.025700 214945.600000
92.062000 119442.400000
92.990100 6411.400000
93.033600 4337.700000
93.069900 43580.100000
94.041300 57809.400000
95.049200 107952.300000
97.028600 3627.000000
102.046400 61262.200000
103.054200 97779.600000
103.982400 9238.500000
104.990200 3108.400000
105.033500 10347.500000
105.044700 36271.700000
107.029100 4356.400000
107.049300 10395.900000
108.024400 9324.400000
108.037200 7754.200000
108.044300 5126.000000
108.057100 3666.300000
109.028400 72387.200000
109.032400 4473.800000
109.064900 14883.200000
109.979300 35229.200000
111.044000 13138.900000
113.039000 3603.300000
114.035100 7594.200000
115.054200 24791.700000
115.989600 5307.600000
116.990400 3571.200000
118.041500 7040.300000
118.993400 10138.500000
119.049200 103975.000000
119.060500 10007.300000
120.001200 19682.400000
120.044500 4831.900000
120.057000 94805.500000
121.028400 39895.700000
121.044500 3542.300000
121.064800 54316.800000
126.035100 3939.500000
127.041500 3674.700000
127.054400 5874.700000
128.049700 18909.100000
128.062000 46961.000000
129.033500 21130.600000
129.044800 4773.900000
129.069900 13261.600000
129.985500 59074.900000
130.030300 5042.000000
130.041400 6556.900000
131.029500 6843.500000
131.049200 109350.200000
132.001000 21442.500000
132.037700 5220.600000
132.057000 8372.800000
133.044800 16644.700000
134.040200 9389.400000
135.048000 7550.400000
136.031900 10354.000000
136.051900 4011.500000
139.041400 13122.000000
140.049600 11572.000000
140.990100 4629.000000
143.984800 17168.400000
144.001100 4822.300000
145.008900 8217.800000
145.064800 6816.100000
146.040300 3718.800000
146.059600 4858.900000
146.988200 9019.300000
146.999700 7203.300000
147.043600 5951.100000
147.060500 17954.400000
147.996000 445791.000000
148.055700 35412.500000
149.015300 14661.400000
149.039800 71342.300000
150.047800 7784.000000
152.050900 15736.600000
154.065200 25333.900000
155.060200 13793.200000
155.072800 6593.800000
156.044600 24395.700000
157.044900 8926.800000
157.052500 18281.400000
157.064800 8488.000000
158.040100 230051.000000
159.047900 924771.800000
160.031700 4205.200000
160.055800 21031.200000
162.011600 68682.900000
162.031300 8414.300000
164.050000 5304.000000
166.065300 7269.400000
167.005800 83945.700000
167.036600 27242.800000
168.001200 45173.100000
168.044400 5841.000000
169.008800 44937.300000
170.016800 7370.600000
171.048000 3920.900000
172.055400 5514.400000
174.010600 59220.900000
174.035200 4169.800000
174.071400 24014.800000
175.018600 10356.800000
175.042700 13423.300000
175.079000 18473.300000
176.050600 392136.200000
182.016800 75104.400000
182.060000 5756.300000
183.023900 3721.800000
183.067500 5261.000000
183.995900 3987.900000
184.055600 26539.500000
185.063600 58776.300000
186.011700 15945.300000
186.035400 7875.100000
186.071400 7217.900000
187.042800 230814.500000
188.050600 17139.100000
190.041400 4267.200000
192.001100 4722.500000
192.020900 10556.900000
193.009100 57869.600000
194.016700 114011.700000
195.024600 36622.300000
196.032700 6378.300000
196.055900 6093.100000
200.026600 7818.700000
201.058700 4306.600000
202.066200 45016.000000
203.038300 6763.000000
203.074000 24117.600000
204.021300 6770.000000
204.045800 36945.800000
206.016900 10611.400000
210.011800 50157.900000
210.047900 6356.600000
211.019500 21660.500000
213.058300 10117.000000
214.066200 9022.800000
216.045900 15379.500000
219.024000 26102.500000
219.034400 54033.200000
219.996200 6268.300000
220.016200 10620.300000
220.032100 19045.700000
221.004100 4496.100000
222.011700 797567.500000
223.019000 3063.300000
224.027900 5534.800000
230.061100 20874.900000
232.032400 4217.200000
238.006600 379439.300000
239.014900 12479.600000
276.022100 23056.800000

>ms2peaks
50.015200 2793.000000
51.022900 4316.100000
53.002200 34055.300000
53.038600 73591.800000
53.997400 5249.200000
54.046400 21786.100000
55.017800 33291.900000
55.054300 3467.400000
57.013500 43380.600000
62.015100 9298.600000
63.022900 225634.800000
64.030700 65782.200000
65.038500 1032223.200000
66.046400 22107.700000
67.054200 6533.100000
69.033400 3607.400000
72.984000 11860.900000
74.015000 33663.700000
75.022900 267838.900000
76.030700 16079.000000
77.038500 31954.200000
78.046300 10692.900000
79.017900 14863.000000
79.054200 14669.400000
80.061900 3222.400000
81.033500 87598.800000
82.029000 2839.400000
84.983900 20543.900000
85.032200 7897.500000
89.038500 16488.400000
90.033800 31501.500000
90.046300 9758.700000
91.054200 1775875.000000
92.025600 251855.500000
92.062000 56483.000000
93.069900 29913.600000
94.041300 64738.300000
95.049100 159537.600000
100.018800 2565.600000
102.046300 51347.200000
103.054200 97442.100000
103.982300 30695.700000
104.062000 3523.100000
104.990300 4474.200000
105.033400 8707.000000
105.044700 59210.900000
107.029200 13005.400000
107.049200 10983.700000
108.024200 17285.700000
108.036900 31974.000000
108.044300 11186.200000
108.056800 3535.600000
109.028400 76728.700000
109.032000 4171.400000
109.064900 4077.300000
109.979200 130769.100000
111.044100 12397.700000
113.038800 7742.500000
114.034800 12036.400000
115.054200 32761.600000
115.989500 4962.200000
116.990100 10080.800000
118.041200 6073.100000
118.993400 10810.800000
119.049200 41989.900000
120.000900 18559.200000
120.044500 7380.500000
120.057000 25019.800000
121.028400 20640.800000
121.044800 16649.200000
121.064700 16504.900000
126.034800 8997.300000
127.041500 7839.400000
127.054100 9051.000000
128.049500 49594.700000
128.062100 41787.300000
129.033500 17200.500000
129.044700 17455.700000
129.069800 9941.600000
129.985500 136933.900000
130.029800 9975.900000
130.041200 7073.600000
130.993400 7197.400000
131.029200 31549.700000
131.049100 65734.100000
132.001200 15209.100000
132.037000 30330.700000
132.056900 8081.500000
133.044800 27203.300000
134.040200 13892.200000
135.047800 10480.700000
136.031900 22858.700000
138.034000 5731.400000
139.041600 41658.900000
139.054000 7711.300000
140.049500 16593.600000
140.990100 13257.400000
143.984900 13247.000000
144.000900 6312.700000
145.008700 6927.600000
145.064800 9699.000000
145.979900 2861.500000
146.040000 5554.400000
146.060000 16794.600000
146.988100 2626.700000
146.999400 12498.700000
147.047700 10768.200000
147.060400 9705.800000
147.996000 437864.700000
148.055700 55707.400000
149.015400 12454.200000
149.039700 143849.400000
150.047500 18368.600000
152.050900 15148.500000
154.065100 22559.600000
155.060200 13406.600000
155.072600 4640.300000
156.001000 12895.400000
156.044600 39103.000000
157.044800 10201.000000
157.052300 37433.800000
157.064600 8326.500000
158.040100 314557.900000
159.047800 788105.300000
160.031900 3763.000000
160.055600 20090.800000
162.011500 70863.200000
162.031000 5835.500000
164.049900 10622.300000
166.065100 5230.700000
167.005800 72355.700000
167.036600 30030.000000
168.001100 47813.700000
168.044600 13608.600000
169.008800 39858.200000
171.048400 3276.100000
172.055600 7600.300000
174.010500 50383.700000
174.035200 7273.900000
174.071200 20803.500000
175.018200 9696.500000
175.042900 12012.900000
175.079200 8197.100000
176.050600 257815.000000
182.016700 49809.500000
184.055800 36146.600000
185.063500 32795.900000
186.011600 18569.000000
186.035300 3685.600000
186.071500 4357.300000
187.042800 108628.200000
188.050500 14590.900000
192.001100 5646.900000
193.008900 74026.300000
194.016600 48550.600000
195.024600 21309.700000
196.055800 6307.700000
200.026500 5068.900000
200.050400 2895.800000
202.066100 16501.600000
203.037500 14491.700000
204.045500 25385.600000
206.016900 8975.000000
210.011700 29186.200000
211.019200 4586.000000
213.058400 7043.200000
216.045400 4166.100000
219.023900 17700.500000
219.034400 29259.100000
219.996000 13076.300000
220.015800 4220.500000
220.032200 8219.000000
221.003900 3757.900000
222.011600 167278.800000
230.061400 6001.200000
238.006500 206492.700000
248.026700 4716.900000
276.023100 3758.900000

