>compound LU50211183
>parentmass 189.15979999999993
>ionization [M+H]+
>formula C9H20N2O2
>rt 456.915000
>profile orbitrap
#smiles_iso CCCOC(=O)NCCCN(C)C
#smiles_can CCCOC(=O)NCCCN(C)C
#inchikey WZZLDXDUQPOXNW-UHFFFAOYSA-N
#pubchem_id 32490
#mb_accession LU064801,LU064802,LU064803,LU064804,LU064805,LU064806,LU107501,LU107502,LU107503,LU107504,LU107505,LU107506

>ms2peaks
58.064900 20817.200000
74.023500 68435.200000
86.096300 36177.300000
102.054800 3744180.800000
103.122900 9020.800000
129.102100 25169.900000
144.101800 2782695.000000
147.112600 62650.500000
189.159500 6197467.500000

>ms2peaks
58.065100 34748.700000
74.023500 146284.500000
86.096400 67889.200000
102.054900 5729415.500000
103.123000 15207.700000
129.102200 35571.700000
144.101900 3021081.000000
147.112700 79589.700000
189.159700 4595955.500000

>ms2peaks
58.065100 278140.400000
74.023600 1090826.100000
86.096400 165341.800000
102.054900 10065920.000000
103.122900 22724.400000
129.102200 58317.300000
144.101900 998237.200000
147.112700 51846.200000
189.159700 476174.100000

>ms2peaks
53.002200 13675.600000
58.065100 745347.800000
74.023600 2910494.200000
84.044400 20145.500000
84.080700 15545.900000
86.096400 209677.600000
102.054900 7847442.500000
103.123000 14905.300000
129.102300 39749.300000
144.101900 110148.100000
147.112900 8750.900000
189.159900 22307.500000

>ms2peaks
53.002200 30515.300000
53.997500 6867.400000
56.013100 11988.200000
56.049500 16880.100000
58.065100 1264127.100000
71.072800 8071.500000
74.023600 4526940.500000
84.044400 22708.800000
84.080700 20974.100000
86.096400 192072.200000
102.054900 4244580.000000
106.065000 4911.800000
129.102200 13425.400000
144.101700 5632.600000

>ms2peaks
53.002200 47459.200000
53.997500 9038.400000
56.013100 22389.700000
56.049500 21120.100000
58.065100 1282784.900000
71.073000 8091.100000
74.023600 3974843.500000
84.044400 23072.400000
84.080700 22115.700000
86.096400 119544.100000
91.054300 4076.800000
95.049300 4074.200000
102.054900 1714153.900000
129.102300 4286.100000

>ms2peaks
58.065000 13884.500000
74.023500 56538.900000
86.096500 24056.400000
102.055000 2834585.800000
103.123100 7130.900000
129.102400 12971.700000
144.102000 2079504.200000
147.112700 48303.200000
189.159800 4647261.000000

>ms2peaks
58.065000 40307.700000
74.023600 139698.100000
86.096400 54081.600000
102.054900 5820045.000000
103.123100 17034.400000
129.102400 30750.200000
144.101900 3143818.500000
147.112700 78241.900000
189.159700 4866580.000000

>ms2peaks
58.065100 305314.100000
74.023600 1141862.600000
86.096400 165544.200000
102.054900 10368066.000000
103.123000 26268.100000
129.102200 62508.200000
144.101900 1013848.500000
147.112700 43235.600000
189.159700 471682.000000

>ms2peaks
53.002300 7130.000000
56.049500 8359.400000
58.065200 403772.800000
74.023600 1521922.000000
84.044500 7420.300000
84.080800 7312.500000
86.096500 108520.800000
102.055000 3976620.500000
103.123100 4977.200000
104.049600 5119.500000
129.102200 20199.800000
144.102000 58036.200000
147.112800 4507.300000
189.159900 10805.700000

>ms2peaks
53.002200 25339.700000
53.997500 3480.300000
56.013100 10374.000000
56.049500 10950.800000
58.065100 898018.800000
71.073000 4378.500000
74.023600 3368585.200000
84.044400 18955.600000
84.080800 15505.900000
86.096400 144878.500000
102.055000 3208268.200000
104.049600 3702.700000
106.065200 4050.100000
129.102400 18407.300000
144.101900 4765.800000
147.091900 3963.600000

>ms2peaks
53.002200 37597.500000
53.997400 5854.100000
56.013100 19266.900000
56.049400 16645.700000
58.065100 949271.900000
71.072800 9773.600000
74.023600 2973506.200000
84.044400 14260.700000
84.080700 17749.700000
86.096400 92024.800000
102.054900 1266204.400000
106.065100 3349.500000
129.102100 3581.900000

