>compound LU51992344
>parentmass 197.0961
>ionization [M+H]+
>formula C14H12O
>rt 1098.850000
>profile orbitrap
#smiles_iso CC1=CC=C(C=C1)C(=O)C2=CC=CC=C2
#smiles_can CC1=CC=C(C=C1)C(=O)C2=CC=CC=C2
#inchikey WXPWZZHELZEVPO-UHFFFAOYSA-N
#pubchem_id 8652
#mb_accession LU094401,LU094402,LU094403,LU094404,LU094405,LU094406

>ms2peaks
53.038600 2318.100000
77.038500 3527.800000
91.054200 3959.500000
95.049200 4017.900000
105.033500 1071769.200000
119.049200 384810.300000
197.096100 883240.800000

>ms2peaks
53.038800 3114.700000
57.070100 2901.300000
77.038700 4954.900000
91.054300 4119.900000
95.049200 7378.100000
105.033600 1100322.200000
119.049300 419198.600000
197.096300 444692.200000

>ms2peaks
51.023000 1907.700000
53.038600 16674.400000
57.069900 3928.800000
67.054200 1669.600000
77.038600 4473.800000
91.054200 16029.700000
95.049200 52416.200000
105.033600 1209153.600000
109.064900 16623.500000
119.049200 511578.600000
197.096300 35474.500000

>ms2peaks
50.015200 2115.500000
51.023000 3501.100000
53.038600 52256.400000
55.018000 4698.400000
57.069800 1592.900000
65.038600 8642.400000
67.054300 5484.400000
77.038600 16049.900000
81.033600 5205.700000
81.070000 1979.600000
91.054300 69798.200000
94.041400 6095.900000
95.049200 148968.600000
105.033600 843925.900000
109.064900 42406.000000
119.049300 332516.500000
197.096400 2643.900000

>ms2peaks
50.015200 4208.300000
51.023000 7622.300000
53.038600 111273.200000
55.017900 8197.600000
65.038600 25326.300000
67.054200 7133.000000
77.038600 29122.600000
81.033600 13081.800000
91.054300 210246.900000
94.041400 12257.900000
95.049200 301264.000000
105.033600 516179.600000
109.064900 66841.400000
119.049300 191342.400000

>ms2peaks
50.015100 7703.500000
51.023000 16564.800000
53.038600 142733.800000
55.017900 9542.300000
65.038600 62444.300000
67.054200 4121.500000
77.038500 51586.400000
81.033600 15570.800000
91.054300 333739.400000
94.041400 14193.400000
95.049200 438335.800000
105.033600 255958.100000
109.064800 60356.400000
115.054300 46832.900000
119.049300 76310.600000
141.069900 38585.900000
168.057300 8410.700000
169.064800 4136.400000

