>compound LU51203771
>parentmass 170.1176
>ionization [M+H]+
>formula C9H15NO2
>rt 678.960000
>profile orbitrap
#smiles_iso CC(=O)CC(C)(C)NC(=O)C=C
#smiles_can CC(=O)CC(C)(C)NC(=O)C=C
#inchikey OMNKZBIFPJNNIO-UHFFFAOYSA-N
#pubchem_id 17888
#mb_accession LU049301,LU049302,LU049303,LU049304,LU049305,LU049306

>ms2
58.065100 1915.500000
72.044400 9597.500000
92.049400 5047.900000
99.080500 23694.200000

>ms2
72.044400 8911.300000
92.049500 5312.200000
93.057200 2640.900000
99.080500 20239.900000

>ms2
58.065100 1865.500000
72.044300 9339.000000
92.049500 33912.100000
93.057300 28552.100000
99.080400 17607.800000

>ms2
55.018000 2682.200000
58.065200 4328.100000
65.038700 5625.800000
66.046500 1532.300000
72.044500 8719.100000
81.069900 2054.300000
92.049500 39080.800000
93.057400 62290.800000
99.080500 11284.500000

>ms2
55.017800 3738.100000
58.065100 1466.300000
65.038600 11158.900000
66.046300 1631.600000
72.044400 5738.900000
79.054100 2270.000000
81.069900 3251.200000
92.049500 32035.200000
93.057400 94246.500000
99.080200 3389.100000

>ms2
55.017800 4695.700000
58.065100 2896.400000
65.038600 17838.400000
66.046400 5324.200000
72.044300 4568.500000
79.054300 3172.700000
81.070000 2451.400000
92.049500 18600.100000
93.057400 103020.600000

