>compound LU51880516
>parentmass 226.1087
>ionization [M+H]+
>formula C12H11N5
>rt 800.400000
>profile orbitrap
#smiles_iso C1=CC=C(C=C1)CNC2=NC=NC3=C2NC=N3
#smiles_can C1=CC=C(C=C1)CNC2=NC=NC3=C2NC=N3
#inchikey NWBJYWHLCVSVIJ-UHFFFAOYSA-N
#pubchem_id 62389
#mb_accession LU020201,LU020202,LU020203,LU020204,LU020205,LU020206

>ms2peaks
91.054100 1653376.100000
148.061700 72528.600000
226.108600 19803912.000000

>ms2peaks
91.054200 5727380.000000
148.061700 242850.700000
184.086600 21205.600000
209.082200 17818.600000
226.108600 14770640.000000

>ms2peaks
65.038500 93336.400000
91.054100 17990912.000000
109.050800 18867.000000
148.061600 352897.800000
157.075900 18571.800000
184.086700 48523.900000
199.097900 18181.000000
209.081800 21563.300000
226.108600 3765037.500000

>ms2peaks
65.038500 350818.200000
91.054200 21885740.000000
121.050500 23934.800000
148.061700 228667.200000
157.076300 25948.200000
184.087200 25607.400000
226.108600 361054.300000

>ms2peaks
65.038500 959408.100000
91.054200 21810642.000000
121.050600 25681.800000
148.061700 93511.800000

>ms2peaks
63.022900 65033.800000
65.038600 2216093.500000
91.054200 19103264.000000
119.035400 39281.200000
121.050700 19626.200000
148.061700 40350.000000

