>compound LU51279609
>parentmass 212.15059999999997
>ionization [M+H]+
>formula C9H17N5O
>rt 815.640000
>profile orbitrap
#smiles_iso CCNC1=NC(=NC(=N1)OC)NC(C)C
#smiles_can CCNC1=NC(=NC(=N1)OC)NC(C)C
#inchikey PXWUKZGIHQRDHL-UHFFFAOYSA-N
#pubchem_id 15359
#mb_accession LU046401,LU046402,LU046403,LU046404,LU046405,LU046406

>ms2
100.050100 40111.000000
138.102600 60805.200000
170.103500 2874690.500000
197.126700 39270.200000
212.150400 33840300.000000

>ms2
71.060300 35575.900000
75.055300 29725.100000
85.076000 48202.500000
86.034800 33014.300000
96.055500 128373.400000
100.050400 171402.900000
114.066200 163429.200000
128.081800 66862.400000
138.102500 236699.300000
142.072300 114847.600000
142.097500 37704.400000
170.103600 8346170.500000
184.119700 37075.300000
212.150400 27532058.000000

>ms2
57.044700 236319.900000
58.028800 22820.800000
68.024200 136495.000000
69.008300 133734.500000
71.060300 329447.000000
75.055200 579685.900000
82.039900 28044.500000
83.023900 42499.800000
85.076000 609186.300000
86.034800 552228.900000
96.055600 1425122.800000
97.039600 464465.800000
99.066600 35489.200000
100.050500 1636970.900000
110.071300 47721.400000
113.082100 75268.700000
114.066100 1554291.500000
127.097800 47522.400000
128.081800 680667.600000
138.077300 141851.300000
138.102500 567019.500000
142.072300 1331053.800000
142.097300 136635.500000
153.077100 23834.300000
168.087800 46679.900000
170.103500 18757348.000000
180.124300 40694.900000
184.119300 78598.000000
212.150500 8795586.000000

>ms2
53.002100 27710.400000
53.997600 11181.800000
57.044700 1167326.000000
58.028700 129107.600000
68.024300 958767.300000
69.008300 1108890.800000
71.060400 1298832.000000
75.055300 2053533.400000
82.040000 129516.900000
83.024000 212510.100000
85.076000 1546292.100000
86.034900 1749513.400000
94.065200 24932.600000
96.055600 2951564.500000
97.039700 1637933.200000
99.066500 152902.900000
100.050500 4472968.000000
103.086600 23668.600000
110.046100 38973.400000
110.071300 100844.800000
112.050500 18962.800000
113.082200 95142.900000
114.066200 2849189.800000
119.060500 20810.800000
125.045800 20090.800000
127.098000 87021.100000
128.081900 1485842.800000
138.077500 335550.100000
138.102600 239025.000000
139.061500 18352.000000
142.072400 2619938.800000
153.077000 65442.300000
155.080400 12291.000000
168.088000 112019.600000
170.103600 10356990.000000
180.124300 24964.000000
184.119300 51253.600000
210.135300 10970.100000
212.150600 960347.500000

>ms2
53.002300 40342.100000
57.044800 2529860.200000
58.028800 558459.100000
68.024300 2681919.000000
69.008300 2616218.000000
71.060400 1568384.200000
74.096500 8871.700000
75.055300 2617209.800000
82.040000 269955.000000
83.024000 447041.300000
85.050900 108339.700000
85.076100 1179331.500000
86.034900 2076707.600000
89.071000 13140.500000
92.049300 11318.500000
96.055700 2721323.200000
97.039700 1604727.800000
99.066600 199371.000000
100.050600 5486437.500000
103.086700 13250.100000
110.046200 116694.700000
110.071300 65154.200000
111.030400 10500.100000
112.050700 18522.300000
113.082100 64691.700000
114.066200 1802377.400000
119.060400 17026.700000
125.045800 42009.900000
126.053500 9207.100000
127.098000 53266.300000
128.081900 1121446.500000
138.077500 229054.300000
138.102600 26649.600000
139.061400 8836.700000
142.072400 1666308.400000
153.077100 50929.100000
168.087900 75544.800000
170.103700 2391961.500000
184.119200 10655.400000
212.150900 50619.800000

>ms2
53.002200 38371.800000
53.997400 8811.100000
57.044700 2969922.500000
58.028700 995780.000000
68.024300 4019070.200000
69.008300 3127453.800000
71.060300 1197202.600000
74.096300 8520.800000
75.055300 1769336.600000
82.040000 243569.400000
83.024000 465394.500000
85.050900 89485.200000
85.076000 514901.500000
86.034900 1430077.200000
92.049300 6230.600000
96.055600 1344840.200000
97.039700 777899.800000
99.066500 129089.100000
100.050500 3915655.200000
110.046100 81320.300000
110.071200 18845.200000
111.030000 8571.800000
112.050500 12368.600000
113.082100 19278.000000
114.066200 570178.500000
119.060300 6570.300000
125.045800 29165.900000
126.053700 12014.200000
127.097600 12066.400000
128.081800 379934.200000
138.077400 64879.100000
142.072300 500247.400000
153.077000 13072.100000
168.087800 16387.300000
170.103600 332037.700000

