>compound LU52643259
>parentmass 251.0373
>ionization [M+H]+
>formula C12H10O4S
>rt 816.300000
>profile orbitrap
#smiles_iso C1=CC(=CC=C1O)S(=O)(=O)C2=CC=C(C=C2)O
#smiles_can C1=CC(=CC=C1O)S(=O)(=O)C2=CC=C(C=C2)O
#inchikey VPWNQTHUCYMVMZ-UHFFFAOYSA-N
#pubchem_id 6626
#mb_accession LU055101,LU055102,LU055103,LU055104,LU055105,LU055106

>ms2
65.038600 2728.900000
93.033800 3782.800000
109.028300 9985.400000
111.044200 4459.900000
156.995400 400988.100000
251.037300 1186102.600000

>ms2
65.038500 13012.700000
68.997000 4119.800000
71.012700 5800.300000
93.033600 10309.000000
109.028400 162526.900000
110.036100 1998.200000
111.044100 65222.400000
156.995400 1389530.200000
251.037200 668969.300000

>ms2
51.023000 2240.300000
53.002300 2638.800000
55.017900 9516.200000
61.010600 12060.000000
65.038600 114795.900000
68.997100 13344.000000
69.033400 3809.200000
71.012700 15464.500000
79.017900 5598.300000
81.033500 3395.700000
93.033500 18176.400000
94.041400 6986.600000
97.028500 4423.000000
109.028500 310610.600000
110.036400 3754.300000
111.044100 254267.700000
122.036500 3489.100000
141.000600 2338.300000
156.995500 547833.800000
251.037200 27871.800000

>ms2
51.023000 2192.600000
53.002200 5781.000000
53.038700 4093.800000
55.017900 19337.600000
61.010600 19203.200000
65.038600 458040.000000
68.997100 12191.100000
69.033500 4685.700000
71.012800 12997.100000
79.017900 7453.100000
81.033500 21478.700000
83.012700 2358.400000
93.033500 20739.900000
94.041400 20608.600000
95.049300 2806.300000
97.028700 2928.400000
109.028500 271764.000000
110.036300 7970.600000
111.044100 365310.900000
122.036700 4978.700000
141.000000 3185.800000
156.995500 88491.300000

>ms2
53.002300 11657.200000
53.038600 7020.200000
55.017900 16578.300000
61.010700 15436.200000
65.038600 1004855.200000
66.046400 3322.100000
68.997100 9254.200000
69.033600 2614.400000
71.012800 7746.500000
79.017900 3791.400000
81.033500 68169.800000
83.012800 1952.000000
93.033600 23583.400000
94.041400 35989.800000
95.049100 2274.100000
97.028400 4332.300000
109.028500 183829.200000
110.036300 10521.300000
111.044100 271034.500000
122.037100 2192.600000
141.000700 5814.600000
156.995500 7439.700000

>ms2
53.002200 22214.900000
53.038600 11201.300000
55.017900 10582.100000
61.010600 13500.100000
65.038600 995259.300000
66.046400 6762.400000
68.997100 4647.400000
69.033500 2017.600000
79.017900 4067.700000
81.033500 92771.800000
93.033700 6048.700000
94.041400 33136.800000
95.049100 2568.500000
109.028500 76207.600000
110.036400 6639.900000
111.044100 106559.000000
141.000900 2587.900000

