>compound LU52728583
>parentmass 164.1434
>ionization [M+H]+
>formula C11H17N
>rt 937.800000
>profile orbitrap
#smiles_iso CCCCCC1=CC=C(C=C1)N
#smiles_can CCCCCC1=CC=C(C=C1)N
#inchikey DGFTWBUZRHAHTH-UHFFFAOYSA-N
#pubchem_id 93162
#mb_accession LU046801,LU046802,LU046803,LU046804,LU046805,LU046806

>ms2
71.085500 28388.300000
91.054000 53137.400000
94.065100 615218.300000
107.072600 35082.800000
164.143400 14644642.000000

>ms2
71.085400 22158.100000
91.054000 47338.100000
94.065100 579367.700000
107.072500 25999.100000
164.143300 14567068.000000

>ms2
55.054200 31123.900000
71.085500 65702.900000
91.054200 386433.400000
93.057100 40084.400000
94.065100 2508368.000000
105.069800 41907.400000
106.064900 46333.600000
107.072800 170110.300000
164.143300 10246310.000000

>ms2
51.022900 5525.500000
53.038600 31333.900000
55.054300 90085.900000
65.038500 22014.600000
66.046400 16565.300000
67.054300 7248.100000
69.069900 16600.900000
71.085500 40713.800000
77.038500 11083.600000
79.054300 35913.300000
81.069800 5745.800000
90.046400 22818.600000
91.054300 1541035.000000
93.057400 127173.900000
94.065200 3139956.800000
103.054300 18135.400000
104.061900 4246.000000
105.070000 149420.200000
106.065200 193511.900000
107.073000 564546.400000
108.081000 15771.400000
117.069900 7326.700000
119.085600 14591.900000
120.080900 12410.000000
121.088700 11476.900000
122.096700 5526.100000
163.135600 9253.000000
164.143500 3640048.200000

>ms2
51.022900 4002.100000
53.038600 69717.100000
55.054200 137215.700000
63.022900 3442.800000
65.038600 161142.100000
66.046400 106348.300000
67.054200 19583.700000
69.070000 14061.900000
71.085400 17617.900000
77.038500 16598.900000
78.046400 3772.000000
79.054200 104808.900000
81.069900 10127.200000
89.038600 19278.100000
90.046500 106410.400000
91.054300 3060630.800000
93.057400 230680.400000
94.065200 2248120.000000
103.054300 57538.400000
104.062100 17136.500000
105.069900 229703.100000
106.065200 582507.100000
107.073000 805466.000000
108.080900 11310.500000
117.069900 19678.800000
119.085600 10608.100000
120.080800 33231.300000
121.088700 12120.600000
163.135100 4969.500000
164.143400 768778.600000

>ms2
51.023000 5689.200000
53.038600 117628.900000
55.054300 100824.000000
63.023000 13267.900000
65.038600 628187.600000
66.046400 249637.100000
67.054200 35702.000000
69.069800 18026.300000
77.038500 45820.000000
78.046400 20501.800000
79.054200 170271.800000
81.069900 9867.600000
89.038600 106337.400000
90.046500 333818.900000
91.054300 3601343.000000
93.057400 258511.700000
94.065200 1075219.900000
103.054200 106555.000000
104.062000 35310.100000
105.069900 178118.600000
106.065200 966985.800000
107.072900 606655.400000
108.080800 7335.600000
117.069900 26084.500000
119.085500 8752.100000
120.080900 41583.800000
121.088600 6595.700000
164.143500 114274.500000

