>compound LU52471120
>parentmass 302.1099
>ionization [M+H]+
>formula C16H13F2N3O
>rt 976.500000
>profile orbitrap
#smiles_iso C1=CC=C(C(=C1)C(CN2C=NC=N2)(C3=CC=C(C=C3)F)O)F
#smiles_can C1=CC=C(C(=C1)C(CN2C=NC=N2)(C3=CC=C(C=C3)F)O)F
#inchikey JWUCHKBSVLQQCO-UHFFFAOYSA-N
#pubchem_id 91727
#mb_accession LU070901,LU070902,LU070903,LU070904,LU070905,LU070906

>ms2
70.039900 3279045.200000
74.096400 5366.700000
123.024600 41422.600000
137.039800 9385.100000
233.077200 290469.600000
302.109900 4365982.000000

>ms2
70.039900 5895769.000000
109.044800 276782.900000
123.024000 606711.000000
137.039600 148626.200000
215.066700 26528.100000
233.077200 538671.800000
302.109900 247514.200000

>ms2
70.039900 5844587.500000
91.054300 9751.200000
109.044800 710324.700000
113.039700 8889.200000
123.024000 1770253.400000
137.039700 140781.300000
185.076200 9448.300000
195.060500 18958.300000
215.066600 65105.400000
233.077100 69676.800000

>ms2
70.040000 4556036.500000
71.029200 7171.800000
91.054300 8557.600000
95.029200 7752.500000
109.044900 740205.200000
113.039700 44140.100000
123.024100 1763464.800000
137.039800 26375.400000
165.069900 15838.100000
193.065100 9197.800000
194.052700 12400.400000
195.060600 38342.000000
203.059900 4589.400000
214.058900 18976.100000
215.066900 28240.200000

>ms2
70.039900 4845720.000000
71.029200 43840.400000
75.022900 26964.100000
79.017800 14069.000000
83.029100 34475.800000
91.054400 13981.300000
93.033500 6739.200000
99.024000 7539.200000
109.044800 945082.100000
111.044000 12980.400000
113.039700 230053.300000
123.024100 1710957.200000
123.035000 467818.400000
124.032100 5400.500000
165.069900 41382.400000
175.054200 9385.500000
183.060300 10125.500000
193.064900 18490.800000
194.052700 39168.300000
195.060400 24296.400000
203.060300 13127.700000
214.058700 39931.100000
215.067100 5221.700000

>ms2
50.015200 5326.400000
53.002200 5619.400000
57.013500 6406.200000
70.039900 4080392.800000
71.029100 76818.800000
74.015100 13292.300000
74.096400 4162.200000
75.022900 108483.900000
79.017900 25246.300000
83.029100 113074.400000
89.038600 13592.400000
91.054200 9537.000000
93.033500 10873.700000
95.029100 59755.400000
99.024100 16928.400000
109.044800 829492.900000
111.044000 21585.000000
112.031900 7019.100000
113.039700 427112.800000
123.024200 962830.600000
123.035100 814467.400000
124.032300 4147.300000
165.069800 33671.800000
175.054100 5158.000000
183.060300 15668.600000
193.064800 24220.600000
194.052600 49583.200000
195.060500 7177.400000
203.060600 8620.100000
214.058800 42875.000000

