>compound LU52149204
>parentmass 233.0896
>ionization [M+H]+
>formula C10H11F3N2O
>rt 964.500000
>profile orbitrap
#smiles_iso CN(C)C(=O)NC1=CC=CC(=C1)C(F)(F)F
#smiles_can CN(C)C(=O)NC1=CC=CC(=C1)C(F)(F)F
#inchikey RZILCCPWPBTYDO-UHFFFAOYSA-N
#pubchem_id 16562
#mb_accession LU092101,LU092102,LU092103,LU092104,LU092105,LU092106

>ms2peaks
72.044300 3463059.800000
168.025600 11394.600000
213.083000 39048.100000
233.089600 8522598.000000

>ms2peaks
56.013100 11486.900000
72.044300 6430542.500000
160.036700 9062.700000
168.025500 56958.100000
188.031600 44520.700000
213.083200 60635.500000
233.089600 3844874.000000

>ms2peaks
56.013200 23711.600000
72.044400 7393500.500000
160.036900 103868.900000
168.025600 139891.600000
173.032100 13655.500000
178.047500 10739.000000
188.031800 94210.700000
192.063200 10485.000000
213.083700 12649.500000
233.089900 284550.800000

>ms2peaks
56.013100 52667.700000
72.044300 7146327.500000
140.030600 23785.200000
145.025900 71161.900000
160.036900 271846.400000
163.036600 8585.400000
168.025500 142769.500000
173.032000 44627.200000
178.047400 26148.800000
187.050500 11298.000000
188.031700 49036.800000
192.063000 40584.100000
205.061000 20578.900000
233.091300 9365.200000

>ms2peaks
56.013100 94751.500000
72.044300 7076350.000000
133.025900 15403.700000
140.030600 108830.200000
145.025900 251658.500000
148.030500 10462.000000
159.055500 12394.700000
160.036700 260060.900000
163.036700 7857.800000
168.025400 111009.500000
173.032000 49915.500000
178.047100 26853.100000
188.031800 8800.500000
192.063100 34052.100000
205.060800 16134.300000

>ms2peaks
56.013100 156848.800000
72.044300 5486410.500000
91.041700 10710.900000
104.049600 17803.500000
131.060400 11235.200000
133.026000 49326.400000
140.030600 155285.500000
141.025900 23456.800000
145.025900 407013.100000
148.030600 29165.000000
159.055400 13247.700000
160.036900 142495.600000
168.025500 68909.400000
173.031900 18817.500000
178.047300 9165.700000
192.062900 13188.900000

