>compound LU52457803
>parentmass 547.2227000000001
>ionization [M+H]+
>formula C34H30N2O5
>rt 1208.760000
>profile orbitrap
#smiles_iso CC1=C(N=C(O1)C2=CC=CC=C2)CCOC3=CC=C(C=C3)C[C@@H](C(=O)O)NC4=CC=CC=C4C(=O)C5=CC=CC=C5
#smiles_can CC1=C(N=C(O1)C2=CC=CC=C2)CCOC3=CC=C(C=C3)CC(C(=O)O)NC4=CC=CC=C4C(=O)C5=CC=CC=C5
#inchikey ZZCHHVUQYRMYLW-HKBQPEDESA-N
#pubchem_id 170364
#mb_accession LU050801,LU050802,LU050803,LU050804,LU050805,LU050806

>ms2peaks
186.091300 182360.400000
306.149400 10784.900000
322.143500 317747.600000
350.138700 289215.100000
397.190700 53014.700000
501.217500 255603.000000
547.222900 7691228.000000

>ms2peaks
83.049100 59709.500000
91.054200 8219.800000
104.049400 163980.500000
105.033500 358500.800000
120.044400 14514.100000
144.080800 55869.500000
159.080600 7364.100000
186.091300 5513715.500000
187.098900 45076.700000
194.096500 60789.100000
201.091000 9092.300000
210.091300 8509.800000
222.091300 50842.600000
280.133200 68580.200000
298.122600 12411.100000
306.149000 68317.900000
308.128100 276639.600000
315.125400 71679.800000
316.133900 6136.300000
322.143800 3415011.200000
350.138700 90131.900000
384.159600 100471.200000
397.190800 52021.500000
483.207300 77112.800000
501.217600 824260.200000
547.223500 126813.700000

>ms2peaks
53.038600 12569.300000
55.054300 5362.600000
69.033500 4795.400000
77.038600 9955.300000
83.049100 357025.100000
91.054200 35558.700000
95.049200 39519.600000
104.049500 1286320.500000
105.033500 664359.700000
107.049000 11753.900000
117.070000 7644.300000
118.065000 9322.000000
120.044300 15254.400000
121.064600 7331.600000
122.060000 9776.600000
123.044100 7503.200000
128.061900 6942.000000
132.043900 5597.800000
136.075700 16298.800000
143.073000 22291.300000
144.080800 500871.900000
147.080300 6128.900000
149.059700 25016.800000
158.060400 5469.300000
158.096600 14409.400000
159.080600 14479.000000
168.081200 5177.400000
172.075800 41663.900000
173.095900 8520.100000
182.096500 13372.400000
183.080400 5135.700000
186.091300 4765862.500000
187.075600 7366.300000
187.099100 110980.200000
193.088700 11946.200000
194.096500 95764.000000
196.075200 5583.100000
201.090800 12504.900000
204.080700 7161.300000
208.075700 84379.900000
209.083600 7709.300000
210.091100 11822.300000
220.075500 6719.600000
222.091200 33571.100000
280.112500 5470.600000
280.132500 5011.600000
286.122900 6446.100000
298.122300 17588.300000
308.128200 29080.500000
310.122900 8360.200000
314.117800 13715.900000
315.125300 140038.600000
322.143800 837363.800000
384.159700 5075.700000
483.206400 28186.300000

>ms2peaks
50.015200 3684.500000
51.023100 3657.500000
53.038600 41797.400000
55.017900 4899.700000
55.054200 32419.900000
65.038500 7422.200000
69.033400 21038.900000
77.038300 16636.300000
79.054200 7913.400000
81.033500 6769.800000
83.049200 332509.800000
84.057100 7740.300000
91.054300 60295.200000
92.049500 3511.100000
93.070000 17721.600000
94.041400 6442.200000
95.049200 125364.200000
103.054300 10686.700000
104.049500 1848838.000000
105.033500 923707.700000
105.044400 50917.400000
107.049200 25906.300000
115.054300 13670.900000
116.062000 2870.900000
117.057500 3033.900000
117.069900 52929.100000
118.065000 2718.200000
119.049200 9691.300000
120.044400 14803.000000
121.028700 4092.000000
121.064800 27616.800000
122.060000 15938.300000
123.044100 9833.700000
128.062100 36030.400000
129.069900 9374.100000
130.029100 5500.600000
130.065300 16263.300000
131.049100 6138.800000
131.085500 11353.600000
132.044300 7700.800000
136.075800 20527.100000
137.059900 2932.900000
141.069800 9412.600000
143.073000 67115.800000
144.080800 639910.200000
145.064900 11737.700000
147.055500 4441.200000
147.080600 11184.200000
149.060000 25063.600000
153.069900 6189.800000
155.060500 7921.200000
158.060600 12342.000000
158.096500 43207.000000
159.080700 10520.200000
165.070200 8652.600000
167.073100 6843.600000
167.085300 12370.700000
168.080800 12304.700000
172.075700 151136.600000
173.083700 6454.400000
173.096500 7137.900000
180.080900 20105.500000
182.096400 12199.200000
183.080900 4235.900000
186.091500 1481517.400000
187.099100 55943.100000
193.088900 26739.000000
194.096500 54179.400000
196.075700 14687.600000
201.091200 4779.700000
204.080800 8362.100000
208.075800 168956.200000
209.083500 16754.200000
210.091200 18684.900000
220.075600 8400.700000
222.091700 18680.500000
268.112100 7492.500000
280.112900 6314.900000
286.123000 7124.700000
296.107500 5916.200000
297.115300 3536.400000
298.122800 21625.100000
310.122700 3666.900000
314.117700 34316.500000
315.125000 11452.200000
322.143800 27343.700000

>ms2peaks
50.015100 5058.300000
51.023000 6012.300000
53.038600 78118.700000
55.017900 8020.500000
55.054300 38479.200000
65.038600 9465.700000
69.033500 35507.200000
77.038500 27943.600000
78.046400 2857.600000
79.054200 7139.400000
81.033500 8925.000000
83.049200 166063.200000
84.057100 4823.600000
91.054300 92969.400000
92.049500 4575.800000
93.070000 16491.000000
94.041500 8359.100000
95.049200 237721.300000
103.054400 18412.400000
104.049600 1499979.500000
105.033600 751019.400000
105.044700 84936.400000
107.049200 25522.700000
109.065000 3647.800000
115.054300 29663.100000
116.049500 5499.300000
116.062200 5885.800000
117.057600 12031.300000
117.070000 80089.800000
118.065400 4360.000000
119.049100 7384.900000
120.044600 11228.400000
121.065000 12418.800000
122.060000 7640.600000
123.044100 3673.600000
127.054300 4112.600000
128.062200 44902.400000
129.069900 15136.900000
130.028900 20990.800000
130.065100 18879.900000
131.049300 6308.400000
131.085800 9596.900000
132.044400 5650.100000
134.060000 5339.900000
136.075900 13501.300000
137.059800 5947.000000
141.069900 13840.300000
143.073100 93289.900000
144.080900 305597.600000
145.065000 20374.500000
146.060300 3067.300000
147.055400 6943.900000
147.080500 3824.000000
149.060000 4142.200000
152.062100 7517.400000
153.070200 9789.900000
155.060600 20069.900000
158.060200 7088.600000
158.096600 37619.800000
159.080500 4565.800000
165.069900 16363.300000
167.073000 15252.200000
167.085300 12650.900000
168.081100 12496.100000
172.075800 150317.500000
178.078100 4551.800000
180.080800 42876.200000
181.064900 3811.200000
181.089200 2886.500000
183.080500 3716.700000
186.091500 297107.000000
187.099400 6848.100000
192.080500 3615.900000
193.088900 22929.800000
194.096600 16287.800000
196.075900 21506.700000
204.080800 12119.500000
208.076000 70966.900000
209.084100 3126.800000
210.091800 6348.800000
220.076100 9491.100000
222.091200 4829.600000
236.071300 3559.500000
268.112700 9969.800000
280.113600 4074.300000
296.107000 6518.700000
298.123200 10879.600000
314.117200 12083.600000

>ms2peaks
50.015200 10908.600000
51.022900 12790.600000
53.038600 156118.900000
55.018000 14226.800000
55.054200 36321.100000
65.038600 24959.800000
69.033500 49963.600000
77.038500 63385.100000
78.046500 3756.000000
79.054200 13690.000000
81.033500 16896.800000
83.049200 95142.800000
91.054300 150596.000000
92.049500 9550.800000
93.070000 6971.100000
94.041400 23180.300000
95.049200 481718.900000
103.054300 42574.400000
104.049500 1593655.000000
105.033600 744563.500000
105.044700 198770.500000
107.049200 28210.200000
109.064800 4869.400000
115.054300 68208.400000
116.049600 9556.200000
116.062000 14078.100000
117.057400 15099.200000
117.069900 107226.400000
118.065300 5509.900000
119.049100 7453.000000
120.044600 5721.100000
121.065100 6569.500000
122.060100 10987.200000
127.054100 8577.200000
128.062100 55464.000000
129.070000 19257.100000
130.028900 25174.500000
130.065100 28768.500000
131.049200 7999.200000
131.085700 4426.100000
132.044600 4750.400000
134.060000 3953.100000
136.075900 19432.900000
137.059700 3009.900000
141.069700 18346.800000
143.073000 127380.100000
144.080800 178066.800000
145.064700 34273.700000
146.060300 4586.500000
147.055300 2906.800000
152.062100 42956.200000
153.069900 24562.100000
155.060500 43842.600000
158.060100 6045.800000
158.096500 34275.200000
165.070000 34765.200000
167.073000 26539.400000
167.085800 8624.000000
168.080700 14791.500000
172.075700 114951.900000
178.077900 6173.200000
180.080700 46839.000000
181.064900 5099.200000
181.088100 3370.200000
186.091400 109950.600000
192.080700 10000.900000
193.088500 18211.100000
194.096400 5408.700000
196.075900 30458.300000
204.081100 14099.000000
208.076100 28364.200000
209.083200 5187.900000
210.091600 2858.700000
220.075400 7803.300000
236.070800 2627.100000
268.112100 8861.100000
296.105900 3369.900000

