>compound LU53929683
>parentmass 383.24420000000003
>ionization [M+H]+
>formula C22H30N4O2
>rt 818.580000
>profile orbitrap
#smiles_iso CC1=NC=C(C=N1)[C@@H](CCCCCCC2=NC3=C(CCCN3)C=C2)CC(=O)O
#smiles_can CC1=NC=C(C=N1)C(CCCCCCC2=NC3=C(CCCN3)C=C2)CC(=O)O
#inchikey NJDBZBVQIMZWPP-SFHVURJKSA-N
#pubchem_id 9951932
#mb_accession LU018901,LU018902,LU018903,LU018904,LU018905,LU018906

>ms2peaks
161.109000 24272.200000
383.244200 19697166.000000

>ms2peaks
148.100200 25635.700000
161.108500 30430.800000
281.200900 57257.500000
323.222800 25286.800000
339.254400 54057.200000
365.233700 448944.800000
383.244200 18484206.000000

>ms2peaks
59.060300 10727.300000
93.069900 16605.100000
94.065100 10113.600000
95.049100 10627.300000
121.076100 23888.900000
121.101000 19158.700000
122.083900 11948.700000
133.075900 16070.400000
133.101100 10894.700000
135.091600 80153.000000
145.076000 41001.300000
145.101300 20082.000000
146.083900 13996.200000
147.091700 176098.100000
148.099400 1524870.600000
149.107300 76781.900000
157.076000 36533.300000
159.091800 27025.300000
161.107300 1880200.900000
162.115100 172807.000000
165.102100 10734.900000
171.091600 16490.600000
173.107300 83285.100000
174.115100 29871.600000
175.123000 474323.900000
176.130700 12921.100000
185.107600 22656.000000
187.123200 52711.000000
188.130700 24524.100000
189.138600 55137.900000
197.107400 27351.700000
199.123100 50052.500000
201.138500 40839.200000
203.154200 59667.800000
204.162100 41873.100000
211.123100 12643.000000
213.138300 23390.900000
215.154200 67019.700000
217.169900 107398.700000
225.138900 35687.200000
237.138700 9967.300000
239.154200 14621.500000
241.169600 10586.900000
253.170100 17911.700000
255.185400 10483.400000
265.169900 143727.900000
267.148800 17363.700000
269.201200 14312.000000
271.216700 10767.300000
279.185500 31268.200000
281.201100 459337.600000
282.196100 30642.800000
289.170200 47081.000000
295.191300 16529.700000
296.212700 20871.400000
298.227900 27746.800000
306.196400 55359.300000
307.180500 72792.200000
323.223000 1904795.800000
324.207000 185780.300000
325.191100 108601.500000
337.205400 23176.800000
337.238600 173077.500000
339.254200 95695.600000
342.218500 30616.700000
347.222900 110494.600000
355.212500 62518.200000
365.233700 3080259.500000
383.244200 9928602.000000

>ms2peaks
67.054100 15493.100000
68.049400 11673.600000
70.065100 16018.000000
79.054200 27868.500000
80.049300 49370.300000
81.069900 18754.300000
82.065100 27116.100000
91.054100 19650.700000
93.057100 11691.500000
93.069900 62703.000000
94.065000 39557.100000
95.049100 14775.800000
95.060300 14945.400000
95.085400 18913.000000
96.080700 9670.600000
105.069800 27487.200000
106.065100 24974.600000
107.060300 65078.500000
107.073000 11059.000000
107.085500 9250.200000
108.044200 10055.800000
108.068200 31860.000000
108.080600 15303.500000
109.075900 22343.400000
110.060200 26160.700000
117.069700 11858.100000
119.060500 21347.200000
119.085400 18601.000000
120.068100 37017.400000
120.080900 34171.600000
121.076000 223645.600000
121.101100 40468.500000
122.083800 86726.200000
123.055100 31285.000000
123.091700 28379.000000
130.065000 13190.700000
131.060400 11075.400000
132.068100 36177.000000
132.080800 9431.800000
133.076000 109067.500000
133.101000 15780.700000
134.083800 67116.900000
134.096200 39431.900000
135.091600 175770.300000
135.104100 17052.200000
136.099500 11153.300000
139.086500 15100.200000
144.068300 34719.800000
145.076100 126261.400000
145.101200 12146.300000
146.083900 86501.200000
146.096300 9623.700000
147.091700 1039508.700000
148.099400 5706596.000000
149.107200 143614.700000
157.076000 74899.000000
158.084000 9127.100000
158.096400 13500.500000
159.091700 100996.100000
160.099500 28837.100000
160.111900 11586.700000
161.107300 8613725.000000
162.115000 706274.700000
163.122700 15312.800000
165.101900 39418.400000
169.075600 13819.200000
171.091500 54255.100000
172.099700 55128.500000
173.107400 249154.300000
174.115100 105529.500000
175.122900 1579917.200000
176.130500 16470.900000
177.138400 18686.100000
179.118000 21677.700000
183.091700 14918.200000
185.107200 55197.300000
186.115200 19145.900000
187.123000 151858.500000
188.130700 63882.700000
189.138700 172582.500000
194.105100 9785.500000
197.107700 29286.200000
199.123000 61427.600000
201.138500 61209.300000
203.154300 174163.600000
204.162000 15098.400000
209.107300 11172.500000
211.123100 16318.400000
213.138900 37319.000000
215.154200 64248.000000
217.169800 163536.800000
223.123000 10262.000000
225.138500 59865.400000
227.154100 18656.400000
235.122700 9033.300000
237.138500 47869.900000
239.154400 22524.600000
241.169500 9888.700000
249.139100 9646.700000
251.154100 19073.700000
253.169500 27608.500000
255.185200 26111.000000
263.154200 17038.900000
265.169900 248684.800000
271.216700 12673.800000
279.185500 36705.500000
280.180500 10145.900000
281.201200 122048.000000
282.196700 34829.400000
289.169300 24483.600000
294.195700 9728.900000
295.192100 94119.700000
296.212400 14178.700000
297.195300 10949.200000
306.196500 28023.800000
307.180700 34602.400000
321.207100 12354.400000
323.223000 1458210.200000
324.207000 53127.500000
325.191200 25089.400000
337.203700 20557.100000
337.238700 119491.600000
339.254600 16259.800000
342.216700 16732.100000
347.223200 30816.000000
355.212900 36869.800000
365.233600 538245.100000
383.244300 728316.800000

>ms2peaks
65.038600 20260.900000
67.054100 16109.900000
68.049400 14644.400000
70.065100 12271.400000
79.054200 46041.500000
80.049400 123030.900000
82.065200 30663.000000
91.054200 45092.100000
92.049600 12670.900000
93.057400 32471.100000
93.069700 33105.400000
94.065100 69391.200000
95.060400 15966.800000
103.054200 16670.500000
104.049500 18453.200000
105.044800 16260.400000
105.070000 35912.300000
106.065100 66940.000000
107.060300 113662.900000
107.072900 22231.600000
108.044200 25725.600000
108.068100 61626.000000
108.080700 21499.500000
109.076000 14214.000000
110.059900 25577.900000
116.049600 16156.700000
117.057300 13327.700000
117.069800 22820.200000
118.064900 30850.000000
119.060400 66664.100000
119.085400 13294.300000
120.068200 212749.200000
120.080700 103013.800000
121.076000 419178.800000
122.083800 128303.100000
123.055100 55457.800000
123.091800 19448.100000
125.070900 14355.600000
130.065000 54235.800000
131.060400 12884.500000
132.068100 120746.800000
132.080700 18188.600000
133.076000 759088.100000
134.060200 15814.300000
134.083800 122633.800000
134.096100 39897.600000
135.091600 161169.500000
135.104200 37769.900000
144.068400 36159.500000
144.080700 27891.000000
145.076100 119904.200000
146.083900 109475.500000
146.096200 14335.600000
147.091700 2677086.800000
148.099400 6148580.000000
149.107300 64518.700000
151.086700 17873.500000
157.075900 51627.000000
159.091800 113887.700000
160.099200 26303.900000
161.107200 11946544.000000
162.115000 524441.400000
165.102000 27098.100000
169.075900 16982.700000
171.091700 36777.000000
172.099400 46691.200000
173.107300 260393.500000
174.115000 62371.800000
175.122900 1753208.400000
179.117800 12575.300000
183.091700 15494.200000
185.107200 42081.300000
186.115200 13749.400000
187.122900 141957.300000
188.130400 23547.100000
189.138600 159339.000000
197.107400 14648.000000
199.122800 20331.700000
201.138700 17794.600000
203.154200 125020.400000
211.123100 17985.300000
213.138400 13037.200000
215.154400 12994.300000
216.149500 13736.300000
217.169900 88389.100000
225.138500 19526.300000
237.138200 22922.600000
265.169700 33373.600000
295.192400 28923.300000
323.222900 116530.300000

>ms2peaks
53.038500 29975.000000
65.038500 35789.700000
67.041600 25522.800000
67.054200 23482.900000
68.049400 16088.700000
79.054200 71818.000000
80.049400 287725.200000
82.065100 24154.900000
91.054200 80812.600000
92.049300 38516.700000
93.057300 101014.200000
93.069900 25323.500000
94.065100 115251.700000
95.049200 32333.700000
95.060300 24680.900000
103.054100 51147.200000
104.049300 65618.500000
105.044600 44887.500000
105.057300 13105.300000
105.069800 27827.500000
106.065100 216066.100000
107.060300 118018.700000
107.072800 39150.400000
108.044300 13575.800000
108.068100 74339.800000
108.080700 19208.900000
109.076100 11202.600000
110.060100 28804.900000
115.054000 23432.600000
116.049400 87277.700000
117.057200 42247.200000
117.069800 36052.100000
118.065000 64237.000000
119.060400 173832.900000
119.072900 20320.700000
120.068200 468565.500000
120.080700 161062.800000
121.076000 517210.700000
122.060100 13707.600000
122.083900 76919.000000
123.055100 44819.000000
123.091700 12854.100000
125.070900 30612.900000
130.065200 111306.100000
131.060300 32187.800000
131.073000 17978.300000
132.068200 324457.300000
132.080300 33048.800000
133.076000 2705582.200000
134.059900 73596.000000
134.083700 119753.600000
134.096200 64417.700000
135.091600 133046.200000
135.104300 31958.400000
143.073000 45807.900000
144.068300 31476.400000
144.080800 87894.000000
145.076100 153647.600000
146.083900 121790.300000
146.096400 11768.800000
147.091600 4705150.000000
148.099400 3888736.200000
149.107300 31257.500000
151.086500 57019.300000
157.076000 42206.800000
159.091700 106847.800000
160.099700 22924.600000
161.107200 10300539.000000
162.115000 174916.300000
165.102000 19814.900000
171.091400 32276.400000
172.099300 38730.000000
173.107200 193108.700000
174.115000 26767.400000
175.122900 1110300.500000
183.091600 11317.100000
185.106900 18877.600000
187.122800 90697.300000
189.138600 87684.200000
199.122400 11047.800000
203.154200 48964.600000
217.169600 23591.800000

