>compound LU53029186
>parentmass 257.1285
>ionization [M+H]+
>formula C15H16N2O2
>rt 925.500000
>profile orbitrap
#smiles_iso COC1=CC=C(C=C1)C(C2CC2)(C3=CN=CN=C3)O
#smiles_can COC1=CC=C(C=C1)C(C2CC2)(C3=CN=CN=C3)O
#inchikey HUTDUHSNJYTCAR-UHFFFAOYSA-N
#pubchem_id 25572
#mb_accession LU052601,LU052602,LU052604,LU052605,LU052606

>ms2
81.044700 139262.500000
95.049100 12805.800000
121.064800 7741.200000
121.076000 8707.100000
122.059900 41628.600000
135.043900 119719.400000
149.070900 41391.200000
161.096100 8699.000000
165.006400 20038.600000
171.080300 10661.200000
177.090900 76111.600000
185.096000 74656.800000
195.080200 28991.200000
202.122000 16096.700000
212.107100 22995.000000
213.091200 43603.800000
215.081700 26259.600000
216.089100 8591.400000
225.010000 34227.800000
230.117800 29876.500000
239.117800 107390.800000
242.104900 8778.600000
257.128300 7356261.500000

>ms2
54.033900 8443.100000
55.017800 10758.900000
69.033400 35176.000000
70.028600 5070.700000
79.054300 23608.700000
80.049400 5491.700000
81.044700 1095005.800000
94.065100 26095.300000
95.049100 70163.900000
95.060400 5467.500000
105.033400 9680.000000
107.060500 13187.700000
109.064600 5434.100000
121.064800 66050.400000
121.075800 33436.300000
122.060000 160112.900000
131.060300 8890.700000
135.043900 751012.100000
136.075600 10188.700000
144.056800 5632.600000
145.064600 10088.100000
147.080500 4757.800000
149.070900 137550.900000
149.096000 61102.900000
153.069600 14079.300000
154.077600 9189.700000
155.085600 11464.800000
159.080200 28599.300000
161.096100 57972.800000
165.006600 34174.800000
170.072500 59597.400000
171.080300 72441.500000
172.051700 4194.400000
177.090900 311756.200000
181.064500 6490.700000
181.088300 3749.200000
182.072400 4192.500000
185.096000 378598.200000
186.091200 8271.700000
188.070700 13167.500000
195.080400 144655.600000
196.099200 6642.900000
197.083500 16722.400000
198.067500 6781.600000
198.078600 41614.600000
202.086200 8098.500000
202.122600 58148.800000
207.091700 14426.100000
208.099500 5803.500000
211.086500 13999.700000
212.106900 94155.400000
213.091100 121967.300000
213.101800 11838.800000
215.081500 110673.500000
216.089300 30203.400000
224.094400 43642.100000
225.010800 4009.900000
229.097300 12266.800000
230.117400 53615.500000
239.117800 308231.100000
240.102100 20151.400000
242.104800 5498.500000
257.128300 3653951.200000

>ms2
52.018200 7119.200000
53.002200 4215.200000
53.038600 24324.400000
54.033900 190135.000000
55.017900 13756.700000
57.069900 3156.500000
63.022900 3698.000000
65.038500 2940.600000
67.054300 26083.600000
68.049500 3213.400000
69.033500 176044.000000
71.085500 10283.100000
74.096500 3348.700000
77.038600 9973.000000
79.054200 52445.900000
80.037100 3064.900000
80.049500 9732.800000
81.044700 2864020.200000
85.101000 3852.400000
91.054200 31301.000000
92.025700 14847.300000
93.069900 6705.600000
94.041400 7088.100000
94.065200 40893.600000
95.049200 148132.200000
103.054300 4182.400000
104.049600 8400.100000
105.033600 4294.900000
105.044700 23107.300000
105.069800 8421.900000
107.049100 18710.000000
107.060400 7429.800000
109.065000 15277.800000
115.054100 20734.200000
116.062000 4933.700000
117.069800 5217.600000
119.049100 7406.000000
119.060300 3540.600000
121.064800 305439.200000
122.060000 26594.700000
125.059700 60612.200000
128.062000 22274.100000
129.069800 36718.800000
130.041400 2983.300000
131.049300 4145.300000
131.060500 15649.600000
133.064800 13263.300000
135.044100 2040809.900000
136.075300 5993.300000
137.011800 24714.200000
141.069900 20932.800000
142.077800 55934.600000
144.057000 44550.800000
145.064900 49639.700000
146.060300 3358.500000
146.072800 13973.700000
147.080300 8137.500000
149.071000 19569.100000
149.096100 72914.700000
151.027400 5515.300000
152.062100 103172.800000
153.069900 132672.800000
154.065300 8232.900000
154.077700 87235.300000
155.022500 15538.000000
155.049100 12382.500000
155.060300 21083.600000
155.085500 34005.200000
156.057100 7029.700000
157.064900 3931.000000
158.060200 5222.500000
158.072800 8434.200000
159.068200 5096.600000
159.080600 42080.000000
160.052000 4164.500000
160.075700 12527.500000
161.096000 48632.200000
165.006600 7170.700000
165.069900 18764.500000
167.072800 3682.500000
168.068400 15201.700000
168.080600 16205.200000
169.064900 70393.000000
169.075700 5337.300000
169.088600 26264.400000
170.072600 226768.100000
171.080400 45658.300000
172.052100 17368.700000
172.075700 5034.000000
173.046900 4120.300000
173.071000 4927.500000
173.083600 6579.200000
177.091000 96379.500000
180.057100 27772.600000
180.080700 14036.600000
181.065000 8013.400000
181.075900 24218.400000
181.088700 8422.200000
182.059700 6722.700000
182.072900 5263.300000
183.055400 22910.000000
183.080700 5648.500000
184.088800 6129.900000
185.071100 9726.500000
185.096100 74340.700000
186.091600 10304.000000
187.086500 4531.200000
187.099000 6569.300000
188.070800 30355.300000
195.080400 52199.000000
195.091600 22686.000000
196.075500 8867.200000
196.099500 37463.900000
197.072300 4165.200000
197.083500 41608.300000
198.068100 5118.800000
198.078800 27163.500000
200.107300 4205.700000
201.065700 14501.100000
202.085800 4637.100000
202.122500 5569.400000
207.091900 21137.300000
209.070700 10568.400000
211.086800 13159.100000
212.107200 19041.700000
213.102600 2879.000000
215.081300 26144.500000
216.089400 6903.300000
223.086600 16939.100000
224.094300 28013.800000
239.117800 10000.700000
257.128900 5813.400000

>ms2
52.018100 11804.800000
53.002200 8545.400000
53.038600 63502.100000
54.033800 393533.900000
55.017800 13285.400000
56.049600 5004.000000
57.069900 4188.700000
65.038600 5602.700000
67.054200 34132.000000
68.025600 3819.700000
68.049400 4639.600000
69.033500 195188.800000
71.085500 6736.700000
77.038500 21165.100000
78.046400 4088.800000
79.054200 73385.100000
80.036900 3943.700000
80.049400 12049.000000
81.044700 2531346.000000
85.101200 3505.300000
91.054200 64204.200000
92.025600 65275.600000
93.057200 2842.700000
93.069900 7881.800000
94.041300 13200.300000
94.065100 34225.100000
95.049100 264086.500000
102.046400 3640.500000
103.054300 5673.800000
104.049400 5101.200000
105.044700 77220.200000
105.069900 13348.100000
106.041200 3601.300000
107.049200 29762.200000
107.060200 5525.000000
108.056900 3651.000000
109.064800 20524.500000
112.026400 3380.300000
115.054200 39587.300000
116.062000 18375.300000
117.070000 8038.600000
118.041600 3077.800000
119.048900 4515.200000
119.060300 7237.000000
120.057000 2741.200000
121.064800 314778.200000
122.060200 6848.400000
125.059700 162167.400000
127.054200 6215.900000
128.062000 38474.400000
129.069900 33801.000000
130.041200 7408.200000
130.065000 5322.900000
131.049100 13978.100000
131.060400 10951.600000
133.064700 15452.400000
134.072200 2926.400000
135.044000 1685009.200000
135.055000 131753.300000
136.075800 3110.400000
137.011800 25635.500000
140.062200 2801.200000
141.069900 84766.400000
142.077700 82218.400000
143.073100 3692.700000
144.057000 55566.900000
144.080500 3391.300000
145.052100 6171.100000
145.064800 51080.100000
146.060200 5231.000000
146.072600 20230.400000
147.080400 6634.000000
149.071000 8298.600000
149.096200 20977.300000
151.027800 2984.600000
152.062000 197148.600000
153.069900 120565.600000
154.066000 16801.600000
154.077600 61418.000000
155.022200 13207.000000
155.049300 19265.600000
155.060200 51025.700000
155.085400 9205.100000
156.056900 6380.100000
156.068100 3569.700000
157.065200 3485.300000
157.076400 3909.000000
158.060100 11701.400000
158.072700 8727.900000
159.068100 5289.900000
159.080300 15787.000000
160.051400 4033.400000
160.075600 11124.500000
161.095900 12720.100000
165.069900 14282.800000
167.073000 6303.700000
168.056800 5454.800000
168.068400 26211.000000
168.080700 39585.200000
169.064800 97653.900000
169.075600 6116.500000
169.088500 24651.500000
170.072600 99728.300000
171.080400 12927.600000
172.051500 5585.800000
172.075600 6418.500000
173.046800 4157.000000
173.070800 8738.600000
173.083500 5667.100000
177.091300 5572.400000
179.060400 4608.800000
180.056900 19926.900000
180.080700 16946.600000
181.065000 6514.900000
181.076000 27783.100000
181.088300 3416.200000
182.060200 7132.600000
183.054900 13881.800000
183.080400 4168.200000
184.088200 3517.800000
185.071000 6968.300000
185.096000 7852.600000
186.091200 4656.600000
188.070900 11452.300000
193.075600 3705.400000
195.080500 8548.200000
195.091700 32741.800000
196.063600 3275.400000
196.075700 7985.400000
196.099800 11471.000000
197.071400 4000.400000
197.083500 13233.100000
198.078600 5576.100000
201.065700 7333.500000
207.092000 16263.400000
209.070900 13338.600000
215.081000 12651.500000
223.086400 7094.800000
224.093900 2988.300000

>ms2
51.023000 3347.900000
52.018100 13448.200000
53.002200 18845.800000
53.038600 143640.900000
54.033800 591897.200000
55.017800 20065.800000
56.049500 4131.800000
57.069900 4659.000000
63.022900 4941.800000
65.038500 13959.000000
67.054200 35959.400000
68.025600 5918.700000
68.049400 7489.700000
69.033400 174881.000000
71.085500 5593.700000
74.096500 3507.900000
77.038500 36555.600000
78.046400 12459.100000
79.054200 94394.100000
80.036900 4496.100000
80.049400 11270.300000
81.044700 2040472.600000
91.054200 112535.700000
92.025600 206523.400000
93.057300 3082.900000
93.070000 7120.000000
94.041300 23725.800000
94.065200 14629.100000
95.049100 432912.900000
102.046500 8896.000000
103.054100 19623.300000
104.049600 4801.800000
105.044700 169282.300000
105.069800 14169.400000
106.041300 5749.800000
107.049100 32762.700000
107.060500 2854.300000
108.056900 4166.300000
109.064800 17924.400000
112.026900 3034.600000
115.054200 72579.200000
116.062100 40401.700000
117.057200 2676.000000
117.069600 5789.300000
118.041400 6264.500000
119.049000 4397.800000
119.060500 6664.800000
120.057100 3182.900000
121.064800 257455.100000
125.059700 209931.500000
127.054000 14276.500000
128.062000 64731.400000
129.069800 20038.600000
130.041600 8669.500000
130.064900 12266.400000
131.049000 19801.000000
131.060400 7746.600000
133.064800 11247.700000
134.072800 6439.500000
135.044000 988119.600000
135.054800 168438.600000
137.011600 17247.300000
140.062500 2757.100000
141.069800 177142.500000
142.077700 55678.100000
143.072800 10509.500000
144.056900 49523.200000
144.080900 4331.100000
145.052300 7499.300000
145.064800 47230.200000
146.060100 7826.200000
146.072700 9865.200000
149.095900 3088.200000
152.062000 239994.600000
153.069800 101597.500000
154.065200 37258.600000
154.077500 21590.200000
155.022300 10008.500000
155.049500 20276.400000
155.060300 75287.000000
155.085100 4141.600000
156.057500 2872.100000
156.068300 3673.400000
157.065000 3378.500000
157.075900 2751.300000
158.060300 10193.900000
158.072500 4861.000000
159.068200 3930.400000
159.080700 5299.700000
160.052300 3318.800000
160.075700 5296.500000
165.070000 15918.600000
167.073100 7446.000000
168.057200 3842.500000
168.068300 23196.500000
168.080700 41163.300000
169.064700 95485.100000
169.075800 6197.800000
169.088600 11712.400000
170.072500 29102.900000
171.080400 4658.700000
172.063400 2510.300000
172.076000 7038.100000
173.071100 6712.300000
179.060400 4831.500000
180.057000 5391.400000
180.080700 19431.600000
181.065600 5345.900000
181.076000 19798.200000
182.060500 6321.400000
183.055100 4641.200000
188.070800 5676.400000
193.075900 3409.200000
195.091700 29027.200000
196.075600 8536.000000
196.098900 3121.200000
197.083500 4816.000000
207.091900 7551.900000
209.070900 4812.200000
215.081100 3821.100000

