>compound LU53794846
>parentmass 399.2506
>ionization [M+H]+
>formula C18H39O7P
>rt 1160.700000
>profile orbitrap
#smiles_iso CCCCOCCOP(=O)(OCCOCCCC)OCCOCCCC
#smiles_can CCCCOCCOP(=O)(OCCOCCCC)OCCOCCCC
#inchikey WTLBZVNBAKMVDP-UHFFFAOYSA-N
#pubchem_id 6540
#mb_accession LU061001,LU061002,LU061003,LU061004,LU061005,LU061006

>ms2
55.054200 141426.200000
57.069900 514420.100000
59.049100 91039.400000
83.085500 618222.900000
89.059800 12385.400000
98.983900 55599.700000
101.096100 1376284.600000
124.999800 67355.200000
143.010400 226941.500000
145.122400 22924.500000
169.026100 9161.500000
199.073000 6335534.500000
225.088600 246178.700000
243.099100 202088.400000
255.135100 53949.300000
299.161800 8397098.000000

>ms2
53.002200 30069.200000
53.038600 19645.400000
55.054200 1315731.100000
57.069900 3599485.200000
59.049100 345529.400000
71.085400 10808.200000
83.085500 1496628.800000
89.059700 49534.000000
98.984100 586357.300000
101.096100 2759671.200000
116.995000 5433.300000
124.999800 238717.500000
143.010400 794400.600000
145.122400 14450.100000
169.025800 15579.500000
199.073000 2032822.600000
225.088500 29804.600000
243.099200 57914.200000
255.134600 7306.900000
299.161800 147788.500000

>ms2
53.002200 75458.400000
53.038600 29661.200000
55.054200 1702283.500000
57.069900 4798669.500000
59.049100 262031.400000
67.989300 10097.600000
83.085500 517212.900000
89.059700 34257.200000
98.984200 1078720.000000
101.096100 565036.400000
116.994600 16778.600000
124.999800 250256.200000
131.010400 7358.100000
143.010400 175163.900000
199.073000 45796.000000

>ms2
53.002200 95092.100000
53.038600 25883.400000
55.054300 1034824.500000
57.069900 2812489.500000
59.049200 141902.600000
61.020200 13565.100000
62.028000 60205.000000
62.999500 6395.900000
68.997000 3121.600000
71.085500 2948.300000
75.035800 7615.700000
76.043700 165608.900000
83.085600 81629.700000
89.051600 10552.400000
89.059700 5093.700000
90.059400 68053.900000
91.030900 5753.400000
91.067100 4258.800000
98.984200 887874.300000
101.096100 30321.900000
103.067200 8826.400000
104.075000 7177.000000
108.033500 12658.700000
116.994700 14399.400000
117.082800 8783.800000
118.090600 4965.200000
119.062100 34948.100000
124.999900 115308.900000
131.010400 14521.100000
131.098600 26675.100000
133.077700 35410.200000
143.010600 13804.300000
145.114100 24432.600000
147.129800 7997.600000
159.129900 12302.800000
173.145400 41633.800000
182.990300 6448.300000
187.161300 28689.600000
201.000900 7255.200000
201.176800 15088.100000
203.192600 26726.700000
215.192300 32655.600000
229.208000 60047.300000
243.223500 10347.400000
257.239500 17059.500000
271.255000 18005.000000
285.271200 16811.700000

>ms2
53.002200 134763.300000
53.038700 29751.900000
55.054300 938002.500000
57.069900 2158445.000000
59.004600 8066.100000
59.049200 104018.200000
61.020200 62688.100000
62.028000 159079.200000
62.999500 8279.600000
67.989400 5191.400000
68.997100 6239.800000
75.035800 34660.600000
76.043700 379944.500000
83.085700 21761.400000
89.051400 32650.700000
90.059400 103904.000000
91.031000 13406.000000
98.984300 959159.100000
103.067300 26836.600000
104.075100 10950.200000
108.033600 21284.900000
116.994900 12903.700000
117.082800 28577.100000
118.090600 6089.800000
119.062100 30691.700000
125.000000 68977.900000
131.010400 7808.700000
131.098600 57025.900000
133.077900 21171.700000
145.114300 34020.800000
147.129600 7341.400000
159.130000 21327.500000
173.145600 75846.000000
182.990700 9577.800000
187.161300 49338.600000
201.001100 8466.700000
201.177000 28940.800000
203.192700 11622.300000
215.192600 56782.500000
229.208200 101042.100000
243.223800 24346.600000
257.239500 18291.100000
271.255300 34372.800000
285.271100 24076.600000

>ms2
53.002200 163479.500000
53.038600 31168.300000
55.054300 706409.900000
57.069900 1199959.000000
59.004500 25401.600000
59.049100 66106.500000
61.020200 143887.900000
62.028000 229639.200000
67.989200 7982.000000
68.997100 6541.800000
75.035800 95727.000000
76.043600 420236.400000
89.051500 52658.600000
90.059300 134638.900000
91.030700 29583.500000
91.067100 8372.300000
98.984200 1052767.200000
101.051200 6399.100000
103.067100 33690.600000
104.074700 6344.200000
108.033500 39984.100000
116.994700 10610.600000
117.082800 44055.000000
119.062100 20292.300000
125.000000 27966.600000
131.010400 6879.600000
131.098500 79755.600000
133.077900 9459.500000
145.114100 46218.700000
159.130000 20419.400000
173.145600 68908.500000
187.161300 33288.500000
201.176800 20044.500000
215.192400 31323.000000
229.208200 75897.400000
243.224000 13999.300000
257.239700 7830.400000
271.254900 9767.400000
285.271200 13112.200000

