>compound LU53530263
>parentmass 326.028
>ionization [M+H]+
>formula C10H16NO5PS2
>rt 971.040000
>profile orbitrap
#smiles_iso CN(C)S(=O)(=O)C1=CC=C(C=C1)OP(=S)(OC)OC
#smiles_can CN(C)S(=O)(=O)C1=CC=C(C=C1)OP(=S)(OC)OC
#inchikey JISACBWYRJHSMG-UHFFFAOYSA-N
#pubchem_id 5859
#mb_accession LU068201,LU068203

>ms2
124.982400 2430.100000
233.003100 12265.900000
235.018700 2541.200000
245.014400 25589.700000

>ms2
124.982400 4225.000000
233.003000 3564.600000
235.018800 13006.800000
245.014500 24366.000000

