>compound LU53291035
>parentmass 252.12300000000002
>ionization [M+H]+
>formula C13H17NO4
>rt 1063.860000
>profile orbitrap
#smiles_iso CCCOC(=O)C1=CN=C(C=C1)C(=O)OCCC
#smiles_can CCCOC(=O)C1=CN=C(C=C1)C(=O)OCCC
#inchikey IITCWRFYJWUUPC-UHFFFAOYSA-N
#pubchem_id 8693
#mb_accession LU135101,LU135102,LU135103,LU135104,LU135105,LU135106

>ms2
122.024200 55376.500000
123.032100 34655.100000
140.034200 154286.200000
164.070100 43872.200000
165.078000 39697.000000
168.029200 474759.500000
182.081300 461075.300000
192.065700 22654.400000
210.076100 16192544.000000
224.091700 60352.200000
252.123000 10349984.000000

>ms2
95.036800 18856.400000
122.024100 55126.300000
123.032000 36568.400000
140.034200 1808384.900000
164.070200 42139.100000
168.029200 1399795.500000
182.081300 5052961.000000
192.065300 18374.900000
196.096900 71190.100000
210.076100 17750958.000000
224.091700 145921.600000
252.123100 1202590.200000

>ms2
53.002200 49980.200000
78.033700 87077.700000
95.036900 46259.300000
112.039300 64723.400000
122.023600 360330.700000
140.034100 6277865.000000
154.049600 75288.900000
164.070700 23875.000000
168.029100 1727456.900000
182.081100 14541587.000000
184.085600 29542.600000
196.096700 183372.600000
210.076000 4013020.200000
224.091600 49764.300000

>ms2
53.002200 153669.800000
53.997400 28297.400000
67.017700 12561.900000
67.989200 22657.900000
78.033800 370516.700000
84.044400 64107.400000
94.028700 46466.600000
95.036700 29825.100000
96.044400 9441.700000
109.015800 10089.000000
112.039300 613332.200000
122.023600 1299796.900000
124.039100 11406.500000
140.034100 6071014.500000
154.049700 101986.200000
164.070400 17336.400000
168.029100 739017.500000
182.081100 9130547.000000
196.096700 96679.300000
210.076000 218175.000000
217.088600 14015.700000

>ms2
51.022900 12326.400000
52.018200 5491.600000
53.002200 312222.000000
53.997400 52194.900000
54.010000 10659.100000
55.017900 6160.200000
56.049500 80734.100000
66.033800 42829.800000
67.017800 66772.700000
67.989300 31799.900000
68.997100 9827.100000
78.033800 600898.500000
80.013000 17919.200000
84.044400 129189.300000
94.028800 98924.700000
95.012800 42583.200000
95.036300 9283.300000
96.044300 17703.300000
109.015900 7405.600000
111.031800 4965.000000
112.039300 1365883.600000
122.023700 1063521.100000
124.039100 9168.700000
126.054900 12320.400000
140.034200 4565894.500000
154.049900 75741.600000
168.029100 185352.300000
182.081300 2626463.800000
184.085900 9366.100000
196.097000 22400.400000
216.080900 13429.400000
217.088400 12832.100000

>ms2
51.023000 57893.900000
52.018300 15579.700000
53.002300 368666.500000
53.997500 77157.900000
54.010100 13856.500000
55.017900 7163.600000
56.049500 206036.800000
66.033900 111279.600000
67.017900 169075.500000
67.989400 34215.200000
68.997100 12568.100000
78.033900 938634.000000
80.013100 62078.100000
84.044500 101200.800000
94.028800 106228.900000
95.012900 140576.100000
96.044500 33442.800000
109.015900 6299.800000
111.031700 9204.500000
112.039400 1455132.900000
122.023800 348666.800000
126.054900 12213.400000
140.034300 3259887.000000
154.050000 45880.800000
168.029300 27363.400000
182.081400 364821.400000
216.080700 29098.100000
217.088500 17735.500000

