>compound LU53563229
>parentmass 147.08040000000003
>ionization [M+H]+
>formula C10H10O
>rt 1180.200000
>profile orbitrap
#smiles_iso CC(=O)/C=C/C1=CC=CC=C1
#smiles_can CC(=O)C=CC1=CC=CC=C1
#inchikey BWHOZHOGCMHOBV-BQYQJAHWSA-N
#pubchem_id 637759
#mb_accession LU122401,LU122402,LU122403,LU122404,LU122405,LU122406

>ms2peaks
55.017800 4146.100000
69.033500 5077.100000
79.054200 6442.900000
91.054300 106274.300000
93.069900 2979.100000
103.054200 4221.900000
104.062100 2873.500000
105.070000 4764.300000
107.049000 9383.500000
117.069900 37935.800000
119.085600 420432.200000
128.062100 3803.100000
129.069900 48974.900000
132.056900 11854.400000
147.080500 510317.000000

>ms2peaks
55.017900 3681.500000
65.038600 1869.400000
69.033500 4654.100000
79.054300 6497.600000
91.054300 101537.100000
93.069700 1985.700000
103.054400 3417.500000
104.062200 3580.000000
105.070000 4838.200000
107.049000 8765.700000
115.054300 1920.300000
117.069900 42325.700000
119.085600 421285.400000
128.062200 4924.200000
129.069900 41697.100000
132.057000 11565.900000
145.064800 2655.100000
147.080500 508039.600000

>ms2peaks
55.017900 4724.100000
69.033300 4338.000000
79.054300 12309.900000
91.054300 165153.600000
93.070000 9008.400000
95.048900 2348.500000
103.054300 10764.500000
104.062100 6867.400000
105.070000 5132.600000
107.049200 21689.400000
115.054300 4466.500000
117.070000 68342.300000
119.085700 397827.300000
121.064700 2806.000000
128.062000 4545.200000
129.070000 51353.600000
131.049000 1730.100000
132.057100 19305.300000
145.065100 2551.000000
147.080600 242364.600000

>ms2peaks
53.002200 2444.600000
53.038700 2565.700000
55.017900 6081.900000
65.038600 4602.800000
67.054100 1726.900000
69.033500 6750.700000
79.054200 27003.800000
91.054300 288644.600000
93.069900 16529.400000
95.049200 10357.200000
103.054300 28688.000000
104.062100 21594.400000
105.069900 5891.700000
107.049200 41395.300000
115.054300 16530.500000
117.069900 117906.900000
119.085600 311496.000000
121.065000 2859.100000
128.062000 17450.900000
129.069900 49392.900000
131.049000 3871.900000
132.057000 36355.900000
145.065000 5112.900000
147.080500 101865.600000

>ms2peaks
53.002300 2635.300000
53.038600 10318.400000
55.017800 6447.800000
65.038500 16957.900000
77.038500 4230.900000
78.046300 6124.200000
79.054200 30189.500000
91.054300 318244.200000
93.069900 14796.500000
95.049100 23030.200000
102.046600 2095.800000
103.054300 40661.900000
104.062100 39339.100000
105.069800 5096.500000
107.049200 48758.700000
115.054300 30299.900000
117.069900 111249.100000
119.085600 143183.900000
121.064800 3394.100000
128.062100 21763.200000
129.069800 22309.800000
131.049300 11220.300000
132.057000 38183.100000
145.064900 4616.100000
147.080500 23776.600000

>ms2peaks
53.002300 2926.600000
53.038600 19261.800000
55.017800 4768.900000
65.038600 39598.800000
67.054200 3122.900000
77.038600 6048.100000
78.046400 17804.200000
79.054200 26818.600000
91.054300 297512.000000
93.070000 13743.600000
95.049100 41301.100000
102.046500 3668.000000
103.054300 48390.900000
104.062000 42196.900000
107.049200 34581.000000
115.054300 34702.300000
117.069900 75872.700000
119.085600 47973.600000
128.062000 26709.300000
129.069800 9740.000000
131.049200 22330.600000
132.057100 26240.900000
145.065000 3558.300000
147.080400 6835.300000

