>compound LU53746104
>parentmass 153.0481
>ionization [M+H]+
>formula C7H8N2S
>rt 622.620000
>profile orbitrap
#smiles_iso C1=CC=C(C=C1)NC(=S)N
#smiles_can C1=CC=C(C=C1)NC(=S)N
#inchikey FULZLIGZKMKICU-UHFFFAOYSA-N
#pubchem_id 676454
#mb_accession LU093501,LU093502,LU093503,LU093504,LU093505,LU093506

>ms2peaks
59.990300 28350.500000
77.038700 4719.400000
93.069900 2520.700000
94.065200 596981.500000
97.994500 3259.500000
109.010700 6014.900000
119.060500 5630.800000
123.013100 20773.700000
136.021700 484850.300000
153.048200 713674.600000

>ms2peaks
59.990200 25414.100000
77.038600 3466.100000
86.003700 3881.500000
94.065200 502622.500000
97.994600 6106.700000
109.010500 4343.600000
119.060500 4848.500000
123.013100 41705.700000
136.021600 395582.800000
153.048100 588971.300000

>ms2peaks
53.038500 9381.400000
59.990200 67198.500000
61.010600 4166.600000
77.038400 4321.400000
78.046400 3179.000000
86.003600 28429.800000
93.057200 2106.600000
94.065100 681250.600000
97.994800 1910.500000
105.044600 14487.000000
109.010700 25334.900000
119.060400 10757.400000
123.013000 14331.200000
136.021600 658317.700000
153.048100 181636.500000

>ms2peaks
50.015100 2131.500000
51.022900 2625.400000
53.038600 53821.300000
59.990300 119511.900000
61.010600 2438.500000
67.054200 3001.200000
77.038400 17649.000000
78.046500 11326.100000
86.003600 111610.800000
93.057300 5011.700000
94.065200 678687.700000
105.044800 59367.400000
109.010700 90357.300000
119.060500 14095.500000
123.013200 4829.400000
136.021600 635088.100000
153.048100 35557.600000

>ms2peaks
50.015200 5384.200000
51.023000 6731.400000
53.038600 127227.000000
59.990300 191439.100000
61.010600 3131.600000
65.038600 2176.400000
67.054200 5356.200000
77.038600 48984.800000
78.046400 21137.700000
79.054200 3109.500000
86.003600 149900.000000
92.049700 2309.100000
93.057400 11634.500000
94.065200 579082.600000
105.044800 156936.400000
107.989600 2364.900000
109.010700 170248.200000
111.026700 3901.000000
119.060300 16338.500000
136.021700 448780.000000
153.048100 7396.700000

>ms2peaks
50.015200 6866.800000
51.022900 19291.800000
53.038600 174582.200000
59.990200 195818.200000
65.038500 6971.400000
67.054200 8243.800000
77.038500 68238.500000
78.046400 18061.200000
79.054100 1707.600000
86.003600 93617.500000
92.049400 3663.100000
93.057300 19519.600000
93.069700 1720.300000
94.065200 316122.800000
105.044800 204308.200000
109.010700 150736.000000
119.060200 8194.900000
136.021600 144860.600000

