>compound LU53685495
>parentmass 212.11819999999997
>ionization [M+H]+
>formula C13H13N3
>rt 698.970000
>profile orbitrap
#smiles_iso C1=CC=C(C=C1)NC(=NC2=CC=CC=C2)N
#smiles_can C1=CC=C(C=C1)NC(=NC2=CC=CC=C2)N
#inchikey OWRCNXZUPFZXOS-UHFFFAOYSA-N
#pubchem_id 7594
#mb_accession LU084501,LU084502,LU084503,LU084504,LU084505,LU084506

>ms2peaks
77.038800 102594.000000
93.057600 53851.000000
94.065100 2226216.000000
119.060400 2160801.000000
195.091800 959020.500000
212.118000 43976992.000000

>ms2peaks
77.038800 112437.500000
92.049600 43888.800000
93.057700 38762.400000
94.065100 6430067.000000
119.060400 6882418.500000
195.091800 2857973.500000
212.118100 37608664.000000

>ms2peaks
51.023100 37742.500000
53.038600 92227.600000
77.038200 193031.800000
92.049500 720658.500000
94.065100 15999774.000000
95.049100 275217.800000
105.044700 105733.000000
119.060400 22942002.000000
168.080600 32850.300000
195.091700 7911158.000000
212.118200 10906719.000000

>ms2peaks
53.038600 646851.400000
65.038500 207174.700000
77.038400 543702.000000
92.049400 4203219.000000
93.057300 44372.300000
94.065100 15463062.000000
95.049100 2161573.000000
105.044700 840326.600000
117.044800 134511.300000
119.060300 27363656.000000
168.080700 137704.800000
195.091600 5670352.500000
212.118100 1187769.100000

>ms2peaks
50.015200 21655.600000
51.023100 41949.100000
53.038600 2376356.800000
65.038500 1069315.200000
67.054200 49730.500000
74.096400 22741.000000
77.038500 1556796.400000
78.046300 46120.700000
92.049500 7314726.500000
93.057300 129894.500000
94.065100 12185829.000000
95.049100 7012514.000000
105.044700 2596788.200000
109.064800 21009.500000
117.044700 251459.400000
118.052700 46832.800000
119.060400 19642530.000000
130.039800 26104.200000
167.073200 64571.900000
168.080700 156741.200000
194.084200 24591.500000
195.091700 1705995.600000
212.118500 57273.000000

>ms2peaks
50.015200 29777.500000
51.022800 50738.000000
53.038600 3818685.500000
65.038500 2381070.200000
67.054200 83894.600000
77.038500 2268192.200000
78.046400 57399.400000
92.049500 5976171.000000
93.057300 246102.200000
94.065100 7297479.000000
95.049100 11182719.000000
104.049300 26635.300000
105.044700 4260693.500000
109.064700 47570.800000
117.044700 163447.500000
118.052500 66934.000000
119.060400 9166572.000000
130.039900 47113.200000
154.077700 11773.200000
167.072900 97589.400000
168.080600 86492.200000
194.084300 11687.000000
195.091700 250066.100000

