>compound LU53523428
>parentmass 224.1281
>ionization [M+H]+
>formula C12H17NO3
>rt 862.650000
>profile orbitrap
#smiles_iso CCOC1=CC=C(C=C1)NC(=O)CC(C)O
#smiles_can CCOC1=CC=C(C=C1)NC(=O)CC(C)O
#inchikey LIAWQASKBFCRNR-UHFFFAOYSA-N
#pubchem_id 14130
#mb_accession LU077001,LU077002,LU077003,LU077004,LU077005,LU077006

>ms2peaks
69.033400 13395.000000
87.044100 124290.100000
108.044200 31702.100000
109.052200 24873.400000
110.060000 77528.600000
136.075700 860415.200000
138.091300 1967550.800000
164.070500 1602167.600000
178.086300 57042.400000
182.081500 13037.600000
196.097200 2589.000000
206.117600 1435821.100000
224.128100 1310039.900000

>ms2peaks
69.033500 30713.100000
87.044100 155297.200000
108.044300 135362.400000
109.052200 46447.300000
110.060000 100762.300000
136.075700 2829113.500000
138.091300 1794269.000000
162.091200 5775.900000
164.070600 1848705.000000
178.086300 99790.900000
178.122700 6395.100000
182.081200 22046.100000
188.107400 3477.500000
206.117600 990962.400000
224.128200 316716.600000

>ms2peaks
69.033400 54709.200000
81.033500 7616.800000
87.044000 51130.700000
108.044300 1549201.500000
109.052200 49830.400000
110.060000 154362.200000
135.080100 4724.400000
136.075700 4568085.000000
138.091200 941057.600000
150.091500 8827.300000
162.091200 7932.800000
164.070500 372061.900000
164.106700 59605.600000
178.086100 52677.700000
178.123000 6477.200000
206.117500 128302.800000

>ms2peaks
65.038400 10563.100000
69.033500 73760.000000
79.054400 4768.300000
80.049500 9430.900000
81.033500 59664.800000
82.065100 6223.700000
87.044100 8543.500000
91.054300 9960.800000
92.049400 17594.800000
93.033300 11030.200000
93.057500 9545.300000
106.065400 6179.100000
107.049000 14821.900000
108.044300 4753188.500000
109.052200 47920.200000
110.060000 288847.900000
111.044100 23071.000000
136.075700 2380956.000000
138.091300 449247.400000
150.091200 10422.300000
160.075700 5484.300000
164.070400 24669.300000
164.107000 43021.600000
178.086200 7573.900000
178.122600 5634.600000
206.117700 7936.200000

>ms2peaks
53.002300 6048.300000
53.038700 15420.000000
65.038600 40666.000000
68.013100 19413.500000
69.033400 63406.100000
80.049500 55963.300000
81.033500 357731.400000
82.065100 12685.400000
91.054200 15228.600000
92.049500 37628.100000
93.033600 20395.200000
93.057400 14421.300000
107.049300 18182.900000
108.044400 5942962.000000
109.052200 48461.700000
110.060100 290563.000000
111.044100 66602.100000
136.075800 574237.100000
138.091400 141954.400000
164.107100 9192.200000

>ms2peaks
53.002200 7839.900000
53.038600 45695.500000
65.038500 102763.500000
68.013000 72248.100000
69.033400 43603.600000
79.054200 6579.700000
80.049400 168496.800000
81.033500 1146924.000000
82.065000 18068.000000
90.034000 5291.000000
91.054100 25545.600000
92.049400 45106.200000
93.033500 18789.200000
93.057300 18730.700000
94.041200 6824.800000
95.049200 11524.000000
107.049200 21295.200000
108.044300 5129906.000000
109.052100 45930.600000
110.059900 189897.400000
111.044000 74790.200000
134.060100 5615.000000
135.068200 5637.600000
136.075700 104659.700000
138.091300 29835.400000

