>compound LU53702958
>parentmass 188.0697
>ionization [M+H]+
>formula C6H10ClN5
>rt 817.020000
>profile orbitrap
#smiles_iso CC(C)NC1=NC(=NC(=N1)N)Cl
#smiles_can CC(C)NC1=NC(=NC(=N1)N)Cl
#inchikey DFWFIQKMSFGDCQ-UHFFFAOYSA-N
#pubchem_id 22563
#mb_accession LU129601,LU129602,LU129603,LU129604,LU129605,LU129606

>ms2peaks
68.024200 4677.500000
79.005700 20420.200000
104.000900 20099.100000
110.046200 9494.100000
146.022800 924270.700000
188.069800 3765360.200000

>ms2peaks
68.024300 9306.400000
79.005700 39288.500000
104.001000 34146.200000
110.046000 21003.600000
110.071300 7838.200000
146.022800 1451025.500000
188.069800 3597627.000000

>ms2peaks
53.002200 3415.700000
61.979200 5651.500000
68.024300 79293.100000
79.005700 257184.700000
104.001000 256581.800000
110.046200 182839.800000
110.071200 13584.400000
146.022800 3046541.500000
188.069800 1292517.200000

>ms2peaks
53.002200 5856.700000
61.979100 19735.800000
68.024300 334038.100000
79.005700 723969.400000
85.050800 3429.400000
85.076100 3409.500000
92.049400 2745.600000
104.001000 683460.600000
110.046200 369935.200000
146.022800 2188294.200000
188.069800 188266.400000

>ms2peaks
53.002200 7723.800000
61.979200 62353.800000
68.024300 635699.100000
79.005700 1049411.900000
85.050700 7259.300000
92.049600 2237.500000
104.001000 965183.100000
110.046100 303664.700000
146.022800 972118.200000
188.069700 21020.200000

>ms2peaks
53.002200 8378.200000
61.979200 181621.300000
68.024300 780586.900000
79.005700 916689.900000
85.050800 4550.200000
104.001000 862219.400000
110.046100 131409.000000
146.022800 285120.800000
188.070500 2379.200000

