>compound LU54880036
>parentmass 757.3629
>ionization [M+H]+
>formula C42H52N4O7S
>rt 942.720000
>profile orbitrap
#smiles_iso C[C@@H]1CCC[C@@H](N1CC2=CC=C(C=C2)C[C@H](C(=O)N(C)C(C)C)NC(=O)C[C@H](C3=CC4=C(C=C3)OCO4)NS(=O)(=O)C5=CC6=C(C=C5)C=C(C=C6)OC)C
#smiles_can CC1CCCC(N1CC2=CC=C(C=C2)CC(C(=O)N(C)C(C)C)NC(=O)CC(C3=CC4=C(C=C3)OCO4)NS(=O)(=O)C5=CC6=C(C=C5)C=C(C=C6)OC)C
#inchikey QGWIQIAWOCJRPI-WSCVWKGISA-N
#pubchem_id 9853583
#mb_accession LU026701,LU026702,LU026703,LU026704,LU026705,LU026706

>ms2
74.096400 28289.700000
112.112000 8001.300000
149.059800 6548.500000
175.039300 8273.800000
216.138300 99011.900000
259.144100 16409.500000
334.108100 15923.700000
370.074600 11374.200000
372.264400 32613.400000
407.196700 98952.900000
447.227700 7626.800000
520.317600 98191.100000
684.273900 21856.100000
757.363400 6536363.500000

>ms2
58.028700 31548.200000
70.065100 12499.900000
72.080700 2719448.000000
74.096400 626539.800000
91.054300 17238.900000
100.075600 75822.200000
105.069900 11898.200000
112.112100 390223.200000
114.127800 25591.600000
115.054800 22418.200000
117.069800 329176.900000
124.075600 25237.700000
125.083500 57912.400000
129.102200 73900.000000
131.049200 21043.000000
132.080700 71949.200000
134.096300 8096.800000
135.044000 12283.700000
143.049200 14160.200000
144.057400 16893.400000
145.028300 9245.200000
145.064800 33265.600000
149.059700 273356.200000
150.054900 214620.000000
155.081000 8678.700000
157.064900 9039.100000
158.060000 430763.200000
159.116900 8684.100000
160.075600 16166.700000
161.059500 21706.300000
173.060100 8240.700000
174.091400 102960.900000
175.039000 1735108.800000
184.075800 40815.400000
188.143400 140270.400000
192.065500 120881.300000
216.138300 7537407.500000
221.026600 180032.000000
230.044800 80384.600000
231.149100 245422.500000
237.090900 11542.300000
242.153900 128614.800000
245.201100 38312.300000
247.075400 37623.800000
249.090800 23287.600000
254.117900 27168.200000
259.143900 258839.900000
261.091000 8339.700000
264.101600 9228.100000
271.180600 27410.500000
275.069600 9144.000000
277.085800 7835.100000
289.086200 51664.400000
306.112500 560486.300000
346.180200 54884.400000
348.159400 370349.600000
370.074400 309231.000000
372.264600 262680.200000
407.196600 322376.400000
447.227900 66175.300000
520.317600 45747.200000
543.158800 125810.700000
684.272500 16858.100000
757.363400 65643.200000

>ms2
56.049400 17992.500000
57.057300 39885.200000
58.028700 90756.700000
58.065000 10993.800000
70.065100 53343.700000
72.080700 7559580.000000
74.096400 399363.400000
87.055200 23431.500000
89.038100 18981.000000
91.054200 136668.000000
100.075600 41215.300000
103.054200 11305.300000
105.069900 70698.000000
110.096300 8943.100000
112.112100 310285.400000
113.034600 10497.900000
114.127700 14934.800000
115.054200 145081.600000
117.069900 2539729.800000
119.049100 37349.900000
124.075800 93686.000000
125.083500 283444.200000
129.102200 50361.000000
131.049300 45142.800000
131.085500 20581.700000
132.080800 254376.000000
133.064800 86759.100000
134.096500 10677.000000
135.043900 58767.600000
137.059800 8340.100000
143.049100 49853.300000
143.085500 19770.800000
144.057000 9370.500000
145.028400 183223.500000
145.064800 199440.900000
146.096400 49412.400000
147.044000 28120.300000
149.059700 217500.300000
150.055000 201096.800000
155.081300 10434.300000
157.064800 55113.700000
157.101100 10421.900000
158.060100 863265.700000
159.067800 10298.700000
159.116900 73200.800000
160.075500 30006.600000
161.059700 124158.400000
163.039000 98062.500000
169.064600 9338.500000
171.080500 27188.000000
173.059800 156520.300000
174.091400 341198.200000
175.039000 1821721.900000
177.054800 22733.500000
184.075700 29305.600000
185.071000 143760.800000
186.055000 33268.000000
188.143400 603725.600000
192.065700 18237.000000
216.138300 1831726.900000
221.026700 291523.400000
230.045000 33786.200000
231.149100 123721.800000
237.090900 31599.800000
242.154100 7854.400000
245.201100 15105.800000
247.075200 80598.600000
249.090800 51832.200000
254.117500 9768.400000
259.144200 55209.700000
261.091600 23465.200000
263.106900 20428.800000
264.101800 26092.700000
271.180300 15267.600000
275.070200 33851.800000
277.086200 16551.500000
278.118100 9627.200000
289.085600 71465.000000
306.112600 179384.600000
346.180300 38557.700000
348.159300 31920.000000
370.074600 30694.100000
407.196800 9310.200000

>ms2
55.054300 16652.100000
56.049400 39111.200000
57.057300 58599.300000
58.028700 108066.100000
58.065200 10984.900000
63.022900 9174.300000
65.038500 17739.000000
70.065000 108044.200000
72.080700 6597966.000000
74.096300 290307.100000
79.054000 18925.200000
83.036500 16895.300000
87.055200 36987.700000
89.038400 118803.100000
91.054200 434951.400000
95.049000 12712.700000
103.054300 45217.200000
104.061900 8266.000000
105.069800 180576.300000
110.060100 9275.800000
110.096300 18131.200000
112.112000 221937.100000
113.034500 13793.200000
114.127900 12205.800000
115.054200 716486.500000
116.061900 36786.300000
117.069800 4666564.500000
118.041300 14971.900000
118.064900 6763.600000
119.049100 80279.100000
123.044100 10430.500000
124.075600 130681.600000
125.083400 300529.000000
128.062100 15859.400000
129.069700 29294.400000
129.102100 19074.400000
130.065100 52991.400000
131.049200 84396.800000
131.072800 19294.200000
131.085500 49018.900000
132.080700 269499.600000
133.064700 135017.500000
134.096700 9961.000000
135.043900 152578.300000
137.059700 14009.400000
142.041100 31562.400000
142.065300 13718.100000
142.077800 9983.500000
143.049000 73397.900000
143.085300 12289.800000
144.057000 29776.300000
144.080600 11372.100000
144.093400 29277.300000
145.028300 561061.800000
145.064700 201555.800000
146.096300 304353.000000
147.043900 95926.300000
148.039300 8000.700000
149.059600 131357.300000
150.054800 139908.500000
152.010100 8184.600000
155.060200 8109.200000
157.064700 90733.100000
157.088400 6759.200000
157.101200 16130.300000
158.060000 813779.200000
159.067600 23361.000000
159.116700 40048.800000
160.075500 23771.100000
161.059600 117515.800000
163.038900 336799.100000
169.064800 11318.400000
171.080300 34424.100000
173.059700 247483.800000
173.083300 14081.400000
174.091300 281294.800000
175.038900 1037945.200000
175.075300 176763.500000
177.054600 60352.800000
178.078100 7026.400000
184.075900 18154.700000
185.070800 279371.000000
186.055100 16778.100000
188.143300 541822.800000
189.069700 11053.400000
189.102000 13258.700000
191.085800 10670.500000
193.101200 7501.900000
203.085500 16438.800000
216.138100 98842.900000
219.080400 12904.600000
221.026700 25455.400000
231.079900 27034.900000
237.090700 27284.100000
247.075200 40890.000000
248.083100 14679.200000
249.090900 48777.400000
259.075700 7520.700000
261.091000 42572.700000
263.093200 9499.200000
263.107200 11223.600000
275.069600 23255.400000
289.086200 18376.100000
290.081200 7895.000000
306.112200 25617.200000

>ms2
53.002200 11793.800000
53.038600 9385.900000
55.017800 6106.400000
55.054200 23935.100000
56.013100 11391.000000
56.049400 46915.600000
57.057300 71696.400000
58.028700 89047.400000
58.065100 17778.900000
59.060400 8227.800000
63.022700 19434.100000
65.038500 37194.800000
70.065100 129340.900000
71.073000 5468.100000
72.080700 4884564.000000
74.096300 173525.700000
77.038500 8340.100000
78.046200 5254.200000
79.054200 55011.600000
83.036500 30615.300000
84.080800 5700.900000
85.039600 9412.900000
87.055200 31295.500000
89.038500 423510.900000
90.046400 5553.800000
91.054200 847628.400000
93.033500 4952.100000
95.049000 42804.700000
95.085400 14251.200000
102.046500 14267.200000
103.054200 162629.400000
104.049700 5445.400000
104.062100 9412.100000
105.044700 17559.000000
105.069900 292256.200000
106.065000 6702.700000
110.060000 23987.400000
110.096500 17238.000000
111.044200 12083.700000
112.112000 130546.800000
113.034700 7511.300000
115.054200 1543747.500000
116.062000 122656.900000
117.033600 309697.800000
117.069800 4752008.000000
118.041100 16694.100000
119.049100 85117.700000
119.085300 13526.600000
123.044000 16842.000000
124.075700 169215.000000
125.083500 138154.600000
128.049300 8259.100000
128.062000 44068.000000
129.069700 67784.700000
130.065100 141984.600000
131.049200 106845.000000
131.072800 61296.100000
131.085500 32464.800000
132.080700 194351.300000
133.064700 94850.700000
135.044000 249605.200000
137.059800 14004.500000
141.069700 10952.100000
142.041300 171125.000000
142.065200 13830.500000
142.077600 20162.800000
143.049200 59725.100000
143.085600 12680.100000
144.056900 61231.100000
144.080600 20688.600000
144.093400 16495.100000
145.028400 473554.400000
145.064700 204672.400000
146.096400 444331.600000
147.044000 218129.600000
148.039200 7040.700000
149.059600 63422.200000
150.054900 78230.700000
152.010300 11090.500000
155.060500 26179.600000
157.064800 79446.100000
157.100900 8168.500000
158.060000 531534.600000
159.044100 5546.200000
159.067800 29450.800000
160.075700 15662.200000
161.059600 67338.800000
163.038900 306516.700000
165.069700 6043.900000
171.080300 20750.000000
173.059700 142756.700000
173.083400 16263.800000
174.091400 90058.500000
175.038900 285619.500000
175.075300 234547.800000
177.054500 54064.400000
178.078000 17439.200000
179.085400 15519.400000
184.075700 8936.100000
185.070900 256491.600000
188.143300 197963.700000
189.069900 33485.900000
191.085400 33877.500000
193.101000 5924.300000
202.077400 13186.100000
203.085400 23507.000000
205.100800 10300.400000
217.064700 7583.700000
218.072400 8263.000000
219.080300 17162.500000
237.091200 15359.800000
247.075100 19793.600000
248.083300 9725.700000
249.091100 20165.400000
261.091300 10603.600000
263.093400 6011.400000

>ms2
53.002200 16717.600000
53.038600 34670.300000
55.017800 8443.800000
55.054200 45617.800000
56.013100 13506.700000
56.049500 66317.200000
57.057300 95075.400000
58.028700 91517.200000
58.065100 16916.700000
59.060400 6604.600000
63.022800 52162.700000
65.038500 125537.900000
67.054200 11457.500000
70.065100 177689.500000
71.072800 5860.500000
72.080700 4307102.000000
74.096400 126784.700000
77.038500 20918.000000
78.046500 11124.500000
79.054200 105037.800000
83.036500 39279.300000
84.080900 4714.300000
85.039500 11425.700000
87.055300 16193.300000
89.038500 1106219.900000
90.046500 22353.000000
91.054200 1817533.100000
93.033700 6802.100000
95.049100 95486.300000
95.085400 5234.700000
96.080700 6123.400000
102.046500 44141.000000
103.054200 332512.000000
104.049600 9416.400000
104.062000 15410.300000
105.044600 40575.000000
105.069900 395032.200000
106.065100 9538.400000
107.049100 5487.500000
110.060100 35687.400000
110.096300 13581.300000
111.044000 17333.200000
112.112100 90517.700000
114.046300 14042.500000
115.054200 2835148.500000
116.062100 290236.800000
117.033600 528667.600000
117.069800 4017059.500000
118.041200 25062.400000
119.049100 53328.700000
119.085300 12028.200000
123.044100 19919.600000
124.075700 211466.000000
125.083500 51989.600000
128.049400 16390.100000
128.061900 136174.400000
129.069800 102312.400000
130.065100 202477.900000
131.049200 97212.300000
131.072900 96111.500000
131.085200 10338.400000
132.080800 99781.700000
133.064700 52258.600000
135.044000 231407.800000
137.059400 10100.100000
141.070000 23863.100000
142.041300 514766.000000
143.049100 38548.200000
143.085300 8454.000000
144.057000 48577.700000
144.080900 24047.200000
144.093300 10122.000000
145.028400 216327.500000
145.064700 257826.000000
146.096400 307107.600000
147.044000 223238.600000
149.059700 48005.900000
150.055000 40869.500000
152.010200 7693.800000
155.060200 46712.700000
156.080500 5954.300000
157.064800 58212.000000
157.088700 6231.900000
158.060000 263138.700000
161.059500 35310.300000
163.038900 133230.500000
165.069600 13820.000000
171.080100 13261.100000
173.059700 54663.900000
173.083400 20080.200000
174.091500 17980.700000
175.039100 53652.600000
175.075300 159621.300000
177.054800 23623.400000
178.077700 47329.500000
179.085300 15758.800000
185.070900 157776.700000
188.143300 40082.500000
189.069800 64638.100000
191.085500 30752.000000
202.077700 40007.000000
203.085300 28833.800000
217.064700 5469.500000
218.072600 5495.800000
219.080200 9409.000000
231.079900 11766.700000
247.075300 4920.600000

