>compound LU54735558
>parentmass 528.078
>ionization [M+H]+
>formula C22H17ClF3N3O7
>rt 1135.020000
>profile orbitrap
#smiles_iso COC(=O)[C@]12CC3=C(C1=NN(CO2)C(=O)N(C4=CC=C(C=C4)OC(F)(F)F)C(=O)OC)C=CC(=C3)Cl
#smiles_can COC(=O)C12CC3=C(C1=NN(CO2)C(=O)N(C4=CC=C(C=C4)OC(F)(F)F)C(=O)OC)C=CC(=C3)Cl
#inchikey VBCVPMMZEGZULK-NRFANRHFSA-N
#pubchem_id 107720
#mb_accession LU122601,LU122602,LU122603,LU122604,LU122605,LU122606

>ms2
56.013100 226613.700000
75.044000 84947.000000
88.039300 11644.100000
102.054900 20241.800000
150.010500 140502.400000
160.050300 3162.400000
164.026200 3047.800000
168.021100 448399.200000
178.005200 29845.300000
182.036800 22517.000000
189.021300 44072.400000
190.005400 261078.200000
194.036600 9774.200000
196.016000 343460.200000
207.032100 18678.600000
208.015900 20511.000000
214.073800 32527.000000
217.016400 152843.300000
218.042300 637780.300000
219.032000 5722.400000
221.047900 8889.800000
222.031600 31732.400000
223.015600 271972.800000
230.995600 11019.700000
235.027000 51739.400000
249.042500 1638872.400000
263.021700 89570.200000
265.037400 103271.000000

>ms2
56.013100 750152.800000
58.028800 10037.700000
68.994900 2454.700000
74.060000 4583.100000
75.044100 60636.400000
81.014600 21780.400000
88.039400 14027.800000
102.055000 10924.400000
104.049500 24189.200000
128.062100 3466.700000
132.044400 24974.800000
137.015300 20558.300000
146.035000 8488.800000
149.015300 7193.700000
150.010600 227522.300000
150.055000 35298.200000
151.030800 4145.100000
155.060400 44316.700000
160.050600 66004.000000
161.015500 5356.800000
162.010500 42277.900000
163.030800 31871.600000
164.026100 37239.300000
165.033900 9318.700000
168.021100 870163.300000
169.076100 4067.800000
176.026100 8225.700000
177.033800 11078.900000
178.005400 6449.900000
179.025800 33129.800000
180.021100 44176.700000
182.036800 49941.300000
182.046400 4037.500000
189.021500 183441.600000
190.005500 647317.100000
190.047500 57415.800000
191.037100 5189.200000
194.036900 24816.600000
195.020800 96539.900000
196.016200 29236.700000
199.050300 13815.400000
203.018900 690349.200000
204.008600 29978.900000
207.032000 39351.600000
208.016100 98609.600000
214.073700 59327.300000
215.042800 31524.300000
217.016400 417234.700000
218.042400 1049232.200000
219.032000 178674.800000
222.031600 43901.500000
223.015700 251791.200000
225.031000 25654.100000
230.006000 6200.800000
230.995700 47476.500000
231.032300 3671.400000
235.026900 38721.300000
249.042600 285152.800000
263.021800 79094.800000
265.037300 14647.100000

>ms2
56.013100 648151.200000
58.028700 13682.700000
68.994700 4220.400000
69.992300 4796.800000
74.059900 4003.500000
75.044000 43077.300000
81.014700 16447.200000
86.023600 7883.900000
88.039300 4887.300000
89.038500 3591.000000
90.033800 11852.200000
95.049100 5758.700000
96.044300 3026.300000
102.046400 3743.300000
102.054900 4931.900000
104.049400 112946.100000
105.044800 4614.900000
109.044800 3710.700000
111.024000 3187.500000
115.054200 13339.300000
116.062000 10274.900000
122.999500 9142.100000
125.015100 4731.700000
126.046500 4205.100000
131.049400 2765.000000
132.044400 91027.700000
134.023700 23799.100000
137.015300 29024.600000
139.030900 3343.900000
140.049300 5500.900000
141.057200 8662.300000
142.065100 16276.600000
143.073200 7060.600000
145.064700 4322.600000
146.035000 12636.200000
149.015300 49850.100000
150.010500 175312.000000
150.055000 33597.000000
151.030800 8528.600000
154.039800 2790.400000
155.060300 64758.000000
156.068300 8374.600000
160.050500 65271.500000
162.010500 375752.900000
162.994200 3561.300000
163.005700 9849.200000
163.018400 6297.700000
163.030700 36235.300000
164.002300 4529.600000
164.026100 55403.400000
165.033900 20139.600000
166.005500 7328.100000
167.025800 89351.100000
168.021000 680912.800000
169.076100 3988.700000
175.005400 6833.100000
176.002500 12952.000000
176.026300 12697.700000
177.010100 24388.200000
177.020700 4037.200000
177.033900 49893.500000
179.025800 98903.400000
180.021000 100567.900000
182.036700 41833.800000
182.046600 5253.100000
189.021400 202982.400000
190.005400 462427.400000
190.047300 90920.300000
191.036900 8083.800000
192.020700 20133.000000
194.036700 47437.900000
195.020800 150611.500000
203.018800 1562394.100000
204.008500 63883.300000
207.021000 62126.800000
207.032100 12022.800000
208.015900 84663.700000
215.042700 27078.400000
217.016200 152107.500000
218.042200 147309.700000
219.032000 106711.700000
221.047700 4165.800000
223.015600 34670.800000
225.030900 3648.800000
230.995500 17001.300000
231.031900 3708.700000
235.026700 6177.300000
249.042500 10055.200000

>ms2
53.002000 3076.500000
53.038600 11541.400000
56.013100 576296.600000
58.028800 10740.900000
63.022900 5487.500000
68.994700 12712.600000
69.992400 15308.100000
74.060200 4125.300000
75.023000 7001.900000
75.044000 28908.600000
77.038600 3505.700000
78.033800 5562.900000
81.014600 8833.000000
81.033600 6900.800000
83.029200 7399.900000
86.023700 5871.200000
89.038700 9918.400000
90.033800 25742.800000
95.049200 31970.300000
96.044500 10077.300000
102.046300 12985.600000
103.054200 3274.000000
104.049500 164663.800000
105.044800 14193.800000
106.028800 21046.900000
109.044900 7656.200000
111.024200 3165.800000
113.038900 9483.800000
114.033900 10477.500000
115.054300 56975.900000
116.049700 3866.600000
116.062100 42838.100000
121.052200 3117.300000
122.999700 35642.500000
123.035100 5675.200000
124.007500 6919.400000
125.015300 6864.900000
126.033900 8693.700000
126.046400 25283.700000
127.041700 125409.600000
128.049600 9003.700000
128.062000 74466.100000
129.045000 3928.600000
129.057100 5972.500000
130.065500 3533.700000
132.044400 78163.500000
133.039400 4157.400000
134.023700 304016.000000
137.015300 38066.100000
139.031100 8141.900000
140.049700 10920.800000
141.057100 18476.100000
142.040900 3385.900000
142.065200 47220.900000
143.073000 8711.600000
144.044500 7226.300000
145.064900 5833.300000
146.060200 4852.200000
146.999700 7977.900000
148.007600 3911.700000
149.015300 133372.100000
150.010600 201343.300000
151.018500 8991.100000
151.031100 5774.400000
152.002400 47401.000000
153.010200 3348.900000
153.044900 4599.300000
153.057400 4933.900000
154.039900 27302.300000
155.060400 82256.300000
156.068400 9639.800000
157.028900 4584.200000
160.050500 11922.300000
161.015400 11410.900000
162.010500 656811.300000
162.994600 7004.300000
163.005900 21453.300000
163.018500 10975.900000
163.030500 15567.200000
164.002400 28442.100000
164.026100 46762.600000
165.009900 3616.300000
165.034000 28939.700000
166.005600 22109.300000
166.018100 6244.400000
167.025900 126740.400000
168.021100 554628.400000
175.005600 17237.800000
175.024100 34665.600000
176.002900 13104.800000
176.013500 14300.700000
177.010300 17936.400000
177.020400 2942.600000
177.033900 50047.400000
178.005600 7387.500000
179.025800 84655.100000
179.997200 11012.800000
180.021100 133894.300000
182.036900 23928.200000
182.046300 5580.700000
189.021400 134620.400000
190.005400 117379.700000
190.047400 86478.200000
194.036900 29786.400000
195.020800 51601.800000
199.050100 6932.200000
203.018900 1432574.100000
204.008500 54202.100000
207.021300 13723.300000
208.015900 25366.200000
217.016500 26017.100000
218.042400 5951.700000
219.032000 15646.800000
230.005800 3239.000000

>ms2
51.023000 3678.300000
53.038600 21101.100000
56.013100 486363.500000
58.028800 8933.700000
63.022900 8242.200000
65.038600 4425.700000
68.994600 54696.100000
69.992300 11598.400000
75.022900 17861.900000
75.044000 17844.200000
77.002200 6873.400000
77.038500 10354.700000
78.033900 26397.900000
81.014700 3927.200000
81.033500 8891.600000
83.029200 12092.300000
89.038600 25947.300000
90.033800 30391.200000
91.054400 4378.000000
93.057300 6979.300000
94.041500 2942.700000
95.049200 76151.900000
96.044500 26348.700000
97.044900 5087.600000
98.999700 3828.800000
100.018200 6264.300000
102.033900 6280.400000
102.046400 23303.200000
103.054200 12937.300000
104.049500 120027.900000
105.044800 26012.900000
105.057500 3934.100000
106.028800 155413.400000
109.044800 9431.400000
113.038700 25630.900000
114.033900 35761.100000
115.041700 7477.000000
115.054300 123743.100000
116.049600 10068.800000
116.062100 72950.900000
117.057400 3884.000000
121.052300 5800.700000
122.999600 124395.400000
123.035300 9166.600000
123.995000 3063.300000
124.007500 17196.100000
125.015300 11240.600000
126.033900 30396.100000
126.046400 47658.700000
127.041700 300522.200000
128.049700 17581.400000
128.062100 85283.500000
129.044700 7426.600000
129.057200 5738.800000
130.065400 7121.900000
131.049100 3569.800000
132.044400 47032.300000
132.056900 5789.400000
133.039600 5026.700000
134.023700 784236.600000
134.999800 7282.100000
136.007500 38719.900000
137.015300 32165.900000
137.027300 6758.500000
139.030800 7500.600000
140.049600 13706.100000
141.044500 7296.000000
141.057200 19858.200000
142.065200 52100.200000
143.073200 6935.400000
144.044500 26252.000000
145.065000 9742.300000
146.999700 19438.700000
147.029100 12398.800000
148.007600 7540.900000
149.015300 154559.500000
150.010500 209003.200000
151.018400 14453.300000
152.002400 99496.600000
153.010400 7628.200000
153.044800 9443.300000
153.057200 3864.700000
154.040000 88663.400000
155.060400 64981.100000
156.068000 5043.600000
157.028700 7239.500000
161.002600 24553.600000
162.010500 406539.200000
162.994300 8790.900000
163.005700 36680.300000
163.018200 8599.600000
163.030900 4174.500000
164.002300 42751.500000
164.026000 33186.400000
165.009900 5619.900000
165.034100 10167.100000
166.005400 19265.900000
166.018100 7586.100000
167.025900 81167.400000
168.021100 363122.800000
169.076000 5036.600000
175.005700 22603.900000
175.024000 68367.200000
175.038700 10633.600000
176.002500 7242.800000
176.013400 20742.200000
177.010200 6387.100000
177.034100 22488.700000
179.026000 27863.700000
179.997400 5011.000000
180.021100 91065.800000
182.036900 19656.200000
189.021300 53366.700000
190.005500 19147.300000
190.047300 25774.800000
192.020700 2866.900000
194.036800 21013.200000
195.020800 14551.000000
199.050000 4533.500000
203.018900 685633.500000
204.008700 21403.600000
208.015900 3053.400000
215.042700 3889.100000

>ms2
51.023000 9037.400000
53.002200 4280.200000
53.038600 28632.200000
56.013100 442610.100000
58.028700 5171.700000
63.022900 20744.900000
65.038500 10360.300000
68.994600 123929.400000
69.992400 13849.200000
75.022900 46166.500000
75.044100 9896.700000
77.002100 21799.400000
77.038500 18409.600000
78.033800 106330.400000
81.014900 3954.500000
81.033500 8020.400000
83.029200 15720.000000
89.038600 48372.100000
90.033800 31365.700000
91.054200 7042.800000
93.057400 6801.500000
94.041300 3037.200000
95.049200 87242.400000
96.044400 43325.700000
97.044900 4350.300000
98.999600 10652.200000
100.018200 22408.100000
102.033800 12671.500000
102.046400 49324.900000
103.054100 9670.700000
104.049400 63495.600000
105.044700 39255.300000
105.057400 4441.000000
106.028700 464041.100000
109.044900 8636.500000
113.038600 50927.000000
114.033800 79827.600000
115.041800 22302.500000
115.054200 197032.200000
116.049400 15538.500000
116.062000 51145.900000
117.057200 3996.600000
122.999600 237597.600000
123.035000 16137.500000
123.995100 12271.000000
124.007400 28434.500000
125.015200 10022.800000
126.033900 60611.400000
126.046400 54987.000000
127.041700 349529.500000
128.049600 25730.400000
128.062000 101150.200000
129.044700 24630.500000
129.057300 5432.500000
130.065200 8501.300000
131.049200 4234.600000
132.044300 29029.900000
132.057000 18915.700000
133.039400 5013.100000
134.023600 783517.400000
134.999600 10020.000000
136.007500 77194.600000
137.015200 20183.500000
137.027200 2939.600000
139.030800 3882.500000
140.049500 23540.400000
141.044400 5506.900000
142.041000 3214.900000
142.065100 35978.900000
144.044300 41352.800000
146.060000 8763.400000
146.999600 31087.400000
147.029000 22677.100000
149.015300 146497.600000
150.010500 180765.500000
151.018300 11652.600000
152.002300 125675.200000
153.010200 8107.600000
154.040000 130034.000000
155.060300 54019.800000
161.002600 46070.400000
162.010500 172208.800000
162.994200 6094.100000
163.005800 52108.200000
164.002300 34672.300000
164.026100 23104.200000
165.034100 5484.500000
167.025800 36519.500000
168.021100 184014.400000
169.075900 3912.200000
175.005400 9629.100000
175.024000 46439.300000
175.038500 14898.600000
176.002700 2665.200000
176.013500 14001.200000
176.026000 26113.900000
177.033900 7969.800000
180.021000 47247.900000
190.047300 7501.900000
194.036800 8173.500000
203.018800 180112.000000

