>compound LU54225087
>parentmass 165.05459999999997
>ionization [M+H]+
>formula C9H8O3
>rt 1044.780000
>profile orbitrap
#smiles_iso C1C2C=CC1C3C2C(=O)OC3=O
#smiles_can C1C2C=CC1C3C2C(=O)OC3=O
#inchikey KNDQHSIWLOJIGP-UHFFFAOYSA-N
#pubchem_id 13223
#mb_accession LU122001,LU122002,LU122003,LU122004,LU122005,LU122006

>ms2peaks
79.054200 23057.200000
95.049200 3904.600000
105.033500 5820.000000
107.013000 7230.500000
107.049200 32913.200000
109.064800 13534.300000
122.036300 25698.600000
125.059700 7813.200000
135.044100 17371.500000
137.060000 10164.300000
150.031300 121317.500000
165.054700 3524926.000000

>ms2peaks
79.054200 33054.100000
95.049000 5875.200000
105.033500 6470.500000
107.012800 7465.900000
107.049100 38831.200000
109.064600 17556.100000
122.036200 27544.900000
125.059600 9157.200000
135.044100 19788.700000
137.060100 11321.700000
150.031100 140501.300000
165.054600 4119704.000000

>ms2peaks
53.038600 14713.000000
55.017800 3951.400000
65.038600 3525.300000
67.054100 2803.000000
75.022800 2871.000000
77.038500 16220.800000
79.054200 102850.500000
81.033400 10185.600000
81.069900 13336.900000
82.041300 2752.900000
91.054300 6185.200000
92.025800 14348.300000
94.041300 9799.200000
95.049100 49626.500000
105.033600 26991.200000
107.012700 58551.000000
107.049200 74923.700000
109.064800 46383.600000
120.020800 6164.400000
121.028300 4499.900000
122.036200 337913.400000
123.044000 8792.000000
125.023400 4610.700000
125.059700 37192.100000
135.044000 77410.100000
137.060000 19989.400000
150.031200 560092.100000
165.054700 2290317.200000

>ms2peaks
50.015200 2734.200000
53.038600 40166.000000
55.017900 4488.800000
65.038600 10283.700000
66.046500 5920.000000
67.054200 5015.500000
68.997200 2158.400000
75.022900 16174.300000
77.038600 36657.800000
79.054300 108028.500000
81.033600 12711.200000
81.069900 10463.600000
82.041400 3877.300000
91.054300 6070.000000
92.025700 50657.300000
94.041400 25186.100000
95.049200 136734.900000
105.033600 27025.200000
107.012800 451907.100000
107.049200 49257.200000
109.064900 38858.900000
120.020700 28035.800000
121.028700 12743.400000
122.036300 1108120.900000
123.044200 5069.900000
125.023300 29363.700000
125.059700 32973.800000
135.044100 82097.500000
137.059700 7620.400000
138.031300 5882.400000
139.038900 10940.600000
150.031200 578202.000000
165.054700 639268.800000

>ms2peaks
50.015100 3532.100000
51.023000 7032.200000
53.002300 6572.000000
53.038600 67064.700000
55.017800 12911.900000
63.023000 3996.700000
64.030600 3298.300000
65.038600 26449.900000
66.046400 21020.400000
67.054200 4841.100000
68.997200 4682.600000
75.022900 50946.100000
77.038500 60208.800000
78.046400 3368.000000
79.017900 18385.500000
79.054200 73146.800000
81.033500 15781.800000
81.069900 5544.800000
82.041300 3757.500000
91.054300 5794.500000
92.025700 143646.400000
94.041400 33722.700000
95.049200 190057.700000
105.033500 16570.300000
107.012800 1484583.400000
109.028300 3380.000000
109.064800 20674.800000
119.012700 5698.000000
120.020600 41508.200000
121.028500 20740.600000
122.036200 1281935.500000
125.023300 82732.100000
125.059600 14368.800000
135.044000 46488.400000
137.059800 4079.700000
138.031100 6408.200000
139.039000 49129.000000
150.031200 252347.200000
165.054700 117830.900000

>ms2peaks
50.015200 7581.300000
51.022900 14842.900000
53.002100 13222.400000
53.038600 55327.900000
55.017800 46708.000000
63.022900 14036.800000
64.030700 14046.200000
65.038600 38418.300000
66.046400 32394.400000
67.054200 4148.300000
68.997000 10513.700000
75.022900 65855.000000
77.038500 62242.800000
78.046300 2634.900000
79.017800 81677.900000
79.054200 29499.800000
81.033400 14169.000000
81.069800 4480.200000
91.054200 4430.200000
92.025700 182955.300000
94.041300 22449.900000
95.049200 157829.800000
105.033600 5697.400000
107.012700 2090847.400000
109.028500 2673.500000
109.064800 8276.600000
119.012900 10897.500000
120.020600 31032.400000
121.028300 15130.300000
122.036200 625676.100000
125.023300 112818.900000
135.043900 11785.500000
138.031200 3154.600000
139.038900 63855.900000
150.031200 60839.000000
165.054800 11839.300000

