>compound LU54812424
>parentmass 219.1743
>ionization [M+H]+
>formula C15H22O
>rt 1144.380000
>profile orbitrap
#smiles_iso C[C@@H]1CC(=O)C=C2[C@]1(C[C@@H](CC2)C(=C)C)C
#smiles_can CC1CC(=O)C=C2C1(CC(CC2)C(=C)C)C
#inchikey WTOYNNBCKUYIKC-JMSVASOKSA-N
#pubchem_id 1268142
#mb_accession LU071501,LU071502,LU071503,LU071504,LU071505,LU071506

>ms2
55.054300 4773.600000
57.069900 4979.100000
67.054200 9812.400000
69.033400 16686.800000
69.069800 19363.500000
79.054100 5171.700000
81.069800 190054.100000
83.049000 4816.600000
83.085400 27024.000000
93.069800 35043.600000
95.085500 115987.200000
97.064800 77243.800000
97.101100 8182.800000
105.069800 23095.100000
107.085500 67375.700000
109.064700 24803.200000
109.101100 160622.100000
111.080400 136883.400000
119.085500 51589.000000
121.064800 22160.200000
121.101100 73890.600000
123.080400 43382.600000
123.116700 137091.700000
125.096000 32090.700000
131.085400 19980.700000
133.101100 23684.600000
135.080400 132682.900000
135.116800 84983.000000
137.096000 41238.900000
139.111600 14745.700000
145.101200 87573.000000
147.116800 17717.700000
149.096100 150518.100000
149.132400 36544.000000
151.111900 10979.900000
159.116800 92486.600000
161.132400 123896.000000
163.111600 376247.500000
173.132400 39280.600000
175.148100 38581.600000
176.119400 6343.300000
177.127300 58785.700000
177.163600 43341.500000
191.179100 19729.200000
201.163700 228372.900000
219.174200 4138942.500000

>ms2
55.017900 2400.200000
55.054200 12470.400000
57.033500 2844.300000
57.069900 9739.100000
67.054100 25994.800000
69.033400 39459.300000
69.069800 46438.300000
71.049000 4104.700000
77.038500 2315.600000
79.054100 17803.000000
81.069900 276009.700000
83.049000 9563.300000
83.085500 47103.700000
85.064700 5183.800000
91.054100 2598.800000
93.069900 69089.600000
95.085500 168521.700000
97.064800 125393.600000
97.101000 12539.300000
99.080300 4154.400000
105.069800 35269.900000
107.085500 99968.800000
109.064800 36046.000000
109.101200 217419.400000
111.080400 203604.800000
117.069900 4714.300000
119.085500 71454.300000
121.064800 37694.500000
121.101100 120264.200000
123.080400 57988.000000
123.116800 185784.400000
125.096100 39280.100000
131.085600 25085.000000
133.101200 36014.600000
135.080400 155605.700000
135.116800 114350.300000
137.096100 67016.400000
139.111900 10397.600000
145.101100 110363.500000
147.116900 16778.500000
149.096100 230181.600000
149.132500 50731.100000
151.111900 19666.500000
159.116800 105495.200000
161.132500 155827.800000
162.104000 2422.800000
163.111700 516731.600000
173.132500 42991.100000
175.148100 38920.000000
176.119600 19735.900000
177.127400 72447.500000
177.163700 46935.900000
191.143700 2269.800000
191.179600 21829.900000
201.163800 188373.300000
204.150500 3859.700000
219.174300 2248358.200000

>ms2
53.002200 3627.000000
53.038600 5256.600000
55.017800 17182.700000
55.054200 52947.200000
57.033400 6691.600000
57.069800 25748.800000
65.038500 2560.500000
67.054200 145450.500000
69.033400 124243.200000
69.069800 158804.500000
71.049000 6068.400000
77.038300 3741.900000
79.054200 88136.400000
81.069900 686095.000000
83.049100 25348.700000
83.085500 89377.900000
85.064800 8825.400000
91.054100 35030.000000
93.069900 265241.400000
95.049100 20751.500000
95.085500 321787.500000
97.064800 241297.400000
97.101200 12840.100000
99.080500 3239.300000
105.069800 92546.100000
107.049100 21642.700000
107.085500 247400.400000
109.064800 65056.200000
109.101200 307308.200000
111.080400 367389.000000
117.069700 28039.600000
119.085500 172636.300000
121.064700 83479.500000
121.101100 229472.200000
123.080400 116223.000000
123.116800 275942.500000
125.096000 59570.800000
129.069800 2870.600000
130.077700 5174.900000
131.085500 68096.500000
133.101100 79267.200000
135.080400 190323.800000
135.116700 162966.300000
137.096000 145659.000000
138.103900 5605.100000
139.111700 14979.700000
143.085600 5148.100000
144.093400 4747.100000
145.101100 195262.800000
146.108800 4345.400000
147.080300 6697.100000
147.116700 26648.700000
148.088200 3812.000000
149.096000 342872.900000
149.132300 68386.800000
150.103800 7283.200000
151.111700 32073.500000
157.101100 8480.400000
159.116800 148099.600000
161.096000 32464.800000
161.132400 165190.000000
162.103700 9578.800000
163.111600 738899.600000
164.119300 3884.000000
173.132400 41799.400000
175.111500 3093.000000
175.148100 57106.200000
176.119600 65233.800000
177.127300 75733.000000
177.163700 42277.700000
189.127300 5213.900000
190.135100 3302.200000
191.142800 2420.200000
191.179400 9751.100000
201.163800 96374.900000
204.150800 12383.300000
219.174300 643299.400000

>ms2
53.002200 10828.600000
53.038500 18561.800000
55.017900 35884.700000
55.054200 120940.300000
57.033500 6860.000000
57.069900 40232.600000
59.049100 3575.400000
65.038600 9892.100000
67.054200 299249.200000
69.033400 178706.400000
69.069800 201441.900000
71.049100 9335.800000
77.038500 4976.600000
79.054200 201614.300000
81.069900 845754.400000
83.049200 33090.600000
83.085500 55088.000000
85.064700 3852.800000
91.054200 109173.200000
93.069900 406881.200000
94.077400 2606.400000
95.049200 46324.400000
95.085500 270627.800000
97.064800 204734.400000
103.054300 6068.000000
105.069900 162580.900000
106.041300 9217.100000
106.077600 2431.600000
107.049100 42912.500000
107.085500 257701.600000
108.057000 4349.500000
109.064800 69910.500000
109.101200 205730.600000
111.080400 313705.000000
115.054500 2916.200000
116.062000 4598.400000
117.069800 49300.000000
119.085500 172829.600000
121.064800 110279.400000
121.101100 178267.700000
122.072600 4483.400000
123.080400 97822.200000
123.116800 131316.000000
125.096100 33094.700000
129.069900 9360.600000
130.077700 17410.000000
131.085600 81593.000000
132.093600 5104.300000
133.064800 7936.900000
133.101100 84601.500000
134.072700 3215.800000
135.080400 154593.100000
135.116800 76961.400000
136.088600 2851.500000
137.096100 106405.400000
138.104000 2623.100000
139.111800 4552.000000
142.077800 2841.800000
143.085400 23986.800000
144.093400 12786.400000
145.101100 152240.900000
146.108600 5041.200000
147.080500 24255.300000
147.116800 14671.300000
148.088200 4204.000000
149.096100 153018.800000
149.132400 23552.900000
150.104200 4448.100000
151.111800 19600.200000
157.101000 5613.100000
158.109100 5365.300000
159.116800 77793.100000
161.096100 74421.200000
161.132400 54904.700000
162.103800 14093.900000
163.111700 345895.200000
164.119900 4416.800000
171.116700 5081.600000
173.132600 22023.900000
175.111900 7049.600000
175.148100 20740.400000
176.119600 57041.100000
177.127300 27253.400000
177.163700 6290.900000
189.127200 14638.400000
190.134500 3065.500000
201.163900 23223.800000
204.151100 8722.900000
219.174500 73565.300000

>ms2
53.002200 24831.400000
53.038600 52243.900000
55.017800 65789.900000
55.054200 227838.200000
57.033500 9327.600000
57.069900 34527.300000
59.049100 7575.200000
65.038500 33906.700000
66.046500 3532.700000
67.054200 472052.400000
69.033400 219866.800000
69.069800 192878.500000
71.049000 8976.100000
77.038500 9648.100000
78.046400 5364.000000
79.054200 434922.200000
80.061900 5961.300000
81.069900 1029933.400000
83.049100 32312.400000
83.085500 42580.300000
91.054200 309984.700000
92.062100 3438.900000
93.069900 493670.700000
94.041300 8456.400000
94.077800 6193.200000
95.049100 110864.500000
95.085500 258062.000000
96.057300 2345.900000
97.064800 166218.600000
103.054200 17100.400000
104.062100 4895.300000
105.069900 270324.600000
106.041200 15951.500000
106.077500 7239.000000
107.049100 59142.600000
107.085500 240476.100000
108.057000 12072.200000
108.093300 3577.700000
109.064800 86516.500000
109.101200 120152.000000
111.080400 252317.800000
115.054200 23009.900000
116.061800 13785.700000
117.069800 86890.800000
119.085500 191509.100000
120.056800 3444.400000
120.092900 2966.400000
121.064800 131598.800000
121.101200 110545.200000
122.072500 11938.100000
123.080400 96045.500000
123.116800 50618.400000
125.096000 21704.200000
128.062100 17288.700000
129.069800 34129.200000
130.077700 42372.500000
131.085500 92587.600000
132.093100 6458.000000
133.064800 24110.400000
133.101100 72713.500000
134.072500 6385.500000
135.080400 118894.700000
135.116800 31872.900000
136.088300 3217.200000
137.096100 69163.000000
139.111800 2304.100000
142.077600 5173.300000
143.085500 50526.800000
144.093400 19639.000000
145.101100 114958.500000
146.072800 4045.000000
146.109300 3398.800000
147.080400 44198.500000
147.116600 8311.500000
148.088100 10350.500000
149.096100 58226.400000
149.132300 6813.500000
150.103700 3208.400000
151.111400 7909.100000
157.101200 11985.800000
158.108800 7831.500000
159.116800 36440.600000
161.096000 123500.900000
161.132600 14158.700000
162.103600 6917.800000
163.111700 140742.900000
171.116800 5664.600000
173.132300 7971.200000
175.111700 9514.500000
175.148000 6583.800000
176.119500 20254.400000
177.127300 8069.900000
189.127400 20676.000000
201.164000 2605.700000
204.150000 3043.300000
219.173900 8694.900000

>ms2
53.002200 43771.800000
53.038600 103276.100000
55.017900 73145.400000
55.054200 292357.100000
57.033400 10233.900000
57.069900 20069.800000
59.049100 2240.400000
65.038500 61300.800000
66.046300 7058.200000
67.054200 484178.100000
69.033500 176942.400000
69.069800 125808.600000
71.049100 5957.600000
77.038600 18237.100000
78.046300 12948.400000
79.054200 575674.700000
80.062000 11655.700000
81.069900 795784.800000
83.049100 25571.800000
83.085500 19453.300000
91.054200 500981.400000
92.062200 8187.300000
93.069900 340140.300000
94.041300 13431.000000
94.077700 5071.900000
95.049100 197284.300000
95.085500 147442.100000
96.056900 6469.200000
97.064800 95982.200000
103.054200 36500.200000
104.062000 7912.200000
105.069900 293170.500000
106.041300 13111.100000
106.077800 10141.800000
107.049100 62058.600000
107.085500 133909.900000
108.056900 15422.400000
108.093200 2800.500000
109.064800 70270.900000
109.101200 44157.000000
111.080400 130191.700000
115.054200 45591.700000
116.062100 17179.700000
117.069900 90975.900000
119.085600 132430.600000
120.057100 5668.200000
120.093600 3849.200000
121.064800 106821.100000
121.101200 35143.200000
122.072600 11085.200000
123.080500 46956.900000
123.116800 10235.100000
125.095700 6034.200000
128.062000 33884.200000
129.069800 53408.200000
130.077700 39179.800000
131.085600 65398.900000
132.093100 4091.100000
133.064800 35943.300000
133.101100 43022.000000
134.072500 7392.400000
135.080400 61238.300000
135.116900 6255.800000
137.096000 20269.200000
142.077800 9742.900000
143.085500 49083.000000
144.093500 12673.400000
145.101200 43988.600000
146.072500 11871.100000
147.080300 38701.300000
147.116400 3297.200000
148.088000 3793.800000
149.096000 14402.000000
151.111700 3742.300000
157.101100 6663.400000
158.108800 2742.500000
159.116800 8271.900000
161.096100 73331.800000
161.132600 5194.100000
163.111900 25251.800000
171.116700 4467.400000
175.111700 3745.900000
176.119500 4888.400000
189.127500 13921.600000

