>compound LU54345981
>parentmass 378.0658
>ionization [M+H]+
>formula C19H17Cl2NO3
>rt 1012.080000
>profile orbitrap
#smiles_iso CC1=C(C2=C(O1)C(=CC=C2)NC(=O)C3=C(C=CC=C3Cl)Cl)C(C)(C)O
#smiles_can CC1=C(C2=C(O1)C(=CC=C2)NC(=O)C3=C(C=CC=C3Cl)Cl)C(C)(C)O
#inchikey GCAOVMKRBUCSET-UHFFFAOYSA-N
#pubchem_id 10068207
#mb_accession LU024501,LU024502,LU024503,LU024504,LU024505,LU024506

>ms2
172.956700 26342.500000
320.024100 2994.800000
360.055400 1127000.500000
378.066100 1363258.500000

>ms2
59.049100 4843.700000
128.062400 2166.100000
129.069800 8422.700000
143.085500 28498.300000
144.080800 14883.700000
146.060200 2340.900000
147.080600 16700.300000
158.096100 2376.600000
161.096000 7548.200000
170.096200 2804.700000
171.080400 20501.400000
172.075700 24635.700000
172.955600 457973.300000
186.091400 15015.900000
189.091100 23832.900000
189.982100 5707.800000
214.086300 43706.200000
300.034100 5268.700000
317.035700 4254.100000
318.044900 133131.600000
320.024000 13668.600000
342.045000 64409.800000
360.055400 2013724.000000
378.065800 24254.900000

>ms2
59.049200 9663.900000
91.054100 2413.400000
108.983900 3370.100000
115.054300 2183.700000
119.085400 4990.500000
121.064800 3466.400000
128.062100 19795.800000
129.069800 24979.600000
143.085700 70964.100000
144.080900 53969.200000
145.065200 2613.100000
146.060300 3450.300000
146.072600 4344.500000
147.080500 50438.600000
158.096500 2358.900000
161.096300 16065.900000
170.096200 2790.700000
171.080500 36112.400000
171.971800 7891.800000
172.075800 48037.800000
172.955700 2094714.600000
186.091400 22400.100000
187.099500 3993.300000
189.982000 5772.200000
214.086400 20529.200000
300.035100 10617.400000
302.013300 2849.000000
316.029000 4915.200000
317.037500 4770.800000
318.045100 69841.100000
320.024500 5039.700000
332.024000 7545.300000
342.045000 82388.100000
360.055400 215262.000000

>ms2
59.049200 14207.100000
84.984000 11562.000000
91.054200 5812.400000
98.999400 2787.300000
103.054100 5322.500000
107.049100 4520.400000
108.984000 6179.200000
115.054200 5468.100000
117.033400 5931.000000
117.069900 4936.800000
119.085500 5619.300000
120.960700 4532.000000
121.064800 4106.600000
126.994700 5982.000000
128.002200 6934.100000
128.062000 69781.900000
129.069800 19158.300000
141.069300 3112.800000
143.085500 49170.700000
144.080800 27024.000000
144.960600 9355.200000
145.064900 8310.600000
146.060200 3504.700000
146.072300 4974.700000
147.080400 17398.400000
155.000600 4951.000000
155.060400 7418.900000
162.971300 16176.400000
171.080600 12031.300000
171.971600 11153.300000
172.075400 10943.900000
172.955600 2673079.800000
186.091500 6140.400000
189.090700 3675.000000
300.034100 4921.000000
302.013700 7412.200000
316.029600 5451.600000
332.023200 4759.400000
342.044700 8981.200000
360.055600 3561.600000

>ms2
59.049200 22060.800000
74.015100 5852.100000
84.984000 60104.100000
86.963300 34820.200000
89.038700 6162.100000
91.054200 10434.400000
98.999700 9550.200000
103.054200 8827.400000
107.049300 5256.400000
108.984000 76679.700000
110.036200 3318.500000
112.978900 14035.200000
115.054300 10656.100000
117.070000 7359.900000
120.960800 23758.000000
126.994600 30673.400000
127.054000 4861.700000
128.002400 36715.200000
128.062100 104375.300000
129.069900 8894.200000
131.049300 4904.000000
141.070100 6525.600000
143.073100 3325.300000
143.085500 15374.600000
144.080800 9474.300000
144.960700 47664.200000
145.005200 13736.600000
145.065200 8044.100000
146.072800 3568.700000
147.080400 3955.600000
152.062500 3033.500000
155.000600 21331.700000
155.060600 9574.200000
159.021100 3081.100000
159.044400 7692.900000
161.963200 3869.600000
162.971300 79315.800000
171.971900 7716.900000
172.956000 1945698.600000
172.966400 584023.100000
173.964200 4248.100000
287.997800 5967.800000
290.013900 2412.700000
302.013300 7096.200000

>ms2
59.049100 17134.400000
74.015000 39192.300000
84.984000 88121.600000
86.963300 145499.800000
89.038700 7029.900000
91.054400 14872.800000
98.999600 17201.700000
103.054200 10835.000000
107.049300 3075.600000
108.984100 350628.200000
109.991900 5044.600000
110.036400 4164.000000
112.979000 22420.700000
115.054200 12526.300000
117.033500 3562.300000
117.070000 9369.800000
120.960700 44048.800000
126.994600 43009.400000
127.054400 3209.800000
128.002400 49242.000000
128.062100 85373.400000
129.069900 4030.800000
131.049400 3968.200000
141.070000 5656.300000
143.073400 4067.300000
143.085800 2525.400000
144.080900 5443.300000
144.960700 123293.300000
145.005100 19609.100000
145.064900 8754.000000
152.062400 3054.700000
155.000700 29543.000000
155.060600 8972.800000
159.021200 3295.400000
159.044400 5235.300000
161.963400 3631.300000
162.971300 115917.400000
171.971400 2488.700000
172.956000 891375.400000
172.966700 880869.500000
173.963500 5412.000000
287.998000 2550.700000

