>compound LU55291087
>parentmass 305.0719
>ionization [M+H]+
>formula C11H17N2O4PS
>rt 1079.160000
>profile orbitrap
#smiles_iso CC1=CC(=C(C=C1)OP(=S)(NC(C)C)OC)[N+](=O)[O-]
#smiles_can CC1=CC(=C(C=C1)OP(=S)(NC(C)C)OC)[N+](=O)[O-]
#inchikey VHEWQRWLIDWRMR-UHFFFAOYSA-N
#pubchem_id 100524
#mb_accession LU127401,LU127402

>ms2
90.976700 6652.000000
152.029500 7309.100000

>ms2
90.976400 2801.000000
152.029500 2282.000000

