>compound LU55014953
>parentmass 258.0714
>ionization [M+H]+
>formula C12H16ClNOS
>rt 1142.220000
>profile orbitrap
#smiles_iso CCN(CC)C(=O)SCC1=CC=C(C=C1)Cl
#smiles_can CCN(CC)C(=O)SCC1=CC=C(C=C1)Cl
#inchikey QHTQREMOGMZHJV-UHFFFAOYSA-N
#pubchem_id 34192
#mb_accession LU064504,LU064505,LU064506

>ms2
58.065100 3584.500000
72.044400 8359.200000
79.021400 2306.700000
89.038600 11033.500000
90.046400 2824.100000
98.999700 2813.800000
100.112200 9477.500000
125.015400 479847.200000
138.012300 5099.900000

>ms2
58.065000 7913.300000
63.022700 2632.600000
65.038700 1714.800000
72.044300 6685.500000
79.021100 3905.700000
89.038600 56945.200000
90.046600 8837.000000
91.054200 1927.700000
98.999600 22705.300000
100.112000 11564.100000
125.015300 622909.600000
138.012500 2162.200000

>ms2
58.065100 10587.400000
63.023000 10862.500000
65.038600 5131.500000
72.044300 3343.600000
79.021200 6914.200000
89.038600 136924.800000
90.046400 33796.800000
91.054400 3230.800000
98.999700 72105.200000
100.112100 4169.900000
125.015300 516401.500000

