>compound LU55894520
>parentmass 331.0399
>ionization [M+H]+
>formula C17H12Cl2N2O
>rt 1083.490000
>profile orbitrap
#smiles_iso C1=CC=C(C(=C1)C(C2=CC=C(C=C2)Cl)(C3=CN=CN=C3)O)Cl
#smiles_can C1=CC=C(C(=C1)C(C2=CC=C(C=C2)Cl)(C3=CN=CN=C3)O)Cl
#inchikey NHOWDZOIZKMVAI-UHFFFAOYSA-N
#pubchem_id 43226
#mb_accession LU108701,LU108702,LU108703,LU108704,LU108705,LU108706

>ms2
81.045200 5577.300000
122.048100 177552.700000
123.024100 122687.500000
124.027400 84474.400000
141.010200 53446.000000
268.052100 23338.400000
304.028700 27330.300000
331.040400 5536921.500000

>ms2
54.033900 8611.500000
71.037000 6096.300000
81.044700 442819.300000
97.064800 7165.900000
109.064700 4395.900000
122.048200 602397.700000
123.024100 207625.500000
124.027500 128946.400000
138.994500 109749.400000
141.010200 98431.900000
149.015300 3161.500000
155.060600 4406.900000
156.068200 24363.700000
157.075700 3161.200000
183.055400 37038.800000
184.063100 10492.600000
189.070500 3907.500000
191.037100 39491.700000
192.021100 13992.500000
192.044900 29990.600000
210.031500 8249.000000
219.031900 47548.000000
225.046600 3424.800000
232.076200 5431.200000
233.083700 5704.500000
235.007600 43662.000000
238.041600 6956.300000
240.057600 20169.100000
250.042200 7353.600000
251.002500 62381.200000
251.049600 37626.100000
252.033600 133493.600000
256.051900 6072.500000
259.007700 268482.400000
260.094100 3988.100000
267.044500 7479.700000
267.068200 26755.400000
268.052400 1008138.700000
275.002800 5073.700000
276.034200 19882.500000
277.017800 3514.100000
277.052400 4576.100000
278.060600 33276.700000
285.011200 3657.700000
286.018500 27652.600000
287.002600 57855.000000
295.063400 42053.000000
302.013900 9343.300000
302.036900 28447.200000
303.046000 18072.400000
304.029100 311663.000000
313.029500 37568.300000
331.040000 2548568.500000

>ms2
52.018100 2486.500000
54.033800 88575.200000
71.036900 4126.300000
75.022800 5279.300000
81.044700 1457696.800000
91.054200 9327.500000
97.064800 7901.600000
101.038600 4656.100000
109.064900 6708.700000
113.015200 10368.400000
113.039500 6423.400000
119.049200 5040.600000
122.048100 703700.900000
123.024100 213759.700000
124.027400 141306.100000
125.015200 8226.200000
129.044800 30537.300000
130.065300 2835.800000
137.015100 3883.800000
138.994500 525754.400000
140.026300 12991.800000
141.010200 72927.000000
146.059700 2553.700000
149.015400 23017.100000
155.060300 9090.500000
156.068200 43449.200000
157.075900 26412.000000
164.026100 22349.900000
165.010400 5676.400000
165.069900 3955.800000
176.062300 2640.200000
183.055300 27880.400000
184.063100 16007.400000
185.071600 5173.700000
189.069800 89167.500000
190.077400 2648.200000
191.037100 25670.200000
192.021000 14379.600000
192.045000 30131.500000
199.030700 9192.900000
200.038500 11133.200000
204.081000 34977.100000
205.064600 9636.800000
205.088500 11022.100000
210.031700 4806.500000
216.080900 3085.600000
217.065000 9847.100000
219.031900 39131.500000
220.039400 8532.700000
223.031000 54411.700000
224.038600 27616.700000
225.046300 12309.300000
231.091800 6776.200000
232.075900 24812.500000
232.098800 7114.700000
232.991200 5515.300000
233.083700 58416.400000
235.007700 52902.400000
238.041800 48664.400000
239.050200 4773.900000
240.057600 63032.000000
241.064400 15235.000000
242.083600 8250.500000
243.092100 16212.000000
250.041900 45105.600000
251.002500 188818.500000
251.049600 89921.300000
252.033600 269949.200000
256.052500 6935.200000
259.007600 615158.600000
260.093400 5169.100000
266.036700 24096.800000
267.044800 25872.600000
267.068300 55408.700000
268.052400 1412219.000000
275.002200 5696.500000
276.034100 41764.900000
277.018100 2988.200000
277.052700 20004.600000
278.060400 94413.200000
279.068200 10807.200000
285.008900 2691.100000
286.018300 24693.800000
287.002400 19605.300000
295.063300 29179.600000
302.014300 3162.700000
302.036900 12861.400000
303.044900 3776.900000
304.029100 64637.300000
313.029100 17215.900000
331.040000 146112.500000

>ms2
52.018200 4852.300000
54.033900 221543.600000
81.044700 1297526.900000
86.999600 4487.100000
97.064700 8229.900000
109.064800 5389.600000
111.043900 4416.300000
125.015300 6367.900000
128.049400 6300.700000
129.010100 10365.500000
129.057300 2321.100000
130.065200 10992.200000
137.015400 7543.800000
138.010400 5231.500000
138.994600 921009.400000
140.026200 14587.200000
146.060100 7006.800000
149.015200 20395.800000
155.060400 6269.600000
156.044500 2631.200000
156.068200 27515.800000
157.076100 29355.400000
158.060200 10631.100000
164.026100 20661.600000
165.010100 4670.300000
165.070100 17279.500000
176.062100 3621.900000
177.070200 4445.600000
178.077800 24165.600000
180.020500 3346.000000
183.055200 12184.200000
184.063200 10360.200000
185.070800 8789.400000
189.069900 376592.300000
190.077700 3986.800000
191.086000 4256.200000
192.021300 12385.300000
192.044800 6130.400000
199.031000 22050.400000
200.038900 12928.500000
203.072900 9924.800000
204.080900 109922.700000
205.065000 39061.600000
205.076700 2792.300000
205.078800 3256.800000
205.088600 30388.200000
206.072600 11963.100000
206.096600 5961.400000
212.039000 8486.500000
214.065300 3846.100000
215.073200 4498.800000
216.080900 27556.600000
217.064800 22902.000000
219.032000 12751.200000
220.039900 4547.300000
223.031000 167791.000000
224.038800 39298.800000
225.046700 6113.900000
226.054500 3355.400000
231.091500 6302.300000
232.075800 42262.700000
232.099100 4453.300000
232.992200 29924.200000
233.083600 126470.600000
234.090300 2995.200000
235.007500 9818.800000
238.041900 101709.200000
239.049300 4503.800000
240.057500 85573.700000
241.041700 70383.500000
241.065000 9336.700000
242.084000 16353.800000
243.091800 24066.300000
250.041800 41535.200000
251.002600 43970.300000
251.025900 5773.500000
251.049700 66032.400000
252.033700 166423.700000
259.007700 227866.000000
266.036800 42899.700000
267.068600 25967.400000
268.052400 351684.000000
276.033600 4582.900000
277.052800 15314.300000
278.060600 47230.200000
279.068600 9190.500000
286.019300 3529.000000
331.039200 2866.400000

>ms2
50.015100 5301.900000
52.018200 13364.800000
53.002200 6695.900000
53.038600 10439.700000
54.033900 390163.500000
55.017900 3942.300000
65.038700 3142.200000
71.037000 9635.400000
75.022900 50912.100000
77.038500 24988.800000
79.017800 5594.800000
79.054000 2266.400000
81.044700 1150498.200000
86.999700 24652.200000
91.054300 66033.300000
93.033400 4767.500000
94.041400 7665.200000
95.049200 19823.200000
97.064800 4162.000000
101.038600 28510.400000
102.046400 6924.000000
103.054300 4626.900000
104.049400 3174.200000
105.033500 5540.500000
105.044700 11190.900000
109.064900 4620.800000
110.999500 11757.700000
111.044100 24834.400000
113.015200 11978.100000
113.039700 40174.300000
119.049200 70865.200000
122.048200 317877.200000
123.024100 80985.000000
123.035300 73866.300000
124.027500 61944.700000
124.038600 35091.700000
125.015200 6775.900000
128.002600 3305.500000
128.049500 22690.800000
129.010100 75160.800000
129.044700 217839.800000
129.056500 10903.300000
130.065200 28129.700000
131.049200 4201.100000
137.015300 12137.700000
138.010800 6115.600000
138.994600 977342.800000
140.026100 11907.300000
141.010400 6653.600000
146.060200 8439.200000
149.015100 11394.600000
152.062300 6246.700000
155.060300 5182.900000
156.044400 3017.200000
156.068100 14419.800000
157.076200 14302.800000
158.060200 10988.100000
164.026100 17845.600000
164.062500 3237.900000
165.070000 37509.700000
169.064800 2638.100000
174.010800 4780.400000
176.062100 15221.400000
177.070100 11945.400000
178.077800 75832.100000
183.054800 4143.900000
184.063400 5816.200000
185.071100 10080.200000
187.054500 5024.600000
188.062300 5811.700000
189.069900 656240.900000
190.065600 3211.500000
190.077900 6641.600000
191.037400 5623.600000
192.021200 10130.500000
192.057000 6807.100000
199.031000 35953.700000
200.039100 3825.300000
203.073100 25717.700000
204.080900 158438.100000
205.064900 92666.500000
205.088400 25397.100000
206.072800 12984.900000
206.096500 8345.300000
212.038400 19838.100000
214.064900 12157.200000
215.072800 8606.400000
216.080800 78832.300000
217.064900 32385.800000
217.089000 9898.600000
219.032000 16811.600000
220.051700 4834.600000
223.031000 187203.700000
224.038800 13660.700000
231.091100 5601.000000
232.075700 41964.500000
232.099700 5897.300000
232.992300 41053.400000
233.083700 78955.200000
238.041900 90952.600000
240.057500 56708.500000
241.041500 73055.500000
241.063400 3951.400000
242.084000 29691.800000
243.091900 16967.600000
244.100000 5234.000000
250.041800 41393.000000
251.025900 8360.700000
251.049600 27863.100000
252.033600 88019.200000
259.007600 52114.200000
266.036700 45439.900000
267.044900 8892.200000
267.068200 3668.600000
268.052100 39036.300000
277.052200 11220.400000
278.060600 13308.400000
279.069400 3783.900000

>ms2
50.015200 10242.600000
52.018200 13414.400000
53.002200 10234.900000
53.038600 12476.200000
54.033800 455896.600000
55.017800 8878.200000
65.038600 7285.900000
71.037000 7149.600000
75.022900 204309.800000
77.038500 33203.800000
79.017900 9503.300000
79.054300 4871.300000
81.044700 774449.600000
86.999600 55342.300000
91.054200 57519.200000
93.033500 14472.200000
94.041300 17874.100000
95.049100 33886.600000
97.064900 4696.100000
101.038500 49927.900000
102.046400 10128.300000
103.054200 8201.500000
104.049500 4728.500000
105.033600 4633.500000
105.044500 14570.600000
110.999600 29670.200000
111.044000 36162.300000
113.015100 11699.200000
113.039700 58969.300000
119.049100 97573.100000
122.048100 131051.200000
123.024100 37053.300000
123.035300 96104.400000
124.027600 21339.700000
124.038700 44084.200000
125.015300 6524.900000
128.002400 5521.400000
128.049500 23708.000000
129.010200 181783.200000
129.044700 235237.600000
129.056600 12468.600000
130.065100 28049.700000
131.049300 6032.800000
137.015200 11698.900000
138.010800 4397.400000
138.994600 600254.300000
140.026100 5125.900000
146.060100 8644.800000
149.014800 10845.100000
152.062000 21051.300000
155.060300 4584.900000
156.044500 3410.300000
156.068300 4900.900000
157.076300 7163.300000
164.026100 15004.500000
164.062200 4908.500000
165.069900 41571.100000
169.064900 6725.600000
176.062100 45272.500000
177.070100 26388.700000
178.077800 105982.800000
184.063700 5800.600000
185.071500 3028.400000
187.054200 31846.500000
188.061800 18421.900000
189.069900 704260.500000
190.065400 5368.300000
192.021200 10782.200000
192.056700 22935.600000
199.031000 26962.100000
203.072800 32578.200000
204.080900 148292.900000
205.064900 80329.600000
205.088100 15478.900000
206.096300 5156.200000
212.038800 17972.600000
214.064800 28972.500000
215.073100 10126.900000
216.080700 74514.700000
217.088700 9634.000000
219.032100 9725.900000
220.051700 12773.400000
223.030800 138775.200000
224.038600 4014.500000
232.075400 20635.700000
232.991800 42494.000000
233.083800 16626.400000
238.041800 62015.800000
240.057400 27218.000000
241.041400 22672.200000
242.083800 25313.500000
243.092000 9716.800000
244.099100 3166.500000
250.041700 26444.600000
251.026000 5988.500000
251.050000 9481.300000
252.033100 17957.700000
259.008000 12728.400000
266.036500 21855.300000
268.052300 2455.500000
277.053400 3145.900000
278.062100 2698.700000

