>compound LU55442039
>parentmass 459.0922
>ionization [M+H]+
>formula C22H18O11
>rt 674.640000
>profile orbitrap
#smiles_iso C1[C@H]([C@H](OC2=CC(=CC(=C21)O)O)C3=CC(=C(C(=C3)O)O)O)OC(=O)C4=CC(=C(C(=C4)O)O)O
#smiles_can C1C(C(OC2=CC(=CC(=C21)O)O)C3=CC(=C(C(=C3)O)O)O)OC(=O)C4=CC(=C(C(=C4)O)O)O
#inchikey WMBWREPUVVBILR-WIYYLYMNSA-N
#pubchem_id 65064
#mb_accession LU080801,LU080803,LU080804

>ms2
139.039000 256070.100000
151.039000 60197.600000
153.018300 56831.200000
163.039100 5403.300000
181.049700 11556.300000
205.050100 3617.200000

>ms2
111.044100 2284.800000
123.044100 9404.000000
125.023500 1838.000000
139.039100 278111.700000
143.033900 5664.800000
151.039100 22909.200000
153.018400 108607.200000
163.039100 28253.300000
177.054800 3031.900000
181.049700 5592.700000
205.049900 11814.300000

>ms2
111.044200 6990.800000
123.044100 21018.500000
125.023500 9945.500000
139.039100 297504.300000
143.034200 20515.800000
151.039400 10222.500000
153.018400 94373.600000
163.039100 25453.900000
177.055000 5077.400000
205.049800 5629.500000

