>compound LU55104677
>parentmass 179.0637
>ionization [M+H]+
>formula C9H10N2S
>rt 1032.150000
>profile orbitrap
#smiles_iso CN(C)C1=CC=C(C=C1)SC#N
#smiles_can CN(C)C1=CC=C(C=C1)SC#N
#inchikey WCCIEZDFRJREQJ-UHFFFAOYSA-N
#pubchem_id 23540
#mb_accession LU111601,LU111602,LU111603,LU111604,LU111605,LU111606

>ms2
121.088600 96601.300000
131.060400 5795.100000
137.011700 27132.100000
147.013700 16082.700000
153.060800 7484.600000
163.032600 10980.000000
164.040200 2182731.200000
179.063700 5683657.000000

>ms2
121.088700 100522.400000
131.060500 7757.100000
137.011800 29330.000000
138.036900 6239.800000
147.013800 19983.300000
149.016800 7594.200000
153.060700 4659.100000
163.032500 17443.500000
164.040300 2201392.200000
179.063800 4216954.500000

>ms2
103.041500 7988.900000
106.065200 14744.600000
120.080900 7369.100000
121.088700 131741.300000
131.060400 116027.500000
132.068200 22561.000000
137.011800 69648.300000
138.037400 6428.700000
146.006000 31114.600000
147.013700 292296.300000
149.016800 97250.000000
163.032600 71750.500000
164.040200 4676131.500000
179.063800 1322784.500000

>ms2
74.005900 4710.700000
91.041700 3830.100000
103.041700 60507.900000
104.049500 9160.900000
104.062100 5240.100000
105.044800 14037.800000
106.065100 36211.600000
113.029500 6318.400000
118.052700 3939.500000
119.060400 29591.400000
120.068500 5809.800000
120.080900 17612.300000
121.088600 68578.500000
123.013900 4711.200000
129.044700 29389.200000
130.052400 13221.100000
131.060400 403737.100000
132.068200 125820.700000
135.013800 9519.600000
136.021500 13163.500000
137.011800 81180.600000
137.029400 5934.800000
138.037300 13785.800000
146.005900 229874.500000
147.013700 974454.900000
149.016800 562799.000000
163.032500 316651.600000
164.040200 3709498.200000
179.063800 221167.600000

>ms2
53.038600 2303.700000
55.041700 2372.800000
61.010700 3110.900000
65.038500 2776.500000
74.005900 11247.600000
79.054200 12610.500000
91.041700 3547.900000
94.065200 2789.200000
96.002800 9306.500000
103.041700 193728.000000
104.049400 29698.600000
104.061800 3630.900000
105.044700 118771.300000
105.057400 9180.500000
106.065100 51235.300000
113.029400 26028.500000
118.052700 6879.000000
119.060400 138324.900000
120.002800 2932.600000
120.068100 11581.000000
120.080900 24802.400000
121.088600 28685.200000
122.005800 13717.600000
123.013900 11739.800000
129.044700 86137.300000
130.052600 20200.000000
131.060400 661222.600000
132.068200 295700.700000
135.013800 21076.600000
136.021600 39132.400000
137.011800 67236.700000
137.029500 8828.400000
138.037200 36571.400000
146.005900 612600.000000
147.013700 1003868.800000
149.016800 1165729.200000
161.016800 4246.800000
163.032500 614100.800000
164.040200 1619576.100000
179.063500 27243.900000

>ms2
53.038600 6125.100000
55.041700 4273.900000
61.010700 4414.900000
74.005900 14017.400000
79.054200 52637.700000
91.041700 8357.200000
94.065200 11637.500000
96.002800 15053.700000
102.033900 3095.900000
103.041700 268709.200000
104.049500 94758.300000
105.044800 437399.400000
105.057300 40158.700000
106.065200 63305.500000
108.002800 5837.200000
113.029400 25377.800000
118.052600 5758.000000
119.060500 277311.300000
120.002900 3434.800000
120.068100 9945.700000
120.080800 28919.700000
121.088600 13707.000000
122.005900 48193.700000
123.013600 13955.600000
129.044800 131603.700000
130.052700 11895.000000
131.060400 687800.600000
132.068200 288401.200000
135.013800 25189.300000
136.021600 65221.100000
137.011800 28163.500000
137.029500 7289.900000
138.037300 117096.800000
146.006000 769646.600000
147.013800 453006.900000
149.016900 1107684.400000
161.016600 10810.400000
163.032500 623005.300000
164.040300 400065.000000

