>compound LU55059899
>parentmass 195.0652
>ionization [M+H]+
>formula C10H10O4
>rt 1154.460000
>profile orbitrap
#smiles_iso COC(=O)C1=CC=CC=C1C(=O)OC
#smiles_can COC(=O)C1=CC=CC=C1C(=O)OC
#inchikey NIQCNGHVCWTJSM-UHFFFAOYSA-N
#pubchem_id 8554
#mb_accession LU097801,LU097802,LU097805,LU097806

>ms2
163.039000 690238.200000
195.065500 3417.600000

>ms2
77.038400 1669.300000
133.028300 3949.900000
135.043900 1850.000000
163.038900 894271.400000
195.065100 3411.300000

>ms2
51.023000 5610.700000
53.038600 51838.800000
77.038600 17167.600000
79.054300 37646.000000
81.033500 4842.100000
91.054300 4074.900000
92.025700 37802.800000
94.041400 6854.000000
95.049200 137412.100000
105.033700 39795.200000
107.049300 8349.000000
109.065100 2135.200000
120.020700 3363.600000
133.028500 102942.400000
135.044100 134432.700000
138.031300 10574.100000
163.039000 148244.300000
165.055000 4483.500000

>ms2
51.023000 12799.300000
53.038600 75898.500000
77.038600 32108.000000
79.054300 30267.900000
81.033500 8274.000000
91.054300 5130.600000
92.025700 93957.100000
94.041300 8995.500000
95.049200 191875.100000
105.033600 45483.900000
107.049300 3771.200000
109.064700 2880.000000
120.020500 2956.400000
133.028500 50588.400000
135.044100 63345.300000
138.031100 11656.800000
163.039100 32947.600000
165.054600 2270.900000

