>compound LU56712022
>parentmass 324.1206
>ionization [M+H]+
>formula C17H16F3NO2
>rt 1047.340000
>profile orbitrap
#smiles_iso CC(C)OC1=CC=CC(=C1)NC(=O)C2=CC=CC=C2C(F)(F)F
#smiles_can CC(C)OC1=CC=CC(=C1)NC(=O)C2=CC=CC=C2C(F)(F)F
#inchikey PTCGDEVVHUXTMP-UHFFFAOYSA-N
#pubchem_id 47898
#mb_accession LU117501,LU117502,LU117503,LU117504,LU117505,LU117506

>ms2
145.027100 18980.500000
173.021700 99186.900000
262.067300 2236370.500000
282.073500 6309700.500000
292.117400 17388.400000
304.114300 1629872.900000
324.120600 10388430.000000

>ms2
65.038900 17932.100000
111.044000 38348.600000
130.028700 19082.000000
173.020800 312824.600000
242.061100 3902652.500000
262.067200 13361321.000000
282.073500 2450906.200000
284.108200 110130.400000
304.114300 1139887.000000
324.120600 232090.500000

>ms2
55.017800 60562.700000
65.038500 566238.100000
68.997000 21947.500000
79.017800 15495.900000
93.033300 84871.500000
110.036200 20584.600000
111.044000 1112193.000000
130.028700 617740.200000
145.025900 22927.300000
162.055000 14140.100000
173.020800 986875.400000
194.060200 27887.600000
195.067800 13764.800000
200.050400 29035.700000
214.066300 99988.500000
215.074100 15959.500000
222.054600 66849.400000
224.050500 14817.300000
240.065900 62880.800000
242.061000 13199824.000000
262.067300 3938073.200000
284.107600 31934.700000
304.114700 51118.700000

>ms2
53.002200 50196.900000
53.038700 23953.700000
53.997400 12561.400000
55.017800 195065.500000
65.038500 4829594.000000
67.989300 6209.800000
68.997000 71642.900000
69.033500 34541.700000
71.012800 25488.500000
79.017800 61108.600000
83.012800 37461.100000
83.049100 10224.500000
84.020500 7117.500000
91.054300 6256.500000
92.049500 6943.200000
93.033500 264893.200000
95.049100 9984.000000
97.028500 17336.600000
107.049300 10102.700000
110.036300 84566.400000
111.044000 3690403.200000
113.048300 8060.200000
119.013000 14406.000000
120.044500 18517.600000
122.036600 11911.600000
123.024000 26759.300000
125.059900 16649.000000
130.028800 1715300.200000
139.018900 15026.600000
139.054000 21480.000000
145.025900 456846.400000
146.023500 10096.100000
150.035000 20478.400000
159.060300 10217.000000
162.055000 45651.700000
166.065200 95832.500000
167.049100 16098.800000
171.060300 8242.700000
173.020900 1606546.400000
174.035100 15350.400000
180.044300 28287.600000
186.071700 12399.600000
187.055500 20655.800000
194.060200 98470.700000
195.067800 15031.200000
196.055600 10020.900000
198.071500 13438.500000
199.055100 6823.700000
200.050500 37747.900000
201.034900 15842.400000
212.070900 10726.400000
214.066300 152800.900000
215.074200 5837.300000
222.054900 95946.600000
224.050300 43743.700000
240.065600 43129.700000
241.053500 10111.700000
242.061100 5704905.000000
262.067400 234717.300000

>ms2
53.002200 131189.200000
53.038600 15776.200000
53.997500 22616.700000
55.017800 144461.900000
65.038600 9001984.000000
68.997100 56889.100000
69.033500 19837.600000
71.012800 17763.900000
78.033800 14622.200000
79.017900 35485.700000
83.012700 25222.000000
83.029100 23928.600000
83.049200 22331.600000
92.049500 9276.800000
93.033500 167344.900000
95.049200 12909.200000
97.028500 16047.100000
102.033900 18391.300000
104.049500 9694.500000
110.036300 62418.800000
111.044100 2275651.000000
113.039900 11487.000000
115.054300 9224.600000
120.044500 57813.700000
123.024300 25513.000000
125.059800 10550.900000
130.028800 1090768.000000
130.039900 226876.900000
139.019100 16969.400000
139.054300 77990.400000
140.049600 30058.200000
145.026000 1887340.800000
150.035200 24738.200000
159.060300 24272.600000
162.054900 32966.600000
166.065100 121978.000000
167.049100 22007.900000
173.020900 1287691.400000
180.044800 21348.700000
185.063700 13659.600000
186.071200 21355.100000
187.055700 12608.800000
194.060100 67951.200000
195.068100 13182.500000
196.055900 20814.300000
201.034900 13813.700000
212.070500 11431.100000
214.066200 112036.900000
222.054900 24673.300000
224.050900 17760.900000
240.065900 10062.100000
242.061200 632721.300000

>ms2
53.002200 251307.500000
53.997400 38786.700000
55.017800 55367.900000
63.022900 16174.500000
65.038500 9940445.000000
67.054100 13795.500000
68.997100 25643.400000
75.022900 51454.500000
78.033800 29962.200000
79.017800 20410.500000
83.029200 28625.400000
83.049100 18942.900000
92.049600 21442.100000
93.033500 60978.800000
95.049200 14362.300000
102.033900 52372.700000
110.036200 26666.900000
111.044000 858432.400000
113.039800 55176.200000
115.054200 19027.900000
120.044400 119195.800000
123.024000 14349.900000
130.028800 478732.700000
130.040000 381782.000000
139.054200 134980.400000
140.049400 90626.900000
145.025900 3742899.200000
150.034900 17719.000000
159.060800 19922.500000
162.054700 14911.500000
166.065100 113378.700000
167.048400 11175.000000
169.064800 12006.400000
170.052500 17680.500000
173.020900 571729.000000
185.063700 31270.200000
186.071000 19779.400000
187.055200 14333.600000
194.059700 34880.200000
196.055400 12056.200000
198.071300 10424.800000
214.066200 63242.900000
242.061200 47918.900000

