>compound LU56816074
>parentmass 386.2551
>ionization [M+H]+
>formula C21H31N5O2
>rt 794.700000
>profile orbitrap
#smiles_iso C1CCC2(C1)CC(=O)N(C(=O)C2)CCCCN3CCN(CC3)C4=NC=CC=N4
#smiles_can C1CCC2(C1)CC(=O)N(C(=O)C2)CCCCN3CCN(CC3)C4=NC=CC=N4
#inchikey QWCRAEMEVRGPNT-UHFFFAOYSA-N
#pubchem_id 2477
#mb_accession LU052001,LU052002,LU052003,LU052004,LU052005,LU052006

>ms2
122.071000 45747.300000
386.254700 33274596.000000

>ms2
122.071100 7151552.500000
148.086700 327080.400000
150.102500 952902.200000
152.106800 122053.000000
165.113400 24851.600000
168.101600 106021.800000
180.101700 137536.200000
198.112300 70086.700000
219.160000 66810.900000
222.148700 900117.400000
265.190800 563171.600000
291.206600 59407.500000
343.212800 79340.300000
386.254700 23371888.000000

>ms2
67.054100 67420.200000
72.080700 125735.500000
80.049400 138890.600000
81.044700 37022.600000
81.069800 113114.500000
95.060300 184645.900000
95.085500 181882.800000
96.055500 31914.100000
97.039600 31903.800000
98.096400 595861.000000
109.064800 304586.500000
109.101200 563943.100000
110.096400 39593.600000
120.055400 44948.800000
122.071200 24716020.000000
123.080200 208977.000000
124.112000 95739.600000
136.087000 30994.300000
140.106900 366078.200000
148.086800 2468174.200000
150.102500 3057797.200000
152.106900 2209714.000000
164.105800 38772.800000
165.113500 89773.900000
168.101800 1323388.600000
180.101800 1070294.400000
194.153700 48641.200000
198.112400 446496.800000
212.128000 30657.000000
219.160300 63091.000000
222.148700 2393996.800000
265.190900 2044086.600000
291.206400 134287.600000
343.213000 186631.400000
386.255000 2839840.500000

>ms2
53.038600 22151.800000
54.033900 23008.100000
55.054200 147974.000000
56.049400 137628.100000
58.065100 21827.100000
60.044300 56669.500000
67.054200 329400.600000
68.049400 56365.600000
69.069900 35562.900000
70.065000 61790.800000
72.080700 368028.500000
78.033800 24765.800000
79.029000 19713.200000
79.054100 101689.900000
80.049400 782799.800000
81.044700 186239.600000
81.069800 943393.200000
83.085600 19692.500000
84.044400 26779.000000
84.080700 57205.700000
86.023700 21049.400000
93.069900 36687.200000
95.060400 922331.300000
95.085500 1158223.200000
96.044400 147322.600000
96.055500 207017.600000
96.080800 52367.200000
97.039600 267096.800000
97.101100 29112.600000
98.060100 98643.700000
98.096400 1403775.600000
105.044600 41354.200000
105.069800 30674.100000
106.040000 99780.000000
107.060500 33920.500000
107.085500 134233.900000
108.055500 63028.400000
109.064800 1282388.400000
109.101100 1647680.100000
110.096400 92244.000000
119.060500 53710.000000
120.055600 137623.000000
121.076000 40659.400000
122.071200 19049312.000000
123.080300 857115.800000
124.112000 242804.500000
126.091300 149189.200000
131.060000 42522.600000
132.055600 23230.300000
133.063300 191918.900000
134.096300 80057.900000
135.080200 84897.300000
136.086900 51728.500000
140.106900 1046288.300000
146.071000 20975.100000
148.086900 3124537.500000
149.081900 56811.400000
150.102500 1885564.100000
151.075300 59731.600000
152.106900 2895280.500000
162.090000 73012.800000
165.113500 26107.300000
168.101800 1446395.100000
180.101800 649782.400000
194.153900 54016.500000
198.112400 317301.200000
222.148700 810610.800000
265.190900 422150.600000
343.211900 36459.900000
386.254300 26062.500000

>ms2
53.038600 98217.600000
54.033900 64851.100000
55.017800 36855.200000
55.054200 408000.800000
56.049500 347434.500000
58.065100 26231.600000
60.044400 101440.100000
67.054200 1075815.900000
68.049400 136100.500000
68.997100 15466.200000
69.044600 50582.700000
69.057300 13357.500000
69.069800 91850.400000
70.065100 91148.000000
72.080700 483240.700000
78.033800 67276.200000
79.028900 34944.500000
79.054200 392190.400000
80.049400 1907540.500000
81.044800 486868.300000
81.069900 2444466.500000
82.065100 24033.700000
83.085500 74162.300000
84.044500 51468.800000
84.080800 156876.500000
86.023700 29710.500000
91.054100 34363.200000
93.069900 101523.200000
94.065200 26900.200000
95.060400 1921643.100000
95.085500 2362522.500000
96.044400 434073.800000
96.055600 548209.500000
96.080800 57435.400000
97.039600 1029400.900000
97.101100 67051.100000
98.060100 137798.300000
98.096400 1301692.000000
105.044700 83255.800000
105.069800 87925.800000
106.040000 196294.500000
106.065400 13456.700000
107.060500 46543.400000
107.085500 215892.400000
108.055600 159566.000000
108.080900 43786.800000
109.064800 2533713.000000
109.101200 1651897.000000
110.096500 106182.300000
111.055400 18007.100000
114.091500 15432.600000
117.069800 23988.000000
119.060400 88239.200000
120.055600 255593.100000
121.075900 63395.500000
122.071200 13100582.000000
123.080300 1079244.900000
124.112000 205754.900000
126.091300 189967.100000
131.060200 115059.000000
132.055600 65349.600000
133.063400 436898.500000
134.071100 14928.500000
134.096500 81129.300000
135.080300 88699.600000
136.086800 33842.500000
140.107000 797001.800000
146.071300 51203.600000
148.086900 2123636.800000
149.082000 35660.400000
150.091300 54532.200000
150.102500 768934.800000
151.075300 59798.500000
152.107000 1147728.900000
162.089800 44885.600000
168.101900 554228.900000
180.101900 116489.700000
194.153800 19469.400000
198.113100 49261.300000
222.148700 97970.300000
265.191500 21985.300000

>ms2
52.018200 33354.000000
53.002200 28696.500000
53.013500 21303.500000
53.038600 201931.000000
54.033800 151920.800000
55.017900 119941.600000
55.054200 636123.000000
56.049500 490076.800000
58.065100 20278.200000
60.044400 88932.900000
65.038500 73816.300000
67.054200 1727093.600000
68.049400 282549.000000
68.997000 33116.500000
69.044700 116663.900000
69.057200 9046.800000
69.069800 86942.700000
70.028700 34972.400000
70.065100 114972.700000
71.012800 8086.200000
72.080700 368197.500000
78.033800 155941.200000
79.029000 70184.500000
79.054200 949451.600000
80.049400 2576436.200000
81.044800 623774.900000
81.069800 3562408.500000
82.052400 12878.000000
82.065000 33024.600000
83.085500 99578.200000
84.044300 62357.900000
84.080800 206184.500000
86.023700 9396.600000
91.054200 74986.400000
93.044800 26115.000000
93.069900 151098.400000
94.065100 28621.300000
95.060400 2326108.500000
95.085500 2487436.200000
96.044400 728911.500000
96.055600 853919.900000
96.080800 61637.900000
97.039600 2204239.000000
98.060000 96775.800000
98.096400 851362.900000
104.049500 19560.700000
105.044700 128504.600000
105.069800 108492.700000
106.040000 176608.000000
106.065200 21055.400000
107.060300 43815.100000
107.085500 150667.000000
108.055600 179553.800000
108.080800 37172.200000
109.064800 2669115.500000
109.101100 847456.100000
110.059900 17873.100000
110.096500 92418.700000
111.055300 31256.700000
114.091700 8015.400000
117.069600 35546.300000
119.060400 78592.100000
120.055600 323728.200000
121.064000 8854.700000
121.076000 65982.000000
122.071200 6996554.000000
123.080300 596004.200000
124.050500 10577.500000
124.112100 93436.500000
126.091400 114245.100000
131.060400 95249.100000
132.055500 104528.600000
133.063400 443576.400000
134.071100 20148.400000
134.096400 55116.900000
135.080100 33581.400000
136.086700 21584.400000
140.106900 257669.300000
146.071200 45777.500000
147.066600 18900.600000
148.086900 896830.500000
149.082200 7609.100000
150.091800 12667.700000
150.102600 221758.700000
151.075100 33477.800000
152.106900 223937.200000
162.089800 15487.600000
168.101900 71173.800000

