>compound LU57479028
>parentmass 273.09099999999995
>ionization [M+H]+
>formula C19H12O2
>rt 1174.420000
>profile orbitrap
#smiles_iso C1=CC=C(C=C1)C2=CC(=O)C3=C(O2)C=CC4=CC=CC=C43
#smiles_can C1=CC=C(C=C1)C2=CC(=O)C3=C(O2)C=CC4=CC=CC=C43
#inchikey OUGIDAPQYNCXRA-UHFFFAOYSA-N
#pubchem_id 2361
#mb_accession LU117901,LU117902,LU117903,LU117904,LU117905,LU117906

>ms2peaks
127.055000 32306.700000
272.083700 25695.400000
273.090900 18421324.000000

>ms2peaks
127.055100 34119.800000
171.043900 16496.400000
272.084400 19741.700000
273.090800 16419716.000000

>ms2peaks
103.054200 182075.800000
105.033500 49985.700000
115.054200 227576.200000
127.054800 35093.400000
129.033400 582441.000000
143.049100 197066.100000
145.064700 60149.200000
161.059300 16964.200000
171.044000 661754.800000
202.077700 150287.900000
215.085100 29774.900000
216.092700 19151.800000
217.101100 349793.200000
227.085400 50043.700000
228.093500 57199.500000
229.100900 26800.600000
245.095700 45490.600000
272.083900 21889.900000
273.090800 14591691.000000

>ms2peaks
53.038600 13030.300000
68.997100 123151.200000
75.022900 6658.100000
77.038600 12972.000000
95.049200 41987.800000
102.046400 8748.100000
103.054200 1034898.300000
105.033500 210552.200000
114.046400 5735.600000
115.054200 2503220.000000
117.070000 22965.200000
126.046400 7338.000000
127.054200 166359.100000
128.061800 6367.000000
129.033400 2487871.000000
130.041100 6168.200000
131.049000 8151.000000
139.054100 18859.600000
143.049200 903591.900000
144.056800 13156.900000
145.064800 568024.700000
156.057300 6845.400000
159.080100 7141.600000
161.059700 58440.000000
167.049000 25765.400000
169.064700 6349.800000
171.044000 1647170.100000
175.075400 36193.300000
190.077600 13069.300000
202.077700 878582.700000
203.085300 39781.100000
204.093400 8960.800000
205.101500 22461.800000
215.085500 183852.200000
216.093300 128960.400000
217.101100 740912.700000
219.080200 7444.100000
226.077700 104835.900000
227.085400 156542.400000
228.093300 212537.300000
229.101100 37028.400000
231.080600 33968.000000
244.088200 28574.400000
245.096300 63536.800000
255.080200 30053.900000
272.083000 9523.400000
273.090900 5265317.000000

>ms2peaks
50.015100 5913.300000
51.022900 9826.300000
53.038600 83483.100000
63.023000 14106.500000
68.997000 231351.100000
74.014900 6535.400000
75.022700 25077.100000
77.038400 51320.200000
81.033300 6075.900000
89.038400 7560.400000
91.054200 12058.200000
94.041200 5641.900000
95.049100 230009.700000
101.038600 19054.600000
102.046300 40267.400000
103.054200 1640798.500000
105.033500 259521.600000
115.054200 5438116.500000
117.069800 58803.300000
119.049100 15161.900000
126.046400 71946.600000
127.054200 888809.400000
128.061900 16444.100000
129.033400 3103963.500000
130.041300 10668.500000
131.048900 15208.100000
139.054100 27207.600000
143.049100 862597.900000
144.057200 30933.300000
145.064700 1440004.200000
152.062000 11004.400000
153.069700 14900.500000
156.057200 13507.200000
159.080300 18470.500000
161.059600 47209.800000
167.049200 14604.600000
169.064800 8328.800000
171.044000 979831.900000
175.075200 18673.100000
190.077600 22889.700000
201.069700 5925.400000
202.077700 1121395.400000
203.085400 33016.900000
204.093300 16127.200000
215.085400 373924.800000
216.093300 179548.500000
217.101100 266991.700000
219.080500 11528.500000
226.077600 189455.000000
227.085400 98157.100000
228.093300 183073.500000
231.080000 15833.100000
243.080000 5654.800000
244.088100 22944.500000
245.096100 18244.700000
255.080300 9037.800000
273.090900 695014.800000

>ms2peaks
50.015100 7105.400000
51.023000 8781.100000
53.038600 229441.600000
63.022900 10692.000000
68.997100 245486.200000
74.015000 10311.000000
75.022800 135333.500000
77.038500 111650.000000
81.033500 23025.900000
89.038500 29831.900000
91.054200 30685.100000
94.041200 42177.000000
95.049100 681314.600000
101.038600 74493.500000
102.046400 60868.500000
103.054200 1435286.600000
105.033500 155255.300000
109.064700 9924.900000
115.054200 6258945.500000
117.069800 73069.800000
119.049100 78106.400000
126.046400 348715.800000
127.054200 1981959.100000
128.062100 16518.400000
129.033400 2528630.000000
130.041300 9270.300000
131.048900 21727.100000
139.054100 34873.200000
143.049200 498144.300000
144.057000 36774.900000
145.064800 1729474.200000
152.061800 31973.400000
153.070000 19643.900000
156.057100 16893.200000
159.080500 27706.800000
161.059200 18169.000000
169.064600 8984.800000
171.043900 276151.900000
175.075300 7100.200000
190.077500 15227.400000
201.069700 12379.500000
202.077700 934554.000000
203.085500 25802.700000
204.093000 8437.900000
215.085400 482222.000000
216.093300 98293.700000
217.101300 37399.700000
219.080200 6992.300000
226.077600 237606.400000
227.085500 43306.900000
228.093300 77630.300000
244.087800 13573.400000
273.090800 48790.800000

