>compound LU57469294
>parentmass 284.0716
>ionization [M+H]+
>formula C13H15Cl2N3
>rt 1116.420000
>profile orbitrap
#smiles_iso CCCC(CN1C=NC=N1)C2=C(C=C(C=C2)Cl)Cl
#smiles_can CCCC(CN1C=NC=N1)C2=C(C=C(C=C2)Cl)Cl
#inchikey WKBPZYKAUNRMKP-UHFFFAOYSA-N
#pubchem_id 91693
#mb_accession LU041101,LU041102,LU041103,LU041104,LU041105,LU041106

>ms2peaks
70.039900 7429645.000000
158.976200 674480.900000
172.992000 458323.900000
215.038800 151579.300000
284.071600 8843793.000000

>ms2peaks
70.039900 12573456.000000
158.976300 3756365.800000
172.992000 1190014.600000
215.039000 73172.000000
284.071600 741090.900000

>ms2peaks
53.002200 97962.100000
55.054200 67828.600000
57.069900 4004409.800000
58.065100 1013137.700000
60.080800 17165628.000000
69.069800 77592.600000
70.039900 8668116.000000
71.085500 2521637.200000
83.085600 21157.600000
85.101100 1238688.200000
134.096600 21560.900000
137.015400 74177.900000
158.976300 4703072.000000
172.992000 730013.600000

>ms2peaks
53.002200 282401.300000
55.054200 147501.800000
57.069900 5046242.500000
58.065100 1667119.400000
59.072900 52439.300000
60.080700 19446292.000000
69.069800 83329.000000
70.039900 9918341.000000
71.085500 1983697.200000
74.096300 24032.600000
83.085400 23245.200000
85.101100 666347.400000
102.046300 72343.900000
122.999400 74001.500000
137.015200 333667.100000
138.023300 20621.800000
158.976200 7439127.500000
172.991800 588157.900000

>ms2peaks
53.002200 123204.700000
55.054300 48301.000000
57.069900 1026614.400000
58.065100 484293.100000
59.073000 30987.000000
60.080800 4226036.000000
69.069900 18451.900000
70.039900 8185168.000000
71.085500 185833.100000
72.984000 9824.000000
75.022800 8197.200000
85.101300 31722.300000
89.038500 58992.700000
91.054300 21827.700000
98.999600 90845.900000
101.038800 9344.400000
102.046400 265335.700000
119.049300 22383.800000
122.999600 568278.700000
124.007400 144131.500000
129.044600 64047.200000
132.960700 52141.700000
134.096300 21227.500000
137.015300 422599.400000
138.023200 44950.400000
158.976300 7474630.000000
172.992100 177768.800000

>ms2peaks
53.002300 501388.300000
55.054300 241198.900000
56.049600 24129.100000
57.069900 2602366.000000
58.065200 2169314.800000
59.073000 112058.500000
60.080800 12024347.000000
69.069900 45605.300000
70.040000 7241224.500000
71.085500 203930.900000
72.984000 46380.100000
75.022900 18059.600000
77.038700 14338.800000
85.101000 20426.100000
89.038600 385960.800000
91.054300 48699.900000
98.999600 341714.400000
101.038600 23728.700000
102.046400 405224.200000
114.127700 19729.000000
119.049200 87250.600000
122.999700 1608714.600000
124.007500 522995.600000
129.044800 155189.700000
132.960700 214966.600000
137.015300 199344.800000
138.023200 41131.800000
158.976400 5830950.500000
172.992300 36024.900000

