>compound LU58970451
>parentmass 292.1001999999999
>ionization [M+H]+
>formula C15H17NO3S
>rt 677.320000
>profile orbitrap
#smiles_iso CCN(CC1=CC(=CC=C1)S(=O)(=O)O)C2=CC=CC=C2
#smiles_can CCN(CC1=CC(=CC=C1)S(=O)(=O)O)C2=CC=CC=C2
#inchikey BQGRVFPPZJPWPB-UHFFFAOYSA-N
#pubchem_id 66858
#mb_accession LU087901,LU087902,LU087903,LU087904,LU087905,LU087906

>ms2peaks
106.065000 38215.300000
120.080800 111256.600000
121.088600 1144904.400000
182.096600 3921.300000
210.126800 4737.000000
225.114700 6291.000000
264.068700 10269.800000
292.100300 3314474.500000

>ms2peaks
77.038600 5991.600000
93.057300 4772.100000
106.065200 522293.800000
120.080900 180855.300000
121.088700 3880345.200000
134.096500 10945.700000
171.011100 143051.000000
181.088800 5909.300000
182.096500 25898.900000
196.075400 12652.700000
197.083700 8279.600000
200.107600 6337.900000
210.128000 20697.400000
225.115200 13524.000000
263.061000 22526.600000
264.069000 29894.500000
292.100400 568111.900000

>ms2peaks
53.038500 3123.500000
77.038500 7688.500000
79.054300 13537.900000
91.054200 3034.900000
93.057400 14077.000000
95.049300 6654.400000
106.065100 2278440.800000
120.080900 115019.500000
121.088600 2551385.200000
134.096300 8886.700000
165.070100 14074.400000
171.011000 264486.100000
180.080900 5809.500000
181.088100 5011.000000
182.096600 24203.300000
196.075800 5568.100000
197.083400 3862.500000
200.106700 4042.700000
210.128600 2712.600000
262.053800 2622.900000
263.061300 31290.800000
264.068800 3948.500000
292.099900 11924.300000

>ms2peaks
53.038600 16973.300000
77.038200 10155.500000
79.054200 69802.300000
91.054100 4601.300000
93.057500 10541.700000
95.049200 47720.300000
103.054300 4854.100000
105.044800 20704.400000
106.065100 3774911.800000
118.065200 6425.100000
120.080800 80318.900000
121.088600 833007.800000
134.096200 4145.200000
165.070000 16102.600000
171.011000 207414.000000
180.080800 13054.800000
181.088900 4970.900000
182.096600 14622.000000
262.053400 8584.400000
263.060900 10282.100000

>ms2peaks
51.023000 5325.600000
53.038600 33746.300000
77.038400 15373.700000
79.054200 109820.800000
91.054200 5578.100000
93.057400 8194.200000
95.049200 98701.500000
104.049400 4802.200000
105.044800 41719.200000
106.065100 3313696.500000
118.065000 5870.200000
120.080800 49831.200000
121.088600 139519.200000
165.069900 13917.800000
171.011000 65720.100000
180.080800 13428.400000
181.088700 4989.300000
182.096500 6028.100000
262.054000 3565.300000

>ms2peaks
50.015100 4685.400000
51.023000 9380.300000
53.038600 75146.600000
77.038400 42657.800000
78.046400 25143.800000
79.054200 248810.900000
90.046400 17916.200000
91.054300 6561.400000
93.057400 10612.300000
95.049200 237049.700000
103.054000 5739.900000
104.049500 8085.000000
105.044800 92622.700000
106.065100 3833601.500000
118.065100 9192.500000
120.080800 55533.300000
121.088600 39355.500000
165.070000 12285.100000
171.011000 19118.100000
180.080800 21712.200000
181.088800 4605.400000

