>compound LU58161622
>parentmass 171.032
>ionization [M+H]+
>formula C7H7ClN2O
>rt 60.960000
>profile orbitrap
#smiles_iso C1=CC(=CC=C1NC(=O)N)Cl
#smiles_can C1=CC(=CC=C1NC(=O)N)Cl
#inchikey RECCURWJDVZHIH-UHFFFAOYSA-N
#pubchem_id 8796
#mb_accession LU129801,LU129802,LU129803,LU129805

>ms2
55.054300 5081.000000
72.044400 88721.500000
73.028500 4720.300000
114.971000 26597.100000
128.986600 34535.500000
139.007600 4962.900000
143.002300 41591.100000
152.986900 5557.800000
155.002200 21645.400000
157.017900 459946.200000

>ms2
55.054300 4565.800000
72.044400 106394.900000
73.028400 5012.500000
114.971000 19184.300000
128.986600 26027.700000
139.007000 3324.700000
143.002400 28711.700000
152.986700 2548.000000
155.002400 16634.500000
157.017900 302440.800000

>ms2
55.054200 34697.000000
72.044400 257171.900000
73.028300 3599.800000
92.049300 2290.500000
93.057300 217039.200000
114.971000 4681.900000
126.010500 76175.300000
128.026200 383800.700000
128.986500 6580.000000
143.001700 2294.100000
154.005500 50162.400000
157.018000 5996.500000

>ms2
55.054200 166303.100000
72.044300 380547.800000
73.028300 1675.700000
92.049600 7376.300000
93.057300 664298.900000
114.970700 10558.900000
126.010500 102416.100000
128.026100 83719.000000
128.986400 5210.000000
139.005600 7858.500000
154.005400 3752.000000

