>compound LU58707889
>parentmass 208.1332
>ionization [M+H]+
>formula C12H17NO2
>rt 1053.420000
>profile orbitrap
#smiles_iso CC1=CC(=CC(=C1)OC(=O)NC)C(C)C
#smiles_can CC1=CC(=CC(=C1)OC(=O)NC)C(C)C
#inchikey DTAPQAJKAFRNJB-UHFFFAOYSA-N
#pubchem_id 17516
#mb_accession LU059201,LU059202,LU059203,LU059204,LU059205,LU059206

>ms2
72.044400 1694.700000
109.064800 31796.500000
151.111800 40469.300000
208.133300 3061.100000

>ms2
72.044300 3353.300000
109.064800 45494.400000
151.111800 15453.600000
208.133100 1698.100000

>ms2
72.044400 3539.700000
109.064800 64385.700000
151.111900 3055.000000

>ms2
72.044400 5370.600000
91.054400 2328.300000
109.064900 41301.000000

>ms2
72.044400 4981.000000
81.069900 3979.400000
91.054300 7507.900000
94.041600 1929.800000
107.049300 1870.000000
109.064800 36614.100000

>ms2
72.044300 3725.000000
81.069900 2906.700000
91.054300 9833.100000
94.041400 5608.500000
107.049200 2661.700000
109.064800 16956.800000

