>compound LU58643678
>parentmass 296.1605
>ionization [M+H]+
>formula C14H21N3O4
>rt 1210.020000
>profile orbitrap
#smiles_iso CCC(C)NC1=C(C=C(C=C1[N+](=O)[O-])C(C)(C)C)[N+](=O)[O-]
#smiles_can CCC(C)NC1=C(C=C(C=C1[N+](=O)[O-])C(C)(C)C)[N+](=O)[O-]
#inchikey SPNQRCTZKIBOAX-UHFFFAOYSA-N
#pubchem_id 36565
#mb_accession LU027701,LU027702,LU027703,LU027704,LU027705,LU027706

>ms2peaks
57.069900 7284.600000
58.065200 2363.800000
240.098000 166663.700000

>ms2peaks
57.069900 12419.600000
58.065200 1527.100000
147.116800 10002.000000
222.087500 31787.200000
223.095600 3879.500000
225.073100 3805.400000
240.098000 137377.400000

>ms2peaks
57.069900 16068.700000
117.069900 8816.600000
119.085700 3181.600000
132.081000 3233.400000
133.101100 2393.500000
145.101400 10187.400000
147.116900 66287.700000
159.091600 3303.500000
161.071100 3264.000000
208.071800 3389.400000
222.087600 44236.600000
223.095200 9497.700000
225.073200 1807.200000
240.098200 24990.900000

>ms2peaks
57.069900 18755.400000
79.054400 3888.100000
91.054300 11060.800000
93.070200 2488.000000
103.054400 2384.100000
105.070100 9634.300000
115.054300 3499.700000
117.070000 18780.700000
119.060400 2674.200000
119.085600 17145.600000
130.065500 3090.000000
130.077600 2415.500000
132.080800 3769.200000
133.101400 3234.300000
145.101200 12221.300000
147.116900 99337.300000
159.091800 4848.000000
161.071300 4254.800000
179.086100 2514.800000
208.071700 13978.800000
222.087400 11225.800000
223.094800 3188.300000
240.097600 1904.400000

>ms2peaks
57.070000 7487.900000
79.054200 3017.400000
91.054300 12519.800000
93.057400 2160.000000
105.070100 10378.800000
115.054400 2810.400000
117.070000 10758.800000
119.060700 2112.800000
119.085600 9157.900000
130.065300 2222.200000
132.081100 4016.300000
147.116900 24259.900000
208.072300 5526.300000

>ms2peaks
57.069900 5935.600000
79.054300 6462.400000
91.054300 24988.500000
93.057500 1932.200000
93.070000 2304.300000
103.054200 6222.700000
105.069900 11671.200000
115.054500 8116.100000
117.070000 22184.800000
119.085600 10856.700000
130.065200 2286.700000
130.077500 2091.400000
132.080800 12372.700000
145.101400 2125.100000
147.116900 9179.200000
179.086400 1991.300000

