>compound LU58636023
>parentmass 336.1361
>ionization [M+H]+
>formula C18H22ClNO3
>rt 1174.920000
>profile orbitrap
#smiles_iso CCCCCC(C)OC(=O)COC1=C2C(=C(C=C1)Cl)C=CC=N2
#smiles_can CCCCCC(C)OC(=O)COC1=C2C(=C(C=C1)Cl)C=CC=N2
#inchikey COYBRKAVBMYYSF-UHFFFAOYSA-N
#pubchem_id 93528
#mb_accession LU028601,LU028602,LU028603,LU028604,LU028605,LU028606

>ms2peaks
57.070000 29798.500000
220.016100 137677.000000
238.026500 18504194.000000
336.136000 15510277.000000

>ms2peaks
57.069900 739550.100000
179.013200 2609331.200000
192.021100 4378620.500000
220.016000 1062688.800000
238.026500 26264882.000000
336.136100 147657.200000

>ms2peaks
57.069900 1418749.400000
151.018300 23958.400000
179.013200 12463432.000000
180.021000 101168.900000
191.013400 16821.600000
192.021000 16284951.000000
220.016000 695616.200000
238.026500 6767517.500000

>ms2peaks
53.002200 37057.700000
57.069900 1481935.200000
127.041900 28697.700000
128.049300 48782.900000
129.057200 26854.400000
146.060000 31825.300000
151.018400 616966.500000
158.059900 16910.000000
162.010500 265822.800000
163.018500 53570.200000
164.026100 201268.100000
178.005300 50004.800000
179.013200 16793420.000000
180.020900 358519.800000
190.005600 24655.700000
191.013300 51157.700000
192.021000 16740389.000000
194.037000 28919.200000
220.016200 69290.300000
238.026500 524392.000000

>ms2peaks
53.002200 42702.900000
57.069900 1268000.000000
89.038600 21129.600000
104.049400 15436.700000
116.049400 46222.000000
126.033900 41205.200000
127.041600 314449.400000
128.049400 280065.100000
129.044700 21867.600000
129.057300 107195.300000
134.060100 88613.900000
137.015300 25640.100000
144.044500 198206.800000
145.052200 28260.500000
146.060100 131905.200000
150.010400 18520.000000
151.018400 4966118.500000
154.040100 49394.300000
156.044100 17701.100000
162.010500 1877402.900000
163.018400 281303.000000
164.026200 585389.900000
165.010100 58429.900000
178.005500 227037.300000
179.013300 14907610.000000
180.021000 1396594.500000
190.005500 52657.800000
190.016700 38478.900000
191.013100 141533.200000
192.021100 11077777.000000
194.036600 151812.200000
208.015800 28564.400000
238.026300 21415.700000

>ms2peaks
53.002200 62531.500000
55.054100 13648.000000
57.069900 734783.800000
89.038600 119562.100000
104.049400 22800.800000
116.049500 256662.400000
126.033800 254967.600000
127.041700 1434229.400000
128.049500 451400.600000
129.044800 77526.600000
129.057300 180265.200000
134.060000 881049.500000
137.015200 40691.500000
144.044400 771873.800000
145.052300 59308.900000
146.060000 162104.700000
150.010600 24840.000000
151.018300 10714096.000000
154.039900 353514.600000
156.044300 22385.800000
157.052300 11961.000000
158.060200 28255.000000
162.010500 2986368.000000
163.006600 62095.500000
163.018300 436686.700000
164.026100 518524.900000
165.010300 34192.100000
178.005500 430303.600000
179.013200 7477139.000000
180.021000 1666044.000000
190.005700 50076.100000
190.016800 50158.000000
191.013100 115745.900000
192.021100 4043198.200000
194.036700 187138.100000
208.016300 38812.100000

