>compound LU58565159
>parentmass 276.1343
>ionization [M+H]+
>formula C14H17N3O3
>rt 817.020000
>profile orbitrap
#smiles_iso CC1=CC(=C(N=C1)C2=NC(C(=O)N2)(C)C(C)C)C(=O)O
#smiles_can CC1=CC(=C(N=C1)C2=NC(C(=O)N2)(C)C(C)C)C(=O)O
#inchikey PVSGXWMWNRGTKE-UHFFFAOYSA-N
#pubchem_id 91770
#mb_accession LU061601,LU061602,LU061603,LU061604,LU061605,LU061606

>ms2
86.096200 29186.600000
187.123000 25803.400000
216.076800 22060.900000
230.128800 45706.700000
231.112600 132533.300000
234.087200 299557.700000
248.139200 254978.900000
258.123400 42528.400000
276.134000 16671502.000000

>ms2
58.065100 43969.300000
69.069800 141295.300000
71.085500 11680.900000
86.096400 662480.100000
97.064700 55473.100000
114.091300 54454.100000
119.060200 43452.500000
161.070700 23467.900000
162.066100 108705.600000
163.050100 318295.100000
180.076800 30315.700000
187.122900 427639.200000
188.081500 24138.000000
189.102400 29816.300000
190.086400 10319.800000
190.097400 39532.800000
204.149700 50959.500000
205.085200 20555.100000
213.102300 89648.100000
216.076700 595151.800000
230.128900 548442.200000
231.112800 2778928.200000
232.144200 26394.900000
233.079300 62042.600000
234.087200 2311717.500000
248.139300 1662707.900000
258.123600 221061.900000
276.134100 9993523.000000

>ms2
53.002200 20582.100000
53.038700 3968.400000
56.049400 3917.900000
58.065100 91152.800000
67.054200 19398.100000
69.069800 2045701.900000
70.065100 16965.900000
71.072800 12576.500000
71.085500 47176.200000
72.044300 5410.200000
72.080600 5473.700000
74.096400 5397.500000
84.080700 13940.800000
86.096400 2649043.000000
92.049600 7504.200000
94.065400 4536.700000
97.064800 146415.400000
114.091400 33565.900000
118.052800 7526.300000
119.060400 254017.300000
124.075700 19941.700000
145.039600 150229.800000
146.048100 6281.100000
146.096500 24132.500000
147.055400 21778.300000
147.091800 20303.600000
148.039600 5167.900000
150.055000 13059.400000
161.071000 273374.800000
162.066200 708275.100000
163.050100 3066715.800000
165.066200 10152.700000
170.096600 12968.700000
175.050200 12100.500000
177.065800 6740.900000
180.076700 34853.100000
185.107300 21259.600000
187.074100 31355.200000
187.123000 506499.800000
188.081800 673032.100000
189.102200 158351.500000
190.086300 39968.300000
190.097400 72532.800000
191.081200 37977.400000
198.078400 8467.600000
204.149600 13257.900000
205.084600 85289.800000
206.092100 11631.300000
213.102200 653905.100000
215.068900 68950.000000
216.076700 2617360.200000
220.108200 5893.400000
230.128900 508873.100000
231.112800 3420020.500000
233.079400 119449.900000
234.087200 1402599.400000
248.139300 462420.700000
258.123800 52782.300000
276.134200 801531.800000

>ms2
53.002200 106300.500000
53.038600 7350.300000
53.997500 20618.900000
55.017900 4182.400000
56.049500 17990.300000
58.065100 61746.800000
67.041600 5670.900000
67.054200 51318.500000
67.989300 6188.900000
68.049500 3844.700000
69.069800 2978520.500000
70.065100 41709.800000
71.072900 73113.500000
71.085400 27495.700000
72.044400 18345.600000
72.080700 5865.300000
79.041600 4150.100000
84.080700 4965.700000
86.096400 2729504.000000
90.033800 10287.500000
92.049500 14689.400000
94.052500 37158.000000
94.065100 12851.000000
96.044400 4423.000000
97.064700 57467.800000
98.060000 5914.500000
107.036600 12106.500000
108.044200 7183.500000
110.060000 99371.300000
114.091300 6140.300000
117.044900 16426.800000
118.052600 34166.900000
119.060400 334354.100000
120.068200 7615.600000
121.039700 18060.700000
121.076000 27068.200000
122.060000 11489.500000
124.075800 57177.000000
131.072700 5677.200000
135.055300 98836.800000
138.055000 66481.300000
144.080800 11689.600000
145.039700 1038193.600000
146.047600 26008.400000
146.096400 24924.600000
147.055300 222247.400000
147.091600 14844.900000
148.039300 5387.200000
150.055100 38154.200000
158.096600 4574.500000
159.079400 3772.500000
160.086900 4485.600000
161.071000 1103847.100000
162.066200 676906.200000
163.050200 3448369.500000
165.066800 8018.100000
168.080900 5865.900000
170.083800 14777.100000
170.096800 19332.200000
171.055000 5402.300000
171.091700 6775.700000
172.075700 7390.500000
172.099200 19675.600000
174.078600 9600.400000
175.050300 5097.300000
177.065800 69490.700000
180.076700 5103.800000
185.107400 47563.000000
186.066300 11964.500000
186.091700 7246.100000
187.074100 72448.400000
187.123000 91546.500000
188.081900 1299895.400000
189.102300 110647.500000
190.086200 21386.800000
190.097400 26565.500000
191.081600 29471.100000
195.091900 5222.900000
198.078800 30847.400000
205.084600 75922.300000
206.092500 30058.100000
213.102300 319024.300000
215.068700 81170.500000
216.076800 1401687.400000
220.108600 5042.700000
230.128700 40944.500000
231.112800 344372.200000
233.079500 30956.700000
234.087300 111242.900000
246.087400 8025.700000
248.139400 15800.200000
276.134100 9142.500000

>ms2
52.018300 3718.400000
52.030900 5177.600000
53.002200 187440.500000
53.997500 37708.600000
56.049500 46418.500000
58.065100 49744.300000
63.022900 11169.600000
65.038700 16118.400000
67.041600 20972.300000
67.054200 68693.900000
67.989300 7318.400000
68.049500 4190.100000
69.069900 2450028.800000
70.065100 79484.900000
71.073000 199590.700000
71.085500 13523.700000
72.044400 24005.200000
72.080800 3564.100000
78.008700 6715.500000
79.041600 12870.300000
79.054200 5031.200000
80.049600 18575.800000
81.033600 9330.400000
82.041300 5823.300000
82.065100 11887.000000
84.081000 8822.900000
86.096500 1961174.600000
90.033900 123318.200000
91.041600 9201.000000
92.049500 52179.300000
93.044700 5475.000000
93.057300 19926.300000
94.052600 116177.100000
94.065100 33609.000000
96.044500 18861.100000
97.064800 23234.100000
98.060200 21152.800000
105.044900 3775.000000
106.065300 10332.700000
107.036600 62353.300000
107.060400 24061.500000
108.044400 30845.200000
109.052300 19148.000000
110.060100 658134.100000
117.044800 153196.700000
118.052600 77110.400000
118.065200 45926.700000
119.060500 473037.000000
120.044200 4908.600000
120.068200 9039.600000
120.080800 6543.300000
121.039700 45643.100000
121.076100 32558.700000
122.047400 6671.300000
122.060100 27884.800000
124.075800 64329.400000
125.047300 15061.900000
126.055000 9214.400000
131.072800 19216.900000
133.076000 15287.500000
135.055300 695807.900000
138.055100 223398.100000
143.060400 5490.200000
144.055900 3913.900000
144.080900 23511.600000
145.039700 2325573.800000
146.047500 21337.600000
146.083900 6697.000000
146.096700 11255.800000
147.055300 476396.700000
148.039400 5767.600000
149.071200 8577.700000
150.055000 34316.300000
158.071300 6134.600000
158.096500 13001.200000
159.079100 10227.000000
160.087100 19993.200000
161.071100 1636654.000000
162.066300 366580.100000
163.050300 2067028.800000
165.066300 4092.300000
168.081100 6062.700000
170.084000 35727.800000
170.096600 8123.800000
171.055400 6207.400000
171.091800 16819.600000
172.076200 5892.000000
172.099700 13815.400000
174.078700 18254.400000
177.065900 146671.600000
185.107200 34970.300000
186.066600 13460.900000
186.091400 4421.700000
187.074100 41298.300000
187.123000 9888.000000
188.082000 567210.900000
189.102400 39044.200000
190.086500 5638.300000
190.097800 5454.600000
191.081000 5529.600000
198.079100 33833.000000
200.082500 10230.700000
205.084600 34184.700000
206.092900 12524.400000
213.102400 55585.500000
215.069300 15534.900000
216.076900 331959.800000
231.112800 17760.700000

>ms2
52.018200 17380.200000
52.030800 6189.300000
53.002200 244634.200000
53.038700 14357.600000
53.997400 37115.700000
55.017900 4909.000000
56.049500 101318.300000
58.065100 39107.000000
63.022900 73483.300000
65.038600 91674.600000
67.041600 36874.000000
67.054200 64761.100000
67.989300 7579.000000
68.049300 9957.300000
69.069800 1616219.100000
70.065100 143385.600000
71.072900 355965.900000
72.044400 10857.500000
72.080800 4672.800000
74.096300 6768.600000
78.008700 4681.800000
79.041500 15430.200000
79.054200 21490.000000
80.049500 44814.100000
81.033400 44081.800000
82.041300 5173.300000
82.065100 18345.300000
84.080700 3693.700000
86.096400 981161.700000
90.033900 567393.300000
91.041700 52631.100000
92.049500 151952.500000
93.044700 8366.200000
93.057400 38672.600000
94.052600 159175.500000
94.065100 51037.600000
96.044400 40100.200000
97.065100 3312.000000
98.060000 16596.900000
105.045000 10628.000000
106.065000 16382.200000
107.036600 75463.500000
107.060400 54113.100000
108.044400 98552.800000
109.052300 21609.400000
110.060100 1651051.600000
117.044700 461699.400000
118.052500 96445.100000
118.065100 100300.600000
119.060400 510224.100000
120.044500 10568.300000
120.068100 3930.200000
120.080400 4905.700000
121.039700 47520.300000
121.076000 24634.700000
122.047500 8126.200000
122.060100 31030.900000
124.075800 60988.700000
125.047200 32059.700000
126.054900 21271.800000
131.073000 19676.000000
133.076100 28630.300000
135.055300 1337496.900000
138.055000 200726.300000
143.060400 31494.200000
144.055800 7233.700000
144.081000 29627.500000
145.039700 1698231.400000
146.047500 10008.700000
146.083600 4748.200000
147.055300 306916.100000
149.071000 12970.500000
150.055000 11913.400000
158.071300 5431.500000
158.096400 7621.800000
159.079100 4428.400000
160.087200 20677.000000
161.071000 979337.400000
162.066200 103322.000000
163.050200 722542.200000
168.081400 5290.700000
170.083800 25271.500000
171.091900 15745.400000
172.099500 6060.100000
174.078500 10385.600000
177.065800 119528.700000
185.107800 8057.800000
186.066200 11627.400000
187.073600 9722.800000
188.082000 87516.100000
189.102000 3456.100000
190.085900 3527.000000
198.078800 14587.800000
200.081600 13961.000000
205.084300 5365.500000
213.102500 4299.900000
216.076700 40354.900000

