>compound LU59905199
>parentmass 256.0596
>ionization [M+H]+
>formula C9H10ClN5O2
>rt 740.460000
>profile orbitrap
#smiles_iso C1CN(C(=N1)N[N+](=O)[O-])CC2=CN=C(C=C2)Cl
#smiles_can C1CN(C(=N1)N[N+](=O)[O-])CC2=CN=C(C=C2)Cl
#inchikey YWTYJOPNNQFBPC-UHFFFAOYSA-N
#pubchem_id 86418
#mb_accession LU006001,LU006002,LU006003,LU006005,LU006006

>ms2
56.049500 33184.700000
72.068200 2475.100000
84.055600 219034.200000
97.063400 6849.800000
98.071200 2922.100000
99.055100 15761.400000
126.010600 7429.200000
127.018500 2090.900000
128.026100 75736.200000
151.018500 8105.000000
167.024500 2281.300000
168.032000 2223.900000
173.082800 2912.100000
174.090000 98587.800000
175.097800 656589.600000
181.027600 2067.400000
194.047600 4887.100000
195.031900 2380.900000
209.058900 858364.200000
210.066700 411877.900000
212.058500 337894.400000
226.061400 8922.700000
256.059500 653499.200000

>ms2
56.049500 48454.100000
71.060300 3699.600000
72.068100 9657.200000
84.055700 343388.800000
97.063500 15869.300000
98.071400 12521.400000
99.055400 49045.900000
126.010600 29687.600000
127.019000 2747.200000
128.026200 194206.700000
141.021500 2751.700000
151.018300 21687.000000
167.024500 7634.500000
167.037000 4550.900000
168.032000 2883.500000
173.082600 14596.800000
174.090200 139113.700000
175.097900 1133675.100000
176.081900 2667.200000
181.040200 2374.700000
193.040400 7118.800000
194.048200 5767.300000
195.032100 7998.300000
195.043300 5754.100000
209.059000 1229584.800000
210.066800 171653.400000
212.058600 212469.200000
226.061500 3469.400000
256.059600 55155.700000

>ms2
56.049500 54729.200000
71.060300 9777.600000
72.068100 11304.600000
84.055700 323232.100000
92.049600 4033.400000
97.063400 18533.900000
98.071300 20479.300000
99.055300 53651.500000
126.010600 63824.900000
127.018300 3513.100000
128.026200 191050.000000
133.063600 2339.200000
133.076100 7097.100000
140.013800 3131.200000
141.021500 8815.900000
146.058800 9203.200000
146.071400 21501.400000
147.066500 13714.500000
148.086900 7885.400000
151.018400 22725.200000
152.013700 2547.000000
158.071600 7127.100000
159.066700 2283.000000
159.079200 4255.200000
167.024600 12737.800000
167.037000 16273.700000
168.032400 2715.500000
173.082400 34575.700000
174.090200 137479.400000
175.097900 1180374.800000
176.081700 4622.900000
180.032400 6972.100000
181.027500 12201.200000
181.040300 5337.000000
192.032300 3243.300000
193.040400 9719.200000
194.048300 10056.900000
195.032600 3081.700000
195.043300 5247.700000
209.059000 1057688.000000
210.066600 30200.300000
212.058700 34557.400000

>ms2
54.033900 2616.300000
56.049500 37618.700000
57.044700 7388.500000
65.038600 12413.200000
69.044600 9104.100000
70.028700 4332.100000
71.060300 14636.100000
78.033800 2867.400000
79.054200 2643.300000
80.049400 12921.300000
84.055600 166073.500000
90.033700 17023.900000
91.041500 5478.100000
92.049400 16060.100000
93.044800 2328.700000
93.057300 14560.300000
95.060300 2781.900000
96.044400 12170.400000
96.055800 2508.300000
97.063400 3441.000000
98.071300 8639.800000
98.999600 10672.600000
99.055300 16932.300000
104.049500 4688.300000
105.044800 25211.700000
106.052500 4092.900000
106.065100 28886.500000
107.060400 26263.500000
108.044500 2481.200000
108.068200 8248.200000
109.063400 3921.300000
110.060100 6251.700000
113.002600 3142.900000
114.010600 10111.100000
117.045000 2637.700000
118.052500 7892.700000
119.047900 9891.600000
119.060400 32504.300000
120.055600 23973.200000
120.068200 3790.500000
121.076100 3898.400000
122.071200 5534.200000
123.055300 6690.400000
126.010500 67051.500000
127.018400 17573.400000
128.026100 59217.500000
130.005300 2220.200000
131.048000 3268.800000
131.060400 26480.100000
132.055700 14069.400000
132.068300 7606.900000
133.063500 64113.100000
133.076000 41815.100000
134.060000 3386.400000
134.071300 39092.500000
134.083900 3305.400000
135.055500 5322.200000
135.079000 7431.200000
138.010500 3203.500000
139.005800 9124.900000
140.013600 2998.200000
140.026200 7768.700000
141.021500 43814.000000
144.021000 9342.100000
144.992500 8015.000000
145.051100 5072.800000
146.059200 12521.700000
146.071300 91283.100000
147.066500 123389.900000
147.079200 7502.800000
148.074100 5770.000000
148.087000 49314.600000
149.071400 2149.300000
150.066200 4490.000000
151.018400 7325.300000
152.013400 3148.100000
153.021300 5885.600000
154.016900 2010.000000
157.063500 10124.800000
158.071300 51287.300000
159.068000 10855.000000
159.079200 78878.200000
160.074700 4370.900000
166.016600 16949.200000
167.024800 4034.800000
167.037100 29181.100000
168.032300 2820.100000
173.082200 137951.000000
174.090000 97539.400000
175.097900 431254.400000
180.019900 7420.900000
180.032200 8250.000000
181.027600 32442.900000
191.092900 23451.400000
192.031900 2341.900000
193.027700 1952.300000
194.048400 11910.200000
207.043400 7749.200000
208.051000 29850.200000
209.058900 518711.300000

>ms2
54.033900 8588.800000
56.049500 39579.000000
57.044800 12138.500000
65.038600 31073.500000
69.044700 22163.500000
70.028800 5818.700000
71.060400 13953.100000
78.033700 13070.800000
79.054200 9611.000000
80.049500 38526.100000
84.055700 152371.700000
90.033900 32299.400000
91.041700 7406.200000
92.049500 26905.800000
93.044800 9784.500000
93.057400 18443.200000
95.060400 6841.300000
96.044400 29666.700000
96.055600 3750.800000
98.071300 6246.700000
98.999600 25999.000000
99.055300 12063.100000
104.049500 18999.500000
105.044800 80080.900000
106.052600 12484.400000
106.065200 47629.800000
107.060500 47965.000000
108.044500 5050.400000
108.068000 12025.000000
109.063500 12398.300000
110.060000 8858.500000
113.002700 3904.900000
114.010500 15188.600000
117.044700 8223.100000
118.052600 24157.800000
119.048000 16243.700000
119.060500 56605.900000
120.055700 56794.900000
120.068300 4921.900000
121.076200 4999.600000
122.071200 7861.300000
123.055400 17045.500000
126.010600 51986.500000
127.018400 26835.800000
128.026300 31707.000000
130.005600 4142.200000
131.048000 7028.300000
131.060400 48564.300000
132.055700 28895.800000
132.068200 18752.600000
133.063600 91909.400000
133.076000 39525.400000
134.060000 6273.100000
134.071400 42839.200000
134.083800 2472.000000
135.055400 12686.500000
135.079200 12369.800000
138.010600 6708.400000
139.005700 16454.000000
140.026200 8848.100000
141.021500 44723.900000
144.021400 10502.000000
144.992400 14055.000000
145.050800 13250.900000
146.059100 11183.300000
146.071400 85243.900000
147.066600 132403.400000
147.079100 7809.600000
148.074400 8850.900000
148.086900 51333.300000
149.071100 2655.800000
150.066300 4655.900000
151.018500 5198.900000
152.013300 3276.300000
153.021500 4315.400000
154.016800 6552.100000
157.063700 27592.100000
158.071400 60394.000000
159.066600 12071.300000
159.079200 106057.800000
160.074500 2719.700000
166.016800 37824.200000
167.037200 22791.400000
173.082300 179542.000000
174.090100 84353.100000
175.097900 150227.100000
180.019700 30567.500000
180.032300 7865.100000
181.027600 36246.600000
191.093000 30780.200000
193.027800 6173.600000
194.048000 9862.000000
207.043600 9139.800000
208.051200 38522.600000
209.059000 288046.800000

