>compound LU59490869
>parentmass 145.1335
>ionization [M+H]+
>formula C7H16N2O
>rt 714.190000
>profile orbitrap
#smiles_iso CC(C)NC(=O)NC(C)C
#smiles_can CC(C)NC(=O)NC(C)C
#inchikey BGRWYRAHAFMIBJ-UHFFFAOYSA-N
#pubchem_id 20084
#mb_accession LU036001,LU036002,LU036003,LU036004,LU036005,LU036006

>ms2
53.002200 8696.200000
60.080800 3691998.000000
61.039600 293898.900000
74.096400 3751.500000
86.060100 109773.900000
103.086600 273091.200000
145.133600 1961616.200000

>ms2
53.002200 13637.800000
60.080800 3350865.800000
61.039600 271896.100000
86.060000 96659.300000
103.086600 260819.600000
145.133600 1714969.000000

>ms2
53.002300 16216.700000
53.997500 4211.800000
60.080800 2329415.200000
61.039700 576604.900000
86.060100 89888.600000
103.086600 282354.800000
145.133600 510043.900000

>ms2
53.002200 37937.500000
58.065200 6882.900000
60.080800 894990.800000
61.039700 896286.400000
86.060100 42967.400000
103.086600 175162.900000
145.133600 56062.500000

>ms2
53.002200 48499.300000
53.997400 5384.300000
60.080800 260864.900000
61.039700 818191.600000
86.060100 11397.900000
103.086600 55974.800000
145.133500 4525.900000

>ms2
53.002300 52342.400000
53.997500 6822.300000
58.065200 4657.800000
60.080800 81504.400000
61.039700 623549.800000
86.060000 3942.600000
103.086600 13999.600000

