>compound LU59945578
>parentmass 405.9938
>ionization [M+H]+
>formula C13H10Cl2FN5O3S
>rt 945.900000
>profile orbitrap
#smiles_iso CCOC1=NC(=CC2=NC(=NN21)S(=O)(=O)NC3=C(C=CC=C3Cl)Cl)F
#smiles_can CCOC1=NC(=CC2=NC(=NN21)S(=O)(=O)NC3=C(C=CC=C3Cl)Cl)F
#inchikey QNXAVFXEJCPCJO-UHFFFAOYSA-N
#pubchem_id 3081304
#mb_accession LU059001,LU059002,LU059003,LU059004,LU059005,LU059006

>ms2
160.979300 1129838.500000
176.974300 35874.400000
223.933600 20678.500000
314.000500 25880.000000
377.962700 1134153.000000
405.994000 3125760.800000

>ms2
108.960700 8154.400000
135.971700 6092.400000
146.940100 9163.400000
155.036300 8368.100000
159.971700 27927.900000
160.979400 5778727.500000
175.966600 89290.900000
176.974300 63684.500000
223.933500 142013.800000
279.031500 15374.200000
314.000900 76839.800000
377.962800 313309.400000
405.994400 30988.200000

>ms2
99.994700 8689.800000
101.002600 6765.600000
108.960700 11911.800000
135.971500 11876.900000
146.940000 17718.400000
155.036300 11924.300000
159.971600 53588.900000
160.979300 6299658.000000
171.971800 8870.200000
175.966400 151976.000000
176.974300 40112.500000
223.933400 21185.500000
231.030700 7422.800000
265.999800 17584.500000
279.031400 13683.800000
314.000900 10788.800000

>ms2
63.022900 7577.100000
67.029100 11928.700000
90.033900 26153.500000
98.999600 14703.200000
108.960800 6407.900000
123.994800 34617.800000
125.002700 73712.100000
126.010600 44613.600000
132.960800 14620.500000
142.005400 16754.900000
146.940000 8198.400000
147.971600 10870.100000
159.971700 57730.400000
160.979400 6380006.000000
166.016500 7680.600000
171.971400 14969.400000
175.966600 121709.400000
176.974200 29968.100000

>ms2
63.022900 36535.500000
67.029000 9436.100000
72.983800 13063.900000
80.049400 6384.200000
81.033600 31941.700000
89.026000 7212.400000
90.033900 154370.200000
97.991800 9045.100000
98.999600 71416.000000
101.002700 5874.100000
108.044500 21212.200000
113.014800 6006.000000
114.010500 7614.600000
123.994900 58377.600000
125.002700 369703.500000
126.010600 189355.500000
132.960800 33789.500000
133.968500 75267.400000
142.005400 23673.900000
147.971500 33457.000000
159.971600 34924.300000
160.979400 5486961.000000
166.016400 7691.700000
171.971600 10586.000000
175.966600 75441.800000
176.974400 16555.000000
186.982700 12549.200000

>ms2
62.015000 25798.000000
63.022900 163877.400000
65.026100 5649.500000
67.029100 9458.100000
72.983900 33150.300000
80.049400 18061.500000
81.033500 104265.000000
89.026000 25838.900000
90.033800 510940.000000
91.041600 19309.400000
96.984000 12523.800000
97.991800 25259.500000
98.999600 190020.100000
101.002700 10529.000000
108.044300 74988.600000
111.994900 3508.500000
113.014500 6868.300000
114.010600 7133.400000
123.994900 63560.400000
124.039300 10640.000000
125.002700 698152.800000
126.010500 312559.200000
132.055800 3424.200000
132.960600 40733.300000
133.968400 104358.900000
142.005600 15238.500000
147.971500 39705.400000
159.971600 13150.200000
160.979300 3393046.000000
164.000600 3495.200000
175.966500 30306.100000

