>compound LU59530915
>parentmass 271.1693
>ionization [M+H]+
>formula C18H22O2
>rt 1019.750000
>profile orbitrap
#smiles_iso C[C@]12C=CC3=C4CCC(=O)C=C4CC[C@H]3[C@@H]1CC[C@@H]2O
#smiles_can CC12C=CC3=C4CCC(=O)C=C4CCC3C1CCC2O
#inchikey MEHHPFQKXOUFFV-OWSLCNJRSA-N
#pubchem_id 25015
#mb_accession LU078701,LU078702,LU078703,LU078704,LU078705,LU078706

>ms2peaks
83.049100 8512.500000
189.127200 13375.600000
197.095900 8654.000000
199.111500 36700.200000
211.111700 7103.200000
253.158700 92331.600000
271.169100 7085796.500000

>ms2peaks
81.070100 9482.000000
83.049100 43428.900000
95.085700 8697.700000
105.069800 6080.600000
107.049200 9437.100000
107.085500 12761.200000
109.101300 6445.600000
121.064600 12514.300000
131.085500 6876.900000
133.064800 30497.500000
133.101100 8062.500000
135.080600 8431.700000
143.085500 18219.700000
145.065000 7339.700000
145.101100 20703.500000
147.080400 20336.800000
155.085700 7724.200000
157.064800 23043.200000
159.080500 50150.000000
159.116900 6638.400000
161.096000 13236.900000
169.101300 14133.600000
171.080300 12630.000000
171.116800 21806.600000
173.096200 8596.900000
179.085500 16139.400000
183.080600 15593.700000
183.116800 16281.800000
185.096200 24915.600000
187.111600 21607.200000
189.127500 48380.900000
193.101200 16794.900000
195.117300 21103.800000
197.096100 75404.900000
197.132600 6088.500000
198.103900 18242.300000
199.111800 290243.800000
207.117000 10789.900000
209.132800 19651.000000
211.111800 55993.800000
211.148200 19887.000000
212.120200 11208.300000
213.127500 10097.900000
214.135400 13405.200000
215.142900 7982.600000
224.119100 9052.200000
225.127500 46238.900000
225.164100 13447.900000
227.143100 71338.400000
235.148100 42060.500000
238.134300 11415.300000
243.174400 23053.300000
253.158700 606513.900000
271.169100 5868757.000000

>ms2peaks
55.017900 8540.600000
55.054300 16631.500000
57.033500 10738.700000
57.069900 2771.400000
67.054100 30395.300000
69.033300 2876.300000
69.069800 10630.400000
71.049000 8123.900000
79.054200 30995.600000
81.069800 45730.300000
83.049100 157882.700000
85.064700 8982.400000
91.054200 27317.800000
93.069900 44141.400000
95.049200 5854.600000
95.085500 30521.800000
97.064800 8833.800000
103.054400 3223.900000
105.069800 55023.900000
107.049100 105694.800000
107.085500 63362.300000
109.064800 24494.500000
109.101200 19913.800000
111.080400 10673.400000
115.054300 4646.200000
117.069900 20317.100000
119.085600 33446.500000
121.064800 64453.400000
121.101100 13129.000000
123.080300 10565.000000
125.095900 5222.500000
128.062000 5149.300000
129.069900 35371.100000
130.078200 2469.700000
131.049100 8922.700000
131.085500 57715.100000
133.064800 146536.800000
133.101100 49388.500000
135.080400 40512.700000
141.069800 37016.500000
142.077800 2868.200000
143.085500 80291.600000
144.057200 5989.400000
144.093100 2235.200000
145.064700 39552.800000
145.101200 109488.700000
146.109000 9154.800000
147.080500 57899.800000
147.116700 6620.600000
148.088200 28059.000000
149.096200 14678.600000
153.070000 9023.700000
155.085400 40212.600000
156.093500 6298.300000
157.064800 102969.700000
157.101100 30503.300000
158.072400 4650.000000
159.080400 191389.300000
159.116800 19910.400000
161.096100 36468.100000
162.103900 5368.600000
163.111600 7439.000000
165.069600 13427.600000
166.077800 11517.100000
167.085500 38386.300000
168.093200 5629.800000
169.101100 73310.800000
170.108700 2806.700000
171.080300 50289.500000
171.116700 64789.200000
173.096000 39672.000000
175.075300 2514.200000
175.111600 9868.000000
178.077500 16178.900000
179.085500 87763.000000
180.093500 9290.000000
181.101200 49797.600000
182.072500 4574.600000
182.108500 5482.000000
183.080600 48777.700000
183.116800 78009.400000
184.088200 30307.400000
185.096100 81290.800000
185.132500 10439.800000
186.103700 18401.100000
187.111700 62406.600000
188.120300 3397.400000
189.127400 40457.200000
191.085600 4751.100000
192.093500 5012.000000
193.101200 61024.700000
194.108900 7332.500000
195.116900 79527.500000
196.088500 11630.600000
196.124500 7371.000000
197.096200 185393.400000
197.132400 31093.700000
198.103900 100944.000000
199.111700 706181.800000
200.119600 47435.800000
201.127500 7782.000000
205.101100 12569.400000
206.108600 11471.300000
207.117000 50608.100000
209.096000 4040.600000
209.132500 63514.600000
210.103900 11395.100000
210.140300 2582.600000
211.111700 149894.500000
211.148000 49786.500000
212.119500 56827.400000
213.127400 34400.000000
214.135200 132017.000000
215.143100 32213.000000
219.117200 3548.500000
220.124300 30609.700000
223.111700 5643.800000
223.148100 20585.200000
224.119600 47171.200000
224.155600 4544.700000
225.127400 128100.000000
225.163500 26810.700000
227.143000 303734.400000
228.150800 15841.500000
233.132200 10401.800000
235.148000 108127.100000
237.127800 4503.600000
238.135100 76108.600000
242.130100 14829.500000
243.136800 2412.300000
243.174200 21417.200000
251.142400 12925.000000
253.158600 901396.700000
256.146500 3423.900000
271.169100 1724362.200000

>ms2peaks
53.038700 8588.900000
55.017900 26783.200000
55.054300 56774.100000
57.033600 14087.200000
57.069900 7181.300000
65.038500 5113.500000
67.054200 61416.400000
69.033500 5706.300000
69.069900 19182.300000
71.049100 21303.100000
77.038600 2465.100000
79.054200 94145.700000
81.069900 72759.700000
83.049100 258195.700000
85.064700 9104.900000
91.054200 111927.800000
93.069900 79499.900000
95.049200 29525.100000
95.085500 36172.100000
97.064800 14980.300000
103.054300 14307.900000
105.069900 156849.600000
107.049200 280109.900000
107.085500 70947.500000
109.064900 42299.200000
109.101300 14452.300000
111.080200 4376.400000
115.054000 20109.600000
116.062100 5016.400000
117.069900 78166.400000
118.077800 3773.500000
119.085600 56101.700000
121.064800 73609.900000
121.101200 9539.600000
123.080600 12438.800000
125.095800 4009.000000
128.062000 36332.200000
129.069900 101761.900000
130.077700 17971.800000
131.049200 29722.300000
131.085600 130239.500000
132.057100 4433.900000
133.064800 227388.600000
133.101200 42833.000000
134.072800 3297.300000
135.080400 66639.000000
141.069900 126782.500000
142.077800 31362.700000
143.085600 145351.000000
144.056900 30995.300000
144.093500 6295.500000
145.064900 73963.400000
145.101200 142861.700000
146.072700 14724.300000
146.109100 8322.200000
147.080600 67974.400000
147.117000 5342.100000
148.088200 35399.500000
149.096600 11668.600000
152.062600 7584.200000
153.069800 39280.300000
154.077800 24757.800000
155.085500 134947.000000
156.093300 24425.500000
157.064900 188193.100000
157.101200 71448.500000
158.072700 22029.300000
159.080500 203892.500000
159.117000 17846.900000
160.088500 5251.100000
161.096100 41225.800000
162.104100 4335.100000
163.111900 3472.500000
165.069900 70572.400000
166.077800 77244.800000
167.085600 106278.700000
168.093400 41134.300000
169.065000 10333.200000
169.101200 139745.400000
170.072700 11444.400000
170.109100 8774.800000
171.080500 79799.200000
171.116900 56318.500000
172.088200 10154.100000
173.096200 40045.700000
174.104000 5798.900000
175.075000 3046.100000
175.111600 4386.700000
178.077700 63601.300000
179.085600 141973.700000
180.093400 38186.700000
181.101200 125521.100000
182.072600 11836.100000
182.109200 19739.900000
183.080600 76604.800000
183.116900 113618.100000
184.088400 70892.300000
185.096100 130030.600000
185.132700 12649.800000
186.104000 60868.100000
187.111800 43863.500000
188.119900 5690.500000
189.127400 8322.800000
191.085400 15683.200000
192.093300 33289.600000
193.101300 84022.300000
194.109200 23889.900000
195.080600 13479.700000
195.117000 93785.400000
196.088400 23023.800000
196.124900 16970.600000
197.096200 156450.700000
197.132600 29823.000000
198.104000 143303.200000
199.111800 629915.900000
200.119600 118943.900000
201.127700 6246.900000
204.093100 2778.600000
205.101300 40170.700000
206.109000 21546.300000
207.116900 71979.000000
208.124900 4070.700000
209.096300 22419.800000
209.132500 54947.600000
210.104100 28490.600000
210.140100 5066.200000
211.111800 101832.300000
211.148100 39167.800000
212.119600 75454.800000
213.127500 47425.800000
214.135300 185689.500000
215.143300 19148.300000
218.109200 5670.900000
219.116200 11203.900000
220.124800 43042.800000
221.132700 5244.400000
223.112100 22744.200000
223.148000 11910.600000
224.119700 47438.600000
224.155900 5078.400000
225.127500 106181.800000
225.163500 12615.600000
226.134900 2885.700000
227.143000 226149.800000
228.150900 16192.500000
233.132400 9627.300000
235.148100 89527.200000
236.119400 4725.200000
237.127700 20750.800000
238.135200 114133.600000
242.129900 11273.800000
243.138200 4322.000000
251.143500 5747.800000
253.158700 293300.900000
256.145200 3328.000000
271.169200 208379.200000

>ms2peaks
53.002200 6845.800000
53.038600 20221.100000
55.017900 40381.000000
55.054300 83495.900000
57.033500 16550.900000
57.070100 3900.800000
65.038600 12119.700000
67.054200 66256.200000
69.033500 4041.300000
69.069800 12745.700000
71.049100 18360.400000
77.038700 6571.600000
79.054200 131063.500000
81.033500 4498.200000
81.069900 63124.900000
83.049100 228260.500000
85.064900 4447.200000
91.054300 211916.900000
92.062000 2681.400000
93.069900 67479.100000
94.041500 2579.000000
95.012800 552456.800000
95.049200 61810.400000
97.064900 8400.300000
103.054200 36166.600000
104.062200 6574.500000
105.069900 215851.300000
107.049200 311787.700000
107.085500 35516.000000
108.057300 3441.400000
109.064900 39781.100000
109.101300 3630.400000
115.054300 58569.200000
116.062100 20817.900000
117.069900 112022.900000
118.077600 5576.600000
119.049400 5106.100000
119.085600 49466.400000
121.064800 35256.000000
123.080400 6943.300000
128.062000 101932.200000
129.069900 165720.900000
130.077900 34625.400000
131.049200 39961.500000
131.085600 113420.700000
132.057200 13065.800000
133.064800 155406.000000
133.101300 17572.900000
135.080500 55106.700000
141.069900 199876.300000
142.077700 65840.300000
143.085600 130497.000000
144.057000 56470.600000
144.093400 9765.600000
145.064800 77722.000000
145.101200 79788.300000
146.072700 21281.200000
146.108900 6090.400000
147.080500 41301.800000
147.117000 3442.800000
148.088300 24082.800000
149.096200 4138.000000
152.062200 32894.700000
153.069900 79170.100000
154.077700 58725.700000
155.085600 174234.900000
156.093500 38566.000000
157.064900 198522.400000
157.101200 48285.500000
158.072700 33434.200000
159.080500 119042.300000
160.088300 4804.900000
161.096200 24191.000000
162.104400 3618.200000
165.069900 156747.800000
166.077800 114413.800000
167.085600 168890.800000
168.093400 53178.500000
169.064900 21230.600000
169.101200 108010.100000
170.072600 18922.500000
170.109100 10834.600000
171.080400 75271.100000
171.116900 29857.600000
172.088200 11367.300000
173.096100 20557.000000
174.104200 2725.700000
177.070100 3160.200000
178.077700 103337.700000
179.085500 139819.400000
180.093400 44509.600000
181.064800 19578.300000
181.101200 121212.400000
182.072800 23542.700000
182.109300 23943.900000
183.080500 85515.600000
183.116900 70133.900000
184.088400 57433.500000
185.096100 125926.300000
185.132800 7750.300000
186.103900 59658.100000
187.111600 14927.800000
188.119200 2688.600000
191.085400 32784.800000
192.093400 43765.200000
193.101200 52960.000000
194.072800 3708.000000
194.109200 23107.100000
195.080600 26322.400000
195.116900 57108.100000
196.088200 16522.000000
196.124700 10432.600000
197.096100 107651.000000
197.132700 10553.000000
198.104000 85102.500000
199.111800 357258.500000
200.119600 86747.300000
201.127800 3311.500000
203.085900 5051.200000
204.093200 5154.200000
205.101300 48220.800000
206.109100 14605.200000
207.116900 40309.400000
208.087900 4757.000000
209.096000 23410.200000
209.132600 21583.400000
210.103800 20611.700000
210.140600 3336.200000
211.111800 36889.000000
211.148600 10904.300000
212.119600 33432.400000
213.127500 33387.600000
214.135200 55400.700000
215.143300 7476.400000
218.109100 6153.300000
219.117000 16723.900000
220.124700 17088.300000
221.132800 6356.700000
223.111900 30228.600000
223.147600 3179.400000
224.119600 15329.300000
225.127200 23993.900000
227.143100 45490.200000
228.151000 6052.900000
233.132600 3075.900000
235.148100 20599.100000
237.127300 32479.700000
238.135200 37587.300000
239.142300 3414.100000
251.143600 2691.100000
253.158600 31442.500000
271.170100 10064.600000

>ms2peaks
53.002200 8820.600000
53.038600 39903.000000
55.017900 50217.100000
55.054300 88647.200000
57.033600 17299.500000
57.069700 3150.300000
65.038500 26915.100000
67.054200 62816.400000
69.033400 8330.900000
69.069700 6305.700000
71.049000 10804.100000
77.038400 8119.100000
79.054200 179335.100000
81.033400 8863.600000
81.069900 50450.500000
83.049100 189271.900000
85.064600 2904.000000
91.054200 326813.900000
93.069800 43863.300000
94.041200 7024.300000
95.049100 102954.600000
95.085500 10814.800000
97.064700 7891.900000
103.054200 56285.100000
104.062000 9418.300000
105.069900 234138.400000
107.049100 297574.600000
107.085400 15691.100000
108.056600 2738.900000
109.064800 25711.100000
115.054200 137572.000000
116.062100 42736.500000
117.069900 135042.600000
118.077600 3215.100000
119.048900 4341.900000
119.085500 32597.600000
121.064700 19737.600000
127.054200 11293.500000
128.062000 223847.500000
129.069800 226517.500000
130.077700 40465.600000
131.049100 50403.400000
131.085500 81666.900000
132.056900 14009.000000
133.064700 102636.700000
134.072400 5261.100000
135.080400 23057.000000
141.069800 285118.000000
142.077700 97382.100000
143.085500 101898.000000
144.056900 73001.200000
144.093200 7645.700000
145.064700 82005.600000
145.101100 25430.400000
146.072500 16419.100000
147.080400 23897.400000
148.088200 11066.500000
152.062000 70972.200000
153.069800 156317.500000
154.077700 83709.500000
155.085500 179884.800000
156.093500 30267.600000
157.064800 172765.500000
157.101100 49893.300000
158.072500 32151.200000
158.108300 2576.000000
159.080500 56935.300000
160.088100 2401.800000
161.096100 11499.400000
165.069900 278108.600000
166.077700 145965.000000
167.085500 200765.400000
168.093200 42956.400000
169.064900 33225.400000
169.101000 71276.600000
170.072600 22058.500000
170.108700 10380.600000
171.080400 57430.200000
171.116400 13163.400000
172.088300 8806.200000
173.096100 9624.100000
177.070400 11204.000000
178.077600 152481.900000
179.085500 151891.800000
180.093200 42931.200000
181.064700 29209.900000
181.101100 114781.300000
182.072500 31168.700000
182.108700 10205.500000
183.080400 74832.500000
183.116700 29062.300000
184.088200 40871.500000
185.096100 85077.000000
185.132100 5099.900000
186.104000 26017.300000
187.111000 5342.400000
190.077900 14978.000000
191.085400 51055.000000
192.093200 42677.200000
193.101100 39531.300000
194.072900 10420.800000
194.109000 11513.700000
195.080500 34734.800000
195.116900 29641.000000
196.088600 12536.400000
196.124900 4609.800000
197.096000 64222.000000
197.131600 4629.700000
198.104000 27353.300000
199.111700 194849.300000
200.119400 30607.600000
203.085200 6883.300000
204.093500 13128.000000
205.101100 35369.300000
206.109200 4053.700000
207.116800 14090.500000
208.087900 3658.100000
209.096000 20411.200000
209.132100 9580.400000
210.103700 10754.300000
211.111800 13170.300000
211.147600 3146.300000
212.119300 7280.800000
213.127200 14699.900000
214.134800 10684.500000
219.116800 12596.600000
220.124300 5306.300000
221.132700 3652.600000
223.112000 14541.000000
224.119600 2724.700000
225.127000 6468.200000
227.142600 6902.700000
235.148500 2491.100000
237.127600 17714.500000
238.135000 3625.700000
253.160000 2930.700000

