>compound LU59072788
>parentmass 184.11210000000003
>ionization [M+H]+
>formula C13H13N
>rt 1119.600000
>profile orbitrap
#smiles_iso CC1=CC(=CC=C1)NC2=CC=CC=C2
#smiles_can CC1=CC(=CC=C1)NC2=CC=CC=C2
#inchikey TWPMMLHBHPYSMT-UHFFFAOYSA-N
#pubchem_id 14569
#mb_accession LU073101,LU073102,LU073103,LU073104,LU073105,LU073106

>ms2
92.049500 119909.900000
93.056900 47373.300000
106.065100 92324.300000
107.072800 74901.400000
169.088600 87785.700000
184.112100 8727707.000000

>ms2
91.054300 8760.000000
92.049400 173325.800000
93.057000 57679.900000
106.065000 119929.400000
107.072800 105406.200000
169.088500 133484.100000
184.112000 7157996.500000

>ms2
65.038400 33096.100000
67.054100 6348.300000
79.054100 48053.400000
91.054100 40840.400000
92.049400 1008411.200000
93.057200 452251.400000
106.065100 628282.100000
107.072900 956625.900000
152.062100 13519.600000
154.065000 7257.000000
157.101100 14208.000000
165.070100 8090.400000
167.085400 30685.300000
168.080700 19483.100000
169.088500 865874.200000
182.096400 9853.100000
183.104300 20059.900000
184.112000 5126635.000000

>ms2
53.038600 4714.900000
65.038500 158027.600000
66.046400 9382.300000
67.054100 6453.100000
77.038600 6041.500000
79.054200 193062.500000
91.054200 104333.300000
92.049500 1279643.900000
93.057300 1195271.600000
106.065200 783013.200000
107.072900 2216609.500000
128.061800 3223.900000
129.069800 7681.500000
130.065200 2733.100000
141.069700 3684.700000
142.077900 15883.600000
143.072900 5276.300000
143.085600 3015.700000
144.080700 3269.000000
152.062100 43511.100000
154.065000 20373.800000
155.073100 5503.800000
156.080700 4550.100000
157.101100 8490.800000
165.070000 29402.500000
166.077900 11725.800000
167.073300 7327.600000
167.085500 28595.900000
168.080800 103486.600000
169.088600 1281327.900000
182.096500 10799.300000
183.104600 34113.200000
184.112100 1375435.900000

>ms2
53.038500 15110.200000
65.038500 446955.800000
66.046300 52679.300000
67.054100 6646.200000
77.038500 12151.200000
79.054200 361970.400000
90.046400 4936.300000
91.054200 205917.700000
92.049400 989843.000000
93.057300 2000650.200000
94.065100 4639.000000
104.049400 4027.800000
106.065100 926417.000000
107.072900 2928451.000000
115.054200 6251.500000
128.062000 8372.700000
129.069800 11437.400000
130.065300 4875.700000
141.070000 8440.400000
142.077700 22960.500000
143.072900 9306.800000
144.080700 4496.300000
152.062000 76493.200000
154.064900 22567.300000
156.080500 4987.800000
157.101700 3898.300000
165.069800 51258.300000
166.077200 11040.600000
167.072800 19816.100000
167.085300 12769.300000
168.080700 388365.600000
169.088500 1056973.500000
182.096700 18090.000000
183.104400 41915.900000
184.112000 233081.800000

>ms2
51.023000 2811.300000
53.038600 33065.700000
65.038500 588499.000000
66.046400 145899.400000
67.054100 4191.000000
77.038600 15309.200000
79.054200 318837.500000
80.049400 4290.200000
80.062000 5033.700000
90.046300 11368.300000
91.054200 192583.200000
92.049500 453942.600000
93.057300 1800698.000000
94.065200 3823.100000
104.049400 2887.700000
106.065100 1203293.500000
107.072900 2016362.200000
115.054200 5989.300000
128.062000 9395.300000
129.069700 4655.300000
141.069900 20260.100000
142.077700 22576.700000
143.073200 16111.900000
152.062000 66214.800000
154.065100 30605.300000
165.069900 51985.500000
166.077700 9083.900000
167.073000 60592.800000
167.085400 4999.100000
168.080800 509728.200000
169.088600 479203.100000
182.096400 15351.600000
183.104400 15505.800000
184.111900 19188.000000

