>compound LU60356392
>parentmass 371.0842
>ionization [M+H]+
>formula C14H18N4O4S2
>rt 991.140000
>profile orbitrap
#smiles_iso CCOC(=O)NC(=S)NC1=CC=CC=C1NC(=S)NC(=O)OCC
#smiles_can CCOC(=O)NC(=S)NC1=CC=CC=C1NC(=S)NC(=O)OCC
#inchikey YFNCATAIYKQPOO-UHFFFAOYSA-N
#pubchem_id 3032792
#mb_accession LU125501,LU125502,LU125503,LU125504,LU125505,LU125506

>ms2
59.990100 12816.800000
62.023800 6107.600000
85.970000 8915.000000
90.055000 32393.000000
103.980200 4773.300000
109.076200 10583.300000
132.011300 22352.600000
134.071400 10263.800000
151.032500 4008787.000000
160.050700 35260.800000
192.989800 4826.900000
194.038300 138441.000000
206.092500 261652.900000
219.033600 33936.500000
223.053700 46963.700000
235.994800 276261.500000
240.080100 985933.100000
265.075300 192801.800000
279.000500 91055.600000
282.036600 1247702.900000
291.054600 62614.700000
325.042400 2052594.100000

>ms2
59.990200 293209.200000
62.023600 103856.000000
85.969500 216379.000000
88.021600 21301.800000
90.055000 118137.600000
93.057200 13506.300000
103.980100 85343.700000
109.076100 114382.300000
132.011400 126802.900000
134.071300 77893.000000
135.055200 56719.900000
149.017000 68594.200000
151.032400 8776798.000000
160.050500 221533.200000
176.027800 53976.300000
177.011600 32820.700000
178.061100 119675.600000
179.063700 9121.800000
192.989300 27619.400000
194.038300 306211.300000
195.022300 14662.400000
206.092400 304530.400000
219.033500 210588.500000
223.053900 25469.500000
235.994800 365932.400000
240.080200 24807.800000
245.012800 38900.300000
265.075200 80166.900000
279.000500 53706.800000
282.036500 110561.300000
291.054500 60983.100000
325.042300 50597.400000

>ms2
59.990200 799169.700000
62.023600 327719.600000
85.969500 623468.600000
88.021500 21599.200000
90.055000 73123.600000
92.049400 32370.200000
93.057300 152044.200000
103.980100 273386.100000
107.060400 21907.500000
109.076000 287715.700000
118.052500 46333.900000
119.060400 25596.100000
132.011400 60765.000000
134.071300 231277.600000
135.055200 106933.900000
149.016900 195390.500000
150.024900 16457.200000
151.032400 8237144.000000
160.050500 363189.400000
176.027700 88897.000000
177.011500 23585.500000
178.061100 174322.400000
179.063700 11979.600000
192.988900 80690.700000
194.038300 31734.900000
195.022000 9745.100000
202.006200 13354.700000
206.092300 48026.700000
219.033300 56478.000000
235.994700 39654.700000
245.013100 9120.500000

>ms2
59.990200 1143272.100000
62.023600 453300.400000
65.038500 19889.300000
85.969500 741562.500000
88.021600 10463.800000
90.055000 22845.300000
92.049500 196744.200000
93.057300 795356.400000
103.980100 293984.300000
107.060400 92148.300000
109.076000 334356.400000
118.052500 299002.000000
119.060400 152296.500000
122.005900 9716.700000
124.021500 18438.600000
132.011500 11424.600000
132.055300 19252.000000
133.063500 8930.600000
134.071300 358297.900000
135.013800 13795.700000
135.055200 68058.800000
149.016900 346191.500000
150.024700 31146.200000
151.032400 6407477.500000
160.050500 365354.100000
176.027800 44917.700000
178.061200 61367.000000
192.989000 65250.300000
202.007100 8254.000000

>ms2
57.974600 11237.300000
59.990200 1352163.100000
62.023600 431875.000000
65.038500 120209.000000
66.046400 12372.300000
74.096400 6205.500000
80.049400 30705.600000
82.065200 7637.500000
85.969500 777730.600000
90.033800 10998.400000
90.055000 5961.600000
91.041500 7027.600000
92.049400 560049.900000
93.057300 1772233.500000
103.980000 201696.700000
105.044800 21833.300000
106.065200 3957.900000
107.060300 133058.700000
108.068100 10350.800000
109.076000 225679.400000
110.060100 10337.300000
117.044800 8579.900000
118.052500 837118.400000
119.060300 284857.500000
122.005800 64270.100000
124.021500 38619.400000
124.075800 11995.200000
132.055500 59628.200000
133.063600 17162.500000
134.071200 360696.800000
135.013600 21721.900000
135.055100 41943.400000
149.016800 383608.100000
150.024600 44913.900000
151.032300 3865927.800000
160.050400 273930.800000
174.011800 4191.400000
176.027900 17923.300000
177.011700 8392.900000
178.061200 10523.200000
192.988900 25859.600000

>ms2
57.974600 24319.400000
59.990200 1295623.600000
62.023700 361942.200000
65.038600 387320.700000
66.046400 34760.400000
74.096400 3202.900000
80.049500 81880.200000
82.065100 9649.800000
85.969500 735413.800000
90.033800 37103.100000
91.041600 36320.300000
92.049500 823674.600000
93.057300 2106990.000000
103.980100 119795.400000
105.044800 58665.500000
106.065000 5218.600000
107.060400 120621.600000
108.068000 15713.400000
109.076000 131786.900000
110.060200 18906.000000
117.044900 8650.500000
118.052500 1131205.200000
119.060400 316259.300000
122.005900 175470.400000
124.021500 39882.600000
124.075600 16677.000000
132.055600 69711.700000
133.063300 27157.000000
134.071200 208424.000000
135.013600 27882.000000
135.055200 30764.100000
149.016900 257986.500000
150.024700 54053.000000
151.032400 1524131.500000
160.050500 132389.400000
176.027700 8140.800000
192.988900 5275.000000

