>compound LU60720511
>parentmass 404.1241
>ionization [M+H]+
>formula C22H17N3O5
>rt 1015.320000
>profile orbitrap
#smiles_iso CO/C=C(\C1=CC=CC=C1OC2=NC=NC(=C2)OC3=CC=CC=C3C#N)/C(=O)OC
#smiles_can COC=C(C1=CC=CC=C1OC2=NC=NC(=C2)OC3=CC=CC=C3C#N)C(=O)OC
#inchikey WFDXOXNFNRHQEC-GHRIWEEISA-N
#pubchem_id 3034285
#mb_accession LU120801,LU120802,LU120803,LU120804,LU120805,LU120806

>ms2
344.102700 44984.800000
372.098000 13376886.000000

>ms2
107.049000 9518.000000
129.044900 18579.500000
134.060000 123825.100000
143.060400 64525.600000
145.028400 51402.600000
156.044300 10958.600000
162.055000 35498.400000
171.055300 35303.500000
172.039200 217702.500000
174.054900 8469.300000
177.054600 31533.400000
182.071500 9378.000000
183.055500 10575.600000
185.023300 10652.000000
186.066200 16593.300000
190.049800 8065.400000
197.071100 18204.500000
199.050000 8806.600000
201.065900 143456.100000
202.049800 15741.600000
210.042400 10646.500000
210.066200 95536.700000
211.050200 8060.000000
216.065500 124871.400000
259.086900 8526.000000
274.086000 17328.000000
275.081700 8086.500000
286.073900 7989.300000
287.081400 135073.200000
288.065200 15616.900000
288.091200 7838.000000
288.113300 29398.000000
289.096900 55717.800000
299.080500 11333.500000
301.083400 31098.900000
303.076500 187697.000000
313.061700 27695.100000
315.076500 39634.700000
315.100100 71252.900000
316.108100 704240.300000
317.092100 104696.600000
326.091800 16070.300000
328.072100 17113.700000
329.079500 809205.800000
343.094100 8472.100000
344.103000 4538906.500000
345.087500 25527.400000
372.097900 7293286.000000

>ms2
55.017800 4994.300000
68.025600 8651.000000
68.997100 15547.900000
75.044100 9344.900000
79.054100 7470.800000
82.028700 31837.400000
83.012800 26399.000000
89.038500 18530.500000
91.054300 12257.100000
102.034000 5038.000000
103.054200 12441.800000
104.049600 6577.600000
105.033500 7634.400000
106.065200 21843.300000
107.049100 58850.100000
114.033900 13921.700000
115.054300 5998.300000
116.049600 12900.400000
117.033500 7795.700000
117.057600 5821.200000
119.036500 8309.400000
119.049300 6458.200000
120.044500 49911.700000
121.028600 6242.500000
121.064800 19935.200000
129.033400 6647.400000
129.044700 96720.900000
130.040100 28397.200000
130.052600 7462.900000
130.065100 5353.300000
131.049300 15384.900000
131.060500 8169.500000
132.044300 18421.200000
133.028500 6411.400000
133.052300 42132.400000
134.060000 476709.500000
141.044500 21434.900000
143.060400 233049.200000
144.044700 14332.300000
145.028400 165344.300000
145.052100 41170.300000
146.060100 20471.600000
147.044000 15121.900000
148.051800 5655.400000
155.060100 18580.500000
156.044300 122822.000000
157.028500 14436.300000
157.052400 6443.400000
158.035900 6900.400000
158.060200 10171.900000
159.055300 26943.000000
160.039300 33621.200000
160.087000 8247.100000
161.070800 32494.800000
162.055000 74259.300000
168.044400 4988.000000
169.039600 152274.900000
170.023700 9301.100000
170.047700 16686.200000
170.059900 18931.400000
171.031700 34187.800000
171.055300 155367.000000
172.039200 285966.300000
173.047200 44186.500000
174.055100 16438.700000
175.038800 8070.300000
176.070500 6962.600000
177.054500 107074.000000
182.047500 30460.300000
182.071400 92001.500000
183.055300 480849.200000
184.038900 24532.300000
184.063300 6520.400000
185.023500 19629.300000
185.033800 8724.100000
185.046800 4611.100000
185.070900 14276.700000
186.055000 29907.000000
186.065200 8208.900000
187.050200 46084.900000
188.070900 16081.300000
190.049900 14060.600000
196.051000 15230.800000
197.071000 30516.100000
198.056000 5020.600000
198.066800 5884.800000
198.078600 18007.200000
199.050100 60203.200000
200.034200 82317.500000
201.042100 340448.300000
201.065700 201477.200000
202.049600 21197.000000
207.055500 15603.500000
210.042400 140287.500000
210.066200 137432.700000
211.050200 43507.000000
211.074000 7916.500000
212.034400 23198.900000
216.065500 463727.700000
218.084100 6755.600000
221.071800 6103.300000
223.074000 11300.600000
225.066000 14401.700000
227.044500 10253.900000
231.091700 22662.900000
232.076000 10915.800000
233.071100 13045.300000
234.079200 6618.900000
234.091500 9606.400000
239.045400 10632.400000
242.032200 176146.800000
244.075200 5446.700000
244.087400 8247.700000
245.071000 23061.300000
245.095100 13679.500000
246.078900 22620.100000
246.091200 7961.800000
247.086200 9049.800000
248.071100 7464.600000
253.061600 5148.300000
256.087200 6416.200000
257.070800 9647.100000
257.095000 4819.200000
258.079200 16617.400000
259.086800 21871.600000
260.070400 12820.400000
261.078700 11692.500000
261.102100 17131.100000
262.086400 23282.300000
271.087700 22304.100000
272.081900 128629.600000
273.065900 88008.600000
273.089800 175702.000000
274.073300 15580.800000
274.086600 12676.100000
275.081300 45465.200000
276.064700 6468.700000
284.082100 22210.000000
285.066200 11232.100000
285.090000 12697.400000
286.073900 9944.100000
286.097600 9873.600000
287.081600 133447.800000
288.064900 41058.700000
288.089200 19665.600000
288.113200 42887.600000
289.097100 52357.500000
299.081400 20230.300000
300.076600 164866.000000
301.084200 567984.800000
302.068100 7322.400000
303.076600 69900.900000
312.076700 61234.800000
313.061500 13546.200000
314.091800 21790.200000
315.076800 22855.600000
315.100500 74121.500000
316.107800 199427.200000
317.092000 47285.400000
326.091900 6146.700000
328.071800 447923.000000
329.079400 4597300.000000
343.094900 4618.200000
344.102900 1826393.600000
345.087100 4958.800000
372.097900 218648.300000

>ms2
53.002300 4475.400000
55.017800 11928.400000
65.038600 22974.400000
66.046400 6655.800000
68.013000 8818.800000
68.025600 15526.700000
68.997000 33342.800000
75.043700 9125.900000
77.038500 4899.500000
78.033800 13065.700000
78.046500 7603.400000
79.041500 5395.400000
79.054200 27894.300000
80.013000 4600.800000
80.049200 4455.600000
83.012700 23560.000000
89.038500 96652.500000
91.041700 19210.000000
91.054200 42706.700000
92.025600 11788.300000
92.049400 17174.200000
94.041300 6013.500000
95.049100 13886.600000
102.033600 20882.500000
102.046300 6926.600000
103.041600 17892.700000
103.054100 31488.500000
104.049400 54192.300000
105.033400 40880.100000
105.044900 4675.300000
105.057200 13681.700000
106.041200 3926.300000
106.065100 29497.800000
107.049100 77109.000000
114.033800 67122.200000
115.041500 8990.700000
115.054300 20313.500000
116.049400 60749.900000
117.033300 21764.800000
117.057200 29574.700000
118.041300 22070.800000
118.052000 4061.700000
118.065200 5793.000000
119.036500 36138.000000
119.049100 16415.400000
120.044400 211684.700000
121.028500 4551.900000
121.052300 12422.100000
121.064700 38262.600000
127.041600 47105.700000
128.049300 21119.600000
129.033500 57737.000000
129.044700 259989.800000
130.028700 44498.700000
130.040000 158508.500000
130.052300 24057.600000
130.065000 15630.800000
131.036600 18702.900000
131.049100 32558.100000
131.054400 3967.000000
131.055300 4452.900000
131.060200 26967.500000
132.044300 55493.700000
133.028400 32102.200000
133.052200 294314.600000
134.060000 500572.900000
140.049500 6516.500000
141.044600 79072.500000
142.052400 12337.900000
142.064700 4855.500000
143.036600 77049.100000
143.060300 225273.500000
144.044400 57990.200000
145.028400 120038.200000
145.052100 239863.500000
146.023500 48817.200000
146.060000 34120.200000
147.044100 26030.100000
147.055300 10503.300000
148.039500 11665.200000
148.051900 8163.500000
150.054800 6718.400000
154.028700 4360.200000
154.052500 15784.500000
155.036500 12800.700000
155.060200 90264.000000
156.044300 1101502.900000
157.028300 34294.000000
157.052300 14995.900000
158.036200 14600.500000
158.047500 5563.100000
158.060200 9213.500000
159.031400 20414.100000
159.055200 76548.900000
160.039200 35196.000000
160.075500 12255.700000
160.086600 9047.800000
161.047100 7028.400000
161.070700 29269.600000
162.030900 28956.600000
162.055000 17670.400000
168.044200 8623.600000
169.039600 158093.100000
169.052100 9511.500000
170.023500 18480.000000
170.047400 64127.700000
170.060000 21399.500000
170.071100 4804.100000
171.031700 41085.400000
171.055200 227965.800000
172.039200 1048095.200000
173.047100 97240.700000
174.055000 5912.100000
175.038900 26238.300000
177.054500 65897.500000
181.039700 10132.700000
181.063600 11185.200000
182.047400 108780.800000
182.071300 60591.400000
183.055200 1264318.200000
184.039300 46565.400000
184.063600 7745.200000
185.023500 11836.500000
185.034600 12867.900000
185.047300 4715.200000
185.070900 7995.500000
186.042100 4661.600000
186.044700 4681.400000
186.054800 43929.700000
186.064900 5125.200000
187.050200 33944.600000
188.070500 23634.600000
190.049800 25246.700000
190.064800 4132.500000
195.055400 6525.100000
197.034700 13552.900000
197.070800 16409.200000
198.042200 12069.500000
198.078600 9941.800000
199.050100 360377.600000
200.034100 462616.000000
201.042000 379651.700000
201.065400 75607.400000
204.080800 16543.300000
205.075700 5794.200000
206.060300 5693.200000
207.055400 18858.900000
210.042300 206906.400000
210.066200 43224.400000
211.050200 96949.200000
212.034600 10040.100000
216.065500 75281.900000
218.083600 20243.700000
219.068000 6140.500000
219.091800 6694.700000
220.076100 9081.600000
223.074300 10140.700000
225.066200 5813.400000
227.045000 20259.100000
228.067300 6730.300000
229.076200 17282.100000
231.091700 13910.500000
232.075600 16866.400000
232.087400 8723.300000
233.071300 27638.400000
234.078600 6911.900000
234.091100 8402.400000
236.070300 15907.000000
242.032100 254364.200000
243.091500 8797.900000
244.075400 6910.200000
244.087000 49198.000000
245.071300 55130.600000
245.094900 26254.800000
246.078800 52257.000000
246.091700 6141.800000
247.086000 26678.100000
248.070700 7762.600000
256.086900 23101.400000
257.070900 20023.100000
257.095200 7751.000000
258.078600 29716.400000
259.086600 31685.100000
260.070400 14363.800000
261.079200 22990.700000
261.102500 9790.600000
262.086300 11825.700000
271.086500 12958.700000
272.081700 368281.800000
273.065800 212474.600000
273.089700 215658.700000
274.073200 75695.100000
274.088000 6501.900000
275.081400 65694.700000
283.073800 11168.300000
284.081600 35635.600000
285.066100 17185.400000
285.089600 8995.000000
286.074300 15035.400000
286.098100 8040.200000
287.081500 57926.200000
288.064900 24189.600000
288.112200 6410.900000
289.097400 8346.700000
300.076600 347903.000000
301.084300 389589.800000
302.067800 8354.000000
303.076900 5628.900000
312.076600 24853.300000
314.092900 20325.700000
315.100100 13300.000000
316.106800 9626.900000
328.071500 975804.700000
329.079400 912418.700000
344.103100 43719.600000

>ms2
50.015100 6243.800000
51.022900 8162.100000
53.002200 28273.600000
53.038600 20587.800000
54.046400 5235.500000
55.017900 28652.800000
63.022900 18174.000000
64.030700 9850.200000
65.038600 58771.800000
66.046400 34592.200000
68.013000 18729.600000
68.997100 81552.900000
69.992300 6383.700000
75.022800 41644.500000
75.043900 6362.100000
76.018200 8189.600000
77.038400 27330.900000
78.033800 36541.100000
78.046400 29657.700000
79.018200 5507.400000
79.041500 17628.200000
79.054300 45283.700000
80.013000 5912.300000
80.049400 4522.500000
82.028700 29913.100000
83.012800 5588.700000
89.038600 311668.100000
90.033800 6042.900000
90.046500 16552.500000
91.041800 60859.400000
91.054300 100740.700000
92.025600 27693.700000
92.036600 6678.200000
92.049500 45552.100000
93.033600 8540.500000
94.041200 13464.200000
95.049200 66201.700000
101.038600 15003.500000
102.033800 73157.600000
102.046500 31411.000000
103.041600 56237.700000
103.054300 49123.700000
104.049500 249387.800000
105.033600 69791.500000
105.044900 25343.300000
105.057400 34073.200000
106.028800 6481.600000
106.041200 8383.500000
106.065100 34545.300000
107.049200 60100.600000
108.044300 12026.200000
111.044100 10227.900000
114.033900 189317.200000
115.041700 35054.300000
115.054300 26014.600000
116.049500 255377.900000
117.033500 110857.700000
117.057300 58540.100000
118.028700 6351.000000
118.041400 59727.800000
118.052600 6670.500000
118.065300 10399.900000
119.036700 88406.500000
119.049100 35792.300000
120.044400 280077.600000
121.028200 6955.300000
121.052100 15091.200000
121.064800 32418.000000
124.051900 8934.100000
127.041700 157316.200000
128.049500 141023.200000
129.033600 89592.500000
129.044800 424214.500000
130.028800 143583.200000
130.040100 369851.000000
130.065200 18943.300000
131.036600 14517.500000
131.049100 29383.200000
131.055300 5788.500000
131.060200 31934.400000
132.044400 81621.800000
133.028500 79109.400000
133.052300 416321.000000
134.036300 61086.600000
134.060100 422384.400000
140.049500 29003.700000
141.044800 74541.400000
142.052600 28839.000000
143.036700 90650.400000
143.060400 166824.400000
144.044400 282184.100000
145.028400 67819.200000
145.052300 261862.300000
146.023700 122191.600000
146.060100 59103.300000
147.044200 14510.700000
147.055400 23034.000000
148.039500 7068.200000
148.075500 4990.400000
149.047300 6507.100000
150.055100 19232.600000
153.044800 13691.600000
154.028800 19015.400000
154.040600 7203.100000
154.052600 32178.200000
155.036800 38276.500000
155.060400 189723.900000
156.044400 2248018.200000
157.028300 24096.800000
157.039700 8496.800000
157.052300 40337.000000
158.036300 12166.000000
158.047200 5522.500000
158.060200 9475.800000
159.031600 32352.700000
159.055300 74489.100000
160.039400 26200.500000
160.075400 6868.800000
161.047100 13862.700000
161.071100 27899.900000
162.031300 43676.300000
162.055000 30826.700000
168.044500 7076.300000
169.039700 72196.000000
169.052100 7766.700000
170.023700 17491.900000
170.047600 122621.500000
170.060400 11334.100000
171.055400 396505.700000
172.039300 2637116.200000
173.047300 38341.900000
174.018400 7164.000000
174.055300 9001.200000
175.039000 10862.700000
177.054600 15973.600000
181.039600 50482.800000
181.063800 10745.700000
182.047600 116033.100000
182.071400 19215.600000
183.055400 490735.400000
184.039400 29572.500000
184.062800 5616.100000
185.023800 6739.200000
185.046600 6997.300000
186.042100 11042.500000
186.055100 36511.600000
187.049800 20409.200000
188.070900 23985.800000
189.069600 6240.100000
190.049700 17314.700000
190.065100 14995.600000
191.073300 6337.000000
195.054900 9518.300000
197.034700 32742.900000
197.070500 10528.700000
198.042700 5551.100000
199.050300 329739.400000
200.034300 485150.300000
201.042400 76325.900000
201.065300 21987.200000
203.072700 8022.900000
204.081000 25753.900000
205.065900 7073.300000
205.076200 17626.800000
206.060300 8025.900000
207.055300 8268.400000
210.042300 75174.900000
210.066300 10124.100000
211.050300 71654.000000
214.037400 8373.900000
216.067800 7811.400000
216.080900 7514.400000
217.076400 20470.500000
218.083700 48144.100000
219.068100 8504.800000
219.091900 12655.300000
220.075500 16025.200000
221.071900 6699.700000
227.044500 20981.200000
228.068200 7954.800000
229.075800 38139.200000
230.059700 7319.000000
231.091400 14118.300000
232.063400 4609.300000
232.075600 17796.000000
232.086900 12091.200000
233.071400 46436.500000
234.091000 5060.000000
236.070900 8005.300000
242.032200 97872.400000
244.075000 5350.200000
244.087000 74109.400000
245.070900 127979.200000
245.094900 11747.700000
246.078500 31754.000000
247.086600 21425.500000
248.071300 7366.800000
254.071100 6088.600000
256.087300 18918.300000
257.071200 16608.300000
258.079300 24054.300000
259.087000 22435.900000
260.070000 8489.700000
261.078300 9179.600000
271.087200 8999.500000
272.081900 296093.100000
273.065900 114521.500000
273.089900 36529.100000
274.073900 43416.800000
275.081200 46839.200000
283.074700 10270.400000
284.081600 21178.900000
285.066000 10249.600000
286.073900 6801.100000
287.082100 19477.200000
288.065200 4353.200000
300.076900 251252.900000
301.084400 54237.700000
312.076000 7366.500000
328.071700 458735.900000
329.080000 28481.800000

>ms2
50.015100 6720.700000
51.023000 5555.600000
53.002200 49920.500000
53.038600 82662.300000
54.046500 5667.600000
55.017800 39534.200000
63.022900 56170.700000
64.030800 19096.100000
65.038500 107058.300000
66.046400 49748.600000
68.013000 29623.900000
68.997100 131658.900000
69.992400 15462.800000
75.022900 132055.400000
76.018100 22612.800000
77.038500 69626.000000
78.033800 47968.100000
78.046400 70057.500000
79.017800 9387.700000
79.041700 25318.000000
79.054200 55198.600000
80.013000 11151.400000
80.049400 9839.900000
82.028700 21466.200000
89.038600 683260.600000
90.033800 13550.500000
90.046400 38971.900000
91.041700 126433.600000
91.054300 120055.900000
92.025700 42018.600000
92.036900 9607.400000
92.049500 63305.400000
93.033600 9547.200000
94.041300 23770.800000
95.049200 241753.100000
101.038600 31131.000000
102.033800 175099.300000
102.046400 73011.800000
103.041700 90891.100000
103.054200 63794.900000
104.049500 543045.200000
105.033500 164121.500000
105.044700 94133.100000
105.057300 41473.400000
106.028800 9611.500000
106.041300 10404.500000
106.065100 22329.200000
107.049200 35718.800000
108.044300 9172.300000
111.044100 8188.100000
114.033900 273492.800000
115.041700 80385.500000
115.054200 39108.500000
116.049500 562581.100000
117.033500 112392.400000
117.057300 78439.300000
118.028700 27898.100000
118.041400 69082.900000
118.052700 4578.100000
118.065000 9367.300000
119.036600 117235.800000
119.049200 74422.900000
120.044400 269696.800000
121.028300 5808.900000
121.052400 7786.500000
121.064700 15797.900000
124.051800 19771.300000
127.041700 231624.800000
128.049500 302566.300000
129.033500 65661.100000
129.044700 472467.700000
130.028800 283482.000000
130.040000 502508.300000
131.036600 14376.200000
131.049200 29519.700000
131.060400 25765.500000
132.044400 85542.600000
133.028400 81798.400000
133.052200 182248.300000
134.036300 55699.300000
134.060000 234921.000000
140.049600 35016.100000
141.044700 48633.900000
142.052600 35237.500000
142.064600 5130.900000
143.036600 85998.400000
143.060400 82504.400000
144.044400 633429.200000
145.028500 45626.400000
145.052200 112985.300000
146.023600 99693.900000
146.060100 81547.100000
147.043800 7618.200000
147.055500 26159.400000
148.039500 5818.300000
148.075600 16958.900000
149.047100 5773.600000
150.054700 22748.800000
153.044700 18629.900000
154.028800 26428.300000
154.040100 11095.400000
154.052500 32678.900000
155.036700 23767.400000
155.060300 130167.000000
156.044400 1859088.500000
157.028400 12471.800000
157.039700 9373.900000
157.052300 36297.800000
158.036100 10123.900000
158.060000 4714.400000
159.031700 21705.500000
159.055200 36018.500000
160.039400 14738.700000
160.075700 5238.500000
161.047200 9701.100000
161.071000 17400.300000
162.031100 21901.200000
162.054900 40336.100000
169.039700 29414.600000
170.023800 7411.000000
170.047600 78314.100000
170.059800 5419.000000
171.055300 344391.000000
172.039200 2785604.000000
173.046900 10515.900000
174.017700 4343.300000
174.054600 5708.200000
176.070500 8335.100000
181.039600 81864.600000
181.063500 7261.500000
182.047500 93993.000000
182.071200 7626.800000
183.055400 94841.500000
184.039300 17399.200000
185.023800 5157.300000
186.042300 7046.300000
186.055000 15918.700000
187.050100 13799.900000
188.070400 19081.800000
189.069900 6447.200000
190.049800 7041.800000
190.065200 57535.400000
191.072900 7008.900000
197.034700 15805.800000
199.050200 107565.300000
200.034200 165518.800000
201.040900 4291.200000
203.072700 12142.100000
204.080300 23285.400000
205.064700 11618.500000
205.076000 35401.700000
206.060200 6553.500000
210.042300 19245.500000
211.050400 19382.900000
214.037200 10345.400000
216.068200 10622.500000
216.080900 6138.700000
217.076300 39702.500000
218.084100 26201.400000
219.067300 11939.600000
219.091700 8807.900000
220.075700 16175.200000
221.070400 5815.700000
227.045000 14618.400000
228.067200 5862.600000
229.076000 28969.500000
230.060100 6088.800000
231.091600 9196.700000
232.062600 5454.800000
232.075500 13474.400000
232.087100 5202.000000
233.070800 27444.100000
242.032300 29349.600000
243.091300 4229.400000
244.075400 7124.400000
244.087100 50071.400000
245.070800 117296.000000
246.078400 8441.900000
247.086300 10371.600000
254.070600 6093.100000
256.087100 7675.200000
257.070900 12517.900000
258.078900 9903.700000
259.085600 8964.200000
260.069600 6146.000000
271.086500 5749.200000
272.081900 126678.600000
273.065900 34223.500000
274.073400 6795.100000
275.081500 11300.900000
283.074600 4256.900000
300.076600 58288.000000
328.072000 51114.500000

