>compound LU60465054
>parentmass 544.2842
>ionization [M+H]+
>formula C27H35F2N7O3
>rt 889.500000
>profile orbitrap
#smiles_iso CN1CCC(CC1)NC(=O)C2=CC(=C(C=C2)NC3=NC=C4C(=N3)N(CC(C(=O)N4C)(F)F)C5CCCC5)OC
#smiles_can CN1CCC(CC1)NC(=O)C2=CC(=C(C=C2)NC3=NC=C4C(=N3)N(CC(C(=O)N4C)(F)F)C5CCCC5)OC
#inchikey DJNZZLZKAXGMMC-UHFFFAOYSA-N
#pubchem_id 25015677
#mb_accession LU031701,LU031702,LU031703,LU031704,LU031705,LU031706

>ms2
430.168700 1349040.500000
544.284700 8413139.000000

>ms2
96.080800 14759.700000
98.096500 143402.500000
362.106100 32151.600000
430.168800 11305293.000000
544.284800 279395.600000

>ms2
55.054300 14802.200000
70.065200 30791.500000
96.080900 16300.900000
98.096500 152227.000000
255.075100 23150.600000
283.070500 8732.700000
291.092200 16252.200000
297.116200 12900.900000
306.116800 13130.100000
318.080000 10565.700000
319.087800 429487.500000
334.111300 1102164.000000
335.082500 21789.000000
347.082700 31703.600000
362.106200 1609178.500000
371.155600 30835.400000
403.145500 60494.700000
419.140400 12983.900000
430.169000 8161237.500000

>ms2
55.054200 33897.900000
67.054200 31306.500000
69.069800 26431.500000
70.065100 60373.600000
80.049400 5794.400000
96.080800 27852.600000
98.096500 99521.200000
104.049400 4845.700000
105.033500 5166.600000
119.060400 4319.200000
161.051900 5627.200000
186.071400 4909.300000
201.058100 8029.400000
212.092900 5589.000000
214.066000 59207.900000
223.085400 4431.800000
226.072000 23436.400000
227.092400 6724.200000
228.068100 7382.100000
229.053200 235471.100000
231.068900 5792.600000
234.071500 5108.600000
240.088800 22693.700000
242.083600 8076.800000
242.103500 11823.700000
246.055900 114572.700000
247.079300 5472.500000
248.074100 10525.000000
253.089900 8225.100000
254.067600 9402.800000
254.083200 7166.100000
255.075100 126107.400000
256.062800 8181.100000
256.119300 5333.400000
257.070200 10123.900000
257.083600 14481.700000
262.090200 13520.600000
263.073900 15081.600000
263.096900 15948.700000
266.103400 12406.600000
269.090300 6110.300000
270.079700 9404.300000
270.098400 81154.500000
271.086400 27280.300000
272.094500 18479.200000
276.083100 21912.800000
279.092500 91536.100000
282.129000 49999.300000
283.070100 15842.000000
285.078100 18462.200000
286.086500 11350.700000
290.084800 90423.400000
291.069800 45645.100000
291.092500 458932.900000
292.100800 8740.500000
294.134700 8072.100000
298.074700 233104.600000
303.092500 98229.500000
304.100400 160392.600000
306.093400 8622.000000
306.116400 66443.900000
316.100400 9993.700000
319.087600 4275794.000000
320.094400 15184.400000
334.111000 2168282.500000
335.082400 224354.800000
342.117200 6716.000000
346.111200 37527.800000
351.077000 16533.000000
362.106000 1323237.400000
371.155800 37377.200000
419.140500 6882.400000
430.168800 727891.100000

>ms2
53.002300 4314.600000
53.038700 6213.000000
54.033800 5241.100000
55.054300 51582.900000
56.049500 2920.400000
65.038600 11179.200000
67.054300 37977.200000
68.049600 5810.000000
69.044800 6117.000000
69.069900 33670.200000
70.065100 70136.400000
80.049400 17897.100000
82.065200 18292.700000
92.030700 9724.800000
92.036900 3443.700000
92.049500 5039.100000
93.044900 9552.900000
94.040100 5831.100000
95.036600 3844.500000
96.055800 5708.600000
96.080800 31990.500000
97.088500 4036.400000
98.096400 49309.700000
99.035200 5155.900000
104.030800 4043.000000
104.049500 4635.500000
105.033600 6544.200000
105.044900 13464.700000
107.047900 10071.400000
108.055500 3345.100000
116.030500 4099.800000
118.064800 3453.700000
119.048000 9364.000000
119.060600 10483.600000
120.025600 6315.100000
120.055600 15737.400000
121.050900 9769.600000
121.063500 12114.500000
122.058800 15016.900000
131.041700 6073.900000
133.057600 3698.600000
135.066600 8738.600000
143.060400 3616.700000
144.049700 4334.900000
145.051100 7556.800000
145.063700 3729.300000
146.059100 6812.000000
156.055800 4719.200000
157.044600 6906.900000
158.071600 9085.200000
160.061400 4025.600000
161.051900 6498.200000
161.058700 6732.600000
165.040700 27404.900000
165.057300 8681.900000
166.041000 8527.300000
171.079300 9262.700000
172.051000 3229.100000
173.070100 8434.700000
174.066600 10975.900000
174.077400 16389.300000
175.049400 3794.600000
177.057300 13951.500000
182.059400 5089.700000
183.066800 11672.500000
184.074700 9738.100000
185.063400 15913.700000
185.082300 13337.900000
186.071600 41023.000000
187.053700 3592.700000
195.066700 11600.200000
196.075100 4955.000000
197.063200 9822.000000
198.077500 42672.200000
199.062100 5488.400000
199.085400 23331.000000
207.059300 6702.400000
210.077800 24529.600000
212.056800 27490.000000
213.057400 10090.600000
213.101100 6282.800000
214.066100 137666.600000
216.080300 10302.900000
221.063400 4301.800000
222.077200 8382.500000
223.085800 24047.500000
224.073100 10931.800000
224.093100 18681.100000
225.064600 14757.100000
225.077400 11613.900000
225.101100 3402.800000
226.072500 132851.000000
227.080800 123961.600000
227.092300 7223.000000
229.053300 526494.500000
231.068900 27037.100000
234.071800 13331.200000
236.057200 6390.600000
236.093200 5179.200000
238.072600 9398.400000
238.108900 9383.600000
240.051800 12212.000000
240.067500 9704.900000
240.088800 56444.600000
241.075800 13853.500000
241.089800 8388.500000
242.060400 12435.200000
242.104100 8760.800000
243.068200 23810.100000
243.091400 80934.800000
246.056000 248420.600000
247.079300 8759.700000
249.057800 5833.000000
252.068400 6007.000000
252.088100 7995.200000
253.090000 39486.500000
254.067400 41694.900000
254.083600 15820.700000
254.098700 8773.700000
255.075600 174717.400000
256.062800 52050.200000
256.075900 4948.400000
256.099200 5753.300000
256.119000 6648.300000
257.083600 31862.700000
261.058100 3479.100000
262.066400 20515.800000
262.090000 42600.900000
263.097500 37237.400000
265.076800 5916.000000
265.089800 72180.500000
266.104000 10995.700000
267.091500 9589.000000
268.082900 23081.400000
269.091200 5818.100000
270.054900 6803.000000
270.079400 54454.500000
270.098600 33954.200000
271.064100 6282.800000
272.094500 12591.400000
276.069200 31872.900000
276.083000 10775.300000
278.067400 6118.400000
279.092400 38502.800000
282.128900 30578.300000
283.070000 4015.700000
286.086400 5739.000000
287.080100 5498.400000
291.070900 59174.000000
292.100700 10916.600000
294.134000 6616.100000
297.066700 4483.400000
297.116000 19798.300000
302.085000 58037.100000
304.100500 125781.000000
306.098500 3400.500000
314.118800 9275.200000
316.100400 5581.500000
318.080100 49007.300000
319.087700 2807610.200000
320.132400 9390.400000
330.079500 26717.300000
334.111100 275133.000000
346.111100 19133.700000
347.083400 4103.700000
362.106000 86205.000000
403.145800 6466.700000
430.169000 10676.500000

>ms2
53.002100 7674.800000
53.038400 8916.900000
54.033800 21737.500000
55.054200 66335.900000
56.049400 5785.300000
65.038600 23031.200000
67.054200 41549.500000
68.049300 10931.200000
69.044700 15808.900000
69.069800 30727.100000
70.065100 57131.200000
80.049500 26975.600000
82.065100 26085.200000
92.030600 30874.400000
92.036800 14782.800000
92.049400 15040.800000
93.044800 27846.000000
94.040000 23701.600000
95.036500 6111.200000
96.055800 13496.700000
96.080700 32779.000000
98.096500 16582.700000
99.035100 10974.800000
104.030500 6962.900000
105.044700 35749.900000
107.047800 31938.400000
108.055600 17103.800000
116.030200 3506.000000
118.064700 3685.300000
119.047800 19237.500000
119.060300 19197.600000
120.025200 10963.200000
120.055600 55349.100000
121.050900 71177.900000
121.063500 35158.500000
122.058800 50407.600000
131.041400 16978.900000
133.057600 3000.700000
135.066500 26580.500000
143.060500 5821.900000
144.049600 5698.900000
145.051000 49987.500000
145.063500 5654.000000
146.058600 31401.500000
156.055900 15698.600000
157.044400 18944.100000
160.061700 26568.200000
161.051800 4224.900000
161.058400 8125.900000
165.040800 38461.800000
165.057200 48928.300000
166.040700 12660.200000
171.079300 8643.700000
172.050700 6577.400000
173.069700 88361.200000
174.066200 12153.100000
174.077400 93951.000000
175.048700 5507.400000
176.081700 8307.900000
177.057300 74627.000000
182.059300 5347.600000
183.066500 25636.300000
184.074800 27259.500000
185.063400 49709.400000
185.082500 25056.400000
186.071400 74070.100000
187.053800 10762.700000
195.066500 39890.500000
196.074900 15088.000000
197.062400 72949.300000
198.077300 94770.600000
199.062100 20342.300000
199.085100 28212.900000
201.057900 32385.100000
207.059000 4460.400000
210.077500 58668.900000
212.056800 65457.500000
212.093300 62872.200000
213.057400 23382.500000
213.100800 10914.100000
214.065800 120299.100000
216.079800 14034.500000
221.063200 8003.900000
222.077500 35503.500000
223.085200 47818.100000
224.073500 39854.300000
224.093100 35814.000000
225.064100 24613.900000
225.077400 12935.100000
225.100900 4879.600000
226.072600 198330.000000
227.081000 111225.700000
228.068000 231431.400000
229.053200 278207.600000
231.068900 64048.000000
233.063100 21104.900000
236.056500 14906.400000
236.092500 10541.300000
238.072000 16608.800000
238.108700 9222.700000
240.051200 17234.900000
240.067600 40265.600000
241.075800 33147.800000
242.060500 18008.600000
242.083500 80853.500000
243.067800 58422.800000
243.090800 46854.700000
246.055800 127717.500000
248.074300 45457.900000
249.058000 9418.300000
252.068700 24789.900000
252.086600 6070.300000
254.066900 48624.100000
254.083500 23750.500000
254.098700 5320.400000
255.074500 58406.100000
256.062600 80652.800000
256.098700 9334.600000
257.070300 15244.400000
257.083500 21412.600000
261.058200 8228.100000
262.066400 18034.700000
263.073900 128293.000000
263.096700 20510.700000
265.076900 3604.000000
265.089700 45415.200000
267.090500 4294.600000
268.082600 11466.200000
270.055100 19957.100000
270.079300 78243.700000
271.063400 12378.300000
271.086200 19915.000000
276.068700 24195.100000
276.082500 3024.800000
278.067800 5493.000000
285.077900 9775.400000
287.080400 4237.500000
290.084800 321317.800000
291.092600 516497.500000
297.066500 4165.100000
298.074600 1715912.400000
302.085100 25220.300000
303.092600 26945.900000
304.100500 45087.900000
318.079900 18282.600000
319.087600 406141.700000
330.079400 6342.900000
334.111000 9244.500000
335.082400 82232.400000
342.119300 3813.300000

