>compound LU61709329
>parentmass 207.14920000000004
>ionization [M+H]+
>formula C12H18N2O
>rt 993.480000
>profile orbitrap
#smiles_iso CC(C)C1=CC=C(C=C1)NC(=O)N(C)C
#smiles_can CC(C)C1=CC=C(C=C1)NC(=O)N(C)C
#inchikey PUIYMUZLKQOUOZ-UHFFFAOYSA-N
#pubchem_id 36679
#mb_accession LU003301,LU003302,LU003303,LU003304,LU003305,LU003306

>ms2peaks
72.044300 5981849.500000
120.044400 19732.500000
134.096500 14025.700000
162.091400 59800.700000
165.102200 1682687.000000
207.149100 13413768.000000

>ms2peaks
72.044300 9118083.000000
120.044300 30919.400000
134.096300 57275.500000
162.091200 134055.700000
165.102200 2244944.500000
207.149100 7663737.500000

>ms2peaks
56.013100 25450.900000
72.044300 11442846.000000
91.054300 12727.100000
107.085600 14191.700000
120.044400 64958.500000
134.096400 422223.200000
147.091500 19984.700000
162.091300 161947.200000
165.102300 1116971.900000
207.149200 675130.300000

>ms2peaks
53.002200 17210.400000
56.013100 52170.500000
72.044300 12422909.000000
91.054200 96371.200000
92.049400 33168.200000
93.069900 17178.400000
107.085500 101406.200000
117.069900 48931.000000
119.073000 48039.400000
120.044400 111458.000000
134.096400 740168.300000
137.096000 20949.800000
147.091700 42113.900000
162.091300 69640.600000
165.102200 209152.600000
207.149300 27581.200000

>ms2peaks
53.002200 19353.600000
56.013100 107383.400000
72.044400 11122713.000000
79.054200 29696.200000
91.054300 282182.400000
92.049500 84404.100000
93.069800 39899.800000
94.065200 20508.400000
95.049100 39377.900000
103.054100 13820.500000
105.044900 13715.300000
105.070000 25237.300000
106.065200 29977.300000
107.085500 169464.300000
109.064900 11548.700000
115.054200 25274.000000
117.069900 75637.600000
118.065200 16958.700000
119.073000 145653.100000
120.044400 59941.300000
132.080900 16932.000000
134.096500 462876.500000
137.096200 15931.300000
147.091800 30432.900000
162.091400 15757.800000
165.102600 15729.500000

>ms2peaks
53.002200 25093.100000
53.038600 20594.300000
56.013100 200074.800000
65.038500 34127.300000
72.044300 9932428.000000
79.054200 56380.600000
91.054200 448730.500000
92.049500 95313.900000
93.069800 37580.800000
94.065100 29764.400000
95.049200 69251.200000
103.054200 21809.500000
104.062100 20509.700000
105.044600 28605.500000
105.069900 43424.600000
106.065100 37027.900000
107.085500 167225.700000
109.064900 23862.000000
115.054200 38865.800000
117.069900 76984.300000
118.065100 60898.400000
119.073000 172981.100000
120.044300 35056.000000
132.080700 22475.000000
134.096400 196252.500000
147.091700 16940.900000

