>compound LU61924931
>parentmass 180.08079999999998
>ionization [M+H]+
>formula C13H9N
>rt 813.660000
>profile orbitrap
#smiles_iso C1=CC=C2C(=C1)C=CC3=C2C=CC=N3
#smiles_can C1=CC=C2C(=C1)C=CC3=C2C=CC=N3
#inchikey HCAUQPZEWLULFJ-UHFFFAOYSA-N
#pubchem_id 6796
#mb_accession LU052201,LU052202,LU052203,LU052204,LU052205,LU052206

>ms2
180.080600 18147052.000000

>ms2
180.080600 19537878.000000

>ms2
120.081000 20917.300000
152.061700 19936.900000
179.072900 20407.200000
180.080700 18686374.000000

>ms2
120.080700 58444.100000
152.062000 149644.800000
153.069900 99653.600000
178.065000 48518.800000
179.073000 56781.200000
180.080700 20069766.000000

>ms2
120.080800 100345.700000
151.053900 24947.400000
152.062100 1531568.100000
153.069900 667376.800000
178.065400 266314.000000
179.073200 307986.000000
180.080800 17463452.000000

>ms2
120.080700 109936.300000
127.054100 38841.800000
151.054000 60348.500000
152.062000 4803269.000000
153.069700 1047083.800000
154.064800 46968.000000
178.065200 482215.900000
179.073100 638510.000000
180.080600 9783522.000000

