>compound LU61395043
>parentmass 417.1827
>ionization [M+H]+
>formula C24H29ClO4
>rt 1095.780000
>profile orbitrap
#smiles_iso CC(=O)[C@]1(CC[C@@H]2[C@@]1(CC[C@H]3[C@H]2C=C(C4=CC(=O)[C@@H]5C[C@@H]5[C@]34C)Cl)C)OC(=O)C
#smiles_can CC(=O)C1(CCC2C1(CCC3C2C=C(C4=CC(=O)C5CC5C34C)Cl)C)OC(=O)C
#inchikey UWFYSQMTEOIJJG-FDTZYFLXSA-N
#pubchem_id 9880
#mb_accession LU031801,LU031802,LU031803,LU031804,LU031805,LU031806

>ms2
107.085500 4173.500000
133.101200 7040.400000
145.100900 8298.100000
147.116800 40357.600000
151.111400 3974.400000
175.111500 4732.300000
181.041800 5408.000000
181.077400 6204.600000
201.127900 11775.200000
205.042000 12758.400000
261.164100 8036.600000
263.144200 3919.700000
277.158500 5835.500000
278.166500 8194.700000
279.174200 44613.200000
297.140300 6209.900000
303.174300 15494.200000
313.135500 41565.500000
314.143500 27984.300000
315.151200 56151.200000
321.185100 100469.300000
339.151200 14058.500000
357.161700 480253.500000
417.183000 3711666.000000

>ms2
55.017800 3263.600000
59.049100 4892.300000
67.054200 4628.900000
69.033300 4664.700000
69.069800 3916.400000
71.049000 4077.300000
79.054100 3083.900000
81.069900 17655.100000
83.049100 4273.500000
85.028200 10248.300000
85.064900 13482.300000
91.054200 10092.800000
93.069900 21051.300000
95.049000 10119.500000
95.085600 17743.100000
97.064900 15109.700000
99.080600 12971.800000
105.069900 21951.500000
107.049000 3453.900000
107.085600 35321.100000
109.064700 6925.500000
109.101200 15672.300000
111.080500 2642.900000
117.069900 4914.400000
119.085500 28988.100000
121.064800 21697.100000
121.101200 31138.400000
123.080400 9336.500000
123.116700 9381.900000
129.069700 6749.400000
131.085600 33346.800000
133.101200 131589.100000
135.080300 9255.300000
135.116800 11919.400000
141.046400 5311.900000
141.069700 4190.200000
143.085500 18530.000000
145.064800 20175.600000
145.101200 74809.500000
147.080400 32645.000000
147.116900 251038.000000
149.096200 13412.600000
151.111600 11139.700000
153.046400 4233.000000
155.025700 5396.700000
155.062100 5109.000000
155.085400 13928.300000
157.041600 17503.100000
157.064800 3688.200000
157.101200 27671.600000
159.080700 15047.800000
159.116900 31585.700000
161.096100 14134.900000
161.132400 4690.400000
163.030700 2875.200000
163.075000 6223.200000
163.111600 14396.400000
165.046700 4545.300000
167.026100 11110.300000
167.061800 3834.500000
167.085500 4708.800000
169.041400 9701.100000
169.101200 18554.000000
171.080800 18471.600000
171.116900 24133.800000
173.096000 15002.300000
173.132500 6623.300000
175.075500 6117.000000
175.111800 71043.500000
177.046800 15495.300000
177.127200 13576.800000
179.025800 3992.400000
179.085600 3699.400000
181.041500 58980.800000
181.077900 36462.700000
181.101200 11601.600000
183.057200 26136.600000
183.080500 5525.900000
183.117100 34186.800000
184.124800 2320.300000
185.096100 39658.200000
185.132400 6089.400000
187.075700 15177.900000
187.112200 11667.200000
189.046500 8511.300000
189.091100 10879.400000
189.127400 22319.300000
191.025900 6277.900000
191.062200 7018.800000
193.041800 15961.200000
193.077600 4026.100000
193.101500 11423.700000
195.057100 22003.300000
195.080000 5221.600000
195.117000 23084.700000
196.124500 4919.500000
197.096400 14900.000000
197.132400 12720.300000
199.111700 11200.800000
201.127500 45568.500000
203.062100 7894.800000
205.041600 58246.200000
205.078000 6253.100000
205.101500 4639.000000
207.057300 15276.400000
207.116500 10928.500000
209.096600 11767.400000
209.132300 9647.600000
211.111500 6187.200000
213.127700 7394.400000
215.061700 6413.900000
217.077800 8288.600000
217.101600 2583.400000
218.109600 2718.200000
219.057300 50725.900000
219.093400 7742.700000
219.117200 15569.700000
220.124800 5107.700000
221.072800 8578.100000
221.132300 22722.800000
223.111800 11098.000000
223.148100 4687.300000
225.127700 7421.200000
227.062600 3668.500000
227.106700 12870.000000
229.077900 6543.700000
231.057800 5359.800000
231.093500 8366.400000
231.116800 6703.900000
232.125300 3115.400000
233.073200 3984.600000
233.132600 14096.900000
234.141400 2762.200000
235.088800 19568.500000
235.111400 15503.100000
235.148400 35231.000000
236.155700 5123.300000
237.127500 27485.000000
237.163900 18624.100000
238.134600 3304.200000
241.077700 2814.400000
243.057500 2427.300000
243.093800 5562.300000
244.101000 5493.200000
245.072900 9654.600000
245.109300 9251.300000
245.132500 10177.700000
246.140300 9624.000000
247.111400 5325.000000
247.148100 13344.700000
248.120500 3416.500000
248.155100 4602.900000
249.127500 14623.500000
249.163900 22520.100000
250.135300 8579.100000
250.171800 12381.500000
251.142800 32084.900000
251.179200 19566.900000
252.150700 3582.100000
253.158700 8651.000000
255.094100 12277.700000
257.072100 3133.900000
257.108800 11154.300000
259.088100 4713.300000
259.148200 8609.700000
260.155600 13330.100000
261.127200 5431.200000
261.163900 73811.400000
262.135200 4170.400000
262.172100 4246.300000
263.143100 61659.700000
264.151000 10119.900000
265.158700 3057.600000
267.093700 3618.400000
269.072500 6303.700000
269.108200 4483.500000
270.140000 3306.100000
271.088300 5526.900000
271.123900 12812.600000
273.103600 11441.500000
275.143300 6663.400000
275.179200 14233.600000
277.158800 121892.900000
278.166500 99749.300000
279.174400 321917.800000
281.109500 6237.100000
285.104100 6261.300000
285.164000 8432.600000
288.150600 8183.900000
295.125500 4851.600000
297.140600 29940.500000
299.120000 38914.400000
303.174400 87291.900000
306.162100 4805.000000
313.135500 266702.400000
314.143300 181581.800000
315.151000 168482.800000
321.185000 216937.900000
339.151000 37291.200000
357.161700 238030.800000
417.182900 208569.000000

>ms2
55.017800 5522.400000
55.054200 11774.000000
59.049000 7862.800000
65.038500 2945.200000
67.054200 18596.400000
69.033400 7746.200000
69.069700 8611.600000
71.049000 6548.100000
79.054200 19872.000000
81.069900 36578.600000
83.049000 7148.500000
85.028400 12212.700000
85.064800 11573.900000
91.054200 42239.600000
93.069900 50376.300000
95.049200 16005.600000
95.085500 26877.500000
97.064900 14779.300000
99.080300 4884.100000
105.069900 87555.900000
107.049100 11877.600000
107.085600 40190.100000
109.064800 16859.200000
109.101200 21802.600000
111.080500 6216.900000
115.054100 4221.700000
117.069900 23344.800000
119.085600 71413.900000
121.064800 34682.200000
121.101200 43217.700000
123.080600 12628.600000
123.116900 5499.900000
127.030800 7783.400000
128.062200 6121.200000
129.069800 27957.200000
130.077700 5399.100000
131.049000 6121.300000
131.085600 66889.900000
132.056500 2412.400000
133.064800 12497.800000
133.101200 203745.400000
135.080300 12063.700000
135.116800 13892.600000
139.030800 6496.400000
141.046400 6204.600000
141.070000 11979.900000
142.077900 14701.500000
143.085600 55067.000000
144.093200 6580.100000
145.064800 36797.900000
145.101200 104160.000000
146.072400 7534.200000
147.080300 34010.100000
147.116800 190671.700000
149.096100 5600.500000
151.030900 2923.100000
151.111700 5254.100000
153.069400 2329.700000
154.078000 4469.000000
155.025600 9149.200000
155.061800 4239.800000
155.085500 40442.400000
156.093400 9021.100000
157.041300 6320.600000
157.064800 13948.000000
157.101200 73503.900000
158.072600 9304.700000
159.080400 36505.300000
159.116800 45461.300000
160.088300 4077.000000
161.096100 11878.000000
161.133000 3201.400000
163.030900 5924.700000
163.075500 3571.200000
163.111500 5880.200000
165.046800 7301.600000
165.070000 10011.400000
167.025800 11109.000000
167.061800 4004.700000
167.085400 20617.600000
168.093200 7824.100000
169.041400 8926.400000
169.064500 2614.700000
169.101100 39221.200000
170.072400 3577.800000
170.109200 7482.200000
171.080500 28075.400000
171.116800 35782.600000
172.088100 5682.200000
173.096300 18189.800000
173.132600 7511.500000
175.030600 3277.100000
175.075300 3740.000000
175.111800 59888.300000
177.046500 24070.500000
177.127100 7830.500000
179.025800 9182.700000
179.062400 5135.500000
179.085600 12665.600000
180.093200 8118.300000
181.041500 54481.400000
181.064600 3152.800000
181.077900 19394.200000
181.101300 37136.600000
182.073100 2554.900000
182.109200 18739.300000
183.057400 6234.400000
183.080700 13789.900000
183.116900 62892.200000
184.088200 11480.300000
184.124800 7314.000000
185.096200 63027.200000
185.133000 14271.800000
186.103700 3853.600000
187.075300 9681.600000
187.111600 10399.300000
189.046600 10369.500000
189.090900 4007.400000
189.127500 5312.500000
191.025600 9189.300000
191.062000 11960.600000
191.085200 3868.800000
192.093100 5906.100000
193.041700 18618.500000
193.077900 7545.400000
193.101300 32888.700000
194.109100 10637.900000
195.057500 19334.800000
195.079900 11022.300000
195.116800 34410.400000
196.124800 11306.800000
197.096300 14370.000000
197.132500 21763.300000
199.112000 19087.300000
201.046600 7013.300000
201.127400 10281.100000
202.077900 2892.200000
203.062500 11241.000000
203.085900 3867.600000
204.093400 7348.300000
205.041700 39584.100000
205.077300 5666.200000
205.101000 22900.300000
206.108800 9414.900000
207.057200 13294.900000
207.080800 3056.100000
207.116700 25925.100000
208.088600 2827.700000
208.124500 5379.200000
209.096100 20933.200000
209.132400 22450.300000
210.104100 4244.900000
210.140400 8014.000000
211.111600 9562.600000
211.148000 5449.000000
213.127700 2472.100000
215.061700 6883.300000
217.077900 19095.000000
217.100900 9510.500000
218.108800 6561.300000
219.057100 46793.400000
219.092300 2579.000000
219.116900 35376.800000
220.124700 11756.700000
221.072400 6540.500000
221.097100 11316.900000
221.132500 33302.200000
222.103900 7798.400000
222.139500 6557.900000
223.111600 23174.500000
223.147900 10957.100000
224.119900 3622.300000
225.127200 7751.800000
227.062000 3487.900000
227.106600 5852.300000
229.077400 8791.900000
229.101400 3668.800000
230.109000 4398.500000
231.057500 4892.100000
231.094000 11631.100000
231.116400 15486.800000
232.124300 12113.300000
233.073000 4850.300000
233.132700 24861.100000
234.103500 3844.400000
234.140100 8327.800000
235.088300 10362.100000
235.111800 25375.200000
235.148200 73577.300000
236.119500 14900.500000
236.155900 7547.200000
237.127500 31712.800000
237.163900 18533.800000
238.135400 4918.600000
241.078100 5568.800000
243.056900 2761.000000
243.092800 8017.700000
243.116600 4834.000000
244.101200 3696.100000
244.124400 7765.700000
245.072800 4469.600000
245.109400 9006.400000
245.132300 15226.200000
246.104800 3020.500000
246.140500 17567.100000
247.111800 6656.300000
247.148300 18476.300000
248.119600 9328.000000
248.155900 7206.300000
249.127800 26268.800000
249.163700 34567.800000
250.135600 19183.100000
250.171900 18469.500000
251.143100 25612.900000
251.179900 19860.300000
252.150900 4129.300000
253.157900 4112.900000
255.093500 8288.200000
257.072700 3990.400000
257.108500 4256.600000
259.088000 4508.200000
259.148100 19013.100000
260.156100 18559.000000
261.127100 7020.200000
261.163700 53597.000000
262.135200 15143.700000
262.170800 3094.800000
263.143100 130247.500000
264.151100 16972.100000
265.158700 6293.600000
267.094100 3125.900000
269.071500 2959.900000
269.108900 4578.100000
270.140300 4353.500000
271.088900 3148.800000
271.124900 6808.600000
273.102600 3419.600000
273.127500 7487.600000
275.142900 4787.800000
275.179400 7712.700000
277.158800 135676.000000
278.166400 56161.000000
279.174400 212630.300000
281.108900 5170.900000
285.104300 9110.300000
285.163100 3786.800000
288.151100 9663.900000
295.125300 4362.600000
297.140200 9600.500000
299.120000 43186.800000
303.174300 16915.600000
306.161500 3781.300000
313.135500 69781.600000
314.143200 42175.300000
315.150500 13767.200000
321.185100 25960.300000
357.161000 7778.600000

>ms2
53.038600 4679.800000
55.017900 11421.100000
55.054300 17243.800000
57.070000 4071.500000
59.049200 5186.900000
65.038500 3999.000000
67.054200 28129.400000
69.033500 7568.500000
69.069900 5658.000000
71.049100 3194.600000
79.054200 28811.900000
81.069900 28250.400000
83.049100 5084.900000
85.028300 5984.200000
85.064800 2744.300000
91.054200 84186.500000
93.069900 48643.400000
95.049200 14953.800000
95.085500 17688.600000
97.064900 8223.100000
103.054200 8431.900000
105.069900 144344.900000
107.049100 10981.000000
107.085500 27934.000000
109.064800 12268.400000
109.101200 7801.300000
111.080400 4492.100000
115.054300 17173.600000
116.062000 4777.300000
117.069800 45221.700000
119.049400 5138.800000
119.085500 57063.100000
121.064800 33649.800000
121.101200 14701.400000
123.080400 3771.700000
127.030800 2752.000000
128.062000 20346.900000
129.069900 50012.400000
130.077800 17282.200000
131.049200 6896.100000
131.085600 58303.000000
132.057100 5000.500000
133.064900 8340.200000
133.101200 122469.400000
135.080500 10415.400000
135.117100 5299.800000
139.031000 6721.500000
141.069800 30370.200000
142.077800 42068.800000
143.085600 47114.800000
144.057000 5189.500000
144.093500 7219.900000
145.064700 33262.900000
145.101200 51693.300000
146.072700 9417.100000
147.080300 18815.300000
147.116800 72956.000000
149.096000 2976.400000
151.030900 4106.800000
151.112100 2481.500000
152.061800 3190.800000
153.046500 5988.400000
153.069700 12594.000000
154.077700 12442.800000
155.026000 5160.000000
155.060800 4141.200000
155.085500 48618.800000
156.093500 14081.900000
157.064800 17491.400000
157.101200 40779.800000
158.072800 10562.800000
159.080500 27629.900000
159.116900 26304.800000
160.088500 4197.500000
161.096100 6164.200000
163.031100 4388.900000
165.046700 6761.300000
165.069900 21542.700000
166.077600 11887.600000
167.026300 2292.900000
167.062400 2878.200000
167.085600 31032.400000
168.093200 14989.200000
169.041700 4072.800000
169.064400 5641.800000
169.101100 28148.900000
170.072600 5797.700000
170.109200 3563.100000
171.080500 21529.700000
171.116900 20517.100000
172.088200 5203.600000
173.096300 8364.500000
175.031200 6389.100000
175.111900 11594.500000
177.046600 14212.100000
178.017700 3177.200000
178.078000 8138.400000
179.026000 6216.100000
179.061900 4264.000000
179.085600 31088.900000
180.093400 16614.500000
181.041300 18438.100000
181.064400 3429.900000
181.078100 4044.800000
181.101100 36731.300000
182.072300 2704.400000
182.109300 14556.200000
183.080400 10678.000000
183.116900 48240.400000
184.088400 7654.100000
184.125200 2963.000000
185.095900 31041.500000
185.132700 4154.300000
186.104600 3238.900000
187.111900 4486.200000
189.046100 9991.100000
190.077300 3645.500000
191.025500 12312.700000
191.062500 3968.700000
191.085700 13644.800000
192.093300 16761.100000
193.041500 6642.300000
193.078600 2686.600000
193.101300 30007.200000
194.072700 4159.300000
194.109200 12649.800000
195.080700 8207.300000
195.116900 29507.100000
196.088300 3216.400000
196.125100 7377.500000
197.096400 8682.200000
197.132700 11252.600000
199.111900 4366.300000
201.046400 3450.800000
202.077800 4580.900000
203.062600 4450.500000
203.085800 12262.200000
204.093100 14173.600000
205.041800 18903.000000
205.101200 25305.800000
206.109300 13852.100000
207.058000 2387.300000
207.080700 7401.200000
207.117100 23762.300000
208.088100 8225.400000
208.124900 7010.200000
209.096200 18175.600000
209.132600 16314.400000
210.104000 3068.900000
210.140700 6120.700000
211.112300 3346.400000
211.148400 4585.300000
215.062400 4793.700000
215.085700 5541.700000
216.093500 8140.700000
217.077900 6114.500000
217.101300 14599.500000
218.109000 11594.500000
219.057300 10255.200000
219.081200 3148.000000
219.093600 2525.300000
219.116900 30465.600000
220.088600 5459.600000
220.124600 12914.400000
221.095900 20135.400000
221.132500 28938.200000
222.103900 13293.900000
222.140500 7227.400000
223.112200 14525.600000
223.148400 6406.000000
224.119500 4953.300000
225.128100 3070.400000
229.078600 3881.200000
229.101700 7298.500000
230.109400 8219.900000
231.094400 4746.300000
231.116900 18961.500000
232.124500 11070.300000
233.096500 7440.000000
233.132500 23431.700000
234.104000 5712.100000
234.140300 8565.900000
235.111700 22942.900000
235.148100 47506.000000
236.119900 8056.400000
236.156100 3279.700000
237.127500 14468.000000
237.163500 8308.200000
243.093500 2455.600000
243.116800 3905.600000
244.101100 2981.200000
244.125100 6861.600000
245.132400 21082.800000
246.103500 2700.900000
246.140000 12441.200000
247.111900 8647.900000
247.148000 8895.800000
248.119800 8942.900000
249.127200 22582.700000
249.163200 11766.600000
250.134900 10679.100000
250.172000 3226.400000
251.142800 6485.800000
251.179500 4003.500000
255.094400 2552.700000
255.116900 3060.800000
259.147800 5620.400000
260.156600 6327.100000
261.128000 2881.600000
261.164000 13940.100000
262.135400 9038.400000
263.143200 77606.200000
264.150500 10745.300000
265.159400 2453.100000
269.073300 2645.500000
271.088600 2438.800000
273.127700 7108.700000
277.159000 26144.700000
278.166500 6975.100000
279.174500 39654.000000
299.119500 9651.500000
313.135500 5465.000000

>ms2
53.002200 3388.000000
53.038600 15907.500000
55.017900 12883.800000
55.054300 27623.000000
57.069900 3490.900000
59.049100 7429.700000
65.038600 13870.300000
67.054300 46393.900000
69.033500 7054.000000
69.069800 7620.600000
77.038500 4183.200000
79.054300 62917.400000
81.033500 2536.700000
81.070000 25088.400000
83.049100 6625.500000
85.028500 6260.200000
85.065100 3180.600000
91.054300 223553.400000
93.070000 58993.500000
94.041400 2914.600000
95.049200 28141.000000
95.085800 14691.300000
97.065000 6369.800000
103.054400 20719.900000
105.070000 235078.100000
107.049200 17033.200000
107.085500 16023.200000
109.065200 14336.900000
109.101200 3509.500000
113.015100 4318.200000
115.054300 55912.200000
116.062200 15947.200000
117.070000 72723.000000
118.077700 3797.600000
119.085700 68472.000000
120.057000 2537.400000
121.064900 24124.600000
121.101300 7495.100000
123.080400 4035.000000
125.015200 4305.200000
127.031200 3875.100000
127.054500 6546.300000
128.062200 71060.100000
129.069900 88666.600000
130.077800 22453.800000
131.049200 12462.700000
131.085700 64203.100000
132.057000 10012.600000
133.064900 10489.000000
133.101300 88442.100000
135.080600 5466.400000
139.030900 8595.000000
141.070000 89941.400000
142.077900 90212.900000
143.085700 59890.700000
144.057100 13877.200000
144.093800 10899.600000
145.065000 50301.600000
145.101300 34926.700000
146.072800 9658.300000
147.080400 8240.400000
147.116900 24552.100000
149.096500 3273.900000
151.030800 4076.400000
152.062200 16078.500000
153.070000 39461.300000
154.077700 27143.400000
155.026000 4829.400000
155.060600 16643.700000
155.085600 71242.200000
156.093700 16071.900000
157.064900 24345.000000
157.101300 28342.300000
158.072600 14374.000000
159.080700 20572.300000
159.117000 11057.100000
160.088600 2504.400000
162.023400 3376.400000
163.030800 7066.000000
165.047100 3722.000000
165.070100 66578.900000
166.077800 33636.000000
167.085800 58057.200000
168.057100 3994.100000
168.093800 18499.900000
169.065100 12714.300000
169.101200 26258.400000
170.072900 12140.700000
170.108600 4608.300000
171.080500 25590.700000
171.116700 9220.600000
172.088200 3159.100000
173.096400 3986.200000
175.031200 10700.400000
175.075800 2614.400000
177.046400 6448.300000
178.077800 32702.400000
179.026000 3440.900000
179.085700 66555.600000
180.093600 25208.600000
181.041700 5519.800000
181.064400 8033.500000
181.101300 46627.800000
182.072900 7936.100000
182.109500 11066.700000
183.080300 14302.800000
183.117000 28811.600000
184.088400 8298.900000
185.096300 18583.300000
185.133100 3176.600000
189.046500 6183.800000
189.070300 6860.400000
190.077900 13578.800000
191.026000 13366.300000
191.061900 2779.500000
191.085500 32382.500000
192.093600 35655.900000
193.041500 3755.300000
193.101500 51693.100000
194.073000 6653.300000
194.109100 19965.300000
195.080900 13177.700000
195.117100 28476.700000
196.088100 3821.000000
196.125100 5352.100000
197.096600 4166.300000
197.132700 5877.300000
199.111700 3426.100000
201.046400 3615.900000
202.077800 18448.500000
203.062600 4464.200000
203.085600 30233.400000
204.093700 21405.700000
205.041500 5114.300000
205.101400 43155.700000
206.073100 4120.000000
206.109200 18341.000000
207.080600 18611.600000
207.117000 26046.400000
208.088600 13848.300000
208.125000 6346.200000
209.096500 15121.700000
209.132700 15855.300000
210.104300 3018.200000
210.140400 3222.800000
211.112200 2499.000000
215.062400 4777.400000
215.085900 13736.700000
216.093500 21482.000000
217.078400 4292.000000
217.101600 24092.100000
218.072800 2509.800000
218.109200 15583.400000
219.056400 3294.300000
219.080700 11139.600000
219.116900 29606.300000
220.088400 10185.400000
220.125300 15807.100000
221.096400 32974.600000
221.132500 23999.400000
222.103500 11694.000000
223.111900 9325.600000
223.148100 3246.200000
229.101000 18715.900000
230.109400 14496.500000
231.116800 26304.800000
232.088500 7457.000000
232.124800 9777.900000
233.096100 15782.200000
233.132500 18392.200000
234.104500 10633.900000
234.140300 4990.700000
235.112200 22100.300000
235.148300 23533.000000
236.119600 7759.800000
237.127300 5905.000000
243.116200 5753.600000
244.126200 5001.800000
245.132600 15219.100000
246.104400 3776.100000
246.140700 6205.000000
247.111700 16142.200000
248.119400 15339.800000
249.127300 20548.700000
249.163900 5415.100000
250.135200 4016.600000
251.143200 3576.300000
255.116700 4505.400000
261.128000 3493.000000
261.163900 5313.000000
262.135600 4601.100000
263.143300 37070.300000
264.150700 4348.500000
273.127500 3034.400000
277.158200 4932.000000
279.173700 5023.500000

>ms2
53.002200 3710.600000
53.038600 28404.000000
55.017900 17672.500000
55.054300 43197.200000
57.069900 4019.300000
59.049100 7590.300000
65.038600 34777.200000
67.054200 58576.900000
69.033500 6208.900000
69.069800 4394.800000
71.049100 3792.900000
77.038500 7085.400000
79.054200 103416.600000
81.033600 5401.300000
81.069900 34592.700000
83.049200 3894.600000
85.028400 2912.300000
91.054200 335431.000000
93.069900 57445.600000
94.041100 5274.300000
95.049100 58445.900000
95.085400 11236.800000
103.054300 44957.600000
105.069900 264904.800000
107.049300 20597.400000
107.085600 10027.900000
109.064900 9495.400000
113.015300 2591.600000
115.054200 116060.600000
116.062100 30546.100000
117.069900 79863.900000
118.077900 4490.800000
119.049000 4553.400000
119.085600 47105.000000
120.057100 2832.800000
121.064900 19417.100000
121.101400 2885.200000
125.015300 9833.100000
127.031000 2102.100000
127.054300 8691.100000
128.062000 148148.800000
129.069900 114176.600000
130.077700 33893.300000
131.049200 26229.300000
131.085600 48997.900000
132.057100 13650.900000
133.064800 7154.900000
133.101200 41404.800000
139.031100 7223.900000
141.069900 142205.600000
142.077800 98757.700000
143.085600 45779.300000
144.057100 20529.800000
144.093400 5337.300000
145.064900 43476.800000
145.100900 15866.600000
146.073100 5189.100000
147.116900 6651.200000
152.062100 34790.600000
153.069900 70739.800000
154.077700 32170.700000
155.060400 24229.200000
155.085500 75583.900000
156.093300 17271.300000
157.064800 28704.500000
157.101200 12372.900000
158.072800 11048.200000
159.080700 10253.500000
159.117300 3600.400000
162.023300 3312.700000
163.031400 4009.500000
165.069900 132853.400000
166.077800 52917.400000
167.085500 73982.000000
168.056900 7022.600000
168.093400 18984.700000
169.065000 26094.800000
169.101100 18544.100000
170.072800 13098.800000
171.080400 17619.900000
171.116800 4301.100000
172.088600 3334.200000
173.096600 3081.800000
175.031000 11088.000000
178.017800 3846.900000
178.077700 73265.500000
179.085600 93040.400000
180.093300 31144.300000
181.064800 21083.900000
181.101200 39623.100000
182.072900 8085.900000
182.109400 6396.800000
183.080800 9999.600000
183.116500 12311.200000
184.088600 3820.000000
185.096300 7128.200000
189.046900 6597.900000
189.069900 21115.200000
190.077700 25882.300000
191.085600 67201.500000
192.093400 42971.700000
193.101200 44978.300000
194.072900 12666.400000
194.109500 10374.900000
195.080500 14953.100000
195.117100 15896.400000
196.089300 3253.500000
196.124900 3748.800000
202.077800 47579.400000
203.085500 64330.300000
204.093500 34679.100000
205.041800 3301.800000
205.101400 47401.000000
206.073000 6587.100000
206.109400 14580.100000
207.080600 24180.400000
207.117100 14076.800000
208.088100 17612.900000
208.124700 3802.300000
209.096000 10674.400000
209.132900 7555.700000
215.085700 37043.500000
216.093500 27230.900000
217.101400 33939.800000
218.072600 6452.600000
218.109000 16182.300000
219.080400 15315.300000
219.116500 24838.800000
220.088700 9786.900000
220.125200 9361.200000
221.096100 21870.100000
221.131900 10682.900000
222.104100 6256.800000
223.112600 2756.300000
229.101500 24857.400000
230.109000 13105.500000
231.116900 25569.900000
232.088000 10866.200000
233.096000 21594.400000
233.133000 9585.800000
234.104100 8695.600000
235.111800 12785.000000
235.148700 6153.400000
236.119900 2900.200000
243.116500 4797.700000
245.132900 7289.700000
246.104000 2573.100000
247.111700 12089.100000
248.120100 10329.300000
249.127800 8600.400000
261.127300 3005.600000
263.143400 6934.800000

