>compound LU61255934
>parentmass 269.0607
>ionization [M+H]+
>formula C13H14Cl2N2
>rt 812.580000
>profile orbitrap
#smiles_iso C1CCC2=NC3=C(CN2CC1)C(=CC(=C3)Cl)Cl
#smiles_can C1CCC2=NC3=C(CN2CC1)C(=CC(=C3)Cl)Cl
#inchikey WTPSHLVHJOJDIF-UHFFFAOYSA-N
#pubchem_id 9838284
#mb_accession LU137601,LU137602,LU137603,LU137604,LU137605,LU137606

>ms2
148.075600 24897.800000
269.060500 21425528.000000

>ms2
134.096400 38745.000000
148.075700 54679.600000
234.090300 24842.200000
269.060300 22169274.000000

>ms2
69.069800 55561.200000
79.054200 30480.600000
96.080700 425637.200000
134.096300 45225.600000
173.987100 103825.600000
212.997400 23577.900000
214.005900 248201.300000
215.013700 43878.500000
227.013700 327244.800000
252.033300 23326.500000
269.060500 23052282.000000

>ms2
53.038600 15763.500000
54.033800 61660.300000
55.054200 262722.300000
67.054100 37273.700000
68.049500 38938.900000
69.069800 695925.100000
79.054200 367591.600000
80.049400 14965.900000
81.057300 89854.200000
84.080700 22423.400000
94.065100 48344.800000
95.049100 24740.300000
96.080800 2618839.800000
107.048900 14363.500000
120.080800 18265.700000
134.096300 27327.200000
151.018400 31442.900000
172.979000 26887.100000
173.987200 1026887.700000
177.033900 13447.300000
179.037000 40570.900000
183.971300 17351.600000
185.987100 50431.900000
193.065500 26247.500000
197.987200 92166.400000
198.982900 26953.100000
199.990200 21099.100000
200.002600 34928.500000
200.997800 20255.600000
202.042100 24531.500000
205.065000 15800.100000
209.987000 33762.800000
211.990200 46786.400000
212.002600 23454.600000
212.998000 376145.200000
214.005800 1944246.900000
215.013600 253426.300000
216.033900 14649.200000
217.065100 31736.000000
224.997400 19673.300000
227.013700 1785362.200000
228.021400 40175.900000
228.033900 54450.900000
233.084100 12501.400000
234.091300 16183.800000
239.013600 121808.700000
240.021200 97331.000000
240.034300 27414.400000
241.029600 61004.900000
252.033900 70183.700000
253.029400 42733.300000
254.037300 55697.700000
267.044700 19173.300000
269.060500 12251067.000000

>ms2
53.002200 43273.100000
53.038600 53592.200000
54.033800 239691.900000
55.054200 860397.200000
56.049400 24595.200000
65.038400 8335.000000
67.054200 61406.300000
68.049400 126992.100000
69.069800 1964251.900000
70.065100 9338.800000
77.038400 9393.100000
79.054200 882350.500000
80.049400 71568.700000
81.057300 325734.200000
84.080700 24986.600000
94.065100 102670.400000
95.049200 73356.400000
96.080700 3015996.000000
104.049200 6175.600000
105.044700 30627.000000
107.049200 6260.200000
114.091300 4115.100000
118.065000 5036.400000
120.080900 28449.100000
129.010000 8506.500000
130.040200 8028.700000
134.096300 13331.600000
138.010500 22941.300000
139.005900 12958.100000
139.018300 12522.400000
145.968500 13729.100000
146.976400 46105.200000
151.018300 102731.100000
154.065400 4891.800000
158.976200 8119.000000
162.010400 13677.000000
163.018400 5496.600000
164.026200 16730.300000
165.021500 16403.000000
165.033900 35001.000000
167.073200 8924.000000
170.976400 15429.600000
171.971400 83143.900000
172.979400 100029.400000
173.987200 2715765.000000
175.018400 5144.100000
177.033800 23228.300000
178.029300 16850.400000
178.041900 20784.300000
179.036900 165137.400000
180.020800 6146.600000
181.088300 7885.800000
183.971700 24836.000000
184.979600 16689.000000
185.987100 67785.600000
186.995100 17621.100000
188.003000 7082.000000
188.026200 25371.600000
192.045000 13177.900000
192.057300 13139.900000
193.065300 21223.900000
197.987100 186278.600000
198.982600 37811.800000
198.994000 9806.600000
199.990400 51116.500000
200.002800 48030.800000
200.998000 25583.400000
202.041700 31413.600000
203.036800 5450.100000
204.057100 8626.900000
205.052600 20700.600000
205.065400 14361.600000
209.987100 41308.500000
210.994600 24967.900000
211.990300 92344.000000
212.002900 27088.600000
212.998000 1221048.800000
214.005800 1974073.200000
215.013600 203305.200000
216.033500 9809.400000
216.057500 17073.100000
217.065400 12968.100000
219.068500 9186.800000
222.995300 8538.800000
224.003300 10233.000000
224.997900 62576.900000
226.018400 4922.200000
227.013600 1866846.500000
228.021600 31149.600000
228.034200 32286.900000
236.002500 23827.600000
237.010500 7207.100000
239.013600 264187.300000
240.021500 74498.100000
240.034000 9257.400000
241.029400 45547.500000
242.050400 6663.400000
252.034100 41969.100000
253.029200 103684.300000
254.037000 38996.500000
267.045200 18040.200000
268.052300 5632.500000
269.060500 2437788.500000

>ms2
53.002200 117213.200000
53.038600 125816.800000
54.033800 418166.000000
55.054200 1499467.600000
56.049500 37940.200000
65.038500 12183.800000
67.054200 89831.400000
68.049400 202328.800000
69.069800 2428958.800000
77.038400 25801.700000
79.054200 897532.400000
80.049400 150928.300000
81.057300 489068.500000
84.080800 7793.900000
94.065100 125519.100000
95.049200 163884.100000
96.080800 1613378.000000
104.049400 27943.000000
105.044700 63664.200000
120.080800 37967.200000
129.010200 50882.900000
130.039900 35667.400000
138.010500 86621.500000
139.005700 71954.000000
139.018300 55782.800000
145.968400 50057.800000
146.976300 138199.100000
151.018300 149443.500000
154.065000 6282.200000
158.976300 26053.700000
162.010400 38750.600000
163.017900 11154.400000
164.026000 28852.300000
165.021500 73667.700000
165.033700 46036.500000
167.073000 11450.400000
170.976200 31266.500000
171.971500 277083.500000
172.979400 104632.400000
173.987200 3610476.500000
175.018300 15986.200000
177.033800 20178.100000
178.029200 67804.400000
178.041500 14714.200000
179.037000 225462.200000
180.021100 14856.300000
181.088100 11824.200000
183.971700 37081.100000
184.979500 31615.900000
185.987300 71190.600000
186.994800 28554.000000
188.026300 27229.900000
192.044900 24542.900000
192.056700 9701.900000
193.065200 10543.900000
197.987200 176183.400000
198.982700 45951.600000
199.990200 43000.400000
200.002500 25655.300000
200.998400 11780.200000
202.041700 21326.600000
203.037100 11039.300000
204.057400 5404.000000
205.053000 12338.200000
205.064900 4603.800000
209.987800 23317.600000
210.995200 23481.700000
211.990200 118362.100000
212.002600 27463.800000
212.998000 1844290.200000
214.005800 713345.800000
215.013600 71697.300000
216.057400 14905.500000
224.002900 6079.900000
224.998100 74158.400000
227.013700 1201520.500000
228.021900 6717.600000
228.034100 9279.800000
233.083400 5296.900000
236.002800 23242.500000
239.013700 237149.000000
240.021500 18821.900000
241.029200 13643.900000
252.034400 11963.700000
253.029300 113195.900000
254.036500 8791.800000
269.060600 265913.200000

