>compound LU61035473
>parentmass 300.0301
>ionization [M+H]+
>formula C12H11Cl2N3O2
>rt 1003.620000
>profile orbitrap
#smiles_iso C1COC(O1)(CN2C=NC=N2)C3=C(C=C(C=C3)Cl)Cl
#smiles_can C1COC(O1)(CN2C=NC=N2)C3=C(C=C(C=C3)Cl)Cl
#inchikey AKNQMEBLVAMSNZ-UHFFFAOYSA-N
#pubchem_id 43233
#mb_accession LU056601,LU056602,LU056603,LU056604,LU056605,LU056606

>ms2
70.039900 71325.100000
158.975800 123234.200000
172.956500 9336.900000
216.982500 7522.700000
230.997400 943244.900000
300.030000 6850971.000000

>ms2
70.039900 314361.600000
158.976200 2948456.500000
172.955400 41897.100000
196.028300 19206.500000
216.981700 60134.200000
227.058300 10505.800000
230.997300 4559804.000000
300.030000 1993577.500000

>ms2
70.039900 222276.900000
89.038600 8545.900000
158.976300 8110187.000000
172.955500 117050.900000
196.028700 51986.500000
216.981700 150332.900000
230.997400 1168101.000000
300.029900 57199.500000

>ms2
70.040000 158985.000000
84.055600 9789.400000
89.038700 8940.500000
117.070000 10132.100000
122.999600 52537.200000
124.007500 9296.300000
152.002100 15136.000000
158.976300 8767588.000000
172.955700 280034.600000
196.029000 38290.000000
216.981800 109594.300000
230.997700 70372.500000

>ms2
70.040000 165329.700000
72.984000 9898.700000
89.038500 46490.000000
98.999600 73198.500000
117.069900 19349.300000
122.999700 460314.000000
124.007500 115356.700000
132.960800 46736.400000
152.002400 30342.100000
158.976400 9647003.000000
172.955700 537547.600000
172.966200 45544.500000
196.029200 14493.100000
216.981700 45554.600000

>ms2
63.022800 12826.900000
65.038600 14418.800000
70.039900 139118.500000
72.983800 36449.400000
84.055600 11059.500000
84.983900 15219.100000
89.038500 261044.600000
96.983900 19338.600000
98.999600 279025.800000
100.007500 16346.900000
108.984000 24024.800000
117.069900 16341.000000
122.999600 1414787.800000
124.007400 425927.300000
126.994400 8616.900000
128.002300 17998.800000
132.960600 178637.300000
144.960400 15245.300000
152.002100 24528.800000
158.976200 7334270.000000
162.971100 22900.300000
172.955500 467712.000000
172.966500 161093.800000

