>compound LU61775408
>parentmass 289.1547
>ionization [M+H]+
>formula C16H20N2O3
>rt 642.720000
>profile orbitrap
#smiles_iso C1CN2CCC1[C@H](C2)NC(=O)C3=CC4=C(C=C3)OCCO4
#smiles_can C1CN2CCC1C(C2)NC(=O)C3=CC4=C(C=C3)OCCO4
#inchikey LUVXHMJTVXZFPD-ZDUSSCGKSA-N
#pubchem_id 9932000
#mb_accession LU050701,LU050702,LU050703,LU050704,LU050705,LU050706

>ms2
110.096200 19140.600000
163.039600 56222.100000
289.154400 15582161.000000

>ms2
82.065100 59398.500000
96.080800 17807.400000
110.096400 694916.400000
125.107300 45941.400000
128.106900 188209.800000
149.059700 58116.700000
162.054800 20707.300000
163.038800 655525.000000
180.065500 32148.200000
272.126700 18339.400000
289.154500 15095035.000000

>ms2
53.038600 8688.800000
54.033800 7793.300000
55.054100 62974.900000
56.049400 208968.200000
67.054100 45930.400000
68.049400 140105.700000
69.057200 44891.000000
69.069700 37133.600000
79.054100 49814.400000
80.049400 26550.100000
81.069800 346795.800000
82.065000 712537.600000
83.085400 14548.800000
84.080700 11046.400000
91.054200 27949.600000
93.069800 82372.200000
94.065100 16802.700000
95.072900 28683.400000
96.080700 157087.400000
98.096300 24866.000000
108.080600 113526.000000
110.096300 3870028.500000
123.091700 9310.800000
125.107200 128727.900000
126.091100 21363.400000
128.106800 720751.200000
137.059600 71743.500000
149.059600 207193.400000
162.054900 162463.100000
163.038800 4420709.000000
164.070700 15464.200000
180.065300 164229.200000
242.117400 8890.800000
244.133100 16867.100000
246.112000 11328.400000
246.148100 7540.500000
271.143800 28634.700000
272.127900 45631.600000
287.139000 24647.500000
289.154300 6454462.000000

>ms2
53.038600 42148.100000
54.033800 45806.600000
55.054200 291854.800000
56.049500 516242.600000
65.038500 24961.400000
67.041600 24445.200000
67.054200 122565.300000
68.049400 443299.000000
69.057300 173319.900000
69.069800 77356.200000
70.065100 14407.200000
77.038600 9885.800000
79.054200 364459.400000
80.049400 79157.500000
81.069900 1214595.600000
82.065100 1675166.600000
83.085600 21161.200000
84.080800 35129.900000
91.054200 119161.600000
93.069900 223842.600000
94.065100 37488.400000
95.049200 34106.100000
95.073000 130075.800000
96.080800 153696.400000
98.096300 16980.900000
105.044700 20569.600000
107.012700 86844.700000
108.080800 242887.900000
109.064800 9677.900000
110.096400 3668381.800000
125.107300 48846.600000
126.091100 9621.000000
128.107000 486047.400000
135.044100 11420.300000
137.059700 232687.900000
149.059700 159335.600000
153.054600 82064.800000
162.055100 332751.900000
163.039000 6734037.000000
164.070400 10233.600000
180.065500 120186.100000
233.128000 12304.900000
244.133300 19660.200000
271.144200 7924.300000
272.126600 16816.000000
287.138800 13692.100000
289.154700 880382.200000

>ms2
51.023000 6131.900000
53.002200 29896.100000
53.038600 97905.300000
53.997500 5916.700000
54.033900 100444.500000
55.054300 504905.500000
56.049500 460121.400000
65.038600 73593.800000
66.046400 10145.700000
67.041700 54687.100000
67.054200 145601.500000
68.049500 525740.000000
68.997100 16772.400000
69.033400 18850.700000
69.057300 182118.600000
69.069900 60447.300000
70.065100 13588.300000
77.038500 16003.600000
79.054200 892216.400000
80.049500 147173.300000
81.057300 103647.700000
81.069900 1254926.100000
82.065100 1863154.800000
83.085600 14991.200000
84.080800 35335.400000
91.054300 178085.300000
93.057400 17896.400000
93.069900 212821.400000
94.065200 91117.000000
95.012700 16245.400000
95.049200 114499.500000
95.073000 238268.000000
96.080800 87625.900000
98.096500 8115.400000
105.044700 42809.700000
107.012800 629988.000000
108.080800 211824.000000
109.064800 11247.600000
110.096500 1467362.800000
111.044100 16486.700000
113.023400 6545.200000
118.028800 7741.600000
125.023400 25843.100000
128.107000 133043.500000
135.044000 35562.800000
136.039400 12566.000000
137.059700 235325.000000
139.039100 7080.800000
149.059800 77570.100000
153.054700 303262.100000
162.055100 295830.200000
163.039200 5077826.500000
163.049100 906040.900000
164.047300 9670.100000
164.070600 6311.500000
180.065400 29407.400000
233.128900 12637.500000
289.154800 50540.400000

>ms2
51.023100 8878.400000
53.002200 46933.000000
53.038600 175098.500000
53.997400 7297.800000
54.033800 124667.700000
55.054200 570274.200000
56.049500 370261.900000
63.022900 8348.100000
65.038500 138342.700000
66.046300 20656.000000
67.041600 106217.200000
67.054200 124423.800000
68.049400 483386.500000
68.997100 29643.100000
69.033400 23566.800000
69.057300 131592.900000
69.069800 28860.200000
70.065000 11000.400000
77.038500 40676.700000
79.017800 86672.700000
79.054200 1237512.900000
80.049400 237673.300000
81.057400 102672.800000
81.069900 803111.800000
82.065100 1390402.900000
83.049100 5414.000000
83.085500 9865.200000
84.080800 24217.300000
91.054200 173375.500000
93.057300 36634.300000
93.069900 115281.400000
94.065100 160975.300000
95.012700 17739.800000
95.049100 218510.900000
95.072900 233202.600000
96.080700 41396.300000
105.044700 78108.500000
106.028700 25175.900000
107.012700 1769959.400000
108.080700 136723.200000
109.064900 6555.800000
110.096400 461745.500000
111.044000 29793.700000
113.023000 16249.300000
118.028600 12154.100000
125.023300 82245.200000
128.106900 26521.100000
135.043800 53742.000000
136.039200 41421.700000
137.059700 149312.900000
139.038900 21783.800000
149.059800 30273.800000
153.054600 403310.600000
162.054900 208781.200000
163.039100 2307797.000000
163.049600 1217366.600000
164.047100 9705.600000
180.065000 4752.600000
233.128500 5070.600000

