>compound LU61660675
>parentmass 398.0678
>ionization [M+H]+
>formula C14H24NO4PS3
>rt 1094.160000
>profile orbitrap
#smiles_iso CC(C)OP(=S)(OC(C)C)SCCNS(=O)(=O)C1=CC=CC=C1
#smiles_can CC(C)OP(=S)(OC(C)C)SCCNS(=O)(=O)C1=CC=CC=C1
#inchikey RRNIZKPFKNDSRS-UHFFFAOYSA-N
#pubchem_id 12932
#mb_accession LU137901,LU137902,LU137903,LU137904,LU137905,LU137906

>ms2peaks
158.027500 3786.500000
200.020100 7646.900000
218.030700 16435.900000

>ms2peaks
61.010500 2325.400000
141.000600 6625.400000
158.027100 39562.400000
200.020000 10514.100000
218.030500 12467.900000

>ms2peaks
61.010700 9991.300000
128.922900 2813.400000
141.000500 23952.200000
158.027100 18719.300000
200.020100 4125.600000

>ms2peaks
53.038600 3293.400000
61.010600 12081.700000
95.049300 6451.900000
105.044900 2483.200000
125.005700 7308.100000
128.923300 1994.800000
141.000500 14029.400000

>ms2peaks
53.038600 5022.900000
61.010700 13313.700000
95.049200 16416.100000
105.044900 5753.600000
125.005800 4052.700000
141.000500 5195.200000

>ms2peaks
53.038600 5504.900000
61.010700 8551.800000
95.049200 15300.600000
105.044900 4724.100000

