>compound LU61761526
>parentmass 214.0863
>ionization [M+H]+
>formula C13H11NO2
>rt 1015.980000
>profile orbitrap
#smiles_iso C1=CC=C(C=C1)NC(=O)C2=CC=CC=C2O
#smiles_can C1=CC=C(C=C1)NC(=O)C2=CC=CC=C2O
#inchikey WKEDVNSFRWHDNR-UHFFFAOYSA-N
#pubchem_id 6872
#mb_accession LU115501,LU115505

>ms2
94.065200 162470.100000
95.049100 4878.000000
121.028400 232149.200000

>ms2
94.065200 199173.300000
95.049200 15724.800000
121.028500 325575.400000

