>compound LU62416469
>parentmass 366.0674
>ionization [M+H]+
>formula C16H16ClN3O3S
>rt 904.320000
>profile orbitrap
#smiles_iso CC1CC2=CC=CC=C2N1NC(=O)C3=CC(=C(C=C3)Cl)S(=O)(=O)N
#smiles_can CC1CC2=CC=CC=C2N1NC(=O)C3=CC(=C(C=C3)Cl)S(=O)(=O)N
#inchikey NDDAHWYSQHTHNT-UHFFFAOYSA-N
#pubchem_id 3702
#mb_accession LU068701,LU068703,LU068704,LU068705,LU068706

>ms2peaks
132.080800 416403.300000
133.088500 5101.400000

>ms2peaks
65.038600 6657.900000
91.054300 115495.000000
103.054400 2321.000000
105.069800 5951.500000
107.049100 3134.300000
109.064800 19664.800000
115.054200 4174.200000
117.057300 107132.900000
118.065100 12073.500000
119.060500 12058.300000
130.065100 10111.600000
131.073000 4447.900000
132.080800 441904.500000
133.088600 10133.900000
217.967400 11507.400000

>ms2peaks
65.038500 12753.100000
91.054300 197673.500000
105.069900 12968.500000
107.049100 1916.200000
109.064900 14952.200000
115.054100 2665.300000
117.057400 142222.700000
118.065200 17487.600000
119.060600 14958.200000
130.065200 7836.600000
131.073000 4683.600000
132.080900 143516.800000
217.967100 5255.600000

>ms2peaks
65.038600 19630.300000
90.046500 2750.900000
91.054300 228013.100000
98.999700 2713.400000
103.054400 3483.400000
105.069900 13107.400000
109.064800 10091.900000
115.054300 4356.900000
117.057400 145266.900000
118.065200 24320.900000
130.065200 10262.600000
131.073000 4460.500000
132.080900 86872.600000
133.088800 2088.600000
217.967200 4335.400000

>ms2peaks
65.038600 73709.100000
90.046500 7942.000000
91.054300 208980.600000
98.999700 2874.400000
103.054400 3894.200000
105.070000 12907.400000
109.064800 4050.000000
115.054500 1990.400000
117.057300 136594.700000
118.065200 20988.800000
130.065100 6061.800000
131.073200 5016.500000
132.080800 13365.600000

