>compound LU62341388
>parentmass 312.1343
>ionization [M+H]+
>formula C17H17N3O3
>rt 913.260000
>profile orbitrap
#smiles_iso CC(C)C1(C(=O)NC(=N1)C2=NC3=CC=CC=C3C=C2C(=O)O)C
#smiles_can CC(C)C1(C(=O)NC(=N1)C2=NC3=CC=CC=C3C=C2C(=O)O)C
#inchikey CABMTIJINOIHOD-UHFFFAOYSA-N
#pubchem_id 54739
#mb_accession LU125201,LU125202,LU125203,LU125204,LU125205,LU125206

>ms2
266.129200 24366.900000
267.112700 40825.600000
270.087800 95860.700000
284.139500 77112.000000
294.124200 69296.600000
312.134200 19650464.000000

>ms2
58.065100 44263.800000
69.069800 136385.200000
71.085400 13844.200000
86.096400 753857.800000
97.064800 86625.500000
114.091400 56348.600000
155.060300 20670.400000
181.039900 17084.200000
197.070700 67172.600000
198.066200 241760.100000
199.050200 355343.100000
216.076100 20124.800000
223.122900 199305.800000
224.081400 24615.100000
225.101800 55955.200000
226.097300 45872.400000
227.081800 12083.800000
240.149900 27223.400000
241.084800 11146.400000
249.102000 66617.500000
252.076600 581237.800000
266.128800 1494294.500000
267.112800 2639445.000000
269.079600 82108.300000
270.087200 1967286.500000
284.139300 1211582.200000
294.123700 681115.800000
312.134100 10051948.000000

>ms2
53.002200 43152.100000
53.997400 3768.300000
56.049400 5529.600000
58.065100 96452.900000
67.054200 19313.700000
69.069800 1935951.000000
70.065100 28582.700000
71.072900 20801.800000
71.085500 59042.000000
72.080600 5024.600000
84.080800 29119.800000
86.096400 2408792.500000
97.064800 183010.500000
114.091300 26353.000000
116.049600 4697.400000
127.041800 3650.100000
128.050100 18138.500000
130.052900 6326.700000
146.059900 6437.900000
153.045200 6432.600000
154.052600 9019.500000
155.060200 168980.100000
157.076100 7071.400000
160.075700 23277.800000
171.055100 11687.100000
174.054900 14207.100000
181.039500 232181.800000
182.096100 12024.200000
183.055200 47281.400000
183.091800 31630.300000
184.039100 13066.900000
186.054800 10382.100000
197.071000 494848.900000
198.066200 1676081.100000
199.050100 3037749.500000
201.065900 11152.000000
206.095900 5887.500000
208.075900 5607.600000
211.049800 33055.300000
213.065300 4517.900000
216.076400 19198.700000
221.106200 4360.000000
223.074200 34408.100000
223.122900 253865.600000
224.081700 809728.200000
225.102100 347101.200000
226.085900 17309.200000
226.097300 73154.100000
227.081700 35084.100000
232.074600 4565.600000
234.079000 8963.200000
240.101800 5633.300000
240.150100 8326.600000
241.084400 41641.000000
242.092200 7655.100000
249.102100 496615.300000
251.068900 102244.200000
252.076600 2285017.800000
266.128700 1111509.600000
267.112600 2291109.200000
269.079300 114533.300000
270.087100 866679.400000
282.086700 6036.500000
284.139200 208112.200000
294.123700 89284.800000
312.134100 501157.200000

>ms2
53.002200 122125.000000
53.997400 22313.700000
56.049500 17684.200000
58.065100 67639.000000
67.054200 58987.400000
67.989200 5294.000000
69.069800 2707128.500000
70.065100 53998.600000
71.072900 70415.400000
71.085600 40521.200000
72.044300 16606.800000
72.080800 4770.600000
84.080800 36589.400000
86.096400 2456164.200000
91.041700 13325.100000
94.065100 7344.900000
97.064700 94196.900000
101.038800 11577.100000
105.057100 4761.800000
114.091500 5740.400000
115.041700 16341.700000
116.049400 11220.900000
127.041500 7385.900000
128.048800 28359.700000
129.057400 6913.300000
130.052600 49462.500000
130.065000 9780.300000
133.052300 5173.400000
142.065000 18254.100000
143.036500 48473.900000
143.060400 6497.900000
144.044200 17521.900000
146.060000 205649.800000
153.044300 35727.500000
154.052400 43205.500000
154.064600 5846.400000
155.060300 264405.800000
156.068000 12740.200000
157.076000 33514.200000
158.047600 43922.300000
158.059700 12511.800000
160.075700 56049.800000
161.047200 17738.700000
161.070300 7014.800000
167.072800 13126.500000
171.055200 143051.800000
174.054800 120358.400000
180.080800 20637.000000
181.039500 1643622.200000
182.084200 7862.100000
182.096200 25095.200000
183.055200 305154.700000
183.091500 23538.500000
184.039000 14028.800000
184.075300 8016.600000
185.070700 6480.900000
186.054500 21415.800000
194.096600 6158.600000
196.087100 13917.500000
197.070900 1359424.500000
198.066200 1708861.200000
199.050100 3288978.500000
201.065500 15535.800000
206.083400 8700.200000
206.095700 7250.600000
207.055900 5511.300000
207.091400 6349.700000
208.076000 9345.200000
208.098600 8767.300000
209.069800 5765.500000
210.078700 42229.400000
211.049600 14831.000000
213.065800 49031.400000
221.107100 29223.700000
222.066400 21750.700000
222.091300 14178.000000
223.073900 73071.500000
223.123000 47691.600000
224.081700 1249841.100000
225.102000 238452.200000
226.086100 8105.900000
226.097300 21914.600000
227.081100 19098.500000
232.075000 6038.900000
233.070700 4950.800000
234.078700 56742.300000
236.081500 4265.500000
240.102500 4708.200000
241.084900 31364.700000
242.091500 4622.500000
249.102100 298450.900000
251.068900 85999.800000
252.076600 937241.600000
266.128700 87721.000000
267.112700 161762.700000
269.079300 17590.800000
270.087100 38925.400000
282.087300 6256.600000
284.138600 5337.500000
312.134100 8137.900000

>ms2
53.002200 197966.900000
53.997400 31612.000000
55.017800 5164.000000
56.049400 40908.500000
58.065100 57368.200000
65.038600 4934.300000
67.054200 69715.600000
67.989200 5187.100000
69.069800 2095238.200000
70.065100 75097.300000
71.072900 188003.500000
71.085600 18089.600000
72.044300 11978.300000
72.080700 5466.000000
75.022900 4712.000000
84.080700 15226.600000
86.096400 1633576.600000
89.038500 9748.800000
91.041600 37702.400000
91.054100 8770.900000
94.065200 5123.400000
95.048900 5564.600000
97.064600 20116.600000
101.038700 10519.200000
105.057400 6951.300000
115.041600 30280.500000
115.054100 15944.600000
116.049400 49761.200000
127.041700 13426.600000
128.049400 146817.400000
129.044700 32750.200000
129.057200 19423.500000
130.028700 10722.400000
130.052500 122204.200000
130.064800 30868.200000
133.052100 8089.900000
134.060200 4117.600000
142.052500 10364.200000
142.065000 27586.700000
143.036600 101468.600000
143.060300 34340.500000
144.044400 64666.500000
145.052600 5115.100000
146.060000 1153361.800000
153.044600 456676.100000
154.052600 83293.500000
154.064800 44340.200000
155.060300 352324.800000
156.044400 10756.400000
156.067800 9405.900000
156.080400 6493.200000
157.076000 43151.000000
158.047500 96858.700000
158.059400 29729.400000
159.031400 5912.800000
160.075700 65571.300000
161.047000 51331.000000
161.070900 11169.400000
167.072900 27910.200000
168.068000 8492.500000
169.039500 8081.000000
169.076100 14944.300000
170.059900 10792.100000
171.055200 781722.800000
174.055000 230781.600000
179.060100 21292.000000
180.044400 4323.000000
180.055500 10585.700000
180.080900 49699.100000
181.039600 3185923.500000
182.071300 4839.400000
182.083900 20202.300000
182.096200 10740.500000
183.055200 408123.300000
184.075300 8082.000000
185.071000 26900.600000
186.054500 10661.700000
194.096600 10381.800000
196.086700 27822.300000
197.070900 1505399.800000
198.066100 682173.100000
199.050100 1418934.800000
201.065700 4745.400000
204.080500 7406.600000
205.076100 8842.100000
206.083700 25746.100000
206.095500 7626.900000
207.055000 7736.100000
207.091200 11709.000000
208.074500 5199.200000
208.099600 5226.400000
209.057900 8568.900000
209.070500 6332.300000
210.078600 57895.000000
213.065700 95306.600000
220.099500 6785.600000
221.106500 16592.600000
222.066000 29818.100000
222.091100 13063.500000
223.073600 12066.800000
223.122700 6628.100000
224.081700 323498.100000
225.102200 58636.000000
227.081800 6766.100000
232.074700 5932.400000
233.070700 18291.200000
234.078700 48252.400000
236.081500 14190.600000
241.084600 5591.600000
249.102200 45577.900000
251.068600 6904.900000
252.076600 149667.800000

>ms2
52.018300 4173.700000
53.002200 254441.600000
53.997500 35578.000000
55.017900 10892.000000
56.049500 95677.500000
58.065200 48430.500000
65.038600 8316.000000
67.054200 70690.500000
67.989400 11895.400000
69.069900 1411980.500000
70.065100 136364.300000
71.073000 328196.300000
72.044400 5961.400000
72.080900 3305.900000
75.022900 25605.900000
84.080800 4358.400000
86.096500 819836.700000
89.038700 15121.600000
91.041700 29457.000000
91.054300 53950.500000
95.049200 16930.100000
101.038500 32780.200000
105.057400 9467.100000
115.041800 22380.400000
115.054300 42453.000000
116.049500 122198.100000
127.041700 102601.000000
128.049500 510627.600000
129.044700 221078.500000
129.057100 47870.800000
130.028900 21741.100000
130.052700 100732.400000
130.065200 73162.000000
133.052500 8347.200000
134.060400 5110.600000
142.052800 20482.000000
142.065300 47553.900000
143.036700 89822.800000
143.060400 36995.700000
144.044500 86391.800000
145.052400 13758.800000
146.060100 2220021.800000
153.044800 1380460.200000
154.052600 165192.200000
154.064900 95706.500000
155.060400 425372.500000
156.044500 12219.000000
156.080800 10382.000000
157.076200 29790.300000
158.047600 87633.400000
158.059500 23448.000000
159.031400 4137.700000
160.075800 82704.300000
161.047300 77181.200000
161.071200 6527.100000
167.073000 31061.000000
168.068600 19700.600000
169.039800 22580.300000
169.076200 37867.700000
170.060000 9692.800000
171.055300 1339246.600000
174.055100 128164.200000
179.060600 38417.000000
180.044800 3681.700000
180.055700 11115.000000
180.080900 46738.600000
181.039800 1898403.900000
182.071200 5092.200000
182.083700 20122.300000
183.055300 223717.800000
184.076100 5118.200000
185.071100 89598.500000
186.055000 4220.300000
194.097100 6085.500000
196.086900 23412.800000
197.071100 810320.400000
198.066300 134823.500000
199.050300 327006.200000
204.081000 10157.100000
205.076600 21852.800000
206.084100 27897.000000
207.057300 3720.800000
207.091800 14027.500000
209.058500 5680.700000
209.070700 4504.000000
210.079100 32690.800000
213.066100 49851.900000
220.099300 4384.600000
221.108200 6613.300000
222.066200 24719.400000
224.081700 38117.300000
225.102700 5437.400000
233.070800 22676.600000
234.079400 14905.000000
249.103200 5632.700000
252.076600 10017.500000

