>compound LU62075244
>parentmass 153.1022
>ionization [M+H]+
>formula C8H12N2O
>rt 603.420000
>profile orbitrap
#smiles_iso CC1=CC(=O)NC(=N1)C(C)C
#smiles_can CC1=CC(=O)NC(=N1)C(C)C
#inchikey AJPIUNPJBFBUKK-UHFFFAOYSA-N
#pubchem_id 135444498
#mb_accession LU023301,LU023302,LU023303,LU023304,LU023305,LU023306

>ms2
70.065100 240335.700000
84.044400 1424999.500000
153.102200 15487323.000000

>ms2
70.065100 263881.600000
84.044400 1475747.100000
153.102200 15665936.000000

>ms2
70.065100 1339446.100000
84.044400 5080734.500000
86.003600 20677.800000
135.091500 16992.100000
136.075600 24830.400000
138.078800 38723.100000
153.102200 11704972.000000

>ms2
53.002300 33438.200000
56.049500 15476.100000
67.017800 19440.600000
67.054300 7663.400000
70.065100 2407059.000000
84.044400 6677948.500000
86.003500 92451.600000
88.075600 8239.700000
93.044800 24321.300000
108.080900 15911.500000
112.075700 15530.200000
135.091600 11882.500000
136.075700 17969.200000
137.071100 17590.800000
138.078800 47420.400000
153.102200 3979832.500000

>ms2
53.002200 77807.600000
53.997500 12218.800000
56.049500 26855.800000
66.033800 10561.300000
67.017900 44128.900000
67.054200 13592.500000
70.065100 2400674.000000
84.044400 5295742.500000
86.003600 131449.600000
88.075600 6079.100000
93.044900 23800.700000
108.080800 13551.900000
112.075700 14479.000000
135.091500 9594.800000
136.075700 12328.800000
137.071000 53344.000000
138.078800 52224.500000
153.102300 1018218.000000

>ms2
53.002200 119009.200000
53.997500 25732.500000
56.049500 39606.700000
66.033800 11906.500000
67.017900 72094.900000
67.054100 9108.800000
70.065100 1514469.900000
84.044400 3057444.200000
86.003600 151467.200000
87.091700 4567.200000
88.075800 6010.200000
93.044800 12157.900000
108.080800 8220.000000
110.047600 4061.200000
137.071000 93943.800000
138.078800 23704.900000
153.102300 184966.200000

