>compound LU62502395
>parentmass 188.1434
>ionization [M+H]+
>formula C13H17N
>rt 678.410000
>profile orbitrap
#smiles_iso C[C@H](CC1=CC=CC=C1)N(C)CC#C
#smiles_can CC(CC1=CC=CC=C1)N(C)CC#C
#inchikey MEZLKOACVSPNER-GFCCVEGCSA-N
#pubchem_id 26757
#mb_accession LU094801,LU094802,LU094803,LU094804,LU094805,LU094806

>ms2peaks
58.065100 3953.600000
65.038600 4156.200000
70.065100 874904.700000
82.065200 5759.800000
91.054200 3259336.800000
96.080700 19647.700000
97.088600 13348.300000
119.085600 3911806.000000
129.069800 4902.400000
148.112000 19317.400000
188.143400 2662027.500000

>ms2peaks
65.038600 5999.900000
68.049400 5453.900000
70.065100 982972.800000
82.065200 6417.300000
91.054300 4906109.500000
96.080800 22336.700000
97.088600 17018.200000
119.085600 4020177.800000
148.112400 16065.200000
188.143500 1784936.100000

>ms2peaks
65.038600 14118.900000
70.065100 684131.000000
91.054200 9423685.000000
96.080700 18002.500000
97.088600 12680.700000
119.085500 1386022.900000
148.112100 12275.900000
188.143300 133135.400000

>ms2peaks
65.038500 31077.000000
70.065100 323517.800000
91.054200 9555013.000000
96.080700 19688.500000
104.049600 28173.600000
119.085500 203929.800000

>ms2peaks
65.038600 133753.400000
70.065100 182706.200000
91.054200 10777080.000000
119.085700 30233.800000

>ms2peaks
63.022900 12702.800000
65.038500 400704.100000
70.065100 79776.200000
79.054200 12042.000000
91.054200 10441601.000000
104.049500 33848.900000

