>compound LU63196227
>parentmass 397.2373
>ionization [M+H]+
>formula C25H32O4
>rt 1116.300000
>profile orbitrap
#smiles_iso CC1=C[C@@H]2[C@H](CC[C@]3([C@H]2CC(=C)[C@@]3(C(=O)C)OC(=O)C)C)[C@@]4(C1=CC(=O)CC4)C
#smiles_can CC1=CC2C(CCC3(C2CC(=C)C3(C(=O)C)OC(=O)C)C)C4(C1=CC(=O)CC4)C
#inchikey UDKABVSQKJNZBH-DWNQPYOZSA-N
#pubchem_id 250948
#mb_accession LU034301,LU034302,LU034303,LU034304,LU034305,LU034306

>ms2peaks
137.096400 5195.300000
145.101300 5409.100000
157.101200 6373.700000
163.111600 8332.200000
168.042100 13803.500000
175.111900 24173.600000
185.095800 5087.800000
185.132300 4457.900000
187.111900 66385.600000
199.112100 3046.300000
221.132200 12649.700000
223.148700 3925.400000
227.143500 5590.100000
235.147600 2649.800000
237.163900 17336.500000
253.158800 6179.100000
261.163700 25577.000000
262.171500 4554.400000
265.159400 2502.900000
266.166200 5223.800000
267.174900 15288.900000
277.159100 4421.100000
277.195300 32645.300000
279.174500 230752.700000
286.171400 7132.800000
293.190300 39228.300000
294.198000 64021.800000
295.205800 143895.700000
301.195600 8457.100000
319.206000 41281.500000
322.193100 2457.700000
337.216400 984399.800000
397.237700 958243.300000

>ms2peaks
81.069700 4332.500000
83.049100 4477.400000
93.069800 2423.000000
95.085500 8111.600000
97.064800 14276.000000
105.069900 9641.200000
107.085500 5213.200000
109.064900 2206.800000
109.101500 2443.200000
111.080400 4061.000000
119.085500 10697.900000
121.065000 3143.100000
121.101200 12566.800000
131.085700 3405.600000
133.101200 4183.800000
135.080400 4015.000000
137.096100 6340.900000
143.085700 6924.300000
145.101300 27944.600000
147.080500 3002.800000
147.116900 3615.800000
149.096200 5516.400000
151.111800 3209.800000
157.101300 27141.600000
159.116800 9601.000000
161.096000 8955.100000
163.111700 9294.000000
168.041800 12387.400000
169.101100 10410.500000
171.116600 10267.100000
173.096100 7282.400000
175.111900 84005.000000
181.100900 5257.700000
183.117000 8910.900000
185.096800 13238.200000
185.132000 12117.600000
187.111800 150780.900000
189.127500 6523.700000
193.101200 5003.700000
195.117000 9054.500000
197.132600 7904.400000
199.111700 10314.300000
201.127500 6938.300000
207.116800 4328.500000
209.132400 21049.500000
211.148100 6411.900000
219.116600 2895.800000
221.132600 75617.700000
222.140200 6402.300000
223.148200 66871.000000
224.155700 7293.800000
225.127900 3831.000000
225.164100 9726.100000
227.142800 11595.700000
232.124600 2921.900000
233.132100 5093.000000
234.141000 2582.800000
235.148000 30167.300000
236.156100 118640.300000
237.163900 138717.600000
239.142700 4699.300000
246.140300 20224.500000
247.147800 3174.700000
249.163400 12326.800000
251.142400 3542.000000
251.179200 8759.600000
253.158800 26213.800000
261.164000 75727.700000
262.171600 19305.400000
263.142500 3320.100000
264.150700 6133.600000
265.159000 4351.600000
266.166300 18262.400000
267.174400 19802.000000
275.179400 7114.200000
276.188200 5463.300000
277.158900 13350.100000
277.195200 27837.800000
278.166300 2917.400000
279.174400 575480.500000
280.181800 9637.700000
286.171800 9705.400000
293.190200 65919.500000
294.198000 124892.600000
295.205800 131374.100000
301.195000 7467.100000
319.206200 21618.000000
322.193200 5343.600000
337.216400 180639.700000
397.237000 6463.500000

>ms2peaks
69.069700 2340.300000
79.054100 3976.900000
81.069900 3190.700000
83.049100 7106.000000
91.054200 5358.600000
93.069900 2557.500000
95.085500 5772.900000
97.064800 16222.800000
105.069900 11275.700000
107.085600 11238.100000
109.064800 3456.000000
109.101100 3415.500000
111.080400 2751.000000
117.069900 4523.000000
119.085600 15063.000000
121.064700 5380.300000
121.101300 10718.600000
129.069800 2978.600000
130.078200 2440.100000
131.085400 6188.800000
133.101200 11316.000000
135.080200 4225.500000
137.096100 2957.000000
142.077700 2199.200000
143.085300 10086.400000
145.101200 37960.800000
147.080500 3756.800000
147.116800 5374.000000
149.096200 5555.400000
151.111500 2001.000000
155.085700 5020.700000
156.093600 2628.800000
157.101200 25917.800000
159.080900 2500.400000
159.116900 18145.600000
160.088700 2224.200000
161.096000 9227.900000
163.111900 3744.900000
167.085600 3423.000000
169.101400 14274.400000
171.080300 2209.600000
171.116900 7467.600000
172.088300 2509.900000
173.096200 6666.500000
175.111800 72327.300000
179.085700 5103.900000
181.101600 12057.500000
182.109000 3005.000000
183.116900 14862.800000
185.096200 7071.500000
185.132200 8264.900000
187.111800 86837.500000
189.127500 2749.300000
193.101300 7488.200000
194.109000 5990.200000
195.117000 22820.400000
196.124900 4461.800000
197.132700 10233.800000
199.112400 2532.700000
201.128100 2632.300000
205.100800 2563.700000
206.108900 10194.000000
207.116700 10985.000000
208.124700 2298.900000
209.132700 27757.400000
210.140400 9530.500000
211.111800 2998.100000
211.148300 9922.300000
219.116900 5989.500000
220.124700 10598.500000
221.132600 137929.100000
222.140200 18472.500000
223.148200 101724.900000
224.156300 11962.000000
225.126900 2604.700000
225.163500 6597.300000
227.143600 3413.900000
231.116800 7521.100000
232.124600 4547.400000
233.132100 5421.200000
234.140600 4494.200000
235.148400 25609.000000
236.156000 232267.900000
237.163900 124322.900000
239.143400 3743.000000
246.140500 20192.700000
247.148100 7862.300000
249.128300 3946.300000
249.163300 5850.700000
251.143000 4776.700000
251.179500 6372.700000
253.159300 10000.400000
261.163900 29308.400000
262.171600 7728.100000
263.142800 7673.700000
264.151000 5123.700000
265.159000 9112.200000
275.179500 3389.100000
276.187000 4654.000000
277.158900 5368.800000
277.195300 8689.800000
278.166400 6139.800000
279.174400 170429.800000
280.181900 6987.200000
293.190500 14113.100000
294.198000 38421.900000
295.206500 13015.200000
337.215700 4087.300000

>ms2peaks
55.017900 4910.400000
55.054300 4888.000000
67.054200 7887.800000
69.069900 4238.700000
79.054200 12829.600000
81.069800 6442.300000
83.049200 11205.900000
91.054200 20703.000000
93.070000 17677.000000
95.049400 3048.200000
95.085600 10530.800000
97.064800 28356.700000
105.069900 28493.100000
107.049100 3585.400000
107.085500 18561.700000
109.064800 5357.600000
109.101500 3106.000000
111.080400 2580.200000
115.054300 3546.300000
117.069900 11852.300000
119.085600 27407.200000
121.064800 8717.100000
121.101200 10944.000000
123.080500 3823.800000
128.062200 6349.300000
129.069800 13185.700000
130.077900 5407.900000
131.085700 18967.300000
133.101400 18797.600000
135.080500 6288.600000
137.096400 3664.200000
141.069800 3825.300000
142.077900 17295.900000
143.085700 18249.500000
144.093600 5764.500000
145.064900 5317.200000
145.101200 51734.200000
147.080800 4225.100000
147.117000 7613.700000
153.069900 3460.100000
154.077600 4015.200000
155.085700 13381.700000
156.093400 10353.700000
157.064500 2786.000000
157.101400 35016.500000
159.080700 7003.200000
159.116900 21191.200000
160.088500 20807.700000
161.096000 7230.700000
165.070200 10685.400000
166.078100 2521.300000
167.085600 14633.500000
168.093300 5975.200000
169.101500 25949.700000
170.109200 2940.400000
171.080600 7841.800000
171.116600 9932.700000
172.088400 17386.600000
173.096200 13414.400000
175.111800 44393.300000
178.077800 3169.600000
179.085600 17698.500000
180.093300 10151.000000
181.101200 20377.700000
182.109200 13033.800000
183.116900 15600.400000
185.096100 10750.100000
185.132700 7550.700000
187.111900 46690.800000
191.085900 7116.300000
192.093300 6723.100000
193.101300 27194.700000
194.109100 19881.400000
195.117000 46994.500000
196.125000 8652.300000
197.132300 13202.100000
204.094000 3522.000000
205.101000 10202.500000
206.109200 50460.500000
207.117100 53305.800000
208.124800 18247.600000
209.132500 37602.700000
210.140800 11039.900000
211.111300 2597.700000
211.148100 7414.400000
217.101500 4064.900000
218.109300 4792.100000
219.116800 14121.200000
220.124300 14554.300000
221.132700 366770.800000
222.140400 35360.000000
223.148300 129671.000000
224.156000 13843.000000
225.128800 2587.300000
225.164100 3113.300000
231.117300 18664.600000
232.124700 6640.700000
233.133100 10588.800000
234.140400 3553.300000
235.148200 37024.000000
236.156200 112515.100000
237.127300 6551.400000
237.163900 74791.700000
245.132400 5636.900000
246.140600 14556.200000
247.148200 10589.200000
249.127300 11408.500000
249.164400 4350.700000
250.135400 3738.700000
251.142500 6337.200000
251.179700 6112.500000
261.163700 26741.100000
262.170500 3092.000000
263.143200 16017.700000
264.151500 10413.800000
265.158800 14264.600000
277.158700 3342.500000
277.196000 2427.100000
278.166800 2795.100000
279.174500 91178.400000
280.181800 4157.500000
293.191000 3671.700000
294.198100 3333.600000

>ms2peaks
55.017900 4056.700000
55.054300 8247.800000
67.054200 10389.800000
69.033700 2314.100000
69.069900 6680.000000
79.054300 15268.300000
81.070000 5822.200000
83.049200 16472.300000
91.054300 42334.000000
93.069900 16432.600000
95.049100 6832.100000
95.085800 3221.600000
97.064900 30054.500000
103.054300 4732.900000
105.069900 48267.300000
107.049200 4107.600000
107.085700 11652.300000
109.064900 4612.100000
115.054400 9070.700000
116.062100 3437.200000
117.069900 21584.200000
119.085600 25460.200000
121.064900 4710.500000
121.101200 2984.700000
123.080400 2617.900000
128.062200 17477.500000
129.069900 25237.200000
130.077700 10791.600000
131.085500 21536.100000
133.064600 3135.000000
133.101300 12676.700000
135.080400 2412.400000
141.069900 14240.900000
142.077800 32723.100000
143.085500 26711.600000
144.093200 9388.200000
145.064800 14827.600000
145.101300 29443.900000
147.080900 3015.000000
147.117600 2873.300000
153.069900 12302.500000
154.077900 10568.900000
155.085700 24743.000000
156.093600 11735.300000
157.065100 8284.100000
157.101400 19145.200000
159.080400 9628.800000
159.117000 8998.300000
160.088200 26358.000000
165.069900 22701.800000
166.077600 12865.900000
167.085400 16093.600000
168.093200 9323.500000
169.101200 22103.400000
170.109100 2213.200000
171.080600 8031.900000
171.116400 4038.200000
172.088200 14296.500000
173.096200 9965.200000
175.111700 16794.100000
178.077900 11864.200000
179.085500 47092.000000
180.093300 17984.100000
181.101300 31431.700000
182.109200 9411.500000
183.117100 9230.600000
185.096300 5686.500000
187.112100 10618.900000
190.078000 3673.500000
191.085600 31269.000000
192.093500 25437.900000
193.101300 66570.100000
194.109100 27092.500000
195.117100 41206.700000
196.124900 6399.700000
197.132500 4766.500000
202.077100 2677.100000
203.085800 6538.000000
204.094000 5594.700000
205.101400 26684.400000
206.109100 123438.400000
207.117000 84360.100000
208.124800 27701.300000
209.132500 28109.300000
210.139900 2843.100000
211.112300 2639.400000
211.148200 3152.500000
216.093800 6547.600000
217.101400 9686.500000
218.109800 4277.600000
219.116500 11693.800000
220.125100 12862.900000
221.132600 247053.100000
222.140100 21664.700000
223.148200 59846.200000
224.156300 2596.100000
229.101700 2464.500000
230.109300 3719.500000
231.116700 24843.900000
232.124900 8366.200000
233.132800 7518.400000
234.140900 3469.900000
235.112400 3625.700000
235.148200 29578.800000
236.155800 9308.100000
237.127500 2761.300000
237.163900 13995.800000
245.133100 7755.500000
246.140100 10874.300000
247.148800 6328.100000
249.127000 12753.800000
249.163800 2280.100000
250.135200 3061.600000
251.142600 3469.300000
251.177900 2254.000000
261.164000 11250.100000
263.143100 12070.600000
264.151400 10220.400000
265.158700 3733.900000
277.158900 4144.100000
279.174200 19265.000000

>ms2peaks
55.017900 8926.900000
55.054200 12385.300000
67.054200 14470.600000
69.033600 2654.800000
69.069900 6080.300000
79.054200 34210.800000
81.069900 7509.100000
83.049200 20492.400000
91.054200 83898.700000
93.069900 15786.600000
95.049200 14192.700000
95.085500 4277.100000
97.064800 25135.200000
103.054100 12578.000000
105.069900 65477.400000
107.049200 7009.600000
107.085500 9934.500000
109.064900 3890.100000
115.054200 26209.800000
116.062300 5967.700000
117.069900 28327.800000
119.085600 26222.200000
121.065100 6063.700000
123.080800 2410.700000
128.062000 35015.500000
129.069900 45706.300000
130.077800 21214.600000
131.085600 18245.700000
133.065000 2383.100000
133.101200 7408.300000
135.080100 2245.700000
141.069900 40636.300000
142.077700 35667.200000
143.085400 20893.000000
144.093700 8394.900000
145.064700 28723.800000
145.101400 19228.100000
147.080600 3428.400000
153.069800 26522.300000
154.077600 13130.500000
155.085400 29881.100000
156.093500 10763.900000
157.064800 13596.900000
157.101200 10065.000000
159.080200 9748.500000
159.116900 5654.200000
160.088400 19571.000000
165.069900 61293.100000
166.077800 24809.700000
167.085600 40255.300000
168.093600 8300.200000
169.101000 19392.100000
171.080500 6745.900000
172.088500 8694.600000
173.096400 7618.200000
175.112100 4523.400000
178.077700 36398.400000
179.085600 76259.900000
180.093400 26297.300000
181.101200 34230.500000
182.109300 5295.800000
183.117200 8714.600000
185.096500 2662.400000
190.077900 8826.400000
191.085600 109954.300000
192.093500 68213.200000
193.101300 119047.000000
194.109200 24834.200000
195.117100 29283.400000
196.124500 3412.200000
197.133300 3161.700000
202.077600 8176.700000
203.085500 19454.000000
204.093400 13014.300000
205.101300 64656.800000
206.109000 182409.800000
207.116900 81103.700000
208.124600 25703.000000
209.132400 15587.900000
216.092900 17049.800000
217.101100 21124.300000
218.109400 8173.000000
219.116900 16489.800000
220.124400 17112.000000
221.132500 113664.500000
222.140500 5118.700000
223.148100 14811.000000
229.101400 5009.200000
230.109400 8604.800000
231.116900 22092.500000
232.124700 5682.400000
233.133100 5545.300000
235.112000 4548.800000
235.147800 12746.500000
245.132700 5821.700000
246.140600 2637.000000
247.148500 3173.000000
249.127500 15021.000000
250.134900 2650.300000
261.164700 3088.500000
263.143400 5933.900000
264.151200 2644.500000
265.158800 3078.700000

