>compound LU63894563
>parentmass 220.16959999999997
>ionization [M+H]+
>formula C14H21NO
>rt 828.480000
>profile orbitrap
#smiles_iso CCOC1=CC2=C(C=C1)NC(CC2C)(C)C
#smiles_can CCOC1=CC2=C(C=C1)NC(CC2C)(C)C
#inchikey YLDDCEXDGNXCIO-UHFFFAOYSA-N
#pubchem_id 86013
#mb_accession LU131901,LU131902,LU131903,LU131904,LU131905,LU131906

>ms2
135.067900 10477.600000
136.075800 6497.800000
150.091300 9909.000000
164.107000 4029214.000000
220.169500 5284720.000000

>ms2
135.067700 23461.900000
136.075900 20030.100000
150.091400 28383.400000
164.106900 6445549.500000
220.169500 2512236.200000

>ms2
91.054100 20512.700000
108.080700 31972.600000
118.065000 15708.500000
119.049200 15306.000000
119.072900 34947.900000
120.080700 35624.900000
122.060000 26930.800000
134.060000 15853.000000
135.067800 383175.700000
136.075700 472730.100000
150.091300 68156.700000
164.106900 8245746.000000
220.169500 221380.100000

>ms2
55.054300 6920.800000
79.054200 6612.700000
80.049400 7907.900000
81.069900 8672.100000
91.054200 226855.000000
92.049500 7199.400000
93.057400 75472.100000
93.069900 45199.300000
94.065100 19324.500000
95.049100 8122.000000
103.054300 32301.800000
106.065000 19107.000000
107.049300 6245.700000
107.072900 34491.700000
108.080800 312753.500000
109.064800 25584.200000
110.060100 13903.100000
117.057300 10784.300000
118.065100 126715.600000
119.049200 101290.500000
119.073000 147489.900000
119.085300 13297.800000
120.080800 146846.700000
121.088600 13255.800000
122.060100 87375.500000
134.060100 93337.100000
135.067900 1310085.900000
136.075700 1874585.200000
138.091200 6915.300000
150.091400 52744.700000
163.099000 10060.000000
164.107000 5006330.000000
204.138500 5739.000000
220.169400 5774.200000

>ms2
53.038600 8970.600000
54.033900 5668.300000
55.017900 10957.500000
55.054300 10424.300000
65.038500 25663.200000
67.054200 17512.800000
68.013300 2742.900000
68.049400 4220.300000
69.033300 2878.400000
77.038500 3456.000000
78.046400 2719.300000
79.054200 25803.200000
80.049500 25630.000000
81.057400 3583.100000
81.069900 48438.300000
82.065100 3961.600000
89.038600 2330.300000
91.054200 858518.600000
92.049500 27303.200000
93.057300 328098.400000
93.069900 94863.100000
94.041300 10470.500000
94.065200 59304.900000
95.049200 45929.400000
96.043900 3038.900000
103.054200 80190.100000
105.057300 3648.200000
106.065100 79259.900000
107.049100 25730.900000
107.073000 173171.400000
108.044400 40136.700000
108.080800 758679.900000
109.052300 19472.800000
109.064800 65580.500000
110.060100 48763.800000
116.049700 5496.300000
117.057300 65731.000000
118.065100 424875.300000
119.049200 239238.300000
119.073000 255321.100000
120.080800 147173.600000
121.064500 3493.700000
121.088600 13397.700000
122.060000 132249.600000
134.060100 205093.300000
135.067900 1617334.500000
136.075700 2295524.500000
138.091100 4700.800000
147.080300 3711.200000
148.076000 6590.700000
150.091400 22751.700000
163.099400 15720.000000
164.107000 1556529.000000

>ms2
53.038600 27901.400000
54.033900 4649.400000
55.017900 18169.300000
55.054200 6982.100000
65.038600 101698.900000
67.054200 31440.400000
68.012900 3759.000000
68.049500 12378.800000
69.033400 3779.700000
70.065200 6634.500000
77.038500 9005.800000
78.046500 4606.400000
79.054200 54323.100000
80.049400 73713.900000
81.057300 20205.200000
81.069900 109193.000000
82.065200 4537.600000
89.038200 3433.500000
91.054200 1755855.000000
92.049400 53621.300000
93.057300 638982.200000
93.069900 82826.200000
94.041400 29191.200000
94.065100 83104.100000
95.049100 100160.600000
96.044300 7469.700000
103.054200 83813.200000
105.057300 6184.500000
106.065100 255195.500000
107.049200 44389.300000
107.073000 350787.500000
108.044400 62599.400000
108.080700 798643.200000
109.052200 55215.000000
109.064800 75567.700000
110.060000 61200.000000
116.049400 15001.900000
117.057300 192704.300000
118.065100 585643.200000
119.049200 231186.900000
119.072900 227316.500000
120.080800 79452.500000
121.064500 2997.600000
121.088600 7781.700000
122.060000 115084.100000
134.060000 252979.300000
135.067800 1170034.400000
136.075700 1331579.500000
148.075700 7813.200000
150.091300 5495.000000
163.099100 10698.300000
164.107000 278696.500000

