>compound LU63978915
>parentmass 300.0353
>ionization [M+H]+
>formula C14H12Cl2FNO
>rt 935.880000
>profile orbitrap
#smiles_iso CNCC1=C(C=CC(=C1)F)OC2=CC(=C(C=C2)Cl)Cl
#smiles_can CNCC1=C(C=CC(=C1)F)OC2=CC(=C(C=C2)Cl)Cl
#inchikey FQEBOQLYHASAOY-UHFFFAOYSA-N
#pubchem_id 9861124
#mb_accession LU132201,LU132202,LU132203,LU132204,LU132205,LU132206

>ms2peaks
170.053500 8799.700000
199.054700 21775.800000
233.016000 100516.400000
234.024300 520108.100000
240.997600 8248.400000
268.993000 7147719.500000
300.035200 5188288.000000

>ms2peaks
74.096300 7920.200000
170.052200 13914.500000
186.023100 23521.200000
199.055300 190338.200000
205.021700 45926.200000
206.029300 32236.200000
220.991900 115958.000000
233.016600 730123.800000
234.024300 6388747.500000
240.998200 155875.400000
248.986900 14152.100000
268.993100 5801511.500000
300.035200 155307.400000

>ms2peaks
123.035200 7106.900000
170.052500 163420.300000
171.060500 9595.400000
186.023100 298623.400000
199.055400 2676591.200000
205.021500 173666.000000
206.029300 252425.800000
215.025800 97930.200000
220.991900 308834.200000
233.016500 4016695.800000
234.024100 6037768.500000
240.998000 138248.100000
248.987000 62454.600000
268.993000 739428.400000

>ms2peaks
75.023000 8890.000000
113.039700 13777.000000
123.035200 22601.600000
139.005800 9515.800000
170.052600 497166.600000
171.060300 71427.900000
172.966600 19622.200000
186.023100 596557.300000
198.047300 19844.100000
199.055300 4508933.000000
205.021400 86947.100000
206.029300 404585.700000
214.018000 9045.300000
215.025800 225222.600000
220.991800 80115.400000
233.016300 6799505.000000
234.024000 928051.200000
240.997700 18655.700000
248.986700 61340.500000
266.978300 7771.900000
268.993300 38874.400000

>ms2peaks
75.022900 25963.800000
108.984100 14762.900000
113.039600 23614.800000
123.035400 34775.200000
129.010200 8359.100000
139.005800 10876.100000
150.046700 11232.300000
152.062100 9131.200000
169.064400 8336.900000
170.052600 837239.100000
171.060500 217585.700000
172.966900 18821.100000
186.023200 666536.800000
187.055200 11552.000000
197.039900 7931.400000
198.047200 32868.100000
199.055400 4504510.000000
205.021400 21806.200000
206.029400 417506.500000
213.010300 7557.900000
214.017200 7740.800000
215.025900 247038.000000
220.992200 9445.700000
230.037200 38670.300000
233.016400 7367369.500000
234.024200 62528.100000
248.986700 45159.600000

>ms2peaks
74.015100 10094.600000
75.022900 69001.800000
86.963200 12774.000000
95.029000 8130.700000
108.984000 34152.500000
113.039600 15799.400000
123.035100 22693.100000
129.010300 8851.800000
150.046300 41775.200000
152.062400 23835.900000
169.044800 10476.700000
169.064800 115028.200000
170.052600 1579494.200000
171.060400 410288.300000
172.966800 15536.400000
179.049100 39205.100000
179.060300 35868.100000
186.023100 607341.900000
187.055100 35117.600000
197.039700 49177.900000
197.051000 17898.700000
198.047600 108716.100000
199.055300 4226126.000000
205.021300 10264.100000
206.029300 236531.000000
213.010000 27305.600000
215.025700 258472.000000
230.037400 153916.400000
232.008800 7366.200000
233.016300 7058836.000000
248.986200 25799.000000

