>compound LU63946602
>parentmass 338.21149999999994
>ionization [M+H]+
>formula C22H27NO2
>rt 1128.660000
>profile orbitrap
#smiles_iso C[C@]12CC[C@H]3[C@H]([C@@H]1CC[C@]2(C#C)O)CCC4=CC5=C(C[C@]34C)C=NO5
#smiles_can CC12CCC3C(C1CCC2(C#C)O)CCC4=CC5=C(CC34C)C=NO5
#inchikey POZRVZJJTULAOH-LHZXLZLDSA-N
#pubchem_id 28417
#mb_accession LU025301,LU025302,LU025303,LU025304,LU025305,LU025306

>ms2
70.028600 6390.700000
148.075600 15139.100000
310.216100 35805.500000
338.211400 6296299.000000

>ms2
55.017800 4327.000000
55.054200 4112.200000
56.049400 23140.200000
67.054200 10240.900000
69.033400 3174.100000
69.069800 4175.200000
70.028700 95915.600000
70.065100 79675.000000
78.034400 2113.300000
79.054200 16640.300000
80.049500 5000.100000
81.069800 26095.900000
82.065100 7996.400000
83.049100 2700.600000
84.044400 60564.400000
84.080700 3129.000000
91.054300 18219.800000
93.069900 31457.500000
94.065200 21659.900000
95.049200 2759.400000
95.085500 16352.400000
96.044400 26144.900000
96.080800 4414.000000
97.064800 3145.800000
98.060000 6414.200000
105.069900 44686.400000
106.065000 16283.000000
107.049100 6169.200000
107.085500 22425.500000
108.044400 5307.300000
108.080800 18021.100000
109.064900 12139.200000
109.101000 10704.400000
110.060000 22581.900000
111.080400 3635.200000
112.075300 2590.100000
115.054200 4702.400000
117.069800 26917.100000
119.085500 44599.000000
120.044400 25651.600000
120.080800 82011.400000
121.064800 46890.800000
121.101200 9852.300000
122.060000 22907.000000
122.096400 18096.600000
123.067800 10869.400000
123.080400 8865.900000
124.075500 15670.700000
128.061400 2147.100000
129.069800 14128.200000
131.085500 49575.200000
132.080600 5761.400000
133.064700 5290.400000
133.101100 27910.900000
134.059900 7957.600000
134.096500 8814.700000
135.067800 2739.300000
135.080400 15389.500000
135.116700 7844.100000
136.075500 11441.400000
141.069700 9120.000000
142.077700 6587.000000
143.085600 39375.600000
144.080700 2818.300000
145.064700 6844.200000
145.101100 35501.000000
146.059500 3104.700000
146.096300 7641.800000
147.080300 29168.500000
147.116700 15428.300000
148.075600 217686.800000
149.083500 2857.100000
149.096100 9762.700000
150.091300 23982.900000
153.069400 2734.200000
154.077200 3111.000000
155.085500 31626.500000
156.093400 2692.500000
157.064700 3889.100000
157.101200 45989.100000
158.096300 4998.800000
159.080600 16839.200000
159.116800 26481.600000
160.075900 4887.800000
160.112200 6475.300000
161.096200 18150.200000
161.132500 5703.200000
162.091300 17787.000000
165.069700 3277.900000
167.085700 13043.000000
168.093200 3434.400000
169.101200 37008.500000
170.096300 5219.100000
171.080200 7842.900000
171.116800 32464.000000
172.111900 4974.600000
173.096100 17092.500000
173.132100 6845.000000
174.091300 12384.100000
174.127700 7239.800000
175.111800 6078.600000
176.107100 8147.000000
178.078100 2409.300000
179.085700 9644.400000
181.101300 19783.900000
183.080200 6159.300000
183.116700 26841.900000
184.112100 5325.900000
185.096300 24537.900000
185.132600 21358.000000
186.091200 2921.500000
186.127500 3505.900000
187.111800 11348.000000
187.148000 2453.400000
188.106900 4943.400000
192.093800 4135.800000
193.101000 16300.800000
194.108700 3372.300000
195.117000 30761.300000
196.125100 3099.300000
197.096100 7640.200000
197.132300 14906.400000
198.127300 3707.900000
199.111800 8468.200000
199.147900 5371.200000
200.106800 7570.500000
200.142900 2499.400000
201.127400 4234.000000
202.122600 7761.600000
205.101400 11413.100000
206.108900 6197.600000
207.116900 17935.300000
209.095800 4969.500000
209.132400 21701.500000
210.127300 3650.900000
211.111700 14242.300000
211.147900 11420.900000
213.127700 10313.700000
214.123000 2321.400000
217.101700 2768.400000
218.108800 5928.700000
219.116700 20940.500000
220.124200 4616.400000
221.132100 12697.100000
222.127200 2427.300000
223.111900 7097.900000
223.147900 11926.300000
225.127600 6362.000000
225.163800 18995.300000
227.142800 9204.300000
228.138200 7247.200000
231.116600 5140.300000
232.124900 6582.500000
233.132800 18351.300000
234.139900 4722.100000
235.111500 6886.400000
235.148000 15844.800000
237.127700 8374.500000
237.164000 6139.200000
239.143100 9816.300000
241.159000 5309.200000
242.190100 23203.200000
245.132200 6659.200000
246.140100 6367.100000
247.148100 9733.800000
249.127400 3123.100000
249.163700 10599.800000
250.159200 4197.500000
251.143100 10080.400000
253.158800 24647.200000
257.132500 4135.800000
259.148200 5656.600000
260.156200 5171.000000
261.127000 4684.600000
261.163600 11340.400000
263.142400 4228.400000
263.179700 6505.800000
264.174700 3637.100000
265.158200 6488.800000
268.169900 3619.100000
270.185300 22996.700000
275.179500 21344.700000
281.190100 13534.300000
282.185500 4770.000000
283.169200 11118.200000
292.169600 4887.000000
292.206100 30890.100000
293.189600 27172.500000
294.185100 6401.600000
295.169800 8720.100000
295.193000 11734.500000
296.164800 30620.900000
296.200900 28494.500000
303.173500 11490.100000
309.184700 14334.000000
310.216400 251575.300000
320.200600 33011.300000
321.184400 18772.800000
338.211500 2076129.200000

>ms2
53.002300 2832.200000
53.038600 6285.500000
55.017900 9799.200000
55.054200 13362.100000
56.049500 49867.200000
65.038500 5421.200000
67.054200 33982.500000
68.049500 5073.900000
69.033300 8839.300000
69.069800 12982.900000
70.028700 106563.000000
70.065100 123174.000000
72.044400 4459.600000
79.054200 67587.900000
80.049600 13348.000000
81.033500 12124.500000
81.069900 62666.900000
82.028500 3190.800000
82.065200 18516.900000
83.049000 5458.200000
84.044400 96175.600000
91.054300 104633.100000
93.070000 90346.600000
94.065200 42492.800000
95.049300 17697.500000
95.085600 40757.000000
96.044400 33991.200000
96.080800 8272.000000
97.064800 10231.000000
98.060100 4805.800000
103.054200 11554.700000
105.069900 129565.200000
106.065200 37793.200000
107.049200 12318.300000
107.072800 5442.000000
107.085600 54138.400000
108.044300 7431.400000
108.080800 40442.500000
109.052400 3382.200000
109.064900 20251.600000
109.101300 26326.500000
110.060100 25482.400000
111.080400 4347.300000
112.075700 2933.800000
115.054300 23730.300000
116.062100 7994.100000
117.069900 80086.200000
118.065300 3799.000000
119.085600 92449.300000
120.044400 66468.700000
120.080900 193786.600000
121.064800 127973.500000
121.088800 11131.800000
121.101200 22471.100000
122.060100 38290.500000
122.096400 29234.100000
123.068000 19384.500000
123.080400 9596.700000
124.075800 16855.400000
128.062000 22218.000000
129.069900 62843.300000
130.065300 5375.500000
130.077800 8513.400000
131.049100 6597.200000
131.085600 119238.400000
132.080900 10349.900000
133.064800 18201.400000
133.088900 5321.100000
133.101200 46538.100000
134.060100 15920.000000
134.096300 29977.400000
135.068100 3853.400000
135.080400 24808.600000
135.116800 9561.400000
136.075900 16541.100000
141.070000 31528.000000
142.077700 22956.500000
143.085600 94322.500000
144.080900 9724.400000
144.093500 5443.900000
145.064800 14976.800000
145.088800 3690.700000
145.101200 68106.300000
146.072900 2988.100000
146.096400 20824.300000
147.080500 53458.300000
147.116900 17264.900000
148.075700 303274.500000
149.083500 10912.100000
149.096300 8207.600000
150.091400 31647.300000
153.070100 10078.500000
154.077900 14886.800000
155.085500 62929.300000
156.080900 4598.700000
156.093400 14398.600000
157.064600 7053.600000
157.101300 94116.700000
158.096500 15170.800000
159.080400 25624.900000
159.104800 4325.200000
159.116800 34685.900000
160.076000 7145.600000
160.088800 3336.800000
160.112100 19334.500000
161.095900 22524.200000
161.132600 9736.200000
162.091400 23615.400000
165.069800 15766.600000
166.077400 10413.100000
167.085600 38594.000000
168.093400 10853.300000
169.101300 65482.600000
170.096500 6682.900000
170.108700 5833.800000
171.080500 17746.000000
171.116800 54222.100000
172.076000 2700.800000
172.112100 13234.300000
173.083700 3278.300000
173.096100 26796.000000
173.120100 4760.600000
173.132500 8118.100000
174.091700 16453.200000
174.127900 18015.400000
175.111900 8049.800000
176.106800 8400.000000
178.077900 7830.700000
179.085600 18613.600000
180.093200 11066.300000
181.064600 3431.500000
181.101100 45728.000000
182.096200 2635.000000
182.109000 11055.000000
183.080400 9960.900000
183.104300 3422.400000
183.106900 3927.200000
183.116900 46282.900000
184.088300 3932.500000
184.111900 11907.800000
185.096300 29441.000000
185.132500 25576.500000
186.091400 6742.600000
186.127800 6982.700000
187.111700 12110.200000
187.148500 5574.300000
188.107200 9080.000000
191.085600 6845.200000
192.093600 10718.300000
193.101200 36496.600000
194.096500 3172.900000
194.109000 7649.400000
195.080700 5669.800000
195.116900 38939.000000
196.088200 2897.900000
196.112100 6180.100000
196.124700 8891.700000
197.095900 10899.000000
197.132500 20844.900000
198.127500 7466.300000
199.111700 11208.600000
199.148400 6341.100000
200.107100 9635.200000
200.143800 4049.600000
201.127600 3303.700000
202.122900 7250.600000
203.085700 7383.800000
204.093300 14842.600000
205.101300 23796.400000
206.109300 12084.300000
207.117000 28241.200000
208.113400 3487.100000
208.124900 6457.100000
209.096200 6656.500000
209.132400 25281.100000
210.103700 3130.800000
210.127900 6272.000000
210.140200 5122.500000
211.112300 11867.800000
211.148700 12863.800000
212.107400 2928.000000
212.143200 5714.400000
213.127600 7796.400000
214.122600 5380.700000
216.093300 3554.400000
217.101300 16883.300000
218.109100 10662.500000
219.116600 27825.500000
220.124900 9788.300000
221.132200 18543.100000
222.128100 4910.600000
223.112100 7240.700000
223.148000 16911.600000
224.143200 2937.500000
225.127000 11704.300000
225.163700 23921.400000
226.159000 4178.600000
227.143100 7474.500000
228.138600 8577.600000
229.101300 2917.600000
230.108800 3522.900000
231.116700 14955.100000
232.124600 8977.500000
233.095600 2861.500000
233.132900 17021.300000
234.127400 3814.800000
234.140300 4032.400000
235.111900 6230.600000
235.148100 17101.000000
237.127300 7070.400000
237.163700 3789.200000
238.122700 2717.900000
239.143700 4809.100000
241.158400 2655.400000
242.190300 15160.700000
243.117800 3565.000000
245.132500 13545.000000
246.140900 10677.000000
247.111800 3452.800000
247.148000 8536.000000
248.143700 4126.400000
249.127800 5112.300000
249.164000 5236.100000
250.159000 2647.500000
251.142900 8779.100000
253.159000 12611.300000
257.133600 2582.100000
259.148700 4917.900000
260.156500 10709.400000
261.127500 3530.100000
261.164100 5549.200000
262.159100 3579.900000
263.143500 6038.700000
263.180800 3189.000000
264.175100 5620.900000
265.158700 5383.500000
268.169500 3953.500000
270.185000 12734.700000
273.126900 3484.300000
275.179700 6049.400000
281.190900 2881.300000
282.185400 6215.400000
283.168800 10926.200000
292.169700 4761.900000
292.206200 13963.000000
293.190100 6285.100000
294.185400 6973.200000
295.169800 7860.300000
295.193300 22014.000000
296.164800 15308.600000
296.201200 17961.600000
303.174700 2873.600000
309.184700 2955.700000
310.216700 90215.400000
320.201100 6245.400000
321.185200 5787.100000
338.211700 126130.900000

>ms2
50.015200 2850.400000
51.023000 3642.400000
53.002200 5256.200000
53.038600 20769.700000
54.033800 5565.600000
55.017900 14326.000000
55.054200 22106.800000
56.049500 39307.200000
65.038500 14033.600000
67.041500 3565.400000
67.054200 65008.700000
68.049500 6217.700000
69.033500 8747.200000
69.069800 10113.900000
70.028700 92468.300000
70.065100 104608.800000
72.044300 4555.300000
77.038500 5544.100000
79.054200 145693.700000
80.049500 27305.200000
81.033500 16660.800000
81.069900 66617.000000
82.028700 3289.000000
82.065100 18104.300000
83.049100 4241.500000
84.044400 61507.400000
84.080700 3346.300000
91.054200 238608.600000
92.049400 12767.900000
93.069900 149910.200000
94.065200 57609.700000
95.049200 46807.100000
95.073000 5339.800000
95.085500 42284.600000
96.044400 28909.700000
96.080700 9192.200000
97.064800 7256.900000
98.060000 2925.900000
103.054300 37897.800000
104.062100 3388.600000
105.069900 199567.400000
106.065200 87439.000000
107.049100 15093.200000
107.072800 10979.200000
107.085500 54132.200000
108.044500 7397.300000
108.080800 35335.900000
109.052200 3321.300000
109.064800 19471.000000
109.101300 22015.300000
110.060200 13818.400000
111.080100 2916.200000
115.054200 60946.800000
116.062100 23571.400000
117.069900 112401.200000
118.065100 10440.500000
119.049300 9524.900000
119.085600 104984.800000
120.044400 60931.800000
120.080800 212759.900000
121.064800 146568.800000
121.088600 12938.500000
121.101300 19901.300000
122.060100 36470.100000
122.096400 34211.700000
123.068000 16013.900000
123.080400 8406.700000
124.075600 11602.100000
128.062100 77383.400000
129.069900 93020.200000
130.065100 14158.900000
130.077600 17578.700000
131.049300 8514.800000
131.073200 9089.600000
131.085600 120391.400000
132.057200 3074.300000
132.080900 17078.600000
132.093400 2458.700000
133.052100 4231.700000
133.064900 21868.000000
133.088800 4295.600000
133.101200 32360.300000
134.060000 15376.200000
134.096400 39564.700000
135.067900 7030.500000
135.080300 19168.900000
135.104500 2961.900000
135.117100 3070.200000
136.075700 13570.400000
141.069900 53764.100000
142.077800 56752.300000
143.085600 95989.800000
144.080700 15458.700000
144.093400 9620.100000
145.064900 19911.300000
145.088700 8279.200000
145.101200 64186.900000
146.072500 4392.100000
146.096500 17654.400000
147.067900 3128.100000
147.080500 53805.500000
147.104300 4267.800000
147.117000 9250.200000
148.075700 194660.400000
149.083600 15237.900000
149.095700 2799.500000
150.091500 15359.300000
152.062100 6209.000000
153.069900 30459.200000
154.065400 2876.800000
154.077700 27773.500000
155.085600 74861.800000
156.081100 6171.500000
156.093600 24351.500000
157.064900 8452.800000
157.089100 5469.600000
157.101200 70130.100000
158.072700 6373.200000
158.096300 14245.600000
159.080600 19665.500000
159.105000 4613.900000
159.117000 19948.300000
160.075400 5296.000000
160.088200 2894.700000
160.111900 18562.000000
161.096100 13287.400000
161.132300 5090.500000
162.091300 16259.300000
165.069800 38054.100000
166.077900 19966.700000
167.085600 43974.100000
168.080600 4989.800000
168.093500 16561.600000
169.065000 3007.700000
169.088700 3440.700000
169.101200 55806.700000
170.096300 8045.000000
170.109300 5090.400000
171.080700 14008.000000
171.104400 5164.500000
171.116800 25158.100000
172.075500 4803.200000
172.112200 13892.800000
173.083100 2513.800000
173.096100 12419.200000
173.132300 4167.400000
174.091500 10401.900000
174.127900 8702.200000
176.106800 2864.500000
178.077900 19557.100000
179.085500 35783.200000
180.093300 17021.100000
181.065500 2589.700000
181.087600 2468.200000
181.101300 37858.500000
182.072600 2667.100000
182.096200 6244.700000
182.109100 13311.700000
183.080800 5909.400000
183.103700 3592.500000
183.117100 28460.100000
184.088400 3410.000000
184.111800 8039.400000
185.095900 13423.400000
185.132800 10098.000000
186.091700 2572.000000
186.128000 4274.500000
187.111200 5148.200000
188.107300 4733.600000
189.069900 4945.300000
190.077900 6443.800000
191.085700 18646.600000
192.093600 18234.100000
193.101300 29096.000000
194.096300 3844.300000
194.109100 13009.000000
195.080600 6632.500000
195.116600 25095.100000
196.088100 3109.100000
196.112300 3573.500000
196.124900 5280.200000
197.096200 6392.000000
197.132800 12128.600000
198.127600 5844.400000
199.111700 5444.800000
200.107200 4337.700000
202.078000 4950.600000
202.123100 4307.100000
203.085600 19520.400000
204.093200 11081.400000
205.101200 27002.900000
206.108700 11455.500000
207.106600 3597.700000
207.116700 17340.300000
208.111500 4675.700000
208.124800 7124.100000
209.095900 6435.200000
209.132100 10249.200000
210.103600 2647.300000
210.127900 6416.800000
210.139300 2623.500000
211.111800 6213.300000
211.148100 6100.800000
215.085600 6325.700000
216.093600 6514.000000
217.100800 20826.900000
218.109100 10480.700000
219.117500 16546.700000
220.112200 3049.500000
220.124500 8335.200000
221.095800 3967.100000
221.132800 7871.700000
222.127900 3784.900000
223.111700 4843.800000
223.148400 4719.600000
224.143300 3983.400000
225.163700 6342.700000
226.159200 4261.900000
228.138000 5333.600000
229.101300 3342.500000
230.109300 4712.700000
231.116800 14021.300000
232.124700 7728.600000
233.132700 5493.200000
235.147500 4045.900000
237.127200 4529.000000
238.120900 3051.200000
242.190300 2949.900000
245.132500 9404.900000
246.140800 2794.900000
247.111600 2638.900000
247.148200 3909.100000
248.143600 4118.200000
262.159500 3469.600000
273.128400 2927.600000
282.186200 2504.100000
294.185800 4344.500000
295.192900 17952.200000
296.164300 3841.400000
310.215900 10505.900000

>ms2
51.023000 3371.000000
53.002300 12515.400000
53.038600 43463.000000
54.033800 4617.200000
55.017800 22228.800000
55.054200 30699.400000
56.049500 47886.900000
63.023200 2165.000000
65.038600 42977.800000
67.041500 4835.100000
67.054200 88562.600000
68.049400 8899.100000
69.033500 9873.800000
69.069800 8002.700000
70.028700 71649.400000
70.065100 78980.200000
77.038600 15537.800000
78.046300 3852.600000
79.054200 208035.200000
80.049400 40193.500000
81.033500 19437.900000
81.057300 6103.000000
81.069900 61997.700000
82.065100 16712.000000
83.049300 4438.600000
84.044400 44219.000000
91.054200 418414.100000
92.049500 30267.100000
93.057300 13525.200000
93.069900 175104.400000
94.065200 66346.400000
95.049200 110722.700000
95.073000 5942.200000
95.085500 39401.200000
96.044300 22580.200000
96.080800 8463.000000
98.060000 3380.900000
102.046600 2573.400000
103.054200 70694.000000
104.049400 2570.900000
104.062200 12577.200000
105.069900 209968.200000
106.065100 102728.100000
107.049000 16107.900000
107.073100 16872.800000
107.085500 46411.900000
108.044600 4846.400000
108.080800 24267.500000
109.052300 5839.700000
109.064700 18948.100000
109.101200 13816.300000
110.060100 13616.600000
115.054300 115617.400000
116.062100 39557.100000
117.057400 6356.800000
117.069900 109458.900000
118.065100 23691.700000
118.078000 2560.500000
119.049300 11366.900000
119.073100 10969.700000
119.085600 79440.100000
120.044500 37906.300000
120.080800 153252.800000
121.064800 117720.600000
121.088600 13907.600000
121.101400 10951.400000
122.060000 20530.600000
122.096400 22888.700000
123.067900 9044.200000
123.080400 6274.200000
124.075800 8031.200000
127.054200 5072.400000
128.062000 133570.200000
129.069900 126700.200000
130.065200 20504.900000
130.077700 30908.500000
131.049200 7449.300000
131.073200 13531.300000
131.085600 81062.600000
132.057100 3362.500000
132.080800 26754.200000
132.093700 3591.200000
133.052200 7934.100000
133.065000 12998.800000
133.088400 5283.800000
133.101300 19873.400000
134.059700 13934.500000
134.096300 19647.400000
135.067900 5114.400000
135.080500 13698.100000
135.104100 2384.400000
136.075400 5713.300000
141.069900 98633.800000
142.077800 89718.300000
143.072900 6859.100000
143.085600 67050.700000
144.057100 4528.700000
144.080800 22484.500000
144.093700 10670.400000
145.064900 26738.000000
145.088600 10344.100000
145.101100 35147.500000
146.060200 6135.400000
146.072700 4515.700000
146.096300 18706.300000
147.080400 36092.600000
147.104500 2693.400000
147.116600 3464.600000
148.075700 83821.700000
149.083800 8202.200000
150.091600 5840.700000
152.062200 17307.700000
153.069900 49441.600000
154.077800 42994.000000
155.085500 67379.400000
156.081000 9776.800000
156.093500 22740.800000
157.064800 6785.700000
157.088700 7493.300000
157.101200 28224.500000
158.072600 5942.100000
158.096500 17506.000000
159.080500 11367.800000
159.104500 5402.300000
159.116800 8376.300000
160.075800 6929.400000
160.112100 10121.200000
162.091400 9276.800000
165.070000 67372.300000
166.077900 26101.200000
167.073300 2967.000000
167.085600 50021.900000
168.080800 6039.400000
168.093200 16527.700000
169.064800 4614.100000
169.088800 3513.300000
169.101100 34426.100000
170.096300 9720.000000
170.109000 2902.800000
171.080400 7850.900000
171.104000 2306.000000
171.116600 8191.400000
172.112100 8610.500000
173.096500 4286.800000
173.120200 2851.400000
174.091500 6969.900000
174.127700 3317.300000
177.069700 3916.100000
178.077700 32681.200000
179.085600 45384.300000
180.080800 2812.000000
180.093400 12490.600000
181.064800 5140.000000
181.088500 2520.600000
181.101100 26772.500000
182.096500 6325.600000
182.109200 9272.900000
183.080500 5081.200000
183.116900 11349.000000
184.087900 3184.000000
184.112500 6787.000000
185.096200 4722.500000
185.133000 2570.500000
186.127800 3095.900000
188.107100 5330.100000
189.069700 10604.900000
190.077900 13637.900000
191.085600 24760.000000
192.093400 19646.700000
193.101200 18631.800000
194.097200 4163.400000
194.109100 7830.100000
195.080900 3116.000000
195.117200 10427.200000
196.112000 3465.300000
197.096700 3792.000000
197.132700 4531.200000
198.127900 3416.800000
199.111800 3478.400000
200.106700 2477.500000
202.077600 17461.800000
203.085600 28518.100000
204.093200 11444.700000
205.101200 22928.900000
206.097400 2586.800000
206.109400 10721.600000
207.105600 3602.200000
207.117100 8299.800000
208.112100 4060.200000
208.123100 2353.900000
210.128200 4598.600000
211.111300 3431.300000
212.107600 3004.900000
212.143100 4108.900000
215.085700 13825.600000
216.093500 9075.600000
217.100900 16475.500000
218.109300 3906.100000
219.116700 12043.700000
220.112100 3460.700000
221.096600 2982.200000
222.128000 3452.400000
223.111700 3774.300000
229.101200 8148.800000
230.109500 4293.100000
231.117000 8965.000000
233.095400 2436.500000
234.127800 3965.300000
243.118600 2842.900000
245.133000 3463.500000
295.193000 7648.900000

>ms2
50.015200 3216.400000
51.023000 5702.300000
53.002200 19114.900000
53.038600 77915.100000
54.033900 6886.500000
55.017900 26863.800000
55.054300 36884.100000
56.049500 40894.000000
63.023000 2594.600000
65.038600 73182.500000
67.041600 8151.100000
67.054200 86159.600000
68.049500 8455.900000
69.033400 8219.200000
69.069900 5095.300000
70.028700 59527.000000
70.065100 56688.100000
77.038500 21546.900000
78.033900 2650.400000
78.046300 8661.300000
79.054200 213245.900000
80.049500 45339.600000
81.033500 19257.700000
81.057400 7455.800000
81.069900 56356.500000
82.065300 12642.200000
84.044400 15673.200000
91.054300 509018.200000
92.049500 38515.700000
93.057300 16935.900000
93.069900 135672.900000
94.065200 59297.600000
95.049200 177020.600000
95.085500 22401.100000
96.044300 14808.000000
96.080900 2319.200000
102.046300 5298.200000
103.054300 88832.500000
104.049500 5735.600000
104.062100 10088.700000
105.069900 182783.500000
106.065100 81450.200000
107.049100 13354.300000
107.073000 17702.900000
107.085600 17983.600000
108.044600 3399.900000
108.080900 12777.800000
109.052500 3552.200000
109.065000 12171.500000
109.101300 2928.500000
110.060100 12679.200000
115.054300 163238.500000
116.062100 48459.100000
117.057400 13696.200000
117.069900 79270.100000
118.065000 27333.500000
118.077700 3016.400000
119.049300 6859.500000
119.073100 11041.000000
119.085600 51748.600000
120.044400 14080.900000
120.080800 94033.400000
121.064800 73254.700000
121.088900 6339.900000
122.060100 12596.200000
122.096400 9088.800000
123.068000 5353.000000
124.075800 3716.600000
127.054200 8442.700000
128.062100 185616.500000
129.069900 106195.600000
130.065200 21339.200000
130.077700 21094.100000
131.049000 11366.400000
131.073200 13316.400000
131.085600 42364.800000
132.057100 7048.800000
132.080800 23201.800000
133.052500 6966.400000
133.064900 6531.100000
133.088700 4599.100000
133.101200 8524.600000
134.060200 4318.100000
134.096500 8682.900000
135.080700 6728.700000
141.069900 110046.200000
142.077800 63208.500000
143.072900 10816.100000
143.085600 39621.800000
144.057200 4705.900000
144.080900 23976.900000
144.093000 4526.900000
145.064800 29273.600000
145.088700 7159.300000
145.101300 10455.400000
146.060100 7008.300000
146.072300 4783.600000
146.096400 14884.000000
147.067900 2758.300000
147.080500 13106.800000
148.075700 33742.100000
149.083800 4817.500000
152.062200 31304.900000
153.069900 70689.800000
154.066000 3508.100000
154.077800 28581.100000
155.085500 48100.400000
156.081000 6441.500000
156.093600 11328.900000
157.064800 4951.600000
157.088800 7070.900000
157.101300 13960.200000
158.072900 4204.300000
158.096400 6869.800000
159.080600 3913.500000
159.105000 3984.200000
160.075600 4848.400000
160.112400 4943.100000
162.091700 5061.800000
165.070000 86578.400000
166.077800 24935.300000
167.073200 5071.700000
167.085600 41989.400000
168.080900 8021.700000
168.093400 9400.600000
169.064700 6214.700000
169.101300 11004.500000
170.096300 5029.300000
171.104100 2371.400000
172.112000 5151.000000
174.091100 3555.500000
177.069900 2977.200000
178.077700 45334.300000
179.085700 43058.500000
180.080300 2863.200000
180.093500 12195.600000
181.064700 3851.100000
181.088900 3604.200000
181.101100 14385.800000
182.072900 3094.700000
182.096400 6242.500000
182.109600 3289.300000
183.080200 3504.400000
183.117200 3584.700000
184.112100 4325.300000
189.069900 15979.600000
190.077600 16766.600000
191.085600 30285.200000
192.093200 12493.200000
193.101400 14485.300000
194.097100 3094.400000
194.109300 2535.600000
195.080500 2932.700000
195.117000 5942.300000
196.112100 3330.500000
197.132300 2199.200000
202.077800 26857.100000
203.085300 25164.000000
204.093300 8397.500000
205.101300 8558.900000
206.096500 4298.700000
207.116100 3662.100000
208.112200 4037.600000
210.127700 3128.600000
215.085700 18540.300000
216.093300 4213.200000
217.100700 10373.500000
219.116800 3214.700000
220.111300 2536.700000
229.101500 6877.000000
231.117700 3068.900000
248.143600 3110.200000

