>compound LU64220097
>parentmass 331.21689999999995
>ionization [M+H]+
>formula C23H26N2
>rt 1014.420000
>profile orbitrap
#smiles_iso CN(C)C1=CC=C(C=C1)C(C2=CC=CC=C2)C3=CC=C(C=C3)N(C)C
#smiles_can CN(C)C1=CC=C(C=C1)C(C2=CC=CC=C2)C3=CC=C(C=C3)N(C)C
#inchikey WZKXBGJNNCGHIC-UHFFFAOYSA-N
#pubchem_id 67215
#mb_accession LU091001,LU091002,LU091003,LU091004,LU091005,LU091006

>ms2peaks
239.153400 66400.700000
315.185500 23905.600000
316.193100 90769.600000
331.216100 13601829.000000

>ms2peaks
121.088600 17094.100000
134.096300 15041.500000
195.104200 80261.700000
196.112000 35315.900000
209.119900 105315.800000
210.127600 80998.200000
238.146100 28366.700000
239.154200 1335383.200000
253.170000 16396.800000
272.143300 141429.400000
286.158800 72517.100000
301.170400 24826.100000
315.185600 306433.200000
316.193400 3940750.500000
330.207100 18244.000000
331.216000 9517558.000000

>ms2peaks
118.065100 10582.200000
120.080800 44661.500000
121.088500 65254.800000
134.096300 87470.500000
165.069700 33913.500000
180.080500 14906.800000
194.096400 155778.900000
195.104200 455692.700000
196.112000 163931.000000
208.112000 106919.900000
209.119800 580509.400000
210.127600 406016.600000
223.122400 40082.300000
224.129600 20030.200000
225.139300 13174.200000
237.138900 13314.200000
238.146600 136450.900000
239.154100 7685655.000000
253.170600 23491.200000
270.127100 16186.200000
271.135700 17992.800000
272.143200 742234.200000
285.150400 17638.400000
286.158900 395002.400000
291.100800 119949.300000
301.169900 133596.600000
315.185500 1608224.800000
316.193300 1867774.100000
331.216900 619635.000000

>ms2peaks
91.054200 20065.900000
117.057200 10711.500000
118.065100 44251.200000
120.080800 77557.100000
121.088600 52465.400000
132.080700 29839.000000
134.096400 102453.500000
165.069900 212034.000000
166.077900 54279.500000
167.085500 11651.300000
180.080800 87494.600000
181.088200 21068.300000
193.088100 21175.100000
194.096500 744241.200000
195.104300 258893.700000
196.112100 260076.900000
208.112100 529831.000000
209.120000 269904.800000
210.127700 592312.500000
223.122900 182091.700000
224.130600 141876.900000
225.138600 11070.200000
237.138900 71617.500000
238.146900 77933.500000
239.154200 9774223.000000
241.101300 12376.800000
244.111700 10051.700000
250.074500 19550.400000
253.170700 16445.700000
256.112000 19875.700000
257.119400 26501.600000
263.081800 12132.500000
270.127500 39529.700000
271.135400 24495.700000
272.143300 640110.900000
276.077600 29823.400000
284.143700 15047.600000
286.159100 343457.900000
287.087700 16064.600000
288.095000 54213.000000
290.093200 24870.200000
291.100900 277042.800000
299.154600 12869.000000
300.162100 34590.100000
301.169900 97210.700000
314.174500 12212.100000
315.185600 1790198.200000
316.193800 76027.600000

>ms2peaks
68.049300 7187.000000
79.054000 12973.300000
91.054200 66353.500000
103.054300 17980.400000
115.054200 35295.600000
117.057300 18636.900000
118.065000 46764.400000
120.080700 108092.200000
121.088600 27107.700000
132.080800 23688.000000
134.096400 100076.800000
141.069700 11817.400000
152.038700 13985.300000
152.062000 25505.900000
153.069800 41975.900000
165.069900 462773.600000
166.077900 140857.300000
167.072900 7182.900000
167.085500 68918.300000
170.096300 13507.900000
178.077400 11549.900000
179.072900 20475.800000
179.085200 12346.900000
180.080700 218372.000000
181.088500 107546.100000
182.096200 16170.500000
183.104100 11632.300000
191.085400 8955.400000
192.080500 12958.800000
193.088600 125675.000000
194.096400 1329991.400000
195.104200 355984.900000
196.112000 315378.500000
197.119900 41725.600000
202.077500 9516.800000
207.091500 7772.000000
207.104000 16319.900000
208.112000 780819.100000
209.107200 109173.600000
209.119500 118840.500000
210.127700 468790.900000
215.085700 17875.400000
217.101200 7223.000000
221.106900 8280.400000
222.115400 40294.000000
223.122900 1081003.200000
224.130700 1066837.500000
228.093200 11091.200000
237.138900 161566.700000
238.146300 45584.800000
239.154100 7109824.000000
241.101100 45414.900000
242.108500 14599.500000
244.112800 16588.700000
250.074100 15504.400000
253.170000 7827.400000
254.096700 8274.100000
255.104100 10102.600000
256.111700 73653.400000
257.119700 51796.000000
258.127900 11220.200000
263.081800 8181.600000
270.127700 95241.400000
271.135800 53576.200000
272.143300 210558.500000
275.069200 21035.400000
276.077100 22759.700000
284.143200 33271.100000
285.136700 27682.800000
286.159600 119032.300000
287.087600 25024.200000
288.095100 52224.100000
289.085900 12077.300000
290.092700 27924.700000
291.101400 52235.200000
299.154400 173441.000000
300.162100 121711.400000
301.170700 15215.500000
314.175000 20721.600000
315.185800 855621.800000

>ms2peaks
53.038500 15486.200000
56.049500 6342.200000
58.065100 8107.200000
68.049400 13404.700000
79.054200 30088.900000
82.065000 4958.800000
91.054200 114066.900000
102.046400 9134.600000
103.054200 42069.900000
104.049400 8184.900000
106.065100 9617.900000
107.073000 6206.900000
108.080800 3892.200000
115.054200 69051.000000
116.049700 7623.500000
116.062000 10375.800000
117.057300 27459.400000
118.065100 46690.100000
120.080800 124301.300000
121.088700 13927.500000
128.062100 16495.300000
130.065200 7577.100000
131.073100 6651.600000
132.080600 16688.700000
134.096400 89563.000000
139.054500 4099.400000
141.069800 32569.500000
143.072900 4248.500000
144.080900 10931.200000
152.038700 39340.900000
152.062000 156023.000000
153.069900 171045.600000
154.077600 22619.300000
155.085100 15699.500000
156.080400 8279.800000
165.069900 950599.800000
166.077800 284214.100000
167.073000 17897.000000
167.085400 135294.100000
168.080600 15847.100000
170.096300 27009.500000
171.104000 4410.300000
178.077900 24474.000000
179.073000 96493.900000
179.086200 15752.900000
180.080700 435783.400000
181.088500 230527.500000
182.096400 124499.000000
183.104000 24287.200000
184.111800 13845.200000
191.085200 15462.300000
192.080700 56789.100000
193.088700 284761.200000
194.096400 1486972.900000
195.104200 519491.500000
196.112000 512735.400000
197.119800 284120.000000
198.127900 4864.500000
202.078000 21331.900000
206.095900 12364.600000
207.091600 30321.600000
207.104000 34062.600000
208.111900 591049.000000
209.107300 328456.200000
209.119300 109132.400000
210.127800 210981.200000
215.085500 37636.700000
217.100700 6038.900000
220.112000 5875.200000
221.107200 40824.500000
222.115200 70896.200000
223.122900 3204164.000000
224.130700 1768111.500000
226.078600 6742.100000
228.093000 30671.700000
229.100900 32039.600000
230.096100 17656.900000
231.103000 13191.900000
237.138700 103322.600000
238.144900 45029.400000
239.154200 2621237.200000
241.086300 11133.100000
241.101000 79550.200000
242.093200 27077.600000
242.108700 14747.400000
244.112300 20863.800000
245.118600 4851.200000
246.126400 5808.000000
250.074100 6205.200000
252.069300 5383.400000
254.096500 15850.600000
255.104300 16720.300000
256.112000 125913.700000
257.119800 42220.800000
258.127900 26057.300000
268.111800 11969.400000
269.119300 10909.300000
270.128000 125662.000000
271.122200 4568.600000
271.136000 42932.400000
272.143700 61980.500000
275.069400 28527.900000
276.076800 6976.900000
284.145500 22140.600000
285.137300 29602.600000
286.158600 11077.600000
287.087400 13340.100000
288.095500 11832.900000
289.085300 11584.500000
290.092500 5806.700000
299.154300 331254.100000
300.162000 84707.300000
313.170300 5194.000000
314.175000 6762.800000
315.186100 141526.500000

