>compound LU64300149
>parentmass 202.08629999999997
>ionization [M+H]+
>formula C12H11NO2
>rt 919.360000
>profile orbitrap
#smiles_iso CNC(=O)OC1=CC=CC2=CC=CC=C21
#smiles_can CNC(=O)OC1=CC=CC2=CC=CC=C21
#inchikey CVXBEEMKQHEXEN-UHFFFAOYSA-N
#pubchem_id 6129
#mb_accession LU103201,LU103202,LU103203,LU103204,LU103205,LU103206

>ms2peaks
96.055500 19020.900000
124.086900 336269.000000
174.054100 90795.400000
202.085300 9578885.000000

>ms2peaks
146.060100 2192.400000
174.091500 4201.600000

>ms2peaks
74.096400 4564.200000
79.005700 72653.600000
90.010500 67355.600000
96.055600 836412.000000
107.037100 22915.900000
118.041300 7965.300000
124.086900 2450601.000000
145.028300 3755.300000
146.022700 46299.300000
146.035900 19322.300000
174.054000 579424.800000
187.061900 5366.000000
200.069700 10828.100000
202.085300 3630627.200000

>ms2peaks
74.096400 3106.800000
79.005700 189606.300000
89.038500 5062.300000
90.010500 104178.300000
90.046500 17444.600000
96.055600 1924414.100000
103.054300 5805.000000
107.037100 22412.900000
118.041300 22678.500000
124.086900 1588411.100000
145.028300 12993.100000
146.022800 75216.200000
146.036100 13416.200000
174.054100 338446.500000
200.069700 6897.800000
202.085300 625336.800000

>ms2peaks
66.046500 8602.500000
74.096500 3178.100000
79.005700 162298.200000
89.038500 45751.900000
90.010500 82626.700000
90.046400 64349.100000
96.055600 1572475.600000
103.054300 7913.200000
107.037100 9086.900000
118.041300 30490.300000
124.086900 447441.800000
145.028300 25827.300000
146.022800 50884.700000
146.036100 10114.500000
174.054000 89900.200000
202.085300 53251.300000

>ms2peaks
66.046300 5470.400000
74.096300 4753.100000
79.005700 168313.000000
89.038600 74190.600000
90.010500 35359.800000
90.046500 46162.000000
96.055600 824412.500000
103.054200 7370.300000
107.037000 6209.000000
118.041600 13950.300000
124.086900 85282.000000
145.028100 10258.000000
146.022800 23583.200000
146.036000 4319.700000
174.054100 12491.200000
202.085100 2721.500000

