>compound LU64539784
>parentmass 239.1543
>ionization [M+H]+
>formula C16H18N2
>rt 783.000000
>profile orbitrap
#smiles_iso CN1CC(C2=C(C1)C(=CC=C2)N)C3=CC=CC=C3
#smiles_can CN1CC(C2=C(C1)C(=CC=C2)N)C3=CC=CC=C3
#inchikey XXPANQJNYNUNES-UHFFFAOYSA-N
#pubchem_id 4528
#mb_accession LU045501,LU045502,LU045503,LU045504,LU045505,LU045506

>ms2
91.054200 234034.300000
118.064900 43943.300000
120.080700 124166.800000
130.065000 151499.200000
132.080600 39708.500000
161.107300 51984.800000
194.096500 35055.500000
196.112000 690883.300000
208.111900 427493.300000
210.127700 162171.300000
222.127000 56364.500000
237.139000 37455.100000
239.154100 25253626.000000

>ms2
91.054200 1286937.500000
106.065100 93931.900000
115.054200 52490.900000
118.065100 459630.500000
120.080800 427648.500000
130.065100 678964.400000
132.080700 318000.400000
147.091700 80664.100000
148.099500 31873.400000
161.107300 175499.900000
179.085400 100879.900000
181.088300 85593.200000
191.085500 23058.800000
194.096400 65492.900000
196.112100 2958293.800000
198.127300 56077.000000
208.112100 1318123.400000
210.127700 621188.000000
222.127600 167405.400000
224.130500 28675.400000
237.138800 88388.100000
239.154200 18132646.000000

>ms2
51.022900 6669.600000
65.038500 10525.300000
77.038400 12639.500000
79.054100 45939.500000
91.054200 3466442.200000
93.057300 6616.900000
93.069800 7397.600000
94.065100 10147.700000
103.054200 21436.400000
105.069800 40978.300000
106.065100 284503.900000
107.073000 12803.600000
108.080800 12172.300000
115.054200 343338.100000
117.057300 156846.200000
117.069800 40672.900000
118.065100 2739803.000000
120.080800 679647.700000
122.096300 22065.200000
128.038300 7703.400000
130.065200 1128967.600000
131.073000 13134.600000
132.080800 996880.600000
133.076200 15935.300000
134.096400 28945.700000
135.091700 8855.300000
144.080900 16828.700000
146.083700 31580.600000
147.091700 182193.300000
148.099400 60102.800000
159.091700 71067.500000
161.107300 212765.000000
165.069400 10251.500000
167.085500 25810.000000
168.080800 7264.600000
178.077800 41312.500000
179.085500 586734.000000
180.081000 36500.700000
181.088600 1011032.000000
182.096200 13458.100000
191.085500 65740.200000
193.088600 156845.000000
193.101200 33642.300000
194.096500 172252.300000
195.104200 58238.800000
196.112100 3799669.200000
198.127700 106854.100000
206.096000 7656.200000
207.104000 37199.700000
208.112100 1157718.200000
209.107400 32591.200000
210.127700 734717.900000
222.127700 106561.600000
223.123200 14097.400000
223.134500 7649.900000
224.130700 169209.600000
237.138700 114410.500000
239.154200 4745875.500000

>ms2
53.038600 12134.800000
65.038500 26925.800000
68.049500 6580.900000
77.038500 12030.600000
79.054200 111991.800000
80.049400 15538.300000
91.054200 3713504.200000
93.057200 29135.300000
93.069900 13408.900000
94.065200 22471.500000
103.054300 94469.100000
104.049500 12224.600000
105.044700 10859.600000
105.069900 68069.200000
106.065100 384269.500000
107.072900 30467.200000
108.080800 26679.200000
115.054300 548503.700000
117.057300 418129.700000
117.069700 33956.200000
118.065100 3834911.500000
119.072800 8544.500000
120.080800 521518.600000
121.088600 8032.900000
122.096500 9236.500000
128.038600 9898.300000
129.069800 8228.600000
130.065200 880169.200000
131.072900 25719.300000
132.080800 746606.100000
133.076000 60263.800000
133.088700 10992.800000
134.096500 16238.500000
135.091700 6187.700000
141.069700 16392.200000
143.073400 7634.100000
144.080800 16902.300000
146.083900 76073.800000
147.091700 205784.600000
148.099600 33800.000000
152.038900 8794.000000
152.062300 7001.000000
153.069700 17862.700000
154.065200 9208.600000
155.085300 15620.900000
159.091900 87967.000000
161.107300 58511.200000
165.069700 35556.400000
166.064500 5986.200000
166.077900 29513.500000
167.073300 29993.700000
167.085400 45734.700000
168.081100 16729.200000
177.070300 8395.700000
178.077700 282792.800000
179.085600 923856.100000
180.080800 219118.200000
181.088600 1945072.900000
182.096400 15519.400000
190.077700 15631.100000
191.085500 88466.100000
192.093200 12523.500000
193.088800 360018.400000
193.100600 37479.700000
194.096600 275796.500000
195.104300 145776.200000
196.112100 1186068.500000
197.120000 14814.600000
198.127600 56029.400000
206.096600 24914.800000
207.104400 81957.200000
208.112100 344732.500000
209.107300 125025.900000
210.127800 196095.500000
222.127800 25326.900000
223.123300 31136.000000
224.130800 145162.900000
237.138700 70867.400000
239.154300 508472.600000

>ms2
53.038600 49418.400000
65.038600 93123.800000
68.049400 16371.400000
77.038500 22468.300000
79.054200 166280.200000
80.049500 23025.800000
81.057300 9577.900000
90.046500 9899.500000
91.054300 3616258.500000
92.049400 9396.100000
93.057400 40263.400000
93.070000 10626.600000
94.065100 32373.400000
103.054300 212595.100000
104.049400 32185.700000
105.044800 63979.800000
105.069900 66303.200000
106.065200 446466.800000
107.073000 33385.500000
108.080800 21028.100000
115.054300 500258.300000
116.049300 10865.100000
117.057300 543483.600000
117.069900 27262.500000
118.065100 3320474.800000
119.073100 27973.800000
120.080800 460802.400000
121.088700 12000.600000
128.038700 13790.300000
128.061700 11496.100000
129.070100 16522.200000
130.065200 799434.900000
131.060400 7660.900000
131.073100 56208.100000
132.068600 60915.500000
132.080800 363355.100000
133.076000 95893.100000
133.088500 7711.000000
134.096500 13866.600000
141.069700 32320.000000
143.072600 9991.300000
144.080800 14369.400000
145.076000 14962.500000
146.083900 98604.800000
147.091800 179736.500000
148.099700 15664.400000
152.039000 6199.700000
152.062100 17412.200000
153.069900 31064.600000
154.065300 14330.600000
154.077500 9316.300000
155.085200 26778.000000
156.080900 11657.700000
159.091600 77860.600000
161.107500 7972.200000
165.069800 90586.500000
166.077700 70151.200000
167.073200 42036.100000
167.085500 48668.000000
168.080800 22575.300000
176.062100 6411.100000
177.070100 26444.600000
178.077800 835237.600000
179.085600 675410.700000
180.080800 890631.600000
181.088600 1707206.400000
182.096400 23897.800000
189.070200 28044.600000
190.077600 61011.500000
191.085600 77878.700000
192.081200 19281.000000
192.093500 14598.400000
193.088700 498422.100000
194.096600 307719.900000
195.104300 163725.900000
196.112200 241995.100000
197.119800 22178.400000
198.127700 10918.300000
206.096500 63918.600000
207.104100 62951.300000
208.100000 16055.400000
208.112000 111914.800000
209.107400 207524.300000
210.127900 26479.600000
222.127900 8569.300000
223.123000 54806.700000
223.134400 7756.300000
224.131400 37395.000000
237.139100 28458.300000
239.154300 27483.400000

>ms2
51.023000 13161.200000
53.038600 117123.900000
65.038500 190946.200000
68.049400 12399.500000
77.038500 62946.500000
79.054200 152788.200000
80.049400 23749.600000
81.057400 6487.200000
90.046400 24753.000000
91.054300 3166660.200000
92.049300 8631.300000
93.057300 42351.300000
93.069900 18139.600000
94.065100 28877.400000
103.054200 276967.700000
104.049600 37250.800000
105.044800 142051.300000
105.069800 51428.400000
106.065100 387750.000000
107.072900 20670.300000
108.080600 13611.300000
115.054300 382048.000000
116.049500 26952.400000
117.057300 515180.300000
118.065100 2033034.900000
119.073000 30625.500000
120.080800 266444.200000
121.088600 8802.700000
128.038600 16037.300000
128.062000 22772.900000
129.069800 14520.500000
130.065200 527127.600000
131.060300 19343.100000
131.073000 46262.700000
132.068200 91828.100000
132.080700 130109.000000
133.076000 89986.200000
134.096600 6087.900000
141.070100 43848.400000
143.073200 14414.400000
145.076200 27518.000000
146.083900 84538.800000
147.091800 77612.000000
152.038700 7773.300000
152.062100 51561.200000
153.069800 50893.400000
154.065000 13922.500000
154.077600 14576.300000
155.085400 13353.100000
156.080600 10582.200000
159.091700 39945.100000
165.070000 216112.200000
166.065300 9743.100000
166.077800 50762.300000
167.072900 65370.300000
167.085300 47320.500000
168.080300 10388.300000
176.061900 23172.000000
177.070200 39337.100000
178.077800 1032574.000000
179.085600 286351.400000
180.080800 1506878.100000
181.088600 775688.500000
182.095900 16490.600000
189.069900 54179.200000
190.077800 40725.900000
191.085600 39941.200000
192.080800 44777.300000
192.092900 9259.700000
193.088800 393314.300000
194.096500 250209.300000
195.104300 67633.800000
196.112400 25112.400000
197.119400 7838.000000
206.096600 73027.400000
207.104400 33455.700000
208.099400 34149.900000
208.112000 32406.300000
209.107400 93972.200000
223.122800 25071.400000
237.139200 5676.400000

