>compound LU64352822
>parentmass 326.1751
>ionization [M+H]+
>formula C20H23NO3
>rt 1114.800000
>profile orbitrap
#smiles_iso CC1=C(C(=CC=C1)C)N(C(C)C(=O)OC)C(=O)CC2=CC=CC=C2
#smiles_can CC1=C(C(=CC=C1)C)N(C(C)C(=O)OC)C(=O)CC2=CC=CC=C2
#inchikey CJPQIRJHIZUAQP-UHFFFAOYSA-N
#pubchem_id 51369
#mb_accession LU056701,LU056702,LU056703,LU056704,LU056705,LU056706

>ms2peaks
91.054100 496128.500000
121.088200 44834.300000
148.112000 2163444.800000
208.133200 4147202.800000
266.153900 2410397.500000
294.148800 5604417.500000

>ms2peaks
57.069800 11216.700000
77.038500 8471.800000
91.054200 3072990.500000
120.081000 15027.800000
121.088600 844641.200000
122.096300 120548.900000
148.112000 8275833.000000
208.133200 3547761.500000
266.153900 397866.100000
294.148900 156572.500000

>ms2peaks
57.069800 150771.000000
58.065100 70617.500000
65.038400 51472.400000
71.085400 71201.700000
85.101000 40774.500000
91.054200 6257578.500000
105.069800 18475.800000
106.065100 27890.500000
118.064800 15835.800000
120.080700 30161.100000
121.088600 3659903.200000
122.096300 245518.800000
131.085300 10445.900000
133.088600 20713.200000
148.112000 9435975.000000
208.133100 605291.400000
211.135100 10149.800000

>ms2peaks
53.002300 22344.900000
57.069900 334749.200000
58.065100 237051.100000
63.022900 9640.400000
65.038600 160629.200000
71.085500 76038.700000
77.038600 10956.300000
79.054300 23170.600000
85.101300 39809.100000
91.054300 8068746.000000
103.054200 16814.600000
105.069900 127363.800000
106.065100 196001.400000
107.072900 52782.900000
107.085600 14306.600000
118.065100 55543.400000
119.085500 54663.500000
120.080800 97216.500000
121.088600 4423588.500000
122.096400 227566.400000
131.085600 74867.900000
132.080700 13573.400000
133.088600 176789.900000
146.096400 31472.500000
148.112100 7374412.000000
196.112400 16061.500000
208.133400 26878.400000

>ms2peaks
53.002200 81965.300000
53.038600 16096.300000
53.997500 9552.400000
55.054200 34464.100000
57.069900 689875.300000
58.065100 753763.100000
63.022900 14657.900000
65.038500 377351.700000
67.989200 10559.100000
71.085400 69133.100000
77.038600 9122.700000
79.054100 116819.800000
85.101100 28678.500000
91.054200 8087412.500000
93.069900 15003.500000
95.049100 24269.600000
103.054200 77992.200000
104.062200 9771.200000
105.069900 532357.200000
106.065100 774302.400000
106.077600 48025.200000
107.072900 92761.900000
107.085400 43758.300000
108.080600 9451.400000
116.062200 29702.800000
118.065100 212363.800000
119.085500 93030.000000
120.080800 340219.300000
121.088600 3403511.500000
122.096400 99559.300000
123.080400 16845.900000
129.069600 28250.300000
131.073200 13875.000000
131.085500 112798.800000
132.080700 89754.700000
133.088500 502767.600000
134.096400 8784.600000
146.096500 52972.800000
148.112000 4091699.200000
181.087400 8654.900000
196.112200 21450.100000

>ms2peaks
53.002200 80477.100000
53.038600 29762.900000
53.997500 13686.000000
55.054200 30930.100000
56.049500 11695.800000
57.069900 371042.100000
58.065100 610329.700000
63.022900 32068.300000
65.038600 966588.900000
71.085500 17656.800000
77.038600 20292.600000
79.054200 470761.100000
91.054200 8963535.000000
93.070000 28310.700000
95.049200 120414.000000
103.054200 269339.400000
104.062100 24827.900000
105.069900 1147246.200000
106.065100 1693319.100000
106.077500 93097.400000
107.073000 142634.600000
107.085500 45188.000000
116.062100 45060.100000
118.065100 409265.200000
119.085600 110067.800000
120.080800 792739.900000
121.088600 2128532.800000
122.096500 33578.700000
123.080400 26341.200000
129.070200 32709.700000
131.073000 26297.700000
131.085600 105240.900000
132.080800 219503.800000
133.088600 640138.400000
134.096500 12360.000000
146.096300 45569.400000
148.112100 1724285.800000
181.088600 18708.000000

