>compound LU64535179
>parentmass 174.10259999999997
>ionization [M+H]+
>formula C10H11N3
>rt 573.300000
>profile orbitrap
#smiles_iso CC1=NN(C(=C1)N)C2=CC=CC=C2
#smiles_can CC1=NN(C(=C1)N)C2=CC=CC=C2
#inchikey FMKMKBLHMONXJM-UHFFFAOYSA-N
#pubchem_id 70801
#mb_accession LU101101,LU101102,LU101103,LU101104,LU101105,LU101106

>ms2peaks
77.038600 4160.700000
106.065100 47028.800000
118.065100 4238.300000
130.065100 2740.300000
132.080700 12420.700000
133.076000 84075.300000
134.071200 4222.300000
147.091600 4862.700000
157.075900 6943.400000
174.102600 2695559.500000

>ms2peaks
92.049400 4271.900000
106.065100 66093.900000
116.049300 5676.000000
130.065100 4491.900000
132.080800 11627.700000
133.075900 102755.300000
134.071200 4353.100000
157.076100 9629.300000
174.102500 2759819.500000

>ms2peaks
56.049500 2470.900000
65.038600 2277.800000
68.049600 1880.500000
71.060300 4357.600000
77.038400 3259.200000
79.054100 9068.400000
81.044800 3722.600000
92.049500 31205.200000
93.057400 19168.200000
96.055600 3216.700000
104.049300 6149.900000
106.065100 480804.200000
115.054300 3443.300000
116.049500 25586.300000
117.057300 11410.700000
118.065100 17519.800000
119.060300 2994.900000
130.065200 38172.100000
131.073700 2180.800000
132.068500 20377.400000
132.080800 40548.900000
133.076000 460737.400000
134.071300 47549.500000
142.052700 2590.500000
144.080700 4635.900000
145.075800 5175.000000
145.088500 7851.600000
147.091700 23123.400000
156.068000 4951.800000
157.076000 55536.500000
159.079100 4223.300000
174.102600 1860651.200000

>ms2peaks
54.033900 1876.200000
56.049500 2125.700000
57.044700 2493.500000
65.038500 19950.300000
68.024300 3128.500000
71.060300 9089.200000
79.054200 47138.800000
81.044800 5990.500000
82.052600 2677.600000
83.060400 2660.600000
89.038600 2542.300000
91.054300 4520.400000
92.049500 100313.900000
93.057400 44590.900000
96.055900 4148.300000
103.054600 4716.600000
104.049400 17544.700000
105.070100 3198.800000
106.065200 906502.800000
115.054300 4402.900000
116.049500 50078.300000
117.057300 39794.200000
118.065100 21790.500000
119.060500 5521.200000
120.080900 3916.100000
130.065200 101247.800000
131.060700 3643.900000
131.072900 6015.500000
132.068300 57034.400000
132.080800 40225.400000
133.076100 465023.200000
134.071300 88073.300000
140.049600 3806.300000
142.052900 8359.000000
144.081000 11058.600000
145.076100 7479.200000
145.088800 7398.600000
147.091700 28984.300000
156.068300 17944.900000
157.076200 64163.900000
159.079000 9643.000000
174.102700 593634.600000

>ms2peaks
51.023000 2321.300000
53.038700 8143.500000
56.049500 2703.000000
57.044800 3362.100000
65.038600 71319.100000
68.024300 4405.300000
68.049500 5068.200000
71.060400 9019.500000
77.038600 2341.200000
79.054200 148750.900000
80.049400 2344.500000
81.044800 7023.000000
82.052600 3390.000000
83.060300 5897.800000
89.038600 16640.700000
91.054100 12615.000000
92.049500 181135.700000
93.057400 92808.600000
95.049200 18434.400000
96.055800 3189.600000
97.063400 2694.200000
103.054200 14495.600000
104.049400 33652.500000
105.044800 8045.200000
105.070100 4443.400000
106.065200 1065134.900000
107.060200 3094.700000
115.054100 9352.500000
116.049500 79317.700000
117.057300 77544.600000
118.052700 3513.100000
118.065100 27747.800000
119.060400 9567.300000
120.081100 6210.100000
128.049700 5236.800000
130.065200 142904.700000
131.060500 7481.100000
131.073100 6158.000000
132.068300 87349.800000
132.080600 22509.300000
133.076100 303113.000000
134.071300 94258.400000
140.049500 6333.000000
142.052600 15395.100000
144.080700 20638.100000
145.075900 6304.000000
145.088800 5877.800000
146.084200 3195.300000
147.091700 15950.800000
156.068100 21457.300000
157.076000 36341.200000
159.079300 8864.800000
174.102600 140567.200000

>ms2peaks
51.023000 2131.100000
53.038700 16791.800000
54.034000 3042.000000
56.049500 2223.200000
65.038600 142253.500000
68.024300 6595.300000
68.049400 5460.400000
71.060200 3805.900000
77.038500 6043.500000
79.054200 226180.300000
80.049300 4358.700000
81.044700 3826.600000
82.052700 5313.200000
83.060300 10193.500000
89.038600 45631.300000
91.054300 21711.200000
92.049500 183643.500000
93.057400 100731.400000
95.049200 62567.600000
96.055900 3030.100000
97.063500 3760.100000
103.054300 32547.600000
104.049500 40751.200000
105.044800 19278.800000
105.070000 6750.700000
106.065200 788105.100000
107.060500 6447.200000
115.054400 12802.100000
116.049600 63799.900000
117.057300 101249.400000
118.052500 5473.100000
118.065100 23084.400000
119.060400 6274.500000
120.080900 4374.800000
128.049600 9362.000000
130.065200 123223.600000
131.060600 17086.000000
131.073100 7617.100000
132.068300 93374.500000
132.080700 7908.800000
133.076100 118023.600000
134.071400 54231.600000
140.049600 6644.300000
142.052600 17955.500000
144.080900 24015.200000
145.076200 5161.500000
145.088800 3634.100000
146.084100 2478.500000
147.091600 4922.700000
156.068300 15211.300000
157.076100 11588.300000
159.079100 2233.300000
174.102600 23029.900000

