>compound LU64675971
>parentmass 646.031
>ionization [M+H]+
>formula C25H29I2NO3
>rt 1086.180000
>profile orbitrap
#smiles_iso CCCCC1=C(C2=CC=CC=C2O1)C(=O)C3=CC(=C(C(=C3)I)OCCN(CC)CC)I
#smiles_can CCCCC1=C(C2=CC=CC=C2O1)C(=O)C3=CC(=C(C(=C3)I)OCCN(CC)CC)I
#inchikey IYIKLHRQXLHMJQ-UHFFFAOYSA-N
#pubchem_id 2157
#mb_accession LU037801,LU037802,LU037803,LU037804,LU037805,LU037806

>ms2peaks
58.065100 82770.200000
72.080700 19906.500000
73.088500 16556.200000
86.096400 163260.700000
100.112000 368898.200000
646.031100 12906222.000000

>ms2peaks
56.049500 15934.300000
58.065100 11636300.000000
70.065000 20611.200000
72.080700 2572550.000000
73.088500 1087073.500000
74.096300 88804.000000
86.096400 5576715.500000
98.096400 15541.500000
100.112000 6134424.500000
159.043900 44388.300000
201.090900 465181.500000
248.083500 19226.800000
263.106700 20247.800000
275.070300 18639.200000
276.078000 249560.900000
277.085700 135779.400000
290.093800 37392.000000
319.132800 107786.700000
359.963700 13980.500000
372.821800 18496.300000
372.857900 20292.900000
374.951400 14859.900000
375.959100 15647.200000
388.966900 12902.100000
398.837300 37690.000000
402.983300 18673.300000
416.997700 29610.600000
476.072200 63151.800000
516.916100 59701.800000
646.031100 1432494.800000

>ms2peaks
56.049400 23975.300000
58.065100 14244516.000000
70.065000 41847.800000
72.080700 2726080.200000
73.088500 322930.500000
74.096400 87334.200000
86.096400 2758758.800000
100.112000 1977327.000000
131.049200 49250.900000
159.044000 243837.800000
171.044000 35048.600000
201.091000 319565.200000
205.064500 14538.500000
221.059600 63543.100000
231.080000 15190.200000
233.059500 44208.600000
234.067600 40978.100000
235.075400 30895.400000
245.953800 18851.800000
247.075300 42150.100000
248.083300 67190.500000
249.054800 21126.800000
249.090800 28501.900000
259.075300 19772.200000
263.070300 17120.100000
263.106500 25683.300000
272.940600 27883.200000
275.070300 103846.500000
276.078000 261654.800000
277.085800 55881.900000
289.085400 14616.500000
290.093800 66606.700000
346.956700 43762.000000
372.821500 49356.800000
372.971500 15045.400000
374.951000 16154.300000
398.836200 15673.000000
476.072700 23078.800000
516.914100 16067.900000

>ms2peaks
56.049500 18459.000000
58.065100 11858398.000000
70.065000 41952.500000
72.080700 1561649.800000
73.088500 64312.700000
74.096300 63550.600000
86.096400 1283246.100000
91.054300 13444.600000
100.112000 522117.700000
103.054100 17685.300000
115.054300 15946.900000
117.069700 12515.500000
118.041200 15554.900000
131.049100 175946.500000
131.085500 12858.700000
159.044000 396194.600000
165.070000 25578.100000
171.044000 56186.900000
178.077700 16551.700000
179.049400 18741.900000
191.085500 13219.800000
192.056900 48811.000000
193.064700 33601.500000
201.090900 140551.500000
205.064800 87622.700000
206.072400 27274.800000
207.080400 12824.400000
217.922800 18855.800000
218.072400 25839.900000
219.080400 26788.900000
220.051700 26569.600000
220.088200 19205.300000
221.059700 115850.800000
231.080100 30043.600000
233.059600 48967.900000
234.067400 72167.200000
235.075300 39118.400000
247.075400 108489.500000
248.083200 62793.400000
249.054200 21451.700000
259.075600 29510.400000
261.054600 17206.400000
261.091000 14932.800000
272.940300 12413.400000
275.070100 92833.100000
276.078200 64312.100000
289.085500 18813.400000
333.949000 13785.300000
346.955900 35959.400000
372.823200 13368.500000

>ms2peaks
56.049600 23466.000000
58.065100 11628681.000000
70.065100 36790.900000
72.080800 1003996.400000
73.088700 11687.000000
74.096400 34104.800000
86.096500 789710.600000
89.038600 25035.300000
90.046500 16456.700000
91.054200 37885.400000
95.049100 17689.300000
100.112100 161348.000000
102.046500 14494.300000
103.054300 67128.500000
105.033600 12314.700000
115.054200 55941.600000
117.069800 11711.200000
118.041400 27361.600000
128.062000 17695.600000
129.070000 12680.300000
131.049200 444747.900000
157.065000 11794.900000
159.044100 395659.800000
163.054200 20878.000000
165.070000 155845.500000
168.057100 31993.500000
169.064800 13268.500000
171.044000 45108.900000
176.062200 28807.800000
178.077700 50884.900000
179.049200 45157.800000
179.085800 14013.100000
189.070100 29249.300000
190.078000 15187.100000
191.085600 47683.400000
192.057000 174347.800000
193.064900 51962.700000
201.090900 23367.500000
202.077600 27395.400000
203.085700 15853.600000
205.064900 179748.400000
206.072600 33796.700000
207.080400 22497.600000
217.922300 36536.600000
218.072800 49847.600000
219.080500 74253.200000
220.052200 24141.800000
220.088400 13083.000000
221.059700 87519.100000
231.080600 39313.700000
233.059700 27767.300000
234.067700 44489.900000
235.075300 22536.000000
245.060000 21127.900000
247.075400 124350.700000
248.082900 19213.900000
258.068400 12258.700000
259.075300 18455.100000
261.055100 12278.600000
275.070100 39811.300000
346.956400 12367.400000

>ms2peaks
53.038600 18514.200000
56.049500 37304.500000
58.065100 10595247.000000
63.022800 34718.200000
65.038500 13938.400000
70.065100 27747.000000
72.080700 611671.300000
74.096400 25783.000000
86.096400 428303.900000
89.038500 48946.800000
90.046400 14274.800000
91.018000 15769.000000
91.054200 52093.100000
92.025500 11998.200000
95.049100 45112.400000
100.112000 50954.800000
102.046400 63273.900000
103.054200 146277.000000
105.033600 19890.900000
115.054200 98775.400000
118.041300 21968.900000
128.062000 30830.900000
131.049100 581161.900000
139.054100 12622.000000
152.062100 25435.700000
157.064800 12918.400000
159.044000 210978.000000
163.054100 86836.000000
164.062100 25323.300000
165.069900 270216.100000
168.056800 69134.200000
169.064800 38325.100000
171.044000 31621.300000
176.062000 89156.400000
177.069700 15317.900000
178.077600 89529.500000
179.049200 38885.000000
179.085500 12123.100000
181.064600 14580.100000
189.069800 80870.400000
190.077700 34793.900000
191.085500 82873.000000
192.056900 201342.200000
193.064800 38078.400000
196.052000 13507.000000
202.077800 46888.700000
203.048900 12333.300000
203.085500 13180.400000
205.064800 210634.000000
206.072600 18352.400000
207.080300 12088.100000
215.085400 14211.200000
217.922500 25981.600000
218.072500 66042.400000
219.080500 51190.400000
220.051900 13314.400000
221.059800 46485.000000
231.080400 38633.800000
233.059300 11050.100000
234.067500 21889.700000
245.059700 14842.500000
247.075100 61121.200000

