>compound LU65234208
>parentmass 239.0815
>ionization [M+H]+
>formula C14H10N2O2
>rt 964.380000
>profile orbitrap
#smiles_iso C1=CC=C2C(=C1)C(=O)C3=C(C=CC(=C3C2=O)N)N
#smiles_can C1=CC=C2C(=C1)C(=O)C3=C(C=CC(=C3C2=O)N)N
#inchikey FBMQNRKSAWNXBT-UHFFFAOYSA-N
#pubchem_id 31420
#mb_accession LU053001,LU053002,LU053003,LU053004,LU053005

>ms2
72.044400 13315.300000
238.074100 2905.000000
239.081100 1992142.200000

>ms2
72.044300 20615.900000
105.033600 3229.300000
210.055700 2989.300000
221.071100 5689.000000
238.074200 7991.700000
239.080900 2977019.500000

>ms2
65.038500 2552.800000
72.044300 19175.400000
91.054100 2374.300000
92.049500 9400.700000
105.033500 52552.000000
110.060100 4234.300000
130.028700 7735.600000
161.034600 27918.000000
161.059600 5767.100000
166.065300 11568.300000
182.060500 5055.900000
183.091800 5409.900000
184.075900 4998.000000
193.076100 22722.800000
194.060300 18281.000000
195.091900 4269.000000
196.075700 2833.700000
198.055200 3280.100000
199.062700 6250.200000
210.055200 9511.100000
210.078600 7996.000000
211.086700 52353.700000
212.070700 31737.000000
221.070900 104547.400000
222.055100 26223.400000
223.062900 25557.800000
238.073800 88044.300000
239.081000 1935558.200000

>ms2
65.038600 8995.300000
72.044400 19623.200000
79.029100 1960.800000
80.049500 4610.400000
91.054300 3143.900000
92.049500 21143.700000
93.057600 2895.800000
95.049400 5833.300000
105.033600 114992.300000
105.044800 12451.900000
110.060000 8848.500000
115.054300 3200.700000
118.065300 1808.900000
129.070200 2280.600000
130.029000 22310.200000
130.065500 1900.500000
133.039600 2290.900000
133.065100 3478.900000
135.055600 8222.800000
139.054400 9777.600000
141.070000 3369.900000
142.065400 3019.300000
144.008400 7115.800000
154.065400 3371.700000
155.061700 1894.100000
156.081200 5898.800000
157.064900 4780.300000
161.034800 36408.200000
161.059800 10692.800000
166.065300 92321.200000
167.049500 14955.400000
167.073200 13704.900000
168.081000 6320.000000
169.064900 2373.500000
170.060300 6927.800000
182.060200 13774.300000
182.084800 13712.200000
183.092400 11983.600000
184.076000 25080.100000
185.059700 6560.900000
192.068400 33122.500000
193.076300 98829.700000
194.060400 63623.100000
195.067800 8551.600000
195.092100 3311.100000
196.076000 5344.000000
198.055300 5772.600000
199.063100 9287.500000
210.055600 11586.200000
210.079200 31612.400000
211.087000 81345.200000
212.070900 58934.900000
221.071200 146763.400000
222.055200 51694.200000
223.063100 58105.300000
224.058800 6056.900000
237.066700 3489.300000
238.074000 178351.200000
239.081500 517549.800000

>ms2
65.038600 37481.000000
72.044400 15602.000000
79.029100 6064.000000
80.049500 13922.100000
91.054200 8549.300000
92.049500 26707.200000
93.057400 5058.000000
95.049200 29256.400000
105.033600 137694.200000
105.044700 38163.600000
110.060100 7064.900000
115.054300 23145.400000
118.065000 2344.700000
129.069900 17149.300000
130.028900 24472.900000
130.065300 2179.500000
133.039700 2663.300000
133.064700 2611.500000
135.055400 19872.800000
139.054300 93948.100000
141.069700 10622.700000
142.065300 5169.200000
144.008100 14250.000000
154.065400 13883.000000
155.061200 3427.100000
156.081100 26484.300000
157.064800 14610.200000
161.034600 23017.100000
161.059800 11798.500000
166.065300 333842.700000
167.049200 47447.700000
167.073100 69310.300000
168.081100 6544.200000
169.064800 7830.000000
170.060200 18825.900000
182.060100 30291.900000
182.084700 46634.500000
183.091500 6754.300000
184.076100 50785.500000
185.060300 11369.700000
192.068300 132350.000000
193.076200 139974.400000
194.060300 80361.000000
195.067900 35068.100000
195.091700 2414.300000
196.076200 3567.900000
198.055200 6915.000000
199.063000 8201.200000
210.055600 14611.900000
210.079100 68573.500000
211.086900 52977.800000
212.070800 45959.000000
221.071100 74031.100000
222.055200 48102.500000
223.062900 54987.900000
224.058200 4618.000000
237.065900 15755.000000
238.073800 226908.100000
239.081100 102550.100000

