>compound LU65469602
>parentmass 314.0821
>ionization [M+H]+
>formula C14H17Cl2N3O
>rt 1133.880000
>profile orbitrap
#smiles_iso CCCCC(CN1C=NC=N1)(C2=C(C=C(C=C2)Cl)Cl)O
#smiles_can CCCCC(CN1C=NC=N1)(C2=C(C=C(C=C2)Cl)Cl)O
#inchikey STMIIPIFODONDC-UHFFFAOYSA-N
#pubchem_id 66461
#mb_accession LU126901,LU126902,LU126903,LU126904,LU126905,LU126906

>ms2
70.039900 3962143.500000
105.033500 54785.700000
158.975600 61745.500000
162.065900 16120.600000
170.016200 19671.300000
184.991900 18839.900000
245.049400 94778.400000
314.082100 15320230.000000

>ms2
55.054300 41620.100000
57.069900 40103.000000
59.049100 18976.400000
70.039900 14490388.000000
81.070200 18876.600000
85.064800 65042.900000
105.033500 60709.100000
125.015300 77078.200000
153.010100 24264.400000
158.976300 737712.800000
162.066200 39115.800000
172.991900 34398.900000
174.971200 139364.000000
184.992000 302024.800000
188.986900 202900.500000
245.049500 173124.800000
314.082300 1689910.900000

>ms2
55.054300 94596.100000
57.069900 202057.900000
59.049100 32683.300000
70.039900 15547077.000000
81.069900 26219.700000
85.064800 97186.500000
105.033500 51066.500000
125.015300 292668.600000
146.976300 57292.000000
149.015200 50314.400000
150.023100 89804.200000
153.010100 174752.600000
158.976300 1685183.800000
162.066300 36373.600000
170.976500 42855.100000
172.992000 44128.700000
174.971200 286092.800000
184.991900 417561.300000
188.986800 173630.900000
314.082400 16160.000000

>ms2
55.054300 119995.400000
57.069900 312488.300000
59.049100 31041.000000
70.039900 14584568.000000
85.064800 39886.000000
105.033400 27742.100000
115.054200 38924.500000
122.999800 22388.500000
125.015300 579246.900000
129.010200 42622.100000
136.007600 37888.900000
137.015500 16362.000000
139.005700 79269.300000
146.976300 151394.100000
149.015300 126895.600000
150.023100 308857.400000
153.010200 105635.100000
158.976300 2159755.000000
162.066200 14974.300000
170.976200 135344.100000
172.991900 31538.600000
174.971200 188423.700000
184.991900 188173.400000
188.987000 28143.300000

>ms2
53.002200 18250.500000
55.054300 93945.600000
57.069900 238966.300000
59.049000 19303.600000
70.039900 13127954.000000
75.022900 15792.900000
86.999600 40891.600000
89.038500 45981.100000
95.049100 15845.600000
98.999600 24395.800000
102.046500 17267.600000
105.033400 24140.900000
115.054200 172567.200000
122.999500 131027.100000
124.007300 37277.600000
125.015200 626342.900000
129.010100 107409.200000
132.960500 13638.100000
136.007500 140253.600000
137.015300 17921.400000
139.005700 206069.400000
146.976200 112124.100000
149.015200 130973.300000
150.023000 290096.000000
153.010200 27767.500000
154.017900 20244.000000
158.976200 2100505.200000
163.005800 18491.100000
170.976200 115599.500000
174.971200 64757.400000
184.991800 40894.700000

>ms2
53.002100 26396.300000
55.054300 73028.900000
57.069900 175194.600000
64.978700 16857.800000
70.039900 11391879.000000
75.022900 58112.600000
86.999600 42032.000000
89.038500 170053.500000
90.046400 23753.100000
91.054200 17321.000000
95.049100 14499.500000
98.999600 116311.200000
102.046400 17794.300000
105.033500 12716.600000
110.999500 31670.900000
112.007400 15971.800000
115.054200 351547.200000
119.060200 13594.600000
122.999600 389875.100000
124.007400 123763.700000
125.015200 553788.000000
129.010100 132943.100000
132.960600 52987.400000
134.999600 13028.100000
136.007500 214887.000000
139.005700 255956.100000
146.976200 32865.800000
149.015200 111384.300000
150.023100 161404.500000
158.976300 1645298.900000
163.005700 44739.600000
170.976200 40266.600000
174.970900 12833.600000

