>compound LU65286874
>parentmass 411.1021
>ionization [M+H]+
>formula C18H19FN2O6S
>rt 960.180000
>profile orbitrap
#smiles_iso C1COCCC1(C(=O)NO)NS(=O)(=O)C2=CC=C(C=C2)OC3=CC=C(C=C3)F
#smiles_can C1COCCC1(C(=O)NO)NS(=O)(=O)C2=CC=C(C=C2)OC3=CC=C(C=C3)F
#inchikey ZBRHTUMWSDPCMI-UHFFFAOYSA-N
#pubchem_id 9866250
#mb_accession LU041601,LU041602,LU041603,LU041604,LU041605,LU041606

>ms2peaks
99.044100 2268.700000
100.075800 61840.900000
114.055000 5778.100000
144.065700 48446.200000
251.017500 3115.300000
350.086100 9773.100000

>ms2peaks
70.065100 2869.800000
82.065400 1702.200000
99.044000 2483.200000
100.075700 52767.800000
114.055200 22247.400000
127.063000 2689.900000
144.065600 22651.200000
203.050800 2845.000000
251.017500 13827.100000
350.085700 2381.900000

>ms2peaks
53.038700 2380.900000
70.065100 5673.600000
82.065000 3176.600000
99.044200 2899.000000
100.075800 47278.100000
114.055000 30905.900000
127.062900 5143.300000
144.065500 6196.700000
159.060400 11543.700000
203.050500 3857.900000

>ms2peaks
53.038600 2993.700000
68.049500 1681.200000
70.065100 8523.900000
82.065100 3470.800000
100.075700 28007.400000
114.055100 21102.900000
127.062900 4396.300000
133.045000 4078.700000
159.060500 18918.400000

>ms2peaks
53.038600 5008.200000
68.049500 1877.400000
70.065200 10542.800000
82.065300 3968.200000
100.075900 12522.300000
114.055200 4725.500000
133.045000 15722.800000
159.060700 20237.400000

>ms2peaks
53.038700 6096.000000
70.065200 11652.000000
82.065200 3684.200000
100.075800 7550.800000
114.054900 1787.700000
133.044800 27327.400000
159.060500 8382.800000

