>compound LU65614025
>parentmass 310.16620000000006
>ionization [M+H]+
>formula C17H19N5O
>rt 994.240000
>profile orbitrap
#smiles_iso C1CCOC(C1)N2C=NC3=C(N=CN=C32)NCC4=CC=CC=C4
#smiles_can C1CCOC(C1)N2C=NC3=C(N=CN=C32)NCC4=CC=CC=C4
#inchikey POFWRMVFWIJXHP-UHFFFAOYSA-N
#pubchem_id 16834
#mb_accession LU118301,LU118302,LU118303,LU118304,LU118305,LU118306

>ms2
85.064700 5009.900000
91.054600 46477.400000
226.108600 4543038.500000
310.166200 910099.100000

>ms2
85.064800 55761.200000
91.054200 626451.300000
148.061700 41146.500000
226.108700 5447122.000000
310.165900 17224.700000

>ms2
57.069900 11416.800000
65.038500 14464.900000
67.054200 15002.100000
85.064800 121681.100000
91.054200 3903070.800000
148.061800 199866.600000
226.108800 2166244.500000

>ms2
57.069800 22788.000000
65.038500 65301.700000
67.054100 36579.200000
85.064700 113091.800000
91.054200 5933216.000000
148.061700 188572.300000
226.108600 282729.900000

>ms2
57.033500 6025.500000
57.069900 34786.000000
65.038600 178691.100000
67.054200 39631.500000
85.064800 77010.800000
91.054300 5653103.000000
119.035400 8454.000000
121.050800 9769.100000
148.061800 120247.300000
226.109300 13343.100000

>ms2
53.002300 8321.800000
57.069900 32742.800000
63.022900 9141.700000
65.038600 412255.700000
67.054200 44146.900000
85.064800 43345.600000
91.054200 5270774.000000
119.035300 27401.200000
121.050700 14055.000000
148.061800 52236.300000

