>compound LU65858420
>parentmass 197.08079999999998
>ionization [M+H]+
>formula C10H12O4
>rt 845.460000
>profile orbitrap
#smiles_iso COC1=CC(=C(C=C1C=O)OC)OC
#smiles_can COC1=CC(=C(C=C1C=O)OC)OC
#inchikey IAJBQAYHSQIQRE-UHFFFAOYSA-N
#pubchem_id 20525
#mb_accession LU074601,LU074602,LU074603,LU074604,LU074605,LU074606

>ms2peaks
109.064700 4441.500000
123.044100 4424.700000
137.059700 2341.500000
138.067600 246762.500000
139.039100 2446.100000
139.075500 34920.900000
154.062500 385906.700000
167.070400 114591.300000
169.086000 1215927.000000
182.057500 61998.700000
197.081000 2127515.500000

>ms2peaks
109.064900 7279.600000
111.044600 1989.400000
123.044400 3979.900000
124.051700 2333.600000
125.060100 2578.800000
126.067500 3299.400000
137.059500 3263.300000
138.067600 446287.400000
139.039200 6651.600000
139.075400 62411.700000
154.062500 581678.200000
155.070400 3070.600000
167.033900 10331.800000
167.070400 153870.700000
168.078300 3885.500000
169.086000 1436848.500000
182.057600 96610.400000
197.081000 1357639.600000

>ms2peaks
66.046400 2290.800000
67.054200 2349.300000
78.046100 2313.800000
79.054200 14179.200000
81.069800 9203.200000
94.041300 3712.500000
95.049200 16298.000000
96.056800 14104.300000
97.064700 2355.800000
105.033300 2027.000000
107.049000 2074.000000
108.056900 6716.300000
109.064800 33194.600000
111.044000 15845.700000
111.080500 6692.800000
121.028500 2957.400000
122.036300 20052.700000
123.044100 70123.300000
124.051900 27583.600000
125.059700 16719.300000
126.067600 28512.400000
137.059600 4728.600000
138.067500 1213948.800000
139.039000 122809.500000
139.075300 156039.700000
153.054600 14214.100000
154.062400 858601.600000
155.070100 9309.100000
167.034000 109054.300000
167.070300 153294.900000
168.078300 12012.100000
169.085900 800466.500000
182.057400 165129.300000
195.065300 6120.800000
197.080900 140292.600000

>ms2peaks
53.038600 8972.000000
55.017900 2683.900000
55.054200 3780.700000
65.038500 12144.400000
66.046400 7256.500000
67.054200 11839.600000
68.997100 2572.200000
69.033400 3816.900000
78.046400 9337.800000
79.054200 33863.600000
81.033300 2348.400000
81.069900 19869.800000
83.049100 13635.800000
92.025800 2466.500000
93.033600 13787.400000
94.041400 14681.100000
95.049100 70258.400000
96.057000 36891.300000
97.028300 4694.500000
97.064800 13378.700000
105.033300 2054.800000
107.012600 5618.400000
107.049100 4090.300000
108.056900 26098.400000
109.028200 10561.700000
109.064800 81308.200000
110.036200 3538.600000
111.044100 156008.800000
111.080500 13235.800000
121.028300 10180.400000
122.036300 33506.200000
123.044000 349702.600000
124.051900 79221.600000
125.059700 53897.600000
126.067600 57974.900000
137.059600 7760.000000
138.067600 1085772.800000
139.039000 412984.200000
139.075300 127696.200000
152.046500 3149.200000
153.054700 30826.200000
154.062400 524367.300000
155.070200 4564.400000
167.034000 298336.400000
167.070200 66385.500000
168.078100 9488.800000
169.085900 165898.600000
181.049500 2443.600000
182.057400 83109.500000
195.065100 3702.700000
197.082300 11309.700000

>ms2peaks
53.002300 2605.300000
53.038600 20198.800000
55.017900 6456.400000
55.054200 10688.100000
65.038600 82198.000000
66.046400 21904.200000
67.054200 27945.000000
68.025700 6143.100000
68.997000 14831.800000
69.033400 7452.600000
77.038600 3562.100000
78.046500 38357.100000
79.018000 6117.900000
79.054200 43336.800000
81.033500 22432.700000
81.069900 17517.800000
83.049200 49867.800000
85.028400 3984.800000
91.054400 2705.900000
92.025700 8570.300000
93.033600 30401.200000
94.041300 27932.200000
95.049200 169072.600000
96.020900 3794.000000
96.057000 50747.800000
97.028500 18386.200000
97.064900 20394.100000
105.033600 6521.800000
106.041500 2660.100000
107.012800 13250.700000
107.049200 7038.200000
108.057000 45972.200000
109.028500 44193.000000
109.064900 124295.400000
110.036200 11330.100000
111.044100 436828.200000
121.028600 18936.300000
122.036300 31189.700000
123.044100 674747.200000
124.052000 91347.000000
125.059800 85624.200000
126.067600 39708.000000
135.044100 3076.900000
137.023200 4768.000000
137.059900 10619.100000
138.067700 508487.000000
139.039100 508154.900000
139.075300 46078.700000
149.023300 4739.600000
151.039100 3675.700000
152.046600 2447.600000
153.054700 31926.000000
154.062500 161698.800000
155.034300 3088.400000
155.070400 2949.100000
167.034000 211990.200000
169.086000 23517.100000
181.049600 2589.500000
182.057500 14390.900000
195.065200 2699.700000

>ms2peaks
53.002200 9751.100000
53.038600 48397.400000
55.017900 19185.100000
55.054200 31142.900000
65.038500 212221.600000
66.046300 41599.000000
67.054200 57254.700000
68.025600 23889.400000
68.997100 42812.400000
69.033400 24387.000000
77.038500 8655.900000
78.046400 79914.700000
79.017900 33850.600000
79.054200 38919.400000
81.033500 55108.100000
81.070000 9162.700000
83.049100 95978.300000
85.028400 2352.700000
91.054300 3793.100000
92.025700 14182.800000
93.033500 47593.000000
94.041300 44823.300000
95.049200 306465.300000
96.020600 16426.800000
96.056900 40363.300000
97.028400 28382.200000
97.064800 22523.100000
105.033500 8201.800000
106.041000 3030.900000
107.012700 27758.900000
107.049100 12451.100000
108.057000 40347.000000
109.028500 77332.300000
109.064800 119922.400000
110.036200 22953.500000
111.044100 573285.300000
121.028500 20979.400000
122.036400 13898.700000
123.044000 707444.500000
124.051900 52226.000000
125.059700 90385.200000
126.067600 10316.400000
135.044000 2795.800000
137.023300 8476.000000
137.059700 10059.200000
138.067500 158194.600000
139.039000 338066.500000
149.023400 3249.600000
151.038900 5654.900000
153.054600 13893.400000
154.062400 34140.500000
155.033900 5522.100000
167.033900 77021.400000
181.049600 5687.200000

