>compound LU65174260
>parentmass 165.091
>ionization [M+H]+
>formula C10H12O2
>rt 914.160000
>profile orbitrap
#smiles_iso CC(=O)CCC1=CC=C(C=C1)O
#smiles_can CC(=O)CCC1=CC=C(C=C1)O
#inchikey NJGBTKGETPDVIK-UHFFFAOYSA-N
#pubchem_id 21648
#mb_accession LU088301,LU088302,LU088303,LU088304,LU088305,LU088306

>ms2peaks
51.023100 6607.800000
53.038600 8393.700000
55.054200 345159.400000
67.054300 4134.600000
77.038400 4438.000000
91.054200 27254.100000
95.049100 7951.500000
109.028400 15704.500000
111.044000 39236.700000
119.049500 4605.100000
119.085600 83752.500000
121.064900 4183.600000
123.044000 4084838.500000
137.059700 300043.200000
137.096000 15032.700000
147.080500 111314.900000
165.091000 1752343.000000

>ms2peaks
51.023100 6027.900000
53.038700 8395.500000
55.054300 311667.200000
77.038500 4777.000000
91.054200 25950.200000
95.049100 8030.000000
109.028500 16771.500000
111.044100 37917.500000
119.085600 74071.600000
123.044100 3677728.500000
137.059800 264399.600000
137.096000 18942.700000
147.080500 92357.500000
165.091100 1538646.900000

>ms2peaks
51.023100 6998.500000
53.002200 4945.300000
53.038600 16982.200000
55.054300 594343.900000
65.038600 5602.900000
67.054200 24153.900000
77.038600 6039.000000
91.054200 114339.200000
95.049200 63895.000000
105.033500 13861.900000
107.049100 9104.400000
109.028400 24466.000000
109.064800 6490.300000
109.101200 5595.400000
111.044100 52407.600000
117.070000 8759.500000
119.049300 26990.600000
119.085600 110841.500000
123.044100 4671768.000000
137.059800 272738.100000
137.096300 15599.400000
147.080500 86632.900000
150.067400 4987.400000
165.091100 322453.700000

>ms2peaks
51.023100 6632.500000
53.002300 4658.600000
53.038600 44658.300000
55.054200 616068.900000
65.038500 23932.300000
67.054200 118963.700000
77.038500 37169.300000
79.054300 9458.700000
81.033500 9929.400000
81.069900 6281.200000
91.054200 254300.500000
93.033600 8274.100000
95.049100 249400.300000
103.054300 15919.300000
104.062100 5100.600000
105.033500 83187.500000
107.049000 16563.100000
109.028400 16912.200000
109.065000 10659.300000
110.036200 11118.800000
111.044100 52273.000000
117.069800 21191.600000
119.049200 56490.800000
119.085600 81745.000000
123.044000 4015118.200000
131.049300 4505.700000
132.057000 8613.200000
137.059700 166716.000000
147.080400 42401.900000
150.067700 7540.500000
165.091000 38929.000000

>ms2peaks
50.015200 5513.600000
51.023100 8958.800000
53.002200 12156.500000
53.038600 106048.400000
55.017900 53339.000000
55.054300 481565.700000
65.038600 77508.200000
67.054200 283470.200000
77.038600 141710.600000
79.054200 20418.700000
81.033500 28841.400000
81.069900 10455.000000
91.054300 379342.900000
93.033500 7449.700000
93.070100 4764.100000
94.041300 8870.200000
95.049200 474560.100000
103.054200 28754.100000
104.062000 19381.800000
105.033600 227808.900000
107.049100 22792.400000
109.028500 13028.200000
109.065000 10085.500000
110.036300 12909.600000
111.044100 36543.100000
115.054200 9473.900000
117.069900 25686.200000
119.049200 56449.500000
119.085600 35502.000000
123.044100 2896836.500000
128.062100 3450.900000
131.049200 7381.700000
132.056900 10613.400000
133.064900 3462.200000
137.059800 59477.100000
147.080400 9609.000000
150.067700 3188.500000

>ms2peaks
50.015100 17687.500000
51.022900 28586.800000
53.002200 14809.300000
53.038600 150224.700000
55.017900 72585.300000
55.054300 331293.800000
65.038600 155537.600000
67.054200 328347.400000
77.038600 298387.100000
79.054200 31327.000000
81.033500 33944.000000
81.070000 7966.700000
91.054200 386582.500000
93.033400 4452.000000
93.070000 4974.800000
94.041400 8720.500000
95.049200 585387.900000
103.054300 35761.800000
104.062100 22399.400000
105.033600 266964.200000
107.049100 18361.300000
109.028500 7171.700000
109.064900 7395.900000
110.036300 16907.100000
111.044100 18918.800000
115.054300 15423.700000
117.069900 20322.600000
119.049200 30329.700000
119.085700 11652.300000
123.044100 1536153.400000
128.062200 5060.400000
131.049100 15811.200000
132.057000 7251.100000
133.065000 3790.300000
137.059700 16763.200000

