>compound LU65386350
>parentmass 324.0568
>ionization [M+H]+
>formula C14H14ClN3O2S
>rt 1071.720000
>profile orbitrap
#smiles_iso CC1=C(C(=CC=C1)NC2=CC(=NC(=N2)SCC(=O)O)Cl)C
#smiles_can CC1=C(C(=CC=C1)NC2=CC(=NC(=N2)SCC(=O)O)Cl)C
#inchikey SZRPDCCEHVWOJX-UHFFFAOYSA-N
#pubchem_id 5694
#mb_accession LU029301,LU029302,LU029303,LU029304,LU029305,LU029306

>ms2
262.067600 10564.900000
278.051300 136119.600000
306.046300 1387530.500000
324.056700 7744642.000000

>ms2
134.096400 8216.300000
183.091400 5576.100000
196.087200 13185.300000
215.063800 43001.200000
219.068300 265388.800000
231.059200 5674.400000
242.074600 259428.100000
262.067600 68792.300000
263.028300 23544.900000
266.050800 7437.300000
278.051300 4711721.000000
280.066400 13848.900000
306.046300 2896201.500000
324.056900 1037314.900000

>ms2
65.038700 4493.900000
71.990200 53754.200000
75.994800 57254.300000
77.038800 5409.700000
79.029000 3189.000000
79.054200 6745.600000
91.054300 3509.400000
93.070000 5943.000000
103.054400 6036.100000
105.069900 83320.100000
107.085600 6097.500000
115.005800 6812.900000
117.069900 11023.100000
129.069600 7034.100000
130.065300 8441.400000
131.072800 4592.400000
132.080700 12081.400000
133.076100 3234.700000
134.096400 114714.600000
142.065300 3924.500000
143.073000 3217.400000
144.080700 29372.600000
145.088600 8023.200000
154.065000 3854.700000
156.080700 42332.400000
157.076500 3158.800000
157.088600 7628.500000
158.096400 74336.300000
159.091700 15444.300000
160.075800 7797.700000
164.052900 5077.500000
168.068600 6373.600000
169.075900 27031.500000
170.084100 7221.500000
171.091400 17385.300000
173.021200 3097.300000
174.037000 5437.300000
174.091400 21783.600000
176.052700 23613.700000
178.041900 7555.100000
181.075600 3754.800000
182.083800 8983.700000
183.091700 263494.600000
184.099300 33419.900000
188.052900 36755.600000
189.048000 15087.500000
190.041900 5710.500000
192.057400 73343.200000
196.086900 154383.800000
198.102500 6797.700000
200.040500 8547.500000
201.101700 12759.400000
203.037300 4764.700000
204.044700 35330.800000
207.058500 21205.200000
208.087100 29985.000000
209.095500 4789.900000
212.027900 19175.000000
213.047800 20423.000000
215.063700 581286.600000
217.053700 6157.600000
217.079100 23914.500000
218.061500 3781.300000
219.068300 2762835.200000
220.076300 8411.300000
226.043900 4447.700000
227.050800 29756.200000
228.058900 5973.600000
229.066900 51979.100000
230.047400 21956.500000
231.058900 19846.800000
232.062900 15150.300000
242.062100 82451.500000
242.074500 1591587.100000
245.071100 5950.600000
249.024700 100592.900000
262.020700 22795.000000
262.067100 15178.800000
263.027800 131454.900000
266.050700 6483.000000
278.051200 3051157.200000
280.065900 5827.300000
306.046100 171681.100000
324.057200 10439.600000

>ms2
53.038600 7949.500000
58.995100 3509.700000
59.990400 2996.100000
65.038500 23059.100000
71.990200 221215.400000
75.994800 178112.600000
77.038400 4788.500000
79.054200 129496.400000
83.990300 3315.100000
87.994800 13885.900000
89.038700 3362.800000
91.054100 21507.000000
93.069900 21262.200000
95.049100 22321.600000
99.001000 5650.400000
103.054200 91903.000000
105.069900 870344.100000
105.951300 7023.000000
106.065500 2820.900000
106.077800 4101.700000
107.085400 32267.300000
111.044100 19809.500000
115.005600 17599.200000
115.054100 27280.500000
116.049200 4179.300000
117.057300 7890.400000
117.069800 50443.700000
118.065100 5424.900000
119.073000 17511.700000
119.085600 6009.700000
121.039500 9656.400000
123.080400 32239.100000
128.062100 5652.400000
129.069800 87850.000000
130.065100 65196.400000
131.073000 18100.300000
131.085400 22764.100000
132.080700 50247.000000
133.075800 19626.600000
134.096300 209003.300000
139.030800 7177.200000
141.069800 7561.600000
142.065100 26814.800000
143.072900 35319.200000
144.080700 221212.700000
144.962000 4861.300000
145.088500 42135.700000
148.075300 3866.500000
153.046500 11095.300000
154.065100 33018.500000
155.060300 13560.200000
155.072700 22556.000000
156.069300 29676.800000
156.080700 217248.100000
157.076100 9630.000000
157.088600 62199.200000
158.096400 219204.200000
159.091600 25560.700000
160.075500 22614.300000
162.037600 5217.500000
162.091400 3020.600000
163.030900 3461.100000
164.052900 5391.700000
165.046600 10449.500000
166.064900 5941.000000
167.073000 8708.200000
168.068200 79088.900000
169.075900 127051.700000
170.083700 43713.700000
171.091600 60236.200000
173.020800 10037.000000
173.029300 13706.800000
174.037200 10455.500000
174.091300 77803.600000
175.062700 3065.900000
175.086700 4747.200000
176.052400 21371.500000
178.041800 24989.200000
179.060300 8218.400000
180.068200 9355.400000
181.075900 32298.100000
182.083800 43306.400000
183.091700 821619.100000
184.099500 72705.100000
185.107100 9825.800000
186.037300 10417.700000
187.045100 4204.000000
188.026300 11668.300000
188.052900 59999.300000
188.106900 6992.400000
189.021400 22695.300000
189.048000 50466.400000
190.030800 3169.600000
190.041800 54610.500000
191.049800 9479.600000
192.057400 150446.300000
193.063500 12240.900000
194.071600 17631.900000
195.079100 7572.400000
196.086900 102869.400000
197.094400 3124.900000
198.025500 3564.400000
198.102600 8055.300000
199.086500 4916.000000
200.040200 26090.300000
201.047900 6170.700000
201.102100 26006.000000
203.037000 46554.300000
204.044900 145418.000000
207.058500 31891.500000
207.068500 17663.100000
207.078300 4282.300000
208.086900 60705.500000
209.094700 7982.900000
212.027600 59062.900000
213.048000 48316.900000
214.055700 9325.600000
215.063700 431724.300000
216.033800 2994.900000
216.044800 9559.700000
217.040400 6517.400000
217.052600 28021.600000
217.079500 11892.300000
218.061100 11127.900000
219.068300 2172261.800000
220.076500 5022.300000
226.043100 25686.300000
227.051100 70329.900000
228.059200 15269.200000
229.066700 59020.000000
230.047900 39269.000000
231.058200 7080.700000
232.063400 23778.500000
234.002200 3159.200000
240.059000 8483.500000
242.074500 694278.400000
243.083100 3973.300000
245.071500 5500.000000
249.024700 79389.500000
262.020100 49492.800000
263.028000 49161.600000
278.051200 242452.800000

>ms2
51.023000 4234.700000
52.018200 5725.100000
53.038600 49769.000000
54.033800 2882.000000
55.017900 3502.600000
58.994900 5387.300000
60.983900 2656.400000
63.994800 3389.800000
65.038500 52414.700000
68.013000 5096.700000
71.990200 374195.200000
75.994800 178145.800000
77.038500 21645.000000
79.054200 679650.700000
80.049600 3704.500000
83.990300 12707.300000
87.994800 12958.200000
91.054200 72084.400000
92.049500 7408.200000
93.057300 3999.400000
93.069900 23518.300000
94.041300 4963.100000
94.065100 3360.700000
95.049200 147013.800000
99.001200 11271.100000
103.054300 433631.100000
104.049300 4030.800000
104.062200 3534.300000
105.069900 1939931.900000
105.951200 11688.900000
106.065200 8463.800000
106.077600 14258.300000
107.085500 42545.700000
109.065000 7587.000000
111.001100 6264.300000
111.044100 11976.600000
115.005800 15308.400000
115.054300 87695.500000
116.049400 15808.800000
116.062100 13593.600000
117.057300 24566.100000
117.069900 57311.100000
118.065100 19891.200000
118.077800 2625.500000
119.060400 3545.600000
119.073000 36124.200000
119.085600 11504.100000
121.039500 5729.000000
123.080500 39684.300000
128.049700 6033.700000
128.061900 40608.500000
129.069900 221720.100000
130.065200 165091.800000
131.073000 33996.600000
131.085500 32331.400000
131.967000 3556.600000
132.080800 53442.800000
133.076100 28879.400000
134.096400 139821.900000
139.030900 7159.800000
140.049400 13232.100000
141.057200 25307.000000
142.052600 6218.100000
142.065200 63839.700000
143.073000 122448.500000
144.080800 412929.400000
144.962200 5873.600000
145.025900 8891.500000
145.064600 8517.700000
145.088600 36118.400000
146.060100 6009.300000
148.075700 9071.700000
153.046500 9443.800000
153.057500 4052.000000
154.065100 87586.600000
155.060500 62049.500000
156.069100 60641.800000
156.080800 294178.400000
157.077100 18396.500000
157.088600 129820.500000
158.096400 183687.700000
159.091900 13393.700000
160.075800 46675.000000
162.037000 14421.000000
163.030700 5314.700000
164.052000 3191.600000
165.046600 9558.400000
166.065200 7923.700000
167.060200 12333.300000
167.072800 15046.100000
168.068200 208892.300000
169.076000 245745.400000
170.059800 3392.100000
170.083900 59057.500000
171.054900 3088.600000
171.091700 56623.700000
172.021400 3251.500000
172.075600 5663.900000
173.029300 21042.700000
173.071300 5655.900000
174.037200 12816.100000
174.091300 52594.200000
175.062800 8157.000000
175.086500 5003.100000
176.052400 15489.500000
177.034000 11571.300000
178.041700 29309.900000
179.060300 20583.100000
180.068100 16016.500000
181.062900 3763.000000
181.066600 4091.400000
181.076000 54953.600000
182.083900 70293.700000
183.091700 671449.400000
184.086900 9963.400000
184.099400 42656.900000
185.070900 9798.300000
185.107200 9189.300000
186.037300 25879.500000
187.032400 4263.400000
187.045100 6241.700000
188.026300 31843.100000
188.053000 35504.000000
188.107100 4252.000000
189.021500 50350.800000
189.048100 44690.300000
190.030900 5311.800000
190.041700 56395.900000
192.057400 84830.700000
193.063600 21832.700000
194.071200 29064.700000
195.079500 7274.500000
196.086900 33193.000000
198.024900 4283.900000
198.102600 6247.100000
199.032400 5930.500000
199.086200 6587.000000
200.040500 22726.900000
201.048100 6589.000000
201.102100 14901.800000
203.037000 116685.700000
204.045000 137705.100000
207.058400 10470.000000
207.068300 9581.000000
207.079000 4875.900000
208.087100 28925.100000
209.094900 4936.800000
212.027900 61523.700000
213.047900 32538.400000
214.044100 4247.800000
214.055900 11618.100000
215.063700 118674.800000
216.033300 4843.200000
216.044800 13084.000000
217.040400 7846.800000
217.052700 30173.200000
218.060500 8260.500000
219.068400 517066.200000
225.047500 3212.400000
226.043400 58983.500000
227.051100 37007.600000
228.058800 10892.600000
229.066900 26447.100000
230.048200 26033.000000
232.063400 14364.800000
234.001100 7483.500000
240.058800 8342.500000
242.074600 107438.000000
249.024600 20355.300000
262.020300 33905.300000
263.027400 5862.900000
278.050800 8527.700000

>ms2
51.023000 5370.500000
52.018200 6377.800000
53.038600 133298.900000
54.033900 4968.700000
55.017900 7057.500000
58.995000 6973.200000
59.990300 9604.900000
60.984000 7071.900000
65.038500 57396.600000
68.013100 11194.800000
71.990200 419397.400000
75.994800 107861.300000
77.038500 54870.900000
79.054200 1245871.100000
80.049300 3184.800000
83.990300 9832.000000
87.994900 13598.200000
91.054200 135100.100000
92.049600 4260.500000
93.057600 3810.500000
93.070000 7754.100000
94.041200 16441.200000
94.065100 7139.300000
95.049200 413897.100000
99.001300 10266.300000
103.054300 787146.800000
104.049500 7344.300000
104.062200 11878.500000
105.069900 1581395.200000
105.951300 9915.400000
106.065200 11205.900000
106.077700 9731.400000
107.085500 25004.500000
109.064900 12996.000000
111.044300 3036.100000
115.054200 169920.700000
116.049500 42182.600000
116.062000 34292.800000
117.057300 47271.400000
117.069900 41210.000000
118.065100 36423.200000
118.077700 2744.600000
119.060100 5611.600000
119.072900 39449.500000
119.085600 13932.600000
123.080500 19285.000000
128.049600 18391.700000
128.062100 101520.300000
129.069800 187650.300000
130.065100 174922.000000
131.073100 39481.000000
131.085500 16518.200000
131.967100 2941.200000
132.080800 38445.100000
133.076100 9666.100000
134.096400 46876.100000
139.031200 6401.000000
140.049400 39655.900000
141.057200 55768.800000
141.069900 6627.300000
142.052400 14291.100000
142.065200 87670.900000
143.073000 164129.800000
144.080800 342600.800000
144.962000 2827.400000
145.026000 18008.500000
145.064800 25924.600000
145.088700 11485.200000
146.060000 11147.200000
148.075800 5937.000000
153.057200 10618.000000
154.065100 116989.200000
155.060400 126233.300000
155.072600 57694.400000
156.068900 53399.600000
156.080800 192107.700000
157.077300 16433.400000
157.088600 104244.600000
158.096500 92017.900000
159.091700 4791.800000
160.075700 36487.300000
162.037200 9066.300000
163.030800 4829.200000
165.046600 2635.800000
166.065300 10492.900000
167.060400 23182.700000
167.073000 10822.200000
168.068300 221632.800000
169.076100 245405.700000
170.059900 9408.500000
170.083800 26172.600000
171.055400 10937.200000
171.091700 27864.200000
172.021600 5234.700000
172.075700 5718.600000
173.021600 4425.400000
173.029300 24643.300000
173.071300 2918.100000
174.037400 6941.100000
174.091400 24871.400000
175.086300 3486.100000
176.052800 3282.200000
178.041600 13419.700000
179.060300 29752.800000
180.068200 16289.600000
181.064500 3731.400000
181.066400 4225.800000
181.076000 34065.100000
182.083900 56448.200000
183.091700 298430.100000
184.087100 7345.400000
184.099500 8232.800000
185.071000 18804.900000
185.107100 4654.100000
186.037000 17657.600000
187.032400 6575.900000
187.045000 6964.200000
188.026300 22238.500000
188.052900 9458.200000
189.021500 47500.500000
189.047700 11912.900000
190.041800 23037.800000
191.050000 4497.700000
192.057100 21695.200000
193.063500 12514.200000
194.071500 35935.000000
195.079200 4201.700000
196.086900 10298.500000
198.025000 6583.900000
198.102900 4020.000000
199.032500 8415.800000
199.086500 5835.400000
200.040500 11620.200000
201.048000 5499.400000
201.103100 3267.600000
203.037100 123244.800000
204.044900 43862.800000
207.079200 6183.500000
208.086900 6658.500000
212.027700 48269.700000
213.047900 12777.300000
215.063700 22859.500000
216.044300 3269.300000
217.040500 7691.200000
217.052900 15489.700000
218.060500 3090.400000
219.068400 48881.200000
226.043300 56281.000000
227.051200 10106.100000
228.058700 2625.300000
230.048400 13351.300000
234.001200 3029.500000
240.059000 4138.100000
242.075100 7314.900000
262.020000 12498.900000

