>compound LU66683359
>parentmass 284.1412
>ionization [M+H]+
>formula C15H22ClNO2
>rt 1091.330000
>profile orbitrap
#smiles_iso CCC1=CC=CC(=C1N(C(C)COC)C(=O)CCl)C
#smiles_can CCC1=CC=CC(=C1N(C(C)COC)C(=O)CCl)C
#inchikey WVQBLGZPHOPPFO-UHFFFAOYSA-N
#pubchem_id 4169
#mb_accession LU098801,LU098802,LU098803,LU098804,LU098805,LU098806

>ms2
73.064700 160102.200000
176.143300 47302.200000
212.083600 123445.800000
252.114900 9459618.000000
284.141200 2786308.200000

>ms2
73.064700 468990.900000
134.096500 10706.100000
146.095900 19593.600000
160.112100 17825.400000
176.143400 741909.200000
194.073000 18339.700000
212.083600 234109.200000
252.114900 10460658.000000
284.141100 84714.100000

>ms2
53.002200 12843.200000
70.065000 6868.600000
73.064700 570446.800000
76.978800 128936.200000
91.054000 25891.400000
93.069800 5595.400000
102.091100 8453.900000
107.085600 6118.200000
108.080600 22216.700000
109.064800 14603.900000
115.054000 5486.500000
117.069600 22200.200000
118.065200 12086.200000
119.072900 7357.900000
119.085400 69232.600000
120.080700 36175.600000
130.065100 10508.700000
131.072800 16320.500000
131.085500 11650.000000
132.080600 37813.100000
133.088400 78261.300000
134.096300 356737.400000
135.080200 24578.800000
136.111900 14138.900000
137.096100 12394.300000
143.073000 27336.500000
144.080700 27396.500000
145.088500 70646.100000
146.096300 238405.100000
147.067600 5973.700000
147.104200 29149.200000
148.075600 18957.800000
148.112000 67306.000000
158.096400 168277.300000
159.104200 65054.200000
159.116200 6450.200000
160.112000 220360.500000
161.119800 5787.500000
162.091200 44836.300000
174.091500 5438.800000
174.127500 55208.200000
175.135500 28924.800000
176.143200 4687372.500000
182.036500 7642.800000
182.072900 7637.100000
184.052300 213598.500000
188.106900 16571.600000
192.057300 13881.400000
194.073000 143680.200000
202.122200 18347.200000
210.067900 11634.900000
212.083500 247741.400000
224.083200 16302.400000
224.119700 42493.900000
252.114800 5379641.500000

>ms2
53.002200 27125.700000
56.049500 15981.900000
65.038700 4642.700000
69.069800 5910.300000
73.064800 378452.700000
75.994800 4832.500000
76.978800 335348.200000
79.054100 17973.400000
81.070200 4131.400000
91.054300 207704.300000
93.057300 6176.700000
93.069900 35639.700000
103.054400 21785.300000
104.062100 8113.800000
105.069900 38532.900000
106.065100 15376.500000
107.049000 16287.800000
107.072800 13316.600000
107.085700 37310.700000
108.080800 125384.000000
109.064800 95957.900000
115.054400 22693.200000
116.062300 5397.800000
117.057200 17109.300000
117.069900 169679.200000
118.065100 63890.800000
119.073000 106282.400000
119.085600 192648.000000
120.080800 198063.900000
121.064800 6418.500000
129.069800 11125.200000
130.065100 57167.000000
130.077800 4547.600000
131.073100 92264.000000
131.085500 59615.700000
132.080800 161197.400000
133.088600 564304.500000
134.096400 1524881.400000
135.080500 55930.500000
135.104000 9241.500000
136.112100 32205.600000
137.096200 18071.800000
141.070000 11941.800000
143.072900 131645.000000
143.085700 10174.900000
144.080800 131727.900000
145.088700 165462.100000
146.096500 538058.100000
147.067700 14910.200000
147.104300 114725.900000
148.075500 38955.800000
148.112100 185801.000000
156.081200 5236.100000
157.089000 9974.800000
158.096500 341084.200000
159.104300 181143.600000
159.116700 11582.300000
160.112100 541799.200000
161.083500 9051.000000
161.120100 28552.700000
162.091400 101467.200000
166.042100 28051.800000
174.091500 9294.900000
174.127700 57731.100000
175.135500 17834.800000
176.143400 3903603.800000
178.041700 14164.800000
179.049800 7730.000000
182.036600 12004.300000
182.073300 12902.700000
184.052400 393116.600000
188.107100 32530.500000
192.057600 18142.900000
194.073200 105472.500000
196.052500 9901.500000
202.122500 36205.100000
210.067900 8403.900000
212.083800 111775.400000
224.083700 14791.600000
224.120200 14974.200000
252.115000 781230.900000

>ms2
53.002300 37004.700000
53.038700 5598.000000
53.997400 5354.500000
56.049500 21367.700000
58.065200 5972.900000
65.038400 18770.100000
67.054100 7939.300000
70.065100 5079.200000
73.064700 232351.500000
75.994700 5559.200000
76.978800 238560.200000
78.046200 5386.600000
79.054200 55904.800000
81.069800 13595.300000
90.010300 3802.900000
91.054200 588504.300000
92.061900 6036.300000
93.057400 49251.600000
93.069900 103470.300000
95.049000 27064.100000
103.054300 79293.100000
104.062000 48533.500000
105.069900 97746.600000
106.065200 50238.200000
106.077600 6686.200000
107.049100 28550.500000
107.072900 40508.000000
107.085500 50769.600000
108.080700 329041.400000
109.064800 149523.500000
115.054200 109881.300000
116.062200 15500.100000
117.057300 41829.200000
117.069900 320785.900000
118.065100 162238.200000
119.073000 400243.200000
119.085600 182525.500000
120.080800 364202.900000
121.064800 12877.400000
128.062000 8131.500000
129.069800 22464.700000
130.065200 144793.700000
130.077800 13366.500000
131.073000 231372.500000
131.085400 58894.900000
132.080800 392127.800000
133.088600 973068.900000
134.096400 1355532.900000
135.080400 23547.100000
135.104200 8634.800000
136.112100 28371.000000
137.096200 10797.300000
139.030900 9779.200000
141.069900 9001.400000
142.077800 9540.700000
143.073000 187992.800000
144.080800 283997.500000
145.088600 240614.000000
146.060200 32521.200000
146.096400 579567.600000
147.068100 29122.700000
147.104200 103916.900000
148.075700 31335.200000
148.112000 154385.600000
156.081000 7899.200000
157.088400 19478.300000
158.096500 256645.000000
159.104300 166053.200000
160.112100 467461.200000
161.083300 4465.200000
161.119900 31227.000000
162.091300 95040.600000
162.127700 6092.400000
166.041900 38975.600000
174.091000 9293.300000
174.127700 22373.300000
176.143400 991580.800000
178.041700 13817.900000
182.036300 5652.500000
184.052400 225267.500000
188.106900 19710.500000
192.057700 7808.800000
194.073300 22009.700000
196.052500 6751.800000
202.122500 19686.700000
212.083700 18481.300000
252.114900 46815.300000

>ms2
53.002300 44826.600000
53.038600 26887.900000
53.997500 6395.700000
56.049500 17470.200000
58.065100 6407.400000
65.038500 52620.100000
67.054100 8855.000000
70.065100 4971.400000
73.064700 90617.000000
75.994800 4241.700000
76.978800 124596.000000
78.046300 22587.900000
79.054200 87279.900000
81.069900 14320.400000
91.054300 932152.100000
92.062100 13894.300000
93.057400 130022.800000
93.069900 112634.700000
95.049200 71754.500000
103.054200 113478.100000
104.062000 80981.700000
105.069900 103001.900000
106.065200 78946.400000
106.077900 8152.300000
107.049200 22497.400000
107.073000 70940.400000
107.085500 38475.700000
108.080800 306874.800000
109.064800 109325.600000
115.054300 223174.400000
116.062200 37393.000000
117.057300 80361.600000
117.069900 318438.800000
118.065100 235506.000000
119.073000 524149.900000
119.085600 112826.900000
120.080800 267644.200000
121.064800 10781.900000
128.062100 11432.800000
129.069900 31135.200000
130.065200 210221.900000
130.077500 10987.600000
131.073000 344386.200000
131.085000 27317.800000
132.080800 546960.400000
133.088600 665642.000000
134.096400 509345.700000
135.080400 5435.600000
135.104500 5318.600000
136.112100 13589.100000
139.031000 7519.600000
141.070000 12402.200000
142.065100 7212.100000
142.077500 4218.800000
143.073000 192336.200000
144.080800 366349.700000
145.088600 246629.800000
146.059900 36600.900000
146.096500 394244.200000
147.068000 31376.000000
147.104200 33511.400000
148.075700 13932.700000
148.112200 62192.000000
156.081000 12544.100000
157.088800 26655.800000
158.096500 152461.600000
159.104300 87342.800000
160.112100 218275.600000
161.119900 14967.800000
162.091500 30772.100000
166.041900 17216.600000
174.128000 10393.500000
176.143400 118517.200000
178.041800 12959.100000
184.052400 44412.600000
188.107100 6928.600000
202.122500 4885.100000

