>compound LU66816105
>parentmass 164.107
>ionization [M+H]+
>formula C10H13NO
>rt 821.160000
>profile orbitrap
#smiles_iso CC1(CC2=C(O1)C(=CC=C2)N)C
#smiles_can CC1(CC2=C(O1)C(=CC=C2)N)C
#inchikey LMTIGABGABPAGU-UHFFFAOYSA-N
#pubchem_id 91697
#mb_accession LU109201,LU109202,LU109203,LU109204,LU109205,LU109206

>ms2
105.069900 228094.900000
106.065200 10392.900000
107.072800 121101.800000
109.052100 11215.200000
122.096400 5457493.500000
123.080300 300787.000000
146.096400 134440.400000
147.080500 14388.300000
164.106900 10301118.000000

>ms2
55.054200 45469.800000
91.054200 94781.100000
94.065200 112668.900000
108.044400 118130.900000
109.052200 1312149.000000
110.060000 85198.400000
119.085600 327405.500000
122.060000 5142758.000000
136.075800 362241.700000
146.096400 15412.200000
147.080400 1760146.000000
149.083800 35569.000000
164.107000 9297439.000000

>ms2
95.085600 20344.300000
105.069900 522788.000000
106.065000 22966.600000
107.073000 1329619.600000
109.052300 30228.300000
122.096400 13385191.000000
123.080300 466561.400000
131.073200 26287.500000
146.096400 213036.200000
147.080400 21447.600000
164.107000 3985231.500000

>ms2
51.023000 6687.000000
53.038600 43558.600000
55.017800 76198.300000
55.054200 205654.400000
65.038500 29049.300000
67.054200 28462.400000
77.038400 13778.600000
79.054200 44458.800000
80.049400 74304.400000
81.057200 13005.000000
91.054200 1042860.300000
92.049300 17848.600000
93.033400 16451.100000
93.057300 39166.900000
93.069900 19688.800000
94.065100 2572103.500000
95.049100 88142.400000
103.054200 28152.300000
104.062000 21895.900000
105.033400 10038.300000
105.069800 25205.900000
106.065000 12600.600000
107.049100 104178.600000
107.072900 6360.400000
108.044400 102056.800000
108.080600 9708.200000
109.052200 3147228.000000
110.059900 126083.600000
115.053800 6767.900000
117.069800 142222.300000
118.065200 9886.900000
119.049200 129269.100000
119.085500 608781.600000
120.044300 7536.200000
120.080700 5892.200000
122.059900 5124112.000000
128.061900 11721.200000
129.069700 39678.000000
130.065000 13163.100000
131.049200 11984.900000
131.072800 33234.700000
132.056900 65883.800000
132.080600 10726.400000
134.060100 11332.800000
135.067500 12012.100000
136.075700 307256.800000
145.064500 11690.600000
146.096400 11887.000000
147.080300 826881.400000
148.075400 12478.000000
149.083500 136178.800000
164.106900 436349.900000

>ms2
53.038700 14201.300000
67.054100 21117.600000
77.038600 10155.200000
79.054200 152192.600000
80.049500 9103.100000
81.069900 9168.000000
91.054300 25193.800000
94.065200 63610.800000
95.049200 36195.200000
95.085500 65390.800000
103.054300 88193.900000
105.070000 870640.100000
106.065200 385393.900000
107.072900 8467991.000000
108.057000 37223.700000
109.052300 34623.300000
120.080900 25387.000000
121.088500 16800.000000
122.096400 4946990.500000
123.080400 110386.600000
131.073000 26547.600000
146.096500 27139.900000
164.107000 51846.000000

>ms2
53.038500 37127.500000
67.054200 28809.500000
77.038400 14107.200000
79.054200 306986.600000
80.049300 19280.200000
81.069900 9879.900000
91.054200 27703.100000
93.057400 9362.200000
93.069900 10635.200000
94.065200 62972.600000
95.049100 85968.500000
95.085500 43433.100000
103.054200 164795.300000
105.069900 758991.100000
106.065200 1355791.900000
107.072900 9040237.000000
108.056900 33756.400000
109.052200 29716.200000
120.080700 25514.400000
121.088400 17156.400000
122.096400 1654033.600000
123.080400 41988.600000
130.065200 10765.700000
131.073000 12341.400000

