>compound LU66311883
>parentmass 337.1215
>ionization [M+H]+
>formula C19H17ClN4
>rt 1090.860000
>profile orbitrap
#smiles_iso C1=CC=C(C=C1)C(CCC2=CC=C(C=C2)Cl)(CN3C=NC=N3)C#N
#smiles_can C1=CC=C(C=C1)C(CCC2=CC=C(C=C2)Cl)(CN3C=NC=N3)C#N
#inchikey RQDJADAKIFFEKQ-UHFFFAOYSA-N
#pubchem_id 86138
#mb_accession LU070701,LU070702,LU070703,LU070704,LU070705,LU070706

>ms2peaks
70.039900 1115281.500000
125.014900 147217.200000
190.041900 9765.700000
194.048000 121219.600000
241.077400 17222.300000
337.121300 8250032.500000

>ms2peaks
70.039900 6880918.000000
83.047700 29983.200000
91.054200 232939.100000
104.049400 30831.500000
125.015200 3237463.200000
129.069800 59143.700000
139.030800 42651.500000
151.030800 14982.200000
156.080800 56217.400000
163.030800 106632.500000
190.041600 106573.100000
194.047900 369900.400000
216.093000 29624.000000
241.077600 75833.900000
251.063200 7012.700000
268.088200 27093.700000
337.121300 999137.400000

>ms2peaks
70.039900 5461693.500000
82.040000 37561.700000
83.047800 69424.200000
89.038400 18945.600000
91.054200 458074.000000
98.999500 5475.200000
103.054200 44145.200000
104.049500 39151.500000
115.054300 21868.000000
116.049500 8604.600000
125.015200 5222394.000000
128.061900 32945.800000
129.069800 161775.100000
139.030800 136090.600000
143.072900 7156.600000
145.064800 8284.200000
149.015300 24240.300000
151.030900 34827.200000
155.060300 15230.700000
156.080900 28774.200000
163.030800 181458.800000
190.041800 55041.900000
194.048100 17763.100000
215.085700 13059.800000
216.093100 36743.300000
251.062100 5562.200000
268.088400 5926.700000
337.120500 5736.900000

>ms2peaks
63.023000 7777.500000
65.038500 15762.900000
70.039900 4318119.500000
82.040000 87156.700000
83.047800 69242.700000
89.038600 100874.100000
90.046300 12375.600000
91.054300 519333.600000
95.049100 7818.700000
98.999600 32014.100000
103.054200 201932.300000
104.049500 23414.900000
104.062100 5763.600000
115.054300 45087.200000
116.049600 21443.100000
116.062100 24656.500000
125.015300 5621033.500000
128.062000 110944.700000
129.057700 22878.500000
129.069800 169957.400000
139.030900 111390.400000
143.072900 9100.900000
145.064900 25618.000000
149.015200 31031.200000
150.022800 7029.300000
151.031100 21892.200000
155.060600 32851.800000
155.072700 10291.000000
156.080800 10973.100000
163.030900 95951.700000
190.041800 10003.900000
215.085400 31324.700000
216.093400 24504.200000

>ms2peaks
53.038600 12101.600000
63.022900 21899.500000
65.038500 42376.700000
66.046300 9998.000000
70.039900 3982600.800000
77.038500 6319.000000
79.054100 8514.400000
82.039900 149306.000000
83.047800 52176.400000
89.038500 425254.300000
90.046400 67735.200000
91.054200 585630.000000
95.049100 41475.600000
98.999600 163494.500000
102.046300 12259.200000
103.054200 345085.100000
104.049300 19799.700000
104.062100 14005.500000
105.044800 18815.700000
115.054200 68561.700000
116.049500 29685.700000
116.062000 48004.800000
125.015200 5933715.000000
127.054100 12834.600000
128.062000 202927.600000
129.057400 39649.600000
129.069800 150849.900000
139.030800 56896.400000
145.064800 35077.000000
149.015300 29786.400000
151.030800 7864.600000
154.065000 10632.800000
155.060400 52242.100000
155.072900 7764.100000
163.030800 20536.800000
215.085400 45648.200000
216.093200 9187.000000

>ms2peaks
53.038600 29676.000000
63.022900 64620.900000
65.038500 102997.800000
66.046400 37071.600000
70.039900 3198302.500000
72.983900 25708.200000
74.999800 17782.900000
77.038600 14841.400000
78.046400 19811.200000
79.054200 10724.700000
82.040000 185333.500000
83.047800 27596.600000
89.038600 1022200.800000
90.046400 217201.200000
91.054200 541625.000000
95.049100 111348.300000
98.999600 464868.400000
102.046400 31710.400000
103.054200 314171.300000
104.049300 12212.000000
104.062000 29434.700000
105.044800 42935.500000
115.054300 111913.900000
116.049500 27368.400000
116.062100 57747.500000
117.057200 4913.000000
121.065000 5845.100000
125.015300 4848458.000000
127.054000 17831.500000
128.062000 259272.600000
129.057300 33992.700000
129.069800 64865.600000
139.031000 16518.500000
140.049000 5563.000000
145.064800 35821.800000
149.015300 24145.800000
154.065300 14068.000000
155.060400 52959.800000
155.073000 6138.500000
215.085500 45798.400000

