>compound LU66825176
>parentmass 435.2177
>ionization [M+H]+
>formula C24H31FO6
>rt 1005.660000
>profile orbitrap
#smiles_iso C[C@]12C[C@@H]([C@]3([C@H]([C@@H]1C[C@@H]4[C@]2(OC(O4)(C)C)C(=O)CO)CCC5=CC(=O)C=C[C@@]53C)F)O
#smiles_can CC1(OC2CC3C4CCC5=CC(=O)C=CC5(C4(C(CC3(C2(O1)C(=O)CO)C)O)F)C)C
#inchikey YNDXUCZADRHECN-JNQJZLCISA-N
#pubchem_id 6436
#mb_accession LU063701,LU063702,LU063703,LU063704,LU063705,LU063706

>ms2peaks
59.049200 6687.700000
95.049300 3095.000000
121.065200 3195.800000
139.075700 2620.200000
147.080400 21363.000000
151.075400 9797.500000
155.070400 3279.000000
159.080300 2365.200000
161.096400 11334.900000
169.065000 2196.900000
171.080900 6167.500000
173.096100 3350.800000
179.070500 4453.000000
185.096600 6868.500000
187.075500 13264.600000
197.096000 3888.400000
199.112100 4688.900000
211.111600 4377.400000
213.127400 16949.100000
223.111800 20029.500000
225.127500 24426.900000
235.112000 7188.900000
237.127500 12969.100000
239.143200 8565.400000
241.122500 8059.600000
249.126900 3915.200000
251.142900 9196.000000
253.122600 13941.100000
261.127700 12456.200000
263.143300 13994.600000
265.158500 7371.100000
269.117800 2147.800000
269.152600 2831.900000
275.143100 22138.100000
277.122600 5515.700000
279.138200 24539.600000
281.153500 16582.600000
283.168200 10087.900000
291.138600 7300.800000
293.153800 54744.400000
295.133300 4940.800000
297.148600 21319.300000
303.138500 20891.400000
309.148700 13787.800000
311.164500 82022.900000
321.148600 90277.600000
357.170000 133037.300000

>ms2peaks
55.017800 4543.700000
59.049100 24815.500000
69.033400 3843.200000
81.070000 4667.500000
83.048900 2924.300000
87.043900 3772.300000
93.069900 10750.700000
95.049100 6727.900000
95.085600 7720.800000
97.028500 4875.200000
99.044000 5219.600000
101.023400 4762.400000
105.070000 7432.300000
107.085500 4141.600000
109.064800 6753.000000
111.044100 3607.000000
115.039000 6677.000000
119.049100 2145.600000
119.085500 2655.700000
121.064800 31177.500000
123.044100 2557.100000
123.080300 7053.800000
125.059700 8277.000000
131.085700 6211.100000
133.064600 12734.900000
135.080400 19721.200000
137.059800 9387.200000
139.075400 6638.300000
141.054400 3298.200000
143.085900 3554.800000
145.064600 4311.600000
145.100900 2144.000000
147.080500 67539.900000
151.038800 6200.600000
151.075400 19169.800000
153.054800 3452.900000
155.070300 4248.000000
155.085600 3753.500000
159.080500 21965.400000
161.059500 7696.400000
161.096200 24999.800000
169.064800 5656.000000
171.080500 38417.700000
173.096200 24203.700000
179.070000 4130.900000
185.059100 2433.400000
185.096200 18779.200000
187.075400 24612.300000
187.112000 5292.600000
193.100800 2630.600000
197.096000 13807.300000
197.132500 14037.700000
199.112300 11346.100000
207.117100 3082.100000
209.096300 12649.200000
211.111900 16728.400000
212.119600 2916.000000
213.127500 94856.900000
221.096100 9185.200000
221.132700 3985.400000
222.104200 3026.100000
223.111800 46759.700000
224.119200 3561.900000
225.115600 4283.900000
225.127500 70890.200000
227.106800 3674.100000
227.143000 8723.900000
233.132400 3578.900000
235.111600 21288.400000
235.147800 3194.600000
237.090700 3186.100000
237.127600 30986.800000
239.143500 27002.800000
241.122300 16699.900000
243.117200 2915.800000
245.132400 2319.500000
247.111600 4536.000000
249.127400 19042.300000
251.143300 26665.400000
253.122500 21015.600000
253.158700 21170.700000
257.132400 3252.000000
259.111300 2535.000000
260.119800 4349.000000
261.127600 23562.200000
262.135300 3695.900000
263.143200 65047.500000
265.158500 23270.700000
269.118600 3201.200000
269.154100 3389.200000
275.143400 44735.800000
277.121800 9459.600000
278.130100 4491.100000
279.138200 32681.200000
280.145400 4553.700000
283.169200 6965.900000
288.114900 3207.300000
295.132500 6515.100000
297.148600 17239.300000
309.148500 7474.400000
311.164700 27832.800000
357.169900 3603.700000

>ms2peaks
55.017900 14697.300000
59.049200 25617.300000
67.054200 5520.500000
69.033500 10321.800000
69.069900 2369.300000
71.049100 2352.700000
79.054200 6118.700000
81.033500 2644.700000
81.069900 12893.600000
83.049100 3276.700000
87.044100 2247.200000
91.054200 5902.000000
93.070000 31861.900000
95.049200 11110.000000
95.085700 19782.100000
97.028300 5568.800000
97.064800 7378.800000
99.043900 4633.200000
101.023300 4530.800000
105.070000 30157.300000
107.049100 2418.200000
107.085400 9477.100000
109.064900 18446.900000
111.044300 5002.100000
111.080300 3012.300000
115.039100 3050.300000
115.054200 2353.600000
117.069800 4242.300000
119.048900 2233.800000
119.085700 7534.900000
121.064900 57780.500000
123.044100 4206.000000
123.080500 7190.100000
125.059800 7897.400000
128.062000 2544.300000
129.069600 3444.300000
131.085700 11073.600000
133.064800 21698.500000
135.080500 22211.100000
137.059600 8115.300000
139.075400 6930.800000
141.054500 4856.400000
143.085600 13021.100000
144.057300 2481.600000
145.064800 17758.900000
145.101000 4971.200000
147.080600 94790.100000
151.075500 7784.700000
153.054900 2377.300000
155.085400 9343.100000
157.101300 3798.700000
158.072600 7104.500000
159.080600 58871.700000
161.059900 6301.700000
161.096200 26548.000000
167.085800 4368.800000
169.064900 6331.200000
169.101600 4894.000000
171.080600 72792.500000
173.096300 40610.200000
179.086000 4009.500000
181.101400 4695.100000
183.080400 8621.300000
185.096100 19911.000000
187.075500 25667.200000
187.112000 5328.400000
189.070500 3390.200000
191.085500 3097.700000
192.093200 4954.300000
193.101400 7555.500000
195.080600 6458.900000
195.116700 8187.800000
196.088500 8943.600000
197.096200 25927.700000
197.132700 13587.000000
198.103900 2837.300000
199.112100 10469.800000
205.101200 8300.900000
206.108700 3568.900000
207.117100 15371.700000
208.088400 11823.700000
209.096300 24012.000000
210.104100 11213.300000
211.111900 21706.600000
212.119700 6289.200000
213.090900 6102.300000
213.127500 102088.800000
215.085600 2402.000000
216.093100 2451.400000
218.109500 4118.900000
219.080100 2818.300000
219.116800 2440.800000
220.088200 3586.200000
221.096400 11204.800000
221.132300 6322.700000
222.104300 12273.500000
223.111900 41956.300000
224.119900 13037.700000
225.115700 3827.400000
225.127600 52368.700000
227.106600 3763.200000
227.143400 6416.200000
228.092900 2408.400000
229.099900 2371.200000
230.109600 3085.100000
231.117000 3939.400000
233.096200 8695.600000
233.132200 6056.100000
234.104400 13536.100000
235.112000 30306.100000
235.148300 7571.200000
236.120700 4031.300000
237.127600 27514.000000
239.143300 13807.200000
241.122400 8845.100000
243.117400 3137.300000
245.096600 6280.900000
245.132700 6644.600000
246.104200 7441.000000
247.111800 7597.000000
248.120000 17358.300000
249.127500 16434.700000
251.107500 2939.600000
251.143000 18364.000000
253.122800 11941.200000
253.158900 9468.300000
257.133000 3817.600000
258.104200 2496.000000
259.112200 4802.200000
260.119700 15014.500000
262.135300 5843.700000
263.143400 33836.200000
264.113200 2200.100000
265.158300 7479.100000
270.102600 2949.100000
277.122000 6149.900000
278.129800 3859.100000
279.137900 7564.200000
280.146100 3852.900000
281.153600 6996.900000
288.114700 3356.100000
291.138700 3312.300000
293.153900 6728.200000
303.139200 2303.000000
311.164100 3026.000000
321.148500 4842.200000

>ms2peaks
51.022800 1862.900000
53.038700 6622.600000
55.017900 20830.000000
55.054300 6366.900000
59.049200 28289.200000
67.054300 14332.700000
69.033500 12329.800000
69.069900 3241.800000
71.049200 3122.400000
79.054300 22038.200000
81.033600 4257.000000
81.069900 22402.300000
83.049200 5170.900000
91.054300 36971.200000
93.070000 33962.700000
95.049200 18124.900000
95.085500 20502.500000
97.028600 5406.400000
97.065000 6478.900000
101.023400 2599.300000
103.054400 5134.800000
105.070000 51525.600000
107.049300 5765.200000
107.085600 11854.600000
109.064900 15154.400000
111.080700 5977.800000
115.054500 9097.300000
116.062300 2504.300000
117.070000 11380.800000
119.049300 3741.800000
119.085700 20643.100000
121.064800 83620.800000
123.044300 4830.900000
123.080600 3291.300000
125.060000 3250.100000
128.062100 13883.100000
129.070000 11161.800000
131.085600 20659.600000
132.057200 6682.100000
133.065000 8916.500000
133.101400 2734.500000
135.080400 16571.700000
137.059900 4657.300000
139.075200 3130.300000
141.070000 11915.600000
142.078000 5916.300000
143.085700 27555.300000
144.057200 7756.000000
145.064900 34091.100000
145.101400 8556.300000
146.072700 4854.800000
147.080500 83440.600000
151.039100 2848.100000
151.075200 2153.600000
153.069900 3468.400000
155.085500 21622.200000
157.065100 4753.900000
157.101300 4075.800000
158.072700 20342.700000
159.080500 63710.700000
161.059700 4668.300000
161.096300 16870.600000
165.070400 13196.700000
166.077800 4597.100000
167.085900 8856.500000
169.065200 8787.500000
169.101600 5561.700000
170.072800 3754.000000
171.080600 76857.400000
172.088600 6444.700000
173.096300 29460.300000
178.078000 7163.000000
179.085900 17551.100000
180.093600 9238.500000
181.065100 5618.200000
181.101400 8476.100000
182.073000 9280.200000
182.109200 2970.500000
183.080200 10226.000000
184.088700 4697.000000
185.060200 2132.600000
185.096200 18371.600000
187.075700 7922.500000
187.112000 2464.200000
189.071100 3171.200000
190.078000 5587.000000
191.085900 7854.400000
192.093300 14845.400000
193.101200 13129.100000
194.073100 5334.900000
195.080900 19701.600000
195.116900 11165.900000
196.088600 13578.300000
197.096200 19142.300000
198.104300 11115.400000
199.112200 6191.200000
202.078000 3009.600000
204.093800 6362.700000
205.101100 10454.000000
206.109200 7101.200000
207.080700 4217.800000
207.117100 17647.300000
208.088600 25302.000000
209.096400 32839.700000
210.104100 23343.900000
211.112000 10332.500000
212.119200 2562.100000
213.091600 2432.100000
213.127500 42349.700000
215.085700 4577.600000
216.092900 2706.300000
218.109300 5614.900000
219.080900 8664.800000
219.117200 6064.800000
221.096100 14643.000000
221.132800 3675.100000
222.104300 15883.100000
223.112000 23926.600000
224.119500 5339.200000
225.127500 14520.100000
229.101600 3463.400000
231.080500 2855.500000
231.116500 5827.900000
233.096500 12444.100000
234.104200 12760.800000
235.111900 25051.000000
236.120400 3427.300000
237.090800 2881.400000
237.127800 8630.600000
242.109300 3914.400000
243.117100 2271.300000
245.096400 16467.200000
246.104100 10387.000000
248.120000 21163.900000
249.127600 5109.500000
251.107500 2907.000000
251.143100 4513.500000
253.158800 2351.200000
258.103300 2625.000000
259.111400 5588.200000
260.120100 9368.700000
261.127900 7562.400000
263.143500 5637.200000
264.113100 2761.300000
270.103600 2339.700000
275.143300 4266.100000
288.113800 2440.600000

>ms2peaks
53.038600 7603.700000
55.017900 28477.500000
55.054200 10741.500000
59.049200 24838.300000
65.038600 4970.400000
67.054300 21137.200000
69.033500 11327.100000
69.070000 3209.500000
71.049100 2742.900000
77.038400 2428.800000
79.054300 33683.000000
81.033400 5011.400000
81.069900 23694.600000
83.049200 3315.000000
91.054300 79756.200000
93.070000 30130.400000
95.049200 28136.400000
95.085600 11924.000000
97.028400 3854.200000
97.065000 3805.300000
103.054300 8528.200000
105.069900 54527.600000
107.049200 9898.900000
107.085500 5666.300000
109.064800 11763.600000
111.044100 3155.200000
115.054300 24012.200000
116.062100 6045.300000
117.069900 21035.100000
119.085500 27700.600000
121.064800 78347.100000
123.044200 2237.100000
128.062100 45534.600000
129.070100 23297.300000
130.077900 5412.100000
131.049400 3949.100000
131.085500 20483.300000
132.057000 14127.400000
133.065000 5582.300000
133.101300 2509.300000
135.080400 7080.600000
137.059800 2545.300000
141.069800 23211.100000
142.077600 9935.400000
143.085600 28584.100000
144.057000 19104.400000
145.064900 42889.900000
145.101200 5770.700000
146.072700 6605.600000
147.080500 51812.900000
152.062200 6299.300000
153.070200 13909.500000
154.077600 3696.800000
155.085600 22319.500000
156.057200 3448.600000
157.065100 7632.200000
157.101600 4794.300000
158.072800 32141.600000
159.080500 40145.900000
161.096000 6064.000000
165.070200 28425.800000
166.078200 9918.400000
167.085600 18032.500000
168.057200 3689.200000
169.064700 11694.200000
169.101500 5470.600000
170.072800 5565.600000
171.080500 53160.000000
172.088600 5725.600000
173.096100 12771.000000
178.077800 20894.600000
179.085800 22606.200000
180.093400 13529.600000
181.065000 13537.200000
181.101400 9187.800000
182.072500 11741.000000
182.108100 3412.100000
183.080700 12556.200000
184.088500 4950.800000
185.096400 10779.600000
189.070200 9018.100000
190.078100 11704.800000
191.085700 23516.000000
192.093300 26164.100000
193.101500 11174.000000
194.072500 10319.100000
195.080600 29710.800000
195.116800 4042.800000
197.096200 12418.700000
198.103900 11672.000000
199.111900 2869.600000
202.078200 12551.500000
203.085700 11998.800000
204.093400 5044.700000
205.064500 5365.700000
205.101600 11680.700000
206.072700 2519.500000
206.109400 4870.400000
207.080400 9035.400000
207.117100 7003.800000
208.088400 22130.400000
209.096400 31741.700000
210.104100 10348.900000
211.111900 3017.200000
213.127700 6111.500000
215.085700 12461.500000
216.093400 6281.300000
217.101400 10454.800000
218.072700 5906.300000
219.080800 14694.300000
219.116800 2856.800000
220.088300 5383.700000
221.096000 14532.400000
222.104400 10465.100000
223.111900 8505.300000
225.127500 3916.100000
229.101600 8852.800000
230.110300 3666.500000
231.080500 8776.500000
231.117000 2270.400000
232.088300 7106.900000
233.096400 17024.100000
234.103600 4755.300000
235.111900 11419.500000
241.101600 2970.800000
242.109000 4130.000000
245.096500 15156.800000
246.104300 4915.300000
247.112200 6816.800000
248.119700 4996.500000
259.111700 5757.100000

>ms2peaks
51.023000 3491.400000
53.038600 18135.200000
55.017900 21522.800000
55.054300 12194.800000
59.049200 18347.700000
65.038500 7712.900000
67.054200 17408.700000
69.033400 9972.600000
77.038500 4293.000000
79.054300 29468.000000
81.033500 3394.100000
81.069900 13153.300000
83.048900 2721.300000
91.054300 111865.600000
93.070000 19193.600000
95.049200 39401.200000
95.085600 6221.500000
97.064600 2156.600000
103.054300 15830.700000
105.070000 44689.000000
107.049200 10922.500000
109.064800 6869.500000
111.080500 2582.200000
115.054300 46764.700000
116.062000 10714.800000
117.070000 24489.600000
119.085700 22123.600000
121.064900 55377.000000
128.062200 58450.500000
129.070100 24740.000000
130.077700 7303.700000
131.049400 9167.700000
131.085700 9932.500000
132.057100 17474.900000
133.065000 2804.600000
133.100800 2372.400000
141.070000 29856.200000
142.077900 13579.500000
143.085700 15373.500000
144.057000 18777.600000
145.064900 30504.200000
145.101300 2704.300000
146.072500 6462.500000
147.080300 15556.100000
152.062200 13264.000000
153.070100 14863.300000
154.078200 4165.100000
155.085700 12275.500000
156.057100 3926.100000
157.064900 9738.800000
157.101200 3234.800000
158.072800 22452.200000
159.080700 14673.400000
165.070000 40146.700000
166.077800 8622.900000
167.085600 15150.300000
168.057100 7130.200000
169.065000 11057.200000
169.101500 3135.300000
170.072900 3157.600000
171.080500 25096.000000
173.095900 3232.500000
178.077800 27690.700000
179.085700 28042.000000
180.093200 7785.600000
181.064900 20409.800000
181.101000 6446.900000
182.072400 7699.300000
183.080100 10658.100000
184.088000 3254.100000
189.069800 14890.800000
190.077900 14124.000000
191.085700 26989.500000
192.093600 19529.500000
193.101300 9113.200000
194.072700 12119.000000
195.080700 23684.700000
196.088200 6914.000000
197.096100 4600.000000
202.078000 15902.400000
203.086000 15940.000000
204.093500 4119.300000
205.064900 6071.800000
205.101200 8626.700000
206.073200 4664.300000
206.109600 3266.200000
207.080500 13979.600000
208.088600 14548.900000
209.096400 13565.100000
210.104100 3132.200000
215.085800 17331.800000
216.092800 4362.000000
217.101500 5282.400000
218.072700 6781.400000
219.080700 15783.400000
220.088300 3348.500000
222.103600 5689.100000
223.111800 2850.600000
228.093500 3885.700000
229.101300 4906.400000
231.080600 10410.600000
232.088300 5981.600000
233.096300 8251.000000
234.103400 2255.200000
235.112100 4116.700000
241.100200 2996.900000
245.096100 9057.300000
247.112200 2967.900000
259.111600 2470.000000

