>compound LU66318120
>parentmass 233.1033
>ionization [M+H]+
>formula C11H12N4O2
>rt 546.600000
>profile orbitrap
#smiles_iso CCOC(=O)NNC1=NN=CC2=CC=CC=C21
#smiles_can CCOC(=O)NNC1=NN=CC2=CC=CC=C21
#inchikey WGZDBVOTUVNQFP-UHFFFAOYSA-N
#pubchem_id 5501
#mb_accession LU127601,LU127602,LU127603,LU127604,LU127605,LU127606

>ms2peaks
89.038400 37931.800000
116.049600 15245.700000
131.060400 13737.100000
132.068200 36520.900000
145.063300 17685.700000
159.066600 85773.300000
160.074100 32647.000000
160.099700 27670.500000
161.082300 1170210.800000
187.061600 955670.800000
189.113500 84234.300000
205.072100 1724366.500000
233.103400 10574786.000000

>ms2peaks
89.038500 195655.400000
103.041700 7361.800000
104.049500 6395.900000
116.049400 68172.100000
131.060200 99672.700000
132.068100 216627.900000
134.059900 49832.300000
144.055400 11901.500000
145.063300 97743.700000
146.071500 5561.100000
158.047400 13452.400000
159.066500 450880.200000
160.074300 49254.500000
160.099500 85711.600000
161.082000 3952679.000000
173.094800 24948.500000
187.061300 2543893.800000
189.113300 121737.400000
205.071900 3141497.200000
233.103100 5426651.500000

>ms2peaks
62.023700 8902.000000
89.038600 1308139.000000
103.041800 8456.000000
104.049400 85263.300000
116.049500 304912.800000
117.057200 22019.900000
130.052500 28080.100000
131.060400 545168.700000
132.068200 852384.600000
134.060000 184782.100000
144.055700 53049.900000
145.063400 838742.900000
146.071200 9621.600000
147.055100 6587.700000
158.047600 31447.900000
159.066600 1421886.900000
160.074500 111560.100000
160.099400 52776.800000
161.082100 5723514.500000
173.022400 6880.300000
173.094700 34908.600000
187.061400 2760116.000000
189.113400 27773.700000
205.072000 1241807.800000
233.103300 476690.200000

>ms2peaks
53.038600 8930.100000
62.015100 7313.900000
62.023600 12764.400000
63.022900 14080.100000
64.030700 5837.900000
66.046300 15064.600000
72.044300 4583.400000
77.038500 4884.000000
79.041500 21566.800000
79.054200 8232.200000
89.038500 3978630.500000
90.033600 5182.500000
90.046400 13273.300000
91.041700 9700.400000
92.025600 7346.500000
94.041200 7141.800000
95.049100 20925.400000
103.041600 37352.300000
103.054300 17513.900000
104.049400 417997.800000
105.044700 11981.400000
105.057200 29167.300000
108.044400 5816.900000
115.041700 5845.400000
116.049400 478247.100000
117.044700 29854.100000
117.057200 307823.100000
118.052900 6238.200000
129.044700 13343.100000
130.052600 266246.700000
131.060400 968277.300000
132.068100 1357470.800000
134.059900 218414.500000
144.055500 118987.600000
145.063400 2243764.000000
146.071200 11972.800000
147.055400 10901.600000
158.047400 38820.700000
158.071300 11328.900000
159.066500 1832321.200000
160.074300 117742.200000
160.099400 12625.400000
161.082100 3268314.000000
172.087100 4552.400000
173.094700 14972.900000
187.061300 1138294.400000
205.071900 174359.100000
233.103100 15105.900000

>ms2peaks
52.030800 6598.600000
53.038500 23487.000000
54.033800 6109.900000
54.046400 12519.800000
55.041700 6940.600000
62.023600 12106.900000
63.022900 31437.300000
64.030800 17097.400000
66.046300 70740.600000
72.044300 7871.200000
77.038500 9234.100000
79.041600 132291.000000
79.054200 17179.400000
81.033400 19872.500000
89.038500 5932297.500000
90.033800 30106.300000
90.046400 128041.300000
91.041600 47968.400000
92.025700 47459.400000
92.036900 10962.600000
94.041200 23667.000000
95.036500 22795.600000
95.049100 81355.100000
97.052400 19813.000000
103.041600 137084.700000
103.054000 19929.100000
104.049400 784560.500000
105.044700 36644.300000
105.057200 55406.300000
108.044400 13579.900000
110.036200 8623.400000
111.031500 14026.000000
114.033900 6092.200000
115.041600 17318.200000
116.049500 373155.300000
117.044800 61135.600000
117.057200 1209965.100000
118.052500 34884.100000
120.044500 6922.400000
129.044600 37899.300000
130.052600 580838.300000
131.060400 973487.500000
132.068200 1160918.200000
134.060000 144002.700000
135.055100 15238.200000
144.055600 187406.000000
145.063400 2334578.800000
146.070900 8080.500000
147.055400 7524.500000
148.050500 7436.000000
158.047700 16284.700000
158.071300 7024.700000
159.066500 1031261.500000
160.074300 52316.200000
161.082100 934567.500000
187.061400 239845.000000
205.072000 10409.100000

>ms2peaks
52.030800 9948.100000
53.038600 52048.400000
54.033900 8047.900000
54.046400 25233.500000
55.041700 7453.600000
62.015100 12532.300000
62.023600 11647.400000
63.022900 104564.200000
64.030700 54188.400000
65.025900 9066.600000
65.038600 6675.000000
66.046400 169637.900000
68.025600 12837.200000
76.030700 15957.700000
77.038400 24416.000000
78.046400 12202.600000
79.041600 328542.500000
79.054300 20286.100000
80.049500 15190.500000
81.033400 31144.500000
88.030900 9758.500000
89.038600 6496744.000000
90.033800 57331.800000
90.046400 488047.500000
91.041700 101953.900000
91.054200 8153.900000
92.025600 80899.700000
92.036900 30894.500000
94.041300 34207.800000
95.036500 53949.400000
95.049100 142860.600000
96.044300 9985.700000
97.052200 37539.800000
103.041600 386537.500000
104.049400 899598.100000
105.044800 57115.400000
105.057200 73970.600000
108.044400 17938.800000
110.036300 14765.200000
111.031500 29270.100000
114.033900 13162.300000
115.041600 29150.900000
116.049500 295637.900000
117.057300 1915982.200000
118.052500 84559.800000
119.060400 8482.700000
120.020700 6626.200000
120.044300 11593.100000
121.028500 15661.300000
129.044700 87033.600000
130.052600 498425.700000
131.060400 700941.800000
132.068200 606568.900000
133.039100 6907.600000
134.059900 49448.500000
135.031400 26240.300000
135.055300 15299.200000
144.055600 283183.500000
145.063400 1349923.200000
147.055100 9742.400000
148.050500 8974.000000
159.066500 327414.900000
160.074500 17304.700000
161.082100 180739.100000
187.061400 36894.300000

