>compound LU66508701
>parentmass 535.2704
>ionization [M+H]+
>formula C33H34N4O3
>rt 932.280000
>profile orbitrap
#smiles_iso CCN1CCC2(CC1)COC3=C2C=C4C(=C3)CCN4C(=O)C5=CC=C(C=C5)C6=C(C=C(C=C6)C7=NN=C(O7)C)C
#smiles_can CCN1CCC2(CC1)COC3=C2C=C4C(=C3)CCN4C(=O)C5=CC=C(C=C5)C6=C(C=C(C=C6)C7=NN=C(O7)C)C
#inchikey WXAKEEQOWUHGCI-UHFFFAOYSA-N
#pubchem_id 5311426
#mb_accession LU062901,LU062902,LU062903,LU062904,LU062905,LU062906

>ms2
535.270400 15893371.000000

>ms2
58.065100 38326.400000
84.080800 487022.800000
86.096400 36711.500000
96.080800 45972.200000
110.096400 85004.100000
122.096300 19940.700000
123.104300 12654.100000
124.112000 80758.000000
257.165200 20594.700000
258.172200 21477.700000
277.097100 381776.200000
412.164600 15859.000000
450.181400 103882.300000
478.212900 27392.200000
478.249700 24426.600000
494.242800 37384.000000
507.241000 17423.500000
533.255600 111355.600000
535.270700 12599590.000000

>ms2
55.054200 11033.600000
56.049400 197383.600000
58.065100 1076759.900000
67.054100 23805.800000
68.049400 22006.500000
69.057200 27565.600000
70.065000 16391.700000
72.080600 54363.000000
79.054200 28584.000000
80.049400 7655.600000
81.057200 7211.500000
81.069700 23147.900000
82.065100 96788.100000
83.023900 11407.100000
84.080700 3004055.000000
85.088600 36498.900000
86.096400 163986.300000
93.069800 6931.900000
94.065100 39859.400000
95.072800 24030.300000
96.080700 490813.900000
97.088500 160406.600000
98.096400 6511.600000
105.069900 7099.100000
107.085400 11960.700000
108.080700 73608.100000
109.088500 20178.500000
110.096400 1953247.100000
112.112000 6047.800000
120.080600 17541.800000
122.096400 151238.000000
123.104200 138885.000000
124.112000 580540.700000
125.119900 42543.300000
134.060000 9094.100000
150.127800 23855.500000
158.096600 9817.700000
165.069500 39111.700000
166.077600 12732.300000
171.080600 6142.700000
172.075500 86908.200000
173.083500 11208.500000
174.091100 17251.500000
180.080600 18332.100000
184.112000 12294.900000
185.083500 11354.200000
186.091200 44521.900000
187.099100 27522.300000
191.072600 17902.300000
193.064700 93487.800000
194.073300 5458.500000
199.005900 9890.000000
200.107100 42291.900000
201.103500 6230.900000
201.114800 21702.400000
206.096300 24744.000000
208.075500 35813.300000
220.075500 45531.100000
229.133500 82866.700000
230.141400 25408.700000
236.070400 532143.800000
249.102200 42189.100000
257.164600 136041.800000
258.172400 63937.200000
275.080800 19425.500000
277.097000 5290785.500000
305.128100 38951.500000
393.158500 15224.300000
409.154800 83854.400000
412.164700 21057.400000
450.181200 741796.600000
462.181500 63486.400000
476.233400 14272.200000
478.211300 52978.500000
478.248100 261294.100000
494.243800 105422.200000
507.239400 40262.800000
533.254800 304860.500000
535.270500 1825041.000000

>ms2
53.038600 12432.500000
54.033800 13739.000000
55.054200 26556.600000
56.013100 20557.500000
56.049500 373127.200000
57.057200 12213.300000
58.065100 1766123.600000
65.038500 8974.200000
67.041600 11277.900000
67.054100 40466.400000
68.049400 58181.400000
69.057200 26077.900000
69.069800 8846.100000
70.065000 30109.300000
71.072800 6222.400000
72.080700 54746.800000
79.054200 75618.100000
80.049400 24350.000000
81.057300 23854.500000
81.069800 73994.400000
82.065100 208895.100000
83.024000 171874.400000
84.080700 2066959.200000
85.088600 33003.100000
86.096400 91752.500000
91.054300 17159.000000
93.057300 11323.100000
93.069800 11818.400000
94.065100 100286.300000
95.049000 7609.900000
95.073000 55196.200000
95.085500 9042.200000
96.080700 416556.700000
97.088600 114036.100000
98.096500 9926.200000
105.044900 6194.900000
105.069600 6727.700000
107.085400 10858.300000
108.080700 187296.100000
109.088800 27521.900000
110.096400 2682451.000000
112.112100 6031.400000
115.054300 6602.100000
117.069600 4627.800000
120.080600 21406.200000
122.096300 80084.700000
123.104100 81902.900000
124.112100 316712.400000
125.120400 5903.500000
128.062400 5133.200000
129.069600 5190.900000
130.064700 16643.500000
134.059900 9193.000000
135.043900 14078.100000
141.069800 30954.100000
144.080800 38847.000000
146.059800 7380.500000
146.096100 6912.700000
150.127600 14055.900000
152.061900 29010.100000
153.069800 153140.000000
156.081100 7421.800000
158.096300 34750.200000
163.054500 6430.100000
165.069800 594245.300000
166.077600 204569.900000
168.080500 5608.000000
169.064700 25868.600000
170.096200 6807.300000
171.080200 7552.200000
172.075600 136707.900000
172.112000 6846.100000
173.083400 30718.600000
174.091200 61742.500000
178.077600 11483.000000
180.080700 357543.400000
181.064500 13056.700000
183.080400 49500.400000
184.075600 14571.400000
185.083500 19600.600000
186.091300 82845.200000
187.099300 18413.600000
190.065000 36126.000000
191.072900 264237.200000
192.080800 14602.400000
192.093200 9462.200000
193.052800 158995.800000
193.064800 1314475.500000
194.072400 22912.900000
195.080300 9220.100000
198.091100 7736.800000
200.106600 32095.300000
201.102200 15541.200000
201.114500 11891.200000
201.138500 5697.700000
204.080400 14915.100000
206.060100 26324.600000
206.096300 224277.700000
207.067800 42283.000000
208.075600 288725.000000
212.106500 8586.100000
213.138700 5567.300000
215.117500 4541.200000
218.059700 9687.300000
220.075600 399859.100000
223.075300 7154.000000
226.062400 25703.400000
226.086100 13170.700000
229.133600 54305.400000
230.141400 15922.000000
231.091800 4725.000000
234.054900 7596.600000
234.078700 14194.000000
236.070500 948895.800000
239.094500 4508.500000
248.094400 5360.000000
249.102100 285365.600000
257.164700 91616.200000
258.171900 4560.900000
267.112700 17265.900000
275.081600 30897.600000
277.097000 4378173.000000
393.159400 39826.500000
409.154500 13181.700000
419.176700 5381.200000
450.181400 52640.500000
462.180800 11662.000000
476.233800 21471.200000
478.249300 58771.100000
533.253800 12661.900000
535.272200 9163.100000

>ms2
53.038600 19910.900000
54.033900 11870.200000
55.029100 10703.100000
55.054200 41234.600000
56.013100 77736.600000
56.049500 383237.800000
57.057300 9216.000000
58.065100 1440027.200000
65.038600 15216.100000
67.041600 18493.600000
67.054200 48477.900000
68.049400 65124.100000
69.057300 23413.200000
69.069800 8132.800000
70.065100 28830.300000
71.072900 6001.200000
72.080700 30026.700000
77.038500 4906.600000
79.054200 123458.300000
80.049400 42319.000000
81.057400 41588.300000
81.069900 110892.900000
82.065100 245188.200000
83.024000 309818.400000
84.080800 1001313.900000
85.088600 8192.000000
86.096400 45049.100000
91.054100 20556.500000
93.057400 13537.700000
93.070000 12469.800000
94.065200 106207.500000
95.049100 25887.700000
95.073000 59725.200000
95.085300 3430.600000
96.080800 281306.700000
97.088600 52519.900000
104.049300 4324.400000
105.044800 8458.200000
105.069800 7631.500000
106.065100 5560.800000
107.073000 4511.100000
107.085600 3412.900000
108.080800 201719.800000
109.088600 19346.500000
110.096400 2039986.000000
112.112200 5068.300000
115.054200 25161.400000
117.057400 6948.100000
117.069800 12785.400000
118.065300 6057.500000
120.080700 17811.800000
122.096400 40461.100000
123.104300 24777.500000
124.112100 156859.800000
128.062200 9506.400000
129.070000 17899.800000
130.065200 22879.600000
131.073100 4404.600000
132.044700 3846.000000
132.081100 4615.200000
134.060100 16689.100000
139.053900 7709.000000
141.069800 130960.300000
143.072900 8368.600000
144.056400 4662.200000
144.080800 68105.700000
145.065200 7525.300000
146.060100 10220.100000
146.095900 7399.300000
150.128000 4194.000000
151.054300 3181.400000
152.062000 164205.200000
153.069800 475958.500000
154.065100 10238.900000
155.049300 5109.400000
155.060500 8641.700000
156.081100 10834.500000
157.064900 5001.300000
157.088600 10594.000000
158.060200 4844.000000
158.073000 4283.300000
158.096600 41013.900000
159.080400 7714.800000
163.054400 7464.000000
164.049600 6243.400000
164.062400 9042.100000
165.069900 2138518.200000
166.077700 542614.500000
167.073000 8333.900000
167.085800 6991.000000
168.057000 18502.200000
168.080800 5090.400000
169.052500 17525.800000
169.064800 83059.000000
170.060100 6435.300000
171.067900 11089.500000
171.080000 6983.400000
172.075600 85379.100000
172.112200 7051.400000
173.083200 26699.300000
174.091200 61013.200000
177.057000 26128.800000
177.070200 4018.600000
178.065100 17257.200000
178.077700 28368.700000
179.049400 4467.400000
179.060600 3961.900000
179.073100 25379.700000
179.085600 6638.400000
180.080700 681866.900000
181.064900 10531.200000
181.076300 9063.400000
182.060100 6614.600000
183.080400 161158.500000
184.075800 14427.400000
184.112000 5598.300000
185.083800 13676.800000
186.091400 69257.600000
187.099400 6139.200000
187.122600 4538.000000
190.065200 141467.100000
191.073000 490322.300000
192.080800 62819.500000
192.093000 13471.600000
193.053000 505653.500000
193.064900 2077580.000000
193.075400 231158.400000
194.061300 6082.500000
194.072500 39328.000000
195.080600 5285.000000
198.091300 8323.100000
200.106800 18643.500000
201.102500 6469.700000
201.115200 4480.300000
201.138700 12709.400000
204.080900 14288.600000
206.060200 90053.600000
206.096400 131825.400000
207.067900 81310.400000
208.075700 298458.900000
210.091300 5942.200000
212.106800 4314.800000
213.138300 5539.900000
215.117900 3520.500000
216.069200 5305.700000
218.060400 10198.400000
220.075700 412740.200000
220.086800 26157.800000
223.075600 4348.000000
226.062400 75307.100000
226.086600 9600.000000
229.134000 16819.600000
231.092000 7569.400000
234.054900 4003.600000
234.078600 16940.500000
236.070600 351332.800000
239.094100 7155.800000
248.094900 6069.200000
249.102100 159348.300000
257.164700 25501.600000
267.113000 4924.400000
275.081600 8661.200000
277.097100 817951.200000
393.158600 4044.500000

>ms2
53.038600 40244.900000
54.033800 14352.900000
55.029100 20272.500000
55.054200 58359.800000
56.013100 124620.900000
56.049500 348348.300000
57.057300 4691.100000
58.065100 1054468.100000
65.038500 22802.700000
67.041600 26314.100000
67.054200 48587.800000
68.049400 72023.300000
69.057300 17728.300000
69.069700 6705.800000
70.065100 27920.000000
72.080700 22847.700000
77.038400 9453.100000
79.054200 189600.400000
80.049500 72238.200000
81.057300 45140.400000
81.069900 124972.500000
82.065100 232675.200000
83.024000 260658.200000
84.080800 448799.500000
86.096300 19136.500000
91.054200 39926.600000
93.057300 19312.900000
93.070000 11866.700000
94.065200 118237.600000
95.049200 42854.800000
95.072900 49834.800000
96.080800 176589.300000
97.088700 22051.000000
105.044800 16941.500000
105.070000 4551.800000
106.065200 7892.900000
108.080800 184904.100000
109.088500 18717.200000
110.096400 1291230.900000
115.054200 68707.800000
117.057200 13190.900000
117.070100 23682.300000
118.065100 14507.000000
120.080800 12494.100000
122.096200 18960.100000
123.104200 6924.500000
124.112100 84219.600000
128.062000 19340.700000
129.069900 22865.500000
130.065100 43368.400000
131.072900 11247.200000
132.044500 5623.100000
132.080800 7235.700000
134.059900 13660.700000
139.054100 35572.800000
141.069900 187137.200000
143.073000 24697.500000
144.057000 4531.100000
144.080700 52878.600000
145.064600 19524.700000
146.059800 14736.900000
146.096500 15155.800000
151.054000 8368.400000
152.062100 515439.600000
153.069900 665650.200000
154.065100 25071.200000
155.048800 8620.300000
155.060600 24751.500000
156.081000 19091.200000
157.065100 6523.200000
157.088500 12448.700000
158.072600 6731.700000
158.096300 29044.800000
159.080300 8516.100000
163.054100 25555.700000
164.049800 39269.200000
164.062000 45483.700000
165.069900 4444959.000000
166.077600 551829.500000
167.073100 8487.800000
167.085400 7546.000000
168.056900 106285.800000
168.080500 9445.800000
169.052400 49561.500000
169.064700 169180.200000
170.060000 13075.400000
170.096400 4914.800000
171.067500 7869.400000
171.080300 11531.000000
172.075700 50698.200000
173.083400 16370.900000
174.091400 34475.900000
177.057400 113631.300000
177.070600 5962.100000
178.065100 53123.900000
178.077700 36589.400000
179.049500 8172.600000
179.060300 21860.900000
179.072900 59268.200000
180.080700 494990.300000
181.064700 9112.300000
181.075900 19064.600000
182.060400 7864.200000
183.080400 204023.100000
184.075300 21588.600000
185.083600 10985.500000
186.091500 41648.500000
190.065200 333878.200000
191.073000 362574.000000
192.080800 73218.500000
192.093300 11345.700000
193.052600 606927.800000
193.064700 1056763.500000
193.075600 244072.100000
194.060800 7033.300000
194.072600 20621.200000
198.091000 5253.300000
200.107400 4464.200000
204.080300 9391.600000
206.060100 136565.300000
206.096400 22881.400000
207.067900 73205.200000
208.075700 96405.700000
216.067900 6216.000000
220.075800 142391.000000
220.087400 11527.700000
226.062500 51682.400000
234.078100 7542.100000
236.070600 38749.300000
249.102100 20922.800000
257.164800 4855.800000
277.097100 52964.500000

