>compound LU66882845
>parentmass 146.06
>ionization [M+H]+
>formula C9H7NO
>rt 483.060000
>profile orbitrap
#smiles_iso C1=CC2=C(C(=C1)O)N=CC=C2
#smiles_can C1=CC2=C(C(=C1)O)N=CC=C2
#inchikey MCJGNVYPOGVAJF-UHFFFAOYSA-N
#pubchem_id 1923
#mb_accession LU099402,LU099404,LU099405

>ms2peaks
118.065000 3847.900000
146.060100 241216.700000

>ms2peaks
86.003500 4059.600000
91.054200 2773.600000
118.065200 24570.300000
128.049600 7166.200000
146.060100 163226.400000

>ms2peaks
86.003700 7257.000000
91.054300 18105.000000
118.065200 60237.600000
128.049600 33034.000000
146.060100 165833.600000

