>compound LU66896506
>parentmass 337.1646
>ionization [M+H]+
>formula C18H24O6
>rt 1136.820000
>profile orbitrap
#smiles_iso CCCCOC(=O)COC(=O)C1=CC=CC=C1C(=O)OCCCC
#smiles_can CCCCOC(=O)COC(=O)C1=CC=CC=C1C(=O)OCCCC
#inchikey GOJCZVPJCKEBQV-UHFFFAOYSA-N
#pubchem_id 6819
#mb_accession LU066801,LU066802,LU066803,LU066804,LU066805,LU066806

>ms2peaks
149.023400 31405.400000

>ms2peaks
57.070000 2789.400000
149.023400 33940.100000

>ms2peaks
57.069800 2452.600000
149.023300 20065.100000
152.062400 4549.800000

>ms2peaks
149.023500 25296.800000
152.062200 13483.500000
153.070000 9972.400000
181.065200 5600.600000

>ms2peaks
51.022900 2968.300000
57.069900 3173.000000
65.038400 3450.000000
75.022900 3274.200000
121.028400 6015.700000
149.023300 12550.700000
152.062000 15471.500000
153.070000 15062.300000
181.064500 5720.700000

>ms2peaks
51.023000 2829.300000
65.038600 7450.300000
75.022900 25088.800000
121.028600 4725.300000
149.023300 3649.000000
152.062100 28998.200000
153.070000 24079.100000
181.065000 8234.500000

