>compound LU67690230
>parentmass 279.1591
>ionization [M+H]+
>formula C16H22O4
>rt 1149.490000
>profile orbitrap
#smiles_iso CCCCOC(=O)C1=CC=CC=C1C(=O)OCCCC
#smiles_can CCCCOC(=O)C1=CC=CC=C1C(=O)OCCCC
#inchikey DOIRQSBPFJWKBE-UHFFFAOYSA-N
#pubchem_id 3026
#mb_accession LU082301,LU082302,LU082303,LU082304,LU082305,LU082306

>ms2
57.069700 4982.300000
149.023200 11352.200000
223.074700 3085.800000

>ms2
149.023500 13415.100000
167.085500 1883.100000
223.075800 6935.200000

>ms2
57.069900 8830.100000
91.054300 6278.600000
105.069900 2595.600000
109.064900 16178.400000
117.069900 2776.100000
149.023400 17098.600000
167.085900 5068.500000
195.080500 2837.300000

>ms2
57.069900 7115.200000
65.038700 1538.900000
91.054400 6497.700000
95.049300 2644.100000
105.069900 4508.000000
109.064800 14207.000000
117.070300 2760.900000
129.070000 2752.400000
149.023600 13067.400000
167.085900 5109.600000
178.077800 4676.600000

>ms2
53.038700 4165.800000
57.070000 5248.000000
65.038700 1918.600000
91.054200 8193.900000
95.049300 8217.200000
109.065000 8713.200000
115.054400 2130.000000
121.028700 3796.400000
128.062200 3877.400000
129.070100 2417.700000
149.023200 8003.700000
154.077700 1743.100000
165.070100 3806.200000
178.077700 4831.100000

>ms2
53.038700 8460.500000
57.069900 3485.900000
65.038600 3678.500000
91.054400 8118.900000
95.049200 19773.600000
109.064900 4586.300000
115.054000 1789.700000
117.069900 2184.600000
121.028600 3391.600000
128.062000 5954.500000
129.069900 3387.000000
149.023400 3456.900000
154.077500 2722.900000
165.069900 5095.200000
178.077800 7577.100000

