>compound LU67564802
>parentmass 614.3701
>ionization [M+H]+
>formula C36H47N5O4
>rt 918.000000
>profile orbitrap
#smiles_iso CC(C)(C)NC(=O)[C@@H]1CN(CCN1C[C@H](C[C@@H](CC2=CC=CC=C2)C(=O)N[C@@H]3[C@@H](CC4=CC=CC=C34)O)O)CC5=CN=CC=C5
#smiles_can CC(C)(C)NC(=O)C1CN(CCN1CC(CC(CC2=CC=CC=C2)C(=O)NC3C(CC4=CC=CC=C34)O)O)CC5=CN=CC=C5
#inchikey CBVCZFGXHXORBI-PXQQMZJSSA-N
#pubchem_id 5362440
#mb_accession LU017801,LU017802,LU017803,LU017804,LU017805,LU017806

>ms2
188.106800 10466.100000
277.202400 54400.300000
320.165500 17436.100000
364.202100 24194.500000
421.236400 47851.400000
465.286400 832626.400000
495.274900 8193.200000
513.286500 156468.900000
596.360100 563673.400000
614.370400 7053959.500000

>ms2
56.049500 40837.200000
85.076000 25144.600000
92.049500 9668.800000
94.065100 75718.300000
97.076100 266206.400000
98.083900 93302.200000
112.112000 17316.100000
117.069700 7039.300000
121.076100 20200.600000
123.091600 27091.100000
124.099700 5533.500000
132.080800 73349.700000
133.064800 119044.100000
143.085500 9619.900000
145.065000 27546.400000
145.101000 10691.300000
150.091300 18778.000000
170.096200 9349.100000
171.080400 8669.900000
174.102600 274368.800000
175.075700 7412.500000
175.110400 79019.200000
176.118200 164179.300000
184.144300 21206.100000
188.107000 840945.400000
189.091200 17127.200000
190.122700 7402.200000
192.102000 46446.000000
206.117600 243021.300000
214.133800 63911.900000
216.149200 6891.900000
221.139800 30387.700000
254.141100 7571.600000
259.155400 16695.300000
271.144100 72919.600000
271.168100 15128.100000
272.151800 474875.000000
273.159900 40237.500000
276.138400 10060.000000
277.202300 485501.200000
289.178400 43275.500000
294.159600 8815.900000
302.153900 21516.900000
306.148700 29732.600000
315.218000 359921.900000
320.164600 264442.200000
324.159400 77249.600000
338.175100 251429.200000
346.191500 44490.000000
363.218000 56035.200000
364.202000 1394653.100000
385.215400 30115.400000
403.225700 335115.700000
421.236100 5498896.000000
465.286300 542514.100000
495.275700 307560.000000
513.286200 337221.200000
523.270700 9954.800000
578.349000 8410.200000
596.359700 168743.300000
614.370300 180155.200000

>ms2
56.049500 134348.600000
68.049400 101734.100000
69.044700 36064.300000
70.065100 17279.600000
80.049500 11675.000000
81.044700 30652.700000
82.052400 18319.100000
83.060300 77205.400000
84.068100 41735.200000
85.076000 15772.900000
91.054100 64162.300000
92.049400 182917.200000
93.057300 42465.100000
94.065100 377005.700000
95.060300 9580.300000
97.076000 6911562.000000
98.083800 647239.100000
105.069700 28991.800000
106.065100 62393.600000
110.083900 10601.100000
111.091700 9761.100000
112.112000 81107.700000
115.054100 35137.000000
117.069900 77140.700000
121.076000 329905.700000
122.083700 23011.300000
123.091600 438791.200000
124.099500 82909.500000
129.069700 91496.700000
131.085500 56119.400000
132.080700 115616.800000
133.064800 617231.900000
135.091500 27302.200000
137.070900 7236.000000
143.085400 52947.600000
145.064700 142671.500000
145.101100 26166.600000
147.091600 47626.400000
150.091300 15368.500000
151.075300 11360.900000
157.064800 53021.600000
161.096000 10034.400000
163.086500 12764.900000
167.105200 10965.100000
170.096500 13761.600000
171.080400 62147.700000
174.091500 364307.800000
174.102500 568352.200000
175.075300 433187.100000
175.110300 248688.700000
176.118100 303832.600000
184.144500 9072.900000
188.106900 176257.200000
188.117800 31483.600000
189.091100 26520.000000
190.122600 23335.400000
192.101800 575044.400000
201.126200 7112.800000
206.117600 333445.200000
214.122800 10535.100000
214.133700 116516.700000
215.141700 16630.600000
216.148700 15343.800000
221.139700 8144.600000
223.167600 38984.200000
227.154300 19580.800000
242.129000 11914.700000
244.133400 20138.500000
254.141500 14084.200000
259.155300 43300.500000
271.144000 109981.000000
271.167900 54563.700000
272.151800 668683.600000
273.159900 16133.000000
276.137700 8263.000000
277.202000 15324.600000
289.178500 61511.800000
294.159900 42657.200000
302.153500 9930.500000
306.148700 129020.700000
315.217800 140348.600000
320.164600 40839.400000
324.159300 217533.000000
338.174700 35364.700000
363.217500 17820.700000
364.202000 126414.700000
385.214600 13629.200000
403.225700 104522.400000
421.236100 1103790.400000
495.275700 12673.800000

>ms2
54.033900 14866.800000
55.017800 17523.400000
56.049500 212969.800000
57.069900 9639.700000
65.038500 40746.900000
67.054100 16238.100000
68.049400 403345.300000
69.044700 147715.700000
69.057300 11562.500000
70.065100 62784.500000
79.054300 28237.700000
80.049500 47155.400000
81.044700 59157.100000
82.052500 58323.100000
82.065000 17608.700000
83.060400 243742.700000
84.068200 69091.900000
85.076100 14643.900000
91.054200 261398.600000
92.049500 786774.100000
93.057300 141064.900000
94.065200 469791.400000
95.060400 20951.500000
96.044500 13936.600000
96.081000 11220.500000
97.076000 8768869.000000
98.083800 317815.000000
103.054300 18319.900000
105.069900 124976.700000
106.065100 202894.100000
108.081000 17869.600000
109.076100 33686.600000
110.060200 16978.900000
110.084000 15274.800000
111.091700 9856.100000
112.111800 16996.000000
115.054200 106656.900000
117.069900 223853.200000
121.076000 378695.600000
122.083700 31787.600000
123.091600 375994.700000
124.099500 66576.700000
128.061700 27020.700000
129.069900 357167.500000
131.085600 111615.400000
132.080800 124029.600000
133.064800 969600.600000
135.091600 45511.200000
143.085600 88194.800000
145.064800 167591.600000
145.075900 10209.300000
145.101200 31352.600000
146.096600 11998.900000
147.080700 8797.800000
147.091700 61294.000000
153.069600 9225.900000
157.064800 350348.200000
159.091700 10270.600000
161.096200 10938.600000
163.086900 15937.200000
167.105300 14450.500000
170.096600 13348.100000
171.080400 81855.900000
171.091700 12722.500000
174.091500 211061.400000
174.102700 245231.000000
175.075400 398390.600000
175.110300 142933.000000
176.118200 186135.800000
188.107100 32408.000000
188.118400 30304.500000
189.091100 16033.300000
190.122700 17668.700000
192.101900 75725.200000
201.126100 11421.400000
206.117600 84107.500000
214.134000 30525.100000
215.142100 15710.100000
227.154300 10229.700000
244.133300 12055.000000
271.144400 23251.900000
272.151800 73715.900000
294.160000 9645.700000
306.148800 28318.300000

>ms2
53.002200 9054.000000
53.038600 11343.200000
54.033900 21776.800000
55.017800 38168.700000
56.049500 323677.800000
57.057300 7631.900000
57.069900 8385.700000
65.038600 136876.600000
67.054200 30019.500000
68.049400 839507.800000
69.044700 282854.500000
69.057200 28224.200000
70.065100 111798.900000
79.054200 85194.900000
80.049500 86964.700000
81.044700 44237.400000
82.052500 102501.500000
82.065100 33239.000000
83.060300 409426.800000
84.068300 63237.800000
85.076100 8351.500000
91.054200 451332.900000
92.049500 1068553.100000
93.057300 186492.800000
94.065100 417564.600000
95.049100 19140.500000
95.060300 24433.900000
95.072800 6885.800000
96.044300 21013.500000
96.068300 14484.600000
96.080900 14379.700000
97.076000 6763168.000000
98.083800 142477.500000
103.054300 54476.800000
105.069900 302171.200000
106.065100 187844.000000
107.060400 14514.700000
108.068300 11123.500000
108.080900 17920.900000
109.076000 52988.300000
110.060000 45955.000000
110.083900 17851.100000
111.091700 9159.400000
115.054200 187281.100000
117.057100 20502.400000
117.069900 297669.800000
118.065200 7674.300000
119.060700 7017.300000
120.080800 7779.000000
121.076000 290391.200000
122.060000 8909.300000
122.083800 21250.500000
123.091600 182081.000000
124.099700 34261.000000
128.062000 87891.800000
129.069900 549573.200000
131.085500 107039.100000
132.080700 91442.900000
133.064800 673881.600000
135.091700 27104.100000
143.085600 65431.800000
145.064800 103113.300000
145.075900 10128.500000
145.101000 18159.600000
146.096800 7648.900000
147.091700 32542.900000
153.069700 11443.900000
155.060400 11857.800000
156.080900 7542.300000
157.064800 318075.000000
163.086500 10674.600000
171.080300 29937.600000
171.091800 7740.700000
174.091400 31628.400000
174.102600 58606.400000
175.075300 65724.000000
175.110300 39002.900000
176.118200 53434.400000
188.118300 11648.900000

>ms2
53.002200 16634.200000
53.038600 25372.900000
54.033800 51724.400000
55.017900 64233.200000
55.054200 7285.700000
56.049500 482548.900000
57.057300 12831.900000
57.069900 11615.000000
58.065000 5164.500000
65.038500 337832.000000
67.054200 60200.300000
68.049400 1370329.500000
69.044700 465790.800000
69.057200 38401.700000
70.065100 173271.800000
72.044400 7467.300000
77.038500 6006.300000
79.054200 199208.700000
80.049400 114595.700000
81.033700 5877.500000
81.044700 62982.300000
81.057300 7075.600000
82.052500 147811.800000
82.065100 34099.800000
83.060300 448628.900000
84.068200 48709.700000
91.054200 668387.300000
92.049400 1235753.100000
93.057300 229261.200000
94.065100 376911.500000
95.049100 56874.900000
95.060300 46944.900000
95.072900 11543.400000
96.044400 38060.600000
96.068000 21084.200000
96.080900 15424.100000
97.076000 5040583.000000
98.083800 87171.400000
103.054200 143324.100000
105.069900 468995.200000
106.065100 131965.700000
107.060500 18010.800000
108.068300 17396.600000
108.080900 14748.900000
109.076000 46778.800000
110.060100 81748.400000
110.084000 5719.600000
115.054200 273361.000000
116.062000 9050.400000
117.057200 31791.600000
117.069800 295441.900000
118.065100 10128.900000
119.060300 16016.300000
121.076000 249345.500000
122.060000 11953.000000
122.083700 8881.100000
123.091600 87515.400000
124.099600 12961.100000
128.062000 208332.200000
129.069800 642862.000000
130.065200 16757.800000
131.085500 58305.700000
132.080700 55793.600000
133.064700 382154.800000
135.091600 19669.300000
141.070100 8450.600000
143.085500 37554.200000
145.064700 54614.100000
145.076000 10195.400000
145.101200 9393.000000
147.091600 13529.100000
149.070700 7813.900000
153.069700 16790.800000
155.060200 32508.000000
157.064800 122652.300000
171.080300 7680.400000
171.091800 8186.200000
174.102500 16203.600000
175.075600 5646.600000
175.110500 7183.200000
176.118000 11933.100000

