>compound LU67986473
>parentmass 294.1125
>ionization [M+H]+
>formula C18H15NO3
>rt 1102.440000
>profile orbitrap
#smiles_iso COC1=CC=CC=C1NC(=O)C2=CC3=CC=CC=C3C=C2O
#smiles_can COC1=CC=CC=C1NC(=O)C2=CC3=CC=CC=C3C=C2O
#inchikey AQYMRQUYPFCXDM-UHFFFAOYSA-N
#pubchem_id 67274
#mb_accession LU064901,LU064902,LU064903,LU064904,LU064906

>ms2peaks
69.069800 3220.100000
115.054500 7609.300000
115.075300 19813.000000
124.075900 2486.300000
171.044100 2015609.200000
225.067600 3630.500000

>ms2peaks
57.069800 7092.600000
69.069800 34951.500000
91.054400 4286.400000
115.053800 15585.400000
115.075400 5894.000000
124.075800 5719.700000
148.112000 6472.700000
171.044000 2783506.800000
175.039100 5805.700000
276.101700 8640.900000

>ms2peaks
57.069800 11419.300000
69.069800 36167.200000
91.054200 14889.000000
115.054200 133603.200000
124.075500 9569.300000
130.041400 7244.600000
133.071700 2962.200000
143.049200 2342.000000
148.111900 7035.700000
161.059700 45442.700000
171.044000 2232563.200000
175.039100 12469.100000
207.993600 7170.600000
276.102500 4285.800000

>ms2peaks
57.069900 14798.800000
69.069900 25364.000000
79.054100 2121.400000
91.054300 42849.900000
92.049300 4589.600000
95.049200 4035.300000
107.049100 3440.600000
109.052400 6548.800000
114.046400 3076.500000
115.054300 1146117.600000
124.075700 10619.700000
130.041400 21268.500000
133.071900 2254.000000
143.049100 12155.400000
148.112200 3056.400000
161.059800 146911.800000
171.044100 1736498.500000
175.039400 11531.300000
207.994000 6654.300000
233.083500 4153.900000

>ms2peaks
57.069900 6826.800000
79.054300 9128.100000
89.038600 76046.700000
91.054300 21245.000000
92.049400 6016.600000
95.049100 9112.200000
109.052400 9918.500000
114.046200 3976.800000
115.054300 3151278.200000
130.041400 5256.400000
143.049400 3950.600000
161.059800 32390.100000
171.044100 145752.600000

