>compound LU67416732
>parentmass 323.1754
>ionization [M+H]+
>formula C20H22N2O2
>rt 1207.920000
>profile orbitrap
#smiles_iso CC(C)NC1=C2C(=C(C=C1)NC(C)C)C(=O)C3=CC=CC=C3C2=O
#smiles_can CC(C)NC1=C2C(=C(C=C1)NC(C)C)C(=O)C3=CC=CC=C3C2=O
#inchikey BLFZMXOCPASACY-UHFFFAOYSA-N
#pubchem_id 61719
#mb_accession LU052903,LU052904,LU052905

>ms2
58.065000 4884.700000
222.090800 2107.900000
223.063000 10485.600000
223.086600 19485.900000
224.070800 46221.400000
225.078700 3320.700000
238.074000 8608.700000
239.081800 25205.200000
246.091200 7757.100000
247.086100 17755.200000
248.093600 2667.400000
249.102100 5069.700000
250.086100 5584.600000
262.111200 3932.000000
263.118200 17742.100000
264.101900 3277.800000
264.124600 3830.400000
265.097300 675691.300000
266.104700 5542.400000
280.120800 241432.100000
281.128500 66630.500000
308.147700 147005.900000

>ms2
58.065200 12411.400000
105.033500 3818.500000
196.075800 4036.900000
208.075900 3347.100000
210.092000 4313.600000
222.091600 6905.900000
223.062900 11428.900000
223.086400 62119.400000
224.070700 51244.500000
225.078500 8113.600000
230.097500 2080.500000
232.075500 9731.600000
236.094600 4425.900000
237.066600 2876.700000
237.102500 28320.800000
238.073400 13021.200000
239.081600 14547.300000
240.089200 3855.500000
246.091500 10736.600000
247.086600 249507.500000
248.070700 18610.400000
248.092000 7189.400000
249.101800 6820.400000
250.086200 3320.200000
261.102100 3377.900000
262.109800 3644.600000
263.117400 8511.700000
264.101800 2015.800000
264.124000 4527.400000
265.097300 573637.000000
266.104900 7461.200000
275.114200 5085.000000
280.120700 10828.300000
281.128000 4216.700000
290.137200 14100.900000
308.147800 22935.000000

>ms2
58.065200 15072.500000
105.033600 6131.300000
196.075700 25123.500000
208.076100 4995.900000
210.091900 19024.200000
222.091000 4566.800000
223.063200 19893.200000
223.086700 132751.000000
224.070800 23918.800000
225.078300 2664.100000
230.096100 2475.300000
232.075500 8527.500000
236.094800 12517.700000
237.065800 5945.800000
237.102400 32907.200000
238.074000 21817.200000
239.081500 4208.400000
240.088800 2723.700000
246.091100 8735.000000
247.086700 468473.000000
248.070900 32645.000000
249.100200 9246.100000
261.102300 5007.200000
263.117700 2431.600000
265.097400 128693.000000
266.103000 3308.100000
275.114300 5302.500000
290.137300 2223.500000

