>compound LU67896896
>parentmass 271.1111
>ionization [M+H]+
>formula C12H18N2O3S
>rt 963.000000
>profile orbitrap
#smiles_iso CCCCNC(=O)NS(=O)(=O)C1=CC=C(C=C1)C
#smiles_can CCCCNC(=O)NS(=O)(=O)C1=CC=C(C=C1)C
#inchikey JLRGJRBPOGGCBT-UHFFFAOYSA-N
#pubchem_id 5505
#mb_accession LU069301,LU069302,LU069303,LU069304,LU069305,LU069306

>ms2peaks
57.069900 63752.900000
74.096400 1887173.900000
91.054400 15676.700000
109.064800 5916.100000
119.060400 15554.600000
154.032100 19007.700000
155.016100 499236.900000
172.042600 987492.100000
271.111100 725498.300000

>ms2peaks
53.002300 2720.900000
55.017800 2787.200000
57.069900 118606.900000
65.038500 16011.300000
67.054100 5915.900000
74.096400 1314511.800000
91.054100 34430.100000
95.049200 3080.100000
108.056800 2448.200000
109.064800 77245.400000
119.060400 141066.500000
154.032100 17788.100000
155.016100 995199.600000
172.042700 405618.900000
187.042800 5343.100000
271.111000 22161.100000

>ms2peaks
53.002300 5248.500000
55.017900 9224.500000
55.054400 1979.300000
57.069900 208068.200000
65.038600 58596.800000
67.054200 29988.000000
74.096400 699683.600000
79.980200 3778.300000
91.054200 243574.500000
93.069800 6415.500000
95.049100 12330.500000
106.065200 6738.800000
108.057000 9701.800000
109.064800 380659.800000
119.060400 644900.300000
120.057500 2947.200000
154.032200 5766.000000
155.016200 610265.700000
172.042800 39871.200000
187.042600 2897.000000

>ms2peaks
53.002300 8614.500000
55.017900 14520.800000
55.054300 3366.900000
57.069900 255835.600000
65.038600 119501.900000
67.054200 39812.800000
74.096400 304105.000000
79.980300 4413.600000
91.054300 850382.200000
93.070000 10621.300000
95.049200 14461.300000
106.065200 10003.900000
108.057000 17624.900000
109.064900 480094.100000
119.060500 686815.700000
120.057600 6058.800000
155.016200 117891.900000

>ms2peaks
53.002200 10286.000000
55.017900 9069.300000
57.069900 233684.400000
63.023000 3756.300000
65.038600 245900.400000
67.054200 23636.300000
74.096400 110528.500000
79.054400 2546.600000
79.980100 7179.900000
91.054300 1591210.500000
92.062200 4134.700000
93.069900 13979.100000
95.049100 11592.200000
106.065200 4928.400000
108.057000 10853.200000
109.064900 306874.300000
119.060400 391586.700000
120.057500 2833.700000
155.016300 10070.900000

>ms2peaks
53.002200 10270.000000
55.017900 4700.400000
57.069900 127534.400000
63.022900 7472.300000
65.038600 466301.900000
67.054200 7728.500000
74.096400 28136.700000
79.054300 1973.700000
79.980000 8256.700000
91.054200 1523950.100000
92.062100 2083.000000
93.069900 6277.500000
95.049100 5272.900000
106.065000 2250.500000
108.057000 4828.600000
109.064800 107940.100000
119.060400 122413.700000

