>compound LU67243567
>parentmass 353.1415
>ionization [M+H]+
>formula C21H21ClN2O
>rt 1113.420000
>profile orbitrap
#smiles_iso CCC(C)N(C)C(=O)C1=CC2=CC=CC=C2C(=N1)C3=CC=CC=C3Cl
#smiles_can CCC(C)N(C)C(=O)C1=CC2=CC=CC=C2C(=N1)C3=CC=CC=C3Cl
#inchikey RAVIZVQZGXBOQO-UHFFFAOYSA-N
#pubchem_id 1345
#mb_accession LU067601,LU067602,LU067603,LU067604,LU067605,LU067606

>ms2
238.043400 139664.900000
256.052600 19303.300000
279.068400 32857.200000
297.078900 2665915.500000
353.141400 16256675.000000

>ms2
57.069800 21047.000000
203.073700 22288.000000
256.052300 3285805.800000
270.067800 53689.300000
279.068300 1962606.200000
297.078900 11963223.000000
353.141500 1509991.500000

>ms2
57.069800 64055.000000
203.072700 243147.200000
220.075300 76126.700000
238.041600 2256143.200000
252.057600 129847.500000
256.052100 14400340.000000
258.056300 29433.100000
270.067800 285896.600000
279.068200 2982163.500000
297.078800 1292846.200000

>ms2
57.069900 44585.100000
115.054400 19000.200000
140.049600 11960.600000
176.062200 42526.100000
185.071600 31597.800000
192.081400 11804.200000
193.065000 14181.900000
201.057500 37853.100000
202.065200 238329.200000
203.073000 3518409.500000
211.031100 43944.300000
216.080800 22530.900000
217.088800 107527.900000
220.075700 1050809.900000
225.046600 10107.600000
230.071500 16596.700000
237.034000 22337.700000
238.041800 9927519.000000
251.050200 12367.700000
252.057500 357285.500000
256.052400 7467480.500000
258.056300 12983.000000
270.068000 235817.600000
279.068400 872043.300000
284.083400 38155.600000
297.079100 21239.400000

>ms2
57.069900 26266.400000
75.023000 12647.300000
86.999600 12106.900000
115.054000 34766.900000
129.010000 23208.900000
139.005700 50712.800000
140.049300 22402.300000
151.054400 13135.400000
152.061900 15784.100000
169.064700 46340.300000
175.054000 58191.200000
176.062000 343547.200000
177.057100 35839.700000
179.049300 11447.600000
179.060300 23877.800000
185.071000 19669.500000
192.081000 26380.900000
193.064800 140327.400000
194.060100 33600.600000
201.057400 414014.000000
202.065200 748064.100000
203.072800 10149718.000000
204.055700 13653.700000
206.059700 13937.500000
211.030800 123413.200000
216.080900 52112.700000
217.088600 146217.500000
220.075600 2102571.500000
225.046200 16535.400000
230.070900 31631.200000
234.091200 42700.000000
235.062700 18058.200000
237.034100 84893.100000
238.041700 6661760.000000
239.036800 19212.700000
243.091900 13319.300000
251.049800 16466.600000
252.057500 120092.300000
256.052300 983041.800000
263.036800 10303.600000
270.068000 43197.900000
279.068100 77429.300000

>ms2
57.069900 19301.200000
75.022800 100693.900000
86.999500 36484.000000
110.999500 45187.100000
115.054100 29221.100000
129.010100 112399.100000
139.005700 210226.800000
140.049400 32228.200000
151.054200 35272.900000
152.062000 187311.300000
165.070100 17024.200000
169.064700 191254.400000
174.046700 26566.300000
175.054200 189194.400000
176.062000 1124693.800000
177.057300 404073.300000
179.049300 43521.900000
179.060400 90443.300000
189.070200 15806.600000
193.064800 564386.500000
194.060000 162466.700000
201.057500 1374040.800000
202.065200 1246042.600000
203.072700 13809989.000000
204.055400 86220.200000
206.059800 20348.400000
211.030700 78579.000000
216.080900 55600.500000
217.088500 83894.300000
220.075600 1735199.600000
230.072000 24118.800000
234.091100 39170.600000
235.062500 49622.200000
237.033800 201677.300000
238.041700 2057908.000000
251.049400 16730.100000
252.057700 16955.800000
256.052300 72629.400000

