>compound LU67110967
>parentmass 314.1387
>ionization [M+H]+
>formula C18H19NO4
>rt 1053.140000
>profile orbitrap
#smiles_iso CCN(CC)C1=CC(=C(C=C1)C(=O)C2=CC=CC=C2C(=O)O)O
#smiles_can CCN(CC)C1=CC(=C(C=C1)C(=O)C2=CC=CC=C2C(=O)O)O
#inchikey FQNKTJPBXAZUGC-UHFFFAOYSA-N
#pubchem_id 79878
#mb_accession LU030301,LU030302,LU030303,LU030304,LU030305,LU030306

>ms2peaks
138.091400 53926.000000
149.023400 534381.400000
166.122700 3474092.000000
181.049400 12462.500000
268.095900 23164.100000
285.100000 13853.500000
286.107600 18111.800000
296.128300 319235.800000
314.138700 7868289.500000

>ms2peaks
65.038600 4275.600000
72.080700 4282.200000
110.060000 31914.900000
120.080900 6761.900000
122.059900 5879.400000
136.076200 3554.200000
137.083500 44010.100000
138.091400 1514406.100000
148.111800 5633.800000
149.023300 2205467.800000
163.038900 35287.600000
164.071400 9821.100000
164.107300 8596.600000
166.122600 3044125.500000
167.033700 13929.100000
181.049400 49576.900000
223.099300 8199.000000
224.071200 8759.300000
224.106400 4397.300000
225.054400 5180.300000
239.094000 9045.700000
240.065600 22181.500000
240.101900 243590.700000
250.086000 36430.900000
251.070400 4272.100000
252.065700 11074.000000
266.080900 22512.600000
267.088900 142107.000000
268.096800 700138.800000
270.075600 15341.900000
281.105900 4186.300000
284.092100 20045.500000
285.099600 447651.400000
286.107500 113744.400000
296.128200 1364383.400000
314.138700 3451048.200000

>ms2peaks
58.065100 12638.800000
65.038300 15832.400000
70.065100 5259.100000
72.080700 42756.500000
74.096400 4189.500000
79.054100 9853.600000
82.065100 3749.300000
91.054300 8018.400000
92.049500 6088.700000
93.033500 5186.300000
93.069900 8202.500000
95.049000 8687.100000
103.054100 7298.400000
105.033400 3339.200000
109.052200 40198.700000
109.089000 3434.900000
110.060000 156131.700000
111.044000 8102.300000
118.065000 4535.700000
119.072800 7843.400000
120.044400 14549.300000
120.080700 65020.200000
121.028400 81408.900000
122.059900 90386.400000
131.049400 5147.800000
133.028400 32771.000000
134.059600 4333.100000
136.075700 44484.800000
137.083500 216907.000000
138.091300 1611089.800000
146.059800 7157.900000
148.039100 16057.000000
148.112100 10947.000000
149.023200 3276477.000000
150.091400 3827.100000
157.064900 4054.300000
163.038900 53694.300000
164.070400 80860.400000
164.107000 69345.200000
165.069900 3601.400000
166.122600 1789390.200000
167.033800 24968.400000
180.056700 4429.400000
181.049400 66827.800000
181.064100 6794.100000
183.044700 3473.800000
194.096000 6634.700000
195.080100 8599.300000
195.104000 16727.400000
196.051900 10184.200000
196.075400 4187.400000
197.059500 27179.500000
198.055400 6397.400000
198.067300 11858.000000
199.075300 15787.900000
204.080800 3612.500000
208.075700 30921.000000
209.060000 5329.400000
210.091100 4843.000000
211.062800 9995.300000
211.099600 5968.800000
212.070500 13877.000000
213.091000 5321.900000
221.083200 6522.800000
222.054900 4400.500000
222.090900 31513.300000
223.038600 31628.000000
223.075400 21675.400000
223.099100 55882.200000
224.070500 127393.400000
224.106900 25091.400000
225.054500 49716.800000
225.079100 6194.300000
226.063100 7104.900000
226.086300 51939.200000
227.057700 4153.600000
232.076000 28196.200000
233.059900 7503.900000
233.083700 10679.700000
235.062200 21239.700000
236.070400 6474.400000
238.049300 6155.800000
238.086500 7222.500000
239.057900 31840.100000
239.094000 231149.700000
240.065500 127892.100000
240.101700 1314369.100000
248.071700 4108.200000
249.078400 18918.000000
250.086100 346899.300000
251.070100 17394.600000
251.094400 5324.900000
252.065300 268126.200000
253.072600 9544.600000
266.081000 311180.300000
267.088800 492213.100000
268.096600 818997.700000
270.075900 160867.700000
281.104200 23389.800000
284.091900 44454.600000
285.099300 210458.800000
286.107600 14598.500000
296.127900 437707.800000
314.138600 142243.900000

>ms2peaks
53.038600 8423.600000
55.017900 11584.500000
56.049500 5499.500000
58.065100 33616.500000
65.038500 159868.100000
67.054200 8199.300000
68.013000 9162.700000
68.049400 3819.400000
70.065100 11693.600000
72.080700 94803.900000
74.096500 4636.500000
77.038600 5473.200000
79.054200 26086.500000
80.049500 11490.400000
81.057300 6532.400000
82.065100 6789.300000
91.054200 107285.800000
92.049500 34557.700000
93.033500 73131.300000
93.057300 4850.800000
93.069900 51696.900000
94.041300 4258.000000
94.065100 4426.800000
95.049200 37371.000000
96.044400 8994.800000
96.080800 3981.500000
98.036200 4845.200000
98.096500 8874.500000
100.075600 3634.500000
103.054200 28201.400000
105.033500 46872.400000
105.069900 13754.900000
106.065100 5709.000000
107.049500 3153.000000
108.044300 5405.600000
108.080700 5094.500000
109.052200 117447.000000
109.064700 35423.000000
110.060000 238836.900000
111.044000 48082.300000
115.054200 6172.500000
118.065000 19729.300000
119.073000 10873.100000
120.044400 22644.200000
120.080800 74407.900000
121.028400 549738.600000
122.060000 353148.800000
123.080500 9219.900000
124.112100 9045.600000
129.069900 15802.200000
131.049200 8925.300000
133.028400 67906.200000
133.064700 16026.700000
133.088400 5196.800000
134.059900 8258.300000
134.096500 6611.900000
136.075700 160790.800000
137.083500 276237.800000
138.091300 786647.700000
139.054300 7624.500000
141.069900 22575.900000
146.059800 13349.600000
148.039300 29629.000000
149.023300 3049081.800000
150.091200 15058.100000
152.062100 10453.400000
153.069800 20075.200000
155.085500 4324.300000
157.064800 24297.800000
159.044000 15676.500000
163.038900 45560.300000
164.070600 262473.200000
164.107000 163733.600000
165.069800 12362.200000
166.122600 758423.800000
167.034000 19681.500000
167.049300 10686.700000
167.073100 7692.900000
167.085600 12254.100000
168.056900 9034.300000
168.080600 7386.700000
169.064800 21328.000000
171.043900 7365.900000
171.080100 7284.300000
177.069700 5847.600000
179.085700 5946.900000
180.056800 6881.900000
180.080600 10163.600000
181.049600 56296.000000
181.064600 45566.100000
182.059900 7753.100000
183.044300 6049.200000
183.067800 3852.600000
183.104000 4553.000000
184.052200 16181.700000
184.075200 4035.700000
185.059500 12379.800000
194.060500 5561.400000
194.072600 4789.600000
194.096500 32121.600000
195.044000 8722.100000
195.068100 12970.900000
195.080500 23592.700000
195.104300 36476.900000
196.051800 73410.400000
196.075500 41397.700000
197.059700 109997.700000
198.055000 41633.900000
198.067400 46566.900000
198.091000 6796.100000
199.038900 13883.600000
199.075600 10644.700000
204.080600 20389.800000
205.064600 14347.200000
206.060900 5715.800000
207.068500 3569.000000
208.075700 117227.200000
209.059500 20338.500000
209.082800 5722.600000
210.054700 17216.200000
210.066500 6356.400000
210.091300 27223.600000
211.062900 53259.400000
211.074200 6177.300000
212.046600 4872.600000
212.070500 43802.900000
220.075600 17597.700000
221.059300 3487.800000
221.083400 11748.700000
222.055100 28203.900000
222.091400 58317.600000
223.039000 61438.500000
223.075300 19638.200000
223.099100 31817.500000
224.070500 397950.300000
224.106200 32823.300000
225.054400 116110.400000
225.077500 16247.200000
226.049600 21835.600000
226.062600 11081.600000
226.086200 66290.600000
227.057400 4552.700000
228.041700 4179.000000
232.075600 50381.800000
233.083500 39965.500000
234.054700 9161.900000
235.062800 64715.300000
236.070600 21215.000000
238.049800 36741.900000
238.086200 42480.600000
239.057700 54935.100000
239.094100 184770.000000
240.065500 93356.900000
240.101800 1358799.500000
248.070400 20514.400000
249.078300 40149.900000
250.086200 208408.200000
251.070200 10120.800000
252.065400 706882.900000
253.073400 20606.300000
266.081100 615998.200000
267.088900 107123.200000
268.096600 151943.200000
270.076000 146026.000000
278.116600 3382.900000
281.104400 9745.800000
284.091900 8178.400000
285.099400 7147.900000
296.127600 31145.400000

>ms2peaks
53.002100 5755.000000
53.038500 20818.600000
54.033900 3883.700000
55.017900 21911.700000
56.049500 5391.400000
58.065200 41300.200000
65.038500 740190.600000
67.041600 4174.900000
67.054100 14781.200000
68.013000 26693.600000
68.049500 12795.500000
69.033300 6481.400000
70.065000 10595.700000
72.044300 7943.500000
72.080700 71143.000000
74.096400 4797.900000
77.038600 5797.900000
79.054200 34432.500000
80.049400 42956.200000
81.033500 5882.200000
81.057300 10834.500000
82.041200 17643.800000
82.065100 23461.500000
83.049200 6463.400000
91.054200 196908.500000
92.049500 65538.500000
93.033500 196407.200000
93.069900 37940.500000
94.041300 13663.900000
94.065100 24592.100000
95.049100 78750.000000
96.044300 12423.800000
96.080700 7327.900000
98.036300 20113.400000
98.096300 8340.700000
100.075700 3765.300000
103.054300 32671.400000
104.049500 8272.800000
105.033500 146467.000000
105.069900 19926.800000
106.065100 19225.500000
108.044300 39603.700000
108.080800 15397.900000
109.052200 218020.500000
109.064700 32757.500000
110.060000 195147.100000
110.096400 13476.200000
111.044000 195007.200000
115.054200 34684.900000
117.056900 3451.600000
118.065000 31989.400000
119.012800 10188.000000
119.072900 8470.000000
120.044200 20236.800000
120.080800 37640.000000
121.028400 990632.000000
122.060000 598504.100000
123.080400 10302.400000
124.112000 6355.400000
125.059500 5395.900000
128.062000 17896.000000
129.069900 41777.200000
131.049200 13090.600000
132.080800 4304.500000
133.028400 65973.000000
133.064700 4860.600000
134.060100 20311.500000
134.096400 12836.800000
135.067800 6450.000000
136.039400 13277.500000
136.075700 264807.000000
137.083500 153786.600000
138.091300 312102.500000
139.054100 56954.100000
140.049500 5381.800000
140.062300 10253.500000
141.069800 108608.100000
142.077700 6671.800000
143.049300 26745.700000
144.057100 4177.200000
145.064600 6202.800000
146.060000 13437.800000
148.039500 32758.900000
149.023300 1637520.600000
150.091200 34561.000000
152.062000 56828.000000
153.069800 79920.000000
154.065100 16930.700000
154.078200 4413.700000
155.049200 10830.500000
155.073000 8129.500000
155.085200 5998.500000
156.057000 7883.600000
156.080700 8406.300000
157.064800 37051.200000
159.044200 17060.900000
162.055500 4340.100000
163.039000 25911.500000
164.070500 377146.000000
164.107000 135586.100000
165.057400 3810.800000
165.069900 55691.600000
166.065200 25493.700000
166.122600 203243.100000
167.033800 10153.500000
167.049100 62824.400000
167.073200 33483.900000
167.085500 19621.700000
168.057000 61075.300000
168.080600 26388.000000
169.064900 42480.900000
170.036100 13391.600000
170.060000 12021.500000
171.044200 17865.900000
171.080000 6297.400000
176.062000 7467.600000
177.069700 15418.100000
178.065200 11346.700000
178.077800 10745.700000
179.048800 5615.700000
179.072700 5610.000000
180.044400 10407.000000
180.057300 18441.200000
180.080800 59014.000000
181.050200 34999.600000
181.064700 94370.100000
182.060000 43114.400000
182.096500 14823.900000
183.043800 26802.700000
183.067600 25777.300000
183.082000 3459.100000
183.104600 3919.900000
184.051800 63353.200000
184.075700 5482.100000
185.059200 16695.600000
192.080700 6496.200000
193.052000 7169.000000
193.065200 5037.600000
193.088700 9335.100000
194.060300 16119.300000
194.072000 7605.400000
194.096400 41158.100000
195.044100 55002.000000
195.068000 27450.200000
195.080400 16452.500000
195.104100 18452.600000
196.051900 123259.900000
196.075700 119861.900000
197.059700 196902.600000
198.055000 68916.900000
198.067400 27654.300000
198.091100 10435.900000
199.039000 16357.100000
204.080800 36508.900000
205.064800 7676.300000
206.060200 34111.700000
207.043600 5732.800000
207.067800 13649.100000
208.075700 185158.800000
209.059800 37734.700000
209.083300 10541.700000
210.055200 53554.500000
210.066600 5040.400000
210.091400 34773.400000
211.062700 107088.200000
211.074200 6504.100000
212.046600 10728.300000
212.070600 145813.400000
214.087800 4839.400000
220.075500 56128.100000
221.059700 8263.500000
221.083500 11988.000000
222.055000 42695.100000
222.091400 53442.800000
223.039000 106864.500000
223.063200 11671.900000
223.075000 9360.800000
224.070500 509734.500000
224.106300 36897.600000
225.054600 77234.300000
225.078200 51620.400000
226.049700 18407.600000
226.061600 5744.400000
226.086200 37398.400000
227.057700 7964.600000
228.041500 28785.700000
232.075600 42501.500000
233.083300 31029.400000
234.054900 61013.600000
235.062700 43841.600000
236.070300 18392.500000
238.050000 50619.300000
238.086100 67138.100000
239.057500 28281.800000
239.093600 31748.100000
240.101800 873010.200000
248.070800 27716.500000
249.078400 16187.200000
250.086100 36305.100000
251.057700 13246.800000
252.065400 467949.800000
253.073600 7538.100000
255.052700 11777.900000
266.081100 530852.200000
267.089600 8822.200000
268.096900 11362.300000
270.076200 18469.100000

>ms2peaks
53.002200 15469.600000
53.038700 31638.500000
54.033900 3461.900000
55.017900 32175.200000
55.054300 5678.900000
58.065100 25098.500000
65.038600 1579519.500000
67.041600 9762.300000
67.054200 21281.500000
68.013100 35433.900000
68.049400 11349.400000
68.997000 6607.200000
69.033500 10913.500000
70.065100 9401.100000
72.044300 5842.000000
72.080700 28352.700000
77.038700 8641.800000
78.033900 3967.300000
79.054200 26951.500000
80.049400 141153.300000
81.057400 19180.200000
82.041300 28874.800000
82.065100 32485.800000
83.049200 12491.200000
89.038700 6016.000000
91.054300 69247.300000
92.049400 76122.800000
93.033500 226303.600000
93.057200 18078.300000
94.041300 43391.500000
94.065200 41252.100000
95.049200 115448.100000
96.044400 13189.700000
96.080800 4096.900000
98.036300 26093.200000
103.054200 35080.900000
104.049400 20859.200000
105.033500 239510.100000
106.065100 34413.200000
107.049200 4922.900000
108.044400 144483.400000
108.080800 21561.600000
109.052300 232871.700000
110.060100 128970.500000
110.096500 10496.300000
111.044100 278036.800000
115.054200 158127.500000
118.065100 25457.800000
119.012800 33971.700000
119.073000 6292.300000
120.044600 23461.800000
120.080900 18952.100000
121.028500 753860.600000
122.060100 605503.600000
125.059800 5154.000000
127.054300 14598.300000
128.062100 55245.000000
129.069900 58750.100000
130.028800 6101.500000
131.049200 10053.700000
132.080900 7588.500000
133.028500 46167.700000
133.052500 3658.800000
134.060100 29826.500000
134.096400 12071.900000
135.068000 11168.400000
136.075800 243510.700000
137.083600 48416.500000
138.091400 88173.700000
139.054200 289205.700000
140.062100 38430.300000
141.069900 200038.900000
142.065400 6240.300000
142.077900 6328.700000
143.049200 46037.800000
144.056600 8591.100000
145.064900 22707.100000
146.060400 12055.400000
148.039400 29117.200000
149.023400 626498.800000
150.091600 35380.500000
151.054200 8744.400000
152.062100 156823.600000
153.069900 123490.100000
154.065200 61002.500000
154.078200 3850.000000
155.049200 22191.600000
155.073000 7904.600000
156.056900 18907.800000
156.080700 21177.700000
157.064900 37360.300000
159.044100 10727.400000
163.038900 7715.100000
164.070600 257678.700000
164.107000 51231.500000
165.069900 94704.100000
166.049600 15197.100000
166.065200 63978.100000
166.122400 25795.200000
167.049200 185480.400000
167.072900 72633.200000
167.085700 13183.500000
168.057000 124376.200000
168.080800 50657.700000
169.064900 118895.700000
170.036300 26201.500000
170.060100 15844.800000
170.072600 5323.800000
171.044100 20526.300000
176.062400 18344.700000
177.070100 17281.900000
178.065300 49343.200000
178.077900 7448.200000
179.049500 9635.400000
179.072900 8755.700000
180.044500 21407.600000
180.057000 24092.200000
180.080900 68467.500000
181.049700 14531.400000
181.064800 89016.400000
182.060200 61902.900000
182.072800 3927.500000
182.096600 13973.800000
183.044100 44488.500000
183.067800 41751.300000
183.081400 5443.800000
184.052000 132591.800000
184.075800 16376.600000
185.059900 11699.200000
190.065400 15767.600000
192.080900 15041.600000
193.052600 16035.700000
193.064800 7047.400000
193.089000 10343.800000
194.060200 29408.100000
194.096400 31494.700000
195.044300 112896.800000
195.067800 73880.900000
196.052100 172531.700000
196.075700 177040.800000
197.059800 220094.200000
198.055200 39352.100000
198.065800 6540.900000
198.091300 8586.800000
199.039100 5874.100000
204.080900 39040.400000
205.065000 9507.400000
206.060100 61194.100000
207.044100 7992.700000
207.068000 14003.800000
208.075800 112870.800000
209.059600 19544.000000
209.083700 10175.300000
210.055200 54457.800000
210.066200 4333.800000
210.091400 35260.600000
211.062800 109195.100000
212.070700 189830.500000
220.075600 71696.600000
221.048200 5385.200000
221.059900 10450.000000
222.054800 22050.300000
222.090900 27878.100000
223.039100 79261.400000
223.062700 55260.100000
224.070600 330197.600000
225.054700 29219.900000
225.078500 60766.100000
226.050100 11131.700000
226.062400 3170.300000
226.086300 12378.200000
227.057600 41254.900000
228.041700 103993.600000
232.075200 19226.200000
233.083600 12886.500000
234.055000 50800.000000
235.062800 21876.300000
236.070400 11295.300000
237.042100 15286.600000
238.049800 54325.900000
238.086400 37004.100000
239.058000 11741.700000
240.102000 267031.100000
248.070900 22858.900000
249.078800 5456.200000
250.085800 5781.300000
251.057600 15279.600000
252.065500 95151.700000
255.052800 53365.500000
266.081200 236638.600000

