>compound LU68356836
>parentmass 270.12550000000005
>ionization [M+H]+
>formula C14H20ClNO2
>rt 1092.480000
>profile orbitrap
#smiles_iso CCC1=C(C(=CC=C1)CC)N(COC)C(=O)CCl
#smiles_can CCC1=C(C(=CC=C1)CC)N(COC)C(=O)CCl
#inchikey XCSGPAVHZFQHGE-UHFFFAOYSA-N
#pubchem_id 2078
#mb_accession LU080301,LU080302,LU080303,LU080304,LU080305,LU080306

>ms2peaks
59.049200 9275.100000
95.012800 5039.500000
148.112200 8518.200000
162.127800 19991.800000
208.088700 6091.300000
220.089100 3028.500000
224.083800 41525.900000
238.099500 156159.400000

>ms2peaks
59.049200 26410.200000
90.010600 13083.800000
95.012800 32660.300000
131.085700 2655.700000
146.096000 3021.900000
147.103300 1935.100000
148.112100 42935.700000
149.096100 3146.700000
158.049700 11213.700000
162.127900 54514.000000
163.111400 8451.900000
174.090900 1731.500000
206.073200 5775.400000
208.088800 3983.800000
214.112200 17791.000000
220.088900 8613.700000
224.083900 45202.600000
238.099600 78352.200000

>ms2peaks
57.069900 2570.400000
59.049200 20362.100000
74.096400 3917.400000
76.978800 2149.300000
90.010600 17470.800000
95.012900 61205.800000
131.086100 2897.300000
132.080600 2689.700000
133.088700 5294.600000
134.096500 3068.300000
144.081400 2830.400000
146.096600 5270.100000
147.104500 10983.700000
148.112300 44548.700000
149.096200 6669.400000
158.049700 35527.400000
162.127900 60444.800000
163.112000 16028.600000
174.090900 1840.500000
206.073400 6756.900000
208.088200 1758.500000
214.112300 6775.000000
220.089100 5950.900000
224.083900 4634.300000
238.100100 10727.200000

>ms2peaks
57.070000 2736.500000
59.049200 10511.700000
74.096500 6776.200000
76.978800 4349.000000
90.010600 10567.900000
91.054500 2071.900000
95.012900 51175.300000
115.054100 2491.900000
120.080900 3361.100000
131.073100 2544.900000
132.080900 7895.600000
133.088800 20244.700000
134.096400 2983.700000
144.081200 2603.400000
146.096500 7779.800000
147.104400 28064.900000
148.112300 22331.800000
149.096300 3203.500000
158.049700 29718.900000
162.127900 30907.200000
163.111800 9718.800000

>ms2peaks
76.978900 1836.300000
90.010800 5348.400000
91.054300 2635.200000
95.012800 36489.600000
105.070000 1763.900000
119.073400 1816.200000
131.073000 2188.400000
132.080900 18425.500000
133.088600 11198.100000
134.096400 2280.200000
146.096700 5705.800000
147.104300 25361.600000
148.112200 1858.100000
158.049800 4524.300000
162.127900 10522.400000
163.111400 1676.700000

>ms2peaks
76.978900 2248.700000
90.010500 3186.600000
91.054300 3917.200000
95.012800 36099.500000
105.070100 2970.300000
115.054500 1802.800000
119.073000 3203.400000
120.080800 2097.000000
131.073100 2012.600000
132.080800 27809.500000
133.088800 4501.000000
144.080900 3688.500000
146.096600 7399.200000
147.104200 14255.800000
162.128100 2678.000000

