>compound LU68873027
>parentmass 230.1167
>ionization [M+H]+
>formula C9H16ClN5
>rt 1036.120000
>profile orbitrap
#smiles_iso CC(C)NC1=NC(=NC(=N1)Cl)NC(C)C
#smiles_can CC(C)NC1=NC(=NC(=N1)Cl)NC(C)C
#inchikey WJNRPILHGGKWCK-UHFFFAOYSA-N
#pubchem_id 4937
#mb_accession LU084201,LU084202,LU084203,LU084204,LU084205,LU084206

>ms2peaks
104.000700 22027.100000
146.022800 224588.100000
146.047800 19127.700000
152.118400 26252.600000
188.069800 2173200.500000
230.116700 18647434.000000

>ms2peaks
68.024200 33195.800000
79.005600 27068.800000
104.000900 103219.000000
110.046200 14820.500000
110.071300 56316.700000
146.022800 1396507.600000
146.047800 109907.600000
152.093100 13684.100000
152.118200 100897.900000
188.069800 6517260.500000
215.093400 13604.200000
230.116700 12931328.000000

>ms2peaks
53.002200 24028.800000
61.979300 14700.800000
68.024300 284414.200000
79.005700 326531.500000
85.076000 49399.300000
104.001000 835472.800000
110.046100 238746.700000
110.071300 277248.300000
146.022800 7906629.000000
152.093200 47909.000000
152.118200 107426.200000
174.053500 10056.100000
188.069700 7594410.500000
230.116700 2412668.500000

>ms2peaks
53.002200 43843.800000
61.979000 56162.700000
68.024300 1167588.400000
79.005700 1672723.200000
85.050900 15048.100000
85.076000 74670.200000
104.001000 2317698.500000
110.046100 1068160.600000
110.071200 177439.400000
121.053000 12059.500000
146.022700 10494554.000000
152.093200 41496.200000
188.069800 2251616.200000
230.116700 168017.600000

>ms2peaks
53.002200 59367.100000
61.979200 197729.700000
68.024300 2561660.800000
79.005700 3709363.500000
85.051100 23902.400000
85.076100 41746.800000
104.001000 3990000.200000
110.046100 1447535.800000
146.022800 6505798.500000
152.093200 11532.500000
188.069800 286592.600000
230.116900 7866.700000

>ms2peaks
53.002200 55077.800000
61.979200 526759.400000
68.024300 3440034.800000
74.096300 5898.300000
79.005700 3986754.800000
85.050700 21147.300000
85.076100 15093.800000
104.001000 3957179.200000
110.046200 882851.500000
146.022800 2185609.500000
152.093800 5675.400000
188.069800 24879.500000

