>compound LU68904873
>parentmass 393.2072
>ionization [M+H]+
>formula C22H29FO5
>rt 995.400000
>profile orbitrap
#smiles_iso C[C@H]1C[C@H]2[C@@H]3CCC4=CC(=O)C=C[C@@]4([C@]3([C@H](C[C@@]2([C@]1(C(=O)CO)O)C)O)F)C
#smiles_can CC1CC2C3CCC4=CC(=O)C=CC4(C3(C(CC2(C1(C(=O)CO)O)C)O)F)C
#inchikey UREBDLICKHMUKA-DVTGEIKXSA-N
#pubchem_id 9782
#mb_accession LU055201,LU055202,LU055203,LU055204,LU055205,LU055206

>ms2peaks
135.080200 2278.000000
147.080700 6795.800000
149.096500 2157.400000
153.091000 5523.400000
159.080600 2336.200000
161.096600 2180.800000
171.080500 3891.500000
215.107100 3360.400000
235.111200 3107.100000
237.127900 5828.000000
267.138000 2714.600000
277.158600 6883.400000
279.174400 19030.300000
309.185100 7411.000000
325.179200 4988.600000
337.180200 24670.800000
393.210000 10963.500000

>ms2peaks
95.085500 3960.400000
105.033500 2994.600000
107.085300 4957.900000
109.101200 1847.700000
119.085500 2424.100000
121.064700 3415.400000
121.101200 3786.600000
123.080800 2934.600000
131.085600 1839.100000
135.080500 7271.300000
147.080500 19186.300000
149.096200 4732.200000
153.091100 5913.900000
159.080600 4945.800000
161.096100 4517.300000
171.080700 13586.200000
173.096200 9335.100000
187.075300 3373.600000
187.111900 2384.800000
197.096600 3507.700000
211.112000 4951.900000
215.106700 3773.700000
223.112600 4136.800000
225.127700 2446.300000
235.112000 4631.300000
237.127800 10987.200000
249.127500 3268.400000
263.142700 5498.600000
267.138000 2093.500000
277.158800 6143.900000
279.174300 21886.200000
309.184700 2818.400000
325.179000 1889.400000
337.179800 4907.800000
393.209600 5379.300000

>ms2peaks
93.070000 4187.800000
95.085700 5587.100000
105.033700 4432.200000
105.070000 3103.500000
107.085600 10983.300000
109.064900 2032.100000
109.101300 5558.300000
117.069900 2258.200000
119.085600 8426.800000
121.064700 10125.400000
121.101200 4134.000000
123.080300 4245.300000
125.059800 2291.000000
131.085800 5190.800000
135.080500 8925.300000
143.085700 2902.000000
145.064900 3166.300000
145.101300 1982.800000
147.080600 32323.600000
149.095700 4438.100000
153.091100 2541.400000
159.080500 11528.800000
161.096400 5588.400000
171.080500 17350.000000
173.096200 8832.300000
185.096700 5307.500000
187.075000 2045.000000
187.111900 2082.700000
197.096300 6358.400000
199.111900 2459.900000
211.112100 5314.200000
215.106700 2565.100000
222.104400 3541.500000
223.112400 6515.900000
225.127600 2906.000000
235.111800 4378.300000
237.127700 6194.900000
263.143300 6240.600000
277.158900 3145.500000
279.174700 6221.100000

>ms2peaks
55.054400 2397.800000
67.054200 3020.900000
79.054300 2869.100000
91.054300 6433.300000
93.070100 3524.500000
95.049200 2628.000000
95.085600 3787.300000
105.033700 7500.700000
105.070100 7502.600000
107.085700 6269.400000
109.101400 3242.000000
119.085600 8270.900000
121.064800 9600.600000
121.101400 3148.000000
123.080600 2065.100000
125.059400 1770.800000
128.062200 5601.800000
129.069900 2714.600000
131.085700 3206.400000
135.080300 5427.600000
143.085900 4247.700000
145.064900 3703.100000
145.101300 2598.600000
147.080500 19826.000000
158.072700 3493.200000
159.080500 7382.100000
161.096300 2142.500000
171.080300 10090.400000
173.096100 5119.100000
185.097200 3154.000000
195.080900 2486.600000
197.096000 2480.400000
199.111700 2156.100000
209.096000 2947.200000
222.104400 4631.600000
235.111800 3932.000000
249.127800 2258.500000
263.142500 2973.300000

>ms2peaks
55.054300 1741.400000
67.054300 3414.900000
79.054300 3429.200000
91.054400 15131.300000
93.070400 4812.700000
95.049300 5552.000000
95.085800 3350.000000
105.033800 6690.600000
105.070000 11107.900000
107.085700 4545.600000
109.064900 2381.300000
115.054400 3179.200000
117.070200 2740.600000
119.085600 8881.800000
121.064900 11360.100000
128.062300 7370.700000
129.070100 3269.300000
131.085700 2654.100000
132.057400 3416.000000
135.080500 1838.200000
141.070200 4855.200000
143.086100 5273.100000
145.065000 4400.600000
147.080800 8812.500000
153.088800 1794.700000
158.072900 3510.500000
159.080800 5350.500000
167.085900 1987.200000
171.080600 4949.900000
178.077800 2740.300000
179.086100 2171.900000
181.065000 3285.900000
185.097200 2388.500000
195.080900 3050.300000
203.085700 1700.700000
209.096500 3129.900000
222.104000 3047.600000

>ms2peaks
55.054200 2148.200000
67.054300 5552.200000
79.054300 6655.600000
91.054200 25823.100000
93.070000 4480.900000
95.049200 7413.300000
105.070000 8969.200000
107.085300 1782.700000
109.064800 2016.700000
115.054300 8293.400000
117.070100 5238.500000
119.085700 6274.000000
121.064500 8271.100000
128.062000 15157.300000
129.069800 4075.300000
131.085400 2530.700000
132.057300 5722.400000
141.069900 3663.000000
143.085600 3044.000000
147.080700 4812.800000
158.072700 3859.500000
159.080400 1973.700000
167.085700 2511.900000
171.080600 4312.300000
178.078000 4718.300000
179.085900 5251.500000
181.064800 3501.000000
195.080400 2676.900000
203.086000 2836.600000

