>compound LU69274913
>parentmass 214.1087
>ionization [M+H]+
>formula C11H11N5
>rt 857.880000
>profile orbitrap
#smiles_iso C1=CC=C(C=C1)N=NC2=C(N=C(C=C2)N)N
#smiles_can C1=CC=C(C=C1)N=NC2=C(N=C(C=C2)N)N
#inchikey QPFYXYFORQJZEC-UHFFFAOYSA-N
#pubchem_id 4756
#mb_accession LU080101,LU080102,LU080103,LU080104,LU080105,LU080106

>ms2peaks
71.060400 56680.600000
95.049100 92729.900000
96.055300 47345.200000
105.044700 56626.800000
108.055500 49911.700000
122.058700 310369.400000
124.086900 481488.500000
166.108700 84883.300000
197.082400 82972.800000
198.090000 83116.700000
199.088100 67723.000000
214.111100 35424716.000000

>ms2peaks
53.038600 81725.800000
71.060300 235862.800000
77.038400 43130.300000
81.044600 34609.100000
93.057300 131389.000000
95.049100 242437.100000
96.055500 217191.100000
105.044800 143702.300000
107.060400 61478.700000
108.055600 122691.100000
109.063300 47513.800000
122.058700 1174245.000000
123.066400 44495.600000
124.086900 2109123.800000
166.108700 467989.900000
170.071400 61598.500000
197.082200 214160.200000
198.090000 195057.700000
199.088000 55063.700000
214.111100 32052626.000000

>ms2peaks
53.038600 182283.900000
54.033800 18128.900000
68.024200 529154.400000
71.060300 2086684.200000
77.038500 71282.800000
79.028900 13653.800000
80.036800 341005.000000
81.044700 133676.500000
82.052500 15881.100000
92.049500 46526.000000
93.057300 610598.900000
94.065100 54755.800000
95.049100 482795.000000
96.055600 2678027.500000
99.091600 12307.200000
105.044700 239114.000000
107.060300 131246.100000
108.055600 238777.200000
109.063400 166686.800000
110.071100 45454.400000
113.082100 58104.400000
115.054200 12963.500000
119.059700 10687.600000
121.050900 216302.800000
122.058700 3621868.000000
123.066400 103666.200000
124.086900 7278746.500000
138.077300 96102.700000
142.065300 10845.300000
166.108600 1551188.600000
169.075600 36488.800000
170.071200 145009.200000
180.055700 17973.900000
184.086900 16072.900000
187.098000 24155.900000
197.082100 325601.800000
198.089900 230623.600000
212.096000 26502.800000
213.101000 28293.200000
214.111400 10578955.000000

>ms2peaks
52.018200 34247.400000
53.026100 23577.000000
53.038600 165169.500000
54.033800 58111.100000
65.038600 16560.300000
66.046600 7818.200000
68.024300 3643423.200000
69.044800 9281.700000
70.039800 8840.400000
71.060300 4805376.500000
77.038500 100033.600000
79.029000 35942.000000
79.054100 8236.100000
80.036900 1763629.500000
81.033400 11263.200000
81.044700 223526.200000
82.052500 185782.500000
85.050900 25740.600000
92.049500 108724.500000
93.057300 1202171.800000
94.065300 77286.600000
95.049100 489279.800000
96.055600 7288704.500000
99.091700 17166.600000
105.044800 213142.200000
107.060400 136175.300000
108.055600 204108.300000
109.063500 407094.400000
110.046100 24528.200000
110.071300 64061.900000
113.082200 151952.200000
115.054300 29764.200000
121.050900 653188.500000
122.058700 3525049.000000
123.066400 113533.500000
124.086900 6001410.000000
138.077400 216932.100000
142.065100 11321.800000
153.044700 8487.800000
166.108700 954948.800000
168.067900 11612.000000
169.075800 12282.200000
170.071100 135308.800000
180.055700 33346.700000
184.086900 20191.400000
187.097800 18151.700000
197.082100 256016.000000
198.080200 12233.300000
198.090000 113921.900000
199.087800 9281.900000
212.095400 27882.000000
213.101000 16315.300000
214.111800 1620973.500000

>ms2peaks
52.018200 94134.100000
53.026000 80075.400000
53.038600 136034.700000
54.033800 111789.300000
65.038600 49462.200000
66.046300 38423.300000
68.024300 9148273.000000
69.044800 32752.200000
70.039900 20930.900000
71.060300 4952059.500000
77.038500 110051.200000
79.029000 71330.700000
80.036800 2956536.500000
81.044700 229627.000000
82.052500 577345.700000
85.050800 49966.600000
92.049500 146082.500000
93.057300 1432298.000000
94.040700 12924.900000
94.065100 60512.100000
95.049100 462706.900000
96.055600 6981352.000000
97.039600 17694.000000
99.091500 10433.000000
105.044700 190195.800000
106.039900 17861.800000
107.060400 73510.300000
108.055600 221732.000000
109.063400 537984.200000
110.046000 42853.200000
110.071100 51303.000000
113.082100 134710.200000
115.054200 40611.500000
119.060100 10998.400000
121.050900 768380.400000
122.058600 1468851.900000
123.066400 65040.300000
124.086900 2048590.100000
138.077300 159809.200000
143.060100 11430.800000
153.044600 22020.600000
166.108600 210687.700000
170.071000 72283.600000
180.055400 28538.800000
181.063500 16017.200000
184.086100 16953.500000
197.082100 160658.200000
198.090000 21624.800000

>ms2peaks
52.018200 207269.300000
53.026000 154417.900000
53.038600 120869.600000
54.033800 184156.200000
65.038500 118455.600000
66.046300 83689.200000
68.024300 12308877.000000
69.044600 52608.600000
70.040000 14603.900000
71.060300 3120783.500000
77.038500 119821.800000
79.029000 85186.900000
80.036800 2720552.000000
81.044700 240241.900000
82.052500 881920.200000
85.050700 38602.100000
92.049500 141444.700000
93.057300 1338186.500000
94.040300 14504.000000
94.065100 46084.500000
95.049100 384678.800000
96.055500 3287167.500000
97.039700 19777.900000
105.044700 148215.300000
106.040000 22152.800000
107.060300 37115.400000
108.055500 324008.000000
109.063400 371338.600000
110.046100 26685.500000
110.071200 37627.200000
113.082000 64425.900000
115.054200 34318.700000
121.050800 594865.100000
122.058600 392135.900000
123.066400 29677.000000
124.086900 345191.500000
138.077300 55563.300000
153.044800 25445.400000
166.108600 19077.400000
170.071200 32917.400000
180.055600 16639.900000
197.082200 84732.600000

