>compound LU69460370
>parentmass 358.0841
>ionization [M+H]+
>formula C19H16ClNO4
>rt 1112.460000
>profile orbitrap
#smiles_iso CC1=C(C2=C(N1C(=O)C3=CC=C(C=C3)Cl)C=CC(=C2)OC)CC(=O)O
#smiles_can CC1=C(C2=C(N1C(=O)C3=CC=C(C=C3)Cl)C=CC(=C2)OC)CC(=O)O
#inchikey CGIGDMFJXJATDK-UHFFFAOYSA-N
#pubchem_id 3715
#mb_accession LU103301,LU103302,LU103303,LU103304,LU103305,LU103306

>ms2
75.022700 3901.300000
110.999600 5197.000000
138.994500 2987040.000000
174.091300 623024.200000
202.086100 17174.800000
312.078900 35375.100000
358.084000 1375743.100000

>ms2
110.999200 11549.900000
129.010400 12723.100000
138.994600 4762308.500000
174.091400 216835.600000
202.087000 6727.700000
312.078300 10364.200000

>ms2
75.022600 12393.300000
86.999600 35578.500000
110.999400 19432.200000
111.044100 9993.700000
129.010100 112717.800000
131.072900 6290.300000
138.994500 5222772.000000
159.067900 19703.200000
174.091300 129540.200000

>ms2
50.015100 10595.700000
51.023000 13354.300000
53.002100 4493.200000
55.017800 4765.900000
74.014900 4852.900000
75.022800 42468.600000
79.017800 22050.400000
86.999600 131767.100000
93.033500 21243.600000
94.041300 18229.300000
98.035900 4417.500000
110.999400 44385.400000
111.044100 58557.800000
114.994500 14660.200000
125.060000 5547.400000
128.002500 10991.800000
129.010100 447549.900000
131.073000 33250.300000
138.994700 3755708.000000
139.004400 947545.500000
140.002600 7839.300000
159.067800 33545.800000
174.091300 56412.100000

>ms2
50.015100 20218.000000
51.023000 30055.900000
53.002200 15176.200000
55.017900 10248.600000
62.963200 5315.800000
65.038500 9722.300000
74.014900 13573.200000
75.022900 156661.200000
79.017800 29834.700000
80.025500 4859.700000
84.984000 6892.500000
86.999600 216925.600000
88.979000 4130.000000
93.033500 26391.700000
94.041300 23945.400000
98.036200 7114.600000
108.020500 3004.900000
108.056800 3816.300000
110.999500 88369.900000
111.044100 94315.100000
114.994500 22916.100000
121.039800 14428.200000
128.002400 20979.700000
129.010100 725798.600000
131.073000 40094.200000
138.994900 1623971.100000
139.005300 1465913.200000
140.002700 10428.500000
159.068000 17161.700000
174.091100 10694.900000

>ms2
50.015100 25100.600000
51.023000 33863.400000
53.002200 56013.900000
55.017900 14013.600000
62.963200 6631.100000
65.038600 23136.600000
74.015100 49025.100000
75.022900 632212.600000
76.030700 3575.800000
79.017800 46865.900000
80.025600 6008.700000
84.984000 34136.100000
86.999600 331901.700000
88.978800 5163.200000
93.033600 36079.600000
94.041400 35437.300000
98.036400 12286.700000
107.049100 5521.900000
108.020600 4864.800000
108.057000 2755.300000
110.999600 236717.700000
111.044100 119569.200000
114.994600 28701.600000
121.039800 14960.100000
125.060000 10714.800000
128.002500 32550.000000
129.010200 1061777.600000
131.073000 54575.100000
138.995200 711469.100000
139.005600 1897100.400000
140.002800 11412.200000
159.067700 9066.100000

