>compound LU69805130
>parentmass 360.0373
>ionization [M+H]+
>formula C12H8F3N5O3S
>rt 838.440000
>profile orbitrap
#smiles_iso COC1=NC=C(C2=NC(=NN21)S(=O)(=O)NC3=C(C=CC=C3F)F)F
#smiles_can COC1=NC=C(C2=NC(=NN21)S(=O)(=O)NC3=C(C=CC=C3F)F)F
#inchikey QZXATCCPQKOEIH-UHFFFAOYSA-N
#pubchem_id 11700495
#mb_accession LU038601,LU038602,LU038603,LU038604,LU038605,LU038606

>ms2
129.038400 1412533.400000
144.025600 16296.100000
145.033400 55842.400000
191.992500 170085.000000
296.075500 53643.500000
360.037200 5026922.500000

>ms2
57.013500 14201.800000
84.024400 88208.900000
104.030700 14773.100000
112.019300 9110.400000
114.999100 10059.700000
115.030400 15290.900000
127.030500 10287.200000
128.030800 73773.900000
129.038400 6737657.500000
132.025700 9201.100000
143.049300 12344.800000
144.025600 208002.000000
145.033400 93424.400000
146.041500 18602.000000
169.052100 10303.700000
191.992600 288571.100000
196.031800 11684.400000
261.046000 9558.500000
296.075500 117284.400000
360.037400 242869.700000

>ms2
57.013400 13613.800000
74.040000 9444.100000
77.019700 7084.400000
82.028700 8392.000000
84.024400 67860.500000
99.035300 8267.500000
101.051000 8387.600000
104.030600 17528.800000
108.024500 10169.900000
109.032200 18593.700000
112.019400 6521.500000
114.046300 11371.500000
114.999000 9610.000000
115.030300 25693.800000
126.035200 8168.400000
127.030400 13004.200000
128.030800 78636.300000
129.038400 6348003.000000
140.030600 8569.600000
144.025600 225977.500000
145.033300 40754.800000
146.041300 24698.400000
155.041500 9303.900000
168.036900 18210.300000
191.992700 17043.600000
196.031900 13425.200000
261.046200 9470.300000
296.075400 6982.700000

>ms2
57.013400 14328.500000
63.022900 7691.100000
74.003500 13253.100000
74.040000 8097.600000
84.024400 48892.400000
89.025900 10459.800000
99.035200 9530.200000
101.019700 23864.900000
101.051000 10338.800000
102.027600 29408.100000
104.030700 13891.500000
108.024400 40046.400000
109.032300 149322.100000
114.046200 13189.300000
115.030300 23436.000000
124.019400 9218.800000
126.035200 31690.800000
127.030300 9410.500000
128.030800 76886.800000
129.038400 7234767.000000
144.025500 216037.700000
145.033300 32360.500000
146.041400 26437.000000
155.041600 7347.900000

>ms2
52.018300 9841.900000
53.002300 10845.100000
57.013500 31681.600000
62.015100 33534.100000
63.022900 22007.000000
72.024300 10008.600000
72.036900 8233.600000
74.003600 18837.500000
74.040000 12677.000000
78.033800 8899.500000
79.041700 8433.800000
81.013400 25311.000000
82.021300 57830.400000
84.024400 23828.300000
89.026100 61140.100000
98.036200 12305.600000
99.024000 7610.800000
99.035300 8388.400000
101.019800 65413.700000
102.027600 129548.700000
108.024400 82568.600000
109.032300 652435.400000
114.046300 10188.700000
115.030400 13557.600000
116.030700 17972.900000
124.019400 26209.300000
126.035100 52517.600000
127.042900 10448.700000
128.030800 56070.000000
129.038400 6791271.500000
144.025600 128119.100000
145.033300 24520.900000
146.041400 23916.900000
148.030400 6998.400000
154.033700 7356.800000
155.041500 8590.100000
168.036700 20084.900000
170.023500 6998.100000

>ms2
52.018200 16923.600000
52.030800 12834.300000
53.002200 23805.600000
54.033800 5816.400000
57.013500 74417.200000
62.015100 108288.300000
63.022900 86568.400000
65.025900 18200.400000
72.024400 7793.600000
72.037000 28847.800000
74.003600 17564.200000
76.018200 8313.500000
77.019700 6926.400000
78.033700 15507.600000
79.017900 16576.900000
79.041600 25187.100000
80.025700 17324.500000
82.021300 180602.400000
84.024500 8252.600000
85.032200 8795.100000
89.026000 180144.100000
97.019700 8276.200000
98.036300 40494.100000
98.039900 4872.500000
99.024100 21441.000000
100.032000 26991.100000
101.019800 121309.000000
102.027600 268759.400000
104.013100 7501.300000
106.028900 7114.200000
107.036600 12365.000000
108.024400 107068.900000
109.032300 1317960.200000
116.030600 20460.800000
123.035300 5350.000000
124.019400 34356.300000
126.035200 53012.000000
127.043000 16374.200000
128.030700 29731.300000
129.038400 4758291.500000
139.041500 6513.200000
141.025700 9331.100000
141.058300 5179.700000
144.025600 61372.100000
145.033400 11027.200000
146.041200 7356.500000
148.030500 6625.200000
150.045800 4842.100000
154.033900 5402.000000
161.038000 6423.500000
168.036700 9040.400000

