>compound LU69718066
>parentmass 253.0309
>ionization [M+H]+
>formula C10H9ClN4S
>rt 823.200000
>profile orbitrap
#smiles_iso C1CSC(=NC#N)N1CC2=CN=C(C=C2)Cl
#smiles_can C1CSC(=NC#N)N1CC2=CN=C(C=C2)Cl
#inchikey HOKKPVIRMVDYPB-UHFFFAOYSA-N
#pubchem_id 115224
#mb_accession LU005201,LU005202,LU005203,LU005204,LU005205,LU005206

>ms2
126.010500 1758081.900000
128.026100 7962.000000
151.005700 13647.400000
186.013900 564331.100000
193.027400 12592.800000
211.009100 64438.200000
217.054200 66341.300000
226.020000 99679.500000
236.004300 30704.800000
253.030900 7076751.500000

>ms2
90.033800 13597.000000
98.999700 7502.000000
103.032400 8061.100000
126.010500 7261873.500000
128.026100 16136.400000
151.005600 57193.500000
157.050800 17999.200000
186.013900 868064.000000
190.043300 20483.300000
193.027700 27426.500000
194.048100 17413.100000
205.027500 10915.100000
211.009100 94575.700000
217.054200 88865.200000
226.020000 132172.000000
236.004300 53945.500000
253.030800 2994347.500000

>ms2
63.023000 10942.000000
72.983500 16487.800000
81.033500 24493.300000
90.033800 124517.200000
91.041600 23050.400000
98.999600 49387.600000
126.010400 10693783.000000
128.026200 13790.700000
144.021000 71203.100000
151.005700 55926.200000
157.051100 19548.900000
186.013900 155528.800000
190.043100 15644.700000
193.027400 13696.200000
211.009200 45718.000000
217.054400 27511.100000
226.019800 47258.400000
236.004200 24501.900000
253.030800 195953.800000

>ms2
61.010600 10396.000000
63.022900 45966.000000
65.038500 17332.200000
72.983800 39494.100000
80.049400 24238.200000
81.033500 147314.200000
90.033800 703466.900000
91.041600 112520.000000
98.999600 371859.400000
108.044400 70100.400000
126.010400 9627240.000000
144.021000 236115.200000
151.005800 37017.900000
211.009200 12532.900000

>ms2
63.022900 175782.800000
64.018100 16435.500000
65.038500 51262.500000
72.983800 188382.600000
74.999600 7194.300000
80.049400 60874.700000
81.033400 381593.300000
90.033800 1665148.000000
91.041600 356308.400000
98.999500 1299232.000000
108.044300 202925.600000
123.994800 9170.400000
126.010400 7052293.500000
144.021000 358163.500000
151.005700 27246.800000

>ms2
58.995000 10265.500000
61.010600 6536.700000
62.015100 8239.800000
63.022900 454119.200000
64.018100 53285.000000
64.030700 6266.700000
65.038600 92950.100000
72.983900 732822.900000
74.999600 21106.300000
80.049500 89181.000000
81.033500 535022.200000
90.033900 2224595.200000
91.041700 613257.400000
95.049200 14169.600000
98.999600 2465162.800000
106.028600 4525.800000
108.044400 248393.700000
123.995000 9211.000000
126.010500 3934309.800000
144.021100 290443.200000
151.005500 13610.500000
166.016300 4413.200000

