>compound LU69920140
>parentmass 206.13999999999996
>ionization [M+H]+
>formula C10H15N5
>rt 600.060000
>profile orbitrap
#smiles_iso C1=CC=C(C=C1)CCN=C(N)N=C(N)N
#smiles_can C1=CC=C(C=C1)CCN=C(N)N=C(N)N
#inchikey ICFJFFQQTFMIBG-UHFFFAOYSA-N
#pubchem_id 8249
#mb_accession LU021001,LU021002,LU021003,LU021004,LU021005,LU021006

>ms2
60.055600 8516666.000000
85.050800 95585.600000
105.069800 216068.900000
122.096400 47214.500000
147.091500 53963.000000
164.118300 273200.000000
189.113600 250971.600000
206.140000 16680391.000000

>ms2
60.055600 12630884.000000
85.050800 192344.000000
105.069900 561560.900000
122.096400 62317.000000
147.091600 119002.000000
164.118300 480964.600000
189.113500 429626.100000
206.140000 9607562.000000

>ms2
60.055600 18855284.000000
85.050900 508071.400000
105.069900 3141860.800000
122.096400 96529.800000
130.065000 71734.000000
147.091600 232035.900000
164.118300 985608.600000
189.113500 529526.900000
206.140100 1328798.200000

>ms2
60.055600 15531102.000000
68.024300 58160.900000
79.054200 141824.800000
85.050900 554273.800000
95.049100 19253.400000
103.054300 109541.300000
105.069900 6380215.000000
120.080700 17968.400000
122.096400 36151.300000
130.065100 167691.500000
147.091700 146819.700000
164.118300 449158.000000
189.113500 160466.900000
206.140300 58202.700000

>ms2
53.038600 31858.800000
60.055600 10185846.000000
68.024300 110631.400000
77.038300 28426.800000
79.054200 591411.800000
85.050900 379041.700000
86.058700 32025.600000
95.049100 108448.000000
103.054200 478569.700000
105.069900 6729973.500000
130.065100 200300.400000
147.091500 39763.600000
164.118200 68358.700000
189.113300 26366.800000

>ms2
53.038600 165212.600000
60.055600 7773204.500000
68.024300 198321.100000
72.055300 7973.600000
77.038500 95642.100000
79.054200 1671910.600000
85.050900 289043.100000
86.058700 33899.800000
95.049100 509896.000000
99.066700 14988.300000
103.054300 1345157.000000
105.069900 6706805.000000
130.065200 158468.900000

