>compound LU69130491
>parentmass 343.0529000000001
>ionization [M+H]+
>formula C12H14N4O4S2
>rt 909.840000
>profile orbitrap
#smiles_iso COC(=O)NC(=S)NC1=CC=CC=C1NC(=S)NC(=O)OC
#smiles_can COC(=O)NC(=S)NC1=CC=CC=C1NC(=S)NC(=O)OC
#inchikey QGHREAKMXXNCOA-UHFFFAOYSA-N
#pubchem_id 3032791
#mb_accession LU080501,LU080502,LU080503,LU080504,LU080505,LU080506

>ms2
74.005900 2958.900000
76.039300 9682.300000
85.970000 7235.200000
109.076200 3956.300000
117.995900 9083.000000
134.071400 7234.600000
151.032500 2095879.100000
160.050600 19676.300000
192.076800 128407.400000
194.038300 61943.200000
209.038000 35278.900000
219.033400 19536.600000
226.064500 489682.100000
235.994800 121265.300000
251.059900 111675.600000
268.021000 489408.600000
277.039000 42093.700000
279.000700 43296.500000
311.026900 1006881.200000

>ms2
74.005900 110189.600000
76.039300 76093.400000
85.969500 124066.300000
93.057400 7391.000000
109.076100 63991.200000
117.995700 123103.200000
134.071300 34146.800000
135.055300 29343.100000
149.016800 38957.900000
150.024400 5135.000000
151.032500 4552670.500000
160.050500 149583.700000
174.065900 5850.500000
176.027900 15050.300000
177.011700 30298.200000
190.043600 5666.700000
192.076700 159167.500000
192.989300 20580.100000
194.038300 122726.200000
209.038500 19783.800000
219.033600 90532.500000
226.064400 19165.500000
235.994800 163370.800000
245.012900 23150.500000
251.059600 41984.800000
268.021000 56140.200000
277.039200 34340.400000
279.000600 25705.500000
311.026500 30533.400000

>ms2
65.038500 4646.300000
74.005800 321740.100000
76.039300 118478.200000
85.969500 327866.800000
92.049500 14933.700000
93.057300 85430.800000
107.060300 13976.500000
109.076100 154546.000000
117.995700 121745.400000
118.052500 28376.000000
119.060400 16437.800000
134.071300 44344.600000
135.055300 51958.500000
149.016900 89540.400000
150.024500 6254.000000
151.032400 4064087.200000
160.050500 281080.900000
174.066200 6332.100000
176.027600 13985.000000
177.011600 37176.500000
190.043300 17843.800000
192.076800 39249.800000
192.988900 43774.800000
194.038200 18398.500000
202.007000 7629.400000
219.033400 18479.800000
235.994500 17344.700000
245.012700 7094.300000
253.049700 4173.900000

>ms2
57.974700 3100.900000
65.038500 10889.000000
74.005800 344263.300000
76.039300 106262.200000
85.969500 373861.600000
92.049500 92778.000000
93.057300 386300.200000
107.060400 46071.000000
109.076000 165453.400000
110.060100 3139.900000
117.995600 61341.300000
118.052500 144172.000000
119.060400 64452.700000
122.005900 6133.800000
124.021700 5502.100000
132.055800 6619.200000
134.071300 41288.600000
135.013900 6346.200000
135.055200 30194.400000
146.071500 4945.600000
149.016900 141688.100000
150.024600 15909.200000
151.032400 2941544.200000
160.050500 283543.100000
174.011600 3363.800000
175.019800 11811.600000
176.027800 9284.000000
177.011600 26872.400000
186.029800 4061.300000
188.045200 5235.700000
190.043400 5398.700000
192.076900 4225.600000
192.989100 31657.100000
202.007000 7641.900000

>ms2
57.974600 7193.500000
58.982400 9095.900000
59.990200 3301.200000
65.038500 60038.500000
66.046500 2698.300000
74.005800 315001.700000
76.039300 82410.600000
80.049400 16390.100000
82.065200 4601.800000
85.969500 469115.700000
90.033900 5802.700000
91.041700 3397.400000
92.049500 288345.100000
93.057300 926897.600000
105.044600 15664.700000
107.060400 66220.300000
108.068300 6489.000000
109.076000 145200.900000
110.060100 7945.600000
117.044800 7293.500000
117.995700 24950.600000
118.052500 419829.200000
119.060400 149230.600000
122.005900 35955.700000
124.021700 14858.600000
124.075400 4391.100000
132.055500 43560.300000
133.063600 6441.000000
134.005800 7375.100000
134.071400 25165.800000
135.013500 18687.600000
135.055200 22666.300000
143.048100 2613.500000
146.071600 3310.000000
149.016800 175543.500000
150.000700 6809.200000
150.024700 30438.200000
151.032400 1893869.100000
160.050500 245462.100000
174.011700 5627.000000
175.020000 15496.800000
176.027700 4260.700000
188.045800 5614.200000
192.988800 14590.500000
202.006900 4514.000000
253.049500 6359.600000

>ms2
57.974600 15583.400000
58.982400 12818.400000
59.990300 2978.300000
65.038600 223327.400000
66.046400 18004.200000
74.005800 219029.100000
76.039300 46228.700000
80.049500 36856.500000
82.065200 4676.800000
85.969500 449692.000000
90.033900 31222.500000
91.041600 20855.700000
92.049500 438133.300000
93.057300 1126344.100000
105.044800 47890.000000
107.060400 58965.400000
108.068100 7341.100000
109.076000 64268.300000
110.060000 9387.100000
117.044700 6930.300000
118.052500 613053.400000
119.060400 172233.500000
122.005900 94723.700000
124.021600 18659.900000
124.075700 8659.600000
132.055700 73537.100000
133.063500 9215.100000
134.005700 11953.000000
134.071500 17604.200000
135.013700 17533.800000
135.055300 17250.800000
143.047500 2681.700000
149.016900 134243.100000
150.000900 8641.200000
150.024800 30771.400000
151.032400 809720.700000
160.050600 147509.100000
174.011900 5309.500000
175.019500 10995.200000
177.011700 5339.000000
188.045200 3129.700000
192.988600 3333.700000

