>compound LU69304974
>parentmass 315.2319
>ionization [M+H]+
>formula C21H30O2
>rt 1125.840000
>profile orbitrap
#smiles_iso CC(=O)[C@H]1CC[C@@H]2[C@@]1(CC[C@H]3[C@H]2CCC4=CC(=O)CC[C@]34C)C
#smiles_can CC(=O)C1CCC2C1(CCC3C2CCC4=CC(=O)CCC34C)C
#inchikey RJKFOVLPORLFTN-LEKSSAKUSA-N
#pubchem_id 5994
#mb_accession LU055001,LU055002,LU055003,LU055004,LU055005,LU055006

>ms2
83.049200 11344.900000
85.064700 11816.700000
97.064800 324085.400000
109.064700 140340.100000
123.080100 13393.600000
215.142900 8344.600000
215.179200 8272.300000
219.174400 6365.500000
229.158700 5098.100000
233.189500 13377.800000
239.179000 10568.600000
241.158900 5400.100000
245.190100 8470.500000
255.211300 13798.600000
273.221000 14820.900000
279.211000 27724.100000
297.221300 142054.000000
315.231800 4808258.000000

>ms2
67.054100 2654.900000
69.069900 3385.300000
71.049000 4362.800000
79.054100 16089.700000
81.069900 31418.500000
83.049100 69380.500000
85.064800 81247.600000
91.054000 2880.000000
93.069800 10935.800000
95.085500 35497.300000
97.064800 1775701.400000
99.080400 4532.000000
105.069700 11410.200000
107.085600 25289.300000
109.064800 1239818.500000
111.080400 5975.100000
113.096100 4746.600000
119.085600 21295.800000
121.064800 8112.000000
121.101100 41238.700000
123.080400 104970.000000
123.116800 6689.400000
125.096100 3013.400000
131.085500 14337.100000
133.101100 27738.700000
135.080400 4952.700000
135.116700 21830.300000
137.096000 29531.800000
137.132400 4906.800000
143.085800 6109.400000
145.101200 28843.200000
147.116800 31882.700000
149.096200 9504.700000
149.132300 12581.300000
151.111800 12675.300000
157.101100 13942.400000
159.080700 2477.500000
159.116800 39905.700000
161.095800 3121.300000
161.132400 21381.800000
163.111700 33192.800000
163.148000 6947.000000
165.127500 8022.200000
169.100900 6054.200000
171.116700 26166.000000
173.132400 40794.100000
175.111900 9632.100000
175.148100 15046.300000
177.127400 50273.000000
179.143300 5832.400000
183.117100 10145.100000
185.132600 16364.600000
187.111900 12390.900000
187.147900 25137.500000
189.127300 34528.100000
189.163600 14132.800000
191.142800 22049.800000
195.117300 3037.900000
197.132300 15965.400000
199.148100 19599.800000
201.127300 7008.300000
201.163700 36882.300000
203.143300 10084.500000
209.132600 11831.400000
211.147900 10215.900000
213.127000 2917.400000
213.163900 29169.000000
215.142800 22175.100000
215.179300 40476.300000
217.158700 5482.400000
219.174700 11103.900000
223.148000 18682.400000
225.163900 5143.100000
227.143100 6771.900000
227.179500 28070.800000
229.158600 21217.700000
231.174400 8661.800000
233.190100 17904.500000
237.164100 8605.200000
239.179400 49698.800000
241.158900 21903.200000
245.190000 22100.200000
251.179900 7050.800000
253.194900 24969.800000
255.174500 9936.500000
255.210600 70910.600000
257.189400 11483.500000
269.190300 7413.700000
271.205700 10215.600000
273.221200 40969.600000
279.210700 99011.800000
297.221400 275285.900000
315.231900 942786.300000

>ms2
53.038600 5026.300000
55.017800 13619.200000
55.054300 9790.900000
57.033400 2840.300000
67.054100 25841.000000
69.033600 4516.200000
69.069800 28736.700000
71.049100 22608.100000
79.054200 90853.000000
81.069900 126999.900000
83.049100 99135.100000
83.085600 6100.000000
85.064800 77890.500000
91.054200 24781.600000
93.069900 60091.600000
95.049300 7978.300000
95.085500 96712.600000
97.064800 2528907.800000
99.080500 4417.200000
105.069900 57317.600000
107.049100 9584.500000
107.085600 67911.400000
109.064800 2304891.800000
111.080400 10497.600000
113.096100 3659.300000
117.069700 13084.700000
119.085500 77564.000000
121.064900 23823.000000
121.101100 76647.000000
123.080400 201901.400000
123.116800 10797.200000
125.096300 3530.500000
129.070000 7944.000000
131.085500 47396.600000
133.101100 77982.800000
135.080400 7958.700000
135.116700 35416.300000
137.096200 33412.600000
137.132400 5690.400000
143.085500 21649.200000
145.101100 73026.500000
147.080300 6299.600000
147.116800 70961.600000
149.096100 25032.300000
149.132500 28276.000000
151.111900 11415.800000
155.085400 5614.500000
157.101200 41184.000000
159.116800 81863.800000
161.095900 5126.100000
161.132500 42669.200000
163.111700 39900.600000
163.148000 11806.500000
165.127400 2955.000000
169.101000 15497.100000
171.116700 40141.700000
173.132500 67424.000000
175.111800 9088.800000
175.148200 20658.900000
177.127400 51304.300000
179.142400 3332.400000
181.101500 3051.100000
183.116800 22247.000000
185.132700 26786.800000
187.111700 6630.000000
187.148100 30848.700000
189.127500 23576.500000
189.163600 10512.300000
191.143000 16820.700000
195.116800 9698.100000
197.132500 23540.000000
199.148300 26403.500000
201.127100 4382.400000
201.163700 24527.600000
203.143100 5735.900000
209.132000 9791.000000
211.148400 14401.600000
213.164000 26608.000000
215.143000 7441.300000
215.179300 21382.500000
217.158400 3552.800000
223.148500 18918.100000
225.163600 3370.300000
227.142900 4353.100000
227.179700 18841.000000
229.158500 9381.300000
231.174100 4597.200000
237.163600 7548.900000
239.179600 35588.600000
241.158700 7551.500000
251.179200 3426.600000
253.195200 11819.600000
255.174600 6568.900000
255.210600 40493.200000
257.189500 8444.200000
269.190200 3131.900000
271.205100 2917.300000
273.220700 9426.900000
279.210900 31125.200000
297.221100 41137.000000
315.231500 26273.200000

>ms2
53.002200 5231.800000
53.038600 9612.600000
55.017900 26868.600000
55.054200 19010.600000
57.033700 2618.800000
65.038600 9011.200000
67.054200 69732.900000
69.033400 7968.000000
69.069800 59150.700000
71.049200 22038.400000
79.054200 244579.000000
81.069900 254655.100000
83.049100 88146.200000
83.085600 6764.800000
85.064800 33189.900000
91.054200 71020.900000
93.069900 102517.300000
94.041300 7619.600000
95.049200 24664.100000
95.085600 119157.600000
97.064800 1919038.400000
103.054100 3049.100000
105.069900 90503.800000
107.049000 13526.300000
107.085600 66615.000000
109.064800 1895069.600000
111.080400 10206.500000
117.070000 19954.000000
119.085600 79356.000000
121.064800 20553.900000
121.101200 45679.300000
123.080500 191608.300000
128.061800 3546.500000
129.069900 15601.500000
131.085600 60126.200000
133.101200 58284.800000
135.080400 3578.700000
135.116900 19562.600000
137.096100 12360.900000
142.077800 5398.100000
143.085600 27445.700000
144.093300 5574.700000
145.101200 67409.000000
147.080200 4417.300000
147.116800 37335.200000
149.096500 13247.600000
149.132400 14315.900000
155.085400 8090.300000
156.093300 6168.200000
157.101200 36131.700000
158.108800 4003.900000
159.116800 62206.900000
161.096000 4991.900000
161.132300 18972.000000
163.111800 22110.000000
163.148100 4400.600000
168.092800 2350.900000
169.101400 10434.900000
171.116800 28208.200000
173.132600 30799.400000
175.112400 3734.400000
175.148000 4970.600000
177.127100 7411.800000
181.100900 4675.100000
182.109300 2741.000000
183.117200 13405.900000
185.132900 13599.000000
187.148200 11242.800000
189.127200 4515.700000
189.163800 3502.600000
195.116900 6461.800000
197.132300 7670.900000
199.147900 12514.800000
201.163500 6291.000000
209.132300 7199.600000
211.147700 4979.800000
213.163300 7980.700000
215.179500 3675.000000
223.148100 3760.300000
237.163700 2944.000000
239.178800 6943.200000
253.194200 3058.700000
255.210000 2471.500000

>ms2
53.002200 13549.700000
53.038600 33576.300000
55.017900 56627.600000
55.054200 43619.900000
57.033500 8466.800000
65.038600 19583.500000
66.046300 7500.400000
67.054200 151933.400000
69.033500 14582.200000
69.069800 94928.800000
71.049100 24786.100000
77.038500 5293.100000
79.054200 513192.400000
81.069900 446344.100000
83.049100 86503.700000
83.085400 4511.700000
85.064800 12590.900000
91.054200 166868.200000
93.069900 125218.200000
94.041300 16584.000000
95.049200 56006.700000
95.085500 129866.800000
97.064800 1552701.000000
103.054100 6371.900000
105.069900 138937.900000
107.049200 24950.800000
107.085500 58715.800000
108.056800 6782.700000
109.064800 1429803.100000
111.080300 5359.600000
115.054200 9254.100000
117.069900 32095.000000
119.085500 80032.500000
121.064700 20583.300000
121.101200 25483.400000
123.080400 163631.200000
128.062000 8563.100000
129.069800 26392.000000
130.077700 12313.100000
131.085500 67214.600000
133.101100 34634.000000
135.080500 3876.700000
135.116800 7802.200000
137.096100 3782.000000
141.069900 4477.600000
142.077500 12364.100000
143.085400 28286.600000
144.093300 10129.600000
145.101100 46877.700000
147.116800 21089.700000
148.088100 5979.000000
149.096100 8395.500000
149.132500 3239.600000
155.085600 10426.600000
156.093400 9875.000000
157.101300 21876.900000
158.108900 6320.300000
159.080700 2853.300000
159.116900 22665.900000
161.132500 5258.700000
163.111800 10389.600000
165.070000 6241.100000
166.077200 4389.400000
167.085800 3911.200000
168.093200 5798.600000
169.101200 10962.400000
171.116700 15397.100000
173.132500 7835.700000
177.127000 4095.500000
181.101200 4454.300000
182.109200 3027.400000
183.116700 5880.600000
185.132200 5127.300000
187.148000 2313.800000
195.116700 4589.400000
197.132600 5397.700000
199.148400 2752.400000
223.148000 3014.100000

>ms2
53.002200 27192.900000
53.038600 85611.200000
55.017900 103461.800000
55.054200 69447.000000
57.033600 14554.600000
65.038600 55155.100000
66.046300 9196.900000
67.054200 192309.500000
69.033500 23775.300000
69.069900 128888.700000
71.049100 15301.900000
77.038500 12960.600000
79.054200 708876.200000
81.069900 529693.500000
83.049100 66378.200000
85.064900 5643.800000
91.054300 267782.500000
93.069900 107216.000000
94.041300 33875.300000
95.049200 114920.600000
95.085600 104081.200000
97.064800 1081475.400000
103.054200 14387.500000
105.069900 162214.100000
107.049100 23124.400000
107.085500 36549.900000
108.057000 8622.500000
109.064800 882812.800000
111.080400 3139.400000
115.054300 16375.800000
117.069900 43631.600000
119.085600 59535.200000
121.064800 21608.400000
121.101200 9615.200000
123.080400 90875.200000
128.062100 23013.400000
129.069900 37420.500000
130.077700 13617.800000
131.085600 47194.900000
133.101100 19266.600000
135.116700 3831.000000
141.069800 12877.200000
142.077800 20272.200000
143.085600 29596.300000
144.093300 8648.600000
145.101200 25267.300000
147.080700 2929.000000
147.116700 3931.500000
148.087900 4409.900000
149.095900 5174.700000
155.085700 14307.200000
156.093400 9960.500000
157.101400 14709.800000
158.108700 5081.800000
159.116600 9081.300000
165.069700 6540.000000
166.077400 4268.400000
167.085500 8964.700000
168.093300 3918.300000
169.101100 5936.500000
171.116300 3781.500000
181.100800 4628.000000
183.116600 6117.500000
185.132600 4031.200000
195.116500 2746.000000

