>compound LU69552997
>parentmass 273.09819999999996
>ionization [M+H]+
>formula C13H12N4O3
>rt 701.020000
>profile orbitrap
#smiles_iso C1=CC(=CN=C1)CNC(=O)NC2=CC=C(C=C2)[N+](=O)[O-]
#smiles_can C1=CC(=CN=C1)CNC(=O)NC2=CC=C(C=C2)[N+](=O)[O-]
#inchikey CLKZWXHKFXZIMA-UHFFFAOYSA-N
#pubchem_id 40813
#mb_accession LU081501,LU081502,LU081503,LU081504,LU081505,LU081506

>ms2peaks
109.076000 14306.200000
135.055300 195427.500000
139.050300 9450.600000
273.098300 2874781.500000

>ms2peaks
80.049300 4369.500000
92.049500 21726.500000
93.057000 10896.100000
109.076000 131154.800000
110.060000 2611.000000
122.047500 33521.800000
135.055200 1438698.200000
139.050200 65869.400000
227.105100 6739.700000
242.092300 3386.800000
273.098200 1425492.600000

>ms2peaks
56.013100 6036.700000
65.038400 3302.200000
80.049400 22188.300000
92.049500 106193.400000
93.057300 104348.200000
107.060300 11161.600000
109.076000 271994.300000
110.060200 10783.400000
122.047400 194473.500000
135.055200 2624562.800000
139.050100 72136.900000
227.105100 19680.800000
242.092300 16114.600000
273.098400 123551.800000

>ms2peaks
56.013100 20601.800000
65.038500 14564.300000
80.049500 95262.100000
82.065100 5579.900000
92.049500 133786.100000
93.057400 437943.400000
107.060400 24737.700000
109.076100 236385.200000
110.060000 17583.100000
122.047500 227248.300000
135.055300 2394559.500000
139.050400 14312.600000
227.105600 4759.900000
242.092600 5280.400000
273.097200 2479.800000

>ms2peaks
53.038600 2175.700000
54.033900 3954.800000
56.013100 37611.200000
65.038500 33383.600000
66.046400 8598.800000
67.041700 5937.400000
68.049500 10682.300000
79.018000 2433.900000
79.041700 4472.700000
80.049500 159102.300000
82.065100 5698.300000
92.049500 154170.600000
93.057400 898418.300000
96.044300 2643.200000
107.060500 29192.800000
108.044500 6831.300000
108.068300 3100.600000
109.052500 9915.800000
109.076100 124808.400000
110.060100 25588.100000
111.031800 3053.400000
117.045000 4479.300000
122.047500 129316.600000
134.047800 2435.700000
135.055300 1381645.600000

>ms2peaks
53.038700 4708.700000
54.033900 7211.400000
56.013100 45709.900000
65.038600 64796.700000
66.046400 17116.400000
67.041600 17109.600000
68.049500 9072.400000
79.017900 2776.400000
79.041700 5325.800000
80.049500 183237.700000
82.065200 3065.400000
92.049500 134501.800000
93.057400 1154987.000000
96.044400 3752.600000
107.060500 27654.000000
108.044400 8157.600000
108.068300 2666.800000
109.052200 9008.300000
109.076100 55809.700000
110.060200 28505.200000
111.031300 3693.900000
117.044800 6835.900000
122.047500 44505.200000
134.047600 2604.200000
135.055300 636583.900000

