>compound LU69857667
>parentmass 253.0963
>ionization [M+H]+
>formula C10H13ClN6
>rt 907.020000
>profile orbitrap
#smiles_iso CC(C)(C#N)NC1=NC(=NC(=N1)NC2CC2)Cl
#smiles_can CC(C)(C#N)NC1=NC(=NC(=N1)NC2CC2)Cl
#inchikey WUZNHSBFPPFULJ-UHFFFAOYSA-N
#pubchem_id 36274
#mb_accession LU122701,LU122702,LU122703,LU122704,LU122705,LU122706

>ms2peaks
102.010500 3090.900000
110.071300 2973.100000
144.032600 7331.300000
186.054200 749933.000000
217.119700 88676.900000
226.085500 1411835.000000
236.069800 9544.300000
253.096400 2965048.500000

>ms2peaks
58.065000 3335.500000
61.979400 4673.900000
79.005800 3802.100000
83.060200 13110.600000
85.076000 8135.900000
102.010500 9844.200000
104.001000 4255.300000
108.055600 16641.400000
110.071200 22377.600000
119.037100 63364.000000
121.050900 12866.300000
123.091600 4597.600000
125.082200 3239.400000
144.032400 26425.300000
145.027500 5031.800000
148.087000 32458.200000
150.077600 6603.600000
165.113700 4538.400000
175.098000 7285.600000
185.058800 33470.000000
186.054200 936894.500000
190.108700 35489.100000
192.124300 4738.200000
198.055000 3117.600000
217.119700 194107.200000
226.085400 2957626.000000
236.069600 13984.300000
253.096400 803757.500000

>ms2peaks
53.002200 2719.700000
56.049500 19555.900000
58.065100 22145.000000
61.979400 4681.300000
67.029200 2221.000000
68.024300 14528.400000
68.049500 3846.900000
70.065100 4701.800000
74.999600 7848.900000
79.005700 37556.100000
79.029000 4814.200000
81.044700 25055.100000
82.065100 13549.200000
83.060400 222098.600000
85.076100 4682.900000
91.005700 3247.100000
102.010500 49801.700000
103.005700 5713.600000
104.001000 77258.000000
107.060300 5889.100000
108.055600 231432.500000
110.071300 108874.400000
117.021400 10731.100000
119.037100 489368.000000
120.055800 9219.800000
121.050900 26862.000000
123.091700 35149.100000
125.082100 12512.800000
125.107400 6124.000000
135.066500 7977.200000
136.074500 6499.700000
137.082000 2654.300000
144.032400 321771.700000
145.027600 26866.500000
146.022700 11636.100000
148.087000 380916.600000
149.082200 37489.200000
150.077400 37993.000000
150.102500 9860.200000
151.110400 7441.000000
157.027600 2933.500000
158.023100 4958.200000
159.043500 2668.900000
162.077600 3698.200000
165.113600 23717.500000
169.027900 11232.700000
170.022800 7620.000000
175.097600 3245.500000
184.038200 2439.700000
185.059000 208888.700000
186.054200 570205.400000
190.108800 154916.100000
192.124600 4109.200000
198.054200 17936.800000
200.093500 2514.700000
209.059100 10994.900000
217.119700 87016.500000
226.085400 1966496.400000
236.069800 5033.200000
253.096500 34044.500000

>ms2peaks
53.002200 7875.800000
54.033800 4399.800000
55.029100 11579.200000
56.049500 130535.700000
58.065100 95963.400000
61.979200 23465.200000
63.994800 3206.500000
67.029000 7594.100000
67.041600 3140.100000
68.024300 101967.200000
68.049500 16654.400000
69.044700 7162.900000
70.065000 5383.400000
74.999500 29638.900000
78.010500 10933.100000
79.005700 99843.600000
79.029000 17013.600000
80.049400 6953.800000
81.044700 98737.900000
82.065100 29355.100000
83.060300 765207.600000
85.075900 6894.900000
91.005800 21693.400000
93.044700 4578.400000
94.065100 2136.700000
95.060400 3506.900000
96.080700 2909.800000
102.010500 102837.400000
103.005700 28454.500000
104.001000 292745.600000
107.060300 27505.300000
108.055600 749989.100000
109.050200 2156.600000
110.046000 8429.600000
110.071300 112431.600000
111.055400 3166.200000
117.021300 24837.500000
119.037100 551864.700000
120.055700 35212.400000
121.050800 12168.800000
121.075900 6627.400000
122.071500 5189.800000
123.091600 36873.000000
124.086800 5249.700000
125.082100 8249.200000
125.107500 5874.300000
128.995900 3472.500000
133.050800 4614.800000
135.066400 10986.600000
136.074600 10786.600000
137.082600 2403.000000
144.032300 450075.900000
145.027600 27679.500000
146.022800 24858.600000
148.086900 492922.300000
149.082200 60679.800000
150.077500 44505.100000
150.102500 9754.800000
151.110400 3832.900000
157.027400 3749.800000
158.022700 8188.100000
159.043000 4476.300000
160.061600 3378.800000
161.069100 3110.400000
162.077500 3208.100000
165.113500 17080.900000
169.027800 14623.900000
170.022700 10029.700000
184.038300 2595.300000
185.058800 134314.400000
186.054100 219464.800000
188.093100 2575.500000
190.108700 95040.000000
198.054300 14238.000000
209.058800 8923.700000
217.119500 7646.000000
226.085400 394818.100000

>ms2peaks
53.002200 24749.500000
54.033900 10611.400000
55.029100 34223.700000
56.049500 275828.000000
58.065100 158195.900000
61.979200 82456.100000
63.994800 6757.500000
66.033800 8613.300000
67.029100 22507.300000
67.041600 9062.300000
68.024300 316742.600000
68.049500 28548.400000
69.044700 8637.700000
70.040100 3140.900000
70.065200 11545.000000
74.096200 2443.600000
74.999600 40146.500000
78.010600 11281.300000
79.005800 96684.300000
79.029100 15468.500000
80.049600 10190.000000
81.044700 154934.000000
82.065100 22729.600000
83.060400 834257.700000
85.076000 5593.500000
91.005800 23583.100000
92.026300 3027.100000
93.044900 3764.400000
94.065400 2620.500000
95.060400 5416.100000
97.039900 2343.800000
102.010600 94024.500000
103.005800 22290.600000
104.001000 405554.300000
106.065200 5912.500000
107.060400 28802.400000
108.055600 742827.300000
109.050900 7016.700000
110.046000 7448.000000
110.071300 56627.100000
111.055300 4563.800000
117.021500 13127.600000
119.037100 211510.300000
120.055700 16950.000000
121.051000 7902.500000
121.076000 7187.800000
122.071200 4962.400000
123.066600 2649.300000
123.091700 11844.300000
124.086800 3091.700000
125.082400 3423.700000
125.107100 2838.400000
128.996700 3056.300000
133.050900 4150.400000
134.045900 2304.200000
135.066500 10311.300000
136.074400 8525.900000
144.032300 177093.200000
145.027400 10753.800000
146.022800 14388.300000
148.086900 138818.100000
149.082300 19720.200000
150.077500 15720.900000
150.102500 4424.200000
157.027200 5431.400000
158.022600 4518.700000
160.061900 2374.400000
161.069500 3478.600000
169.027600 5614.000000
170.022800 16529.900000
185.058800 19990.800000
186.054200 41979.300000
190.108500 15188.200000
198.054300 2636.200000
226.085300 31309.000000

>ms2peaks
53.002300 39054.900000
54.033900 15218.600000
55.029100 70129.200000
56.049500 350024.800000
58.065200 164381.400000
61.979200 179638.400000
63.994900 4975.700000
66.033900 13786.900000
67.029100 35764.700000
67.041800 9786.700000
68.024300 579573.600000
69.044700 4900.000000
70.039900 2256.500000
70.065200 6922.700000
74.096600 3030.800000
74.999600 31233.300000
78.010600 6397.900000
79.005800 98406.100000
79.029200 8186.500000
80.049500 8157.500000
81.044800 154967.600000
82.065200 9880.000000
83.060400 642813.800000
91.005700 17146.400000
92.026300 2819.400000
93.044700 4663.400000
94.065300 2292.000000
95.060500 4048.600000
97.039800 2814.500000
102.010600 51288.800000
103.005800 10682.100000
104.001000 395264.100000
106.065100 3505.300000
107.060500 11382.300000
108.055700 454500.200000
109.051000 13769.600000
110.046200 2252.100000
110.071300 20393.100000
111.055500 3676.500000
117.021500 5577.700000
119.037200 56898.700000
120.055900 4927.000000
121.051100 6189.400000
122.071500 3617.400000
123.066100 2152.800000
123.091800 6512.900000
133.051000 2761.700000
134.046300 3722.700000
135.066600 12830.500000
136.074500 6279.300000
144.032300 45858.700000
145.027500 3696.700000
146.022900 7415.700000
148.087000 21841.600000
149.082300 5456.100000
150.077700 6741.700000
160.062300 4580.800000
170.023000 7375.500000
184.038600 3416.000000
186.054300 7596.300000

