>compound LU70336920
>parentmass 442.1683
>ionization [M+H]+
>formula C24H27NO5S
>rt 1127.520000
>profile orbitrap
#smiles_iso CC1=C(C2=C(CCC(O2)(C)COC3=CC=C(C=C3)CC4C(=O)NC(=O)S4)C(=C1O)C)C
#smiles_can CC1=C(C2=C(CCC(O2)(C)COC3=CC=C(C=C3)CC4C(=O)NC(=O)S4)C(=C1O)C)C
#inchikey GXPHKUHSUJUWKP-UHFFFAOYSA-N
#pubchem_id 5591
#mb_accession LU070104,LU070105

>ms2peaks
55.054200 2417.900000
67.054300 19901.600000
79.054400 1914.000000
81.069900 15087.800000
83.049300 4448.800000
91.054400 7024.000000
93.070000 3938.000000
95.085600 4269.200000
107.085500 2479.500000
109.101200 30621.500000
117.069900 2727.600000
119.085700 19530.300000
121.064800 1957.100000
122.072700 13943.400000
130.077300 2029.700000
131.049400 3837.100000
131.085800 5524.600000
135.080600 6680.100000
137.096200 84373.400000
145.065200 3399.500000
145.101400 7360.600000
149.096300 12626.600000
155.085700 7879.400000
158.072700 14379.500000
159.080600 7861.200000
162.067700 2507.900000
163.111300 2501.500000
165.091100 190709.400000
173.096200 20587.500000
175.075500 2473.600000
189.091000 7513.100000

>ms2peaks
55.054300 6602.400000
67.054200 34119.500000
79.054300 5672.500000
81.070000 15901.800000
83.049200 4466.500000
91.054300 20315.400000
93.070000 4206.300000
95.085500 2047.300000
107.085900 2900.700000
109.101300 23222.600000
117.070000 4419.200000
119.085500 30525.000000
121.065000 2280.300000
122.072700 25736.200000
130.078100 2579.000000
131.049300 3380.800000
131.085700 3111.100000
135.080600 4512.200000
137.096200 41668.100000
145.064900 2445.000000
145.101500 2901.000000
149.096300 5850.900000
155.085800 7804.600000
158.072600 14767.100000
159.081000 3265.200000
162.067400 2101.000000
163.112000 2330.600000
165.091000 40723.700000
173.096500 3268.900000
175.075600 3247.200000
189.091400 6901.400000

