>compound LU70794061
>parentmass 331.22679999999997
>ionization [M+H]+
>formula C21H30O3
>rt 1070.320000
>profile orbitrap
#smiles_iso CC(=O)[C@]1(CC[C@@H]2[C@@]1(CC[C@H]3[C@H]2CCC4=CC(=O)CC[C@]34C)C)O
#smiles_can CC(=O)C1(CCC2C1(CCC3C2CCC4=CC(=O)CCC34C)C)O
#inchikey DBPWSSGDRRHUNT-CEGNMAFCSA-N
#pubchem_id 6238
#mb_accession LU114401,LU114402,LU114403,LU114404,LU114405,LU114406

>ms2peaks
97.064700 164363.700000
109.064700 69298.300000
123.080800 7748.400000
137.096000 8629.500000
163.111400 9290.400000
177.127400 12092.500000
205.158600 6978.100000
213.163900 7313.600000
217.158600 9393.500000
231.173600 12957.900000
253.195200 31623.600000
255.174400 7111.400000
259.169000 10427.800000
271.205500 53679.500000
277.194900 11125.600000
285.221400 6302.200000
289.215900 8039.100000
295.205600 74376.600000
313.216100 274551.500000
331.226700 5898258.000000

>ms2peaks
57.033600 3117.100000
61.028400 4204.200000
67.054300 4152.900000
69.069800 3221.000000
79.054200 9449.700000
81.069800 24226.100000
83.049100 60879.400000
83.085700 5431.300000
85.064700 17658.900000
91.054400 3175.900000
93.069900 12528.300000
95.048800 2512.100000
95.085600 45550.200000
97.064800 1218832.200000
99.044100 3254.100000
99.080400 15592.200000
105.070000 8902.800000
107.085500 21639.300000
109.064800 841467.300000
111.080500 16636.800000
117.069600 3158.500000
119.085600 27367.000000
121.064800 21819.200000
121.101200 25543.500000
123.080400 79654.800000
125.096000 2787.600000
127.075400 9285.800000
131.085500 15677.700000
133.101200 22790.200000
135.080500 17306.000000
135.116600 17475.900000
137.096100 62683.400000
139.111700 6419.900000
143.085900 16227.000000
145.101200 63468.200000
147.080800 6945.900000
147.116900 34405.900000
149.096200 25017.600000
149.132500 7963.600000
151.111800 7956.500000
155.085600 8184.700000
157.101300 24182.600000
159.116800 57274.000000
161.096300 17310.700000
161.132400 29274.300000
163.111800 107917.500000
163.148200 10427.300000
169.101100 16867.100000
171.116800 58335.500000
173.096200 7111.100000
173.132500 42695.200000
175.111900 32958.800000
175.148200 44731.000000
177.127400 79520.500000
181.101000 5959.300000
183.116800 22361.100000
185.095900 6003.500000
185.132500 32624.900000
187.111700 12999.600000
187.148100 37115.800000
189.127200 34936.400000
189.163500 13350.200000
191.143100 19698.600000
195.117100 10617.300000
197.132700 30092.200000
199.111800 5551.700000
199.148200 54420.400000
201.127400 16897.700000
201.164000 5933.500000
203.143200 29897.200000
205.158800 55539.900000
207.116900 5509.500000
209.132200 11618.000000
211.148300 39761.900000
213.127500 15507.500000
213.163800 43665.400000
215.143200 19425.100000
217.158700 53621.600000
221.132500 7419.200000
223.148000 6991.700000
225.127600 5194.600000
225.164000 22315.100000
227.143300 8409.400000
227.179200 12554.500000
229.158700 27355.700000
231.174400 34703.200000
235.148200 11371.200000
237.163700 32730.100000
239.142900 14767.900000
239.180100 8063.200000
241.158800 25083.400000
243.174600 19822.700000
245.190700 11809.600000
249.163600 3702.000000
251.179700 19547.500000
252.187200 9052.100000
253.160400 11034.200000
253.195100 177123.300000
255.174300 47224.600000
259.169100 31922.700000
267.211000 15263.600000
269.190200 40061.400000
270.197500 16735.800000
271.205700 216894.900000
273.184900 8823.900000
277.195200 47486.600000
285.222100 11809.600000
289.216400 30462.500000
295.205800 220899.300000
313.216400 421539.200000
331.227100 983182.900000

>ms2peaks
55.017900 9117.900000
55.054300 7736.700000
57.033500 3185.800000
59.049200 2974.100000
61.028400 3696.100000
65.038800 2524.000000
67.054200 18535.600000
69.033500 5079.100000
69.069800 18215.300000
71.049000 4604.300000
79.054200 68398.300000
81.069900 94094.800000
83.049200 91897.200000
85.064800 15359.800000
87.044100 9327.400000
91.054200 22872.100000
93.070000 54612.400000
95.049300 11149.500000
95.085600 92305.700000
97.064900 1595317.100000
99.044000 4761.900000
99.080400 13965.500000
105.033500 3190.900000
105.069900 53166.800000
107.049000 7887.300000
107.085600 59526.000000
109.064900 1486405.100000
111.080400 32346.000000
117.069700 12184.700000
119.085600 67422.200000
121.064800 40189.200000
121.101200 56291.300000
123.080500 175848.500000
127.075400 3620.400000
129.069700 14620.000000
131.085600 46321.500000
133.101300 65282.000000
135.080400 30625.000000
135.116800 26601.900000
137.096200 52418.300000
139.111400 2888.200000
141.069900 4892.700000
143.085600 40752.800000
145.101300 114013.300000
147.080400 13582.500000
147.116800 73420.700000
149.096200 36974.000000
149.132600 18179.100000
151.111800 12716.700000
155.085500 16182.100000
157.101300 63120.800000
159.116900 95008.500000
160.124400 3460.300000
161.096200 15926.100000
161.132600 57907.800000
163.111800 106774.600000
163.148000 10029.400000
167.085600 5016.700000
169.101200 35265.300000
171.116800 79805.100000
173.096100 9243.600000
173.132600 65508.900000
175.111800 32269.200000
175.148200 52301.500000
177.127500 51245.500000
181.101100 11416.600000
183.117000 35552.200000
184.124500 2421.700000
185.132500 50853.400000
187.111800 14595.700000
187.148200 39477.300000
189.127400 29818.500000
189.163800 10623.200000
191.143400 10913.200000
195.116900 14774.500000
197.132700 48558.300000
199.111700 7270.300000
199.148300 45734.000000
201.127600 13571.900000
201.164400 10686.000000
203.143100 19750.200000
205.158800 22987.100000
207.116700 4879.700000
209.133000 12714.500000
211.148200 43709.700000
212.155600 3355.300000
213.127100 10092.900000
213.163900 49560.100000
215.143800 12689.300000
217.158800 17553.400000
221.132300 8019.400000
223.149200 10783.700000
225.127400 4044.400000
225.163900 23903.500000
227.143000 7633.800000
227.179100 9608.600000
229.158300 14301.600000
231.174000 4028.300000
235.147800 7999.300000
237.163600 29687.700000
239.142400 9506.500000
239.179400 5464.700000
241.158500 10960.600000
243.174500 10840.500000
249.163000 3323.200000
251.179300 10832.000000
252.187100 15353.100000
253.158500 7672.100000
253.195200 85450.200000
255.174300 23874.200000
257.190700 3248.200000
259.169400 4857.300000
267.175000 3178.800000
267.210300 8047.000000
269.190000 16534.600000
270.198500 15479.500000
271.205700 50151.800000
277.195000 12248.900000
287.200700 2341.100000
289.216100 3496.000000
295.205900 45832.600000
313.216400 34185.100000
331.226200 17090.000000

>ms2peaks
53.002300 3470.400000
53.038600 11993.800000
55.017900 24337.300000
55.054300 21334.900000
57.033500 4296.600000
59.049200 6262.800000
61.028400 4502.800000
65.038600 5426.300000
67.054200 55127.800000
69.033500 10134.000000
69.069900 39964.800000
71.049100 8163.000000
77.038600 2492.400000
79.054300 181322.900000
81.069900 203955.800000
82.041100 2195.400000
83.049200 92622.500000
83.085500 5393.400000
85.064900 6321.700000
87.044200 6398.700000
91.054300 68287.100000
93.070000 102686.100000
94.041400 5102.500000
95.049200 23622.200000
95.085600 96740.800000
97.064900 1396974.200000
99.080500 3679.900000
103.054200 2596.000000
105.070000 101325.700000
107.049300 15112.300000
107.085600 71855.700000
109.064900 1385001.800000
111.080500 19713.800000
115.054600 2471.600000
117.070000 28858.200000
119.085600 102671.500000
121.064900 34393.100000
121.101300 34336.100000
123.080500 188733.800000
127.075700 2588.100000
128.062000 5052.500000
129.070000 29060.800000
130.077900 4342.000000
131.085700 58122.200000
133.064800 3554.800000
133.101300 67017.000000
135.080600 19137.300000
135.117100 20492.300000
137.096200 31538.600000
141.070000 4891.600000
142.077800 8731.500000
143.085700 62148.300000
144.093300 6339.200000
145.101300 118588.800000
146.109000 3415.400000
147.080500 14031.800000
147.116900 63552.000000
149.096200 19826.400000
149.132600 9862.100000
153.069300 1970.100000
154.077600 3434.600000
155.085600 25541.300000
156.093400 12140.000000
157.101300 58409.700000
159.080800 4452.300000
159.117000 69584.600000
160.124600 4119.500000
161.096100 12419.200000
161.132500 33266.100000
163.111900 53568.400000
163.148100 7775.900000
165.070500 2303.800000
166.078400 2869.400000
167.085500 6245.300000
168.093700 3939.100000
169.101300 37763.500000
170.108800 3975.400000
171.116900 55674.100000
173.095800 5901.900000
173.132600 36994.200000
175.112100 15193.200000
175.148400 25968.700000
177.127500 17261.600000
179.085700 3324.500000
180.093000 2447.400000
181.101000 9654.900000
182.109100 5868.400000
183.117000 29045.100000
184.124200 2808.000000
185.095900 2811.700000
185.132600 32378.100000
187.148200 16658.600000
189.127200 10145.700000
189.163600 2471.400000
193.101300 3277.300000
195.116900 17110.000000
196.124800 4312.200000
197.132500 29265.900000
199.111700 6263.300000
199.148100 22254.600000
201.127300 4661.700000
201.164300 4180.300000
203.142300 2758.300000
205.158600 2889.900000
207.117100 4733.600000
209.132300 8388.700000
211.148300 22311.400000
213.126800 3964.600000
213.163800 21288.000000
215.143700 2963.300000
221.132300 4775.900000
223.147900 5955.200000
225.163500 7913.100000
227.179200 3824.200000
235.148000 3243.900000
237.164000 13864.700000
241.158200 4639.300000
251.179100 3629.600000
252.187200 6133.500000
253.194700 13021.300000
255.174700 6524.100000
295.206300 3123.900000

>ms2peaks
50.015100 3006.700000
53.002300 9997.100000
53.038600 26688.800000
55.017900 48079.100000
55.054300 38768.300000
57.033600 6214.500000
59.049200 7851.700000
61.028500 3291.600000
65.038600 15849.000000
66.046500 2422.100000
67.054200 106454.800000
69.033500 11333.100000
69.069900 70254.900000
71.049100 4939.200000
77.038600 5552.000000
79.054300 370751.000000
81.069900 317201.600000
83.049200 76022.400000
85.064900 2964.900000
87.044100 4291.400000
91.054300 170368.000000
93.070000 119693.000000
94.041300 10856.400000
95.049200 56846.500000
95.085600 99156.800000
97.064900 1084176.000000
99.044100 2917.100000
103.054300 7456.600000
105.070000 174954.200000
107.049300 16265.200000
107.085600 55783.800000
108.056900 4016.100000
109.064900 981624.400000
111.080400 10722.800000
115.054200 14533.000000
116.061900 4263.400000
117.070000 47442.300000
119.085600 113669.000000
121.064900 39460.300000
121.101300 24971.200000
123.080500 139531.800000
128.062100 24585.700000
129.069900 43145.300000
130.077800 14293.300000
131.085600 82068.200000
133.064900 7353.400000
133.101300 45352.500000
135.080500 12461.900000
135.116800 6563.900000
137.096200 11552.400000
141.069900 14372.200000
142.077900 30922.200000
143.085600 56769.100000
144.093500 14045.000000
145.101200 73428.200000
146.108800 2646.600000
147.080600 8484.900000
147.116800 30987.800000
148.088600 5622.900000
149.096300 10802.400000
149.132800 2186.800000
153.070100 8144.200000
154.078000 8203.100000
155.085600 30467.800000
156.093600 18147.300000
157.101300 38989.300000
158.109000 4194.700000
159.117000 35344.500000
160.124500 3477.000000
161.096000 5482.700000
161.132900 10352.000000
163.111500 14962.500000
165.070000 9313.500000
167.085700 9898.500000
168.093600 8353.000000
169.101400 33037.300000
170.109000 6507.900000
171.116900 23777.500000
173.096600 2763.500000
173.132700 13436.600000
175.111800 3998.700000
175.148100 5125.400000
177.127500 4451.100000
179.085800 5125.700000
180.093800 4824.000000
181.101400 13344.700000
182.109300 7274.700000
183.117000 20045.100000
184.125100 3272.100000
185.132700 12347.400000
187.148100 3424.700000
192.093300 4261.200000
193.101200 3890.200000
195.116900 10277.400000
196.124700 6231.100000
197.132800 13007.700000
199.148100 6013.700000
207.116400 3973.500000
209.132700 8419.300000
211.148600 6417.200000
213.164300 2684.200000
215.143000 4109.900000
223.147900 3417.600000
237.164000 7493.700000

>ms2peaks
53.002200 22375.500000
53.038600 65775.500000
55.017900 73921.800000
55.054200 66908.700000
57.033600 9875.900000
59.049100 8548.900000
61.028400 2460.600000
65.038600 40732.300000
66.046400 6381.800000
67.054200 167476.900000
69.033500 19348.200000
69.069800 82006.800000
71.049100 5113.900000
77.038400 13146.600000
79.054200 525726.400000
81.069900 383463.100000
82.041500 3443.200000
83.049100 70497.000000
91.054200 256206.700000
93.069900 106828.800000
94.041300 20346.100000
95.049200 102187.700000
95.085500 70758.500000
97.064800 724998.400000
103.054200 21768.600000
105.069900 212927.200000
107.049200 21265.000000
107.085500 34833.600000
108.056900 11237.700000
109.064800 616014.000000
111.080500 6618.400000
115.054300 27402.100000
116.062000 12177.400000
117.069900 60406.800000
119.085600 80749.900000
121.064800 27363.500000
121.101200 9728.200000
123.080400 92789.800000
128.062000 41805.200000
129.069900 56788.600000
130.077700 26251.300000
131.085600 59943.800000
133.065100 5017.600000
133.101200 23425.800000
135.080500 5725.900000
137.096000 3966.900000
141.069800 32750.700000
142.077800 35646.600000
143.085500 47033.100000
144.093200 13593.500000
145.065000 2690.500000
145.101100 47046.400000
146.108400 2273.800000
147.080300 9573.000000
147.116700 11760.200000
148.088300 6193.800000
149.096600 3507.800000
153.069600 14289.200000
154.077600 14968.000000
155.085600 30486.500000
156.093600 18498.600000
157.101100 16641.000000
158.108800 3420.000000
159.080400 3085.600000
159.116800 12634.000000
161.096000 2984.700000
163.111600 5873.800000
165.070000 13769.100000
166.077400 5003.700000
167.085700 16043.200000
168.093300 10752.900000
169.101100 20051.800000
170.109000 4094.700000
171.116700 7864.400000
173.132800 2531.700000
179.085500 7962.900000
180.093200 4326.400000
181.100800 13190.600000
182.109100 3911.500000
183.116900 8909.200000
185.132500 6090.500000
193.101000 4498.000000
195.116700 6563.300000
196.124300 3568.100000
197.132700 7210.600000
207.117100 3514.300000
209.132400 2707.400000
237.164000 2444.600000

