>compound LU70702828
>parentmass 263.0171
>ionization [M+H]+
>formula C6H15O5PS2
>rt 660.780000
>profile orbitrap
#smiles_iso CCS(=O)(=O)CCSP(=O)(OC)OC
#smiles_can CCS(=O)(=O)CCSP(=O)(OC)OC
#inchikey PZIRJMYRYORVIT-UHFFFAOYSA-N
#pubchem_id 28213
#mb_accession LU127101,LU127102,LU127103,LU127104,LU127105,LU127106

>ms2
61.010500 2386.300000
93.000600 2802.000000
108.977900 2737.700000
109.005300 6714.900000
121.031900 522024.300000
127.015600 59137.800000
137.009000 23558.000000
141.985700 10135.000000
142.992800 165301.800000
152.977100 3371.700000
154.992600 11583.100000
169.008400 1054416.400000
170.987700 17184.300000
184.949500 2334.100000
185.003200 2744.000000
186.964300 4403.400000
202.958900 4439.000000
230.991200 341501.500000
263.017300 2212034.000000

>ms2
58.995000 5886.400000
59.049300 2892.100000
61.010600 15981.800000
75.026300 2722.600000
77.005500 12482.400000
78.994300 4280.100000
90.967200 4273.300000
93.000500 26935.700000
108.977600 26819.900000
109.005200 13806.200000
121.031800 1048548.400000
124.982000 24021.400000
127.015500 378263.000000
128.977000 17800.000000
137.009000 88557.400000
138.961200 3050.000000
140.977200 3374.100000
141.985100 3214.800000
142.992700 624098.900000
152.976900 31103.200000
154.992700 38874.000000
156.954600 3797.600000
157.008500 7165.300000
169.008300 2517514.800000
170.987400 64041.300000
174.974200 9550.700000
184.949100 30628.800000
185.003600 3802.900000
186.964300 14177.300000
202.959500 17768.000000
230.991000 291272.200000
263.017200 424655.900000

>ms2
58.995000 15793.300000
59.049200 3958.600000
61.010600 49025.400000
74.989900 14166.200000
75.026300 10596.900000
77.005500 21550.500000
78.994300 37791.300000
80.946300 4815.800000
90.967000 14294.600000
93.000500 98535.300000
108.977600 60816.800000
109.004900 6123.000000
110.966100 2716.900000
112.999800 7692.900000
114.970900 8999.300000
121.031800 388264.200000
124.982100 82330.200000
127.015500 1581568.600000
128.976900 98789.000000
136.982000 11623.600000
137.008900 37362.500000
138.961300 3378.700000
140.976800 6682.900000
141.031000 5038.700000
142.992700 1232667.600000
152.977100 36374.500000
154.992700 32316.500000
156.954300 8347.400000
157.008500 22490.900000
169.008300 1119337.000000
170.987500 24050.800000
174.974300 29117.600000
184.949100 34523.900000
202.959200 7272.400000
230.991200 23875.100000
263.017200 6936.000000

>ms2
53.002200 2717.100000
58.995000 35493.100000
59.049200 4289.400000
61.010700 46837.000000
62.018500 10205.100000
74.989900 33729.300000
75.026400 12691.300000
77.005500 21809.700000
78.994300 200693.900000
80.946300 16158.400000
90.967000 15400.500000
93.000500 121784.400000
97.005000 8746.900000
104.955800 3109.300000
108.977700 41400.100000
110.966500 4242.800000
112.999800 15312.600000
114.970900 24416.900000
121.031800 67066.100000
124.982200 69169.200000
127.015500 2316102.000000
128.977000 179445.000000
136.982100 9699.100000
137.008900 4766.600000
138.961100 5275.600000
140.977100 6277.300000
141.031200 9126.600000
142.992700 992085.700000
145.026200 2779.300000
152.977200 13859.600000
154.992800 6912.900000
156.954100 2413.800000
157.008300 21929.900000
169.008300 171562.800000
170.987200 3562.400000
174.974400 13815.900000
184.949100 6643.300000

>ms2
58.995000 40751.100000
59.966500 2397.200000
61.010700 41604.500000
62.018500 21218.800000
62.989900 4815.100000
64.978600 5713.200000
74.989900 39157.800000
75.026400 7964.600000
77.005600 16453.400000
78.994300 467515.500000
80.946400 21839.300000
90.967200 6951.900000
93.000500 73664.200000
94.971400 2443.600000
96.960400 2176.200000
97.004900 16758.500000
98.984300 5372.300000
104.955800 2835.100000
108.977700 20129.200000
112.999800 22423.200000
114.970900 33902.300000
121.032000 9069.000000
124.982100 24796.300000
127.015500 1861296.200000
128.977000 152875.900000
136.981900 4927.100000
141.031100 8514.900000
142.992700 471013.200000
152.977900 2699.600000
157.008200 7219.900000
169.008200 13031.100000
174.974600 2368.600000

>ms2
53.002200 2365.800000
58.995000 58269.500000
59.966300 2367.900000
61.010600 32579.800000
62.018500 26125.100000
62.989900 6448.600000
64.978700 11831.800000
74.989900 39111.000000
75.026300 3459.600000
77.005500 11035.400000
78.994300 703290.600000
80.946400 29352.000000
90.967000 7087.200000
93.000500 40193.200000
94.971600 2632.500000
96.960400 3167.900000
97.004900 37946.600000
98.984300 10661.600000
108.977600 9852.700000
112.999900 29541.100000
114.970900 40744.400000
124.982000 10424.600000
127.015500 1301587.500000
128.977000 131096.200000
141.031200 4881.300000
142.992700 216275.700000
145.026500 2815.500000
157.008100 4704.000000
174.974000 2754.700000

