>compound LU70854096
>parentmass 455.12489999999997
>ionization [M+H]+
>formula C23H19FN2O7
>rt 1005.420000
>profile orbitrap
#smiles_iso C[C@H](C(=O)O)OC1=CC(=C(C=C1)CNC(=O)C2=C(N=CC=C2)OC3=CC4=C(C=C3)OCO4)F
#smiles_can CC(C(=O)O)OC1=CC(=C(C=C1)CNC(=O)C2=C(N=CC=C2)OC3=CC4=C(C=C3)OCO4)F
#inchikey CNIGFESSDPOCKS-CYBMUJFWSA-N
#pubchem_id 9955578
#mb_accession LU036101,LU036102,LU036103,LU036104,LU036105,LU036106

>ms2peaks
125.039700 119297.900000
197.060900 3662106.000000
242.044800 3870028.500000
259.071400 230385.200000
260.055400 9333.100000
271.071300 1936626.400000
409.121500 4765.700000
455.125200 3297809.200000

>ms2peaks
108.037100 7561.700000
125.039700 4489943.500000
151.055500 5412.400000
197.060900 5021548.000000
212.034300 7017.200000
242.044700 3897614.200000
259.071400 133943.400000
260.055300 116236.500000
271.071200 78975.400000

>ms2peaks
95.049100 11767.000000
97.044700 15653.400000
125.039700 11512246.000000
156.044700 24083.400000
184.039400 220662.000000
197.060900 811044.600000
202.049900 25645.300000
212.034300 243099.800000
214.049900 12006.900000
216.065400 12279.400000
230.043900 15692.200000
242.044700 2539088.500000
244.060600 23260.500000
260.055300 154288.200000

>ms2peaks
53.038600 22285.700000
77.038300 15259.600000
95.049100 81056.200000
97.044800 89476.700000
105.044800 30273.000000
123.035300 18222.500000
125.039600 11712029.000000
156.044300 377443.200000
184.039200 683899.900000
186.054800 13063.300000
197.060900 37246.600000
202.049700 97973.300000
212.034100 391808.300000
214.049600 29642.500000
216.065400 46062.900000
230.044800 12903.700000
242.044600 756279.800000
244.060500 37405.500000
260.055300 74563.800000

>ms2peaks
53.038600 103402.100000
55.017800 23276.400000
71.029100 11452.400000
75.022900 16853.000000
77.038500 71525.500000
94.041400 13040.600000
95.049200 336649.300000
96.036900 20450.500000
97.044800 337105.900000
105.033800 19965.400000
105.044800 142949.500000
113.039700 59729.800000
123.035400 80895.300000
125.039700 10834372.000000
128.049400 127336.100000
129.033400 13243.100000
146.059800 26605.600000
156.044300 1010687.800000
184.039400 539638.800000
186.054900 27613.500000
202.049900 89846.200000
212.034300 151785.700000
214.049700 26146.900000
216.065300 36011.600000
242.044600 111031.000000
244.060900 16448.200000
260.055200 12713.900000

>ms2peaks
51.023000 11959.400000
53.038600 303448.600000
55.017800 42352.700000
57.013400 14963.500000
65.038500 23909.000000
71.029100 42608.100000
73.008400 11327.000000
75.022900 74647.000000
77.038500 214563.800000
81.033500 34086.300000
91.054300 15272.000000
94.041300 36269.300000
95.049100 961352.400000
96.037000 57641.600000
96.044400 18303.200000
97.044800 695694.700000
101.038700 16781.600000
103.054100 9354.000000
104.049500 8904.100000
105.033700 55856.600000
105.044700 368138.400000
113.039700 192276.700000
119.049200 30357.300000
123.035400 257794.800000
125.039700 8768820.000000
128.049400 360177.700000
129.033400 51158.200000
129.044700 65266.100000
130.065100 12191.100000
140.049600 15177.600000
146.059900 28903.100000
156.044300 1090306.000000
184.039300 195612.200000
186.055100 17576.900000
202.050000 27860.400000
212.034300 30378.900000
216.065400 13401.900000
242.044800 13745.900000

