>compound LU70834149
>parentmass 320.1524
>ionization [M+H]+
>formula C17H22ClN3O
>rt 1132.680000
>profile orbitrap
#smiles_iso CC1(CCC(C1(CN2C=NC=N2)O)CC3=CC=C(C=C3)Cl)C
#smiles_can CC1(CCC(C1(CN2C=NC=N2)O)CC3=CC=C(C=C3)Cl)C
#inchikey XWPZUHJBOLQNMN-UHFFFAOYSA-N
#pubchem_id 86210
#mb_accession LU058901,LU058902,LU058903,LU058904,LU058905,LU058906

>ms2
70.039900 1480798.600000
125.016200 61727.200000
233.110300 20687.700000
320.152300 19327832.000000

>ms2
59.049100 19556.800000
69.069800 30518.700000
70.039900 16423639.000000
81.069800 30398.800000
95.085400 136406.100000
107.085400 48302.500000
109.101200 16775.200000
125.015200 311178.200000
139.030800 55264.800000
151.030800 24886.400000
163.030700 49349.200000
177.046400 207062.200000
191.061800 36377.500000
233.109000 188538.700000
320.152300 5036724.000000

>ms2
59.049100 63896.000000
67.054200 20426.200000
69.069800 46519.700000
70.039900 19799190.000000
81.069900 54581.100000
83.085400 24652.500000
95.085500 261138.600000
107.085400 86211.700000
109.101100 23735.100000
125.015200 1338512.000000
139.030800 128286.300000
142.077500 22161.900000
151.030800 66178.900000
163.030900 101418.300000
165.046400 20838.100000
177.046500 268847.900000
191.062000 64877.200000
233.109000 46664.400000
320.152400 119173.000000

>ms2
55.054300 34458.500000
59.049100 104273.800000
67.054200 56634.400000
69.069800 42156.500000
70.039900 18520214.000000
79.054000 24162.300000
81.069900 42882.100000
93.069900 23623.200000
95.085500 225328.200000
103.054200 23099.500000
107.085500 51880.700000
125.015300 2119350.500000
128.061900 25951.600000
139.030900 112315.000000
142.077700 93327.500000
151.030800 91451.900000
163.030900 93679.300000
177.046600 132295.600000
191.062100 33864.500000

>ms2
55.054200 58036.100000
59.049100 126285.300000
67.054100 125762.500000
69.069800 39453.500000
70.039900 18523048.000000
79.054100 40367.600000
81.070000 35775.100000
89.038600 95200.000000
91.054300 32531.800000
93.069900 26804.900000
95.049100 18783.400000
95.085500 182451.400000
98.999400 34948.200000
103.054200 63542.800000
105.070000 23307.800000
107.085200 27150.300000
115.054200 54326.200000
116.062000 67405.200000
125.015200 2720257.500000
128.061900 51609.000000
129.069700 18813.400000
139.030900 70149.600000
141.069800 46742.200000
142.077700 146864.000000
151.030900 58123.800000
156.093300 19393.500000
163.030700 48199.100000
177.046500 40915.400000

>ms2
55.054300 59532.000000
59.049100 140027.000000
63.023000 20653.300000
65.038400 21897.000000
67.054200 121493.600000
69.069800 18516.700000
70.039900 17829496.000000
79.054100 41696.800000
81.069900 27335.600000
89.038500 371034.500000
90.046400 71259.300000
91.054300 61213.700000
93.069900 27770.800000
95.049100 25990.300000
95.085500 80375.100000
98.999600 159805.800000
103.054200 93490.900000
105.069800 20518.700000
115.054100 83523.700000
116.062000 107797.200000
125.015200 2748974.000000
128.062000 94292.100000
129.069600 32905.100000
139.031100 27938.800000
141.069800 112460.200000
142.077700 126406.400000
149.015300 23357.300000
151.030800 31618.700000
155.059900 21794.600000
162.023100 19099.200000

