>compound LU70154926
>parentmass 242.1434
>ionization [M+H]+
>formula C10H19N5S
>rt 987.250000
>profile orbitrap
#smiles_iso CCNC1=NC(=NC(=N1)SC)NC(C)(C)C
#smiles_can CCNC1=NC(=NC(=N1)SC)NC(C)(C)C
#inchikey IROINLKCQGIITA-UHFFFAOYSA-N
#pubchem_id 13450
#mb_accession LU004701,LU004702,LU004703,LU004704,LU004705,LU004706

>ms2
158.049300 286597.600000
186.080600 250708.800000
200.096400 2062659.400000
227.119000 121794.900000
242.143200 51250392.000000

>ms2
68.024100 74615.000000
110.071200 212216.600000
116.027600 122773.900000
152.118200 477071.000000
158.049500 3931670.200000
186.080800 1549996.400000
200.096500 12862903.000000
227.119100 103109.200000
242.143300 44138280.000000

>ms2
57.069900 406245.700000
68.024200 174330.400000
71.060300 1367632.600000
74.005800 144847.000000
85.050900 155564.700000
91.032400 3422766.000000
96.055600 1155012.800000
102.037200 164194.000000
110.045800 56415.000000
113.082200 363736.400000
116.027700 549951.800000
138.077400 1199346.000000
144.059000 818018.700000
158.049500 1533999.800000
171.057000 91140.300000
186.080800 42687580.000000
242.143400 1843443.100000

>ms2
61.010600 33771.100000
68.024300 5150137.000000
71.060300 96014.700000
74.005800 680646.400000
85.050800 3308427.000000
85.076000 510092.300000
91.032400 1455860.600000
96.055500 75359.300000
102.011900 51796.500000
110.046100 1740740.000000
110.071200 1165566.800000
112.061800 72329.300000
116.027600 4059753.000000
125.069700 29370.100000
127.097800 103367.200000
138.077400 40939.900000
143.025600 76283.500000
144.059100 35644.000000
152.093000 341578.500000
152.118200 154359.400000
158.049400 27479350.000000
186.080700 325655.000000
200.096300 3918185.800000
242.143200 536773.200000

>ms2
57.044700 23318.200000
58.065100 19883.500000
61.010700 41517.900000
68.024300 9549064.000000
71.060400 73402.600000
74.005900 1923044.900000
85.050900 5465913.500000
85.076000 292403.100000
91.032500 1552952.000000
96.055600 70371.500000
99.001100 26577.300000
99.066600 27258.300000
102.012100 69930.200000
110.046200 2690671.800000
110.071400 312109.700000
112.061800 108794.400000
116.027700 4835426.000000
125.069600 49365.300000
127.097800 43436.100000
131.038900 17103.600000
138.077700 14946.400000
141.023100 25516.800000
143.025800 87925.700000
144.059200 18713.200000
152.093100 84439.000000
152.117900 13130.100000
158.049500 12943601.000000
184.065200 15797.100000
186.080600 34144.600000
200.096500 375609.200000

>ms2
57.044800 42526.400000
58.065000 14771.100000
61.010700 51734.600000
68.024300 13296131.000000
71.060400 86992.000000
74.005800 3552620.200000
85.050900 4357883.500000
91.032500 1145694.500000
96.055600 44344.500000
99.001100 38689.300000
99.066500 21824.800000
102.012100 42237.300000
110.046200 1983404.100000
112.061800 85956.600000
116.027700 3243289.500000
125.069600 24493.300000
141.022900 13478.700000
143.026200 77020.700000
158.049500 3561403.800000
200.097400 18383.000000

