>compound LU71742951
>parentmass 409.1659
>ionization [M+H]+
>formula C25H20N4O2
>rt 1017.780000
>profile orbitrap
#smiles_iso COC1=CC=C(C=C1)C(=O)NC2=NC3=CC=CC=C3C(=C2C#N)NCC4=CC=CC=C4
#smiles_can COC1=CC=C(C=C1)C(=O)NC2=NC3=CC=CC=C3C(=C2C#N)NCC4=CC=CC=C4
#inchikey FFHQNQNMELQOEF-UHFFFAOYSA-N
#pubchem_id 10201497
#mb_accession LU063101,LU063102,LU063103,LU063104,LU063105,LU063106

>ms2
135.044500 298990.100000
394.143800 25234.200000
409.165800 20035790.000000

>ms2
77.038500 22233.900000
91.054200 386367.100000
92.025200 41432.500000
95.049100 25082.100000
125.059600 44261.700000
135.043900 22070140.000000
211.061200 23100.900000
258.102700 34970.000000
276.113000 319493.000000
301.108100 35053.000000
391.155300 356695.800000
409.165800 5475246.500000

>ms2
53.038600 107642.800000
77.038200 55103.100000
79.054100 78543.700000
91.054200 749786.000000
92.025500 159875.400000
95.049100 313561.800000
105.044700 124233.200000
107.049100 55394.400000
125.059700 469954.500000
135.043900 26885220.000000
173.071100 33837.800000
231.091400 28928.200000
258.102500 57615.700000
276.113200 34399.500000
391.155800 50825.600000

>ms2
53.038600 564639.900000
55.017800 27091.000000
63.022700 49226.300000
65.038500 40449.100000
68.025600 48160.200000
77.038400 228686.500000
79.017800 30479.700000
79.054200 417983.600000
81.033500 67748.200000
91.054200 922281.900000
92.025600 762792.200000
94.041200 56077.100000
95.049100 1601222.900000
105.044700 634793.500000
107.049100 213065.400000
124.051700 36629.500000
125.059700 1848136.500000
135.044100 21571266.000000
231.092100 39907.700000
257.094900 23102.700000

>ms2
51.023000 15633.400000
53.038600 1308339.000000
54.046400 20056.900000
55.017800 74908.600000
55.054200 22477.700000
63.022800 94490.500000
64.030700 71864.700000
65.038500 99643.000000
68.025600 69385.000000
68.997100 19937.500000
77.038500 508662.900000
79.017800 42562.100000
79.054200 821348.400000
81.033500 150366.100000
81.069900 23049.800000
83.049200 14511.300000
91.054200 884036.900000
92.025600 2256611.000000
94.041300 147749.200000
95.049100 3929390.500000
96.020500 25028.800000
98.036200 13329.900000
105.044700 1492452.900000
107.049100 326911.200000
109.064800 33042.300000
111.044200 20873.000000
124.051900 52618.600000
125.059700 2508585.800000
135.044200 10610788.000000
136.052300 13638.200000
139.075200 22993.700000
231.091800 16347.800000

>ms2
50.015200 16078.100000
51.022900 29250.100000
53.038600 2263815.800000
54.046400 57432.600000
55.017800 118417.700000
55.054200 15563.400000
62.015100 10606.600000
63.022900 303609.100000
64.030700 216307.200000
65.038500 194261.800000
67.054200 23060.400000
68.025600 55988.700000
68.997000 24031.600000
77.038500 875758.100000
78.046400 8316.700000
79.054200 1013140.800000
81.033500 274083.200000
81.069900 32840.500000
83.049100 14166.900000
91.054300 943492.300000
92.025600 5179161.500000
94.041300 241532.200000
95.049100 6638285.500000
96.020600 19881.000000
97.053200 8609.200000
98.036300 21543.300000
103.054300 8386.200000
105.044700 2698577.000000
106.041700 17264.000000
107.049100 234528.100000
109.064800 60801.300000
111.044000 12088.800000
123.043600 6725.800000
124.051800 47592.100000
125.059700 2081221.100000
135.044100 4960622.000000
136.052400 9272.600000
139.075400 16899.100000
204.081200 7305.900000
231.091800 9900.900000
256.086900 13299.600000

