>compound LU71126660
>parentmass 124.07570000000003
>ionization [M+H]+
>formula C7H9NO
>rt 236.250000
>profile orbitrap
#smiles_iso COC1=CC=C(C=C1)N
#smiles_can COC1=CC=C(C=C1)N
#inchikey BHAAPTBBJKJZER-UHFFFAOYSA-N
#pubchem_id 7732
#mb_accession LU014601,LU014602,LU014603,LU014604,LU014605,LU014606,LU020101,LU020102,LU020103,LU020104,LU020105,LU020106

>ms2peaks
53.038600 6408.300000
65.038500 15721.700000
79.054200 12256.000000
80.049500 9838.800000
81.057300 59546.300000
92.049500 554396.800000
93.057300 758204.600000
94.065200 25935.100000
95.049200 17617.700000
96.044400 7184.500000
96.080800 3972.700000
97.064800 11177.300000
107.049000 3751.200000
108.044400 6458.600000
109.052200 323137.800000
110.060000 38846.100000
123.067900 37495.900000
124.075700 3339346.200000

>ms2peaks
53.038700 6737.500000
65.038500 16813.800000
68.049400 3630.800000
79.054300 12803.600000
80.049500 8322.000000
81.057300 49346.800000
92.049500 548417.700000
93.057300 743493.600000
94.065100 22403.100000
95.049200 21069.000000
96.044400 5646.400000
96.080700 4543.600000
97.064900 12588.900000
109.052300 295197.900000
110.060000 38124.800000
123.067900 36862.500000
124.075700 3282586.500000

>ms2peaks
53.038700 9046.700000
65.038500 24210.600000
68.049400 4166.400000
79.054200 12948.500000
80.049400 14487.100000
81.057300 80624.800000
92.049500 638009.100000
93.057400 960764.200000
94.065200 32160.600000
95.049100 34623.600000
96.044400 6080.900000
96.080700 3311.100000
97.064900 14625.100000
107.049300 3261.500000
108.044300 8202.200000
109.052300 401474.700000
110.060100 45775.900000
123.067900 45340.900000
124.075700 2763521.800000

>ms2peaks
53.038600 35508.700000
55.017800 2542.300000
63.023000 3064.800000
65.038500 76124.700000
66.046300 10542.600000
67.054200 2817.300000
68.049500 3901.100000
77.038400 9213.900000
79.054100 28600.600000
80.049400 45779.200000
81.057300 255273.300000
82.041200 3907.300000
92.025700 89288.600000
92.049500 740430.100000
93.057300 1558675.000000
94.065200 34286.500000
95.049100 120225.900000
96.044400 17457.800000
96.080700 4380.700000
97.064900 16247.000000
107.049200 5959.500000
108.044300 22955.600000
108.057000 3322.800000
109.052200 563606.800000
110.060000 59011.700000
123.067800 68897.400000
124.075700 1266272.100000

>ms2peaks
50.015200 4032.500000
53.038600 67293.800000
55.017900 5785.900000
63.023000 9057.200000
64.030700 9486.900000
65.038500 175928.700000
66.046400 28590.800000
67.054300 7689.200000
68.049500 5192.900000
77.038400 24254.300000
78.033800 2826.600000
78.046500 2304.500000
79.054200 35433.700000
80.049500 133640.400000
81.057300 476216.900000
82.041300 3247.400000
92.025700 276445.800000
92.049500 534502.800000
93.057300 1818408.000000
94.065100 28928.600000
95.049100 234672.100000
96.044300 28316.100000
96.080800 3026.000000
97.064800 12917.500000
107.049200 6748.500000
108.044400 71061.900000
108.056900 4142.800000
109.052200 544566.900000
110.060100 48986.000000
123.067900 70286.400000
124.075700 443212.400000

>ms2peaks
50.015200 5887.900000
53.038600 92806.900000
55.018000 3728.600000
63.022900 27279.100000
64.030700 32219.400000
65.038600 250950.200000
66.046400 58929.300000
67.054200 8198.100000
68.049400 4820.700000
77.038500 60395.500000
78.033800 4319.800000
78.046600 5174.600000
79.054200 31420.800000
80.049500 265605.000000
81.057300 590744.400000
82.041300 4978.000000
92.025700 476786.900000
92.049500 317744.200000
93.057300 1717268.400000
94.065100 16631.300000
95.049100 303397.400000
96.044400 29214.700000
97.064800 5845.300000
108.044400 114190.000000
109.052300 369435.600000
110.060100 22588.500000
123.067900 35873.100000
124.075700 121128.800000

>ms2peaks
53.038600 6191.600000
65.038500 21506.900000
77.038500 5008.400000
79.054400 10965.300000
80.049400 10405.600000
81.057300 62698.000000
92.049500 662005.400000
93.057300 936288.200000
94.065100 31866.900000
95.049100 22293.000000
96.044400 5039.900000
96.080700 4886.100000
97.065000 14039.000000
108.044300 6676.900000
109.052200 416809.400000
110.060000 51252.000000
123.068000 45515.400000
124.075700 4069499.500000

>ms2peaks
53.038600 7336.000000
65.038500 20760.600000
77.038500 5504.500000
79.054300 15522.600000
80.049400 8665.200000
81.057300 67313.500000
92.049500 741723.200000
93.057300 1006986.000000
94.065100 32003.100000
95.049100 24600.800000
96.044400 7250.000000
97.064900 18290.700000
108.044400 8969.000000
109.052200 421600.900000
110.060000 52252.100000
123.067900 48874.800000
124.075700 4302197.500000

>ms2peaks
53.038600 12753.600000
65.038600 36457.300000
77.038600 7777.100000
79.054200 20448.100000
80.049400 19913.700000
81.057300 108070.100000
92.049500 847526.800000
93.057300 1300090.400000
94.065100 39942.300000
95.049200 43319.700000
96.044300 8759.100000
96.080900 5747.300000
97.064800 16586.100000
107.049100 5417.600000
108.044400 9858.700000
109.052200 541432.600000
110.060000 59999.600000
123.067900 54051.400000
124.075700 3533017.000000

>ms2peaks
53.038600 33835.900000
65.038600 91094.900000
66.046400 5910.400000
67.054200 4818.100000
68.049400 5341.000000
77.038600 7711.300000
79.054300 37930.000000
80.049500 48378.900000
81.057300 269547.800000
82.041200 2570.100000
92.025800 98149.800000
92.049500 748247.200000
93.057300 1597786.600000
94.065200 33529.900000
95.049200 111717.800000
96.044500 14789.600000
96.081000 4742.100000
97.064800 18320.900000
107.049300 6250.900000
108.044400 31325.500000
108.056900 3137.700000
109.052300 580324.900000
110.060100 63704.900000
123.068000 75423.000000
124.075800 1274238.500000

>ms2peaks
51.023000 4431.300000
53.038600 80772.100000
54.046400 4287.200000
55.017900 5140.200000
63.022900 9030.800000
64.030700 9470.100000
65.038500 191660.400000
66.046400 27405.400000
67.054200 8651.500000
68.049400 6611.800000
77.038500 33890.500000
79.054200 41692.700000
80.049400 146104.400000
81.057300 547038.500000
82.041200 4852.500000
92.025700 317106.600000
92.049500 611160.900000
93.057300 2057257.100000
94.065100 31616.800000
95.049100 276061.700000
96.044300 21456.500000
96.080800 3034.800000
97.064700 13878.100000
107.049200 7970.000000
108.044400 82010.900000
108.057000 7261.300000
109.052200 601871.700000
110.060000 51353.300000
123.067800 74992.900000
124.075700 495634.500000

>ms2peaks
51.023000 3559.000000
53.038600 114719.000000
54.046400 19973.900000
55.017800 7858.100000
63.022900 36948.900000
64.030700 35914.100000
65.038500 286264.500000
66.046300 74246.400000
67.054100 7797.500000
68.049400 5354.600000
77.038500 71063.200000
79.054200 29672.300000
80.049400 313972.300000
81.057300 687079.100000
82.041300 5672.200000
92.025700 570562.400000
92.049400 360194.500000
93.057300 1989631.800000
94.065100 20162.100000
95.049100 337938.300000
96.044300 21387.500000
97.064700 6066.300000
107.049200 4384.600000
108.044300 146456.100000
108.056700 10082.700000
109.052200 433560.200000
110.060000 33249.900000
123.067800 53595.500000
124.075700 138087.800000

