>compound LU71306582
>parentmass 403.1486
>ionization [M+H]+
>formula C21H23FN2O3S
>rt 794.520000
>profile orbitrap
#smiles_iso C1CN(CCC1CC2=CC=C(C=C2)F)CCS(=O)C3=CC4=C(C=C3)NC(=O)O4
#smiles_can C1CN(CCC1CC2=CC=C(C=C2)F)CCS(=O)C3=CC4=C(C=C3)NC(=O)O4
#inchikey FCBQJNCAKZSIAH-UHFFFAOYSA-N
#pubchem_id 156328
#mb_accession LU026401,LU026402,LU026403,LU026404,LU026405,LU026406

>ms2
109.045100 8069.800000
112.112200 12334.400000
180.011200 57305.900000
193.126100 217198.800000
206.133900 274579.100000
220.149500 2396378.800000
222.128600 12745.000000
238.159900 9034.300000
403.148600 7932823.500000

>ms2
56.049700 11191.300000
58.065100 16512.800000
68.049500 15030.600000
69.057300 726236.700000
82.065100 64792.900000
84.080800 29274.500000
96.080900 7961.400000
97.088600 334475.000000
109.045200 41183.000000
112.112000 86961.700000
136.039300 42542.800000
148.068300 17757.100000
165.995800 24959.800000
180.011300 312284.500000
192.118200 52181.100000
193.126200 1706918.000000
194.133800 8233.500000
206.134000 1995538.900000
220.149500 7870388.000000
222.128400 28552.200000
236.144300 63087.700000
238.160100 55442.200000
403.148700 240268.200000

>ms2
55.054300 6289.100000
56.049500 182049.300000
57.057300 9944.600000
58.065100 227047.500000
67.054100 14960.300000
68.049400 89696.900000
69.057300 2084504.600000
70.065100 145037.500000
72.080800 20944.600000
81.069900 7260.900000
82.065100 173410.900000
83.073000 18951.000000
84.080800 318085.400000
95.073000 9383.800000
96.080700 70982.200000
97.088600 426262.900000
98.096500 7557.000000
108.080700 7162.900000
109.044800 352087.200000
110.096500 74145.900000
111.104200 41949.700000
112.112100 66322.400000
120.044500 8710.600000
123.060300 13397.600000
124.112100 19309.900000
128.061900 5263.600000
135.060500 108515.900000
136.039400 136125.400000
136.068200 21275.900000
147.060500 25632.600000
148.068200 163201.600000
149.076100 50193.200000
161.075900 8580.800000
163.091700 45525.800000
165.995700 32683.700000
180.011300 105520.800000
181.990700 9416.800000
192.118300 190592.300000
193.126200 322958.600000
194.133800 8261.200000
206.134000 1785489.400000
220.149600 4850991.000000
236.144200 25724.600000
238.159800 21627.100000

>ms2
54.033800 10471.100000
54.046300 3075.300000
55.054200 33995.700000
56.049500 617886.900000
57.057300 17250.100000
58.065100 466642.700000
65.038500 3155.100000
67.054200 60782.500000
68.049500 251166.500000
69.057300 2298910.800000
70.065100 633218.600000
72.080800 45829.900000
79.054100 13221.700000
80.049400 7841.400000
81.069900 26383.300000
82.065100 309540.200000
83.029100 5101.400000
83.072900 48293.800000
84.080800 679535.700000
92.049700 3250.100000
93.069700 2944.100000
94.065100 5297.700000
95.073000 16978.900000
96.080800 294837.500000
97.088600 196570.200000
98.096500 10081.800000
100.075600 15307.900000
103.054200 4454.200000
108.080800 20429.100000
109.044800 1785910.400000
110.096400 133201.500000
111.104300 81550.000000
112.112000 43354.300000
115.054200 19601.500000
120.044400 9247.900000
121.044700 11066.600000
122.006000 13237.200000
123.060400 68138.600000
124.112100 26852.600000
128.062100 36057.600000
129.069900 13389.100000
133.044700 28353.200000
134.052700 4115.300000
135.060500 370290.500000
136.039400 145533.300000
136.068300 51581.600000
137.005400 3365.700000
143.085300 5507.200000
146.052400 6397.800000
147.060500 136186.900000
148.068300 274437.700000
149.076200 148197.600000
150.071300 10511.100000
152.016400 10068.500000
160.068300 5406.100000
161.076100 16758.500000
163.091700 89280.200000
164.087100 12401.900000
165.995900 19767.700000
175.091900 6220.900000
180.011300 19304.900000
181.991100 16075.200000
191.109900 5756.700000
192.118300 347828.500000
193.019300 5068.800000
193.126400 26705.600000
194.133900 7040.300000
206.134000 1010180.200000
220.149600 1625794.600000
236.144200 4526.600000
238.160000 4724.000000

>ms2
53.002200 6925.700000
53.038600 5857.300000
54.033800 16954.300000
54.046500 5644.500000
55.041800 4128.300000
55.054300 45972.500000
56.049500 795558.200000
57.013600 3590.400000
57.057300 22638.600000
58.065100 318529.000000
65.038500 16160.700000
67.041500 7900.700000
67.054200 84884.300000
68.049500 379154.800000
69.057300 1732110.200000
70.065100 717594.400000
72.080800 29913.100000
79.054200 18056.300000
80.049500 23881.900000
81.069800 18119.500000
82.065100 367630.800000
83.029200 36583.900000
83.072900 58743.000000
84.080800 394274.700000
89.038700 2920.700000
91.054200 3567.500000
93.069800 3328.800000
94.065100 16837.000000
94.995000 3019.800000
95.073000 16888.900000
96.080800 418572.500000
97.088600 74900.400000
98.096400 6418.500000
100.075600 7415.600000
103.054200 23457.500000
108.044500 9879.900000
108.080800 16705.500000
109.044900 2887946.200000
110.096400 84233.700000
111.044300 3392.400000
111.104300 42564.400000
112.112000 17760.700000
115.054300 101033.100000
120.044500 4305.500000
121.044900 18480.500000
122.006000 15297.900000
123.060500 90379.800000
124.112100 6563.200000
128.062000 45645.700000
129.069800 23540.500000
133.044900 89212.100000
134.052700 20889.200000
135.060500 387602.000000
136.039400 107937.000000
136.068300 47745.300000
137.005800 2920.500000
145.064900 5760.500000
146.052700 22463.600000
147.060500 251162.100000
148.068300 138302.000000
149.076200 136883.800000
150.071200 19525.500000
152.016700 6668.800000
153.995200 3297.300000
155.060200 7654.300000
160.068200 5452.800000
161.076000 19387.200000
163.091800 49708.100000
164.086900 8238.300000
165.995600 6475.500000
175.092300 3815.600000
181.990600 10247.800000
192.118400 251999.700000
193.018900 4186.800000
206.134000 228479.400000
220.149600 199235.400000

>ms2
53.002200 7259.100000
53.038600 10023.700000
54.033900 32498.900000
54.046400 8903.300000
55.041700 6184.100000
55.054300 58860.800000
56.049500 671982.200000
57.013500 6999.400000
57.057300 25337.700000
58.065100 169584.600000
65.038600 25105.800000
67.041600 13794.200000
67.054200 71786.700000
68.049500 484317.500000
69.057300 1208394.000000
70.065100 437065.800000
72.080800 15813.500000
78.033900 3707.400000
79.054200 26627.400000
80.049400 42639.400000
81.057400 14281.300000
81.069900 12984.500000
82.065100 369288.900000
83.029100 115805.000000
83.072900 40926.000000
84.080800 148060.800000
89.038600 11852.500000
91.054200 4973.600000
92.049400 6946.300000
94.065100 27686.000000
94.995100 6273.600000
95.072900 11245.300000
96.080800 366006.600000
97.088700 21886.700000
98.096400 4030.600000
103.054200 48818.900000
108.044400 12704.100000
108.080900 7472.500000
109.044900 3123631.200000
110.096400 50350.900000
111.104100 12240.800000
112.111900 3371.300000
115.054300 153302.200000
121.044800 26995.200000
122.005800 9386.700000
123.060500 67857.000000
128.062100 58392.800000
129.069900 27062.700000
133.044800 135705.000000
134.052800 29801.900000
135.060500 251946.200000
136.039400 48688.200000
136.068300 19546.200000
143.085600 4540.700000
145.064800 19121.900000
146.052600 33006.000000
147.060500 243252.900000
148.068300 55618.500000
149.076200 52137.600000
150.071300 16706.100000
153.995700 3735.000000
155.060200 18577.000000
161.076100 10977.000000
163.091600 18860.000000
164.087000 8737.500000
175.091700 3178.700000
181.990700 3976.500000
192.118300 83043.000000
206.134000 21520.800000
220.149600 14056.500000

