>compound LU71833056
>parentmass 399.0758
>ionization [M+H]+
>formula C18H14N4O5S
>rt 1018.480000
>profile orbitrap
#smiles_iso C1=CC=NC(=C1)NS(=O)(=O)C2=CC=C(C=C2)N=NC3=CC(=C(C=C3)O)C(=O)O
#smiles_can C1=CC=NC(=C1)NS(=O)(=O)C2=CC=C(C=C2)N=NC3=CC(=C(C=C3)O)C(=O)O
#inchikey NCEXYHBECQHGNR-UHFFFAOYSA-N
#pubchem_id 5339
#mb_accession LU104701,LU104702,LU104703,LU104704,LU104705,LU104706

>ms2
94.053200 2458.200000
273.050100 2548.900000
305.023100 8634.700000
317.103800 7281.800000
332.090200 3752.800000
381.065800 189184.900000
399.076500 1478861.500000

>ms2
94.052600 16313.100000
95.048900 2501.400000
95.060500 26318.800000
119.012900 19981.200000
121.039600 8473.200000
122.023400 6251.300000
134.023600 1956.400000
137.023100 6767.900000
152.034400 13009.300000
165.029600 43014.900000
197.071400 5433.100000
199.050100 7195.200000
213.066100 41515.100000
223.050200 5407.000000
226.061200 13659.400000
241.060600 49260.200000
242.068600 5478.900000
256.047500 3999.100000
257.055900 26934.500000
259.071700 18118.100000
261.102200 5657.400000
269.067200 3370.800000
273.050700 38002.300000
287.081100 3867.500000
289.109600 3014.600000
305.022900 20595.500000
315.088000 24167.500000
317.103600 158693.300000
332.090900 50540.300000
333.098600 69988.400000
335.114200 20094.900000
349.093300 43961.100000
381.065700 748680.500000
399.076400 146157.700000

>ms2
53.002300 5695.700000
53.038600 2721.200000
67.041700 27738.800000
68.997100 2467.000000
81.033600 12878.400000
91.017900 41133.700000
93.044800 5040.400000
94.052700 220830.900000
95.049100 3555.600000
95.060400 17167.400000
105.044900 4634.400000
106.029000 2947.900000
107.012800 4261.100000
109.028500 6869.300000
111.044100 6457.400000
111.055700 2811.500000
115.054300 6721.700000
119.012900 227458.200000
121.039900 13150.100000
122.023800 15964.100000
134.023700 7482.300000
137.023500 44286.700000
139.054400 55187.100000
140.062000 2289.400000
143.060600 3115.000000
147.019000 5281.900000
152.034400 31091.800000
155.034200 17963.100000
157.006900 11556.000000
158.060000 1972.500000
165.029700 306700.600000
167.049800 4570.400000
167.060400 8626.200000
168.057300 5118.200000
168.068300 6454.000000
169.076100 23124.000000
171.055300 7606.500000
177.034300 3196.100000
179.045300 6917.000000
183.055300 4090.800000
185.071200 20303.600000
186.055200 7801.100000
195.055200 3673.600000
197.071600 3664.300000
199.050400 8984.800000
202.073400 2838.600000
213.066000 129781.400000
223.050100 13964.300000
226.061200 9669.500000
241.060900 127648.300000
242.068900 24963.900000
256.048300 6558.100000
257.055900 113789.200000
259.071800 49761.300000
261.102300 3579.300000
269.067500 10126.700000
273.050900 101583.400000
287.079900 12387.500000
289.109200 4634.200000
305.022600 5437.200000
315.088000 19079.700000
317.103900 38114.000000
332.091100 7115.800000
333.098300 18717.800000
335.114300 2763.100000
349.093500 7011.500000
381.065900 43073.100000
399.076100 3776.800000

>ms2
53.002200 6381.300000
53.038700 7364.000000
63.022800 13353.500000
65.038500 2196.800000
67.041600 106685.200000
68.997200 3769.700000
80.013000 4131.800000
81.033500 33590.100000
91.017900 178148.500000
93.044700 13621.800000
94.052600 355984.000000
95.012700 3064.000000
95.049100 8257.600000
95.060500 8728.700000
96.044400 6722.900000
105.044800 7813.900000
106.028900 2812.500000
107.013000 3016.200000
109.028400 19862.200000
111.044000 5975.000000
111.055500 1898.800000
115.054300 4629.700000
119.012800 447046.500000
122.023800 5077.500000
128.049600 4042.500000
134.023700 3040.100000
137.023400 94457.200000
139.054300 83992.600000
140.049500 7490.000000
141.018300 2218.600000
143.060400 4979.500000
147.019000 9348.000000
151.038700 2328.400000
152.034300 10984.300000
154.977800 3381.600000
155.034000 13713.000000
155.049500 11002.700000
155.060300 17593.200000
156.044700 2097.600000
156.068300 4313.600000
157.006800 5801.000000
157.076200 34364.500000
158.059800 5021.300000
165.029600 256238.600000
166.052200 3000.200000
167.060500 13363.300000
168.057100 3399.100000
168.068200 16037.900000
169.076100 31393.300000
171.055300 11136.900000
172.988400 8446.900000
179.045100 5829.400000
181.063200 3188.900000
182.071800 2591.900000
183.055000 13686.200000
185.034600 7183.900000
185.071000 26271.500000
186.055000 4006.600000
197.071200 1892.800000
200.057900 8919.400000
202.073600 6532.100000
213.065800 19840.900000
241.060800 17147.800000
256.048600 2808.900000
257.055800 49893.000000
259.072200 5127.800000
266.035500 2137.200000
273.050600 16283.400000

>ms2
51.023100 3718.300000
53.002300 9676.700000
53.038600 9631.300000
55.017800 1994.000000
62.015100 2231.700000
63.022900 31871.100000
66.033700 2438.800000
67.041700 258345.900000
68.997000 4490.400000
76.030900 10579.900000
79.018000 2903.300000
80.013200 12135.000000
81.033600 66847.000000
89.038500 2792.100000
91.017900 328795.900000
92.026000 2379.700000
93.044800 17888.700000
94.052600 307854.100000
95.049200 12307.400000
95.060400 4988.000000
96.044400 7901.400000
105.044800 5388.400000
107.012700 6353.600000
109.028300 18985.600000
111.044000 2616.900000
113.038700 3087.700000
119.012900 449207.800000
127.054400 5614.700000
128.049500 5715.000000
129.044700 4066.800000
136.026700 2198.200000
137.023400 91006.300000
139.054300 56791.200000
140.049500 14616.500000
143.060600 3450.100000
152.034300 3704.300000
155.033700 3044.600000
155.049400 9312.400000
155.060300 23547.000000
156.044600 1953.600000
156.068100 8131.500000
157.006800 2217.700000
157.076000 22036.200000
158.060300 3845.000000
165.029600 54721.600000
166.052400 4121.100000
167.060300 5996.700000
168.068300 14042.800000
169.076200 20060.900000
171.055500 2074.400000
172.988700 4829.600000
180.055200 2703.800000
181.063400 2225.800000
182.071800 2800.500000
185.034600 14609.900000
185.071000 8506.800000
200.058200 4735.000000
202.073600 3210.500000
257.055700 5971.500000

>ms2
51.023000 3666.900000
53.002200 12699.600000
53.038600 14588.900000
55.017900 7418.200000
62.015100 6297.500000
63.022900 74732.500000
65.038500 4526.100000
66.034000 1961.400000
67.041600 415599.700000
68.997200 4028.000000
76.030800 21616.800000
79.018000 3917.900000
80.013100 16655.000000
81.033500 82933.500000
89.038600 4844.800000
91.017900 417918.500000
92.025500 4400.400000
93.044900 11135.400000
94.052600 201806.600000
95.049200 12026.800000
95.060400 6662.200000
96.044500 15413.000000
105.044700 7007.100000
106.028600 2785.300000
107.012700 6660.200000
109.028400 10059.600000
113.038500 5871.800000
115.054100 4076.400000
119.012800 207593.200000
119.023400 13599.900000
121.039900 2740.000000
127.054200 3672.600000
128.049600 6314.400000
129.044800 7678.300000
136.026800 2797.200000
137.023400 43970.000000
139.054300 29570.400000
140.049600 13430.800000
155.060200 15672.700000
156.068300 8772.400000
157.076000 9442.200000
165.029400 5227.100000
166.052700 4619.800000
167.060300 3473.600000
168.068100 19988.200000
169.076300 11655.300000
180.055600 2455.900000
181.063300 2541.100000
185.034800 9423.500000
200.058000 3283.900000

