>compound LU71498263
>parentmass 197.08400000000003
>ionization [M+H]+
>formula C10H13ClN2
>rt 680.310000
>profile orbitrap
#smiles_iso CC1=C(C=CC(=C1)Cl)N=CN(C)C
#smiles_can CC1=C(C=CC(=C1)Cl)N=CN(C)C
#inchikey STUSTWKEFDQFFZ-UHFFFAOYSA-N
#pubchem_id 22544
#mb_accession LU075101,LU075102,LU075103,LU075104,LU075105,LU075106

>ms2
117.057200 59064.800000
152.026000 186051.600000
197.084000 31723206.000000

>ms2
58.065100 31951.600000
117.057200 177971.300000
152.026100 434222.700000
197.083900 30792920.000000

>ms2
58.065100 200187.600000
117.057300 2070850.500000
125.015200 71919.500000
134.060000 42816.300000
144.055700 40247.400000
152.026200 1527754.100000
197.084000 14291875.000000

>ms2
58.065200 307390.200000
89.038600 25107.500000
92.049500 15724.900000
104.061900 8883.200000
116.049600 24178.200000
117.057300 6148134.000000
118.065100 29600.200000
120.044700 7874.200000
120.080700 6424.700000
125.015300 390329.200000
134.060000 136464.200000
134.097300 7053.600000
137.011900 13615.200000
141.034000 16982.900000
144.055600 124143.100000
147.091600 35406.600000
152.026200 1153568.900000
153.021400 24823.900000
154.041800 11891.500000
161.107600 17082.400000
197.084100 3044344.500000

>ms2
58.065200 290826.100000
63.023000 10768.200000
66.046500 12499.400000
89.038600 205716.000000
90.046400 73207.300000
91.054100 8859.600000
92.049500 23364.600000
98.999600 55203.100000
104.062300 11446.600000
106.065200 29782.400000
116.049500 60028.800000
117.057300 8433047.000000
118.065200 67487.000000
120.080800 30906.400000
125.015300 1361962.800000
134.060100 180630.500000
134.096500 9769.500000
140.026400 16736.600000
141.033900 52890.700000
144.055700 150898.300000
147.091600 48279.600000
151.018400 8900.600000
152.026200 382531.500000
153.021300 40563.700000
154.041900 16316.700000
161.107300 31034.500000
197.084100 330283.700000

>ms2
58.065200 270044.700000
63.022800 46812.600000
65.038600 31333.000000
66.046400 85893.100000
89.038600 914408.100000
90.046500 402089.400000
91.054300 26340.100000
92.049600 24494.600000
98.999700 330283.600000
104.061900 13906.000000
106.065200 101921.300000
116.049500 106992.900000
117.057300 8618304.000000
118.065000 104885.600000
120.080900 64309.000000
125.015300 2355436.000000
134.060000 167563.300000
140.026300 26044.500000
141.033800 49941.000000
144.055600 145927.500000
147.091400 32835.000000
151.018400 13339.500000
152.026200 76612.400000
153.021500 19606.100000
161.107600 23442.300000
197.084300 31235.500000

