>compound LU72160002
>parentmass 402.1412
>ionization [M+H]+
>formula C24H17F2N3O
>rt 1101.780000
>profile orbitrap
#smiles_iso C1=CC(=CC(=C1)F)CN2C3=C(C=C(C=C3)F)C=C2C(=O)NC4=CC5=C(C=C4)NC=C5
#smiles_can C1=CC(=CC(=C1)F)CN2C3=C(C=C(C=C3)F)C=C2C(=O)NC4=CC5=C(C=C4)NC=C5
#inchikey OCSHTBUKRNOLMC-UHFFFAOYSA-N
#pubchem_id 53316382
#mb_accession LU050901,LU050902,LU050903,LU050904,LU050905,LU050906

>ms2
131.060400 70959.100000
133.075800 13150.400000
136.055700 658339.500000
148.055600 20505.400000
159.055300 352481.100000
162.034900 239629.100000
171.055200 25357.000000
239.097900 24489.800000
241.113500 84140.800000
242.077100 3402.500000
244.093200 2587187.000000
267.092800 266283.800000
270.072300 27550.500000
293.096000 45031.800000
374.147200 4885.100000
402.141400 3087594.200000

>ms2
57.013500 3134.700000
83.029000 4185.800000
104.049300 3154.600000
107.029100 4478.600000
109.044800 2625032.200000
131.060400 1042059.900000
132.068200 601954.500000
133.076000 98992.800000
135.048100 3637.400000
136.055700 1265324.800000
145.075700 4207.000000
148.055600 257553.700000
159.055300 338338.000000
162.034900 763917.800000
171.055200 234570.800000
180.081200 3097.000000
208.111700 13360.400000
212.087300 4357.200000
224.087300 11293.500000
239.097900 501209.500000
241.113500 355271.700000
242.077700 8598.500000
244.093200 1516739.200000
250.066300 3852.600000
252.061800 17149.200000
267.092700 223090.000000
270.072400 81071.900000
293.095900 115270.700000
374.147000 7091.400000
384.129500 12307.400000
402.141000 63172.600000

>ms2
83.029000 35530.500000
89.038500 5645.400000
104.049300 26763.600000
109.044800 4191002.200000
110.039700 4587.000000
131.060400 1490618.000000
132.068100 1554856.000000
133.075900 117313.800000
134.040000 6406.300000
134.060000 5621.900000
135.047900 8868.700000
136.055700 739988.200000
145.076000 11763.800000
148.055600 176293.100000
152.050500 10595.400000
159.055300 69188.400000
162.034900 649596.600000
171.055200 214595.300000
194.096600 4273.600000
206.096500 8073.200000
208.112200 12017.700000
212.086800 42826.200000
222.071300 29301.100000
223.079000 18629.400000
224.087300 9913.900000
238.090200 5708.400000
239.097800 477522.200000
241.113500 70787.200000
242.077700 8176.500000
244.093200 88807.900000
250.066400 11657.400000
252.061800 34231.200000
265.101000 12087.600000
267.093000 16475.500000
270.072300 36313.800000
292.087900 5255.100000
384.129800 6503.500000

>ms2
57.013600 9768.900000
59.029200 7550.300000
83.029200 146643.700000
89.038600 13539.400000
104.049500 142558.700000
106.065200 8390.700000
107.029200 72880.100000
109.044800 4161952.000000
110.039900 20572.000000
116.049500 30742.300000
117.057300 11991.900000
123.024000 10095.800000
123.035200 8383.100000
130.052400 6285.700000
131.060500 1419616.500000
132.068200 1838778.400000
133.076000 90774.400000
134.040000 30646.800000
134.060000 19921.900000
135.048000 22550.100000
136.055700 442971.500000
143.060400 26793.400000
144.055400 7407.800000
145.076000 20076.000000
148.055800 99895.400000
149.027300 14653.600000
150.034900 8076.300000
152.050600 36372.900000
159.055200 19182.200000
161.070900 14056.000000
162.035000 416266.500000
165.069900 12820.400000
167.037700 11034.000000
171.055300 166609.800000
172.055200 4513.600000
180.080700 6347.000000
185.076100 7156.800000
192.080800 8349.700000
194.096100 7786.000000
195.060500 8166.700000
206.096600 6490.900000
208.111900 10400.400000
211.079200 8007.600000
212.087000 109979.500000
219.091600 9983.000000
222.071400 79410.900000
223.079100 38105.000000
237.082100 8103.600000
238.090200 22355.500000
239.098000 177736.900000
250.065700 7166.800000
252.061900 27874.600000
253.069200 8842.900000
265.101000 8280.600000
270.072100 9569.400000
357.138900 14330.300000

>ms2
57.013500 19442.500000
59.029200 16318.400000
63.022800 14857.300000
65.038400 5255.800000
80.049500 7214.700000
83.029100 390753.800000
89.038600 51121.600000
95.049200 4040.400000
96.044500 8071.700000
104.049500 437099.200000
105.045000 4084.000000
105.057300 25772.500000
106.065200 14899.400000
107.029200 237364.300000
108.044500 7487.100000
109.044800 3803017.000000
110.039900 23246.900000
113.039800 7184.500000
116.049500 72297.200000
117.057300 20960.100000
123.024000 7720.900000
123.035100 6600.500000
128.049400 4459.500000
130.052600 9025.200000
131.060500 1143490.100000
132.068200 1851175.800000
133.076000 55792.600000
134.040000 41446.600000
134.060000 47021.300000
135.047800 38318.700000
136.055700 215289.600000
143.060400 57658.100000
144.055500 18745.500000
145.076200 14024.200000
146.039900 5044.300000
148.055700 86394.900000
149.027200 19790.200000
150.034900 13910.600000
152.050600 52743.300000
159.055200 5571.000000
161.071000 7959.400000
162.035000 199507.700000
165.070100 36107.700000
167.037600 20924.600000
171.055200 88287.800000
180.080800 5833.800000
185.076100 13738.700000
191.072800 6859.400000
192.080500 12143.000000
195.060600 14760.500000
208.112300 8234.200000
211.079300 20942.800000
212.087100 73157.700000
219.092000 5691.800000
221.063100 6080.200000
222.071400 82372.000000
223.078800 22015.300000
237.082300 20285.600000
238.090100 16318.200000
239.098000 31015.200000
240.061700 6386.800000
252.061800 28162.600000
253.069800 10589.700000
356.129400 10751.500000
357.138300 8901.900000

>ms2
57.013500 59736.700000
59.029200 51747.700000
63.022900 43840.000000
80.049400 22150.200000
83.029100 978797.900000
85.044800 5721.200000
89.038600 128732.300000
90.033900 5060.000000
92.049600 5905.900000
95.049200 19579.500000
96.044400 35016.000000
104.049500 860075.200000
105.044700 15692.500000
105.057300 115453.500000
106.065100 24927.800000
107.029200 451434.500000
108.044500 8583.500000
109.044800 3370067.800000
110.039800 14296.900000
116.049500 114121.500000
117.057300 36298.000000
123.024000 3846.100000
123.035300 8355.700000
128.049500 10126.200000
129.044700 10523.500000
130.052400 13014.700000
131.060400 873013.900000
132.068200 1707276.600000
133.075900 26496.700000
134.040000 43941.500000
134.060000 55753.200000
135.047800 37931.900000
136.055700 82439.100000
142.052700 8997.800000
143.060400 40673.900000
144.055700 18892.500000
145.076100 12862.000000
146.039900 5624.300000
148.055700 52345.000000
149.027300 13960.600000
150.034900 7260.600000
152.050600 40062.700000
162.034900 72316.400000
164.050100 3853.600000
165.069900 65183.500000
167.037500 16672.400000
171.055000 32142.600000
180.080300 4923.500000
181.053600 3471.200000
191.072900 13689.500000
192.080700 8733.300000
194.052400 11882.200000
195.060400 10212.800000
196.068100 16494.000000
211.079000 32484.100000
212.086900 30310.400000
221.063100 9250.000000
222.071200 68455.100000
223.078800 4190.000000
225.050800 9913.700000
237.082400 15168.900000
240.061900 12781.600000
250.065900 3735.700000
252.062100 14806.300000
253.069300 9041.400000
356.130600 13989.200000

