>compound LU72297113
>parentmass 178.159
>ionization [M+H]+
>formula C12H19N
>rt 993.480000
>profile orbitrap
#smiles_iso CCCCCCC1=CC=C(C=C1)N
#smiles_can CCCCCCC1=CC=C(C=C1)N
#inchikey OVEMTTZEBOCJDV-UHFFFAOYSA-N
#pubchem_id 36382
#mb_accession LU062101,LU062102,LU062103,LU062104,LU062105,LU062106

>ms2peaks
57.069900 31446.100000
91.053900 47171.700000
94.065100 474442.700000
106.065200 20888.800000
107.072400 26594.500000
178.158900 20673104.000000

>ms2peaks
57.069900 45669.600000
91.053900 61240.800000
94.065100 633149.800000
107.072500 29000.900000
178.158900 19432890.000000

>ms2peaks
55.054200 23997.800000
57.069900 194155.500000
85.101200 19949.500000
90.046600 12885.200000
91.054200 524016.500000
93.057300 37003.800000
94.065100 2556224.000000
105.070000 29371.100000
106.065100 56273.300000
107.072900 225541.800000
120.080600 18065.100000
178.159000 12481460.000000

>ms2peaks
51.022900 2065.400000
53.038600 14109.800000
55.054300 40881.600000
57.069900 127082.300000
65.038600 17875.500000
66.046400 12526.400000
67.054200 6997.700000
69.069800 4291.000000
77.038400 6095.000000
79.054300 13420.900000
85.101200 4392.300000
89.038400 3138.300000
90.046400 12565.900000
91.054300 893152.600000
93.057300 46333.000000
94.065200 1461054.500000
103.054100 7029.900000
104.062000 4580.400000
105.069900 57136.400000
106.065200 119855.700000
107.073000 291247.800000
108.080800 4657.400000
117.069900 3165.100000
120.080800 20941.400000
121.088600 4192.100000
177.151300 3536.200000
178.159100 1851242.400000

>ms2peaks
53.038600 74217.500000
55.054200 106669.700000
57.069900 189943.800000
63.022900 7142.000000
65.038600 224717.200000
66.046400 131664.700000
67.054300 19534.700000
69.069900 11572.900000
77.038600 23204.200000
78.046400 13437.700000
79.054200 109929.400000
81.070100 7158.000000
85.101600 3786.800000
89.038400 32658.100000
90.046400 156523.900000
91.054300 3654303.500000
93.057300 210344.900000
94.065200 2204937.500000
103.054300 68494.200000
104.062100 25615.600000
105.070000 198545.400000
106.065200 776150.200000
107.073000 941015.300000
108.080900 8813.800000
115.054200 4182.100000
117.070000 22619.600000
119.085700 6202.600000
120.080800 92270.600000
121.088600 18191.200000
178.159100 712641.200000

>ms2peaks
51.022900 4182.900000
53.038600 39145.600000
55.054300 35778.900000
57.069900 28122.400000
63.022900 7141.800000
65.038600 262623.400000
66.046400 116787.900000
67.054200 10214.600000
69.069900 4558.300000
77.038600 14306.100000
78.046400 13393.200000
79.054200 59973.200000
81.069900 2957.800000
89.038600 43413.900000
90.046400 115399.800000
91.054300 1460640.800000
93.057400 85190.900000
94.065200 368233.800000
103.054300 39728.900000
104.062000 13614.400000
105.069900 57171.100000
106.065100 411520.200000
107.072900 223750.800000
115.054300 2276.700000
117.070000 7759.100000
119.085200 3195.900000
120.080800 43398.100000
121.088700 3670.400000
178.159100 28045.600000

