>compound LU72289258
>parentmass 138.09130000000002
>ionization [M+H]+
>formula C8H11NO
>rt 596.160000
>profile orbitrap
#smiles_iso CC1=C(C=CC(=C1)OC)N
#smiles_can CC1=C(C=CC(=C1)OC)N
#inchikey CDGNLUSBENXDGG-UHFFFAOYSA-N
#pubchem_id 7610
#mb_accession LU108401,LU108402,LU108403,LU108404,LU108405,LU108406

>ms2
77.038600 6533.000000
78.046400 10323.200000
79.054200 36425.900000
94.065100 11661.300000
95.049200 5918.700000
95.072900 8122.500000
106.065100 520435.900000
107.072900 75040.700000
108.044500 12235.000000
108.080800 7063.300000
121.064700 27875.800000
122.060100 80389.100000
123.067800 5247480.000000
138.091300 5044740.500000

>ms2
78.046300 7840.400000
79.054200 33751.400000
94.065000 9533.600000
95.073000 7934.800000
106.065100 470703.500000
107.072900 80229.800000
108.044500 9204.800000
108.080800 5600.600000
121.065000 28216.600000
122.060100 70983.400000
123.067800 4678081.000000
138.091400 4568347.000000

>ms2
78.046300 29224.200000
79.054200 101627.800000
80.049400 7900.200000
94.065100 31415.700000
95.049100 12214.600000
95.073000 20107.300000
106.065100 688071.600000
107.072900 124945.100000
108.044500 20667.100000
108.080800 7353.200000
121.064800 33816.600000
122.060200 136036.000000
123.067800 7199122.500000
138.091300 2944852.000000

>ms2
53.038500 17639.100000
77.038500 10453.100000
78.046300 159628.400000
79.054200 362776.300000
80.049500 30824.300000
80.062000 9017.700000
86.003600 15819.500000
91.054100 20371.800000
93.057200 8412.100000
94.065100 122505.100000
95.049100 60776.900000
95.072900 58195.800000
96.044500 8802.300000
105.057400 9981.600000
106.041400 94925.000000
106.065100 849304.300000
107.049100 31494.300000
107.072900 155730.700000
108.044300 95225.500000
121.064800 28328.000000
122.060100 369656.100000
123.067800 7811265.500000
138.091300 761528.900000

>ms2
53.038600 59983.900000
65.038500 12255.100000
66.046300 8839.400000
67.041600 11397.000000
77.038500 33756.700000
78.046400 637259.900000
79.054200 626335.100000
80.049500 107580.800000
80.062000 8758.600000
81.033500 8652.500000
86.003600 19010.500000
89.038600 13458.000000
91.041600 8564.100000
91.054300 37802.000000
93.057200 15969.900000
94.065200 313065.800000
95.049100 182992.600000
95.072900 95955.800000
96.044500 16476.800000
104.049600 23005.400000
105.033700 8810.100000
105.057500 28640.700000
106.041400 257152.700000
106.065100 978983.300000
107.049200 82505.200000
107.072900 149263.800000
108.044400 194634.300000
121.064700 17111.000000
122.060100 982765.600000
123.067800 6365811.500000
138.091400 157563.100000

>ms2
51.022900 4947.100000
53.038600 100557.500000
63.022900 6966.600000
65.038500 286021.800000
66.046400 9286.400000
67.041800 3088.000000
67.054200 7631.200000
77.038500 54534.800000
78.046400 485312.500000
79.054200 134760.000000
80.049400 211483.400000
81.033300 11152.500000
86.003600 9354.200000
89.038500 11923.800000
91.054200 688227.800000
92.049400 4265.500000
93.057300 108132.400000
93.070000 6616.800000
94.065100 434226.800000
95.049100 242464.200000
95.072900 197427.100000
96.044400 7062.300000
104.049400 7390.200000
105.033600 25285.200000
106.041400 81667.400000
106.065100 459321.700000
107.072900 486353.700000
108.044300 1326689.100000
121.064800 133924.400000
122.060000 145408.200000
123.067800 655421.600000
137.083400 14992.700000
138.091300 45620.900000

