>compound LU72504916
>parentmass 182.1176
>ionization [M+H]+
>formula C10H15NO2
>rt 404.220000
>profile orbitrap
#smiles_iso C1=CC=C(C=C1)N(CCO)CCO
#smiles_can C1=CC=C(C=C1)N(CCO)CCO
#inchikey OJPDDQSCZGTACX-UHFFFAOYSA-N
#pubchem_id 8416
#mb_accession LU128701,LU128702,LU128703,LU128704,LU128705,LU128706

>ms2
94.065100 4397.300000
104.049500 6484.800000
106.064800 24267.800000
118.065200 26275.800000
119.073100 87839.100000
120.080900 308617.900000
131.073100 7499.600000
137.083700 44989.700000
138.091500 106230.600000
146.096500 158021.600000
164.107100 705030.800000
182.117700 2979067.000000

>ms2
77.038600 6789.600000
91.054200 6380.600000
94.065200 17135.900000
104.049300 17590.900000
106.064900 69656.300000
117.057300 6625.900000
118.065100 78681.600000
119.073000 232554.000000
120.080800 918505.400000
121.088600 8359.600000
129.069900 7082.700000
131.073000 26980.500000
137.083500 134954.500000
138.091400 304888.200000
146.096400 465000.500000
164.107000 1752364.900000
182.117600 5545857.000000

>ms2
74.096300 2312.700000
77.038500 5863.000000
79.054200 13024.800000
91.054100 10497.800000
93.057200 8628.700000
93.069900 9173.900000
94.065200 46825.500000
95.049000 3843.800000
103.054200 18326.800000
104.049400 42901.000000
105.069800 16075.400000
106.065100 273182.100000
117.057300 16336.000000
118.065200 178587.600000
119.073100 364272.100000
120.080800 1890866.500000
121.088600 14633.300000
129.069800 12365.400000
130.065200 14110.600000
131.073000 73543.800000
136.076100 2663.500000
137.083600 190112.400000
138.091400 194789.300000
144.080700 14628.700000
146.096500 362612.200000
164.107100 898533.700000
182.117600 779765.600000

>ms2
51.023000 3155.500000
53.038600 15681.700000
65.038600 3320.100000
67.054200 3095.800000
77.038200 10911.800000
78.046400 6773.900000
79.054200 67312.800000
80.049400 9239.800000
91.054200 63745.900000
92.049400 26353.100000
93.057300 39286.400000
93.069900 65907.400000
94.065100 116842.300000
95.049200 45244.700000
103.054200 133530.800000
104.049500 78836.200000
105.057400 4051.200000
105.070000 32876.600000
106.065100 1001106.600000
110.059900 3279.000000
117.057300 43139.500000
118.065100 472942.600000
119.073000 546044.600000
120.080800 2921648.500000
121.088500 19840.800000
128.062100 6802.200000
129.069800 13672.300000
130.065100 46419.100000
131.073000 129542.800000
132.080800 6315.300000
133.088400 3591.900000
136.075900 4102.600000
137.083500 139300.800000
138.091300 93339.600000
144.080800 26875.900000
145.088200 3912.400000
146.096400 214381.800000
164.107000 328909.200000
182.117600 113402.000000

>ms2
51.023000 2641.900000
53.038600 32308.800000
54.034000 2528.700000
55.017800 3587.300000
65.038600 8074.300000
67.054200 1704.200000
74.096400 2915.000000
77.038500 16324.600000
78.046300 12272.900000
79.054200 79397.100000
80.049300 11188.700000
81.033500 3227.500000
91.054200 95210.700000
92.049500 35909.700000
92.062100 2858.700000
93.057400 59765.300000
93.069900 68447.100000
94.065200 95182.600000
95.049200 95943.000000
103.054300 190342.200000
104.049500 37777.100000
105.057500 8794.800000
105.070000 11226.100000
106.065200 985392.200000
110.060300 4619.900000
117.057300 36807.600000
117.070000 2386.100000
118.065200 450359.500000
119.073000 254172.800000
120.080800 1257441.600000
121.088500 3077.300000
128.062200 5603.400000
129.070000 3901.600000
130.065200 47517.100000
131.073000 61458.600000
132.080700 13279.800000
133.088700 2738.100000
137.083500 18850.700000
138.091200 12703.500000
144.080800 14026.800000
145.088700 3925.000000
146.096500 29520.300000
164.107000 32138.900000
182.117500 5280.000000

>ms2
51.022900 3815.900000
53.038600 77147.500000
54.033800 3074.500000
55.017800 2613.800000
65.038600 17879.100000
67.054300 2861.900000
77.038500 32922.900000
78.046400 40077.900000
79.054200 113592.600000
80.049400 13796.600000
81.033500 8316.300000
91.054200 139361.400000
92.049500 50986.300000
92.061900 5237.900000
93.057300 92470.900000
93.069900 54313.900000
94.065100 81925.700000
95.049200 218741.400000
103.054200 204625.600000
104.049400 26004.300000
105.057400 8929.000000
105.069800 8346.500000
106.065100 1123707.600000
110.059900 6460.200000
117.057300 33831.600000
117.069400 2265.600000
118.065100 472833.200000
119.073000 136295.500000
120.080800 566182.200000
128.062000 4261.800000
130.065200 48305.700000
131.073000 23599.200000
132.080800 13957.800000
137.083600 3395.900000
144.080700 7306.300000
146.096400 5201.700000
164.107000 2714.300000

