>compound LU72300289
>parentmass 241.1699
>ionization [M+H]+
>formula C16H20N2
>rt 806.916000
>profile orbitrap
#smiles_iso CC1=CC(=CC(=C1N)C)C2=CC(=C(C(=C2)C)N)C
#smiles_can CC1=CC(=CC(=C1N)C)C2=CC(=C(C(=C2)C)N)C
#inchikey UAIUNKRWKOVEES-UHFFFAOYSA-N
#pubchem_id 41206
#mb_accession LU087501,LU087502,LU087503,LU087504,LU087505

>ms2
224.143600 6302.000000
226.146300 11067.000000
240.158600 3992.000000
241.166400 3492726.200000

>ms2
120.080900 9425.000000
121.088700 8092.100000
209.119700 28466.500000
224.143500 106504.900000
226.147000 78929.600000
240.162400 12555.600000
241.166400 4115817.000000

>ms2
120.080800 35194.600000
121.088600 23218.000000
134.096600 6228.800000
158.096900 2993.800000
159.104800 2536.500000
192.093500 6052.200000
194.096600 32711.500000
195.104700 2534.400000
207.116900 8454.800000
208.112300 7405.400000
209.120000 301451.600000
210.112900 2153.200000
224.143400 465740.400000
225.149200 6664.700000
226.146900 360632.000000
239.154200 3082.500000
240.161500 53463.100000

>ms2
120.080800 26896.200000
121.088700 18206.700000
134.096600 7546.500000
170.096800 2932.500000
192.093400 16316.900000
194.096600 216981.700000
207.116500 9271.900000
208.112400 62412.600000
209.120100 464008.800000
224.143500 212882.200000
225.148100 13966.700000
226.145700 318074.200000

>ms2
79.054100 15421.200000
94.065100 18986.100000
95.072800 4649.700000
106.065100 19439.800000
118.065100 8811.100000
120.080800 48454.400000
121.088600 34254.600000
133.089100 2875.600000
134.096500 23954.700000
144.080900 32760.400000
145.088700 6281.400000
146.096500 6239.700000
158.097200 10962.900000
159.105500 3047.000000
165.069900 11793.000000
170.097500 10029.600000
180.080800 16189.500000
181.088400 7246.500000
182.097000 13912.400000
191.085800 28644.500000
192.093700 35881.200000
193.088600 63802.700000
193.100900 31890.300000
194.096600 829459.400000
195.091500 25845.700000
207.116500 5334.800000
208.112300 240904.700000
209.119800 440713.200000
222.126700 5695.700000
224.142900 77143.500000
226.143800 317223.800000
239.152600 4336.400000

