>compound LU72357333
>parentmass 189.1022
>ionization [M+H]+
>formula C11H12N2O
>rt 730.680000
>profile orbitrap
#smiles_iso CC1=CC(=O)N(N1C)C2=CC=CC=C2
#smiles_can CC1=CC(=O)N(N1C)C2=CC=CC=C2
#inchikey VEQOALNAAJBPNY-UHFFFAOYSA-N
#pubchem_id 2206
#mb_accession LU034701,LU034702,LU034703,LU034704,LU034705,LU034706

>ms2peaks
56.049300 77254.500000
58.065100 51144.600000
77.038800 30623.400000
120.080700 26658.700000
130.065200 29310.900000
131.073000 48838.000000
144.080700 51611.300000
146.084000 42712.900000
147.091400 80848.800000
161.107400 142814.800000
174.078800 50232.500000
189.102100 25972926.000000

>ms2peaks
56.049400 191702.700000
58.065100 129089.000000
96.068200 53895.600000
104.049400 64515.300000
118.065000 56909.300000
120.080900 56968.000000
130.064900 70453.600000
131.073000 107238.900000
132.080700 59016.900000
144.080700 131627.500000
146.084000 132652.000000
146.096200 69366.400000
147.091600 189793.500000
148.076000 34123.000000
161.107400 328077.800000
172.075600 45291.400000
174.079000 115971.600000
189.102200 29490156.000000

>ms2peaks
55.017800 9243.600000
55.054200 11848.300000
56.049500 299377.000000
58.065100 292594.000000
65.038500 13284.100000
68.049400 8699.800000
69.057100 6820.300000
70.065100 19175.300000
77.038700 8334.000000
81.044700 7525.500000
86.059800 7013.600000
91.054200 59560.500000
92.049500 5227.400000
93.057400 4761.000000
94.065200 5422.900000
95.049000 8578.300000
95.060200 10790.500000
96.044300 25480.000000
96.068200 108250.100000
98.060000 28553.800000
103.054200 12831.800000
104.049400 187185.700000
105.033400 8677.900000
105.069900 16324.200000
106.065100 71594.600000
111.055200 17166.800000
115.054300 4969.600000
117.057200 22715.800000
117.069900 37490.900000
118.065100 113557.500000
120.080800 106387.200000
129.069900 5035.000000
130.065100 126477.800000
131.073000 227189.300000
132.068200 8711.900000
132.080800 94103.200000
133.052100 20877.200000
133.076000 26582.400000
134.096300 19127.600000
135.055100 10005.000000
144.080800 202801.600000
145.064800 66735.500000
145.075000 10713.900000
145.088500 7896.200000
146.083800 198272.700000
146.096300 71809.000000
147.091600 286292.700000
148.075700 36369.400000
149.071100 18855.700000
157.052300 13522.700000
158.060300 15809.700000
159.091600 7568.900000
160.099300 10224.100000
161.107300 260368.700000
172.075600 59109.600000
174.078800 152321.900000
189.102200 4679726.500000

>ms2peaks
51.023100 8900.500000
53.038600 90215.200000
54.033900 14501.600000
55.017900 121235.000000
55.041700 13572.800000
55.054200 65684.500000
56.049500 2946786.200000
57.044700 7882.200000
58.065100 2587488.000000
65.038500 308046.100000
67.017800 14666.100000
68.049400 96107.200000
69.033500 9709.600000
69.057300 99059.100000
70.065000 88733.700000
77.038200 63383.400000
78.046400 10339.400000
79.054200 77384.700000
80.049400 11101.000000
81.033600 13946.600000
81.044700 162176.800000
83.049100 19246.100000
83.060200 12819.300000
84.044200 19716.900000
86.060000 33278.200000
91.054200 448493.600000
92.049500 123371.100000
93.033400 57845.800000
93.057400 38858.200000
93.069900 29799.700000
94.041100 16222.500000
94.065100 77687.100000
95.049100 277985.600000
95.060400 194583.800000
96.044400 120916.100000
96.068200 883005.000000
98.060000 326660.400000
103.054200 183580.800000
104.049400 2067000.800000
105.033500 84481.700000
105.044700 106198.400000
105.057200 58581.900000
105.069900 125831.700000
106.065100 1159420.000000
107.060300 17376.000000
111.055300 73675.800000
115.054200 121644.200000
117.057300 258386.700000
117.069800 551394.200000
118.065100 896964.600000
119.060400 24449.300000
119.072700 8554.600000
120.080800 706978.900000
121.076000 13980.800000
128.049600 15250.100000
128.061900 18825.300000
129.057500 48029.900000
129.069900 28509.800000
130.065100 1034405.800000
131.060700 179035.000000
131.072900 1374074.500000
132.068500 116553.100000
132.080700 590548.400000
133.052100 169810.900000
133.075900 159161.700000
134.047600 16466.400000
134.060100 17740.100000
134.096300 168512.100000
135.055400 44985.800000
143.072900 66509.100000
144.080800 1173843.600000
145.064900 457787.600000
145.075600 230053.500000
145.088500 48520.100000
146.083800 1164313.900000
146.096200 229459.600000
147.091600 1678117.400000
148.075700 92590.900000
149.070900 125073.900000
155.060500 24576.200000
157.052200 155108.200000
158.060100 55362.500000
159.055300 34781.400000
159.091800 54612.300000
160.099400 59432.200000
161.107300 698340.900000
162.091400 23063.400000
171.091700 20816.700000
172.075600 224630.700000
173.070800 48266.600000
174.078800 818911.400000
189.102200 5921440.000000

>ms2peaks
53.002200 28630.000000
53.038600 304401.400000
54.033900 48352.600000
55.017900 160617.000000
55.041700 42503.800000
55.054300 44882.500000
56.049500 4825571.500000
58.065100 2604999.000000
65.038600 708091.700000
67.017900 18586.000000
68.049500 103914.500000
69.057300 184101.800000
70.065100 62890.000000
77.038400 157809.200000
78.046500 44771.900000
79.054200 242043.300000
80.049400 26406.600000
81.033500 33422.200000
81.044700 328200.900000
82.028700 18407.900000
83.049100 9609.900000
83.060300 20610.000000
84.044300 13782.300000
86.060100 43477.600000
91.054200 599790.500000
92.049500 180447.400000
93.033600 43990.200000
93.057400 64538.400000
93.069800 31612.000000
94.041300 26718.500000
94.065100 115625.700000
95.049200 896203.900000
95.060400 353194.200000
96.044400 90446.100000
96.068200 644447.900000
98.060100 406724.900000
102.046400 23661.300000
103.054300 341877.300000
104.049500 2391532.800000
105.033600 84824.500000
105.044800 361633.300000
105.057300 102181.000000
105.069900 135032.400000
106.065100 1971809.200000
107.060400 49227.300000
107.073100 15811.000000
111.055300 26991.800000
112.063200 10483.100000
113.070900 18081.600000
115.054200 353339.900000
116.049600 26441.100000
116.062000 24788.700000
117.057300 398961.000000
117.069900 732375.900000
118.065100 854717.100000
119.060400 28665.500000
119.073000 32487.600000
120.044400 32125.700000
120.080800 552674.500000
121.075800 25222.500000
128.049500 60910.900000
128.062000 31707.500000
129.057300 173647.700000
129.069600 19638.800000
130.065200 1181419.800000
131.060600 367780.400000
131.073000 956378.900000
132.044400 29115.200000
132.068200 271559.200000
132.080800 341204.500000
133.052200 181001.600000
133.076000 99925.100000
134.047500 30702.100000
134.059800 16051.400000
134.096400 125570.100000
135.055200 19993.900000
142.065100 12089.500000
143.073000 120386.600000
144.080800 746629.700000
145.065100 250527.000000
145.075900 408814.300000
145.088200 39244.500000
146.060300 44250.700000
146.083900 705976.000000
146.096400 89450.800000
147.091700 1206480.100000
148.075600 34619.000000
149.071100 79681.100000
155.060300 38759.500000
157.052200 148971.300000
158.060000 42003.600000
159.055100 45113.100000
159.091800 60152.000000
160.099400 45649.000000
161.107400 210124.200000
162.091300 11011.100000
172.075600 96713.100000
173.071100 75640.400000
174.078800 419239.700000
189.102300 948651.600000

>ms2peaks
51.022900 8810.300000
53.002200 38228.000000
53.038600 511258.500000
54.033800 61548.000000
55.017900 148031.400000
55.041700 40148.400000
55.054300 24640.200000
56.049500 5109688.000000
58.065100 1657480.900000
65.038600 826012.500000
67.017800 24431.300000
68.049400 97121.000000
69.057300 168087.900000
70.065100 30445.500000
77.038500 218417.800000
78.046400 96465.200000
79.054200 427323.400000
80.049400 45143.600000
81.033400 49986.100000
81.044700 327689.300000
82.028800 15901.600000
83.060400 14342.300000
84.044500 7196.500000
86.060100 15006.600000
91.054300 576953.000000
92.049500 150166.400000
93.033600 22043.800000
93.057400 94215.200000
93.070000 23555.900000
94.041400 31704.200000
94.065200 119207.100000
95.049200 1465373.200000
95.060300 327475.700000
96.044400 32465.600000
96.068200 290079.800000
98.060000 278304.600000
102.046400 55883.300000
103.054200 385870.900000
104.049500 1473930.600000
105.033600 59924.900000
105.044800 585540.800000
105.057300 81388.800000
105.069900 86940.300000
106.065100 1667965.800000
107.060500 39669.500000
107.073000 8925.300000
111.055000 9335.000000
113.071200 19405.500000
115.054200 516365.300000
116.049600 16457.100000
116.062100 29017.900000
117.057300 352221.000000
117.069800 472728.000000
118.065100 537437.800000
119.060300 28539.000000
119.073200 37716.000000
120.044600 17561.200000
120.080800 266178.600000
121.075900 11114.400000
128.049400 55434.900000
128.062100 21737.900000
129.057300 196036.500000
129.069900 9865.000000
130.065200 912978.100000
131.060500 460545.500000
131.072900 408318.000000
132.044400 31752.000000
132.068200 330372.100000
132.080600 136559.400000
133.052100 119563.300000
133.076000 35772.100000
134.047400 26600.800000
134.096400 39755.900000
135.055200 7350.200000
142.065000 10590.600000
143.073000 91313.700000
144.080800 307968.800000
145.065700 75608.400000
145.076000 400704.400000
146.060100 50494.100000
146.083900 247765.600000
146.096400 26339.100000
147.091700 465835.300000
148.075600 6332.700000
149.070700 30519.500000
155.060200 31689.900000
157.052300 51802.700000
158.060300 7152.100000
159.055600 40218.200000
159.091800 34641.100000
160.099900 11928.600000
161.107200 28788.100000
172.075800 24625.600000
173.071000 74497.700000
174.078700 111628.800000
189.102200 89346.500000

