>compound LU72893957
>parentmass 375.2166
>ionization [M+H]+
>formula C22H30O5
>rt 1009.620000
>profile orbitrap
#smiles_iso C[C@H]1C[C@H]2[C@@H]3CC[C@@]([C@]3(C[C@@H]([C@@H]2[C@@]4(C1=CC(=O)C=C4)C)O)C)(C(=O)CO)O
#smiles_can CC1CC2C3CCC(C3(CC(C2C4(C1=CC(=O)C=C4)C)O)C)(C(=O)CO)O
#inchikey VHRSUDSXCMQTMA-PJHHCJLFSA-N
#pubchem_id 6741
#mb_accession LU090401,LU090402,LU090403,LU090404,LU090405,LU090406

>ms2
135.080600 16103.600000
147.080500 3375.100000
149.096200 3763.800000
161.096100 26151.300000
165.091500 3160.500000
185.096400 12143.600000
187.112000 8322.300000
201.127600 2085.800000
213.127200 2100.900000
225.127100 3405.100000
237.127300 3266.600000
249.128300 2620.200000
251.143300 8115.700000
253.158700 16337.600000
255.174500 3983.900000
263.144400 3046.400000
267.137600 3582.000000
277.158600 6460.300000
279.138400 2853.400000
279.174700 17460.800000
280.182400 1808.700000
281.190300 6326.200000
291.173100 3449.800000
293.189900 12758.600000
297.148800 3074.200000
297.184500 3950.900000
303.174400 16338.000000
309.185100 5249.100000
321.185100 45300.800000
339.195600 76540.700000
357.206300 128501.500000

>ms2
81.069900 3363.500000
93.070100 4417.300000
95.085600 3015.900000
97.064800 1849.000000
99.044000 1812.700000
107.085700 4680.700000
109.064800 2989.500000
109.101200 4319.300000
119.085700 2406.700000
121.064800 14897.100000
123.080300 2214.500000
131.085700 3158.100000
133.101100 4500.900000
135.080500 48487.100000
137.095900 2594.000000
143.086400 2092.400000
145.064800 1893.200000
145.101000 5095.100000
147.080500 8889.600000
149.096200 6967.600000
159.080400 10896.100000
161.096200 77183.100000
165.091300 4141.500000
173.096500 12546.900000
175.111900 7484.800000
177.091200 4424.800000
185.096200 43821.800000
187.111700 34003.800000
189.090800 4228.800000
197.096400 1920.500000
199.111900 6201.800000
201.127700 2479.200000
209.096400 2475.800000
211.112000 21533.500000
213.127400 11174.800000
223.111600 2840.600000
225.127800 9181.100000
227.143400 4729.100000
235.112400 4789.100000
237.127600 17606.800000
239.143200 7598.600000
249.127800 4354.400000
251.143200 21796.000000
253.158800 51939.900000
255.174700 5431.700000
261.127900 5955.500000
263.143200 7077.600000
265.158800 5022.500000
267.138100 6184.200000
277.159300 12703.000000
279.138300 7632.900000
279.174100 20759.000000
280.182200 16945.900000
281.190600 6811.400000
288.152000 4378.600000
291.174800 6430.800000
293.190600 11395.900000
297.148300 5058.300000
297.185900 2183.100000
303.174500 17742.600000
309.185100 6763.700000
321.185100 17001.300000
339.195600 13459.500000
357.206100 16257.600000

>ms2
55.054300 4193.800000
67.054100 2938.900000
79.054200 3365.600000
81.069800 5372.500000
83.049100 3212.400000
91.054200 5034.900000
93.070000 9406.600000
95.085500 4556.900000
97.064900 2974.400000
99.043800 2009.400000
105.070000 11641.400000
107.085600 12496.000000
109.101100 4965.100000
117.070000 3162.100000
119.085700 8758.900000
121.064900 36228.600000
123.080400 2613.100000
129.070100 2406.400000
131.085400 8005.600000
133.064900 2357.500000
133.101200 7941.300000
135.080500 52219.000000
137.096200 2044.800000
143.085200 5589.300000
145.064700 5914.800000
145.101200 10600.200000
146.072600 3039.300000
147.080500 11404.700000
149.096000 6729.500000
157.101200 3999.100000
158.072800 3715.700000
159.080300 18851.300000
161.096100 81472.900000
165.069500 2010.100000
171.080500 4985.000000
173.096100 20173.500000
175.111500 6658.200000
177.091200 5357.500000
181.100900 2064.100000
185.096200 51516.500000
187.111800 29350.000000
189.091200 5583.600000
193.101300 2213.700000
195.080600 3957.800000
196.089200 2652.100000
197.096500 3379.700000
199.111700 10163.200000
201.127700 3388.400000
207.116900 2287.800000
208.088000 3649.400000
209.096100 10407.500000
210.104200 5682.600000
211.111800 40807.200000
213.127700 10064.500000
222.103800 7557.700000
223.111900 12472.200000
224.119900 6339.000000
225.127100 8436.000000
227.142900 3035.500000
235.111600 5678.600000
236.119600 7818.200000
237.127500 16111.600000
238.135000 8862.800000
239.142800 6196.900000
247.111300 2230.600000
249.127000 5671.900000
250.135100 3103.600000
251.143400 13918.000000
253.158900 20390.000000
261.126900 4153.600000
263.143300 4460.000000
265.158500 10328.800000
267.136600 2094.400000
273.126600 2573.800000
277.159100 2731.100000
279.136400 1968.400000
279.174200 7357.000000
280.182500 11741.200000
288.151800 3622.000000
303.174300 3119.800000
309.182900 1829.300000

>ms2
55.054300 2815.400000
67.054200 6674.700000
79.054300 8495.100000
81.070000 5830.500000
91.054300 16877.900000
93.070000 10854.300000
95.049200 3046.300000
95.085600 2920.400000
97.064800 3149.600000
105.070000 24074.000000
107.085600 13706.500000
109.064900 2392.100000
109.101500 2723.500000
115.054400 5335.100000
117.069900 8337.800000
119.085700 10218.000000
121.064800 29742.800000
128.062200 2368.900000
129.070100 4133.500000
130.078200 1938.000000
131.085700 11095.100000
133.064900 2659.600000
133.101300 11546.900000
135.080500 32677.700000
142.077800 3252.700000
143.085600 6105.600000
145.064900 7504.100000
145.101500 4353.000000
146.072900 4814.700000
147.080600 7519.800000
149.096200 2245.200000
155.085500 4178.200000
157.101300 4586.300000
158.072900 8502.300000
159.080700 14642.100000
160.088700 2630.200000
161.096200 42250.300000
171.080600 7711.000000
172.088300 6766.900000
173.096000 9254.100000
175.111700 2374.000000
179.086200 2134.400000
181.065300 2269.100000
183.081000 2962.600000
185.096400 28357.800000
187.112000 7134.500000
193.101800 8431.700000
195.080800 5560.000000
196.088500 6645.500000
197.096300 7697.300000
199.112300 3320.800000
205.101900 2148.900000
207.117300 3387.300000
208.088600 4194.900000
209.096600 13602.100000
210.104100 6513.100000
211.111900 18986.300000
221.096100 3382.900000
222.104100 5842.200000
223.112000 9603.100000
224.119700 5334.100000
225.127500 4238.800000
235.112300 2843.100000
236.119700 6723.200000
237.127400 6014.900000
238.134900 4145.500000
247.112000 3011.500000
249.127400 4089.100000
250.135900 2021.400000
251.143100 4132.800000
263.143200 2100.200000
265.158800 8067.600000
273.127000 2702.700000

>ms2
53.038700 4472.000000
55.017900 5059.900000
55.054300 5413.900000
65.038300 2211.300000
67.054200 7418.300000
79.054300 14021.900000
81.069900 6481.900000
83.049100 2101.000000
91.054300 39018.400000
93.069900 14905.800000
95.049300 8638.300000
95.085500 2318.100000
103.054300 3241.400000
105.069900 41156.600000
107.049300 4793.000000
107.085500 14121.600000
109.064900 3924.500000
115.054200 19225.000000
116.062300 2631.800000
117.069800 13362.100000
119.085600 10085.600000
121.064900 32356.300000
128.062100 7097.200000
129.069900 12342.200000
130.077900 3384.200000
131.049100 2929.800000
131.085800 9849.400000
132.057100 2340.500000
133.064800 2731.100000
133.101200 7184.600000
135.080600 15813.900000
141.070100 6144.900000
142.077700 11861.500000
143.085600 4248.900000
144.057400 4885.700000
145.064900 14763.400000
145.101200 5983.900000
146.072600 12391.000000
147.080500 6404.500000
152.062200 3516.600000
153.070200 2785.100000
155.085400 4471.600000
157.101500 5900.400000
158.072800 15407.100000
159.080500 14812.700000
160.088400 2457.500000
161.096200 18882.800000
165.070000 7081.800000
166.077900 4449.200000
167.085800 3473.000000
169.065100 2531.600000
170.072400 3317.300000
171.080700 12842.700000
172.088300 8121.200000
173.096100 3176.100000
178.077700 7548.800000
179.085700 7422.800000
181.064800 7383.900000
181.101300 2346.800000
183.080700 4225.300000
185.096200 15558.600000
187.111600 3301.300000
190.077800 2259.800000
191.085300 2832.300000
192.093200 2738.500000
193.101300 8950.500000
195.080300 12896.800000
196.088700 10054.700000
197.096100 4480.600000
203.085700 3648.600000
205.100900 4019.200000
207.080700 4062.300000
208.088500 7548.400000
209.096200 17795.200000
210.104400 6030.900000
211.112100 5725.600000
215.086400 2376.400000
217.101400 2101.800000
220.088000 2657.000000
221.096200 6351.200000
222.104600 4418.500000
223.111700 9769.800000
235.111500 4372.400000
236.120300 3795.000000

>ms2
53.038600 5684.800000
55.017900 3706.500000
55.054300 5114.900000
65.038500 3775.800000
67.054300 9061.400000
79.054200 13551.500000
81.069800 7031.300000
91.054200 54198.100000
93.069900 10086.800000
95.049200 12311.300000
95.085400 1861.700000
103.054200 5507.000000
105.069900 31629.800000
107.049100 3739.800000
107.085500 4731.900000
109.064800 3738.200000
115.054200 22501.400000
116.062000 5493.900000
117.070000 9261.800000
119.085400 6046.100000
121.064800 24550.900000
128.062000 13879.100000
129.069900 11145.000000
130.077600 3571.100000
131.049200 5959.300000
131.085500 4705.000000
132.057100 3543.400000
133.101300 3320.500000
135.080500 5548.600000
141.070100 11816.200000
142.077800 12126.400000
143.085600 2720.900000
144.056900 4180.900000
145.064700 11705.000000
145.100800 1943.600000
146.072700 8467.200000
147.080400 1897.400000
152.061700 4754.700000
153.069900 4883.400000
155.085300 4890.600000
158.072300 7861.800000
159.080500 4322.500000
161.096000 3661.600000
165.069700 15286.500000
166.077600 4867.800000
167.085500 4139.700000
169.064400 5202.500000
170.072500 3910.800000
171.080500 7038.900000
172.088200 5546.100000
178.077700 11222.900000
179.086000 8336.900000
181.064900 8689.400000
183.080700 4476.700000
185.096000 6123.400000
190.078000 2737.900000
191.085800 4784.700000
192.093500 1839.900000
193.101200 4580.000000
195.080600 14291.100000
196.088300 3390.900000
197.096100 3440.300000
203.085300 5104.500000
205.100900 2943.900000
207.080600 5465.700000
208.088400 5323.400000
209.096100 10972.000000
210.103900 2523.600000
215.085600 2271.800000
217.101900 1856.800000
220.088800 2152.400000
221.096000 5076.200000
223.111400 3857.900000

