>compound LU72197505
>parentmass 234.0583
>ionization [M+H]+
>formula C12H11NO2S
>rt 917.040000
>profile orbitrap
#smiles_iso C1=CC=C(C=C1)S(=O)(=O)C2=CC=CC=C2N
#smiles_can C1=CC=C(C=C1)S(=O)(=O)C2=CC=CC=C2N
#inchikey JBCUKQQIWSWEOK-UHFFFAOYSA-N
#pubchem_id 77956
#mb_accession LU047701,LU047702,LU047703,LU047704,LU047705,LU047706

>ms2
79.041700 3844.600000
92.049500 139064.100000
93.057300 51264.300000
97.052100 4922.100000
106.028800 2615.400000
108.044400 72459.900000
110.060000 2528.600000
156.011300 50651.400000
234.058400 814434.900000

>ms2
65.038600 6910.400000
68.049500 2225.500000
79.041600 8956.600000
80.049300 2517.200000
91.054300 18935.200000
92.049500 431159.500000
93.057300 117086.700000
97.052200 9295.100000
106.028800 6095.700000
108.044400 200775.400000
110.060000 7534.100000
156.011400 36104.100000
188.052500 2038.800000
206.063800 3217.900000
234.058500 245937.200000

>ms2
53.038600 1891.500000
65.038600 34764.900000
68.049400 1751.700000
79.041700 5508.700000
80.049500 18784.200000
91.054300 40476.000000
92.049500 803426.100000
93.057300 230876.600000
95.049200 6172.600000
97.052200 5958.900000
106.028900 3660.700000
108.044400 282353.900000
110.060200 9985.200000
156.011400 6841.200000
188.054000 27195.200000
206.064600 60719.100000
234.059300 14085.500000

>ms2
53.038700 4209.100000
65.038600 133360.100000
66.046400 7041.100000
77.038700 1876.600000
79.041800 2024.900000
80.049500 78816.400000
91.054300 44072.900000
92.049500 829521.900000
93.057400 332746.700000
95.049200 14921.900000
108.044400 256180.200000
109.052300 2243.200000
110.060100 19263.400000
160.052200 2220.200000
188.053900 67782.600000
206.064500 148651.600000

>ms2
53.002300 2046.200000
53.038600 8711.800000
65.038600 260582.700000
66.046400 22012.300000
77.038500 3740.900000
80.049500 134121.800000
91.054300 39057.700000
92.049500 500701.600000
93.057400 319162.900000
95.049200 15057.700000
104.049500 10313.600000
108.044400 114319.300000
109.052300 2241.300000
110.060200 15525.300000
160.052400 4424.400000
188.053900 38269.200000
206.064600 103369.100000

>ms2
53.002300 2755.200000
53.038700 18308.200000
65.038600 366466.900000
66.046400 44189.700000
77.038500 3372.900000
80.049500 161363.600000
91.054300 42146.000000
92.049500 260813.200000
93.057400 265911.200000
95.049200 15997.500000
104.049600 33841.600000
108.044500 47387.600000
110.060100 16986.400000
188.054000 9745.700000
206.064600 27584.100000

