>compound LU73789778
>parentmass 256.15900000000005
>ionization [M+H]+
>formula C11H21N5S
>rt 1039.260000
>profile orbitrap
#smiles_iso CCNC1=NC(=NC(=N1)SC)NC(C)C(C)C
#smiles_can CCNC1=NC(=NC(=N1)SC)NC(C)C(C)C
#inchikey IKYICRRUVNIHPP-UHFFFAOYSA-N
#pubchem_id 31573
#mb_accession LU028701,LU028702,LU028703,LU028704,LU028705,LU028706

>ms2
71.085400 21961.500000
186.080700 647663.600000
241.134400 29584.200000
256.158800 17697462.000000

>ms2
71.060100 19324.100000
71.085500 251267.500000
91.032400 31070.800000
96.055600 114543.000000
116.027700 34984.700000
138.077400 29232.800000
144.059000 16133.800000
158.049600 30460.200000
166.133900 49154.500000
186.080800 5895477.000000
241.134800 19152.600000
256.158900 13778473.000000

>ms2
57.069900 11745.800000
68.024200 111856.300000
70.065100 20303.300000
71.060300 402925.800000
71.085500 470014.900000
74.005700 30391.900000
85.050900 41104.100000
88.075600 39433.800000
91.032400 898470.800000
96.055600 825415.100000
102.037200 64841.000000
102.091300 26543.000000
110.046000 18915.600000
113.082100 114335.500000
116.027700 389412.500000
138.077400 373087.800000
144.059000 271129.900000
158.049500 417872.200000
166.133700 36925.900000
171.057400 21807.700000
184.065100 12362.300000
186.080800 10918127.000000
208.155700 15226.900000
256.158900 2231581.800000

>ms2
55.054300 12048.600000
57.069900 12876.200000
68.024300 780830.700000
70.065100 23420.000000
71.060300 1622134.400000
71.085500 346523.700000
74.005800 276533.500000
85.050900 289571.800000
91.032400 2619395.200000
96.055600 2052639.600000
102.037200 142600.300000
102.091300 15774.100000
110.046100 133511.100000
113.082100 335675.700000
116.027700 1070766.000000
130.043500 6075.300000
131.038700 6105.300000
138.077400 990189.000000
140.092800 21839.000000
143.025900 7078.500000
144.059000 753772.200000
158.049500 872765.200000
169.054200 18031.700000
171.057400 21476.400000
184.065100 18534.400000
186.080800 5936137.000000
198.081100 9061.500000
256.158900 142210.500000

>ms2
55.054300 12263.200000
57.044800 3765.900000
57.069900 11747.300000
68.024300 1999500.400000
70.039900 5841.000000
70.065100 24415.200000
71.060300 1793833.500000
71.085500 153645.500000
74.005800 679804.100000
79.021000 8200.800000
85.050900 444088.600000
91.032500 1988076.400000
96.055600 1858390.100000
99.001000 5289.900000
102.037200 78956.900000
102.091400 7157.900000
110.046100 267954.700000
113.082100 201010.500000
116.027700 1087841.400000
130.043400 4840.500000
131.038500 3590.600000
138.077400 569306.100000
140.093200 10498.800000
143.026200 8753.200000
144.059000 439741.300000
156.033500 4340.400000
158.049500 453556.800000
159.070300 3345.500000
169.054500 6067.900000
170.049400 6356.500000
171.057300 12173.700000
184.065000 14891.300000
186.080800 1060208.000000
198.080700 5695.500000
256.158200 2913.500000

>ms2
55.054200 17847.600000
57.044700 7079.900000
57.069900 8053.600000
68.024300 3761991.800000
70.040000 10268.200000
70.065100 10560.200000
71.060300 1676275.600000
74.005800 1243029.900000
79.021000 6284.700000
85.050900 439008.200000
91.032400 1126823.800000
96.055600 1285798.200000
99.001000 13028.700000
102.037200 36979.700000
102.091200 3944.600000
110.046100 223030.800000
113.082100 84976.700000
116.027700 845811.300000
130.043400 6017.100000
138.077400 205572.200000
143.025800 10064.400000
144.059000 167952.400000
156.034000 4001.100000
158.049500 141511.500000
170.049700 5348.700000
184.065000 5642.300000
186.080800 145915.200000

