>compound LU73531513
>parentmass 375.18339999999995
>ionization [M+H]+
>formula C21H27ClN2O2
>rt 938.100000
>profile orbitrap
#smiles_iso C1CN(CCN1CCOCCO)C(C2=CC=CC=C2)C3=CC=C(C=C3)Cl
#smiles_can C1CN(CCN1CCOCCO)C(C2=CC=CC=C2)C3=CC=C(C=C3)Cl
#inchikey ZQDWXGKKHFNSQK-UHFFFAOYSA-N
#pubchem_id 3658
#mb_accession LU130601,LU130602,LU130603,LU130604,LU130605,LU130606

>ms2peaks
165.070600 36354.500000
173.128500 459869.300000
201.046600 9681784.000000
375.183500 5465889.000000

>ms2peaks
111.091800 30933.300000
165.069800 120356.900000
166.077800 227242.100000
173.128600 225498.200000
193.076500 18381.200000
201.046600 15847103.000000
375.183500 16280.200000

>ms2peaks
83.060300 22693.700000
84.068200 37397.900000
87.091600 12876.200000
111.091600 45541.200000
165.069900 1218795.400000
166.077700 3975382.000000
173.128400 56566.100000
183.080400 249973.000000
193.076100 318524.600000
199.030800 26582.900000
201.046400 12822163.000000

>ms2peaks
83.060300 29314.100000
84.068200 53498.700000
111.091600 20448.500000
141.069800 15255.100000
165.070000 3317356.800000
166.077600 9332338.000000
183.080400 338142.200000
193.076000 404327.800000
199.030900 91377.500000
201.046500 3803001.000000

>ms2peaks
83.060400 29034.600000
84.068200 51595.000000
115.054300 12386.400000
139.054500 13423.400000
163.053900 11478.900000
164.062300 21363.700000
165.070100 7408196.000000
166.077700 10587481.000000
168.057000 19122.900000
183.080500 144730.700000
193.076000 171732.100000
199.031000 173681.100000
201.046600 665628.200000

>ms2peaks
83.060300 24604.400000
84.068200 31826.800000
98.999500 23080.700000
115.054200 56396.900000
139.054100 45063.400000
163.053600 21030.000000
164.062300 74273.400000
165.069900 11960359.000000
166.077500 5689412.000000
168.056700 94484.200000
183.080300 32319.200000
193.076100 28762.000000
196.051800 33408.400000
199.030900 213196.700000
201.046800 66942.400000

