>compound LU73790425
>parentmass 282.0736
>ionization [M+H]+
>formula C14H10F3NO2
>rt 1048.680000
>profile orbitrap
#smiles_iso C1=CC=C(C(=C1)C(=O)O)NC2=CC=CC(=C2)C(F)(F)F
#smiles_can C1=CC=C(C(=C1)C(=O)O)NC2=CC=CC(=C2)C(F)(F)F
#inchikey LPEPZBJOKDYZAD-UHFFFAOYSA-N
#pubchem_id 3371
#mb_accession LU036701,LU036702,LU036703,LU036704,LU036705,LU036706

>ms2
65.038700 4080.100000
93.033900 2565.900000
145.026300 2866.900000
173.020600 21413.000000
242.061100 157719.200000
262.067400 2403455.000000
282.073600 1681667.100000

>ms2
65.038700 7616.100000
91.054400 2994.900000
93.033700 3589.300000
111.044000 20304.300000
130.028900 14050.500000
173.020900 91617.500000
214.066000 4609.300000
222.056100 2272.500000
240.065600 5499.500000
242.061200 1628210.600000
262.067400 2172461.800000
282.073600 116497.700000

>ms2
53.002300 5599.700000
53.038700 2664.400000
55.017900 26814.600000
65.038600 319799.000000
68.997000 10605.100000
69.033400 3273.000000
79.017800 7856.200000
83.012800 3691.300000
91.054200 4881.200000
93.033500 26577.000000
97.028400 2627.000000
110.036400 13344.500000
111.044100 480001.800000
123.024000 4797.400000
130.028800 232598.700000
145.025900 22570.300000
162.054700 11164.400000
166.065100 4861.800000
173.020900 378586.500000
180.044300 3028.300000
194.060500 10376.500000
195.068100 5136.900000
200.050400 7648.700000
201.034900 3534.900000
214.066300 25929.700000
222.055000 19039.800000
224.050400 6495.700000
240.066100 12089.500000
242.061200 2604069.200000
262.067400 348832.400000

>ms2
53.002200 14487.200000
53.038600 4985.500000
55.017900 36855.800000
65.038600 1267571.400000
67.054200 3098.900000
68.997100 12475.800000
69.033500 4012.100000
71.012800 3369.100000
79.017800 9302.400000
83.012700 7437.400000
91.054300 3277.000000
93.033500 32283.100000
97.028600 4258.900000
110.036300 11676.300000
111.044100 659765.200000
120.044500 6283.000000
123.024100 3108.000000
130.028800 286414.300000
130.040000 18637.300000
139.019100 3863.200000
139.054500 3378.900000
145.026000 211019.000000
150.035100 4391.600000
162.054900 12909.200000
166.065300 23854.200000
167.048900 2670.100000
173.021000 438408.500000
180.044600 4698.800000
186.071200 2023.200000
194.060000 17086.600000
195.067700 2504.000000
200.050900 4755.000000
214.066400 26397.100000
222.055200 15590.100000
224.050300 4348.500000
240.065600 5391.100000
242.061300 514139.200000
262.067100 10856.400000

>ms2
53.002200 21786.500000
53.038700 3281.700000
53.997500 3238.200000
55.017900 13119.200000
65.038500 1513496.200000
67.054300 3627.800000
68.997000 8686.400000
69.033300 2407.100000
78.033800 3172.100000
79.017900 3825.300000
83.012400 2469.600000
83.029000 2266.300000
83.049100 2905.700000
92.049300 3196.900000
93.033500 19039.500000
102.033700 5541.300000
110.036300 7730.200000
111.044100 286433.300000
113.039800 3015.600000
120.044500 11422.800000
123.023800 1807.000000
125.019900 2656.300000
130.028800 134974.400000
130.040000 43323.200000
139.019200 2311.100000
139.054200 15707.200000
140.049400 5851.200000
145.026000 607267.900000
150.035000 2935.900000
159.060800 4219.400000
162.054800 4443.600000
166.065200 19104.600000
167.048700 2763.100000
173.021000 242954.300000
185.063300 3199.800000
186.071600 4473.400000
194.060100 6537.700000
201.034900 2707.300000
214.066500 16275.200000
242.061300 30911.800000

>ms2
53.002200 38005.500000
53.997500 6662.000000
55.017900 5124.000000
65.038600 1301596.400000
68.997200 2297.300000
78.033800 5606.100000
79.017900 2413.900000
83.013100 1957.500000
83.029200 4179.300000
83.049100 3271.500000
92.049400 2611.400000
93.033700 3935.700000
102.033900 10819.700000
111.044100 73001.800000
113.039700 18008.600000
120.044400 12422.100000
125.019700 14018.900000
130.028900 43981.600000
130.040100 52434.300000
139.054300 18471.300000
140.049700 13919.400000
145.026100 801266.900000
159.060900 3263.000000
166.065300 6804.800000
173.021100 65434.100000
185.063500 3045.300000
214.066100 8366.400000

