>compound LU73133538
>parentmass 314.061
>ionization [M+H]+
>formula C13H16NO4PS
>rt 1124.520000
>profile orbitrap
#smiles_iso CCOP(=S)(OCC)OC1=NOC(=C1)C2=CC=CC=C2
#smiles_can CCOP(=S)(OCC)OC1=NOC(=C1)C2=CC=CC=C2
#inchikey SDMSCIWHRZJSRN-UHFFFAOYSA-N
#pubchem_id 29307
#mb_accession LU079001,LU079002,LU079003,LU079004,LU079005,LU079006

>ms2peaks
51.022900 3838.200000
61.010700 14430.600000
64.978700 4936.700000
93.010000 6357.000000
95.049200 8054.500000
96.950800 4709.700000
98.984100 21030.600000
105.033600 2973142.800000
109.005100 14966.700000
113.953400 18357.500000
114.961400 38286.100000
123.979600 5197.100000
125.990100 8908.300000
126.998100 4346.600000
127.015600 46557.600000
128.976700 3074.700000
130.956400 82711.400000
132.056900 5040.700000
133.064800 13428.500000
136.015800 6431.300000
140.976900 20415.300000
141.984900 71494.600000
142.992700 16332.000000
146.060200 6011.300000
151.021300 41246.700000
152.011100 8344.500000
153.013500 3430.500000
155.046800 25369.500000
158.987700 20128.000000
160.021600 167753.700000
162.055000 42236.700000
164.047200 32054.700000
169.008700 5977.600000
170.016200 1177154.100000
171.024000 33340.800000
178.032200 691473.600000
187.019000 237506.300000
190.086400 47119.300000
201.034800 4036.500000
206.063600 89835.300000
214.993100 7790.800000
216.972400 7999.400000
234.982800 40882.500000
239.988100 22276.000000
240.972100 10528.800000
257.998600 1010247.600000
263.013900 146054.700000
268.019300 25605.800000
269.003500 40126.600000
286.029900 1470773.400000
314.061200 1378115.800000

>ms2peaks
53.038600 11575.300000
61.010600 81206.000000
64.978600 37547.900000
77.038200 16940.500000
81.981500 15400.000000
82.989200 9860.000000
91.054200 11473.000000
93.010000 126176.500000
95.049000 35496.900000
96.950600 20227.300000
98.966400 18498.900000
98.984200 135470.100000
105.033500 4124108.800000
107.984400 10616.400000
109.004900 71165.500000
112.945500 5545.400000
112.999900 10916.800000
113.953600 466814.300000
114.961400 620175.700000
116.049500 28756.600000
117.057400 7278.600000
123.026300 9084.000000
123.979600 23413.300000
124.982200 15330.900000
125.989900 62496.200000
126.997700 11178.300000
127.015500 46346.400000
128.977000 19776.800000
129.948000 8282.500000
130.956300 643748.300000
131.963900 4792.100000
132.056900 4516.000000
132.971900 7993.000000
133.010600 6686.700000
133.064700 7863.800000
135.026300 70432.200000
136.016000 22915.200000
137.005600 13434.700000
140.977000 87371.800000
141.984900 543901.900000
142.992600 124463.100000
144.971900 11457.100000
145.052200 12786.200000
145.979600 5090.400000
146.060000 18041.300000
146.987500 5697.100000
148.966900 11739.800000
151.021200 151344.500000
152.010900 5463.600000
153.013400 11832.900000
155.046500 4547.100000
158.987600 93437.400000
160.021500 156066.800000
162.055000 226172.900000
162.982700 5749.500000
164.047300 9129.500000
169.008800 4893.600000
170.016100 869314.000000
171.023900 60119.600000
176.016300 5350.200000
178.032100 649546.500000
187.018900 177504.700000
190.086300 87936.700000
201.034300 5204.100000
206.063600 69793.200000
214.992700 15618.800000
216.972300 16271.700000
234.982500 100478.300000
239.987700 40305.100000
240.972100 26725.800000
252.993000 5116.700000
257.998400 357507.400000
263.013700 37119.400000
268.019300 4292.800000
269.003300 12785.100000
286.029800 101459.300000
314.061100 19016.600000

>ms2peaks
53.038600 41543.600000
58.995100 3876.200000
61.010600 101399.400000
64.978700 173661.500000
68.013100 9560.000000
77.038400 22281.500000
78.994300 9277.100000
79.054300 6068.200000
81.981500 11354.900000
82.989200 25774.200000
89.038600 3699.900000
91.054300 88971.500000
93.010000 322278.000000
94.041400 4282.100000
95.049200 129024.600000
96.950700 34746.200000
98.966500 39655.000000
98.984200 248430.500000
103.053900 4035.800000
105.033500 3397530.800000
106.065000 15840.500000
107.984500 19893.000000
109.004900 89462.600000
109.010800 6048.500000
112.945800 5732.700000
112.999800 17511.300000
113.953600 1053001.100000
114.961400 1441525.800000
116.049500 78031.200000
117.057300 25429.900000
123.026300 35483.600000
123.979500 54760.400000
124.982100 16359.500000
125.990000 22595.600000
126.997800 6162.500000
127.015400 6915.600000
128.976900 32673.800000
129.948800 7872.800000
130.956300 868548.100000
131.964100 14244.300000
132.971900 13872.100000
133.010700 17151.200000
133.064900 5236.700000
134.060100 15331.500000
135.026300 77000.100000
137.005700 52233.400000
140.977100 41026.100000
141.984900 228964.200000
142.992700 188619.400000
144.044300 3650.600000
144.972000 14789.500000
145.052400 28423.900000
145.980000 9337.700000
146.060000 25325.700000
146.987500 11342.300000
148.021700 3554.000000
148.966800 16223.100000
150.037300 6990.500000
151.021200 160622.100000
158.987600 31085.200000
160.021600 83375.800000
162.055000 316878.700000
162.982400 9501.000000
170.016100 59580.500000
171.024600 4244.500000
176.016400 7406.700000
178.032100 393626.300000
187.018900 12922.000000
190.086400 38658.100000
206.063500 20264.600000
214.991600 3814.400000
216.972000 10550.100000
234.982800 38049.200000
239.987900 20631.700000
240.971800 11979.200000
252.992900 4340.400000
257.998700 67580.900000

>ms2peaks
51.022900 3504.500000
53.038600 119630.600000
55.017900 3656.700000
58.994900 5311.700000
61.010600 98787.500000
64.978700 410861.000000
68.013100 17036.700000
68.997000 4961.300000
74.096300 3147.300000
77.038400 45818.900000
78.994400 13607.500000
79.054200 31263.200000
81.033500 11080.700000
81.981400 7636.300000
82.989300 19128.300000
89.038500 13104.000000
91.054200 220060.300000
93.010000 267347.400000
94.041200 15809.100000
95.049200 379479.200000
96.950800 45089.600000
98.966500 31466.400000
98.984200 370318.100000
104.049400 4222.500000
105.033500 2505933.800000
105.044400 150834.000000
106.065100 51022.900000
107.049200 5960.900000
107.984500 18554.500000
109.004900 70099.800000
109.010400 19807.500000
112.945300 3317.100000
112.999900 18225.500000
113.953600 931579.800000
114.961300 2000274.000000
116.049500 136891.700000
116.965200 5266.800000
117.057300 30303.700000
118.065100 6169.800000
121.010600 3140.600000
121.028400 3557.500000
123.026300 51182.000000
123.979400 46516.100000
125.990000 4375.200000
128.977000 49676.400000
130.956300 744505.000000
131.963900 9097.100000
132.056800 3764.100000
132.971900 24822.900000
133.010800 17420.000000
133.052300 9458.200000
134.018500 3838.900000
134.060000 26072.200000
135.026400 25414.400000
137.005600 72380.900000
140.976900 7574.800000
141.984900 27392.500000
142.992700 65313.900000
144.044500 3977.600000
144.971700 5976.200000
145.052300 45548.300000
145.979700 12304.500000
146.060100 38123.300000
146.987500 17052.300000
148.021400 7854.500000
148.966700 14044.800000
149.005300 7645.600000
150.037200 8100.000000
151.021200 78562.300000
159.013800 3749.700000
160.021600 38514.800000
161.016900 5760.500000
162.055000 202570.900000
162.982300 9518.800000
176.016600 6497.000000
178.032100 204828.900000
190.086000 7803.900000
206.063900 3295.300000
216.972100 4486.200000
234.983300 4863.300000

>ms2peaks
50.015100 4232.700000
51.022800 6891.300000
53.038600 259060.700000
55.017900 15009.400000
58.995000 8587.900000
61.010600 92002.100000
62.945200 4548.400000
64.978700 821689.300000
68.013000 23237.000000
68.997100 8469.400000
74.096200 3707.300000
77.038500 89399.700000
78.940200 7684.200000
78.994300 37133.000000
79.054200 73054.400000
81.033500 34036.600000
81.069900 5127.200000
81.981200 5853.000000
82.989200 12721.100000
89.038500 50320.300000
91.054200 429174.500000
93.010000 102366.400000
94.041300 30678.000000
95.049100 841270.200000
96.950700 61592.800000
98.984200 837073.200000
103.054300 6350.900000
104.049500 15940.100000
105.033500 1841104.900000
105.044500 316937.800000
106.065100 74484.600000
107.049000 9475.800000
109.004900 61756.800000
109.010500 49956.700000
109.064700 14050.000000
110.966400 4705.700000
112.945800 3677.500000
113.000000 18075.400000
113.953600 759057.100000
114.961300 2735219.800000
116.049400 225305.000000
116.965700 4184.100000
117.057200 57235.300000
118.041100 12706.300000
118.065000 5318.900000
121.010600 12291.600000
121.028400 5887.600000
123.026200 40102.500000
123.979500 33683.300000
127.021000 3832.000000
127.041500 4019.600000
128.976900 75194.100000
130.956200 615923.600000
131.964000 11012.000000
132.056800 7608.700000
132.972000 32444.900000
133.010700 25846.100000
133.051900 11577.000000
134.018600 7389.800000
134.059900 23335.600000
135.026300 8779.100000
135.997700 5068.100000
137.005600 61872.900000
140.977100 3738.400000
142.992700 18522.300000
144.044300 5537.000000
144.972000 8689.100000
145.052300 68062.100000
145.979700 8837.300000
146.060000 63480.900000
146.987400 26353.100000
148.021500 5504.900000
148.966400 8255.700000
149.005300 4557.200000
150.037000 9878.900000
151.021200 40791.700000
159.014000 4807.800000
160.021600 13556.600000
161.016900 4340.100000
162.054900 82124.000000
162.982300 8073.800000
176.016600 6757.200000
178.032200 66455.900000

>ms2peaks
50.015100 6359.700000
51.022900 5985.900000
53.038600 337440.100000
55.017800 17930.400000
58.995000 12009.900000
61.010600 64511.400000
62.945200 5512.000000
64.978600 955955.400000
68.013000 24388.500000
68.997000 11112.800000
77.038500 124022.900000
78.940100 12256.000000
78.994300 46870.600000
79.054200 91244.000000
81.033500 35607.200000
81.069800 5836.600000
81.981300 4642.000000
82.989200 9871.000000
89.038500 108645.700000
91.054200 415021.800000
93.010000 28742.100000
94.041300 41013.000000
95.049100 1050256.000000
96.950700 48303.500000
98.984100 1087929.400000
103.054200 12415.100000
104.049400 19333.300000
105.033500 933946.200000
105.044600 381179.300000
106.065100 59773.800000
107.049100 9633.800000
107.984400 9410.500000
109.004900 40836.100000
109.010600 56207.700000
109.064900 11435.900000
110.966500 4556.800000
112.999900 16911.200000
113.953500 353040.900000
114.961300 2201150.200000
116.049400 176391.200000
116.965500 3776.900000
117.057200 58084.800000
118.041300 13207.100000
118.065000 6085.400000
121.010500 22646.300000
123.026100 16756.700000
123.979400 21084.800000
127.021100 5042.000000
127.041500 4662.800000
128.976900 67365.300000
130.956200 271093.000000
131.964100 4650.700000
132.057000 3942.300000
132.971800 22574.300000
133.010900 16801.000000
133.052100 10459.700000
134.018200 7854.700000
134.060200 16087.800000
135.997700 4274.500000
137.005500 28791.400000
142.992500 3903.900000
144.971900 3383.000000
145.052300 44205.600000
145.979600 4062.400000
146.059900 53731.900000
146.987400 20951.900000
148.021400 7464.100000
149.005500 6144.500000
151.021200 7923.000000
159.013600 6412.200000
160.021600 4685.000000
162.055100 18276.700000
162.982400 5973.200000
178.032000 11996.900000

