>compound LU74623918
>parentmass 194.1539
>ionization [M+H]+
>formula C12H19NO
>rt 953.760000
>profile orbitrap
#smiles_iso CCCCCCOC1=CC=C(C=C1)N
#smiles_can CCCCCCOC1=CC=C(C=C1)N
#inchikey DJRKHTCUXRGYEU-UHFFFAOYSA-N
#pubchem_id 38360
#mb_accession LU057401,LU057402,LU057403,LU057404,LU057405,LU057406

>ms2
92.049400 21155.800000
109.051800 40129.500000
110.060000 1044617.600000
194.153900 16011203.000000

>ms2
82.065000 24865.700000
92.049400 58777.900000
93.033400 46535.400000
109.052500 38198.900000
110.060000 2381364.800000
194.153800 15120343.000000

>ms2
53.002200 16297.900000
57.069900 47764.000000
65.038500 253795.500000
67.054100 46105.300000
80.049400 11246.500000
82.065100 259478.600000
85.101100 10492.200000
92.049400 578136.200000
93.033500 411796.200000
93.057200 27484.000000
109.052200 92769.400000
110.060000 9083680.000000
124.075700 15589.200000
193.146400 15492.300000
194.153900 6325420.500000

>ms2
53.002200 28297.600000
55.054300 18899.400000
57.069900 57155.900000
65.038500 1499439.600000
67.041600 41661.800000
67.054200 106004.200000
68.049400 11653.900000
80.049400 56843.500000
81.057300 40427.100000
82.065100 666668.700000
83.049200 20822.800000
92.049500 1430268.900000
93.033500 1014523.900000
93.057300 85820.400000
108.044400 10221.500000
109.052400 317340.300000
110.060000 9449202.000000
124.075700 33123.200000
194.154000 1012675.600000

>ms2
53.002200 55003.500000
53.038600 9568.800000
53.997500 11121.400000
55.017800 19050.400000
55.054200 43176.300000
57.069900 45526.300000
65.038600 3900809.800000
67.041600 118641.800000
67.054200 120940.800000
68.049400 17512.900000
69.033500 13098.200000
80.049500 141400.000000
81.057300 104571.000000
82.065100 755799.100000
83.049100 34363.500000
92.049500 1687786.800000
93.033500 1153291.900000
93.057300 197309.500000
94.041500 8773.000000
95.049000 5611.600000
108.044500 36279.600000
109.052300 546671.800000
110.060100 5000512.500000
124.075800 25682.800000
194.154100 70661.200000

>ms2
53.002200 69466.500000
53.038600 5825.800000
53.997500 16509.300000
55.017900 22963.900000
55.054300 67204.800000
57.069900 30033.400000
65.038600 5791777.000000
67.041600 221527.300000
67.054200 100872.800000
68.049500 11744.700000
69.033500 11245.100000
79.017900 6614.700000
80.049500 221686.300000
81.057300 187861.000000
82.065100 538495.300000
83.049200 39464.800000
92.049500 1271587.000000
93.033600 747302.400000
93.057300 308450.100000
94.041300 20407.700000
95.049200 6922.800000
107.049300 7906.700000
108.044400 68623.100000
109.052300 650218.100000
110.060100 2040567.400000
124.075900 19101.200000

