>compound LU74440805
>parentmass 226.1226
>ionization [M+H]+
>formula C15H15NO
>rt 965.040000
>profile orbitrap
#smiles_iso CNC(=O)C(C1=CC=CC=C1)C2=CC=CC=C2
#smiles_can CNC(=O)C(C1=CC=CC=C1)C2=CC=CC=C2
#inchikey DIZKGJLRHOCMTP-UHFFFAOYSA-N
#pubchem_id 70381
#mb_accession LU111501,LU111502,LU111503,LU111504,LU111505,LU111506

>ms2
91.054100 60972.100000
120.080800 6412624.000000
148.075700 2827374.800000
165.071000 19100.000000
167.085600 1036215.500000
195.080600 18291.800000
208.112300 16054.100000
226.122600 15840242.000000

>ms2
91.054200 142589.100000
120.080700 14767934.000000
148.075600 3239105.200000
165.070000 22339.600000
167.085500 2378799.500000
169.101000 32786.200000
195.080400 38898.700000
208.111800 37937.900000
226.122500 6979381.000000

>ms2
58.028700 86226.600000
91.054200 418937.600000
120.080700 20743514.000000
141.070000 69006.200000
148.075600 1048998.400000
152.062000 66516.800000
165.069800 109546.300000
166.078300 36269.600000
167.085500 3880779.800000
169.101200 45876.400000
193.088700 43843.900000
208.112300 42715.400000
226.122500 455694.900000

>ms2
58.028700 265861.800000
91.054200 639487.700000
107.049100 28043.400000
120.080700 16220820.000000
141.069900 114155.600000
146.060100 18742.500000
148.075600 198789.800000
152.062000 561346.200000
154.077400 18713.700000
165.069900 652431.200000
166.077700 236583.000000
167.085500 3335524.200000
169.064700 25546.500000
193.088500 73754.000000
226.122700 17509.600000

>ms2
58.028700 414071.000000
65.038500 29046.200000
79.054200 30979.700000
91.054200 901648.600000
103.054300 18322.800000
107.049100 42633.300000
115.054100 11982.400000
120.080700 10845598.000000
128.061900 59265.600000
133.052200 40562.000000
141.069800 191505.200000
146.060100 17048.300000
148.075500 43914.900000
152.062000 1728696.900000
154.077700 25800.700000
165.069900 1554840.200000
166.077700 555570.600000
167.085500 1967007.800000
169.064800 89953.400000
193.088500 106513.400000

>ms2
58.028700 521138.300000
65.038600 81737.500000
79.054200 50123.300000
90.046500 18391.600000
91.054200 1020840.800000
95.049000 26695.200000
96.055500 5979.100000
103.054200 16734.900000
104.049400 12652.900000
107.049100 38442.000000
115.054200 63043.100000
118.065200 7060.100000
120.080800 4810808.000000
128.062000 157613.400000
133.052100 22650.900000
141.069900 221840.300000
146.060000 9139.000000
151.054200 17892.200000
152.062100 2424337.800000
153.069900 20870.600000
154.077700 23071.800000
165.069900 2483482.200000
166.077700 647638.800000
167.085500 684221.300000
169.064700 128654.500000
193.088800 56728.400000

