>compound LU74538845
>parentmass 240.07860000000002
>ionization [M+H]+
>formula C12H14ClNO2
>rt 1019.160000
>profile orbitrap
#smiles_iso CC1(CON(C1=O)CC2=CC=CC=C2Cl)C
#smiles_can CC1(CON(C1=O)CC2=CC=CC=C2Cl)C
#inchikey KIEDNEWSYUYDSN-UHFFFAOYSA-N
#pubchem_id 54778
#mb_accession LU004501,LU004502,LU004503,LU004504,LU004505,LU004506

>ms2
73.064700 4919.300000
89.038600 4035.700000
100.075600 22798.400000
114.055000 11017.400000
125.015300 2792216.000000
128.070600 155286.900000
134.096400 89302.100000
140.026100 8284.000000
162.091500 7014.700000
240.078600 3278509.500000

>ms2
73.064700 9248.900000
89.038500 8463.000000
100.075600 31565.200000
114.054800 14725.300000
125.015200 5521586.000000
128.070500 138974.100000
134.096300 449659.000000
140.026100 9714.100000
162.091200 16358.000000
240.078500 977337.400000

>ms2
55.054300 8425.100000
72.044400 15928.800000
73.064800 7982.100000
89.038400 18119.000000
98.999600 8465.600000
100.075700 11142.400000
125.015200 6086792.000000
128.071000 14788.700000
134.096400 637664.800000
162.091400 8448.700000
240.078500 33594.300000

>ms2
55.054200 14448.700000
63.022900 6846.400000
72.044400 21969.900000
89.038500 116200.500000
90.046600 16659.100000
91.054200 16181.300000
98.999500 35282.700000
125.015200 6803643.000000
134.096400 667699.000000
152.062200 20458.700000
165.069900 22943.000000
166.077700 6952.000000

>ms2
55.054300 9764.800000
63.022800 15331.400000
65.038600 10072.800000
66.046400 11133.200000
72.044400 30414.400000
79.054300 6398.300000
89.038600 428156.400000
90.046400 75204.800000
91.054300 55886.800000
98.999600 168946.100000
118.065000 12227.300000
119.073000 7825.300000
125.015300 5561363.500000
134.096500 480761.200000
152.062100 55325.700000
165.070000 53486.300000
166.078000 21244.400000

>ms2
55.054200 6545.700000
62.015000 4834.500000
63.022900 62033.900000
65.038500 41682.000000
66.046400 40564.200000
72.044400 42579.300000
72.983900 25235.400000
74.999600 19132.200000
79.054300 15698.100000
89.038500 1079359.600000
90.046400 284259.200000
91.054200 122316.000000
95.049200 4925.800000
98.999600 513743.400000
105.070000 4731.900000
118.065000 56043.000000
119.073100 17940.500000
125.015200 4644673.000000
132.080600 7092.100000
134.096400 439668.000000
152.062000 131484.600000
165.069900 112046.400000
166.077800 32076.200000

