>compound LU74596771
>parentmass 367.1145000000001
>ionization [M+H]+
>formula C17H22N2O3S2
>rt 831.180000
>profile orbitrap
#smiles_iso CC1=C(C=CC(=C1)OC2=C(C=C(C=C2)S(=O)(=O)N)CN(C)C)SC
#smiles_can CC1=C(C=CC(=C1)OC2=C(C=C(C=C2)S(=O)(=O)N)CN(C)C)SC
#inchikey QIWQQMZFTOCFGF-UHFFFAOYSA-N
#pubchem_id 9969177
#mb_accession LU105901,LU105902,LU105903,LU105904,LU105905,LU105906

>ms2
242.076000 122567.100000
260.038700 47860.300000
274.052600 76095.000000
275.061000 240104.700000
304.088900 23220.000000
322.056500 1418545.800000
367.114300 13184511.000000

>ms2
137.041900 27530.400000
186.022100 43186.500000
194.072300 74566.700000
195.080400 206254.500000
226.062500 78927.600000
241.068000 68057.000000
242.075900 2155888.000000
259.042600 14115.800000
260.037500 1128200.000000
274.053300 1102014.500000
275.060900 8273505.500000
276.068800 46462.600000
306.025400 45517.500000
307.032800 70460.100000
320.040900 98876.000000
322.056500 3197407.800000
367.114400 1119760.400000

>ms2
122.060000 7729.200000
137.041900 19163.200000
148.034200 7132.200000
165.070300 8048.800000
180.056200 42508.800000
181.064700 12757.900000
185.051900 8455.000000
186.021900 52960.200000
194.072600 311201.000000
195.080400 1387640.600000
196.088500 23074.000000
226.062400 585057.600000
227.052400 299351.100000
241.068100 348705.800000
242.075900 721251.900000
245.026500 7746.000000
258.035100 13842.200000
258.058300 21995.900000
259.028800 9500.500000
259.042500 82978.100000
260.037400 6511443.500000
273.044900 8951.500000
274.053100 4053483.500000
275.060800 2598997.000000
276.068000 22193.300000
292.009200 14262.400000
304.088700 29784.000000
306.025100 109688.000000
307.033100 119821.300000
320.041000 83448.300000
322.056500 67128.000000

>ms2
122.060000 19957.800000
137.041700 10232.600000
148.033800 9667.600000
152.062300 8810.100000
165.069600 18757.100000
168.057000 8739.900000
169.064600 12764.800000
180.056600 102937.800000
181.064600 38141.900000
182.072800 13332.300000
184.076000 17818.900000
186.021800 43496.600000
193.064600 21516.400000
194.072600 475200.400000
195.080400 2066893.200000
196.075800 16389.900000
197.059600 61888.700000
198.067800 15047.600000
198.091000 10591.900000
199.057600 8330.000000
209.095800 10203.500000
210.091400 14459.800000
211.075300 47092.300000
212.029700 14587.100000
212.046600 155585.200000
226.062300 948496.900000
227.052300 405389.500000
241.068000 513343.300000
242.039300 25894.600000
242.075800 48966.800000
258.034500 31448.600000
258.057800 23301.700000
259.029400 10226.500000
259.042500 59690.600000
260.037400 7903674.500000
273.044900 14515.500000
274.053000 5752065.000000
275.060700 103260.000000
292.009300 45390.400000
304.089200 8320.900000
305.016800 40031.700000
306.025000 149084.800000
307.033000 27635.400000
320.040900 33140.400000

>ms2
63.985100 6554.800000
67.054200 5520.000000
94.065100 11119.000000
95.049100 4542.800000
115.054400 6859.900000
122.059900 21419.800000
141.069800 33290.300000
152.061900 67873.000000
153.069900 9355.400000
156.056800 16470.600000
156.080800 6093.400000
165.069900 182959.000000
166.077700 84810.700000
167.073000 6552.100000
167.085500 21992.600000
168.056900 96359.500000
169.064700 84696.100000
170.072400 10564.000000
179.049000 145584.900000
180.056900 567594.200000
181.064700 57640.000000
182.072500 75259.500000
183.043900 12339.700000
183.067900 7483.500000
183.080400 40244.500000
184.034000 5685.200000
184.051900 25260.500000
184.075600 93909.200000
186.022200 7374.000000
193.064800 115223.000000
194.072600 875572.300000
195.080400 1941567.800000
196.052400 9485.500000
196.075700 89904.600000
197.059700 335852.100000
198.067600 56730.800000
198.091100 60174.900000
199.057600 6621.600000
209.083400 6764.400000
210.067400 12580.100000
210.091300 64262.400000
211.075300 207439.000000
212.030400 80023.500000
212.046700 1452046.800000
225.036600 20044.600000
225.054700 13791.500000
226.045200 136241.000000
226.062300 1899362.200000
227.052300 238729.600000
228.024200 5602.600000
228.066200 6871.000000
240.060200 6397.400000
241.068000 275591.300000
242.039500 35261.700000
243.047700 6178.600000
244.018100 13486.500000
257.026500 5448.200000
258.034700 53475.800000
259.028700 4550.700000
259.042500 13253.600000
260.037500 4524044.000000
261.045000 5534.500000
272.050100 12918.000000
273.045100 11952.900000
274.053000 3548655.000000
291.001700 11313.100000
292.009600 39301.300000
305.017400 29324.500000
306.025100 111870.900000

>ms2
63.985200 7922.500000
65.038600 6677.800000
67.054100 9770.500000
94.065200 13581.400000
95.049200 10616.700000
115.054200 34299.300000
122.060000 5648.300000
128.062100 18609.900000
129.069800 10546.300000
139.054100 16022.900000
141.069900 156147.500000
151.054500 4273.200000
152.062100 624601.100000
153.069900 32063.200000
155.085500 22187.400000
156.057000 33930.500000
156.080700 26881.800000
164.062200 5364.000000
165.070000 1031779.600000
166.077700 308696.500000
167.073000 12694.600000
167.085600 45543.100000
168.057000 351805.800000
169.064800 175656.000000
170.072600 21866.300000
176.062100 12753.100000
179.049200 323265.100000
180.057000 1399008.000000
181.064800 88355.300000
182.072700 230143.100000
183.044200 54915.500000
183.067800 25657.200000
183.080500 63955.100000
184.034400 11574.400000
184.052000 166954.200000
184.075800 106183.200000
193.065000 321281.800000
194.072800 1803600.200000
195.080500 1542557.800000
196.052200 14730.200000
196.075800 131095.600000
197.059800 461686.500000
198.067600 152826.800000
198.091400 68277.200000
208.088300 7444.100000
209.083600 17118.300000
209.095800 5639.100000
210.067600 28472.200000
210.091500 80358.300000
211.075400 282257.800000
212.046800 3315318.500000
214.052100 17691.300000
225.036800 42584.100000
225.054600 26369.700000
226.045800 200030.000000
226.062400 3282964.800000
227.052500 82947.000000
228.023900 10601.700000
241.068100 90521.500000
242.040000 22387.300000
243.047400 5239.800000
244.018900 29928.200000
257.026700 19892.100000
258.034600 109069.100000
259.042900 3858.700000
260.037600 1368154.200000
261.045100 5826.500000
272.049800 6552.900000
273.045700 5228.700000
274.053200 1109023.400000
291.001800 5915.900000
292.010100 15152.700000
305.017700 7773.400000
306.025400 44938.000000

