>compound LU74252123
>parentmass 222.0429
>ionization [M+H]+
>formula C10H8ClN3O
>rt 791.160000
>profile orbitrap
#smiles_iso C1=CC=C(C=C1)N2C(=O)C(=C(C=N2)N)Cl
#smiles_can C1=CC=C(C=C1)N2C(=O)C(=C(C=N2)N)Cl
#inchikey WYKYKTKDBLFHCY-UHFFFAOYSA-N
#pubchem_id 15546
#mb_accession LU028101,LU028102,LU028103,LU028104,LU028105,LU028106

>ms2
77.038900 15662.100000
104.049400 22349.800000
222.042100 7902185.000000

>ms2
77.039000 15220.900000
92.049400 47864.900000
94.065100 29421.800000
104.049500 176408.400000
128.984900 21155.900000
146.011300 14721.500000
186.066000 20391.300000
193.029400 11308.200000
222.042300 8897862.000000

>ms2
53.038600 38035.100000
55.029100 21459.400000
63.994800 19301.600000
65.038600 55570.900000
67.029000 8868.600000
73.039600 9008.900000
75.994800 16633.200000
77.038700 30353.700000
83.024000 28203.300000
87.994800 19024.800000
91.005800 8230.600000
92.049500 654555.300000
93.057400 19551.600000
94.065100 269456.700000
95.049100 113791.400000
100.990100 22556.100000
101.974200 8831.500000
104.049500 1366165.200000
105.044700 56543.300000
119.000900 10528.400000
119.060400 26384.900000
120.044400 9914.400000
128.985000 205924.700000
130.065000 19810.700000
131.060400 9461.000000
132.044400 14763.000000
140.049700 10086.100000
141.057200 12317.600000
142.052600 8848.300000
143.060500 7898.300000
146.011600 128994.700000
149.015200 35420.600000
150.011000 11633.800000
158.071400 6951.700000
159.055300 35286.600000
159.079200 6318.800000
166.005300 5877.100000
176.026400 24693.600000
177.021100 17145.100000
178.005600 9733.200000
186.066200 88315.100000
187.073800 6243.000000
193.029000 99071.800000
194.036800 47476.300000
195.032000 20394.400000
205.016300 52615.200000
222.042900 5587423.500000

>ms2
51.023000 5681.600000
53.038600 165535.100000
55.017800 6411.200000
55.029100 120401.500000
63.022800 2756.900000
63.994800 62033.900000
65.038500 500018.300000
66.021200 9307.300000
66.046400 2566.200000
67.029000 24321.900000
67.054200 3515.100000
73.039600 17966.600000
73.979100 7614.300000
75.994700 48741.200000
77.038400 61739.800000
81.033400 18100.200000
83.023900 51579.900000
87.994800 112833.900000
91.005700 12745.900000
92.049400 1852346.000000
93.057300 99909.300000
94.065100 476775.400000
95.049100 513048.100000
100.990100 144430.700000
101.974000 33998.200000
103.005700 10696.800000
103.054200 15903.500000
104.049400 2084558.400000
105.044700 203539.400000
106.065000 8026.100000
110.060100 5665.200000
111.044000 11765.200000
114.033600 3193.600000
115.054200 7030.600000
115.989900 5011.700000
116.049300 13629.200000
116.997500 18920.800000
117.057200 6511.800000
119.000600 24644.000000
119.060300 51952.400000
120.044300 18219.200000
125.015100 10173.500000
128.984900 456210.400000
130.065100 71096.900000
131.060200 46649.800000
132.044300 52898.100000
132.068100 8993.600000
133.052100 4099.500000
134.060100 3000.700000
140.049400 117697.500000
141.057200 247530.000000
142.052600 24447.900000
143.060300 7012.500000
144.055500 6656.000000
144.068200 3710.600000
146.011500 351994.200000
149.015200 196794.600000
150.010400 45722.300000
152.026200 3294.000000
158.060000 25097.500000
158.071300 13854.100000
159.055200 55835.400000
159.067600 10543.900000
159.078900 15243.600000
160.063100 15345.200000
166.005500 7549.400000
168.020900 2968.800000
169.039600 11435.200000
176.026100 217709.000000
177.021200 19213.300000
178.005100 18682.000000
186.066100 86252.400000
187.073700 3720.900000
193.028900 193831.900000
194.036700 278473.500000
195.032000 20736.400000
205.016100 47599.100000
222.042500 1719619.100000

>ms2
50.015000 2930.700000
51.022900 5709.300000
52.018200 5966.800000
53.038600 278903.300000
54.033900 4872.200000
55.017800 13202.500000
55.029100 176042.600000
56.013200 2501.300000
61.979100 3297.900000
62.963300 2586.400000
63.023100 3500.500000
63.994800 91501.100000
65.038600 1257259.600000
66.021200 46357.900000
66.046400 5582.000000
67.029100 25278.300000
67.054200 11142.200000
68.013100 5356.300000
73.039600 11009.000000
73.979200 20986.000000
74.986900 7170.400000
75.994800 61960.500000
77.038500 126816.700000
78.046400 3993.900000
79.054100 3167.300000
80.049300 4071.900000
81.033500 31225.100000
83.024000 30118.600000
87.994900 203907.300000
89.038600 7496.200000
90.046400 8475.200000
91.006000 3430.700000
91.054500 5164.600000
92.049500 1765035.000000
93.057300 187469.400000
94.065200 376533.600000
95.049100 915761.700000
100.990100 305338.800000
101.974200 45225.000000
102.046400 12876.600000
103.005800 5082.500000
103.054300 21280.200000
104.049500 1211528.900000
105.044700 326870.200000
106.065100 4897.800000
109.064900 5681.500000
110.060000 3551.000000
111.044000 9447.300000
113.038200 3353.400000
114.033800 6682.700000
114.046400 3806.800000
115.054200 13149.500000
115.989600 3250.900000
116.049600 14392.000000
116.997600 37411.600000
117.057400 12656.400000
118.041200 3648.500000
119.000800 11298.600000
119.060400 42881.500000
120.044500 12629.400000
122.999600 12752.600000
125.015200 8653.400000
128.985000 345199.900000
130.065200 114861.900000
131.049300 3510.600000
131.060400 54096.600000
132.044400 54224.600000
132.056900 5509.400000
132.068100 14256.900000
133.052200 7776.200000
134.060000 2561.700000
140.049500 357213.800000
141.057300 750210.800000
142.052600 26396.800000
143.060500 6970.700000
144.055800 2910.000000
145.039300 3282.300000
146.011600 388608.000000
149.015300 497197.600000
150.010500 73909.100000
152.025400 4150.100000
158.060000 34738.800000
158.071100 13218.800000
159.055200 37491.400000
159.067200 5098.000000
159.079200 6744.000000
160.062900 15853.100000
166.005300 7637.300000
169.039500 9737.100000
174.011100 3526.600000
175.018000 6538.400000
176.026200 248513.300000
177.021100 11714.600000
178.005300 7703.000000
186.066300 33703.800000
193.029000 94011.000000
194.036800 227653.000000
195.031900 9069.000000
205.016600 14834.200000
222.042800 240468.600000

>ms2
50.015100 4522.500000
51.023000 10010.900000
52.018100 12773.200000
53.038600 372883.000000
54.033800 11091.400000
55.017900 21029.300000
55.029100 194651.200000
56.013100 3591.800000
61.979200 6155.300000
62.963200 10235.800000
63.022900 5107.700000
63.994900 93585.600000
65.038600 1939450.500000
66.021200 133998.100000
66.046300 21642.500000
67.029100 23933.500000
67.054200 11425.700000
68.013100 8056.600000
73.039600 3365.600000
73.979100 61093.300000
74.987100 13132.800000
75.994800 75132.000000
77.038500 222016.000000
78.046300 7485.000000
79.054200 5548.700000
80.049400 3221.300000
81.033500 37298.500000
83.023900 14961.300000
87.994900 317817.800000
89.038500 25863.600000
90.046500 53439.500000
91.054300 2950.800000
92.049500 1142920.200000
93.057300 245875.000000
94.065100 214123.000000
95.049200 1136619.800000
100.990100 362803.900000
101.974200 42153.000000
102.046400 24012.300000
103.005900 3387.200000
103.054200 32574.300000
104.049500 513685.500000
105.044700 445226.300000
106.065100 3779.800000
109.064800 4436.800000
110.060100 5696.300000
111.044100 5798.400000
113.038500 41058.200000
114.033800 17022.600000
114.046400 24582.600000
115.054200 18226.300000
116.049400 15038.800000
116.997500 57413.000000
117.057200 12649.600000
118.041400 19247.500000
119.000600 5852.300000
119.060400 28893.100000
120.044300 11903.900000
122.999600 29998.600000
125.015300 13454.000000
128.985000 190781.000000
130.065100 121200.700000
131.049400 7660.800000
131.060400 43455.600000
132.044500 46339.900000
132.057000 54740.800000
132.068200 9951.500000
133.052200 5912.000000
140.049500 679493.800000
141.057300 1251501.100000
142.052500 22046.000000
145.039100 2435.900000
146.011600 324738.100000
149.015300 820566.200000
150.010500 77143.100000
158.060100 18783.600000
158.071400 4848.900000
159.055200 19057.800000
159.079300 2531.000000
160.062900 4548.300000
168.020900 5182.700000
174.010400 4996.700000
175.018400 10019.200000
176.026200 138601.200000
177.020800 5792.500000
186.066000 10137.100000
193.028900 23473.000000
194.036800 92977.600000
205.015900 3512.400000
222.042900 22434.600000

