>compound LU74959935
>parentmass 345.24240000000003
>ionization [M+H]+
>formula C22H32O3
>rt 1190.160000
>profile orbitrap
#smiles_iso CCC(=O)O[C@H]1CC[C@@H]2[C@@]1(CC[C@H]3[C@H]2CCC4=CC(=O)CC[C@]34C)C
#smiles_can CCC(=O)OC1CCC2C1(CCC3C2CCC4=CC(=O)CCC34C)C
#inchikey PDMMFKSKQVNJMI-BLQWBTBKSA-N
#pubchem_id 5995
#mb_accession LU139101,LU139102,LU139103,LU139104,LU139105,LU139106

>ms2peaks
57.033500 14142.000000
81.069900 5734.900000
83.049100 14364.900000
95.085500 9641.100000
97.064800 325859.500000
109.064700 130987.100000
121.064500 4958.500000
121.101200 7992.500000
123.080600 10434.500000
135.116500 4950.900000
145.101000 7879.000000
147.116900 8904.900000
149.132400 6546.000000
157.101200 5649.000000
159.116500 6248.300000
161.132600 8426.200000
163.147900 10333.400000
171.116700 15263.200000
173.132300 6456.400000
175.147900 28662.400000
177.127300 6547.500000
187.147800 10734.500000
189.163800 26375.400000
197.132800 8520.100000
213.163500 6456.100000
253.195000 132086.000000
255.174200 8288.000000
271.205400 338227.000000
289.216100 58728.800000
309.221800 6967.400000
327.231900 5013.400000
345.242300 4842323.500000

>ms2peaks
53.038600 2456.100000
55.017800 3780.200000
55.054300 2904.300000
57.033500 275743.900000
67.054200 10033.500000
69.069800 8837.000000
77.038600 2337.300000
79.054100 27014.800000
81.069900 69226.600000
83.049100 96747.700000
83.085600 9411.800000
91.054100 5228.800000
93.069900 49007.700000
95.085500 92650.600000
97.064800 2068725.100000
105.069900 32443.300000
107.049200 6967.400000
107.085500 48036.600000
109.064800 1251896.000000
111.080400 5301.900000
117.069900 4775.800000
119.085500 31918.900000
121.064800 30250.100000
121.101100 72650.800000
123.080400 102851.600000
123.116700 13904.200000
129.069800 5309.200000
131.085600 29318.800000
133.101200 40989.100000
135.080500 12513.000000
135.116800 42890.300000
137.096200 10468.300000
141.070500 2734.500000
143.085500 25209.200000
145.101100 82435.800000
147.080700 9259.100000
147.116800 87820.500000
149.096100 20391.300000
149.132500 43933.900000
151.111500 2919.900000
155.085600 7047.000000
157.101200 48762.100000
159.116900 79352.100000
161.095700 12669.800000
161.132400 72983.900000
163.111800 40004.600000
163.148000 67274.400000
169.101000 10901.200000
171.116700 86327.100000
173.132400 67153.900000
175.111800 20765.600000
175.148100 244413.100000
177.127300 47382.000000
183.116700 27710.300000
185.132400 38686.600000
187.111600 5796.500000
187.147900 66215.900000
189.127100 19625.300000
189.163700 83009.400000
191.143100 5628.200000
197.132500 66769.400000
199.148000 14086.700000
201.127700 10513.900000
201.163700 42156.800000
203.143500 7346.900000
211.148100 52266.900000
213.163600 56656.400000
215.143100 19408.600000
225.163500 31234.600000
227.179300 24208.600000
229.158800 6665.500000
229.194700 13824.000000
253.195000 443213.200000
255.174800 23658.000000
271.205500 421362.400000
273.185600 5961.000000
289.216200 239736.100000
309.220700 5491.200000
327.232100 4347.500000
345.242400 548083.800000

>ms2peaks
53.002200 2508.400000
53.038600 5355.300000
55.017900 10077.800000
55.054200 12431.700000
57.033500 336161.500000
65.038700 3283.300000
67.054100 40514.800000
69.033400 3104.500000
69.069800 32207.800000
79.054200 100262.400000
81.069800 180065.400000
83.049100 102929.700000
83.085500 10608.700000
91.054100 37560.400000
93.069900 125932.800000
95.049100 8542.300000
95.085500 137109.800000
97.064800 2154849.200000
105.069900 102963.800000
107.049000 8541.700000
107.085500 102453.600000
109.064800 1798700.200000
111.080400 8550.100000
117.069700 14382.000000
119.085500 103315.500000
121.064700 35680.900000
121.101100 69026.900000
123.080400 175296.300000
129.069900 13882.000000
131.085400 48127.800000
133.101100 88024.500000
135.080200 11162.500000
135.116800 39867.000000
137.095800 7190.900000
141.069800 6971.900000
143.085500 39044.700000
145.101100 93677.900000
147.080200 10447.100000
147.116800 101403.300000
149.096200 24684.300000
149.132500 24969.000000
151.111300 2529.300000
155.085300 23203.700000
157.101100 49980.700000
159.116800 79519.300000
161.096200 11303.600000
161.132500 52367.000000
163.111700 30521.700000
163.148100 31944.000000
169.101200 23374.000000
171.116800 64911.400000
173.096200 3011.800000
173.132500 50934.600000
175.111600 19266.500000
175.148100 138084.500000
177.127400 37308.800000
183.116900 31596.900000
185.132300 33465.900000
187.111500 2875.200000
187.148100 44966.800000
189.127200 10430.100000
189.163600 20289.000000
191.143500 3580.200000
197.132600 60990.100000
199.148100 18461.600000
201.126700 5075.800000
201.163800 21971.100000
203.142600 3722.300000
211.148000 38448.400000
213.163600 43378.200000
215.142800 9304.000000
225.163900 11682.000000
227.179500 11962.800000
229.158900 3315.600000
229.195000 6481.400000
238.171400 3494.900000
253.194900 98722.200000
255.173400 7608.200000
271.205300 36727.200000
289.216100 32808.600000
345.241000 3354.800000

>ms2peaks
53.002300 4894.100000
53.038600 14803.300000
55.017900 33447.500000
55.054300 30780.800000
57.033500 261811.300000
65.038600 7912.900000
67.054200 94587.700000
69.033400 10998.700000
69.069900 68232.100000
77.038600 5539.600000
79.054200 294676.700000
81.069900 328516.700000
83.049200 95525.300000
83.085600 7576.300000
91.054300 129461.600000
93.070000 184673.000000
94.041500 5553.100000
95.049200 31027.200000
95.085600 142696.800000
97.064900 1871362.800000
105.070000 178063.700000
107.049200 16013.200000
107.085600 109557.200000
108.057000 3121.400000
109.064900 1706412.100000
111.080600 6678.500000
117.069900 25236.300000
119.085600 139469.800000
121.064800 32253.000000
121.101200 37886.000000
123.080500 172909.800000
128.062200 4288.200000
129.069900 23640.700000
130.078100 2609.300000
131.085600 70097.000000
133.101200 91129.500000
135.080500 7748.400000
135.116800 18695.900000
137.096200 5637.000000
141.070000 8199.300000
142.077900 13061.100000
143.085600 41736.000000
144.093500 7945.800000
145.101300 77138.200000
147.080400 9639.700000
147.116800 60987.200000
149.096200 13176.800000
149.132700 14095.500000
155.085500 23381.200000
156.093300 5440.400000
157.101200 44342.800000
159.116800 51956.200000
161.096400 5551.900000
161.132500 25232.800000
163.111900 16059.200000
163.148200 8244.600000
167.085600 3298.100000
168.093200 3228.000000
169.101200 23328.600000
171.117000 35804.400000
173.096500 3572.500000
173.133000 18346.400000
175.111800 6191.400000
175.148300 33830.700000
177.127600 10055.500000
181.101700 3295.700000
182.109100 6454.600000
183.117000 25582.300000
185.132700 18158.300000
187.148300 18947.000000
189.127700 4476.100000
195.117300 3437.600000
197.132600 26250.900000
199.148300 7380.600000
201.163800 6117.000000
209.132200 2531.000000
211.147900 15516.500000
213.163800 14930.900000
215.143000 3557.700000
225.163700 6145.100000
238.172400 2874.000000
253.195400 9376.500000

>ms2peaks
53.002200 12093.900000
53.038600 35886.100000
55.017900 49816.400000
55.054200 43051.600000
57.033500 161331.700000
65.038500 19326.400000
66.046400 3866.000000
67.054200 140301.300000
69.033500 10932.300000
69.069900 98355.200000
77.038600 6454.500000
79.054200 483629.100000
81.069900 422901.000000
82.041500 4421.600000
83.049100 71673.200000
91.054300 219672.800000
93.069900 155089.400000
94.041300 11896.900000
95.049200 71208.000000
95.085600 102826.000000
97.064800 1255119.500000
103.054200 9099.300000
105.069900 206521.200000
107.049000 14689.700000
107.085600 66448.100000
108.057000 2542.700000
109.064800 1094102.600000
115.054100 3788.500000
116.062100 3742.200000
117.069900 40000.100000
119.085600 114584.600000
121.064800 24567.800000
121.101200 17221.000000
123.080400 112799.600000
128.062000 14274.000000
129.069800 35659.700000
130.077800 10159.500000
131.085600 50595.000000
133.101200 43375.000000
135.080300 5301.600000
135.116700 3884.100000
141.069800 14037.100000
142.077900 17909.700000
143.085700 35373.900000
144.093300 10759.400000
145.064800 3133.200000
145.101200 45815.800000
147.080300 4265.900000
147.116800 22482.900000
149.096100 6938.000000
149.132300 3378.500000
153.070400 3496.000000
154.077900 6861.800000
155.085600 25479.100000
156.093600 8177.900000
157.101300 24156.100000
159.116900 19883.200000
161.132600 6332.200000
163.111900 3673.200000
167.085700 4807.900000
168.093500 6154.000000
169.101300 16698.000000
171.116800 10510.700000
173.132600 5540.700000
175.148600 4262.400000
181.101000 5337.600000
182.108900 6515.900000
183.116900 12771.100000
185.132300 6170.000000
187.148500 3206.700000
195.116400 2676.200000
197.132700 6951.900000
199.148300 2666.100000
209.132200 2758.200000
211.148400 5273.000000

>ms2peaks
53.002300 19312.400000
53.038600 69737.800000
55.017900 67146.400000
55.054300 58600.100000
57.033500 91036.800000
65.038600 37631.300000
66.046400 10136.300000
67.054200 151659.300000
69.033500 15634.200000
69.069900 85188.200000
77.038500 12911.200000
79.054200 527195.800000
81.069900 358530.200000
82.041400 4473.700000
83.049100 50734.900000
91.054300 257942.400000
93.069900 102093.700000
94.041400 19297.400000
95.049200 103944.000000
95.085600 57428.200000
97.064900 647523.200000
103.054200 16162.200000
105.069900 165472.400000
107.049200 14025.200000
107.085700 24825.600000
108.056900 4782.500000
109.064900 526797.800000
115.054200 14519.800000
116.062100 5669.600000
117.069900 39603.300000
119.085600 64432.400000
121.064900 13239.500000
121.101300 5143.100000
123.080500 53826.800000
128.062100 20861.300000
129.069900 29780.100000
130.077800 10493.500000
131.085500 33364.500000
133.101300 17054.100000
141.069800 13401.100000
142.077800 18829.500000
143.085600 16983.000000
144.093300 6159.500000
145.064900 3855.700000
145.101200 15233.800000
147.117100 4012.300000
153.070100 7077.900000
154.077900 7540.200000
155.085600 14869.000000
156.093600 5205.600000
157.101600 10044.900000
159.116800 4640.700000
167.085500 5410.800000
168.093600 3898.700000
169.101500 7626.900000
171.116800 2736.700000
181.101200 4001.900000
183.117100 5154.500000
195.117500 3274.300000

