>compound LU74718118
>parentmass 191.10670000000002
>ionization [M+H]+
>formula C12H14O2
>rt 1020.480000
>profile orbitrap
#smiles_iso CCC(=O)C=CC1=CC=C(C=C1)OC
#smiles_can CCC(=O)C=CC1=CC=C(C=C1)OC
#inchikey SLDQOBRACOQXGE-UHFFFAOYSA-N
#pubchem_id 61008
#mb_accession LU060301,LU060302,LU060303,LU060304,LU060305,LU060306

>ms2
57.033500 238495.900000
115.054100 4623.000000
121.064800 49206.300000
135.044000 37198.200000
135.080300 10699.400000
141.069700 15303.100000
142.077600 9330.400000
143.085700 14178.700000
147.079800 5564.200000
158.072600 708007.600000
159.080600 12811.500000
163.111300 4726.000000
173.096100 644265.000000
191.106600 4422289.000000

>ms2
57.033500 321552.800000
83.049200 5593.300000
115.054200 4347.300000
117.069800 3331.000000
121.064800 75883.300000
131.085400 4317.200000
135.044100 46553.800000
135.080300 10214.700000
141.069800 25507.700000
142.077700 19806.900000
143.085700 14682.700000
145.064800 3992.400000
145.100700 3719.300000
147.080500 8339.000000
149.059800 8448.400000
157.064800 6803.900000
158.072700 1019002.700000
159.080500 20743.300000
161.095800 4878.300000
162.067500 4732.600000
163.111500 7732.500000
173.096200 682294.600000
176.083600 3423.200000
191.106700 3288466.200000

>ms2
55.017900 2508.700000
55.054300 11690.800000
57.033500 687922.400000
69.033600 2296.800000
83.049100 7465.000000
91.054200 11612.700000
93.069800 2249.700000
95.048900 2088.800000
105.070100 7858.300000
107.049200 5630.400000
109.064800 5134.400000
115.054200 21156.900000
117.069900 6917.400000
120.057000 3629.900000
121.064800 280691.300000
128.062100 23193.600000
129.069800 11637.900000
130.077800 24244.800000
131.049300 6551.400000
131.085500 7549.500000
132.057300 4541.100000
133.064800 6795.900000
134.072700 2436.600000
135.044100 59271.600000
135.080400 24902.200000
137.059900 3867.100000
141.069900 101674.400000
142.077800 68934.600000
143.049100 14595.900000
143.085600 34793.000000
144.056700 3062.100000
145.064900 16228.100000
145.101200 8374.200000
147.044100 2911.000000
147.080400 6494.800000
149.059700 13051.000000
149.096500 3199.100000
157.064900 10560.800000
158.072700 2024532.900000
159.080400 53987.600000
161.096100 8794.200000
162.067600 15057.400000
163.111900 4796.400000
172.088400 5099.300000
173.096200 412850.700000
175.075000 4913.000000
176.083500 5261.800000
191.106700 752948.500000

>ms2
53.038700 2736.300000
55.017900 3345.200000
55.054300 16894.400000
57.033500 509981.600000
59.049200 2507.300000
65.038600 3093.000000
69.033500 2657.600000
78.046300 2344.500000
79.054200 5828.500000
83.049200 5741.900000
91.054300 39209.400000
93.070000 3498.500000
94.041400 1952.400000
95.049100 10480.700000
103.054200 4551.100000
105.069900 22616.400000
106.041400 2588.000000
107.049300 6645.700000
108.057100 1946.200000
109.065000 11551.600000
115.054300 115586.600000
116.062100 3230.500000
117.069900 9543.200000
118.042000 2151.800000
119.049200 4744.100000
120.057300 9332.500000
121.064800 339612.100000
125.059600 3466.400000
128.062100 62466.300000
129.069900 54776.900000
130.077800 110162.500000
131.049100 7536.400000
131.085600 6866.800000
132.057000 5713.400000
133.064900 13161.200000
134.072700 6198.900000
135.044100 43553.200000
135.080500 23454.600000
137.059600 3833.900000
140.061900 2711.700000
141.069900 139753.000000
142.077800 77350.000000
143.049300 65608.900000
143.085600 13706.000000
144.057300 5318.300000
145.064800 28010.200000
147.044100 15452.600000
147.080400 4730.500000
149.059800 6203.800000
157.065100 26072.400000
158.072700 1429432.000000
159.080600 42676.600000
161.059500 8992.200000
161.096400 3457.000000
162.067800 13150.700000
172.088300 7045.900000
173.096300 73162.800000
175.075300 8066.600000
176.083100 2805.700000
191.106800 69824.500000

>ms2
53.038600 11784.300000
55.017900 3801.300000
55.054300 13914.300000
57.033500 316345.100000
59.049100 2027.800000
65.038600 5768.400000
67.054200 2078.000000
69.033400 2424.600000
77.038500 4208.600000
78.046400 12086.900000
79.054300 14941.800000
83.049200 3204.200000
91.054300 91698.300000
92.025600 2728.500000
93.069900 6725.400000
94.041300 8570.200000
95.049200 30569.600000
102.046500 2501.200000
103.054200 12535.600000
105.033500 1978.800000
105.070000 24846.600000
106.041500 5117.100000
107.049200 9148.700000
108.057000 5138.600000
109.064800 12423.000000
115.054300 358493.500000
116.062000 6024.000000
117.069900 10984.700000
118.041500 3679.600000
119.049300 21565.400000
120.057100 11702.100000
121.064800 312305.500000
127.053900 2397.300000
128.062100 82728.100000
129.069900 134894.700000
130.077800 140415.200000
131.049200 8828.300000
131.085700 2640.700000
132.057000 3412.600000
133.064700 14925.100000
134.072600 5814.700000
135.044100 20600.200000
135.080600 11556.100000
140.062200 5180.800000
141.069900 119759.300000
142.041300 5136.000000
142.077800 52498.700000
143.049200 117923.600000
144.057300 10077.900000
145.065000 28771.500000
147.044200 32624.700000
147.080400 6913.900000
157.065000 44179.300000
158.072700 633447.200000
159.080600 20386.800000
160.052000 6794.100000
161.059600 12175.500000
162.067900 3301.500000
172.088400 4428.000000
173.096200 8774.000000
175.075500 15096.200000
176.083200 2478.700000
191.106800 4197.300000

>ms2
53.038600 16240.800000
55.017800 5860.200000
55.054200 9373.200000
57.033500 131640.500000
59.049200 2992.900000
65.038600 14636.200000
67.054200 2861.900000
77.038500 5305.300000
78.046400 34428.300000
79.054200 13148.900000
83.048900 2231.600000
91.054300 136323.800000
92.025600 6068.700000
93.069900 4988.200000
94.041300 11638.600000
95.049100 48797.500000
102.046500 7596.400000
103.054200 16858.200000
105.033600 2915.300000
105.069900 20033.700000
106.041300 9291.000000
107.049100 3677.700000
108.056900 3752.700000
109.064900 6420.700000
115.054300 510691.800000
116.062000 5115.700000
117.069900 9901.800000
118.041300 5077.200000
119.049200 37892.500000
120.056900 9657.800000
121.064800 175228.800000
125.059800 3296.100000
127.054200 2257.400000
128.062100 85417.600000
129.069900 153003.900000
130.077700 72875.900000
131.049000 10404.800000
132.056900 4068.300000
133.064900 19980.500000
134.072600 5591.500000
135.043900 4996.100000
135.080600 3491.300000
140.062100 4620.100000
141.069900 80999.900000
142.041300 4288.300000
142.077800 23829.100000
143.049200 66983.700000
144.056900 15032.000000
145.064800 15365.200000
147.044100 16476.800000
147.080300 4174.800000
157.064900 47414.500000
158.072700 172521.100000
159.080500 7550.000000
160.051900 9746.900000
161.059800 9991.600000
175.075300 10662.100000

