>compound LU74805501
>parentmass 256.0209
>ionization [M+H]+
>formula C9H9N3O2S2
>rt 842.760000
>profile orbitrap
#smiles_iso C1=CC(=CC=C1N)S(=O)(=O)NC2=NC=CS2
#smiles_can C1=CC(=CC=C1N)S(=O)(=O)NC2=NC=CS2
#inchikey JNMRHUJNCSQMMB-UHFFFAOYSA-N
#pubchem_id 5340
#mb_accession LU102401,LU102402,LU102403,LU102404,LU102405,LU102406

>ms2peaks
61.010600 969573.200000
139.956500 630109.300000
167.987900 2228021.800000
199.960000 1670262.000000
227.991200 6030604.500000
256.022500 11310921.000000

>ms2peaks
59.990300 13389.800000
61.010600 3570273.200000
89.041900 13081.500000
119.994000 6852.800000
133.959100 12897.300000
139.956500 4979056.500000
157.967300 37203.200000
167.987800 6623307.500000
196.019200 3665728.500000
199.959900 3704347.500000
227.991200 4036383.000000
256.022500 2096669.400000

>ms2peaks
59.990200 133974.500000
61.010600 6907735.500000
119.993800 15864.100000
133.959100 25673.200000
139.956500 14681232.000000
167.987800 3383865.500000
171.982900 36745.300000
196.019200 461244.600000
199.959900 1737245.200000
227.991200 461034.200000
256.022700 47889.600000

>ms2peaks
58.995000 17614.900000
59.990300 1148028.500000
61.010600 8552992.000000
119.993600 25293.500000
133.959300 18487.800000
139.956500 15775634.000000
140.976600 22942.300000
155.933600 30887.800000
157.967200 90850.300000
167.987900 529757.400000
171.982700 49452.200000
196.019000 22657.400000
199.960000 329501.400000
227.991300 23840.600000

>ms2peaks
58.995000 61186.700000
59.990200 3794653.200000
61.010600 8490406.000000
79.021200 15402.300000
86.005800 28441.600000
119.993700 47992.600000
128.976600 22747.300000
139.956500 11588491.000000
140.976500 26612.400000
155.933500 35268.800000
167.987700 43336.900000
171.982800 37849.600000
199.959900 41318.100000

>ms2peaks
58.995000 94143.800000
59.990200 6823069.500000
61.010600 8504743.000000
79.021200 13897.600000
86.005800 24709.700000
119.993700 52665.300000
128.977000 15961.500000
139.956500 6266114.000000
140.976900 28087.300000
155.933700 33239.800000
171.982900 22427.700000

