>compound LU74865775
>parentmass 279.1591
>ionization [M+H]+
>formula C16H22O4
>rt 1144.320000
>profile orbitrap
#smiles_iso CCCCC(CC)COC(=O)C1=CC=CC=C1C(=O)O
#smiles_can CCCCC(CC)COC(=O)C1=CC=CC=C1C(=O)O
#inchikey DJDSLBVSSOQSLW-UHFFFAOYSA-N
#pubchem_id 20393
#mb_accession LU123801,LU123802,LU123803,LU123804,LU123805

>ms2peaks
149.023400 4313.800000
223.075300 3241.600000

>ms2peaks
149.023500 6536.500000
195.081100 3005.600000
223.075800 6822.200000

>ms2peaks
149.023600 7969.200000
167.085900 7169.400000
178.077500 1834.600000
195.080800 4353.400000
223.074900 2524.900000

>ms2peaks
149.023500 5486.100000
167.085900 3286.800000
178.077400 3470.000000

>ms2peaks
149.023700 3881.600000
178.077800 3788.900000

