>compound LU75596626
>parentmass 200.1182
>ionization [M+H]+
>formula C12H13N3
>rt 974.100000
>profile orbitrap
#smiles_iso CC1=CC(=NC(=N1)NC2=CC=CC=C2)C
#smiles_can CC1=CC(=NC(=N1)NC2=CC=CC=C2)C
#inchikey ZLIBICFPKPWGIZ-UHFFFAOYSA-N
#pubchem_id 91650
#mb_accession LU040501,LU040502,LU040503,LU040504,LU040505,LU040506

>ms2
200.118100 25821758.000000

>ms2
107.060100 33690.300000
184.086600 28915.900000
200.118100 27629828.000000

>ms2
58.065100 28982.700000
80.049300 48264.000000
82.065100 640665.600000
83.060400 35952.300000
107.060300 683474.400000
118.065000 60965.000000
119.060400 36387.100000
142.065200 36596.000000
143.060300 118715.500000
156.080800 27903.800000
159.091700 82731.900000
168.068500 32790.700000
182.083700 43658.900000
183.091700 517514.100000
185.094500 36482.900000
200.118100 23973306.000000

>ms2
53.038600 52057.900000
55.054300 28783.300000
58.065100 98275.100000
65.038500 47591.700000
66.033800 189341.500000
67.028900 53670.800000
67.041600 90682.400000
70.065100 14967.000000
77.038700 16291.200000
80.049400 570841.600000
82.065100 2296026.800000
83.060300 189755.800000
91.054200 17643.300000
92.049400 104188.600000
93.057300 118135.800000
94.065100 47557.800000
95.049100 39063.800000
95.060300 20269.200000
97.076000 18225.200000
105.044500 19925.400000
107.060300 2546196.500000
108.068200 14650.100000
115.054200 38317.100000
117.057000 22377.500000
118.052500 25690.200000
118.065100 231524.300000
119.060300 223455.500000
123.079000 25293.100000
129.069700 29236.100000
131.060200 12094.800000
132.080800 38241.200000
142.065100 199283.200000
143.060300 484600.700000
143.072900 80840.300000
146.084000 13721.400000
156.068100 15590.000000
156.080800 102775.700000
158.084100 34039.600000
158.096400 51535.200000
159.091600 262206.300000
160.099500 34644.600000
166.065100 81809.200000
167.072700 68355.400000
168.068100 380035.900000
173.107100 62584.000000
181.076300 26085.600000
182.083900 466377.000000
183.091700 1751273.800000
184.087100 27777.200000
185.094800 105444.500000
198.102400 55236.500000
199.110700 29175.200000
200.118100 11782363.000000

>ms2
53.038600 328810.300000
54.033900 11305.400000
55.054200 89362.200000
56.049600 36476.000000
58.065200 117638.100000
63.023000 8425.100000
65.038600 283064.700000
66.033800 553669.300000
67.029100 284009.600000
67.041600 338118.900000
70.065100 38330.500000
77.038400 40777.200000
78.046400 37408.900000
80.049500 1686167.500000
81.057400 20155.800000
82.065100 3623172.800000
83.060400 331339.600000
90.033800 12819.400000
91.054200 98042.900000
92.037000 37038.800000
92.049500 418603.200000
93.057400 334214.600000
94.065200 77770.500000
95.049200 226429.500000
95.060400 22486.700000
96.068200 10245.500000
97.076300 29971.300000
104.049500 15578.400000
105.044800 107293.100000
107.060400 3267446.200000
108.068300 29063.600000
115.054200 179927.500000
116.049500 39557.900000
117.057300 80293.300000
118.052500 124045.200000
118.065100 362382.200000
119.060500 552130.800000
123.079200 40628.400000
124.087100 18365.700000
128.049400 14493.500000
128.061800 15830.600000
129.069900 104745.000000
130.065000 14553.900000
131.060400 85296.400000
132.068300 8469.600000
132.080700 52501.400000
139.054200 29303.500000
140.049600 46453.300000
141.057300 34509.200000
142.065300 410807.800000
143.060500 706555.400000
143.073000 143618.500000
146.083900 18396.600000
154.065200 14347.900000
155.060500 21886.900000
155.073200 10287.300000
156.069100 50814.000000
156.080800 218255.600000
157.076200 20349.000000
157.088700 8410.300000
158.084000 60365.400000
158.096300 67990.300000
159.091800 321841.300000
160.099900 30195.800000
166.065300 164457.500000
167.060800 9759.700000
167.073100 187502.100000
168.068200 1318476.100000
171.079300 17326.800000
172.099400 7581.200000
173.107500 78684.800000
181.076100 235202.400000
182.084000 1430219.000000
183.091800 2037110.000000
184.087000 42609.300000
185.094800 120975.300000
198.102600 91509.600000
199.110700 33505.600000
200.118300 4174735.800000

>ms2
53.038600 754240.400000
54.033900 12646.400000
55.054300 151106.500000
56.049500 47156.000000
58.065100 65676.500000
63.022800 26730.100000
65.038500 621034.900000
66.033800 705962.900000
67.029100 630525.200000
67.041600 643039.500000
70.065000 52577.100000
74.096200 6036.400000
77.038500 94721.000000
78.046400 76550.900000
80.049400 2034737.600000
81.057300 28580.300000
82.065100 2623303.500000
83.060300 299927.100000
90.033800 19350.100000
91.054200 155816.300000
92.037000 64741.600000
92.049500 573722.800000
93.057300 484444.400000
94.065100 47959.500000
95.049100 603769.700000
96.068000 26973.400000
97.076100 12464.700000
104.049500 44340.100000
105.044700 259634.700000
107.060400 1736584.800000
108.068100 35607.500000
115.054200 300580.600000
116.049500 86701.500000
117.057300 115051.700000
118.052500 175102.700000
118.065100 238543.600000
119.060400 501884.100000
123.079100 25393.500000
124.087100 24657.600000
128.049500 40866.200000
128.062000 40907.300000
129.069900 110692.200000
130.065200 21895.800000
131.060400 144186.800000
132.068200 20799.000000
132.080800 19005.600000
139.054200 57878.300000
140.049400 126643.300000
141.057200 174432.900000
142.065200 279252.500000
143.060400 459426.800000
143.073000 133215.400000
146.084000 18558.600000
154.065000 45655.500000
155.060300 40289.700000
155.072800 22368.300000
156.068400 113875.000000
156.080700 152473.300000
157.076100 30203.300000
157.088800 7781.300000
158.083900 51269.800000
158.096300 39187.900000
159.091600 171382.600000
160.099600 9152.200000
166.065100 138937.600000
167.060900 29923.700000
167.072900 185411.300000
168.068200 1555506.800000
171.079000 9049.000000
172.099100 7735.900000
173.107300 50528.900000
181.076000 673656.200000
182.083900 1447665.800000
183.091700 822195.500000
184.086800 46536.100000
185.094700 73783.100000
198.102400 85545.400000
199.110300 19406.600000
200.118200 707179.400000

