>compound LU75336510
>parentmass 278.1176
>ionization [M+H]+
>formula C18H15NO2
>rt 1071.780000
>profile orbitrap
#smiles_iso CCOC(=O)C(=C(C1=CC=CC=C1)C2=CC=CC=C2)C#N
#smiles_can CCOC(=O)C(=C(C1=CC=CC=C1)C2=CC=CC=C2)C#N
#inchikey IAJNXBNRYMEYAZ-UHFFFAOYSA-N
#pubchem_id 243274
#mb_accession LU073201,LU073202,LU073203,LU073204,LU073205,LU073206

>ms2peaks
77.038700 3622.200000
96.044400 5088.500000
104.049500 2462.500000
105.033300 12139.700000
129.033300 2442.900000
147.043900 7848.900000
157.028400 6933.400000
167.085500 8987.500000
178.078200 4231.300000
182.096500 6263.500000
183.080400 8506.000000
191.085700 6856.700000
203.073100 3751.100000
204.080800 3940.800000
206.096300 4746.400000
207.080800 2412.500000
232.075700 896075.900000
235.075400 54793.200000
243.080300 6306.400000
246.051500 31929.100000
250.086300 1120037.900000
260.107200 7539.900000
264.101500 5698.600000
278.117600 1297504.000000

>ms2peaks
77.038800 3803.400000
96.044400 5819.200000
104.049500 17897.200000
105.033600 179413.700000
129.033600 9062.300000
147.044100 26915.200000
157.028500 18563.800000
167.085800 12560.000000
176.063000 2465.300000
178.077700 3295.900000
179.085800 10690.700000
182.096700 26817.400000
183.080700 22981.500000
191.085900 8970.000000
202.078100 2409.400000
203.073800 6234.600000
204.081000 69022.700000
206.096500 20193.900000
207.080700 15991.200000
222.091700 33839.700000
232.075900 1976067.900000
235.075400 55438.600000
236.106900 7381.500000
242.097000 4750.800000
243.080700 10376.600000
246.052500 31603.700000
250.086400 581769.200000
260.107300 7720.100000
264.102300 15040.800000
278.117800 163062.400000

>ms2peaks
53.038600 3280.900000
68.997000 6082.400000
77.038700 4260.700000
95.049200 7902.800000
96.044000 1956.200000
104.049500 33303.100000
105.033500 566676.900000
128.049400 3338.800000
129.033500 18300.700000
130.029000 3190.600000
147.044200 19786.100000
153.069900 3590.700000
154.029100 3045.000000
157.028500 11780.100000
165.070000 6473.000000
167.085500 5074.000000
176.062500 7301.400000
177.070000 41298.700000
178.077600 17989.500000
179.085700 34182.100000
181.064600 5308.600000
182.096500 21740.700000
183.080700 9444.800000
191.085900 5118.700000
195.080500 13634.900000
203.073100 44738.200000
204.080900 498451.900000
205.065500 4131.500000
206.096600 23885.000000
207.080800 14974.000000
215.086100 5991.300000
222.091500 63426.000000
232.075800 1124394.200000
234.128000 4933.900000
235.074600 5009.800000
236.106700 16650.800000
242.097200 2882.500000
243.080700 5278.900000
246.053100 12698.800000
250.086300 187456.500000
264.101400 11716.100000

>ms2peaks
53.038600 18930.800000
68.997200 13223.400000
77.038600 8904.400000
95.049200 53017.500000
103.054300 6341.100000
104.049600 85301.200000
105.033600 703748.500000
116.049500 2365.700000
128.049400 15265.300000
129.033500 32069.700000
130.028800 5420.900000
147.044200 12888.900000
152.061800 2383.300000
153.070100 21468.300000
154.029000 13331.700000
157.028600 8987.700000
165.069900 15267.400000
167.085800 7024.900000
169.064600 12006.900000
176.062200 99716.900000
177.070000 302779.400000
178.065000 5243.500000
178.077800 75131.100000
179.085700 23979.200000
181.064600 24991.800000
182.096600 12089.900000
186.128300 2844.100000
190.077300 2621.400000
191.085800 4111.000000
195.080500 42615.300000
196.076200 4971.900000
202.065200 11590.200000
202.076900 2893.400000
203.073100 305699.800000
204.080900 886304.400000
205.065600 5163.800000
206.096600 21603.000000
207.080100 4850.600000
215.085600 8910.200000
220.075700 10114.200000
222.091300 26284.900000
232.075900 458350.500000
234.127300 9902.700000
236.107100 5636.400000
246.053500 3733.800000
250.086200 33642.100000
264.102300 3029.400000

>ms2peaks
51.023000 5766.900000
53.038600 41521.600000
55.017700 1835.600000
68.997000 11301.600000
75.022800 3421.500000
77.038400 17972.900000
81.033300 6325.000000
91.054200 4535.800000
94.041300 4079.000000
95.049100 144569.700000
101.038400 3497.300000
103.054100 6506.700000
104.049400 105269.400000
105.033500 431147.300000
116.049400 2911.100000
119.049100 4026.100000
128.049400 23751.700000
129.033400 40334.900000
130.028600 5455.700000
146.059800 5744.900000
147.043900 3922.800000
151.054400 3077.300000
152.062000 4271.700000
153.070000 19785.800000
154.028700 11661.000000
154.039900 5687.500000
157.028500 4923.900000
165.069800 17471.400000
167.085400 4608.400000
168.057200 2507.900000
169.064700 68862.400000
175.054100 2402.300000
176.062000 408698.200000
177.069800 346649.700000
178.065500 13337.400000
178.077600 111804.800000
179.085300 6266.400000
181.064700 24234.400000
182.096400 3235.700000
186.127300 2429.800000
189.069900 5365.100000
190.077200 3082.200000
193.064900 4195.300000
195.080400 32552.600000
196.075600 6854.200000
201.057500 9376.400000
202.065100 19698.400000
203.072900 560829.100000
204.080700 393757.800000
205.065300 3783.700000
206.096300 8676.000000
215.085500 7149.800000
220.075100 21864.500000
232.075600 77166.700000
234.127400 9335.700000
250.085400 2829.400000

>ms2peaks
51.023000 11403.100000
53.038600 91588.900000
55.017900 3718.800000
68.997100 13610.900000
75.022800 14148.500000
77.038500 42016.300000
81.033500 10311.600000
91.054200 8515.500000
94.041400 9036.000000
95.049200 263531.400000
101.038600 8307.700000
103.054200 7788.700000
104.049500 99187.100000
105.033500 223937.500000
119.049200 8783.900000
128.049400 23842.000000
129.033500 43007.900000
146.060000 3555.500000
151.054100 15531.400000
152.062100 22837.500000
153.069900 11466.400000
154.028600 4935.900000
154.040100 10352.400000
165.070000 19208.200000
168.056800 4876.400000
169.064800 212004.800000
175.054700 6734.200000
176.062100 703520.600000
177.069900 196479.400000
178.065200 11757.100000
178.077800 154857.100000
181.065100 10689.000000
183.080400 2853.600000
186.127600 2360.200000
189.070000 9141.600000
193.065000 14192.900000
195.080700 9930.800000
196.075800 3899.500000
201.057300 26074.100000
202.065300 32776.900000
202.076400 3562.300000
203.073000 695735.200000
204.080900 118593.600000
206.096200 2396.400000
215.085500 3266.900000
220.075700 34283.400000
232.075800 9096.500000
234.127800 2786.400000

