>compound LU75715588
>parentmass 314.10550000000006
>ionization [M+H]+
>formula C17H16ClN3O
>rt 912.360000
>profile orbitrap
#smiles_iso C1CN(CCN1)C2=NC3=CC=CC=C3OC4=C2C=C(C=C4)Cl
#smiles_can C1CN(CCN1)C2=NC3=CC=CC=C3OC4=C2C=C(C=C4)Cl
#inchikey QWGDMFLQWFTERH-UHFFFAOYSA-N
#pubchem_id 2170
#mb_accession LU090201,LU090202,LU090203,LU090204,LU090205,LU090206

>ms2
70.065100 30992.800000
193.053500 33625.900000
245.047600 46042.700000
271.063000 217751.800000
314.105300 20297432.000000

>ms2
70.065100 1534949.400000
71.060300 51399.300000
85.076000 24944.100000
193.053400 28385.700000
228.020400 20868.300000
230.036300 21333.200000
245.047600 1180264.900000
271.063100 5979833.000000
297.079000 679634.400000
314.105300 13545272.000000

>ms2
53.002200 13145.900000
56.049500 11097.000000
68.049500 28424.500000
70.065100 3458971.000000
71.060300 141573.200000
85.076000 45092.400000
93.057300 48097.100000
118.065100 14289.800000
119.073000 45737.700000
193.052200 182197.600000
200.026000 17226.400000
205.052600 19477.900000
208.099300 13962.700000
221.047700 33972.100000
222.054900 20288.400000
228.021000 543288.100000
230.036700 74110.300000
235.086400 32528.300000
236.094600 33967.400000
243.068200 16946.800000
244.052600 39916.700000
245.047700 1209053.400000
254.037300 22372.500000
257.047100 13225.200000
261.102100 15250.800000
269.047800 26348.200000
271.063200 11041280.000000
282.055400 26583.200000
297.079000 1702733.100000
312.090000 20066.600000
314.105500 1396810.400000

>ms2
53.002200 25043.100000
56.049500 29363.200000
65.038500 20498.500000
68.049400 58967.200000
70.065000 2676875.000000
71.060300 147918.800000
79.054100 28965.900000
80.049400 15855.900000
84.068100 10419.900000
85.075900 26460.400000
91.054200 9300.400000
93.057300 109649.400000
95.049300 8048.500000
104.049300 81352.300000
106.065100 63585.600000
107.049000 14147.500000
108.044400 16638.000000
111.044000 9040.300000
117.057200 16479.300000
118.065000 145016.500000
119.072900 215726.400000
120.044200 9259.400000
134.060100 18254.500000
143.060100 8096.800000
144.080800 8229.300000
154.005500 22679.300000
164.026200 24224.200000
164.049300 145232.400000
165.057300 7886.200000
166.065000 7198.200000
167.072900 31055.300000
173.015300 15010.200000
178.042000 7709.500000
180.068600 8177.100000
180.080600 28623.500000
181.088600 27451.300000
190.065200 10763.200000
191.072700 29173.900000
192.044600 28069.600000
192.068000 7984.700000
192.080900 9367.900000
193.052200 2508293.800000
194.060200 12443.800000
196.039200 12656.200000
200.026100 300556.700000
201.033800 20760.200000
205.052900 27453.000000
205.076400 8119.300000
206.059800 6920.400000
206.083800 38658.300000
207.067800 13185.700000
207.091500 96549.500000
208.099300 163286.400000
209.083400 53996.500000
210.054800 117608.000000
214.041900 20959.800000
215.026600 8557.700000
216.021100 8817.800000
216.057400 12948.200000
218.036200 23876.300000
218.083300 8450.300000
219.067600 23290.700000
219.092000 10272.000000
220.050400 100682.500000
220.075400 28479.200000
221.048100 20599.000000
221.070500 21434.800000
226.042000 12284.800000
227.037400 9197.200000
227.048900 7799.700000
228.020900 1593188.000000
229.028700 26501.700000
229.052600 13112.000000
230.036500 112433.600000
233.107700 26374.600000
234.078900 17778.000000
235.086500 267863.900000
236.094300 87287.000000
241.029200 19231.100000
242.036600 13899.900000
242.060800 42682.600000
243.044400 9144.600000
243.068300 70622.400000
244.052200 128192.200000
245.047500 303249.700000
247.087000 12420.200000
253.052400 31911.900000
254.023600 45503.000000
254.036800 123489.800000
254.060700 11448.500000
255.031900 14655.000000
255.044500 9998.000000
256.039900 21265.300000
256.052300 18477.900000
257.047200 9536.600000
261.102200 70483.300000
262.109600 7137.000000
267.068100 8141.300000
268.052800 6890.700000
269.047400 48860.100000
269.083500 25748.700000
270.053600 7657.600000
270.069500 22219.300000
271.063000 6597792.000000
281.047600 24671.400000
282.055100 107634.000000
295.063400 40919.400000
297.078800 960414.800000
312.090500 8519.900000
314.105700 32059.800000

>ms2
53.002200 15996.400000
53.038600 25871.300000
55.041700 8812.600000
56.049500 47419.000000
58.065200 7535.400000
65.038500 50363.600000
68.049400 71148.900000
70.065100 1599775.800000
71.060300 170353.400000
79.054200 70517.600000
80.049400 22916.900000
83.060300 8525.600000
84.068200 16725.400000
85.075900 15657.200000
91.054300 39029.000000
92.025700 6708.200000
92.049500 9488.600000
92.062100 19398.400000
93.057300 126276.600000
95.049200 35607.400000
104.049500 248305.100000
105.044700 20210.400000
106.065100 64112.000000
107.049000 16970.300000
108.044400 9583.400000
111.043900 13173.100000
116.049600 8845.000000
117.057300 31074.400000
118.065100 290988.800000
119.073000 154204.700000
120.044300 16375.000000
125.015200 17080.000000
125.986500 27816.600000
128.049500 7621.600000
130.065200 14116.100000
134.060200 13605.700000
140.049500 39812.900000
143.060100 6569.500000
144.080800 16353.300000
149.015300 31275.500000
150.010500 10187.600000
152.062100 10088.200000
153.057200 7590.000000
153.070100 7336.600000
154.005400 24102.000000
162.023000 6529.900000
164.049400 813267.100000
165.057400 85388.000000
165.069900 13502.400000
166.065100 20126.900000
167.073000 88345.500000
168.044300 9158.900000
168.056900 14289.600000
169.052400 10595.700000
169.064400 6982.800000
173.015300 159785.400000
174.010400 75181.800000
177.057700 6500.200000
178.065200 11889.900000
179.059900 23184.500000
179.072800 16346.200000
180.068000 37010.800000
180.080800 100864.800000
181.076400 12134.700000
181.088500 64877.800000
182.060200 7742.600000
182.083900 8335.000000
183.067800 35337.600000
190.065200 27359.300000
191.037500 6623.200000
191.073200 62650.700000
192.044400 33677.800000
192.068000 15209.500000
192.080900 27136.100000
193.052300 6401842.000000
194.059900 24613.600000
195.068000 17412.700000
195.091100 7567.000000
196.039100 11882.100000
196.075700 7861.900000
199.031000 16573.800000
200.026200 882838.000000
201.033900 56224.200000
202.017700 8673.600000
202.041200 6675.000000
203.037200 12234.100000
204.021100 17634.700000
205.052700 21822.700000
205.076400 44640.700000
206.059900 12547.000000
206.084000 90787.600000
206.095300 6779.600000
207.091600 193047.300000
208.075500 23416.900000
208.099400 193451.000000
209.083400 80287.900000
210.054900 211334.500000
211.062800 7196.800000
214.018000 6731.500000
214.030200 8217.600000
214.041700 40270.900000
215.013600 9372.500000
215.025500 21102.900000
215.036900 25291.800000
216.020900 17873.600000
216.044800 9954.700000
216.057300 13643.700000
218.036700 46166.500000
218.082700 19273.800000
219.067700 54920.100000
219.091700 18600.300000
220.050700 146247.200000
220.075600 48481.400000
226.041700 11636.700000
227.012900 26682.600000
227.036900 14410.100000
228.021100 1016583.000000
229.016600 10215.000000
229.028700 40350.300000
229.052500 13284.200000
230.036900 87205.900000
232.098900 15948.600000
233.107000 30827.300000
234.078500 28158.300000
234.091400 12217.500000
235.086600 404343.800000
236.094400 43462.400000
239.037400 13815.000000
240.020800 9094.800000
240.044500 11878.900000
241.029700 28574.500000
241.052300 52654.600000
242.037200 12800.300000
242.060300 70234.500000
243.044900 9509.000000
243.068500 47935.800000
244.039100 7275.700000
244.052200 74076.400000
245.047700 47322.800000
253.052500 51515.000000
254.023700 95618.400000
254.036700 144582.200000
254.060000 10586.100000
255.031900 24302.800000
255.044800 10836.400000
256.039900 25940.500000
256.052100 8766.300000
257.046900 7540.700000
261.102300 66839.000000
267.067900 8706.600000
268.076000 8986.700000
269.047400 71696.500000
269.082800 9264.900000
270.053500 9200.200000
270.068300 13927.900000
271.063200 1626539.100000
281.047700 45248.700000
282.055400 54766.100000
295.063200 62866.900000
297.078900 160592.000000

>ms2
53.002200 22347.200000
53.038600 43727.500000
55.041700 11233.100000
56.049500 45699.400000
65.038500 64663.800000
66.046400 15892.700000
68.049400 64147.600000
70.065100 800008.600000
71.060300 124361.900000
77.038600 14781.100000
79.054200 61527.200000
80.049500 26581.200000
81.033500 19266.700000
83.060400 12532.200000
84.068400 17768.600000
91.054200 70064.800000
92.025700 27415.700000
92.062100 18048.900000
93.057300 122469.500000
95.049200 89857.700000
104.049500 220013.200000
105.044700 41231.700000
106.065000 25874.800000
107.049100 11868.300000
116.049500 16424.900000
117.057300 41555.300000
118.065100 299313.500000
119.073000 51354.100000
120.044400 19209.700000
125.015400 14747.200000
125.986700 88412.500000
128.049500 9472.700000
130.065200 16074.700000
134.060100 9107.300000
137.015500 8745.300000
139.054100 31751.400000
140.049400 111599.300000
143.072900 7965.500000
144.080900 9258.000000
149.015200 70495.600000
150.010500 28210.000000
152.062000 39730.900000
153.057200 16052.400000
153.069900 13188.300000
154.005500 11491.500000
164.049400 1983949.400000
165.057400 374012.700000
165.068900 43470.800000
166.065000 78054.300000
167.072900 118996.300000
168.044500 12882.100000
168.057100 25187.300000
169.052000 36568.700000
169.064900 12018.900000
170.059900 13553.000000
173.015300 389809.100000
174.010500 238553.300000
177.057200 21880.000000
178.065200 24904.400000
179.060400 41731.100000
179.072900 39801.400000
180.068300 48557.600000
180.080800 149218.300000
181.075900 21718.400000
181.088600 47854.100000
182.060000 18706.800000
182.084000 11994.700000
183.067900 108330.400000
188.026300 12952.000000
190.065100 53598.200000
191.073100 74483.300000
192.044300 21179.800000
192.068500 29042.200000
192.080800 27408.200000
193.052300 7557051.500000
194.059700 37713.900000
195.067800 13612.100000
196.075700 13566.500000
199.030700 13195.100000
200.026200 799229.400000
201.033800 53339.900000
202.018100 14843.500000
203.037200 9857.200000
204.021200 12102.600000
204.080800 11643.900000
205.052500 8593.800000
205.076200 86434.400000
206.084000 108953.800000
207.067800 43626.600000
207.091700 169239.600000
208.075600 43008.100000
208.099500 93444.900000
209.083300 49515.300000
210.054900 123282.500000
214.029300 15058.000000
214.042000 34849.700000
215.025700 21579.600000
215.037200 23610.600000
216.021100 26597.100000
216.045300 8442.100000
217.076300 9421.300000
218.036800 24911.200000
218.084100 30228.800000
219.067600 79089.300000
219.092000 16330.300000
220.050800 58341.200000
220.075200 38709.100000
221.071000 25235.600000
226.029600 17765.000000
227.013200 51551.400000
227.037000 12109.300000
228.021100 259441.200000
229.016800 8243.200000
229.028900 23874.400000
229.053400 9900.700000
230.036700 31904.000000
232.099200 9180.700000
233.107300 19479.600000
234.078700 35968.300000
234.091000 8434.300000
235.086600 266746.000000
236.094100 9011.200000
239.036900 15158.100000
240.021200 9284.400000
241.030000 21697.300000
241.052400 57413.600000
242.037100 13466.000000
242.060400 23600.400000
243.045200 7752.900000
243.068700 12776.700000
244.052400 15641.800000
247.087200 13320.500000
253.028600 8990.100000
253.052300 31880.800000
254.023900 67283.400000
254.037000 84547.000000
255.031500 24858.000000
256.039700 10365.300000
267.068900 8407.000000
269.047100 62364.400000
271.063200 194766.600000
281.048200 24269.300000
282.055300 8028.000000
295.063200 32315.700000
297.078900 11938.600000

