>compound LU75797164
>parentmass 290.14989999999995
>ionization [M+H]+
>formula C15H19N3O3
>rt 878.820000
>profile orbitrap
#smiles_iso CCC1=CC(=C(N=C1)C2=NC(C(=O)N2)(C)C(C)C)C(=O)O
#smiles_can CCC1=CC(=C(N=C1)C2=NC(C(=O)N2)(C)C(C)C)C(=O)O
#inchikey XVOKUMIPKHGGTN-UHFFFAOYSA-N
#pubchem_id 54740
#mb_accession LU027401,LU027402,LU027403,LU027404,LU027405,LU027406

>ms2
244.143700 27484.700000
245.128300 90676.900000
248.103000 195344.900000
262.155000 175582.000000
272.139200 45913.800000
290.149700 20435036.000000

>ms2
58.065100 46231.500000
69.069800 118186.000000
71.085400 22378.600000
86.096400 696679.600000
97.064800 55108.000000
114.091400 53650.900000
133.075900 52461.900000
175.086500 31837.000000
176.081900 127569.800000
177.065800 324776.400000
194.092700 34003.500000
201.138600 448921.000000
202.097500 17172.700000
203.118000 29913.600000
204.112800 44133.000000
218.165100 50614.100000
219.100700 23672.900000
227.117800 65687.800000
230.092400 553826.900000
244.144500 694525.400000
245.128400 2645377.200000
246.160200 44347.600000
247.094800 62261.300000
248.102900 2279849.800000
262.155000 1518052.400000
272.139300 295825.500000
290.149800 11351545.000000

>ms2
53.002200 35532.700000
53.997400 4661.600000
58.065100 110861.400000
67.054200 21392.400000
69.069800 2158472.000000
70.065100 23041.100000
71.073000 19775.300000
71.085500 59540.700000
72.044300 4589.700000
72.080900 5154.300000
84.080900 17189.800000
86.096400 2904452.500000
94.065400 4186.100000
97.064800 165418.200000
106.065400 9704.700000
114.091300 41749.900000
132.068500 7998.500000
133.076000 365634.400000
135.091600 5481.700000
138.091400 22063.300000
149.071000 7194.600000
152.070600 6473.000000
159.055200 161480.900000
160.111900 23698.200000
161.071000 27599.600000
161.107200 29249.000000
162.055200 8026.500000
164.070500 18633.700000
175.086700 358226.600000
176.081900 924681.400000
177.065800 3504179.800000
179.081300 9716.900000
184.111500 10247.900000
186.115300 9152.600000
189.066100 14644.500000
191.081500 11667.300000
194.092600 42812.800000
199.122800 10577.800000
201.089800 33945.600000
201.138700 536295.000000
202.097500 775580.400000
203.117900 223502.100000
204.101700 40118.700000
204.113100 92605.500000
205.097200 44339.700000
212.095200 6784.900000
218.165400 14597.000000
219.100300 88943.800000
220.108000 15755.400000
227.117900 590362.900000
229.084500 83180.500000
230.092400 2770599.800000
244.144500 595187.000000
245.128500 3207157.800000
246.159500 5737.300000
247.095000 119455.500000
248.103000 1312105.800000
260.102300 5961.400000
262.155000 378176.200000
272.139200 46891.000000
290.149900 804599.200000

>ms2
53.002200 134291.900000
53.997500 20588.900000
56.049500 19691.000000
58.065100 87545.300000
66.046300 5484.800000
67.054100 62036.200000
67.989300 6159.500000
69.069800 3320804.000000
70.065000 46421.000000
71.072900 83760.100000
71.085500 50918.200000
72.044300 21584.900000
72.080700 5864.200000
80.049300 4445.600000
81.033300 4093.000000
84.080700 15741.700000
86.096400 3150259.500000
93.057400 9681.900000
93.069900 16153.900000
94.065200 8013.000000
95.049100 8923.300000
96.044300 11225.400000
97.064800 82756.600000
104.049400 38337.400000
105.045000 10348.700000
106.065200 14231.400000
107.073000 5252.200000
108.080700 9034.200000
114.091600 7026.000000
118.052600 11063.800000
120.080700 6417.000000
121.039600 66195.200000
121.052300 7543.300000
121.075900 5942.900000
122.060000 7764.100000
124.075700 119218.900000
131.060200 7322.900000
132.068200 40435.700000
133.076000 439312.900000
134.083800 9575.000000
135.091500 24620.200000
136.075800 13525.800000
138.091200 56802.400000
139.062700 9590.600000
145.088300 7962.900000
149.034700 33126.400000
149.070900 142416.900000
152.070600 74883.900000
158.096600 14776.600000
159.055300 1185574.000000
160.063000 36998.700000
160.112200 28703.600000
161.070900 256504.200000
161.107000 24882.100000
162.042200 8736.100000
162.055000 5780.500000
163.050200 4395.300000
163.086700 5958.900000
164.070600 53102.600000
170.083700 5642.600000
171.091600 5512.400000
174.103000 10365.800000
175.086600 1315380.100000
176.081900 961458.800000
177.065800 4026387.000000
179.081400 8819.600000
184.099500 10997.500000
184.112300 7850.600000
185.070900 6582.400000
185.106500 7155.100000
186.091400 9723.300000
186.115000 21307.500000
187.073900 4588.600000
188.094100 10233.400000
189.066100 10143.200000
191.081400 97296.000000
194.092700 7201.900000
198.079000 5841.000000
199.122900 41667.700000
200.081800 19257.000000
201.089600 92942.400000
201.138600 108389.600000
202.097500 1488164.000000
203.117800 148564.100000
204.101900 33109.300000
204.113200 36229.600000
205.097100 29799.500000
212.094700 41309.000000
215.069300 10129.400000
219.100200 93936.500000
220.108300 34647.100000
227.117800 309184.800000
229.084500 91551.500000
230.092300 1459878.800000
244.144300 58655.800000
245.128400 285144.200000
247.094300 24199.600000
248.102800 103108.700000
260.102800 6014.000000
262.154500 11218.900000
290.149400 9592.600000

>ms2
52.018200 5672.700000
53.002200 195263.100000
53.038600 13032.300000
53.997400 39877.300000
55.017900 8039.900000
56.049500 51584.000000
58.065100 61885.900000
66.046400 15160.800000
67.041500 4439.900000
67.054200 76117.900000
67.989200 6942.600000
69.069800 2518313.800000
70.065100 82943.200000
71.072900 225556.600000
71.085500 19163.200000
72.044300 22660.400000
72.080700 8246.700000
77.038600 10612.500000
78.008600 6890.000000
78.033800 4434.500000
79.054200 30992.900000
80.049400 13849.000000
81.033400 15802.200000
81.057300 4879.100000
84.080800 7983.500000
86.096400 2100090.000000
91.041500 4680.700000
91.054200 8648.500000
93.057400 21429.800000
93.069800 31036.900000
94.065000 21687.700000
95.049200 44236.300000
96.044300 29072.000000
97.064900 23931.000000
104.049400 444743.700000
105.044700 33680.000000
105.057400 8604.100000
106.065000 37836.800000
107.060500 6377.400000
107.073000 19204.100000
108.068100 8096.000000
108.080900 7718.100000
110.060100 12064.500000
118.052500 69181.200000
119.060500 4698.900000
120.068200 16971.800000
120.080800 4860.000000
121.039700 176893.200000
121.052200 10435.100000
121.076100 16960.200000
122.060100 22532.900000
123.067800 12788.100000
124.075700 798852.300000
131.060300 48953.000000
132.068200 66512.200000
132.080800 19558.100000
133.076000 463389.800000
134.060000 5259.500000
134.083900 7124.600000
135.055300 9935.700000
135.091500 30851.100000
136.075700 35093.800000
138.091200 39297.600000
139.062800 30870.400000
143.073200 4988.400000
145.088600 13821.700000
146.047500 32884.200000
147.055200 6753.100000
147.091900 9749.100000
149.034600 89983.100000
149.071000 743757.900000
152.070600 186927.200000
157.076300 7536.800000
158.071100 8214.800000
158.096900 21319.200000
159.055300 2231189.000000
160.063100 130699.900000
160.111900 8765.800000
161.070900 432452.400000
162.042500 75522.400000
162.054800 9506.500000
163.050100 6974.600000
163.086400 5406.700000
164.070600 32356.000000
169.076100 6141.400000
170.084000 10108.800000
171.091800 16607.700000
172.112100 5545.500000
173.070800 10930.200000
174.102500 16087.500000
175.086600 1665569.400000
176.081800 425372.800000
177.065800 2082896.100000
184.099700 29573.300000
185.070600 8627.300000
185.107500 12498.200000
186.091500 9815.400000
186.115300 9965.300000
187.074200 21250.500000
188.094700 20467.900000
191.081500 179586.700000
197.071100 11840.900000
198.079300 6675.100000
199.123000 32184.200000
200.081900 17092.700000
201.089600 27877.800000
201.138600 8747.400000
202.097500 531772.400000
203.118000 37946.800000
204.101800 5770.000000
205.096500 5292.000000
212.094500 35661.100000
214.097300 13872.300000
215.068500 22932.400000
219.100200 31279.000000
220.108000 15835.800000
227.117800 42924.600000
229.084500 14696.200000
230.092400 293594.600000
245.128900 5461.700000

>ms2
52.018300 13898.400000
53.002200 242852.600000
53.038600 54914.600000
53.997500 46096.000000
55.017900 9551.100000
56.049500 105469.300000
58.065100 55137.900000
66.046300 28733.500000
67.041600 18338.900000
67.054200 72098.200000
67.989300 6455.300000
69.069900 1748772.500000
70.065100 154291.300000
71.072900 404614.100000
72.044500 9027.300000
72.080900 4986.500000
77.038600 16531.200000
78.008700 4691.000000
78.033800 8398.100000
79.054200 136309.900000
80.049500 54688.400000
81.033500 17572.800000
81.057400 12317.500000
86.096400 1093828.100000
91.041800 21803.900000
91.054300 20213.300000
93.057300 42312.900000
93.069800 22581.500000
94.065100 37521.800000
95.049200 159742.100000
96.044400 75173.900000
97.064800 10642.700000
104.049500 1430094.500000
105.044800 115082.600000
105.057300 32882.600000
106.065100 98134.100000
107.060500 10700.500000
107.073200 26212.300000
108.068300 7879.800000
108.080700 20248.900000
110.060100 16229.200000
118.052600 299496.200000
119.060500 7306.200000
120.068300 23538.500000
120.080900 6633.000000
121.039700 207287.900000
121.052200 24207.700000
121.076000 29921.400000
122.060100 37167.600000
123.067900 18264.000000
124.075800 1855842.100000
131.060400 153144.400000
132.068300 117189.600000
132.080700 51482.000000
133.076100 465590.300000
134.059900 12520.000000
134.083700 6738.000000
135.055300 12587.700000
135.091800 19654.300000
136.075700 31466.400000
138.091400 40725.000000
139.062900 60151.300000
143.073100 16878.400000
145.088500 13437.100000
146.047500 101753.800000
147.055300 17619.500000
147.091600 15886.300000
149.034800 93985.000000
149.071000 1152833.000000
152.070700 139856.400000
157.076000 14472.300000
158.071400 13117.900000
158.096500 17115.100000
159.055400 1555939.800000
160.063200 330953.200000
161.070900 275093.400000
162.042400 152878.200000
163.050000 8533.200000
163.086500 11878.300000
164.070500 5816.800000
169.076400 14117.300000
170.083900 8024.600000
171.091600 19162.900000
172.112100 7111.500000
173.071300 17314.600000
174.102800 12001.400000
175.086700 913362.800000
176.081900 111942.100000
177.065900 681426.200000
184.100100 20139.200000
185.070700 5301.100000
186.115900 4943.700000
187.074000 27789.300000
188.094600 17743.500000
191.081600 110360.100000
197.070900 18215.200000
199.123000 8484.500000
200.082100 11515.500000
202.097700 76286.200000
212.094300 10680.800000
214.097400 13197.400000
215.069400 11316.800000
230.092500 31816.100000

