>compound LU75376055
>parentmass 237.1022
>ionization [M+H]+
>formula C15H12N2O
>rt 944.040000
>profile orbitrap
#smiles_iso C1=CC=C2C(=C1)C=CC3=CC=CC=C3N2C(=O)N
#smiles_can C1=CC=C2C(=C1)C=CC3=CC=CC=C3N2C(=O)N
#inchikey FFGPTBGBLSHEPO-UHFFFAOYSA-N
#pubchem_id 2554
#mb_accession LU126601,LU126602,LU126603,LU126604,LU126605,LU126606

>ms2
192.080800 326905.000000
193.088700 33019.000000
194.096500 3990785.800000
220.075800 279173.000000
237.102200 13938093.000000

>ms2
192.080900 1652979.200000
193.088900 118928.500000
194.096400 11916622.000000
220.075700 453398.200000
237.102200 7564247.000000

>ms2
116.049500 16546.800000
165.069900 19904.400000
167.085400 53479.700000
177.069800 17835.900000
179.072900 55374.600000
191.072800 16873.200000
192.080900 3458912.500000
193.088800 403690.600000
194.096300 15697924.000000
220.075800 83172.700000
237.102200 671272.600000

>ms2
91.054200 42337.500000
116.049400 59545.300000
117.057200 21654.400000
134.060000 30114.100000
152.062200 64419.400000
165.069900 269930.800000
166.077300 24878.800000
167.073600 53162.700000
167.085500 274332.400000
168.080900 16364.400000
176.061400 21090.200000
177.069900 127123.000000
178.064400 21398.500000
178.077900 57643.700000
179.072900 692904.600000
190.065500 46118.000000
191.073000 142494.500000
192.080900 3976654.800000
193.088800 1682010.200000
194.096300 13873624.000000
220.076100 14411.700000
237.102000 26785.000000

>ms2
65.038700 20691.600000
89.038700 18411.500000
91.054300 141506.900000
116.049500 147592.100000
117.057300 100370.500000
128.049500 17985.200000
128.062300 22001.100000
134.060000 74191.000000
140.049600 8635.000000
141.070000 9086.800000
146.060100 8917.100000
152.062100 341509.600000
153.070200 9951.900000
165.070000 1170652.400000
166.065200 70775.100000
166.077600 96220.600000
167.073000 311222.300000
167.085600 380235.200000
168.080700 56652.500000
169.065100 45867.300000
176.062100 108159.200000
177.057300 48531.900000
177.070000 205746.700000
178.065200 113104.800000
178.077800 109161.900000
179.073000 2272810.000000
180.080700 13956.000000
183.068300 14177.000000
190.065400 201506.600000
191.073200 707444.600000
192.081000 3167366.000000
193.088800 4603913.500000
194.096400 7687285.000000
196.075500 22776.000000
205.075800 9416.300000

>ms2
65.038500 78990.400000
89.038600 111327.000000
91.054200 206371.400000
115.054100 25475.600000
116.049500 174802.300000
117.057300 228878.800000
128.049500 50103.400000
128.062000 26114.700000
134.059900 62554.400000
139.054200 41564.600000
140.049300 23263.800000
141.070000 18861.100000
146.060300 7731.900000
152.062100 703227.600000
153.070000 19008.700000
154.065200 10496.700000
155.073100 5624.200000
165.069900 2066796.400000
166.065300 132986.800000
166.077600 168036.700000
167.073000 790836.400000
167.085100 217315.400000
168.057000 29654.900000
168.080600 53532.700000
169.064800 141213.600000
176.062000 185974.700000
177.057400 172879.300000
177.069900 138619.700000
178.065200 429672.200000
178.077700 136173.800000
179.072900 3161494.200000
180.080600 17718.200000
183.068000 21799.300000
183.080200 13695.400000
184.075700 13086.500000
190.065300 434422.200000
191.073100 1418745.100000
192.080900 2526855.800000
193.088600 5617093.500000
194.096300 2511867.500000
196.075200 31293.700000
210.091100 7038.000000

