>compound LU75035869
>parentmass 120.0444
>ionization [M+H]+
>formula C7H5NO
>rt 900.360000
>profile orbitrap
#smiles_iso C1=CC=C(C(=C1)C#N)O
#smiles_can C1=CC=C(C(=C1)C#N)O
#inchikey CHZCERSEMVWNHL-UHFFFAOYSA-N
#pubchem_id 11907
#mb_accession LU028501,LU028502,LU028503,LU028504,LU028505,LU028506

>ms2
53.002300 3770.700000
53.038600 5763.500000
54.033800 4182.400000
55.017900 6876.100000
65.038500 168738.900000
68.049400 107447.900000
69.033500 7462.800000
78.033700 16327.600000
79.017800 19049.100000
82.028700 5913.500000
92.049400 731633.400000
96.044300 15458.700000
108.044300 22180.700000
120.044400 3570857.500000

>ms2
53.038700 4185.600000
54.033900 3639.100000
55.017900 7286.900000
65.038600 168379.000000
68.049500 107341.200000
69.033500 6929.700000
78.033900 12690.400000
79.017900 15737.000000
82.028800 4014.000000
92.049500 672748.200000
95.036700 4164.200000
96.044400 16544.100000
108.044400 19405.000000
120.044500 3373208.500000

>ms2
53.038600 6647.300000
54.033800 4619.300000
55.017900 8191.000000
65.038500 241516.900000
68.049400 123722.100000
69.033400 11711.700000
78.033800 13521.100000
79.017800 21253.100000
82.028800 5726.000000
92.049500 831281.900000
95.036800 5377.200000
96.044300 15165.100000
108.044400 24487.700000
120.044400 3010413.500000

>ms2
53.002200 3733.300000
53.038600 5308.500000
54.033900 4568.700000
55.017900 7996.500000
63.022800 2073.800000
65.038500 803871.100000
67.018000 2110.200000
68.049400 117009.100000
69.033500 10513.500000
78.033800 12281.700000
79.017800 21242.100000
82.028800 4258.000000
92.049400 1436498.000000
95.036500 4528.900000
96.044400 20190.800000
108.044300 29664.000000
120.044400 1571315.500000

>ms2
53.002200 8714.900000
53.038600 4414.000000
54.033800 4363.200000
55.017900 5665.500000
56.049600 3530.600000
65.038600 1735226.000000
66.033800 3405.200000
68.049500 73090.000000
69.033400 5489.800000
78.033700 7510.300000
79.017900 9950.700000
82.028800 2548.700000
90.033900 2435.600000
92.049500 1406615.000000
95.036600 3421.000000
96.044400 9840.300000
108.044400 17162.300000
120.044400 630515.600000

>ms2
53.002200 21037.000000
53.038600 4496.900000
56.049600 10345.400000
65.038600 2384217.500000
66.033800 7922.800000
68.049500 30426.700000
78.033900 5438.700000
79.017900 5486.200000
90.034000 5820.500000
92.049500 985260.300000
96.044400 5086.900000
108.044500 7602.900000
120.044500 211804.600000

