>compound LU75344557
>parentmass 389.9264
>ionization [M+H]+
>formula C13H9BrFNO3S2
>rt 985.440000
>profile orbitrap
#smiles_iso C1=CSC(=C1)/C=C/S(=O)(=O)NC(=O)C2=C(C=C(C=C2)F)Br
#smiles_can C1=CSC(=C1)C=CS(=O)(=O)NC(=O)C2=C(C=C(C=C2)F)Br
#inchikey QXWJDGMLSMFETH-FNORWQNLSA-N
#pubchem_id 16036578
#mb_accession LU119701,LU119702,LU119703,LU119704,LU119705,LU119706

>ms2peaks
97.010600 3571.000000
109.010600 17326.000000
127.021200 6380.100000
144.977700 3206.200000
154.962000 13068.900000
172.972700 557655.200000

>ms2peaks
65.038600 3712.700000
81.033500 5168.300000
83.012600 6995.700000
85.010600 4292.400000
86.989900 4084.200000
97.010700 19177.200000
102.967100 21784.700000
109.010700 294110.400000
116.982600 6001.000000
123.997800 2426.700000
125.005600 6159.700000
126.967000 5847.500000
144.977600 27824.200000
154.962000 86056.200000
172.972600 370150.300000
200.934700 177743.100000

>ms2peaks
65.038500 37375.900000
68.979100 4121.600000
81.033500 8608.600000
83.012700 10961.200000
84.002800 8763.100000
85.010700 3624.900000
86.989900 7306.500000
97.010800 23103.700000
102.967100 27501.800000
109.010700 947410.100000
116.982700 6684.200000
123.997800 2074.300000
125.005500 5547.400000
126.967300 9125.300000
127.021500 2095.200000
144.977500 24894.700000
154.961900 74137.500000
172.972600 81787.300000
200.934700 163811.300000

>ms2peaks
65.038500 147126.200000
68.979300 21160.900000
81.033600 4375.800000
82.995100 4281.900000
83.012700 5790.400000
84.002800 6079.400000
86.989900 6054.900000
97.010700 17368.100000
102.967000 17433.700000
108.002800 9569.200000
109.010700 959479.800000
112.031900 10754.300000
125.005700 2947.800000
126.967000 19154.200000
144.977800 7501.600000
148.939800 2206.700000
154.962000 22452.200000
172.939900 2093.100000
200.934700 95827.500000

>ms2peaks
65.038600 354013.800000
68.979300 38949.400000
82.995000 7554.700000
83.012600 2333.500000
84.002700 4747.500000
86.989900 3703.500000
94.021300 13292.900000
97.010900 14228.700000
102.967000 7551.500000
108.002900 16573.600000
109.010800 665117.400000
112.032000 12383.800000
126.967000 13762.200000
154.961700 7032.700000
172.939900 3574.400000
190.950300 4647.200000
200.934600 38037.500000
200.945700 47809.800000

>ms2peaks
65.038600 409431.900000
68.979300 50783.900000
81.033500 2048.900000
82.995000 10594.400000
84.002800 5141.400000
94.021400 29183.400000
97.010700 7843.500000
102.967100 5247.900000
108.002900 18607.200000
109.010800 309307.900000
112.031800 10524.100000
126.967000 12970.600000
148.939600 2265.100000
190.950100 4190.100000
200.934700 9135.600000
200.945800 26791.000000

