>compound LU76024398
>parentmass 395.1864
>ionization [M+H]+
>formula C21H27FO6
>rt 878.820000
>profile orbitrap
#smiles_iso C[C@]12C[C@@H]([C@]3([C@H]([C@@H]1C[C@H]([C@@]2(C(=O)CO)O)O)CCC4=CC(=O)C=C[C@@]43C)F)O
#smiles_can CC12CC(C3(C(C1CC(C2(C(=O)CO)O)O)CCC4=CC(=O)C=CC43C)F)O
#inchikey GFNANZIMVAIWHM-OBYCQNJPSA-N
#pubchem_id 31307
#mb_accession LU023901,LU023902,LU023903,LU023904,LU023905,LU023906

>ms2
137.060100 2813.000000
147.080500 11283.600000
155.070300 2581.200000
171.080300 5782.400000
173.096600 2188.200000
185.096000 12214.300000
187.075900 4873.400000
197.096100 3981.200000
199.111700 2783.100000
211.111100 2748.500000
213.127600 7572.800000
223.111600 12454.600000
225.127500 37800.500000
235.111500 2938.300000
237.127700 18246.700000
241.122300 2970.600000
251.143600 2949.300000
253.122400 4038.000000
255.137900 2184.800000
261.127200 7625.800000
263.143400 10041.500000
267.137200 2138.100000
275.143300 9665.600000
277.121200 2008.400000
279.138600 10755.100000
281.153700 5871.500000
291.137800 5696.200000
293.153400 15571.300000
303.138100 8582.100000
339.159100 59605.900000
357.169900 129735.100000

>ms2
55.017800 3554.900000
65.038400 1719.300000
81.069800 3091.200000
87.044100 5579.100000
93.070000 4458.800000
95.049200 4431.300000
95.085300 1885.000000
97.064800 2072.600000
101.023400 3704.100000
105.069900 4481.800000
109.064500 3972.500000
115.039100 5746.900000
121.064800 9269.100000
123.044300 2215.500000
123.080900 2409.300000
125.059900 6131.300000
131.085700 3787.800000
133.064700 5228.300000
135.080300 10050.000000
137.059900 6657.300000
143.085800 4484.500000
145.064600 2410.200000
145.101100 1983.300000
147.080500 35955.900000
155.070000 4262.100000
155.085900 2091.500000
159.080600 6826.700000
161.096100 6779.000000
169.065100 2830.300000
171.080500 16681.400000
171.117100 4214.300000
173.096100 7703.800000
181.101300 3533.100000
183.080700 3089.900000
185.096400 11477.000000
187.075700 9121.200000
197.096400 9545.400000
197.132200 3032.900000
199.111900 6343.800000
207.116900 3183.200000
209.096200 5916.800000
211.112100 9926.700000
213.127400 21046.200000
221.095200 3176.900000
221.132300 2511.900000
222.103800 1792.600000
223.112000 18354.600000
224.119800 7934.800000
225.127600 57663.100000
235.112000 11489.300000
237.127500 34372.600000
239.143200 17621.100000
241.122100 9537.600000
249.127600 9113.600000
251.143500 11178.500000
253.122700 4756.200000
255.137600 2300.400000
260.119700 4881.600000
261.127800 10022.400000
262.135500 7580.900000
263.143400 21799.600000
265.158800 5176.500000
267.138200 4250.300000
275.142800 13333.000000
277.121800 3841.800000
279.138700 11943.900000
280.146200 3658.600000
281.153900 10548.700000
291.137900 7338.300000
293.153300 14533.600000
303.137900 7412.200000
339.159500 19786.500000
357.170100 23622.500000

>ms2
55.017900 9070.400000
69.033400 5399.400000
81.069900 4888.800000
83.049400 1934.500000
87.044100 4284.600000
91.054400 3844.400000
93.069900 6666.400000
95.049200 7269.400000
95.085600 4462.900000
97.064900 2791.100000
101.023500 2766.900000
105.069900 11183.500000
107.085600 2219.800000
109.064900 6305.800000
115.039300 2417.000000
119.085600 4002.200000
121.064800 26689.000000
123.044200 4449.700000
123.080400 3053.500000
125.060000 5641.100000
128.062400 2381.600000
131.085500 6560.100000
133.065000 6074.200000
135.080400 7381.700000
137.059800 4695.500000
143.085600 9681.300000
145.064900 7017.600000
147.080500 42174.600000
155.085600 4295.700000
157.101500 4257.100000
159.080700 16745.800000
161.096100 6181.700000
171.080600 26966.200000
171.117000 3667.100000
173.096200 12121.700000
179.085400 3093.500000
180.093800 1878.100000
181.101500 4411.900000
183.080200 3216.800000
185.096200 9298.400000
187.075600 8015.900000
191.085700 1787.200000
192.093400 4507.000000
193.101200 3050.400000
195.080900 4301.400000
195.117200 4713.900000
197.096000 12591.000000
197.132700 6159.300000
199.111900 6129.800000
205.101700 4524.800000
206.109400 4664.900000
207.116900 10630.900000
208.088300 7001.000000
209.096300 12598.300000
210.103900 8067.700000
213.127500 12884.300000
219.116800 4284.700000
221.096100 5776.800000
221.132600 4012.200000
222.103800 6809.600000
223.111900 17485.200000
224.119900 9801.400000
225.127600 27745.400000
233.096000 2687.500000
234.103400 2407.200000
237.127600 18802.200000
239.143300 8052.900000
246.104000 2786.700000
247.111700 3374.900000
249.127600 4346.400000
251.143300 4090.600000
253.122700 2479.400000
260.119500 5221.400000
261.127800 6324.900000
262.135200 4584.000000
263.143000 7145.700000
265.158000 2358.100000
275.142800 5614.600000
280.145700 4695.100000
291.138400 1984.300000
293.153900 2354.000000

>ms2
55.017900 10566.000000
55.054300 2528.400000
67.054200 3692.500000
69.033400 5953.400000
79.054100 5941.100000
81.069900 6728.800000
83.049100 2585.500000
87.044200 2136.000000
91.054300 11081.700000
93.070100 7659.900000
95.049200 9606.800000
95.085600 2633.300000
97.064600 1998.400000
105.069900 13610.100000
107.049300 2083.500000
107.085700 3039.200000
109.064900 6131.100000
115.039200 1932.800000
115.054200 2684.900000
117.069900 3458.800000
119.085600 7154.200000
121.064800 26373.400000
123.080400 2720.800000
125.059900 2874.700000
128.062200 5730.000000
129.070000 6929.400000
131.085700 6160.800000
132.056800 2968.800000
133.064700 4236.800000
135.080400 6344.300000
137.060000 2264.700000
141.069900 3498.200000
142.077800 5086.800000
143.085500 10415.200000
145.064900 11655.900000
145.101300 2821.600000
147.080600 34089.500000
155.085400 7783.400000
157.101500 3991.900000
158.072800 7474.300000
159.080600 14939.600000
161.096400 2788.200000
165.069500 3736.300000
167.085600 5023.400000
169.101000 3492.100000
171.080700 21113.400000
173.096200 7457.600000
178.077900 3953.600000
179.085800 9458.200000
180.093000 4615.300000
181.065200 3124.100000
181.101000 4416.900000
182.072600 2966.400000
183.080500 4892.400000
185.096400 5935.000000
190.077400 3363.000000
191.085900 4454.200000
192.093300 9854.900000
193.101400 3400.300000
195.080700 7817.800000
195.117100 2272.700000
196.088500 8192.600000
197.096200 7406.500000
199.112100 2077.100000
202.077900 2033.400000
203.085700 3557.700000
205.101100 6280.700000
206.109100 3100.500000
208.088400 9859.800000
209.096400 14410.400000
210.104400 10788.100000
211.111800 5949.300000
213.127900 5176.300000
219.116500 3040.600000
221.096200 6208.500000
222.104400 10622.000000
223.112300 8925.200000
224.119800 2260.900000
225.127400 5559.700000
229.100000 2014.100000
233.096200 6792.700000
234.103800 3648.200000
235.111900 5912.900000
237.127400 3450.800000
245.096000 4464.800000
246.104000 3112.600000
247.111900 4610.400000

>ms2
53.038600 4185.500000
55.017900 10534.400000
55.054300 2562.100000
65.038700 2813.300000
67.054300 4465.100000
69.033600 5505.600000
79.054300 9244.100000
81.070000 5270.800000
91.054300 28953.500000
93.070000 8255.400000
95.049200 11832.000000
103.054300 2184.900000
105.069900 13175.200000
107.049100 3848.800000
109.064800 2855.400000
115.054500 5603.400000
117.070100 6865.000000
119.085700 6578.000000
121.064800 25545.900000
128.062200 13928.800000
129.069800 8553.400000
130.078200 1744.400000
131.049300 2084.200000
131.085700 7878.400000
132.057200 5200.500000
135.080700 2099.300000
141.070100 8135.500000
142.077900 4258.900000
143.085800 7148.000000
144.057300 3693.300000
145.064900 9849.700000
147.080600 13330.200000
152.062100 3645.600000
153.070300 5012.900000
155.085800 9039.700000
157.064500 2598.200000
158.073000 7248.200000
159.080400 9446.600000
161.096000 1910.500000
165.070300 8002.400000
166.078300 4462.300000
169.064700 2400.500000
169.101600 1812.700000
171.080700 10556.100000
178.077900 7792.400000
179.086000 9917.700000
180.093700 2777.700000
181.065100 5311.500000
181.101500 4956.100000
183.081100 3758.400000
189.069800 4244.100000
190.077900 5206.600000
191.085500 11303.200000
192.093500 10910.700000
193.101700 4537.600000
194.072800 4490.600000
195.080600 10859.900000
196.088400 2646.700000
197.096400 3521.100000
203.086000 4827.600000
205.101700 3844.000000
208.088300 8878.600000
209.096500 9600.100000
219.080600 4026.600000
223.112300 3284.500000
229.101700 1953.700000
231.080300 2908.500000
233.096300 4446.000000
235.112000 2016.600000

>ms2
53.038700 6716.100000
55.017900 14589.800000
55.054300 4284.000000
65.038600 6119.600000
67.054200 6388.400000
69.033500 3864.600000
79.054300 12828.500000
81.069700 2652.300000
91.054300 46614.200000
93.069900 5852.800000
95.049200 17535.000000
103.054300 7505.800000
105.070000 15382.900000
107.049100 6465.400000
107.085300 2048.300000
109.065000 2783.400000
115.054300 20664.200000
117.070000 6287.100000
119.085600 8148.600000
121.064900 20546.000000
128.062100 34075.600000
129.070000 9858.600000
130.078000 2508.000000
131.049400 3408.300000
131.085600 4308.200000
132.057100 7402.900000
141.069900 12244.200000
142.077900 5522.700000
143.085500 5370.600000
144.057100 5147.500000
145.064700 11381.800000
147.080700 6807.300000
152.062300 5197.500000
153.070100 7545.100000
155.085700 6385.400000
157.064900 2967.600000
158.072800 5592.000000
159.080400 3556.500000
165.070200 20369.400000
166.077900 6778.100000
167.085600 7307.900000
169.064800 3836.800000
171.080500 5565.000000
178.078000 13660.000000
179.085700 16872.000000
180.093300 4935.200000
181.065100 8740.000000
181.101400 4161.400000
182.072800 4849.500000
183.081000 3893.300000
189.070400 8285.000000
190.077600 5501.000000
191.085900 14840.700000
192.093200 7212.800000
193.101200 2376.500000
194.072700 6884.300000
195.080600 13657.900000
197.096400 1857.400000
202.077800 5446.700000
203.085600 3957.800000
205.101400 4401.200000
208.088300 4665.800000
209.096200 7041.900000
219.080300 5385.700000
221.096200 3239.100000
222.104200 3076.500000
229.101700 2171.200000
231.080400 4223.400000
233.096100 5144.000000
235.112000 2124.700000
245.095800 4861.100000

