>compound LU76425796
>parentmass 180.126
>ionization [M+H]+
>formula C6H18N3OP
>rt 783.180000
>profile orbitrap
#smiles_iso CN(C)P(=O)(N(C)C)N(C)C
#smiles_can CN(C)P(=O)(N(C)C)N(C)C
#inchikey GNOIPBMMFNIUFM-UHFFFAOYSA-N
#pubchem_id 12679
#mb_accession LU034501,LU034502,LU034503,LU034504,LU034505,LU034506

>ms2peaks
135.068100 13998393.000000
137.083700 237358.500000
180.125900 5677273.500000

>ms2peaks
135.068100 18322938.000000
137.083700 253419.700000
180.125900 4818733.000000

>ms2peaks
92.025900 101229.800000
110.036500 76296.900000
110.060200 29647.800000
135.068100 20854522.000000
137.083600 132559.800000
138.090900 25122.600000
180.126000 400197.200000

>ms2peaks
59.999800 22382.900000
73.075900 51366.800000
88.099500 39033.600000
90.010400 21388.400000
91.018000 33178.600000
92.025900 761132.000000
106.041600 25988.300000
110.036500 479166.200000
110.060000 34423.500000
135.068100 18571328.000000
137.083700 35565.600000
180.126300 25807.200000

>ms2peaks
58.065200 16942.100000
59.999800 86031.000000
73.076000 180827.600000
75.994700 45434.400000
88.099500 114134.600000
90.010300 50952.000000
91.018200 131500.500000
92.026000 1635247.400000
93.033800 10903.600000
106.041700 116881.300000
111.044200 10213.700000
124.052300 18079.900000
135.068200 9898871.000000

>ms2peaks
58.065100 27765.400000
59.999800 201769.400000
62.015500 8845.500000
65.038600 20600.500000
73.076000 361532.600000
75.994700 187718.600000
76.031100 16995.300000
78.010300 19074.200000
88.099500 156468.900000
90.010400 98684.400000
91.018200 256583.600000
92.026000 1737459.800000
93.033900 19800.100000
106.041700 160087.600000
111.044000 11279.500000
124.052400 24761.100000
135.068200 3789293.000000

