>compound LU76842819
>parentmass 285.29
>ionization [M+H]+
>formula C17H36N2O
>rt 1048.080000
>profile orbitrap
#smiles_iso CCCCCCCCCCCC(=O)NCCCN(C)C
#smiles_can CCCCCCCCCCCC(=O)NCCCN(C)C
#inchikey TWMFGCHRALXDAR-UHFFFAOYSA-N
#pubchem_id 51392
#mb_accession LU071401,LU071402,LU071403,LU071404,LU071405,LU071406

>ms2
86.096400 53009.900000
240.232100 5052321.000000
285.289900 45762956.000000

>ms2
57.070000 45105.700000
58.065200 73168.500000
71.085700 47756.300000
86.096400 820510.600000
103.122900 157126.000000
109.101100 44384.600000
112.076300 40958.400000
183.174300 262407.800000
240.232000 38317864.000000
285.289900 16238935.000000

>ms2
55.054200 84127.700000
57.069900 1878840.200000
58.065100 1327001.200000
67.054200 271108.800000
69.069800 120971.300000
71.085500 1405274.600000
81.069800 483458.200000
83.085500 653851.100000
85.101100 1144826.800000
86.096400 1533967.800000
95.085500 1703295.100000
97.101200 257104.500000
99.116800 118406.600000
103.122900 218132.100000
109.101200 1305834.800000
123.116700 335420.200000
165.163800 254216.100000
183.174300 2852629.000000
239.235500 36887.100000
240.232100 32514082.000000
285.290000 336717.800000

>ms2
53.002200 169081.500000
55.054200 533319.300000
57.069900 8975680.000000
58.065100 3320583.000000
67.054200 1120582.000000
69.069900 367132.300000
71.085500 4862099.000000
72.080600 19759.200000
79.054200 26036.000000
81.069900 1463825.200000
83.085500 1326098.000000
84.080700 36850.200000
85.101200 3336557.800000
86.096400 1909185.500000
93.069800 23887.800000
95.085500 3887675.000000
97.101200 584431.300000
99.080400 45861.900000
99.116800 139848.100000
101.096000 16912.800000
103.123000 95690.400000
109.101200 2291048.800000
111.117000 16050.400000
113.132600 38952.100000
123.116800 506155.300000
165.163800 215575.700000
183.174400 1383969.900000
240.232200 6061353.500000

>ms2
53.002200 350800.300000
53.038600 29784.200000
53.997500 52954.900000
55.054300 915832.100000
56.049500 14454.200000
57.069900 9339709.000000
58.065100 3203708.800000
65.038600 27387.800000
67.054200 1400475.000000
69.069800 318923.700000
71.085500 3491768.800000
72.080800 27128.300000
79.054100 80220.000000
81.069900 1175085.000000
83.085500 538147.800000
84.081000 30618.200000
85.101200 1362815.900000
86.096400 1350459.200000
93.069800 59917.200000
95.085600 2071752.800000
97.101200 186743.000000
99.080500 22322.900000
99.116900 21651.200000
103.123200 27569.500000
109.101200 800803.200000
123.116800 171001.400000
165.164200 19950.900000
183.174300 100603.700000
240.232400 253987.600000

>ms2
53.002200 488691.800000
53.038700 35334.600000
53.997500 88499.000000
55.054300 913378.200000
56.049500 29206.300000
57.069900 7474251.000000
58.065100 3312077.000000
65.038500 44405.700000
67.054200 1349104.500000
69.069800 215348.300000
71.085500 1468741.200000
72.080800 31912.100000
79.054200 132647.100000
81.069900 788437.400000
83.085500 132312.400000
84.080900 32904.800000
85.101200 292693.700000
86.096400 986494.100000
93.070000 108168.000000
95.085600 1015253.500000
97.101200 40494.500000
99.068200 11548.100000
109.101200 211687.000000
112.075900 13808.000000
123.117000 15414.300000

