>compound LU76116537
>parentmass 472.0659
>ionization [M+H]+
>formula C21H17F4NO3S2
>rt 1207.560000
>profile orbitrap
#smiles_iso CC1=C(C=CC(=C1)SCC2=C(N=C(S2)C3=CC(=C(C=C3)C(F)(F)F)F)C)OCC(=O)O
#smiles_can CC1=C(C=CC(=C1)SCC2=C(N=C(S2)C3=CC(=C(C=C3)C(F)(F)F)F)C)OCC(=O)O
#inchikey HWVNEWGKWRGSRK-UHFFFAOYSA-N
#pubchem_id 9934458
#mb_accession LU137201,LU137202,LU137203,LU137204,LU137205,LU137206

>ms2
472.066000 7214843.500000

>ms2
116.982800 49608.400000
153.036900 7894.100000
165.036900 25398.200000
190.027800 6290.900000
198.034600 97849.000000
211.042400 52560.900000
255.033000 7001.600000
274.031100 661567.700000
275.038700 5641582.000000
472.066300 1439907.900000

>ms2
70.995000 59927.100000
85.010600 47268.100000
86.018500 62638.100000
116.982900 18588.900000
139.021500 23053.900000
153.036700 6550.300000
165.017000 28413.500000
165.036900 12101.300000
190.027900 10813.900000
198.034400 20338.700000
201.032700 28203.500000
206.043500 296828.800000
206.988300 13618.900000
233.004200 12666.600000
242.058700 24593.600000
274.031000 523243.800000
275.038600 5327235.500000

>ms2
53.002200 3140.500000
53.038600 8895.700000
57.987200 3888.100000
58.994900 14576.900000
68.049600 3458.100000
69.987200 18802.600000
70.995000 734764.100000
74.096500 3004.800000
85.010600 427472.600000
86.018500 282939.300000
98.006000 4486.800000
112.021600 11594.600000
116.982800 7389.800000
122.040100 3147.600000
139.021200 40793.800000
165.016900 187595.400000
172.055600 6559.400000
173.063700 10270.100000
190.027500 84330.200000
190.040000 49200.100000
195.041700 3092.700000
201.032200 143787.600000
206.043400 1448945.000000
206.988500 62536.900000
208.037900 20395.800000
216.043000 39926.900000
217.051200 26523.200000
222.053500 24372.500000
233.004200 81169.300000
234.011500 12391.400000
242.058700 138469.100000
254.024400 9856.800000
255.032400 7668.400000
256.040600 27891.000000
260.015200 27617.500000
274.030800 1634805.200000
275.038500 2595517.500000

>ms2
53.002200 5953.700000
53.038600 28131.100000
57.987200 11221.900000
58.995000 57556.600000
59.966500 10154.700000
65.059700 2952.800000
67.054300 3587.900000
68.049400 5473.300000
68.979300 8117.700000
69.987200 33395.500000
70.995000 1504940.600000
84.002900 8478.100000
85.010700 1217858.100000
86.018500 178446.700000
91.054300 4155.900000
98.006100 3915.500000
111.026000 6012.500000
112.021500 17506.100000
121.044900 13356.800000
122.040100 23864.100000
139.021200 27214.700000
146.052600 9901.900000
151.035400 11201.000000
162.071400 7930.300000
163.016600 10431.400000
165.016900 255068.400000
169.025800 3270.300000
172.055600 17427.900000
173.063600 23433.000000
176.024200 14489.300000
177.032100 7157.100000
189.017100 10344.400000
189.031900 9342.900000
190.027500 272262.500000
190.039800 88058.500000
195.041700 11684.200000
201.032300 161166.500000
202.046200 3789.500000
204.027400 4350.500000
205.035600 8204.800000
206.043500 1200491.400000
206.988600 215105.600000
208.038100 80121.600000
214.040300 4465.900000
215.013300 15335.100000
216.043100 101773.600000
217.051200 18266.100000
222.053500 79308.400000
230.059000 8108.000000
233.004200 117915.800000
242.058800 125831.300000
247.019400 4368.800000
255.032300 2793.500000
256.040500 43341.600000
257.004300 3318.800000
260.015000 25388.200000
274.030800 1783136.100000
275.038500 360283.200000

>ms2
53.002200 8219.700000
53.038600 38149.700000
57.987200 19441.400000
58.995000 141125.600000
59.966400 25578.400000
65.059600 6068.300000
67.054200 4617.600000
68.049400 7364.600000
68.979300 18556.600000
69.987100 40982.000000
70.994900 1663156.000000
84.002800 18649.800000
85.010600 1436191.000000
86.018500 57160.600000
91.054100 4060.000000
111.026300 5999.400000
112.021500 12782.300000
121.044800 43526.600000
122.040000 35584.000000
139.021200 10436.600000
146.052500 31547.500000
151.035500 29400.900000
162.071300 8947.300000
163.016500 111250.600000
169.026100 15926.200000
176.024200 44600.600000
177.032300 11906.700000
189.017200 5685.800000
189.031700 16154.800000
190.027400 450547.400000
190.039600 62306.600000
195.041800 19647.300000
201.032100 88837.600000
202.046300 9789.900000
204.027300 4250.800000
205.035600 12782.700000
206.043400 358184.900000
206.988500 441590.200000
208.037900 176209.500000
214.039800 6761.400000
215.013400 11003.100000
216.043100 117179.200000
217.051000 3418.400000
222.053500 146368.500000
230.058700 7608.400000
233.004200 95371.800000
242.058600 49202.300000
247.019300 5240.200000
254.024500 10989.200000
256.040300 8421.200000
257.004000 6142.600000
274.030700 768159.900000
275.038700 17043.600000

