>compound LU76272274
>parentmass 196.0175
>ionization [M+H]+
>formula C7H5N3O2S
>rt 868.950000
>profile orbitrap
#smiles_iso C1=CC2=C(C=C1[N+](=O)[O-])SC(=N2)N
#smiles_can C1=CC2=C(C=C1[N+](=O)[O-])SC(=N2)N
#inchikey GPNAVOJCQIEKQF-UHFFFAOYSA-N
#pubchem_id 22704
#mb_accession LU109801,LU109802,LU109803,LU109804,LU109805,LU109806

>ms2
88.021700 9381.300000
138.024600 3506.500000
150.024700 129219.600000
166.019600 30538.600000
182.014500 232876.400000
196.017700 3094476.500000

>ms2
61.010600 3268.900000
126.024800 3034.300000
138.024700 8356.300000
150.024700 220754.900000
166.019700 51849.700000
182.014600 411246.500000
196.017700 2521645.000000

>ms2
59.990200 3579.900000
61.010600 8399.300000
84.002800 2102.100000
96.002900 1941.500000
111.997600 2932.200000
123.013300 2463.100000
126.024800 14025.100000
138.024600 48591.400000
150.024700 815527.300000
153.011900 10064.300000
166.019600 114089.400000
182.014500 1581143.200000
184.018700 6959.200000
196.017600 1015388.100000

>ms2
59.990200 3797.600000
61.010700 16569.200000
72.044300 4495.900000
84.002800 4311.100000
88.021600 10682.500000
89.024900 4823.400000
91.041600 2372.800000
96.002800 15616.900000
99.013700 4439.400000
106.052800 3780.800000
111.013700 11248.900000
111.997700 4476.700000
118.052600 4172.000000
123.013700 51493.400000
126.024700 25398.000000
138.024700 92731.500000
141.011400 2743.100000
149.016900 2549.300000
150.024700 1114202.200000
153.011800 12812.300000
165.011400 10916.000000
166.019500 71291.500000
182.014400 2140410.000000
184.018800 8671.100000
196.017600 172559.800000

>ms2
59.990300 5028.300000
61.010600 15997.100000
63.022900 1935.400000
67.041600 3436.900000
72.002900 3380.900000
80.049400 8659.300000
84.002800 3639.200000
91.041600 12490.800000
92.049300 2111.300000
96.002800 109151.000000
99.013700 2393.800000
105.044700 5690.600000
106.052500 23062.100000
108.002800 4002.400000
110.006100 3176.500000
111.013700 25481.100000
111.997700 3813.200000
118.052500 31999.500000
122.005900 9553.600000
123.013700 243007.600000
126.024700 20647.100000
127.992700 21571.500000
128.029100 2867.800000
138.024600 56166.600000
149.016900 7782.900000
150.024600 882426.300000
153.011600 14167.700000
165.011800 22450.300000
166.019400 40820.000000
182.014400 1773110.100000
184.018400 10882.200000
196.017300 19700.700000

>ms2
59.990200 13866.300000
61.010600 16639.000000
67.041600 16390.400000
72.044300 3640.100000
79.041700 10146.000000
80.049500 25646.000000
84.002900 6753.900000
88.021600 5067.700000
89.024800 2955.400000
91.041700 69201.500000
92.049500 6008.400000
95.036600 8177.600000
96.002800 433594.400000
99.013700 7826.600000
105.044700 15454.900000
106.052600 49897.500000
108.002800 16060.900000
110.006100 9614.300000
111.013800 37732.100000
111.997800 10322.800000
118.052500 73288.700000
122.006000 46558.800000
123.013800 534309.300000
126.024600 15224.600000
127.992700 91389.600000
128.028900 11004.600000
132.998100 16616.900000
138.024700 31964.000000
149.016900 23095.800000
150.024700 631046.900000
153.011700 11020.500000
165.011800 35953.400000
166.019700 25976.700000
182.014500 1276573.500000
184.019000 5392.800000

