>compound LU76895164
>parentmass 459.08660000000003
>ionization [M+H]+
>formula C21H16ClFN4O5
>rt 1061.940000
>profile orbitrap
#smiles_iso CO/N=C(\C1=CC=CC=C1OC2=C(C(=NC=N2)OC3=CC=CC=C3Cl)F)/C4=NOCCO4
#smiles_can CON=C(C1=CC=CC=C1OC2=C(C(=NC=N2)OC3=CC=CC=C3Cl)F)C4=NOCCO4
#inchikey UFEODZBUAFNAEU-NLRVBDNBSA-N
#pubchem_id 11048796
#mb_accession LU124001,LU124002,LU124003,LU124004,LU124005,LU124006

>ms2
120.044500 14600.400000
231.019800 16140.100000
315.033300 12093.000000
367.039300 25772.500000
383.034400 74240.500000
397.049900 7966.700000
427.060600 7714229.500000
459.086800 6134475.500000

>ms2
53.038600 11404.600000
65.038500 41620.800000
69.992400 14036.100000
73.028400 31647.100000
77.038500 5780.200000
78.033800 11297.700000
79.054200 14784.200000
80.049500 11294.000000
81.033500 19132.100000
86.023600 16870.800000
86.987600 3346.800000
90.033900 89666.800000
91.019000 21315.800000
91.054300 63541.200000
92.049600 7173.200000
93.033600 29354.300000
95.049200 43912.700000
96.044400 8847.400000
97.003300 3500.600000
98.999300 9719.000000
102.033900 4072.700000
103.054000 4875.800000
104.049500 108958.700000
105.033500 8132.400000
105.044800 18121.700000
106.028800 73317.200000
107.049100 10996.900000
108.044200 16468.800000
110.999800 4065.000000
111.044100 74469.300000
113.023500 4541.700000
113.034700 4068.000000
117.057300 32838.900000
118.028800 12735.500000
119.036600 55348.900000
119.060300 5700.500000
120.044400 460766.300000
124.039200 6331.500000
125.015200 7094.200000
125.059800 7156.800000
126.994500 11819.600000
127.030200 3839.300000
128.002000 3565.200000
129.009800 30845.500000
129.044800 7411.200000
130.039800 23752.800000
130.052600 4338.800000
131.060500 11855.900000
132.029100 11687.800000
132.044400 120397.800000
132.055600 6670.700000
133.039500 10501.900000
134.023700 19298.800000
134.047700 5669.700000
134.060000 83989.000000
136.039200 50574.000000
138.010500 508371.900000
138.994700 8753.000000
139.005900 24564.700000
141.009900 10494.900000
143.005900 7987.300000
143.025300 6277.100000
144.032000 43064.900000
144.044700 5640.700000
144.055500 21837.700000
145.039600 419841.400000
146.047100 5380.800000
147.055400 17249.800000
150.035000 43987.700000
154.005200 4316.400000
154.040000 6020.200000
154.989300 8218.000000
156.001200 7333.300000
158.023400 3515.500000
159.035400 4329.300000
160.026800 9085.800000
160.050600 31224.900000
161.034500 68523.000000
161.070600 3432.300000
162.035000 29678.400000
162.042600 15374.500000
163.006000 26959.400000
163.050100 43255.400000
164.034200 290802.200000
165.046100 3914.300000
166.005400 19940.200000
168.001000 17840.500000
168.045600 4835.700000
170.035000 73182.900000
171.055000 6613.300000
173.034100 16916.800000
174.045800 7136.600000
175.030200 52460.300000
176.038000 160704.700000
178.029900 125866.600000
179.000700 226858.200000
180.045500 15511.200000
183.012100 53853.200000
183.996000 97186.200000
185.034600 6956.900000
186.045900 3704.500000
187.029700 6567.500000
188.038000 1190896.000000
189.045900 20773.200000
190.041000 21964.600000
190.049900 102586.900000
193.061000 11695.600000
195.012000 7494.800000
195.056600 9554.200000
196.050300 5405.200000
198.029800 10367.600000
200.046700 3953.800000
202.061500 7785.700000
203.024900 18553.800000
204.033100 12720.600000
204.076800 64978.400000
205.040900 141519.200000
205.060700 104296.900000
207.067500 4083.100000
211.006700 38893.000000
211.990900 64103.800000
213.056400 3507.500000
214.006500 67012.600000
214.060900 74806.900000
220.051400 22047.000000
221.035800 21476.900000
223.006900 54030.400000
223.991100 27659.900000
228.044600 29631.200000
228.056700 5437.200000
229.028000 16630.400000
230.036000 194962.500000
231.020000 208638.600000
232.051700 55092.800000
241.051900 43078.900000
243.066900 5281.900000
244.051400 28078.800000
246.030900 380419.100000
248.002000 5072.800000
252.033600 7246.800000
252.069300 5019.800000
257.046800 79019.000000
260.027300 7080.200000
262.053300 8938.900000
263.997400 8881.700000
266.012600 135044.800000
271.062400 11597.500000
272.033800 26634.800000
274.062200 94647.000000
277.064500 15950.200000
280.064300 15385.900000
287.038000 4928.700000
301.072400 8387.000000
304.051800 24612.000000
304.075000 10246.400000
306.067400 315623.900000
315.033000 291252.100000
318.068300 16141.300000
320.022700 19583.700000
326.049700 8502.400000
331.062300 20347.300000
340.028500 194478.300000
341.035900 19109.000000
342.044100 178266.200000
349.048400 17732.700000
355.038900 51305.400000
367.039300 525661.500000
383.034200 534416.900000
391.083600 23824.300000
397.049900 42400.100000
427.060500 3325009.500000
459.086700 8546.800000

>ms2
50.015100 2721.600000
51.022900 6649.400000
53.002100 5007.000000
53.038500 30665.300000
55.017800 7278.200000
56.013100 3702.800000
64.018200 4171.000000
64.030500 2768.300000
65.038500 129007.600000
69.008300 5189.300000
69.992300 35553.600000
73.019500 5882.500000
73.028300 15097.000000
74.003500 9720.800000
74.015300 3275.300000
75.022800 26504.100000
77.038300 15236.300000
79.054100 21679.600000
81.033500 51331.700000
82.028700 5244.400000
86.023500 20394.700000
86.987600 13957.600000
86.999600 25723.000000
90.033800 253580.400000
91.018900 6779.400000
91.041600 11749.500000
91.054200 42559.800000
92.049400 28262.000000
93.033500 46170.800000
94.041300 13266.000000
96.044400 20963.600000
97.003000 4660.800000
97.052200 7638.800000
98.999400 31556.700000
100.019200 3114.900000
103.054100 10311.100000
104.014100 12453.300000
104.049400 119710.700000
105.033400 19267.300000
105.044700 51647.800000
106.028700 99353.100000
106.052500 16894.100000
106.064900 14635.100000
107.029100 16810.100000
107.049200 16630.000000
108.044300 26642.400000
110.999400 15662.200000
111.044000 128117.100000
112.007400 19573.000000
113.015000 8734.600000
113.034500 3165.700000
114.033900 3345.900000
116.037000 9033.400000
116.049400 10729.300000
117.044700 16616.700000
117.057200 19019.200000
118.028600 13138.900000
118.052500 11782.700000
119.036500 74369.400000
119.060300 8743.500000
120.044300 336343.700000
121.032200 4797.300000
121.039500 12799.000000
122.039900 49427.800000
122.999300 4092.100000
123.035200 6814.100000
125.015200 10327.400000
125.059700 13617.500000
126.994600 8327.200000
127.018500 3248.400000
127.030100 7783.500000
128.002200 30950.300000
129.009700 148810.900000
129.044600 87536.900000
130.028900 186443.600000
130.039900 167653.100000
130.051900 21566.700000
131.037100 3307.700000
131.048600 3089.900000
131.060300 21489.600000
132.029300 8963.700000
132.044300 88177.500000
132.055500 23347.200000
133.032000 4339.000000
133.039600 27246.400000
133.052000 14139.200000
134.023600 18668.600000
134.028400 2935.300000
134.039900 33504.100000
134.047400 14947.800000
134.059900 35062.400000
135.024100 7239.200000
135.031200 9502.300000
135.055200 9092.400000
136.039200 24175.800000
138.010400 1073419.900000
138.994600 63984.000000
139.005600 213405.800000
140.990000 11128.200000
141.009800 11240.800000
142.039800 19335.400000
143.005600 16097.400000
143.024900 4535.100000
143.047700 4755.900000
144.031800 42179.400000
144.044700 3508.000000
144.055400 39782.000000
145.039500 487080.300000
146.023400 22124.400000
146.047200 6999.100000
147.035600 17911.500000
147.054900 21371.700000
149.050600 13934.400000
150.034900 382153.800000
151.005700 41643.400000
152.050400 6908.100000
154.040000 25902.300000
156.000900 10677.300000
156.055400 8597.600000
157.039600 33631.900000
158.016500 12004.900000
158.047100 3322.300000
159.035400 35455.200000
159.042500 6215.900000
159.055300 6572.500000
160.026700 52848.100000
160.042900 22605.000000
160.050500 29948.500000
161.027100 16830.700000
161.034300 151417.300000
162.034800 51398.700000
162.042300 77716.500000
163.005600 98054.800000
163.030000 5347.400000
163.042600 9856.200000
163.050000 84210.700000
164.034000 379835.500000
165.045700 20136.900000
166.005400 25551.800000
166.066300 3369.600000
168.001000 147166.500000
168.045800 28610.100000
169.039500 4640.900000
170.034700 91234.600000
171.055400 6333.100000
172.050500 12375.000000
173.034800 9625.000000
174.046300 23882.300000
175.030100 146324.900000
176.037900 80560.300000
176.050900 4961.700000
177.021700 3935.300000
177.045800 17274.600000
178.029800 404925.600000
179.000500 186542.200000
180.045400 12404.900000
182.034700 17961.100000
182.060900 26163.100000
183.012000 23867.000000
183.995800 74886.300000
185.034500 8327.800000
186.011400 4854.100000
186.029900 8310.400000
186.046400 15749.000000
187.030000 13886.400000
187.053200 7637.800000
188.037800 2542693.800000
189.045400 33189.300000
190.030700 4166.500000
190.040900 63387.100000
190.049900 31112.400000
191.024900 68363.700000
193.040800 7248.300000
193.060500 12015.600000
195.011700 11037.100000
195.032800 7950.300000
195.056600 7133.400000
195.995600 10740.500000
196.050600 10550.600000
198.029500 18036.800000
199.040900 6352.900000
200.047300 6500.500000
202.041300 42434.600000
202.052000 4904.500000
202.061500 6559.700000
203.024900 23450.500000
203.048000 10669.200000
204.076900 16391.300000
205.040700 143683.200000
205.060400 110774.900000
207.056400 7113.100000
211.991000 8113.600000
213.033200 6794.600000
213.057100 10372.500000
214.006500 91727.000000
214.040900 34459.400000
214.060300 20556.800000
215.049100 18510.600000
216.056500 26971.000000
217.040800 8689.200000
218.035800 58587.400000
219.055100 3323.100000
220.027600 43832.100000
220.051600 18977.900000
221.035500 27501.500000
223.006800 35416.900000
225.058100 22671.300000
228.043800 34952.000000
228.056600 13115.800000
229.028000 41557.300000
229.051600 7719.400000
230.035900 228175.500000
231.020000 39300.900000
232.051400 22876.400000
232.063100 6909.900000
233.055700 9076.200000
239.001400 12015.600000
239.056100 6264.300000
239.985500 6699.100000
240.043800 40702.300000
241.051500 41579.000000
244.051500 33811.900000
246.030700 130197.600000
248.002000 6554.400000
251.061200 11925.500000
252.033800 5466.700000
252.068900 21633.200000
255.031300 42895.300000
257.046800 29708.900000
257.059600 3493.300000
260.028000 7584.800000
261.066700 10455.800000
263.060600 4938.500000
263.997500 4316.700000
264.032000 19768.200000
271.062300 9708.400000
272.033700 13079.800000
274.062100 43505.700000
277.064300 34335.300000
278.072100 50099.700000
287.039000 4010.200000
298.061300 4527.900000
301.072400 13850.900000
304.051700 38000.400000
304.074800 12479.400000
306.067100 719230.500000
313.072200 10334.600000
318.067300 59218.800000
326.048900 4010.500000
331.062200 72700.900000
339.044100 15307.400000
341.036100 5020.900000
342.043900 37172.200000
349.048000 11024.800000
355.038800 9593.700000
367.039200 85743.800000
383.034100 37888.400000
391.082900 6003.900000
397.049500 11212.900000
427.060100 24892.000000

>ms2
50.015000 6307.000000
51.023000 14812.900000
52.018200 4377.000000
52.030700 4497.800000
53.002200 16924.200000
53.038600 37742.800000
53.997500 3501.200000
55.017800 9932.400000
56.013100 6222.800000
63.022900 46536.000000
64.018100 15109.500000
64.030700 8273.800000
65.038500 214086.400000
66.046300 11584.800000
68.049600 3259.900000
68.997100 3522.800000
69.008300 12580.000000
69.992300 53344.500000
70.008600 6150.300000
71.029000 3825.400000
72.024300 3415.100000
73.019600 25731.100000
73.028300 7367.500000
74.003500 6836.900000
74.015100 10731.900000
75.022800 144970.400000
76.030700 4469.000000
77.026000 3839.800000
77.038400 24313.700000
78.033700 102932.100000
79.017800 15821.700000
79.041600 29080.100000
79.054100 22120.500000
80.049400 26900.100000
81.033400 84967.500000
82.028600 7311.200000
83.028900 6216.400000
84.983800 3513.100000
86.003600 9525.300000
86.023500 12510.000000
86.987700 29272.900000
86.999600 88085.500000
89.038600 12619.300000
90.033800 312788.800000
91.054200 25862.700000
92.025600 54163.700000
92.036700 5237.800000
92.049400 53883.200000
93.033400 58263.300000
94.041200 29837.400000
95.049100 116578.500000
96.037200 3502.100000
96.044400 38575.800000
97.003300 6128.300000
97.052200 20206.800000
98.036500 5197.600000
98.999500 83526.800000
100.018800 3026.500000
102.033800 93497.000000
103.041600 10472.000000
103.054100 4456.700000
104.014100 10809.500000
104.049400 71009.900000
105.033500 112764.400000
105.044700 77636.600000
106.028700 96741.900000
106.052500 12919.100000
106.064800 5555.900000
107.029100 59779.500000
108.024100 4257.600000
109.028500 4051.600000
109.032000 15682.300000
110.016300 3517.800000
110.999400 46746.700000
111.044000 184342.000000
112.007500 30691.500000
113.039700 21133.800000
114.994400 6929.500000
115.029500 7266.100000
116.036800 31908.600000
116.049600 10399.100000
116.989400 3364.200000
117.044700 45007.200000
118.028600 19248.400000
118.052500 13108.900000
119.036600 56986.400000
119.060200 4196.700000
120.044300 302880.700000
121.032400 28054.000000
121.039500 34052.400000
122.040000 186314.100000
122.999400 12632.000000
123.024100 9666.800000
123.035200 58458.400000
124.039100 4206.900000
125.059700 14529.900000
126.010500 8237.700000
127.018400 4432.500000
127.029300 10120.700000
128.002300 64368.100000
128.036900 9398.700000
129.009900 294416.800000
129.044600 344043.500000
130.028800 200539.000000
130.039900 516865.300000
131.036900 4521.300000
131.049000 4264.200000
131.060200 19246.700000
132.024300 31188.200000
132.044300 50304.100000
132.055400 24613.800000
133.032200 74840.000000
133.039500 33206.600000
133.052100 11718.700000
134.023400 15663.300000
134.040000 68316.100000
134.047200 20869.300000
134.059900 20418.000000
135.024000 12454.800000
135.031100 9666.000000
135.035900 6819.300000
135.047700 4822.500000
135.055100 16068.500000
136.039100 12886.100000
137.002700 19805.300000
137.027200 5280.500000
137.047000 10367.800000
138.010500 936330.800000
138.994900 131616.000000
139.005600 621376.700000
140.002600 3138.000000
140.036600 8133.300000
140.990100 45460.500000
141.009800 6082.000000
141.044900 4385.400000
142.039900 39734.800000
142.052300 4247.300000
143.006000 18968.200000
143.047800 8941.200000
144.031700 61390.600000
144.044500 5330.300000
144.055500 30456.300000
145.039500 347517.600000
146.023400 33685.700000
146.046900 3954.200000
147.035500 42516.800000
147.055000 31129.000000
147.994800 17014.600000
148.030500 7011.500000
148.043600 6382.000000
149.027200 7712.600000
149.051300 18669.800000
150.034900 771162.100000
151.005700 68039.200000
151.042500 24150.600000
152.050600 8786.900000
153.045600 3247.500000
154.039800 75791.000000
154.989400 22927.400000
155.024000 5570.800000
156.055700 9903.500000
157.039600 39359.600000
158.016700 8552.500000
158.023500 4017.700000
158.047200 7350.200000
159.035300 74026.100000
159.042600 4874.400000
159.055300 14642.200000
160.026700 67255.100000
160.043200 108014.600000
160.050400 16174.400000
161.027000 47241.700000
161.034500 96515.500000
161.070500 23187.600000
162.034800 50010.700000
162.042400 72050.100000
162.054400 70233.500000
163.005700 56574.300000
163.030300 7254.500000
163.042400 11951.200000
163.049800 51143.900000
164.000900 12619.000000
164.034000 213521.600000
165.021800 8166.500000
165.045900 32628.700000
166.005400 24519.200000
166.029900 9820.900000
167.037700 6304.200000
167.047700 5023.700000
168.001000 218799.000000
168.031800 11904.600000
168.045300 39511.700000
169.039400 40814.500000
170.034800 49255.100000
171.019000 5417.300000
171.055300 4383.300000
172.043100 4039.700000
172.050400 13497.400000
173.038800 8117.200000
173.050800 7935.300000
174.046500 28250.100000
174.066400 3917.800000
175.030100 138562.100000
176.037900 31421.600000
177.021700 6927.900000
177.045700 18632.500000
178.029800 435318.100000
179.000500 76634.500000
179.060900 6014.600000
182.034900 25789.000000
182.061000 47955.600000
183.012100 6894.900000
183.995900 38434.600000
185.039000 15257.700000
186.029900 6939.200000
186.045900 13720.800000
187.030200 11117.300000
187.040900 3534.500000
187.053400 9874.200000
188.037900 2427616.200000
189.045800 41360.600000
190.030800 5648.800000
190.040900 31190.200000
191.024900 52565.900000
192.067900 9020.600000
193.041000 5822.200000
194.060100 3342.500000
195.012200 3622.000000
195.032600 13045.300000
195.056700 3343.000000
195.995700 4871.000000
196.050600 10992.300000
197.063400 12480.900000
198.029600 10571.800000
199.040900 5548.700000
200.046500 5207.400000
201.033200 11299.300000
202.052800 8789.900000
203.024800 14903.400000
203.049400 4638.300000
203.060200 6700.800000
204.032900 10874.700000
204.056100 12766.700000
205.040600 65083.900000
205.060500 21424.600000
207.056200 9079.100000
213.033400 12518.500000
213.056700 8323.600000
214.041000 26330.700000
215.049000 4614.400000
215.059900 5195.700000
216.056500 20271.600000
217.040500 5264.600000
218.036000 9725.400000
218.071600 4559.500000
219.055300 4054.700000
220.027700 97977.600000
221.045900 12564.800000
222.058800 3950.800000
223.066500 20971.600000
223.990800 17403.300000
225.058300 43855.900000
226.053200 5231.400000
228.044000 18551.700000
229.028400 31866.500000
229.051600 7200.900000
230.035900 156749.200000
230.070900 17263.000000
232.063200 13478.400000
239.001300 5780.100000
239.037000 11283.500000
239.056300 4753.900000
239.985400 7942.400000
240.043900 15732.500000
241.051600 27827.000000
243.066700 3416.200000
248.061900 8252.900000
249.069400 12025.000000
250.053300 7913.700000
250.077200 6889.600000
251.061300 54600.500000
252.069100 23438.300000
255.031300 13312.600000
257.046700 11400.500000
257.059500 4162.300000
261.067100 11221.100000
262.053600 8661.400000
263.060100 16111.100000
264.032000 10015.400000
266.012500 18049.900000
277.064300 23964.300000
278.072100 40038.200000
279.056300 51731.700000
280.064200 44107.400000
298.061100 13335.800000
301.071900 7499.700000
304.051400 17751.800000
306.067100 301336.000000
313.071700 7024.900000
315.032900 13503.100000
318.067200 33600.100000
320.022900 5960.200000
331.062200 40036.600000
339.044500 4877.200000
340.028300 26504.300000
342.044100 8108.600000
367.039400 6701.700000

>ms2
50.015200 7560.800000
51.022900 17890.900000
52.018200 8163.300000
52.030800 9028.400000
53.002200 42972.000000
53.038600 59696.400000
53.997500 5071.000000
54.046200 6603.000000
55.017800 21371.800000
56.013100 6681.200000
57.013500 4023.800000
58.008600 3060.200000
63.022900 88114.800000
64.018100 27473.000000
64.030600 25208.300000
65.038600 331434.200000
66.046400 57272.200000
67.054300 8338.600000
68.049400 7037.300000
68.997000 2803.200000
69.008300 14600.000000
69.992400 58598.000000
70.008700 12327.400000
71.029200 11480.500000
72.024400 4741.200000
72.983900 11023.800000
73.019600 38453.000000
73.028500 4721.800000
74.003700 6810.700000
74.015000 41141.800000
75.022900 482308.800000
76.018100 25925.200000
77.026000 11367.500000
77.038500 51909.000000
78.033800 147932.900000
79.017900 32495.000000
79.041700 35298.600000
79.054100 15128.300000
80.025200 3310.000000
80.049400 27928.900000
81.033500 92537.900000
83.029100 13693.100000
84.984000 18928.700000
86.003800 5991.000000
86.987700 29408.000000
86.999600 117610.500000
88.030800 3362.100000
89.026000 8614.300000
89.038600 25686.600000
90.033800 352580.900000
91.041700 77777.700000
91.054300 16284.700000
92.025700 117260.900000
92.037000 11328.700000
92.049500 83104.500000
93.033600 71559.000000
94.041400 45115.000000
95.029200 12448.100000
95.049200 205074.700000
96.037100 5733.800000
96.044300 43676.200000
97.052300 23919.900000
98.036300 11138.300000
98.999600 102202.000000
100.018100 17894.600000
102.033800 258615.200000
103.041700 18881.400000
103.054100 5142.800000
104.014400 3401.900000
104.036900 6735.600000
104.049500 48318.900000
105.033500 298455.600000
105.044700 105201.000000
106.021200 5178.800000
106.028700 100349.500000
106.052500 8336.800000
107.029200 123002.100000
107.049100 11047.600000
108.020600 4047.600000
108.024400 8626.600000
108.037100 6473.900000
108.044200 22350.800000
109.028400 5395.800000
109.032300 44379.500000
110.060000 3067.400000
110.999600 118522.500000
111.044100 188416.900000
112.007400 25029.200000
112.031900 4935.300000
113.015000 4663.000000
113.039700 65286.100000
114.033800 45493.900000
114.994600 10367.900000
115.029200 6827.200000
115.041700 68280.800000
116.036900 62205.400000
116.049500 11138.600000
117.044700 59899.800000
117.057500 9330.600000
118.028600 25053.200000
118.052600 19856.500000
119.036600 83134.700000
119.060100 4495.500000
120.044400 391563.600000
121.032300 69802.600000
121.039600 38855.400000
122.040100 254838.500000
122.999300 15129.600000
123.024200 8611.200000
123.035300 135999.900000
125.015300 6153.900000
125.059700 17112.500000
126.010600 6974.000000
126.034800 3689.700000
127.029300 16440.500000
128.002400 61099.200000
128.036900 19364.500000
129.010200 382311.900000
129.044700 465302.100000
130.028900 165840.000000
130.040000 875887.300000
131.036500 10264.100000
131.060400 12769.000000
132.024400 78664.800000
132.044300 36873.400000
133.032300 230773.700000
133.039500 27064.800000
134.023600 15916.700000
134.040100 82360.700000
134.047400 23398.400000
134.060100 8865.800000
135.024200 6735.600000
135.030700 7220.200000
135.035500 10452.900000
135.048000 5049.300000
135.055300 7145.900000
137.002700 19970.800000
137.027300 23445.800000
138.010500 446107.500000
139.005700 826790.200000
140.036800 40462.000000
140.990100 84037.300000
141.044700 8377.000000
142.039900 29007.700000
142.052800 6019.800000
143.006200 15114.600000
143.036700 7030.500000
144.031800 70786.700000
144.044500 7404.700000
144.055700 15590.200000
145.033000 10592.500000
145.039600 187953.400000
146.023400 24682.800000
147.035400 51543.100000
147.055200 41104.100000
147.994800 21849.300000
148.019400 5487.900000
148.030600 12426.700000
148.043600 6293.700000
149.027300 9506.100000
149.051000 12604.900000
150.035000 595936.200000
151.005800 40439.800000
151.042700 42510.700000
152.037900 3445.200000
152.050500 6400.900000
152.062200 4387.000000
153.045500 8672.200000
154.005100 5334.200000
154.039900 65146.800000
154.989500 25391.100000
155.024100 7364.100000
155.035300 11891.600000
156.000900 7935.500000
156.055700 6005.800000
157.039600 34539.400000
158.016700 4843.900000
158.047300 15680.900000
159.035300 80127.200000
159.055200 9247.400000
160.043200 215830.800000
161.027200 84647.500000
161.034600 30804.000000
161.070900 37654.600000
162.034900 27584.000000
162.042700 30427.000000
162.054700 66559.900000
163.005700 17369.900000
163.042800 5794.500000
163.050300 29496.700000
164.001100 12790.300000
164.034100 90439.300000
165.022200 21260.300000
165.045700 27309.400000
165.058300 7525.300000
166.005300 15246.900000
166.040300 5124.000000
166.066000 5038.200000
167.037900 15062.200000
167.047800 4743.900000
168.001100 167015.000000
168.032000 22808.700000
168.045500 28560.400000
168.056100 9225.100000
169.039700 109638.600000
170.034900 24759.700000
170.053100 18082.900000
171.019100 5575.300000
171.054800 3258.600000
172.030500 3014.000000
172.042600 4684.700000
172.050200 9896.900000
173.038600 7000.000000
173.051000 9906.000000
174.046600 22746.600000
174.066300 3603.700000
175.030300 98649.000000
176.038100 23481.400000
176.050600 6256.700000
177.057200 35597.100000
178.029900 136001.900000
178.065400 8921.800000
179.000900 11981.100000
181.039700 6238.100000
182.061100 40202.000000
183.996000 13494.800000
185.038200 8752.300000
186.011700 4776.200000
186.046300 15884.200000
187.030300 12133.300000
187.040700 2822.100000
187.054300 4942.500000
188.038000 1395733.800000
189.045800 26329.600000
190.030700 3405.000000
191.025000 26451.200000
191.060600 6137.700000
192.068200 8042.100000
194.060200 9177.400000
195.032500 12881.000000
195.047700 6620.900000
196.057600 18921.100000
197.063600 27700.100000
198.030000 4163.800000
200.047300 3486.900000
201.033300 8142.200000
202.041400 16010.300000
202.051700 6544.300000
203.059900 17221.800000
204.056100 11530.400000
204.068200 12528.300000
205.041000 28510.800000
205.075800 3172.700000
207.067500 3317.800000
208.055600 5469.900000
213.033400 9324.900000
213.057000 5661.000000
214.007000 4207.200000
214.041200 15175.800000
215.060700 15926.700000
216.056800 6114.200000
218.071600 5045.700000
219.055300 5241.300000
220.027900 102262.400000
221.045500 18658.100000
222.058200 5984.500000
223.007300 3171.100000
223.066800 35877.200000
224.050700 11350.800000
225.058500 31461.600000
226.053600 6013.100000
228.044600 4392.700000
228.056000 7202.900000
229.028500 12666.000000
229.051800 7056.800000
230.071200 21488.500000
232.062800 15203.900000
233.050900 5925.500000
239.037100 7726.900000
241.051700 10811.500000
248.061600 16643.200000
249.069400 5414.400000
250.053700 21222.300000
250.077300 6290.000000
251.061500 61533.400000
252.069500 7128.600000
277.064500 5491.000000
278.072200 8814.600000
279.056200 42691.600000
280.064100 7592.200000
306.067400 25790.800000
318.068200 5939.800000

>ms2
50.015100 8545.100000
51.022800 15370.100000
52.018100 13671.300000
52.030800 6894.300000
53.002200 63299.300000
53.038600 87221.200000
53.997600 7386.200000
54.046500 15125.000000
55.017900 23252.700000
56.013000 3523.700000
57.013500 15712.400000
58.008800 4341.600000
63.022900 163920.500000
64.018200 41340.600000
64.030800 51179.600000
65.038600 389524.800000
66.046400 110087.500000
67.054200 10076.800000
68.049400 5684.700000
69.008300 17596.500000
69.992400 61582.500000
70.008700 15520.300000
71.029100 16942.900000
72.983900 24650.000000
73.019600 28280.400000
74.015100 97862.300000
75.022900 1059851.600000
76.018200 64502.300000
76.030700 47863.000000
77.026000 17575.500000
77.038500 106712.700000
78.033800 160319.600000
79.017800 38939.400000
79.041700 25752.800000
79.054200 13680.800000
80.025400 3861.500000
80.049400 22536.800000
81.033500 106551.000000
82.028700 4500.700000
83.029100 25764.300000
84.983900 45830.300000
86.003600 6007.100000
86.987800 20316.000000
86.999600 113697.300000
88.030800 8996.500000
89.026000 12450.300000
89.038600 29687.700000
90.033900 337424.100000
91.041700 121114.300000
92.025700 162564.000000
92.036800 13360.500000
92.049500 86408.700000
93.033600 54849.200000
94.041300 62112.000000
95.029200 30405.100000
95.049200 280979.100000
96.036900 9896.200000
96.044400 43000.600000
97.052200 14231.300000
98.036200 13083.800000
98.999600 105841.800000
100.018200 43794.300000
102.033900 438320.200000
103.041700 24749.900000
104.037000 3980.700000
104.049500 26562.200000
105.033600 256482.800000
105.044700 132603.600000
106.021500 13370.600000
106.028800 76680.900000
107.029200 169822.300000
108.020600 4104.500000
108.024500 12333.700000
108.037000 13946.100000
108.044200 22064.500000
109.032300 40616.400000
110.016100 5059.800000
110.060000 4681.200000
110.999600 156025.500000
111.044100 129522.600000
112.007500 20866.400000
112.031900 9990.500000
113.025900 8191.200000
113.039700 103219.200000
114.033900 74786.600000
114.994600 8877.900000
115.029300 5139.500000
115.041600 67766.000000
116.036900 73837.400000
116.049600 7133.600000
116.990200 7715.200000
117.044800 45334.200000
117.057300 3532.600000
118.028800 26995.900000
118.052700 18013.300000
119.036600 73066.500000
120.044400 326426.500000
121.032300 92574.900000
121.039600 31046.200000
122.040100 180724.900000
122.999500 16858.300000
123.035300 149512.100000
124.039200 4236.800000
125.015300 7021.300000
125.059700 8741.100000
126.034900 5826.800000
127.029100 18054.900000
128.002400 59049.600000
128.037100 20409.300000
129.010200 366056.100000
129.044700 279269.100000
130.028900 99046.900000
130.040000 899698.800000
131.036800 11600.900000
131.060300 3675.100000
132.024400 141060.300000
132.044500 16666.400000
133.032300 279396.800000
134.023500 8160.500000
134.028300 3921.200000
134.040100 71514.500000
134.047200 17817.500000
134.060000 8620.000000
135.030700 4438.800000
135.035700 6729.700000
135.055400 5801.900000
137.002700 17666.200000
137.027200 42142.800000
137.047100 10615.900000
138.010600 149315.000000
138.994700 58695.700000
139.005800 685155.400000
140.002800 8219.700000
140.036900 47294.000000
140.990100 105620.900000
141.044700 12510.500000
143.005800 7336.400000
143.036600 8017.200000
143.047800 4605.600000
144.031800 43539.300000
144.044400 5747.700000
144.055700 4704.900000
145.032300 13835.200000
145.039600 77028.400000
146.023000 4467.600000
147.035400 36110.500000
147.055400 25476.900000
147.994800 17772.100000
148.019400 5179.400000
148.030400 12188.700000
148.043200 2894.200000
149.027000 7770.800000
149.051500 5370.100000
150.035000 247046.400000
151.005700 10023.600000
151.042700 38836.900000
152.038100 4350.800000
152.050800 4011.000000
152.062600 3822.600000
154.040000 29748.900000
154.989700 10751.300000
155.035300 11608.900000
156.001000 4290.800000
156.055400 3609.200000
157.039800 19088.200000
158.027600 6096.700000
158.047500 15458.500000
159.035400 64042.800000
159.055100 6941.100000
160.026900 12768.600000
160.043200 170007.300000
161.027200 96433.500000
161.034100 7099.500000
161.071000 26408.700000
162.034900 13140.000000
162.042800 10674.700000
162.054600 19521.700000
163.005700 8206.000000
163.030300 3517.400000
163.042800 4479.500000
163.050400 8216.100000
164.001100 7205.300000
164.033600 20183.100000
165.022200 19150.800000
165.045800 12871.000000
165.058000 6845.700000
166.030000 3322.200000
166.040700 6869.300000
167.037700 5037.200000
168.001100 80714.700000
168.031700 16193.600000
168.045500 7485.400000
168.055900 8813.900000
169.039600 125804.300000
170.052800 27286.000000
172.030600 4397.400000
172.042900 4992.500000
173.038400 5239.700000
173.050900 6535.200000
174.046300 10972.100000
175.030200 45542.000000
176.038000 11587.800000
177.045900 13367.300000
177.057300 42277.100000
178.029700 23382.800000
178.065100 8228.000000
179.060800 6917.700000
181.039500 6236.900000
182.034800 7457.100000
182.061200 15085.700000
183.996100 5321.200000
185.038700 7198.500000
186.045900 8852.200000
187.030200 4954.600000
187.055400 5685.600000
188.038100 437345.700000
189.045900 11972.800000
190.041100 4787.300000
191.025200 9009.000000
191.060700 6275.700000
192.068000 6003.100000
195.032700 7430.400000
195.047900 9808.400000
195.056300 4340.300000
196.056600 33712.800000
197.063500 17387.000000
199.041000 3203.800000
202.052600 13195.200000
203.060500 23203.800000
204.068300 9196.600000
205.040700 9619.700000
205.075700 6822.500000
207.056300 3637.200000
208.055700 6345.000000
215.060400 17496.100000
218.071600 3600.200000
220.027900 60652.100000
222.058300 5854.700000
223.066700 22510.800000
224.050600 10365.300000
225.058100 7837.400000
228.056300 4907.600000
230.035700 21259.800000
230.071400 11273.200000
232.063200 8816.600000
233.050100 4481.300000
241.052000 4874.600000
248.061500 9803.200000
250.053300 26212.700000
251.061600 38765.200000
263.060300 5790.100000
279.056400 10797.400000

