>compound LU76758014
>parentmass 377.142
>ionization [M+H]+
>formula C18H18F2N4O3
>rt 997.560000
>profile orbitrap
#smiles_iso CC(C)(CNC1=NC=C2C(=CC(=O)N(C2=N1)C)OC3=C(C=C(C=C3)F)F)O
#smiles_can CC(C)(CNC1=NC=C2C(=CC(=O)N(C2=N1)C)OC3=C(C=C(C=C3)F)F)O
#inchikey KOKXXPKAPFSRCR-UHFFFAOYSA-N
#pubchem_id 60196437
#mb_accession LU022501,LU022502,LU022503,LU022504,LU022505,LU022506

>ms2peaks
359.131300 4933925.000000
377.141800 13981491.000000

>ms2peaks
55.054600 53010.000000
213.113600 50066.200000
215.092800 261361.600000
217.107900 23786.200000
229.108400 23813.100000
230.116300 51063.000000
303.068600 24677.100000
304.076800 535473.000000
305.084600 83519.300000
343.099600 27019.700000
359.131400 18773020.000000
377.142100 933637.800000

>ms2peaks
53.038600 43328.500000
55.054200 1122991.000000
95.047900 7960.700000
127.035400 75450.000000
135.066400 21994.500000
141.014700 374100.600000
147.066900 17958.500000
163.061400 572473.600000
166.065000 36885.900000
175.061500 10403.300000
176.069500 13289.700000
176.081800 16019.000000
177.040600 12484.200000
177.077100 19163.900000
178.064700 32730.200000
178.121400 24834.500000
180.044200 440233.700000
181.051800 22278.400000
187.097800 9988.500000
189.077300 27121.300000
189.113300 21503.000000
190.097700 11799.100000
191.056300 236437.000000
200.082000 15784.300000
201.077100 40595.400000
201.113700 18674.200000
202.085000 62591.700000
202.121000 24882.600000
210.054700 13737.500000
213.113500 354027.900000
214.085100 11043.100000
215.092700 1866470.000000
217.108400 270903.600000
218.116400 28078.200000
229.108400 134546.200000
230.116200 79173.700000
231.087200 8145.200000
245.063600 10761.900000
260.086300 22906.100000
263.114200 7259.100000
275.073700 39156.500000
284.070500 50763.400000
285.078200 375245.300000
287.073900 133112.600000
288.059200 10978.900000
303.068900 1418892.800000
304.076700 5576361.500000
305.084400 1714623.500000
317.084600 770044.800000
318.105200 86636.700000
327.081500 20485.200000
329.084400 123209.200000
331.101500 35101.200000
331.136500 53675.500000
342.105000 124133.700000
343.100100 45963.500000
359.131400 7141810.500000
377.141800 68268.200000

>ms2peaks
53.002200 13845.000000
53.038600 65805.800000
55.054200 1255677.900000
56.049400 8241.900000
59.049100 3889.400000
66.033800 4738.600000
70.064900 7484.600000
79.029100 4618.500000
80.036900 9655.500000
94.052300 5290.100000
95.047700 94654.400000
95.060300 14661.800000
96.036900 11180.000000
96.055500 5443.600000
105.044700 7606.100000
106.039600 4765.000000
107.047700 14073.400000
108.055400 8595.000000
109.063500 21419.000000
119.047900 5384.000000
120.055700 12135.200000
122.034700 8752.700000
123.066200 6394.500000
124.074300 15429.000000
125.039800 33991.300000
127.035200 180863.800000
127.053900 25526.200000
131.047800 9057.600000
132.055700 9256.300000
133.063200 6215.800000
134.058700 52556.200000
134.071300 5154.400000
135.066400 127865.600000
136.043300 12268.800000
136.050500 25655.000000
137.051000 41753.500000
141.014500 1002021.300000
146.058700 32650.100000
146.071400 22560.800000
147.066400 273947.400000
148.050600 19176.100000
148.074300 89910.400000
148.086800 7669.400000
149.045700 80824.100000
151.053800 7074.300000
152.049200 87190.500000
153.032900 6028.000000
155.048600 28932.200000
159.066400 25355.600000
160.074700 21399.500000
160.086600 34421.500000
161.094600 12631.100000
162.053700 11768.700000
162.066200 16922.200000
162.102500 6144.500000
163.061300 2059042.900000
164.069200 94906.700000
166.065000 102405.300000
167.036600 5377.400000
170.071300 10408.800000
172.046100 4137.200000
172.086900 11717.200000
173.082300 14377.700000
174.089500 9636.400000
175.061300 40855.300000
175.097500 5659.900000
176.069100 76220.500000
176.081600 23050.200000
177.040500 18203.900000
177.056900 10139.700000
177.077000 14571.800000
177.089700 15599.800000
178.064900 189242.700000
178.121200 16825.400000
180.044100 943793.900000
181.052000 130352.700000
182.059800 18742.800000
184.087400 20198.500000
187.061200 4323.600000
187.097600 35174.000000
189.077200 25932.500000
189.113500 88996.900000
190.097600 19491.400000
191.056200 390366.100000
192.064200 18462.300000
195.031600 6534.800000
196.039500 5150.000000
200.069200 11983.600000
200.081800 35354.200000
201.077000 32407.600000
201.089400 16849.400000
201.113400 129454.700000
202.084800 94106.400000
202.121200 30059.900000
203.092900 11544.800000
205.072300 6202.300000
210.054800 50312.800000
213.113300 167150.100000
214.084600 11578.300000
215.092600 831483.100000
217.108300 137094.000000
218.116300 54235.400000
219.035900 7337.700000
229.088500 25666.600000
229.108000 49957.500000
231.087000 20135.600000
247.078600 24037.900000
255.067700 22183.800000
256.075500 17485.800000
257.083200 14972.700000
259.078800 13024.500000
260.086000 25977.400000
271.062600 13963.900000
273.058200 74709.900000
275.073700 194724.600000
276.057700 18674.600000
276.081100 45812.100000
277.089100 111919.100000
283.062600 14730.800000
284.070200 78508.100000
285.078100 1116703.200000
287.073800 391587.800000
289.052700 42248.200000
289.090000 35802.000000
290.058900 54763.400000
290.110000 6694.300000
301.090000 9772.100000
303.068700 3193928.000000
304.076400 1347588.800000
305.084300 1248610.000000
306.068500 29288.900000
314.110500 13052.600000
315.069400 6300.000000
316.059100 14002.100000
316.089800 11162.400000
317.084300 546063.500000
318.104200 33194.300000
326.073700 6750.500000
327.080800 40641.000000
329.084200 315533.400000
331.136500 18468.000000
342.105000 43593.300000
343.100100 70977.100000
359.131200 276787.500000

>ms2peaks
53.002300 21681.300000
53.038600 66949.200000
54.033800 8332.000000
55.054200 773148.400000
56.049500 13388.800000
57.044700 10562.900000
66.033800 23883.800000
67.029000 4710.400000
68.049600 4652.000000
70.065100 9046.600000
71.072900 4983.800000
79.029100 17055.000000
80.013200 4482.800000
80.036900 38103.000000
81.044600 16883.400000
91.029100 4809.200000
92.037000 11818.400000
93.020900 8555.400000
93.044700 17284.700000
94.052700 7655.100000
95.047800 131890.600000
95.060300 29382.100000
96.037000 15350.100000
96.044500 5576.900000
96.055600 10024.400000
97.044900 8407.000000
101.019500 6027.500000
104.036900 11717.200000
105.044800 23123.100000
106.040000 30535.800000
106.052600 17647.300000
107.024200 14539.000000
107.047600 33295.900000
107.060500 7588.900000
108.055600 34122.900000
109.039800 12887.500000
109.063500 20736.600000
110.027500 5537.600000
111.035500 4794.700000
114.027400 9436.300000
119.024500 4914.000000
119.047900 47100.400000
119.060000 5650.900000
120.055700 65340.400000
121.039800 10207.800000
121.050900 8961.800000
121.063400 18508.200000
122.034900 32704.500000
122.058700 10419.400000
123.035600 11254.100000
123.042900 5509.800000
123.066500 7135.400000
124.043200 10467.000000
124.050700 13018.000000
124.074500 31232.200000
125.039700 41964.200000
127.035200 190697.700000
127.053800 36713.000000
129.014600 10662.400000
130.039800 8702.700000
131.030200 6668.800000
131.047900 46547.500000
131.060600 4400.300000
132.043200 9020.600000
132.055500 52854.600000
133.051200 5453.000000
133.063700 20927.000000
133.076300 9711.500000
134.035200 12106.100000
134.047300 6221.500000
134.058700 78375.600000
134.071400 10200.100000
135.066600 247758.600000
136.043400 32672.700000
136.050500 205988.200000
137.051000 161967.900000
139.036900 5827.400000
140.030900 4494.100000
141.014700 857949.600000
141.025700 55796.600000
145.051000 9771.800000
145.063700 9341.100000
145.076300 7561.700000
146.034800 10178.200000
146.058800 49531.600000
146.071300 80305.600000
147.066600 951607.900000
148.050600 43128.800000
148.074400 142752.300000
148.086900 13001.100000
149.045900 135334.700000
149.058500 15354.200000
150.053200 7863.400000
150.066300 5312.800000
151.053900 53244.400000
152.049300 261311.700000
153.033100 27935.900000
155.048800 36426.300000
157.063500 10699.200000
158.059100 9381.100000
158.071600 16456.400000
159.066600 110893.600000
160.050200 8544.500000
160.087000 90500.100000
161.082400 15935.600000
161.094700 6529.700000
162.053800 7558.400000
162.066200 24184.800000
162.102900 6795.700000
163.061400 3145701.500000
164.069200 245707.900000
165.057000 13385.800000
166.041100 29911.800000
166.065300 76622.000000
167.030200 12940.700000
167.036500 11619.500000
169.063200 8514.500000
170.071400 26967.500000
171.066500 72536.200000
172.074500 36742.900000
172.086600 20574.800000
173.082000 54979.700000
174.090100 15874.500000
175.061400 43650.700000
175.097500 7667.100000
176.030500 8903.000000
176.069400 88937.900000
176.082000 10823.900000
177.040300 10244.800000
177.089900 8961.000000
178.048700 40429.200000
178.065000 216245.800000
180.044200 398612.500000
181.052000 134499.900000
184.087100 47614.200000
185.082000 35849.900000
186.090100 13800.100000
187.097700 80068.200000
188.069300 56638.700000
189.076900 20329.700000
189.113600 67597.700000
190.098000 9225.400000
191.041600 17675.400000
191.056300 127354.800000
192.025500 15826.600000
192.063800 23295.800000
195.032000 7226.500000
196.039200 11579.800000
198.090100 27592.800000
200.069400 31889.900000
200.081800 16689.400000
201.077300 20677.300000
201.089800 12737.800000
201.113600 132757.600000
202.085000 62666.400000
202.121100 6858.700000
203.092800 16619.200000
205.033700 4956.100000
205.057600 5158.000000
205.072300 5649.300000
210.054800 91942.600000
213.113500 56753.100000
214.084900 19634.800000
215.092800 337775.400000
217.044500 12336.400000
217.108600 24448.000000
218.116100 29134.500000
219.036400 45317.500000
229.088400 41198.100000
229.107800 22504.000000
231.036600 6786.400000
231.088200 20222.500000
232.020800 5831.200000
233.063800 6646.700000
234.036100 11329.500000
236.052300 7929.200000
245.039500 26071.900000
245.063500 8744.600000
246.047500 14161.100000
247.031700 24933.000000
247.079100 27083.400000
248.063600 7175.700000
252.046600 6128.000000
255.067300 38243.200000
256.075400 13026.200000
257.083100 12943.600000
260.086300 8414.400000
261.046800 11371.200000
270.054700 75572.100000
272.050100 19605.700000
273.034700 27118.400000
273.058200 118127.700000
275.073800 354403.700000
276.080700 9439.500000
277.089500 56434.300000
283.062900 13111.900000
284.070300 25847.300000
285.078200 994120.900000
286.042400 45868.800000
287.073800 305430.900000
288.045100 223276.600000
288.058900 81473.400000
289.053000 80071.700000
289.089300 33124.200000
290.059100 20314.600000
301.089400 53345.200000
303.068800 1967266.600000
304.076400 45854.200000
305.084400 198969.800000
306.068500 12266.400000
315.069100 5653.500000
316.059600 6549.500000
317.084400 92829.900000
326.074200 7124.400000
327.081200 11167.600000
329.084500 241868.700000
331.101200 7597.300000
343.100200 59158.400000

>ms2peaks
53.002200 35829.800000
53.038600 69894.100000
54.033800 19903.100000
55.054200 590635.400000
56.049500 34801.200000
57.044700 34402.500000
59.049200 6137.700000
66.033700 73322.300000
67.029000 9549.100000
68.049500 22595.400000
70.065100 13407.800000
71.072800 5517.200000
79.029000 110904.800000
80.013000 15101.000000
80.036900 97314.500000
81.044700 53296.100000
91.029100 21145.400000
92.036900 54291.300000
93.021000 7587.000000
93.044700 60476.700000
94.052500 20365.500000
95.047700 53328.600000
95.060300 29223.200000
96.037000 18715.100000
96.044400 29971.400000
97.044900 11241.500000
101.019700 30665.100000
104.036800 24013.900000
105.044700 122774.900000
106.040000 75461.200000
106.052600 26439.800000
107.023900 46884.400000
107.047800 50425.300000
107.060300 21707.400000
108.055600 119111.700000
109.039700 32255.000000
109.063500 8992.400000
110.027500 14002.300000
111.035300 20678.400000
114.027500 24883.200000
119.023900 17425.800000
119.047800 115598.000000
119.060400 21757.100000
120.055600 177434.000000
121.039600 50956.300000
121.050600 23395.500000
121.063500 17318.900000
122.034800 81270.500000
122.058500 29657.900000
123.035400 34778.400000
123.042500 10141.900000
123.066500 7992.100000
124.043200 47895.000000
124.050700 7856.900000
124.074300 18834.400000
127.035200 227820.300000
127.054000 15271.000000
129.014300 22630.200000
130.039900 36451.000000
131.030200 38789.100000
131.047800 79319.100000
131.060200 20436.600000
132.043000 31877.900000
132.055600 125183.400000
133.051100 20154.900000
133.063600 27784.500000
133.076000 13642.400000
134.035100 20810.700000
134.047400 10617.800000
134.058700 76924.700000
134.071300 22525.600000
135.066500 389566.800000
136.050600 913666.600000
137.051000 203316.200000
139.035500 16365.400000
140.030800 16864.400000
141.014700 552814.900000
141.025400 162118.300000
145.050700 27746.800000
145.063400 22548.300000
145.076000 8508.700000
146.034800 9976.700000
146.058700 110838.000000
146.071200 94341.400000
147.066500 1414964.800000
148.050500 87740.400000
148.074300 82157.600000
148.086900 12968.200000
149.045800 128969.600000
149.058400 18085.800000
150.053600 23844.000000
150.065200 7677.100000
151.054000 86515.100000
152.049200 235165.600000
153.033100 37587.000000
155.048900 14803.000000
157.063300 15667.600000
158.058800 13171.000000
158.071300 28768.000000
159.066600 221654.300000
160.050500 14842.100000
160.074800 11398.600000
160.087000 107475.500000
161.082100 23808.500000
162.066200 28212.600000
162.101900 4899.000000
163.061400 3049688.500000
164.069200 176320.800000
165.056900 19667.900000
166.040700 34459.300000
166.065200 41676.200000
167.029800 21150.500000
167.036900 5662.800000
169.063100 20093.500000
170.071100 29218.000000
171.066500 311196.800000
172.043000 6024.600000
172.074200 96099.900000
172.086500 20449.900000
173.082200 92188.900000
174.089800 9116.800000
175.061300 32917.200000
175.097900 17550.300000
176.030400 29792.800000
176.069000 48297.500000
176.081600 6677.500000
177.057100 43861.100000
178.048500 129143.800000
178.065000 100897.900000
180.044100 80601.100000
181.051900 63517.900000
182.059900 12417.400000
184.087000 23957.700000
185.082200 89332.400000
186.089400 21558.100000
187.061300 7026.000000
187.097800 72202.600000
188.069200 148190.400000
189.077100 12820.800000
189.113400 33810.400000
191.041500 41085.000000
191.056400 17555.100000
192.025600 56687.500000
192.063800 9251.700000
195.031700 5011.700000
198.089800 45121.200000
200.069400 51149.600000
200.081000 8785.600000
201.077300 16048.300000
201.088400 5391.600000
201.113600 51115.700000
202.085400 42717.700000
203.092900 25058.200000
205.033700 5848.400000
205.057400 14031.200000
213.113700 13336.700000
214.084900 14379.500000
215.092600 91100.500000
217.044500 16324.000000
219.036400 70205.700000
229.108400 8727.900000
231.036500 23123.300000
231.087500 8871.800000
232.021000 13156.200000
233.063700 9087.000000
234.036200 16978.200000
236.051700 15970.200000
245.039400 72481.100000
245.063700 7105.100000
246.047500 15907.800000
247.031400 62327.600000
248.063500 13511.200000
252.046200 12197.800000
255.067600 27176.800000
257.083200 10024.000000
259.079000 6340.900000
261.047200 20125.200000
270.054600 221002.900000
271.062600 28433.300000
272.050100 42367.000000
273.034600 12472.100000
273.057800 59377.900000
275.073800 212413.200000
276.057900 14313.000000
277.089400 7059.600000
283.062300 14900.000000
285.078200 456434.900000
286.042100 91091.700000
287.073800 109702.900000
288.045100 441998.600000
301.089800 37001.100000
303.068800 517873.700000
305.085000 8283.200000
316.088200 5135.200000
329.084100 41324.800000
343.100000 8349.900000

