>compound LU77207460
>parentmass 389.12629999999996
>ionization [M+H]+
>formula C20H21ClN2O4
>rt 835.740000
>profile orbitrap
#smiles_iso C1CN(CCN1CC2=CC3=C(C=C2)OCO3)C(=O)COC4=CC=C(C=C4)Cl
#smiles_can C1CN(CCN1CC2=CC3=C(C=C2)OCO3)C(=O)COC4=CC=C(C=C4)Cl
#inchikey BFUJHVVEMMWLHC-UHFFFAOYSA-N
#pubchem_id 3351
#mb_accession LU132401,LU132402,LU132403,LU132404,LU132405,LU132406

>ms2peaks
51.023100 9428.400000
77.038700 9458.200000
135.044100 7006233.000000

>ms2peaks
51.023000 11229.700000
77.038500 11253.400000
79.054200 13761.400000
126.078700 17323.400000
135.044000 8118437.000000

>ms2peaks
51.023000 11306.800000
53.038600 15627.300000
77.038300 22252.200000
79.054200 105602.300000
95.049100 49303.500000
105.033500 36558.600000
105.044800 14958.100000
126.078800 10520.100000
135.044000 7994961.000000

>ms2peaks
51.023100 11930.500000
53.038600 72320.900000
65.038500 7189.300000
67.054200 25491.700000
77.038500 85290.800000
79.054200 422662.100000
84.068200 9164.400000
94.041300 6960.500000
95.049200 222587.200000
105.033500 193905.000000
105.044700 84126.800000
107.049200 13683.800000
135.044000 6587575.000000

>ms2peaks
50.015000 16576.100000
51.022800 20422.300000
53.038600 219534.600000
55.017900 17808.800000
65.038500 25934.500000
67.054200 83625.200000
77.038500 310536.200000
79.054200 860738.700000
81.033500 20761.000000
84.068300 6641.700000
94.041300 16864.400000
95.049100 659443.400000
105.033500 559915.400000
105.044700 272356.100000
107.049100 31545.400000
109.064900 5752.700000
135.044000 4876053.500000

>ms2peaks
50.015100 42914.600000
51.022900 40621.800000
53.038600 393973.300000
55.017900 27900.600000
65.038500 34571.800000
67.054200 122955.000000
68.997000 3518.400000
77.038500 646480.200000
79.054200 836374.400000
81.033500 39079.700000
83.060600 2815.200000
84.068200 4444.100000
94.041200 23793.200000
95.049100 1123820.600000
105.033600 704165.900000
105.044700 420262.100000
106.041600 3824.700000
107.049200 24534.300000
109.064800 4031.600000
135.044000 2510388.500000

