>compound LU77161992
>parentmass 241.1733
>ionization [M+H]+
>formula C13H24N2S
>rt 1070.100000
>profile orbitrap
#smiles_iso C1CCC(CC1)NC(=S)NC2CCCCC2
#smiles_can C1CCC(CC1)NC(=S)NC2CCCCC2
#inchikey KAJICSGLHKRDLN-UHFFFAOYSA-N
#pubchem_id 727200
#mb_accession LU118801,LU118802,LU118803,LU118804,LU118805,LU118806

>ms2
83.085300 122174.600000
100.112000 3200071.200000
142.068500 78685.300000
159.094900 54026.200000
180.984200 65799.800000
194.999500 16160.400000
241.173100 14193399.000000

>ms2
55.054200 56088.900000
59.990200 93453.500000
77.016700 93077.000000
83.085500 871588.600000
100.112000 7425167.500000
142.068500 277052.600000
159.095000 356151.200000
180.984100 52925.900000
241.173100 8483372.000000

>ms2
53.038600 8960.700000
55.054200 697235.100000
59.990200 398427.200000
77.016700 1092334.200000
83.085500 3828453.000000
98.096400 4965.700000
100.112000 4673236.000000
108.080700 18744.300000
125.041800 5569.000000
142.068500 292388.600000
159.095000 850238.800000
180.984200 13510.100000
241.173200 884188.400000

>ms2
53.038600 37813.800000
55.054200 2267998.800000
59.990200 600106.300000
77.016700 2119089.500000
83.085500 4757892.000000
100.112000 947724.200000
108.080800 14329.500000
125.041900 6837.300000
142.068500 78371.200000
159.095000 416302.800000
241.172900 32292.100000

>ms2
53.038600 74822.400000
55.054300 3858496.200000
59.990300 902776.200000
77.016800 1701396.900000
81.069900 5119.600000
83.085500 3080596.500000
91.054200 5178.100000
98.096600 7304.300000
100.112100 129484.100000
108.080800 10366.500000
109.088600 6006.300000
125.042200 6132.400000
142.068600 12018.800000
159.095100 80739.900000

>ms2
53.038600 108620.900000
55.054300 4671153.500000
59.990300 1289280.800000
77.016800 1028226.600000
81.070000 5263.500000
83.085500 1451381.000000
91.054200 7438.500000
98.096500 6820.700000
100.112100 13682.900000
109.088700 5495.000000
159.095100 6883.200000

