>compound LU77079744
>parentmass 495.1978
>ionization [M+H]+
>formula C25H24F6N4
>rt 1065.000000
>profile orbitrap
#smiles_iso CC1(CN=C(NC1)NN=C(/C=C/C2=CC=C(C=C2)C(F)(F)F)/C=C/C3=CC=C(C=C3)C(F)(F)F)C
#smiles_can CC1(CNC(=NC1)NN=C(C=CC2=CC=C(C=C2)C(F)(F)F)C=CC3=CC=C(C=C3)C(F)(F)F)C
#inchikey IQVNEKKDSLOHHK-FNCQTZNRSA-N
#pubchem_id 5281875
#mb_accession LU035001,LU035002,LU035003,LU035004,LU035005,LU035006

>ms2
323.146900 58486.400000
495.197600 40703684.000000

>ms2
69.069800 59165.700000
70.065000 49760.300000
82.065100 27654.600000
86.096400 176265.300000
97.076100 92446.600000
111.091700 27446.800000
112.099500 106559.900000
113.107300 230840.900000
126.102600 420115.000000
127.086600 94613.300000
127.110400 77015.700000
128.118200 1513746.200000
142.121100 33711.700000
163.122600 32141.900000
171.041700 90485.700000
213.063700 47856.900000
225.063400 49670.100000
238.058500 181639.300000
267.085000 76040.900000
275.135800 55349.600000
281.125800 44526.900000
295.141600 242329.100000
298.152600 49084.600000
323.147700 8361203.500000
334.151500 62907.800000
335.147000 47146.800000
336.154500 32601.500000
467.194400 40756.900000
495.197900 25530108.000000

>ms2
53.038600 8799.800000
55.029100 176588.800000
55.054200 169753.800000
56.049500 197304.600000
56.062100 29351.000000
57.044700 255435.100000
57.069900 29496.300000
58.040000 70512.700000
58.065100 316015.600000
60.055600 25589.700000
67.054200 27397.700000
68.049400 73432.600000
69.044700 236815.100000
69.069800 1388202.900000
70.039900 68803.200000
70.065000 1251258.400000
71.060300 27284.700000
71.072900 448648.000000
72.055500 33079.000000
72.080700 356926.200000
80.049400 74502.200000
81.044800 11111.100000
81.069700 14906.000000
82.052400 33406.000000
82.065100 513590.100000
83.047700 107510.600000
83.060300 64136.700000
83.073000 44333.100000
84.055600 156749.700000
84.080700 248961.200000
85.050900 10221.800000
85.075900 39792.800000
86.096400 1294886.900000
94.065100 80528.700000
95.060400 67324.000000
96.055500 31583.700000
96.067900 9063.200000
96.080700 97543.000000
97.076000 1593125.400000
98.083800 15543.200000
99.091600 139157.800000
102.046300 90469.900000
107.060400 9878.300000
109.044800 17235.600000
109.076000 175438.500000
110.083900 12682.500000
111.079100 24638.400000
111.091600 220754.200000
112.086900 1405785.800000
112.099300 292219.100000
113.107200 1075169.500000
126.102500 2210535.000000
127.086500 312210.100000
127.110300 716391.400000
128.118100 2662355.000000
142.121100 100221.500000
149.039700 8881.100000
151.035300 1284631.500000
153.051700 12532.300000
153.113400 187198.000000
154.065000 16926.900000
156.044300 27803.800000
156.068000 34237.700000
159.041600 1132823.900000
163.122900 181077.100000
165.050800 13772.700000
166.046400 10740.100000
169.046000 142112.600000
172.036500 18285.800000
177.051000 59999.800000
183.041600 630341.400000
183.061000 56184.100000
185.044800 16616.900000
185.056900 29480.700000
186.052500 53179.100000
187.066800 14496.100000
188.068100 25824.200000
190.046900 39203.500000
190.066100 38905.900000
191.041500 9385.600000
193.058000 12357.000000
197.056900 25111.400000
198.052400 311789.900000
199.047500 24341.800000
200.068400 44743.100000
203.068200 10662.000000
209.057000 111985.800000
210.052600 68275.400000
211.060000 10132.900000
212.056300 17372.700000
213.063200 663827.100000
214.047200 141503.400000
216.063600 14127.300000
218.052700 70699.400000
219.073600 9997.300000
222.052300 76312.600000
223.047600 102774.500000
225.063300 832567.400000
226.083400 15248.400000
226.146600 92893.800000
235.060100 22035.800000
235.078900 28348.000000
238.058500 2409624.800000
239.078700 86333.000000
239.154200 32475.100000
240.074100 24658.700000
242.114700 16059.200000
243.087900 15301.400000
247.078700 168339.100000
251.079200 13712.600000
252.073800 41669.600000
252.099200 19493.600000
253.144700 184797.500000
255.085000 155129.200000
259.079200 23507.600000
267.085000 939348.600000
270.133400 115218.600000
271.073100 16488.500000
272.080700 36073.400000
275.135100 93632.000000
279.085400 46986.200000
281.125800 249861.400000
283.073200 15819.200000
284.136200 55582.400000
286.096200 54221.900000
293.125400 11726.800000
294.133800 38439.500000
295.141500 271573.700000
298.083700 227628.700000
298.152600 104768.200000
299.091500 163587.000000
301.062900 63659.500000
303.141400 66477.200000
307.142200 90818.600000
308.068200 28775.800000
315.079900 54855.300000
323.147600 8689319.000000
326.078300 27281.900000
334.152300 375762.000000
335.146400 36430.300000
336.154800 21278.900000
340.067800 39951.900000
344.089700 41296.900000
348.080400 216545.600000
353.062900 142618.300000
363.090700 11318.800000
366.070700 100900.000000
368.086700 3121893.500000
467.191700 29403.900000
478.171700 34478.800000
495.197800 1471188.800000

>ms2
53.038600 23817.300000
54.033900 15370.100000
55.029100 387116.600000
55.054200 399827.300000
56.049500 396473.200000
56.062000 81677.600000
57.044700 255347.600000
57.057300 46489.100000
57.069900 58221.200000
58.039900 55753.900000
58.065100 545269.400000
59.047800 13825.600000
60.055600 26820.400000
65.038500 15721.000000
67.041600 26386.300000
67.054200 60545.800000
68.024300 18965.400000
68.049400 97584.200000
69.044700 342727.000000
69.069800 1185060.900000
70.039900 164755.400000
70.065100 1712213.900000
71.060200 38917.200000
71.072900 733392.200000
72.055600 62342.400000
72.080700 402452.500000
80.049400 127797.600000
81.044700 25958.700000
81.057200 20076.900000
81.069700 11913.300000
82.052600 64291.000000
82.065100 608110.600000
83.047800 113298.200000
83.060300 167976.400000
83.073000 40467.400000
84.055600 170290.500000
84.080700 300244.200000
85.050800 10159.400000
85.076000 37593.500000
86.096400 489402.700000
94.065100 74750.200000
95.060400 130782.300000
95.072800 13195.400000
96.055600 119955.000000
96.068200 18217.300000
96.080700 88174.100000
97.063500 94781.300000
97.076000 1102333.900000
98.071300 15978.500000
98.083800 25417.000000
99.091600 106858.400000
102.046400 950031.500000
107.060400 47557.000000
109.044800 205934.800000
109.076000 123300.500000
110.071300 24515.300000
110.083900 22579.400000
111.091600 174123.200000
112.086900 2214714.200000
113.107200 664778.700000
115.054100 8795.100000
116.062100 10170.400000
120.037100 27345.900000
126.102600 849274.200000
127.035400 34723.900000
127.086500 85260.000000
127.098000 17541.100000
127.110400 240618.200000
128.118200 1565648.500000
140.043300 16444.500000
142.121100 40236.300000
143.072900 20549.500000
145.025900 99671.000000
149.039600 68970.400000
151.035300 8301189.000000
153.113400 371246.400000
154.065400 33969.300000
156.044200 132902.300000
156.068100 120645.800000
159.041600 1717006.900000
163.122900 116468.400000
164.043600 14873.600000
165.050900 91267.600000
166.046700 39210.300000
169.046000 1118793.600000
171.041500 6859674.500000
172.036500 42379.700000
173.050500 11070.500000
174.052700 29732.200000
177.051100 95812.800000
178.046200 1194209.200000
182.033900 12134.700000
183.041600 513382.700000
183.061400 322762.400000
184.036800 16522.700000
185.044600 46504.200000
186.052500 124886.800000
187.067300 12888.800000
188.068600 25226.300000
190.046700 32223.300000
190.066000 102074.300000
191.041100 13709.000000
193.057000 42755.600000
196.036800 528787.100000
197.056200 14450.800000
197.082700 35126.500000
198.052500 402394.600000
199.047900 22071.300000
200.068600 20405.100000
202.046900 20555.400000
202.077500 12952.100000
203.068500 11525.900000
210.052700 51396.700000
211.047800 18841.600000
211.060100 25058.800000
212.055300 28895.000000
212.068200 46059.800000
213.063200 384070.300000
214.047300 502068.900000
217.101100 47772.500000
218.052500 162167.200000
219.060700 11506.600000
219.072400 9740.500000
222.052400 82677.100000
223.047500 66623.100000
224.067600 13300.800000
225.063400 534710.900000
226.083400 8845.400000
226.146800 36708.800000
227.071700 12187.800000
228.062900 34433.500000
230.096900 31826.000000
234.070700 14684.500000
235.060500 51624.200000
235.078900 28349.300000
237.063300 14231.800000
238.058500 1117630.200000
239.078900 92876.100000
239.154300 29034.900000
242.114800 11649.400000
243.087700 15873.900000
245.062800 9283.200000
246.070900 48501.600000
246.083800 25567.900000
247.078900 260876.300000
251.066100 12694.900000
251.079000 31867.000000
252.074000 18900.300000
252.098900 20375.800000
253.144600 147203.300000
255.085200 62694.200000
255.110800 17890.800000
266.090300 26534.500000
267.085100 379132.900000
269.127100 14015.900000
270.065000 12495.200000
270.133600 75648.500000
272.081000 31866.400000
278.090500 68533.800000
279.085400 59529.700000
281.125800 40325.900000
283.073700 15527.600000
284.066000 9087.200000
284.136300 9831.900000
285.088700 27442.000000
286.095800 58732.100000
294.134500 12629.300000
295.142100 12992.000000
296.137200 12601.300000
298.083800 453696.700000
299.091300 116552.700000
301.063200 58559.000000
303.140600 9621.200000
307.141500 53405.200000
315.079500 40923.600000
323.147600 344382.900000
327.065800 45961.300000
334.152300 162693.700000
346.064700 12806.200000
347.072300 81048.400000
353.063200 173112.800000
363.091100 23621.300000
366.071200 129772.000000
368.086700 308375.000000

>ms2
53.038600 58460.500000
54.033900 29204.300000
55.029100 481915.400000
55.054200 546035.400000
56.049500 755088.100000
56.062000 197091.500000
57.044700 255259.000000
57.057300 83050.000000
57.069800 64525.800000
58.040000 46344.300000
58.065100 633611.200000
59.047800 17268.400000
60.055700 29430.500000
65.038600 24952.500000
67.041600 45406.500000
67.054200 73427.500000
68.024300 55158.500000
68.049400 164885.800000
68.994600 88487.400000
69.044700 322952.400000
69.069800 747374.100000
70.039900 186940.100000
70.065100 1531598.400000
71.060500 37513.900000
71.072900 568059.400000
72.055600 61565.600000
72.080700 288082.500000
75.022800 42719.000000
77.019700 16747.200000
80.049400 168316.700000
81.044700 30254.200000
81.057200 30236.500000
82.052500 76859.500000
82.065100 464920.900000
83.047800 86258.800000
83.060300 211191.900000
83.073000 32386.500000
84.055600 144471.500000
84.080800 239254.900000
85.050900 29451.200000
85.076000 36420.500000
86.096400 253817.000000
94.065100 77051.300000
95.060400 163995.000000
96.044400 22378.800000
96.055600 213896.300000
96.080600 47565.400000
97.063600 110661.600000
97.076000 679931.700000
98.071300 20380.800000
98.083800 19739.000000
99.091500 52984.300000
101.019700 66610.600000
102.046400 2445702.200000
107.060500 75065.400000
109.044800 794533.300000
109.076000 58347.800000
111.079100 32226.700000
111.091800 112350.800000
112.086900 1812402.200000
113.107300 323860.900000
116.062000 36127.700000
119.049300 18098.300000
120.037100 91778.100000
121.044600 43855.800000
125.019700 62342.400000
126.102600 437355.900000
127.035400 44167.400000
127.041500 28216.300000
127.098000 16688.800000
128.118200 926972.800000
129.044500 56268.500000
131.029200 81476.700000
133.044700 143328.500000
139.035300 85492.000000
143.073000 30707.500000
145.026000 336028.500000
147.035300 44132.100000
148.055500 16100.100000
149.039900 101612.000000
151.035400 16008412.000000
153.113400 231585.600000
154.065200 59684.200000
155.059800 37073.100000
156.044200 213702.600000
156.068000 86933.500000
158.040000 143208.800000
159.041600 1525868.600000
163.055200 20237.400000
163.122900 42854.900000
164.043600 36360.800000
165.051100 134463.400000
166.046400 89776.000000
169.026900 106438.200000
169.045900 1853851.500000
170.071100 24917.900000
171.041600 2858749.000000
172.036700 57072.400000
172.055500 18474.800000
173.050900 36813.000000
174.034500 20252.900000
174.053500 41949.500000
176.030600 150154.700000
177.050600 82264.400000
178.046200 1514206.000000
182.033800 29020.000000
183.041700 378925.800000
183.061600 506005.100000
184.037100 27782.100000
185.044800 99224.100000
185.057100 23418.300000
186.052400 59793.400000
189.050800 31453.900000
190.046900 36368.600000
190.066100 95971.800000
191.041800 61863.000000
193.057700 39112.700000
194.041300 67569.800000
196.036900 915776.900000
197.044400 66190.700000
197.082200 65418.200000
198.052600 292809.300000
199.047700 19604.300000
202.046900 41486.700000
202.077600 83374.700000
203.085500 21166.800000
209.057100 83402.800000
210.052700 34249.200000
211.048300 17293.900000
212.068200 28184.000000
213.063300 99381.400000
214.047300 451192.700000
215.085300 49603.700000
216.093500 17200.800000
217.101500 42621.100000
218.052600 128512.300000
222.052400 51339.300000
223.047600 31285.100000
224.067900 21090.000000
225.063300 85509.600000
228.063200 70350.200000
230.096900 35835.100000
234.071000 17158.800000
235.060900 35003.300000
238.058600 211575.900000
238.076700 25601.700000
239.154400 17041.500000
246.070600 67711.100000
247.078900 115786.300000
251.066400 48025.700000
251.079400 25513.600000
253.145400 35603.900000
255.109100 16089.200000
258.070500 22886.000000
259.079500 49248.600000
267.085100 42627.300000
270.065100 24599.600000
271.073000 58010.000000
272.080900 19509.200000
278.077100 36473.700000
278.090100 31603.000000
283.073500 17612.100000
284.067500 49989.200000
285.088900 24180.000000
297.076700 18569.900000
298.083800 421010.700000
301.062800 47998.800000
303.067200 23805.800000
308.068200 20195.500000
327.066000 51527.500000
329.065900 20443.700000
340.067500 30443.400000
346.064600 19732.400000
347.072400 27921.700000
353.063300 65443.000000
366.071200 58190.400000
368.086100 23565.100000

>ms2
53.038600 71819.000000
54.033800 36561.600000
55.029100 404547.100000
55.054200 408551.900000
56.049500 723414.600000
56.062000 205245.500000
57.044700 178626.100000
57.057300 92276.800000
57.069900 43556.600000
58.065100 552143.200000
60.055600 18494.200000
63.022800 33971.900000
65.038600 38526.700000
67.041600 55731.100000
67.054200 62572.500000
68.024300 81928.600000
68.049400 142086.200000
68.994600 174906.700000
69.044700 233700.400000
69.069800 328044.600000
70.039900 159210.400000
70.065100 1089485.000000
71.060300 37949.800000
71.072900 254170.800000
72.055500 29363.200000
72.080700 173675.400000
75.003900 41485.000000
75.022800 178149.900000
76.030700 62500.900000
77.019700 39211.600000
80.049400 132801.900000
81.044700 23615.800000
81.057200 27726.600000
82.052500 81011.400000
82.065100 285685.800000
83.047700 53419.700000
83.060300 222913.100000
84.055600 96971.600000
84.080800 164082.000000
85.050700 30383.700000
85.076000 33639.800000
86.096400 122922.800000
91.054200 45729.900000
94.065100 62454.100000
95.049000 29284.800000
95.060300 143480.000000
96.044300 35980.300000
96.055600 202209.500000
96.080600 20060.100000
97.063500 97174.900000
97.076000 370740.000000
99.091500 24373.700000
101.019800 298169.100000
102.046400 3082033.800000
107.060300 65235.500000
109.044800 1226980.100000
110.071300 40106.600000
111.091500 55144.800000
112.086900 1070655.200000
113.107200 118887.500000
115.054100 81706.100000
116.049500 34990.100000
116.062000 53330.400000
119.049100 119776.500000
120.037000 133680.600000
121.044600 75326.600000
125.019700 273132.600000
126.102600 163185.500000
127.035300 55302.700000
127.041500 84500.500000
128.118100 392243.200000
129.044600 255715.800000
131.029200 358258.100000
133.044800 224807.600000
138.027200 39878.300000
139.035300 89806.900000
140.049400 18073.000000
145.026000 648512.100000
147.035300 93912.600000
149.039700 102135.900000
151.035300 16446577.000000
152.030400 32395.800000
153.113300 92088.000000
154.065000 61182.900000
155.060100 35057.100000
156.044300 117947.400000
158.040000 407906.200000
159.041500 773529.600000
163.055400 23885.300000
164.043400 64698.700000
165.050900 94824.200000
166.046400 81133.900000
169.026100 225429.800000
169.045900 1318604.400000
170.070900 23389.700000
171.041500 644733.800000
172.036600 51847.600000
174.034700 26088.800000
174.053300 16603.400000
176.030600 339505.100000
177.050700 68118.100000
178.046200 1078840.000000
182.034000 72457.500000
183.041600 209571.100000
183.061500 338223.400000
184.036800 22099.000000
185.044600 70573.700000
186.052100 17646.700000
188.043300 37422.700000
189.050800 24852.900000
190.066200 60305.300000
191.041400 65056.100000
194.041200 106249.200000
196.036800 586897.100000
197.043900 46790.900000
197.082600 36948.200000
198.052700 162281.700000
202.046600 46823.400000
203.085800 21336.300000
209.056800 19515.400000
211.059900 21783.200000
213.063400 32861.400000
214.047200 202831.400000
215.085300 79990.400000
216.093300 35901.300000
218.053000 51896.200000
222.052300 30198.100000
228.062900 35770.000000
229.088900 33366.900000
238.058300 18775.600000
238.077400 21675.600000
246.070200 27194.300000
246.083800 19574.600000
251.066300 67568.700000
258.070900 55395.100000
271.072900 16743.200000
278.077100 35532.000000
283.073200 16753.500000
284.067200 35965.100000
297.076200 17342.600000
301.063200 28943.600000
366.071400 17961.600000

