>compound LU77024350
>parentmass 315.0695
>ionization [M+H]+
>formula C17H12ClFN2O
>rt 1034.880000
>profile orbitrap
#smiles_iso C1=CC=C(C(=C1)C(C2=CC=C(C=C2)F)(C3=CN=CN=C3)O)Cl
#smiles_can C1=CC=C(C(=C1)C(C2=CC=C(C=C2)F)(C3=CN=CN=C3)O)Cl
#inchikey SAPGTCDSBGMXCD-UHFFFAOYSA-N
#pubchem_id 91683
#mb_accession LU124401,LU124402,LU124403,LU124404,LU124405,LU124406

>ms2peaks
81.045000 6868.900000
243.037500 9739.000000
252.081900 22883.200000
288.058900 34525.300000
315.069600 4823447.000000

>ms2peaks
54.033900 7006.600000
81.044700 437193.600000
123.024000 39033.800000
138.994500 39013.400000
149.015700 2517.400000
155.060600 8550.900000
156.068300 21265.000000
157.075800 2564.700000
175.066700 12005.100000
176.050900 5839.000000
176.074500 9537.000000
183.055200 31213.100000
184.063200 9619.000000
191.037100 17919.300000
192.044900 11380.800000
194.061200 6480.200000
203.061500 20210.300000
207.061100 2588.600000
222.071200 8514.800000
224.086900 20772.900000
234.071100 7118.700000
235.032000 61640.900000
235.079200 21369.300000
236.063300 103700.600000
240.081600 3364.300000
243.037200 262984.400000
251.074600 5798.200000
251.098000 23730.900000
252.082000 894512.200000
259.032600 3879.100000
260.063800 26517.900000
261.047300 2946.100000
261.081000 2670.500000
262.090200 19652.900000
270.048000 27279.900000
271.032100 62274.800000
279.092600 37862.900000
286.042900 12808.700000
286.067000 25495.000000
287.074400 18354.800000
288.058700 334637.000000
295.062400 4794.400000
297.059000 38378.500000
314.062500 2960.100000
315.069500 2499056.800000

>ms2peaks
54.033800 82462.300000
81.044700 1471107.000000
109.045000 3214.300000
123.024100 195016.700000
124.055600 4757.500000
125.015300 3154.000000
130.065000 2993.900000
133.044800 13828.800000
138.994500 317497.300000
140.026400 7457.400000
146.059600 2382.500000
148.055700 8680.900000
149.015400 4019.500000
155.060400 8288.000000
156.068200 47573.900000
157.076100 17985.200000
164.026300 3574.200000
175.066900 16099.700000
176.050800 10312.600000
176.074500 15639.400000
177.069700 2891.400000
183.054500 31968.700000
184.063300 12104.200000
184.070200 3194.600000
191.037300 11331.900000
192.020800 3249.700000
192.044900 14292.300000
194.061500 6250.900000
196.068100 5203.200000
197.076200 11462.000000
203.061200 13477.600000
204.069300 8135.800000
204.079900 4250.400000
205.065200 3651.100000
207.060500 53437.000000
208.068300 63605.100000
209.065500 3429.700000
209.075600 14109.200000
210.084000 6478.000000
212.063000 3818.400000
217.021300 10983.400000
219.037900 54625.900000
222.071400 56635.700000
223.079000 5656.700000
224.087100 79871.600000
225.071200 20090.900000
225.095200 5615.700000
231.037400 2997.000000
232.076000 14360.600000
234.071500 47246.800000
235.032100 225704.000000
235.079300 66390.200000
236.063200 193073.400000
240.057500 2786.500000
240.082900 5825.100000
242.084300 2537.400000
243.037200 664439.700000
250.066200 26162.200000
251.074400 21406.100000
251.097800 52729.500000
252.082000 1443099.200000
259.032300 9767.700000
260.063400 53719.100000
261.047700 3357.600000
261.082500 20193.600000
262.090200 57449.700000
263.098100 9280.400000
269.040300 4932.500000
270.048000 24796.800000
271.032000 33827.900000
279.092900 20471.100000
286.043900 5263.900000
286.066900 14111.200000
288.058700 77048.400000
295.063600 5026.200000
297.059200 29419.800000
315.069600 171899.100000

>ms2peaks
54.033900 206509.200000
74.096000 2134.000000
75.022800 2685.800000
81.044800 1447449.000000
86.999600 2250.900000
103.054200 2407.600000
109.044800 3550.100000
111.044200 3252.600000
113.015000 2246.700000
113.039600 8227.300000
121.044700 4694.400000
122.040200 5226.100000
123.024100 406117.500000
124.055800 6097.400000
125.015400 4787.300000
128.049400 8008.400000
129.010100 5696.800000
129.057300 4642.500000
133.044800 11531.500000
138.994600 657111.200000
140.026000 8338.200000
146.039800 3483.500000
146.060300 6785.100000
148.055700 14610.800000
149.015300 8122.000000
155.060500 7989.300000
156.044200 2939.300000
156.068200 30536.000000
157.076100 22006.000000
158.039900 3321.800000
158.059900 4866.000000
164.026200 5317.900000
164.050600 4064.600000
175.066700 9432.600000
176.050700 10684.200000
176.062000 3276.600000
176.074700 4663.300000
177.069900 21269.300000
183.061800 25139.900000
184.069700 20198.100000
189.070000 5283.600000
192.020500 2564.200000
195.059900 2392.100000
196.068400 29265.700000
197.076100 22179.500000
203.061700 9408.600000
203.072300 4197.100000
204.069600 6292.700000
204.080800 20887.000000
207.060500 294814.000000
208.068300 221139.800000
209.063600 4697.500000
209.076200 9405.900000
210.083700 3130.100000
217.021600 58359.600000
219.037700 15231.000000
220.076100 2314.400000
222.071400 145661.000000
223.030900 12757.900000
223.055900 3491.400000
223.079200 18838.500000
224.087100 136997.000000
225.071100 87632.800000
225.094600 5365.800000
231.037600 3492.200000
234.071400 63904.000000
235.032200 67971.300000
235.079200 78359.200000
236.063300 176058.300000
240.057700 3466.200000
242.083700 4235.700000
243.037300 328340.200000
249.081600 2333.800000
250.066200 37817.600000
251.074500 42527.000000
251.097800 26168.700000
252.082000 451615.200000
260.063700 7498.300000
261.082200 39375.400000
262.090300 33625.400000
263.097800 8346.400000
269.039300 3009.400000
270.047800 5697.900000
271.031200 2605.900000
297.058700 3167.600000

>ms2peaks
50.015000 2358.400000
51.023000 2940.700000
52.018200 8360.600000
54.033900 380717.200000
71.029200 7209.200000
75.022900 12459.800000
79.017700 2022.700000
81.044800 1217077.200000
86.999800 10693.900000
93.033600 5943.900000
94.041400 7505.100000
95.029100 3677.800000
95.049100 3727.600000
97.044600 2620.100000
104.049600 8327.500000
105.044600 2428.700000
109.045100 3492.900000
110.999400 6353.300000
111.044000 19025.900000
113.015300 2163.400000
113.039800 37686.400000
121.040100 2893.100000
121.044900 4775.600000
122.040100 5493.000000
123.024100 418329.200000
123.035100 84040.200000
124.055700 5343.600000
125.015200 2984.300000
128.049500 25454.100000
129.010100 29807.800000
129.044700 5968.500000
129.057200 8589.500000
130.065300 11005.600000
133.044900 10778.500000
137.015400 6536.900000
138.994600 695648.400000
140.026300 8074.900000
146.040200 11416.300000
146.060200 13915.600000
148.055800 21520.600000
149.015500 6166.200000
155.060400 9353.900000
156.044300 2696.100000
156.068200 15813.000000
157.076200 12274.300000
158.040100 5442.100000
158.060100 8593.300000
164.026100 6527.500000
164.050800 9259.100000
169.065000 6112.700000
170.052500 2732.600000
171.060500 2861.300000
175.066500 5800.800000
176.050800 6554.100000
176.062300 21955.300000
177.069800 37215.800000
183.061000 54061.500000
184.068700 21555.000000
189.070200 8122.700000
194.052800 4041.700000
195.060800 6531.100000
196.068500 90256.500000
197.076300 26631.700000
203.061600 12806.400000
203.073000 8271.700000
204.080900 27672.900000
205.065100 14337.100000
207.060600 641433.200000
208.068300 163145.500000
209.064300 4616.000000
209.076400 8590.400000
212.062800 2442.800000
214.065400 8105.900000
216.080300 4594.200000
217.021600 89163.400000
220.076400 2779.500000
221.063500 7287.400000
222.071400 151668.400000
223.030800 14539.900000
223.079400 19896.100000
224.087000 86896.700000
225.071100 90841.700000
232.076000 24069.700000
233.064200 5379.200000
234.071600 71580.100000
235.032200 7000.900000
235.056900 10186.700000
235.079200 62118.700000
236.063400 99944.200000
242.084300 4463.100000
243.037300 81453.600000
249.082600 4261.900000
250.066400 37820.300000
251.097100 3769.900000
252.081900 54963.800000
260.074800 4861.100000
261.082100 24747.000000
262.089900 11966.200000
263.097500 6361.500000

>ms2peaks
50.015200 6083.100000
51.023000 9341.100000
52.018300 16768.700000
54.033900 496859.500000
71.029100 15752.100000
75.022900 59949.700000
79.017900 9788.800000
81.044800 880903.900000
86.999600 32772.000000
93.033600 11438.800000
94.041400 14724.500000
95.029200 12001.300000
95.049200 6625.900000
97.044800 3016.100000
103.054300 4289.300000
104.049600 5863.200000
105.044700 5240.500000
109.045000 3471.900000
110.999700 20345.500000
111.044100 40914.000000
113.039800 102030.700000
121.039700 7924.000000
121.044900 7730.500000
122.040200 6541.200000
123.024100 298860.800000
123.035200 169739.000000
124.055700 2815.900000
125.015300 4490.400000
128.049500 29598.300000
129.010200 96285.000000
129.044900 11839.100000
129.057400 8396.600000
130.065100 12829.600000
133.044900 15741.700000
137.015400 4570.700000
138.994600 492390.300000
146.040200 7829.900000
146.060200 11053.600000
148.055800 21794.600000
155.060400 7192.100000
156.068300 9371.100000
157.076000 5293.300000
158.040300 6629.200000
158.060300 9736.200000
164.026400 3443.000000
164.050700 6034.400000
169.064800 14153.600000
170.052600 11388.300000
171.060700 2301.100000
175.066800 3372.300000
176.062100 51885.600000
177.070000 27328.200000
183.060700 71870.200000
184.068900 10126.300000
189.069800 15091.600000
194.052800 7878.600000
195.060900 6464.000000
196.068400 135654.600000
197.076300 5880.000000
203.061400 13402.400000
203.073000 10507.800000
204.080900 24916.100000
205.065200 14194.200000
207.060500 773468.400000
208.068500 48066.200000
209.064200 4384.000000
209.076300 6153.400000
214.065100 13389.200000
216.080700 5293.800000
217.021600 85556.000000
221.063600 6142.100000
222.071400 121728.200000
223.030800 12003.700000
223.055700 8617.700000
223.079700 8222.000000
224.087100 36606.300000
225.071000 36040.900000
232.076100 8995.300000
233.063600 5027.800000
234.071400 75252.100000
235.056300 10610.500000
235.079100 36333.100000
236.063400 35629.700000
243.037600 20162.000000
250.066300 31599.500000
251.074700 10478.900000
252.082400 3948.200000
260.075200 11188.100000
261.082600 10117.800000

