>compound LU77018435
>parentmass 334.0968
>ionization [M+H]+
>formula C14H15N5O3S
>rt 1043.880000
>profile orbitrap
#smiles_iso CC(C)OC1=C(SC2=C1C=C(C=C2)OC)C(=O)NC3=NNN=N3
#smiles_can CC(C)OC1=C(SC2=C1C=C(C=C2)OC)C(=O)NC3=NNN=N3
#inchikey TVVXHFWWAYXBNC-UHFFFAOYSA-N
#pubchem_id 159289
#mb_accession LU118701,LU118702,LU118703,LU118704,LU118705,LU118706

>ms2peaks
86.046100 22263.700000
112.025300 16018.800000
128.093100 54900.300000
154.072300 64345.300000
179.016200 23012.700000
181.031700 26564.600000
194.026700 2180.900000
207.011100 549692.800000
221.063100 64907.000000
223.078400 16982.000000
249.058000 194535.900000
264.043800 48801.300000
292.049900 939244.000000

>ms2peaks
58.040000 3999.800000
84.019200 4877.800000
86.046100 203136.600000
112.025400 78739.700000
128.093100 51078.100000
135.044500 2206.900000
139.021300 11298.700000
154.072300 17696.400000
159.080900 2635.400000
163.021300 3434.200000
178.044700 3030.400000
179.016200 193466.200000
181.031800 79181.600000
191.015600 3415.500000
191.988000 2455.400000
193.068200 42487.900000
194.027100 14689.700000
207.011100 1627859.200000
209.997900 6382.000000
221.063100 41576.800000
223.079400 2942.800000
249.019600 2505.100000
249.058100 27113.600000
264.043900 21995.000000
292.049900 55187.000000

>ms2peaks
58.040100 8597.500000
69.008300 6703.800000
84.019300 4155.700000
86.046200 326194.400000
91.054400 3053.300000
107.049300 2594.900000
112.025400 94713.700000
128.093200 9634.900000
135.044200 54092.900000
139.021300 248572.400000
151.021400 23247.900000
153.036700 11377.700000
159.080300 6767.300000
160.088000 1980.900000
163.021300 16896.200000
163.993300 2378.000000
166.008200 5732.400000
178.045000 21231.100000
179.016200 317495.600000
181.031900 54319.700000
191.016400 4069.100000
191.987700 2649.500000
193.068300 37413.700000
194.027000 16164.400000
207.011200 1182222.800000
209.998000 25664.800000
221.063400 5514.300000
249.020600 2469.400000

>ms2peaks
58.040000 11259.600000
68.979300 2459.300000
69.008300 13058.800000
79.054300 4137.000000
84.019200 3204.800000
86.046100 358439.700000
95.049200 6456.300000
107.049200 10522.100000
109.064800 3494.800000
112.025400 85721.600000
117.021500 2540.200000
119.049100 7785.400000
121.010800 2109.000000
123.997800 3504.500000
125.059700 6574.000000
128.092800 2496.900000
135.044100 138653.600000
135.997800 16661.100000
138.013400 3976.600000
139.021300 671172.900000
147.997700 2491.000000
151.021300 207635.000000
153.036900 14234.200000
159.080400 8117.600000
160.088100 3891.100000
163.021300 14664.500000
163.992700 5562.200000
166.008100 10940.400000
178.044700 30456.800000
179.016200 284286.800000
181.031800 15837.500000
191.987300 7079.400000
193.068000 7143.100000
194.027300 6389.100000
207.011100 438351.000000
209.998200 26247.400000

>ms2peaks
53.038700 6855.200000
58.040000 24811.600000
65.038600 2645.200000
67.054200 6627.900000
68.979400 2974.500000
69.008300 24148.000000
70.995000 2242.100000
78.046700 1844.600000
79.054200 15070.700000
86.046100 289082.100000
91.054200 5809.500000
92.025700 2869.000000
94.041500 1918.100000
95.049200 54640.200000
96.002900 4806.900000
97.010900 2520.800000
105.044700 5243.300000
107.049200 11935.500000
108.002800 22936.200000
109.010900 3927.600000
109.064800 7346.300000
111.026400 6949.800000
111.997700 5722.400000
112.025400 54682.000000
117.021600 3033.500000
119.049200 13120.400000
121.010700 4858.300000
123.026300 3441.600000
123.997800 24416.000000
125.059600 20595.500000
135.044100 127396.700000
135.055400 6836.400000
135.997800 114076.700000
137.005500 2100.800000
138.013300 5866.000000
139.021300 646726.600000
145.064900 4604.400000
147.998300 2775.100000
150.013600 2798.600000
151.021300 415461.500000
153.036700 5999.500000
159.080600 4599.400000
160.088300 2831.600000
163.021100 13233.900000
163.992800 25889.600000
166.008600 12623.100000
177.036800 3034.500000
178.044700 16819.900000
179.016200 127097.900000
181.031800 3575.400000
191.987500 7975.800000
207.011100 71603.500000
209.998300 16090.400000

>ms2peaks
53.038600 13895.400000
58.040000 30927.900000
65.038600 10231.200000
67.054200 16059.000000
68.979300 5777.500000
69.008300 30933.400000
70.994900 2913.400000
78.046300 6501.000000
79.054200 30438.200000
86.046100 228772.300000
91.054200 8829.000000
92.025700 9878.500000
94.041400 5982.000000
95.049200 143298.700000
96.002900 25331.500000
97.010700 7364.400000
105.044800 12635.500000
107.049300 9953.400000
108.002800 131693.800000
109.010600 6608.600000
109.064800 6009.300000
111.026500 12421.300000
111.997700 14599.900000
112.025500 32952.000000
119.049100 13365.800000
121.010700 12343.600000
123.026300 3052.700000
123.997800 63893.000000
125.059700 37042.300000
135.044000 70570.500000
135.055200 12408.800000
135.997800 316933.500000
137.005700 5999.600000
138.013500 9281.900000
139.021200 404934.700000
145.064800 3649.000000
147.997800 3936.900000
150.013300 2256.700000
151.021200 333082.200000
159.080600 3637.300000
163.021000 12084.900000
163.992600 41898.200000
166.008100 9084.900000
177.037000 3938.600000
178.044600 6011.100000
179.016200 35925.100000
191.988100 2264.700000
207.011000 11039.000000
209.998300 3060.300000

