>compound LU77838188
>parentmass 150.09130000000002
>ionization [M+H]+
>formula C9H11NO
>rt 891.540000
>profile orbitrap
#smiles_iso CC1=CC(=C(C=C1)NC=O)C
#smiles_can CC1=CC(=C(C=C1)NC=O)C
#inchikey JOFDPSBOUCXJCC-UHFFFAOYSA-N
#pubchem_id 92363
#mb_accession LU089001,LU089002,LU089003,LU089004,LU089005,LU089006

>ms2
79.054200 11911.600000
106.065200 9400.900000
107.073000 342798.400000
108.044500 18210.500000
120.080800 285101.700000
121.088700 92957.500000
122.096400 1749475.900000
132.080500 11616.900000
135.067600 16080.100000
150.091300 8110500.000000

>ms2
56.049500 9745.300000
57.057300 22538.900000
65.038600 8689.400000
80.049400 48138.900000
92.049500 168934.500000
93.057300 16798.400000
94.065200 13673.500000
105.070000 57173.100000
108.044400 1244275.000000
109.052200 53407.800000
110.060000 46850.200000
120.044500 8411.100000
120.080800 51027.900000
122.060000 20887.100000
122.096400 28798.100000
132.080800 27136.500000
133.064700 53020.500000
150.091300 5972100.500000

>ms2
77.038400 5309.300000
79.054200 49867.700000
81.069900 13969.500000
92.049400 6972.400000
93.069900 15520.300000
94.065100 5354.500000
105.069900 8208.800000
106.065100 39923.000000
107.072900 1199372.400000
108.044300 28381.500000
120.080800 896631.900000
121.088700 366344.500000
122.096400 2933673.800000
132.080600 9236.200000
135.067800 22270.300000
150.091300 4605681.000000

>ms2
53.038700 4952.600000
56.049500 3429.300000
65.038500 6088.300000
66.046400 7561.600000
67.054200 3303.200000
77.038100 11992.500000
78.046300 3883.900000
79.054200 163767.800000
80.049500 14948.400000
81.057300 7460.800000
81.070000 25741.300000
91.054200 18271.500000
92.049500 15655.400000
93.057400 3321.200000
93.069900 29718.600000
94.065100 7203.600000
95.049100 15785.100000
95.085500 9148.600000
103.054100 11330.200000
105.033600 3225.700000
105.057300 11719.100000
105.070000 18691.200000
106.065200 246898.800000
107.073000 2645478.500000
108.044300 32686.000000
109.051900 3255.800000
110.060200 5164.400000
117.057300 5726.900000
118.065100 12829.100000
120.080800 2104154.000000
121.088600 917663.400000
122.096400 2508719.500000
123.080300 10363.200000
132.080900 6259.300000
134.060100 16648.000000
135.067800 33764.200000
150.091300 1545564.600000

>ms2
50.015100 2440.700000
53.038600 21013.400000
65.038400 14480.600000
66.046400 27456.600000
67.054200 6523.400000
68.049700 3143.200000
77.038300 15880.200000
78.046300 9009.400000
79.054200 199554.600000
80.049500 27862.600000
81.057300 10693.900000
81.069900 21748.200000
91.054200 27651.300000
92.049400 21309.600000
93.057300 8887.000000
93.070000 29487.400000
94.065200 14370.000000
95.049200 54796.900000
95.085500 4138.800000
103.054200 34085.300000
104.049500 7085.300000
105.057400 26930.300000
105.070000 12275.000000
106.065200 625473.700000
107.072900 2267366.800000
108.044400 25262.800000
109.052400 2767.000000
110.059900 5922.100000
117.057300 5948.600000
118.065100 31965.600000
120.080800 2397334.000000
121.088600 839272.600000
122.096400 868413.600000
134.060000 32707.000000
135.067700 13326.900000
150.091400 278810.000000

>ms2
50.015200 2515.600000
51.022900 2584.400000
53.038600 76893.100000
56.049500 65942.900000
57.057300 114238.700000
65.038500 1034949.900000
66.046400 14743.800000
67.054100 10986.300000
74.096300 3408.200000
77.038400 6415.700000
79.054200 56801.400000
80.049400 2224415.000000
81.057200 15497.900000
81.069800 7488.100000
91.054200 23741.500000
92.049400 678145.800000
93.057300 81545.000000
94.065100 43011.600000
95.049100 48421.600000
103.054200 38938.500000
105.069900 107421.300000
106.065100 20904.800000
107.072900 33186.900000
108.044300 718085.900000
109.052200 221060.000000
110.060000 234985.200000
117.057200 66874.000000
118.065000 11460.400000
120.044400 329909.600000
120.080700 93172.900000
122.060000 19300.600000
122.096400 16379.700000
132.080700 12036.000000
133.064800 9700.400000
134.060000 19915.300000
135.067800 8880.100000
150.091300 93954.200000

