>compound LU77413594
>parentmass 313.1434
>ionization [M+H]+
>formula C19H20O4
>rt 1149.180000
>profile orbitrap
#smiles_iso CCCCOC(=O)C1=CC=CC=C1C(=O)OCC2=CC=CC=C2
#smiles_can CCCCOC(=O)C1=CC=CC=C1C(=O)OCC2=CC=CC=C2
#inchikey IRIAEXORFWYRCZ-UHFFFAOYSA-N
#pubchem_id 2347
#mb_accession LU083701,LU083702,LU083703,LU083704,LU083705,LU083706

>ms2peaks
91.054300 49952.000000
149.023400 25865.500000

>ms2peaks
91.054300 47205.500000
105.033800 4130.300000
149.023500 17207.800000

>ms2peaks
91.054300 68370.300000
105.033600 4250.800000
149.023300 20087.600000

>ms2peaks
65.038500 2031.800000
91.054300 65307.900000
105.033500 8359.100000
149.023500 9879.800000

>ms2peaks
65.038700 5398.900000
91.054300 65186.800000
105.033600 6376.800000
105.070000 2361.900000
149.023700 3647.000000

>ms2peaks
65.038600 15904.800000
91.054300 61466.200000
105.033700 5735.700000
105.070000 2020.800000

