>compound LU78670010
>parentmass 230.17509999999996
>ionization [M+H]+
>formula C12H23NO3
>rt 1016.460000
>profile orbitrap
#smiles_iso CCC(C)OC(=O)N1CCCCC1CCO
#smiles_can CCC(C)OC(=O)N1CCCCC1CCO
#inchikey QLHULAHOXSSASE-UHFFFAOYSA-N
#pubchem_id 125098
#mb_accession LU045901,LU045902,LU045903,LU045904,LU045905,LU045906

>ms2peaks
112.112000 2959.900000
130.122700 256617.000000
156.102000 22715.100000
174.112500 25529.000000

>ms2peaks
71.049100 1930.900000
84.080700 2625.600000
95.085700 2391.300000
112.112100 11445.800000
128.070500 3931.500000
130.122700 306548.200000
156.102100 17659.800000
173.094200 4545.000000
174.112200 8231.100000

>ms2peaks
57.069900 1929.200000
67.054200 4638.800000
69.069700 1589.200000
71.049100 11999.200000
84.080700 7466.400000
95.085600 17913.100000
112.112100 26889.700000
113.096100 8185.000000
128.070700 8462.100000
130.122700 200593.400000
156.102100 7441.000000
173.093700 6177.100000

>ms2peaks
55.054300 3581.300000
56.049600 3046.200000
57.070000 2767.800000
67.054200 18160.600000
69.070000 5469.700000
70.065200 5468.400000
71.049200 18482.600000
84.080900 15386.900000
93.070100 4575.300000
95.085600 31266.300000
112.112100 30038.300000
113.095900 8255.400000
128.070600 10825.000000
130.122700 81658.400000
173.094200 3492.500000

>ms2peaks
55.054300 9332.400000
56.049500 4077.800000
57.069900 4726.500000
67.054300 32044.100000
69.069800 5586.100000
70.065100 9583.100000
71.049200 16707.300000
84.080800 23364.800000
93.069900 5085.800000
95.085600 21371.900000
112.112300 12807.800000
113.095900 3811.100000
128.070600 6627.600000
130.122800 22363.200000

>ms2peaks
55.054300 12971.600000
56.049500 7324.400000
67.054200 34723.200000
69.069800 2888.100000
70.065200 6738.300000
71.049200 11423.000000
84.080900 19929.900000
93.070000 2727.800000
95.085600 12333.200000
112.112300 5624.700000
128.070700 3393.700000
130.122900 3611.300000

