>compound LU78184679
>parentmass 181.072
>ionization [M+H]+
>formula C7H8N4O2
>rt 590.850000
>profile orbitrap
#smiles_iso CN1C=NC2=C1C(=O)NC(=O)N2C
#smiles_can CN1C=NC2=C1C(=O)NC(=O)N2C
#inchikey YAPQBXQYLJRXSA-UHFFFAOYSA-N
#pubchem_id 5429
#mb_accession LU094101,LU094102,LU094103,LU094104,LU094105,LU094106

>ms2
69.044700 3385.500000
96.055700 4903.400000
124.050600 169182.100000
137.082500 9287.300000
142.061300 10314.100000
149.023300 69919.000000
163.039000 39588.500000
181.072000 1949484.000000

>ms2
69.044700 4391.100000
96.055400 8809.400000
124.050600 287715.300000
137.082300 14932.000000
142.061100 16773.100000
149.023300 96621.200000
163.039000 51240.900000
181.072000 2275001.200000

>ms2
69.044700 36230.800000
83.024000 2823.500000
93.044800 2410.800000
96.055700 104472.100000
97.039800 4692.900000
108.055600 7222.000000
110.071400 10165.900000
120.055600 5509.800000
121.028400 7387.300000
122.058900 2725.200000
124.050600 1004505.800000
133.028300 5090.400000
135.044100 3561.800000
137.082200 33211.900000
142.061200 76497.600000
149.023400 92477.000000
163.039000 44343.100000
163.061200 3026.500000
167.056300 6790.700000
181.072100 1049868.800000

>ms2
65.038600 6000.000000
69.044700 184743.700000
79.054300 1849.400000
81.044700 6810.900000
83.024100 19017.200000
83.060500 3096.200000
91.054300 2110.300000
93.033600 2948.400000
93.044900 11012.500000
94.040100 12194.400000
95.023900 2420.300000
95.049300 3123.100000
96.055700 342099.200000
97.039600 17992.300000
108.055700 12512.700000
109.027300 5731.300000
110.071400 16231.200000
111.044200 2968.400000
112.050400 1978.600000
113.035000 3245.400000
120.055700 11859.200000
121.028400 19749.700000
121.039700 5360.100000
122.058500 5364.400000
124.050700 1302068.900000
126.066300 2449.000000
133.028500 6687.600000
135.044100 11400.800000
137.082200 27265.600000
140.045900 4303.300000
142.061200 142050.000000
149.023400 55787.200000
163.039200 20779.100000
163.061600 6703.800000
167.056100 8049.800000
181.072100 323459.200000

>ms2
56.049500 7980.800000
65.038600 11125.300000
67.029000 89963.800000
69.044700 47315.100000
79.029100 2754.600000
79.054200 3923.500000
81.044700 4327.300000
83.060300 20826.500000
93.070000 2920.800000
94.040000 7386.000000
95.049000 6239.300000
96.055700 15442.200000
108.055600 56295.800000
109.039700 4385.800000
110.071300 46534.700000
113.034600 5306.000000
121.028500 11065.000000
121.039800 4606.300000
122.058700 39584.500000
123.042800 7271.800000
133.028500 3890.200000
135.044100 3218.800000
135.066600 28107.600000
137.082300 17705.500000
138.066200 41365.500000
148.037900 2055.500000
149.023400 11852.200000
163.039400 3355.300000
163.061500 24951.300000
167.055500 5999.300000
181.071900 38597.800000

>ms2
65.038600 49979.000000
69.044700 378925.100000
79.054300 3531.200000
81.044800 13922.300000
83.024000 29406.900000
83.060400 2622.300000
91.054200 2350.500000
93.033500 5580.700000
93.045000 7932.300000
94.040000 31757.600000
95.024000 6284.700000
95.049200 13276.900000
96.055600 244268.800000
97.039700 14973.600000
108.055700 5066.600000
109.027100 35026.000000
110.071400 3851.300000
111.044100 7258.100000
112.050900 2495.400000
113.034600 4138.900000
121.028300 11753.400000
121.039700 8817.300000
122.058700 4945.000000
124.050600 224908.400000
126.066200 2201.400000
133.028400 4822.900000
135.044000 4066.000000
137.082500 1817.300000
140.045600 5189.000000
142.061100 28025.200000
149.023600 8795.000000
163.038600 1595.400000
167.056300 3611.700000
181.071800 4877.700000

