>compound LU78389253
>parentmass 199.0633
>ionization [M+H]+
>formula C9H11ClN2O
>rt 909.180000
>profile orbitrap
#smiles_iso CN(C)C(=O)NC1=CC=C(C=C1)Cl
#smiles_can CN(C)C(=O)NC1=CC=C(C=C1)Cl
#inchikey BMLIZLVNXIYGCK-UHFFFAOYSA-N
#pubchem_id 8800
#mb_accession LU044601,LU044602,LU044603,LU044604,LU044605,LU044606

>ms2
72.044300 2867115.000000
74.096300 78414.800000
100.075600 20768.300000
126.010700 5127.900000
154.005300 27291.600000
199.063100 3348650.200000

>ms2
56.013100 3750.800000
72.044300 3565099.500000
74.096400 137261.500000
83.085500 4032.900000
100.075700 42779.300000
126.010500 13973.400000
154.005300 52308.200000
199.063200 2022961.500000

>ms2
56.013100 9836.400000
72.044400 4315145.000000
74.096400 99015.500000
83.085500 8492.900000
100.075700 27157.100000
126.010500 145485.600000
154.005400 103257.900000
199.063200 231326.800000

>ms2
55.054200 10500.100000
56.013100 25352.300000
72.044400 4448308.000000
74.096400 84956.200000
83.085400 9962.900000
97.007600 5551.200000
98.999600 11481.100000
100.075700 16636.700000
126.010600 400593.400000
129.010300 4662.600000
154.005500 65913.700000

>ms2
55.054300 15985.500000
56.013100 51927.300000
72.044400 3973650.500000
74.096400 46088.000000
83.085600 8349.000000
90.034000 9004.600000
91.041700 4909.300000
97.007600 18962.900000
98.999600 72286.400000
111.023400 5576.700000
126.010600 430682.500000
129.010200 9422.700000
139.005800 18219.300000
154.005500 19214.000000

>ms2
55.054300 21833.900000
56.013100 82394.200000
72.044400 3251183.000000
74.096400 24686.700000
90.033900 23292.000000
91.041600 11596.400000
97.007700 31967.700000
98.999600 191133.700000
111.023300 8047.700000
126.010500 370929.300000
129.010100 19946.000000
139.005800 38753.500000

