>compound LU78337700
>parentmass 409.137
>ionization [M+H]+
>formula C20H19F3N2O4
>rt 1139.580000
>profile orbitrap
#smiles_iso CC(=NOCC1=CC=CC=C1C(=NOC)C(=O)OC)C2=CC(=CC=C2)C(F)(F)F
#smiles_can CC(=NOCC1=CC=CC=C1C(=NOC)C(=O)OC)C2=CC(=CC=C2)C(F)(F)F
#inchikey ONCZDRURRATYFI-UHFFFAOYSA-N
#pubchem_id 213016
#mb_accession LU111201,LU111202,LU111203,LU111204,LU111205,LU111206

>ms2
105.069900 58341.200000
116.049500 1058291.900000
117.057600 18843.500000
118.065100 14332.400000
119.049000 16448.600000
130.065100 9139.600000
131.072900 365893.900000
132.080800 569831.900000
134.060000 258825.300000
145.025400 40592.400000
146.060100 94275.600000
147.067800 23065.800000
148.075800 54240.400000
162.091300 304490.700000
186.052500 8396133.000000
192.064900 22084.300000
200.067900 12234.600000
206.081100 4638561.000000

>ms2
79.054200 9622.700000
89.038400 22125.000000
91.054200 53418.500000
103.054100 13500.600000
105.069800 168558.900000
109.064800 11833.800000
115.054300 8821.000000
116.049400 1561915.800000
117.057200 79382.800000
118.065100 133169.300000
119.049100 55197.000000
119.072700 43535.600000
130.065100 54333.900000
131.072900 1189807.500000
132.044400 76961.600000
132.080700 1007215.100000
133.052100 12882.600000
134.060000 387607.300000
145.025700 139195.300000
146.060000 791140.100000
147.067800 96352.000000
148.075600 105037.500000
149.047000 13445.900000
161.047100 57681.500000
162.091300 135647.000000
163.036400 18503.800000
173.032200 100659.500000
174.055100 32642.400000
175.062800 126886.400000
178.086300 78498.400000
186.052500 8738828.000000
200.068200 11926.100000
206.081100 2266498.500000

>ms2
65.038600 7053.600000
66.046400 8084.900000
71.029200 10623.500000
74.096500 6743.600000
79.054200 39404.700000
89.038500 103082.400000
90.046300 12363.200000
91.054200 285594.000000
95.048900 7952.400000
101.019700 42741.200000
103.054300 48379.000000
104.049500 8086.600000
104.061900 10076.100000
105.069900 168121.100000
109.064800 39174.200000
115.054200 30050.500000
116.049500 1518091.200000
117.057300 324502.300000
118.065100 327941.900000
119.049200 117505.300000
119.060400 15847.700000
119.073000 29972.100000
121.025900 13050.500000
128.049700 20922.400000
130.065200 187578.800000
131.073000 1487221.900000
132.044400 245276.000000
132.080800 691841.700000
133.052100 26613.900000
134.060000 377625.400000
143.030300 56496.200000
143.036600 15933.100000
144.044400 20852.100000
145.025900 1582218.100000
146.060000 1009071.900000
147.067800 240263.800000
148.039200 10475.400000
148.075700 122311.300000
149.047200 46300.700000
159.042100 19275.800000
161.047100 253916.500000
162.091500 21106.200000
163.036500 130794.300000
173.032100 760319.400000
174.055000 48068.300000
175.062900 102482.900000
178.086200 64446.800000
180.061400 7206.800000
186.052500 6122026.500000
191.057600 7582.000000
204.063000 6287.400000
206.081200 364759.200000

>ms2
53.038600 9488.700000
63.022900 17966.500000
65.038500 34712.300000
66.046400 37571.200000
71.029100 20246.500000
75.022800 9299.200000
78.046300 10908.000000
79.054200 59333.700000
89.038600 439647.700000
90.046400 82344.900000
91.054200 695253.400000
92.062200 7084.300000
94.041300 9212.200000
95.029000 7148.800000
95.049100 35027.900000
99.024100 13156.500000
101.019700 69040.500000
103.054200 102054.800000
104.049500 24536.700000
104.062100 40229.800000
105.033600 16341.500000
105.044700 12850.500000
105.057400 15518.900000
105.069900 154149.000000
107.049200 7965.700000
109.044800 17530.100000
109.064700 45445.600000
113.039800 29698.400000
115.041800 21605.600000
115.054300 45059.400000
116.049500 1734461.000000
117.057300 754562.400000
118.041300 39832.500000
118.065100 590420.100000
119.049200 149263.500000
119.060100 26010.300000
119.073000 15362.000000
121.026200 16241.200000
121.064700 9580.600000
123.035300 35463.300000
125.019600 26016.600000
128.049400 34430.800000
130.065200 555356.700000
131.073000 1576479.900000
132.044400 433281.300000
132.080700 349025.800000
133.052300 49232.900000
134.060000 308161.200000
143.030300 92344.200000
143.036700 26598.400000
144.044300 21357.100000
145.025900 6025822.500000
146.060000 625219.300000
147.067800 182726.000000
148.075600 99857.400000
149.047100 48445.100000
159.042000 28916.100000
161.047200 351902.300000
163.036500 219526.600000
166.046400 10258.900000
173.032100 1146584.500000
174.055000 14356.600000
175.063100 24353.400000
178.086200 17301.400000
186.052500 2839040.200000
191.058000 6373.200000
206.080600 27465.200000

>ms2
53.038700 18396.400000
55.017800 7591.400000
63.022800 44175.000000
65.038500 86381.400000
66.046400 83480.400000
68.025600 9399.500000
71.029100 25044.500000
75.004000 13970.400000
75.022900 44288.700000
77.038500 7801.100000
78.046400 29475.300000
79.054200 67798.500000
81.033500 13089.600000
89.038600 827429.900000
90.033900 22350.100000
90.046400 189836.000000
91.041800 48787.900000
91.054200 756620.800000
92.025700 8604.900000
92.062100 8897.600000
94.041200 13802.700000
95.010300 11324.600000
95.029100 22873.500000
95.049200 67738.700000
99.024000 7967.500000
101.019600 20698.900000
103.054200 92010.300000
104.049400 58757.300000
104.062000 62466.000000
105.033500 18398.300000
105.044700 25919.900000
105.057300 13560.900000
105.069900 76971.900000
109.044900 22129.500000
109.064800 35986.700000
113.039700 162988.600000
114.033900 8637.600000
115.035100 8078.100000
115.041700 78734.500000
115.054200 30841.600000
116.049500 1113787.800000
117.057300 666349.600000
118.041300 32476.600000
118.065100 492451.500000
119.010400 14136.600000
119.049100 88185.100000
119.060500 16772.200000
123.035300 195315.400000
125.019700 137364.000000
128.049400 26318.500000
130.065200 707013.400000
131.073000 792222.200000
132.044400 335003.100000
132.080700 110827.300000
133.052200 47155.600000
134.060000 178653.500000
143.030300 40626.200000
143.036600 15567.000000
144.044200 15445.700000
145.025900 6665857.000000
146.059900 227151.600000
147.067900 49691.400000
148.075700 70332.800000
159.041600 15311.900000
161.047200 148572.000000
163.036500 68513.900000
166.046000 7836.000000
171.036500 8011.900000
173.032100 384162.300000
186.052600 441238.500000

>ms2
50.015200 11194.400000
51.023000 10500.600000
53.038600 49221.000000
55.017900 7162.300000
57.013500 30245.100000
62.015000 9183.800000
63.022900 124113.100000
65.038600 256920.200000
66.046400 120498.200000
68.025600 11585.000000
71.029100 95285.500000
75.004000 78994.900000
75.022900 228849.200000
77.038600 28958.800000
78.046400 72005.800000
79.017800 31236.400000
79.054200 71282.500000
81.033500 9288.100000
89.038600 1519031.000000
90.033800 52111.200000
90.046400 415985.700000
91.041700 63984.300000
91.054300 910487.200000
92.025700 7489.200000
92.062200 7264.800000
94.041400 19711.800000
95.010400 55110.600000
95.029100 112901.200000
95.049200 136467.800000
99.004000 30704.900000
99.024200 11767.800000
101.019800 12942.900000
103.054300 174925.800000
104.049500 132703.000000
104.062100 68591.100000
105.033500 30228.200000
105.044700 57852.800000
105.057300 11183.300000
105.070000 45204.600000
107.049000 10607.000000
109.044900 33852.600000
109.064800 25659.900000
113.039700 547565.400000
114.033900 25868.000000
115.035600 21102.700000
115.041700 191935.200000
115.054400 33690.500000
116.049500 1101406.000000
117.057300 672182.900000
118.041300 46900.200000
118.065100 507155.300000
119.010400 59919.100000
119.049100 54360.000000
119.060400 11661.300000
122.036300 14551.900000
123.035300 665659.500000
125.019800 490788.600000
128.049500 25358.600000
130.065200 861886.200000
131.073000 435657.400000
132.044400 286270.000000
132.080800 38323.400000
133.052300 38995.000000
134.060000 130782.200000
143.030400 36437.700000
143.036400 7982.100000
144.044300 6758.300000
145.026000 6503089.000000
146.059900 110109.000000
147.067900 11402.100000
148.075600 73509.500000
159.041700 8544.000000
161.047200 59815.000000
163.036400 16435.400000
171.036600 24904.100000
173.032200 97911.300000
186.052600 68683.400000

