>compound LU78344440
>parentmass 340.0205
>ionization [M+H]+
>formula C15H11ClFNO3S
>rt 1006.320000
>profile orbitrap
#smiles_iso C1=CC=C(C=C1)/C=C/S(=O)(=O)NC(=O)C2=C(C=C(C=C2)F)Cl
#smiles_can C1=CC=C(C=C1)C=CS(=O)(=O)NC(=O)C2=C(C=C(C=C2)F)Cl
#inchikey AUMLVMKWJGCERZ-CMDGGOBGSA-N
#pubchem_id 15603288
#mb_accession LU073601,LU073602,LU073603,LU073604,LU073605,LU073606

>ms2peaks
103.054200 57922.900000
156.001000 7535.400000
156.985100 1264347.000000
166.032200 6097.500000
167.016200 398342.500000
174.011900 3173.900000
185.026900 3076.000000

>ms2peaks
95.049100 5214.300000
102.047000 2042.800000
103.054200 890969.100000
118.041600 3303.700000
121.064900 4318.300000
135.080300 4143.400000
156.001000 18023.200000
156.985100 842192.600000
166.032300 4913.900000
167.016200 421122.100000
174.011900 8606.100000
185.026700 5182.000000

>ms2peaks
53.038600 6052.200000
77.038500 3212.400000
95.049200 21605.700000
102.046400 5143.800000
103.054300 1357482.200000
105.044800 7316.400000
118.041700 3293.700000
121.064600 4093.000000
135.080600 2661.800000
156.001300 12207.700000
156.985200 586194.500000
167.016200 47751.400000
174.011700 8250.900000

>ms2peaks
50.015100 2118.000000
51.023000 4200.900000
53.038600 31487.300000
55.017800 1979.600000
77.038500 12226.900000
84.983900 7022.600000
94.041400 3249.900000
95.049200 94132.600000
102.046400 16047.000000
103.054300 1473936.800000
105.044800 40531.100000
109.064900 2248.300000
111.024100 6578.400000
112.031800 4882.900000
118.041200 2629.000000
128.990000 3173.700000
143.050200 2254.500000
147.000300 6280.000000
148.030500 3211.100000
156.000900 14708.300000
156.985200 501641.300000
165.070100 4701.600000

>ms2peaks
50.015200 4619.100000
51.022900 9982.900000
53.038600 82007.900000
55.017800 4436.500000
74.015000 1966.400000
77.038600 24377.500000
79.054200 2442.400000
81.033600 6308.800000
84.984000 11438.200000
86.963300 3782.400000
91.054300 5095.200000
94.041400 6182.700000
95.049200 222191.000000
102.046400 35620.600000
103.054300 998364.100000
104.990100 4857.900000
105.044800 92672.100000
108.984100 12786.200000
112.031900 10424.300000
118.041100 3166.400000
121.064800 2624.600000
128.990200 15974.900000
129.034700 4552.000000
143.050400 2739.000000
147.000800 13735.600000
148.030700 3326.600000
156.001200 5325.800000
156.985300 254489.000000
156.996500 154607.100000
165.070100 5487.300000
167.086000 4022.500000

>ms2peaks
50.015200 8004.400000
51.023000 22019.900000
53.038600 149084.500000
55.017900 8766.400000
74.015200 8603.700000
77.038600 62052.900000
79.054300 3524.400000
81.033500 18636.400000
84.984100 23515.100000
86.963200 12891.100000
91.054300 6172.900000
94.041400 15124.200000
95.049200 424560.600000
102.046500 42018.500000
103.054300 662774.900000
104.990300 8693.000000
105.044800 169269.100000
108.984000 63660.100000
109.064900 4357.700000
111.024100 29135.500000
112.032000 16898.100000
128.990200 45175.100000
129.034800 4577.100000
147.000900 23329.700000
148.030400 6501.900000
156.985300 99076.800000
156.996500 228727.500000
165.070100 8485.100000
167.086100 3969.000000

