>compound LU78260348
>parentmass 241.977
>ionization [M+H]+
>formula C10H5Cl2NO2
>rt 901.620000
>profile orbitrap
#smiles_iso C1=CC(=C(C2=NC=C(C=C21)Cl)C(=O)O)Cl
#smiles_can C1=CC(=C(C2=NC=C(C=C21)Cl)C(=O)O)Cl
#inchikey FFSSWMQPCJRCRV-UHFFFAOYSA-N
#pubchem_id 91739
#mb_accession LU064701,LU064702,LU064703,LU064704,LU064705,LU064706

>ms2
95.012500 2435.200000
165.938200 72509.400000
167.953800 2646.000000
168.961600 11606.900000
178.945800 2268.400000
179.953900 13397.500000
180.961700 22338.500000
181.969500 18762.300000
182.977100 3977.100000
183.948700 51285.600000
185.964300 2830.300000
194.977800 4349.700000
195.984800 5958.800000
196.956300 2995.900000
197.964100 10089.700000
209.964400 144549.900000
223.966500 574443.400000
227.975100 34545.700000
241.977100 521395.600000

>ms2
84.959500 2436.900000
141.937800 2732.000000
153.938200 11594.300000
161.002700 2694.000000
165.938200 55591.100000
167.953900 4438.200000
168.961700 25551.700000
178.946200 9349.900000
179.954000 11546.600000
180.961700 70612.400000
181.969600 22407.600000
182.977500 5088.500000
183.948800 39258.600000
185.963800 4295.400000
194.977300 12161.600000
195.985000 5773.000000
196.956500 10356.400000
197.964400 9129.000000
209.964600 17909.100000
223.966600 665281.200000
227.974900 8077.500000
241.977200 392518.200000

>ms2
84.959700 14805.700000
95.012600 2915.900000
102.970400 1756.200000
141.938300 3719.500000
153.938300 8771.200000
161.003000 7365.700000
165.938000 10799.700000
167.954200 4126.500000
168.961700 15356.100000
178.946100 6539.400000
180.961600 42818.900000
181.969400 3343.600000
182.977400 6771.200000
183.948900 3844.500000
194.977700 9654.400000
195.971300 3408.000000
196.956700 7244.600000
197.964900 2380.400000
213.982000 38267.100000
223.966500 693633.300000
241.977100 370175.300000

>ms2
84.959900 16775.800000
95.012700 1781.400000
153.937900 6918.700000
161.002800 152631.800000
165.938200 2097.300000
168.961900 10879.100000
180.961900 9614.500000
182.977300 4894.800000
195.971800 54125.400000
213.982300 262667.900000
223.966700 482314.200000
241.977300 260289.900000

>ms2
84.959700 19172.700000
102.970300 4546.800000
124.018300 2738.000000
142.029000 2321.800000
153.938200 4353.500000
159.994900 6060.700000
161.002800 573574.800000
168.961400 10625.300000
178.005400 8640.200000
182.977700 2970.200000
195.971700 91870.000000
213.982300 260280.300000
223.966700 137888.000000
241.977200 80510.000000

>ms2
84.959800 14374.500000
102.970600 1796.700000
124.018300 29824.600000
142.028700 10729.400000
159.995000 16569.600000
161.002800 945156.800000
168.961400 5997.600000
178.005500 19312.800000
195.971800 62754.700000
213.982200 100124.900000
223.966800 23500.600000
241.977200 14194.300000

