>compound LU78641192
>parentmass 287.2006
>ionization [M+H]+
>formula C19H26O2
>rt 1039.260000
>profile orbitrap
#smiles_iso C[C@]12CCC(=O)C=C1CC[C@@H]3[C@@H]2CC[C@]4([C@H]3CCC4=O)C
#smiles_can CC12CCC(=O)C=C1CCC3C2CCC4(C3CCC4=O)C
#inchikey AEMFNILZOJDQLW-QAGGRKNESA-N
#pubchem_id 6128
#mb_accession LU039601,LU039602,LU039603,LU039604,LU039605

>ms2peaks
83.049200 4992.000000
97.064800 126660.600000
109.064800 48751.500000
123.080300 4287.500000
173.132700 2245.600000
185.132500 2913.100000
187.147900 2443.900000
211.147800 2832.300000
251.179700 3766.900000
269.190100 17286.600000
287.200500 1497258.000000

>ms2peaks
79.054300 3272.000000
81.070000 4895.800000
83.049200 30834.300000
93.069900 2778.300000
95.085500 2757.300000
97.064900 709821.800000
105.069900 1759.900000
107.085500 4997.700000
109.064900 349182.900000
119.085600 7039.900000
121.101200 6678.100000
123.080500 30531.800000
131.085600 2144.900000
133.101200 6155.900000
135.117000 3175.900000
137.096000 2230.400000
143.085300 2505.200000
145.101400 10798.500000
147.116800 8233.900000
157.101200 4028.700000
159.116900 9298.500000
161.132700 5049.000000
169.101300 3209.600000
171.116900 5201.200000
173.132500 19235.400000
183.116900 5138.400000
185.132500 14315.600000
187.148400 9577.500000
195.117200 3988.600000
209.132700 4687.200000
211.148400 23378.900000
217.158800 8433.200000
225.164200 4394.000000
229.159000 10952.600000
251.179600 23845.500000
269.190000 53734.700000
287.200700 581913.900000

>ms2peaks
69.069800 2515.300000
79.054300 7773.800000
81.069900 7878.600000
83.049200 11704.800000
93.069900 5115.300000
95.085600 4241.200000
97.064900 379690.600000
105.070000 3313.200000
107.085600 4082.500000
109.064900 268930.400000
111.080400 2123.500000
119.085600 6572.600000
121.064600 2621.600000
121.101400 4235.300000
123.080500 24628.200000
131.085500 4585.500000
133.101100 8194.000000
135.117500 2041.200000
137.096500 2593.900000
143.085600 2407.000000
145.101400 8461.500000
147.117000 3487.500000
157.101300 2780.300000
159.116800 5534.700000
161.133000 2024.900000
169.101200 4101.700000
171.117000 2743.900000
173.132800 11177.700000
183.117200 3117.200000
185.132300 7177.700000
187.148100 4074.800000
195.116500 2813.900000
209.132000 2981.900000
211.148500 8301.400000
217.158600 1683.900000
225.164400 2182.300000
229.158500 4765.800000
251.179900 4509.400000
269.189400 7251.900000
287.201100 15120.200000

>ms2peaks
53.038600 4531.000000
55.017900 14430.600000
55.054300 5186.400000
65.038600 2124.800000
67.054200 21764.200000
69.069900 22744.200000
79.054200 72943.400000
81.069900 67811.900000
83.049200 35318.600000
91.054300 17327.800000
93.069900 20907.100000
95.049200 6613.600000
95.085500 21037.800000
97.064800 873443.500000
105.069900 23671.400000
107.049100 2461.500000
107.085600 16541.400000
109.064900 653385.700000
111.080500 3444.000000
117.069900 9430.000000
119.085600 20037.700000
121.064700 4388.600000
121.101300 9993.300000
123.080500 68812.300000
131.085600 19253.700000
133.101200 21734.700000
143.085500 8595.600000
145.101200 23976.800000
147.116800 8993.000000
155.085500 4271.400000
157.101500 8756.900000
159.116900 15413.500000
161.132300 3281.300000
169.101000 8622.700000
171.116800 6742.000000
173.132600 13505.400000
183.116800 7447.600000
185.132700 9716.000000
187.147600 4448.200000
195.116600 2451.300000
209.131600 2837.600000
211.147800 8573.700000
229.157700 2667.000000

>ms2peaks
53.038700 3039.200000
55.017900 9674.500000
55.054300 3137.400000
65.038500 2138.200000
67.054300 15031.400000
69.069900 14305.800000
79.054300 57926.700000
81.069900 47265.000000
83.049100 9521.000000
91.054200 17995.300000
93.069800 11609.200000
95.049200 7792.800000
95.085600 8103.400000
97.064900 245402.200000
105.070000 12849.200000
107.049400 2013.600000
107.085400 3572.000000
109.064900 176698.600000
117.069900 6754.600000
119.085600 6241.600000
123.080400 20264.400000
131.085700 6340.200000
133.101400 5194.800000
143.086000 3317.700000
145.101500 4861.800000
155.085800 2243.900000
157.101400 3427.700000
159.117400 2409.600000
169.101100 3807.000000

