>compound LU78814902
>parentmass 330.0804
>ionization [M+H]+
>formula C17H13ClFN3O
>rt 1082.040000
>profile orbitrap
#smiles_iso C1=CC=C(C(=C1)C2C(O2)(CN3C=NC=N3)C4=CC=C(C=C4)F)Cl
#smiles_can C1=CC=C(C(=C1)C2C(O2)(CN3C=NC=N3)C4=CC=C(C=C4)F)Cl
#inchikey ZMYFCFLJBGAQRS-UHFFFAOYSA-N
#pubchem_id 3317081
#mb_accession LU023801,LU023802,LU023803,LU023804,LU023805,LU023806

>ms2peaks
70.039900 259100.200000
121.044800 2669105.000000
123.024000 1274801.000000
138.994400 23640.700000
141.010200 514971.800000
190.077500 24196.600000
261.048100 42397.100000
330.080400 8888440.000000

>ms2peaks
70.039900 1039276.600000
75.022900 12610.500000
91.054200 15518.400000
95.028700 15967.800000
109.044800 26483.200000
113.039800 11595.100000
119.049200 15163.400000
121.044800 10510485.000000
123.023900 2767535.500000
129.044600 53751.800000
138.994400 131096.900000
141.010100 1275141.800000
165.009900 16246.200000
190.077400 24533.500000
231.037400 11559.700000
233.052700 16011.400000
261.047400 26410.100000
276.093600 12801.500000
312.069700 11201.400000
330.080300 456495.900000

>ms2peaks
70.039900 1140607.500000
75.022700 41067.700000
77.038500 30772.800000
91.054200 102111.200000
95.028800 18042.200000
95.049100 36653.400000
101.038500 33998.600000
105.044700 16334.600000
109.044700 34770.200000
113.015200 126280.300000
113.039800 54552.600000
119.049200 81399.800000
121.044800 10604376.000000
123.023900 2472381.800000
129.044700 370070.500000
137.015500 15398.900000
138.994400 149620.000000
141.010100 757561.800000
190.077300 11399.400000
198.084100 20170.200000
231.037200 16896.500000

>ms2peaks
51.023000 10630.300000
53.002200 9382.800000
53.038600 38162.900000
55.017900 10780.800000
70.039900 1205729.900000
71.029100 33802.700000
75.022800 162496.700000
91.054200 430487.600000
95.028800 24899.600000
95.049100 124101.300000
101.038500 149053.300000
105.033300 15844.200000
105.044700 53176.700000
109.044700 45289.000000
111.044000 11494.100000
113.015200 202553.400000
113.039600 189096.300000
118.041500 13203.400000
119.049200 356979.800000
121.044700 8717767.000000
123.023900 1906116.500000
123.034800 403985.200000
129.044600 1478018.800000
130.041500 15155.200000
137.015200 17546.200000
138.994400 124202.200000
141.010000 274524.400000
183.060400 12241.500000
196.068200 33325.000000
197.076300 16498.300000
198.083800 13976.700000

>ms2peaks
50.015200 8671.600000
51.022800 14436.100000
53.002100 20169.800000
53.038600 87460.500000
55.017900 17803.300000
70.039900 1199897.800000
71.029100 77445.900000
74.014900 33631.300000
74.096200 5917.900000
75.022900 577866.300000
77.038500 311222.000000
79.017800 38798.900000
79.054200 5500.300000
81.033400 12097.200000
83.029000 5863.700000
83.047800 5579.000000
86.999500 7822.800000
91.054200 770601.100000
93.033500 10038.100000
95.029100 64739.600000
95.049100 260492.900000
99.024000 17917.400000
101.038500 418514.400000
102.046400 10883.900000
105.033500 30828.700000
105.044700 102156.300000
109.044800 41953.500000
111.044000 22928.500000
112.031900 8427.200000
113.015200 158372.300000
113.039700 470676.800000
118.041400 30651.000000
119.049200 934135.900000
120.036700 17161.400000
121.044700 5306956.000000
123.024100 1048579.200000
123.035000 823110.100000
124.032300 7062.000000
125.015000 6774.900000
129.044600 2931207.500000
137.015200 9224.500000
138.994400 62850.300000
139.005500 49562.700000
141.010100 81227.000000
177.070400 6399.000000
178.077500 8241.200000
183.060400 18984.200000
184.068100 6138.500000
196.068300 41680.100000
197.075700 19385.500000

>ms2peaks
50.015200 9583.300000
51.022800 15765.500000
53.002200 25569.000000
53.038600 78025.500000
55.017800 22792.100000
63.022900 4629.500000
65.038500 38104.700000
66.046200 4485.800000
70.039900 988697.800000
71.029100 101076.800000
74.015000 75430.400000
75.022900 1415789.800000
76.030600 5254.400000
77.038500 337583.100000
79.017800 46953.400000
79.054300 7503.100000
81.033600 14670.400000
82.039800 3274.000000
83.029100 9854.000000
86.999600 5374.900000
91.054200 696414.300000
92.025700 4620.700000
93.033500 12812.000000
94.041500 12756.700000
95.029100 128313.200000
95.049100 277136.300000
99.024100 22315.600000
101.038600 631953.200000
102.046500 9442.800000
103.054300 5763.700000
104.025600 2962.500000
105.033500 38797.800000
105.044700 101413.600000
105.069900 9912.200000
109.044800 35936.300000
111.044100 28286.200000
112.031900 11329.500000
113.015200 53072.200000
113.039700 598767.600000
118.041400 31852.600000
119.049200 1085173.200000
120.036900 23084.600000
121.044800 2042275.600000
123.024200 357741.100000
123.035200 947109.000000
124.032400 6040.000000
125.015100 6157.800000
129.044600 2805908.800000
130.041500 20267.400000
133.064900 8787.700000
138.994800 20325.700000
139.005600 55945.800000
141.010000 11373.000000
178.077600 3911.600000
183.060400 24934.500000
194.052600 5335.700000
196.068200 43705.800000
197.076100 9877.600000

