>compound LU78140338
>parentmass 245.0954
>ionization [M+H]+
>formula C10H16N2O3S
>rt 714.780000
>profile orbitrap
#smiles_iso C1[C@H]2[C@@H]([C@@H](S1)CCCCC(=O)O)NC(=O)N2
#smiles_can C1C2C(C(S1)CCCCC(=O)O)NC(=O)N2
#inchikey YBJHBAHKTGYVGT-ZKWXMUAHSA-N
#pubchem_id 171548
#mb_accession LU132801,LU132802,LU132803,LU132804,LU132805,LU132806

>ms2peaks
97.011000 3226.100000
97.040100 3350.300000
167.053000 4145.800000
199.090000 3555.300000
209.074700 6088.000000
227.084900 2714155.800000
245.095600 1268629.600000

>ms2peaks
61.039600 7831.800000
76.021400 4717.800000
97.039600 34394.000000
121.065000 3639.300000
123.026400 10288.700000
125.042000 6064.000000
139.057800 7806.600000
143.027300 5788.600000
149.042000 5774.400000
150.091400 4989.200000
166.068500 32203.200000
167.052600 49964.700000
184.079100 31881.900000
185.074400 3755.300000
192.047900 7606.300000
199.090100 34387.100000
209.074400 63644.200000
227.084900 3415249.500000
245.095500 257394.100000

>ms2peaks
55.054300 4122.700000
56.049400 2541.700000
61.010600 6020.000000
61.039600 33799.700000
67.054200 13385.200000
69.069700 3225.000000
76.021500 16493.300000
79.021100 3370.300000
79.054000 4520.100000
81.069900 6962.900000
82.028800 5649.400000
83.049100 2737.400000
85.010500 8084.200000
86.005900 3488.600000
87.026400 2863.400000
91.054200 3879.400000
95.085600 4013.400000
97.010700 20269.300000
97.039600 154301.200000
98.096500 10754.300000
99.026400 3029.300000
99.055300 4912.600000
100.021400 10367.800000
101.041900 2914.600000
102.000700 7139.100000
105.069900 23585.400000
107.085500 9179.500000
108.080900 14417.300000
109.064600 3332.100000
111.026200 10167.700000
112.021500 5603.600000
113.041800 15631.900000
115.057900 13179.900000
120.080700 5681.800000
121.064800 12139.900000
122.096200 8474.900000
123.026300 82668.200000
124.075400 4343.500000
125.042000 27258.100000
126.091200 2769.500000
128.016400 2451.800000
131.027500 9754.200000
132.080900 5874.100000
133.065100 10414.300000
133.088700 3238.500000
134.059900 2459.000000
136.075800 2916.700000
137.042100 2697.200000
138.037400 4497.800000
139.057600 73675.900000
141.011700 5997.200000
143.027300 19962.400000
149.042100 24116.900000
150.091200 19443.200000
151.075300 5781.800000
151.086500 21779.400000
153.102100 4293.000000
153.959900 3416.500000
154.068500 5300.300000
155.027200 5768.200000
156.047600 4243.100000
156.084200 11342.900000
157.011000 11518.600000
163.086500 5871.500000
164.052800 4840.600000
165.102100 7682.700000
166.068500 150902.100000
167.052500 156485.400000
175.086900 2971.400000
181.097400 5944.500000
182.063600 18406.400000
184.079100 121017.400000
185.074200 15740.900000
192.047700 43109.000000
193.097400 11858.200000
199.089900 133165.900000
209.074300 157342.500000
210.058500 9499.900000
227.084800 2418995.200000
245.095500 25953.000000

>ms2peaks
54.033800 4319.000000
55.017900 3079.100000
55.054200 49323.200000
56.049500 13238.800000
57.069900 4678.900000
58.065200 2942.500000
58.995000 20284.800000
59.049100 6445.700000
61.010600 27461.900000
61.039600 37528.100000
65.038600 3198.300000
67.054200 70659.800000
68.049400 9654.500000
69.044700 1925.000000
69.069800 19622.500000
70.028600 5927.000000
70.065100 2467.500000
71.049100 11435.500000
73.010600 12985.100000
74.005900 17596.300000
76.021500 50883.900000
79.021200 5932.000000
79.054200 68943.700000
80.049400 8450.700000
81.069800 52851.800000
82.028700 41694.600000
82.065100 6543.000000
83.049200 22897.600000
84.044300 6072.000000
85.010600 37835.900000
85.039600 7039.400000
85.064800 6799.200000
86.005900 9098.700000
87.026300 16831.600000
89.042100 2387.600000
91.054200 29714.700000
93.069900 19153.200000
94.065300 9421.300000
95.049000 5905.800000
95.085500 27966.500000
96.044400 4975.600000
96.080700 8177.800000
97.010700 148172.900000
97.039600 380208.700000
98.096400 18425.900000
99.026200 23346.200000
99.055300 9424.700000
100.021500 40503.100000
101.005400 3337.200000
101.041900 21459.900000
102.000700 15796.100000
103.054000 3024.400000
105.069900 147816.600000
106.064900 9113.700000
107.085500 22336.400000
108.044300 3974.700000
108.080700 40627.300000
109.064900 9097.400000
110.096500 3683.400000
110.989800 3757.700000
111.026300 41005.300000
111.055200 7387.000000
112.021500 27886.200000
113.041900 36298.200000
114.000800 3778.500000
114.037100 4527.300000
115.058100 18726.300000
116.062100 2568.800000
118.064900 2833.400000
120.080800 20112.600000
121.064800 24843.300000
122.060000 2230.500000
122.096400 31066.100000
123.026300 306117.000000
124.075800 8735.600000
125.029500 10938.300000
125.042000 45917.200000
126.000700 6006.100000
126.036800 1804.000000
126.091200 2641.800000
128.016300 5677.900000
131.027200 11808.100000
132.080800 19162.200000
133.064900 21306.800000
133.088500 35436.200000
134.018300 6034.900000
134.059500 4216.500000
136.075800 6509.000000
137.041800 11097.700000
137.071000 4268.100000
138.000600 20821.900000
138.037200 22966.600000
139.057600 176863.100000
140.016400 8196.700000
140.053000 5769.100000
141.011600 4976.200000
142.032400 5965.800000
142.068500 3121.600000
143.027300 24559.800000
148.075700 13116.200000
149.042000 57113.200000
150.091300 20378.900000
151.075700 2714.200000
151.086500 49908.900000
152.094200 7548.600000
153.102100 24156.300000
153.959300 4940.800000
154.068400 14433.000000
155.027100 10589.900000
156.047800 8539.600000
156.084300 20587.100000
157.011100 25260.000000
163.086400 11528.500000
164.016500 6801.100000
164.052900 17745.000000
165.102400 17538.400000
166.068500 175226.000000
167.052500 108913.700000
175.086500 6015.100000
181.097000 5186.600000
182.063400 22817.900000
184.042600 5416.000000
184.079100 92642.200000
185.074400 30349.500000
192.047700 43640.800000
193.097700 5259.300000
199.090000 106058.100000
209.074300 58920.600000
210.058500 5332.800000
227.084800 298086.200000

>ms2peaks
53.002400 2329.100000
53.038600 7572.600000
54.033800 10713.300000
55.017800 6843.900000
55.054200 91933.400000
56.049500 23657.000000
57.070000 5591.800000
58.065200 3388.100000
58.995000 30526.200000
59.049200 11438.200000
59.990300 4101.300000
61.010600 37243.300000
61.039600 22240.500000
65.038500 10891.100000
67.041700 5532.100000
67.054200 86795.000000
68.049400 19526.200000
69.033600 4450.000000
69.044800 7020.900000
69.069900 26615.600000
70.028700 13216.900000
70.995000 2855.600000
71.049100 14643.300000
73.010700 21040.300000
74.005800 31371.400000
76.021500 46276.300000
79.054200 138254.200000
80.049400 18091.400000
81.057400 5535.900000
81.069900 73831.600000
82.028800 61552.700000
82.065200 14133.000000
83.049100 18568.600000
84.044200 3949.700000
85.010700 62624.500000
85.039700 9027.400000
85.064800 3379.100000
86.005900 6275.000000
87.026300 25258.300000
89.041900 2096.600000
91.054200 55357.100000
93.057300 5601.500000
93.069800 30016.200000
94.065200 20419.900000
95.049100 12558.600000
95.085500 20741.200000
96.044400 5712.200000
96.080800 13819.700000
97.010700 231520.400000
97.039700 373776.800000
98.005900 2809.800000
98.096600 9591.900000
99.013800 4902.500000
99.026300 28235.900000
99.055200 10205.900000
100.021500 46642.200000
101.005400 2367.000000
101.042000 16085.200000
102.000800 11923.000000
103.054100 14259.400000
105.069900 215110.000000
106.065200 11678.200000
107.073000 5366.800000
107.085500 14229.600000
108.044200 4947.200000
108.080700 34338.500000
109.064800 9059.800000
110.096400 5277.100000
110.989600 4552.300000
111.026300 62603.000000
111.055300 11663.000000
112.021500 43180.800000
113.042000 27921.200000
114.001000 5346.200000
114.037300 6274.300000
115.054100 21858.400000
115.057900 5353.700000
116.062100 5337.800000
117.057100 4161.300000
118.065100 8457.400000
120.044300 4354.500000
120.080700 20951.100000
121.064800 16934.500000
122.060200 4334.000000
122.096500 30595.000000
123.026300 289822.100000
124.075800 5290.800000
125.029500 23103.600000
125.041900 37921.700000
126.000800 6559.100000
126.037300 3913.000000
128.016500 4462.100000
130.065100 4839.400000
131.027600 4525.700000
132.080800 21281.200000
133.064900 8529.700000
133.088600 38893.300000
134.018500 7194.400000
134.060100 4033.700000
136.021400 2901.200000
136.075800 6014.800000
137.042200 9413.900000
137.070800 4567.300000
138.000800 35019.500000
138.037100 22557.400000
139.057600 84332.300000
140.016300 2417.700000
140.053000 9833.100000
142.032300 4566.000000
142.068500 3367.800000
143.027400 8426.400000
148.075700 5323.000000
149.041900 36097.600000
150.091300 5994.600000
151.086600 26551.200000
152.094400 6916.600000
153.102200 13702.800000
153.959200 3207.300000
154.068300 9917.700000
155.027200 6913.800000
156.047600 5763.200000
156.084400 10315.500000
157.010900 18264.900000
163.086600 6294.500000
164.016400 3916.900000
164.052800 7847.200000
165.102300 6331.400000
166.068600 61635.900000
167.052600 28259.100000
182.063300 7069.300000
184.078900 20396.600000
185.074000 12037.100000
192.047900 14760.500000
199.090100 23792.900000
209.074700 10016.900000
227.085000 22959.100000

>ms2peaks
53.002300 7032.900000
53.038600 26116.700000
54.033800 19400.400000
55.017900 7702.400000
55.054300 99021.300000
56.049500 26592.200000
57.069900 5120.400000
58.065200 2334.300000
58.995000 57083.100000
59.049100 12966.300000
59.990300 6907.500000
61.010700 42574.800000
61.039700 13979.700000
65.038600 23755.900000
67.041700 14698.000000
67.054200 89188.600000
68.049500 31390.500000
69.033500 2993.400000
69.044700 12980.400000
69.069900 18439.300000
70.028700 29992.100000
70.065100 5347.700000
70.995000 7786.300000
71.049100 9137.700000
73.010700 32321.200000
74.005900 44054.700000
76.021600 42529.800000
79.054200 227725.600000
80.049500 36869.900000
81.057500 9736.800000
81.069900 65475.600000
82.028800 52151.800000
82.065200 20693.000000
83.049200 14375.600000
84.044600 2320.000000
85.010700 82345.200000
85.039700 10910.400000
86.005900 11733.500000
87.026400 26287.200000
91.054300 86832.300000
93.057400 14727.600000
93.069900 26308.500000
94.065200 37457.500000
95.049100 45430.500000
95.085700 13479.200000
96.044400 5848.700000
96.080900 10334.500000
97.010700 289397.700000
97.039700 340243.100000
98.005900 5698.100000
98.096400 5966.500000
99.013700 7830.500000
99.026300 29638.800000
99.055400 6453.000000
100.021600 33792.000000
101.042100 14602.700000
102.000700 6900.300000
103.054300 39823.500000
105.070000 182347.600000
106.065200 12781.800000
107.073000 7468.600000
107.085500 4904.200000
108.044400 4787.600000
108.080800 31039.900000
109.065000 4684.100000
110.096400 2441.800000
110.990100 4164.700000
111.026400 67747.900000
111.055300 9375.700000
112.021600 39313.300000
113.041900 19099.200000
114.000700 4384.200000
114.037200 5622.000000
115.054200 20471.000000
115.058000 2151.900000
116.062100 7239.000000
117.057400 6917.900000
118.065300 13954.000000
120.044500 3333.700000
120.080900 16676.300000
121.064900 13685.400000
122.059900 5344.200000
122.096500 14492.900000
123.026300 211467.000000
124.075900 2778.700000
125.029600 23556.000000
125.042000 14164.700000
126.001000 7286.300000
126.037500 2461.200000
128.017000 2355.800000
130.065100 6274.500000
132.080900 21229.000000
133.065400 3057.000000
133.088700 20954.100000
134.018500 9315.100000
134.060100 5053.900000
136.021700 6150.600000
136.076000 3508.500000
137.042100 7809.500000
137.071100 4964.300000
138.000900 32849.300000
138.037300 17224.700000
139.057600 31094.400000
140.016500 2342.800000
140.052900 2864.100000
142.032200 2892.500000
148.075700 3578.000000
149.042000 7321.500000
150.091500 1895.700000
151.086700 8683.700000
152.094300 2582.400000
153.102200 4318.800000
154.068800 3633.100000
155.027100 2011.900000
156.047700 2279.300000
157.010900 10871.800000
163.086400 2653.100000
164.052800 5101.900000
166.068500 10438.800000
167.052900 4276.000000
192.047700 2521.900000
199.090000 3436.100000

