>compound LU78780757
>parentmass 335.095
>ionization [M+H]+
>formula C15H12F2N4O3
>rt 983.880000
>profile orbitrap
#smiles_iso C/C(=N\NC(=O)NC1=CC(=CC(=C1)F)F)/C2=C(C=CC=N2)C(=O)O
#smiles_can CC(=NNC(=O)NC1=CC(=CC(=C1)F)F)C2=C(C=CC=N2)C(=O)O
#inchikey IRJQWZWMQCVOLA-DNTJNYDQSA-N
#pubchem_id 6125184
#mb_accession LU103801,LU103802,LU103803,LU103804,LU103805,LU103806

>ms2peaks
148.039300 4745.700000
162.066100 225639.500000
163.050500 5030.100000
180.076700 50269.600000
188.045700 3042.200000
206.056100 374570.700000

>ms2peaks
96.044300 3942.500000
121.039800 1976.000000
124.039300 3605.700000
130.046400 2598.200000
148.039300 18428.200000
150.055300 8428.800000
151.062900 10734.600000
161.070900 2251.500000
162.066200 245763.300000
163.050200 111040.900000
180.077000 16431.600000
188.045500 9519.500000
206.056100 196983.800000
221.107500 16826.100000

>ms2peaks
78.033900 2781.900000
80.049600 2070.800000
96.044500 34517.900000
104.049700 5421.700000
106.029000 2070.700000
107.060400 3300.700000
107.073000 2686.300000
108.044400 12459.100000
110.060100 2446.700000
117.044900 5332.300000
119.060400 4447.300000
121.039700 12767.000000
122.060300 3262.700000
124.039400 14423.900000
130.046700 2044.100000
132.044500 8492.100000
133.039800 3970.700000
135.055400 11922.200000
140.034700 3287.500000
144.055900 6480.900000
145.039500 10321.300000
146.047700 6547.900000
148.039500 22364.500000
150.055300 13554.400000
151.062800 14776.000000
161.071100 4207.700000
162.066300 187701.500000
163.050300 158755.700000
206.056200 34249.300000
221.107600 5860.200000

>ms2peaks
63.023000 2221.400000
68.049400 6054.900000
78.033800 9799.900000
80.049500 11741.000000
90.033800 4763.100000
92.049400 5185.000000
93.044700 6386.000000
94.028800 1799.400000
96.044400 114282.600000
104.049400 12629.700000
105.044800 4311.100000
106.028800 4069.000000
106.065100 5380.500000
107.060400 6008.400000
107.073200 3908.300000
108.044400 20565.500000
110.060100 8437.600000
112.039400 6414.800000
117.044800 23617.200000
118.052600 7647.100000
119.060400 3641.700000
120.044400 4067.500000
121.039700 17166.600000
122.060100 5769.500000
124.039500 22460.200000
130.046500 2007.200000
131.024200 4203.500000
132.044300 8375.600000
133.039600 13731.900000
135.055300 26649.000000
140.034400 6251.100000
144.056000 6145.500000
145.039600 17825.600000
146.047500 26062.800000
148.039400 20142.100000
150.055300 8398.000000
151.062900 4133.000000
161.070900 4739.700000
162.066200 99329.600000
163.050200 73527.500000
188.045600 3000.600000

>ms2peaks
51.022900 2107.400000
52.018400 1528.900000
56.049600 3263.200000
63.022900 3988.400000
65.038600 7994.000000
67.017800 3401.700000
68.049400 8549.400000
78.033900 19338.700000
79.041600 3794.900000
80.049500 21405.100000
81.033500 1997.800000
90.033900 18397.700000
92.049600 7080.700000
93.044800 13795.400000
94.029000 2816.600000
95.036600 3737.800000
95.049200 3091.400000
96.044400 153789.000000
104.049500 18067.800000
105.044700 5320.100000
106.028900 2141.100000
106.065200 10413.900000
107.060500 8945.500000
108.044500 20459.700000
110.060200 13440.100000
111.031500 3444.000000
112.039400 14180.600000
117.044800 29029.100000
118.052600 24567.500000
119.060500 4934.400000
120.044500 3425.200000
121.039700 12493.500000
122.060000 3043.900000
124.039400 13024.100000
130.046300 3384.600000
131.024100 4228.900000
132.044600 4371.300000
133.039800 10083.200000
135.055400 24658.100000
140.034200 2038.500000
145.039800 10890.700000
146.047600 24335.900000
148.039500 9864.400000
150.055400 2517.500000
151.062900 2045.400000
161.071400 3683.600000
162.066300 29167.700000
163.050400 18739.900000

>ms2peaks
51.023000 5551.300000
52.018300 4058.600000
56.049500 4311.400000
63.023000 18899.600000
65.038600 17150.900000
67.017800 5418.300000
68.049600 7174.300000
78.033900 34041.900000
79.041700 4546.400000
80.049500 21922.000000
81.033900 1846.400000
90.033900 32062.700000
92.049500 10825.400000
93.044800 14660.800000
94.028800 4459.900000
95.036500 4058.300000
95.049200 4901.300000
96.044500 174759.200000
104.049500 23984.800000
105.044900 8015.200000
106.065200 11876.000000
107.060600 3081.300000
108.044400 24349.200000
110.060200 12618.100000
111.031500 5212.100000
112.039300 14425.400000
117.044800 18339.300000
118.052600 31568.400000
119.060500 4231.800000
120.044800 2398.000000
121.039700 8620.400000
124.039300 3278.600000
132.044400 2236.700000
133.039900 3979.300000
135.055500 18556.700000
140.034200 2502.800000
145.039700 2478.600000
146.047500 9690.000000
150.055300 2727.500000
162.066300 5704.800000
163.050400 4865.000000

