>compound LU78023510
>parentmass 467.1283
>ionization [M+H]+
>formula C21H23FN2O7S
>rt 1005.420000
>profile orbitrap
#smiles_iso C1CCC(C1)(C(=O)NO)N(CCC(=O)O)S(=O)(=O)C2=CC=C(C=C2)OC3=CC=C(C=C3)F
#smiles_can C1CCC(C1)(C(=O)NO)N(CCC(=O)O)S(=O)(=O)C2=CC=C(C=C2)OC3=CC=C(C=C3)F
#inchikey VHHGUBHZBLPTKL-UHFFFAOYSA-N
#pubchem_id 9869142
#mb_accession LU125901,LU125902,LU125903,LU125904,LU125905,LU125906

>ms2
128.070800 6806.700000
156.102000 14130.700000

>ms2
90.055100 6363.400000
128.070800 3851.800000
156.102000 22061.900000

>ms2
67.054000 1893.500000
90.054900 3499.200000
96.080800 4012.000000
156.101800 7074.500000

>ms2
65.038500 2259.600000
67.054300 2162.100000
96.080700 9252.600000
156.102200 2694.200000
159.060600 6155.700000

>ms2
65.038600 3147.900000
67.054200 3252.100000
96.080800 9377.200000
133.044900 4265.200000
159.060700 4489.600000

>ms2
65.038700 2385.400000
96.080800 9130.100000
133.044800 9554.600000
159.060800 2890.900000

