>compound LU78344927
>parentmass 248.0585
>ionization [M+H]+
>formula C12H10ClN3O
>rt 1003.020000
>profile orbitrap
#smiles_iso C1=CC=C(C=C1)NC(=O)NC2=CC(=NC=C2)Cl
#smiles_can C1=CC=C(C=C1)NC(=O)NC2=CC(=NC=C2)Cl
#inchikey GPXLRLUVLMHHIK-UHFFFAOYSA-N
#pubchem_id 93379
#mb_accession LU081101,LU081102,LU081103,LU081104,LU081105,LU081106

>ms2
94.065100 201813.200000
111.055400 23481.200000
129.021300 9323586.000000
130.005300 106885.000000
155.000500 2165717.000000
248.058300 8057633.000000

>ms2
94.065100 321530.600000
111.055300 148877.200000
129.021300 16635700.000000
130.005300 159388.500000
155.000600 2977703.500000
248.058500 1571946.100000

>ms2
93.044700 50428.100000
94.065100 283749.600000
111.055300 1541345.200000
120.044200 28251.600000
125.070700 21194.800000
129.021300 16996000.000000
130.005300 115442.000000
137.034600 89287.000000
155.000600 2387340.800000
248.058900 31318.600000

>ms2
56.049500 51749.200000
66.033700 44180.100000
92.049500 43344.000000
93.044700 287280.900000
94.065100 192398.700000
95.049000 25610.700000
111.055300 5610072.000000
120.044300 41318.900000
125.070900 84008.100000
129.021400 12924986.000000
130.005400 97186.800000
137.034600 463902.200000
155.000600 1584231.000000

>ms2
53.002300 31539.500000
53.038600 17423.100000
56.049500 285514.300000
66.033800 240255.700000
68.049400 20875.700000
76.018000 11669.600000
82.028700 61805.700000
84.044400 23677.000000
92.049400 91897.900000
93.044700 1033815.200000
94.052500 10439.700000
94.065100 167691.800000
95.049100 53840.100000
98.060100 42070.400000
105.044800 25278.800000
111.055300 9692385.000000
112.039200 25102.700000
113.059400 21862.000000
119.024000 98616.900000
120.044400 38641.800000
125.070900 177292.400000
129.021300 8129640.000000
130.005300 74805.500000
137.034500 952474.300000
151.050100 12905.600000
155.000600 903305.200000

>ms2
52.018100 19967.200000
53.002200 102555.800000
53.038600 41249.000000
53.997500 12007.100000
56.049500 689127.900000
65.038600 24443.400000
66.033800 622569.100000
67.029000 19246.100000
68.049400 44755.400000
76.018100 54498.900000
77.038600 18425.400000
82.028700 200216.100000
84.044300 53162.400000
92.049400 106505.400000
93.044700 1652382.100000
94.052600 14106.400000
94.065100 101772.300000
95.049100 122813.100000
98.060100 72568.200000
105.044700 56403.100000
111.055300 9613464.000000
112.039300 49269.300000
113.059600 15575.500000
119.024000 225224.900000
120.044200 12190.600000
125.070900 188163.900000
126.042500 17968.000000
129.021400 3604000.500000
130.005300 41934.900000
137.034600 980255.900000
151.050400 14226.600000
155.000600 340909.900000

