>compound LU79804411
>parentmass 268.1332
>ionization [M+H]+
>formula C17H17NO2
>rt 667.640000
>profile orbitrap
#smiles_iso CN1CCC2=C3[C@H]1CC4=C(C3=CC=C2)C(=C(C=C4)O)O
#smiles_can CN1CCC2=C3C1CC4=C(C3=CC=C2)C(=C(C=C4)O)O
#inchikey VMWNQDUVQKEIOC-CYBMUJFWSA-N
#pubchem_id 6005
#mb_accession LU079601,LU079602,LU079603,LU079604,LU079605,LU079606

>ms2peaks
189.071000 12834.500000
191.085300 28319.600000
219.080500 695370.000000
225.090900 30086.800000
237.091100 4904245.500000
268.133200 10273766.000000

>ms2peaks
152.062500 11009.400000
189.070800 19169.000000
191.085500 477208.300000
207.080400 59525.900000
219.080500 3544822.200000
225.091300 42169.500000
233.096300 14300.400000
237.091000 10209714.000000
268.133200 2458297.500000

>ms2peaks
58.065000 6880.100000
152.062200 8236.900000
163.054500 7168.900000
165.070000 8441.300000
179.085700 16570.600000
189.069500 59771.500000
190.077600 49613.300000
191.085500 4985934.500000
201.070000 50482.600000
202.077700 24301.800000
205.064600 41598.100000
205.101500 9541.200000
207.080300 93392.000000
209.095900 15421.800000
218.072700 59406.000000
219.080400 6708516.000000
233.096400 12836.700000
237.090900 6080520.500000
268.133100 89603.200000

>ms2peaks
165.069800 37426.900000
167.085400 13833.400000
176.061900 12439.800000
177.069600 13790.300000
179.085300 67967.500000
181.101100 11245.700000
189.069900 178527.200000
190.077800 727434.100000
191.085300 10336313.000000
201.069700 124399.100000
202.077200 50452.400000
205.064600 87827.300000
205.101100 13685.700000
207.080300 36139.300000
209.095600 18634.700000
218.072600 146530.200000
219.080300 3691033.500000
237.090800 890136.400000

>ms2peaks
152.062000 41515.300000
163.054500 11585.800000
165.069900 224811.200000
166.077700 18634.200000
167.085200 25521.500000
176.062000 37289.800000
177.069700 33911.600000
178.077800 29332.100000
179.085400 80224.100000
189.070000 1311034.900000
190.077800 3630001.200000
191.085400 10526064.000000
200.062000 43981.600000
201.069800 225679.200000
202.077500 74105.300000
205.064800 132598.600000
207.080700 18096.500000
218.072600 214693.700000
219.080400 1187459.600000
237.091000 63566.800000

>ms2peaks
55.017900 9886.000000
58.065100 7602.000000
139.054500 7358.200000
141.069700 21403.600000
152.062000 179902.600000
153.069900 16066.900000
163.053600 19798.200000
165.069900 619973.500000
166.077800 18350.300000
167.085600 14647.500000
176.061900 111639.800000
177.069800 36307.600000
178.077700 83821.800000
179.085500 57958.200000
181.064900 7117.400000
187.054400 9744.600000
189.070000 4277699.000000
190.077700 5085109.500000
191.085300 5123495.500000
194.072900 6759.400000
195.080500 14591.000000
200.062000 217704.500000
201.069700 174934.500000
202.077600 80859.500000
204.057300 5275.500000
205.064700 151751.100000
207.080600 9151.800000
218.072500 168140.300000
219.080300 355827.700000
221.059300 6542.700000

