>compound LU79259122
>parentmass 413.02770000000004
>ionization [M+H]+
>formula C15H13Cl2F3N2O4
>rt 1107.300000
>profile orbitrap
#smiles_iso CCOC(=O)COC1=C(C=C(C(=C1)C2=NN(C(=C2Cl)OC(F)F)C)F)Cl
#smiles_can CCOC(=O)COC1=C(C=C(C(=C1)C2=NN(C(=C2Cl)OC(F)F)C)F)Cl
#inchikey APTZNLHMIGJTEW-UHFFFAOYSA-N
#pubchem_id 182951
#mb_accession LU040401,LU040402,LU040403,LU040404,LU040405,LU040406

>ms2
304.022000 7341.900000
338.991100 711589.700000
357.001600 314697.500000
366.985900 27567.900000
367.021700 8120.000000
371.017700 25727.400000
384.996600 242692.200000
413.027900 5962619.500000

>ms2
62.963100 4448.000000
212.082000 4296.800000
223.990700 4135.700000
225.022700 13627.700000
226.030500 6624.500000
253.017500 298780.800000
254.025300 8370.500000
268.987800 13629.100000
275.019300 5551.900000
281.048400 3542.400000
288.994300 491245.200000
303.014400 359385.600000
304.022200 579423.200000
310.996100 197490.000000
316.989800 25379.700000
317.024800 17012.300000
325.983300 53969.200000
334.999800 177429.200000
338.991100 3332494.000000
354.014600 12472.000000
357.001700 95305.200000
363.031400 55893.800000
366.986000 43824.200000
367.022100 32924.500000
371.018100 4873.500000
384.996700 512046.600000
413.028000 207203.400000

>ms2
58.028800 3699.200000
62.963300 15461.200000
124.021500 6506.300000
161.039800 2856.900000
161.050800 9001.600000
168.001000 6579.700000
183.996000 11796.300000
189.045700 19346.600000
190.053800 31906.300000
191.978100 3951.800000
195.996000 9762.700000
197.027600 52499.800000
199.966900 2339.600000
201.045600 12730.500000
201.962300 43394.400000
203.977700 19619.900000
208.019600 2857.100000
212.081900 22100.800000
213.022700 3153.800000
218.048300 6441.500000
219.056500 14045.700000
223.991000 92721.500000
225.022500 132550.800000
226.030400 77493.100000
233.988100 8087.200000
235.027100 3856.500000
237.022800 7481.800000
241.017300 2585.400000
242.001500 19383.700000
252.009600 11098.500000
253.017500 937608.200000
254.025300 298539.800000
260.999300 872032.900000
268.987900 68861.000000
275.019300 23553.600000
275.986400 188600.000000
276.994000 17262.700000
281.049000 7007.800000
285.023800 11439.000000
288.994200 978728.900000
303.014300 210608.400000
304.022100 453671.100000
305.027200 4091.400000
310.996000 106235.000000
317.025200 17853.600000
318.984900 24835.300000
325.983200 75710.500000
334.999800 195486.400000
338.991100 240697.800000
354.014800 4646.500000
363.031300 8594.300000
384.997100 8688.700000

>ms2
58.028700 16620.000000
62.963200 26439.300000
75.994900 7116.300000
78.010500 20825.500000
97.039700 8367.900000
115.989800 7619.700000
123.024000 3486.700000
124.021400 10588.600000
131.005500 3262.600000
133.044800 18076.800000
134.040000 5027.200000
134.052600 7420.500000
135.047800 13085.500000
137.026900 3000.400000
140.990100 17073.600000
142.052700 10850.700000
143.005800 2623.800000
143.060300 3593.300000
147.024200 5865.000000
147.035300 4318.300000
148.019400 21990.600000
148.056200 3232.000000
150.010600 4004.500000
150.034800 3548.100000
151.018400 4241.500000
155.005800 7253.300000
156.001100 72794.100000
156.985200 7757.000000
158.016700 3451.100000
158.083800 3707.900000
161.039900 20777.800000
161.051000 98490.200000
162.035200 8833.700000
162.058800 23596.200000
162.994700 3737.400000
163.042700 7614.900000
163.066400 13005.500000
163.989700 3534.600000
164.001100 3160.100000
164.050600 11030.500000
166.029800 25374.700000
167.005800 5795.000000
168.001100 108209.800000
168.985100 12297.300000
169.008800 63044.600000
170.016900 11074.100000
171.055000 5865.000000
171.971600 13011.000000
171.995900 3721.700000
173.051200 11063.000000
174.034900 5053.000000
175.019300 9968.800000
175.030300 17487.700000
175.066600 4597.700000
176.050600 3396.600000
176.966900 43434.600000
177.021400 127612.900000
178.005500 4412.000000
178.029500 7013.800000
180.001100 3693.900000
180.045600 2889.700000
182.016800 6437.200000
183.025100 2972.000000
183.971500 7301.600000
183.996000 106650.500000
184.019700 5845.100000
185.027600 6432.400000
186.011800 18685.700000
189.046000 76230.000000
190.053700 340426.000000
191.061500 44325.200000
191.977800 27286.500000
193.029700 23806.000000
194.988300 5844.200000
195.012200 14299.900000
195.032400 5701.600000
195.996100 48138.000000
197.016700 30466.700000
197.027600 274169.900000
198.011800 25516.100000
198.035400 5916.000000
199.019500 5590.500000
199.967100 9163.900000
200.027300 6583.500000
201.046100 26304.500000
201.962200 85542.400000
203.977800 51726.500000
204.962100 3212.000000
204.973300 3808.800000
205.016400 49738.700000
205.040300 3264.200000
206.024200 22151.200000
207.012300 4223.900000
207.032100 7023.900000
207.045300 7705.900000
208.019900 11194.900000
209.000500 7481.100000
209.987700 6280.600000
209.999100 27419.600000
210.011800 8124.700000
210.995800 18637.800000
211.966800 6651.600000
211.990800 15899.800000
212.027100 6731.400000
212.082000 47233.500000
213.022600 150664.400000
214.006500 38437.000000
217.041000 9560.500000
217.060500 2693.200000
218.048700 43739.900000
218.964800 9176.700000
219.056400 54626.100000
219.972500 25868.900000
223.006800 2827.800000
223.991000 195460.100000
225.022600 277568.300000
226.030400 344055.200000
229.956900 14407.300000
230.977500 12449.600000
231.973000 9231.400000
232.968500 2980.900000
234.019000 64845.700000
235.027100 20303.400000
237.022400 11856.900000
237.994200 4226.600000
240.009500 11760.100000
240.993600 27057.600000
241.017500 53068.700000
242.001600 41821.800000
242.025500 7330.300000
246.983800 14656.900000
247.991500 166732.500000
252.009900 9591.800000
253.017500 1088764.200000
254.025300 514854.000000
255.033000 9518.900000
256.017200 32564.500000
260.999300 671121.300000
263.019700 11328.800000
268.988000 79610.200000
275.986400 473689.800000
276.994100 50232.800000
285.023600 9837.000000
288.994200 295647.900000
303.014100 34741.300000
304.022000 49907.600000
310.996000 9196.500000
316.989700 3845.700000
318.984800 4529.400000
325.983400 11715.500000
334.999400 23759.100000
338.990800 6493.100000

>ms2
58.028700 39167.300000
62.963200 27956.100000
75.994800 10334.700000
78.010500 25530.500000
83.029100 4759.500000
87.995000 2594.800000
97.039600 18101.800000
100.018300 3070.800000
107.029200 11860.400000
108.024400 5018.600000
109.044600 3498.500000
111.024100 5919.200000
114.034000 6800.800000
115.054300 8072.100000
115.989700 17698.100000
116.990200 3251.200000
119.029100 2796.900000
120.037100 7076.700000
121.032300 11922.300000
121.045000 3777.000000
122.040000 12927.100000
122.999600 16115.800000
123.024100 5282.700000
123.035200 3861.400000
124.021600 7463.700000
129.997900 4790.700000
131.005600 2513.100000
132.024300 12745.200000
133.032200 4273.000000
133.044800 55439.500000
134.040100 38327.300000
134.052800 17528.000000
135.047900 61809.000000
136.055800 6605.100000
137.027200 6384.400000
137.051100 3014.500000
140.990100 77003.200000
142.052600 37119.800000
143.006000 8710.900000
143.060400 17747.900000
145.032600 3378.900000
146.040200 9990.000000
147.024300 32636.200000
147.035300 42912.200000
148.019400 67705.500000
148.056000 10783.400000
149.015400 7604.300000
149.051100 6263.100000
150.010500 25417.100000
150.034900 20822.000000
150.058900 3982.700000
151.018500 7620.900000
151.042900 11038.600000
152.050700 9598.000000
153.045000 2925.300000
153.998100 19437.400000
154.005300 5476.700000
154.993400 6494.100000
156.001100 144172.000000
156.960800 12907.400000
156.985100 10326.500000
156.996300 4476.900000
158.016800 6460.800000
158.083900 3038.700000
159.055500 6026.400000
160.043200 7860.800000
161.039900 33055.200000
161.051000 177167.100000
162.035000 24403.100000
162.047200 5054.000000
162.058800 71063.300000
162.994600 13527.500000
163.005700 9280.700000
163.066700 44827.600000
163.989900 7078.200000
164.001000 11150.300000
164.050800 24099.200000
165.021900 2764.900000
165.045800 2749.100000
166.029900 53984.200000
167.037700 5218.300000
168.001100 228016.000000
168.985300 29114.400000
169.008900 178621.400000
169.968300 5053.800000
170.016700 12584.400000
171.055400 21944.200000
171.971500 28160.800000
172.062900 2955.500000
173.051400 12728.400000
174.035000 9951.400000
174.951500 7115.800000
175.019300 18169.400000
175.030300 88234.600000
175.066400 11719.300000
176.038000 8262.200000
176.050500 8546.800000
176.966900 73857.500000
177.021500 186060.000000
178.005600 7576.600000
179.037500 6055.000000
179.061300 4954.900000
180.045500 10946.600000
180.985100 7776.500000
182.001300 15207.900000
182.016800 4805.700000
183.000900 45394.100000
183.011900 20128.200000
183.025100 3029.300000
183.971500 15159.500000
183.996100 134957.300000
184.019700 15070.600000
185.004000 25819.000000
185.027500 14358.900000
185.071000 6101.900000
186.011700 36325.200000
189.045800 72074.700000
190.053800 393799.700000
191.061600 97642.700000
191.977900 32695.000000
195.012000 27428.800000
195.032700 11242.000000
195.996100 64780.500000
197.004300 69699.100000
197.016800 19711.900000
197.027600 253143.400000
198.011700 45178.000000
198.035500 8690.600000
198.982600 4036.300000
199.019400 7973.300000
199.991100 4624.100000
201.046000 13764.300000
201.962200 103527.800000
203.977800 25118.100000
204.962100 3359.700000
204.973000 7183.100000
205.016400 41130.600000
205.040400 3750.000000
206.024100 30223.900000
206.048300 4569.200000
207.011800 5394.500000
207.031800 14199.100000
207.045200 7555.900000
209.000400 11181.200000
209.027800 4005.300000
209.988000 5372.800000
209.999000 45540.300000
210.011500 11015.400000
210.995500 8417.000000
211.007000 13393.700000
211.967000 3859.500000
211.990800 23193.700000
212.082100 34319.700000
213.022600 717196.400000
214.006600 63130.100000
217.040900 18822.200000
217.060700 5619.500000
218.048700 39670.000000
218.964600 27317.100000
219.056400 52012.300000
219.972700 16351.700000
223.991000 73639.400000
225.022600 171446.700000
226.030400 275442.600000
229.957300 10284.200000
230.977500 7646.300000
231.972700 4816.100000
233.011800 11560.000000
233.988200 8663.500000
234.019100 33213.000000
235.027000 17383.400000
237.022600 5307.200000
239.002000 6759.200000
240.009700 17186.000000
240.993500 8738.300000
241.017500 53764.400000
242.002100 16288.900000
242.025400 13064.400000
245.975800 18239.600000
246.984000 23857.900000
247.991400 203989.700000
252.009900 6716.700000
253.017500 384895.200000
254.025300 101457.000000
255.033300 5831.500000
256.017200 9968.400000
260.999300 115913.400000
263.020000 4820.400000
268.987900 9344.600000
275.986400 129526.800000

>ms2
58.028800 69534.800000
62.963200 37500.700000
75.994900 13181.500000
78.010600 27892.100000
83.029200 16176.200000
87.994700 7293.000000
97.039700 20528.100000
100.018100 24076.000000
107.029200 70137.700000
108.024400 7830.400000
109.044900 9374.500000
111.024100 7260.900000
114.034000 21291.600000
115.054300 15189.300000
115.989800 37222.000000
116.990100 23076.700000
119.029400 3308.400000
120.037000 30250.500000
121.032300 38247.000000
121.044700 7513.000000
122.040000 49130.600000
122.999600 51211.400000
123.024000 9986.800000
123.035300 10339.400000
124.021500 3086.800000
129.998000 7583.100000
132.024500 37830.200000
133.032400 21915.900000
133.044900 94384.900000
134.040100 119298.600000
134.052500 20575.900000
135.047900 125201.600000
136.055700 22808.300000
137.027200 4257.700000
137.051000 4299.200000
140.990200 232059.200000
142.052600 56485.100000
143.006000 24704.200000
143.060500 32262.400000
145.032400 3299.900000
146.040200 22471.400000
147.035300 142563.200000
148.019400 83774.600000
148.055600 12495.100000
149.015200 9184.000000
149.051100 17107.500000
150.010600 37957.100000
150.035000 28869.000000
150.058700 7066.900000
151.018400 15377.600000
151.042800 34931.400000
152.050700 35502.800000
153.044700 4853.900000
153.998000 57839.400000
154.005300 15462.900000
154.993300 15335.800000
155.005700 37901.300000
156.001100 213633.900000
156.960600 23226.900000
156.985200 17753.200000
156.996400 22406.100000
158.016600 5825.600000
159.055300 6728.400000
160.043200 30954.200000
161.051000 147723.300000
162.034900 35930.800000
162.047100 5892.700000
162.058800 73506.400000
162.994500 25542.000000
163.005800 25702.100000
163.043000 14186.200000
163.066600 55747.000000
163.990000 6947.200000
164.000900 28202.600000
164.050600 23883.800000
165.021900 5351.200000
165.046000 4972.700000
166.030000 31166.300000
167.005900 30672.300000
167.037400 8508.200000
168.001100 292489.400000
169.008900 258653.000000
169.968600 3994.200000
170.016600 17081.700000
171.055400 28102.900000
171.971500 24817.900000
171.995800 15267.400000
172.062900 3190.100000
173.051200 15778.500000
174.035100 15286.200000
174.951200 15624.000000
175.030300 166512.900000
176.038300 20798.700000
176.050300 5035.900000
176.966900 65690.500000
177.021400 121503.600000
178.005600 10262.900000
178.029200 13307.000000
179.037500 8220.800000
179.061400 3714.300000
180.001300 22506.500000
180.045400 18131.700000
180.985300 9528.900000
182.001600 10091.200000
182.016800 7474.200000
183.000800 35904.800000
183.011900 25887.600000
183.971300 11641.400000
183.996100 87685.400000
184.020000 18177.000000
185.003900 47909.400000
185.027600 14413.600000
185.071000 7226.100000
186.011800 36319.000000
189.045900 38463.400000
190.053800 153158.300000
191.061600 75374.100000
191.977700 20964.900000
193.029700 31566.100000
194.988200 20408.800000
195.011900 19828.400000
195.032700 3521.600000
195.996200 46036.900000
197.004100 37547.400000
197.016700 8062.500000
197.027500 99270.400000
198.011600 31425.800000
198.982800 2557.500000
199.019500 8066.400000
199.967000 3391.400000
199.991100 3981.900000
200.027300 14534.800000
201.962200 71666.300000
203.978000 7064.700000
205.016600 19124.100000
205.040800 4359.500000
206.024400 20430.300000
206.048500 6649.500000
207.012000 5922.100000
209.027700 5859.800000
209.999300 34274.900000
211.006800 13492.900000
211.990800 7677.500000
212.027100 2781.500000
212.081900 14383.600000
213.022600 1035914.400000
214.006400 41094.500000
217.040900 19852.700000
217.060500 5018.300000
218.048700 17462.800000
218.964800 14390.600000
219.056200 15977.300000
219.972700 7261.100000
223.006700 4663.300000
225.022500 90046.500000
226.030400 106501.100000
229.957300 2898.800000
232.968300 18412.300000
233.011800 3739.900000
234.019100 7985.500000
237.022500 3391.200000
237.994000 8775.000000
239.001600 6405.600000
240.009700 5732.800000
241.017300 16846.800000
242.002200 5869.800000
242.025500 9157.200000
245.975700 6903.400000
246.983900 16252.600000
253.017500 97587.200000
254.025600 5440.500000
260.999200 7976.400000
275.986400 10176.700000

