>compound LU79004807
>parentmass 188.20090000000002
>ionization [M+H]+
>formula C11H25NO
>rt 975.840000
>profile orbitrap
#smiles_iso CCCCCCCCOCCCN
#smiles_can CCCCCCCCOCCCN
#inchikey RDCAZFAKCIEASQ-UHFFFAOYSA-N
#pubchem_id 85192
#mb_accession LU053601,LU053602,LU053603,LU053604,LU053605,LU053606

>ms2
53.002100 12578.900000
57.069900 388587.100000
58.065100 9451132.000000
59.049100 646248.100000
69.069800 54029.700000
71.085500 540151.300000
76.075700 1194925.200000
111.116800 46518.800000
171.174300 620289.900000
188.200900 10444252.000000

>ms2
53.002200 25452.100000
57.069900 580984.200000
58.065100 10915208.000000
59.049100 772413.800000
69.069800 64489.000000
71.085500 753039.900000
76.075700 1398684.500000
111.116700 54678.400000
171.174300 552019.900000
188.200900 7401599.500000

>ms2
53.002200 62110.300000
55.054200 20760.500000
57.069900 1390602.500000
58.065100 13059712.000000
59.049100 786283.900000
69.069800 114842.500000
71.085500 1357595.100000
76.075700 1117115.800000
111.116900 23323.300000
171.174400 66331.300000
188.200900 598548.500000

>ms2
53.002200 124109.200000
53.997500 22386.900000
55.054300 23412.700000
57.069900 1341150.600000
58.065100 8611688.000000
59.049200 335359.400000
69.069800 78688.900000
71.085500 794078.700000
76.075700 405015.900000
188.201300 23213.500000

>ms2
53.002200 159591.700000
53.997500 32544.400000
55.054200 30034.800000
57.069900 1001552.100000
58.065100 5522524.500000
59.049200 154018.800000
69.069900 40254.900000
71.085500 301254.200000
74.096400 5980.700000
76.075700 127253.400000

>ms2
53.002200 233130.700000
53.997500 37736.900000
55.054300 45758.700000
57.069900 782960.600000
58.065100 4261533.000000
59.049200 108493.900000
69.069900 21671.000000
71.085500 131021.400000
76.075700 40316.900000

