>compound LU80971948
>parentmass 251.1853
>ionization [M+H]+
>formula C12H26O5
>rt 808.020000
>profile orbitrap
#smiles_iso CCC(CO)(CO)COCC(CC)(CO)CO
#smiles_can CCC(CO)(CO)COCC(CC)(CO)CO
#inchikey WMYINDVYGQKYMI-UHFFFAOYSA-N
#pubchem_id 90038
#mb_accession LU043901,LU043902,LU043903,LU043904,LU043905,LU043906

>ms2
55.054300 3064.800000
57.033400 8695.200000
59.049100 4787.600000
69.069900 33808.900000
71.049200 2124.500000
71.085500 12506.900000
79.054000 1614.600000
81.069900 73998.800000
83.085600 19369.200000
85.064800 38970.500000
87.080600 2699.300000
99.080500 274155.700000
101.096200 23766.900000
115.075500 7334.600000
117.091000 262787.100000
119.106700 15146.600000
129.091400 3890.100000
131.106700 24755.000000
135.101600 287881.900000
147.101600 13950.000000
167.143000 8792.500000
173.153800 7702.800000
185.153700 26610.600000
203.164300 26935.300000
233.174800 112468.100000
251.185400 555425.600000

>ms2
55.054300 9705.900000
57.033500 41813.100000
57.069800 2720.000000
59.049200 5319.100000
69.069900 111735.500000
71.049100 5600.500000
71.085500 37166.700000
79.054200 8067.400000
81.069900 251719.400000
83.085500 28108.200000
85.064800 67142.200000
87.080500 6282.100000
97.064700 3709.100000
99.080500 438497.500000
101.096100 23800.600000
115.075500 8911.600000
117.091000 321819.500000
119.106700 6257.700000
129.091100 7409.800000
131.106800 18819.200000
135.101600 205322.000000
147.101500 13892.700000
167.142900 3552.700000
173.153900 2879.200000
185.153600 7710.700000
203.164300 5159.800000
233.174700 34331.500000
251.185400 68744.000000

>ms2
53.002300 3928.100000
55.054300 36354.200000
57.033500 87913.600000
59.049100 4235.000000
61.028400 3279.000000
69.069900 200340.400000
71.049100 15941.600000
71.085500 38030.400000
79.054200 35548.600000
81.069900 398900.700000
83.085500 16138.700000
85.064900 41750.600000
87.080500 6399.600000
95.049200 2206.000000
97.065000 3079.600000
99.080500 257219.500000
101.096200 5357.900000
115.075200 2041.100000
117.091100 90756.300000
129.090900 3309.100000
131.106700 2250.300000
135.101600 26801.800000
147.101700 3559.300000

>ms2
53.002200 7578.300000
53.038600 10071.300000
55.054200 57845.400000
57.033500 86898.900000
59.049200 2293.600000
61.028400 3287.600000
67.054200 6540.200000
69.069800 205117.500000
71.049100 16641.600000
71.085500 13322.000000
79.054200 80810.600000
81.069900 340530.300000
83.085600 4936.300000
85.064800 22270.500000
87.080600 2187.900000
95.049300 5172.300000
97.064900 2541.400000
99.080500 89015.000000
117.091000 10966.300000
152.062500 2962.100000

>ms2
53.002200 14721.700000
53.038700 21889.900000
55.054300 58597.100000
57.033600 71405.200000
59.049200 3399.100000
61.028400 4623.200000
65.038600 3246.200000
66.046500 2050.200000
67.054200 5033.000000
69.069900 142323.300000
71.049200 8117.700000
71.085500 4377.500000
79.054300 111947.100000
81.069900 216694.600000
85.064800 10849.100000
95.049200 6360.600000
99.080600 21527.500000
152.062100 3202.600000

>ms2
53.002200 15588.400000
53.038600 26111.200000
55.054300 60920.200000
57.033500 45218.100000
57.069900 2619.400000
61.028400 3675.600000
65.038500 6620.400000
66.046300 4568.700000
67.054100 3289.200000
69.069900 75118.800000
71.049100 4087.200000
79.054200 124522.300000
81.069900 110854.900000
85.064900 2260.000000
95.049200 8306.100000
99.080400 6179.200000
152.062000 2624.200000

