>compound LU80168667
>parentmass 326.0821
>ionization [M+H]+
>formula C15H17Cl2N3O
>rt 1149.600000
>profile orbitrap
#smiles_iso CC(C)(C)C(/C(=C\C1=C(C=C(C=C1)Cl)Cl)/N2C=NC=N2)O
#smiles_can CC(C)(C)C(C(=CC1=C(C=C(C=C1)Cl)Cl)N2C=NC=N2)O
#inchikey FBOUIAKEJMZPQG-AWNIVKPZSA-N
#pubchem_id 6436605
#mb_accession LU083101,LU083102,LU083103,LU083104,LU083105,LU083106

>ms2peaks
70.039900 158137.400000
326.082200 19237874.000000

>ms2peaks
57.069900 47324.800000
69.069900 11893.000000
70.039900 7831201.500000
87.080500 34177.500000
97.064600 8804.500000
158.976200 242674.400000
170.976000 24957.300000
172.955500 79221.000000
172.992000 21709.300000
196.992200 15503.700000
200.986800 10228.700000
204.070000 54368.500000
211.008100 20551.000000
222.080400 39965.400000
225.993200 15433.900000
239.039000 66791.300000
252.009000 143627.800000
266.024600 19393.100000
268.003900 11257.200000
269.011900 118368.300000
270.020000 36650.200000
308.071800 123613.200000
326.082200 8458722.000000

>ms2peaks
57.069900 170554.700000
69.069900 79151.900000
70.039900 14246085.000000
87.080500 117305.200000
93.069900 21338.300000
110.071200 25356.600000
148.086900 15406.100000
151.030900 17801.400000
158.976300 773377.000000
162.023200 22645.100000
165.010100 17819.100000
169.101200 25435.600000
170.976300 89311.900000
172.955500 203747.400000
172.991900 61091.900000
176.038700 62444.900000
179.025700 18203.500000
180.033800 17986.700000
182.976200 14585.500000
189.046300 26232.800000
191.024300 18290.500000
193.041400 39704.300000
196.992100 33924.500000
204.070100 128121.900000
207.056800 21542.800000
211.007300 21206.400000
216.032200 34038.100000
222.080800 39907.300000
234.042900 16044.700000
239.039100 30401.100000
240.008700 27275.000000
252.009100 103234.600000
265.016700 14479.500000
266.024500 26857.200000
269.011700 49637.900000
270.019200 35066.300000
278.025000 16726.900000
308.071500 25446.400000
326.082300 394423.100000

>ms2peaks
57.069900 179788.800000
59.049100 13447.700000
69.069800 145366.100000
70.039900 13317280.000000
87.080400 78636.100000
93.069900 13996.500000
110.071200 17826.600000
136.007600 30524.400000
137.015300 33660.200000
141.069800 15639.900000
145.064700 16172.200000
148.086800 13759.600000
154.077600 16603.500000
158.976200 952719.800000
162.023000 48830.000000
165.010300 26385.100000
166.018200 14906.400000
169.101100 74950.100000
170.976200 73884.600000
172.955500 225214.900000
172.991900 40575.100000
175.031000 18478.600000
176.038700 87152.900000
179.026000 26285.900000
180.033200 21246.100000
182.976400 24556.000000
189.046600 90085.200000
190.029000 18797.900000
191.024800 25771.400000
193.041500 47894.800000
196.991700 30199.600000
204.070000 58163.800000
207.056900 23072.300000
216.032300 32293.800000
217.039900 50841.600000
240.008700 15629.000000
278.024300 19058.500000

>ms2peaks
53.002200 21742.100000
55.054100 16226.200000
57.069900 127856.500000
59.049100 13573.600000
69.069800 120705.100000
70.039900 11371230.000000
87.080300 26745.100000
91.054400 19524.600000
98.999600 11649.300000
102.046500 27149.000000
115.054200 22264.100000
122.999500 70719.800000
124.007300 15826.900000
125.015200 12211.300000
128.061900 13616.500000
129.069700 25197.200000
131.049000 15274.800000
136.007400 53105.900000
137.015200 38246.700000
141.069900 61392.000000
143.085600 15450.200000
145.064700 30651.200000
149.015300 12467.900000
150.022900 22264.900000
153.069800 28757.800000
154.077500 61072.500000
155.060000 15285.100000
158.072500 12350.200000
158.976200 837595.600000
162.023000 63653.700000
165.009900 35120.800000
169.101100 46903.800000
170.976100 35215.600000
172.088100 16038.300000
172.955500 122949.200000
172.966600 79170.600000
172.991800 12457.600000
175.030700 26145.500000
176.038700 47303.500000
179.025800 13361.700000
182.071000 20903.700000
182.976000 24542.300000
189.021300 16082.000000
189.046400 98020.800000
191.024200 17308.800000
193.041400 19964.700000
216.032400 12731.500000
217.040200 21931.100000

>ms2peaks
53.002200 18612.200000
55.054300 14218.700000
57.069900 94861.700000
59.049100 13811.300000
69.069800 86525.100000
70.039900 10812449.000000
84.983900 13057.600000
89.038500 48024.700000
91.054200 19640.600000
98.999600 48522.700000
102.046400 60844.900000
108.984100 30873.800000
115.054200 53508.800000
116.062000 15816.100000
122.999600 199917.400000
124.007400 59633.500000
125.015200 13598.100000
126.046500 15650.800000
128.061900 37377.900000
129.044700 19748.400000
129.069700 38886.900000
131.049200 22456.500000
132.960400 20952.500000
136.007400 73127.000000
137.015300 32382.200000
141.069800 106377.000000
143.085500 12021.000000
144.960400 14791.700000
145.064700 26582.400000
149.015000 21149.700000
150.023100 11449.500000
152.062100 19662.700000
153.069900 65633.800000
154.077600 97268.800000
155.060200 33177.000000
158.072300 13762.100000
158.976200 640147.900000
162.022900 64352.100000
162.971200 15688.700000
163.005700 13052.400000
165.010000 39385.700000
169.101400 20602.000000
172.087700 14756.500000
172.955600 38688.900000
172.966800 90649.200000
175.030800 30980.400000
176.038900 17032.700000
182.071400 10900.300000
182.976200 27688.100000
189.046500 51867.000000
208.991700 12140.500000

