>compound LU80213335
>parentmass 314.049
>ionization [M+H]+
>formula C9H17ClN3O3PS
>rt 1063.440000
>profile orbitrap
#smiles_iso CCOP(=S)(OCC)OC1=NN(C(=N1)Cl)C(C)C
#smiles_can CCOP(=S)(OCC)OC1=NN(C(=N1)Cl)C(C)C
#inchikey XRHGWAGWAHHFLF-UHFFFAOYSA-N
#pubchem_id 39223
#mb_accession LU101801,LU101802,LU101803,LU101804,LU101805,LU101806

>ms2peaks
114.961300 122681.700000
142.992600 34405.900000
148.027000 22535.600000
153.013100 76284.300000
162.042800 3306151.500000
171.023800 356080.500000
178.020000 12098.700000
185.039400 23923.600000
190.074000 89189.000000
215.939200 27240.100000
243.970600 339515.500000
257.986100 33244.300000
272.001900 1518366.000000
286.017600 1334734.400000
314.048800 7305420.500000

>ms2peaks
61.979200 7706.900000
96.950600 43871.800000
114.961300 2550940.200000
119.995800 3797484.800000
124.982000 86321.300000
128.976800 71008.300000
132.971800 25278.300000
135.973000 374631.700000
142.992600 129418.400000
148.027100 240820.800000
153.013300 220470.300000
162.042700 6579176.500000
164.004200 30465.800000
171.023800 1150935.400000
178.020100 54114.900000
185.039500 71144.600000
190.073900 73356.900000
215.939300 476773.400000
243.970600 802687.400000
257.986100 52744.800000
272.001800 530764.700000
286.017400 203116.600000
314.048800 253964.800000

>ms2peaks
53.002200 11713.100000
64.978700 15228.200000
84.019200 9232.200000
96.950700 209884.200000
102.969400 12614.000000
109.004900 17610.500000
110.966400 13157.100000
112.999800 17539.900000
114.961300 5607879.500000
116.965500 11574.800000
119.995800 8815860.000000
124.981900 134157.000000
128.976900 170029.900000
132.971800 50524.900000
135.973000 754287.000000
142.992800 51439.100000
146.987400 34735.000000
148.027100 271066.100000
153.013100 40544.500000
162.042800 1625808.400000
171.023800 195141.500000
178.019900 18031.600000
215.939300 299868.000000

>ms2peaks
53.002200 23382.600000
61.979300 10916.700000
64.978600 63908.000000
74.096400 10242.200000
75.001200 12557.700000
76.990000 102056.600000
84.019200 67652.200000
92.001000 44982.500000
96.950800 252571.100000
98.984100 15172.800000
102.969300 90336.200000
109.004800 16514.900000
110.966100 20339.100000
112.999600 29401.300000
114.961300 7057778.000000
116.965600 20222.200000
119.995900 10197143.000000
124.982000 55560.800000
128.976900 240549.900000
132.971800 71837.700000
135.973000 911299.600000
142.992800 15779.100000
146.987300 41878.700000
148.027100 125442.900000
162.042800 164925.000000
164.004100 10622.200000
171.023700 10279.200000
215.939400 55140.500000

>ms2peaks
53.002300 27086.100000
59.024000 10033.200000
61.979100 18441.900000
64.978600 197245.800000
75.001100 51320.700000
76.990000 339693.400000
77.997900 27170.000000
78.940100 16056.800000
78.994300 9369.900000
84.019200 215742.300000
92.001000 138848.800000
96.950800 163379.300000
98.984200 19953.500000
102.969300 374621.100000
109.004800 8932.900000
110.966300 11537.300000
112.999700 19825.600000
114.961300 6087331.500000
116.965700 15626.900000
119.995900 7305634.500000
120.979500 22469.600000
124.981900 7677.500000
128.976900 212498.300000
132.971800 57613.100000
134.995600 18297.800000
135.973000 560365.700000
146.987400 55418.400000
148.027200 30796.500000
162.043000 9294.400000
215.938700 7576.000000

>ms2peaks
53.002200 31454.400000
53.997500 7924.800000
59.024000 30519.100000
61.010600 7367.200000
61.979100 47102.000000
64.978600 552350.700000
73.039600 7608.100000
74.034800 16725.300000
74.096200 7754.800000
75.001100 79135.200000
76.990000 731609.100000
77.997900 78587.700000
78.940200 56715.200000
78.994300 23994.200000
84.019200 434779.000000
92.001000 251452.000000
96.950800 211146.300000
98.984300 20078.400000
102.969300 1021315.100000
110.966400 17765.500000
112.999900 27675.800000
114.961300 5990376.000000
116.045700 9114.100000
116.965500 15399.200000
119.995900 5602787.000000
120.979800 56528.000000
128.976900 216888.100000
132.971800 61388.800000
134.995600 56999.100000
135.973100 365548.600000
142.992900 6445.800000
146.987500 42197.700000

