>compound LU80594170
>parentmass 165.1022
>ionization [M+H]+
>formula C9H12N2O
>rt 759.420000
>profile orbitrap
#smiles_iso CCC(=O)NC1=CC=CC(=C1)N
#smiles_can CCC(=O)NC1=CC=CC(=C1)N
#inchikey VGDKCRMZIWPMPW-UHFFFAOYSA-N
#pubchem_id 89953
#mb_accession LU137501,LU137502,LU137503,LU137504,LU137505,LU137506

>ms2peaks
72.044400 5906897.000000
92.049500 14311.900000
120.044500 139609.700000
122.060000 7373.500000
165.102300 3855286.200000

>ms2peaks
72.044400 5545994.000000
92.049500 17370.200000
120.044500 118711.200000
122.060000 7812.700000
165.102300 3534766.000000

>ms2peaks
56.013200 12290.200000
72.044400 7062730.000000
92.049500 106394.000000
95.049200 17462.400000
105.044600 8241.600000
109.052200 8467.200000
120.044500 301035.900000
122.059800 14125.900000
165.102400 579870.200000

>ms2peaks
53.038600 22092.200000
56.013100 25419.200000
72.044300 5774429.000000
77.038600 6804.400000
91.054300 7963.200000
92.049500 230977.600000
94.065300 14684.300000
95.049200 63389.700000
105.044700 29369.500000
109.052200 21838.600000
120.044400 205660.500000
122.060000 18733.400000
165.102400 46363.700000

>ms2peaks
53.038600 64971.900000
56.013100 68620.100000
65.038500 21979.100000
72.044300 7088309.000000
77.038500 17656.100000
92.049500 351529.000000
94.065000 11610.200000
95.049100 177089.400000
105.044800 78480.300000
120.044400 127188.600000
165.102100 7232.000000

>ms2peaks
53.038600 71986.600000
55.017800 6190.400000
56.013100 121006.800000
65.038500 60258.000000
72.044300 6099562.500000
77.038500 39941.700000
81.033500 9751.600000
91.054300 8055.300000
92.049500 300611.200000
94.065200 18791.000000
95.049100 228977.300000
105.044700 105229.500000
109.052200 10593.800000
120.044300 42723.300000

