>compound LU80674228
>parentmass 119.0604
>ionization [M+H]+
>formula C7H6N2
>rt 264.660000
>profile orbitrap
#smiles_iso C1=CC=C2C(=C1)NC=N2
#smiles_can C1=CC=C2C(=C1)NC=N2
#inchikey HYZJCKYKOHLVJF-UHFFFAOYSA-N
#pubchem_id 5798
#mb_accession LU134801,LU134802,LU134803,LU134804,LU134805,LU134806

>ms2peaks
91.054100 21170.800000
92.049400 79662.100000
119.060300 16908790.000000

>ms2peaks
65.038300 20292.800000
91.054300 20295.400000
92.049500 95614.500000
119.060300 18891180.000000

>ms2peaks
65.038500 24955.200000
91.054200 25866.800000
92.049400 147096.200000
119.060300 17354406.000000

>ms2peaks
65.038500 115383.400000
91.054200 32010.100000
92.049500 687003.400000
119.060300 17564872.000000

>ms2peaks
65.038600 640744.900000
91.054100 23154.100000
92.049500 2384646.800000
118.052200 19913.100000
119.060400 17426384.000000

>ms2peaks
65.038500 1523745.000000
91.054100 26385.100000
92.049400 3500843.200000
118.052300 25484.700000
119.060200 9808680.000000

