>compound LU80275085
>parentmass 203.0927
>ionization [M+H]+
>formula C10H10N4O
>rt 768.750000
>profile orbitrap
#smiles_iso CC1=NN=C(C(=O)N1N)C2=CC=CC=C2
#smiles_can CC1=NN=C(C(=O)N1N)C2=CC=CC=C2
#inchikey VHCNQEUWZYOAEV-UHFFFAOYSA-N
#pubchem_id 38854
#mb_accession LU091901,LU091902,LU091903,LU091904,LU091905,LU091906

>ms2
57.044700 49149.600000
72.044400 54771.900000
72.055600 16001.200000
79.054200 50987.600000
83.024000 30648.900000
89.038400 22761.800000
100.050500 17772.400000
104.049400 173355.200000
106.065100 173978.000000
117.033500 19976.800000
119.060500 17364.300000
130.065200 42924.600000
145.039600 240032.300000
158.071100 12259.000000
174.078800 267417.900000
175.097800 659039.600000
186.066000 23958.900000
203.092700 11402364.000000

>ms2
57.044700 116070.200000
72.044400 101321.000000
72.055600 48704.400000
77.038600 11312.000000
79.054200 109488.300000
83.023900 75541.800000
89.038500 46481.500000
95.049200 26700.800000
100.050600 25076.800000
103.054100 9471.500000
104.049400 361293.200000
106.065100 295414.300000
116.049400 13624.700000
117.033500 35090.200000
117.044600 18214.900000
117.057300 12067.300000
118.065100 12954.900000
119.060400 30239.200000
120.080700 12750.200000
130.065200 78770.400000
132.068100 13686.300000
134.071300 27241.100000
145.039600 477079.300000
158.060100 19775.900000
158.071300 31922.800000
159.079100 9900.700000
174.078800 518241.000000
175.097800 1488250.800000
186.066000 36474.300000
187.073900 11503.400000
203.092700 9188670.000000

>ms2
53.038600 72145.000000
55.017800 13070.000000
55.029100 22277.300000
56.013100 46891.400000
57.044700 284636.900000
59.024000 53628.200000
65.038500 5160.300000
66.046300 26089.800000
69.008300 4204.500000
71.036500 10199.500000
71.060200 3635.500000
72.044300 100467.500000
72.055600 158557.200000
77.038300 23969.100000
79.054200 263804.600000
80.049500 5943.300000
81.033300 6549.100000
81.057300 6304.800000
83.023900 254705.700000
89.038500 167857.100000
91.054200 20867.600000
92.025700 17470.500000
92.049400 52078.000000
93.033500 4317.900000
93.057300 11936.200000
94.041300 16722.100000
95.049100 206370.000000
100.050400 28395.800000
103.054200 19694.500000
104.049400 1041286.700000
105.033500 5607.200000
105.044700 81406.800000
105.057200 29325.600000
106.065100 381734.300000
107.060300 14314.300000
108.044300 10323.600000
115.054200 2726.300000
116.049500 24708.000000
117.033500 43790.300000
117.044700 71099.600000
117.057300 15187.000000
118.041200 3828.300000
118.052500 6080.200000
118.065000 25293.800000
119.060300 55806.600000
120.020400 3343.400000
120.080800 14147.600000
122.060000 4793.800000
130.065100 149144.800000
131.049000 3645.000000
131.060400 10320.400000
132.068200 23176.700000
132.080700 2823.400000
134.059800 12179.400000
134.071200 69003.100000
143.060500 14775.900000
145.039600 726399.900000
146.071000 3041.400000
146.083800 4056.600000
158.060500 13462.900000
158.071200 94142.800000
159.079000 64272.600000
173.070900 10048.700000
174.078800 821548.200000
175.097700 2572120.200000
186.066100 33013.500000
187.073800 23827.600000
202.084400 2759.400000
203.092600 2567274.500000

>ms2
50.015100 2523.900000
51.023000 2524.900000
53.038600 137714.000000
55.017900 11410.700000
55.029100 42267.800000
55.054200 8505.800000
56.013100 140136.800000
56.036900 10302.400000
57.044700 301117.500000
59.024000 127755.200000
65.038600 16702.700000
66.046400 47556.300000
69.008300 7521.500000
71.036500 12057.900000
71.060300 10012.100000
72.044400 39348.200000
72.055600 139961.800000
77.038400 40221.400000
79.054200 312344.300000
80.049400 19586.400000
81.033500 17565.500000
81.057300 10211.200000
83.024000 308935.300000
89.038600 213043.700000
91.041800 2898.800000
91.054300 21301.200000
92.025700 44703.200000
92.049500 110271.800000
93.033600 9409.600000
93.057400 22973.400000
94.041300 39085.700000
95.049200 427079.800000
100.050700 10481.000000
103.041700 4089.900000
103.054300 24895.700000
104.049500 1498549.100000
105.044800 184101.300000
105.057300 49427.400000
106.065100 205676.500000
107.060400 33597.700000
108.044400 21738.200000
109.052200 5679.100000
109.064800 3199.000000
116.049600 17765.800000
117.033600 13630.800000
117.044800 73894.500000
117.057300 10823.500000
118.041200 5582.600000
118.052500 36476.800000
118.065200 14763.800000
119.060400 44574.800000
120.020500 8949.300000
120.080800 6187.700000
121.028300 3926.600000
122.060200 6626.100000
130.028900 16790.600000
130.065200 122207.500000
131.049200 2291.900000
131.060300 16332.200000
131.072900 3821.900000
132.068200 15335.700000
134.060200 8203.300000
134.071300 61747.700000
136.075700 6189.600000
143.060400 10256.400000
145.039700 260789.000000
158.060100 3686.900000
158.071200 57349.000000
159.079100 101909.900000
160.063200 2646.200000
173.071200 13971.300000
174.078900 361734.700000
175.097900 1186819.600000
176.081900 4813.100000
186.066300 10193.300000
187.074000 20224.700000
203.092800 326836.200000

>ms2
50.015200 7019.600000
51.023000 4898.900000
53.038700 188120.900000
55.018000 15311.100000
55.029100 49013.800000
55.054300 13092.900000
56.013200 152348.300000
56.037000 22246.800000
57.044800 201516.600000
59.024000 151674.800000
63.023000 2521.400000
65.038600 45254.300000
66.046400 36469.500000
69.008400 7645.500000
71.036600 3802.700000
71.060400 11143.100000
72.044500 13572.300000
72.055600 48497.800000
77.038600 67284.900000
78.046500 2441.600000
79.054300 200361.500000
80.049500 21128.200000
81.033600 19694.800000
81.057300 4268.200000
81.069800 2821.700000
83.024000 187972.200000
89.038600 195512.900000
91.041800 7535.300000
91.054300 17618.400000
92.025800 22870.600000
92.049600 91079.200000
93.033600 6626.600000
93.057500 17404.000000
94.041400 29725.500000
95.049200 541972.400000
100.050400 3594.400000
103.041700 6169.400000
103.054300 19902.800000
104.049600 1399811.600000
105.044800 218154.400000
105.057400 37728.300000
106.041900 3619.000000
106.065200 63950.400000
107.060500 32751.600000
108.044500 13453.300000
109.052300 3770.100000
109.064900 3942.300000
115.054400 3046.500000
116.049800 10748.000000
117.044800 40414.100000
117.057300 8241.300000
118.041700 4918.300000
118.052600 61467.200000
118.065100 5997.700000
119.060500 22047.400000
120.020600 4794.700000
121.028500 2415.900000
122.060000 6343.800000
130.029000 18910.400000
130.065300 57763.500000
131.060600 6497.400000
132.068200 7213.100000
134.060400 2431.900000
134.071600 19849.400000
136.075800 3353.500000
145.039700 41874.400000
145.076000 5449.500000
158.071400 14224.800000
159.079300 50367.800000
173.071000 7245.400000
174.079000 69209.200000
175.098000 202989.200000
187.074100 5911.100000
203.093000 22808.300000

>ms2
50.015000 12727.100000
51.022900 21167.800000
53.038600 204813.600000
55.017800 13284.000000
55.029100 46131.100000
55.054200 14518.200000
56.013100 141280.300000
56.036900 34355.300000
57.044700 159909.200000
59.024000 161257.100000
63.022800 13948.800000
65.038500 75638.800000
66.046300 18212.400000
69.008300 5627.200000
71.060400 10125.900000
72.044300 7592.000000
72.055500 15492.500000
77.038500 87070.500000
78.046400 7281.700000
79.054200 132533.300000
80.049400 25892.400000
81.033400 20553.400000
83.024000 96692.300000
89.038500 176938.700000
90.046400 4180.400000
91.041700 20719.800000
91.054200 12739.800000
92.025700 11570.200000
92.049500 59120.700000
93.033500 4088.800000
93.057300 16741.400000
94.041400 20912.200000
95.049100 588863.100000
103.041700 9292.500000
103.054100 15408.300000
104.049400 1312414.800000
105.044700 247544.800000
105.057300 14241.600000
106.065100 19358.900000
107.060300 15519.300000
108.044300 5928.700000
109.064700 3191.900000
116.049500 5473.400000
117.044600 16353.000000
117.057500 5739.600000
118.041400 8861.000000
118.052400 67598.800000
119.060500 12696.000000
122.060000 6826.800000
130.028600 11736.600000
130.065100 21329.400000
131.060400 4305.000000
132.068200 4138.200000
134.071200 5656.200000
136.075700 7812.000000
145.039500 9065.000000
145.076100 5078.000000
159.079100 17425.300000
173.070500 5247.300000
174.078700 8099.500000
175.097800 24754.000000

