>compound LU80437509
>parentmass 226.0869
>ionization [M+H]+
>formula C7H11N7S
>rt 1068.480000
>profile orbitrap
#smiles_iso CC(C)NC1=NC(=NC(=N1)SC)N=[N+]=[N-]
#smiles_can CC(C)NC1=NC(=NC(=N1)SC)N=[N+]=[N-]
#inchikey AFIIBUOYKYSPKB-UHFFFAOYSA-N
#pubchem_id 3032472
#mb_accession LU084901,LU084902,LU084903,LU084904,LU084905,LU084906

>ms2
55.029100 2899.800000
56.049600 8675.100000
58.065200 290854.800000
68.024300 75156.600000
71.060400 4443.400000
74.005900 22794.600000
83.060400 236072.600000
85.076100 17405.200000
89.016800 66030.700000
91.032600 26205.500000
96.055500 4105.300000
99.001200 25096.100000
103.032500 9293.600000
108.030600 1904.800000
108.055700 15316.300000
110.046200 14531.000000
110.071300 18210.600000
112.087000 7610.200000
114.012200 70835.200000
116.027700 40714.900000
125.082300 687552.000000
126.066200 2649.200000
131.063900 2475.300000
141.010300 4057.500000
141.023100 67850.900000
150.077600 105508.000000
152.093200 84770.600000
155.038600 5316.300000
156.033900 706582.000000
158.049500 4835.000000
166.007400 31501.300000
168.033900 11396.400000
170.050000 3417.300000
171.070100 17921.200000
180.023500 11442.200000
183.057500 25984.600000
198.081000 463292.900000
226.087100 597912.600000

>ms2
55.029100 12059.200000
56.049500 38841.800000
58.065100 604195.600000
61.010600 4827.100000
62.005900 6544.400000
68.024300 283279.400000
71.060300 9035.900000
74.005800 76549.900000
82.040100 2461.000000
83.060400 557241.000000
84.055700 3866.000000
85.076100 32936.600000
89.016800 305055.500000
91.032500 34589.100000
93.019600 2400.300000
96.055700 9486.200000
99.001200 130568.600000
103.032500 12265.500000
108.030500 9515.900000
108.055600 41015.000000
110.046200 51712.200000
110.071300 31186.700000
112.087000 14420.800000
114.012100 283828.200000
116.027800 57042.500000
125.082200 906368.300000
126.066500 3268.200000
131.063900 3908.800000
136.061800 9414.200000
139.007000 2184.000000
141.010400 28502.200000
141.023000 129923.300000
147.996500 2936.800000
150.077500 171513.800000
152.093100 89971.000000
155.038600 3733.300000
156.033900 1760337.400000
158.049600 7765.800000
166.007500 37860.300000
168.033900 43282.700000
170.049900 3337.900000
171.069700 20007.000000
180.023400 7677.900000
182.049600 5734.500000
183.057500 49949.900000
198.080900 322087.200000
226.087100 203440.300000

>ms2
55.029100 25242.700000
56.049500 56447.100000
57.044800 2000.200000
58.065100 478423.200000
61.010600 6484.400000
62.005900 44607.100000
67.029100 2169.200000
68.024300 660504.800000
69.044700 8968.700000
71.060400 4112.900000
74.005900 104975.700000
81.044800 4769.400000
82.040000 2212.200000
83.035300 36643.100000
83.060400 344738.000000
84.055500 2021.800000
85.050900 2975.100000
85.076000 9873.800000
89.016800 637162.900000
91.032500 11985.500000
91.053900 2427.600000
93.019600 9902.000000
94.040000 3551.700000
96.055700 5046.300000
98.071200 1901.100000
99.001200 260523.200000
101.016900 6093.200000
108.030500 71988.000000
108.055600 29736.300000
109.051000 5612.400000
110.046200 72524.600000
110.071200 6307.200000
112.086800 8469.600000
114.012100 407307.400000
116.027600 24169.000000
123.066400 7739.100000
125.082200 262905.900000
131.027500 2611.800000
136.061800 27501.200000
138.012300 16223.300000
139.007400 4362.200000
141.010400 97929.200000
141.022900 43795.400000
147.996900 5026.200000
150.077500 70130.500000
152.028200 4659.100000
152.093000 11692.800000
155.021900 4406.100000
156.033900 816153.200000
158.049300 4250.200000
166.007400 18147.900000
168.033900 56753.800000
170.038800 2168.200000
171.069800 2826.200000
180.023300 5424.800000
182.049500 10779.900000
183.057500 14765.700000
198.080800 13470.200000
226.086800 2948.000000

>ms2
55.029100 50910.800000
56.049500 64506.200000
57.044800 2790.500000
58.065100 467856.700000
58.995100 3137.300000
59.990200 3307.100000
61.010700 9150.100000
62.005900 99200.200000
67.029000 2911.400000
68.024300 1239201.500000
69.044700 34575.300000
71.060300 3463.300000
71.990200 5020.400000
72.998100 8004.400000
74.005900 125822.200000
81.019600 4437.800000
81.044700 7686.000000
82.040100 5128.000000
83.035200 64310.700000
83.060400 192364.600000
84.985600 4009.300000
85.051000 3984.300000
85.076100 4177.800000
87.001200 5759.100000
89.016800 616092.800000
91.032400 6918.900000
91.054100 2993.500000
93.019600 37858.600000
94.040000 10935.400000
96.055600 4116.000000
98.071800 2388.100000
99.001200 355914.400000
101.016800 6793.400000
108.030500 220247.500000
108.055700 19734.400000
109.038400 3211.100000
109.050900 21113.800000
110.046100 76903.000000
112.086800 3960.400000
114.012100 367198.800000
116.027700 12830.600000
123.066600 14762.300000
125.082200 79282.700000
126.012000 3330.500000
131.027700 4180.000000
136.061900 26283.600000
138.012300 26763.700000
139.007100 4406.200000
141.010400 185282.600000
141.023000 19206.300000
150.077400 24345.200000
152.028200 5198.800000
155.022400 4763.200000
156.023500 12894.700000
156.033800 227652.900000
166.007600 4226.700000
168.033800 53961.400000
170.039000 3214.500000
182.049900 6227.200000

>ms2
55.029100 43021.900000
56.049500 36943.100000
57.032100 2281.800000
57.044700 3510.000000
58.065200 285619.800000
58.995000 4270.600000
61.010700 4490.400000
62.005900 94971.600000
67.016500 3657.400000
67.029100 7683.100000
68.024300 1290724.800000
69.044700 37223.300000
71.060400 3251.900000
71.990300 12147.900000
72.998100 21885.800000
73.993400 16768.700000
74.005900 114421.300000
81.019600 9336.100000
81.044700 4830.600000
82.040000 5299.300000
83.035300 39559.500000
83.060400 59520.200000
84.985600 6282.200000
85.993300 3027.300000
87.001100 4562.100000
89.016800 249875.800000
91.054300 3183.100000
93.019600 55882.200000
94.040000 14704.400000
96.055700 4853.300000
99.001200 260568.100000
101.016900 5075.100000
108.030500 208235.400000
109.038400 4642.500000
109.050900 23921.000000
110.046200 44026.100000
114.012100 134318.900000
116.027700 3293.100000
123.066600 14470.800000
125.082300 14152.300000
126.012200 2417.800000
131.027400 3061.000000
136.061700 9220.900000
138.012200 23308.500000
141.010400 141917.100000
141.022800 10488.200000
150.077700 5986.900000
152.028500 6060.900000
155.022400 6454.000000
156.023000 20244.600000
156.033900 32351.800000
168.034000 22343.600000
170.038900 3800.400000
182.048900 3798.900000

>ms2
55.029100 45423.300000
56.049500 29809.700000
57.032200 2772.800000
57.044800 3195.800000
58.065100 211582.100000
58.995000 8977.900000
59.990300 5736.800000
61.010700 3925.800000
62.005900 86323.900000
67.016600 5541.500000
67.029100 11269.400000
68.024300 1419441.500000
69.044700 31223.800000
71.990200 16123.300000
72.998100 33460.000000
73.993300 23218.000000
74.005900 84661.300000
81.019500 12208.800000
81.044600 3584.900000
82.040000 7238.300000
83.035200 30816.400000
83.060400 27666.500000
84.055700 2975.800000
84.985500 13192.400000
85.993400 2233.300000
87.001100 3408.000000
89.016800 103197.600000
91.054200 2075.800000
93.019600 83706.200000
94.040100 15715.700000
96.055900 5179.100000
99.001200 189138.000000
101.016900 4236.500000
108.030500 129293.500000
109.050900 23748.900000
110.046200 18703.300000
114.012100 38401.200000
116.027600 2071.500000
123.066600 9845.900000
125.082800 2500.100000
126.012200 2633.800000
131.027400 2614.400000
136.061900 3967.800000
138.012600 13821.000000
141.010400 86967.200000
141.023000 7092.200000
152.028400 2373.000000
155.022200 2856.500000
156.022900 9334.700000
156.033900 4856.400000
168.033800 5460.100000
170.039000 3873.300000

