>compound LU80104955
>parentmass 431.2428
>ionization [M+H]+
>formula C25H34O6
>rt 1089.000000
>profile orbitrap
#smiles_iso CCCC1O[C@@H]2C[C@H]3[C@@H]4CCC5=CC(=O)C=C[C@@]5([C@H]4[C@H](C[C@@]3([C@@]2(O1)C(=O)CO)C)O)C
#smiles_can CCCC1OC2CC3C4CCC5=CC(=O)C=CC5(C4C(CC3(C2(O1)C(=O)CO)C)O)C
#inchikey VOVIALXJUBGFJZ-KWVAZRHASA-N
#pubchem_id 5281004
#mb_accession LU116901,LU116902,LU116903,LU116904,LU116905,LU116906

>ms2
71.049100 5193.400000
121.065000 5948.600000
135.080400 3196.300000
147.080500 33272.100000
155.070300 4357.000000
161.096200 5048.600000
163.075600 2923.500000
165.091500 2647.600000
171.080600 12164.800000
173.096200 28011.900000
187.111900 5527.900000
197.096800 2466.500000
199.111800 3481.500000
209.096000 3435.500000
211.111700 4411.300000
213.127500 2956.700000
223.112000 6670.800000
225.127400 19451.900000
226.134600 4129.700000
227.143500 17394.700000
237.127600 5513.100000
239.143100 7025.500000
241.159000 5252.800000
249.127400 3869.800000
251.143700 4678.700000
253.158300 2933.700000
261.127700 5240.200000
263.143200 25071.100000
265.122900 3552.200000
265.158800 14449.500000
267.174600 10149.200000
275.142800 2516.100000
277.158900 27606.300000
279.138800 7603.200000
279.174300 6062.200000
281.154000 10202.500000
283.169600 11879.700000
287.143500 8324.600000
289.159100 13755.500000
293.153700 10529.800000
295.169200 27886.500000
305.154000 51671.600000
307.169600 25448.600000
311.164900 3003.900000
323.164500 143613.600000
341.175100 53223.600000
413.232700 197604.000000

>ms2
55.054300 2036.000000
69.069800 2235.200000
71.049000 11163.800000
79.054100 2360.600000
81.069900 4974.900000
83.049200 2321.400000
87.044000 2416.300000
93.069900 4483.700000
95.049000 1915.600000
95.085500 6011.500000
97.064900 2608.100000
101.023400 7491.700000
105.069800 4001.500000
107.085500 7060.400000
109.065000 3585.100000
119.085600 5043.200000
121.064800 31644.800000
123.080500 2733.500000
131.085300 2682.800000
133.064800 3700.300000
133.101300 3195.600000
135.080400 19656.900000
137.059900 8974.000000
139.075300 5079.200000
143.085300 2367.700000
145.064800 2462.400000
145.101300 3322.700000
147.080500 117150.100000
149.059800 4104.000000
151.075500 3784.100000
155.070400 8234.900000
155.085300 2420.500000
157.100900 2573.800000
159.080400 16269.600000
161.096100 15318.300000
163.075300 14025.200000
165.090500 3720.600000
171.080500 46377.700000
173.096300 83902.000000
185.096400 12845.700000
187.112000 10826.800000
195.080900 3133.600000
197.096300 13472.900000
199.112000 11618.200000
201.090200 2446.500000
208.088000 2267.500000
209.096100 7266.300000
211.111600 9943.800000
213.091600 2500.200000
213.127300 7341.300000
221.096100 6432.400000
223.111600 23269.400000
225.127600 59659.300000
226.135600 20047.700000
227.143100 30360.300000
234.103100 2026.000000
235.112100 12845.900000
237.127700 20483.000000
239.106400 2594.800000
239.143100 15152.500000
241.158600 8368.600000
248.119500 3440.200000
249.127900 12514.300000
251.142900 12798.400000
253.158700 5908.200000
261.127800 9480.000000
262.135200 5747.500000
263.107300 3686.600000
263.143100 42698.800000
264.150900 4530.700000
265.122900 2841.800000
265.158600 36843.700000
267.174200 5202.700000
272.119500 2689.300000
275.143200 9574.300000
277.158800 43989.900000
279.138000 8300.400000
279.173600 3227.700000
281.153500 12870.900000
283.169300 15032.500000
287.142800 18767.000000
289.159300 6055.600000
293.152900 10089.400000
295.169700 22325.700000
305.153800 32031.200000
307.169300 2537.200000
311.164900 2655.100000
323.164300 40098.000000
341.175200 5908.100000
413.232400 19390.500000

>ms2
55.017900 3185.800000
55.054300 3600.800000
67.054300 2411.400000
69.033500 4472.800000
69.069900 3354.700000
71.049100 5894.600000
79.054300 6239.400000
81.033500 2909.600000
81.069900 17495.700000
83.049000 2555.200000
87.044000 3641.100000
91.054300 9197.700000
93.070000 12794.600000
95.049300 2267.700000
95.085500 8148.300000
97.064900 2475.100000
101.023400 4544.200000
105.070000 15071.100000
107.085500 10052.900000
109.064800 10735.200000
117.069800 4843.200000
119.085800 15311.400000
121.064800 56364.300000
123.080400 2962.200000
129.069800 4534.400000
131.085600 8358.400000
133.064900 6265.300000
133.101500 3299.400000
135.080500 23194.800000
137.059700 9418.900000
139.075700 3795.800000
143.085700 5182.300000
145.064800 13627.400000
145.101300 6921.700000
147.080500 172212.300000
149.059500 2929.200000
149.096600 2667.700000
151.075400 3096.700000
155.085700 5764.400000
157.101300 5309.300000
158.072700 5553.300000
159.080500 24589.800000
161.096100 13707.000000
163.075200 10095.100000
167.085700 2142.600000
171.080500 67908.500000
173.096200 95960.400000
179.085700 2277.600000
181.101400 2874.400000
183.080400 4706.600000
185.096400 19081.000000
187.112100 6902.000000
193.101500 4093.200000
195.080700 6430.200000
196.088200 5674.300000
197.096400 20575.200000
199.111800 9041.100000
201.091400 2638.700000
205.100500 2357.100000
207.117000 10333.500000
208.088200 6244.600000
209.096300 16621.200000
210.103600 13215.300000
211.111800 22662.400000
213.091700 2726.100000
213.127600 7919.800000
219.117700 2688.200000
220.089300 2595.800000
221.096200 14011.400000
222.104000 9084.000000
223.111700 17731.300000
224.119400 4594.400000
225.127400 39277.700000
226.135200 21938.700000
227.143600 9137.600000
230.109100 2451.000000
233.096400 3823.900000
234.104100 4008.900000
235.111900 16318.900000
236.119800 3274.000000
237.127500 21998.900000
239.105300 2083.500000
239.143200 8375.700000
241.159300 3174.700000
246.104400 3701.200000
247.111700 6758.800000
248.119300 13703.100000
249.127500 10957.200000
251.143000 8275.300000
259.112900 2645.600000
261.127200 6221.300000
262.135300 7587.200000
263.107100 2233.200000
263.143300 14614.400000
264.150800 6526.500000
265.158700 13116.300000
272.119600 9087.800000
275.143000 3904.000000
277.158400 14029.100000
279.137900 2081.100000
281.154600 4484.800000
287.143500 4681.600000
305.154000 7689.300000

>ms2
53.038600 3047.500000
55.017900 6734.700000
55.054200 7389.000000
67.054200 7194.100000
69.033400 6996.300000
69.069800 2574.500000
71.049100 3008.200000
79.054300 15016.000000
81.033700 2664.900000
81.069900 19674.900000
83.049100 4481.400000
91.054200 33935.800000
93.069900 17809.000000
95.049200 8522.600000
95.085500 7009.700000
97.065000 2369.800000
101.023400 3368.800000
105.069900 26979.500000
107.049200 9029.500000
107.085500 14243.100000
109.064900 14098.600000
115.054000 3805.600000
117.069800 9869.200000
119.085600 29715.800000
121.064800 76931.700000
123.080300 4053.700000
128.062100 10818.500000
129.070100 10190.400000
130.077700 3049.900000
131.085300 11762.900000
132.056900 7458.600000
133.064700 4881.100000
133.101300 2321.900000
135.080400 19736.400000
137.059700 6817.200000
139.075200 2862.400000
141.069600 4821.600000
142.077700 4599.300000
143.085500 8315.400000
145.064800 20231.500000
145.101200 14757.500000
146.072900 3839.600000
147.080500 141496.500000
149.095900 2325.300000
153.069700 2573.300000
154.077600 2979.800000
155.085500 14015.300000
157.065300 2453.100000
157.101200 3048.200000
158.072700 32582.100000
159.080600 26082.400000
161.096200 10188.800000
163.075300 3856.100000
165.069500 4143.700000
167.085600 5490.300000
169.065100 3017.700000
170.073100 5029.100000
171.080500 68707.700000
173.096200 55402.400000
178.078400 3295.000000
179.085700 8250.600000
181.064400 5791.700000
181.101100 5571.200000
182.072400 4611.100000
183.080600 9560.700000
184.088400 3110.000000
185.096000 14034.600000
187.111600 4389.200000
190.076900 3778.700000
191.085600 6196.100000
192.093500 9986.300000
193.101200 9389.100000
195.080800 13220.700000
196.088500 12178.900000
197.096300 19420.600000
198.104100 4636.900000
199.111500 6663.000000
204.093500 3384.900000
205.101600 5000.300000
207.116700 8680.600000
208.088600 10695.600000
209.096300 21945.900000
210.103800 19926.900000
211.111700 32047.900000
215.086000 2202.700000
217.101300 3409.600000
219.080400 4134.300000
219.116900 4411.000000
220.088700 4856.600000
221.096100 17249.600000
222.103800 11103.600000
223.112200 14619.900000
224.119300 4150.700000
225.127300 10993.900000
226.135300 7935.000000
227.143400 2667.000000
229.100900 3880.700000
230.108700 3457.200000
231.080400 2612.300000
232.087700 5084.900000
233.096400 8386.500000
234.104300 9115.900000
235.111800 16010.400000
236.119400 3615.700000
237.127200 5607.200000
239.142900 3023.300000
245.096200 3890.300000
247.112500 9199.500000
248.119500 12564.100000
249.127300 6267.500000
251.142800 3717.700000
259.110300 2440.300000
261.127800 4264.900000
262.135400 5509.400000
263.143300 3945.100000
272.119800 4637.600000

>ms2
53.038700 4471.200000
55.017900 8865.200000
55.054300 7459.900000
65.038600 3436.800000
67.054300 8831.100000
69.033500 6551.800000
79.054200 18150.600000
81.033600 2392.000000
81.069900 15755.400000
91.054300 66687.200000
93.070000 15562.800000
95.049100 14448.000000
95.085600 4449.400000
97.065000 2598.300000
103.054300 6985.500000
105.070000 27866.300000
107.049400 7694.500000
107.085600 8095.100000
109.064900 10111.500000
115.054400 17533.300000
116.062200 4571.000000
117.069900 19322.300000
119.085600 35334.700000
121.064900 56631.100000
128.062200 22562.200000
129.069900 19224.800000
130.077800 5929.500000
131.049100 4849.800000
131.085600 9775.300000
132.057100 21119.000000
133.064700 1943.600000
133.101400 2866.400000
135.080700 8007.500000
141.069900 11058.200000
142.077800 7033.800000
143.085800 6535.600000
144.057100 6831.900000
145.064900 23091.500000
145.101300 9894.200000
146.072800 5867.000000
147.080500 73216.200000
152.062000 2166.600000
153.070000 6657.900000
154.078100 2910.900000
155.085600 11995.900000
157.064900 4683.300000
157.101400 2734.100000
158.072700 43156.000000
159.080500 16184.100000
161.096200 4181.400000
165.070100 9697.700000
166.078100 3576.000000
167.085800 4882.300000
169.065100 8661.000000
170.072500 4142.400000
171.080600 40495.000000
172.088300 2710.400000
173.096200 15867.100000
178.077900 11402.800000
179.085600 14062.300000
181.064900 14053.000000
181.101500 3426.600000
182.072700 6899.200000
183.080900 6409.700000
184.088700 3063.200000
185.096400 5763.600000
190.077600 5877.900000
191.086000 10850.400000
192.093700 13107.500000
193.101700 10250.100000
194.073000 5468.000000
195.080600 21432.700000
196.088500 10482.200000
197.096300 11751.500000
198.104400 2958.700000
202.078400 2479.000000
203.085700 6494.300000
205.101500 4693.500000
207.080600 5267.600000
207.117000 4513.800000
208.088500 11875.100000
209.096300 14749.400000
210.104000 9164.000000
211.112000 15177.200000
215.085800 2980.300000
216.093400 4354.400000
217.102000 2528.600000
218.072900 3129.100000
219.080700 4281.800000
219.117700 3783.900000
220.088500 7817.900000
221.096500 11896.000000
222.104200 8305.700000
223.111900 5231.900000
229.101200 4676.000000
231.080400 3217.700000
232.088900 5435.200000
233.096300 8928.300000
234.104400 7100.200000
235.112200 8198.000000
237.128200 2642.200000
245.096000 3927.800000
246.104600 2779.900000
247.111900 6211.000000
248.119500 3657.000000
249.127900 2927.400000
261.129300 2300.800000

>ms2
53.038600 11774.300000
55.017900 11034.000000
55.054300 8634.500000
65.038600 7774.300000
67.054100 9778.200000
69.033500 5769.700000
79.054300 25420.500000
81.033700 2277.600000
81.069900 13205.300000
91.054300 88114.800000
93.069900 13401.100000
95.049100 23846.500000
95.085500 2843.900000
103.054200 15572.700000
105.070000 27300.400000
107.049100 12622.300000
107.085500 2250.000000
109.065000 5316.100000
115.054200 28502.700000
116.062200 6992.400000
117.070000 23482.400000
119.085500 29616.800000
121.064800 37051.500000
128.062200 41305.400000
129.069900 24418.500000
130.077900 8942.100000
131.049100 13318.600000
131.085500 5958.100000
132.057000 28341.700000
141.070000 16226.200000
142.078000 6005.700000
143.085500 5359.500000
144.056800 12041.100000
145.064900 21057.200000
145.101000 4394.300000
146.072900 4423.600000
147.080500 26236.300000
152.062400 10362.900000
153.070100 12289.400000
154.077800 2144.500000
155.085500 11826.600000
157.064700 10443.500000
158.072700 32709.900000
159.080600 6824.500000
165.069900 23307.400000
166.078000 5629.700000
167.085600 9315.500000
169.065000 11699.400000
170.072500 3322.100000
171.080500 22799.500000
172.087700 2344.700000
173.096200 3456.000000
178.077800 23288.000000
179.085600 16667.400000
181.065000 18260.100000
181.101200 2931.000000
182.072900 6266.300000
183.080600 6609.100000
190.077800 6135.900000
191.085700 13996.000000
192.093500 11029.600000
193.101400 7994.300000
194.072800 7020.700000
195.080400 21985.400000
196.088100 9591.800000
197.096300 3206.900000
202.077800 6320.000000
203.085600 6116.400000
204.093600 2783.800000
205.101400 6164.800000
207.081000 9111.400000
207.117200 2181.600000
208.088700 7397.100000
209.096200 5952.700000
211.112200 6498.400000
215.085800 5771.800000
216.093800 4391.400000
218.073200 4349.900000
219.080500 5217.200000
220.088300 2641.600000
221.096200 7027.800000
222.103700 3560.300000
229.100300 3848.600000
231.080600 5440.000000
232.088900 5419.700000
233.096500 6081.000000
245.095800 3299.800000
247.112300 3534.000000

