>compound LU81089508
>parentmass 237.07890000000003
>ionization [M+H]+
>formula C12H13ClN2O
>rt 994.560000
>profile orbitrap
#smiles_iso CC(C#C)N(C)C(=O)NC1=CC=C(C=C1)Cl
#smiles_can CC(C#C)N(C)C(=O)NC1=CC=C(C=C1)Cl
#inchikey BYYMILHAKOURNM-UHFFFAOYSA-N
#pubchem_id 19587
#mb_accession LU019601,LU019603,LU019604,LU019605,LU019606

>ms2
53.038600 12816.700000
58.065200 10766.500000
68.049500 11252.000000
69.033400 11093.400000
84.080800 281684.600000
110.060100 25866.000000
128.026200 3737.800000
167.037400 4928.100000
185.047500 10131.900000
222.055600 7900.800000
237.079100 1614166.800000

>ms2
51.023000 2475.500000
53.038600 59863.400000
55.054200 12240.400000
56.049600 12049.500000
57.070000 1801.000000
58.028700 7660.500000
58.065200 36132.100000
68.049500 24341.000000
69.033500 23101.600000
69.057300 3475.100000
70.065200 2080.200000
72.080700 3093.200000
82.065200 3578.900000
84.080800 326173.600000
93.057400 8247.200000
110.060000 6231.400000
118.065200 6258.800000
126.010500 61385.200000
127.018200 3318.100000
128.026200 40890.900000
130.065200 7889.400000
140.025800 2007.100000
144.080800 10342.300000
145.088500 6822.600000
152.025900 4034.000000
152.997700 6420.500000
153.034000 3131.200000
154.005500 17701.100000
159.091700 12281.900000
167.037100 34947.800000
178.041900 6882.100000
185.047600 10952.300000
193.029300 3991.200000
193.052500 3697.400000
194.060500 4760.900000
207.032400 11639.000000
222.055700 32896.200000
237.079100 321658.200000

>ms2
51.022900 2356.200000
53.038600 96758.200000
55.054200 26550.200000
56.049500 15307.800000
57.070000 2596.100000
58.028700 11764.100000
58.065100 37207.500000
67.041500 1658.500000
68.049400 46196.500000
69.033400 24004.000000
69.057200 3005.300000
70.065000 3421.800000
72.080600 3866.800000
82.065200 4614.500000
84.080800 185761.600000
90.033800 2127.500000
93.057300 33808.300000
98.999600 10012.000000
118.065100 16564.500000
126.010500 178201.100000
127.018400 12538.500000
128.026100 53811.700000
130.065200 12537.900000
139.005800 2755.500000
143.073100 4531.700000
144.080800 12154.200000
145.088700 4745.400000
152.026200 7092.100000
152.997600 15616.000000
153.033900 4904.500000
154.005300 17688.000000
159.091700 22160.100000
164.025400 2030.400000
167.037000 33392.600000
178.041700 7375.800000
185.047700 4646.900000
193.029200 3176.400000
193.053000 8941.600000
194.061300 3059.200000
207.032100 17539.800000
222.055500 13320.300000
237.078900 57034.900000

>ms2
51.023000 4119.800000
53.038600 104249.800000
55.017800 1948.600000
55.054300 24960.100000
56.049500 16602.700000
58.028800 15089.500000
58.065200 33144.700000
67.041700 2848.000000
68.049500 53444.000000
69.033500 13435.300000
69.057300 4908.500000
70.065200 2612.800000
84.080900 61978.000000
90.033700 5117.400000
93.057400 63134.600000
98.999700 45226.900000
117.057500 2770.300000
118.065200 20938.800000
126.010600 201951.900000
127.018400 16451.300000
128.026200 31896.300000
129.010500 4100.100000
130.065200 15827.500000
139.005900 4803.700000
140.025900 2215.900000
143.072800 1843.600000
144.080800 12486.300000
152.026100 6226.000000
152.997600 9404.500000
154.005500 3945.800000
159.092100 7746.600000
167.037300 10892.200000
178.041800 6214.200000
193.053000 12204.900000
207.032100 13404.400000
237.079400 3074.100000

>ms2
51.023000 4693.600000
53.038600 79182.000000
55.017800 2646.300000
55.054200 18179.600000
56.049500 12412.900000
58.028800 15436.300000
58.065200 22568.100000
68.049500 40201.900000
69.033500 5419.800000
69.057300 2687.000000
84.080800 15089.900000
90.033900 8434.900000
93.057400 83885.100000
98.999700 92755.800000
117.057300 2425.300000
118.065200 16728.900000
126.010600 150078.000000
127.018400 15236.600000
128.026300 9478.300000
129.010400 5711.500000
130.065200 11524.100000
139.005800 7369.900000
144.081100 9154.600000
152.026100 3342.200000
152.997700 6814.600000
164.025800 2469.800000
167.037100 2227.600000
178.041900 2038.500000
193.053000 5995.300000
207.032400 2871.700000

