>compound LU81812462
>parentmass 447.3316
>ionization [M+H]+
>formula C24H46O7
>rt 1228.080000
>profile orbitrap
#smiles_iso CCCCC(CC)C(=O)OCCOCCOCCOCCOC(=O)C(CC)CCCC
#smiles_can CCCCC(CC)C(=O)OCCOCCOCCOCCOC(=O)C(CC)CCCC
#inchikey GYHPTPQZVBYHLC-UHFFFAOYSA-N
#pubchem_id 28999
#mb_accession LU135001,LU135002,LU135003,LU135004,LU135005,LU135006

>ms2peaks
57.069900 2947.000000
171.138100 298293.900000

>ms2peaks
57.069900 32500.800000
73.028400 5354.200000
101.059800 2432.300000
171.138100 381540.800000

>ms2peaks
57.069900 62120.700000
73.028400 21095.200000
101.059900 5030.300000
109.101200 2418.900000
171.138000 144904.800000

>ms2peaks
57.069900 78791.800000
73.028400 36139.900000
101.059800 6446.200000
109.101500 2757.600000
171.137900 47871.700000

>ms2peaks
57.069900 80756.600000
73.028400 34486.800000
101.059800 7014.200000
171.138000 6824.700000

>ms2peaks
57.069900 49331.000000
73.028400 14718.600000
101.059900 3079.300000

