>compound LU81296454
>parentmass 308.1524
>ionization [M+H]+
>formula C16H22ClN3O
>rt 1115.470000
>profile orbitrap
#smiles_iso CC(C)(C)C(CCC1=CC=C(C=C1)Cl)(CN2C=NC=N2)O
#smiles_can CC(C)(C)C(CCC1=CC=C(C=C1)Cl)(CN2C=NC=N2)O
#inchikey PXMNMQRDXWABCY-UHFFFAOYSA-N
#pubchem_id 86102
#mb_accession LU119001,LU119002,LU119003,LU119004,LU119005,LU119006

>ms2
70.039900 2366581.000000
125.016300 44945.000000
308.152400 20032714.000000

>ms2
57.069900 162281.800000
59.049100 61157.500000
69.069900 24357.300000
70.039900 18433508.000000
71.085500 28897.000000
83.085500 90649.900000
125.015300 355129.100000
139.031000 124746.100000
151.030900 343411.900000
165.046600 127928.500000
179.061800 26535.400000
308.152600 5092967.000000

>ms2
55.054300 50052.200000
57.069900 365600.100000
59.049200 325937.800000
69.069800 58612.200000
70.039900 21054100.000000
71.085500 31437.000000
83.085500 184178.400000
115.054200 53708.000000
116.062000 45735.700000
125.015300 1165532.400000
130.077700 21121.200000
139.030900 194736.200000
151.030900 744274.100000
165.046600 197797.400000
179.062100 47514.200000
308.152800 105380.400000

>ms2
55.054300 115069.500000
57.069900 362548.700000
59.049100 505548.800000
69.069800 44951.900000
70.039900 20371682.000000
83.085500 124579.100000
103.054200 40160.900000
115.054200 215888.000000
116.062000 274815.800000
125.015200 1871537.500000
129.069800 45891.400000
130.077600 90389.600000
139.030900 156692.000000
143.060300 31412.900000
144.093300 24194.600000
151.030900 544392.200000
165.046600 118287.700000
179.061900 22845.900000

>ms2
53.002200 23130.100000
55.054200 136051.900000
57.069900 301860.800000
59.049100 563480.100000
69.069800 37364.700000
70.039900 18432262.000000
83.085500 54784.100000
89.038500 62879.600000
91.054300 28858.000000
98.999700 29227.800000
103.054200 97749.500000
115.054200 305568.000000
116.062000 513789.200000
125.015200 2133112.500000
128.061800 18731.300000
129.069700 75183.700000
130.077600 118009.400000
133.064800 21520.400000
137.015300 24605.000000
139.030800 92314.100000
143.060400 31160.000000
144.093200 19206.800000
151.030900 200302.300000
165.046300 29368.500000

>ms2
53.002200 24986.900000
55.054200 127496.600000
57.069900 211706.300000
59.049100 571458.200000
69.069800 26638.500000
70.039900 17418476.000000
83.085600 22858.900000
89.038500 262708.200000
90.046300 41255.300000
91.054300 27995.400000
95.049200 24871.100000
98.999600 95724.500000
102.046500 24622.800000
103.054200 131452.000000
115.054200 477662.100000
116.062000 636318.800000
125.015200 2197979.500000
128.061900 32622.500000
129.069800 105117.000000
130.077700 103260.100000
137.015400 19478.200000
139.031000 29603.800000
143.060400 19651.300000
151.030900 49862.200000

