>compound LU81759644
>parentmass 403.3054
>ionization [M+H]+
>formula C22H42O6
>rt 1211.940000
>profile orbitrap
#smiles_iso CCCCOCCOC(=O)CCCCCCCCC(=O)OCCOCCCC
#smiles_can CCCCOCCOC(=O)CCCCCCCCC(=O)OCCOCCCC
#inchikey KZBSIGKPGIZQJQ-UHFFFAOYSA-N
#pubchem_id 67329
#mb_accession LU089101,LU089102,LU089103,LU089104,LU089105,LU089106

>ms2peaks
55.054300 3061.500000
57.069900 3529.700000
83.085400 3211.900000
101.096200 12528.100000
211.133200 4173.300000
213.148600 26704.800000
229.143700 46149.800000
273.169600 6280.800000
285.206300 105389.700000
329.232600 443324.300000

>ms2peaks
55.054200 25182.900000
57.069900 39397.400000
59.049100 3989.900000
67.054300 1705.600000
69.069800 2967.800000
71.049200 1745.200000
81.069900 5355.100000
83.085600 13282.600000
93.070000 4787.400000
97.065100 2389.200000
99.044100 4805.600000
101.096100 21277.100000
121.101200 10305.100000
139.112100 11246.700000
203.127900 5511.700000
211.133000 70502.400000
213.148500 55243.300000
229.143500 167833.800000
273.169700 19780.800000
285.206000 25177.200000
329.232700 65571.400000

>ms2peaks
55.018000 6949.700000
55.054300 21059.900000
57.033600 3545.400000
57.069900 43519.800000
59.049200 1905.500000
67.054200 19625.600000
69.069800 37117.400000
71.049300 3182.300000
73.028400 9043.400000
79.054200 17405.600000
81.069900 39222.500000
83.049200 7406.300000
83.085600 5255.500000
91.054300 3448.200000
93.069900 29732.000000
95.085600 17330.200000
97.064800 13408.300000
97.101300 13592.500000
99.044100 74718.500000
105.069700 3141.700000
107.085700 7171.400000
121.101200 34745.900000
123.116900 6974.300000
139.111900 20458.400000
203.128100 2522.500000
211.133100 76918.900000
213.148700 36540.400000
229.143700 58306.400000
273.170100 2306.900000

>ms2peaks
53.002100 2020.400000
55.017900 19982.400000
55.054200 37063.000000
57.033500 4747.000000
57.069900 24734.700000
59.049200 2764.400000
67.054200 33729.900000
69.069800 66443.900000
71.049000 2986.200000
73.028400 7950.900000
79.054200 30415.100000
81.069900 47426.200000
83.049100 8866.000000
83.085500 3723.900000
85.065000 3543.200000
91.054400 6303.000000
93.069900 39365.300000
95.049100 2783.800000
95.085500 30166.200000
97.064700 12498.900000
97.101200 11535.600000
99.044100 84154.700000
107.085500 3530.500000
121.101200 14573.400000
123.116800 2175.200000
131.085500 2203.400000
139.111900 3163.200000
211.133200 7529.400000
213.148700 2779.300000
229.143900 5162.200000

>ms2peaks
53.002200 1935.800000
53.038600 2400.800000
55.017900 38252.500000
55.054300 51346.900000
57.033500 5636.000000
57.069900 17573.700000
67.054200 35729.700000
69.069900 53304.300000
71.049000 2568.700000
73.028500 3979.200000
79.054200 33409.700000
81.069900 42010.900000
83.049100 5680.700000
91.054200 8120.400000
93.070000 32192.100000
95.049100 2806.900000
95.085600 26672.800000
97.064800 8688.100000
97.101200 5246.100000
99.044100 37819.400000
105.069900 3290.100000
121.101200 4667.300000

>ms2peaks
53.002300 6378.200000
55.017900 45832.500000
55.054300 55544.300000
57.033600 2365.700000
57.069900 10751.000000
67.054200 35719.900000
69.069900 39921.300000
79.054300 31963.600000
81.069900 25674.400000
83.049200 4070.300000
91.054400 8388.900000
93.070000 16911.100000
95.049200 9319.300000
95.085600 11862.500000
97.064900 4474.200000
99.044200 14796.000000

