>compound LU81382431
>parentmass 372.1586
>ionization [M+H]+
>formula C19H22ClN5O
>rt 804.420000
>profile orbitrap
#smiles_iso C1CN(CCN1CCCN2C(=O)N3C=CC=CC3=N2)C4=CC(=CC=C4)Cl
#smiles_can C1CN(CCN1CCCN2C(=O)N3C=CC=CC3=N2)C4=CC(=CC=C4)Cl
#inchikey PHLBKPHSAVXXEF-UHFFFAOYSA-N
#pubchem_id 5533
#mb_accession LU071201,LU071202,LU071204,LU071205,LU071206

>ms2
176.081800 54506.800000
372.158800 3552635.200000

>ms2
78.033900 3108.600000
133.076000 6703.800000
148.050500 189147.900000
148.086700 36075.500000
176.081800 2286050.000000
180.076600 3422.300000
237.115200 21497.900000
372.158700 1415299.800000

>ms2
54.033800 3048.800000
56.049500 3419.200000
69.044800 4808.000000
70.028700 3326.000000
70.065100 27692.800000
78.033600 33640.100000
80.049500 33455.800000
82.028900 4618.100000
92.037000 4870.500000
93.044800 58171.300000
94.052600 7937.900000
95.036400 4164.900000
95.060500 9700.300000
96.044400 565701.600000
105.044700 27919.400000
106.065100 10722.900000
107.060400 19292.000000
110.060100 14042.700000
111.055300 16269.500000
116.049500 5468.900000
117.057200 3536.700000
118.065200 15864.100000
119.060300 32673.300000
119.073100 4302.300000
120.032000 11882.500000
120.055600 28899.300000
120.068300 6429.800000
120.080700 9288.500000
121.039700 21567.800000
121.076100 63636.900000
123.055300 37920.700000
131.060500 12655.500000
132.068200 12191.100000
133.076100 173993.600000
134.060100 18323.400000
135.042700 46117.200000
136.050500 28638.400000
138.010600 4903.100000
148.050600 2281040.500000
148.086700 555193.100000
154.041700 13099.700000
166.041800 24451.900000
176.081900 752658.800000
180.076800 32967.100000
194.060700 15287.200000
209.084000 22934.100000
237.115600 7633.800000

>ms2
50.015200 2411.600000
51.023000 5340.300000
53.002200 2613.500000
54.033800 7155.900000
55.041600 4126.500000
56.049500 10275.500000
65.038600 4356.300000
67.041600 4027.700000
68.049600 3513.700000
69.044700 12626.300000
70.065100 36179.900000
78.033800 98707.500000
79.041600 4017.300000
79.054300 2501.600000
80.049500 65358.100000
82.028700 7225.200000
92.036900 36404.500000
92.049500 6141.700000
93.044800 106171.200000
94.052600 27449.200000
94.065200 6449.900000
95.036500 12339.900000
95.060500 17487.000000
96.044400 1419925.200000
98.048600 3193.700000
104.049500 3673.500000
105.044700 61073.300000
106.065200 17077.200000
107.060400 39636.700000
110.060100 29305.100000
111.055300 17948.200000
116.049600 14190.300000
117.057400 9227.900000
118.052200 11166.200000
118.065100 26716.100000
119.060400 76931.000000
119.072800 10307.800000
120.031900 66273.700000
120.055600 64044.100000
120.068200 15147.700000
120.080700 12896.500000
121.039700 35505.400000
121.076000 98032.500000
123.055300 53340.500000
131.060400 23418.600000
132.068200 23707.000000
133.076000 128459.800000
134.060100 26704.100000
135.042700 55790.400000
136.050500 28503.700000
137.071200 3085.400000
138.010600 24075.800000
139.005700 3441.900000
148.050500 1403653.200000
148.086800 299982.000000
154.041800 13921.300000
166.041800 28879.700000
176.081900 135013.800000
180.076700 23532.200000
194.060500 16271.100000
209.084000 5403.500000

>ms2
50.015100 11028.600000
51.022900 14056.500000
53.002200 5911.100000
54.033700 10729.200000
55.041700 5493.000000
56.049500 12666.500000
65.038700 5028.900000
67.041600 6714.800000
68.049400 2582.100000
69.044700 7688.800000
70.028700 4930.300000
70.065100 32188.500000
78.033800 218186.400000
79.041600 8988.600000
79.054300 3105.000000
80.049400 72581.700000
82.028700 7855.600000
92.036900 110228.800000
92.049500 8839.700000
93.044700 112070.200000
94.052600 28739.700000
94.065100 10553.700000
95.036500 39993.700000
95.060300 12671.800000
96.044300 1866555.900000
98.048500 4485.700000
104.049500 10165.100000
105.044700 47990.800000
106.065200 15683.100000
107.060300 45540.200000
110.060000 36101.900000
111.055200 10312.000000
116.049600 16466.400000
117.057300 16766.200000
118.052500 16039.300000
118.065200 31564.200000
119.060400 108755.600000
119.072900 13467.100000
120.031800 111049.900000
120.055600 83812.100000
120.068200 8760.600000
120.080700 7353.300000
121.039600 45939.200000
121.076000 92351.800000
123.055200 33873.700000
131.060400 27421.100000
132.068100 19921.900000
133.076100 41580.900000
134.060100 14070.000000
135.042600 26931.600000
136.050500 26726.500000
137.070700 2783.800000
138.010500 34355.300000
139.005600 6325.900000
148.050500 526006.400000
148.086900 101063.900000
154.041600 16423.000000
166.041800 10196.100000
176.081700 18874.700000
180.076500 7021.100000
194.060500 8575.100000

