>compound LU81848751
>parentmass 498.0771
>ionization [M+H]+
>formula C22H20BrN5O4
>rt 981.180000
>profile orbitrap
#smiles_iso CN1C2=NC(=NC=C2CN(C1=O)C3=CC=CC=C3Br)NC4=CC5=C(C=C4)OC(CO5)CO
#smiles_can CN1C2=NC(=NC=C2CN(C1=O)C3=CC=CC=C3Br)NC4=CC5=C(C=C4)OC(CO5)CO
#inchikey KCIDXSZMKJKCSV-UHFFFAOYSA-N
#pubchem_id 10345790
#mb_accession LU060501,LU060502,LU060503,LU060504,LU060505,LU060506

>ms2peaks
301.129800 7466.300000
498.077500 4957608.000000

>ms2peaks
95.060300 76350.800000
215.092600 8114.100000
243.087500 9897.500000
301.129500 1675648.900000
412.039500 6545.900000
498.077400 3202640.200000

>ms2peaks
54.033900 20420.100000
57.033500 9612.900000
66.033800 84238.700000
68.049400 131401.400000
70.065100 4717.500000
81.044800 4134.100000
95.060400 1470275.600000
108.055900 3594.600000
110.071300 6565.800000
126.066100 9607.900000
137.082500 5433.700000
159.055500 3881.800000
163.050200 3901.600000
166.062300 6163.600000
170.071100 9662.700000
172.086800 3850.000000
180.065700 4355.000000
181.073300 4669.600000
186.066400 8076.800000
187.097700 76396.900000
188.082100 7067.900000
194.081000 5676.100000
196.086800 7066.700000
198.066100 12583.400000
198.102500 7498.100000
199.097800 31074.800000
200.082300 16557.600000
201.076700 3779.600000
207.076500 48735.500000
211.098300 4277.900000
212.082500 12112.100000
213.113600 14879.700000
214.061000 41031.200000
214.085600 3679.100000
214.097600 4742.700000
215.092700 445604.300000
216.076700 66970.200000
217.108400 8898.400000
219.076300 14001.500000
221.091600 4071.600000
224.081900 39836.400000
226.061500 17144.300000
226.097800 11332.000000
227.092800 29943.300000
227.129200 21117.900000
228.076700 10948.100000
228.100200 4613.400000
229.108400 8934.400000
241.108500 20207.200000
242.092500 8124.600000
243.087700 233655.700000
244.095400 16007.300000
245.103400 29698.200000
253.108400 33288.300000
254.092500 8423.700000
255.087900 11057.800000
255.123900 19698.800000
271.118800 16885.300000
272.103200 29876.000000
301.129600 3228772.800000
384.046000 14754.000000
412.040600 18995.800000
498.077500 160631.000000

>ms2peaks
52.018300 3873.100000
53.002300 3512.100000
53.025900 2641.500000
54.033900 94303.300000
57.033500 36738.300000
66.033800 374702.900000
68.049500 529477.200000
70.065100 7322.900000
80.049600 4995.500000
81.044800 11178.900000
91.054200 7772.900000
93.044800 11441.000000
95.060400 2020270.400000
96.044500 7527.000000
96.068100 6230.400000
107.012800 5831.800000
107.049100 3467.900000
108.044300 4071.600000
108.055700 21165.300000
110.036200 9946.600000
110.071500 14412.500000
118.065500 3218.100000
119.049300 3563.700000
119.060500 4608.700000
120.055700 25580.700000
124.039500 15924.400000
125.047000 4158.600000
126.066300 23011.400000
131.060500 2877.600000
135.044000 7973.600000
135.055500 9994.300000
136.039500 6985.900000
137.082300 9529.100000
138.066300 13494.600000
143.060400 3903.500000
145.076300 4752.000000
146.071600 3640.700000
147.043700 3289.200000
147.055200 4468.300000
149.034500 7215.000000
149.082100 3545.300000
155.060600 3373.700000
158.071400 23480.100000
159.055500 16611.900000
160.087100 10799.200000
161.034900 4412.200000
161.070600 5220.200000
161.082100 5267.500000
162.055400 3629.300000
163.050300 8053.600000
166.062600 26240.900000
169.063600 2769.300000
170.071400 82407.700000
171.055400 4635.700000
171.078900 5568.600000
172.074600 9773.500000
172.087100 22830.400000
173.071200 7302.400000
173.082300 15850.600000
174.066100 13795.300000
175.051300 2843.100000
180.065500 14009.200000
181.073800 12332.400000
182.071500 10291.800000
184.087100 16578.300000
185.082000 5533.900000
185.095800 2537.400000
186.066300 75518.800000
186.090100 10466.900000
187.097900 422069.600000
188.081800 25317.700000
189.066100 5416.200000
192.065800 4835.400000
193.061000 10714.600000
194.081400 7875.400000
196.087000 42117.500000
197.082500 7669.800000
198.066400 39137.800000
198.102700 24608.900000
199.074200 11445.400000
199.097900 49115.800000
200.071000 5284.500000
200.081900 51462.200000
201.053500 4709.100000
201.066700 3243.100000
201.077300 12565.900000
207.076600 88964.000000
208.087100 7272.100000
211.098000 8259.100000
212.082000 17289.700000
213.077700 3563.300000
214.061200 62131.000000
214.085500 5939.400000
214.097600 14754.900000
215.069500 33988.400000
215.092900 572081.600000
216.076800 148227.800000
217.108500 6155.500000
219.076500 33140.700000
221.092800 4930.100000
224.082000 43663.900000
226.061400 32550.700000
226.085400 5392.600000
226.097600 15761.500000
227.093000 52698.500000
227.129000 19003.900000
228.077200 15959.400000
228.101100 4570.300000
229.108600 10776.300000
234.087400 4798.000000
241.108600 21041.700000
242.092400 14687.500000
243.087800 138421.800000
244.095700 15481.100000
245.103800 21473.900000
253.108700 20197.200000
254.092800 11128.000000
255.087700 6215.200000
255.124300 8726.300000
271.118600 6629.700000
272.103200 19548.500000
301.129800 360628.800000
384.045600 6006.300000

>ms2peaks
52.018200 6998.500000
53.002200 10151.800000
53.026100 2665.400000
53.038800 4191.700000
54.033900 185305.700000
55.018000 3494.000000
57.033500 53477.200000
65.038700 8108.000000
66.033800 698364.900000
67.041700 12998.300000
68.049500 771207.100000
70.065200 7822.600000
78.033800 6987.400000
79.017800 10585.500000
79.054200 7032.000000
80.049500 22551.800000
81.033500 10593.100000
81.044800 25674.500000
81.057300 6063.200000
91.054300 19478.300000
93.044800 33746.400000
94.041500 2619.300000
95.060400 1155376.900000
96.044500 28235.700000
96.068300 6621.100000
104.049600 8170.000000
105.044800 9646.700000
106.065200 10494.700000
107.012800 32738.400000
107.049200 4757.100000
107.060400 11015.600000
108.044500 7728.700000
108.055700 38745.400000
109.028400 4989.900000
110.036400 35479.600000
110.071300 10995.300000
116.049600 9782.300000
117.057200 4005.600000
118.041500 3209.300000
118.065100 5587.700000
119.049000 2931.600000
119.060500 13056.600000
120.055700 71905.800000
121.028400 3699.600000
121.039600 13464.500000
122.059700 2663.300000
124.039500 26012.300000
125.047200 6060.900000
126.066300 15298.500000
131.060500 15293.000000
132.044500 5877.400000
132.055600 3183.300000
132.068200 3729.000000
133.039800 3143.000000
133.063200 3173.700000
133.076000 7323.400000
134.060000 9996.700000
134.071100 3360.400000
135.031400 3592.500000
135.044100 28745.800000
135.055300 8743.400000
136.039300 11766.100000
137.082400 5830.200000
138.066300 33811.000000
142.053200 2978.900000
143.060500 18861.000000
144.044400 4461.200000
144.055900 3408.500000
145.076000 12135.400000
146.060400 3019.600000
146.071300 10754.300000
146.083500 2390.100000
147.044000 3097.200000
147.055400 6834.700000
147.079400 3868.700000
149.034800 6741.900000
149.082300 8732.800000
150.042600 6673.000000
150.054800 3656.000000
151.050200 2958.100000
153.052700 3528.100000
155.060600 19340.400000
157.063400 7218.300000
157.075900 6012.600000
158.071400 69661.600000
159.055100 12883.000000
159.078900 6028.100000
160.039400 3833.800000
160.087000 34696.700000
161.034700 7364.000000
161.070800 5841.400000
161.082300 5706.700000
162.055000 6932.200000
163.050300 7558.800000
166.062800 20781.400000
169.063600 18048.300000
169.076000 6135.700000
170.071400 147536.100000
171.055100 7604.000000
171.066600 8205.200000
171.079400 15277.900000
172.064300 2121.500000
172.066100 2669.800000
172.074700 24871.500000
172.086900 24310.100000
173.070900 7260.500000
173.082400 19946.800000
174.066400 13528.600000
175.050200 9674.100000
180.065400 3588.900000
181.063900 3564.700000
181.073900 3146.000000
182.071000 14777.100000
183.065300 6086.200000
183.079000 8592.200000
184.087100 19879.700000
185.057900 6199.000000
185.082300 18697.100000
186.066300 109384.000000
186.090100 12588.100000
187.098000 458567.700000
188.081800 29230.700000
193.060700 26332.300000
195.079400 6985.800000
196.087200 46673.300000
197.081900 11578.800000
197.094000 3124.700000
198.066300 41380.800000
198.090600 5940.100000
198.102700 13773.700000
199.074000 10137.900000
199.098000 30317.000000
200.071100 4475.000000
200.082000 23975.300000
201.053400 7050.800000
201.077300 8708.900000
207.076500 42773.300000
211.098400 10955.900000
212.081800 7822.400000
213.076900 3854.400000
213.113500 6984.100000
214.061300 31932.200000
214.085300 5082.800000
214.097100 5995.500000
215.069000 25554.300000
215.092900 194528.900000
216.076900 72645.400000
219.076700 15603.000000
224.082200 23537.500000
226.061200 16246.500000
226.085200 4099.200000
226.097200 7561.000000
227.092800 27036.700000
228.076900 8534.400000
228.100600 3454.800000
234.087800 4837.700000
241.108600 8645.800000
242.092900 4276.300000
243.088000 31122.700000
244.095300 4065.500000
245.103800 5056.900000
253.108600 4359.000000
254.092900 3044.800000
301.129600 9794.300000

>ms2peaks
52.018200 13500.000000
53.002200 13117.900000
53.026100 4679.500000
53.038600 8815.300000
54.033900 226505.400000
55.017800 5137.600000
57.033500 37282.900000
65.038600 19926.800000
66.033800 804152.200000
67.041600 21606.900000
68.049500 692633.400000
78.033800 16843.100000
79.017800 21539.400000
79.054100 12428.100000
80.049500 31421.800000
81.033500 21745.500000
81.044800 44672.500000
81.057400 7897.400000
91.054300 29755.100000
93.044800 56626.900000
94.041200 2931.400000
95.060400 419936.300000
96.044400 45836.000000
96.068400 3581.200000
104.049400 17655.700000
105.044700 22631.300000
106.065100 13568.000000
107.012800 46056.800000
107.049100 8600.200000
107.060500 12231.100000
108.044400 9838.200000
108.055600 37079.900000
109.028400 4572.500000
110.036200 33426.000000
110.071400 4725.300000
116.049400 12590.100000
117.057100 3648.900000
118.041200 4141.600000
118.065100 6738.800000
119.060600 19622.400000
120.055600 68701.900000
121.028500 6329.700000
121.039600 11947.600000
122.060000 2958.000000
124.039300 28986.500000
125.047200 6775.600000
126.066100 8914.800000
131.060500 29852.600000
132.044400 5027.400000
132.055800 4851.300000
132.068100 4259.800000
133.039700 4047.000000
133.063200 3723.000000
133.075900 10034.200000
134.059900 10881.000000
134.071000 3090.900000
135.031400 5473.200000
135.044000 37363.300000
135.055500 5048.300000
136.039400 8016.200000
137.082100 7237.300000
138.066300 31141.900000
142.052600 8518.600000
143.060200 24682.000000
144.044300 3116.000000
144.055500 5827.100000
145.076100 11856.400000
146.060000 4240.800000
146.071100 11197.400000
146.083800 3413.500000
147.044000 3741.300000
147.055100 7399.400000
147.079200 3445.500000
149.034800 3217.100000
149.082000 4897.700000
150.042300 5368.200000
150.054900 3614.800000
151.050200 4005.400000
153.053500 4854.200000
155.060400 18016.700000
157.063700 16679.000000
157.075800 3295.000000
158.071400 70629.400000
159.055100 6256.900000
159.078900 12866.500000
160.039800 3162.400000
160.086900 35474.800000
161.034300 3348.800000
161.070600 2959.700000
161.082100 5980.700000
162.055000 4325.300000
166.062200 5868.100000
169.063600 32056.000000
169.076100 9057.700000
170.071300 87100.700000
171.055700 11563.900000
171.066300 15013.800000
171.079100 15148.200000
172.074400 23724.400000
172.086900 9321.600000
173.071100 6649.900000
173.082200 9676.400000
174.066200 8847.300000
175.050300 3691.600000
181.063200 5768.600000
182.071200 12085.800000
183.065700 4105.000000
183.079200 5589.700000
184.086900 10862.600000
185.058400 6486.600000
185.082100 38540.900000
185.095500 2630.100000
186.066200 63663.800000
186.089800 13371.700000
187.097900 213847.500000
188.081700 8522.700000
193.060800 9655.000000
195.079000 8310.000000
196.086900 26930.400000
197.082000 4098.500000
197.094700 2708.900000
198.066300 22687.800000
198.089700 6146.900000
198.102500 2448.000000
199.074000 5597.400000
199.098000 13723.600000
200.081800 7133.800000
201.053100 9347.300000
201.076700 2795.600000
207.076300 8760.800000
208.086000 2823.000000
211.098000 9383.900000
214.060900 10434.400000
215.068700 5362.700000
215.092800 31762.200000
216.077100 13966.600000
219.076500 4291.100000
224.081500 4758.400000
226.061000 6393.000000
227.092700 8763.700000
243.087500 6739.700000

