>compound LU81546382
>parentmass 365.1449
>ionization [M+H]+
>formula C19H25ClN2OS
>rt 1225.620000
>profile orbitrap
#smiles_iso CC(C)(C)C1=CC=C(C=C1)CSC2=C(C(=O)N(N=C2)C(C)(C)C)Cl
#smiles_can CC(C)(C)C1=CC=C(C=C1)CSC2=C(C(=O)N(N=C2)C(C)(C)C)Cl
#inchikey DWFZBUWUXWZWKD-UHFFFAOYSA-N
#pubchem_id 91754
#mb_accession LU033101,LU033102,LU033103,LU033104,LU033105,LU033106

>ms2peaks
132.093800 2982.500000
147.116700 101564.300000
309.082500 1722516.000000

>ms2peaks
105.069800 5428.800000
119.085600 6488.900000
132.093400 3907.500000
147.116800 1805850.200000
309.082300 562864.800000

>ms2peaks
55.054200 4187.600000
57.069900 3908.100000
91.054200 15442.200000
105.069900 151731.500000
107.085400 14044.900000
117.070000 7938.200000
119.085600 144280.800000
132.093400 86635.600000
145.101200 9245.600000
147.116800 3620235.200000
309.082100 12427.200000

>ms2peaks
55.054200 37344.000000
57.069900 6046.600000
69.069900 6304.000000
79.054200 7637.000000
91.054200 64233.300000
93.069900 11570.400000
103.054400 3665.900000
104.062000 4280.500000
105.069900 491833.000000
107.085500 69173.500000
117.069900 82409.500000
119.085600 562727.200000
131.085700 10695.800000
132.093400 536946.300000
145.101100 30402.600000
147.116800 2033341.100000

>ms2peaks
53.038700 4724.800000
55.054300 50197.600000
57.070000 4243.500000
65.038400 2647.200000
67.054300 3469.200000
69.069900 8977.400000
79.054300 20109.400000
91.054300 132403.300000
93.070000 20067.000000
103.054300 11078.700000
104.062100 37048.800000
105.070000 541891.900000
107.085600 91690.400000
109.064900 5016.700000
115.054500 8564.200000
116.062400 3225.000000
117.070000 520839.900000
119.085700 646770.600000
129.070400 3082.700000
131.085700 34013.300000
132.093500 1070348.000000
145.101400 28390.100000
147.117000 596886.400000

>ms2peaks
53.038600 5071.400000
55.054300 34349.100000
57.070000 3847.600000
65.038600 7976.500000
67.054300 3281.800000
69.069800 6891.200000
79.054200 44651.000000
91.054300 213366.600000
93.069900 19823.400000
103.054300 29158.300000
104.062100 93125.600000
105.069900 359057.600000
107.085500 48479.700000
109.065000 6913.200000
115.054300 45696.400000
116.062100 8181.500000
117.069900 1256280.900000
119.085600 388428.600000
129.069500 5948.300000
131.085600 68583.200000
132.093400 835088.800000
145.101100 14342.900000
147.116800 108595.900000

