>compound LU81903954
>parentmass 172.0717
>ionization [M+H]+
>formula C6H9N3O3
>rt 414.240000
>profile orbitrap
#smiles_iso CC1=NC=C(N1CCO)[N+](=O)[O-]
#smiles_can CC1=NC=C(N1CCO)[N+](=O)[O-]
#inchikey VAOCPAMSLUNLGC-UHFFFAOYSA-N
#pubchem_id 4173
#mb_accession LU051501,LU051502,LU051503,LU051504,LU051505,LU051506

>ms2
56.036900 15984.000000
57.020800 2517.900000
72.044300 3847.100000
82.052400 11902.600000
89.070900 5873.800000
98.047400 8172.700000
111.042900 6838.300000
128.045400 2203556.000000
172.071700 1329655.800000

>ms2
56.036900 36247.500000
82.052300 19321.000000
89.070800 5898.600000
98.047400 13513.200000
111.042800 10281.000000
128.045400 2766036.200000
172.071700 1533725.200000

>ms2
56.036900 103761.800000
57.021000 8528.000000
60.044400 2617.100000
72.044400 7021.800000
82.052500 55128.800000
83.060400 4906.300000
89.070900 4582.300000
97.039600 5762.900000
98.047500 52928.500000
111.042700 51346.300000
128.045400 2465683.500000
172.071700 198841.400000

>ms2
56.036900 168337.500000
57.020900 18761.700000
57.069900 3135.000000
60.044300 5665.700000
69.044800 4523.900000
70.052700 1797.900000
72.044400 8023.300000
81.044700 3529.800000
82.052600 103199.600000
83.060300 9163.600000
97.039600 14837.100000
98.047500 115758.700000
111.042700 121765.900000
128.045500 1424538.400000
172.071700 18212.400000

>ms2
54.033900 2032.300000
55.054200 3745.900000
56.036900 171805.200000
57.020900 16586.700000
57.069900 2962.400000
60.044400 10674.500000
69.044800 8100.100000
70.052300 1662.900000
72.044400 9553.400000
81.044800 20227.400000
82.052600 140332.600000
83.060400 16489.800000
95.060300 1915.400000
97.039700 26890.500000
98.047500 146900.400000
111.042800 152033.100000
128.045500 557646.900000

>ms2
54.033900 4765.800000
55.054200 3794.100000
56.036900 115501.700000
57.021000 10963.700000
60.044400 8858.300000
69.044700 9494.800000
72.044400 6475.100000
81.044800 39607.600000
82.052600 107540.000000
83.060400 18897.300000
95.060500 2899.100000
97.039700 17093.900000
98.047500 121451.800000
111.042700 96406.800000
128.045500 134154.200000

