>compound LU82894750
>parentmass 313.1434
>ionization [M+H]+
>formula C19H20O4
>rt 1149.600000
>profile orbitrap
#smiles_iso CC(C)(COC(=O)C1=CC=CC=C1)COC(=O)C2=CC=CC=C2
#smiles_can CC(C)(COC(=O)C1=CC=CC=C1)COC(=O)C2=CC=CC=C2
#inchikey DYJIIMFHSZKBDY-UHFFFAOYSA-N
#pubchem_id 20169
#mb_accession LU081201,LU081202,LU081203,LU081204,LU081205,LU081206

>ms2
91.054200 34101.300000
149.023400 20857.600000

>ms2
91.054300 38484.000000
105.033300 2683.100000
149.023500 14770.100000

>ms2
79.054200 2044.600000
91.054300 51232.900000
105.033700 6262.900000
149.023400 10369.700000

>ms2
65.038400 2113.900000
91.054300 57583.000000
105.033700 5192.700000
149.023400 11030.300000

>ms2
65.038600 5934.800000
91.054300 53426.000000
105.033600 6062.700000
128.062400 1691.800000
149.023500 6245.500000

>ms2
65.038600 14488.300000
79.054200 2767.600000
91.054200 48907.000000
105.033400 2378.400000
128.061500 1788.400000

