>compound LU82782547
>parentmass 319.103
>ionization [M+H]+
>formula C17H19ClN2S
>rt 968.270000
>profile orbitrap
#smiles_iso CN(C)CCCN1C2=CC=CC=C2SC3=C1C=C(C=C3)Cl
#smiles_can CN(C)CCCN1C2=CC=CC=C2SC3=C1C=C(C=C3)Cl
#inchikey ZPEIMTDSQAKGNT-UHFFFAOYSA-N
#pubchem_id 2726
#mb_accession LU077401,LU077402,LU077403,LU077404,LU077405,LU077406

>ms2peaks
58.065100 320378.400000
86.096400 3445167.000000
246.014000 52796.900000
274.045100 86751.200000
319.103000 23866780.000000

>ms2peaks
58.065100 6286144.500000
71.072800 23427.100000
86.096400 20020832.000000
233.006100 38552.900000
239.076200 437344.600000
241.065100 45268.500000
246.013800 701537.200000
274.045100 425520.300000
319.103000 4297366.000000

>ms2peaks
56.049500 56726.400000
58.065100 12871975.000000
71.072900 54568.300000
86.096300 15288669.000000
106.065000 18816.000000
117.069800 24476.800000
211.044700 68309.700000
214.041600 305712.300000
233.005900 142450.800000
238.068400 44971.800000
239.076200 663640.400000
240.057500 23229.300000
241.065300 82629.400000
246.013700 1177026.200000
274.045000 165532.000000
319.103000 70139.300000

>ms2peaks
56.049500 98482.100000
57.057200 15469.900000
58.065100 15444264.000000
71.072900 136570.300000
84.080800 25332.400000
86.096400 8322149.000000
106.065200 23147.700000
117.069900 38112.400000
198.037100 53083.700000
205.088300 16445.400000
206.096200 77611.700000
210.037100 47999.100000
211.044900 351856.800000
213.033800 80002.100000
214.041700 997332.300000
224.053000 47290.800000
233.006000 195482.500000
238.068400 72240.200000
239.076200 431786.200000
240.056800 46035.200000
241.065300 42055.300000
246.013800 658885.600000
274.044800 19181.200000

>ms2peaks
56.049500 156540.500000
58.065100 15749667.000000
71.072900 195218.000000
84.080800 28008.100000
86.096400 3982027.500000
106.065200 22325.800000
115.054300 20001.200000
117.069800 37319.900000
166.065300 20847.800000
167.072900 63066.900000
177.057300 20511.800000
178.065000 24767.600000
179.072400 24343.300000
184.034300 24382.200000
198.037200 185559.000000
201.034100 52929.800000
204.080900 37883.600000
205.088800 30576.800000
206.096400 118735.200000
207.104200 22539.100000
210.037100 104680.000000
211.045000 488765.500000
213.033800 187078.000000
214.041700 1370618.800000
223.045600 19148.200000
224.052700 78605.100000
233.006000 102856.100000
238.068300 106832.400000
239.076200 135591.500000
240.057100 68029.000000
246.013800 183837.000000

>ms2peaks
56.049500 256259.300000
57.057300 18051.000000
58.065100 15072781.000000
70.065100 18336.800000
71.072900 206836.500000
84.080700 22870.900000
86.096400 1751043.800000
115.054100 23377.800000
117.069600 25967.300000
130.065200 27991.500000
152.062000 52023.600000
154.065000 67486.400000
166.065100 51749.300000
167.072900 208892.100000
171.026000 50137.000000
177.057200 71830.200000
178.065000 163527.200000
179.072800 145872.900000
184.034200 43345.800000
191.072600 27597.800000
196.075700 50336.800000
198.037200 186771.600000
201.033900 89854.600000
204.080700 101080.300000
205.088500 64189.600000
206.096300 79893.300000
209.029300 21676.900000
210.037100 183733.000000
211.044900 347205.800000
213.033800 219348.300000
214.041600 1313098.600000
223.045000 53424.900000
224.052700 64399.500000
233.005800 28663.900000
238.068300 61571.400000
239.076100 16633.000000
240.057300 24790.600000
246.013600 34626.000000

