>compound LU82480573
>parentmass 531.156
>ionization [M+H]+
>formula C26H28Cl2N4O4
>rt 924.300000
>profile orbitrap
#smiles_iso CC(=O)N1CCN(CC1)C2=CC=C(C=C2)OC[C@H]3CO[C@](O3)(CN4C=CN=C4)C5=C(C=C(C=C5)Cl)Cl
#smiles_can CC(=O)N1CCN(CC1)C2=CC=C(C=C2)OCC3COC(O3)(CN4C=CN=C4)C5=C(C=C(C=C5)Cl)Cl
#inchikey XMAYWYJOQHXEEK-OZXSUGGESA-N
#pubchem_id 456201
#mb_accession LU037301,LU037302,LU037303,LU037304,LU037305,LU037306

>ms2
531.156200 13359626.000000

>ms2
69.044700 66643.500000
70.065100 9547.300000
81.044800 49465.800000
82.052500 661463.500000
83.060400 11594.600000
86.059900 36468.800000
112.075700 211903.900000
135.067800 114652.300000
144.080900 11309.600000
148.075800 33740.300000
158.976200 14625.200000
162.091400 7819.200000
163.122900 9650.600000
167.081600 48949.400000
172.075600 18993.800000
172.956000 8231.500000
174.091300 65427.800000
177.102200 77138.200000
178.110100 27727.500000
184.991900 16269.700000
185.963400 30859.300000
188.107000 9164.200000
189.138600 17172.800000
200.107000 11935.700000
205.133400 9602.800000
209.036300 37019.400000
215.117800 8906.800000
216.101900 104657.100000
217.133600 262954.400000
219.112800 348530.100000
220.120600 273197.800000
234.112400 57157.500000
235.144100 115732.300000
238.006000 50361.200000
244.005300 495670.800000
247.063400 11424.200000
255.008600 290286.300000
259.144100 73808.000000
267.008600 58233.000000
268.016300 23191.300000
281.024700 12202.200000
311.034700 43250.800000
378.066000 9783.400000
420.076000 32501.500000
446.103100 53738.100000
487.129800 8446.200000
489.145800 1275092.500000
531.156500 7458071.500000

>ms2
54.033800 37858.400000
55.017800 4250.800000
55.041600 6231.600000
55.054400 4021.600000
56.049500 53105.600000
58.065100 22239.000000
68.036800 38485.500000
68.049300 7737.800000
69.044700 261631.000000
70.065100 142892.200000
71.060300 197836.300000
80.049500 5930.100000
81.044700 716425.000000
82.052500 3448851.200000
83.060300 90752.400000
84.068300 4666.200000
85.076100 7606.900000
86.060000 197348.500000
91.054400 7184.400000
94.065200 8613.500000
95.060500 15439.900000
97.039600 7773.200000
103.054200 7896.800000
105.069900 13145.700000
107.049100 28619.100000
107.060200 22529.100000
109.039700 12106.300000
109.052200 6426.000000
109.076000 18546.700000
111.055400 10797.200000
112.075700 918089.900000
113.071000 28096.000000
114.042300 30221.100000
117.057400 8111.700000
117.069700 15493.700000
118.065000 20657.600000
119.072900 11961.300000
120.044300 44222.700000
120.080800 44200.000000
121.076000 5079.400000
122.060100 93656.800000
123.000100 4938.800000
123.091800 9755.400000
125.015300 4494.700000
127.050100 17732.900000
128.062200 4428.100000
129.069700 18556.000000
130.065000 31191.400000
131.049200 10591.500000
131.072800 15288.400000
132.044400 5899.900000
132.056700 15690.500000
132.080700 41672.600000
133.052400 6716.200000
133.064800 14951.200000
134.060000 95947.900000
135.067800 753912.200000
136.075700 231820.900000
138.023400 3463.900000
139.031000 9731.600000
143.073300 4805.800000
144.080800 128521.300000
145.064800 20884.000000
145.088500 59695.700000
146.060000 69137.500000
146.096400 157371.200000
147.067900 17375.200000
147.080500 7895.300000
148.075600 524376.800000
149.015200 7201.600000
150.023400 11354.100000
151.031000 7678.900000
154.065300 4788.900000
156.080700 29215.100000
157.088500 7436.500000
158.059800 3622.600000
158.096500 55648.900000
158.976300 202981.700000
159.067900 11304.500000
159.984100 14278.500000
160.075600 59244.900000
161.083500 18707.100000
161.107400 7779.600000
162.091200 60241.400000
162.115400 5983.600000
163.030900 55190.200000
163.086600 6672.100000
163.122900 63549.100000
164.070600 11746.500000
167.025800 65504.400000
167.081500 409096.400000
169.968400 118816.500000
170.976500 7844.000000
171.067400 5525.800000
172.075600 103030.000000
172.112200 21553.300000
172.955500 171098.000000
173.083500 18950.500000
174.091300 537513.600000
174.971300 5820.800000
175.086700 10078.500000
175.098900 4680.300000
175.123000 11568.200000
176.094300 33551.600000
176.107200 4365.900000
177.102200 847676.900000
178.110000 228679.200000
179.025600 19576.700000
184.075500 3603.100000
184.992000 199789.300000
185.963400 495166.600000
186.971200 37219.300000
187.122500 5077.800000
188.106900 39306.800000
189.138600 93322.000000
190.086300 18246.700000
191.026100 5639.500000
191.094100 17403.900000
191.117700 21466.000000
192.101900 107724.100000
199.007800 9037.000000
200.107000 82169.600000
201.994600 28794.700000
202.966100 46243.700000
203.037000 105731.100000
205.052900 5495.300000
205.097200 31234.000000
205.133700 40617.500000
209.036400 94448.800000
215.117800 32603.800000
216.101900 161909.100000
217.133500 426980.300000
218.117300 37278.900000
219.112700 549332.900000
220.120500 216158.200000
224.998300 8429.200000
226.006100 10823.800000
233.047500 23596.500000
234.112500 65484.200000
235.144000 144782.700000
238.005800 244981.500000
239.014200 23285.800000
244.005200 562802.600000
247.063300 76995.500000
255.008600 642905.400000
259.144000 20709.100000
267.008500 317010.700000
268.016800 26409.100000
276.146200 4770.900000
281.024100 64083.900000
295.040500 5958.300000
311.035000 65178.500000
378.065500 71823.400000
420.076200 29826.600000
446.103300 44657.700000
487.129000 9615.100000
489.145800 295698.600000
531.156800 176969.400000

>ms2
53.038600 4173.800000
54.033800 96496.400000
55.017900 12221.900000
55.041700 12175.300000
55.054200 7160.800000
56.049400 161630.900000
58.065000 27533.000000
65.038500 7411.300000
68.036900 116943.500000
68.049400 21779.700000
69.044700 324347.300000
70.065100 466274.200000
71.060300 356589.000000
74.096500 7586.600000
79.054200 36263.300000
80.049400 16780.500000
81.044700 1825146.600000
82.052500 3834405.800000
83.060300 105885.900000
84.068000 6078.600000
85.076000 4555.600000
86.060000 204485.600000
91.054300 30660.000000
94.041400 5472.400000
94.065100 9222.100000
95.049100 11249.200000
95.060400 30471.100000
98.060000 6638.000000
98.999600 32668.400000
103.054200 29830.200000
104.049600 9875.000000
105.069800 33698.000000
106.065100 19776.700000
107.049100 81120.900000
107.060500 27880.300000
108.044300 4109.400000
108.057200 4185.100000
108.080900 4478.200000
109.039700 35523.800000
109.052300 12307.800000
109.076100 32037.700000
111.044000 4614.800000
111.055200 17673.700000
112.075600 916353.400000
113.070800 16010.200000
114.042300 37435.400000
115.054300 20293.400000
116.061800 4068.300000
117.057200 35746.200000
117.069900 55286.200000
118.065000 85658.200000
119.049000 5321.000000
119.072900 29510.700000
119.085500 9139.200000
120.044400 369260.600000
120.080700 149833.400000
121.039600 6769.400000
121.065000 11432.600000
121.076100 7039.900000
122.060000 379154.200000
122.999300 22563.600000
123.091800 6518.200000
125.015200 31750.200000
125.986600 6470.600000
126.994500 13555.100000
127.050100 173836.100000
128.061800 15299.400000
129.069700 60772.200000
130.065100 104058.800000
131.049100 33551.500000
131.072800 66784.500000
132.044500 10844.700000
132.056900 40623.200000
132.080700 79604.900000
133.052200 26349.300000
133.064600 22192.900000
134.060000 372280.000000
135.067800 521650.800000
136.075700 398841.100000
139.030900 24174.000000
141.010300 5301.700000
142.065300 6071.400000
143.072800 27413.500000
144.080800 186357.700000
145.064800 35557.800000
145.088600 80569.900000
145.968600 14111.700000
146.060000 137876.900000
146.096400 258277.300000
146.976400 13597.000000
147.067800 25303.400000
147.080600 10391.300000
148.075600 736816.600000
149.015200 59985.000000
149.107300 6055.400000
150.023000 95814.300000
151.031000 36673.300000
154.065200 13562.200000
154.989300 7241.700000
155.060300 13010.900000
156.068600 4868.600000
156.080800 51805.500000
157.088400 18776.000000
157.968400 29061.200000
158.060000 13523.900000
158.096400 99139.100000
158.976200 563991.500000
159.067700 42459.300000
159.984300 13574.700000
160.075600 92340.300000
161.083400 19939.700000
161.107500 11720.700000
161.963500 5535.500000
162.091200 54438.700000
162.115100 5407.700000
163.030800 56093.900000
163.122800 41264.100000
164.038900 4202.200000
164.070400 9764.000000
165.009800 4238.300000
167.025800 111239.600000
167.081400 515831.000000
169.968400 413877.500000
170.976000 42126.900000
171.067700 10246.800000
171.984100 9145.000000
172.075500 66243.300000
172.111700 22317.800000
172.955500 395518.700000
173.083500 30222.300000
174.091300 508039.800000
174.971200 37005.900000
175.086500 16752.900000
175.099100 6555.500000
175.123500 9477.400000
176.094200 26083.600000
176.106500 16780.000000
177.102100 545844.400000
178.086200 19697.200000
178.109900 33603.800000
179.025800 15970.600000
184.991900 184342.400000
185.963300 624944.800000
186.971100 76918.900000
187.122800 8794.900000
188.107100 24824.400000
189.138600 37024.900000
189.958500 5245.400000
190.086000 17568.800000
191.026500 4256.400000
191.037000 9100.000000
191.093900 9288.000000
191.117900 13293.800000
192.101800 88898.000000
199.007600 10535.600000
200.106900 40850.700000
202.086200 6635.800000
202.966000 34134.000000
203.037000 140366.400000
204.102300 20202.400000
205.052500 5966.000000
205.097200 8085.200000
205.133600 10665.400000
209.036600 6864.500000
212.002300 4249.800000
215.117900 10325.400000
216.101900 45855.200000
217.133500 58106.600000
218.117400 17417.600000
219.031900 7963.300000
219.112800 66589.900000
220.120700 11053.500000
226.005700 6083.000000
233.047700 13338.100000
234.112200 14896.700000
235.144200 14578.400000
238.005900 41534.700000
239.013500 31423.700000
239.997400 7243.400000
244.005200 65202.300000
247.063100 53564.900000
255.008400 366699.200000
267.008400 277862.200000
281.024100 48227.600000
297.019000 15706.200000
311.034900 21682.300000
378.065400 38297.900000

>ms2
53.002200 5713.500000
53.038600 12621.500000
54.033800 168588.400000
55.017800 23255.500000
55.041600 19516.000000
55.054100 2928.200000
56.049500 240249.700000
57.057400 5194.900000
58.065100 21390.900000
65.038500 24430.500000
68.036900 114640.400000
68.049400 22933.400000
69.044700 317121.900000
70.065100 513707.000000
71.060300 216260.500000
74.096300 4407.400000
77.038300 7173.100000
79.054200 123050.600000
80.013200 6100.300000
80.049500 23692.000000
81.044700 2419143.500000
82.052500 2592451.800000
83.060400 70942.900000
84.068100 5722.900000
84.983800 4251.200000
86.060000 101262.200000
89.038400 6162.800000
91.054200 74575.100000
92.049400 3921.100000
93.033600 3826.200000
93.069800 11862.300000
94.041300 24296.500000
94.065100 12913.500000
95.049100 43552.900000
95.060500 23888.400000
96.044500 3445.700000
97.039500 3362.100000
98.059900 4531.100000
98.999600 59325.100000
103.054200 81984.100000
104.049400 22347.100000
104.062000 6560.500000
105.044700 8820.300000
105.057300 6382.000000
105.069900 44022.000000
106.065100 53347.300000
107.049100 113041.000000
107.060400 32164.300000
108.044300 14983.500000
108.056800 5488.600000
108.080700 3586.600000
109.039700 59203.200000
109.052200 11624.400000
109.076000 21345.100000
111.044200 17985.400000
111.055400 13433.100000
112.075700 487619.600000
113.070900 4488.600000
114.042600 14955.000000
115.054200 91363.100000
116.062100 17018.200000
117.057300 69614.500000
117.069800 64413.900000
118.065100 131896.700000
119.049100 11994.000000
119.073100 30276.700000
119.085400 10243.000000
120.044400 708015.400000
120.080800 155053.500000
121.039500 26892.700000
121.052200 18332.600000
121.064700 27727.400000
122.060000 427936.600000
122.999600 126673.400000
124.007500 7650.100000
125.015100 41719.100000
125.986600 12485.800000
126.994600 30858.200000
127.050200 375430.200000
128.062100 34548.700000
129.010100 5747.400000
129.069900 56607.500000
130.065200 195627.600000
131.049200 53004.500000
131.060400 13853.800000
131.072900 90844.200000
132.044500 8210.300000
132.057000 48501.800000
132.080800 76290.700000
133.052200 30598.700000
133.064700 11625.200000
134.060000 358291.200000
135.067800 191462.700000
136.007500 24897.700000
136.075700 312739.800000
137.015400 9714.700000
138.023200 4377.100000
139.005800 9461.500000
139.030800 26995.000000
141.010200 8317.500000
143.073000 39290.300000
144.056400 9039.900000
144.080900 139248.800000
145.005200 13055.100000
145.064800 35729.500000
145.088600 42330.900000
145.968400 16259.000000
146.060000 90202.800000
146.096400 181696.500000
146.976200 19602.600000
147.068000 17867.400000
147.080400 4298.000000
148.075600 345350.000000
149.015300 94329.400000
150.023100 160717.700000
151.030900 31834.400000
154.065000 8885.400000
154.989100 11344.800000
155.060400 18216.700000
155.072700 4630.500000
156.068200 10625.800000
156.080800 37376.300000
157.088400 9765.300000
157.968500 54298.000000
158.060000 18486.000000
158.096400 52755.000000
158.976300 705671.600000
159.067800 48732.200000
160.075700 76264.700000
161.070700 5534.500000
161.083400 12514.300000
161.962900 7120.500000
162.091000 19987.400000
163.030800 21707.000000
163.086700 15078.300000
164.038600 3299.500000
165.009900 5651.000000
167.025900 51615.900000
167.081500 227023.100000
169.968400 434619.900000
170.976200 69591.100000
171.067600 5409.600000
171.984000 8029.600000
172.075700 33986.800000
172.111800 9455.400000
172.955600 339087.900000
174.091300 212216.100000
174.971200 29937.100000
175.086700 9988.600000
176.094400 9266.300000
176.106900 16660.300000
177.033900 6879.700000
177.102100 98196.900000
178.086100 12153.300000
179.025500 8714.100000
182.976400 9128.100000
184.075600 7042.900000
184.991900 60356.400000
185.963400 234576.400000
186.971300 38375.100000
188.107100 7481.100000
189.958400 10712.200000
190.086200 6528.700000
192.101800 39897.700000
200.106900 8084.500000
202.086100 3732.600000
203.037100 89076.700000
204.021000 8627.500000
205.028800 33099.600000
212.002500 15562.800000
216.102100 4357.200000
219.112800 6602.800000
239.013700 17157.000000
239.997500 8678.600000
247.063200 11558.200000
252.992600 20296.700000
255.008500 93741.300000
267.008600 88987.600000
281.024100 14153.700000
311.034900 3813.400000
378.066300 6003.800000

>ms2
53.002200 13682.800000
53.038600 38156.000000
54.033800 291352.100000
55.017800 30518.100000
55.041600 44987.300000
55.054300 7177.600000
56.049500 264297.800000
57.057300 11393.400000
58.065100 17683.900000
65.038500 87134.400000
68.036800 112949.800000
68.049400 27838.000000
69.044700 327666.200000
70.065100 474203.300000
71.060300 125090.500000
74.096200 3663.500000
77.038500 13654.100000
79.054200 206408.600000
80.013100 7778.400000
80.049500 42000.600000
81.044700 3237390.200000
82.052500 1869137.000000
83.060300 60830.400000
84.983900 7918.100000
86.060000 55851.300000
89.038500 24796.000000
91.054200 164742.300000
92.049500 10607.900000
93.033600 5933.700000
93.070000 18796.500000
94.041400 82126.400000
94.065100 26398.800000
95.049100 128624.300000
95.060300 21802.100000
96.044400 14110.000000
98.999600 61461.200000
103.054200 166883.800000
104.049400 35490.000000
104.062000 15361.300000
105.044700 46191.600000
105.057300 12124.800000
105.069800 50885.200000
106.065100 90885.300000
107.049100 128736.200000
107.060300 26957.700000
108.044500 16818.000000
108.056900 4426.500000
108.081000 6013.700000
109.039700 75643.600000
109.052300 12425.200000
109.076100 12013.700000
111.044000 55704.600000
111.055200 8802.500000
112.075700 233323.900000
114.042400 15104.700000
115.054200 230991.000000
116.062000 35583.300000
117.057200 97322.200000
117.069800 69216.100000
118.065100 155973.300000
119.049100 14875.700000
119.072900 34144.700000
119.085600 11291.400000
120.044400 805441.200000
120.080800 136082.700000
121.039600 85604.300000
121.052100 35871.000000
121.064600 32850.900000
121.075900 9342.000000
122.060000 372577.700000
122.999600 360084.500000
124.007500 30762.700000
125.015300 43709.900000
125.986500 9288.000000
126.994300 36849.700000
127.050200 466986.800000
128.061900 60895.100000
129.010100 8959.100000
129.069800 38597.600000
130.065100 222152.400000
131.049100 77796.900000
131.060400 24643.100000
131.072900 84248.600000
132.044500 9284.500000
132.056900 53305.400000
132.080700 67533.700000
133.052200 42356.100000
133.064900 8725.300000
134.060000 248506.600000
135.067800 67635.200000
136.007400 74618.100000
136.075700 215845.300000
137.015100 18621.900000
138.023000 3971.500000
139.005500 17161.000000
139.030700 16195.900000
141.010300 6180.900000
142.065300 10196.400000
143.072900 50513.000000
144.056300 8892.100000
144.080900 92993.700000
145.005000 8396.700000
145.064700 28545.500000
145.088500 20971.400000
145.968400 25650.800000
146.060000 72787.600000
146.096400 83108.300000
146.976100 8704.500000
147.067600 14976.700000
148.075600 109241.500000
149.015300 91956.100000
150.023100 117023.000000
151.030900 17136.400000
154.064900 13948.200000
154.989500 11858.600000
155.060400 26555.600000
155.072900 7499.400000
156.068300 13684.700000
156.080600 33289.800000
157.088700 5780.300000
157.968500 52727.600000
158.059900 37892.900000
158.096300 23191.900000
158.976200 750835.600000
159.067800 51635.800000
160.075600 54676.600000
161.070700 3736.200000
161.083300 3742.200000
161.963600 6825.300000
162.091300 11157.600000
163.030700 5146.700000
163.086400 10337.200000
165.010300 4431.700000
167.025600 14169.000000
167.081400 72057.100000
169.968400 445908.700000
170.976100 69244.600000
171.067900 4914.100000
172.075700 25194.700000
172.955600 250235.400000
174.091300 80165.400000
174.970900 13797.200000
177.033900 9441.600000
177.102500 15065.600000
178.086200 4761.000000
182.976300 11228.700000
184.075900 5447.800000
184.991900 11661.300000
185.963300 54110.900000
186.971500 11380.900000
189.958200 13569.400000
191.037800 4011.700000
192.101300 16268.200000
203.037000 76433.300000
204.021200 7420.700000
205.029000 20562.700000
219.031900 7373.300000
239.013400 7138.300000
252.992700 21733.800000
267.008700 13412.300000

