>compound LU82351722
>parentmass 240.1383
>ionization [M+H]+
>formula C16H17NO
>rt 1002.300000
>profile orbitrap
#smiles_iso CN(C)C(=O)C(C1=CC=CC=C1)C2=CC=CC=C2
#smiles_can CN(C)C(=O)C(C1=CC=CC=C1)C2=CC=CC=C2
#inchikey QAHFOPIILNICLA-UHFFFAOYSA-N
#pubchem_id 13728
#mb_accession LU070301,LU070302,LU070303,LU070304,LU070305,LU070306

>ms2peaks
72.044600 55984.700000
134.096300 6158011.500000
162.091200 573006.900000
165.070400 42525.100000
167.085400 608868.400000
240.138100 33015426.000000

>ms2peaks
72.044300 191819.100000
118.065000 33506.200000
134.096300 22486244.000000
162.091200 1059503.900000
165.070400 29813.400000
167.085400 2513567.800000
195.080600 24228.400000
240.138000 16903574.000000

>ms2peaks
72.044400 788725.000000
91.054100 100676.300000
118.064600 42134.300000
134.096400 36084440.000000
152.062200 89829.700000
160.076300 41616.300000
162.091400 484761.400000
165.070200 157857.700000
166.077700 57265.300000
167.085600 6159837.500000
240.138400 1782231.000000

>ms2peaks
72.044300 1333984.400000
91.054200 607864.400000
93.069900 41685.700000
118.064800 157282.400000
119.073000 106985.000000
132.081100 40323.900000
134.096300 32889176.000000
147.067800 34413.000000
152.062000 917114.300000
160.075700 84574.200000
162.091300 111335.700000
165.069900 1045319.000000
166.077700 349990.100000
167.085400 6718325.000000
169.064500 41969.300000
240.137900 46479.800000

>ms2peaks
56.049500 87111.600000
65.038500 33029.100000
67.054100 44573.700000
72.044400 1588414.500000
79.054200 37299.500000
91.054200 2292475.800000
93.069900 103342.200000
94.065100 57160.100000
103.054200 53607.200000
104.049500 28607.600000
105.069900 136912.100000
115.054300 31824.100000
117.057400 43663.800000
118.065100 680813.800000
119.073000 410721.200000
128.062300 49291.600000
132.081000 138277.400000
133.088800 28140.100000
134.096400 23581250.000000
141.069800 75113.200000
147.067900 29543.400000
152.062000 2757889.500000
160.075800 62701.200000
162.091700 25784.700000
165.069900 2488198.500000
166.077700 869915.900000
167.085500 3621550.800000
169.064800 127532.700000

>ms2peaks
53.038500 39265.700000
56.013100 34279.300000
56.049500 143850.400000
65.038500 139265.100000
67.054200 74060.700000
68.049400 18715.900000
72.044300 1723525.000000
77.038500 29544.100000
79.054100 79480.400000
89.038500 19750.500000
91.054200 4940978.000000
93.069900 169603.800000
94.065100 194796.400000
95.049100 102965.500000
103.054200 134326.600000
104.049400 95703.200000
105.069800 195948.500000
106.065100 44015.300000
115.054200 89847.900000
117.057300 86212.500000
118.065000 2382352.800000
119.072900 732275.500000
128.062000 188810.600000
132.080800 296358.900000
133.088300 40091.200000
134.096300 16127486.000000
141.069800 241994.100000
146.059900 31396.400000
147.067600 22973.300000
151.054200 32380.600000
152.062000 4747387.000000
160.075900 39853.600000
165.069800 4508972.000000
166.077600 1273944.900000
167.085400 1486696.600000
169.064600 225509.200000

