>compound LU82440127
>parentmass 199.12300000000002
>ionization [M+H]+
>formula C13H14N2
>rt 724.500000
>profile orbitrap
#smiles_iso C1CCC2=NC3=CC=CC=C3C(=C2C1)N
#smiles_can C1CCC2=NC3=CC=CC=C3C(=C2C1)N
#inchikey YLJREFDVOIBQDA-UHFFFAOYSA-N
#pubchem_id 1935
#mb_accession LU049901,LU049902,LU049903,LU049904,LU049905,LU049906

>ms2peaks
74.096400 73573.300000
199.122900 40514568.000000

>ms2peaks
74.096300 154953.000000
199.122800 40917800.000000

>ms2peaks
74.096300 118578.100000
171.091600 111490.500000
199.122700 37465924.000000

>ms2peaks
74.096400 98078.000000
144.080900 132943.100000
157.076000 90370.900000
158.083700 177778.000000
171.091600 2224022.000000
182.095800 48315.800000
183.091800 121285.100000
184.100300 41078.900000
197.107600 349594.800000
198.115100 59707.400000
199.122800 40518300.000000

>ms2peaks
74.096400 36822.300000
116.049600 25472.900000
118.065000 28404.800000
130.065200 116343.300000
140.049400 37880.600000
144.080800 1406959.600000
154.065100 26445.200000
157.076100 482688.800000
158.083900 726351.500000
167.073100 139024.600000
168.081000 30905.300000
169.076100 28970.500000
170.083600 28189.200000
170.096500 54773.500000
171.091600 8060066.500000
172.111800 33602.900000
180.080900 71190.300000
181.076100 25942.700000
182.084000 261547.300000
182.096500 122863.700000
183.091700 803923.400000
184.099700 128279.100000
195.092000 104553.000000
197.107500 1125802.800000
198.115100 122422.200000
199.123000 25383140.000000

>ms2peaks
55.054200 27041.400000
74.096300 29338.200000
77.038400 16722.100000
82.065100 29097.500000
97.007600 48004.000000
104.049400 30896.500000
106.065100 19988.900000
116.049400 214982.200000
117.057200 71427.500000
118.065000 136365.500000
130.065100 470733.600000
131.060500 22253.500000
131.073000 70031.100000
140.049400 161228.900000
142.052700 102003.000000
143.073000 162711.500000
144.080700 6319840.000000
145.075900 38377.700000
154.065000 131050.300000
155.060400 85970.400000
156.068100 174710.200000
156.080800 35271.400000
157.076000 996871.800000
158.083800 1380835.900000
167.073000 443833.000000
168.080900 96295.200000
169.076300 149494.200000
170.083800 229346.000000
170.096300 112620.500000
171.091600 13245886.000000
172.099500 148119.800000
172.111300 53654.300000
180.080800 188251.100000
181.076100 119331.500000
181.087500 40220.200000
182.084000 840907.100000
182.096400 196503.600000
183.091700 2093010.000000
184.099500 186092.900000
195.091800 356519.600000
197.107400 1950715.000000
198.115100 109943.600000
199.122900 13502906.000000

