>compound LU82610723
>parentmass 198.1277
>ionization [M+H]+
>formula C14H15N
>rt 796.660000
>profile orbitrap
#smiles_iso C1=CC=C(C=C1)CCCC2=CC=NC=C2
#smiles_can C1=CC=C(C=C1)CCCC2=CC=NC=C2
#inchikey AQIIVEISJBBUCR-UHFFFAOYSA-N
#pubchem_id 74937
#mb_accession LU129901,LU129902,LU129903,LU129904,LU129905,LU129906

>ms2peaks
93.057600 80532.100000
106.065300 90860.300000
120.080800 308237.300000
198.127600 35585560.000000

>ms2peaks
93.057700 85503.900000
106.064700 140636.800000
107.073000 45267.200000
120.080800 947394.900000
198.127700 34368704.000000

>ms2peaks
79.041300 31610.700000
80.049400 322756.300000
91.053900 47521.700000
92.049400 101530.500000
93.057200 1755590.200000
94.065100 273831.900000
105.069900 665083.800000
106.065100 4817203.500000
107.072900 1458297.400000
120.080700 190231.900000
155.085400 42425.500000
198.127500 25503892.000000

>ms2peaks
54.033900 15737.300000
57.069900 21315.600000
65.038500 95953.700000
67.054100 14132.300000
78.033500 34634.600000
79.041500 42991.700000
79.054200 110456.200000
80.049500 139876.000000
91.054200 652083.400000
92.049500 296422.800000
93.057300 2604722.200000
94.065100 607726.600000
103.054300 110057.700000
104.049400 24757.500000
105.069900 1504289.000000
106.065100 3585471.500000
107.072900 2297090.800000
118.065100 165408.500000
119.073000 76952.500000
120.080800 13703845.000000
196.112300 36911.500000
198.127700 7922541.000000

>ms2peaks
53.038500 45415.400000
65.038500 62954.600000
66.046400 73530.200000
67.041600 124883.700000
67.054100 16677.500000
77.038500 28656.300000
78.034000 22141.600000
79.041600 648913.000000
79.054200 558435.100000
80.049400 1351327.000000
91.054300 142800.100000
92.049500 439133.100000
93.057300 12878743.000000
94.065100 710271.200000
103.054200 393145.900000
105.070000 3244643.200000
106.065100 14297390.000000
107.072800 3131456.800000
117.070000 16969.600000
118.065000 53759.600000
119.073400 16220.900000
120.080700 243946.400000
155.085500 35310.400000
198.127700 2063169.800000

>ms2peaks
53.038600 146112.500000
54.033900 16018.700000
65.038500 201965.200000
66.046300 319753.100000
67.041600 393704.900000
67.054100 44235.800000
77.038500 63832.200000
78.033700 44831.700000
79.041600 1134673.000000
79.054200 1159713.400000
80.049400 1518188.100000
91.054200 187609.000000
92.049500 712119.000000
93.057300 14822855.000000
94.065000 528289.700000
103.054200 716625.600000
105.069900 2355398.200000
106.065100 14812316.000000
107.072800 1329794.000000
118.064900 81199.600000
119.073100 17978.300000
120.080700 247389.500000
198.127600 250106.900000

