>compound LU83802486
>parentmass 255.0652
>ionization [M+H]+
>formula C15H10O4
>rt 906.300000
>profile orbitrap
#smiles_iso C1=CC(=CC=C1C2=COC3=C(C2=O)C=CC(=C3)O)O
#smiles_can C1=CC(=CC=C1C2=COC3=C(C2=O)C=CC(=C3)O)O
#inchikey ZQSIJRDFPHDXIC-UHFFFAOYSA-N
#pubchem_id 5281708
#mb_accession LU093701,LU093702,LU093703,LU093704,LU093705,LU093706

>ms2peaks
255.065400 8066987.500000

>ms2peaks
137.023300 39981.100000
187.055900 10276.500000
199.075300 67559.600000
227.070200 38443.900000
237.054000 11153.200000
255.065200 7562724.000000

>ms2peaks
55.017900 11154.300000
68.997000 9880.900000
91.054200 41093.000000
108.055600 48467.600000
110.071200 19968.700000
111.044000 6029.500000
119.049100 49225.900000
121.028500 17799.900000
121.050700 5577.100000
128.062200 7653.300000
129.069900 36418.700000
131.049300 9943.300000
131.085500 6878.200000
133.028400 48479.900000
137.023300 544344.900000
141.069800 9478.700000
143.085400 15710.300000
145.028400 110642.600000
147.024700 6980.900000
149.023300 39188.900000
153.069800 44714.300000
155.085600 6514.000000
157.064800 80394.700000
165.069900 17928.000000
167.033900 7598.200000
169.064700 9278.200000
171.080400 64876.500000
181.064700 119684.400000
182.072500 8862.800000
184.051900 10857.800000
185.059600 25658.300000
187.055900 37850.400000
187.075400 5051.700000
197.059700 9230.700000
198.067900 6270.700000
199.075300 906546.700000
209.059600 33585.400000
210.067000 11752.400000
211.075100 24711.600000
213.054500 8860.700000
227.070200 426482.300000
237.054600 160191.100000
255.065100 4647602.000000

>ms2peaks
53.002200 3601.200000
53.038700 4465.300000
55.017900 68444.500000
63.022800 2743.800000
65.038500 42046.300000
68.997100 57652.200000
71.012600 3935.200000
81.033500 41289.000000
89.038500 18217.100000
91.054200 430536.600000
92.025900 2606.100000
93.033500 5706.200000
95.012900 3411.300000
95.049100 7982.200000
96.020700 3380.200000
103.054100 4414.400000
105.033500 36609.600000
106.041400 3820.800000
107.049200 6348.200000
108.055600 161023.000000
109.028500 11073.500000
110.071400 27656.500000
111.044000 14292.400000
115.054300 20797.000000
117.033500 4982.700000
118.041300 11430.800000
119.049200 179989.100000
120.055700 6327.900000
121.028500 71237.200000
127.039000 9640.700000
128.062100 121389.000000
129.069800 163978.800000
131.049100 60364.900000
131.085600 32666.000000
133.028400 98895.400000
134.036200 42113.100000
135.043900 2922.600000
137.023300 1078269.100000
141.070000 31784.800000
142.077600 2525.200000
143.049200 6264.500000
143.085500 101789.700000
144.056800 5755.500000
145.028400 175245.300000
145.064800 11636.200000
147.024600 7858.100000
147.044200 8887.300000
149.023400 85589.800000
152.062000 79522.400000
153.069900 384282.900000
154.077700 9488.400000
155.033300 3049.900000
155.049100 3268.900000
155.085500 10537.900000
156.056500 2808.000000
157.064800 214344.800000
159.043900 5873.700000
159.080400 7596.800000
161.023200 3859.500000
165.070000 33009.200000
167.034100 16703.300000
167.049000 3966.200000
168.056800 7741.300000
169.064800 46896.900000
170.072500 9861.800000
171.080400 216404.600000
175.038900 3482.600000
181.064800 644562.200000
182.072800 35763.400000
183.080400 5006.500000
184.051800 73818.800000
185.059800 46312.200000
187.039200 3044.300000
187.055900 28620.900000
187.075600 2624.200000
193.049600 10573.600000
197.059700 65341.300000
198.067600 44924.500000
199.075400 1459066.400000
200.049800 2999.300000
209.059700 80700.300000
210.067600 29501.900000
211.075400 32609.700000
212.046900 17021.100000
213.054700 14595.800000
225.054700 9368.900000
226.062500 28342.300000
227.070300 544472.900000
237.054600 283255.200000
255.065200 1127887.200000

>ms2peaks
53.002200 8144.000000
53.038600 24041.000000
55.017800 136051.900000
63.022900 4126.700000
65.038500 293690.300000
68.997000 119179.600000
71.012700 5199.900000
77.038500 6474.300000
78.046400 19703.100000
79.017800 3390.900000
79.054200 3670.800000
81.033500 199149.500000
82.041300 13736.800000
89.038500 43922.900000
90.046400 4053.800000
91.054200 1213234.900000
92.025700 6710.000000
93.033500 6148.600000
94.041300 6667.400000
95.012700 4000.100000
95.049100 24339.000000
96.020600 12989.100000
103.054300 19635.800000
105.033500 81501.300000
106.041200 16240.200000
107.049200 13248.400000
108.055600 191721.900000
109.028400 17935.800000
110.036300 4559.000000
110.071300 12655.400000
111.044000 24816.800000
115.054100 67095.800000
116.062100 4664.100000
117.033400 5022.400000
117.070000 4245.300000
118.041200 28776.100000
119.049100 199722.200000
120.055400 5469.400000
121.028400 102955.400000
127.038800 17711.800000
127.054300 10233.400000
128.062000 350988.800000
129.069800 185949.600000
131.049000 112438.500000
131.085400 22697.000000
133.028400 48279.300000
134.036100 75424.400000
135.044000 4318.300000
137.023300 983707.100000
138.031100 13367.400000
139.054000 6176.100000
141.069700 63117.500000
142.077800 7278.700000
143.049000 8022.900000
143.085500 98208.300000
144.057200 12346.800000
145.028400 100706.400000
145.064800 37796.400000
147.044000 27531.300000
149.023300 62841.000000
152.062000 490393.500000
153.069800 597132.100000
154.077600 12152.200000
155.049100 10727.100000
155.085200 5737.800000
156.056900 13528.700000
157.064700 158904.000000
159.043700 3902.900000
159.080500 4030.600000
161.023600 3428.600000
163.054100 4041.800000
165.069800 29681.500000
167.034000 8627.900000
167.049600 4689.600000
168.056700 15725.300000
169.064700 92695.800000
170.072700 23930.300000
171.043800 14385.800000
171.080300 161321.100000
175.038700 5597.800000
180.057600 4216.100000
181.064700 877635.600000
182.072500 68808.900000
184.051800 135185.100000
185.059400 24656.800000
187.039000 7090.400000
187.055400 3387.100000
193.049500 13905.300000
197.059700 119288.300000
198.067500 81960.600000
199.075300 584522.100000
200.046200 2806.200000
208.051300 5046.900000
209.059600 71388.600000
210.067300 30232.100000
211.075300 14033.800000
212.046600 22500.900000
213.055000 9655.400000
219.044200 5301.100000
225.054400 14371.200000
226.062200 30211.900000
227.070200 162401.300000
237.054400 111049.600000
255.065000 97197.200000

>ms2peaks
53.002200 22007.600000
53.038600 64739.700000
55.017800 126694.100000
63.022800 17028.000000
65.038500 783583.900000
68.997000 130598.900000
71.012700 3619.500000
77.038400 12685.300000
78.046400 61993.600000
79.017800 4281.500000
79.054200 6864.700000
81.033500 410294.400000
82.041300 12743.700000
89.038500 76085.800000
90.046400 6669.400000
91.054200 1590649.900000
92.025600 9615.400000
93.033400 8344.200000
94.041300 3686.900000
95.012800 5746.900000
95.049100 45407.200000
96.020500 14368.700000
103.054200 43215.300000
105.033500 100964.800000
106.041200 29322.000000
107.049100 18222.300000
108.055500 113805.100000
109.028400 22962.500000
110.036100 5359.300000
110.071200 6083.400000
111.044100 23505.000000
115.054200 104861.500000
116.062000 10132.900000
117.033400 4458.300000
117.069900 9831.500000
118.041200 37956.600000
119.049100 107136.800000
121.028400 75803.100000
127.039000 33164.200000
127.054100 27940.600000
128.062000 509043.800000
129.069800 112929.200000
131.049100 129119.000000
131.085600 8667.100000
133.028300 16411.700000
134.036100 54647.500000
135.043900 7246.600000
137.023300 594150.800000
138.031100 28186.500000
139.054300 8249.800000
141.069800 87534.600000
142.077600 10721.400000
143.049300 4179.100000
143.085400 39599.200000
144.056900 21271.800000
145.028400 34381.200000
145.064700 62771.600000
147.044100 39176.500000
149.023400 19333.800000
152.062000 955791.400000
153.069800 452419.100000
154.077700 14489.600000
155.049200 26927.900000
156.056900 16101.100000
157.064800 79858.100000
159.044200 4888.300000
163.054100 12527.700000
165.069700 27414.000000
168.056900 19099.300000
169.064700 152531.000000
170.072600 33436.800000
171.044100 8450.900000
171.080400 59844.800000
180.057100 7035.800000
181.064700 555549.200000
182.072600 51296.900000
183.080800 2941.400000
184.051800 110421.600000
185.059500 9225.500000
187.039100 8122.800000
193.049500 9887.000000
197.059700 139950.000000
198.067700 57239.300000
199.075300 107288.400000
208.051700 6889.000000
209.059500 20580.400000
210.067600 15963.400000
212.046900 10174.200000
219.044000 3577.000000
225.054800 12014.200000
226.062700 11194.200000
227.070400 20122.300000
237.054500 25105.400000
255.065900 4745.600000

