>compound LU83886672
>parentmass 319.1765
>ionization [M+H]+
>formula C16H22N4O3
>rt 1061.980000
>profile orbitrap
#smiles_iso CCCC1=C(C=CC(=C1O)C(=O)C)OCCCCC2=NNN=N2
#smiles_can CCCC1=C(C=CC(=C1O)C(=O)C)OCCCCC2=NNN=N2
#inchikey MWYHLEQJTQJHSS-UHFFFAOYSA-N
#pubchem_id 3969
#mb_accession LU115301,LU115302,LU115303,LU115304,LU115305,LU115306

>ms2
55.029100 18706.600000
55.054200 18851.200000
80.049600 3141.400000
86.096600 2538.800000
97.076100 71056.200000
111.044400 2979.300000
123.044000 4707.800000
125.082200 1486521.100000
137.059800 6076.500000
151.075300 14657.400000
153.054600 5106.000000
153.091000 93985.000000
165.054700 4832.900000
165.090900 31867.200000
175.075100 3111.800000
177.091700 2620.900000
179.070500 6324.900000
189.091000 4307.000000
191.106900 2038.700000
193.086100 38975.300000
195.101600 374183.400000
205.122400 6572.700000
207.101800 83472.000000
207.138000 347481.200000
218.081000 6176.400000
220.096800 5046.700000
232.096900 7617.100000
232.133200 8295.400000
233.116900 8019.400000
247.133200 2800.800000
274.143900 34025.000000
277.165900 916404.900000
291.170600 5925.000000

>ms2
53.038600 6579.500000
54.033900 3350.900000
55.029100 110153.200000
55.054200 63466.300000
56.049400 6487.600000
57.069900 10970.300000
67.054200 9205.800000
68.049400 11631.400000
69.044700 14853.400000
70.065200 4358.700000
71.060500 2164.300000
80.049400 17836.100000
82.065100 9393.100000
97.076100 90099.800000
98.083800 2196.800000
99.091700 7039.900000
111.044000 27920.000000
123.044000 23730.200000
125.082200 1605311.800000
137.059800 50541.700000
149.060100 4665.800000
151.075300 38398.300000
153.054700 21854.600000
153.091000 134605.900000
161.060100 3070.700000
163.075500 3969.400000
165.054800 35283.100000
165.091100 96049.000000
175.075500 17699.500000
177.054200 2698.900000
177.090900 23123.300000
179.070300 46422.200000
179.106100 4919.100000
189.091100 45019.700000
190.050100 15489.700000
190.086200 6772.800000
191.070200 8029.700000
191.106700 17923.200000
193.086000 40698.500000
195.101700 389420.900000
200.070500 2926.200000
204.065400 19684.200000
205.122200 3959.100000
207.101700 75897.400000
207.113100 4851.300000
207.138000 91552.600000
214.086400 9911.800000
215.106900 5002.600000
218.081600 12093.400000
220.096900 31412.800000
231.102100 7700.200000
231.125500 6628.300000
232.096800 18722.600000
232.133000 19075.300000
233.117200 14228.100000
249.148100 4471.500000
274.144100 24869.200000
277.165800 18936.700000
291.169300 2632.900000

>ms2
53.002200 2968.800000
53.038700 17355.700000
54.033900 11758.100000
55.029100 199291.400000
55.054300 82511.200000
56.049500 11187.600000
57.069900 7387.500000
67.054300 28650.700000
68.049500 22913.600000
69.044700 36656.600000
70.065000 10186.400000
71.060200 2190.400000
80.049500 37007.100000
81.057400 5024.700000
82.052600 7289.100000
82.065200 36765.800000
91.054200 3418.500000
95.049400 2707.200000
97.076100 73758.500000
98.084000 4385.000000
99.091800 11568.400000
107.049200 7151.200000
111.044100 59471.200000
121.065100 2236.000000
123.044100 44647.600000
125.082300 907640.400000
131.049400 3427.200000
132.081100 1897.200000
133.064500 4443.600000
135.044300 7892.500000
137.059700 83769.400000
145.065000 3344.600000
147.044100 30173.000000
149.059900 24500.700000
151.075600 18487.500000
153.054700 25764.400000
153.091100 58324.000000
161.059700 26397.900000
161.096100 1970.900000
162.055100 6849.400000
163.075500 12672.900000
165.054800 49536.700000
165.091000 47088.900000
172.039500 21989.000000
174.055100 7445.900000
175.075300 18691.900000
177.054500 4449.600000
177.091100 57154.700000
179.070400 50018.800000
179.106500 4421.700000
186.055100 21022.400000
189.079300 4343.300000
189.091100 60339.400000
190.050100 31589.100000
190.086500 11541.900000
191.070700 12701.200000
191.107000 15678.000000
192.078200 4533.000000
193.086400 9066.900000
195.101800 129915.600000
200.070600 9118.000000
202.086500 7747.400000
204.065700 29496.400000
204.102100 2161.300000
205.122600 2486.800000
207.101900 12083.400000
207.137900 5764.700000
214.086600 16460.300000
215.106800 5904.900000
218.081400 3334.400000
220.096900 35256.200000
230.081200 2853.100000
231.101700 4112.000000
231.125800 4844.500000
232.096900 5986.700000
232.133500 6205.800000
274.144000 2906.900000

>ms2
53.002200 7293.200000
53.038600 31580.600000
54.033900 22130.700000
55.029100 228582.400000
55.054300 91515.400000
56.049600 14334.500000
57.057400 2486.800000
57.069800 7981.400000
65.038600 6497.900000
67.054200 54835.500000
68.049500 30931.300000
69.044700 67583.000000
70.065000 10844.100000
79.054300 9394.000000
80.049500 43177.600000
81.057300 7083.800000
81.069800 1899.500000
82.052600 10395.200000
82.065200 58053.400000
91.054300 21876.400000
93.033600 2698.400000
93.069900 3757.800000
95.049200 5731.100000
97.076100 46496.300000
99.091700 8047.800000
103.054300 8734.700000
104.049500 3607.700000
105.070000 8350.900000
107.049200 25320.100000
109.064900 6093.300000
111.044200 60247.700000
115.054300 2543.800000
116.049500 8363.500000
117.069800 4086.700000
119.049300 5533.000000
119.085400 3887.500000
121.064900 7609.300000
123.044100 50632.700000
125.082300 424120.500000
128.062100 3118.800000
129.070000 5291.600000
130.065200 6521.300000
131.049300 19791.700000
131.085500 2996.300000
132.044400 8290.100000
132.080100 1902.400000
133.064800 10209.200000
135.044100 12877.700000
137.059900 56191.500000
141.070000 2107.800000
144.044400 3317.900000
145.064700 4566.900000
146.060300 2999.900000
147.044200 67412.400000
148.038900 3320.400000
149.059800 35178.900000
150.067500 3511.900000
151.075400 4447.600000
153.054500 12073.400000
153.091000 10908.400000
156.044300 9741.800000
158.060300 3132.000000
159.044100 4466.600000
159.055100 2691.900000
160.051800 4078.800000
161.059800 31253.200000
161.096500 2132.900000
162.055000 8586.000000
163.075700 9387.600000
165.054800 37697.900000
165.091100 11357.500000
172.039400 52779.600000
174.055000 7617.400000
174.067800 3208.900000
175.075700 10536.600000
177.054800 15670.400000
177.091100 37804.900000
179.070400 17053.400000
184.039700 2363.100000
186.055100 29691.100000
188.070600 3835.100000
189.078300 4272.600000
189.091100 27247.500000
190.050300 14677.300000
190.086400 4688.600000
191.070400 5070.100000
191.106800 5103.800000
192.077700 2028.100000
195.101700 22607.000000
200.070300 2641.900000
202.086200 9539.000000
204.065900 11968.400000
204.101800 3250.700000
214.086300 3479.900000
220.096900 7425.300000
230.081800 1997.800000
231.101900 2281.300000

>ms2
53.002200 8906.600000
53.038600 48330.100000
54.033900 21247.700000
55.029100 231683.400000
55.054300 91063.100000
56.049500 20035.000000
57.044700 2012.200000
57.057200 3369.600000
57.069900 4517.500000
65.038600 14839.400000
67.054200 62142.500000
68.049500 27864.000000
69.044700 68537.300000
70.065100 8749.100000
71.060400 3847.900000
77.038400 2515.500000
79.054200 24422.000000
80.049500 38908.900000
81.057400 4984.800000
81.070000 3749.600000
82.052600 14386.800000
82.065200 55708.000000
83.060400 1991.000000
89.038600 7858.100000
91.054300 55119.800000
93.033500 4828.400000
93.069900 6846.600000
94.041500 1856.800000
95.049200 15336.600000
97.076100 21760.100000
99.091600 2628.300000
102.046600 2330.200000
103.054300 27092.200000
104.049500 7239.700000
105.033400 4836.300000
105.044800 7088.700000
105.070000 12724.000000
107.049200 37404.000000
109.064800 6585.300000
111.044100 46557.800000
115.054200 10357.800000
116.049600 25403.000000
116.062000 3203.000000
117.069800 3876.800000
119.049200 13422.500000
121.039700 2814.800000
121.064900 11019.400000
123.044100 34231.500000
125.082300 164016.500000
128.049600 8560.600000
128.062100 6953.200000
129.069900 6538.700000
130.065200 4502.600000
131.049300 33611.900000
131.085600 3371.100000
132.044100 9275.500000
132.056600 3325.500000
133.064800 7829.900000
134.036200 1989.000000
134.059800 3344.700000
135.044100 16820.700000
135.055500 3108.900000
137.059800 24248.400000
144.044400 7945.600000
145.064800 8429.100000
146.059700 2927.900000
147.044100 64142.700000
148.039400 2698.600000
149.023300 1943.500000
149.059800 20220.300000
150.067800 3780.300000
151.039100 3006.100000
153.054500 3766.600000
153.091100 2257.400000
155.060600 2952.500000
156.044400 18864.700000
158.059800 2407.600000
159.044100 6650.300000
160.051900 7400.400000
161.059700 21030.800000
162.055000 7725.000000
163.075100 5741.000000
165.054800 16699.000000
167.033600 2308.400000
171.044000 2389.800000
172.039400 39657.700000
173.059900 2838.400000
174.055200 5560.100000
174.067600 5073.300000
175.075200 4786.700000
177.054800 21387.300000
177.091000 12445.200000
179.070300 5595.000000
184.039500 4027.400000
186.055200 12407.300000
188.070800 4373.100000
189.090700 10086.500000
190.049900 3375.000000
195.102000 3173.400000
202.086400 4420.400000
212.070900 3062.000000

>ms2
53.002200 8124.100000
53.038600 56350.600000
54.033900 24146.300000
55.029100 195147.300000
55.054300 76378.300000
56.049500 16650.900000
57.044800 1956.900000
57.057400 2716.100000
58.065100 10193.200000
65.038600 36887.300000
67.054200 48415.200000
68.049500 16181.700000
69.044700 55501.400000
70.065100 4580.400000
77.038600 6491.100000
79.054300 37080.800000
80.049500 26883.400000
81.057400 4113.500000
81.069900 3440.800000
82.052600 10463.300000
82.065200 36031.000000
83.048900 2133.600000
83.060500 2042.000000
89.038600 27539.200000
91.054300 104045.200000
93.033600 5684.900000
93.070000 7315.100000
95.049100 35587.800000
97.076200 13174.900000
99.091800 2202.500000
103.054300 38737.300000
104.049600 6100.100000
105.033700 3367.200000
105.044900 14833.300000
105.069900 11301.800000
107.049200 35303.700000
109.064900 2604.700000
111.044000 25888.700000
115.054400 20373.300000
116.049400 23963.400000
116.062200 3490.800000
117.069900 8035.300000
119.049200 16211.200000
121.065000 6714.800000
123.044200 19442.600000
125.082300 51096.000000
128.049600 7863.100000
128.062200 14893.400000
129.044700 6443.500000
129.070000 5609.800000
130.065100 6648.000000
131.049200 30559.100000
132.044700 4900.700000
133.064800 5101.700000
134.035900 1959.300000
134.060200 4021.000000
135.044000 8445.100000
137.060100 5364.900000
144.044600 6369.900000
145.064900 6763.100000
147.044100 40437.000000
147.080700 2149.700000
148.039200 2445.300000
149.059500 4487.500000
156.044300 16018.300000
159.044400 3527.700000
160.052000 7581.900000
161.059800 5925.200000
165.054900 4442.500000
171.044100 4262.900000
172.039200 12855.200000
174.067500 2156.000000
177.054900 14215.400000
177.091400 2672.300000
179.071300 1982.100000
184.039400 3472.100000
186.055200 3468.700000
189.091000 2563.300000

