>compound LU83421189
>parentmass 484.0709
>ionization [M+H]+
>formula C16H14F5N5O5S
>rt 935.820000
>profile orbitrap
#smiles_iso COC1=CN=C(N2C1=NC(=N2)NS(=O)(=O)C3=C(C=CC=C3OCC(F)F)C(F)(F)F)OC
#smiles_can COC1=CN=C(N2C1=NC(=N2)NS(=O)(=O)C3=C(C=CC=C3OCC(F)F)C(F)(F)F)OC
#inchikey SYJGKVOENHZYMQ-UHFFFAOYSA-N
#pubchem_id 11784975
#mb_accession LU046201,LU046202,LU046203,LU046204,LU046205,LU046206

>ms2
195.075000 185292.500000
444.059300 53267.700000
464.064600 54439.200000
469.046600 22784.000000
484.071100 13040901.000000

>ms2
56.049500 8687.400000
70.028600 16610.500000
83.060300 16359.600000
84.044300 8436.100000
96.031800 8440.400000
97.039600 7456.800000
111.055200 14337.600000
124.026700 147794.000000
124.050500 30735.000000
127.050300 15064.800000
135.043900 17236.100000
136.061700 40451.300000
137.045800 7386.900000
139.050100 1245783.600000
140.045200 18567.700000
144.991500 15278.300000
149.045800 7583.700000
150.029600 8040.800000
150.053500 10868.300000
152.045400 87139.600000
153.053200 91181.400000
164.056600 697782.400000
165.064500 17808.400000
166.072300 139636.900000
172.986400 17490.300000
177.015800 23287.800000
177.032100 10784.000000
177.064400 15717.700000
178.072600 17206.500000
180.051500 116304.500000
194.067400 914171.400000
195.075000 7052982.000000
199.006000 8502.100000
202.023700 7238.600000
205.027300 10088.700000
240.018500 16772.900000
250.998500 118621.100000
258.029000 72266.900000
297.086100 13296.600000
298.093600 14743.200000
308.077100 7283.400000
311.065100 7931.100000
312.072700 41988.900000
315.075800 18373.000000
324.070500 8074.200000
326.088300 690298.800000
335.082600 55861.900000
348.070000 22724.800000
365.073400 7585.700000
380.096500 74678.400000
400.102700 63580.000000
420.109000 10445.300000
444.058500 1190335.900000
464.064800 99918.800000
484.071000 2104832.500000

>ms2
56.049400 50503.400000
57.020800 17767.700000
58.028700 5389.800000
65.019700 14309.900000
66.033800 6857.500000
67.029000 11546.000000
68.036800 5979.600000
68.049500 10509.700000
69.044600 20636.000000
70.028700 85946.900000
71.047700 9871.900000
72.044200 5474.500000
79.029000 14800.000000
80.036800 8525.200000
81.044700 102677.700000
82.028800 9096.000000
83.000000 16320.800000
83.060300 53367.400000
84.031800 7634.600000
84.044400 16550.000000
86.023700 11573.400000
88.039300 22993.100000
92.036800 11666.100000
93.044800 6258.500000
94.039800 16199.300000
95.023900 10298.800000
95.047600 16102.400000
95.060400 79561.900000
96.031700 12383.100000
96.055600 24873.400000
97.039600 64449.700000
105.033400 12414.200000
106.040000 101625.000000
107.023900 26626.500000
108.031800 14539.000000
108.043000 145473.200000
108.055200 17985.500000
109.039600 44844.000000
110.023800 7630.300000
110.034700 17849.800000
110.047500 8730.300000
110.058700 12398.900000
111.018800 10134.500000
111.055200 68886.500000
111.066400 11271.400000
112.026700 13799.700000
112.050500 12366.300000
113.034600 6705.700000
115.061200 16635.700000
122.989900 16890.000000
123.042600 45924.900000
124.026700 670465.000000
124.050500 244900.000000
125.034500 51129.800000
125.058200 41494.700000
127.050100 31685.300000
129.040600 20233.600000
133.026300 5689.100000
135.044000 32425.300000
136.061800 577959.700000
137.045700 47542.300000
138.053600 8811.100000
139.037700 63526.200000
139.050200 697221.800000
140.021600 30550.500000
140.045400 70631.000000
141.014500 16563.300000
143.056200 8874.200000
144.991700 50742.500000
148.051000 7918.200000
149.021300 6504.500000
149.034500 9903.600000
149.045600 27563.200000
150.029700 16568.500000
150.041000 19028.600000
150.053600 12328.400000
151.016600 15811.200000
151.049300 15784.400000
151.061100 8049.500000
152.045400 772346.200000
153.053200 220546.400000
154.061000 48326.100000
156.055800 19027.500000
159.007500 10173.300000
160.012900 32723.600000
161.020700 15492.100000
162.041100 12527.400000
164.056600 2022718.800000
165.064500 291578.300000
166.072300 848086.500000
171.025100 13270.500000
172.017400 10768.800000
172.986600 16385.500000
176.034300 15453.200000
177.015800 81762.100000
177.040700 38736.300000
177.064400 267015.800000
178.030000 7417.100000
178.072300 40983.100000
179.056300 29847.600000
180.051500 636911.400000
187.050100 12964.200000
188.982500 11470.100000
194.067300 1802554.900000
195.075000 5367427.500000
198.036100 9490.400000
199.005900 8342.300000
201.015900 24671.200000
202.023500 12466.100000
217.052000 13272.600000
228.044000 10217.500000
228.064900 10949.000000
240.018500 129856.600000
243.087800 19844.600000
250.998500 47908.400000
254.067500 7534.200000
269.031400 5476.600000
269.090300 37325.800000
280.083400 10261.400000
282.061900 28010.100000
296.040800 8163.100000
298.073400 177633.200000
308.076800 9603.500000
312.072700 31976.200000
315.075900 14199.700000
324.070400 7030.000000
335.082600 18607.900000
365.073500 5387.400000
380.096500 13883.200000
444.058600 59019.300000
484.070600 7094.100000

>ms2
52.018100 21703.600000
53.013700 3184.000000
53.026000 6053.500000
53.997500 15642.600000
54.033800 40698.100000
55.017900 5272.400000
55.029200 13106.700000
55.041700 6301.600000
56.013100 5994.500000
56.037000 4620.000000
56.049500 52708.700000
57.020900 27996.900000
57.044700 19133.200000
58.028800 17485.400000
58.040000 13974.800000
60.044400 3286.100000
64.018100 2908.100000
65.013500 9075.600000
65.019700 23586.700000
66.021200 6424.700000
66.033800 15747.900000
67.029000 32757.800000
67.041700 7133.600000
68.013100 11699.300000
68.024300 7430.500000
68.036800 32299.400000
68.049400 30494.200000
69.008400 8235.600000
69.044700 98000.200000
70.028700 181262.500000
71.047800 9463.100000
72.044300 4567.300000
74.096300 3839.200000
79.029000 76082.800000
80.013100 6485.800000
80.036900 39921.600000
81.044700 228979.700000
82.028700 23815.700000
82.040000 10072.400000
82.052600 7059.500000
83.000100 30075.400000
83.023900 29246.600000
83.060300 101781.600000
84.019200 49691.500000
84.031800 16306.300000
84.044500 19436.400000
85.039700 10803.500000
85.050900 12146.200000
86.023700 12444.300000
88.039200 17560.500000
92.024900 4007.200000
92.036900 49313.000000
93.008300 4038.400000
93.032000 5926.000000
93.044700 39849.100000
94.028700 22749.600000
94.040000 70017.500000
94.052700 7562.300000
95.023900 43656.100000
95.047700 29397.800000
95.060400 192970.400000
96.031800 19093.900000
96.044400 10231.400000
96.055600 91677.300000
97.039700 285172.900000
97.050800 21723.200000
98.023800 4812.300000
98.035200 4008.800000
98.047400 8296.900000
98.058700 4315.300000
99.055300 5122.000000
101.019800 12816.200000
102.027400 3465.100000
105.033600 21755.500000
105.045000 4394.600000
106.040000 506233.000000
107.013000 20165.300000
107.024000 150603.000000
108.043000 683124.300000
108.055400 38763.200000
109.039600 213572.200000
109.050900 95714.700000
110.023800 13270.000000
110.034900 56529.200000
110.047500 31452.300000
110.058600 27932.700000
111.018900 26121.900000
111.055300 327531.600000
111.066500 30301.200000
112.026800 36891.800000
112.050500 26029.700000
113.034500 6839.200000
115.061400 93942.700000
118.028600 7650.400000
119.035400 7510.700000
120.055600 12177.800000
121.003300 10112.600000
121.039800 7325.800000
121.050800 37281.300000
122.034800 57391.900000
122.989900 37154.200000
123.042600 55542.900000
123.054500 10004.800000
124.026800 759570.700000
124.050600 560496.400000
124.061600 126275.400000
125.034600 187262.000000
125.045800 70604.500000
125.058300 69643.100000
126.066200 16011.300000
127.035700 17427.800000
127.050100 19880.200000
127.061500 7033.000000
128.045000 6119.000000
129.029400 12851.200000
129.040600 59865.600000
129.076900 5452.200000
130.022600 8918.100000
132.018100 18699.900000
133.026100 14276.900000
134.034900 6703.800000
134.045900 23564.500000
135.044100 42786.000000
135.053700 17523.600000
135.066500 123049.200000
136.061800 1201195.000000
137.034700 10888.400000
137.045700 61576.900000
137.058500 4602.100000
138.029900 14075.500000
138.066300 11637.000000
139.037800 41703.800000
139.050200 671828.100000
140.021700 27394.700000
140.045300 77996.300000
141.014700 15451.200000
142.037500 23120.900000
143.056300 69061.800000
145.025900 17070.500000
146.046100 19517.800000
148.050900 16554.400000
148.061700 59653.700000
149.021100 10944.500000
149.034800 37577.000000
150.040900 54596.700000
150.046800 4437.100000
150.053600 4327.600000
150.077700 9206.100000
151.016600 55687.400000
151.048900 92624.600000
151.061100 35610.400000
152.045500 943059.200000
152.056100 262139.400000
153.053200 85934.500000
153.077200 10259.700000
153.994300 10807.400000
154.061000 94360.300000
155.032500 49648.400000
155.045100 6440.100000
155.055900 6733.400000
156.055700 14684.000000
157.048100 6392.500000
158.017500 7664.100000
159.007600 11700.800000
161.034800 9508.700000
164.056700 986534.700000
165.064600 311017.200000
166.072300 1134185.800000
170.034600 3978.900000
171.025300 14481.500000
172.017400 8401.000000
176.034100 8467.600000
176.056500 96384.800000
177.016100 28231.000000
177.032300 30648.000000
177.040900 29588.100000
177.064500 210745.000000
178.072400 39647.100000
179.056200 41681.700000
180.051600 682656.800000
181.033200 12816.100000
185.043200 6809.800000
188.049500 3833.100000
188.983200 5470.500000
190.040900 5344.500000
192.051800 3542.600000
194.067300 1585072.100000
195.075100 1184988.600000
198.036000 7633.200000
200.069500 14232.700000
201.016400 19711.500000
205.027600 3586.400000
205.060600 9019.100000
212.023700 21611.600000
215.056600 18498.300000
219.036000 6112.100000
227.059400 5939.900000
228.064900 7723.700000
231.031200 17938.800000
240.018600 131078.000000
241.072600 4072.800000
243.055400 4583.900000
243.088000 17995.300000
257.046700 10558.800000
269.030900 7251.700000
296.041200 7824.800000
298.093700 17989.400000
310.056200 4256.000000
311.065000 9962.100000
326.088400 6227.800000
348.070000 20069.400000

>ms2
52.018200 86922.300000
53.013600 2923.800000
53.026000 17201.600000
53.038600 9735.000000
53.997500 57352.800000
54.033800 117493.300000
55.017900 11966.000000
55.029000 30884.900000
55.041700 15032.800000
56.013100 16193.800000
56.037000 7672.600000
56.049500 41605.300000
57.020900 31842.100000
57.032100 10131.100000
57.044700 35395.100000
58.028800 30283.300000
58.040000 39451.100000
59.047900 4264.900000
60.044400 7516.400000
64.018300 4965.600000
65.013400 23983.900000
65.019700 24650.300000
65.025900 15264.700000
65.038500 3963.800000
66.021200 10713.400000
66.033800 29786.400000
67.029000 118727.200000
67.041600 13572.500000
68.013000 30969.700000
68.024300 14705.800000
68.036900 60147.000000
68.049400 64094.300000
69.008300 21361.800000
69.044700 271257.900000
70.028700 393463.500000
71.012800 4759.800000
71.024000 8266.400000
71.047800 7633.900000
72.044400 8232.100000
73.039500 3572.400000
74.096300 6415.200000
75.022900 4838.200000
79.029100 242960.500000
80.013100 18660.600000
80.036900 62604.400000
81.031900 15735.100000
81.044700 197256.100000
82.016200 10072.000000
82.028700 33245.100000
82.039900 32287.800000
82.052400 14688.600000
83.000100 46070.000000
83.024000 57869.600000
83.060400 230937.800000
84.019200 157474.400000
84.031800 16672.500000
84.044400 29855.700000
85.039600 9888.600000
85.050800 16299.900000
86.023700 8816.300000
88.039300 49445.200000
90.033800 6632.100000
91.029100 3912.100000
91.041600 6146.000000
92.024500 11192.800000
92.036900 56174.600000
93.008300 4262.000000
93.032100 6972.600000
93.044700 78305.800000
94.028800 20473.600000
94.040000 158059.600000
94.995000 8278.400000
95.024000 85821.300000
95.047700 39270.300000
95.060400 154394.700000
96.031800 16857.200000
96.044400 14915.900000
96.055600 123552.000000
97.039700 498900.700000
97.050800 40395.800000
98.023500 14820.200000
98.035000 12077.600000
98.047400 7932.700000
99.055200 4244.800000
99.066600 28554.400000
101.019700 51025.000000
105.033300 14519.400000
105.044700 9632.900000
107.012800 12996.700000
107.024000 244964.900000
108.043000 902998.100000
109.027200 201675.600000
109.039700 395091.100000
109.050800 213752.400000
110.011000 7573.900000
110.023600 12458.600000
110.034900 94198.600000
110.047500 38111.200000
110.058600 19445.600000
111.018900 24096.700000
111.055300 467962.400000
111.066400 41174.800000
112.026800 45948.500000
113.034600 7715.300000
115.061500 164413.000000
116.045400 6410.200000
118.028600 25162.500000
119.035300 21211.800000
120.043700 3073.900000
120.055700 11781.100000
121.003300 9386.500000
121.032100 4033.600000
121.039800 17699.900000
121.050900 53322.700000
122.034900 86585.100000
122.058500 16381.800000
122.989900 32429.400000
123.018900 4811.500000
123.030200 5751.300000
123.035200 3741.500000
123.042700 43371.200000
123.054000 33341.900000
124.026800 495465.400000
124.050600 574356.800000
124.061600 139220.200000
125.034600 238908.400000
125.045700 62575.500000
125.058300 70318.300000
126.066100 19315.900000
127.035700 28515.200000
127.050100 22153.400000
127.061600 19093.200000
129.029400 10993.800000
129.040500 74610.200000
129.077100 5932.000000
130.022700 5793.000000
130.040100 9872.700000
132.018100 42830.900000
133.026000 7208.200000
134.034700 4156.500000
135.043900 23812.900000
135.066500 105736.200000
136.061800 870835.400000
137.021700 6171.600000
137.034500 12597.500000
137.045900 43558.100000
137.058400 10210.100000
138.029900 6379.600000
138.053400 4492.800000
138.066400 15263.400000
139.050200 623188.200000
140.021700 6346.100000
141.014600 9495.500000
143.046000 5854.700000
143.056300 99314.800000
145.026000 19151.000000
145.039500 10447.000000
147.035400 5874.700000
148.050400 10144.500000
148.061700 51457.700000
149.034600 45840.700000
149.045600 31578.600000
150.035000 4215.300000
150.040900 39312.500000
150.046800 4772.800000
151.016600 60475.400000
151.048900 191750.500000
152.045500 499406.900000
152.056200 164821.200000
153.053200 53504.300000
153.077400 3310.700000
153.994300 12410.300000
154.040000 5335.200000
154.061000 58470.900000
155.032500 83291.400000
155.045400 8482.000000
156.055800 7311.600000
157.047600 6783.800000
158.017500 5762.100000
160.012900 24124.600000
161.027600 5407.200000
161.034700 12983.600000
162.041100 4440.000000
164.056700 310313.400000
165.052900 5327.000000
165.064600 81686.100000
166.072300 541731.200000
170.034800 3824.500000
171.036200 4106.800000
175.030100 3391.800000
176.056500 62472.300000
177.032100 18467.900000
177.040500 7881.900000
177.064600 42379.500000
178.072400 8901.000000
179.025100 6104.000000
180.051600 218256.800000
181.033200 6547.900000
181.041300 7019.800000
185.043400 5638.900000
188.049600 3032.000000
188.982300 3261.600000
194.067300 486334.300000
195.075200 113027.500000
200.069300 10431.900000
201.015700 6944.600000
203.036300 3873.600000
205.060700 4187.000000
212.023700 7202.200000
215.056400 14497.800000
217.052000 4229.100000
228.044100 13529.000000
231.031100 10338.500000
240.018500 46927.600000
243.055300 7137.500000
254.067600 7917.200000
257.046500 6044.400000
298.073300 11019.100000

>ms2
52.018200 167595.300000
53.013300 3185.300000
53.026000 21498.200000
53.038500 5337.000000
53.997500 115219.300000
54.033800 200026.200000
55.017900 19264.100000
55.029100 59069.300000
55.041600 17066.000000
56.013100 35227.000000
56.037000 5873.600000
56.049500 49333.200000
57.021000 24652.600000
57.032100 15070.800000
57.044700 48282.300000
58.028800 49771.500000
58.040000 54738.800000
59.047800 4849.200000
60.044300 9292.300000
64.018100 11559.300000
65.013400 34427.000000
65.019700 21218.200000
65.026000 21845.600000
65.038600 3964.400000
66.021300 31195.300000
66.033800 43405.900000
67.029000 236148.100000
67.041600 17921.800000
68.013100 64713.500000
68.024300 24305.200000
68.036800 82459.500000
68.049400 90076.300000
69.008300 47241.700000
69.044700 397433.100000
70.028700 730288.300000
71.012800 15706.100000
71.023900 11613.300000
72.044300 8139.800000
73.039600 13210.800000
74.096400 7313.700000
75.022900 12773.800000
79.029100 378037.500000
80.013100 51987.600000
80.036800 67796.800000
81.032100 34768.300000
81.044800 184968.700000
82.016300 15730.000000
82.028700 45368.500000
82.040000 57203.200000
82.052600 26629.300000
83.000200 82233.900000
83.024000 84469.100000
83.060400 291911.400000
84.019200 166566.000000
84.031800 18794.700000
84.044400 33355.500000
85.039700 18792.800000
85.051000 14639.300000
86.023700 11125.600000
88.039300 66094.200000
90.033800 12732.400000
91.029000 4885.200000
91.041700 9127.900000
92.036900 47980.700000
93.008500 4977.300000
93.044800 88774.400000
94.028700 12838.300000
94.995100 16362.600000
95.024000 120250.200000
95.047700 47226.600000
95.060400 80498.700000
96.031900 16873.800000
96.044400 13497.500000
96.055600 129480.300000
97.039700 499913.300000
98.023600 21888.300000
98.047400 6625.200000
99.066600 20661.700000
101.019700 99198.300000
102.027400 3362.700000
105.033300 6022.500000
105.044800 12303.000000
106.040000 429537.000000
107.024000 272315.000000
108.043000 773077.500000
109.027100 320520.500000
109.039600 379878.800000
109.050800 255252.600000
110.011000 13440.300000
110.047400 27211.800000
110.058700 11006.400000
111.018800 21824.200000
111.055300 343126.000000
112.026700 38152.100000
112.050500 28645.000000
113.034300 8889.300000
115.061400 159466.100000
116.045400 7208.700000
120.044300 6046.000000
120.055500 6848.100000
121.032100 7970.500000
121.039800 14735.100000
121.050800 44080.600000
122.034900 73784.200000
122.058500 12057.700000
122.990100 28616.000000
123.018900 4112.900000
123.030500 4317.100000
123.035400 5781.100000
124.026800 232573.200000
124.050600 388338.800000
124.061600 81261.300000
125.034600 156399.900000
125.045700 51139.600000
125.058400 45759.200000
126.066100 18545.200000
127.035700 31597.100000
127.050100 17316.100000
128.045300 3912.000000
129.040500 65917.700000
129.077000 8010.000000
130.040100 21992.600000
132.018200 68330.700000
134.034600 6872.900000
134.046000 50347.600000
135.066500 60474.600000
136.061800 434728.900000
137.021900 11638.300000
137.034500 8573.400000
137.045800 17883.100000
138.066300 6326.800000
139.050200 389807.300000
140.045400 47586.300000
141.014700 8186.700000
142.037200 48061.400000
143.046100 6122.000000
143.056300 85829.900000
144.991600 9518.000000
145.026100 17124.000000
145.039600 14112.200000
146.046100 14218.000000
147.035300 12293.300000
148.050200 3670.700000
148.061700 21930.100000
149.045200 15060.000000
150.035200 6643.200000
150.041000 10142.500000
150.046800 3542.200000
150.077700 3626.300000
151.016700 28270.400000
151.061200 19445.900000
152.045500 273127.500000
152.056200 73810.800000
153.053200 29027.400000
153.994100 5626.300000
154.039900 7253.600000
154.061000 28924.900000
155.032500 126292.600000
160.012900 9723.200000
161.027600 4373.400000
164.056700 117509.800000
165.052900 5222.200000
165.064400 14414.300000
166.072400 177313.500000
171.036200 4366.800000
175.030200 5060.900000
176.056600 24363.000000
177.032300 7557.800000
177.064800 5254.400000
179.025100 7232.400000
180.051500 53286.100000
181.041300 5103.200000
187.050200 9351.900000
190.041100 6117.800000
194.067300 88464.100000
195.075300 5852.200000
203.036400 3158.900000
215.056700 6494.600000
219.036100 3902.700000
227.059400 10258.000000
240.018400 8270.000000

