>compound LU83014644
>parentmass 352.042
>ionization [M+H]+
>formula C14H13N3O4S2
>rt 1011.060000
>profile orbitrap
#smiles_iso CC1=CN=C(S1)NC(=O)C2=C(C3=CC=CC=C3S(=O)(=O)N2C)O
#smiles_can CC1=CN=C(S1)NC(=O)C2=C(C3=CC=CC=C3S(=O)(=O)N2C)O
#inchikey ZRVUJXDFFKFLMG-UHFFFAOYSA-N
#pubchem_id 54677470
#mb_accession LU048701,LU048702,LU048703,LU048704,LU048705,LU048706

>ms2peaks
115.032400 3136674.200000
141.011600 864519.900000
184.053900 159215.300000
194.027400 13807.200000
210.022500 5313.600000
334.031600 12313.600000
352.042300 3636867.000000

>ms2peaks
73.010500 33025.000000
115.032400 6018808.000000
127.032200 24808.200000
141.011600 2229266.000000
153.000400 42790.100000
156.059000 8838.900000
164.016000 20858.900000
182.037800 12377.600000
184.053900 142700.600000
194.027000 95250.900000
210.021600 17328.000000
249.014900 6696.100000
265.009600 30121.300000
352.042200 76368.600000

>ms2peaks
56.049500 8019.300000
73.010600 202200.200000
88.021600 73001.900000
109.010800 17024.400000
113.016800 20297.900000
114.000800 8760.700000
115.032400 5937566.500000
127.032300 28170.300000
137.005500 31518.300000
141.011600 2264167.800000
153.000400 112246.900000
164.016300 40082.100000
168.995500 17202.100000
184.053900 12977.800000
194.027100 23258.300000
210.021900 38910.900000
249.014600 6286.500000
265.010200 14535.800000
270.044000 6310.900000

>ms2peaks
56.049400 16364.300000
58.028800 9284.300000
59.990200 6796.500000
69.044600 6800.500000
70.028700 11975.800000
73.010600 829528.200000
86.005900 8247.300000
88.021600 208363.000000
91.054300 8559.300000
97.010800 7681.200000
105.033500 10921.800000
109.010800 43029.400000
113.016900 29177.300000
114.001000 43699.800000
115.032500 4913859.500000
118.065000 6486.300000
125.005700 15490.100000
125.017100 5456.300000
127.032500 21667.100000
137.005700 31892.700000
141.011700 1785728.500000
143.027400 6773.000000
146.060000 13210.200000
153.000600 118438.500000
164.016500 26862.600000
168.995300 27044.500000
182.027600 5502.700000
210.022100 19075.100000
270.044000 7768.600000

>ms2peaks
53.038700 9276.700000
54.033800 3960.800000
56.049500 38744.200000
57.057400 4908.400000
57.987200 5011.000000
58.028800 16326.900000
58.995000 5737.300000
59.966500 10722.400000
59.990200 18509.900000
65.038600 10027.400000
69.044700 20133.300000
70.028700 38202.800000
70.994900 5936.200000
71.060400 8028.500000
73.010600 1955163.600000
77.038500 5103.500000
81.033500 4370.200000
82.052600 7370.200000
85.010700 4994.500000
85.969600 6858.600000
86.005900 13907.200000
88.021600 427342.800000
91.054300 21610.900000
92.025800 4152.800000
95.049300 13013.800000
97.010700 50035.500000
100.021500 5215.000000
105.033600 19086.200000
105.044700 7907.500000
109.010700 81545.200000
113.005600 7224.900000
113.016900 57204.100000
114.001000 78943.100000
115.032500 3705798.500000
117.057500 6700.300000
118.065000 5946.400000
121.028600 6469.600000
125.005600 21596.300000
125.016900 5355.500000
127.032500 14500.700000
135.997800 8295.600000
137.005600 28517.000000
141.011700 1198709.000000
146.060000 15790.700000
153.000500 85888.600000
164.016500 17085.100000
168.995400 25578.700000
182.026900 4973.500000
183.996400 4003.400000
210.021300 4112.700000

>ms2peaks
53.038600 25162.700000
54.033700 4311.300000
56.049500 50531.200000
57.057300 7026.600000
57.987200 6909.800000
58.028800 18163.600000
58.995100 15933.600000
59.966400 22510.900000
59.990200 42585.400000
65.038600 34947.100000
68.979300 5643.900000
69.044700 46749.200000
70.028700 86846.300000
70.994900 17637.400000
71.060400 10261.000000
71.990300 9114.500000
73.010600 2769104.800000
77.038600 10339.200000
81.033700 9111.000000
82.052600 7452.600000
85.010800 6281.300000
85.969600 15758.700000
86.005900 26695.500000
88.021600 516120.800000
91.054300 26116.000000
92.025700 11367.200000
95.049200 30475.400000
97.010700 74919.300000
100.021500 3491.400000
104.025500 4607.500000
104.049400 2833.600000
105.033500 23677.100000
105.044800 11787.400000
109.010700 86920.800000
113.005700 5088.100000
113.016800 58874.800000
114.000900 82528.600000
115.032500 2222301.800000
117.057400 9659.000000
125.005500 18989.900000
127.032500 6898.100000
135.997900 8416.800000
137.005800 18043.200000
141.011700 579828.900000
146.060000 5622.500000
151.992700 7216.000000
153.000500 41449.200000
164.016100 5395.600000
168.995400 11764.000000

