>compound LU83828365
>parentmass 308.1104
>ionization [M+H]+
>formula C19H17NOS
>rt 1165.320000
>profile orbitrap
#smiles_iso CC1=CC(=CC=C1)N(C)C(=S)OC2=CC3=CC=CC=C3C=C2
#smiles_can CC1=CC(=CC=C1)N(C)C(=S)OC2=CC3=CC=CC=C3C=C2
#inchikey FUSNMLFNXJSCDI-UHFFFAOYSA-N
#pubchem_id 5510
#mb_accession LU085001,LU085002,LU085003,LU085004,LU085005,LU085006

>ms2peaks
91.054500 23377.500000
120.080800 86995.500000
121.088600 55410.100000
129.069900 7855.100000
148.075600 5040690.000000
159.026100 51168.100000
164.052800 614254.800000
180.047700 1815661.400000
280.115500 35384.600000
308.110400 7098242.000000

>ms2peaks
91.053900 69254.700000
107.049300 33216.800000
108.080800 11727.500000
109.065000 16311.000000
120.080800 1324278.100000
121.088500 92111.600000
123.026200 40114.800000
133.052100 14873.000000
148.075600 11180439.000000
152.052800 77401.600000
159.026200 117884.300000
164.052800 988722.700000
165.024000 28856.000000
180.047700 1918053.200000
308.110400 303465.000000

>ms2peaks
55.017900 8531.400000
65.038500 59375.300000
67.054300 19610.600000
79.054200 35995.300000
91.054200 385819.800000
92.062000 19902.100000
93.070000 90003.900000
95.049200 16173.600000
103.054400 12571.400000
106.077800 8152.600000
107.049200 244658.100000
108.080800 61813.100000
109.064900 322818.200000
111.026400 12806.600000
118.065100 21763.400000
120.080800 6295837.500000
121.088500 51078.900000
123.026300 224911.600000
125.042100 17540.800000
133.052100 55496.200000
137.029700 7088.100000
148.075700 6706540.000000
149.029400 57648.300000
152.052900 142098.800000
159.026400 115970.700000
164.052900 791463.200000
165.024300 113034.500000
180.047800 560569.400000

>ms2peaks
53.038600 20740.600000
55.017800 17565.700000
65.038500 203316.500000
67.054200 62138.100000
77.038600 8834.600000
79.054200 182772.700000
80.049400 12499.200000
91.054200 1861567.900000
92.062000 141764.600000
93.069900 392266.900000
94.065200 12063.500000
95.049100 66936.200000
103.054300 39084.100000
104.049500 10961.500000
105.057400 31326.800000
106.065300 10774.100000
106.077800 14704.900000
107.049100 330655.800000
108.057000 13679.400000
108.080800 98921.700000
109.064800 854639.400000
111.026200 37579.800000
115.054200 44557.800000
118.065200 85237.200000
120.080700 8246459.500000
121.088300 36555.800000
123.026200 364775.300000
125.041900 29491.300000
128.061800 8755.500000
133.052200 150106.100000
136.021700 21978.900000
148.075600 1846242.000000
149.029300 146275.400000
152.052800 72506.300000
159.026200 78251.400000
164.052700 328705.300000
165.024200 131192.100000
180.047700 98470.400000

>ms2peaks
53.002300 6652.700000
53.038600 51322.000000
55.017900 21390.000000
56.013100 8358.300000
63.022800 8773.400000
65.038500 657507.100000
67.054200 67397.300000
77.038600 19159.500000
79.054200 313795.000000
80.049500 26161.600000
89.038500 6618.200000
91.054200 4491939.000000
92.049400 28388.600000
92.062000 348179.300000
93.069900 661089.900000
94.041500 8420.800000
94.065000 19441.800000
95.049100 153177.100000
103.054200 75824.500000
104.049500 54289.000000
105.057400 72663.000000
105.069900 11010.300000
106.065000 17290.600000
106.077800 11201.400000
107.049100 232821.200000
108.057200 19719.100000
108.080800 82166.200000
109.064800 870011.800000
110.060100 11244.300000
111.026300 40318.200000
115.054200 100711.600000
117.057300 6818.600000
118.065200 141769.600000
120.080800 5262545.000000
121.088500 13278.500000
123.026300 260187.500000
123.080200 16344.400000
125.041800 20720.100000
128.062000 8776.400000
132.044500 12663.600000
133.052200 186863.100000
136.021600 70861.200000
137.029400 12304.500000
148.075600 276039.400000
149.029400 163098.000000
152.052900 23872.400000
159.026300 33588.400000
164.052800 92691.600000
165.024200 71895.700000
180.047700 12915.400000

>ms2peaks
53.002200 14844.100000
53.038600 87759.200000
55.017800 19619.700000
56.013000 10396.400000
63.022800 32474.700000
65.038500 1722864.800000
67.054200 62806.500000
77.038400 34326.700000
78.046300 16160.600000
79.054200 368180.800000
80.049400 37972.100000
91.054200 7006884.000000
92.049400 36871.600000
92.062000 533393.600000
93.069900 626357.000000
94.041300 19287.100000
94.065200 25223.100000
95.049100 298889.500000
103.054200 96629.900000
104.049400 147356.600000
105.057300 119651.900000
106.065100 12145.600000
107.049100 100918.900000
108.056800 15691.100000
108.080700 40477.600000
109.064800 619125.600000
110.060000 18845.900000
111.026100 19959.600000
115.054200 162522.600000
117.057300 15862.000000
118.065100 156977.100000
120.080700 2545683.200000
123.026300 150890.800000
123.080100 10593.300000
125.042100 7126.100000
128.061900 11440.000000
132.044500 34005.800000
133.052100 153463.100000
136.021500 128069.100000
137.029100 9815.300000
148.075700 32900.900000
149.029300 126484.900000
159.026200 17721.200000
164.052600 16720.000000
165.024300 28802.300000

