>compound LU83823956
>parentmass 222.0696
>ionization [M+H]+
>formula C10H11N3OS
>rt 989.340000
>profile orbitrap
#smiles_iso CNC(=O)N(C)C1=NC2=CC=CC=C2S1
#smiles_can CNC(=O)N(C)C1=NC2=CC=CC=C2S1
#inchikey RRVIAQKBTUQODI-UHFFFAOYSA-N
#pubchem_id 29216
#mb_accession LU046501,LU046502,LU046503,LU046504,LU046505,LU046506

>ms2peaks
71.060300 12804.900000
124.021700 7652.600000
150.024600 6858.000000
164.041300 3349.400000
165.048200 3185625.000000
222.069600 1440287.000000

>ms2peaks
71.060400 15736.500000
124.021600 30072.700000
150.024400 9986.900000
165.048100 4141671.000000
222.069500 470231.200000

>ms2peaks
58.028800 8967.600000
71.060300 10184.600000
92.049500 13221.300000
124.021600 104142.000000
150.024700 86635.000000
165.048200 3699068.500000
222.069500 15150.700000

>ms2peaks
58.028800 29312.400000
65.038500 3663.400000
71.060300 11133.500000
80.049400 8402.600000
92.049500 110238.600000
109.010700 24563.700000
123.013700 5784.000000
124.021600 425489.200000
132.068300 7065.100000
136.021500 4553.900000
150.024700 709686.400000
163.032600 20424.100000
164.040600 3473.300000
165.048200 3231831.500000

>ms2peaks
58.028800 44649.100000
65.038600 20435.900000
71.060500 6870.000000
80.049500 55180.100000
92.049500 170634.600000
94.065300 2910.800000
96.003000 5534.700000
97.010800 5807.600000
106.065200 3106.100000
109.010700 78936.500000
111.026400 3486.700000
118.052600 5505.900000
123.013800 56563.600000
123.026300 3982.600000
124.021700 581603.800000
131.060500 2532.400000
132.068300 27344.200000
136.021700 11289.600000
138.037200 4753.000000
149.017000 4102.100000
150.024800 1562241.200000
163.032500 25214.700000
165.048300 1535139.600000

>ms2peaks
58.028700 51592.800000
65.038600 49001.100000
71.060200 3224.500000
80.049400 176423.300000
92.049500 168818.100000
94.065100 4097.500000
96.002800 49623.300000
97.010600 17530.400000
106.065300 2406.500000
109.010700 147365.100000
111.026300 8063.700000
118.052500 19900.900000
123.013700 281827.000000
124.021600 484775.300000
131.060500 9144.700000
132.068200 35951.000000
136.021600 21340.800000
138.037100 2977.000000
149.017000 4118.600000
150.024600 1922910.200000
163.032500 17990.600000
164.039700 2158.300000
165.048200 525891.600000

