>compound LU83316999
>parentmass 268.09279999999995
>ionization [M+H]+
>formula C11H13N3O5
>rt 676.000000
>profile orbitrap
#smiles_iso C1=CC(=CC=C1N[C@@H](CCC(=O)N)C(=O)O)[N+](=O)[O-]
#smiles_can C1=CC(=CC=C1NC(CCC(=O)N)C(=O)O)[N+](=O)[O-]
#inchikey IMTMBDXEKMXETQ-VIFPVBQESA-N
#pubchem_id 21115778
#mb_accession LU038901,LU038902,LU038903,LU038904,LU038905,LU038906

>ms2
84.044400 310988.300000
102.054900 24555.300000
122.047500 7086.900000
130.049900 1259775.600000
139.050200 344197.400000
222.087300 127313.300000
250.082100 3414.300000
251.066200 285897.900000

>ms2
56.049600 10318.400000
72.080700 2383.900000
84.044500 1293879.100000
85.028400 10870.000000
102.055000 48433.000000
122.047600 38998.500000
130.050000 974483.900000
139.050300 380968.000000
148.061000 2825.300000
165.029600 2805.500000
204.077000 5734.200000
205.061300 11029.100000
205.070700 2461.000000
222.087400 73717.100000
223.072000 3212.800000
250.082400 3605.800000
251.066400 308268.400000
268.093000 22486.900000

>ms2
53.002300 4717.100000
56.049500 54239.600000
57.033600 2549.200000
69.033600 3087.200000
84.044500 2132112.200000
85.028400 75575.000000
93.057200 4106.300000
95.012700 2264.300000
102.055000 51749.800000
122.047500 150167.000000
125.047200 3879.900000
130.050000 251419.200000
139.050300 193629.200000
158.084000 2419.700000
159.067600 2982.400000
165.029600 27868.100000
204.076800 19098.800000
205.061100 29024.100000
205.073500 7581.400000
222.087700 4565.100000
223.071200 3121.500000
237.063600 6173.100000
251.066500 92556.800000

>ms2
53.002200 7781.300000
56.049500 142092.900000
57.033500 8638.800000
69.033500 6058.300000
84.044400 2030055.400000
85.028400 65902.000000
92.049500 6256.500000
93.057400 15193.700000
95.012800 6082.500000
102.055000 25059.800000
117.057500 2418.300000
119.036900 2930.300000
122.047500 211654.600000
125.047000 10027.000000
130.049900 46255.800000
130.065200 7331.400000
131.073000 2392.200000
137.034900 4504.500000
139.050300 65901.800000
149.035000 2468.800000
158.084000 6827.900000
159.068100 8368.200000
165.029600 31876.400000
190.073800 8147.600000
191.057800 5457.800000
204.076900 8280.700000
205.061000 13666.000000
205.073400 11918.000000
237.063300 9466.600000
251.066600 6623.500000

>ms2
53.002200 15718.100000
53.997400 2462.100000
56.049500 291939.400000
57.033500 10051.400000
65.038600 6458.900000
68.049500 7036.100000
69.033500 3942.300000
75.022900 2241.200000
84.044400 1573776.000000
85.028400 37753.300000
92.049400 23720.000000
93.057400 23224.600000
95.012700 3291.800000
102.055100 7329.000000
108.044500 2884.800000
109.052800 2488.500000
110.060100 4828.800000
119.036600 4421.500000
122.047500 178707.600000
125.047200 17073.600000
130.050000 7529.100000
130.065200 16527.800000
131.073300 2499.700000
137.034600 3998.400000
139.050400 16732.000000
149.034800 5648.300000
150.030000 3079.900000
158.084000 11872.200000
159.068100 6320.700000
165.029600 9718.400000
190.073800 12825.100000
191.058000 5298.000000
205.061300 2350.800000
205.073800 3985.800000
237.063600 4591.900000

>ms2
53.002200 22033.500000
53.997400 3449.000000
55.017800 3914.700000
56.049500 394024.500000
57.033500 6457.700000
65.038500 15850.100000
67.041600 3013.400000
68.049500 12015.100000
69.033400 4023.200000
84.044400 961098.700000
85.028300 16690.700000
92.049400 42071.400000
93.057300 22533.100000
104.049400 3846.200000
110.060000 13639.400000
119.036900 2540.000000
122.047500 97987.200000
125.047100 21844.900000
130.065100 20457.700000
131.072800 3465.100000
149.034700 3400.100000
150.030000 4823.800000
158.083900 6426.100000
159.068400 3029.100000
181.065100 2777.900000

