>compound LU83715416
>parentmass 241.1295
>ionization [M+H]+
>formula C10H16N4O3
>rt 790.910000
>profile orbitrap
#smiles_iso CC1=CC(=NN1C(=O)N(C)C)OC(=O)N(C)C
#smiles_can CC1=CC(=NN1C(=O)N(C)C)OC(=O)N(C)C
#inchikey RDBIYWSVMRVKSG-UHFFFAOYSA-N
#pubchem_id 12572
#mb_accession LU075201,LU075202,LU075203,LU075204,LU075205,LU075206

>ms2peaks
56.013100 7649.700000
72.044400 6204207.500000
184.108300 12650.700000
196.071800 792843.000000
241.129600 509367.800000

>ms2peaks
56.013100 12074.400000
72.044300 7761881.500000
196.071700 328111.200000
241.129700 40379.600000

>ms2peaks
56.013100 26122.100000
72.044400 7161932.000000
196.071900 32565.000000

>ms2peaks
56.013100 56212.700000
72.044400 6929841.000000

>ms2peaks
56.013100 90975.400000
72.044300 6169878.500000

>ms2peaks
56.013100 135498.000000
72.044400 4581739.500000

