>compound LU83964947
>parentmass 292.9687
>ionization [M+H]+
>formula C9H10BrClN2O2
>rt 1059.780000
>profile orbitrap
#smiles_iso CN(C(=O)NC1=CC(=C(C=C1)Br)Cl)OC
#smiles_can CN(C(=O)NC1=CC(=C(C=C1)Br)Cl)OC
#inchikey NLYNUTMZTCLNOO-UHFFFAOYSA-N
#pubchem_id 25912
#mb_accession LU131804,LU131805

>ms2
60.044400 16818.000000
62.059900 7433.800000
125.002700 90892.600000
126.010300 3164.800000
142.005400 2086.700000
144.021000 2581.600000
153.021500 42435.400000
157.028800 2097.900000
165.021500 5298.400000
168.952200 29501.400000
176.910200 26307.100000
181.016400 27259.600000
182.024100 29019.400000
196.970700 2327.200000
203.921100 78721.100000
204.928900 52113.400000
260.942500 7715.600000

>ms2
60.044400 10496.600000
62.060100 2389.900000
125.002800 130748.600000
126.010700 13649.300000
142.005300 2628.400000
144.021200 6178.400000
153.021500 74749.000000
157.028800 1739.400000
165.022000 2647.000000
168.952300 46912.700000
176.910200 49640.100000
181.016500 20694.300000
182.024500 7972.900000
196.971200 3514.300000
203.921200 32429.900000
204.929000 48808.200000
260.942600 3066.100000

