>compound LU84442098
>parentmass 272.1063
>ionization [M+H]+
>formula C11H17N3O3S
>rt 810.960000
>profile orbitrap
#smiles_iso CCCCNC(=O)NS(=O)(=O)C1=CC=C(C=C1)N
#smiles_can CCCCNC(=O)NS(=O)(=O)C1=CC=C(C=C1)N
#inchikey VDTNNGKXZGSZIP-UHFFFAOYSA-N
#pubchem_id 9564
#mb_accession LU069801,LU069802,LU069803,LU069804,LU069805,LU069806

>ms2peaks
57.069900 52773.100000
72.080800 8613.600000
74.096300 1992138.900000
92.049500 7768.300000
108.044200 12175.800000
155.027300 28900.400000
156.011300 924750.900000
173.037900 96318.300000
272.106200 399853.500000

>ms2peaks
53.038700 2136.000000
57.069900 84721.000000
65.038600 4686.600000
68.049500 24017.500000
72.080700 11092.400000
74.096400 1354216.900000
78.034000 3078.700000
79.017900 5134.000000
92.049500 51216.700000
96.044400 3801.600000
107.060400 6514.200000
108.044400 179727.800000
110.059900 9236.400000
120.055800 5555.300000
155.027500 24051.400000
156.011400 1395017.200000
171.080900 4634.400000
173.038100 44494.700000
272.106500 8408.900000

>ms2peaks
53.002200 4928.200000
53.038600 6496.700000
54.033900 4795.400000
55.017800 10554.700000
57.069900 149135.200000
58.065200 3590.800000
65.038600 38005.900000
67.017700 1967.700000
68.049400 135648.900000
69.033500 8737.200000
72.080800 4179.500000
74.096400 699150.500000
78.033800 14675.400000
79.017900 20714.800000
80.049500 4220.800000
82.028800 3369.200000
92.049500 288640.100000
93.057400 5037.700000
95.036500 4882.000000
96.044400 19750.600000
107.060400 24966.000000
108.044400 713994.200000
109.052400 3573.300000
110.060100 86388.200000
117.102400 3002.500000
120.055700 19599.200000
155.027600 9686.500000
156.011400 739450.100000
171.080800 7623.800000
173.038200 4452.500000

>ms2peaks
53.002300 7639.200000
53.038600 6614.300000
54.033900 6525.600000
55.017900 10841.400000
57.069900 164523.700000
58.065200 4054.500000
65.038600 172376.300000
67.017800 2454.500000
68.049500 143723.200000
69.033600 9230.600000
72.080800 5169.600000
74.096400 255464.300000
78.033800 21058.700000
79.017900 24004.300000
80.049500 28671.200000
82.028700 4295.400000
83.048900 2148.300000
92.049500 543990.200000
93.057500 11466.600000
96.044500 18051.600000
107.060400 24348.700000
108.044400 807144.400000
109.052000 3158.500000
110.060100 192266.600000
117.102500 2139.300000
120.055700 26146.400000
124.075800 8480.400000
156.011400 129309.800000
171.080400 4596.200000

>ms2peaks
53.002200 8422.100000
53.038700 8853.100000
54.033900 4421.600000
55.017900 5580.200000
57.069900 161617.500000
58.065100 5119.000000
65.038600 608241.000000
68.049500 92933.200000
69.033500 8010.000000
72.080800 4472.800000
74.096400 103413.600000
78.033800 10295.700000
79.017800 11679.200000
80.049500 114936.900000
82.028800 3523.400000
92.049500 783584.600000
93.057400 22532.800000
95.036500 2480.400000
96.044400 16419.700000
107.060400 25981.100000
108.044400 747351.500000
109.052200 7153.600000
110.060100 237781.000000
120.055800 13142.600000
124.076000 5886.800000
128.062300 4738.500000
156.011500 21089.300000

>ms2peaks
53.002200 14598.400000
53.038600 11133.800000
54.033800 1861.500000
55.017900 3232.200000
57.069900 94813.900000
58.065100 5954.200000
65.038600 1009023.300000
68.049400 29870.900000
69.033400 2281.200000
74.096400 32063.300000
78.033900 3876.900000
79.017800 4604.500000
80.049500 217125.500000
83.049200 3512.700000
92.049500 527790.600000
93.057300 24582.800000
96.044600 3902.600000
107.060400 13603.700000
108.044400 446426.800000
109.052300 2556.100000
110.060100 130676.900000
120.055800 5666.300000
124.076100 3972.900000
128.062100 6104.500000

