>compound LU84593049
>parentmass 212.09169999999997
>ionization [M+H]+
>formula C10H13NO4
>rt 220.320000
>profile orbitrap
#smiles_iso C[C@](CC1=CC(=C(C=C1)O)O)(C(=O)O)N
#smiles_can CC(CC1=CC(=C(C=C1)O)O)(C(=O)O)N
#inchikey CJCSPKMFHVPWAR-JTQLQIEISA-N
#pubchem_id 38853
#mb_accession LU128401,LU128402,LU128403,LU128404,LU128405,LU128406

>ms2peaks
57.033500 3049.300000
88.039300 4402.200000
105.070100 2571.700000
123.043900 13617.500000
125.059800 2813.100000
133.064800 3019.300000
139.039000 410588.500000
149.059800 13154.000000
151.075500 40858.500000
166.086300 672447.900000
177.054900 13657.000000
194.081000 6165.800000
195.065300 410866.300000
212.091800 322194.300000

>ms2peaks
57.033500 2980.100000
88.039400 6515.900000
105.070000 5645.800000
111.044100 7018.000000
123.044100 27698.800000
125.059700 4673.900000
131.049400 2953.300000
133.064800 9914.400000
139.039100 623890.600000
149.059900 17368.200000
151.075500 43053.400000
159.043800 2192.200000
166.086400 777896.800000
167.070300 2372.900000
177.054600 14220.400000
194.081400 5246.300000
195.065300 227299.500000
212.091800 86637.200000

>ms2peaks
56.049500 8057.600000
57.033500 4763.300000
58.065100 2326.400000
65.038600 3554.500000
88.039300 11704.700000
93.033600 11852.800000
93.069800 1989.900000
94.065300 2280.100000
103.054200 16800.200000
105.069900 20372.100000
107.049200 4596.500000
111.044100 145428.200000
120.081000 5214.600000
121.064900 18601.200000
123.044100 82084.700000
125.059700 2695.700000
131.049200 66355.900000
133.064800 16986.700000
139.039000 728315.900000
148.075600 3979.500000
149.059800 58948.500000
151.075300 24287.900000
159.044000 3962.300000
166.086400 731096.200000
167.070300 2747.100000
177.054700 13062.600000
195.065200 17870.900000
212.091900 2423.000000

>ms2peaks
55.017800 2346.400000
56.049600 29072.200000
57.033500 3313.000000
57.057300 7277.200000
58.065100 6784.900000
65.038600 25974.100000
79.054200 7509.800000
88.039300 8253.000000
91.054400 4486.400000
92.049300 2845.300000
93.033600 61486.900000
93.070000 8405.300000
95.049200 5631.500000
103.054300 109145.400000
105.070000 30097.000000
107.049300 8852.100000
109.028400 3186.400000
111.044100 436702.200000
120.080900 13322.400000
121.064900 65513.500000
123.044100 95490.300000
125.060000 4386.000000
131.049300 170441.300000
133.052300 4969.900000
133.065000 13882.600000
139.039100 348966.100000
148.076000 10313.300000
149.059800 75931.600000
151.063000 8800.300000
151.075300 4335.100000
159.043800 4070.900000
166.086400 330535.900000
177.054600 4947.800000

>ms2peaks
53.038700 5187.700000
55.017900 4564.600000
56.049500 36770.900000
57.057400 11359.200000
58.065200 5867.700000
65.038600 125805.500000
67.054200 4949.500000
77.038600 2789.000000
79.054200 21923.500000
80.024800 2124.400000
81.017100 5313.400000
81.033500 3610.100000
88.039400 6993.200000
91.054200 10643.500000
92.049500 3138.900000
93.033500 113090.400000
93.069900 19662.900000
95.049100 19445.500000
103.054200 267851.900000
105.033600 3906.200000
105.069900 40988.800000
107.049200 7339.900000
109.028400 4293.200000
110.036300 3587.800000
111.044100 496909.200000
120.080700 20254.400000
121.064800 74346.100000
123.044100 95276.000000
125.059700 3702.300000
131.049200 142758.600000
133.051900 3607.000000
133.064700 4210.000000
139.039000 87665.100000
140.049200 1820.100000
148.075800 9529.300000
149.059700 37295.200000
150.055200 1921.600000
151.063000 23449.700000
166.086300 83749.100000

>ms2peaks
53.038700 17854.600000
55.018000 6145.900000
56.049500 30047.900000
57.057400 10232.300000
58.065200 2776.100000
65.038600 321333.900000
67.054300 9565.800000
77.038500 10255.100000
79.054200 28001.200000
80.024600 1704.900000
81.017100 9197.400000
81.033600 6868.500000
88.039500 1998.100000
91.054400 19090.100000
93.033600 97015.700000
93.070000 16271.900000
94.065300 2643.300000
95.049200 52825.600000
103.054300 374813.400000
105.033500 6832.900000
105.070000 23668.800000
107.049300 6427.800000
109.028400 6674.300000
110.036500 5310.700000
111.044100 351828.400000
120.080800 13899.200000
121.064900 37019.500000
123.044100 82699.700000
131.049200 68288.900000
133.052100 4285.800000
139.039200 16900.200000
140.049500 2650.200000
148.075800 4982.800000
149.060000 9790.100000
150.054700 2462.300000
151.063000 18594.200000
166.086500 15288.000000

