>compound LU84637120
>parentmass 232.1444
>ionization [M+H]+
>formula C13H17N3O
>rt 517.740000
>profile orbitrap
#smiles_iso CC1=C(C(=O)N(N1C)C2=CC=CC=C2)N(C)C
#smiles_can CC1=C(C(=O)N(N1C)C2=CC=CC=C2)N(C)C
#inchikey RMMXTBMQSGEXHJ-UHFFFAOYSA-N
#pubchem_id 6009
#mb_accession LU066301,LU066302,LU066303,LU066304,LU066305,LU066306

>ms2
56.049400 344314.600000
58.065100 215871.000000
70.065100 157036.400000
72.080700 329169.200000
82.065100 37187.400000
83.060400 7684.300000
84.080700 104364.600000
87.091700 140501.700000
97.076000 125549.100000
98.083800 944091.800000
99.091600 467483.500000
100.099400 6456.600000
106.065100 71185.800000
111.091700 2301320.500000
112.099200 6219.300000
113.107200 5960498.000000
118.065000 112669.200000
127.086500 74413.700000
133.076000 11227.900000
139.086500 403971.000000
144.080600 7746.500000
146.060000 48420.400000
147.091800 25871.000000
149.107300 180607.000000
158.059900 6626.900000
159.091700 289184.300000
161.107200 10076.600000
171.996200 22572.200000
173.107400 6795.300000
175.086600 92830.800000
177.102200 148707.100000
187.086600 476524.600000
188.094400 128853.800000
189.101900 15256.900000
201.102200 26821.400000
204.149500 44782.300000
214.134300 9296.500000
217.121200 69751.800000
232.144300 3919663.800000

>ms2
56.049500 810910.100000
58.065100 718700.600000
68.049500 16150.100000
70.065000 512252.200000
72.080700 820933.400000
82.065100 112024.500000
83.060300 13326.300000
84.068200 18321.800000
84.080800 246344.900000
85.076000 7382.200000
87.091600 132024.700000
96.068000 7426.600000
97.076000 419713.900000
98.083800 2135891.200000
99.091600 641438.300000
100.099400 6849.900000
106.065100 178376.800000
111.091600 3268314.000000
112.099500 9700.300000
113.107200 5773935.000000
115.086500 8151.000000
118.065000 199183.700000
127.086500 42389.700000
132.044300 22301.700000
133.076000 20470.500000
134.060300 7576.700000
139.086500 198325.300000
144.080700 13019.900000
146.060000 58255.400000
147.091700 23363.500000
149.107200 174123.300000
158.060100 17996.900000
159.091600 306203.300000
161.107100 8294.300000
171.996200 14127.400000
173.107400 9700.100000
175.086500 85063.100000
177.102200 215676.700000
187.086500 276636.600000
188.094300 110805.200000
189.102500 9473.700000
201.101900 24488.100000
204.149600 21969.600000
214.133700 23153.100000
216.113000 13364.300000
217.120900 80517.800000
232.144300 859366.900000

>ms2
53.038800 3420.500000
54.033800 3581.300000
55.041600 8220.600000
55.054300 5142.900000
56.049500 1587132.200000
57.057200 10016.000000
58.065100 2029044.200000
68.049400 23340.400000
70.065100 1266140.600000
71.073000 5240.200000
72.080700 1199824.500000
74.060000 5939.800000
79.054200 4476.100000
80.049300 4881.500000
82.065100 168179.400000
83.060300 22158.600000
84.044400 24657.300000
84.068100 46189.600000
84.080700 251678.800000
85.076200 4235.300000
85.088500 10702.500000
87.091700 77751.700000
94.065200 5868.200000
96.068100 22509.900000
97.076000 1272786.000000
98.083800 2367864.500000
99.091600 334329.300000
106.065100 303448.500000
111.091600 1982323.100000
112.099300 4414.100000
113.107200 1620142.100000
115.086500 13642.400000
118.065000 212228.000000
130.065000 8407.200000
132.044300 59429.100000
132.080600 10457.600000
133.076000 25296.700000
134.059800 18551.300000
139.086200 15330.200000
144.001300 7480.700000
144.080700 5141.000000
146.059800 46744.700000
147.091500 8801.600000
149.107300 98326.200000
158.060000 17252.800000
159.091600 185887.200000
161.107300 5959.600000
171.995800 7802.000000
173.070600 9170.200000
173.107400 10682.100000
175.086500 31648.300000
177.102200 103853.600000
185.070800 10422.700000
187.086400 33519.200000
188.094200 35425.100000
201.101900 12542.700000
202.097200 24147.000000
214.133600 6013.200000
216.113100 23209.300000
217.120800 26573.800000
232.144200 16458.300000

>ms2
53.038600 12484.600000
54.033800 5704.600000
55.041700 5539.800000
55.054200 4335.100000
56.049500 2308274.000000
57.057300 26684.000000
58.065100 2748968.200000
67.041600 8465.400000
68.049400 31685.400000
69.044600 5440.900000
70.065100 1574514.200000
71.073000 4308.800000
72.080700 1049859.600000
74.060100 8905.600000
77.038500 4687.400000
79.054300 13161.800000
80.049500 14756.800000
82.065100 189773.900000
83.060400 43558.400000
84.044400 33627.500000
84.068200 60334.400000
84.080800 171834.500000
85.076000 4043.800000
85.088600 13098.000000
87.091700 49643.600000
91.054100 4736.100000
92.049500 6225.700000
94.065100 11922.100000
95.049100 24426.000000
96.068200 30955.500000
97.076100 2213150.800000
98.083900 1289815.400000
99.091600 95308.900000
104.049500 11517.000000
105.044800 10791.400000
106.065100 342215.100000
111.091700 921781.200000
113.107300 320234.100000
115.086700 7549.100000
118.065100 177937.900000
128.049400 9235.900000
130.065200 24690.500000
131.073100 4302.600000
132.044400 56414.800000
132.080800 31418.000000
133.076200 22649.000000
134.060000 26806.500000
144.001300 5882.300000
144.080800 10062.600000
146.060000 38339.700000
147.091900 9897.100000
149.107300 52311.700000
158.060000 11102.500000
159.091700 116816.300000
173.071300 5726.300000
173.107700 6501.000000
175.086800 13052.900000
177.102400 16147.800000
185.071000 17810.300000
188.094500 4272.000000
199.086800 9196.900000
202.097600 16223.800000
216.113200 17040.600000

>ms2
53.038600 24061.900000
54.033900 8208.300000
55.041600 25459.400000
55.054200 16052.500000
56.049500 2906555.000000
57.057300 42196.700000
58.065100 3076020.000000
65.038600 3491.000000
67.041600 22178.300000
68.049500 35247.500000
69.044700 9829.300000
70.065100 1466476.000000
71.072800 7349.100000
72.080700 825836.100000
74.060000 11042.000000
77.038500 7490.800000
79.054200 43090.200000
80.049500 14711.500000
81.044800 4046.000000
82.065100 136169.500000
83.060300 82592.900000
84.044400 38383.800000
84.068200 39174.200000
84.080800 116406.400000
85.076000 5763.400000
85.088600 9720.800000
87.091700 25790.600000
91.054200 14923.700000
92.049400 6332.400000
94.065100 10206.400000
95.049200 70108.100000
96.068300 25048.000000
97.076000 2893469.200000
98.083800 524097.100000
99.091600 22418.800000
104.049500 32368.900000
105.044700 26254.700000
106.065100 347301.000000
111.091600 411421.600000
113.107200 61754.100000
115.053900 4953.700000
117.057100 11332.400000
118.065100 116679.300000
128.049300 17836.100000
130.065100 30883.100000
131.073000 6221.500000
132.044300 37741.000000
132.080700 41264.200000
133.076200 20220.000000
134.060100 17682.500000
144.001400 4648.800000
144.080800 4915.700000
146.059900 29220.600000
147.091800 7221.400000
149.107500 13059.500000
159.091700 51000.300000
171.055200 5161.300000
173.071100 8825.500000
175.086900 6231.900000
185.070800 21862.600000
199.086500 10278.200000
202.097200 8549.500000
216.112800 9678.300000

>ms2
53.038600 40003.700000
54.033900 16580.900000
55.041700 44669.400000
55.054300 21392.000000
56.049500 3053975.800000
57.057300 58054.100000
58.065200 2583884.800000
65.038600 10073.800000
67.041600 22792.600000
68.049500 43095.000000
69.044600 10966.200000
70.065100 957878.900000
71.072900 6189.500000
72.080800 522757.700000
74.060000 6611.300000
77.038500 15043.600000
79.054300 58367.900000
80.049500 13488.000000
81.044800 7984.400000
82.065100 65784.000000
83.060400 94996.100000
84.044500 15837.100000
84.068200 25641.000000
84.080800 60623.000000
85.076000 4780.600000
85.088700 8109.900000
87.091700 10990.300000
91.054300 32751.000000
92.049500 13296.700000
94.065300 9285.700000
95.049200 109619.000000
96.068400 21302.800000
97.076100 2751841.200000
98.083900 148010.100000
99.091900 4533.800000
104.049600 46815.900000
105.044800 46334.100000
106.065200 283110.300000
111.091700 151320.700000
113.107400 9512.200000
115.054200 6275.100000
117.057400 21313.700000
118.065200 64450.500000
128.049500 21056.600000
130.065200 25857.700000
132.044500 19876.700000
132.080800 40951.200000
133.076100 8305.400000
134.060100 6957.400000
146.060200 16424.000000
147.091900 8518.700000
159.092000 14249.700000
171.055300 4572.300000
185.071000 6010.000000

