>compound LU84917596
>parentmass 362.1154000000001
>ionization [M+H]+
>formula C19H20ClNO4
>rt 1039.980000
>profile orbitrap
#smiles_iso CC(C)(C(=O)O)OC1=CC=C(C=C1)CCNC(=O)C2=CC=C(C=C2)Cl
#smiles_can CC(C)(C(=O)O)OC1=CC=C(C=C1)CCNC(=O)C2=CC=C(C=C2)Cl
#inchikey IIBYAHWJQTYFKB-UHFFFAOYSA-N
#pubchem_id 39042
#mb_accession LU055901,LU055902,LU055903,LU055904,LU055905,LU055906

>ms2peaks
69.033500 15649.900000
87.044000 16162.300000
121.064600 94666.400000
138.994400 312418.900000
161.096000 28122.200000
178.122800 25027.600000
189.090700 17457.400000
207.101600 121363.600000
276.078600 1953803.600000
316.109900 3698148.500000
326.093800 15062.700000
344.104800 400367.300000
362.115400 2576990.200000

>ms2peaks
59.049100 70429.200000
69.033400 114444.200000
87.044000 214802.600000
91.054300 8979.900000
93.069800 9318.700000
103.054200 5740.200000
110.999700 10330.300000
119.085400 18358.700000
120.056900 30969.100000
121.064700 1988613.800000
133.064900 8105.000000
133.100900 4839.900000
136.075200 4821.800000
138.994400 4643970.000000
156.020500 11735.300000
161.096000 891498.200000
171.080500 7560.200000
178.122600 45671.800000
182.036900 17733.100000
189.090900 86728.500000
207.101500 161235.600000
276.078500 1010907.800000
299.083000 20210.400000
316.109800 1520186.200000
326.094500 24681.500000
344.104500 31408.500000
348.008900 5212.200000
362.115100 10933.300000

>ms2peaks
53.002200 6254.000000
59.049100 192517.800000
69.033400 96259.800000
75.022900 8077.100000
77.038300 6282.600000
86.999500 12677.800000
87.044100 194370.700000
91.054200 62751.000000
93.069900 148586.600000
95.049200 14933.600000
103.054200 58928.200000
105.069900 13182.400000
107.049200 14089.200000
110.999600 11339.800000
119.048900 14589.600000
119.085500 77739.700000
120.056900 62492.200000
121.064700 3516002.000000
129.010100 38001.100000
133.064800 47210.200000
133.101200 26237.100000
138.994500 5895825.500000
143.085700 16402.800000
146.072700 11966.100000
156.020700 17335.500000
161.096000 531306.800000
171.080500 19714.200000
182.036800 20527.400000
189.091000 49279.700000
207.101700 9046.100000
276.078500 28191.000000
316.110100 23050.600000

>ms2peaks
51.023000 4839.100000
53.002300 10144.000000
53.038600 35163.800000
55.017900 15377.700000
59.049200 236890.800000
65.038700 5637.200000
69.033500 62782.900000
75.022800 20228.800000
77.038400 12197.000000
79.017900 10322.700000
79.054100 7857.200000
86.999700 64324.400000
87.044100 93478.100000
91.054300 330227.100000
93.070000 532243.400000
94.041500 11320.300000
95.049200 101753.800000
103.054300 351189.600000
105.070000 37563.900000
107.049200 28615.100000
110.999400 24156.100000
111.044100 27546.200000
114.994500 7435.500000
119.049100 10907.100000
119.085600 58388.400000
120.057100 75840.900000
121.064800 3353201.200000
128.002500 5041.200000
128.062100 19298.500000
129.010200 188052.300000
132.057000 6546.100000
133.064900 57532.100000
133.101200 21211.200000
138.994700 4563737.500000
139.005000 460983.300000
143.085400 14105.100000
146.072800 21351.400000
156.020900 15037.400000
161.096200 107718.400000
182.036800 11843.700000
189.091100 10202.200000

>ms2peaks
50.015200 7375.800000
51.023000 8327.600000
53.002200 19543.600000
53.038600 129703.300000
53.997500 2873.900000
55.017900 35590.000000
59.049100 216492.100000
65.038500 19071.800000
67.054100 2877.900000
69.033500 33445.100000
74.015100 7712.500000
75.022800 73667.600000
77.038400 35425.600000
78.046400 5462.400000
79.017800 24966.900000
79.054200 19040.500000
81.033500 14281.400000
84.983800 2954.600000
86.999600 193407.800000
87.044100 34929.600000
88.978800 3335.400000
91.054200 797793.200000
92.062000 4035.800000
93.069900 898223.900000
94.041300 38093.500000
95.049100 408081.200000
98.036300 8044.100000
102.046300 14908.000000
103.054200 892199.000000
105.069900 52903.900000
107.049100 28858.900000
108.020600 3107.700000
109.064900 4377.000000
110.999400 62405.300000
111.044000 70890.700000
114.994300 18143.800000
115.054200 5637.400000
117.069900 9807.200000
119.049100 22257.500000
119.085500 26489.500000
120.056900 75527.400000
121.064800 2204897.200000
125.059800 3844.600000
128.002300 11764.100000
128.062000 24188.800000
129.010100 566285.000000
131.049200 7819.500000
131.085300 3974.300000
132.056900 8480.800000
133.064700 31436.300000
133.101000 5817.100000
138.994800 2719076.800000
139.005000 1244912.900000
140.002800 8989.900000
143.085300 4414.800000
145.064900 5947.600000
146.072600 17876.800000
156.020900 6781.400000
161.096000 11149.000000
171.080600 4281.500000

>ms2peaks
50.015200 11867.700000
51.022900 11658.400000
53.002200 33739.700000
53.038600 262526.900000
53.997500 2908.600000
55.017900 49308.200000
59.049200 168335.700000
65.038500 49842.200000
67.054100 4029.100000
69.033400 12332.000000
74.015000 25459.200000
75.022900 276800.700000
77.038500 94203.000000
78.046400 10009.400000
79.017800 36480.000000
79.054200 22651.400000
81.033500 33491.900000
81.069900 4571.300000
84.983900 11947.400000
86.999600 260995.000000
87.044100 15688.100000
88.978800 3430.200000
91.054200 1028586.800000
92.062100 7175.500000
93.069900 660170.400000
94.041400 67476.500000
95.049200 819875.100000
98.036300 6317.100000
102.046400 36401.100000
103.054200 1179448.900000
105.069900 38394.800000
107.049000 21206.900000
108.020300 2982.900000
109.064700 12957.200000
110.999600 144172.900000
111.044000 91760.000000
114.994500 18805.200000
115.054300 9353.200000
117.070000 8494.700000
119.049100 38780.400000
119.085400 7327.700000
120.057000 52753.700000
121.064800 869762.900000
125.059800 9004.000000
128.002200 14878.100000
128.062100 21448.900000
129.010100 798318.200000
131.049100 12628.800000
131.085100 3924.700000
132.056900 7233.600000
133.064800 10758.400000
138.994900 1111511.000000
139.005500 1592543.200000
140.002800 13483.900000
145.065000 5996.900000
146.072800 2910.600000

