>compound LU84346011
>parentmass 324.1343
>ionization [M+H]+
>formula C18H17N3O3
>rt 1017.960000
>profile orbitrap
#smiles_iso CCOC1=NC2=C(C=C1)NC=C(C2=O)C(=O)NCC3=CC=CC=C3
#smiles_can CCOC1=NC2=C(C=C1)NC=C(C2=O)C(=O)NCC3=CC=CC=C3
#inchikey DGFVZQGXKQCQGK-UHFFFAOYSA-N
#pubchem_id 9831581
#mb_accession LU128001,LU128002,LU128003,LU128004,LU128005,LU128006

>ms2
91.054200 322785.500000
108.080800 29715.400000
189.030700 10145.300000
217.060800 246746.800000
235.071400 1010250.300000
249.087100 45653.600000
281.128600 103433.100000
296.103800 9950.500000
306.123900 175484.000000
324.133400 7656739.500000

>ms2
65.038500 13862.500000
91.054200 3731070.800000
108.080800 154271.600000
189.029300 61857.800000
207.040000 264867.300000
214.061300 14399.900000
217.060700 624231.400000
221.056100 10565.900000
232.073000 7488.300000
233.056400 9985.200000
235.071300 5441906.500000
237.075900 12982.300000
249.087000 195887.700000
253.096800 37341.600000
281.128400 210925.200000
296.103400 11948.300000
306.123700 95733.200000
324.136400 579525.100000

>ms2
65.038500 64266.100000
91.054200 4639888.000000
108.080800 41924.800000
143.023600 6169.900000
145.039600 24449.000000
161.034500 72146.000000
163.050400 7075.600000
173.070800 5228.500000
175.050200 40036.000000
179.045000 8860.300000
189.029300 263445.900000
207.040000 2653682.800000
217.060700 205461.800000
221.055700 78672.000000
233.056000 9717.000000
235.071200 3488576.500000
237.075000 7422.500000
249.086900 111415.000000
253.097100 75991.000000
281.128700 26434.900000

>ms2
63.022900 7347.700000
65.038500 161397.800000
78.033600 6205.800000
91.054200 4841971.000000
93.044700 6829.400000
105.044600 24585.400000
108.080900 6016.200000
121.039400 8404.500000
133.039600 87625.000000
143.023900 41947.700000
145.039600 170528.900000
147.055200 7859.700000
161.034500 1098203.200000
163.050200 40375.200000
171.018800 10054.400000
173.071000 16775.500000
175.050200 93887.300000
177.065800 17383.900000
179.045100 116166.500000
189.029400 396065.200000
207.040000 4371485.000000
217.060700 32989.500000
221.055700 134838.800000
233.055800 5580.200000
235.071300 794121.800000
249.087200 32063.900000
253.096700 16106.300000

>ms2
52.018200 5985.500000
53.002300 10235.000000
54.033900 11673.800000
63.022900 8517.300000
64.018200 8451.800000
65.038600 356660.800000
78.033800 74607.700000
80.013200 4928.000000
88.018200 15672.500000
90.033900 6477.100000
91.054200 4797147.000000
93.044800 37953.000000
105.044800 196553.800000
106.028900 27845.700000
115.029300 20967.500000
117.044700 9976.300000
120.031800 7215.600000
121.039600 31801.900000
133.039700 362003.200000
143.024000 435526.600000
145.039600 362201.800000
147.055200 12004.500000
148.026900 5039.900000
151.050200 5914.600000
161.034600 2996519.800000
163.038500 4859.800000
163.050200 52735.300000
171.018900 69067.400000
173.071000 6641.700000
175.050200 109165.200000
177.065800 40757.200000
179.045100 229819.200000
189.029500 285888.500000
207.040100 2532730.000000
221.055700 88436.100000
235.071300 70425.800000

>ms2
52.018100 17828.900000
53.002200 24071.400000
54.033900 29615.300000
55.017900 8474.600000
63.022900 31486.900000
64.018200 55282.900000
65.038600 721920.600000
66.033800 14190.100000
78.033800 317081.200000
80.013100 26695.300000
81.044600 5778.500000
88.018200 114402.300000
89.038200 5719.800000
90.033900 17376.500000
91.054200 4257641.500000
93.044700 87893.200000
103.029100 16691.100000
105.044700 542322.100000
106.028800 100382.700000
112.039400 12458.400000
115.029100 142649.400000
117.044700 34254.100000
120.031600 19756.600000
121.039600 30942.800000
133.039600 439237.900000
143.024000 1348963.000000
145.039600 348070.300000
147.054900 16161.800000
151.050000 7106.000000
157.039700 8559.600000
161.034500 2921225.500000
163.038600 8461.300000
163.050200 41246.200000
171.018900 104801.900000
175.050200 108321.300000
177.065700 37658.700000
179.045100 131117.400000
189.029400 119463.200000
193.061300 4291.000000
207.040000 725754.100000
221.055400 23747.400000

