>compound LU84508147
>parentmass 278.0134
>ionization [M+H]+
>formula C14H9Cl2NO
>rt 1038.840000
>profile orbitrap
#smiles_iso C1C2=CC=CC=C2N(C1=O)C3=C(C=CC=C3Cl)Cl
#smiles_can C1C2=CC=CC=C2N(C1=O)C3=C(C=CC=C3Cl)Cl
#inchikey JCICIFOYVSPMHG-UHFFFAOYSA-N
#pubchem_id 27211
#mb_accession LU115001,LU115002,LU115003,LU115005,LU115006

>ms2peaks
180.081000 5161.000000
214.041400 10977.600000
215.050000 15381.800000
278.013400 4958964.000000

>ms2peaks
132.044300 31105.900000
165.938100 3903.400000
171.971400 62576.500000
180.080400 13714.900000
199.966600 5731.500000
208.075700 79246.600000
214.041600 147400.600000
215.049500 327575.100000
242.036500 5981.900000
243.044400 86655.000000
250.018400 40610.700000
278.013300 3642017.200000

>ms2peaks
79.054200 74027.800000
95.049100 4710.000000
104.049600 3324.400000
105.033500 47322.200000
107.049200 40729.400000
118.041300 4207.800000
125.015200 4355.800000
132.044400 143687.500000
133.052100 3630.700000
138.011000 2136.100000
159.971900 10126.000000
164.000900 4950.100000
171.971500 465740.300000
178.065300 2841.400000
179.073200 8190.000000
180.080700 152945.000000
199.966800 15325.600000
201.033900 7241.300000
207.067600 5752.600000
208.075800 532969.800000
214.041800 1429599.600000
215.049600 748663.100000
242.036700 31383.300000
243.044600 187711.900000
248.002600 8875.800000
250.018400 139821.000000
278.013400 1005916.400000

>ms2peaks
51.023000 4940.000000
53.038600 35400.800000
66.046300 4486.200000
76.018200 4438.300000
77.038400 12249.400000
79.054200 371671.200000
81.033500 3882.200000
84.984000 9183.500000
86.963300 6230.100000
89.038500 4492.200000
90.046500 4473.900000
91.054400 6062.900000
94.041300 6249.100000
95.049200 117292.900000
96.044500 6976.300000
98.999500 3788.900000
100.018200 6574.200000
104.049400 42778.200000
105.033500 112390.400000
107.049200 24400.300000
108.984100 13035.100000
111.994900 3200.200000
112.978900 2584.200000
117.057400 4765.200000
118.029100 3220.600000
118.041300 6632.800000
120.960600 3235.600000
125.015100 3767.200000
126.010500 3516.000000
126.994600 4451.600000
128.002200 5636.500000
132.044400 66365.800000
132.960900 8396.200000
133.052300 9820.400000
135.995000 4461.900000
137.002800 2784.500000
138.010300 3164.500000
144.960600 8471.800000
151.054300 3265.500000
152.062100 10622.100000
153.070100 4850.600000
154.005500 22146.100000
159.971500 4946.800000
162.971100 15758.900000
164.001000 118805.100000
166.005300 5725.100000
166.065000 6401.000000
169.064900 36271.800000
171.971500 374890.100000
172.966800 96949.800000
177.057400 16037.400000
178.065200 80471.200000
179.073000 163557.800000
180.080800 430185.100000
181.065000 3566.100000
196.075500 4311.500000
199.966700 4241.000000
201.034000 14084.400000
207.068000 37527.000000
208.075800 377836.400000
213.034600 4649.200000
214.041800 1640601.100000
215.049300 20133.100000
241.029500 6825.700000
242.037200 15373.700000
243.044200 13416.000000
248.002600 8153.600000
250.018500 8988.400000

>ms2peaks
51.023000 6891.900000
53.038600 73486.300000
66.046500 6051.600000
76.018200 5663.900000
77.038500 34022.100000
79.054200 381523.100000
81.033500 7092.000000
84.983900 16642.400000
86.963200 23637.200000
89.038500 10077.000000
90.046400 8865.300000
91.054200 4057.000000
94.041300 8289.900000
95.049200 212807.700000
96.044400 9005.500000
98.999600 5919.900000
100.018200 29550.000000
104.049400 42434.100000
105.033600 74836.900000
107.049200 9263.800000
108.984000 58711.400000
111.995000 3567.100000
112.978600 3454.700000
117.057200 2993.500000
118.028800 18253.200000
120.960700 4965.100000
125.015300 4448.100000
126.010900 3034.300000
126.994500 8665.400000
128.002500 8844.500000
132.044300 26635.900000
132.960800 10304.000000
133.052300 5532.900000
135.994800 18341.600000
137.002700 2667.300000
144.960700 24290.300000
151.053900 10282.300000
152.062200 48182.800000
153.069800 13706.900000
154.005400 18784.100000
159.971900 2148.200000
162.971400 19221.300000
164.001000 105032.900000
166.005600 4342.100000
166.065100 13428.700000
169.064800 112904.500000
171.971600 132052.700000
172.966900 138537.500000
177.057400 61022.200000
178.065200 197822.000000
179.073000 308316.200000
180.080800 509381.100000
181.065100 5542.100000
196.075400 5214.000000
201.034100 10009.300000
207.067900 64247.000000
208.075800 178262.500000
213.034400 6413.400000
214.041800 1142424.100000
215.049700 2934.100000
241.029000 4401.400000
242.036900 3679.300000
248.003100 7197.200000

