>compound LU84892454
>parentmass 373.285
>ionization [M+H]+
>formula C23H36N2O2
>rt 1060.260000
>profile orbitrap
#smiles_iso C[C@]12CC[C@H]3[C@H]([C@@H]1CC[C@@H]2C(=O)NC(C)(C)C)CC[C@@H]4[C@@]3(C=CC(=O)N4)C
#smiles_can CC12CCC3C(C1CCC2C(=O)NC(C)(C)C)CCC4C3(C=CC(=O)N4)C
#inchikey DBEPLOCGEIEOCV-WSBQPABSSA-N
#pubchem_id 57363
#mb_accession LU054101,LU054102,LU054103,LU054104,LU054105,LU054106

>ms2peaks
258.186800 20479.400000
373.284900 17952674.000000

>ms2peaks
57.069900 36571.800000
69.033500 29374.500000
72.080600 22778.600000
95.085500 28557.800000
121.101100 22732.900000
175.148300 17968.500000
177.163500 21584.200000
189.163200 19315.100000
220.169600 23264.100000
255.174700 19143.800000
274.216800 21925.600000
305.258700 616439.900000
317.222100 149741.400000
373.284800 16999892.000000

>ms2peaks
53.002200 15075.700000
55.017900 9565.300000
55.054200 10313.900000
56.049400 7187.200000
57.069800 992299.400000
67.054200 51805.800000
69.033400 748025.000000
71.049000 7210.300000
72.044300 137954.600000
72.080700 27094.200000
74.096300 38131.200000
79.054100 30853.000000
81.069800 246180.700000
83.049000 8478.600000
83.085400 20419.100000
86.060000 68491.000000
91.054000 20996.300000
93.069900 125712.900000
95.085500 486464.900000
96.044300 65639.700000
97.064700 7440.800000
97.101100 14300.000000
98.060000 145779.100000
100.075600 10778.800000
105.069800 52731.200000
107.085400 163065.100000
109.064800 14094.800000
109.101200 77602.200000
110.060000 49314.500000
111.116800 7940.900000
112.075700 8215.100000
117.069800 12284.200000
119.085400 74116.800000
121.064800 20318.900000
121.101100 243926.500000
122.059900 27481.500000
123.080300 12272.900000
123.116800 10539.100000
124.075600 36626.100000
126.091200 37703.800000
129.069800 12644.700000
131.085500 56217.300000
133.101100 133050.400000
135.080400 9397.600000
135.116700 112675.500000
136.075600 24377.900000
138.091300 32664.900000
140.106700 14582.800000
143.085300 32751.200000
145.101000 105716.800000
147.080400 19337.100000
147.116700 141828.300000
149.096000 15413.500000
149.132400 40850.400000
150.091400 23043.100000
152.106800 17134.100000
155.085600 15496.700000
157.101000 30066.400000
159.080400 12899.100000
159.116700 56420.800000
161.095900 46510.500000
161.132300 58177.300000
163.111700 24266.200000
163.147900 19366.200000
164.106900 24411.600000
166.122500 16321.500000
169.101000 17330.900000
171.116800 29032.400000
173.095800 19229.700000
173.132400 107351.300000
175.111600 29682.500000
175.148000 350852.900000
176.106900 19542.900000
177.163600 110161.400000
178.122600 33449.700000
180.137900 16067.500000
181.100700 17011.000000
183.116900 32075.700000
185.132400 112506.900000
187.112000 7495.800000
187.148000 129511.700000
189.163700 266361.800000
190.122900 10887.300000
192.137900 14333.300000
195.116400 25220.300000
197.132500 43045.700000
199.111800 15566.400000
199.147800 21647.500000
201.127000 28235.600000
201.163600 27392.900000
203.143000 59428.600000
203.179300 29677.800000
206.189800 8427.200000
211.147800 30529.200000
213.127200 15314.400000
213.163500 60166.800000
215.142800 76534.600000
215.179400 52128.200000
216.138200 9483.900000
218.153800 13994.600000
220.169400 148479.900000
222.185100 10886.300000
223.148400 10227.100000
227.143300 9854.700000
227.179000 89078.500000
229.158300 10247.200000
229.195100 42830.900000
232.169500 72016.000000
237.163400 101199.700000
239.143000 7303.400000
239.179300 63055.400000
241.157800 9352.300000
246.185000 22275.300000
247.148000 11264.900000
249.195900 98608.400000
254.190100 41371.300000
255.174200 180690.400000
256.205900 29543.000000
257.189800 43948.800000
258.184500 16667.300000
265.158300 30832.900000
272.200900 92836.300000
274.216300 98857.200000
276.231900 13293.400000
282.185300 34818.400000
283.169100 46571.300000
288.231500 20012.900000
299.210500 19317.200000
300.195900 36528.700000
305.258500 4178324.200000
317.222200 176344.600000
331.273700 35078.100000
355.274200 105686.800000
357.253400 32478.500000
373.284700 7059013.000000

>ms2peaks
53.002200 48466.100000
53.038600 12481.800000
53.997400 7117.200000
55.017900 47669.600000
55.054200 75116.000000
56.049500 45736.800000
57.069900 2315234.500000
58.065100 8290.000000
65.038500 11441.700000
67.054200 223713.900000
68.049400 6830.000000
69.033500 1740648.100000
70.028700 5882.300000
70.065100 44174.900000
71.049100 24511.500000
72.044400 259957.400000
72.080700 26183.500000
74.096400 20482.900000
77.038500 8538.000000
79.054200 198901.700000
80.049500 6395.300000
81.069900 548770.600000
82.065100 24092.100000
83.049100 13163.700000
83.085500 72265.500000
84.044400 15018.200000
84.080700 9578.400000
85.064800 5918.800000
86.060000 148635.100000
91.054200 169501.600000
93.069900 564295.000000
94.065200 14054.200000
95.085500 1233297.100000
96.044400 163872.500000
96.080800 24986.600000
97.064800 17580.200000
97.101300 31080.500000
98.060100 205732.600000
100.075800 12732.100000
105.069900 298405.100000
106.065200 10929.100000
107.085500 513290.500000
108.044400 9975.700000
108.080800 39415.700000
109.052100 22045.800000
109.064800 33534.300000
109.101200 194901.100000
110.060000 138348.500000
110.096500 25238.300000
111.080400 8987.400000
111.116700 4389.100000
112.075700 10999.900000
114.091300 4923.800000
117.069900 47639.300000
119.085600 305847.400000
120.080900 20742.100000
121.064800 49961.400000
121.101200 292814.400000
122.060000 100393.000000
122.096600 12083.100000
123.067800 7998.200000
123.080400 25994.000000
123.116800 15276.700000
124.075800 96057.500000
126.091400 67191.200000
128.062000 9812.300000
129.069800 38308.900000
131.085500 191163.800000
132.081100 3916.400000
133.101200 390798.000000
134.059900 5359.300000
134.096500 10957.200000
135.080400 25620.200000
135.116800 152387.900000
136.075700 48414.400000
136.112100 8473.600000
137.095800 7641.100000
138.091300 87969.400000
140.106900 31915.100000
141.069800 17062.300000
142.077300 6766.800000
143.085500 124266.700000
145.101200 300530.400000
146.096200 7248.100000
147.080400 43434.000000
147.116800 373195.500000
148.075800 14392.500000
148.112000 9829.100000
149.096100 35334.900000
149.132500 70723.300000
150.091400 40020.800000
152.107000 35349.000000
155.085500 70652.900000
156.093100 3828.400000
157.101200 86741.000000
158.096700 6615.900000
159.080500 34869.900000
159.116800 136611.200000
160.112000 12189.300000
161.096100 84026.100000
161.132500 129773.900000
162.091300 8416.900000
162.128100 5277.300000
163.111900 28660.200000
163.148100 24270.200000
164.106900 36277.800000
166.122600 16195.700000
167.085500 7968.700000
168.093600 4061.300000
169.101100 48524.800000
171.080500 9607.400000
171.116700 97835.100000
172.111900 4964.200000
173.096300 44929.500000
173.132500 188563.200000
174.127600 3802.400000
175.111800 49060.800000
175.148200 348091.700000
176.106900 33350.600000
177.163800 26667.800000
178.122600 29295.600000
178.159000 4946.900000
180.093900 3898.100000
180.138600 13395.300000
181.101200 41179.100000
182.109300 10951.900000
183.117000 60678.000000
185.096200 12629.100000
185.132500 195737.900000
187.148200 443517.800000
189.163800 304330.000000
190.122400 11525.700000
192.138400 12919.700000
193.101200 4010.100000
194.154000 20389.700000
195.116800 63785.800000
196.124300 3411.100000
197.132600 107796.200000
198.140400 3793.900000
199.111800 35810.000000
199.148000 30029.200000
201.127600 30892.100000
201.163800 23737.000000
203.143100 35567.800000
203.178600 5647.300000
204.174700 22394.300000
206.190500 6268.200000
209.132700 22309.600000
211.147900 35588.300000
213.127400 19177.800000
213.163800 82888.300000
214.159200 8508.400000
215.143100 191840.700000
215.179600 22094.400000
216.137800 5751.500000
218.154100 7546.000000
220.169500 92438.000000
222.140500 9492.600000
222.185500 6595.600000
223.112200 3887.800000
223.148100 16883.100000
227.142800 7413.300000
227.179400 62311.500000
229.158600 7816.900000
229.195100 14656.300000
232.169600 72404.700000
237.163800 75826.000000
239.143600 5349.100000
239.179600 25788.800000
240.174500 3177.500000
241.158600 11273.000000
246.185600 10569.900000
247.147800 10985.000000
249.196100 112252.400000
254.190300 48688.700000
255.174200 80624.600000
256.205700 18393.400000
257.190000 7431.100000
258.185700 10989.700000
265.158800 11673.500000
272.200800 43733.600000
274.217200 24555.500000
276.232500 3508.800000
281.201200 3436.100000
282.185600 24274.000000
283.169200 10139.500000
288.232200 9015.300000
299.211900 70009.900000
300.196000 8723.700000
305.258800 1863996.400000
317.222300 55372.900000
329.222800 5308.000000
331.274600 24232.400000
355.274300 89813.800000
356.257800 4693.500000
357.253500 63019.300000
373.285100 486025.600000

>ms2peaks
53.002200 99950.900000
53.038500 34549.300000
53.997400 14312.000000
55.017900 99703.800000
55.054200 176534.000000
56.049500 64414.000000
57.069900 2227294.200000
58.065100 12164.900000
65.038500 21424.900000
67.054200 503252.000000
68.049400 23478.900000
69.033400 1561093.400000
70.028700 4604.700000
70.065100 89534.700000
71.049000 14971.200000
72.044300 276447.200000
72.080800 17565.500000
74.096400 9596.800000
77.038500 11261.900000
79.054200 444869.500000
80.049400 17945.800000
81.069900 710373.500000
82.065100 33001.400000
83.049100 14923.100000
83.085500 63955.300000
84.044400 10520.000000
84.080800 12208.600000
85.064600 4379.300000
86.060000 89368.100000
91.054200 468086.800000
93.069900 778509.800000
94.041200 4622.900000
94.065100 24471.300000
95.049200 71346.100000
95.085500 1287459.900000
96.044400 183197.800000
96.080700 38565.300000
97.064700 12322.300000
97.101300 15322.600000
98.060000 133246.800000
100.076000 6723.800000
103.054200 12471.500000
104.049500 4807.500000
105.069900 559649.500000
106.065100 17147.000000
107.085500 454974.100000
108.044300 11648.600000
108.080700 57967.500000
109.052200 47607.700000
109.064800 40015.100000
109.101200 137024.000000
110.060000 155639.800000
110.096400 38705.500000
111.080400 7725.700000
112.075700 8772.400000
114.091100 3670.300000
115.054100 18084.800000
116.062000 6977.700000
117.069800 104887.700000
118.077800 3383.000000
119.085500 423253.800000
120.080700 23561.200000
121.064800 57898.800000
121.101100 187970.500000
122.060000 117927.800000
122.096300 20543.300000
123.067700 11797.500000
123.080600 13593.100000
123.116800 9825.200000
124.075700 70830.700000
124.112100 6339.900000
126.091400 29759.800000
128.061900 33408.400000
129.069800 88510.200000
130.077800 15630.300000
131.085500 265869.300000
132.080600 11333.500000
132.093100 4335.800000
133.064800 19332.400000
133.101100 353353.900000
134.059900 5670.100000
134.096500 15851.600000
135.080300 14491.600000
135.116800 81893.100000
136.075800 29289.600000
136.112100 10681.400000
137.096300 3476.600000
138.091400 47011.400000
140.106900 14394.500000
141.069900 24624.700000
142.077800 25068.300000
143.085500 167482.200000
144.080700 4528.700000
144.093200 10494.700000
145.101200 335927.000000
146.072500 4384.700000
146.096300 10540.900000
146.108700 7402.000000
147.080500 34443.500000
147.116700 262896.700000
148.075600 9692.000000
148.111900 8878.300000
149.096100 17301.500000
149.132500 40705.000000
150.091300 22429.400000
152.106900 11940.100000
153.069700 8261.200000
154.077800 5658.400000
155.085500 87942.200000
156.093400 14914.900000
157.101100 106199.200000
158.096400 4676.300000
158.108900 4649.700000
159.080300 22784.500000
159.116800 134152.900000
160.112000 16584.100000
161.096100 46338.400000
161.132400 71904.800000
162.091000 4796.600000
162.127700 4612.900000
163.111500 10649.200000
163.147700 4163.000000
164.107000 15686.300000
165.069800 11328.100000
166.077800 8418.400000
166.122800 5097.400000
167.085700 20457.400000
168.093100 9821.400000
169.101100 48003.500000
170.108700 13647.900000
171.079900 6868.500000
171.116700 65230.600000
172.124500 4377.300000
173.096100 22843.800000
173.132300 96450.000000
174.127300 5713.400000
175.111600 31981.400000
175.148100 101242.700000
176.107000 12530.500000
178.122700 8720.700000
178.158900 3124.500000
179.085700 5940.300000
180.093000 8459.400000
181.101000 32282.600000
182.108800 12886.700000
183.116800 33186.700000
185.095900 7439.200000
185.132500 99954.100000
187.148100 216319.400000
189.163700 45665.000000
190.122800 5423.900000
193.101700 6833.200000
194.108700 6234.800000
194.153600 6931.200000
195.116800 36269.500000
196.124400 6364.400000
197.132400 61009.700000
198.140400 4635.300000
199.111300 11627.000000
199.147900 10929.600000
201.127000 7095.400000
201.163200 7647.200000
203.142600 9179.600000
204.174400 13197.200000
206.189600 3222.200000
207.116900 7189.800000
209.132000 9670.200000
211.147800 13773.700000
213.127600 8163.800000
213.163500 19611.600000
214.158800 3707.200000
215.142900 57926.400000
215.179600 4765.800000
220.169600 23185.800000
222.140500 4586.400000
223.147500 4796.300000
227.179100 12834.700000
232.169100 14928.000000
237.164400 14601.100000
240.174700 13329.500000
246.185100 3213.000000
249.196300 28790.700000
254.190100 8750.900000
255.173900 8490.500000
256.205300 5859.700000
258.184300 7645.300000
282.184500 4261.900000
299.211800 62769.700000
301.191300 17314.000000
305.258700 142599.600000
317.222900 3327.000000
329.223200 3499.400000
355.274400 14388.000000
357.253900 44406.900000
373.284300 9003.600000

>ms2peaks
53.002200 135650.800000
53.038600 76663.800000
53.997500 21679.100000
55.017900 146843.300000
55.054200 283686.600000
56.049500 68746.700000
57.069900 1686933.100000
58.065100 9807.500000
65.038500 66063.700000
67.054200 803440.300000
68.049400 40948.200000
69.033400 1178237.500000
70.065100 97542.100000
71.049100 10059.300000
72.044300 228961.100000
72.080700 12719.400000
74.096300 5637.400000
77.038400 22387.600000
79.054200 667616.200000
80.049400 28079.300000
81.069800 657486.100000
82.065100 48090.000000
83.049100 11487.300000
83.085500 46027.700000
84.044400 9695.900000
84.080700 14610.600000
86.060000 40788.800000
91.054200 836512.000000
93.069900 706399.500000
94.041400 6492.800000
94.065200 40962.000000
95.049100 161711.400000
95.085500 949361.200000
96.044300 161423.700000
96.080700 38684.000000
97.064800 11038.600000
97.101200 6690.800000
98.060000 70149.600000
103.054100 35435.700000
104.049500 17930.300000
105.069900 752780.600000
106.065000 20091.400000
107.085500 266328.800000
108.044300 12907.800000
108.080700 55365.100000
109.052200 74659.600000
109.064700 40824.800000
109.101200 59803.500000
110.060000 159143.200000
110.096400 22030.100000
112.075700 5223.200000
115.054200 44926.000000
116.062000 21221.500000
117.069800 180438.000000
118.077500 6158.000000
119.085500 390524.100000
120.080800 26099.200000
121.064800 37239.500000
121.101100 83699.900000
122.060000 131097.700000
122.096300 14569.200000
123.067700 15258.500000
123.080500 8320.400000
123.116700 4618.200000
124.075700 40320.700000
124.112100 3261.200000
126.091300 10851.300000
128.062000 84786.700000
129.069800 126133.800000
130.077600 48725.700000
131.085500 274661.000000
132.080800 17509.400000
132.093600 8507.500000
133.064800 15501.200000
133.101100 174825.800000
134.059900 3376.100000
134.096400 14559.000000
135.080300 10889.600000
135.116700 29282.300000
136.075800 19049.600000
136.112200 7579.300000
138.091100 9803.600000
141.069700 45594.700000
142.077700 59233.900000
143.085500 139223.200000
144.080700 11294.200000
144.093200 18662.900000
145.101100 247392.400000
146.072500 7233.600000
146.096300 15173.000000
146.109100 8805.700000
147.080200 14783.700000
147.116700 102340.500000
148.075800 7855.900000
148.112100 7507.700000
149.095900 8014.600000
149.132300 8231.900000
150.091300 12378.600000
152.106800 4470.300000
153.069600 15074.800000
154.077700 16858.300000
155.085400 78250.000000
156.093100 21635.900000
157.101100 78072.800000
158.096800 13652.200000
158.108900 6994.600000
159.080300 11932.200000
159.116700 80798.000000
160.112000 7864.200000
161.096000 17536.500000
161.132200 23522.800000
165.069900 26223.200000
166.078200 13461.300000
167.085600 29793.400000
168.093100 12565.100000
169.101100 37606.900000
170.108900 11519.200000
171.080500 5636.200000
171.116800 25378.000000
172.112000 7681.800000
172.124900 6098.800000
173.096100 12855.000000
173.132500 36433.700000
174.127800 4544.700000
175.112200 6837.400000
175.147900 21724.200000
179.085400 11211.500000
180.093500 12575.900000
181.101000 20683.100000
182.108900 17923.500000
183.116900 18556.800000
185.095900 5894.300000
185.132200 38152.900000
187.112000 4282.400000
187.148100 47831.800000
189.163700 3413.700000
193.100900 8583.400000
194.109100 6826.700000
195.116900 12253.100000
196.124300 5086.400000
197.132400 11854.000000
199.111900 3371.900000
199.147700 3410.000000
207.117000 9366.800000
209.131900 5760.400000
211.148000 3160.000000
213.163000 4134.200000
215.143100 5732.700000
220.169700 3472.500000
240.174500 23498.200000
299.212100 14209.000000
301.190900 29004.500000
357.254300 13912.200000

