>compound LU84455347
>parentmass 377.2111
>ionization [M+H]+
>formula C25H28O3
>rt 1018.020000
>profile orbitrap
#smiles_iso CCOC1=CC=C(C=C1)C(C)(C)COCC2=CC(=CC=C2)OC3=CC=CC=C3
#smiles_can CCOC1=CC=C(C=C1)C(C)(C)COCC2=CC(=CC=C2)OC3=CC=CC=C3
#inchikey YREQHYQNNWYQCJ-UHFFFAOYSA-N
#pubchem_id 71245
#mb_accession LU103901,LU103902,LU103903,LU103904,LU103905,LU103906

>ms2
85.064900 12062.600000
95.085500 9899.500000
99.080500 4856.300000
101.059800 7385.800000
107.085700 2994.600000
109.064900 13002.300000
111.080400 2743.800000
119.085800 2472.200000
121.064900 5648.800000
123.080400 10358.200000
125.059900 11644.300000
135.080400 35106.300000
137.096500 5966.100000
139.075400 10036.800000
145.101200 9832.000000
147.080700 4015.100000
149.096100 10684.300000
151.075700 2712.200000
161.096200 35033.600000
163.075300 2385.200000
163.111700 2530.500000
165.091100 47348.700000
171.117000 3477.100000
173.096100 10684.700000
175.111800 10570.800000
177.091200 10127.500000
179.087200 2631.900000
185.096300 17638.200000
187.111800 10656.700000
189.127600 5250.400000
193.102700 4157.500000
197.096100 2189.400000
199.111900 5611.300000
201.091100 6271.000000
211.111700 3705.100000
213.127500 7786.200000
217.122100 9626.500000
223.111500 3741.700000
225.127400 4188.000000
227.106500 2840.300000
229.122400 12840.100000
231.138000 5608.100000
233.133800 6350.100000
237.127600 30036.300000
239.143400 7233.900000
249.127200 12062.200000
251.143200 70307.600000
253.158900 6929.000000
263.143300 4761.800000
267.138200 12673.600000
269.153900 16532.600000
277.159200 13752.100000
278.166900 5544.000000
279.174600 309228.200000
281.153600 4392.200000
293.189700 18805.700000
295.169300 17846.600000
297.147600 3122.600000
297.185100 54843.400000
303.174600 68631.000000
311.201200 22352.500000
321.185300 275318.700000
339.195900 310467.700000

>ms2
55.054300 2548.800000
81.069900 10692.100000
83.049200 3946.700000
85.064800 8346.600000
87.044200 2875.400000
93.069900 6508.300000
95.049100 6504.400000
95.085600 28163.000000
97.064800 4422.500000
99.044000 2207.100000
99.080500 7217.400000
101.059700 8231.200000
105.069900 7662.000000
107.085600 15617.000000
109.065000 19987.600000
109.101300 3677.300000
111.080500 7455.600000
119.085700 11017.400000
121.065000 30068.500000
121.101200 5382.800000
123.080500 29814.400000
125.059800 14417.700000
131.085700 2678.300000
133.101100 4171.200000
135.080500 135736.700000
137.096200 16217.100000
139.075400 10161.100000
143.085600 4756.800000
145.064900 6905.300000
145.101200 18695.200000
147.080500 26582.200000
147.116700 2510.800000
149.096200 19605.600000
151.075400 2390.500000
157.101200 5999.600000
159.080500 16931.200000
161.096200 118446.200000
163.075900 2556.800000
163.111800 7994.900000
165.091200 25892.900000
169.101400 2761.700000
171.080400 2595.200000
171.116900 8207.500000
173.096300 27465.100000
175.112000 20064.100000
177.091300 10314.700000
179.086800 2309.800000
183.081300 4155.700000
185.096300 58954.200000
187.111900 22204.600000
189.127400 19753.700000
193.101900 4120.900000
197.096400 8599.100000
199.112000 16218.300000
201.091500 10109.300000
201.127400 7544.700000
203.107000 6961.500000
209.096200 12795.700000
209.133300 4033.600000
210.105200 2053.700000
211.112100 13137.800000
213.127400 17187.400000
217.122500 5980.700000
222.103900 1966.800000
223.111900 24348.200000
224.118800 2487.400000
225.127600 19149.000000
227.107300 9493.400000
227.143800 4162.500000
229.122600 19389.600000
231.137700 5492.100000
233.133100 3942.100000
235.112100 6630.400000
236.119600 7119.700000
237.127600 100294.000000
239.143100 21014.800000
249.127900 16618.800000
250.135800 3848.200000
251.143400 96978.300000
253.159000 24631.600000
259.111600 5492.800000
261.127800 6612.800000
261.164000 4441.000000
262.135900 2705.400000
263.143000 14737.800000
264.151000 5418.700000
267.138200 18772.900000
269.153400 6941.800000
273.127300 2350.000000
274.136000 7168.600000
277.158900 21552.500000
278.166600 20556.500000
279.174600 309068.100000
281.153200 2542.200000
288.151400 13410.000000
293.190000 19879.700000
295.169300 18080.700000
297.149100 3181.100000
297.185100 28143.800000
303.174600 54727.700000
306.161700 6182.800000
311.199200 2976.300000
321.185400 94246.600000
339.195900 38905.500000

>ms2
55.054300 8909.900000
59.049100 4860.600000
67.054200 7669.900000
69.033300 2461.300000
69.069800 4805.800000
79.054200 10924.500000
81.069900 18940.600000
83.048900 3076.900000
85.064900 6307.600000
87.044000 5224.500000
91.054100 12356.500000
93.069900 20435.900000
95.049000 11853.900000
95.085500 43100.800000
97.064900 7239.400000
99.044100 2107.900000
99.080600 2774.300000
101.059800 2696.700000
105.069900 28287.400000
107.049100 6935.900000
107.085500 27448.100000
109.064900 20683.400000
109.101300 6369.100000
111.080600 6721.000000
115.054000 2875.000000
117.069900 6846.900000
119.085500 32100.500000
121.064800 67846.700000
121.101200 6998.700000
123.080400 24431.700000
125.059800 14135.100000
129.070000 4435.900000
131.085700 7972.600000
133.101200 14980.300000
135.080400 176110.000000
137.096200 9853.800000
139.075600 6661.700000
142.078000 2986.800000
143.085500 17325.300000
145.064900 12479.200000
145.101200 23259.100000
146.072600 2733.600000
147.080600 39516.700000
147.117000 6844.900000
149.096100 11836.600000
155.085800 2658.900000
157.101300 12444.200000
158.072800 2144.900000
159.080600 36300.800000
160.088500 2945.900000
161.096100 139645.600000
163.076000 2369.700000
163.111500 4643.600000
165.091200 6849.700000
169.101100 2547.200000
171.079900 9097.100000
171.117000 7311.200000
172.088400 7641.700000
173.096100 27777.000000
175.111700 18340.800000
177.090500 2828.200000
179.086500 3557.300000
181.102000 4564.500000
183.080800 5322.200000
183.116800 3086.100000
185.096100 59751.400000
187.111900 23421.500000
189.127500 12118.700000
193.101000 4408.300000
195.080600 6892.000000
195.116900 5463.700000
196.088600 3578.200000
197.096400 12632.300000
198.104000 4352.400000
199.111600 17748.400000
201.092000 4804.900000
201.127400 4731.400000
203.086200 2512.400000
203.106500 3420.800000
204.093600 3391.000000
205.101200 2063.800000
206.109300 1948.800000
208.088400 6279.900000
208.124700 2061.600000
209.096100 27910.800000
209.132800 5559.000000
210.104000 11317.100000
211.111500 21063.200000
213.127500 15797.400000
217.101600 2420.500000
217.122900 4232.100000
218.109000 5619.900000
219.117200 5982.200000
220.089000 2976.800000
221.096200 4614.900000
221.133900 2888.000000
222.103900 21954.800000
223.111800 32922.700000
224.119500 12910.800000
225.127300 19578.800000
227.106900 10765.200000
227.143900 2518.200000
229.122500 15831.100000
231.117000 3161.600000
233.132800 6842.300000
234.103600 2894.000000
235.111600 14456.200000
236.119600 28152.500000
237.127400 69371.000000
238.135700 4633.900000
239.143300 13851.100000
246.103900 1897.400000
247.111600 4137.200000
247.148400 4746.200000
248.119600 7018.300000
249.127400 20114.600000
250.135000 7662.600000
251.143200 54983.300000
253.158700 12463.500000
259.112000 11336.500000
260.119300 4385.000000
261.127600 6601.000000
262.135900 7866.200000
263.143300 25497.700000
264.150600 8617.700000
267.138500 5217.000000
273.127100 10890.100000
274.135500 7376.100000
277.159000 10256.100000
278.167400 13479.900000
279.174300 109659.100000
281.154700 2275.300000
287.143300 2737.300000
288.150900 11227.600000
293.189900 5770.100000
295.171100 2598.200000
303.174500 14798.100000
306.162300 2300.500000
321.185300 4990.900000

>ms2
53.038700 5988.500000
55.018000 2206.400000
55.054200 13548.100000
59.049200 6946.300000
67.054200 18646.100000
69.033600 7913.500000
69.069900 6715.100000
79.054200 26243.000000
81.069900 20635.400000
83.049300 5847.800000
85.064900 2425.600000
87.044100 7272.800000
91.054300 55728.200000
93.069900 33321.100000
95.049300 13585.600000
95.085500 37935.200000
97.064900 7438.700000
99.044200 3636.800000
103.054400 3407.300000
105.069900 72990.500000
107.049200 10439.800000
107.085500 48547.400000
109.064900 14736.800000
109.101300 4743.300000
111.080500 5425.800000
115.054200 19571.100000
117.069900 37972.400000
119.085600 43568.600000
121.064800 96315.500000
123.080400 12028.300000
125.059900 7879.100000
128.062200 8400.000000
129.069900 10632.300000
130.078100 4206.600000
131.085600 16501.100000
132.057000 2136.500000
133.065100 5795.700000
133.101300 26590.000000
135.080500 152003.300000
137.096300 4200.200000
139.075400 3197.400000
141.070400 3725.000000
142.077800 11416.700000
143.085700 25731.000000
144.057000 2142.800000
145.064800 18595.500000
145.101300 19183.700000
146.072500 15808.200000
147.080500 29230.300000
147.116800 3007.000000
149.096400 5176.600000
153.070700 3225.300000
154.077200 2154.600000
155.085700 7926.500000
156.093600 5544.000000
157.065000 3433.300000
157.101200 19496.100000
158.072600 14835.000000
159.080600 34627.700000
160.088500 5319.500000
161.096100 89698.800000
163.112100 2370.000000
165.070400 4132.200000
166.077800 2370.200000
167.085700 2981.300000
169.101600 3894.300000
171.080300 10764.100000
171.117000 4738.200000
172.088400 15631.600000
173.096200 26473.200000
175.111900 10317.600000
177.091900 2653.600000
179.085800 7031.500000
180.094400 3948.400000
181.064900 3152.200000
181.101600 5381.700000
182.072700 4701.400000
183.080800 8393.900000
183.117100 3031.200000
184.088600 4809.400000
185.096000 38725.200000
187.111600 10432.400000
190.077800 2515.300000
191.086500 3040.800000
192.093800 4422.800000
193.101500 9541.600000
194.073400 2655.100000
194.109400 5548.700000
195.080400 16481.900000
195.117000 4464.900000
196.088500 10953.300000
197.096300 8513.700000
198.103800 3662.500000
199.111600 10211.300000
203.086200 6176.300000
204.093500 5189.300000
205.101900 6610.000000
206.109300 2670.000000
207.080600 6876.600000
207.117000 2610.000000
208.088200 19713.800000
208.124300 3704.400000
209.096200 38711.500000
210.104000 12321.900000
211.112000 10775.200000
213.127900 4433.500000
217.101500 4685.900000
218.109300 3428.000000
219.080800 4833.800000
219.117100 7027.400000
220.088500 3323.600000
221.095900 17106.800000
221.133100 2724.700000
222.104000 38710.200000
223.111800 25318.300000
224.119400 11081.700000
225.127400 5118.600000
227.106700 3693.100000
229.122300 3061.900000
231.081000 2283.500000
231.117400 4649.500000
233.096700 6525.100000
233.132500 3992.100000
234.103400 9153.900000
235.111800 18667.300000
236.119600 25443.700000
237.127300 23508.100000
238.135100 4741.200000
239.143500 2062.200000
245.096000 3274.700000
246.103900 2603.500000
247.111900 4858.000000
247.148700 5399.900000
248.119800 8199.900000
249.127500 28858.800000
250.135600 3146.100000
251.142700 10895.000000
253.158900 2758.900000
259.111700 14898.600000
260.119500 2745.000000
261.164500 2228.000000
263.143000 24624.100000
264.151600 4318.200000
273.127000 14160.500000
277.160300 4146.300000
279.174600 13491.800000
287.143100 2718.900000
288.151600 3130.800000

>ms2
53.038600 7714.900000
55.017900 4737.800000
55.054300 18040.400000
59.049100 4613.800000
65.038500 7014.900000
67.054200 26711.000000
69.033400 3450.600000
69.069800 2432.100000
79.054300 38317.300000
81.033500 2255.500000
81.069900 19432.100000
83.049200 4366.700000
87.044100 1988.000000
91.054300 107155.400000
93.069900 35160.400000
95.049200 24066.500000
95.085600 20989.700000
97.064900 2662.700000
103.054300 7632.800000
104.062000 1871.600000
105.070000 96539.500000
107.049200 15427.600000
107.085600 35976.100000
109.064900 14856.500000
109.101300 2367.300000
111.080600 2484.800000
115.054300 53140.900000
116.062100 6370.600000
117.069900 46350.200000
119.085600 27194.200000
121.064900 82747.600000
123.080400 8494.200000
128.062100 18329.300000
129.070000 15940.000000
130.077800 6309.200000
131.049100 3109.700000
131.085600 11261.300000
132.057200 3732.900000
133.064800 10172.900000
133.101300 21965.800000
135.080500 63313.600000
141.069900 15296.600000
142.077800 27268.700000
143.085600 15743.700000
144.057000 9005.900000
145.064800 21477.400000
145.101500 13397.600000
146.072800 25295.200000
147.080500 16345.000000
147.116700 2355.500000
152.061800 3676.200000
153.070000 6745.700000
155.085800 11073.000000
156.093400 5089.300000
157.064900 6274.600000
157.101400 9096.000000
158.072800 19083.800000
159.080500 21076.900000
160.087900 4765.700000
161.096100 26946.600000
165.070100 14659.900000
166.077600 6221.200000
167.086000 5004.500000
169.064800 3849.100000
169.101000 3281.400000
171.080500 11607.300000
171.116600 2237.000000
172.088300 10144.400000
173.096200 11441.900000
178.077300 8190.400000
179.085600 12101.100000
180.093400 4893.000000
181.064500 5903.500000
181.101400 5637.400000
182.072600 5576.000000
183.080800 9431.700000
183.117100 2481.900000
184.088000 2523.700000
185.096200 18436.500000
189.070000 3174.300000
190.078000 2347.100000
191.085600 6828.200000
192.093400 5749.300000
193.101300 14654.500000
194.072700 3919.900000
194.108900 3876.000000
195.080600 21702.600000
195.116300 4033.500000
196.088300 9582.500000
197.096100 4689.100000
198.103600 3120.300000
199.111300 2627.500000
202.077600 2653.800000
203.085500 12085.200000
204.093200 3947.200000
205.101300 7282.000000
206.108600 3294.500000
207.080700 11745.400000
207.116900 3215.100000
208.088600 21148.600000
208.124400 2490.600000
209.096400 30409.900000
210.103900 6958.000000
211.111700 4214.700000
215.085400 6287.600000
216.093100 4580.500000
217.101400 7104.200000
219.080500 5816.200000
219.117400 2958.600000
220.088600 5899.800000
221.096300 30281.600000
222.103900 25725.300000
223.111900 10208.900000
224.120000 4064.800000
230.108900 3407.400000
231.117200 5821.400000
232.090100 2063.200000
233.095900 8248.400000
233.133100 2220.000000
234.103800 7626.100000
235.112300 11891.000000
236.119700 8821.800000
237.126900 4186.300000
245.096100 2459.400000
247.111300 5313.100000
247.148400 2147.400000
248.119700 5756.200000
249.127300 10539.300000
258.104000 6259.400000
259.111600 10921.600000
263.143300 5942.700000
273.127400 2859.500000

>ms2
53.038600 17073.700000
55.017900 4100.600000
55.054200 18438.600000
59.049100 5238.700000
65.038600 15678.000000
67.054200 27913.300000
69.033500 5269.100000
69.070000 2279.300000
79.054200 42288.300000
81.033600 2896.700000
81.069900 12482.600000
91.054300 185258.800000
93.070000 26112.100000
95.049200 35101.600000
95.085700 11372.700000
103.054300 15625.900000
104.061900 2060.500000
105.069900 82965.300000
107.049200 16138.600000
107.085600 19840.700000
109.064900 13365.500000
111.080500 2390.700000
115.054300 96019.400000
116.062000 14114.800000
117.069900 39133.100000
119.085600 19786.500000
121.064900 53492.800000
123.081100 2685.100000
128.062000 33246.400000
129.069900 24514.500000
130.077800 6615.300000
131.049200 11302.800000
131.085600 9694.500000
132.057100 7335.800000
133.065000 5089.800000
133.101100 8865.800000
135.080500 22175.600000
141.069900 26477.700000
142.077700 25549.900000
143.085600 7453.300000
144.057000 7042.400000
145.064900 26783.300000
145.101000 4817.300000
146.072600 20430.500000
147.080600 2649.500000
152.062100 6667.200000
153.070100 9865.900000
154.077700 5179.700000
155.085700 10680.200000
156.093500 3119.100000
157.064800 11361.500000
157.101200 3837.900000
158.072900 14128.400000
159.080600 11283.800000
160.088100 2420.000000
161.096000 6643.600000
165.070100 25216.700000
166.077800 8112.100000
167.085500 8345.300000
169.065000 5704.100000
169.101000 2511.200000
171.080400 6128.400000
172.088200 6324.400000
178.077700 18089.700000
179.085700 25182.700000
180.092700 2576.500000
181.064900 12099.200000
181.101000 4428.000000
182.072800 6007.000000
183.080500 9349.700000
185.096100 4782.200000
189.070000 6480.800000
190.077800 7157.100000
191.085400 10367.000000
192.093300 7067.800000
193.101400 14474.700000
194.072800 7511.800000
195.080500 19293.500000
196.088500 5504.200000
197.096100 2621.000000
202.078400 8940.700000
203.085700 12934.200000
204.093500 4802.600000
205.101200 6836.500000
206.109700 2712.000000
207.080600 16351.200000
208.088200 12541.500000
209.096100 11371.500000
210.104200 2586.800000
215.085700 9616.400000
216.093500 5902.200000
217.101200 7858.400000
219.080700 9965.200000
219.117400 3128.500000
220.088400 2944.200000
221.096200 21406.100000
222.103900 6238.000000
223.111900 2938.900000
230.109600 3192.000000
231.080600 3098.400000
231.116700 2598.300000
232.088200 3842.100000
233.095700 9125.300000
234.103800 6799.400000
235.112100 7667.700000
245.095700 1991.300000
248.119900 3404.300000
249.127200 5064.600000
258.105200 3026.300000
259.113000 2448.800000
293.186500 1939.500000

