>compound LU84325201
>parentmass 630.1671
>ionization [M+H]+
>formula C30H32ClN3O8S
>rt 1090.260000
>profile orbitrap
#smiles_iso CN(C)C(=O)[C@@H]1C[C@H](CN1[C@]2(C3=C(C=CC(=C3)Cl)N(C2=O)S(=O)(=O)C4=C(C=C(C=C4)OC)OC)C5=CC=CC=C5OC)O
#smiles_can CN(C)C(=O)C1CC(CN1C2(C3=C(C=CC(=C3)Cl)N(C2=O)S(=O)(=O)C4=C(C=C(C=C4)OC)OC)C5=CC=CC=C5OC)O
#inchikey NJXZWIIMWNEOGJ-WEWKHQNJSA-N
#pubchem_id 9895468
#mb_accession LU039101,LU039102,LU039103,LU039104,LU039105,LU039106

>ms2
151.075400 765081.200000
153.054800 11545.300000
157.097200 95181.700000
185.026600 7562.700000
201.021600 1210677.400000
219.032100 220658.700000
233.047800 127244.500000
254.036700 113478.600000
270.031700 42710.800000
472.061900 7400339.500000

>ms2
79.018000 9928.700000
79.054200 24041.500000
81.069900 12997.900000
84.044300 24874.600000
92.025700 8646.800000
94.041300 39550.500000
95.049200 19863.000000
105.033500 103508.000000
105.044700 9250.300000
107.049000 42482.900000
109.064800 497266.700000
110.036200 11483.900000
121.064800 32391.300000
122.036000 112153.000000
125.059700 209645.300000
135.055300 46845.200000
137.059800 219944.000000
151.075400 320743.700000
153.054600 2195684.200000
157.097100 27283.700000
185.026500 19843.600000
201.021600 8412289.000000
203.025900 14924.000000
219.032200 1507492.400000
233.047800 953604.600000
254.036600 81799.000000
270.031700 101971.200000
472.062200 70980.800000

>ms2
52.030800 7915.100000
53.038600 90971.800000
55.017900 12236.500000
55.054200 9802.400000
65.038500 44268.800000
66.046300 12571.400000
67.054200 7870.400000
68.025600 26224.300000
68.997100 10058.600000
77.038500 32098.100000
79.017700 28306.400000
79.054200 243376.600000
81.033400 11955.200000
81.069900 114091.000000
83.049000 11293.800000
84.044400 31058.500000
91.054200 38206.700000
92.025700 77738.100000
93.033500 45187.600000
94.041300 282883.400000
95.049200 267343.100000
97.064800 17291.000000
105.033600 383715.900000
105.044700 108386.800000
107.012800 19303.500000
107.049100 213983.400000
109.064800 1539522.600000
110.036300 151358.500000
111.044100 134440.200000
121.028500 7351.000000
121.064800 31769.400000
122.036300 860916.800000
124.051900 32373.800000
125.059700 2407239.800000
135.055300 493016.600000
137.059800 318065.000000
139.075300 20825.100000
151.075500 103500.900000
153.054600 6731190.000000
171.010900 12493.000000
201.021700 2030857.500000
219.032200 382950.600000
233.047800 248271.000000
243.044500 19248.100000
254.037000 27340.100000

>ms2
51.023000 5183.300000
52.030800 4992.600000
53.038600 355051.600000
54.046500 4602.700000
55.017800 46061.200000
55.054300 15628.400000
63.022800 21186.000000
64.030800 10190.400000
65.038500 243337.100000
66.046400 33206.300000
67.054200 39270.800000
68.025600 28999.900000
68.997000 25930.800000
69.033500 7197.600000
72.044300 5442.000000
77.038500 92792.900000
79.017800 73111.600000
79.054200 563508.200000
81.033500 44584.100000
81.069900 153905.600000
82.041300 28245.200000
83.049000 10565.800000
84.044400 28129.200000
91.054200 64378.200000
92.025600 451492.000000
93.033500 166368.900000
94.041300 531960.800000
95.049100 1128720.800000
96.020700 5205.200000
97.064800 68284.900000
105.033500 252824.800000
105.044700 427351.400000
107.012700 162219.600000
107.049100 218820.100000
108.020600 7505.700000
109.064800 804834.600000
110.036200 596065.900000
111.044000 461743.700000
121.028500 27381.500000
121.039600 19364.300000
121.064800 36329.500000
122.036200 2044021.100000
123.044000 15150.100000
124.051800 43420.600000
125.059700 4300553.500000
135.055200 669918.900000
137.059700 55261.500000
139.075200 19899.000000
141.054400 8731.900000
151.075400 34853.000000
153.054600 3123882.500000
166.005300 7224.300000
180.080700 6776.900000
207.067900 11413.100000
214.042100 5991.500000
219.032400 19523.100000
233.047800 13627.900000
235.062600 8072.900000
243.044400 9610.600000
270.031500 15226.000000

>ms2
50.015100 4970.900000
51.023100 10202.100000
52.030800 3595.300000
53.038600 537477.800000
54.046400 11876.800000
55.017800 84708.100000
55.054300 7684.500000
63.022800 36923.100000
64.030700 22727.200000
65.038500 525861.800000
66.046400 69615.800000
67.054200 93330.000000
68.025600 21420.100000
68.997000 70162.200000
69.033500 12181.500000
72.044200 4200.200000
77.038500 165576.500000
78.046500 9129.600000
79.017800 251400.200000
79.054200 511728.000000
81.033500 70911.400000
81.069900 86819.400000
82.041300 77125.000000
83.012700 14374.900000
83.049100 9232.400000
84.044500 15945.700000
91.054200 49080.100000
92.025700 1042309.500000
93.033500 238291.300000
94.041300 500820.700000
95.049100 1642172.600000
97.064800 72717.900000
98.036200 4565.400000
105.033700 85161.700000
105.044700 658706.200000
106.041800 6734.400000
107.012700 588200.200000
107.049100 80407.500000
108.020500 15031.400000
109.028400 24742.700000
109.064800 207143.100000
110.036200 805946.800000
111.044000 440777.900000
121.028600 28073.000000
121.039700 31990.000000
122.036200 2039860.800000
123.043900 26710.900000
124.051800 26494.100000
125.059700 2971587.800000
135.055300 300581.600000
139.039100 7742.800000
139.075500 13885.300000
141.054600 10340.500000
153.054600 567398.600000
180.080800 12845.700000
207.067800 8498.200000
208.075700 10868.500000
235.063000 3210.400000

>ms2
50.015200 9481.600000
51.022800 15893.400000
52.030800 5171.800000
53.038600 571838.100000
54.046400 29978.400000
55.017800 121954.600000
55.054300 7613.200000
62.015100 4696.200000
63.022900 92646.800000
64.030700 64113.300000
65.038500 761415.400000
66.046400 138401.000000
67.054200 140423.300000
68.025700 18118.000000
68.997100 208938.700000
69.033500 28116.300000
72.044500 4753.700000
77.038500 245952.900000
78.046500 15807.300000
79.017800 828398.700000
79.054200 305935.200000
81.033500 96557.400000
81.069900 32577.800000
82.041300 188355.700000
83.012700 34299.900000
83.049200 10219.500000
84.044500 13408.100000
91.054200 44039.500000
92.025700 1623054.800000
93.033500 245317.500000
94.041300 417694.600000
95.049100 1883215.800000
97.064800 54940.100000
98.036200 14982.100000
105.044800 645451.300000
106.041700 7657.600000
107.012800 1252589.500000
108.020600 32039.700000
109.028500 60890.100000
109.064800 59428.000000
110.036200 838874.100000
111.044100 263437.200000
121.028400 25355.100000
121.039700 30980.800000
121.065000 8834.500000
122.036200 1375495.000000
123.044300 19483.100000
124.051900 21840.200000
125.059700 1487948.600000
135.055200 80986.600000
139.038900 19990.200000
141.054500 3647.500000
153.054600 74987.800000
180.080900 13095.700000
214.042000 3955.700000

