>compound LU85418316
>parentmass 281.1285
>ionization [M+H]+
>formula C17H16N2O2
>rt 875.160000
>profile orbitrap
#smiles_iso CC(=O)NC1=CC2=C(C=C1)C3=C(C2)C=C(C=C3)NC(=O)C
#smiles_can CC(=O)NC1=CC2=C(C=C1)C3=C(C2)C=C(C=C3)NC(=O)C
#inchikey XBZBRCVCSVLJJZ-UHFFFAOYSA-N
#pubchem_id 9352
#mb_accession LU042501,LU042502,LU042503,LU042504,LU042505,LU042506

>ms2peaks
180.081800 10852.400000
238.109200 21706.600000
239.117900 125216.100000
240.101300 12114.900000
263.117000 18589.000000
281.128200 9724560.000000

>ms2peaks
180.080400 37371.800000
181.088300 17288.500000
184.075500 9046.300000
196.099400 22344.400000
197.107300 197967.200000
198.091300 113792.100000
221.107300 47672.700000
222.091300 53370.800000
223.098900 20722.600000
236.107200 8762.200000
238.109800 52251.200000
239.117800 2382012.200000
240.101700 208174.900000
263.117700 355463.200000
281.128200 6995007.000000

>ms2peaks
153.069300 6057.100000
156.080900 36204.400000
157.065300 4641.700000
167.049100 27664.500000
168.080700 13065.400000
170.096400 16112.800000
171.080200 4793.100000
180.080800 414290.600000
181.064900 38540.400000
181.088600 295268.400000
182.073100 6626.100000
182.083900 10061.700000
183.067900 8071.400000
184.075900 173751.100000
185.060000 8068.800000
194.096700 28661.400000
195.091500 27611.100000
196.099800 273010.000000
197.107400 3058501.800000
198.091400 831910.900000
199.075700 23715.800000
206.084000 11239.900000
212.070500 21366.000000
212.107300 8901.600000
221.107400 384202.100000
222.091500 149994.400000
223.098900 42343.700000
226.086400 12190.500000
236.106900 13834.900000
237.102700 29317.500000
238.110300 110643.600000
239.117900 3734240.000000
240.101900 218678.000000
263.117900 408675.200000
281.128600 919936.000000

>ms2peaks
80.049300 6802.100000
130.065000 34917.200000
131.072900 7432.000000
139.054100 5987.900000
144.081100 17131.400000
152.062200 9368.900000
153.069800 64117.600000
154.065000 6348.300000
156.080800 142910.800000
157.064600 10595.100000
157.088700 7066.200000
166.065300 4993.600000
167.049100 87502.300000
167.085400 5476.700000
168.080700 99700.300000
170.096400 66551.100000
171.080200 7424.800000
180.080800 1771708.500000
181.064900 146212.500000
181.088500 1280112.900000
182.072700 19559.300000
182.083700 117557.300000
183.067700 36204.600000
184.075700 469290.400000
185.060500 11763.200000
194.096600 45287.400000
195.091800 167536.000000
196.099700 780709.800000
197.107300 4460816.500000
198.091200 656502.200000
199.075400 26414.100000
206.083700 16380.700000
212.070500 54239.300000
212.107100 5446.300000
221.107300 250872.900000
222.091300 75673.300000
223.098800 14722.000000
226.086200 8975.000000
237.102600 22333.200000
238.110100 64784.300000
239.117800 719392.300000
240.102000 41305.900000
263.117800 60873.500000
281.128500 30518.000000

>ms2peaks
54.033900 10706.700000
55.017900 3764.200000
80.049400 13916.100000
128.062300 5166.500000
129.069700 8410.900000
130.065200 95016.200000
131.049200 6032.400000
131.073000 14779.000000
132.068400 5418.200000
139.054200 4605.900000
143.073000 10346.800000
143.085600 7125.800000
144.080800 37591.300000
151.054400 3355.600000
152.062000 66709.300000
153.069900 281074.100000
154.065000 24961.400000
155.060500 3578.700000
155.073100 10208.500000
156.080800 186209.100000
157.064800 9626.300000
157.088900 14804.700000
163.054100 34758.100000
165.069900 10167.600000
166.065100 4548.900000
167.049200 74013.900000
167.072500 12389.100000
168.080800 194426.400000
169.064300 11679.900000
169.076100 5125.200000
169.088700 9740.000000
170.096400 94440.900000
171.080200 7764.000000
177.069700 5637.600000
178.065300 5335.400000
179.059900 3503.300000
179.073000 18458.200000
180.080800 3325009.000000
181.065000 140500.400000
181.088500 2067209.500000
182.072900 28640.700000
182.083800 310325.800000
183.067900 45251.400000
184.075700 426897.800000
185.059700 3754.200000
193.088200 12489.400000
194.096500 29521.400000
195.091800 422638.500000
196.099600 1086931.600000
197.107300 1791593.600000
198.091300 196447.300000
199.075400 13156.800000
206.083900 6875.200000
211.063200 8012.500000
212.070600 39703.800000
221.107100 39351.300000
222.091300 10654.800000
237.101900 7831.800000
238.109600 14064.300000
239.117700 38025.500000
240.101900 4470.400000

>ms2peaks
54.033900 21836.000000
55.017800 4218.400000
80.049400 21242.900000
128.062000 18395.500000
129.069900 22087.100000
130.065200 129424.600000
131.049400 6081.800000
131.072900 21912.100000
132.068300 6890.500000
139.054200 6166.000000
143.073100 19798.700000
143.085600 9780.200000
144.080800 40389.000000
151.054500 5598.900000
152.062100 373621.800000
153.069900 653884.900000
154.065100 56769.700000
154.077200 4435.300000
155.060500 23115.900000
155.073100 21455.200000
156.080800 143256.600000
157.064900 6509.900000
157.088500 16323.100000
163.054200 143256.900000
165.070100 42100.400000
167.049100 37805.300000
167.073100 40353.600000
168.080800 168382.800000
169.064800 44360.900000
169.076100 4695.400000
169.088500 28309.700000
170.096500 76348.200000
171.080500 4236.400000
177.069800 5266.600000
178.065100 31184.100000
179.060400 14350.100000
179.073100 53759.100000
180.080800 4151012.000000
181.064900 99886.700000
181.088500 1651905.400000
182.073400 21286.100000
182.083800 345406.100000
183.067900 39878.900000
184.075700 177233.000000
193.088500 13814.600000
194.096700 11055.300000
195.091700 732175.000000
196.099500 898134.900000
197.107300 355854.100000
198.091400 35582.900000
211.062600 21314.900000
212.070300 15659.000000
221.107200 4551.700000

