>compound LU85142250
>parentmass 218.1539
>ionization [M+H]+
>formula C14H19NO
>rt 905.040000
>profile orbitrap
#smiles_iso CCOC1=CC2=C(C=C1)NC(C=C2C)(C)C
#smiles_can CCOC1=CC2=C(C=C1)NC(C=C2C)(C)C
#inchikey DECIPOUIJURFOJ-UHFFFAOYSA-N
#pubchem_id 3293
#mb_accession LU042101,LU042102,LU042103,LU042104,LU042105,LU042106

>ms2peaks
136.075500 12527.600000
148.075600 47674.300000
158.017100 32579.900000
162.091400 40359.400000
172.112200 16963.100000
173.096000 10123.600000
173.120400 13331.500000
174.090700 14051.900000
175.099900 11479.200000
176.107000 135284.500000
188.106800 23052.900000
189.114600 38154.000000
190.122700 97131.200000
201.127500 10727.200000
202.122500 22651.800000
203.131000 25638.500000
218.153800 9085353.000000

>ms2peaks
83.085600 11874.400000
122.059900 11826.800000
134.059900 35140.500000
136.075700 32645.900000
144.001000 8327.800000
147.067800 14148.700000
148.075700 164297.000000
150.091400 8412.800000
158.017100 33741.000000
158.096500 12427.700000
160.075900 14610.900000
161.083600 10359.400000
162.091400 101294.400000
162.127500 8185.100000
172.112200 39149.500000
173.096300 25929.200000
173.120200 41755.100000
174.091400 52116.900000
174.127800 18824.500000
175.099300 39607.400000
176.107100 358096.100000
188.107100 90486.300000
189.114900 124351.900000
190.122700 335994.500000
201.127700 14934.100000
202.122800 71399.500000
203.130600 88479.300000
218.154000 7687376.000000

>ms2peaks
55.054200 9841.200000
57.069900 31858.100000
67.054100 3994.100000
71.085400 5139.100000
79.054100 8668.400000
81.069900 16436.700000
82.028700 5086.300000
83.085600 17890.800000
91.054200 3059.300000
97.101200 9264.800000
105.069800 4723.700000
106.065200 24794.400000
107.049200 8854.500000
107.085500 10213.900000
108.044300 4979.300000
109.052100 4851.500000
109.101100 6233.100000
110.060000 5387.400000
117.069900 3983.600000
119.085600 5542.300000
120.080800 66704.100000
121.101000 3257.000000
122.060000 53928.800000
130.065200 8811.300000
131.049500 4809.300000
131.073200 7309.100000
131.085500 4543.500000
132.081000 12549.000000
133.052200 27530.200000
133.064800 5419.700000
134.060000 217151.300000
134.096300 19732.000000
135.080300 8004.400000
136.075700 61274.100000
137.083400 12264.000000
138.091300 6780.500000
144.001300 8529.300000
144.055900 6317.700000
144.080800 28788.500000
145.064600 17005.500000
145.088700 6039.300000
145.101200 45836.800000
146.059900 46586.900000
146.096400 10815.700000
147.067800 115878.200000
148.075600 853583.200000
150.091300 36622.800000
155.085600 6734.200000
157.088300 19457.200000
158.017000 30186.300000
158.072400 19143.500000
158.096400 102311.500000
159.080700 4834.000000
159.104000 11088.400000
160.075700 135405.500000
161.083500 108468.600000
161.120200 16632.600000
162.091300 329235.400000
162.127500 43732.200000
163.099100 6152.800000
164.107100 3867.500000
172.032600 5015.400000
172.112100 84350.000000
173.096200 88609.700000
173.119900 114781.400000
174.091300 375847.600000
174.127800 30652.700000
175.099200 200493.400000
176.106900 582354.200000
188.107000 465977.200000
189.114800 353500.200000
190.122600 947180.000000
201.127500 19103.100000
202.122700 409049.600000
203.130400 179820.600000
216.138700 6496.700000
218.153900 2969103.200000

>ms2peaks
53.002200 2466.500000
53.038500 4406.300000
55.054200 21240.700000
56.049400 2779.200000
57.069900 56298.700000
65.038600 10301.800000
67.054200 6578.200000
69.069700 3767.200000
71.085300 3154.800000
79.054200 38895.200000
80.049400 4050.500000
81.057200 2931.500000
81.069800 34936.000000
82.028700 10899.000000
83.085600 14897.800000
84.044300 3644.600000
91.054200 20130.500000
92.049500 3648.500000
93.057100 3442.200000
93.069900 10308.600000
94.065200 11488.400000
95.049100 4863.500000
96.044300 5180.500000
97.101200 3008.600000
98.014000 2659.600000
103.054100 17770.500000
105.057700 3424.300000
105.069800 19605.500000
106.065100 133380.900000
107.049100 46400.500000
107.085500 19256.900000
108.044400 15403.900000
108.080700 6802.600000
109.052100 15621.600000
109.101100 5706.600000
110.060000 10239.800000
115.053800 2943.600000
116.049300 4149.200000
117.057400 5729.600000
117.069700 20400.900000
118.065000 17271.500000
119.049200 2192.600000
119.072900 12871.300000
119.085600 10132.400000
120.080800 191129.200000
121.064800 7388.400000
121.101100 6973.200000
122.060000 124339.000000
129.069900 8004.900000
130.041200 2519.300000
130.065100 28830.700000
130.077500 11755.000000
131.049200 20053.800000
131.073000 11395.600000
131.085400 10756.900000
132.080700 35975.200000
133.052200 160699.400000
133.064600 9161.200000
134.060000 528172.800000
134.096400 33160.700000
135.067800 9948.100000
135.080700 10955.000000
136.075700 43980.300000
137.083400 15143.600000
138.091200 9364.300000
143.073100 6151.300000
143.085600 3149.700000
144.001200 9398.700000
144.055900 21256.500000
144.080800 49726.900000
145.064800 27380.700000
145.089000 13004.300000
145.101100 84342.100000
146.060000 235539.000000
146.096300 68339.500000
147.067800 319637.200000
148.075600 1183703.200000
149.083200 6262.400000
150.091400 39125.200000
155.085500 15340.900000
156.080800 2756.200000
157.064500 3198.800000
157.088700 46589.300000
158.016900 11758.400000
158.072200 63097.100000
158.096400 199254.200000
159.068000 15708.600000
159.080400 5086.900000
159.104400 17952.600000
160.075600 484796.700000
161.083400 224407.600000
161.119900 41773.300000
162.091300 303014.100000
162.127600 64962.700000
163.098900 7938.300000
164.106900 6933.300000
172.112100 86364.000000
173.083200 7263.600000
173.096300 66066.400000
173.119900 81901.600000
174.091300 888143.600000
175.099100 260810.400000
176.106900 250406.000000
188.107000 751853.000000
189.114800 250605.100000
190.122600 571810.200000
201.126900 7526.000000
202.122600 644689.000000
203.130300 81616.400000
216.137500 3126.500000
218.153900 511024.800000

>ms2peaks
53.038600 5413.100000
55.017900 3546.000000
55.054200 14810.600000
56.049400 2164.000000
57.069900 24279.600000
65.038500 18906.900000
67.054200 4005.800000
69.069800 2666.000000
77.038300 2818.900000
79.054200 51923.500000
80.049400 5981.100000
81.057300 3711.200000
81.069900 16962.700000
82.028800 4993.800000
83.085400 3629.300000
84.044600 2572.300000
91.054200 26517.400000
92.049400 5095.800000
93.057200 4679.100000
93.069900 12024.000000
94.065100 12798.900000
95.049100 14510.700000
96.044400 3912.100000
98.014000 3539.000000
103.054300 29772.200000
105.057300 8793.700000
105.069900 23065.600000
106.065100 114979.300000
107.049100 66118.900000
107.085500 7773.700000
108.044400 15703.100000
108.080800 5359.200000
109.052300 18816.900000
109.101100 2984.900000
110.060100 9681.900000
115.054300 11254.200000
116.049400 5199.100000
116.062200 3063.400000
117.057200 13851.500000
117.069800 19601.400000
118.065100 43531.000000
119.049200 1923.900000
119.073000 26975.400000
119.085600 4565.400000
120.044400 8113.800000
120.080800 122413.100000
121.064700 8699.000000
121.101200 4175.200000
122.060000 93174.300000
128.061900 3764.500000
129.069900 14966.400000
130.041100 4025.300000
130.065200 24410.200000
130.077700 13705.100000
131.049200 14070.400000
131.073000 26093.200000
131.085400 3975.300000
132.080800 36546.300000
133.052200 196691.600000
134.060000 296807.100000
135.068000 12242.800000
135.080400 2840.300000
136.075700 10594.800000
137.083400 6566.300000
138.091300 3274.400000
143.073000 8658.400000
143.085700 4421.400000
144.001200 10870.900000
144.055900 27284.300000
144.080800 34308.200000
145.052400 2189.800000
145.065000 13049.800000
145.088500 8868.200000
145.101200 30406.400000
146.060100 276498.100000
146.096500 103638.400000
147.067900 169872.800000
148.075700 365389.800000
149.083500 5607.600000
150.091600 11330.800000
155.085200 9871.500000
156.080600 7940.900000
157.064600 4290.400000
157.088600 25784.000000
158.072400 46302.600000
158.096500 107368.600000
159.068000 31919.900000
159.103800 5439.300000
160.075700 506601.800000
161.083500 80274.800000
161.119900 20023.800000
162.091300 65047.600000
162.128100 10930.300000
172.112100 25569.100000
173.083700 5967.500000
173.096100 10669.100000
173.119900 9539.600000
174.091400 575357.600000
175.099200 65662.900000
176.106900 19784.000000
188.107100 276416.200000
189.114900 33395.400000
190.122700 73691.200000
202.122700 224396.300000
203.131000 5621.900000
218.154300 20915.000000

>ms2peaks
53.002200 6162.000000
53.038600 27336.700000
55.017900 7730.600000
55.054200 14738.600000
56.049500 3248.800000
57.069900 27068.000000
65.038500 91124.200000
67.054200 17523.500000
69.069900 4442.500000
77.038600 6818.400000
79.054200 143251.500000
80.049500 22169.700000
81.057300 9695.900000
81.069900 18867.500000
82.028800 5933.200000
91.054200 99966.100000
92.049500 16637.300000
93.057300 18467.900000
93.069900 25385.700000
94.065100 43933.100000
95.049200 59094.200000
96.044400 11450.700000
103.054200 86287.700000
105.057400 51916.700000
105.069900 55734.900000
106.065200 200919.800000
107.049200 167327.400000
108.044400 28795.200000
108.080800 6699.100000
109.052300 37623.900000
110.060000 19912.900000
115.054300 58534.400000
116.049600 22295.600000
116.062000 8877.500000
117.057300 75696.700000
117.069900 37561.700000
118.065100 200441.000000
119.049400 4183.400000
119.073000 49606.400000
119.085500 8409.300000
120.044600 10768.200000
120.080800 162964.600000
121.064800 23700.900000
121.101300 2260.100000
122.060100 152681.900000
128.062000 16516.000000
129.069900 65033.400000
130.041400 4489.200000
130.065200 80734.500000
130.077700 26061.000000
131.049100 25281.700000
131.073000 135889.600000
131.085400 9332.100000
132.080800 132040.800000
133.052200 467825.200000
134.060000 355706.700000
135.068200 11741.400000
136.075700 8476.500000
138.091600 4894.900000
143.073100 52762.300000
143.085500 9428.000000
144.001500 4710.600000
144.055800 55117.500000
144.080800 52690.800000
145.052200 8947.900000
145.064800 14661.800000
145.088600 38281.400000
145.101400 14396.300000
146.060100 646129.600000
146.096400 288376.300000
147.067900 176916.400000
148.075600 244929.300000
149.083600 5709.000000
150.091600 4958.700000
155.085400 6656.800000
156.080800 23839.000000
157.064900 24608.700000
157.088600 46536.800000
158.072500 51149.200000
158.096500 146753.000000
159.067900 125159.300000
160.075700 1059097.500000
161.083500 62687.000000
161.119900 11754.100000
162.091400 26968.200000
162.127800 4927.900000
172.112100 23577.300000
173.083600 30924.400000
173.096000 2966.100000
174.091400 917376.200000
175.099200 31263.500000
176.106700 3024.200000
188.107100 193317.900000
189.114800 13003.500000
190.122600 18963.400000
202.122700 145242.700000

